Sc1 H1 C124 N2 O1                       
   1.00000000000000     
    19.8192232050446933   -0.0142061933954570   -0.0397321661513430
    -9.9221049662193224   17.0676743743789672   -0.0446551783955148
    -0.0596433524897078   -0.1125281429483241   29.7598040441937570
   Sc   H    C    N    O 
     1     1   124     2     1
Direct
  0.4431323233698118  0.5040152727770619  0.4393967478432563
  0.4858135503311575  0.5476998662154292  0.5295347589195299
  0.0420258474159168  0.0840287437707692  0.3993835513827823
  0.0412443190124539  0.2082982698536006  0.3986146638233897
  0.0406869619219260  0.3329442055028238  0.3980173071000549
  0.0406670233148278  0.4583600815537673  0.3984222379855402
  0.0412829790228840  0.5837612233084849  0.3994489608500547
  0.0418859708234945  0.7091073808405028  0.3999882870313210
  0.0422732653419522  0.8344440303937789  0.3999845719684288
  0.0424958623830349  0.9595844823627482  0.3997591191808375
  0.1680146989015877  0.0855953780504638  0.3998527686802353
  0.1672166319428733  0.2098264561548119  0.3995826383988988
  0.1658318438898103  0.3339707373465658  0.3989816335339720
  0.1644613043446241  0.4585068225442057  0.3975010307157932
  0.1651788945634808  0.5837933231177661  0.3979614312401409
  0.1661868366745505  0.7092226286306590  0.3992737690010739
  0.1669017721494175  0.8345696647110042  0.3999085862145635
  0.1674749279464143  0.9600211957432196  0.3999232115478673
  0.2927157892018075  0.0853594412039758  0.3998767274227517
  0.2943486724643760  0.2125359889932741  0.4015068040332696
  0.2920998665912152  0.3371528467857006  0.4051914111404934
  0.2884734856777100  0.4586749396347187  0.4044831678744696
  0.2887869737509221  0.5845254769923313  0.3992358404242409
  0.2903993672885847  0.7092833830713355  0.3987012255958886
  0.2914129591753758  0.8342558432627672  0.3993925727747000
  0.2919961452457652  0.9595652434109929  0.3997237878674957
  0.4171579063929761  0.0837737784913529  0.3996314181574458
  0.4178112287057714  0.2092245415629082  0.3999430262657578
  0.4214847997894740  0.3371385573881748  0.4032212860131614
  0.4146312573064940  0.7076167715378414  0.4002692032334198
  0.4159595846579304  0.8330686849958819  0.3992747703139801
  0.4165528284289488  0.9583870326702583  0.3996113685786440
  0.5416860802998766  0.0824453061172372  0.3996905093585403
  0.5423137807752163  0.2076068068977564  0.3993930759236086
  0.5434889051115420  0.3325537647704855  0.3992759543941930
  0.5441450104288517  0.4555827987259278  0.4000897516089890
  0.5445952881625478  0.5807307745300001  0.4006546129436264
  0.5387511538571038  0.7037962075858220  0.4021387994035994
  0.5402874495440052  0.8311553702039611  0.4001544126835217
  0.5411670797700661  0.9570388008186075  0.3997743839423304
  0.6662781954145729  0.0819492474018109  0.4000222948906355
  0.6668619479229921  0.2073001721445038  0.3997785181202945
  0.6676727669607572  0.3325353856500005  0.3991385936337986
  0.6691268496923080  0.4579135102649614  0.3980153024768593
  0.6692587432695291  0.5826968215576410  0.3972166613617881
  0.6665671663348345  0.7068428425275235  0.3980232733107701
  0.6651056274976255  0.8306928142332339  0.3996655272295908
  0.6657892728936530  0.9565138515340819  0.4000569530914103
  0.7910731789275091  0.0820029805511381  0.3999774054300062
  0.7913922919695069  0.2072303327058909  0.3999611581432654
  0.7920033862317035  0.3326399542216087  0.3998703641912729
  0.7928498927810805  0.4581097562520396  0.3993739583641488
  0.7933104052561907  0.5833860417339914  0.3984799708479047
  0.7925836391412899  0.7083251080333759  0.3982094882857408
  0.7915715304298959  0.8326964242702836  0.3991590056243487
  0.7907803535506284  0.9568765606412647  0.3997954621896229
  0.9162627823726410  0.0827017763048243  0.3995463992226568
  0.9161053877049062  0.2075635025314343  0.3992783175070017
  0.9162600762223183  0.3327359255017793  0.3993848074082576
  0.9167078955222673  0.4581402516788280  0.3998246623518977
  0.9173451079822671  0.5836460110841142  0.3998702435149920
  0.9174822056455282  0.7090043038159334  0.3995568200226769
  0.9172331615572468  0.8338324316509966  0.3995056677519639
  0.9167479156065109  0.9583081321740951  0.3997355508421795
  0.0843519517404886  0.0431877457918658  0.3996106328980632
  0.0835813556054569  0.1673899390997345  0.3989498923799732
  0.0825397384945292  0.2917193940652466  0.3981459981158498
  0.0818376848243870  0.4166131264084991  0.3976188075865115
  0.0822666296410424  0.5418881528453594  0.3985391542992384
  0.0830948440453186  0.6673585127831194  0.3996300888722018
  0.0837105228321896  0.7927866456868754  0.4000248339730489
  0.0840875664555458  0.9180543926470585  0.3999240528815465
  0.2093241230360733  0.0435737676504316  0.3999172048392168
  0.2099908607687856  0.1694239076562805  0.4003546273098256
  0.2085305887261917  0.2933373447935449  0.4004699120979243
  0.2059722473481988  0.4173451968090210  0.3991141261831044
  0.2059906613819179  0.5420738043439457  0.3977189343976628
  0.2073807818233226  0.6674765865859208  0.3985745355976613
  0.2081838242538182  0.7927159665283412  0.3995739205123675
  0.2088245007148164  0.9180937652793534  0.3998885174366180
  0.3338819447953262  0.0430464524555194  0.3996994429937279
  0.3347717827504402  0.1690228017674957  0.4003450497600222
  0.3362516108946914  0.2964458934661533  0.4042533699149592
  0.3293671134783704  0.4190069465140970  0.4111403344792907
  0.3307482022124930  0.5445199783546221  0.4039494851253836
  0.3315018424632558  0.6674811128308731  0.3992591593610872
  0.3327064495104049  0.7924445553679119  0.3990820598762159
  0.3333880809082561  0.9176215828926821  0.3995851890234105
  0.4585106771890974  0.0416849675481985  0.3996618863108289
  0.4590732249069938  0.1670280197571329  0.3995355524785979
  0.4603511832533612  0.2925540018092611  0.4003122706174747
  0.4535424993897167  0.6632761734178189  0.4035933810383466
  0.4572398272803631  0.7909288591877142  0.3996132556956594
  0.4578990767165161  0.9163084132067324  0.3995521591646994
  0.5830962828684190  0.0404990484257490  0.3998351820444283
  0.5836185307487153  0.1657800037812064  0.3995946228123483
  0.5846307598105044  0.2907625521994324  0.3991051770217589
  0.5863213854426614  0.4154571830313817  0.3986203905108525
  0.5863627845835226  0.5413712170126134  0.3984497788057015
  0.5827850356951703  0.6630352062452656  0.3999373749199896
  0.5807316730344888  0.7876757262918659  0.4005736838086139
  0.5823890755040432  0.9147832060774563  0.3999636991973786
  0.7076614386414877  0.0400382110384068  0.4000882023040265
  0.7081839015341265  0.1654593248427599  0.4000163719239318
  0.7089022438422350  0.2907937521774300  0.3996587400140365
  0.7099207394155260  0.4162124497135686  0.3987604473374910
  0.7107156297325473  0.5414976593792874  0.3976686881467701
  0.7092295390184210  0.6660750259981446  0.3974317154266532
  0.7079343223675792  0.7903163664007181  0.3988868829448032
  0.7071216424633930  0.9145032633472577  0.3998352652867008
  0.8326719423056835  0.0404812636220038  0.3998286086271146
  0.8328634986871971  0.1656113859033936  0.3998273985663051
  0.8332396333412251  0.2908987505437462  0.3998493601747699
  0.8338293987821082  0.4162228047190392  0.3998552242088881
  0.8344469758449720  0.5416291321263862  0.3993421530905167
  0.8343989098155015  0.6670682384005276  0.3987143460159837
  0.8338714644057306  0.7917391662008596  0.3989503268383998
  0.8331511672201631  0.9160563233545013  0.3996671872442393
  0.9584464237288927  0.0417837784183142  0.3995946243635186
  0.9579062950383942  0.1662211909123355  0.3990953516331245
  0.9576439584352536  0.2910417090902351  0.3988505361313507
  0.9577851223842685  0.4163622093524876  0.3993094537283034
  0.9584304938556519  0.5418672223439853  0.3998579260275359
  0.9588604053212105  0.6672783316189481  0.3999126919869583
  0.9590324043898412  0.7924875348989744  0.3997256002815399
  0.9589021999062176  0.9173716655036256  0.3996992501312900
  0.4093090250366955  0.5838981396253486  0.4079795639741565
  0.4656864784156079  0.4169419175555831  0.4042121478985328
  0.4551044140766565  0.5218687713020290  0.5031274001665115
 
  0.00000000E+00  0.00000000E+00  0.00000000E+00
  0.00000000E+00  0.00000000E+00  0.00000000E+00
  0.00000000E+00  0.00000000E+00  0.00000000E+00
  0.00000000E+00  0.00000000E+00  0.00000000E+00
  0.00000000E+00  0.00000000E+00  0.00000000E+00
  0.00000000E+00  0.00000000E+00  0.00000000E+00
  0.00000000E+00  0.00000000E+00  0.00000000E+00
  0.00000000E+00  0.00000000E+00  0.00000000E+00
  0.00000000E+00  0.00000000E+00  0.00000000E+00
  0.00000000E+00  0.00000000E+00  0.00000000E+00
  0.00000000E+00  0.00000000E+00  0.00000000E+00
  0.00000000E+00  0.00000000E+00  0.00000000E+00
  0.00000000E+00  0.00000000E+00  0.00000000E+00
  0.00000000E+00  0.00000000E+00  0.00000000E+00
  0.00000000E+00  0.00000000E+00  0.00000000E+00
  0.00000000E+00  0.00000000E+00  0.00000000E+00
  0.00000000E+00  0.00000000E+00  0.00000000E+00
  0.00000000E+00  0.00000000E+00  0.00000000E+00
  0.00000000E+00  0.00000000E+00  0.00000000E+00
  0.00000000E+00  0.00000000E+00  0.00000000E+00
  0.00000000E+00  0.00000000E+00  0.00000000E+00
  0.00000000E+00  0.00000000E+00  0.00000000E+00
  0.00000000E+00  0.00000000E+00  0.00000000E+00
  0.00000000E+00  0.00000000E+00  0.00000000E+00
  0.00000000E+00  0.00000000E+00  0.00000000E+00
  0.00000000E+00  0.00000000E+00  0.00000000E+00
  0.00000000E+00  0.00000000E+00  0.00000000E+00
  0.00000000E+00  0.00000000E+00  0.00000000E+00
  0.00000000E+00  0.00000000E+00  0.00000000E+00
  0.00000000E+00  0.00000000E+00  0.00000000E+00
  0.00000000E+00  0.00000000E+00  0.00000000E+00
  0.00000000E+00  0.00000000E+00  0.00000000E+00
  0.00000000E+00  0.00000000E+00  0.00000000E+00
  0.00000000E+00  0.00000000E+00  0.00000000E+00
  0.00000000E+00  0.00000000E+00  0.00000000E+00
  0.00000000E+00  0.00000000E+00  0.00000000E+00
  0.00000000E+00  0.00000000E+00  0.00000000E+00
  0.00000000E+00  0.00000000E+00  0.00000000E+00
  0.00000000E+00  0.00000000E+00  0.00000000E+00
  0.00000000E+00  0.00000000E+00  0.00000000E+00
  0.00000000E+00  0.00000000E+00  0.00000000E+00
  0.00000000E+00  0.00000000E+00  0.00000000E+00
  0.00000000E+00  0.00000000E+00  0.00000000E+00
  0.00000000E+00  0.00000000E+00  0.00000000E+00
  0.00000000E+00  0.00000000E+00  0.00000000E+00
  0.00000000E+00  0.00000000E+00  0.00000000E+00
  0.00000000E+00  0.00000000E+00  0.00000000E+00
  0.00000000E+00  0.00000000E+00  0.00000000E+00
  0.00000000E+00  0.00000000E+00  0.00000000E+00
  0.00000000E+00  0.00000000E+00  0.00000000E+00
  0.00000000E+00  0.00000000E+00  0.00000000E+00
  0.00000000E+00  0.00000000E+00  0.00000000E+00
  0.00000000E+00  0.00000000E+00  0.00000000E+00
  0.00000000E+00  0.00000000E+00  0.00000000E+00
  0.00000000E+00  0.00000000E+00  0.00000000E+00
  0.00000000E+00  0.00000000E+00  0.00000000E+00
  0.00000000E+00  0.00000000E+00  0.00000000E+00
  0.00000000E+00  0.00000000E+00  0.00000000E+00
  0.00000000E+00  0.00000000E+00  0.00000000E+00
  0.00000000E+00  0.00000000E+00  0.00000000E+00
  0.00000000E+00  0.00000000E+00  0.00000000E+00
  0.00000000E+00  0.00000000E+00  0.00000000E+00
  0.00000000E+00  0.00000000E+00  0.00000000E+00
  0.00000000E+00  0.00000000E+00  0.00000000E+00
  0.00000000E+00  0.00000000E+00  0.00000000E+00
  0.00000000E+00  0.00000000E+00  0.00000000E+00
  0.00000000E+00  0.00000000E+00  0.00000000E+00
  0.00000000E+00  0.00000000E+00  0.00000000E+00
  0.00000000E+00  0.00000000E+00  0.00000000E+00
  0.00000000E+00  0.00000000E+00  0.00000000E+00
  0.00000000E+00  0.00000000E+00  0.00000000E+00
  0.00000000E+00  0.00000000E+00  0.00000000E+00
  0.00000000E+00  0.00000000E+00  0.00000000E+00
  0.00000000E+00  0.00000000E+00  0.00000000E+00
  0.00000000E+00  0.00000000E+00  0.00000000E+00
  0.00000000E+00  0.00000000E+00  0.00000000E+00
  0.00000000E+00  0.00000000E+00  0.00000000E+00
  0.00000000E+00  0.00000000E+00  0.00000000E+00
  0.00000000E+00  0.00000000E+00  0.00000000E+00
  0.00000000E+00  0.00000000E+00  0.00000000E+00
  0.00000000E+00  0.00000000E+00  0.00000000E+00
  0.00000000E+00  0.00000000E+00  0.00000000E+00
  0.00000000E+00  0.00000000E+00  0.00000000E+00
  0.00000000E+00  0.00000000E+00  0.00000000E+00
  0.00000000E+00  0.00000000E+00  0.00000000E+00
  0.00000000E+00  0.00000000E+00  0.00000000E+00
  0.00000000E+00  0.00000000E+00  0.00000000E+00
  0.00000000E+00  0.00000000E+00  0.00000000E+00
  0.00000000E+00  0.00000000E+00  0.00000000E+00
  0.00000000E+00  0.00000000E+00  0.00000000E+00
  0.00000000E+00  0.00000000E+00  0.00000000E+00
  0.00000000E+00  0.00000000E+00  0.00000000E+00
  0.00000000E+00  0.00000000E+00  0.00000000E+00
  0.00000000E+00  0.00000000E+00  0.00000000E+00
  0.00000000E+00  0.00000000E+00  0.00000000E+00
  0.00000000E+00  0.00000000E+00  0.00000000E+00
  0.00000000E+00  0.00000000E+00  0.00000000E+00
  0.00000000E+00  0.00000000E+00  0.00000000E+00
  0.00000000E+00  0.00000000E+00  0.00000000E+00
  0.00000000E+00  0.00000000E+00  0.00000000E+00
  0.00000000E+00  0.00000000E+00  0.00000000E+00
  0.00000000E+00  0.00000000E+00  0.00000000E+00
  0.00000000E+00  0.00000000E+00  0.00000000E+00
  0.00000000E+00  0.00000000E+00  0.00000000E+00
  0.00000000E+00  0.00000000E+00  0.00000000E+00
  0.00000000E+00  0.00000000E+00  0.00000000E+00
  0.00000000E+00  0.00000000E+00  0.00000000E+00
  0.00000000E+00  0.00000000E+00  0.00000000E+00
  0.00000000E+00  0.00000000E+00  0.00000000E+00
  0.00000000E+00  0.00000000E+00  0.00000000E+00
  0.00000000E+00  0.00000000E+00  0.00000000E+00
  0.00000000E+00  0.00000000E+00  0.00000000E+00
  0.00000000E+00  0.00000000E+00  0.00000000E+00
  0.00000000E+00  0.00000000E+00  0.00000000E+00
  0.00000000E+00  0.00000000E+00  0.00000000E+00
  0.00000000E+00  0.00000000E+00  0.00000000E+00
  0.00000000E+00  0.00000000E+00  0.00000000E+00
  0.00000000E+00  0.00000000E+00  0.00000000E+00
  0.00000000E+00  0.00000000E+00  0.00000000E+00
  0.00000000E+00  0.00000000E+00  0.00000000E+00
  0.00000000E+00  0.00000000E+00  0.00000000E+00
  0.00000000E+00  0.00000000E+00  0.00000000E+00
  0.00000000E+00  0.00000000E+00  0.00000000E+00
  0.00000000E+00  0.00000000E+00  0.00000000E+00
  0.00000000E+00  0.00000000E+00  0.00000000E+00
  0.00000000E+00  0.00000000E+00  0.00000000E+00
  0.00000000E+00  0.00000000E+00  0.00000000E+00
  0.00000000E+00  0.00000000E+00  0.00000000E+00
  0.00000000E+00  0.00000000E+00  0.00000000E+00
