Cu1 H1 C124 N2 O1                       
   1.00000000000000     
    19.8078950720307070   -0.0118866981044376    0.0267015431244703
    -9.9145987056950542   17.0384360488257620   -0.0194088576939998
     0.0401909269375062   -0.0105497630667382   29.8254174288373797
   Cu   H    C    N    O 
     1     1   124     2     1
Direct
  0.4374621264687680  0.4998445599778823  0.4138153070092708
  0.4846478392148198  0.5488694115209678  0.4901125328188095
  0.0422160473238255  0.0843257064258592  0.4002832833359656
  0.0413090884293803  0.2084236683830560  0.4005993137821132
  0.0405822853505857  0.3329354444448721  0.4001085784130172
  0.0404985666086095  0.4583226193376527  0.3994729161738586
  0.0412678413401291  0.5838007693786121  0.3991112524413158
  0.0419478853456609  0.7092222485275371  0.3991591604323098
  0.0423324220336707  0.8345751026599040  0.3992724811994694
  0.0425396518256711  0.9597743223145275  0.3996338328927957
  0.1682495369640290  0.0860231110087533  0.4011137666763841
  0.1678045438392501  0.2106070737606731  0.4022453014789639
  0.1658434012006627  0.3341484986872212  0.4023692119081387
  0.1642068678635963  0.4585368710182829  0.4010629131023818
  0.1651587626961941  0.5837940313094642  0.4002533646201887
  0.1662451170878113  0.7092065418285132  0.3995687527568416
  0.1669900042768094  0.8346587478355304  0.3994582104850644
  0.1675863207542969  0.9602418596159535  0.3998910790965293
  0.2928452211095401  0.0857382241065415  0.4009220792790031
  0.2946233055656914  0.2131029659461485  0.4029570135239841
  0.2935877821043667  0.3384786050067709  0.4053130930548174
  0.2881998366033660  0.4594545507838835  0.4038860378567699
  0.2888075184220783  0.5842835915758242  0.4022306882885592
  0.2904781135963361  0.7089959593329109  0.4007374614214785
  0.2915323161164297  0.8341808959688466  0.3997741388321811
  0.2921060027522925  0.9597230302312235  0.3998107768534486
  0.4172147318583299  0.0841463480059198  0.4003017860935805
  0.4179341631836736  0.2102121814661262  0.4019372513323184
  0.4213523041508935  0.3388343436695637  0.4031138851356887
  0.4145141023744772  0.7061469916978820  0.4026433509549471
  0.4159451626936155  0.8324445658511037  0.4008616412252736
  0.4165794487417777  0.9582688312249967  0.3998421325833071
  0.5416054544589957  0.0824291493677554  0.3997581389177361
  0.5422628770402618  0.2078583772845203  0.4004959072923487
  0.5434932892669991  0.3329954396041831  0.4018212096475471
  0.5449136139700098  0.4565962762718801  0.4028501768112294
  0.5439864207170516  0.5789721622887828  0.4080447604090151
  0.5380589559670637  0.7026651902572112  0.4046951752177388
  0.5400806453442610  0.8304645812780705  0.4020707061709978
  0.5410574507508145  0.9566970171054101  0.4002205981292942
  0.6661125555192489  0.0817458558206990  0.3996609571644987
  0.6667201189747042  0.2072723905030520  0.3996005003391753
  0.6675877519010271  0.3326515741054032  0.4001474652362032
  0.6691033973807313  0.4580679932323357  0.4014231455041415
  0.6693386293800611  0.5827037201659994  0.4026544071568150
  0.6656283574611370  0.7056628255422510  0.4037949451482828
  0.6646119327443795  0.8300602758621671  0.4024795337583923
  0.6655276715243424  0.9560882795596581  0.4005622373506544
  0.7908610924979229  0.0817564579787561  0.3994392219027407
  0.7911977104168504  0.2070863610693621  0.3991953216861177
  0.7918567491991260  0.3325806257106821  0.3992600790767981
  0.7927441396239432  0.4581121835825409  0.3994909892166047
  0.7933551561817139  0.5834486899667272  0.4001862126823708
  0.7924217324715107  0.7081947643819090  0.4012047077564011
  0.7909975089335844  0.8320979176954587  0.4010778833321569
  0.7904960201453874  0.9565137686631374  0.4002308565319430
  0.9161467294840889  0.0826007663371064  0.3995218385630450
  0.9159668759815967  0.2074212090694837  0.3993883900092855
  0.9161041848328699  0.3326526022552337  0.3991179239848988
  0.9165945806543701  0.4581330820190006  0.3988872149618126
  0.9173453002891949  0.5836898620017609  0.3991052639296541
  0.9174662547892340  0.7090417200012087  0.3994900309831754
  0.9171672318920220  0.8338453357812914  0.3997448736810809
  0.9165652954020098  0.9581932058137752  0.3997262459657604
  0.0845486374729265  0.0435030216828448  0.4003176757770896
  0.0839828154929029  0.1678715722756188  0.4010140342092031
  0.0825418926969744  0.2918014900246481  0.4010419194230593
  0.0816135066299734  0.4165478562754926  0.4001214671117386
  0.0822272423330073  0.5418902582619877  0.3995015069015472
  0.0831299552750324  0.6674122067196550  0.3992699471289466
  0.0838121069026221  0.7929113375193985  0.3992475770687474
  0.0841845876367789  0.9182374153942096  0.3995441364845225
  0.2095078558847936  0.0439348780486181  0.4006342940441929
  0.2103943063907220  0.1699887718649814  0.4023198128388279
  0.2092776949768649  0.2943186078338714  0.4033099461252730
  0.2056225064632136  0.4172865247108375  0.4021739157876374
  0.2058986934687243  0.5419651897564273  0.4012752546442362
  0.2074042672711415  0.6673865776041519  0.4001085939412258
  0.2082933532991842  0.7927564818437205  0.3995651631786105
  0.2089425066216528  0.9182811021536269  0.3997065540334072
  0.3339678524330735  0.0433283432822421  0.4002832061218877
  0.3349232754326841  0.1695819236931516  0.4019489363860965
  0.3368535930914429  0.2973759470252881  0.4041672198115595
  0.3308243250247011  0.4208975111910112  0.4073894300291375
  0.3300527095750266  0.5434091994516467  0.4028717728652421
  0.3314904785845392  0.6670490199864852  0.4018477655154252
  0.3327593763257966  0.7921746053737275  0.4003957265255538
  0.3334395375289438  0.9175991674725386  0.3997248189498047
  0.4584531455567097  0.0417556733682029  0.3998773518991737
  0.4590746633596100  0.1676044504310707  0.4009428306632367
  0.4604592568262137  0.2939339861128315  0.4024852183633335
  0.4535561055301524  0.6612168608301843  0.4035021729732798
  0.4570681682699345  0.7898551489813526  0.4020117869341245
  0.4578158379615963  0.9158926140628185  0.4002152636163503
  0.5829296627517548  0.0402944537242330  0.3997938859613224
  0.5834762186668526  0.1658304804734797  0.3998489804642130
  0.5844991385666432  0.2910329803329439  0.4007917763100974
  0.5861784577151511  0.4157507110103622  0.4022822052273323
  0.5867670215531142  0.5404850053298723  0.4043709225732997
  0.5812585206476886  0.6615179045612229  0.4060685057159000
  0.5803707509871329  0.7869605789431414  0.4032558069630069
  0.5821712608615717  0.9142940036268609  0.4008964249591994
  0.7074435646991996  0.0397687592133149  0.3997892316916066
  0.7080131517111454  0.1653548740256963  0.3994363040516545
  0.7087348913121133  0.2908026752152920  0.3995962015112012
  0.7098235380970913  0.4162314889104808  0.4002899039059854
  0.7107625558161093  0.5414661292358482  0.4012899584224414
  0.7090956988766672  0.6658545203127977  0.4027828621654228
  0.7071422760903947  0.7893765531686224  0.4024640273425573
  0.7067775014750658  0.9140114818038084  0.4010784499225974
  0.8325094749175266  0.0402349994978763  0.3995352984136134
  0.8326804743049795  0.1654209811592784  0.3992016179964380
  0.8330541860697842  0.2907706432286306  0.3991105412858967
  0.8336963905315091  0.4161908439892020  0.3990875200381392
  0.8344597246354584  0.5416684363573789  0.3994684756207619
  0.8343939656937001  0.6670646962262665  0.4001792311906746
  0.8336920377815283  0.7915657430289342  0.4006670894436634
  0.8327960348263158  0.9156553283569365  0.4002568223329624
  0.9584609866919170  0.0417916429139893  0.3997390461270484
  0.9578601855930046  0.1661623886257396  0.3997236029443165
  0.9575213934081304  0.2909632179772548  0.3994461189816361
  0.9576170350472006  0.4162913203619054  0.3990815280075120
  0.9583784090841290  0.5418467645211956  0.3989042052124741
  0.9588806769435244  0.6673360811415704  0.3991832423557853
  0.9590501346555267  0.7925846839923658  0.3994244537745509
  0.9588986824811918  0.9174036825500894  0.3995537580947218
  0.4094501986451030  0.5804827272677930  0.4023113570732728
  0.4655038846101116  0.4195722197420619  0.4019162188308965
  0.4386136568415888  0.5005209224611142  0.4804166121586395
 
  0.00000000E+00  0.00000000E+00  0.00000000E+00
  0.00000000E+00  0.00000000E+00  0.00000000E+00
  0.00000000E+00  0.00000000E+00  0.00000000E+00
  0.00000000E+00  0.00000000E+00  0.00000000E+00
  0.00000000E+00  0.00000000E+00  0.00000000E+00
  0.00000000E+00  0.00000000E+00  0.00000000E+00
  0.00000000E+00  0.00000000E+00  0.00000000E+00
  0.00000000E+00  0.00000000E+00  0.00000000E+00
  0.00000000E+00  0.00000000E+00  0.00000000E+00
  0.00000000E+00  0.00000000E+00  0.00000000E+00
  0.00000000E+00  0.00000000E+00  0.00000000E+00
  0.00000000E+00  0.00000000E+00  0.00000000E+00
  0.00000000E+00  0.00000000E+00  0.00000000E+00
  0.00000000E+00  0.00000000E+00  0.00000000E+00
  0.00000000E+00  0.00000000E+00  0.00000000E+00
  0.00000000E+00  0.00000000E+00  0.00000000E+00
  0.00000000E+00  0.00000000E+00  0.00000000E+00
  0.00000000E+00  0.00000000E+00  0.00000000E+00
  0.00000000E+00  0.00000000E+00  0.00000000E+00
  0.00000000E+00  0.00000000E+00  0.00000000E+00
  0.00000000E+00  0.00000000E+00  0.00000000E+00
  0.00000000E+00  0.00000000E+00  0.00000000E+00
  0.00000000E+00  0.00000000E+00  0.00000000E+00
  0.00000000E+00  0.00000000E+00  0.00000000E+00
  0.00000000E+00  0.00000000E+00  0.00000000E+00
  0.00000000E+00  0.00000000E+00  0.00000000E+00
  0.00000000E+00  0.00000000E+00  0.00000000E+00
  0.00000000E+00  0.00000000E+00  0.00000000E+00
  0.00000000E+00  0.00000000E+00  0.00000000E+00
  0.00000000E+00  0.00000000E+00  0.00000000E+00
  0.00000000E+00  0.00000000E+00  0.00000000E+00
  0.00000000E+00  0.00000000E+00  0.00000000E+00
  0.00000000E+00  0.00000000E+00  0.00000000E+00
  0.00000000E+00  0.00000000E+00  0.00000000E+00
  0.00000000E+00  0.00000000E+00  0.00000000E+00
  0.00000000E+00  0.00000000E+00  0.00000000E+00
  0.00000000E+00  0.00000000E+00  0.00000000E+00
  0.00000000E+00  0.00000000E+00  0.00000000E+00
  0.00000000E+00  0.00000000E+00  0.00000000E+00
  0.00000000E+00  0.00000000E+00  0.00000000E+00
  0.00000000E+00  0.00000000E+00  0.00000000E+00
  0.00000000E+00  0.00000000E+00  0.00000000E+00
  0.00000000E+00  0.00000000E+00  0.00000000E+00
  0.00000000E+00  0.00000000E+00  0.00000000E+00
  0.00000000E+00  0.00000000E+00  0.00000000E+00
  0.00000000E+00  0.00000000E+00  0.00000000E+00
  0.00000000E+00  0.00000000E+00  0.00000000E+00
  0.00000000E+00  0.00000000E+00  0.00000000E+00
  0.00000000E+00  0.00000000E+00  0.00000000E+00
  0.00000000E+00  0.00000000E+00  0.00000000E+00
  0.00000000E+00  0.00000000E+00  0.00000000E+00
  0.00000000E+00  0.00000000E+00  0.00000000E+00
  0.00000000E+00  0.00000000E+00  0.00000000E+00
  0.00000000E+00  0.00000000E+00  0.00000000E+00
  0.00000000E+00  0.00000000E+00  0.00000000E+00
  0.00000000E+00  0.00000000E+00  0.00000000E+00
  0.00000000E+00  0.00000000E+00  0.00000000E+00
  0.00000000E+00  0.00000000E+00  0.00000000E+00
  0.00000000E+00  0.00000000E+00  0.00000000E+00
  0.00000000E+00  0.00000000E+00  0.00000000E+00
  0.00000000E+00  0.00000000E+00  0.00000000E+00
  0.00000000E+00  0.00000000E+00  0.00000000E+00
  0.00000000E+00  0.00000000E+00  0.00000000E+00
  0.00000000E+00  0.00000000E+00  0.00000000E+00
  0.00000000E+00  0.00000000E+00  0.00000000E+00
  0.00000000E+00  0.00000000E+00  0.00000000E+00
  0.00000000E+00  0.00000000E+00  0.00000000E+00
  0.00000000E+00  0.00000000E+00  0.00000000E+00
  0.00000000E+00  0.00000000E+00  0.00000000E+00
  0.00000000E+00  0.00000000E+00  0.00000000E+00
  0.00000000E+00  0.00000000E+00  0.00000000E+00
  0.00000000E+00  0.00000000E+00  0.00000000E+00
  0.00000000E+00  0.00000000E+00  0.00000000E+00
  0.00000000E+00  0.00000000E+00  0.00000000E+00
  0.00000000E+00  0.00000000E+00  0.00000000E+00
  0.00000000E+00  0.00000000E+00  0.00000000E+00
  0.00000000E+00  0.00000000E+00  0.00000000E+00
  0.00000000E+00  0.00000000E+00  0.00000000E+00
  0.00000000E+00  0.00000000E+00  0.00000000E+00
  0.00000000E+00  0.00000000E+00  0.00000000E+00
  0.00000000E+00  0.00000000E+00  0.00000000E+00
  0.00000000E+00  0.00000000E+00  0.00000000E+00
  0.00000000E+00  0.00000000E+00  0.00000000E+00
  0.00000000E+00  0.00000000E+00  0.00000000E+00
  0.00000000E+00  0.00000000E+00  0.00000000E+00
  0.00000000E+00  0.00000000E+00  0.00000000E+00
  0.00000000E+00  0.00000000E+00  0.00000000E+00
  0.00000000E+00  0.00000000E+00  0.00000000E+00
  0.00000000E+00  0.00000000E+00  0.00000000E+00
  0.00000000E+00  0.00000000E+00  0.00000000E+00
  0.00000000E+00  0.00000000E+00  0.00000000E+00
  0.00000000E+00  0.00000000E+00  0.00000000E+00
  0.00000000E+00  0.00000000E+00  0.00000000E+00
  0.00000000E+00  0.00000000E+00  0.00000000E+00
  0.00000000E+00  0.00000000E+00  0.00000000E+00
  0.00000000E+00  0.00000000E+00  0.00000000E+00
  0.00000000E+00  0.00000000E+00  0.00000000E+00
  0.00000000E+00  0.00000000E+00  0.00000000E+00
  0.00000000E+00  0.00000000E+00  0.00000000E+00
  0.00000000E+00  0.00000000E+00  0.00000000E+00
  0.00000000E+00  0.00000000E+00  0.00000000E+00
  0.00000000E+00  0.00000000E+00  0.00000000E+00
  0.00000000E+00  0.00000000E+00  0.00000000E+00
  0.00000000E+00  0.00000000E+00  0.00000000E+00
  0.00000000E+00  0.00000000E+00  0.00000000E+00
  0.00000000E+00  0.00000000E+00  0.00000000E+00
  0.00000000E+00  0.00000000E+00  0.00000000E+00
  0.00000000E+00  0.00000000E+00  0.00000000E+00
  0.00000000E+00  0.00000000E+00  0.00000000E+00
  0.00000000E+00  0.00000000E+00  0.00000000E+00
  0.00000000E+00  0.00000000E+00  0.00000000E+00
  0.00000000E+00  0.00000000E+00  0.00000000E+00
  0.00000000E+00  0.00000000E+00  0.00000000E+00
  0.00000000E+00  0.00000000E+00  0.00000000E+00
  0.00000000E+00  0.00000000E+00  0.00000000E+00
  0.00000000E+00  0.00000000E+00  0.00000000E+00
  0.00000000E+00  0.00000000E+00  0.00000000E+00
  0.00000000E+00  0.00000000E+00  0.00000000E+00
  0.00000000E+00  0.00000000E+00  0.00000000E+00
  0.00000000E+00  0.00000000E+00  0.00000000E+00
  0.00000000E+00  0.00000000E+00  0.00000000E+00
  0.00000000E+00  0.00000000E+00  0.00000000E+00
  0.00000000E+00  0.00000000E+00  0.00000000E+00
  0.00000000E+00  0.00000000E+00  0.00000000E+00
  0.00000000E+00  0.00000000E+00  0.00000000E+00
  0.00000000E+00  0.00000000E+00  0.00000000E+00
  0.00000000E+00  0.00000000E+00  0.00000000E+00
  0.00000000E+00  0.00000000E+00  0.00000000E+00
  0.00000000E+00  0.00000000E+00  0.00000000E+00
