Co1 H1 C125 N1                          
   1.00000000000000     
    19.8180743189792388   -0.0056510740525911    0.3323618475486952
    -9.9149094621281613   17.0453369843621374    0.0114805899573255
     0.5007824064338786    0.3109781437787536   29.8041507078174739
   Co   H    C    N 
     1     1   125     1
Direct
  0.4377854373080285  0.4993680653570556  0.4068243850866037
  0.4571811287641715  0.5002720463632834  0.4530587603454499
  0.0413176865977435  0.0837260453906753  0.3998279289341338
  0.0404492560234060  0.2078875116734404  0.3994743036036064
  0.0399330646527083  0.3324928306672755  0.3989246808333119
  0.0400497587669744  0.4579437215814479  0.3986088464349561
  0.0409349041760720  0.5835092993850357  0.3985833859049476
  0.0416027173204464  0.7088992299128497  0.3989610711992408
  0.0418736425418646  0.8342529633552462  0.3993917671377217
  0.0418897484901410  0.9592904756319443  0.3996294785287209
  0.1671488360335672  0.0852100581370673  0.4006204601993415
  0.1665653849105284  0.2097413637539940  0.4007536478085320
  0.1650625239410155  0.3335205207200259  0.3997441804098548
  0.1636881064629831  0.4580981703154639  0.3990777460580812
  0.1645987633394247  0.5833348280309341  0.3991050793995240
  0.1658284439182345  0.7088734061502268  0.3993885011533531
  0.1665573402359537  0.8343124851970354  0.3995766354377839
  0.1669647567456539  0.9597852230953575  0.3999746575575103
  0.2920804071021598  0.0851633292389179  0.4014821074132182
  0.2928433596693820  0.2117291643555996  0.4028510336132653
  0.2920732586706123  0.3373190502988083  0.4021515111126219
  0.2876279591272639  0.4584354043434203  0.3997995687271872
  0.2881370586236474  0.5837201089692138  0.3999606236427428
  0.2899146028468840  0.7085968352994895  0.4002290811462204
  0.2909651812781261  0.8337842000084060  0.4002096081500158
  0.2915216774222578  0.9593118340331599  0.4003373223205545
  0.4165004856580074  0.0837365159183848  0.4012102991744496
  0.4170943417405246  0.2097700699490730  0.4033682029869362
  0.4187636326918381  0.3373479388613553  0.4065312724537951
  0.4137741744460204  0.7057533897089875  0.4018261278616159
  0.4152747019504020  0.8320462282254492  0.4011889586605908
  0.4159937838395575  0.9579313926603501  0.4005221793180443
  0.5409948139769853  0.0821041239932384  0.4002520972931090
  0.5415370438882717  0.2075002233638845  0.4017185456782892
  0.5424676036506988  0.3326431276254886  0.4046659076226383
  0.5457759789408438  0.4571882179816554  0.4088676487479294
  0.5430252239054786  0.5779279916613256  0.4105256238214861
  0.5373404393152101  0.7019389638741763  0.4049100602624587
  0.5393222840862323  0.8299123152778147  0.4022013798853823
  0.5403799752346160  0.9562600948241196  0.4007543181866817
  0.6654540093893878  0.0813441053151896  0.3999687209123854
  0.6661294517353751  0.2069028538748266  0.3998557034574795
  0.6668936289200754  0.3321899359551799  0.4012814377572161
  0.6689112953217365  0.4576153758745879  0.4036113525381876
  0.6699795787394569  0.5830681186914084  0.4057922152403458
  0.6651176825186084  0.7054551345624108  0.4054793876488735
  0.6639058815419714  0.8296055901553780  0.4030649099043254
  0.6648233579427785  0.9556607488300403  0.4011743440885627
  0.7901340341244875  0.0813307598769707  0.4001528075376287
  0.7905838578838622  0.2066929078390384  0.3994062096066148
  0.7913075137164525  0.3322155910020119  0.3991969230044719
  0.7924739925427555  0.4577824372720523  0.3999367441623884
  0.7932606476729522  0.5831410231813323  0.4012637382720606
  0.7923022769427530  0.7082431557382377  0.4024070174367914
  0.7905211140442759  0.8318733981087244  0.4019764356315810
  0.7897952861360150  0.9561456395157547  0.4009685923306870
  0.9153708513311237  0.0821220362717010  0.3997595366873306
  0.9152517912813478  0.2069851929315130  0.3993052477372410
  0.9155387331134544  0.3322821555705442  0.3987823751094023
  0.9162368036545170  0.4577776442506158  0.3985298356747017
  0.9171120078183218  0.5834054581087441  0.3988382305820508
  0.9171807486325311  0.7087867879332258  0.3996026469457328
  0.9167603136568472  0.8335929561481646  0.4001807251779938
  0.9159056919524071  0.9577869514068292  0.4001625415825705
  0.0836353648784854  0.0428717748450203  0.3999111795525178
  0.0829530924777144  0.1671987643488125  0.3999622211280933
  0.0818017259501478  0.2912822403594534  0.3992889857223034
  0.0811101814447388  0.4161905348175581  0.3988163311042983
  0.0817630852932778  0.5415250166584846  0.3986829628973316
  0.0827718909768973  0.6670891899982077  0.3989080142404251
  0.0833936716266606  0.7925810319490337  0.3992845741676426
  0.0836271986073703  0.9178721384254191  0.3995925374345174
  0.2087144305186027  0.0433658570179480  0.4006914653182183
  0.2089185299826524  0.1689399965475143  0.4013828085916683
  0.2082066046776026  0.2934791293246164  0.4008082831025833
  0.2051942477880984  0.4168317400177612  0.3994395683515725
  0.2052462780902363  0.5414688314560780  0.3992740288131745
  0.2068925332034421  0.6670086337214136  0.3995310728638286
  0.2078226578285460  0.7924090653913953  0.3997193994021831
  0.2083863840226802  0.9178729604864468  0.3999384219152884
  0.3332845103863267  0.0428174846414455  0.4010174216592342
  0.3339126800274640  0.1688335583264114  0.4027788634153162
  0.3346070304444478  0.2955072755113284  0.4040479993842997
  0.3317740264048635  0.4206477031828708  0.4013652015396866
  0.3294012406630139  0.5430201609562876  0.4001494428073173
  0.3308908610512106  0.6666133372057889  0.4006320366304202
  0.3321280611976095  0.7917641678060372  0.4006073201065519
  0.3328664492848522  0.9172174363051478  0.4003515888558682
  0.4578101125707801  0.0413966318483329  0.4005755005842130
  0.4582939702291402  0.1671676777480991  0.4021407282014995
  0.4591139790761893  0.2933852675380794  0.4051126630557102
  0.4636524884990050  0.4207576890385216  0.4090234152371595
  0.4525531406017319  0.6607135777982407  0.4029453439662837
  0.4563234753526677  0.7894553733175200  0.4018899876025226
  0.4571989578540926  0.9155323169752232  0.4008506542016131
  0.5822874335189989  0.0399157305869200  0.4001521527705589
  0.5828856674103121  0.1655469952715597  0.4004525070892763
  0.5836144762693575  0.2907009784415984  0.4025690177537746
  0.5860164307086273  0.4155771841921037  0.4057391298228358
  0.5881727669365239  0.5412737068636302  0.4092648209608650
  0.5807193865499795  0.6611285715471169  0.4074821348220710
  0.5795962766005940  0.7863068587647337  0.4034510020369923
  0.5814278206164732  0.9137880791212807  0.4013728742355630
  0.7067689549481293  0.0393586118153005  0.4004105794227871
  0.7073717100885935  0.1649790786230283  0.3995859656424904
  0.7081186732553670  0.2904398822445263  0.3999297871475467
  0.7095825473008829  0.4158606952286897  0.4014891915364167
  0.7108208202133561  0.5411791523669873  0.4035116453912932
  0.7091814875066096  0.6661437251133817  0.4048075564985610
  0.7066097463012080  0.7891161097276437  0.4034840826698776
  0.7060806630317629  0.9135969324152153  0.4017110941806037
  0.8317781428596670  0.0398395406795511  0.4002444094190118
  0.8320053510457771  0.1649938813573823  0.3996281501862244
  0.8324890853911732  0.2904104777946492  0.3990296881260461
  0.8333709099713588  0.4158612589447649  0.3990288368477494
  0.8343173926305342  0.5413718255624570  0.3997996796968842
  0.8341667599979106  0.6668567704431370  0.4009607728506598
  0.8334109729332367  0.7915422694720941  0.4014815519865729
  0.8322007481897867  0.9153624037974313  0.4009881257751884
  0.9576719073548391  0.0413086513599843  0.3998021195437297
  0.9571019203664227  0.1657052679633066  0.3994155249840438
  0.9568965905482884  0.2905474507116879  0.3989523361751932
  0.9571739032360598  0.4159022914162704  0.3985325728471141
  0.9581065070562965  0.5415581138437983  0.3984738691913859
  0.9586202901372439  0.6670585632068529  0.3989578944967059
  0.9586794175567411  0.7923132685872264  0.3996239043841440
  0.9583455081756367  0.9170720874144598  0.3998828744277447
  0.4087478313742799  0.5800602979515599  0.4017654520882025
 
  0.00000000E+00  0.00000000E+00  0.00000000E+00
  0.00000000E+00  0.00000000E+00  0.00000000E+00
  0.00000000E+00  0.00000000E+00  0.00000000E+00
  0.00000000E+00  0.00000000E+00  0.00000000E+00
  0.00000000E+00  0.00000000E+00  0.00000000E+00
  0.00000000E+00  0.00000000E+00  0.00000000E+00
  0.00000000E+00  0.00000000E+00  0.00000000E+00
  0.00000000E+00  0.00000000E+00  0.00000000E+00
  0.00000000E+00  0.00000000E+00  0.00000000E+00
  0.00000000E+00  0.00000000E+00  0.00000000E+00
  0.00000000E+00  0.00000000E+00  0.00000000E+00
  0.00000000E+00  0.00000000E+00  0.00000000E+00
  0.00000000E+00  0.00000000E+00  0.00000000E+00
  0.00000000E+00  0.00000000E+00  0.00000000E+00
  0.00000000E+00  0.00000000E+00  0.00000000E+00
  0.00000000E+00  0.00000000E+00  0.00000000E+00
  0.00000000E+00  0.00000000E+00  0.00000000E+00
  0.00000000E+00  0.00000000E+00  0.00000000E+00
  0.00000000E+00  0.00000000E+00  0.00000000E+00
  0.00000000E+00  0.00000000E+00  0.00000000E+00
  0.00000000E+00  0.00000000E+00  0.00000000E+00
  0.00000000E+00  0.00000000E+00  0.00000000E+00
  0.00000000E+00  0.00000000E+00  0.00000000E+00
  0.00000000E+00  0.00000000E+00  0.00000000E+00
  0.00000000E+00  0.00000000E+00  0.00000000E+00
  0.00000000E+00  0.00000000E+00  0.00000000E+00
  0.00000000E+00  0.00000000E+00  0.00000000E+00
  0.00000000E+00  0.00000000E+00  0.00000000E+00
  0.00000000E+00  0.00000000E+00  0.00000000E+00
  0.00000000E+00  0.00000000E+00  0.00000000E+00
  0.00000000E+00  0.00000000E+00  0.00000000E+00
  0.00000000E+00  0.00000000E+00  0.00000000E+00
  0.00000000E+00  0.00000000E+00  0.00000000E+00
  0.00000000E+00  0.00000000E+00  0.00000000E+00
  0.00000000E+00  0.00000000E+00  0.00000000E+00
  0.00000000E+00  0.00000000E+00  0.00000000E+00
  0.00000000E+00  0.00000000E+00  0.00000000E+00
  0.00000000E+00  0.00000000E+00  0.00000000E+00
  0.00000000E+00  0.00000000E+00  0.00000000E+00
  0.00000000E+00  0.00000000E+00  0.00000000E+00
  0.00000000E+00  0.00000000E+00  0.00000000E+00
  0.00000000E+00  0.00000000E+00  0.00000000E+00
  0.00000000E+00  0.00000000E+00  0.00000000E+00
  0.00000000E+00  0.00000000E+00  0.00000000E+00
  0.00000000E+00  0.00000000E+00  0.00000000E+00
  0.00000000E+00  0.00000000E+00  0.00000000E+00
  0.00000000E+00  0.00000000E+00  0.00000000E+00
  0.00000000E+00  0.00000000E+00  0.00000000E+00
  0.00000000E+00  0.00000000E+00  0.00000000E+00
  0.00000000E+00  0.00000000E+00  0.00000000E+00
  0.00000000E+00  0.00000000E+00  0.00000000E+00
  0.00000000E+00  0.00000000E+00  0.00000000E+00
  0.00000000E+00  0.00000000E+00  0.00000000E+00
  0.00000000E+00  0.00000000E+00  0.00000000E+00
  0.00000000E+00  0.00000000E+00  0.00000000E+00
  0.00000000E+00  0.00000000E+00  0.00000000E+00
  0.00000000E+00  0.00000000E+00  0.00000000E+00
  0.00000000E+00  0.00000000E+00  0.00000000E+00
  0.00000000E+00  0.00000000E+00  0.00000000E+00
  0.00000000E+00  0.00000000E+00  0.00000000E+00
  0.00000000E+00  0.00000000E+00  0.00000000E+00
  0.00000000E+00  0.00000000E+00  0.00000000E+00
  0.00000000E+00  0.00000000E+00  0.00000000E+00
  0.00000000E+00  0.00000000E+00  0.00000000E+00
  0.00000000E+00  0.00000000E+00  0.00000000E+00
  0.00000000E+00  0.00000000E+00  0.00000000E+00
  0.00000000E+00  0.00000000E+00  0.00000000E+00
  0.00000000E+00  0.00000000E+00  0.00000000E+00
  0.00000000E+00  0.00000000E+00  0.00000000E+00
  0.00000000E+00  0.00000000E+00  0.00000000E+00
  0.00000000E+00  0.00000000E+00  0.00000000E+00
  0.00000000E+00  0.00000000E+00  0.00000000E+00
  0.00000000E+00  0.00000000E+00  0.00000000E+00
  0.00000000E+00  0.00000000E+00  0.00000000E+00
  0.00000000E+00  0.00000000E+00  0.00000000E+00
  0.00000000E+00  0.00000000E+00  0.00000000E+00
  0.00000000E+00  0.00000000E+00  0.00000000E+00
  0.00000000E+00  0.00000000E+00  0.00000000E+00
  0.00000000E+00  0.00000000E+00  0.00000000E+00
  0.00000000E+00  0.00000000E+00  0.00000000E+00
  0.00000000E+00  0.00000000E+00  0.00000000E+00
  0.00000000E+00  0.00000000E+00  0.00000000E+00
  0.00000000E+00  0.00000000E+00  0.00000000E+00
  0.00000000E+00  0.00000000E+00  0.00000000E+00
  0.00000000E+00  0.00000000E+00  0.00000000E+00
  0.00000000E+00  0.00000000E+00  0.00000000E+00
  0.00000000E+00  0.00000000E+00  0.00000000E+00
  0.00000000E+00  0.00000000E+00  0.00000000E+00
  0.00000000E+00  0.00000000E+00  0.00000000E+00
  0.00000000E+00  0.00000000E+00  0.00000000E+00
  0.00000000E+00  0.00000000E+00  0.00000000E+00
  0.00000000E+00  0.00000000E+00  0.00000000E+00
  0.00000000E+00  0.00000000E+00  0.00000000E+00
  0.00000000E+00  0.00000000E+00  0.00000000E+00
  0.00000000E+00  0.00000000E+00  0.00000000E+00
  0.00000000E+00  0.00000000E+00  0.00000000E+00
  0.00000000E+00  0.00000000E+00  0.00000000E+00
  0.00000000E+00  0.00000000E+00  0.00000000E+00
  0.00000000E+00  0.00000000E+00  0.00000000E+00
  0.00000000E+00  0.00000000E+00  0.00000000E+00
  0.00000000E+00  0.00000000E+00  0.00000000E+00
  0.00000000E+00  0.00000000E+00  0.00000000E+00
  0.00000000E+00  0.00000000E+00  0.00000000E+00
  0.00000000E+00  0.00000000E+00  0.00000000E+00
  0.00000000E+00  0.00000000E+00  0.00000000E+00
  0.00000000E+00  0.00000000E+00  0.00000000E+00
  0.00000000E+00  0.00000000E+00  0.00000000E+00
  0.00000000E+00  0.00000000E+00  0.00000000E+00
  0.00000000E+00  0.00000000E+00  0.00000000E+00
  0.00000000E+00  0.00000000E+00  0.00000000E+00
  0.00000000E+00  0.00000000E+00  0.00000000E+00
  0.00000000E+00  0.00000000E+00  0.00000000E+00
  0.00000000E+00  0.00000000E+00  0.00000000E+00
  0.00000000E+00  0.00000000E+00  0.00000000E+00
  0.00000000E+00  0.00000000E+00  0.00000000E+00
  0.00000000E+00  0.00000000E+00  0.00000000E+00
  0.00000000E+00  0.00000000E+00  0.00000000E+00
  0.00000000E+00  0.00000000E+00  0.00000000E+00
  0.00000000E+00  0.00000000E+00  0.00000000E+00
  0.00000000E+00  0.00000000E+00  0.00000000E+00
  0.00000000E+00  0.00000000E+00  0.00000000E+00
  0.00000000E+00  0.00000000E+00  0.00000000E+00
  0.00000000E+00  0.00000000E+00  0.00000000E+00
  0.00000000E+00  0.00000000E+00  0.00000000E+00
  0.00000000E+00  0.00000000E+00  0.00000000E+00
  0.00000000E+00  0.00000000E+00  0.00000000E+00
  0.00000000E+00  0.00000000E+00  0.00000000E+00
  0.00000000E+00  0.00000000E+00  0.00000000E+00
