H1 Rh1 C125 N1                          
   1.00000000000000     
    19.8200816375496345   -0.0142280426591864    0.2530807123513466
    -9.9222354899555896   17.0562134129710579   -0.1891619724383522
     0.3803390118540748   -0.1085809473956587   29.7832448649940744
   H    Rh   C    N 
     1     1   125     1
Direct
  0.4762633644360952  0.5010396702495229  0.4714868738251196
  0.4367104572989975  0.5009890721570475  0.4263510401637289
  0.0416659203941439  0.0840557066603146  0.3996138647497128
  0.0410511532740779  0.2084101936135324  0.3994876088505577
  0.0405433214914167  0.3330118466833372  0.3994975445349698
  0.0404672477049771  0.4583615158455107  0.3997155123372100
  0.0411096621003463  0.5838299960022258  0.3996810407950724
  0.0417071564431906  0.7091987629678352  0.3994941780677431
  0.0419592074562850  0.8344817630489082  0.3994537202082352
  0.0420420384664739  0.9595432593536658  0.3995464522239192
  0.1675164167478329  0.0855411379703594  0.4000102210334384
  0.1670523476975846  0.2100596346208123  0.3999507818392568
  0.1658167507645970  0.3340885806752460  0.3990729451942351
  0.1642405753446256  0.4586881008377369  0.3991792298534096
  0.1648691546354234  0.5838935077021480  0.3996290669601952
  0.1659840606480333  0.7092640080711949  0.3998088559493157
  0.1666584452620819  0.8346282990078435  0.3997480384368160
  0.1671657032048643  0.9600787276199853  0.3997789812989966
  0.2924046932919962  0.0854680328098893  0.4003850097256095
  0.2933718980741557  0.2119635017201889  0.4021715738729920
  0.2927982206832143  0.3374419357643710  0.4022154541582373
  0.2885567251411707  0.4593948318748501  0.3992012152373778
  0.2883899110202462  0.5846005926939646  0.3992882116442160
  0.2901864826234514  0.7093518048833229  0.3996213466505574
  0.2912121769941248  0.8343291165244709  0.3996869728530354
  0.2917966651554640  0.9597270476292491  0.3996683474295026
  0.4168993022186108  0.0841155566092558  0.3997158355391739
  0.4176450517115525  0.2100421786877151  0.4015567849343956
  0.4194143206394061  0.3372303325368862  0.4080444087617418
  0.4142556054184546  0.7073924958105393  0.4004729712708590
  0.4157252159965931  0.8330311351861976  0.3997439081625230
  0.4163608664361971  0.9585580532570234  0.3995184953171172
  0.5414551631357708  0.0826468526361263  0.3994036567625316
  0.5420731962523541  0.2079615927668210  0.3998232099028444
  0.5432219080336118  0.3330201850286847  0.4023426232562640
  0.5468209287117286  0.4577257606389974  0.4087013964365796
  0.5454551599054932  0.5799019427303953  0.4135644218666541
  0.5379893645600048  0.7032132837647871  0.4041790310359090
  0.5399619139068553  0.8309409592386822  0.4005669356407644
  0.5408811942582267  0.9569951132351451  0.3996406724562165
  0.6660039036536018  0.0819522570518880  0.3995908859565184
  0.6665934658300876  0.2073320489828281  0.3992985141203793
  0.6674974254204625  0.3326003301380475  0.3992122058921632
  0.6694006452926966  0.4579738160669845  0.3999040673124234
  0.6701084134694670  0.5832482146332836  0.4018245897596970
  0.6653323310333858  0.7058642749656159  0.4024260527280503
  0.6644045193934837  0.8303979394393806  0.4011514969275259
  0.6654050183004222  0.9563617469941745  0.4000668473502177
  0.7906949361053454  0.0819327277733119  0.3998343978998367
  0.7911121311847279  0.2071978220665157  0.3996420027264763
  0.7917676943515360  0.3325956924478266  0.3990960491126132
  0.7928913486748949  0.4580832394506915  0.3984832673018277
  0.7935996722886584  0.5834952061107739  0.3984765853548474
  0.7923666818402162  0.7084243158966044  0.3993636846724214
  0.7907477451751808  0.8321956789566730  0.3997516275251310
  0.7902563518209081  0.9566654788812023  0.3998993507234017
  0.9158494837481098  0.0826141489430584  0.3997071015473598
  0.9158191642821203  0.2075122572700282  0.3997699223376809
  0.9160440372177513  0.3327305539752982  0.3996489250326744
  0.9166094768053951  0.4581463016924623  0.3993194406415368
  0.9173140330481016  0.5836841320843287  0.3988500112525572
  0.9172517180713180  0.7089920514590524  0.3988035836244260
  0.9168411552743989  0.8338088660564891  0.3992149170361936
  0.9161556208508942  0.9581290525096613  0.3995449186693141
  0.0839195395142586  0.0431796039955294  0.3996730771316443
  0.0834208535208954  0.1675638128126227  0.3995770617672842
  0.0823784196437628  0.2917724770612457  0.3992445702674178
  0.0816076589418007  0.4166327084848373  0.3994915724626841
  0.0820153732362288  0.5419268798628359  0.3997563125072751
  0.0828874372545885  0.6674173152931451  0.3997123678503702
  0.0834902614100914  0.7928536388038605  0.3996113196660520
  0.0837521797988963  0.9180896516597349  0.3996081476953102
  0.2090309505046098  0.0437001399376661  0.4000793940315901
  0.2094163397538787  0.1692569832917801  0.4005071619609216
  0.2086617446791097  0.2937442003896428  0.3999680279917283
  0.2058335790070037  0.4174600842817175  0.3988346414926229
  0.2055450877992536  0.5420893511547545  0.3992741230085192
  0.2071151528162136  0.6675145220912098  0.3997002870107670
  0.2079952714366702  0.7928095676870441  0.3997715197655439
  0.2085549414552905  0.9181983181585911  0.3997363222265501
  0.3336473199740747  0.0432363403540817  0.3998597797252851
  0.3343641536920935  0.1691134868570782  0.4015243780971670
  0.3354394783698932  0.2957371702362274  0.4048655559710415
  0.3306982792457513  0.4200127706843362  0.4018652524707525
  0.3299662876209774  0.5443789681284719  0.3998516556922940
  0.3312499441061270  0.6675863474248961  0.3997093255758836
  0.3324983119306171  0.7924763855458252  0.3996812236200049
  0.3331711660322661  0.9177293514011590  0.3995877469088883
  0.4582347349334820  0.0419367627550704  0.3994745632185263
  0.4588385859217946  0.1675251116330835  0.4001544435834523
  0.4599279487831739  0.2936288764549597  0.4037595255546623
  0.4649409926591021  0.4197950436481361  0.4148893456994666
  0.4532744999499991  0.6629367883510490  0.4025927335435841
  0.4569074601773719  0.7907645228926715  0.4002120125631584
  0.4576724996906432  0.9163654143939683  0.3996085232381361
  0.5827833462094287  0.0405399158719730  0.3994850543978335
  0.5833763189290376  0.1660275710347030  0.3993925364916529
  0.5842535018186599  0.2911591413650755  0.4001974547455855
  0.5866317602395802  0.4160537713071331  0.4029048755997803
  0.5887920404103791  0.5413752635932328  0.4079002118584962
  0.5809495628131712  0.6620790175632535  0.4063254074282970
  0.5803159281323107  0.7874810145413090  0.4018499015715469
  0.5820464027186464  0.9146440381213321  0.4000196517534642
  0.7073532392801996  0.0400132733673204  0.3998038243329464
  0.7078965007402418  0.1655151075485446  0.3994910334496842
  0.7085961744786511  0.2908236070649829  0.3990584027307174
  0.7100384561066243  0.4161149641177845  0.3988163976362357
  0.7110928087511628  0.5414328174178717  0.3995460752750590
  0.7093501916570472  0.6664096605069064  0.4010418427539555
  0.7068242553551367  0.7895440320633877  0.4008565909943212
  0.7065737114534132  0.9142764370187224  0.4003142889720070
  0.8322761862517273  0.0403616471982639  0.3998008455713884
  0.8325133198362059  0.1655329056402660  0.3998003851410786
  0.8329734568884264  0.2908343155869291  0.3994852986964076
  0.8337499735865518  0.4161917723406839  0.3988995749420181
  0.8345653599629127  0.5416520366537554  0.3984111534512633
  0.8343069296124748  0.6670607113439412  0.3986876580407259
  0.8334698382066003  0.7917138360483050  0.3993341472119990
  0.8324888054349959  0.9157370755600116  0.3996800037411423
  0.9579938100649489  0.0416643657686356  0.3996268792089054
  0.9576240673451542  0.1662003906204046  0.3996870046816877
  0.9574524843952631  0.2910577289491207  0.3997196898055592
  0.9575882486589500  0.4163149931307029  0.3996439715700416
  0.9582977388072093  0.5418389275324297  0.3993203063486582
  0.9587038822294764  0.6673068269764528  0.3990044099056276
  0.9587507324846901  0.7925443740093157  0.3991374908167328
  0.9584842915086376  0.9172979768612601  0.3994235154140236
  0.4089853010992842  0.5830166445877699  0.4026712584202369
 
  0.00000000E+00  0.00000000E+00  0.00000000E+00
  0.00000000E+00  0.00000000E+00  0.00000000E+00
  0.00000000E+00  0.00000000E+00  0.00000000E+00
  0.00000000E+00  0.00000000E+00  0.00000000E+00
  0.00000000E+00  0.00000000E+00  0.00000000E+00
  0.00000000E+00  0.00000000E+00  0.00000000E+00
  0.00000000E+00  0.00000000E+00  0.00000000E+00
  0.00000000E+00  0.00000000E+00  0.00000000E+00
  0.00000000E+00  0.00000000E+00  0.00000000E+00
  0.00000000E+00  0.00000000E+00  0.00000000E+00
  0.00000000E+00  0.00000000E+00  0.00000000E+00
  0.00000000E+00  0.00000000E+00  0.00000000E+00
  0.00000000E+00  0.00000000E+00  0.00000000E+00
  0.00000000E+00  0.00000000E+00  0.00000000E+00
  0.00000000E+00  0.00000000E+00  0.00000000E+00
  0.00000000E+00  0.00000000E+00  0.00000000E+00
  0.00000000E+00  0.00000000E+00  0.00000000E+00
  0.00000000E+00  0.00000000E+00  0.00000000E+00
  0.00000000E+00  0.00000000E+00  0.00000000E+00
  0.00000000E+00  0.00000000E+00  0.00000000E+00
  0.00000000E+00  0.00000000E+00  0.00000000E+00
  0.00000000E+00  0.00000000E+00  0.00000000E+00
  0.00000000E+00  0.00000000E+00  0.00000000E+00
  0.00000000E+00  0.00000000E+00  0.00000000E+00
  0.00000000E+00  0.00000000E+00  0.00000000E+00
  0.00000000E+00  0.00000000E+00  0.00000000E+00
  0.00000000E+00  0.00000000E+00  0.00000000E+00
  0.00000000E+00  0.00000000E+00  0.00000000E+00
  0.00000000E+00  0.00000000E+00  0.00000000E+00
  0.00000000E+00  0.00000000E+00  0.00000000E+00
  0.00000000E+00  0.00000000E+00  0.00000000E+00
  0.00000000E+00  0.00000000E+00  0.00000000E+00
  0.00000000E+00  0.00000000E+00  0.00000000E+00
  0.00000000E+00  0.00000000E+00  0.00000000E+00
  0.00000000E+00  0.00000000E+00  0.00000000E+00
  0.00000000E+00  0.00000000E+00  0.00000000E+00
  0.00000000E+00  0.00000000E+00  0.00000000E+00
  0.00000000E+00  0.00000000E+00  0.00000000E+00
  0.00000000E+00  0.00000000E+00  0.00000000E+00
  0.00000000E+00  0.00000000E+00  0.00000000E+00
  0.00000000E+00  0.00000000E+00  0.00000000E+00
  0.00000000E+00  0.00000000E+00  0.00000000E+00
  0.00000000E+00  0.00000000E+00  0.00000000E+00
  0.00000000E+00  0.00000000E+00  0.00000000E+00
  0.00000000E+00  0.00000000E+00  0.00000000E+00
  0.00000000E+00  0.00000000E+00  0.00000000E+00
  0.00000000E+00  0.00000000E+00  0.00000000E+00
  0.00000000E+00  0.00000000E+00  0.00000000E+00
  0.00000000E+00  0.00000000E+00  0.00000000E+00
  0.00000000E+00  0.00000000E+00  0.00000000E+00
  0.00000000E+00  0.00000000E+00  0.00000000E+00
  0.00000000E+00  0.00000000E+00  0.00000000E+00
  0.00000000E+00  0.00000000E+00  0.00000000E+00
  0.00000000E+00  0.00000000E+00  0.00000000E+00
  0.00000000E+00  0.00000000E+00  0.00000000E+00
  0.00000000E+00  0.00000000E+00  0.00000000E+00
  0.00000000E+00  0.00000000E+00  0.00000000E+00
  0.00000000E+00  0.00000000E+00  0.00000000E+00
  0.00000000E+00  0.00000000E+00  0.00000000E+00
  0.00000000E+00  0.00000000E+00  0.00000000E+00
  0.00000000E+00  0.00000000E+00  0.00000000E+00
  0.00000000E+00  0.00000000E+00  0.00000000E+00
  0.00000000E+00  0.00000000E+00  0.00000000E+00
  0.00000000E+00  0.00000000E+00  0.00000000E+00
  0.00000000E+00  0.00000000E+00  0.00000000E+00
  0.00000000E+00  0.00000000E+00  0.00000000E+00
  0.00000000E+00  0.00000000E+00  0.00000000E+00
  0.00000000E+00  0.00000000E+00  0.00000000E+00
  0.00000000E+00  0.00000000E+00  0.00000000E+00
  0.00000000E+00  0.00000000E+00  0.00000000E+00
  0.00000000E+00  0.00000000E+00  0.00000000E+00
  0.00000000E+00  0.00000000E+00  0.00000000E+00
  0.00000000E+00  0.00000000E+00  0.00000000E+00
  0.00000000E+00  0.00000000E+00  0.00000000E+00
  0.00000000E+00  0.00000000E+00  0.00000000E+00
  0.00000000E+00  0.00000000E+00  0.00000000E+00
  0.00000000E+00  0.00000000E+00  0.00000000E+00
  0.00000000E+00  0.00000000E+00  0.00000000E+00
  0.00000000E+00  0.00000000E+00  0.00000000E+00
  0.00000000E+00  0.00000000E+00  0.00000000E+00
  0.00000000E+00  0.00000000E+00  0.00000000E+00
  0.00000000E+00  0.00000000E+00  0.00000000E+00
  0.00000000E+00  0.00000000E+00  0.00000000E+00
  0.00000000E+00  0.00000000E+00  0.00000000E+00
  0.00000000E+00  0.00000000E+00  0.00000000E+00
  0.00000000E+00  0.00000000E+00  0.00000000E+00
  0.00000000E+00  0.00000000E+00  0.00000000E+00
  0.00000000E+00  0.00000000E+00  0.00000000E+00
  0.00000000E+00  0.00000000E+00  0.00000000E+00
  0.00000000E+00  0.00000000E+00  0.00000000E+00
  0.00000000E+00  0.00000000E+00  0.00000000E+00
  0.00000000E+00  0.00000000E+00  0.00000000E+00
  0.00000000E+00  0.00000000E+00  0.00000000E+00
  0.00000000E+00  0.00000000E+00  0.00000000E+00
  0.00000000E+00  0.00000000E+00  0.00000000E+00
  0.00000000E+00  0.00000000E+00  0.00000000E+00
  0.00000000E+00  0.00000000E+00  0.00000000E+00
  0.00000000E+00  0.00000000E+00  0.00000000E+00
  0.00000000E+00  0.00000000E+00  0.00000000E+00
  0.00000000E+00  0.00000000E+00  0.00000000E+00
  0.00000000E+00  0.00000000E+00  0.00000000E+00
  0.00000000E+00  0.00000000E+00  0.00000000E+00
  0.00000000E+00  0.00000000E+00  0.00000000E+00
  0.00000000E+00  0.00000000E+00  0.00000000E+00
  0.00000000E+00  0.00000000E+00  0.00000000E+00
  0.00000000E+00  0.00000000E+00  0.00000000E+00
  0.00000000E+00  0.00000000E+00  0.00000000E+00
  0.00000000E+00  0.00000000E+00  0.00000000E+00
  0.00000000E+00  0.00000000E+00  0.00000000E+00
  0.00000000E+00  0.00000000E+00  0.00000000E+00
  0.00000000E+00  0.00000000E+00  0.00000000E+00
  0.00000000E+00  0.00000000E+00  0.00000000E+00
  0.00000000E+00  0.00000000E+00  0.00000000E+00
  0.00000000E+00  0.00000000E+00  0.00000000E+00
  0.00000000E+00  0.00000000E+00  0.00000000E+00
  0.00000000E+00  0.00000000E+00  0.00000000E+00
  0.00000000E+00  0.00000000E+00  0.00000000E+00
  0.00000000E+00  0.00000000E+00  0.00000000E+00
  0.00000000E+00  0.00000000E+00  0.00000000E+00
  0.00000000E+00  0.00000000E+00  0.00000000E+00
  0.00000000E+00  0.00000000E+00  0.00000000E+00
  0.00000000E+00  0.00000000E+00  0.00000000E+00
  0.00000000E+00  0.00000000E+00  0.00000000E+00
  0.00000000E+00  0.00000000E+00  0.00000000E+00
  0.00000000E+00  0.00000000E+00  0.00000000E+00
  0.00000000E+00  0.00000000E+00  0.00000000E+00
  0.00000000E+00  0.00000000E+00  0.00000000E+00
  0.00000000E+00  0.00000000E+00  0.00000000E+00
