Ni1 H1 C125 N1                          
   1.00000000000000     
    19.7985420764683866   -0.0063389813030025    0.2090683987557362
    -9.9071491232404725   17.0563692337267163    0.0766290964331534
     0.3135706847403469    0.3170737382091556   29.8098923036588594
   Ni   H    C    N 
     1     1   125     1
Direct
  0.4354532966912992  0.4958952351049913  0.4049085398024535
  0.4969879285128890  0.5541745338948944  0.4456103289868505
  0.0416071981997410  0.0836531674209185  0.4004697689469926
  0.0408804563498096  0.2079900877032436  0.4003469045211060
  0.0402584619340024  0.3324948703602049  0.3999507920106292
  0.0402432458438586  0.4578310559785723  0.3995637990638415
  0.0407795660168284  0.5832278399557157  0.3990493821234289
  0.0414479566472303  0.7085307568182958  0.3989546871797412
  0.0417253978135253  0.8338400439420253  0.3993566778846671
  0.0418896533255184  0.9589664458816596  0.3999630336012724
  0.1671744681019187  0.0847020562248943  0.4008817663736566
  0.1669629699971688  0.2095780801862891  0.4012739668067997
  0.1656173927115876  0.3335377778299614  0.4005010978675240
  0.1642335733960749  0.4579435739086344  0.4001830327613767
  0.1647816516311976  0.5831376848924990  0.4000435322918005
  0.1658208665028928  0.7085741831517406  0.3994820722870360
  0.1664443857575514  0.8338956367925878  0.3994081367066370
  0.1668265457411819  0.9592460229612152  0.4000397819435930
  0.2920586790854434  0.0845596626475226  0.4011392186017362
  0.2928047881627296  0.2110052877389121  0.4022000372330589
  0.2927119385557319  0.3369003958375674  0.4015421640218917
  0.2887717336384334  0.4587384959878203  0.3999399717217256
  0.2886570590740368  0.5837256246541810  0.4010792333852568
  0.2901366336009434  0.7084425514745708  0.4007105879147548
  0.2910205264197249  0.8335332113681051  0.3998958217384893
  0.2915328310799029  0.9588898606080040  0.4000220492519378
  0.4166167735863669  0.0834512058928489  0.4005524946934880
  0.4170318886489321  0.2091999438561095  0.4024727618936551
  0.4186155703864430  0.3363009127551186  0.4055369724165483
  0.4142840196745582  0.7059554134045359  0.4027622319837837
  0.4155204378238833  0.8320763618497831  0.4011850889537924
  0.4161773912739494  0.9578187496141221  0.3999894716701031
  0.5411763577205744  0.0822581712026312  0.3997184549338587
  0.5416246479018193  0.2075879897810023  0.4006292504077747
  0.5423448644039404  0.3326633333422721  0.4038366374652822
  0.5441903979839626  0.4567332354190874  0.4107289327634625
  0.5478312781380389  0.5822398071823802  0.4206086075152107
  0.5380382954091373  0.7030008051350768  0.4070350475822452
  0.5398441019564191  0.8305323274875672  0.4023244849279394
  0.5406794680691160  0.9566128574596650  0.4002518452965173
  0.6658505485401610  0.0817626785022446  0.3994307696879081
  0.6662577154458060  0.2071053962503822  0.3993717868489126
  0.6667312803377279  0.3322191659388388  0.4002011997301834
  0.6680848283684847  0.4574690895502249  0.4023805421111214
  0.6691349172748711  0.5829779931814140  0.4041888056545852
  0.6659387819137320  0.7065570856514549  0.4045260822997655
  0.6645019906370729  0.8304611059256564  0.4026608393749482
  0.6652831211612269  0.9563272649300059  0.4007236369174244
  0.7905663800749722  0.0817825683786889  0.3996106349891121
  0.7908779648777654  0.2069881640393660  0.3991042955959093
  0.7912771290833622  0.3322673305348540  0.3989599170322201
  0.7920261034389822  0.4576651812574805  0.3987939172520515
  0.7925693007067088  0.5829842234650722  0.3989988152536429
  0.7921443732370590  0.7081746503569520  0.4002010826114915
  0.7909523855258466  0.8323406515923299  0.4002966828806538
  0.7902801075925293  0.9567142855476516  0.4003686022236966
  0.9157946894645114  0.0824373429650967  0.3999318585078204
  0.9155971848423046  0.2072398237063398  0.3995604441314184
  0.9157077717489792  0.3323892729623796  0.3992175804513628
  0.9161152179432156  0.4576483012646932  0.3987767498829360
  0.9166881770798928  0.5831208729406994  0.3984672157002661
  0.9169240982714671  0.7084876170906131  0.3987128351749992
  0.9167324330192684  0.8334846241949857  0.3994211716873157
  0.9162627257643090  0.9579626127371750  0.3999553325289960
  0.0837216893656209  0.0425338096299686  0.4004280783525196
  0.0832976331438576  0.1671372929223143  0.4007714315095703
  0.0822603244260759  0.2913856478199340  0.4003211051923081
  0.0814903878452862  0.4160679138878189  0.3999667205157527
  0.0818312444083155  0.5413392643797863  0.3995096098274254
  0.0826895388507018  0.6667861916199194  0.3990995012657935
  0.0832280405159986  0.7921650711351821  0.3992021689876521
  0.0834722591271834  0.9174165211392374  0.3997646135671989
  0.2086510160794426  0.0428081278732424  0.4006836835539057
  0.2089596020853949  0.1684238942794472  0.4014580631249604
  0.2087076439449421  0.2934021475993566  0.4011092093454919
  0.2059628413500546  0.4167717085209699  0.4001169263768750
  0.2056697229036349  0.5413299703630128  0.4004762177478242
  0.2070337852622802  0.6667575782492363  0.4000148653652687
  0.2077875567328742  0.7920630642347020  0.3995079839677371
  0.2083093292716986  0.9174000706880415  0.3998100743361594
  0.3333269892517354  0.0423778304277423  0.4005914087632861
  0.3338709026479131  0.1682060027188948  0.4021238921230771
  0.3345588985560886  0.2945528345066709  0.4029856755342533
  0.3323353075269500  0.4201757226300218  0.4004214431165345
  0.3303956902754746  0.5432620646401340  0.4005146152142608
  0.3312686814438559  0.6665463998985323  0.4015180147083499
  0.3322941233002669  0.7915886718303190  0.4006092301558442
  0.3329679059470738  0.9168979103605380  0.3999141049995565
  0.4579863108665912  0.0412590063798428  0.3999586756201273
  0.4582980412310093  0.1668292413039501  0.4012418562436932
  0.4590646290076658  0.2927436218647246  0.4042448336529330
  0.4621744955646055  0.4189965085754705  0.4091460769829675
  0.4532825420337140  0.6610227930190901  0.4040805437713669
  0.4567367202480503  0.7896546369064591  0.4023604282301655
  0.4574351742591921  0.9155574589036144  0.4004321845169377
  0.5826095765823274  0.0402165546551499  0.3996464400462967
  0.5830245079122545  0.1656893424447246  0.3997884297461610
  0.5836048429650291  0.2908038398794014  0.4012945349427733
  0.5851877046601558  0.4155387236371933  0.4059277511692770
  0.5876330688956682  0.5411617485840030  0.4125918329356119
  0.5824666769215695  0.6636275772703127  0.4108112136531210
  0.5802388692080287  0.7872186940570735  0.4039768828623249
  0.5819074647705091  0.9143759477074549  0.4009889204722140
  0.7072348668869896  0.0398947138846775  0.3998140599380045
  0.7076785910136034  0.1653076433301919  0.3991380280006644
  0.7080636531806612  0.2905284142232244  0.3993646412101609
  0.7090025762479663  0.4158140553954095  0.4001188322719521
  0.7099304330941313  0.5410587193748452  0.4010664006013312
  0.7089576186960963  0.6661966423062639  0.4030269756783387
  0.7072125728013722  0.7900154696521737  0.4018943897705209
  0.7065376054078142  0.9143236427321688  0.4012088928446997
  0.8321943255422036  0.0403203056854556  0.3999181533458545
  0.8323362636321674  0.1653247722982114  0.3993153410814583
  0.8326330308905734  0.2905665448499621  0.3990403109185583
  0.8331546282063209  0.4158120416735850  0.3986834025227291
  0.8337358050123118  0.5411907426796340  0.3985282264322981
  0.8337719951638287  0.6666482481773390  0.3990282000695704
  0.8333757860468596  0.7915179101042983  0.3997626177475576
  0.8326122265694160  0.9157817327660572  0.4001493473192863
  0.9579839028666517  0.0414545091792156  0.4000993751396623
  0.9575099704598480  0.1659680810362088  0.3998919666191981
  0.9571771345135636  0.2906946329736348  0.3995965873195551
  0.9572884096206342  0.4158906386051553  0.3991392366964555
  0.9578187576439253  0.5413119270262022  0.3987094035107476
  0.9583616625171275  0.6667297594189233  0.3986264442063476
  0.9584542940257168  0.7919949160529680  0.3991760493785764
  0.9584134061273045  0.9169715667673368  0.3997935342227242
  0.4096288203252149  0.5805804025915474  0.4015078745955300
 
  0.00000000E+00  0.00000000E+00  0.00000000E+00
  0.00000000E+00  0.00000000E+00  0.00000000E+00
  0.00000000E+00  0.00000000E+00  0.00000000E+00
  0.00000000E+00  0.00000000E+00  0.00000000E+00
  0.00000000E+00  0.00000000E+00  0.00000000E+00
  0.00000000E+00  0.00000000E+00  0.00000000E+00
  0.00000000E+00  0.00000000E+00  0.00000000E+00
  0.00000000E+00  0.00000000E+00  0.00000000E+00
  0.00000000E+00  0.00000000E+00  0.00000000E+00
  0.00000000E+00  0.00000000E+00  0.00000000E+00
  0.00000000E+00  0.00000000E+00  0.00000000E+00
  0.00000000E+00  0.00000000E+00  0.00000000E+00
  0.00000000E+00  0.00000000E+00  0.00000000E+00
  0.00000000E+00  0.00000000E+00  0.00000000E+00
  0.00000000E+00  0.00000000E+00  0.00000000E+00
  0.00000000E+00  0.00000000E+00  0.00000000E+00
  0.00000000E+00  0.00000000E+00  0.00000000E+00
  0.00000000E+00  0.00000000E+00  0.00000000E+00
  0.00000000E+00  0.00000000E+00  0.00000000E+00
  0.00000000E+00  0.00000000E+00  0.00000000E+00
  0.00000000E+00  0.00000000E+00  0.00000000E+00
  0.00000000E+00  0.00000000E+00  0.00000000E+00
  0.00000000E+00  0.00000000E+00  0.00000000E+00
  0.00000000E+00  0.00000000E+00  0.00000000E+00
  0.00000000E+00  0.00000000E+00  0.00000000E+00
  0.00000000E+00  0.00000000E+00  0.00000000E+00
  0.00000000E+00  0.00000000E+00  0.00000000E+00
  0.00000000E+00  0.00000000E+00  0.00000000E+00
  0.00000000E+00  0.00000000E+00  0.00000000E+00
  0.00000000E+00  0.00000000E+00  0.00000000E+00
  0.00000000E+00  0.00000000E+00  0.00000000E+00
  0.00000000E+00  0.00000000E+00  0.00000000E+00
  0.00000000E+00  0.00000000E+00  0.00000000E+00
  0.00000000E+00  0.00000000E+00  0.00000000E+00
  0.00000000E+00  0.00000000E+00  0.00000000E+00
  0.00000000E+00  0.00000000E+00  0.00000000E+00
  0.00000000E+00  0.00000000E+00  0.00000000E+00
  0.00000000E+00  0.00000000E+00  0.00000000E+00
  0.00000000E+00  0.00000000E+00  0.00000000E+00
  0.00000000E+00  0.00000000E+00  0.00000000E+00
  0.00000000E+00  0.00000000E+00  0.00000000E+00
  0.00000000E+00  0.00000000E+00  0.00000000E+00
  0.00000000E+00  0.00000000E+00  0.00000000E+00
  0.00000000E+00  0.00000000E+00  0.00000000E+00
  0.00000000E+00  0.00000000E+00  0.00000000E+00
  0.00000000E+00  0.00000000E+00  0.00000000E+00
  0.00000000E+00  0.00000000E+00  0.00000000E+00
  0.00000000E+00  0.00000000E+00  0.00000000E+00
  0.00000000E+00  0.00000000E+00  0.00000000E+00
  0.00000000E+00  0.00000000E+00  0.00000000E+00
  0.00000000E+00  0.00000000E+00  0.00000000E+00
  0.00000000E+00  0.00000000E+00  0.00000000E+00
  0.00000000E+00  0.00000000E+00  0.00000000E+00
  0.00000000E+00  0.00000000E+00  0.00000000E+00
  0.00000000E+00  0.00000000E+00  0.00000000E+00
  0.00000000E+00  0.00000000E+00  0.00000000E+00
  0.00000000E+00  0.00000000E+00  0.00000000E+00
  0.00000000E+00  0.00000000E+00  0.00000000E+00
  0.00000000E+00  0.00000000E+00  0.00000000E+00
  0.00000000E+00  0.00000000E+00  0.00000000E+00
  0.00000000E+00  0.00000000E+00  0.00000000E+00
  0.00000000E+00  0.00000000E+00  0.00000000E+00
  0.00000000E+00  0.00000000E+00  0.00000000E+00
  0.00000000E+00  0.00000000E+00  0.00000000E+00
  0.00000000E+00  0.00000000E+00  0.00000000E+00
  0.00000000E+00  0.00000000E+00  0.00000000E+00
  0.00000000E+00  0.00000000E+00  0.00000000E+00
  0.00000000E+00  0.00000000E+00  0.00000000E+00
  0.00000000E+00  0.00000000E+00  0.00000000E+00
  0.00000000E+00  0.00000000E+00  0.00000000E+00
  0.00000000E+00  0.00000000E+00  0.00000000E+00
  0.00000000E+00  0.00000000E+00  0.00000000E+00
  0.00000000E+00  0.00000000E+00  0.00000000E+00
  0.00000000E+00  0.00000000E+00  0.00000000E+00
  0.00000000E+00  0.00000000E+00  0.00000000E+00
  0.00000000E+00  0.00000000E+00  0.00000000E+00
  0.00000000E+00  0.00000000E+00  0.00000000E+00
  0.00000000E+00  0.00000000E+00  0.00000000E+00
  0.00000000E+00  0.00000000E+00  0.00000000E+00
  0.00000000E+00  0.00000000E+00  0.00000000E+00
  0.00000000E+00  0.00000000E+00  0.00000000E+00
  0.00000000E+00  0.00000000E+00  0.00000000E+00
  0.00000000E+00  0.00000000E+00  0.00000000E+00
  0.00000000E+00  0.00000000E+00  0.00000000E+00
  0.00000000E+00  0.00000000E+00  0.00000000E+00
  0.00000000E+00  0.00000000E+00  0.00000000E+00
  0.00000000E+00  0.00000000E+00  0.00000000E+00
  0.00000000E+00  0.00000000E+00  0.00000000E+00
  0.00000000E+00  0.00000000E+00  0.00000000E+00
  0.00000000E+00  0.00000000E+00  0.00000000E+00
  0.00000000E+00  0.00000000E+00  0.00000000E+00
  0.00000000E+00  0.00000000E+00  0.00000000E+00
  0.00000000E+00  0.00000000E+00  0.00000000E+00
  0.00000000E+00  0.00000000E+00  0.00000000E+00
  0.00000000E+00  0.00000000E+00  0.00000000E+00
  0.00000000E+00  0.00000000E+00  0.00000000E+00
  0.00000000E+00  0.00000000E+00  0.00000000E+00
  0.00000000E+00  0.00000000E+00  0.00000000E+00
  0.00000000E+00  0.00000000E+00  0.00000000E+00
  0.00000000E+00  0.00000000E+00  0.00000000E+00
  0.00000000E+00  0.00000000E+00  0.00000000E+00
  0.00000000E+00  0.00000000E+00  0.00000000E+00
  0.00000000E+00  0.00000000E+00  0.00000000E+00
  0.00000000E+00  0.00000000E+00  0.00000000E+00
  0.00000000E+00  0.00000000E+00  0.00000000E+00
  0.00000000E+00  0.00000000E+00  0.00000000E+00
  0.00000000E+00  0.00000000E+00  0.00000000E+00
  0.00000000E+00  0.00000000E+00  0.00000000E+00
  0.00000000E+00  0.00000000E+00  0.00000000E+00
  0.00000000E+00  0.00000000E+00  0.00000000E+00
  0.00000000E+00  0.00000000E+00  0.00000000E+00
  0.00000000E+00  0.00000000E+00  0.00000000E+00
  0.00000000E+00  0.00000000E+00  0.00000000E+00
  0.00000000E+00  0.00000000E+00  0.00000000E+00
  0.00000000E+00  0.00000000E+00  0.00000000E+00
  0.00000000E+00  0.00000000E+00  0.00000000E+00
  0.00000000E+00  0.00000000E+00  0.00000000E+00
  0.00000000E+00  0.00000000E+00  0.00000000E+00
  0.00000000E+00  0.00000000E+00  0.00000000E+00
  0.00000000E+00  0.00000000E+00  0.00000000E+00
  0.00000000E+00  0.00000000E+00  0.00000000E+00
  0.00000000E+00  0.00000000E+00  0.00000000E+00
  0.00000000E+00  0.00000000E+00  0.00000000E+00
  0.00000000E+00  0.00000000E+00  0.00000000E+00
  0.00000000E+00  0.00000000E+00  0.00000000E+00
  0.00000000E+00  0.00000000E+00  0.00000000E+00
  0.00000000E+00  0.00000000E+00  0.00000000E+00
  0.00000000E+00  0.00000000E+00  0.00000000E+00
