La1 H1 C123 N3                          
   1.00000000000000     
    19.8075484292578352    0.0088368330106151    0.0471304670416906
    -9.8958367413586448   17.0490545579472865   -0.0886079870340638
     0.0708794552880347   -0.1136455796610641   29.7897854846015946
   La   H    C    N 
     1     1   123     3
Direct
  0.4381425979914548  0.5052385997510778  0.4557671185736574
  0.4768447812028074  0.5295964432960217  0.5270054351482667
  0.0416229921094098  0.0838112673860107  0.3993887982593411
  0.0407098532184150  0.2079897397974231  0.3991628569007011
  0.0402315491151170  0.3328341935472518  0.3988334239191313
  0.0405535514331465  0.4581535253654801  0.3989511989416755
  0.0414230260180015  0.5836620379090517  0.3995527883121341
  0.0421708880500035  0.7090746960307892  0.3997412241537874
  0.0424576309233603  0.8344136850293725  0.3997256198195734
  0.0423670380009887  0.9594460028854452  0.3995977124424525
  0.1675530628036932  0.0852201769242453  0.3998151956816694
  0.1665730524801829  0.2093770476292176  0.3997526390242624
  0.1648753813094481  0.3332579354239795  0.3990944301735657
  0.1644691348473702  0.4582261594879943  0.3978392930883774
  0.1653604101046975  0.5834864269708319  0.3984586766275041
  0.1664422637767887  0.7088766207589111  0.3994566308886620
  0.1670928002685997  0.8343444295590147  0.3997381045002274
  0.1674322278609935  0.9598694972318123  0.3997899339477676
  0.2924893186888922  0.0854733655264017  0.3998345169739259
  0.2930510904951806  0.2122717043821177  0.4016856731630505
  0.2908913042997341  0.3370485143058533  0.4037344381280935
  0.2883004040557949  0.4568286773038783  0.4010099056570369
  0.2889849948561712  0.5828333082864539  0.3980063968105613
  0.2906927912833018  0.7083794071515335  0.3987476903452692
  0.2916083218670269  0.8338451256612466  0.3995233050424774
  0.2920700464846082  0.9594685120048250  0.3996466176610723
  0.4169940085340945  0.0840211733049658  0.3992761426790908
  0.4175410620808867  0.2098514927419311  0.3994280539120120
  0.4198328858325897  0.3372021174323101  0.4051077483795700
  0.4149337658205773  0.7069129953334916  0.3989334950163980
  0.4160998981919088  0.8326001634461675  0.3992794668939933
  0.4166167017628111  0.9582974617227161  0.3995802704868180
  0.5415013876167932  0.0826787665457844  0.3994887716410737
  0.5420664518912256  0.2083476372179728  0.3987199729107676
  0.5430538781463579  0.3339660679596936  0.3988591802850661
  0.5450013405774493  0.4587794873948522  0.4034259636274665
  0.5390153817171648  0.7027283903279123  0.4020782343119996
  0.5405936788675320  0.8306477899736178  0.4000181359320953
  0.5411218504681856  0.9568880469472772  0.3997732616630343
  0.6660916806116479  0.0821041278082090  0.3998289303755529
  0.6665352143629082  0.2075686490164600  0.3993834849591658
  0.6673199932801042  0.3329679130976667  0.3984215659848979
  0.6690304894239484  0.4585040534627576  0.3976313875816213
  0.6702678191729642  0.5841479319179392  0.3986283564040614
  0.6675648391410625  0.7073657150937518  0.3994932819275715
  0.6651616851862264  0.8307887022739477  0.4001555279370831
  0.6656908439378307  0.9565456094966021  0.4000833482738603
  0.7907522701084122  0.0820493891860893  0.3998255265554571
  0.7910218789339433  0.2073611340802737  0.3997106753832288
  0.7916325740652376  0.3327691102434611  0.3994543659246569
  0.7926953653226388  0.4582818458323646  0.3987481428448294
  0.7935362772050729  0.5836957420017828  0.3983328781415928
  0.7934721403567188  0.7090382146254420  0.3987314315915592
  0.7917249363840531  0.8328836900427291  0.3992733881198580
  0.7906387270431904  0.9569238897998120  0.3997504745822821
  0.9158446663349357  0.0825755998103144  0.3995472139295736
  0.9156451387553791  0.2074589368191426  0.3994890680574198
  0.9158794412475865  0.3327329949057615  0.3995272333373737
  0.9165916832044093  0.4581816334457924  0.3996437793546456
  0.9174797867253580  0.5837149345630330  0.3994957657111752
  0.9178038539506080  0.7090717315527199  0.3994246228785127
  0.9175525567444963  0.8340996328749127  0.3994631334150296
  0.9166398889542545  0.9583338770239904  0.3995347141738367
  0.0840310059343128  0.0429523651757962  0.3995288152333333
  0.0830919080379140  0.1671715550706317  0.3992655519083008
  0.0818810302012300  0.2913250065261911  0.3988716042612579
  0.0816674025796424  0.4162737795199998  0.3983994285396356
  0.0823983478966411  0.5416765642094946  0.3990040429939163
  0.0833230963257183  0.6671748140848489  0.3996268419793563
  0.0838821615294492  0.7926179556302329  0.3997586397626348
  0.0840953810108643  0.9179039352990032  0.3997213261414228
  0.2090967066105782  0.0433846170629181  0.3998901781316367
  0.2092034642088065  0.1688552889711127  0.4003506491744387
  0.2075174274375353  0.2927556148849941  0.4001702039904016
  0.2057650546554237  0.4166862115764167  0.3986146227910954
  0.2061499929355038  0.5414206842699543  0.3977803563589102
  0.2075136757946095  0.6669387447337493  0.3989116532171316
  0.2083991356561416  0.7924250353213554  0.3996050842495829
  0.2088637792511381  0.9179045366361619  0.3997486613499698
  0.3337766304399629  0.0431091725909560  0.3995324065160843
  0.3342551993382641  0.1692275076349554  0.4003445796436166
  0.3349204187129184  0.2960991781746631  0.4046624769288600
  0.3311926259160177  0.5424785441823904  0.3999422865395386
  0.3317400900099013  0.6663068443221363  0.3983701163587312
  0.3329185721853338  0.7917389146125847  0.3991988525813868
  0.3334226398477211  0.9173114376156540  0.3996060409675494
  0.4583457431973283  0.0417418392259195  0.3994597448110093
  0.4587753749799283  0.1674377708575854  0.3988976375130207
  0.4596851562277717  0.2933927080116006  0.4001280865632275
  0.4640972605013425  0.4191520394264713  0.4105679069269764
  0.4540416249874473  0.6623151337338911  0.4010323136568966
  0.4573703507429001  0.7902540849690456  0.3992878575309582
  0.4579403031708437  0.9160644643657440  0.3995753242318300
  0.5828598415124527  0.0405179319097924  0.3997546951465358
  0.5833382919968616  0.1662178185354355  0.3991786872952252
  0.5841467599095207  0.2917102037660091  0.3983701190394598
  0.5862280202193115  0.4173608373193872  0.3988811249600211
  0.5883819788045830  0.5440519422783964  0.4021642493912169
  0.5840391068384493  0.6627392855774327  0.4022282999527024
  0.5811563481187222  0.7872150366544769  0.4007374152030969
  0.5824001668801119  0.9144752468890993  0.3999772269799295
  0.7074593765995942  0.0401348810177341  0.3999489215761963
  0.7078375022522793  0.1656433200461214  0.3997003255575949
  0.7084415792524869  0.2910480050771518  0.3991186177847611
  0.7097482175402238  0.4165017886164260  0.3980122336706208
  0.7109611517496730  0.5418516366214992  0.3978130174629961
  0.7105571142337356  0.6672038611096172  0.3987245412308771
  0.7082053480497216  0.7906302797268120  0.3994383948624661
  0.7070139249141787  0.9145636608245611  0.4000101432145675
  0.8324033110475877  0.0405093761998486  0.3997301024633007
  0.8324534752487873  0.1655920940713221  0.3997043668441446
  0.8328176437011178  0.2908842187946465  0.3996435516423119
  0.8336437047142738  0.4163060791276608  0.3994066270155040
  0.8345792757617736  0.5418023670583215  0.3988558083887147
  0.8348919877340003  0.6672604887315624  0.3988402755259171
  0.8343175767981820  0.7921638994113166  0.3991471037854106
  0.8331372082270552  0.9161938434817796  0.3995387067774944
  0.9581525389381654  0.0416795960427530  0.3994957168754542
  0.9574128524034862  0.1659904142736297  0.3993946691829684
  0.9572420709853845  0.2909781509267547  0.3993214294602540
  0.9576040056007618  0.4162471927694711  0.3994932893991307
  0.9584724153787818  0.5417585575075118  0.3996700491623404
  0.9591512332568610  0.6672445407033856  0.3996109764561090
  0.9592795735757541  0.7925671796157958  0.3995794490888914
  0.9589898794372530  0.9174593446463412  0.3995419852816175
  0.4108104778076870  0.5827758341225897  0.4029346740812432
  0.5484438450077997  0.5834412266635428  0.4054674593591327
  0.3274620796744548  0.4169167622554935  0.4061548356605745
 
  0.00000000E+00  0.00000000E+00  0.00000000E+00
  0.00000000E+00  0.00000000E+00  0.00000000E+00
  0.00000000E+00  0.00000000E+00  0.00000000E+00
  0.00000000E+00  0.00000000E+00  0.00000000E+00
  0.00000000E+00  0.00000000E+00  0.00000000E+00
  0.00000000E+00  0.00000000E+00  0.00000000E+00
  0.00000000E+00  0.00000000E+00  0.00000000E+00
  0.00000000E+00  0.00000000E+00  0.00000000E+00
  0.00000000E+00  0.00000000E+00  0.00000000E+00
  0.00000000E+00  0.00000000E+00  0.00000000E+00
  0.00000000E+00  0.00000000E+00  0.00000000E+00
  0.00000000E+00  0.00000000E+00  0.00000000E+00
  0.00000000E+00  0.00000000E+00  0.00000000E+00
  0.00000000E+00  0.00000000E+00  0.00000000E+00
  0.00000000E+00  0.00000000E+00  0.00000000E+00
  0.00000000E+00  0.00000000E+00  0.00000000E+00
  0.00000000E+00  0.00000000E+00  0.00000000E+00
  0.00000000E+00  0.00000000E+00  0.00000000E+00
  0.00000000E+00  0.00000000E+00  0.00000000E+00
  0.00000000E+00  0.00000000E+00  0.00000000E+00
  0.00000000E+00  0.00000000E+00  0.00000000E+00
  0.00000000E+00  0.00000000E+00  0.00000000E+00
  0.00000000E+00  0.00000000E+00  0.00000000E+00
  0.00000000E+00  0.00000000E+00  0.00000000E+00
  0.00000000E+00  0.00000000E+00  0.00000000E+00
  0.00000000E+00  0.00000000E+00  0.00000000E+00
  0.00000000E+00  0.00000000E+00  0.00000000E+00
  0.00000000E+00  0.00000000E+00  0.00000000E+00
  0.00000000E+00  0.00000000E+00  0.00000000E+00
  0.00000000E+00  0.00000000E+00  0.00000000E+00
  0.00000000E+00  0.00000000E+00  0.00000000E+00
  0.00000000E+00  0.00000000E+00  0.00000000E+00
  0.00000000E+00  0.00000000E+00  0.00000000E+00
  0.00000000E+00  0.00000000E+00  0.00000000E+00
  0.00000000E+00  0.00000000E+00  0.00000000E+00
  0.00000000E+00  0.00000000E+00  0.00000000E+00
  0.00000000E+00  0.00000000E+00  0.00000000E+00
  0.00000000E+00  0.00000000E+00  0.00000000E+00
  0.00000000E+00  0.00000000E+00  0.00000000E+00
  0.00000000E+00  0.00000000E+00  0.00000000E+00
  0.00000000E+00  0.00000000E+00  0.00000000E+00
  0.00000000E+00  0.00000000E+00  0.00000000E+00
  0.00000000E+00  0.00000000E+00  0.00000000E+00
  0.00000000E+00  0.00000000E+00  0.00000000E+00
  0.00000000E+00  0.00000000E+00  0.00000000E+00
  0.00000000E+00  0.00000000E+00  0.00000000E+00
  0.00000000E+00  0.00000000E+00  0.00000000E+00
  0.00000000E+00  0.00000000E+00  0.00000000E+00
  0.00000000E+00  0.00000000E+00  0.00000000E+00
  0.00000000E+00  0.00000000E+00  0.00000000E+00
  0.00000000E+00  0.00000000E+00  0.00000000E+00
  0.00000000E+00  0.00000000E+00  0.00000000E+00
  0.00000000E+00  0.00000000E+00  0.00000000E+00
  0.00000000E+00  0.00000000E+00  0.00000000E+00
  0.00000000E+00  0.00000000E+00  0.00000000E+00
  0.00000000E+00  0.00000000E+00  0.00000000E+00
  0.00000000E+00  0.00000000E+00  0.00000000E+00
  0.00000000E+00  0.00000000E+00  0.00000000E+00
  0.00000000E+00  0.00000000E+00  0.00000000E+00
  0.00000000E+00  0.00000000E+00  0.00000000E+00
  0.00000000E+00  0.00000000E+00  0.00000000E+00
  0.00000000E+00  0.00000000E+00  0.00000000E+00
  0.00000000E+00  0.00000000E+00  0.00000000E+00
  0.00000000E+00  0.00000000E+00  0.00000000E+00
  0.00000000E+00  0.00000000E+00  0.00000000E+00
  0.00000000E+00  0.00000000E+00  0.00000000E+00
  0.00000000E+00  0.00000000E+00  0.00000000E+00
  0.00000000E+00  0.00000000E+00  0.00000000E+00
  0.00000000E+00  0.00000000E+00  0.00000000E+00
  0.00000000E+00  0.00000000E+00  0.00000000E+00
  0.00000000E+00  0.00000000E+00  0.00000000E+00
  0.00000000E+00  0.00000000E+00  0.00000000E+00
  0.00000000E+00  0.00000000E+00  0.00000000E+00
  0.00000000E+00  0.00000000E+00  0.00000000E+00
  0.00000000E+00  0.00000000E+00  0.00000000E+00
  0.00000000E+00  0.00000000E+00  0.00000000E+00
  0.00000000E+00  0.00000000E+00  0.00000000E+00
  0.00000000E+00  0.00000000E+00  0.00000000E+00
  0.00000000E+00  0.00000000E+00  0.00000000E+00
  0.00000000E+00  0.00000000E+00  0.00000000E+00
  0.00000000E+00  0.00000000E+00  0.00000000E+00
  0.00000000E+00  0.00000000E+00  0.00000000E+00
  0.00000000E+00  0.00000000E+00  0.00000000E+00
  0.00000000E+00  0.00000000E+00  0.00000000E+00
  0.00000000E+00  0.00000000E+00  0.00000000E+00
  0.00000000E+00  0.00000000E+00  0.00000000E+00
  0.00000000E+00  0.00000000E+00  0.00000000E+00
  0.00000000E+00  0.00000000E+00  0.00000000E+00
  0.00000000E+00  0.00000000E+00  0.00000000E+00
  0.00000000E+00  0.00000000E+00  0.00000000E+00
  0.00000000E+00  0.00000000E+00  0.00000000E+00
  0.00000000E+00  0.00000000E+00  0.00000000E+00
  0.00000000E+00  0.00000000E+00  0.00000000E+00
  0.00000000E+00  0.00000000E+00  0.00000000E+00
  0.00000000E+00  0.00000000E+00  0.00000000E+00
  0.00000000E+00  0.00000000E+00  0.00000000E+00
  0.00000000E+00  0.00000000E+00  0.00000000E+00
  0.00000000E+00  0.00000000E+00  0.00000000E+00
  0.00000000E+00  0.00000000E+00  0.00000000E+00
  0.00000000E+00  0.00000000E+00  0.00000000E+00
  0.00000000E+00  0.00000000E+00  0.00000000E+00
  0.00000000E+00  0.00000000E+00  0.00000000E+00
  0.00000000E+00  0.00000000E+00  0.00000000E+00
  0.00000000E+00  0.00000000E+00  0.00000000E+00
  0.00000000E+00  0.00000000E+00  0.00000000E+00
  0.00000000E+00  0.00000000E+00  0.00000000E+00
  0.00000000E+00  0.00000000E+00  0.00000000E+00
  0.00000000E+00  0.00000000E+00  0.00000000E+00
  0.00000000E+00  0.00000000E+00  0.00000000E+00
  0.00000000E+00  0.00000000E+00  0.00000000E+00
  0.00000000E+00  0.00000000E+00  0.00000000E+00
  0.00000000E+00  0.00000000E+00  0.00000000E+00
  0.00000000E+00  0.00000000E+00  0.00000000E+00
  0.00000000E+00  0.00000000E+00  0.00000000E+00
  0.00000000E+00  0.00000000E+00  0.00000000E+00
  0.00000000E+00  0.00000000E+00  0.00000000E+00
  0.00000000E+00  0.00000000E+00  0.00000000E+00
  0.00000000E+00  0.00000000E+00  0.00000000E+00
  0.00000000E+00  0.00000000E+00  0.00000000E+00
  0.00000000E+00  0.00000000E+00  0.00000000E+00
  0.00000000E+00  0.00000000E+00  0.00000000E+00
  0.00000000E+00  0.00000000E+00  0.00000000E+00
  0.00000000E+00  0.00000000E+00  0.00000000E+00
  0.00000000E+00  0.00000000E+00  0.00000000E+00
  0.00000000E+00  0.00000000E+00  0.00000000E+00
  0.00000000E+00  0.00000000E+00  0.00000000E+00
  0.00000000E+00  0.00000000E+00  0.00000000E+00
  0.00000000E+00  0.00000000E+00  0.00000000E+00
