Co1 H1 C125 N1 O2                       
   1.00000000000000     
    19.7846015109676436   -0.0187826433951189    0.3542991606015908
    -9.9081065543993034   17.0560766581752503   -0.1256822764086628
     0.5328079376418621    0.0904532578923210   29.8454474861593759
   Co   H    C    N    O 
     1     1   125     1     2
Direct
  0.4357209951612404  0.5001321360878563  0.4207296565407006
  0.5360478807091980  0.5483948130047054  0.5179037634756725
  0.0417724303774563  0.0840149097697420  0.3997726721285204
  0.0413957356653043  0.2084874766686937  0.3994877109334709
  0.0410089918531682  0.3330552916692398  0.3994928753033591
  0.0408420155795355  0.4582355788346817  0.3998251584476904
  0.0411272347402587  0.5835736509267591  0.3998958915925570
  0.0414455036119392  0.7088005653921456  0.3997910004842282
  0.0416562366562729  0.8340432127342865  0.3997699467199354
  0.0417521141571839  0.9591171239495182  0.3998156004629649
  0.1672536728500305  0.0850411320224538  0.3998428585584151
  0.1676054619019567  0.2103052431552612  0.3994184473586060
  0.1666968689974908  0.3343283905475261  0.3985327948691690
  0.1653000494102983  0.4585874498470517  0.3990296813040146
  0.1653223524331295  0.5835712869396232  0.3996692727493425
  0.1659593599744085  0.7088834359919289  0.3999080344161499
  0.1664784808191726  0.8341818558500833  0.3999190999194013
  0.1668848551389388  0.9595687434216558  0.3998880658311776
  0.2921378703174113  0.0849437267525133  0.4002757489716871
  0.2930209337457441  0.2113683145233693  0.4008809373868232
  0.2942062405692099  0.3380260925454550  0.3994508483257135
  0.2907381468794838  0.4596700397582438  0.3975389324773460
  0.2894003308174007  0.5842855936021962  0.3988295063807001
  0.2903525929217921  0.7089579200864264  0.3998334209191370
  0.2911635859576904  0.8339614992879945  0.3999101199826711
  0.2915657391323023  0.9592466554338372  0.3999305066536607
  0.4166710172422867  0.0838924193114821  0.4000023189555790
  0.4172211920151483  0.2098328829780343  0.4010489546867575
  0.4185799675263624  0.3370942288989056  0.4043754544395455
  0.4144465459003257  0.7068917058383590  0.4000735299000979
  0.4157284752618509  0.8327613261528910  0.4000036953437913
  0.4162834237971040  0.9583448484523913  0.3998504053231500
  0.5413577389823274  0.0827146264528906  0.3997582169229190
  0.5417517944711534  0.2079405129171477  0.4001064674475572
  0.5424243193244394  0.3329767494828744  0.4014531693205754
  0.5440413075934032  0.4572290246920829  0.4040370715984878
  0.5421919352946958  0.5781687451104318  0.4048401093155860
  0.5376814223849777  0.7033973955973423  0.4020109605522677
  0.5399486396033382  0.8310531935964178  0.4004596537964318
  0.5408989081118420  0.9571388601554816  0.3999162241634835
  0.6659986497197679  0.0821320397607437  0.3998357052508226
  0.6664672650745587  0.2074948685729652  0.3996494571519378
  0.6669851662488853  0.3326284803279265  0.3996776889409546
  0.6681118782402464  0.4578289420354054  0.3997477165091254
  0.6686412023576622  0.5830188708947830  0.4000013065574706
  0.6643217267426991  0.7052617526863258  0.4007468160630552
  0.6642708886120801  0.8304510371541269  0.4006773954455269
  0.6654138208733542  0.9565561289731903  0.4001681332939313
  0.7907707476302690  0.0821068937234344  0.4000136005389336
  0.7911307042910494  0.2073600372152242  0.3998372034958422
  0.7915857959884107  0.3326782786759637  0.3995926526249107
  0.7922390434711417  0.4580237729519467  0.3992841529160032
  0.7926293903698536  0.5832486488357631  0.3990251463017387
  0.7917520772178861  0.7081646588744661  0.3993601159075340
  0.7902686324196608  0.8319084014909706  0.3998775188831729
  0.7902426036505759  0.9567572166671781  0.4001150574137142
  0.9159400482805253  0.0826918887882613  0.3999487862192623
  0.9160305239147917  0.2076592675709747  0.3999085669309110
  0.9161392246309106  0.3327772686050849  0.3999315731243342
  0.9164708348029507  0.4580600072453578  0.3997890788107696
  0.9168711888536976  0.5834305139950899  0.3995190260288908
  0.9168092006409196  0.7086592811739081  0.3993533748196185
  0.9165087173195303  0.8334733906213216  0.3996490902813434
  0.9160262662725600  0.9579842118215538  0.3999004065509411
  0.0836943352144317  0.0427516457425838  0.3997789964279548
  0.0837906176082370  0.1676649337942777  0.3995269542711597
  0.0829771211300354  0.2918916538793539  0.3991276988731016
  0.0823367223752527  0.4166458450876149  0.3995157367614368
  0.0823154804217836  0.5417512458741314  0.3998433905409584
  0.0828031558256086  0.6671006439331393  0.3998965842220699
  0.0832250393346428  0.7924139979051006  0.3998533259075643
  0.0834395049417935  0.9176090610465621  0.3998299866870312
  0.2087392837298552  0.0431532835091346  0.3999821332983018
  0.2092373006007620  0.1688074321669006  0.3998940071344279
  0.2097586646998337  0.2942518951415352  0.3988278033604900
  0.2073382946333666  0.4175984817328811  0.3982426629683999
  0.2064305706315608  0.5419301804440906  0.3991160617904583
  0.2072620664240716  0.6671721617957118  0.3998020192804290
  0.2079066068185398  0.7923908269554900  0.3999264619989233
  0.2083166808134322  0.9177014018996559  0.3999402888627870
  0.3333877715761204  0.0427424003913686  0.4000437129456955
  0.3340341440469530  0.1685980415221024  0.4009368870691432
  0.3349867590400279  0.2949259728945961  0.4019277842100237
  0.3344661383610088  0.4213688750877864  0.3982673642937229
  0.3315452427228962  0.5441472505196927  0.3986182854041971
  0.3315746132904849  0.6671983304764808  0.3996234458503167
  0.3325159049498225  0.7921295835461279  0.3999363513071401
  0.3330394084541268  0.9173465780395773  0.3999068686149272
  0.4581189968857586  0.0417918052216422  0.3998238821720079
  0.4584694451668341  0.1673586422624567  0.4003133489005251
  0.4592670117412680  0.2934884902993247  0.4021959924430334
  0.4622972524208890  0.4199810556834365  0.4083224662156724
  0.4535533880493858  0.6623275855181276  0.4011903507700865
  0.4569196379216436  0.7904190729138207  0.4001653660301656
  0.4576428686632141  0.9161903403794440  0.3999149217773805
  0.5827495021876814  0.0406800933120763  0.3998005158802798
  0.5832035726161067  0.1661037011940252  0.3997476015954078
  0.5837621167552740  0.2911440969757493  0.4003366077082617
  0.5850661485500908  0.4158514244687197  0.4013532103328927
  0.5860650577713358  0.5407640716668496  0.4025730436461288
  0.5793045174478308  0.6609707548003101  0.4023807965281776
  0.5802024791515592  0.7875940278832587  0.4010866501481019
  0.5820705905098507  0.9148308506095404  0.4001588184028648
  0.7073756363090098  0.0401935771488837  0.3999885784373305
  0.7078721213158516  0.1656828402834591  0.3997560069410397
  0.7083492546966497  0.2909526630054984  0.3995255651058329
  0.7091972008902871  0.4161911844794943  0.3993927406404225
  0.7098718388393053  0.5413375901838506  0.3993588334063318
  0.7082776913510926  0.6659776130234079  0.3999262648762141
  0.7062045007817588  0.7891388151815804  0.4003791735182887
  0.7065525862115436  0.9143785939330300  0.4003151841886918
  0.8323275031999202  0.0404715747717859  0.4000445894187479
  0.8326264322848829  0.1656954707996334  0.3999512982165498
  0.8329603653739355  0.2909741491532785  0.3998171543005498
  0.8334400902699386  0.4162473307335404  0.3995538991359098
  0.8338961661089925  0.5415328628164602  0.3992136838195464
  0.8336625791836880  0.6668399194742705  0.3991086846105603
  0.8330355913427638  0.7914205424095542  0.3995742318896731
  0.8322559709824233  0.9155697394211089  0.3999511953517256
  0.9580077751852869  0.0416093893431722  0.3999037730123973
  0.9578377282888866  0.1662827963947890  0.3998224495093723
  0.9577198791630721  0.2911771373395595  0.3998418678281510
  0.9577437225824070  0.4163197398550054  0.3999086603048383
  0.9581381031166885  0.5417134717128249  0.3997758048769597
  0.9583286788268950  0.6669922598352329  0.3995369160321474
  0.9583604368053074  0.7921291923728617  0.3995765191841798
  0.9582005250587571  0.9169535710720567  0.3998112769561288
  0.4104976676650551  0.5819055851524411  0.4011873351396034
  0.5060615179634240  0.4974738205551148  0.5031590944478026
  0.4532014572075411  0.5126363158714824  0.4779384801992066
 
  0.00000000E+00  0.00000000E+00  0.00000000E+00
  0.00000000E+00  0.00000000E+00  0.00000000E+00
  0.00000000E+00  0.00000000E+00  0.00000000E+00
  0.00000000E+00  0.00000000E+00  0.00000000E+00
  0.00000000E+00  0.00000000E+00  0.00000000E+00
  0.00000000E+00  0.00000000E+00  0.00000000E+00
  0.00000000E+00  0.00000000E+00  0.00000000E+00
  0.00000000E+00  0.00000000E+00  0.00000000E+00
  0.00000000E+00  0.00000000E+00  0.00000000E+00
  0.00000000E+00  0.00000000E+00  0.00000000E+00
  0.00000000E+00  0.00000000E+00  0.00000000E+00
  0.00000000E+00  0.00000000E+00  0.00000000E+00
  0.00000000E+00  0.00000000E+00  0.00000000E+00
  0.00000000E+00  0.00000000E+00  0.00000000E+00
  0.00000000E+00  0.00000000E+00  0.00000000E+00
  0.00000000E+00  0.00000000E+00  0.00000000E+00
  0.00000000E+00  0.00000000E+00  0.00000000E+00
  0.00000000E+00  0.00000000E+00  0.00000000E+00
  0.00000000E+00  0.00000000E+00  0.00000000E+00
  0.00000000E+00  0.00000000E+00  0.00000000E+00
  0.00000000E+00  0.00000000E+00  0.00000000E+00
  0.00000000E+00  0.00000000E+00  0.00000000E+00
  0.00000000E+00  0.00000000E+00  0.00000000E+00
  0.00000000E+00  0.00000000E+00  0.00000000E+00
  0.00000000E+00  0.00000000E+00  0.00000000E+00
  0.00000000E+00  0.00000000E+00  0.00000000E+00
  0.00000000E+00  0.00000000E+00  0.00000000E+00
  0.00000000E+00  0.00000000E+00  0.00000000E+00
  0.00000000E+00  0.00000000E+00  0.00000000E+00
  0.00000000E+00  0.00000000E+00  0.00000000E+00
  0.00000000E+00  0.00000000E+00  0.00000000E+00
  0.00000000E+00  0.00000000E+00  0.00000000E+00
  0.00000000E+00  0.00000000E+00  0.00000000E+00
  0.00000000E+00  0.00000000E+00  0.00000000E+00
  0.00000000E+00  0.00000000E+00  0.00000000E+00
  0.00000000E+00  0.00000000E+00  0.00000000E+00
  0.00000000E+00  0.00000000E+00  0.00000000E+00
  0.00000000E+00  0.00000000E+00  0.00000000E+00
  0.00000000E+00  0.00000000E+00  0.00000000E+00
  0.00000000E+00  0.00000000E+00  0.00000000E+00
  0.00000000E+00  0.00000000E+00  0.00000000E+00
  0.00000000E+00  0.00000000E+00  0.00000000E+00
  0.00000000E+00  0.00000000E+00  0.00000000E+00
  0.00000000E+00  0.00000000E+00  0.00000000E+00
  0.00000000E+00  0.00000000E+00  0.00000000E+00
  0.00000000E+00  0.00000000E+00  0.00000000E+00
  0.00000000E+00  0.00000000E+00  0.00000000E+00
  0.00000000E+00  0.00000000E+00  0.00000000E+00
  0.00000000E+00  0.00000000E+00  0.00000000E+00
  0.00000000E+00  0.00000000E+00  0.00000000E+00
  0.00000000E+00  0.00000000E+00  0.00000000E+00
  0.00000000E+00  0.00000000E+00  0.00000000E+00
  0.00000000E+00  0.00000000E+00  0.00000000E+00
  0.00000000E+00  0.00000000E+00  0.00000000E+00
  0.00000000E+00  0.00000000E+00  0.00000000E+00
  0.00000000E+00  0.00000000E+00  0.00000000E+00
  0.00000000E+00  0.00000000E+00  0.00000000E+00
  0.00000000E+00  0.00000000E+00  0.00000000E+00
  0.00000000E+00  0.00000000E+00  0.00000000E+00
  0.00000000E+00  0.00000000E+00  0.00000000E+00
  0.00000000E+00  0.00000000E+00  0.00000000E+00
  0.00000000E+00  0.00000000E+00  0.00000000E+00
  0.00000000E+00  0.00000000E+00  0.00000000E+00
  0.00000000E+00  0.00000000E+00  0.00000000E+00
  0.00000000E+00  0.00000000E+00  0.00000000E+00
  0.00000000E+00  0.00000000E+00  0.00000000E+00
  0.00000000E+00  0.00000000E+00  0.00000000E+00
  0.00000000E+00  0.00000000E+00  0.00000000E+00
  0.00000000E+00  0.00000000E+00  0.00000000E+00
  0.00000000E+00  0.00000000E+00  0.00000000E+00
  0.00000000E+00  0.00000000E+00  0.00000000E+00
  0.00000000E+00  0.00000000E+00  0.00000000E+00
  0.00000000E+00  0.00000000E+00  0.00000000E+00
  0.00000000E+00  0.00000000E+00  0.00000000E+00
  0.00000000E+00  0.00000000E+00  0.00000000E+00
  0.00000000E+00  0.00000000E+00  0.00000000E+00
  0.00000000E+00  0.00000000E+00  0.00000000E+00
  0.00000000E+00  0.00000000E+00  0.00000000E+00
  0.00000000E+00  0.00000000E+00  0.00000000E+00
  0.00000000E+00  0.00000000E+00  0.00000000E+00
  0.00000000E+00  0.00000000E+00  0.00000000E+00
  0.00000000E+00  0.00000000E+00  0.00000000E+00
  0.00000000E+00  0.00000000E+00  0.00000000E+00
  0.00000000E+00  0.00000000E+00  0.00000000E+00
  0.00000000E+00  0.00000000E+00  0.00000000E+00
  0.00000000E+00  0.00000000E+00  0.00000000E+00
  0.00000000E+00  0.00000000E+00  0.00000000E+00
  0.00000000E+00  0.00000000E+00  0.00000000E+00
  0.00000000E+00  0.00000000E+00  0.00000000E+00
  0.00000000E+00  0.00000000E+00  0.00000000E+00
  0.00000000E+00  0.00000000E+00  0.00000000E+00
  0.00000000E+00  0.00000000E+00  0.00000000E+00
  0.00000000E+00  0.00000000E+00  0.00000000E+00
  0.00000000E+00  0.00000000E+00  0.00000000E+00
  0.00000000E+00  0.00000000E+00  0.00000000E+00
  0.00000000E+00  0.00000000E+00  0.00000000E+00
  0.00000000E+00  0.00000000E+00  0.00000000E+00
  0.00000000E+00  0.00000000E+00  0.00000000E+00
  0.00000000E+00  0.00000000E+00  0.00000000E+00
  0.00000000E+00  0.00000000E+00  0.00000000E+00
  0.00000000E+00  0.00000000E+00  0.00000000E+00
  0.00000000E+00  0.00000000E+00  0.00000000E+00
  0.00000000E+00  0.00000000E+00  0.00000000E+00
  0.00000000E+00  0.00000000E+00  0.00000000E+00
  0.00000000E+00  0.00000000E+00  0.00000000E+00
  0.00000000E+00  0.00000000E+00  0.00000000E+00
  0.00000000E+00  0.00000000E+00  0.00000000E+00
  0.00000000E+00  0.00000000E+00  0.00000000E+00
  0.00000000E+00  0.00000000E+00  0.00000000E+00
  0.00000000E+00  0.00000000E+00  0.00000000E+00
  0.00000000E+00  0.00000000E+00  0.00000000E+00
  0.00000000E+00  0.00000000E+00  0.00000000E+00
  0.00000000E+00  0.00000000E+00  0.00000000E+00
  0.00000000E+00  0.00000000E+00  0.00000000E+00
  0.00000000E+00  0.00000000E+00  0.00000000E+00
  0.00000000E+00  0.00000000E+00  0.00000000E+00
  0.00000000E+00  0.00000000E+00  0.00000000E+00
  0.00000000E+00  0.00000000E+00  0.00000000E+00
  0.00000000E+00  0.00000000E+00  0.00000000E+00
  0.00000000E+00  0.00000000E+00  0.00000000E+00
  0.00000000E+00  0.00000000E+00  0.00000000E+00
  0.00000000E+00  0.00000000E+00  0.00000000E+00
  0.00000000E+00  0.00000000E+00  0.00000000E+00
  0.00000000E+00  0.00000000E+00  0.00000000E+00
  0.00000000E+00  0.00000000E+00  0.00000000E+00
  0.00000000E+00  0.00000000E+00  0.00000000E+00
  0.00000000E+00  0.00000000E+00  0.00000000E+00
  0.00000000E+00  0.00000000E+00  0.00000000E+00
  0.00000000E+00  0.00000000E+00  0.00000000E+00
  0.00000000E+00  0.00000000E+00  0.00000000E+00
