H1 Os1 C126 O2                          
   1.00000000000000     
    19.8048332736932480   -0.0008480312536739   -0.1421304033947730
    -9.9029759398871420   17.0496780109175141   -0.0679921572377217
    -0.2138883462412909   -0.2428851360544183   29.8041496897300036
   H    Os   C    O 
     1     1   126     2
Direct
  0.5359575235681133  0.5617440389406981  0.5158853259954641
  0.4405728841561694  0.5009596801913954  0.4332871200048825
  0.0423135114726540  0.0843230176216832  0.3997365487622366
  0.0412341603204450  0.2082608061174678  0.3994571016855868
  0.0405502559160567  0.3328789645839182  0.3988393708340878
  0.0405752459190263  0.4583439901096014  0.3986432435340862
  0.0414793298449652  0.5839354840834142  0.3994102325313851
  0.0422694857645650  0.7093095003613832  0.4000053455528370
  0.0425906157219512  0.8346352773151636  0.3999489644384878
  0.0426134896145138  0.9596500523215515  0.3997976188016831
  0.1679094647048183  0.0854929008095285  0.4000842462280522
  0.1678978492305254  0.2105518436354032  0.4005756898313822
  0.1655989882936940  0.3335551677881409  0.4003023715018827
  0.1641432330776360  0.4584359275371940  0.3986954611352458
  0.1652075026246593  0.5837190765609094  0.3983620419208084
  0.1666402416361783  0.7092278923645056  0.3992622983928202
  0.1672922010941382  0.8346553643997303  0.3999153923562050
  0.1676612636481326  0.9600790065441256  0.3998753456117355
  0.2927857538848261  0.0854784258803805  0.3999348304635397
  0.2935405666751667  0.2119354889319095  0.4014580739382817
  0.2942232947110608  0.3383417014853175  0.4044809768019741
  0.2869861047485507  0.4584888022843499  0.4036050347610815
  0.2887425624729528  0.5836234793749374  0.4000801459503400
  0.2910446462239086  0.7088167086817266  0.3990985676109991
  0.2918215580721477  0.8340757994805134  0.3994070442493979
  0.2923126874622681  0.9596446433963534  0.3997431492091205
  0.4172851848196661  0.0841915576492533  0.3996155268780358
  0.4178140707827419  0.2102414491072735  0.3999596953802797
  0.4192669776667698  0.3376624701034242  0.4024079102113682
  0.4104546368599545  0.5787235475649308  0.4088564017814474
  0.4153817966776192  0.7059576286189865  0.4012482027722625
  0.4163462295823277  0.8324252519970007  0.3995442845536809
  0.4168386945426046  0.9583363746569371  0.3995521344227883
  0.5417716113433438  0.0827332227641064  0.3997229676198572
  0.5422628238734066  0.2081937065198307  0.3994890488366903
  0.5431006665367902  0.3334527241331693  0.3995188312160064
  0.5460968929737394  0.4581127553446049  0.4010731177279167
  0.5436397115650747  0.5794137751440669  0.4045170432294618
  0.5398725677686356  0.7046160987547450  0.4029164866164133
  0.5407085072467653  0.8310950924375378  0.4004280743040186
  0.5413665298577697  0.9570732269033969  0.3996750703612585
  0.6663278554430377  0.0821264561552148  0.3998335483138425
  0.6667668258385389  0.2075439695005711  0.3997561502745952
  0.6674830898051648  0.3328443160195422  0.3993996935410955
  0.6693460292844834  0.4583770720144784  0.3990360820246440
  0.6700047902454312  0.5836577818620203  0.3992908203096135
  0.6660037314129081  0.7062306415141703  0.3997390748965041
  0.6655750209481092  0.8311013907736363  0.3999873050823143
  0.6659603156399391  0.9566549445178688  0.3998091334915350
  0.7910943766874088  0.0821281357262404  0.3998945156522600
  0.7913241283296888  0.2073659434546632  0.4000414063978578
  0.7919061186718380  0.3328239554759601  0.3999092442019888
  0.7929476809401759  0.4583920950494154  0.3996011722782482
  0.7935680634118740  0.5836814691596288  0.3991049962722862
  0.7929758721879522  0.7088132993229449  0.3990248886745078
  0.7914501880785333  0.8325727262617006  0.3992885635225773
  0.7909918262896971  0.9570979686828086  0.3995992118660504
  0.9163073544671443  0.0827803109253578  0.3997455837837817
  0.9160541896480455  0.2075669914518396  0.3996473858404785
  0.9161707537751868  0.3328540883716208  0.3995997666356773
  0.9167361815932764  0.4582859310189818  0.3998865052971399
  0.9176289570129765  0.5839339928644707  0.3998885384342992
  0.9177712018386561  0.7092466202385335  0.3996140874152518
  0.9174959235090617  0.8340823580793925  0.3995389901942802
  0.9168806530305547  0.9584462008842115  0.3996325479947724
  0.0843963304540866  0.0432286308402573  0.3998274279555356
  0.0840380308923752  0.1678956463608799  0.3997922572586819
  0.0823728879565055  0.2914835105150466  0.3992724684782527
  0.0816286863277403  0.4165721442809996  0.3984131836666532
  0.0823898695532884  0.5419709097350716  0.3986444035501281
  0.0834707102932981  0.6675002983494203  0.3996083659007508
  0.0841094548169950  0.7929793224448477  0.4000547566727363
  0.0843272136581118  0.9181700585570129  0.3998645157131147
  0.2094390561197371  0.0436408211190728  0.3999597943022356
  0.2097515517438943  0.1692359070836143  0.4007643922907856
  0.2096280134140319  0.2944316698217423  0.4015856151119703
  0.2052589266960323  0.4167046373463145  0.4002355628592836
  0.2058640832897016  0.5418336476552488  0.3986427632805000
  0.2078181818480311  0.6674211431069722  0.3987570344131229
  0.2086432626927911  0.7927612751032889  0.3995721693367551
  0.2091189197744129  0.9181965605706089  0.3998733997549623
  0.3340629040782875  0.0432048881204933  0.3997035285237563
  0.3346400319976441  0.1691897603486149  0.4003897185789132
  0.3354989041293329  0.2958028682489160  0.4033691924601998
  0.3320851070174896  0.4220571072346068  0.4091173052786155
  0.3287864712280981  0.5419793661913218  0.4034823420258286
  0.3321972021493325  0.6667564926013663  0.4000657629814732
  0.3331480065690983  0.7920422314676893  0.3992674263144536
  0.3336811189887297  0.9175089723798295  0.3995911799064680
  0.4586069903641308  0.0418594835096668  0.3996364507894074
  0.4590679090248939  0.1677012621793470  0.3995766701659613
  0.4599398473248981  0.2940062975897770  0.4001990890598354
  0.4645057108427719  0.4209924074952929  0.4047097801130486
  0.4560778676964523  0.6621237105547797  0.4041340017773496
  0.4575239003694671  0.7897718534146757  0.4002465810656269
  0.4581615342835582  0.9159735550985612  0.3995470732908378
  0.5831536393122623  0.0406504249544344  0.3997418499537483
  0.5835958861862801  0.1661934775870899  0.3996450773745938
  0.5843262927437345  0.2914207483102195  0.3993366546165167
  0.5864770180759972  0.4165233844038237  0.3994915919706735
  0.5880204755877204  0.5420709782333933  0.4009500925214339
  0.5817055881908592  0.6626540745666297  0.4019962607668169
  0.5817439612991581  0.7883656288874828  0.4010110125264081
  0.5825818028848564  0.9147955911282358  0.3998770645356822
  0.7077746804320170  0.0402538293315826  0.3998311627220218
  0.7081584701243545  0.1656878168285540  0.3999293160326040
  0.7087206620714608  0.2910635387401807  0.3997029119061699
  0.7100569214887573  0.4165910764156878  0.3992445332173013
  0.7110633741031268  0.5418313717831394  0.3989513743740408
  0.7096904943116293  0.6667382935480437  0.3991396649721112
  0.7076602932562486  0.7900215987100359  0.3995288399331516
  0.7074503716130820  0.9148089678394152  0.3997067931108430
  0.8328309132397190  0.0406684020014845  0.3997866759341299
  0.8328213262929786  0.1657059085760738  0.3999485845613859
  0.8331649595209141  0.2910691558018877  0.3999775520432086
  0.8338829871033483  0.4164461150790234  0.3999344391070023
  0.8347061636357159  0.5419449623992770  0.3995528684366588
  0.8347240894664406  0.6674183739526037  0.3991995673156530
  0.8341210876217002  0.7920576300576972  0.3992330932351573
  0.8332048731452744  0.9161035585943027  0.3994974665923401
  0.9586493227239462  0.0419668770102583  0.3996907137537942
  0.9578979501740658  0.1662313949639868  0.3995581706394277
  0.9575823244874059  0.2910930642967303  0.3992909902592067
  0.9577394824298563  0.4164244637214488  0.3994043128658776
  0.9586525345050577  0.5421136409153132  0.3998817263811530
  0.9592431090794760  0.6675298524667779  0.3998930560139639
  0.9593294525962239  0.7927476031086906  0.3997138559668562
  0.9591294857018343  0.9175373717871602  0.3996914806675672
  0.5039337401994350  0.5058401051805750  0.5079162983521072
  0.4269751297538394  0.5030096976675601  0.4959071840524484
 
  0.00000000E+00  0.00000000E+00  0.00000000E+00
  0.00000000E+00  0.00000000E+00  0.00000000E+00
  0.00000000E+00  0.00000000E+00  0.00000000E+00
  0.00000000E+00  0.00000000E+00  0.00000000E+00
  0.00000000E+00  0.00000000E+00  0.00000000E+00
  0.00000000E+00  0.00000000E+00  0.00000000E+00
  0.00000000E+00  0.00000000E+00  0.00000000E+00
  0.00000000E+00  0.00000000E+00  0.00000000E+00
  0.00000000E+00  0.00000000E+00  0.00000000E+00
  0.00000000E+00  0.00000000E+00  0.00000000E+00
  0.00000000E+00  0.00000000E+00  0.00000000E+00
  0.00000000E+00  0.00000000E+00  0.00000000E+00
  0.00000000E+00  0.00000000E+00  0.00000000E+00
  0.00000000E+00  0.00000000E+00  0.00000000E+00
  0.00000000E+00  0.00000000E+00  0.00000000E+00
  0.00000000E+00  0.00000000E+00  0.00000000E+00
  0.00000000E+00  0.00000000E+00  0.00000000E+00
  0.00000000E+00  0.00000000E+00  0.00000000E+00
  0.00000000E+00  0.00000000E+00  0.00000000E+00
  0.00000000E+00  0.00000000E+00  0.00000000E+00
  0.00000000E+00  0.00000000E+00  0.00000000E+00
  0.00000000E+00  0.00000000E+00  0.00000000E+00
  0.00000000E+00  0.00000000E+00  0.00000000E+00
  0.00000000E+00  0.00000000E+00  0.00000000E+00
  0.00000000E+00  0.00000000E+00  0.00000000E+00
  0.00000000E+00  0.00000000E+00  0.00000000E+00
  0.00000000E+00  0.00000000E+00  0.00000000E+00
  0.00000000E+00  0.00000000E+00  0.00000000E+00
  0.00000000E+00  0.00000000E+00  0.00000000E+00
  0.00000000E+00  0.00000000E+00  0.00000000E+00
  0.00000000E+00  0.00000000E+00  0.00000000E+00
  0.00000000E+00  0.00000000E+00  0.00000000E+00
  0.00000000E+00  0.00000000E+00  0.00000000E+00
  0.00000000E+00  0.00000000E+00  0.00000000E+00
  0.00000000E+00  0.00000000E+00  0.00000000E+00
  0.00000000E+00  0.00000000E+00  0.00000000E+00
  0.00000000E+00  0.00000000E+00  0.00000000E+00
  0.00000000E+00  0.00000000E+00  0.00000000E+00
  0.00000000E+00  0.00000000E+00  0.00000000E+00
  0.00000000E+00  0.00000000E+00  0.00000000E+00
  0.00000000E+00  0.00000000E+00  0.00000000E+00
  0.00000000E+00  0.00000000E+00  0.00000000E+00
  0.00000000E+00  0.00000000E+00  0.00000000E+00
  0.00000000E+00  0.00000000E+00  0.00000000E+00
  0.00000000E+00  0.00000000E+00  0.00000000E+00
  0.00000000E+00  0.00000000E+00  0.00000000E+00
  0.00000000E+00  0.00000000E+00  0.00000000E+00
  0.00000000E+00  0.00000000E+00  0.00000000E+00
  0.00000000E+00  0.00000000E+00  0.00000000E+00
  0.00000000E+00  0.00000000E+00  0.00000000E+00
  0.00000000E+00  0.00000000E+00  0.00000000E+00
  0.00000000E+00  0.00000000E+00  0.00000000E+00
  0.00000000E+00  0.00000000E+00  0.00000000E+00
  0.00000000E+00  0.00000000E+00  0.00000000E+00
  0.00000000E+00  0.00000000E+00  0.00000000E+00
  0.00000000E+00  0.00000000E+00  0.00000000E+00
  0.00000000E+00  0.00000000E+00  0.00000000E+00
  0.00000000E+00  0.00000000E+00  0.00000000E+00
  0.00000000E+00  0.00000000E+00  0.00000000E+00
  0.00000000E+00  0.00000000E+00  0.00000000E+00
  0.00000000E+00  0.00000000E+00  0.00000000E+00
  0.00000000E+00  0.00000000E+00  0.00000000E+00
  0.00000000E+00  0.00000000E+00  0.00000000E+00
  0.00000000E+00  0.00000000E+00  0.00000000E+00
  0.00000000E+00  0.00000000E+00  0.00000000E+00
  0.00000000E+00  0.00000000E+00  0.00000000E+00
  0.00000000E+00  0.00000000E+00  0.00000000E+00
  0.00000000E+00  0.00000000E+00  0.00000000E+00
  0.00000000E+00  0.00000000E+00  0.00000000E+00
  0.00000000E+00  0.00000000E+00  0.00000000E+00
  0.00000000E+00  0.00000000E+00  0.00000000E+00
  0.00000000E+00  0.00000000E+00  0.00000000E+00
  0.00000000E+00  0.00000000E+00  0.00000000E+00
  0.00000000E+00  0.00000000E+00  0.00000000E+00
  0.00000000E+00  0.00000000E+00  0.00000000E+00
  0.00000000E+00  0.00000000E+00  0.00000000E+00
  0.00000000E+00  0.00000000E+00  0.00000000E+00
  0.00000000E+00  0.00000000E+00  0.00000000E+00
  0.00000000E+00  0.00000000E+00  0.00000000E+00
  0.00000000E+00  0.00000000E+00  0.00000000E+00
  0.00000000E+00  0.00000000E+00  0.00000000E+00
  0.00000000E+00  0.00000000E+00  0.00000000E+00
  0.00000000E+00  0.00000000E+00  0.00000000E+00
  0.00000000E+00  0.00000000E+00  0.00000000E+00
  0.00000000E+00  0.00000000E+00  0.00000000E+00
  0.00000000E+00  0.00000000E+00  0.00000000E+00
  0.00000000E+00  0.00000000E+00  0.00000000E+00
  0.00000000E+00  0.00000000E+00  0.00000000E+00
  0.00000000E+00  0.00000000E+00  0.00000000E+00
  0.00000000E+00  0.00000000E+00  0.00000000E+00
  0.00000000E+00  0.00000000E+00  0.00000000E+00
  0.00000000E+00  0.00000000E+00  0.00000000E+00
  0.00000000E+00  0.00000000E+00  0.00000000E+00
  0.00000000E+00  0.00000000E+00  0.00000000E+00
  0.00000000E+00  0.00000000E+00  0.00000000E+00
  0.00000000E+00  0.00000000E+00  0.00000000E+00
  0.00000000E+00  0.00000000E+00  0.00000000E+00
  0.00000000E+00  0.00000000E+00  0.00000000E+00
  0.00000000E+00  0.00000000E+00  0.00000000E+00
  0.00000000E+00  0.00000000E+00  0.00000000E+00
  0.00000000E+00  0.00000000E+00  0.00000000E+00
  0.00000000E+00  0.00000000E+00  0.00000000E+00
  0.00000000E+00  0.00000000E+00  0.00000000E+00
  0.00000000E+00  0.00000000E+00  0.00000000E+00
  0.00000000E+00  0.00000000E+00  0.00000000E+00
  0.00000000E+00  0.00000000E+00  0.00000000E+00
  0.00000000E+00  0.00000000E+00  0.00000000E+00
  0.00000000E+00  0.00000000E+00  0.00000000E+00
  0.00000000E+00  0.00000000E+00  0.00000000E+00
  0.00000000E+00  0.00000000E+00  0.00000000E+00
  0.00000000E+00  0.00000000E+00  0.00000000E+00
  0.00000000E+00  0.00000000E+00  0.00000000E+00
  0.00000000E+00  0.00000000E+00  0.00000000E+00
  0.00000000E+00  0.00000000E+00  0.00000000E+00
  0.00000000E+00  0.00000000E+00  0.00000000E+00
  0.00000000E+00  0.00000000E+00  0.00000000E+00
  0.00000000E+00  0.00000000E+00  0.00000000E+00
  0.00000000E+00  0.00000000E+00  0.00000000E+00
  0.00000000E+00  0.00000000E+00  0.00000000E+00
  0.00000000E+00  0.00000000E+00  0.00000000E+00
  0.00000000E+00  0.00000000E+00  0.00000000E+00
  0.00000000E+00  0.00000000E+00  0.00000000E+00
  0.00000000E+00  0.00000000E+00  0.00000000E+00
  0.00000000E+00  0.00000000E+00  0.00000000E+00
  0.00000000E+00  0.00000000E+00  0.00000000E+00
  0.00000000E+00  0.00000000E+00  0.00000000E+00
  0.00000000E+00  0.00000000E+00  0.00000000E+00
  0.00000000E+00  0.00000000E+00  0.00000000E+00
  0.00000000E+00  0.00000000E+00  0.00000000E+00
  0.00000000E+00  0.00000000E+00  0.00000000E+00
