H1 Ru1 C125 N1 O1                       
   1.00000000000000     
    19.7926186865707052   -0.0106311279572484    0.2296247807355403
    -9.9046066208085186   17.0383948201496445    0.0051309207627787
     0.3459805139326128    0.2099734590019204   29.8528456387456806
   H    Ru   C    N    O 
     1     1   125     1     1
Direct
  0.5122259984873563  0.5609429789631479  0.5049611125079692
  0.4360124964562372  0.5007089850756137  0.4321804598830831
  0.0419037177306520  0.0840965498777550  0.3995973123155045
  0.0413360679760081  0.2084250745620533  0.3992190865611512
  0.0407818508029680  0.3329332337564320  0.3990653742041050
  0.0406604231473041  0.4581494293838822  0.3993058807762925
  0.0412000847799538  0.5835658938991035  0.3996015422482762
  0.0417619439184288  0.7089482373086806  0.3996587463802176
  0.0419781675402124  0.8341893115597411  0.3997354241071067
  0.0420050721890686  0.9592995239896954  0.3997265516536609
  0.1675116409658532  0.0852557514436938  0.3998791360436507
  0.1676903357514840  0.2104609920888517  0.3995944013517344
  0.1662870516679921  0.3341759806566422  0.3985740865259963
  0.1647791106578265  0.4584595522496270  0.3983138766237884
  0.1652132740678207  0.5835968505866156  0.3988610167489847
  0.1661540652133567  0.7088834968013201  0.3995924942851119
  0.1667280909081501  0.8342564374176659  0.3998647674514376
  0.1671736934683236  0.9597095218081582  0.3998938197789261
  0.2923185568693781  0.0851662280315502  0.4001982751989726
  0.2931334643421722  0.2115338320074723  0.4011337017518325
  0.2941916889668085  0.3384258367950408  0.4012493415073221
  0.2894962084805199  0.4595140824251912  0.3991060392130588
  0.2889120497544942  0.5840036130105890  0.3987029440398256
  0.2904581207924232  0.7087121721923024  0.3993383672122011
  0.2913763129891662  0.8338688062721379  0.3997499084238725
  0.2918502691175802  0.9593502578446894  0.3998522828592151
  0.4168705112953451  0.0840261151730550  0.3998407709704841
  0.4173290471402245  0.2101480818769742  0.4007901581612637
  0.4185711849169597  0.3376523456204749  0.4044988031423232
  0.4144059117983418  0.7058332907490489  0.4006486038333036
  0.4158494046836828  0.8322533286760011  0.3998103572081739
  0.4164163488731621  0.9581290795960448  0.3997187305873515
  0.5413665385901121  0.0825093713078565  0.3996043495591934
  0.5418309317738219  0.2080143670074224  0.3997685278872872
  0.5426506408947487  0.3332559506059267  0.4007894628546478
  0.5452704272189951  0.4580721399613250  0.4036178964924563
  0.5427819268267849  0.5776576271587807  0.4083153864805504
  0.5376592186289747  0.7024895058474486  0.4041900445749238
  0.5399632285122475  0.8304088653331592  0.4009290800507361
  0.5408888024908488  0.9566970137566495  0.3998719253983963
  0.6659423729130240  0.0818000105557886  0.3998554845655237
  0.6664289188480050  0.2073132618351884  0.3996195317226254
  0.6671107692279995  0.3326789380326715  0.3992608132095548
  0.6686988261016185  0.4580438588814734  0.3988195164449814
  0.6695209594276937  0.5831640708687497  0.3992835972984213
  0.6647705540648361  0.7051040445004388  0.4013114956742972
  0.6642499358251853  0.8300144637115566  0.4012546984311280
  0.6653130716715434  0.9560862241781949  0.4003012843938793
  0.7906860895539828  0.0817972446537171  0.3998762829630635
  0.7910398525132348  0.2071262928815580  0.3998445711189365
  0.7915896240607002  0.3325499892928163  0.3995957566554382
  0.7924902101043695  0.4580005443836535  0.3988257237965777
  0.7932595773625131  0.5834157881419419  0.3981758074204968
  0.7922598778491724  0.7082332813041083  0.3988768753156250
  0.7904851962346293  0.8318378681230802  0.3998733277495428
  0.7902347076083852  0.9564586373965563  0.4000137073105793
  0.9159203009597232  0.0825333951627027  0.3996032323833431
  0.9158866979944953  0.2074159229699855  0.3996252267265251
  0.9160385439273568  0.3326060265760163  0.3997994891996217
  0.9165106409150889  0.4580184843321773  0.3996460895824527
  0.9171983353427231  0.5835163104077732  0.3991985764384862
  0.9172056679052053  0.7088058467290571  0.3990098138801309
  0.9168354129280138  0.8336068448589850  0.3994700288785772
  0.9161739923102464  0.9579630119309525  0.3997711495531767
  0.0839427841578816  0.0429744182928880  0.3997009726163104
  0.0838803334057214  0.1677617170819351  0.3994083360889780
  0.0827913624775195  0.2918079352465053  0.3988214996016873
  0.0819479967425103  0.4164383144206933  0.3988302108969820
  0.0822631242592423  0.5417194294524581  0.3992861805262724
  0.0830074040134119  0.6671357558087010  0.3996499758706230
  0.0835322600626350  0.7925405889697311  0.3998036232171458
  0.0837573943282282  0.9177809746129848  0.3998052314297216
  0.2089905057649006  0.0433810115765014  0.4000058965358663
  0.2094930937669889  0.1690434060691833  0.4000988087137010
  0.2097563698042184  0.2944789993349287  0.3994379202662353
  0.2065596464459463  0.4173501427848856  0.3982430292253103
  0.2060387821899299  0.5417430002909966  0.3983236282132665
  0.2073485193217508  0.6670720375541802  0.3992184880597207
  0.2081325496387031  0.7924161006979069  0.3997733742308360
  0.2086033746795855  0.9178219295860270  0.3998922017827571
  0.3336023643358603  0.0429471630314946  0.3999460312974050
  0.3341507952925116  0.1688881385615058  0.4008007355682102
  0.3351455607226673  0.2954535916551947  0.4028048764344281
  0.3343386805074999  0.4222253530173073  0.4015939128993224
  0.3299598524723891  0.5430792948651706  0.3999455985291327
  0.3314771854971470  0.6668140129089860  0.3995072242516987
  0.3326792728364487  0.7918907941892117  0.3996422251399921
  0.3332336775805484  0.9172850813617346  0.3997844754711609
  0.4581805272537878  0.0416892444614952  0.3996669639160939
  0.4585899003821451  0.1675601657830514  0.4000303790936836
  0.4593299381931351  0.2939730852915802  0.4019120801340035
  0.4630244974032490  0.4212913192285542  0.4088818901092698
  0.4536205275695500  0.6611136201663805  0.4032099560764726
  0.4569567930585242  0.7896360100723248  0.4003464758584263
  0.4576799763143122  0.9157798942851696  0.3997882139448328
  0.5827048839059199  0.0403414557591754  0.3997236247134617
  0.5831727441686746  0.1659673443620178  0.3995924410350867
  0.5838335120029738  0.2912951618285152  0.3997472584853966
  0.5856673418891707  0.4162409339703081  0.4006445987904819
  0.5874512383017746  0.5410305651320524  0.4028373868855138
  0.5799198555501315  0.6607490886928438  0.4044936431410865
  0.5802136405715387  0.7870738793176315  0.4021615203858749
  0.5820130087879768  0.9142917027153107  0.4003044414956225
  0.7073027385144905  0.0398384008856734  0.4000068323642252
  0.7077957599482648  0.1654197610344673  0.3997719434014304
  0.7083588031078304  0.2908416884356600  0.3994720310298008
  0.7095152339720383  0.4161765629916144  0.3987388571291332
  0.7106045179307856  0.5414428199005621  0.3982768970690188
  0.7090218184527659  0.6661118409572124  0.3995933851113473
  0.7064803839082547  0.7889872081414756  0.4007287760227778
  0.7065025762123994  0.9139796956712826  0.4004670515857674
  0.8323162759660270  0.0402296644641438  0.3997918813456272
  0.8325342525073746  0.1654211750980468  0.3998053516498139
  0.8328813064637972  0.2907504131452117  0.3998329233327354
  0.8335206754911473  0.4161289817567958  0.3994077218904805
  0.8342974202571891  0.5415894643531139  0.3986396858955111
  0.8341959628429476  0.6669323368219444  0.3984884361097143
  0.8333761802103100  0.7914622918367515  0.3993678053557436
  0.8324058403400424  0.9154741803026905  0.3998975569082320
  0.9581548048728209  0.0415944663362339  0.3996680721890823
  0.9577887585322541  0.1661306689703344  0.3994622815960343
  0.9575575051160261  0.2909607362880901  0.3995900049568937
  0.9576578121535706  0.4161988448109225  0.3997081353534652
  0.9582729953990283  0.5416601011560959  0.3995653417419006
  0.9586999627955837  0.6671122587860221  0.3992946129563497
  0.9587308383188159  0.7923139661680700  0.3994237308741485
  0.9584743588387664  0.9170843835730725  0.3996989234795491
  0.4090402683125884  0.5798021186101848  0.4046113217093096
  0.4608126575422207  0.5254032326798384  0.4930829804424799
 
  0.00000000E+00  0.00000000E+00  0.00000000E+00
  0.00000000E+00  0.00000000E+00  0.00000000E+00
  0.00000000E+00  0.00000000E+00  0.00000000E+00
  0.00000000E+00  0.00000000E+00  0.00000000E+00
  0.00000000E+00  0.00000000E+00  0.00000000E+00
  0.00000000E+00  0.00000000E+00  0.00000000E+00
  0.00000000E+00  0.00000000E+00  0.00000000E+00
  0.00000000E+00  0.00000000E+00  0.00000000E+00
  0.00000000E+00  0.00000000E+00  0.00000000E+00
  0.00000000E+00  0.00000000E+00  0.00000000E+00
  0.00000000E+00  0.00000000E+00  0.00000000E+00
  0.00000000E+00  0.00000000E+00  0.00000000E+00
  0.00000000E+00  0.00000000E+00  0.00000000E+00
  0.00000000E+00  0.00000000E+00  0.00000000E+00
  0.00000000E+00  0.00000000E+00  0.00000000E+00
  0.00000000E+00  0.00000000E+00  0.00000000E+00
  0.00000000E+00  0.00000000E+00  0.00000000E+00
  0.00000000E+00  0.00000000E+00  0.00000000E+00
  0.00000000E+00  0.00000000E+00  0.00000000E+00
  0.00000000E+00  0.00000000E+00  0.00000000E+00
  0.00000000E+00  0.00000000E+00  0.00000000E+00
  0.00000000E+00  0.00000000E+00  0.00000000E+00
  0.00000000E+00  0.00000000E+00  0.00000000E+00
  0.00000000E+00  0.00000000E+00  0.00000000E+00
  0.00000000E+00  0.00000000E+00  0.00000000E+00
  0.00000000E+00  0.00000000E+00  0.00000000E+00
  0.00000000E+00  0.00000000E+00  0.00000000E+00
  0.00000000E+00  0.00000000E+00  0.00000000E+00
  0.00000000E+00  0.00000000E+00  0.00000000E+00
  0.00000000E+00  0.00000000E+00  0.00000000E+00
  0.00000000E+00  0.00000000E+00  0.00000000E+00
  0.00000000E+00  0.00000000E+00  0.00000000E+00
  0.00000000E+00  0.00000000E+00  0.00000000E+00
  0.00000000E+00  0.00000000E+00  0.00000000E+00
  0.00000000E+00  0.00000000E+00  0.00000000E+00
  0.00000000E+00  0.00000000E+00  0.00000000E+00
  0.00000000E+00  0.00000000E+00  0.00000000E+00
  0.00000000E+00  0.00000000E+00  0.00000000E+00
  0.00000000E+00  0.00000000E+00  0.00000000E+00
  0.00000000E+00  0.00000000E+00  0.00000000E+00
  0.00000000E+00  0.00000000E+00  0.00000000E+00
  0.00000000E+00  0.00000000E+00  0.00000000E+00
  0.00000000E+00  0.00000000E+00  0.00000000E+00
  0.00000000E+00  0.00000000E+00  0.00000000E+00
  0.00000000E+00  0.00000000E+00  0.00000000E+00
  0.00000000E+00  0.00000000E+00  0.00000000E+00
  0.00000000E+00  0.00000000E+00  0.00000000E+00
  0.00000000E+00  0.00000000E+00  0.00000000E+00
  0.00000000E+00  0.00000000E+00  0.00000000E+00
  0.00000000E+00  0.00000000E+00  0.00000000E+00
  0.00000000E+00  0.00000000E+00  0.00000000E+00
  0.00000000E+00  0.00000000E+00  0.00000000E+00
  0.00000000E+00  0.00000000E+00  0.00000000E+00
  0.00000000E+00  0.00000000E+00  0.00000000E+00
  0.00000000E+00  0.00000000E+00  0.00000000E+00
  0.00000000E+00  0.00000000E+00  0.00000000E+00
  0.00000000E+00  0.00000000E+00  0.00000000E+00
  0.00000000E+00  0.00000000E+00  0.00000000E+00
  0.00000000E+00  0.00000000E+00  0.00000000E+00
  0.00000000E+00  0.00000000E+00  0.00000000E+00
  0.00000000E+00  0.00000000E+00  0.00000000E+00
  0.00000000E+00  0.00000000E+00  0.00000000E+00
  0.00000000E+00  0.00000000E+00  0.00000000E+00
  0.00000000E+00  0.00000000E+00  0.00000000E+00
  0.00000000E+00  0.00000000E+00  0.00000000E+00
  0.00000000E+00  0.00000000E+00  0.00000000E+00
  0.00000000E+00  0.00000000E+00  0.00000000E+00
  0.00000000E+00  0.00000000E+00  0.00000000E+00
  0.00000000E+00  0.00000000E+00  0.00000000E+00
  0.00000000E+00  0.00000000E+00  0.00000000E+00
  0.00000000E+00  0.00000000E+00  0.00000000E+00
  0.00000000E+00  0.00000000E+00  0.00000000E+00
  0.00000000E+00  0.00000000E+00  0.00000000E+00
  0.00000000E+00  0.00000000E+00  0.00000000E+00
  0.00000000E+00  0.00000000E+00  0.00000000E+00
  0.00000000E+00  0.00000000E+00  0.00000000E+00
  0.00000000E+00  0.00000000E+00  0.00000000E+00
  0.00000000E+00  0.00000000E+00  0.00000000E+00
  0.00000000E+00  0.00000000E+00  0.00000000E+00
  0.00000000E+00  0.00000000E+00  0.00000000E+00
  0.00000000E+00  0.00000000E+00  0.00000000E+00
  0.00000000E+00  0.00000000E+00  0.00000000E+00
  0.00000000E+00  0.00000000E+00  0.00000000E+00
  0.00000000E+00  0.00000000E+00  0.00000000E+00
  0.00000000E+00  0.00000000E+00  0.00000000E+00
  0.00000000E+00  0.00000000E+00  0.00000000E+00
  0.00000000E+00  0.00000000E+00  0.00000000E+00
  0.00000000E+00  0.00000000E+00  0.00000000E+00
  0.00000000E+00  0.00000000E+00  0.00000000E+00
  0.00000000E+00  0.00000000E+00  0.00000000E+00
  0.00000000E+00  0.00000000E+00  0.00000000E+00
  0.00000000E+00  0.00000000E+00  0.00000000E+00
  0.00000000E+00  0.00000000E+00  0.00000000E+00
  0.00000000E+00  0.00000000E+00  0.00000000E+00
  0.00000000E+00  0.00000000E+00  0.00000000E+00
  0.00000000E+00  0.00000000E+00  0.00000000E+00
  0.00000000E+00  0.00000000E+00  0.00000000E+00
  0.00000000E+00  0.00000000E+00  0.00000000E+00
  0.00000000E+00  0.00000000E+00  0.00000000E+00
  0.00000000E+00  0.00000000E+00  0.00000000E+00
  0.00000000E+00  0.00000000E+00  0.00000000E+00
  0.00000000E+00  0.00000000E+00  0.00000000E+00
  0.00000000E+00  0.00000000E+00  0.00000000E+00
  0.00000000E+00  0.00000000E+00  0.00000000E+00
  0.00000000E+00  0.00000000E+00  0.00000000E+00
  0.00000000E+00  0.00000000E+00  0.00000000E+00
  0.00000000E+00  0.00000000E+00  0.00000000E+00
  0.00000000E+00  0.00000000E+00  0.00000000E+00
  0.00000000E+00  0.00000000E+00  0.00000000E+00
  0.00000000E+00  0.00000000E+00  0.00000000E+00
  0.00000000E+00  0.00000000E+00  0.00000000E+00
  0.00000000E+00  0.00000000E+00  0.00000000E+00
  0.00000000E+00  0.00000000E+00  0.00000000E+00
  0.00000000E+00  0.00000000E+00  0.00000000E+00
  0.00000000E+00  0.00000000E+00  0.00000000E+00
  0.00000000E+00  0.00000000E+00  0.00000000E+00
  0.00000000E+00  0.00000000E+00  0.00000000E+00
  0.00000000E+00  0.00000000E+00  0.00000000E+00
  0.00000000E+00  0.00000000E+00  0.00000000E+00
  0.00000000E+00  0.00000000E+00  0.00000000E+00
  0.00000000E+00  0.00000000E+00  0.00000000E+00
  0.00000000E+00  0.00000000E+00  0.00000000E+00
  0.00000000E+00  0.00000000E+00  0.00000000E+00
  0.00000000E+00  0.00000000E+00  0.00000000E+00
  0.00000000E+00  0.00000000E+00  0.00000000E+00
  0.00000000E+00  0.00000000E+00  0.00000000E+00
  0.00000000E+00  0.00000000E+00  0.00000000E+00
  0.00000000E+00  0.00000000E+00  0.00000000E+00
  0.00000000E+00  0.00000000E+00  0.00000000E+00
