V1 C124 N2 O1                           
   1.00000000000000     
    19.8088869095198845   -0.0139077362165436   -0.0356157615622380
    -9.9166088604585028   17.0588816044349301   -0.0433421245403929
    -0.0536703137851363   -0.1069358045011992   29.7903595997993271
   V    C    N    O 
     1   124     2     1
Direct
  0.4388709295330900  0.5008352849929332  0.4274855478700949
  0.0421859875344285  0.0841607142616688  0.3997286320112144
  0.0415128332329706  0.2085116976936458  0.3995032365889596
  0.0409043439039305  0.3330866067617808  0.3995408998010478
  0.0407745617616678  0.4583970597414924  0.3995971865905101
  0.0413688095643067  0.5837713783828039  0.3997612330016478
  0.0418905945189451  0.7090694477250727  0.3999096733923245
  0.0422107688768123  0.8343470859458544  0.3999968402352934
  0.0424082706680790  0.9595016128931748  0.3999390827494330
  0.1680893396781404  0.0856237284154365  0.3999221720665637
  0.1676724466682092  0.2102130547043014  0.3998581332813175
  0.1662113542598106  0.3341904245863316  0.3999981606086861
  0.1646102693049646  0.4586340476879315  0.3999271105894181
  0.1653684679071741  0.5837870102086421  0.3996869548333472
  0.1663191887219317  0.7090920939861696  0.3997789001047801
  0.1669226414813217  0.8344012746932211  0.3999461572230920
  0.1674227270490519  0.9598795124406646  0.3999996427301143
  0.2926358724961005  0.0852183067537766  0.3999676074645988
  0.2943593457834193  0.2123619771854407  0.4010275051447001
  0.2933860040060738  0.3377785407302642  0.4020697041606994
  0.2889281047786770  0.4592481484983307  0.4024640397815834
  0.2891750221600870  0.5844175656550188  0.4009369707090702
  0.2906922507391139  0.7091125462765143  0.3999248580094419
  0.2915743036649396  0.8341054611048301  0.3997451165547748
  0.2919815806522855  0.9594001999319839  0.3998326187125278
  0.4170897429538000  0.0838560371322318  0.3996997910304584
  0.4177167966802515  0.2095258266705507  0.4001915311847644
  0.4209183084268250  0.3373260662388541  0.4027475021911106
  0.4149368178295925  0.7070825928177247  0.4007876807116332
  0.4161364642614195  0.8328804596070928  0.3997473393083047
  0.4166333592634759  0.9583528921130049  0.3997074578934665
  0.5416579618638970  0.0826391003222825  0.3997487497081561
  0.5421820112032594  0.2078156864750256  0.3997831848457489
  0.5433635650199188  0.3327891605635092  0.4006023334184926
  0.5444165104224310  0.4561666877484710  0.4022970508800277
  0.5439265780912116  0.5803679163176018  0.4024485132806011
  0.5386724627842107  0.7038718012630126  0.4018408764098303
  0.5404655320014908  0.8312390614874754  0.4002631262506504
  0.5412857067046271  0.9571803340752894  0.3998412401846855
  0.6663189981972341  0.0821692513767443  0.3999790302269094
  0.6667978569414134  0.2074912079367961  0.3998335575948346
  0.6675777369685618  0.3327392559425002  0.3998598270508590
  0.6689638811715861  0.4581157165237528  0.4000521069480930
  0.6690118894730276  0.5827538036823862  0.4000047851862825
  0.6660413441140248  0.7064254468757204  0.3995305069180417
  0.6650390389738762  0.8307888057994607  0.3999750067167212
  0.6658431248067448  0.9566997751103006  0.4000090477352033
  0.7911461151075414  0.0822333545229799  0.4000178483305066
  0.7914210097559247  0.2074526779332907  0.3999936544460422
  0.7919368803619712  0.3327737792723782  0.3998484767033081
  0.7927117769754599  0.4581882762826068  0.3997379754012272
  0.7931699472278334  0.5834416399432792  0.3996682379082921
  0.7923648313331207  0.7083031213034060  0.3994838407456412
  0.7912629134475736  0.8325451442626906  0.3995831794619741
  0.7907881572852692  0.9569959521676669  0.3998720187553772
  0.9163531170270438  0.0828603105799935  0.3998427552869337
  0.9162438882378340  0.2077289210209565  0.3998202079587829
  0.9163293932114662  0.3328699099810155  0.3998183893037330
  0.9166985636633215  0.4582099066069579  0.3997870823232783
  0.9173038155246772  0.5836782756725781  0.3998189709287782
  0.9173485428191337  0.7089412554388199  0.3998179454036987
  0.9170941569102850  0.8337882552275814  0.3998016265880882
  0.9166734305508945  0.9583306432488383  0.3998616176917527
  0.0844083839424663  0.0431951432619499  0.3998325365524607
  0.0839434323827354  0.1676745067732117  0.3995675299373110
  0.0827983121616627  0.2918634512168985  0.3995489782687564
  0.0819692237090078  0.4167035119541387  0.3995541947034858
  0.0824257272569335  0.5419339086859137  0.3996444368999609
  0.0831618053901487  0.6673154323078561  0.3998209128689036
  0.0836988493835220  0.7926661119255721  0.3999787758248999
  0.0840184700323495  0.9179204341614103  0.4000035100371722
  0.2093058981485055  0.0434661316448416  0.3999889033099401
  0.2101680692997726  0.1694506493126597  0.4001978661280839
  0.2092132567795871  0.2938686876378989  0.4002453150646587
  0.2061430699597877  0.4174521537291432  0.4005357669304463
  0.2061980342654149  0.5420515105244217  0.4000384368494389
  0.2075507671531776  0.6673833222964374  0.3997715267495929
  0.2083167466699016  0.7926189691391128  0.3998318763540313
  0.2087963177561759  0.9179478063618932  0.3999481913578308
  0.3338145435836402  0.0429275711188473  0.3997901219734016
  0.3346975133564445  0.1689464455791045  0.4003639860188244
  0.3365635788738225  0.2964003483426191  0.4025033001302720
  0.3313783740714950  0.4201323614800531  0.4043335959775951
  0.3308054017886415  0.5440772891874740  0.4028772712470390
  0.3318208363924930  0.6673724095827912  0.4005575114063575
  0.3329333727937405  0.7922880199144940  0.3997445957811331
  0.3334523674556141  0.9174729045711953  0.3997528277060676
  0.4584700542206935  0.0417638704857420  0.3996979278109939
  0.4589774065317424  0.1672282066608567  0.3997751377472799
  0.4602360605131927  0.2930680377829120  0.4009053322573034
  0.4542979681114617  0.6628322180265575  0.4025370404609467
  0.4574393200720971  0.7906233840956737  0.4000956556176612
  0.4580126461034891  0.9162564273866877  0.3997291535108820
  0.5831204269008040  0.0407180357779243  0.3998463253569788
  0.5835363064896790  0.1659961259175305  0.3997409247052571
  0.5844413920957555  0.2910071783390391  0.3999932708604455
  0.5860218532671487  0.4157744110776029  0.4008389209013838
  0.5862005961178935  0.5409973206523390  0.4012965384995246
  0.5819440934933592  0.6626513372981152  0.4008851062133704
  0.5808476545554087  0.7878754490714533  0.4006750008705330
  0.5825044800935880  0.9149384503867284  0.3999831474060856
  0.7077265680558038  0.0402751465852323  0.4000334649340698
  0.7081905436286023  0.1657115324247085  0.3999532256618967
  0.7088005614800682  0.2910161237645742  0.3998182883130967
  0.7097713061622323  0.4163492325964633  0.3998078839942021
  0.7105255503028068  0.5415483519107827  0.3998737866991965
  0.7089587575352564  0.6660179648984732  0.3994991885499372
  0.7075543875676943  0.7900449320630688  0.3995799553436228
  0.7070976238363527  0.9145888831222837  0.3999048046366231
  0.8327734013447680  0.0406830115079609  0.3999522797353476
  0.8329333293822356  0.1657999713360254  0.3999898132896039
  0.8332310913983090  0.2910520131527928  0.3999203671571818
  0.8337640306740259  0.4163468783625475  0.3998066100977080
  0.8343510166420705  0.5417315555029780  0.3997419557792473
  0.8342373066923193  0.6670638865287734  0.3996618390001741
  0.8336499694954254  0.7916645269234444  0.3995730039074419
  0.8330033690581257  0.9160303723044683  0.3997848864989462
  0.9585192080228183  0.0418699250188698  0.3998191851138317
  0.9580713652598318  0.1663951250612375  0.3996952202872870
  0.9577906412816442  0.2912104822135670  0.3997051555156243
  0.9578219455388681  0.4164383079146241  0.3997394689869728
  0.9584229789421849  0.5418936619012761  0.3997918681658367
  0.9587940524458806  0.6672601122806461  0.3998648915250215
  0.9589076338286624  0.7924350434663764  0.3998996354277140
  0.9588295595269007  0.9173193643569798  0.3998910731210525
  0.4103610278590911  0.5823533966642820  0.4049462649962435
  0.4649071613313663  0.4178688261601839  0.4046668877034960
  0.4412677549955096  0.5036987475062603  0.4816844881348029
 
  0.00000000E+00  0.00000000E+00  0.00000000E+00
  0.00000000E+00  0.00000000E+00  0.00000000E+00
  0.00000000E+00  0.00000000E+00  0.00000000E+00
  0.00000000E+00  0.00000000E+00  0.00000000E+00
  0.00000000E+00  0.00000000E+00  0.00000000E+00
  0.00000000E+00  0.00000000E+00  0.00000000E+00
  0.00000000E+00  0.00000000E+00  0.00000000E+00
  0.00000000E+00  0.00000000E+00  0.00000000E+00
  0.00000000E+00  0.00000000E+00  0.00000000E+00
  0.00000000E+00  0.00000000E+00  0.00000000E+00
  0.00000000E+00  0.00000000E+00  0.00000000E+00
  0.00000000E+00  0.00000000E+00  0.00000000E+00
  0.00000000E+00  0.00000000E+00  0.00000000E+00
  0.00000000E+00  0.00000000E+00  0.00000000E+00
  0.00000000E+00  0.00000000E+00  0.00000000E+00
  0.00000000E+00  0.00000000E+00  0.00000000E+00
  0.00000000E+00  0.00000000E+00  0.00000000E+00
  0.00000000E+00  0.00000000E+00  0.00000000E+00
  0.00000000E+00  0.00000000E+00  0.00000000E+00
  0.00000000E+00  0.00000000E+00  0.00000000E+00
  0.00000000E+00  0.00000000E+00  0.00000000E+00
  0.00000000E+00  0.00000000E+00  0.00000000E+00
  0.00000000E+00  0.00000000E+00  0.00000000E+00
  0.00000000E+00  0.00000000E+00  0.00000000E+00
  0.00000000E+00  0.00000000E+00  0.00000000E+00
  0.00000000E+00  0.00000000E+00  0.00000000E+00
  0.00000000E+00  0.00000000E+00  0.00000000E+00
  0.00000000E+00  0.00000000E+00  0.00000000E+00
  0.00000000E+00  0.00000000E+00  0.00000000E+00
  0.00000000E+00  0.00000000E+00  0.00000000E+00
  0.00000000E+00  0.00000000E+00  0.00000000E+00
  0.00000000E+00  0.00000000E+00  0.00000000E+00
  0.00000000E+00  0.00000000E+00  0.00000000E+00
  0.00000000E+00  0.00000000E+00  0.00000000E+00
  0.00000000E+00  0.00000000E+00  0.00000000E+00
  0.00000000E+00  0.00000000E+00  0.00000000E+00
  0.00000000E+00  0.00000000E+00  0.00000000E+00
  0.00000000E+00  0.00000000E+00  0.00000000E+00
  0.00000000E+00  0.00000000E+00  0.00000000E+00
  0.00000000E+00  0.00000000E+00  0.00000000E+00
  0.00000000E+00  0.00000000E+00  0.00000000E+00
  0.00000000E+00  0.00000000E+00  0.00000000E+00
  0.00000000E+00  0.00000000E+00  0.00000000E+00
  0.00000000E+00  0.00000000E+00  0.00000000E+00
  0.00000000E+00  0.00000000E+00  0.00000000E+00
  0.00000000E+00  0.00000000E+00  0.00000000E+00
  0.00000000E+00  0.00000000E+00  0.00000000E+00
  0.00000000E+00  0.00000000E+00  0.00000000E+00
  0.00000000E+00  0.00000000E+00  0.00000000E+00
  0.00000000E+00  0.00000000E+00  0.00000000E+00
  0.00000000E+00  0.00000000E+00  0.00000000E+00
  0.00000000E+00  0.00000000E+00  0.00000000E+00
  0.00000000E+00  0.00000000E+00  0.00000000E+00
  0.00000000E+00  0.00000000E+00  0.00000000E+00
  0.00000000E+00  0.00000000E+00  0.00000000E+00
  0.00000000E+00  0.00000000E+00  0.00000000E+00
  0.00000000E+00  0.00000000E+00  0.00000000E+00
  0.00000000E+00  0.00000000E+00  0.00000000E+00
  0.00000000E+00  0.00000000E+00  0.00000000E+00
  0.00000000E+00  0.00000000E+00  0.00000000E+00
  0.00000000E+00  0.00000000E+00  0.00000000E+00
  0.00000000E+00  0.00000000E+00  0.00000000E+00
  0.00000000E+00  0.00000000E+00  0.00000000E+00
  0.00000000E+00  0.00000000E+00  0.00000000E+00
  0.00000000E+00  0.00000000E+00  0.00000000E+00
  0.00000000E+00  0.00000000E+00  0.00000000E+00
  0.00000000E+00  0.00000000E+00  0.00000000E+00
  0.00000000E+00  0.00000000E+00  0.00000000E+00
  0.00000000E+00  0.00000000E+00  0.00000000E+00
  0.00000000E+00  0.00000000E+00  0.00000000E+00
  0.00000000E+00  0.00000000E+00  0.00000000E+00
  0.00000000E+00  0.00000000E+00  0.00000000E+00
  0.00000000E+00  0.00000000E+00  0.00000000E+00
  0.00000000E+00  0.00000000E+00  0.00000000E+00
  0.00000000E+00  0.00000000E+00  0.00000000E+00
  0.00000000E+00  0.00000000E+00  0.00000000E+00
  0.00000000E+00  0.00000000E+00  0.00000000E+00
  0.00000000E+00  0.00000000E+00  0.00000000E+00
  0.00000000E+00  0.00000000E+00  0.00000000E+00
  0.00000000E+00  0.00000000E+00  0.00000000E+00
  0.00000000E+00  0.00000000E+00  0.00000000E+00
  0.00000000E+00  0.00000000E+00  0.00000000E+00
  0.00000000E+00  0.00000000E+00  0.00000000E+00
  0.00000000E+00  0.00000000E+00  0.00000000E+00
  0.00000000E+00  0.00000000E+00  0.00000000E+00
  0.00000000E+00  0.00000000E+00  0.00000000E+00
  0.00000000E+00  0.00000000E+00  0.00000000E+00
  0.00000000E+00  0.00000000E+00  0.00000000E+00
  0.00000000E+00  0.00000000E+00  0.00000000E+00
  0.00000000E+00  0.00000000E+00  0.00000000E+00
  0.00000000E+00  0.00000000E+00  0.00000000E+00
  0.00000000E+00  0.00000000E+00  0.00000000E+00
  0.00000000E+00  0.00000000E+00  0.00000000E+00
  0.00000000E+00  0.00000000E+00  0.00000000E+00
  0.00000000E+00  0.00000000E+00  0.00000000E+00
  0.00000000E+00  0.00000000E+00  0.00000000E+00
  0.00000000E+00  0.00000000E+00  0.00000000E+00
  0.00000000E+00  0.00000000E+00  0.00000000E+00
  0.00000000E+00  0.00000000E+00  0.00000000E+00
  0.00000000E+00  0.00000000E+00  0.00000000E+00
  0.00000000E+00  0.00000000E+00  0.00000000E+00
  0.00000000E+00  0.00000000E+00  0.00000000E+00
  0.00000000E+00  0.00000000E+00  0.00000000E+00
  0.00000000E+00  0.00000000E+00  0.00000000E+00
  0.00000000E+00  0.00000000E+00  0.00000000E+00
  0.00000000E+00  0.00000000E+00  0.00000000E+00
  0.00000000E+00  0.00000000E+00  0.00000000E+00
  0.00000000E+00  0.00000000E+00  0.00000000E+00
  0.00000000E+00  0.00000000E+00  0.00000000E+00
  0.00000000E+00  0.00000000E+00  0.00000000E+00
  0.00000000E+00  0.00000000E+00  0.00000000E+00
  0.00000000E+00  0.00000000E+00  0.00000000E+00
  0.00000000E+00  0.00000000E+00  0.00000000E+00
  0.00000000E+00  0.00000000E+00  0.00000000E+00
  0.00000000E+00  0.00000000E+00  0.00000000E+00
  0.00000000E+00  0.00000000E+00  0.00000000E+00
  0.00000000E+00  0.00000000E+00  0.00000000E+00
  0.00000000E+00  0.00000000E+00  0.00000000E+00
  0.00000000E+00  0.00000000E+00  0.00000000E+00
  0.00000000E+00  0.00000000E+00  0.00000000E+00
  0.00000000E+00  0.00000000E+00  0.00000000E+00
  0.00000000E+00  0.00000000E+00  0.00000000E+00
  0.00000000E+00  0.00000000E+00  0.00000000E+00
  0.00000000E+00  0.00000000E+00  0.00000000E+00
  0.00000000E+00  0.00000000E+00  0.00000000E+00
  0.00000000E+00  0.00000000E+00  0.00000000E+00
  0.00000000E+00  0.00000000E+00  0.00000000E+00
  0.00000000E+00  0.00000000E+00  0.00000000E+00
