Sc1 C122 N4                             
   1.00000000000000     
    19.8045506480563276   -0.0000269889627755    0.0008607749962817
    -9.9023008762709726   17.0452626217401111    0.0011154748061175
     0.0012822148431424    0.0027183401752221   29.8080622479339681
   Sc   C    N 
     1   122     4
Direct
  0.4374608337478560  0.4999894062192615  0.4304161465712212
  0.0419382253253061  0.0839792066974618  0.3998848032361629
  0.0411767837324328  0.2082540322981808  0.3997429304598475
  0.0405253798541902  0.3331140182717854  0.3997436853288099
  0.0405741521729153  0.4582652537960300  0.3997917557812162
  0.0413131580184360  0.5836227902984462  0.4000201835150172
  0.0419979720658736  0.7089685418903939  0.4000943539866327
  0.0421403070328793  0.8340747284182484  0.4000806517648792
  0.0423171984817612  0.9593022467655601  0.4000298400947537
  0.1677717881234178  0.0851854024228038  0.3998901361504409
  0.1674197775361271  0.2098981052754940  0.3996405737791542
  0.1652766765057453  0.3337396157727932  0.3998435697154826
  0.1644733869779534  0.4584549608674733  0.3996106465891268
  0.1652925901075111  0.5836665908953882  0.3996205348698469
  0.1663458710702243  0.7088041293393055  0.3999319346262025
  0.1669245635416775  0.8340788800447384  0.4000557602832111
  0.1672721734969395  0.9595662247988347  0.3999854784197339
  0.2923881089143966  0.0851871439269082  0.3998527442851047
  0.2936267749032636  0.2123021951953201  0.4002670044949312
  0.2920682745444942  0.3376138564449870  0.4014550198158424
  0.2881714568734225  0.4581949339995170  0.4014097206200427
  0.2888386483425799  0.5830176812492321  0.4000410961351567
  0.2907729088051943  0.7082042119903283  0.3997030743840083
  0.2916663063389603  0.8337185473089748  0.3999214552177754
  0.2919773000630334  0.9592973328883684  0.3999825899824249
  0.4170308511079400  0.0839807012113893  0.3998569367933744
  0.4174434072440215  0.2099066718996231  0.3996211148022208
  0.4205372285395127  0.3376240953154772  0.4014626286145514
  0.4152240682295374  0.7065365300399126  0.3998419952748583
  0.4162303505345101  0.8324839028550861  0.3996947583383627
  0.4166294045636241  0.9581813916367553  0.4000139489409379
  0.5415766225915644  0.0827770999871017  0.4000414776090179
  0.5420720155869007  0.2082563801094306  0.3997568302965463
  0.5434776366002130  0.3337332691139528  0.3998542945160400
  0.5450498288420437  0.4581856749680928  0.4014438814523545
  0.5388637088228516  0.7027495977327440  0.4013390607589011
  0.5407296997223963  0.8308026098809261  0.3999106495483967
  0.5413094713467894  0.9570404032741059  0.3999257361713168
  0.6662340170183483  0.0822731073977873  0.4000442112848371
  0.6667601728952225  0.2077052467267819  0.4000265246850835
  0.6676041387089524  0.3331233207713868  0.3997499423841471
  0.6690174112805841  0.4584581069803805  0.3995992309199927
  0.6692214360794337  0.5830194704019683  0.4000476553825963
  0.6662982322377363  0.7065217115821887  0.3998342340325778
  0.6650378007866727  0.8308100626612349  0.3998935283329249
  0.6658729005377342  0.9567590390038473  0.3999184801258880
  0.7910330841471175  0.0822755106015980  0.4000265748351176
  0.7912911010082948  0.2075927472464619  0.4000848975354689
  0.7918003470078696  0.3328913244960321  0.4000282728733341
  0.7926939773126389  0.4582733649278432  0.3997578496284020
  0.7933901316529738  0.5836560975626505  0.3996012434090803
  0.7924622520685295  0.7082143123969578  0.3997209351115248
  0.7912456672554405  0.8324799061779496  0.3996708644344317
  0.7907115481384851  0.9570419149306710  0.3998739780507235
  0.9162001017978337  0.0827857442029409  0.3999953395110099
  0.9159363886528846  0.2077076859324389  0.3999939780889785
  0.9161166059598934  0.3328922445638040  0.4000398183650888
  0.9166514062022393  0.4582908329314064  0.4000937332759409
  0.9173072040117848  0.5836152237049365  0.3999982716962939
  0.9174732454589034  0.7088035980312197  0.3999436220192590
  0.9170596811754297  0.8337302846081656  0.3999599646641796
  0.9165559434175453  0.9581879605299590  0.4000180467252432
  0.0842678110310959  0.0429589018686920  0.3999256428138726
  0.0837462246216392  0.1675159522652161  0.3996886148286704
  0.0825687569109064  0.2917938989989741  0.3996999835799741
  0.0816248765204321  0.4163302859793761  0.3996199382735795
  0.0823101217308854  0.5417384334511373  0.3997928412493480
  0.0832254206946513  0.6671093979210464  0.4000414320550728
  0.0837003396866952  0.7924066723252993  0.4000845533395679
  0.0839605979335574  0.9177272841011488  0.4000429085988702
  0.2091133118031189  0.0432419773724323  0.3999176811418218
  0.2099257903474251  0.1691989752341729  0.3999101467344633
  0.2086878955021615  0.2934642556003152  0.3998397041866240
  0.2058229401689124  0.4169813713222277  0.4000391517136502
  0.2060243325390851  0.5415470655499746  0.3996120738417857
  0.2074150284274206  0.6668911056249706  0.3997449297195668
  0.2082322076872901  0.7922947154465900  0.3999948910568311
  0.2087582194581739  0.9177261117757237  0.4000244231713421
  0.3336718372877722  0.0429591589558529  0.3998718119936174
  0.3342281605154300  0.1691902319648617  0.3998914130693622
  0.3361136188849935  0.2972507846702318  0.4013371900096552
  0.3299771996089829  0.5418035296681664  0.4014106339182070
  0.3315399052657444  0.6662623877232797  0.3998466798343232
  0.3329254296438337  0.7917466163376146  0.3997470871568445
  0.3334195875025743  0.9172146034524841  0.3999966966175742
  0.4583682724554574  0.0418115172217757  0.4000184910074867
  0.4587675078291160  0.1675196227347265  0.3996699343835199
  0.4597773918771778  0.2934783980770467  0.3998327550657779
  0.4544533819006378  0.6623844087353850  0.4014563299962099
  0.4575212076525098  0.7901042803284107  0.3996438382634305
  0.4579588123463035  0.9160210138847443  0.3998877361625137
  0.5830129139402550  0.0406974993080777  0.4000304325947758
  0.5833279690008417  0.1662650218762924  0.3999611251371974
  0.5842492705124996  0.2917859705783435  0.3997206940167851
  0.5862047961523341  0.4169837553200446  0.4000466890533686
  0.5868633410007680  0.5418132455569260  0.4014442390597464
  0.5829111389788580  0.6623745465722028  0.4014646850435840
  0.5813254035483728  0.7877006202207799  0.4002686214941024
  0.5825855049267136  0.9148167670076689  0.3998901463381707
  0.7077049936977169  0.0404331618646140  0.3999871192893862
  0.7080646027115998  0.1659237943141826  0.4000830659754186
  0.7086681063137767  0.2911948383806506  0.3999436576244782
  0.7097347145017311  0.4163444403543127  0.3996002120655998
  0.7105610739847426  0.5415432745074148  0.3996005069591806
  0.7097454544589418  0.6662658486141654  0.3998553911670008
  0.7075385978243187  0.7900953240111751  0.3996231761472284
  0.7072016669158425  0.9148148765035939  0.3998551253922263
  0.8326844470389375  0.0407038646863060  0.3999844985813444
  0.8328474420719981  0.1659214871040050  0.4000556352506283
  0.8330291606652332  0.2910312264017562  0.4000937248751295
  0.8336866246151099  0.4163793177818630  0.3999978552456236
  0.8344207063254250  0.5417272081799225  0.3997579335548206
  0.8344843471467283  0.6668786216594613  0.3997507144321593
  0.8338177488300479  0.7917450773593907  0.3997567767584367
  0.8330535002946062  0.9160201417110988  0.3998573080542799
  0.9584515876231937  0.0418176399950686  0.4000131967173218
  0.9579500882554791  0.1662807350548244  0.3999204544821916
  0.9575409530787673  0.2911939689138676  0.3999317663326353
  0.9576862895837249  0.4163736929275165  0.4000189041140328
  0.9583586991167111  0.5417097260337741  0.4000944032274084
  0.9589108068623172  0.6671097801075869  0.4000291098187472
  0.9590561813952668  0.7922947077359802  0.4000247207213156
  0.9587996836110145  0.9172238289031438  0.4000405106498532
  0.4110072332276006  0.5817408924360685  0.4042231792009977
  0.5457484612666212  0.5817301703728807  0.4042806539253194
  0.3292646302855401  0.4182581339403121  0.4042222072812832
  0.4640179672813376  0.4182686516418100  0.4042788450386397
 
  0.00000000E+00  0.00000000E+00  0.00000000E+00
  0.00000000E+00  0.00000000E+00  0.00000000E+00
  0.00000000E+00  0.00000000E+00  0.00000000E+00
  0.00000000E+00  0.00000000E+00  0.00000000E+00
  0.00000000E+00  0.00000000E+00  0.00000000E+00
  0.00000000E+00  0.00000000E+00  0.00000000E+00
  0.00000000E+00  0.00000000E+00  0.00000000E+00
  0.00000000E+00  0.00000000E+00  0.00000000E+00
  0.00000000E+00  0.00000000E+00  0.00000000E+00
  0.00000000E+00  0.00000000E+00  0.00000000E+00
  0.00000000E+00  0.00000000E+00  0.00000000E+00
  0.00000000E+00  0.00000000E+00  0.00000000E+00
  0.00000000E+00  0.00000000E+00  0.00000000E+00
  0.00000000E+00  0.00000000E+00  0.00000000E+00
  0.00000000E+00  0.00000000E+00  0.00000000E+00
  0.00000000E+00  0.00000000E+00  0.00000000E+00
  0.00000000E+00  0.00000000E+00  0.00000000E+00
  0.00000000E+00  0.00000000E+00  0.00000000E+00
  0.00000000E+00  0.00000000E+00  0.00000000E+00
  0.00000000E+00  0.00000000E+00  0.00000000E+00
  0.00000000E+00  0.00000000E+00  0.00000000E+00
  0.00000000E+00  0.00000000E+00  0.00000000E+00
  0.00000000E+00  0.00000000E+00  0.00000000E+00
  0.00000000E+00  0.00000000E+00  0.00000000E+00
  0.00000000E+00  0.00000000E+00  0.00000000E+00
  0.00000000E+00  0.00000000E+00  0.00000000E+00
  0.00000000E+00  0.00000000E+00  0.00000000E+00
  0.00000000E+00  0.00000000E+00  0.00000000E+00
  0.00000000E+00  0.00000000E+00  0.00000000E+00
  0.00000000E+00  0.00000000E+00  0.00000000E+00
  0.00000000E+00  0.00000000E+00  0.00000000E+00
  0.00000000E+00  0.00000000E+00  0.00000000E+00
  0.00000000E+00  0.00000000E+00  0.00000000E+00
  0.00000000E+00  0.00000000E+00  0.00000000E+00
  0.00000000E+00  0.00000000E+00  0.00000000E+00
  0.00000000E+00  0.00000000E+00  0.00000000E+00
  0.00000000E+00  0.00000000E+00  0.00000000E+00
  0.00000000E+00  0.00000000E+00  0.00000000E+00
  0.00000000E+00  0.00000000E+00  0.00000000E+00
  0.00000000E+00  0.00000000E+00  0.00000000E+00
  0.00000000E+00  0.00000000E+00  0.00000000E+00
  0.00000000E+00  0.00000000E+00  0.00000000E+00
  0.00000000E+00  0.00000000E+00  0.00000000E+00
  0.00000000E+00  0.00000000E+00  0.00000000E+00
  0.00000000E+00  0.00000000E+00  0.00000000E+00
  0.00000000E+00  0.00000000E+00  0.00000000E+00
  0.00000000E+00  0.00000000E+00  0.00000000E+00
  0.00000000E+00  0.00000000E+00  0.00000000E+00
  0.00000000E+00  0.00000000E+00  0.00000000E+00
  0.00000000E+00  0.00000000E+00  0.00000000E+00
  0.00000000E+00  0.00000000E+00  0.00000000E+00
  0.00000000E+00  0.00000000E+00  0.00000000E+00
  0.00000000E+00  0.00000000E+00  0.00000000E+00
  0.00000000E+00  0.00000000E+00  0.00000000E+00
  0.00000000E+00  0.00000000E+00  0.00000000E+00
  0.00000000E+00  0.00000000E+00  0.00000000E+00
  0.00000000E+00  0.00000000E+00  0.00000000E+00
  0.00000000E+00  0.00000000E+00  0.00000000E+00
  0.00000000E+00  0.00000000E+00  0.00000000E+00
  0.00000000E+00  0.00000000E+00  0.00000000E+00
  0.00000000E+00  0.00000000E+00  0.00000000E+00
  0.00000000E+00  0.00000000E+00  0.00000000E+00
  0.00000000E+00  0.00000000E+00  0.00000000E+00
  0.00000000E+00  0.00000000E+00  0.00000000E+00
  0.00000000E+00  0.00000000E+00  0.00000000E+00
  0.00000000E+00  0.00000000E+00  0.00000000E+00
  0.00000000E+00  0.00000000E+00  0.00000000E+00
  0.00000000E+00  0.00000000E+00  0.00000000E+00
  0.00000000E+00  0.00000000E+00  0.00000000E+00
  0.00000000E+00  0.00000000E+00  0.00000000E+00
  0.00000000E+00  0.00000000E+00  0.00000000E+00
  0.00000000E+00  0.00000000E+00  0.00000000E+00
  0.00000000E+00  0.00000000E+00  0.00000000E+00
  0.00000000E+00  0.00000000E+00  0.00000000E+00
  0.00000000E+00  0.00000000E+00  0.00000000E+00
  0.00000000E+00  0.00000000E+00  0.00000000E+00
  0.00000000E+00  0.00000000E+00  0.00000000E+00
  0.00000000E+00  0.00000000E+00  0.00000000E+00
  0.00000000E+00  0.00000000E+00  0.00000000E+00
  0.00000000E+00  0.00000000E+00  0.00000000E+00
  0.00000000E+00  0.00000000E+00  0.00000000E+00
  0.00000000E+00  0.00000000E+00  0.00000000E+00
  0.00000000E+00  0.00000000E+00  0.00000000E+00
  0.00000000E+00  0.00000000E+00  0.00000000E+00
  0.00000000E+00  0.00000000E+00  0.00000000E+00
  0.00000000E+00  0.00000000E+00  0.00000000E+00
  0.00000000E+00  0.00000000E+00  0.00000000E+00
  0.00000000E+00  0.00000000E+00  0.00000000E+00
  0.00000000E+00  0.00000000E+00  0.00000000E+00
  0.00000000E+00  0.00000000E+00  0.00000000E+00
  0.00000000E+00  0.00000000E+00  0.00000000E+00
  0.00000000E+00  0.00000000E+00  0.00000000E+00
  0.00000000E+00  0.00000000E+00  0.00000000E+00
  0.00000000E+00  0.00000000E+00  0.00000000E+00
  0.00000000E+00  0.00000000E+00  0.00000000E+00
  0.00000000E+00  0.00000000E+00  0.00000000E+00
  0.00000000E+00  0.00000000E+00  0.00000000E+00
  0.00000000E+00  0.00000000E+00  0.00000000E+00
  0.00000000E+00  0.00000000E+00  0.00000000E+00
  0.00000000E+00  0.00000000E+00  0.00000000E+00
  0.00000000E+00  0.00000000E+00  0.00000000E+00
  0.00000000E+00  0.00000000E+00  0.00000000E+00
  0.00000000E+00  0.00000000E+00  0.00000000E+00
  0.00000000E+00  0.00000000E+00  0.00000000E+00
  0.00000000E+00  0.00000000E+00  0.00000000E+00
  0.00000000E+00  0.00000000E+00  0.00000000E+00
  0.00000000E+00  0.00000000E+00  0.00000000E+00
  0.00000000E+00  0.00000000E+00  0.00000000E+00
  0.00000000E+00  0.00000000E+00  0.00000000E+00
  0.00000000E+00  0.00000000E+00  0.00000000E+00
  0.00000000E+00  0.00000000E+00  0.00000000E+00
  0.00000000E+00  0.00000000E+00  0.00000000E+00
  0.00000000E+00  0.00000000E+00  0.00000000E+00
  0.00000000E+00  0.00000000E+00  0.00000000E+00
  0.00000000E+00  0.00000000E+00  0.00000000E+00
  0.00000000E+00  0.00000000E+00  0.00000000E+00
  0.00000000E+00  0.00000000E+00  0.00000000E+00
  0.00000000E+00  0.00000000E+00  0.00000000E+00
  0.00000000E+00  0.00000000E+00  0.00000000E+00
  0.00000000E+00  0.00000000E+00  0.00000000E+00
  0.00000000E+00  0.00000000E+00  0.00000000E+00
  0.00000000E+00  0.00000000E+00  0.00000000E+00
  0.00000000E+00  0.00000000E+00  0.00000000E+00
  0.00000000E+00  0.00000000E+00  0.00000000E+00
  0.00000000E+00  0.00000000E+00  0.00000000E+00
  0.00000000E+00  0.00000000E+00  0.00000000E+00
  0.00000000E+00  0.00000000E+00  0.00000000E+00
