Zr1 H1 C126 O2                          
   1.00000000000000     
    19.7973959751507600   -0.0005027133391109   -0.1724438323994558
    -9.8999084141112696   17.0832390312150046   -0.1422469975423475
    -0.2584947865111445   -0.3970515092236770   29.7605221325374920
   Zr   H    C    O 
     1     1   126     2
Direct
  0.4353408150089751  0.5036196976676186  0.4478097560244274
  0.5495182292829923  0.5686829063447579  0.5210077576899448
  0.0418326155166421  0.0837219499167531  0.3993646468008574
  0.0411368815423546  0.2080934564452230  0.3992191242622244
  0.0408436734730518  0.3329990854894770  0.3987568520555497
  0.0409180350099369  0.4584202146523960  0.3985690778376518
  0.0415179137739769  0.5837350823048750  0.3989354114981827
  0.0420938675426860  0.7089657041530563  0.3993014287659873
  0.0423395222724890  0.8341752420851917  0.3993316174203997
  0.0423450859273715  0.9591568246673693  0.3992549143043256
  0.1674345307028515  0.0845870872737911  0.3998079565426607
  0.1668322428505712  0.2089838164230781  0.4005290807101201
  0.1656606965813982  0.3332765318996261  0.4002585369866337
  0.1648916028205997  0.4583197542321273  0.3990969687634575
  0.1656625073134652  0.5836523172618746  0.3984339687886451
  0.1665966283984492  0.7089845548454304  0.3988709540057367
  0.1670462234295135  0.8341706785953217  0.3992622936842337
  0.1673669443415800  0.9594687295783164  0.3993846285826482
  0.2924586382630723  0.0845665195371394  0.3998461313053684
  0.2931965574379053  0.2107917283449766  0.4024019071016680
  0.2919784216212595  0.3354067498328581  0.4046173160389406
  0.2888141932269291  0.4578145131545115  0.4028458676226572
  0.2896403695059816  0.5840243923017535  0.4000301811351001
  0.2911338706826497  0.7089428212491954  0.3987422066840250
  0.2917542639372339  0.8339442925141439  0.3989178668737052
  0.2920661226626586  0.9591566597449304  0.3991769938108269
  0.4171599504346667  0.0838105306991261  0.3991846309062416
  0.4175265827764485  0.2091691012824376  0.4005810358525462
  0.4195206114266210  0.3358790890858734  0.4071650354383651
  0.4131136838456459  0.5832878276296958  0.4066426603259200
  0.4161080130922475  0.7080508217526413  0.4004392469390615
  0.4165179434733015  0.8333713513646298  0.3991601416463024
  0.4167711965002191  0.9585060897095373  0.3990613437567296
  0.5418118932132963  0.0830308400551858  0.3991666551953690
  0.5421645908272527  0.2081185812648297  0.3989381473254343
  0.5429891570277702  0.3333609493877268  0.4002423993434746
  0.5450090201169416  0.4580992531170139  0.4056837740247941
  0.5468706426160156  0.5833991594330893  0.4129672773351304
  0.5414196554886902  0.7069155553726736  0.4048684002843237
  0.5412168136237642  0.8323312003111519  0.4002000745605871
  0.5416001677888371  0.9577718437264050  0.3993370405558949
  0.6665260019465907  0.0827023882797482  0.3994607758439233
  0.6668892674179094  0.2079190321193807  0.3990418724604381
  0.6673374587636127  0.3330257670151331  0.3981924717343513
  0.6684828193599109  0.4582876928444600  0.3977543260176251
  0.6693827825965907  0.5838711602894781  0.3995294040800313
  0.6671445651347928  0.7078152959336056  0.4011709373645148
  0.6665182674872824  0.8323603598892402  0.4003839925807026
  0.6664296902263586  0.9575525335037208  0.3996034139548174
  0.7914104752513479  0.0827046869914580  0.3993338353014900
  0.7915101556006280  0.2078090694308821  0.3992873780418410
  0.7919024700519792  0.3330648613059448  0.3988672963811708
  0.7926063717011776  0.4583976223953425  0.3980315661883155
  0.7930451451639268  0.5835962898201653  0.3973848983113641
  0.7928855151548281  0.7088258566725704  0.3981914508171885
  0.7919998080030203  0.8332285086243046  0.3988687744206127
  0.7914338195968734  0.9577763215224436  0.3992438433506961
  0.9164452212815111  0.0830122289983370  0.3991544085460915
  0.9162227939782229  0.2079190605555551  0.3990288622357505
  0.9163356686153764  0.3330570933039064  0.3989274465411377
  0.9167491781532201  0.4583414224813958  0.3988950591283501
  0.9173533881317769  0.5837282841746769  0.3987513931967425
  0.9175603730559327  0.7089774016982779  0.3986254416849280
  0.9173896812413680  0.8339365991824205  0.3988248944813680
  0.9169029055375413  0.9584389744128230  0.3990358372671965
  0.0840227196521182  0.0425822594605097  0.3994017625415826
  0.0833381337636579  0.1669578841280517  0.3996128900735985
  0.0823874948413701  0.2913776141075435  0.3991933957350303
  0.0821733406537512  0.4165944095978832  0.3985853871672764
  0.0826095195403091  0.5418443524125121  0.3985873724564406
  0.0834217148897528  0.6672285468812216  0.3990920644985950
  0.0838832177752397  0.7925308987405851  0.3993767868501255
  0.0840125447621771  0.9176479218930177  0.3993302319893108
  0.2090750251150523  0.0428210932458365  0.3996690378833895
  0.2091233227497196  0.1681046582552304  0.4008046346296345
  0.2083420952975495  0.2924281610087954  0.4013065936901046
  0.2059198844760906  0.4163921305302509  0.4005138445179470
  0.2066752975933688  0.5419686027419821  0.3989108209234257
  0.2079501115371485  0.6672727031294848  0.3985717677434393
  0.2084510891607521  0.7923854274379512  0.3990240076619182
  0.2088766833434964  0.9176445928399610  0.3992765856848622
  0.3338152685298196  0.0425646977246992  0.3993266814720373
  0.3344054777219662  0.1681044413257369  0.4010154296941438
  0.3349650810439219  0.2939133687139679  0.4056487872722686
  0.3303906542388094  0.4176953003062657  0.4070446126518963
  0.3312542879081168  0.5429346466735483  0.4026073347044483
  0.3325150873150887  0.6671090941016220  0.3995676096934255
  0.3331708880995946  0.7922174450705529  0.3988498575552383
  0.3335787941905251  0.9173110646762895  0.3990427634046742
  0.4586081062031571  0.0418799217913659  0.3990832201310175
  0.4589149159897548  0.1670807117942080  0.3993319259177537
  0.4595954872165975  0.2927224467749580  0.4021710901094636
  0.4642637006219537  0.4182361647668708  0.4134174958831238
  0.4568744515625296  0.6653733370152730  0.4038680588756504
  0.4580110777455120  0.7914105645894931  0.3998025777231479
  0.4582548727547322  0.9166008273134876  0.3991632800102768
  0.5833383531863718  0.0411830459134485  0.3993567684969513
  0.5835757131896755  0.1663669375232766  0.3989898609025472
  0.5841662455933125  0.2914345422009388  0.3987512442087781
  0.5856622334020024  0.4164774331966139  0.4001276273504288
  0.5875010831089836  0.5429113706577884  0.4054146835105188
  0.5841873425938418  0.6651434255203988  0.4063949876800833
  0.5826452721267610  0.7897567504298609  0.4016235249903884
  0.5830225691421674  0.9157907044288038  0.3996057258120327
  0.7080601883124081  0.0408849016067266  0.3994828347931449
  0.7083111252522386  0.1661720519712936  0.3993419611535588
  0.7087063516824984  0.2913145810261159  0.3986724962714114
  0.7095122451496974  0.4165607228102630  0.3976393497883033
  0.7102903149028099  0.5418604342316705  0.3974943155623922
  0.7098152044073455  0.6670066289605006  0.3993891248795075
  0.7085572265836342  0.7912369858891474  0.3998024808203215
  0.7080743005050668  0.9158174512132432  0.3996270099663660
  0.8330819582052261  0.0411742166446737  0.3992312310735267
  0.8330411802698872  0.1661714973237431  0.3992425211447595
  0.8332707005424930  0.2913499037721023  0.3991191259248205
  0.8337558119487718  0.4165601818264374  0.3986830118213768
  0.8343235433326905  0.5418121321153824  0.3979962184344008
  0.8344401704039832  0.6671923254453025  0.3978786734289899
  0.8342086742883882  0.7921572924743648  0.3985311880817227
  0.8335097411511754  0.9165157375938188  0.3990171783257356
  0.9584341353783388  0.0418199206176234  0.3991535776653000
  0.9579808723731302  0.1663631381439721  0.3990707336054868
  0.9577658914110558  0.2912930190808338  0.3988416993892330
  0.9579360940764176  0.4165534584570780  0.3988128072319838
  0.9585543696605490  0.5419631593903930  0.3989678507875902
  0.9590034789295978  0.6672345316694521  0.3989823643799332
  0.9591412919747747  0.7923906928667110  0.3990046035189842
  0.9589581638183985  0.9172933110262916  0.3990566912952567
  0.5114189622931233  0.5143306975444786  0.5125696904890314
  0.4359216456794526  0.5132225112250276  0.5170650393531072
 
  0.00000000E+00  0.00000000E+00  0.00000000E+00
  0.00000000E+00  0.00000000E+00  0.00000000E+00
  0.00000000E+00  0.00000000E+00  0.00000000E+00
  0.00000000E+00  0.00000000E+00  0.00000000E+00
  0.00000000E+00  0.00000000E+00  0.00000000E+00
  0.00000000E+00  0.00000000E+00  0.00000000E+00
  0.00000000E+00  0.00000000E+00  0.00000000E+00
  0.00000000E+00  0.00000000E+00  0.00000000E+00
  0.00000000E+00  0.00000000E+00  0.00000000E+00
  0.00000000E+00  0.00000000E+00  0.00000000E+00
  0.00000000E+00  0.00000000E+00  0.00000000E+00
  0.00000000E+00  0.00000000E+00  0.00000000E+00
  0.00000000E+00  0.00000000E+00  0.00000000E+00
  0.00000000E+00  0.00000000E+00  0.00000000E+00
  0.00000000E+00  0.00000000E+00  0.00000000E+00
  0.00000000E+00  0.00000000E+00  0.00000000E+00
  0.00000000E+00  0.00000000E+00  0.00000000E+00
  0.00000000E+00  0.00000000E+00  0.00000000E+00
  0.00000000E+00  0.00000000E+00  0.00000000E+00
  0.00000000E+00  0.00000000E+00  0.00000000E+00
  0.00000000E+00  0.00000000E+00  0.00000000E+00
  0.00000000E+00  0.00000000E+00  0.00000000E+00
  0.00000000E+00  0.00000000E+00  0.00000000E+00
  0.00000000E+00  0.00000000E+00  0.00000000E+00
  0.00000000E+00  0.00000000E+00  0.00000000E+00
  0.00000000E+00  0.00000000E+00  0.00000000E+00
  0.00000000E+00  0.00000000E+00  0.00000000E+00
  0.00000000E+00  0.00000000E+00  0.00000000E+00
  0.00000000E+00  0.00000000E+00  0.00000000E+00
  0.00000000E+00  0.00000000E+00  0.00000000E+00
  0.00000000E+00  0.00000000E+00  0.00000000E+00
  0.00000000E+00  0.00000000E+00  0.00000000E+00
  0.00000000E+00  0.00000000E+00  0.00000000E+00
  0.00000000E+00  0.00000000E+00  0.00000000E+00
  0.00000000E+00  0.00000000E+00  0.00000000E+00
  0.00000000E+00  0.00000000E+00  0.00000000E+00
  0.00000000E+00  0.00000000E+00  0.00000000E+00
  0.00000000E+00  0.00000000E+00  0.00000000E+00
  0.00000000E+00  0.00000000E+00  0.00000000E+00
  0.00000000E+00  0.00000000E+00  0.00000000E+00
  0.00000000E+00  0.00000000E+00  0.00000000E+00
  0.00000000E+00  0.00000000E+00  0.00000000E+00
  0.00000000E+00  0.00000000E+00  0.00000000E+00
  0.00000000E+00  0.00000000E+00  0.00000000E+00
  0.00000000E+00  0.00000000E+00  0.00000000E+00
  0.00000000E+00  0.00000000E+00  0.00000000E+00
  0.00000000E+00  0.00000000E+00  0.00000000E+00
  0.00000000E+00  0.00000000E+00  0.00000000E+00
  0.00000000E+00  0.00000000E+00  0.00000000E+00
  0.00000000E+00  0.00000000E+00  0.00000000E+00
  0.00000000E+00  0.00000000E+00  0.00000000E+00
  0.00000000E+00  0.00000000E+00  0.00000000E+00
  0.00000000E+00  0.00000000E+00  0.00000000E+00
  0.00000000E+00  0.00000000E+00  0.00000000E+00
  0.00000000E+00  0.00000000E+00  0.00000000E+00
  0.00000000E+00  0.00000000E+00  0.00000000E+00
  0.00000000E+00  0.00000000E+00  0.00000000E+00
  0.00000000E+00  0.00000000E+00  0.00000000E+00
  0.00000000E+00  0.00000000E+00  0.00000000E+00
  0.00000000E+00  0.00000000E+00  0.00000000E+00
  0.00000000E+00  0.00000000E+00  0.00000000E+00
  0.00000000E+00  0.00000000E+00  0.00000000E+00
  0.00000000E+00  0.00000000E+00  0.00000000E+00
  0.00000000E+00  0.00000000E+00  0.00000000E+00
  0.00000000E+00  0.00000000E+00  0.00000000E+00
  0.00000000E+00  0.00000000E+00  0.00000000E+00
  0.00000000E+00  0.00000000E+00  0.00000000E+00
  0.00000000E+00  0.00000000E+00  0.00000000E+00
  0.00000000E+00  0.00000000E+00  0.00000000E+00
  0.00000000E+00  0.00000000E+00  0.00000000E+00
  0.00000000E+00  0.00000000E+00  0.00000000E+00
  0.00000000E+00  0.00000000E+00  0.00000000E+00
  0.00000000E+00  0.00000000E+00  0.00000000E+00
  0.00000000E+00  0.00000000E+00  0.00000000E+00
  0.00000000E+00  0.00000000E+00  0.00000000E+00
  0.00000000E+00  0.00000000E+00  0.00000000E+00
  0.00000000E+00  0.00000000E+00  0.00000000E+00
  0.00000000E+00  0.00000000E+00  0.00000000E+00
  0.00000000E+00  0.00000000E+00  0.00000000E+00
  0.00000000E+00  0.00000000E+00  0.00000000E+00
  0.00000000E+00  0.00000000E+00  0.00000000E+00
  0.00000000E+00  0.00000000E+00  0.00000000E+00
  0.00000000E+00  0.00000000E+00  0.00000000E+00
  0.00000000E+00  0.00000000E+00  0.00000000E+00
  0.00000000E+00  0.00000000E+00  0.00000000E+00
  0.00000000E+00  0.00000000E+00  0.00000000E+00
  0.00000000E+00  0.00000000E+00  0.00000000E+00
  0.00000000E+00  0.00000000E+00  0.00000000E+00
  0.00000000E+00  0.00000000E+00  0.00000000E+00
  0.00000000E+00  0.00000000E+00  0.00000000E+00
  0.00000000E+00  0.00000000E+00  0.00000000E+00
  0.00000000E+00  0.00000000E+00  0.00000000E+00
  0.00000000E+00  0.00000000E+00  0.00000000E+00
  0.00000000E+00  0.00000000E+00  0.00000000E+00
  0.00000000E+00  0.00000000E+00  0.00000000E+00
  0.00000000E+00  0.00000000E+00  0.00000000E+00
  0.00000000E+00  0.00000000E+00  0.00000000E+00
  0.00000000E+00  0.00000000E+00  0.00000000E+00
  0.00000000E+00  0.00000000E+00  0.00000000E+00
  0.00000000E+00  0.00000000E+00  0.00000000E+00
  0.00000000E+00  0.00000000E+00  0.00000000E+00
  0.00000000E+00  0.00000000E+00  0.00000000E+00
  0.00000000E+00  0.00000000E+00  0.00000000E+00
  0.00000000E+00  0.00000000E+00  0.00000000E+00
  0.00000000E+00  0.00000000E+00  0.00000000E+00
  0.00000000E+00  0.00000000E+00  0.00000000E+00
  0.00000000E+00  0.00000000E+00  0.00000000E+00
  0.00000000E+00  0.00000000E+00  0.00000000E+00
  0.00000000E+00  0.00000000E+00  0.00000000E+00
  0.00000000E+00  0.00000000E+00  0.00000000E+00
  0.00000000E+00  0.00000000E+00  0.00000000E+00
  0.00000000E+00  0.00000000E+00  0.00000000E+00
  0.00000000E+00  0.00000000E+00  0.00000000E+00
  0.00000000E+00  0.00000000E+00  0.00000000E+00
  0.00000000E+00  0.00000000E+00  0.00000000E+00
  0.00000000E+00  0.00000000E+00  0.00000000E+00
  0.00000000E+00  0.00000000E+00  0.00000000E+00
  0.00000000E+00  0.00000000E+00  0.00000000E+00
  0.00000000E+00  0.00000000E+00  0.00000000E+00
  0.00000000E+00  0.00000000E+00  0.00000000E+00
  0.00000000E+00  0.00000000E+00  0.00000000E+00
  0.00000000E+00  0.00000000E+00  0.00000000E+00
  0.00000000E+00  0.00000000E+00  0.00000000E+00
  0.00000000E+00  0.00000000E+00  0.00000000E+00
  0.00000000E+00  0.00000000E+00  0.00000000E+00
  0.00000000E+00  0.00000000E+00  0.00000000E+00
  0.00000000E+00  0.00000000E+00  0.00000000E+00
  0.00000000E+00  0.00000000E+00  0.00000000E+00
  0.00000000E+00  0.00000000E+00  0.00000000E+00
  0.00000000E+00  0.00000000E+00  0.00000000E+00
