Mo1 C125 N1 O1                          
   1.00000000000000     
    19.7889201050755190   -0.0122031611201052   -0.1341570846237976
    -9.9040413128258997   17.0773506247961038   -0.0683068408224141
    -0.2011425469628495   -0.2358073620980310   29.7894170966942404
   Mo   C    N    O 
     1   125     1     1
Direct
  0.4284739694810452  0.5020312857713192  0.4340901995950726
  0.0417255478114629  0.0835374600884482  0.3989984342294389
  0.0417392509132188  0.2084515796501706  0.3989325762287601
  0.0415983378195985  0.3332810047712388  0.3992122750566738
  0.0415662836328662  0.4583855929329206  0.3986980959410998
  0.0417286690160875  0.5835672165810070  0.3980851958574858
  0.0419417470732550  0.7086677104684955  0.3983526476139880
  0.0421079090340708  0.8338426649161899  0.3988378772878490
  0.0420759968034071  0.9588872580096625  0.3989937132792074
  0.1674321574975369  0.0844822458836218  0.3997646105783297
  0.1668787432225781  0.2088732156211067  0.3997996799239179
  0.1668640493047219  0.3340574435580630  0.4007735689683004
  0.1660849055026783  0.4586843743736663  0.4015887836709064
  0.1661394117743220  0.5837529010184775  0.3999157150028658
  0.1666623866610716  0.7088472006613304  0.3987143892101573
  0.1669906153666443  0.8339496365497220  0.3988300119611645
  0.1672479863771551  0.9592142863923033  0.3994927525572216
  0.2925020540061066  0.0845251091052165  0.4003462960867957
  0.2932200131397059  0.2104983890545860  0.4021761623995772
  0.2920743076874873  0.3344299422547006  0.4017330882738870
  0.2916034755628727  0.4593392084967368  0.4025067462060681
  0.2901862366343400  0.5846934793508207  0.4022289016392164
  0.2913282931747606  0.7092269632445884  0.3997443990016684
  0.2918937613684829  0.8340468915391157  0.3988665894171995
  0.2920569018693742  0.9590847040527550  0.3991950393126578
  0.4171431706186753  0.0840736398693589  0.3994177199393858
  0.4176114261117042  0.2097072157533051  0.4014550241217567
  0.4194053249218179  0.3370379818690683  0.4067914242509660
  0.4159074368280717  0.7086849967212588  0.4002843135405371
  0.4166524416566179  0.8336815160835082  0.3993168949615078
  0.4168711493951746  0.9587483576925774  0.3989166651927835
  0.5418512190677598  0.0832123246139589  0.3987581867180546
  0.5422194588377944  0.2082996655591347  0.3993963851325864
  0.5429336930521662  0.3333418942013924  0.4022866832636890
  0.5452921852635676  0.4577976613993013  0.4082117308170222
  0.5445372857310204  0.5803766426852124  0.4118033663692293
  0.5398335563463650  0.7053676001258279  0.4037359302882121
  0.5412978283964931  0.8323123829388752  0.4003131510781442
  0.5417584466175784  0.9579822261778351  0.3991917403788486
  0.6667265116987944  0.0829313742612004  0.3989982388458161
  0.6669982004560451  0.2080838143285194  0.3984972717794918
  0.6673113882593374  0.3330037079359057  0.3990119838463072
  0.6686675039636646  0.4582517817189035  0.4006968128682583
  0.6695659336686242  0.5837387644159980  0.4028680817662355
  0.6658896470981254  0.7065529134473414  0.4025842984357149
  0.6657612942334552  0.8317738541187433  0.4010606718851914
  0.6664554889259201  0.9576086338495408  0.3997896501516068
  0.7915440197348110  0.0828802463825357  0.3989567928809949
  0.7917144995340740  0.2079770266940935  0.3983756203889827
  0.7920924317188103  0.3331522442071959  0.3980100062456348
  0.7926163446879371  0.4582966536067978  0.3981281331466086
  0.7929994188985006  0.5834383371322673  0.3988095980279868
  0.7925203190456386  0.7086601779425377  0.3995124799532374
  0.7911675167385815  0.8326320422234713  0.3995057115053322
  0.7911943019749582  0.9575726717681413  0.3994384691812632
  0.9165013150524900  0.0830707935624263  0.3986672594913381
  0.9166272889076900  0.2080644112109216  0.3983380235671883
  0.9167276366637793  0.3331262446788215  0.3979695949296204
  0.9170141093458386  0.4582898510683034  0.3976538973989879
  0.9173074015773094  0.5834807606732439  0.3979091026602690
  0.9172333732493542  0.7086205666384443  0.3984322703980618
  0.9170273338353089  0.8335721805907227  0.3986908788977294
  0.9165111772150537  0.9581551209279322  0.3988546551528002
  0.0838449150109579  0.0423562474371281  0.3991750776630407
  0.0834209771834493  0.1668995028031857  0.3992191957911403
  0.0833317520186137  0.2919083164129966  0.3995912614218503
  0.0830411725914360  0.4167784086969238  0.3997391140139295
  0.0830646473011711  0.5418554646348007  0.3987768340953123
  0.0834269562223670  0.6670404993477020  0.3983015206949901
  0.0836847018532956  0.7921888198017910  0.3987061785537600
  0.0837868000334607  0.9173032973318885  0.3991385638904456
  0.2090071010992666  0.0426496527686215  0.3999637321069169
  0.2092118256411946  0.1679599311102336  0.4003487174820122
  0.2084318586516474  0.2922242517709649  0.4001079432800214
  0.2076810778608570  0.4174708980607651  0.4025574034519523
  0.2073269358610214  0.5422165771531584  0.4015783945659225
  0.2080949296286685  0.6672693562448284  0.3994804365415082
  0.2085652664046110  0.7923243715749075  0.3987364801434261
  0.2087894248307776  0.9174296105016206  0.3992351067694219
  0.3338557383936887  0.0425539823565716  0.3996410466143832
  0.3344120643169990  0.1680138275866394  0.4015410076072706
  0.3350754101953642  0.2936956165041941  0.4043181727291588
  0.3312493040419588  0.4162999858846967  0.4024453224522490
  0.3326559071547929  0.5448617272159729  0.4021283751360346
  0.3326248690830479  0.6677850254251061  0.4006836231878583
  0.3334500794186025  0.7925010199351015  0.3991512906546989
  0.3336294298501583  0.9173563444884091  0.3989327294221905
  0.4586330121745391  0.0421115811008650  0.3989249020855066
  0.4589241412757263  0.1674732076649636  0.4000038424119698
  0.4597605236188273  0.2934417531863228  0.4032653451595423
  0.4638411197605768  0.4199674830427219  0.4121016871855800
  0.4562597305792016  0.6659308338742811  0.4017619290462883
  0.4582143239551981  0.7918660143963718  0.3998564131532416
  0.4584390714888527  0.9169369199960181  0.3990981894362676
  0.5834531964286305  0.0413881083576613  0.3989507848229509
  0.5837181665587265  0.1665679797380125  0.3986994646861555
  0.5841819776907541  0.2914487415641791  0.4000031076790858
  0.5858162681445319  0.4163251422472599  0.4033437455555354
  0.5878189259588864  0.5423199348709596  0.4079056454962397
  0.5817292619559804  0.6626569908004841  0.4062120405204492
  0.5819320194024910  0.7892047629869428  0.4017666165221904
  0.5831831326701035  0.9159059273816710  0.3996872067462888
  0.7082090227395691  0.0410793073997541  0.3993010167978168
  0.7085017209783530  0.1663382122028264  0.3985932855841539
  0.7088366351200871  0.2914713852097969  0.3983919065270253
  0.7095724282117737  0.4165708838920881  0.3989682570077255
  0.7104724362270786  0.5417595269044871  0.4005090397312019
  0.7092951177023379  0.6667203668702626  0.4016400834595695
  0.7075003171511507  0.7902333145505293  0.4007904165690742
  0.7077098101882473  0.9154464160340201  0.4000862762065008
  0.8330619567960692  0.0411512155658549  0.3989695335170628
  0.8332859276026631  0.1663292464320166  0.3984839790599953
  0.8335039393590907  0.2914421319220975  0.3979887395187645
  0.8339464136036747  0.4165832085881542  0.3978099654062965
  0.8342668601166087  0.5416976748622213  0.3981226069287623
  0.8341250202248552  0.6670587414035889  0.3987355309687240
  0.8336869268261108  0.7918134237875447  0.3990471962425328
  0.8329598712060586  0.9161133956421528  0.3992004087366678
  0.9582294740793209  0.0415850097222030  0.3987877422080205
  0.9583429573134999  0.1665336361399346  0.3984980886629951
  0.9583037396244709  0.2914936245633012  0.3983528300861965
  0.9583930803578931  0.4166037872034904  0.3979086875609230
  0.9586617420579655  0.5418173944067695  0.3977392003832351
  0.9587961442574342  0.6669345415629359  0.3982352026017728
  0.9587867627049933  0.7920322885728079  0.3986352314201798
  0.9585973352624096  0.9169770575920946  0.3987859526428008
  0.4128739098534482  0.5856601242599624  0.4022032606894523
  0.4288673440606878  0.4941989250312739  0.4906786439488550
 
  0.00000000E+00  0.00000000E+00  0.00000000E+00
  0.00000000E+00  0.00000000E+00  0.00000000E+00
  0.00000000E+00  0.00000000E+00  0.00000000E+00
  0.00000000E+00  0.00000000E+00  0.00000000E+00
  0.00000000E+00  0.00000000E+00  0.00000000E+00
  0.00000000E+00  0.00000000E+00  0.00000000E+00
  0.00000000E+00  0.00000000E+00  0.00000000E+00
  0.00000000E+00  0.00000000E+00  0.00000000E+00
  0.00000000E+00  0.00000000E+00  0.00000000E+00
  0.00000000E+00  0.00000000E+00  0.00000000E+00
  0.00000000E+00  0.00000000E+00  0.00000000E+00
  0.00000000E+00  0.00000000E+00  0.00000000E+00
  0.00000000E+00  0.00000000E+00  0.00000000E+00
  0.00000000E+00  0.00000000E+00  0.00000000E+00
  0.00000000E+00  0.00000000E+00  0.00000000E+00
  0.00000000E+00  0.00000000E+00  0.00000000E+00
  0.00000000E+00  0.00000000E+00  0.00000000E+00
  0.00000000E+00  0.00000000E+00  0.00000000E+00
  0.00000000E+00  0.00000000E+00  0.00000000E+00
  0.00000000E+00  0.00000000E+00  0.00000000E+00
  0.00000000E+00  0.00000000E+00  0.00000000E+00
  0.00000000E+00  0.00000000E+00  0.00000000E+00
  0.00000000E+00  0.00000000E+00  0.00000000E+00
  0.00000000E+00  0.00000000E+00  0.00000000E+00
  0.00000000E+00  0.00000000E+00  0.00000000E+00
  0.00000000E+00  0.00000000E+00  0.00000000E+00
  0.00000000E+00  0.00000000E+00  0.00000000E+00
  0.00000000E+00  0.00000000E+00  0.00000000E+00
  0.00000000E+00  0.00000000E+00  0.00000000E+00
  0.00000000E+00  0.00000000E+00  0.00000000E+00
  0.00000000E+00  0.00000000E+00  0.00000000E+00
  0.00000000E+00  0.00000000E+00  0.00000000E+00
  0.00000000E+00  0.00000000E+00  0.00000000E+00
  0.00000000E+00  0.00000000E+00  0.00000000E+00
  0.00000000E+00  0.00000000E+00  0.00000000E+00
  0.00000000E+00  0.00000000E+00  0.00000000E+00
  0.00000000E+00  0.00000000E+00  0.00000000E+00
  0.00000000E+00  0.00000000E+00  0.00000000E+00
  0.00000000E+00  0.00000000E+00  0.00000000E+00
  0.00000000E+00  0.00000000E+00  0.00000000E+00
  0.00000000E+00  0.00000000E+00  0.00000000E+00
  0.00000000E+00  0.00000000E+00  0.00000000E+00
  0.00000000E+00  0.00000000E+00  0.00000000E+00
  0.00000000E+00  0.00000000E+00  0.00000000E+00
  0.00000000E+00  0.00000000E+00  0.00000000E+00
  0.00000000E+00  0.00000000E+00  0.00000000E+00
  0.00000000E+00  0.00000000E+00  0.00000000E+00
  0.00000000E+00  0.00000000E+00  0.00000000E+00
  0.00000000E+00  0.00000000E+00  0.00000000E+00
  0.00000000E+00  0.00000000E+00  0.00000000E+00
  0.00000000E+00  0.00000000E+00  0.00000000E+00
  0.00000000E+00  0.00000000E+00  0.00000000E+00
  0.00000000E+00  0.00000000E+00  0.00000000E+00
  0.00000000E+00  0.00000000E+00  0.00000000E+00
  0.00000000E+00  0.00000000E+00  0.00000000E+00
  0.00000000E+00  0.00000000E+00  0.00000000E+00
  0.00000000E+00  0.00000000E+00  0.00000000E+00
  0.00000000E+00  0.00000000E+00  0.00000000E+00
  0.00000000E+00  0.00000000E+00  0.00000000E+00
  0.00000000E+00  0.00000000E+00  0.00000000E+00
  0.00000000E+00  0.00000000E+00  0.00000000E+00
  0.00000000E+00  0.00000000E+00  0.00000000E+00
  0.00000000E+00  0.00000000E+00  0.00000000E+00
  0.00000000E+00  0.00000000E+00  0.00000000E+00
  0.00000000E+00  0.00000000E+00  0.00000000E+00
  0.00000000E+00  0.00000000E+00  0.00000000E+00
  0.00000000E+00  0.00000000E+00  0.00000000E+00
  0.00000000E+00  0.00000000E+00  0.00000000E+00
  0.00000000E+00  0.00000000E+00  0.00000000E+00
  0.00000000E+00  0.00000000E+00  0.00000000E+00
  0.00000000E+00  0.00000000E+00  0.00000000E+00
  0.00000000E+00  0.00000000E+00  0.00000000E+00
  0.00000000E+00  0.00000000E+00  0.00000000E+00
  0.00000000E+00  0.00000000E+00  0.00000000E+00
  0.00000000E+00  0.00000000E+00  0.00000000E+00
  0.00000000E+00  0.00000000E+00  0.00000000E+00
  0.00000000E+00  0.00000000E+00  0.00000000E+00
  0.00000000E+00  0.00000000E+00  0.00000000E+00
  0.00000000E+00  0.00000000E+00  0.00000000E+00
  0.00000000E+00  0.00000000E+00  0.00000000E+00
  0.00000000E+00  0.00000000E+00  0.00000000E+00
  0.00000000E+00  0.00000000E+00  0.00000000E+00
  0.00000000E+00  0.00000000E+00  0.00000000E+00
  0.00000000E+00  0.00000000E+00  0.00000000E+00
  0.00000000E+00  0.00000000E+00  0.00000000E+00
  0.00000000E+00  0.00000000E+00  0.00000000E+00
  0.00000000E+00  0.00000000E+00  0.00000000E+00
  0.00000000E+00  0.00000000E+00  0.00000000E+00
  0.00000000E+00  0.00000000E+00  0.00000000E+00
  0.00000000E+00  0.00000000E+00  0.00000000E+00
  0.00000000E+00  0.00000000E+00  0.00000000E+00
  0.00000000E+00  0.00000000E+00  0.00000000E+00
  0.00000000E+00  0.00000000E+00  0.00000000E+00
  0.00000000E+00  0.00000000E+00  0.00000000E+00
  0.00000000E+00  0.00000000E+00  0.00000000E+00
  0.00000000E+00  0.00000000E+00  0.00000000E+00
  0.00000000E+00  0.00000000E+00  0.00000000E+00
  0.00000000E+00  0.00000000E+00  0.00000000E+00
  0.00000000E+00  0.00000000E+00  0.00000000E+00
  0.00000000E+00  0.00000000E+00  0.00000000E+00
  0.00000000E+00  0.00000000E+00  0.00000000E+00
  0.00000000E+00  0.00000000E+00  0.00000000E+00
  0.00000000E+00  0.00000000E+00  0.00000000E+00
  0.00000000E+00  0.00000000E+00  0.00000000E+00
  0.00000000E+00  0.00000000E+00  0.00000000E+00
  0.00000000E+00  0.00000000E+00  0.00000000E+00
  0.00000000E+00  0.00000000E+00  0.00000000E+00
  0.00000000E+00  0.00000000E+00  0.00000000E+00
  0.00000000E+00  0.00000000E+00  0.00000000E+00
  0.00000000E+00  0.00000000E+00  0.00000000E+00
  0.00000000E+00  0.00000000E+00  0.00000000E+00
  0.00000000E+00  0.00000000E+00  0.00000000E+00
  0.00000000E+00  0.00000000E+00  0.00000000E+00
  0.00000000E+00  0.00000000E+00  0.00000000E+00
  0.00000000E+00  0.00000000E+00  0.00000000E+00
  0.00000000E+00  0.00000000E+00  0.00000000E+00
  0.00000000E+00  0.00000000E+00  0.00000000E+00
  0.00000000E+00  0.00000000E+00  0.00000000E+00
  0.00000000E+00  0.00000000E+00  0.00000000E+00
  0.00000000E+00  0.00000000E+00  0.00000000E+00
  0.00000000E+00  0.00000000E+00  0.00000000E+00
  0.00000000E+00  0.00000000E+00  0.00000000E+00
  0.00000000E+00  0.00000000E+00  0.00000000E+00
  0.00000000E+00  0.00000000E+00  0.00000000E+00
  0.00000000E+00  0.00000000E+00  0.00000000E+00
  0.00000000E+00  0.00000000E+00  0.00000000E+00
  0.00000000E+00  0.00000000E+00  0.00000000E+00
  0.00000000E+00  0.00000000E+00  0.00000000E+00
