Y1 C122 N4 O1                           
   1.00000000000000     
    19.8035887863184570   -0.0001625025622524   -0.0057355989871444
    -9.9019029224564559   17.0383746634369970   -0.0379929048420207
    -0.0086381890196956   -0.0714069675107393   29.8218526869157436
   Y    C    N    O 
     1   122     4     1
Direct
  0.4408178016926326  0.5034247800875121  0.4477004196024377
  0.0419299368459792  0.0840017219761703  0.3996698642200351
  0.0410228080493296  0.2081778476977671  0.3994248179188940
  0.0403560401208542  0.3329261168202680  0.3993602101025842
  0.0405405927027618  0.4581965517003427  0.3995363222023230
  0.0413412234959491  0.5836962795006939  0.3999377153703645
  0.0420884423781818  0.7091346167925199  0.4000153860811156
  0.0424064988526874  0.8344363552534132  0.4000270747865895
  0.0425034841126684  0.9595984846865719  0.3999101283965441
  0.1680733745302326  0.0857130509684680  0.3998416077791493
  0.1671320265323797  0.2098896170534012  0.3993618592528523
  0.1651763573165690  0.3335874809085463  0.3991089910872732
  0.1644251929384293  0.4584236974557658  0.3983965751410414
  0.1652582054997251  0.5836093166500099  0.3990699115569746
  0.1663554058829517  0.7089709842530180  0.3998298333455023
  0.1670225186193209  0.8344327424866250  0.3999988637549454
  0.1674973904295998  0.9599979304489494  0.3999902540492076
  0.2926101171149950  0.0857131655641723  0.3998407847130434
  0.2940907690418418  0.2132152964197322  0.4006219786335534
  0.2917263453654646  0.3381256289847141  0.4025001289793537
  0.2882639424336021  0.4573068345344862  0.4016218713952892
  0.2888445972397068  0.5830440365675139  0.3987265385753389
  0.2905901287496399  0.7085147475010981  0.3992305927208488
  0.2915688712985222  0.8339562871632066  0.3998078818545637
  0.2920927439703670  0.9595913095360092  0.3999046278065638
  0.4170548105333944  0.0840104241538614  0.3997263570200129
  0.4177258932324688  0.2099127672025194  0.3994296869896022
  0.4214299537445999  0.3382440541960829  0.4019819858812200
  0.4147489246612529  0.7068671941780076  0.3991771663136134
  0.4160723796353653  0.8326050853687879  0.3994359344246182
  0.4166227494968031  0.9583243010989635  0.3998836026045673
  0.5415743333979905  0.0825862993410276  0.3998941295169978
  0.5421441358254530  0.2081863913890415  0.3995455274474560
  0.5434308582048886  0.3335853547974876  0.3990623768052672
  0.5441796365909073  0.4573244093295658  0.4004654828358338
  0.5386928403591840  0.7023877665988294  0.4012613403141447
  0.5404999321939129  0.8304951680988076  0.3998271670396641
  0.5411192225464513  0.9567813830435274  0.3998531347233474
  0.6661417543281601  0.0819984643365277  0.4000093922271863
  0.6666138566572063  0.2074561249936666  0.3999375483678476
  0.6675839550755266  0.3329390511272032  0.3994938495825426
  0.6690903733042816  0.4584476671548898  0.3985270846543016
  0.6693385508226319  0.5830855639449900  0.3984593625225739
  0.6670811206098597  0.7068261888825746  0.3990061077453450
  0.6649772291023276  0.8305096696812382  0.3998223935730873
  0.6656894836428349  0.9563938310130039  0.4000046313883820
  0.7908481247899783  0.0819926636058209  0.4000107812089704
  0.7911589494089928  0.2073264065287130  0.4000287561003352
  0.7917803968038089  0.3327454504140386  0.3999802509594633
  0.7926931743583167  0.4582116624362193  0.3996734031019487
  0.7933947732379019  0.5836005381185050  0.3992665382008090
  0.7929599405666978  0.7085280076160368  0.3993244302916112
  0.7915072128193111  0.8325782551928910  0.3995503429330454
  0.7906385939283613  0.9567782178207136  0.3998585499356415
  0.9160098387002367  0.0825908561898961  0.3998545885891991
  0.9158296497303151  0.2074573351433277  0.3998924467228714
  0.9159878320602426  0.3327468115824247  0.3999482797773907
  0.9166244281684609  0.4582134432747647  0.4000470272244487
  0.9173920978138445  0.5836947980878882  0.3999885117803312
  0.9176357131672084  0.7089618270872605  0.3999088728033728
  0.9173954663175230  0.8339598131621032  0.3998866026752003
  0.9166899002417543  0.9583130358598850  0.3999098151047363
  0.0843889841709324  0.0432663183693740  0.3997749484519298
  0.0835472740369303  0.1674748331605037  0.3993517296853428
  0.0821104779419087  0.2915120738538035  0.3991878754631228
  0.0816701413711706  0.4164007347261582  0.3990154257722755
  0.0823390746205183  0.5417931699170442  0.3995572420918359
  0.0832436820655510  0.6672483794208515  0.3999539233180562
  0.0838365898533660  0.7926682274015641  0.4000174271524528
  0.0841654129163147  0.9180199562525800  0.3999925464259660
  0.2093139148090374  0.0436430905134163  0.3999546383702901
  0.2100686920501178  0.1695949913998206  0.3999264400341870
  0.2080263026185089  0.2932867756729676  0.3995622017415986
  0.2058548293056592  0.4169956712330834  0.3988567288030035
  0.2059994556256473  0.5415967877391455  0.3984345003381634
  0.2074306275977154  0.6670897229390788  0.3994242076794167
  0.2083686311908491  0.7925531937509389  0.3999158027944325
  0.2088545277001683  0.9180164217787266  0.3999832193477471
  0.3338497946958781  0.0432646853434397  0.3997902496431369
  0.3344874255512431  0.1695958109505947  0.3999295678919365
  0.3364116375139491  0.2978349793839508  0.4023572085612428
  0.3309924235284544  0.5428004369889784  0.4011714771344249
  0.3315904143741588  0.6664608238378172  0.3989401878745490
  0.3328410453147924  0.7918556148291473  0.3995065573980269
  0.3334152102160762  0.9174423375101958  0.3998786450050864
  0.4583635909939144  0.0417420872457888  0.3998745403910611
  0.4589136647247540  0.1674874377522803  0.3994618169514276
  0.4602582731652574  0.2933309363651745  0.3994772196357203
  0.4537405151437857  0.6621783025864599  0.4013679756086475
  0.4572629501948349  0.7902275269768356  0.3992812529589916
  0.4579229850194861  0.9160631098411304  0.3997562579147615
  0.5828982351835399  0.0404403300464872  0.3999384497047246
  0.5834154947828424  0.1660682250112195  0.3998260575561475
  0.5844111011763716  0.2915097951497078  0.3993125544504334
  0.5862619237349860  0.4169804155583246  0.3986498751803173
  0.5869170346699167  0.5427907665452730  0.3999312101799212
  0.5833516751180438  0.6620361950877859  0.4007259176135176
  0.5809622539200433  0.7869396585050554  0.4002237252705502
  0.5823741492266834  0.9143500967573548  0.3999009184087799
  0.7075051229690320  0.0400189846946996  0.4000250134790346
  0.7079583512331494  0.1655729835212162  0.4000237242536099
  0.7086494065562856  0.2910396506576242  0.3998705859556091
  0.7097892392343443  0.4164189099057430  0.3992087088445554
  0.7106774665770741  0.5415978942955747  0.3985658598235154
  0.7099122881423544  0.6664826757276050  0.3988221161915963
  0.7079196249861990  0.7902034089776353  0.3993409097670097
  0.7069562285208317  0.9143545652912594  0.3998915132207816
  0.8325393871715984  0.0404411489566347  0.3999290186056926
  0.8325990307194399  0.1655718736065545  0.4000075318068857
  0.8329391249149737  0.2908528669152557  0.4000241041189257
  0.8336815753190038  0.4162948561642660  0.3999742675619848
  0.8344890241098908  0.5417910728159547  0.3997012986353484
  0.8346796500541341  0.6670805876393864  0.3995554777453132
  0.8340154491313462  0.7918519470255524  0.3996164321150192
  0.8331190253356026  0.9160488831837174  0.3998128669128869
  0.9583674096191417  0.0417328097266014  0.3998462152271597
  0.9576445093677443  0.1660707690164237  0.3997476893867896
  0.9573953888632724  0.2910375629788105  0.3997919230481382
  0.9576335497895623  0.4162901985127686  0.3999314811016599
  0.9584109298343083  0.5417723620854078  0.4000503129571811
  0.9590437273727547  0.6672408554297199  0.3999907883383569
  0.9591891477147247  0.7925496911150139  0.3999727394032675
  0.9590387430813154  0.9174508695767419  0.3999218017861649
  0.4103579898889252  0.5828076690314729  0.4044919123214163
  0.5472800170608643  0.5825512733622262  0.4026257828399173
  0.3276435969907390  0.4175199940981071  0.4061433029694058
  0.4649549452020823  0.4177619707948258  0.4044889534628392
  0.4593737328230338  0.5204855814290836  0.5108714466033589
 
  0.00000000E+00  0.00000000E+00  0.00000000E+00
  0.00000000E+00  0.00000000E+00  0.00000000E+00
  0.00000000E+00  0.00000000E+00  0.00000000E+00
  0.00000000E+00  0.00000000E+00  0.00000000E+00
  0.00000000E+00  0.00000000E+00  0.00000000E+00
  0.00000000E+00  0.00000000E+00  0.00000000E+00
  0.00000000E+00  0.00000000E+00  0.00000000E+00
  0.00000000E+00  0.00000000E+00  0.00000000E+00
  0.00000000E+00  0.00000000E+00  0.00000000E+00
  0.00000000E+00  0.00000000E+00  0.00000000E+00
  0.00000000E+00  0.00000000E+00  0.00000000E+00
  0.00000000E+00  0.00000000E+00  0.00000000E+00
  0.00000000E+00  0.00000000E+00  0.00000000E+00
  0.00000000E+00  0.00000000E+00  0.00000000E+00
  0.00000000E+00  0.00000000E+00  0.00000000E+00
  0.00000000E+00  0.00000000E+00  0.00000000E+00
  0.00000000E+00  0.00000000E+00  0.00000000E+00
  0.00000000E+00  0.00000000E+00  0.00000000E+00
  0.00000000E+00  0.00000000E+00  0.00000000E+00
  0.00000000E+00  0.00000000E+00  0.00000000E+00
  0.00000000E+00  0.00000000E+00  0.00000000E+00
  0.00000000E+00  0.00000000E+00  0.00000000E+00
  0.00000000E+00  0.00000000E+00  0.00000000E+00
  0.00000000E+00  0.00000000E+00  0.00000000E+00
  0.00000000E+00  0.00000000E+00  0.00000000E+00
  0.00000000E+00  0.00000000E+00  0.00000000E+00
  0.00000000E+00  0.00000000E+00  0.00000000E+00
  0.00000000E+00  0.00000000E+00  0.00000000E+00
  0.00000000E+00  0.00000000E+00  0.00000000E+00
  0.00000000E+00  0.00000000E+00  0.00000000E+00
  0.00000000E+00  0.00000000E+00  0.00000000E+00
  0.00000000E+00  0.00000000E+00  0.00000000E+00
  0.00000000E+00  0.00000000E+00  0.00000000E+00
  0.00000000E+00  0.00000000E+00  0.00000000E+00
  0.00000000E+00  0.00000000E+00  0.00000000E+00
  0.00000000E+00  0.00000000E+00  0.00000000E+00
  0.00000000E+00  0.00000000E+00  0.00000000E+00
  0.00000000E+00  0.00000000E+00  0.00000000E+00
  0.00000000E+00  0.00000000E+00  0.00000000E+00
  0.00000000E+00  0.00000000E+00  0.00000000E+00
  0.00000000E+00  0.00000000E+00  0.00000000E+00
  0.00000000E+00  0.00000000E+00  0.00000000E+00
  0.00000000E+00  0.00000000E+00  0.00000000E+00
  0.00000000E+00  0.00000000E+00  0.00000000E+00
  0.00000000E+00  0.00000000E+00  0.00000000E+00
  0.00000000E+00  0.00000000E+00  0.00000000E+00
  0.00000000E+00  0.00000000E+00  0.00000000E+00
  0.00000000E+00  0.00000000E+00  0.00000000E+00
  0.00000000E+00  0.00000000E+00  0.00000000E+00
  0.00000000E+00  0.00000000E+00  0.00000000E+00
  0.00000000E+00  0.00000000E+00  0.00000000E+00
  0.00000000E+00  0.00000000E+00  0.00000000E+00
  0.00000000E+00  0.00000000E+00  0.00000000E+00
  0.00000000E+00  0.00000000E+00  0.00000000E+00
  0.00000000E+00  0.00000000E+00  0.00000000E+00
  0.00000000E+00  0.00000000E+00  0.00000000E+00
  0.00000000E+00  0.00000000E+00  0.00000000E+00
  0.00000000E+00  0.00000000E+00  0.00000000E+00
  0.00000000E+00  0.00000000E+00  0.00000000E+00
  0.00000000E+00  0.00000000E+00  0.00000000E+00
  0.00000000E+00  0.00000000E+00  0.00000000E+00
  0.00000000E+00  0.00000000E+00  0.00000000E+00
  0.00000000E+00  0.00000000E+00  0.00000000E+00
  0.00000000E+00  0.00000000E+00  0.00000000E+00
  0.00000000E+00  0.00000000E+00  0.00000000E+00
  0.00000000E+00  0.00000000E+00  0.00000000E+00
  0.00000000E+00  0.00000000E+00  0.00000000E+00
  0.00000000E+00  0.00000000E+00  0.00000000E+00
  0.00000000E+00  0.00000000E+00  0.00000000E+00
  0.00000000E+00  0.00000000E+00  0.00000000E+00
  0.00000000E+00  0.00000000E+00  0.00000000E+00
  0.00000000E+00  0.00000000E+00  0.00000000E+00
  0.00000000E+00  0.00000000E+00  0.00000000E+00
  0.00000000E+00  0.00000000E+00  0.00000000E+00
  0.00000000E+00  0.00000000E+00  0.00000000E+00
  0.00000000E+00  0.00000000E+00  0.00000000E+00
  0.00000000E+00  0.00000000E+00  0.00000000E+00
  0.00000000E+00  0.00000000E+00  0.00000000E+00
  0.00000000E+00  0.00000000E+00  0.00000000E+00
  0.00000000E+00  0.00000000E+00  0.00000000E+00
  0.00000000E+00  0.00000000E+00  0.00000000E+00
  0.00000000E+00  0.00000000E+00  0.00000000E+00
  0.00000000E+00  0.00000000E+00  0.00000000E+00
  0.00000000E+00  0.00000000E+00  0.00000000E+00
  0.00000000E+00  0.00000000E+00  0.00000000E+00
  0.00000000E+00  0.00000000E+00  0.00000000E+00
  0.00000000E+00  0.00000000E+00  0.00000000E+00
  0.00000000E+00  0.00000000E+00  0.00000000E+00
  0.00000000E+00  0.00000000E+00  0.00000000E+00
  0.00000000E+00  0.00000000E+00  0.00000000E+00
  0.00000000E+00  0.00000000E+00  0.00000000E+00
  0.00000000E+00  0.00000000E+00  0.00000000E+00
  0.00000000E+00  0.00000000E+00  0.00000000E+00
  0.00000000E+00  0.00000000E+00  0.00000000E+00
  0.00000000E+00  0.00000000E+00  0.00000000E+00
  0.00000000E+00  0.00000000E+00  0.00000000E+00
  0.00000000E+00  0.00000000E+00  0.00000000E+00
  0.00000000E+00  0.00000000E+00  0.00000000E+00
  0.00000000E+00  0.00000000E+00  0.00000000E+00
  0.00000000E+00  0.00000000E+00  0.00000000E+00
  0.00000000E+00  0.00000000E+00  0.00000000E+00
  0.00000000E+00  0.00000000E+00  0.00000000E+00
  0.00000000E+00  0.00000000E+00  0.00000000E+00
  0.00000000E+00  0.00000000E+00  0.00000000E+00
  0.00000000E+00  0.00000000E+00  0.00000000E+00
  0.00000000E+00  0.00000000E+00  0.00000000E+00
  0.00000000E+00  0.00000000E+00  0.00000000E+00
  0.00000000E+00  0.00000000E+00  0.00000000E+00
  0.00000000E+00  0.00000000E+00  0.00000000E+00
  0.00000000E+00  0.00000000E+00  0.00000000E+00
  0.00000000E+00  0.00000000E+00  0.00000000E+00
  0.00000000E+00  0.00000000E+00  0.00000000E+00
  0.00000000E+00  0.00000000E+00  0.00000000E+00
  0.00000000E+00  0.00000000E+00  0.00000000E+00
  0.00000000E+00  0.00000000E+00  0.00000000E+00
  0.00000000E+00  0.00000000E+00  0.00000000E+00
  0.00000000E+00  0.00000000E+00  0.00000000E+00
  0.00000000E+00  0.00000000E+00  0.00000000E+00
  0.00000000E+00  0.00000000E+00  0.00000000E+00
  0.00000000E+00  0.00000000E+00  0.00000000E+00
  0.00000000E+00  0.00000000E+00  0.00000000E+00
  0.00000000E+00  0.00000000E+00  0.00000000E+00
  0.00000000E+00  0.00000000E+00  0.00000000E+00
  0.00000000E+00  0.00000000E+00  0.00000000E+00
  0.00000000E+00  0.00000000E+00  0.00000000E+00
  0.00000000E+00  0.00000000E+00  0.00000000E+00
  0.00000000E+00  0.00000000E+00  0.00000000E+00
  0.00000000E+00  0.00000000E+00  0.00000000E+00
