Ag1 H1 C123 N3                          
   1.00000000000000     
    19.8197675237827795    0.0138860646211071    0.1818639103682207
    -9.8982112943858240   17.0380544314694760   -0.1983332404807201
     0.2726093191179225   -0.1873668943529340   29.7893150916916269
   Ag   H    C    N 
     1     1   123     3
Direct
  0.4344867141561010  0.4953620951990642  0.4319720220187104
  0.4538156661372358  0.4851789022860566  0.4842379719015970
  0.0414852036592606  0.0839425699407527  0.4002183299649658
  0.0404919031643093  0.2080833042612370  0.3995911545970900
  0.0399471982747513  0.3329054420715650  0.3987305540744887
  0.0403072156704368  0.4582733325386810  0.3985541849745786
  0.0413253894297590  0.5838597975903911  0.3987519703453202
  0.0422141649212406  0.7093542987965135  0.3988828924159397
  0.0425321746392389  0.8346755897955364  0.3992632201528645
  0.0423560088714028  0.9596853730055156  0.3999508232216374
  0.1675302349937936  0.0855003723754298  0.4007428093517603
  0.1663688617814151  0.2095692421344081  0.4008145259170579
  0.1645236348193261  0.3333619379621447  0.3987623432717816
  0.1639528262908671  0.4583685192125462  0.3979718050993835
  0.1650573897535216  0.5836941549404857  0.3983867757729456
  0.1663701366470027  0.7091199379475447  0.3989591131505133
  0.1670933246900385  0.8346105046472303  0.3990443983760483
  0.1674397344801592  0.9601447748084658  0.3997617933880168
  0.2924351720030318  0.0858155345804266  0.4011939545484886
  0.2928808506747701  0.2125745719698214  0.4036729921021242
  0.2906696302013465  0.3373630779362369  0.4025793950911803
  0.2873866552207386  0.4573920162589352  0.4000615941737390
  0.2883287500606236  0.5831117939712498  0.3997904381362857
  0.2905108398373197  0.7085924722638406  0.3999347375250203
  0.2915642666271003  0.8341017106697737  0.3993676888170710
  0.2920731942346231  0.9597601659428956  0.3994844430574052
  0.4169568075098400  0.0843042770046291  0.4001518418717610
  0.4174672756661444  0.2102587220755469  0.4024983531354793
  0.4189576778966281  0.3371171171552031  0.4098964146511551
  0.4144938739461248  0.7065631173648858  0.4024756059375926
  0.4159587849389079  0.8325737941589261  0.4003096438355903
  0.4165712740827425  0.9584550190668256  0.3995618520699675
  0.5414309602269208  0.0827598345929532  0.3994139527877348
  0.5420564919577717  0.2085335229517501  0.4004015502367332
  0.5432265510718732  0.3341725865065575  0.4029709565838526
  0.5470241408019310  0.4602053392878271  0.4074574475591092
  0.5381986914694891  0.7020116348985372  0.4046619552145467
  0.5402655218444800  0.8304095085009280  0.4019278499773295
  0.5409703844394369  0.9568334254941205  0.4000220606051771
  0.6659352180639403  0.0820669513099034  0.3994187355033949
  0.6664432621586148  0.2075970500431705  0.3991167417042265
  0.6673666689346610  0.3330858190804045  0.3995355864187289
  0.6694984931904648  0.4588197392688260  0.3997762924167028
  0.6710908260485354  0.5845214935238046  0.4004308932114545
  0.6675608652311085  0.7073430389035273  0.4012453183926323
  0.6647635372806507  0.8305044194225845  0.4015123993736861
  0.6654191475414100  0.9564269101399230  0.4005624013365338
  0.7905638671878125  0.0820347212371715  0.3998534105129592
  0.7908769089981902  0.2073630151148181  0.3990906618928279
  0.7915809146301410  0.3328410714131443  0.3987486765660099
  0.7928282928930270  0.4584247032079067  0.3986129789154370
  0.7939553408269808  0.5839885222052833  0.3989533074491525
  0.7937236272929350  0.7092810076529721  0.3993617922615591
  0.7916145955307252  0.8329340140625249  0.4002453920033315
  0.7903783544182141  0.9568413731674774  0.4004005026953023
  0.9156426832023408  0.0826157485489606  0.4001044682913541
  0.9154488522467202  0.2074858410533995  0.3994620628097876
  0.9157088713155506  0.3327997937995802  0.3989347635506619
  0.9165567136005013  0.4583359294653786  0.3987362129477983
  0.9176160645976049  0.5839333275405529  0.3987274367770709
  0.9179695898702988  0.7093317678508410  0.3990373442959348
  0.9176039513675852  0.8343112655933952  0.3996610918176171
  0.9165425632722333  0.9584581972694582  0.4001530151452636
  0.0839936572773900  0.0432147191600477  0.4002398821035760
  0.0829347014908621  0.1673362773016412  0.4001248881248554
  0.0815791090810731  0.2913865010668555  0.3988763011653824
  0.0812608540234935  0.4163450398973920  0.3983516228775756
  0.0821720465440515  0.5418636812537634  0.3985102089503201
  0.0832882882247462  0.6674234638212561  0.3988158875093970
  0.0839250070573224  0.7929029047056516  0.3990002218456826
  0.0841492475370836  0.9182031655902942  0.3996258128904586
  0.2090951734248304  0.0437213459007402  0.4006132828705004
  0.2091474927674319  0.1691884500159171  0.4016375514695511
  0.2071479520753397  0.2929110153445671  0.4004094791745640
  0.2051039718740979  0.4167055226393451  0.3982495421631785
  0.2056011963925505  0.5415539764670529  0.3980478815049274
  0.2073396040631526  0.6671883191810537  0.3990413312048210
  0.2083890086774046  0.7927155048503758  0.3990948500371699
  0.2088830858829307  0.9182073599574478  0.3993482773873675
  0.3337787746610323  0.0434528552987173  0.4002205352167158
  0.3341263354832161  0.1696147854813837  0.4028363617272037
  0.3345143046356294  0.2966469860786108  0.4063090446778530
  0.3296186283562585  0.5424734709226583  0.4031512218959117
  0.3312983192352825  0.6665086179666193  0.4009934878819403
  0.3328022657548329  0.7919814585640752  0.3999231988879711
  0.3333920665252094  0.9175833164733745  0.3993620718242704
  0.4582832432621830  0.0419413499683110  0.3996267244182570
  0.4587600078925446  0.1678393537365046  0.4008816960235992
  0.4598681311449705  0.2938478168851157  0.4045511867168187
  0.4668254074995141  0.4180478379944670  0.4168197685119824
  0.4532509723733353  0.6617610680173004  0.4062976312803692
  0.4571069977555959  0.7900762875037940  0.4014138141261920
  0.4578112079458323  0.9161033969915111  0.3999052275312173
  0.5827273836028882  0.0405140429471167  0.3994651605124374
  0.5832874719867809  0.1663226897670359  0.3994947837838836
  0.5842170150936179  0.2918802844175942  0.4008476055880533
  0.5867596559575573  0.4175001667042256  0.4025772204421198
  0.5893101912112085  0.5444622641245651  0.4032445852363900
  0.5838275435593711  0.6622812321875691  0.4030333742980697
  0.5806180448568389  0.7867489566811551  0.4027881232775684
  0.5821819187949427  0.9143704143674939  0.4008337747364874
  0.7072710019206749  0.0400823568943717  0.3998856190985094
  0.7077590795531864  0.1656622161124628  0.3990791169461748
  0.7084397941731513  0.2911470356922589  0.3990051211746056
  0.7099419425929827  0.4166277697099726  0.3990304359248510
  0.7115379888527006  0.5421506687455195  0.3996407391766644
  0.7108606487144172  0.6674608913172927  0.3999398151172867
  0.7081346517054904  0.7906395150166208  0.4010007926872030
  0.7066962651193935  0.9143665563863794  0.4007886106854798
  0.8322127024369030  0.0404896962315634  0.4001701223909773
  0.8322813335584131  0.1656038830843537  0.3994712122207081
  0.8326897522452958  0.2909249973434858  0.3988893406957651
  0.8336585147158792  0.4164090623095549  0.3986646792104961
  0.8348118131024564  0.5419982539622514  0.3986654848910548
  0.8351342679688964  0.6675495610240038  0.3990532155779502
  0.8344211711051264  0.7923957756164910  0.3997099857038757
  0.8330158817343170  0.9162678768478951  0.4002762764633143
  0.9580314829783992  0.0417836229015763  0.4001736407806033
  0.9572029523679109  0.1660454780175902  0.3997609831993061
  0.9570182798957418  0.2910344620280453  0.3990861704224825
  0.9574247821412459  0.4163561732313444  0.3987884470554218
  0.9584550275577904  0.5419310563216825  0.3987529292523280
  0.9592519368525639  0.6674855692007480  0.3988712047838538
  0.9593650393691212  0.7928476482710097  0.3993053519712964
  0.9590006121315451  0.9176962621828355  0.3999562099119354
  0.4080673614880421  0.5822080811906885  0.4109118769448057
  0.5490209923324344  0.5831811817242821  0.4031104034001640
  0.3264176526115568  0.4168893353626935  0.4013396922367647
 
  0.00000000E+00  0.00000000E+00  0.00000000E+00
  0.00000000E+00  0.00000000E+00  0.00000000E+00
  0.00000000E+00  0.00000000E+00  0.00000000E+00
  0.00000000E+00  0.00000000E+00  0.00000000E+00
  0.00000000E+00  0.00000000E+00  0.00000000E+00
  0.00000000E+00  0.00000000E+00  0.00000000E+00
  0.00000000E+00  0.00000000E+00  0.00000000E+00
  0.00000000E+00  0.00000000E+00  0.00000000E+00
  0.00000000E+00  0.00000000E+00  0.00000000E+00
  0.00000000E+00  0.00000000E+00  0.00000000E+00
  0.00000000E+00  0.00000000E+00  0.00000000E+00
  0.00000000E+00  0.00000000E+00  0.00000000E+00
  0.00000000E+00  0.00000000E+00  0.00000000E+00
  0.00000000E+00  0.00000000E+00  0.00000000E+00
  0.00000000E+00  0.00000000E+00  0.00000000E+00
  0.00000000E+00  0.00000000E+00  0.00000000E+00
  0.00000000E+00  0.00000000E+00  0.00000000E+00
  0.00000000E+00  0.00000000E+00  0.00000000E+00
  0.00000000E+00  0.00000000E+00  0.00000000E+00
  0.00000000E+00  0.00000000E+00  0.00000000E+00
  0.00000000E+00  0.00000000E+00  0.00000000E+00
  0.00000000E+00  0.00000000E+00  0.00000000E+00
  0.00000000E+00  0.00000000E+00  0.00000000E+00
  0.00000000E+00  0.00000000E+00  0.00000000E+00
  0.00000000E+00  0.00000000E+00  0.00000000E+00
  0.00000000E+00  0.00000000E+00  0.00000000E+00
  0.00000000E+00  0.00000000E+00  0.00000000E+00
  0.00000000E+00  0.00000000E+00  0.00000000E+00
  0.00000000E+00  0.00000000E+00  0.00000000E+00
  0.00000000E+00  0.00000000E+00  0.00000000E+00
  0.00000000E+00  0.00000000E+00  0.00000000E+00
  0.00000000E+00  0.00000000E+00  0.00000000E+00
  0.00000000E+00  0.00000000E+00  0.00000000E+00
  0.00000000E+00  0.00000000E+00  0.00000000E+00
  0.00000000E+00  0.00000000E+00  0.00000000E+00
  0.00000000E+00  0.00000000E+00  0.00000000E+00
  0.00000000E+00  0.00000000E+00  0.00000000E+00
  0.00000000E+00  0.00000000E+00  0.00000000E+00
  0.00000000E+00  0.00000000E+00  0.00000000E+00
  0.00000000E+00  0.00000000E+00  0.00000000E+00
  0.00000000E+00  0.00000000E+00  0.00000000E+00
  0.00000000E+00  0.00000000E+00  0.00000000E+00
  0.00000000E+00  0.00000000E+00  0.00000000E+00
  0.00000000E+00  0.00000000E+00  0.00000000E+00
  0.00000000E+00  0.00000000E+00  0.00000000E+00
  0.00000000E+00  0.00000000E+00  0.00000000E+00
  0.00000000E+00  0.00000000E+00  0.00000000E+00
  0.00000000E+00  0.00000000E+00  0.00000000E+00
  0.00000000E+00  0.00000000E+00  0.00000000E+00
  0.00000000E+00  0.00000000E+00  0.00000000E+00
  0.00000000E+00  0.00000000E+00  0.00000000E+00
  0.00000000E+00  0.00000000E+00  0.00000000E+00
  0.00000000E+00  0.00000000E+00  0.00000000E+00
  0.00000000E+00  0.00000000E+00  0.00000000E+00
  0.00000000E+00  0.00000000E+00  0.00000000E+00
  0.00000000E+00  0.00000000E+00  0.00000000E+00
  0.00000000E+00  0.00000000E+00  0.00000000E+00
  0.00000000E+00  0.00000000E+00  0.00000000E+00
  0.00000000E+00  0.00000000E+00  0.00000000E+00
  0.00000000E+00  0.00000000E+00  0.00000000E+00
  0.00000000E+00  0.00000000E+00  0.00000000E+00
  0.00000000E+00  0.00000000E+00  0.00000000E+00
  0.00000000E+00  0.00000000E+00  0.00000000E+00
  0.00000000E+00  0.00000000E+00  0.00000000E+00
  0.00000000E+00  0.00000000E+00  0.00000000E+00
  0.00000000E+00  0.00000000E+00  0.00000000E+00
  0.00000000E+00  0.00000000E+00  0.00000000E+00
  0.00000000E+00  0.00000000E+00  0.00000000E+00
  0.00000000E+00  0.00000000E+00  0.00000000E+00
  0.00000000E+00  0.00000000E+00  0.00000000E+00
  0.00000000E+00  0.00000000E+00  0.00000000E+00
  0.00000000E+00  0.00000000E+00  0.00000000E+00
  0.00000000E+00  0.00000000E+00  0.00000000E+00
  0.00000000E+00  0.00000000E+00  0.00000000E+00
  0.00000000E+00  0.00000000E+00  0.00000000E+00
  0.00000000E+00  0.00000000E+00  0.00000000E+00
  0.00000000E+00  0.00000000E+00  0.00000000E+00
  0.00000000E+00  0.00000000E+00  0.00000000E+00
  0.00000000E+00  0.00000000E+00  0.00000000E+00
  0.00000000E+00  0.00000000E+00  0.00000000E+00
  0.00000000E+00  0.00000000E+00  0.00000000E+00
  0.00000000E+00  0.00000000E+00  0.00000000E+00
  0.00000000E+00  0.00000000E+00  0.00000000E+00
  0.00000000E+00  0.00000000E+00  0.00000000E+00
  0.00000000E+00  0.00000000E+00  0.00000000E+00
  0.00000000E+00  0.00000000E+00  0.00000000E+00
  0.00000000E+00  0.00000000E+00  0.00000000E+00
  0.00000000E+00  0.00000000E+00  0.00000000E+00
  0.00000000E+00  0.00000000E+00  0.00000000E+00
  0.00000000E+00  0.00000000E+00  0.00000000E+00
  0.00000000E+00  0.00000000E+00  0.00000000E+00
  0.00000000E+00  0.00000000E+00  0.00000000E+00
  0.00000000E+00  0.00000000E+00  0.00000000E+00
  0.00000000E+00  0.00000000E+00  0.00000000E+00
  0.00000000E+00  0.00000000E+00  0.00000000E+00
  0.00000000E+00  0.00000000E+00  0.00000000E+00
  0.00000000E+00  0.00000000E+00  0.00000000E+00
  0.00000000E+00  0.00000000E+00  0.00000000E+00
  0.00000000E+00  0.00000000E+00  0.00000000E+00
  0.00000000E+00  0.00000000E+00  0.00000000E+00
  0.00000000E+00  0.00000000E+00  0.00000000E+00
  0.00000000E+00  0.00000000E+00  0.00000000E+00
  0.00000000E+00  0.00000000E+00  0.00000000E+00
  0.00000000E+00  0.00000000E+00  0.00000000E+00
  0.00000000E+00  0.00000000E+00  0.00000000E+00
  0.00000000E+00  0.00000000E+00  0.00000000E+00
  0.00000000E+00  0.00000000E+00  0.00000000E+00
  0.00000000E+00  0.00000000E+00  0.00000000E+00
  0.00000000E+00  0.00000000E+00  0.00000000E+00
  0.00000000E+00  0.00000000E+00  0.00000000E+00
  0.00000000E+00  0.00000000E+00  0.00000000E+00
  0.00000000E+00  0.00000000E+00  0.00000000E+00
  0.00000000E+00  0.00000000E+00  0.00000000E+00
  0.00000000E+00  0.00000000E+00  0.00000000E+00
  0.00000000E+00  0.00000000E+00  0.00000000E+00
  0.00000000E+00  0.00000000E+00  0.00000000E+00
  0.00000000E+00  0.00000000E+00  0.00000000E+00
  0.00000000E+00  0.00000000E+00  0.00000000E+00
  0.00000000E+00  0.00000000E+00  0.00000000E+00
  0.00000000E+00  0.00000000E+00  0.00000000E+00
  0.00000000E+00  0.00000000E+00  0.00000000E+00
  0.00000000E+00  0.00000000E+00  0.00000000E+00
  0.00000000E+00  0.00000000E+00  0.00000000E+00
  0.00000000E+00  0.00000000E+00  0.00000000E+00
  0.00000000E+00  0.00000000E+00  0.00000000E+00
  0.00000000E+00  0.00000000E+00  0.00000000E+00
  0.00000000E+00  0.00000000E+00  0.00000000E+00
  0.00000000E+00  0.00000000E+00  0.00000000E+00
