Ta1 H1 C126                             
   1.00000000000000     
    19.8219286527052105   -0.0001709721748839   -0.0445653814229046
    -9.9111401690335139   17.0831192321938516   -0.0867985280934022
    -0.0667508436813837   -0.1895916857637758   29.7174159651548919
   Ta   H    C 
     1     1   126
Direct
  0.4393278534905214  0.5012759244590981  0.4330175774183858
  0.4434119499844483  0.5033518327724419  0.4933695163220199
  0.0417613495003805  0.0837723806809308  0.3994871055316646
  0.0407859593049145  0.2079260567535105  0.3994170884003279
  0.0403770910933800  0.3327431371787385  0.3993510841465239
  0.0405477212528983  0.4583801009258614  0.3993224269863945
  0.0413916749300050  0.5838602106155683  0.3997005502806431
  0.0421252402357435  0.7091755246043169  0.3999390090112478
  0.0424435183444981  0.8344670479909857  0.3999568809640488
  0.0424210601227352  0.9593901893412602  0.3996968150657340
  0.1674560314894667  0.0848601792325504  0.3997593834070137
  0.1666393153651302  0.2091201727166743  0.4000610410487561
  0.1650510740326059  0.3330373285490369  0.4002950619927521
  0.1640676236433693  0.4582659657893103  0.3996754523323991
  0.1652065891068979  0.5837103842782445  0.3992226115583706
  0.1665000785174342  0.7092262987390352  0.3996372644496006
  0.1670964294302758  0.8344969142916364  0.3999553077977558
  0.1674130149217590  0.9597264283000040  0.3997875925304157
  0.2924982965637252  0.0848910401150864  0.3997389155392841
  0.2930140582930326  0.2109878059659440  0.4009506852857606
  0.2916089233191055  0.3356102634190687  0.4033466963046077
  0.2869682005286796  0.4574850359205136  0.4034144847471293
  0.2887469781198895  0.5840631456485773  0.4004054108218389
  0.2907980551657386  0.7090864022742084  0.3993445860309335
  0.2916411042422805  0.8341412700919735  0.3996656898342300
  0.2921023680487569  0.9594245896004266  0.3997178977916439
  0.4171384925023615  0.0837891339048589  0.3995061319898800
  0.4175531646467392  0.2091212927431637  0.3998963234748385
  0.4190427326504749  0.3355487112619180  0.4025535321023421
  0.4113191574274784  0.5824160688183692  0.4055306260784107
  0.4154037449943760  0.7076994491629800  0.3999600755874970
  0.4162309710530992  0.8331806415964726  0.3994357186928409
  0.4167302188563616  0.9584801767389559  0.3996902858992769
  0.5417630974152043  0.0827853228299532  0.3996934733508490
  0.5422302948162042  0.2079417889139177  0.3995084720662082
  0.5430678319723480  0.3330369849078773  0.3999763819536871
  0.5455560746978451  0.4574464481630482  0.4019557656157202
  0.5461606687163008  0.5823490918524480  0.4038833770949982
  0.5405475432753336  0.7060689256141500  0.4015465496756357
  0.5407836515899930  0.8318711085249644  0.3996510493091625
  0.5413704430082315  0.9574509393897215  0.3997732066332845
  0.6663634591130265  0.0823285920233215  0.3998864281895629
  0.6667881611022497  0.2075950143277270  0.3997108902269998
  0.6674288459055502  0.3327342840958543  0.3995824790575396
  0.6692736663966690  0.4582416387091123  0.3996019753208938
  0.6703705953104026  0.5840018649840272  0.3997952011078546
  0.6673326279757019  0.7076779048038778  0.3995400904743402
  0.6661008647415643  0.8318410265961754  0.3995642985672113
  0.6660713076752354  0.9570577811542026  0.3998641850361039
  0.7910994267084950  0.0823165943291172  0.3999442884958488
  0.7912952822312830  0.2074846325744287  0.4000198516237256
  0.7918635056118837  0.3328660318678198  0.3998184419132446
  0.7928745533049596  0.4583507291417310  0.3996600385489604
  0.7935290170316248  0.5836654245820639  0.3995007308026976
  0.7932820188106686  0.7090263249396089  0.3994740290393686
  0.7920010016927683  0.8331512152003200  0.3995236385093536
  0.7911567579805837  0.9574196310628649  0.3998172961879041
  0.9161581483234928  0.0827704147863109  0.3996609908061735
  0.9158969007141027  0.2076118041129343  0.3996464691846177
  0.9160913907992413  0.3328953477474646  0.3997138281148192
  0.9166748519517922  0.4582872716860645  0.3998144834512554
  0.9175140565600718  0.5838573867447433  0.3998502931146304
  0.9177521677274690  0.7091984883404033  0.3998094445677991
  0.9175464399583307  0.8341113543287196  0.3998504349750164
  0.9168633845943803  0.9584554762153518  0.3997836463724950
  0.0840003014256263  0.0427796770640403  0.3995650900515277
  0.0831357466212257  0.1670199997065532  0.3995104420663516
  0.0818413909346171  0.2911229361173514  0.3995073137646043
  0.0815973501157266  0.4165043428227082  0.3992472392335617
  0.0822873709056302  0.5418852647359519  0.3993559868666555
  0.0833589915085942  0.6674465151860087  0.3997989778441442
  0.0839514323322720  0.7928466834691071  0.3999763352385240
  0.0840967099150850  0.9179136758301565  0.3998245088130107
  0.2091060356699101  0.0431138002970140  0.3997386645230923
  0.2090297168769219  0.1683357159530358  0.4002569883786481
  0.2078747264842189  0.2925566239841838  0.4008796447081030
  0.2048227480364946  0.4162048597942399  0.4007969425656797
  0.2059152602249748  0.5419530679096483  0.3995926808344729
  0.2077231330080531  0.6674775202479482  0.3993405454418428
  0.2084512925519934  0.7926743519591528  0.3997934857985675
  0.2089315444891005  0.9179338244864815  0.3998733553814713
  0.3338896244850443  0.0428165800133381  0.3995826840968167
  0.3343787045159553  0.1683638656043032  0.4001432236022440
  0.3346567149848712  0.2942512900927189  0.4028533247713841
  0.3291492761149309  0.4181415833553236  0.4063793482393522
  0.3297203091062161  0.5429345686218462  0.4030611996640529
  0.3321043579569940  0.6671902124446548  0.3997440508976007
  0.3329770755558425  0.7922957088399483  0.3994496654708420
  0.3335656890044590  0.9175035987242246  0.3996990309220890
  0.4585986580678966  0.0417844408218497  0.3996310150747433
  0.4589706259036123  0.1670272874645765  0.3995145532259435
  0.4597619063848285  0.2925286189619110  0.4003978249001379
  0.4640701606672543  0.4181064118715976  0.4046804596593847
  0.4561687929393997  0.6647613303749724  0.4021507815527520
  0.4576144083404040  0.7910880548048174  0.3994318243118259
  0.4581285173692141  0.9164367617859519  0.3996599848856229
  0.5832027151327901  0.0408568000200450  0.3998112874103862
  0.5836097583195927  0.1661237498988350  0.3995955605974005
  0.5843462293357774  0.2911261236903999  0.3995720942047469
  0.5864742701825072  0.4161843005515255  0.4002195527540627
  0.5882297594270549  0.5428549829257746  0.4015899627273600
  0.5836296643952597  0.6647722570862346  0.4014138402269548
  0.5821283377581332  0.7892335751780380  0.3999708423784024
  0.5826898132113908  0.9153392862134033  0.3997528826214839
  0.7077990921235072  0.0404606450647655  0.3999446131321557
  0.7081658562288027  0.1657836116648760  0.3999044735245378
  0.7087108690112590  0.2910303030885699  0.3996926231823189
  0.7099712239716502  0.4164897365642959  0.3995243550144009
  0.7111037249737707  0.5419047065351601  0.3994894724965511
  0.7101125117255331  0.6671444238134219  0.3994367213307772
  0.7085143576218306  0.7910738038227979  0.3993404697757491
  0.7077066792833070  0.9153127111583211  0.3997374116655946
  0.8327815333118560  0.0408386059337276  0.3998540881676359
  0.8327161666676992  0.1657821770060114  0.3999355584356764
  0.8331242147723548  0.2911656458327513  0.3999208512508700
  0.8338282474495428  0.4164521367056767  0.3997986906191494
  0.8346309390348832  0.5418624867976255  0.3996873641636569
  0.8347663430333484  0.6674325004743544  0.3995985992874199
  0.8343462971513618  0.7922491050901511  0.3996238439838795
  0.8334036365888823  0.9164254353690179  0.3997665642607386
  0.9583061181170308  0.0417617796944856  0.3996275076956260
  0.9575989086487523  0.1661241744448125  0.3994971131943708
  0.9573955446201616  0.2910530086181481  0.3995191615839959
  0.9576833639160981  0.4164774563804839  0.3996276172798999
  0.9585641587795684  0.5420841399657607  0.3998525134847584
  0.9591386634346433  0.6674384639718053  0.3998778563021878
  0.9592490983240802  0.7926395826576881  0.3999116217162180
  0.9590302520586480  0.9174681614034017  0.3998021539334490
 
  0.00000000E+00  0.00000000E+00  0.00000000E+00
  0.00000000E+00  0.00000000E+00  0.00000000E+00
  0.00000000E+00  0.00000000E+00  0.00000000E+00
  0.00000000E+00  0.00000000E+00  0.00000000E+00
  0.00000000E+00  0.00000000E+00  0.00000000E+00
  0.00000000E+00  0.00000000E+00  0.00000000E+00
  0.00000000E+00  0.00000000E+00  0.00000000E+00
  0.00000000E+00  0.00000000E+00  0.00000000E+00
  0.00000000E+00  0.00000000E+00  0.00000000E+00
  0.00000000E+00  0.00000000E+00  0.00000000E+00
  0.00000000E+00  0.00000000E+00  0.00000000E+00
  0.00000000E+00  0.00000000E+00  0.00000000E+00
  0.00000000E+00  0.00000000E+00  0.00000000E+00
  0.00000000E+00  0.00000000E+00  0.00000000E+00
  0.00000000E+00  0.00000000E+00  0.00000000E+00
  0.00000000E+00  0.00000000E+00  0.00000000E+00
  0.00000000E+00  0.00000000E+00  0.00000000E+00
  0.00000000E+00  0.00000000E+00  0.00000000E+00
  0.00000000E+00  0.00000000E+00  0.00000000E+00
  0.00000000E+00  0.00000000E+00  0.00000000E+00
  0.00000000E+00  0.00000000E+00  0.00000000E+00
  0.00000000E+00  0.00000000E+00  0.00000000E+00
  0.00000000E+00  0.00000000E+00  0.00000000E+00
  0.00000000E+00  0.00000000E+00  0.00000000E+00
  0.00000000E+00  0.00000000E+00  0.00000000E+00
  0.00000000E+00  0.00000000E+00  0.00000000E+00
  0.00000000E+00  0.00000000E+00  0.00000000E+00
  0.00000000E+00  0.00000000E+00  0.00000000E+00
  0.00000000E+00  0.00000000E+00  0.00000000E+00
  0.00000000E+00  0.00000000E+00  0.00000000E+00
  0.00000000E+00  0.00000000E+00  0.00000000E+00
  0.00000000E+00  0.00000000E+00  0.00000000E+00
  0.00000000E+00  0.00000000E+00  0.00000000E+00
  0.00000000E+00  0.00000000E+00  0.00000000E+00
  0.00000000E+00  0.00000000E+00  0.00000000E+00
  0.00000000E+00  0.00000000E+00  0.00000000E+00
  0.00000000E+00  0.00000000E+00  0.00000000E+00
  0.00000000E+00  0.00000000E+00  0.00000000E+00
  0.00000000E+00  0.00000000E+00  0.00000000E+00
  0.00000000E+00  0.00000000E+00  0.00000000E+00
  0.00000000E+00  0.00000000E+00  0.00000000E+00
  0.00000000E+00  0.00000000E+00  0.00000000E+00
  0.00000000E+00  0.00000000E+00  0.00000000E+00
  0.00000000E+00  0.00000000E+00  0.00000000E+00
  0.00000000E+00  0.00000000E+00  0.00000000E+00
  0.00000000E+00  0.00000000E+00  0.00000000E+00
  0.00000000E+00  0.00000000E+00  0.00000000E+00
  0.00000000E+00  0.00000000E+00  0.00000000E+00
  0.00000000E+00  0.00000000E+00  0.00000000E+00
  0.00000000E+00  0.00000000E+00  0.00000000E+00
  0.00000000E+00  0.00000000E+00  0.00000000E+00
  0.00000000E+00  0.00000000E+00  0.00000000E+00
  0.00000000E+00  0.00000000E+00  0.00000000E+00
  0.00000000E+00  0.00000000E+00  0.00000000E+00
  0.00000000E+00  0.00000000E+00  0.00000000E+00
  0.00000000E+00  0.00000000E+00  0.00000000E+00
  0.00000000E+00  0.00000000E+00  0.00000000E+00
  0.00000000E+00  0.00000000E+00  0.00000000E+00
  0.00000000E+00  0.00000000E+00  0.00000000E+00
  0.00000000E+00  0.00000000E+00  0.00000000E+00
  0.00000000E+00  0.00000000E+00  0.00000000E+00
  0.00000000E+00  0.00000000E+00  0.00000000E+00
  0.00000000E+00  0.00000000E+00  0.00000000E+00
  0.00000000E+00  0.00000000E+00  0.00000000E+00
  0.00000000E+00  0.00000000E+00  0.00000000E+00
  0.00000000E+00  0.00000000E+00  0.00000000E+00
  0.00000000E+00  0.00000000E+00  0.00000000E+00
  0.00000000E+00  0.00000000E+00  0.00000000E+00
  0.00000000E+00  0.00000000E+00  0.00000000E+00
  0.00000000E+00  0.00000000E+00  0.00000000E+00
  0.00000000E+00  0.00000000E+00  0.00000000E+00
  0.00000000E+00  0.00000000E+00  0.00000000E+00
  0.00000000E+00  0.00000000E+00  0.00000000E+00
  0.00000000E+00  0.00000000E+00  0.00000000E+00
  0.00000000E+00  0.00000000E+00  0.00000000E+00
  0.00000000E+00  0.00000000E+00  0.00000000E+00
  0.00000000E+00  0.00000000E+00  0.00000000E+00
  0.00000000E+00  0.00000000E+00  0.00000000E+00
  0.00000000E+00  0.00000000E+00  0.00000000E+00
  0.00000000E+00  0.00000000E+00  0.00000000E+00
  0.00000000E+00  0.00000000E+00  0.00000000E+00
  0.00000000E+00  0.00000000E+00  0.00000000E+00
  0.00000000E+00  0.00000000E+00  0.00000000E+00
  0.00000000E+00  0.00000000E+00  0.00000000E+00
  0.00000000E+00  0.00000000E+00  0.00000000E+00
  0.00000000E+00  0.00000000E+00  0.00000000E+00
  0.00000000E+00  0.00000000E+00  0.00000000E+00
  0.00000000E+00  0.00000000E+00  0.00000000E+00
  0.00000000E+00  0.00000000E+00  0.00000000E+00
  0.00000000E+00  0.00000000E+00  0.00000000E+00
  0.00000000E+00  0.00000000E+00  0.00000000E+00
  0.00000000E+00  0.00000000E+00  0.00000000E+00
  0.00000000E+00  0.00000000E+00  0.00000000E+00
  0.00000000E+00  0.00000000E+00  0.00000000E+00
  0.00000000E+00  0.00000000E+00  0.00000000E+00
  0.00000000E+00  0.00000000E+00  0.00000000E+00
  0.00000000E+00  0.00000000E+00  0.00000000E+00
  0.00000000E+00  0.00000000E+00  0.00000000E+00
  0.00000000E+00  0.00000000E+00  0.00000000E+00
  0.00000000E+00  0.00000000E+00  0.00000000E+00
  0.00000000E+00  0.00000000E+00  0.00000000E+00
  0.00000000E+00  0.00000000E+00  0.00000000E+00
  0.00000000E+00  0.00000000E+00  0.00000000E+00
  0.00000000E+00  0.00000000E+00  0.00000000E+00
  0.00000000E+00  0.00000000E+00  0.00000000E+00
  0.00000000E+00  0.00000000E+00  0.00000000E+00
  0.00000000E+00  0.00000000E+00  0.00000000E+00
  0.00000000E+00  0.00000000E+00  0.00000000E+00
  0.00000000E+00  0.00000000E+00  0.00000000E+00
  0.00000000E+00  0.00000000E+00  0.00000000E+00
  0.00000000E+00  0.00000000E+00  0.00000000E+00
  0.00000000E+00  0.00000000E+00  0.00000000E+00
  0.00000000E+00  0.00000000E+00  0.00000000E+00
  0.00000000E+00  0.00000000E+00  0.00000000E+00
  0.00000000E+00  0.00000000E+00  0.00000000E+00
  0.00000000E+00  0.00000000E+00  0.00000000E+00
  0.00000000E+00  0.00000000E+00  0.00000000E+00
  0.00000000E+00  0.00000000E+00  0.00000000E+00
  0.00000000E+00  0.00000000E+00  0.00000000E+00
  0.00000000E+00  0.00000000E+00  0.00000000E+00
  0.00000000E+00  0.00000000E+00  0.00000000E+00
  0.00000000E+00  0.00000000E+00  0.00000000E+00
  0.00000000E+00  0.00000000E+00  0.00000000E+00
  0.00000000E+00  0.00000000E+00  0.00000000E+00
  0.00000000E+00  0.00000000E+00  0.00000000E+00
  0.00000000E+00  0.00000000E+00  0.00000000E+00
  0.00000000E+00  0.00000000E+00  0.00000000E+00
  0.00000000E+00  0.00000000E+00  0.00000000E+00
