Nb1 H1 C125 N1 O2                       
   1.00000000000000     
    19.7998221084523394   -0.0111943291990250   -0.1045830325173826
    -9.9091468931464295   17.0743941147701328   -0.1493247232920099
    -0.1572392417471404   -0.3514096336310557   29.7790387429323360
   Nb   H    C    N    O 
     1     1   125     1     2
Direct
  0.4336235248656979  0.5023724077511500  0.4365804567063480
  0.5381022760115711  0.5629182057360610  0.5159523803318312
  0.0419464482359818  0.0839553952548371  0.3995774978827423
  0.0415579971264382  0.2085223974395080  0.3995535042338212
  0.0411786583733603  0.3332450022299491  0.3997514859372253
  0.0411788316290481  0.4584790782659153  0.3997305741769768
  0.0416483623696267  0.5838373678858298  0.3999161879838926
  0.0421083314884000  0.7091201786519173  0.4000223103906229
  0.0423015346325038  0.8343417017355110  0.3999630256132538
  0.0422795820857186  0.9593361940379325  0.3997348589399926
  0.1675484591432573  0.0849156618157998  0.3995211988228314
  0.1671909595691767  0.2095532435880680  0.3996699614779646
  0.1665113030296011  0.3341663808277643  0.4003773284555125
  0.1654013534821650  0.4587198800094707  0.4005268673611084
  0.1657615164590228  0.5838845827995484  0.3998341300076988
  0.1665516926183781  0.7091407549281709  0.3998285127250749
  0.1670777158103771  0.8344220507537162  0.3998482793454543
  0.1673805808690394  0.9597113649875425  0.3996759275647775
  0.2925641952343325  0.0849136359814196  0.3996018861269655
  0.2932550424876847  0.2109296738171099  0.4008112778057381
  0.2926729234085046  0.3357443776509260  0.4018940158429645
  0.2905014475811054  0.4595836550613127  0.4023744921292008
  0.2896768482826293  0.5844714868090379  0.4006627730004072
  0.2910216012360223  0.7092013431348635  0.3995508738478579
  0.2917619344055142  0.8342382852670652  0.3996676175831102
  0.2921018117352008  0.9594139340200663  0.3996101448997049
  0.4172079782134944  0.0840151421213864  0.3994526697286226
  0.4176843431292217  0.2095710939889837  0.3998848004243492
  0.4194195887622441  0.3365945356869797  0.4042879512207567
  0.4154185856987654  0.7078128183972132  0.3994202442611544
  0.4163523011498274  0.8332648192156713  0.3993139183757254
  0.4168442492686756  0.9586392022312230  0.3996580293408939
  0.5418590168738870  0.0829672972794246  0.3997269995800008
  0.5423301385556604  0.2081915652090361  0.3994376815121145
  0.5430938546933015  0.3332552183656069  0.4003592746158190
  0.5453670261734663  0.4578089251206371  0.4044495813545304
  0.5447686052382866  0.5811507176922907  0.4070963470676096
  0.5393456453397180  0.7049101997619601  0.4015050539713779
  0.5408760839661082  0.8318484528365937  0.3993420218223528
  0.5415004639178016  0.9575912525436435  0.3996190537781875
  0.6665395621049398  0.0825174591307477  0.3999422187119721
  0.6669435613373156  0.2077675284816917  0.3998015843138463
  0.6675302177938595  0.3329054319196925  0.3994323723186322
  0.6689614995202658  0.4582419369833002  0.3994683853174000
  0.6695781905404495  0.5835866019241519  0.4000772793755332
  0.6662390514417457  0.7067772245413528  0.3996495333568873
  0.6653866201996435  0.8313997879335182  0.3994538146349023
  0.6660952558415602  0.9571434425950133  0.3996702354922574
  0.7913075200381144  0.0824940046449238  0.3998784489391424
  0.7915936638778920  0.2076854893708222  0.3999328597669133
  0.7920794508926261  0.3329716222765522  0.3998361941746143
  0.7928501522895109  0.4583417956505866  0.3995004978052951
  0.7932955276336146  0.5835591289006130  0.3991406085443063
  0.7927329082762025  0.7087125053947632  0.3990862266840803
  0.7913250287467277  0.8326946487268746  0.3991165117397695
  0.7909818541757534  0.9572993179084467  0.3995797404898167
  0.9163879764836325  0.0829724173536606  0.3997050984909512
  0.9163680686325543  0.2078941371607597  0.3997237084331128
  0.9165378934050079  0.3330446925697599  0.3997890682902281
  0.9169749424288535  0.4583622889771428  0.3998896711906760
  0.9175166703132707  0.5837848837294424  0.3998723872037672
  0.9175025853732819  0.7090223250710695  0.3997585374131913
  0.9172460358447000  0.8339110663535465  0.3996903117220913
  0.9166586579004983  0.9583665481957594  0.3996982924313723
  0.0840363911267391  0.0428139551317804  0.3995489774890701
  0.0836345153231812  0.1673910846176614  0.3995226456733321
  0.0830460739862435  0.2919686694265536  0.3997698968584104
  0.0824646088092980  0.4167545445179558  0.3998442915229649
  0.0827776484995390  0.5420197888741954  0.3998015665386516
  0.0834334951987705  0.6673803564500224  0.3999620041843072
  0.0838484712396615  0.7926730848292394  0.3999688333246715
  0.0840136608967978  0.9178167599134995  0.3998063432887998
  0.2091291364229549  0.0431147804574468  0.3995905005532667
  0.2093526564725654  0.1684557986012961  0.3998149027464041
  0.2088436671381688  0.2930614707296274  0.4001232434404129
  0.2070508819068771  0.4176049067191943  0.4013996685294761
  0.2067610426554010  0.5421688144381137  0.4003543890779700
  0.2078108269261896  0.6674421959069287  0.3997269360697642
  0.2085034730045016  0.7926653093350042  0.3997944961904077
  0.2088987875783988  0.9178872512109723  0.3997162873652246
  0.3339191617483519  0.0428477283317088  0.3994978406708637
  0.3344580931311707  0.1683823523209826  0.4001008260044485
  0.3351326788782468  0.2942494096939231  0.4029334105821551
  0.3319572106088995  0.4183151615820950  0.4036764585874258
  0.3315119393119820  0.5443182090418025  0.4018127775637074
  0.3321833456008428  0.6676126502861961  0.3997535483614527
  0.3331704923206041  0.7924830687970230  0.3994804433375683
  0.3335905893251461  0.9175502926961020  0.3996517616222903
  0.4586639562252248  0.0419938692808383  0.3996331215740532
  0.4590127490861811  0.1673551303564569  0.3994129750032935
  0.4598625928344760  0.2931653095493673  0.4010028707011837
  0.4638568364297374  0.4193372616577828  0.4088559878538701
  0.4555921834575636  0.6646028576078681  0.4010428070652355
  0.4577306319672239  0.7911530055110626  0.3991267677084923
  0.4582153502176931  0.9166030110677970  0.3995389763433693
  0.5833138212732872  0.0410449657621255  0.3998228722958556
  0.5837286991897283  0.1663416330362450  0.3996271465871427
  0.5843782912139892  0.2913785248620061  0.3994954642306967
  0.5860737315800676  0.4163642044265882  0.4008647201476597
  0.5876120441050676  0.5422423676688657  0.4036361043970795
  0.5820826240323883  0.6630952147498219  0.4025860428302961
  0.5814663409893284  0.7888136806225337  0.3998936719436623
  0.5828347389331133  0.9154876203203651  0.3994907799972453
  0.7079739523891659  0.0406705052896092  0.3998784696833333
  0.7084069144725825  0.1660249221537012  0.3999631091081175
  0.7088628175453193  0.2912183577867903  0.3996927707556432
  0.7098786953087055  0.4165210573409514  0.3992591637876240
  0.7107030258563619  0.5417314601144544  0.3992658891748704
  0.7094744718731339  0.6667277852311291  0.3993780505854309
  0.7076576358270339  0.7903191982163261  0.3990720477482504
  0.7073805865012438  0.9150693768842123  0.3995160889071472
  0.8329091225555688  0.0409072987251079  0.3997642773465449
  0.8330844786296159  0.1660181849285518  0.3998758075406439
  0.8334095121186202  0.2912383309165705  0.3998798251204861
  0.8339912825944950  0.4165031517500685  0.3998101361842356
  0.8345557556787394  0.5418490239021249  0.3995076721633040
  0.8344508221975638  0.6672332048341003  0.3992998752257004
  0.8338799513161514  0.7919221016069782  0.3992536572167881
  0.8330662880938356  0.9161714975604334  0.3994852216400189
  0.9584130572364957  0.0418074439866570  0.3997041432869708
  0.9581419906319614  0.1664697779147200  0.3996180283899060
  0.9579946582197418  0.2913748098731183  0.3997022924876735
  0.9581629125205928  0.4165803504326140  0.3997939293220812
  0.9587003425756804  0.5419878955167137  0.3999408958447495
  0.9590340396567503  0.6673259960982778  0.3999443830554396
  0.9590412188538073  0.7925026285837186  0.3998772431233806
  0.9588302861746794  0.9173297914236361  0.3997566762988969
  0.4120285685645630  0.5840450246975905  0.4033607130207295
  0.5082882808927037  0.5095998870018409  0.5029579290839933
  0.4272601838265032  0.4954448701556106  0.5038095625485646
 
  0.00000000E+00  0.00000000E+00  0.00000000E+00
  0.00000000E+00  0.00000000E+00  0.00000000E+00
  0.00000000E+00  0.00000000E+00  0.00000000E+00
  0.00000000E+00  0.00000000E+00  0.00000000E+00
  0.00000000E+00  0.00000000E+00  0.00000000E+00
  0.00000000E+00  0.00000000E+00  0.00000000E+00
  0.00000000E+00  0.00000000E+00  0.00000000E+00
  0.00000000E+00  0.00000000E+00  0.00000000E+00
  0.00000000E+00  0.00000000E+00  0.00000000E+00
  0.00000000E+00  0.00000000E+00  0.00000000E+00
  0.00000000E+00  0.00000000E+00  0.00000000E+00
  0.00000000E+00  0.00000000E+00  0.00000000E+00
  0.00000000E+00  0.00000000E+00  0.00000000E+00
  0.00000000E+00  0.00000000E+00  0.00000000E+00
  0.00000000E+00  0.00000000E+00  0.00000000E+00
  0.00000000E+00  0.00000000E+00  0.00000000E+00
  0.00000000E+00  0.00000000E+00  0.00000000E+00
  0.00000000E+00  0.00000000E+00  0.00000000E+00
  0.00000000E+00  0.00000000E+00  0.00000000E+00
  0.00000000E+00  0.00000000E+00  0.00000000E+00
  0.00000000E+00  0.00000000E+00  0.00000000E+00
  0.00000000E+00  0.00000000E+00  0.00000000E+00
  0.00000000E+00  0.00000000E+00  0.00000000E+00
  0.00000000E+00  0.00000000E+00  0.00000000E+00
  0.00000000E+00  0.00000000E+00  0.00000000E+00
  0.00000000E+00  0.00000000E+00  0.00000000E+00
  0.00000000E+00  0.00000000E+00  0.00000000E+00
  0.00000000E+00  0.00000000E+00  0.00000000E+00
  0.00000000E+00  0.00000000E+00  0.00000000E+00
  0.00000000E+00  0.00000000E+00  0.00000000E+00
  0.00000000E+00  0.00000000E+00  0.00000000E+00
  0.00000000E+00  0.00000000E+00  0.00000000E+00
  0.00000000E+00  0.00000000E+00  0.00000000E+00
  0.00000000E+00  0.00000000E+00  0.00000000E+00
  0.00000000E+00  0.00000000E+00  0.00000000E+00
  0.00000000E+00  0.00000000E+00  0.00000000E+00
  0.00000000E+00  0.00000000E+00  0.00000000E+00
  0.00000000E+00  0.00000000E+00  0.00000000E+00
  0.00000000E+00  0.00000000E+00  0.00000000E+00
  0.00000000E+00  0.00000000E+00  0.00000000E+00
  0.00000000E+00  0.00000000E+00  0.00000000E+00
  0.00000000E+00  0.00000000E+00  0.00000000E+00
  0.00000000E+00  0.00000000E+00  0.00000000E+00
  0.00000000E+00  0.00000000E+00  0.00000000E+00
  0.00000000E+00  0.00000000E+00  0.00000000E+00
  0.00000000E+00  0.00000000E+00  0.00000000E+00
  0.00000000E+00  0.00000000E+00  0.00000000E+00
  0.00000000E+00  0.00000000E+00  0.00000000E+00
  0.00000000E+00  0.00000000E+00  0.00000000E+00
  0.00000000E+00  0.00000000E+00  0.00000000E+00
  0.00000000E+00  0.00000000E+00  0.00000000E+00
  0.00000000E+00  0.00000000E+00  0.00000000E+00
  0.00000000E+00  0.00000000E+00  0.00000000E+00
  0.00000000E+00  0.00000000E+00  0.00000000E+00
  0.00000000E+00  0.00000000E+00  0.00000000E+00
  0.00000000E+00  0.00000000E+00  0.00000000E+00
  0.00000000E+00  0.00000000E+00  0.00000000E+00
  0.00000000E+00  0.00000000E+00  0.00000000E+00
  0.00000000E+00  0.00000000E+00  0.00000000E+00
  0.00000000E+00  0.00000000E+00  0.00000000E+00
  0.00000000E+00  0.00000000E+00  0.00000000E+00
  0.00000000E+00  0.00000000E+00  0.00000000E+00
  0.00000000E+00  0.00000000E+00  0.00000000E+00
  0.00000000E+00  0.00000000E+00  0.00000000E+00
  0.00000000E+00  0.00000000E+00  0.00000000E+00
  0.00000000E+00  0.00000000E+00  0.00000000E+00
  0.00000000E+00  0.00000000E+00  0.00000000E+00
  0.00000000E+00  0.00000000E+00  0.00000000E+00
  0.00000000E+00  0.00000000E+00  0.00000000E+00
  0.00000000E+00  0.00000000E+00  0.00000000E+00
  0.00000000E+00  0.00000000E+00  0.00000000E+00
  0.00000000E+00  0.00000000E+00  0.00000000E+00
  0.00000000E+00  0.00000000E+00  0.00000000E+00
  0.00000000E+00  0.00000000E+00  0.00000000E+00
  0.00000000E+00  0.00000000E+00  0.00000000E+00
  0.00000000E+00  0.00000000E+00  0.00000000E+00
  0.00000000E+00  0.00000000E+00  0.00000000E+00
  0.00000000E+00  0.00000000E+00  0.00000000E+00
  0.00000000E+00  0.00000000E+00  0.00000000E+00
  0.00000000E+00  0.00000000E+00  0.00000000E+00
  0.00000000E+00  0.00000000E+00  0.00000000E+00
  0.00000000E+00  0.00000000E+00  0.00000000E+00
  0.00000000E+00  0.00000000E+00  0.00000000E+00
  0.00000000E+00  0.00000000E+00  0.00000000E+00
  0.00000000E+00  0.00000000E+00  0.00000000E+00
  0.00000000E+00  0.00000000E+00  0.00000000E+00
  0.00000000E+00  0.00000000E+00  0.00000000E+00
  0.00000000E+00  0.00000000E+00  0.00000000E+00
  0.00000000E+00  0.00000000E+00  0.00000000E+00
  0.00000000E+00  0.00000000E+00  0.00000000E+00
  0.00000000E+00  0.00000000E+00  0.00000000E+00
  0.00000000E+00  0.00000000E+00  0.00000000E+00
  0.00000000E+00  0.00000000E+00  0.00000000E+00
  0.00000000E+00  0.00000000E+00  0.00000000E+00
  0.00000000E+00  0.00000000E+00  0.00000000E+00
  0.00000000E+00  0.00000000E+00  0.00000000E+00
  0.00000000E+00  0.00000000E+00  0.00000000E+00
  0.00000000E+00  0.00000000E+00  0.00000000E+00
  0.00000000E+00  0.00000000E+00  0.00000000E+00
  0.00000000E+00  0.00000000E+00  0.00000000E+00
  0.00000000E+00  0.00000000E+00  0.00000000E+00
  0.00000000E+00  0.00000000E+00  0.00000000E+00
  0.00000000E+00  0.00000000E+00  0.00000000E+00
  0.00000000E+00  0.00000000E+00  0.00000000E+00
  0.00000000E+00  0.00000000E+00  0.00000000E+00
  0.00000000E+00  0.00000000E+00  0.00000000E+00
  0.00000000E+00  0.00000000E+00  0.00000000E+00
  0.00000000E+00  0.00000000E+00  0.00000000E+00
  0.00000000E+00  0.00000000E+00  0.00000000E+00
  0.00000000E+00  0.00000000E+00  0.00000000E+00
  0.00000000E+00  0.00000000E+00  0.00000000E+00
  0.00000000E+00  0.00000000E+00  0.00000000E+00
  0.00000000E+00  0.00000000E+00  0.00000000E+00
  0.00000000E+00  0.00000000E+00  0.00000000E+00
  0.00000000E+00  0.00000000E+00  0.00000000E+00
  0.00000000E+00  0.00000000E+00  0.00000000E+00
  0.00000000E+00  0.00000000E+00  0.00000000E+00
  0.00000000E+00  0.00000000E+00  0.00000000E+00
  0.00000000E+00  0.00000000E+00  0.00000000E+00
  0.00000000E+00  0.00000000E+00  0.00000000E+00
  0.00000000E+00  0.00000000E+00  0.00000000E+00
  0.00000000E+00  0.00000000E+00  0.00000000E+00
  0.00000000E+00  0.00000000E+00  0.00000000E+00
  0.00000000E+00  0.00000000E+00  0.00000000E+00
  0.00000000E+00  0.00000000E+00  0.00000000E+00
  0.00000000E+00  0.00000000E+00  0.00000000E+00
  0.00000000E+00  0.00000000E+00  0.00000000E+00
  0.00000000E+00  0.00000000E+00  0.00000000E+00
  0.00000000E+00  0.00000000E+00  0.00000000E+00
  0.00000000E+00  0.00000000E+00  0.00000000E+00
