Cu1 C122 N4                             
   1.00000000000000     
    19.8167847655207972   -0.0000074174675361    0.0105899620708944
    -9.9083986021864821   17.0197273446220265   -0.0053191626867985
     0.0159468088806329   -0.0000432571724738   29.8343434592223282
   Cu   C    N 
     1   122     4
Direct
  0.4374722984912958  0.4999992725250914  0.4050508001318998
  0.0421837208157930  0.0842965900907980  0.4000513749666452
  0.0410699714725704  0.2082676755288853  0.4001478967256833
  0.0401388299397475  0.3328934639527628  0.3998769282382196
  0.0402628612141565  0.4581758244770605  0.3994739933122976
  0.0412553660613902  0.5838195756979703  0.3993155235226321
  0.0421840111830992  0.7093648287121112  0.3995176419692797
  0.0425153142385122  0.8346333583471258  0.3996427831118032
  0.0426400245131245  0.9598125836508837  0.3997792735886885
  0.1684023370310440  0.0861700194313863  0.4005308404253896
  0.1677378121684350  0.2106930450216269  0.4014773537967517
  0.1650249292591023  0.3337620245064963  0.4017884479981911
  0.1638439574277575  0.4584972961999463  0.4011137072678538
  0.1649254566056219  0.5837069079990664  0.4000145187239347
  0.1663224978079236  0.7090770278577824  0.3994767076755701
  0.1671260962607176  0.8346378506574855  0.3996290131069747
  0.1676766589159204  0.9602938321992466  0.3998255190391181
  0.2928051410062400  0.0861702979798745  0.4005247735963346
  0.2944474567143908  0.2138742463537869  0.4021942233740192
  0.2929594370110668  0.3395785777144878  0.4035299590975229
  0.2870746496093858  0.4580357898358853  0.4036745548848217
  0.2881376184202866  0.5829901072450310  0.4023182336286890
  0.2904846248167798  0.7084047094039508  0.4004925136161239
  0.2916047891570567  0.8339856681727931  0.3996680578699792
  0.2922316786361205  0.9598104454825693  0.3997350104762001
  0.4171614864072504  0.0842973948905464  0.4000774029921707
  0.4179665684883200  0.2107044470489639  0.4015299773263070
  0.4215979278061514  0.3396162358824663  0.4035174349854416
  0.4144247102157871  0.7056837259486971  0.4023541037717658
  0.4160145314234046  0.8320393562369650  0.4005208155384519
  0.4166712349641104  0.9582141822439337  0.3997776253598579
  0.5415916280381359  0.0824708207551888  0.3997332139308135
  0.5422175391988323  0.2082745887835258  0.4002125826884596
  0.5437101459251062  0.3337633122875808  0.4017795860994721
  0.5459258353480486  0.4580488564583399  0.4036199446334583
  0.5379790777682306  0.7009723100714501  0.4033272596406027
  0.5403315808715221  0.8297549985863883  0.4014365477347811
  0.5410626782441104  0.9564028630369046  0.4000931582602976
  0.6660727852241506  0.0817272969339796  0.3997104460845822
  0.6665882420605220  0.2072970049664128  0.3995576372623058
  0.6677373840264450  0.3329141302832419  0.3998616249433767
  0.6696220175374793  0.4585058701608241  0.4010292481860975
  0.6698132657233833  0.5829861156964063  0.4022513684408995
  0.6662166471375583  0.7056662202997986  0.4023683479573528
  0.6644503924036783  0.8297612584090304  0.4014686677796083
  0.6654957130658301  0.9559375571947519  0.4002528539944320
  0.7907070199536884  0.0817211515513447  0.3996873217238329
  0.7910615601911543  0.2071219688882472  0.3997048536104005
  0.7917621451928248  0.3326049198617155  0.3993759175704779
  0.7928788661827620  0.4581853290958965  0.3993888419426044
  0.7937320410035836  0.5836851156601374  0.3999398821829638
  0.7929024856224203  0.7084093485556494  0.4005170039380292
  0.7910393652328045  0.8320278538945934  0.4005893353898510
  0.7903797505931296  0.9564041443726413  0.4000854651496776
  0.9159343668414394  0.0824839789904525  0.3996869541841975
  0.9157123509994793  0.2073069765599648  0.3995246222830455
  0.9158330393170192  0.3326171530667336  0.3993892398300030
  0.9165890404671282  0.4582174945850218  0.3992825798715346
  0.9175255331014768  0.5838277209520064  0.3992709075753373
  0.9177330305361172  0.7090816650580375  0.3994884774651403
  0.9174075683398654  0.8339974323921291  0.3997285698057064
  0.9165970612497802  0.9582196215069253  0.3997967512960313
  0.0846602389556056  0.0435967948496437  0.4000920051618121
  0.0839751758891776  0.1679594291189315  0.4005197978509743
  0.0820790355364598  0.2915937018652297  0.4004916188802714
  0.0812193334494212  0.4162933571905119  0.4000155788344333
  0.0820867306986302  0.5418230239329400  0.3994730666679231
  0.0832166700031122  0.6673827492849070  0.3993883021694654
  0.0839399777571187  0.7928773758672830  0.3997050920747057
  0.0843460073063486  0.9182729980768032  0.3997104550232800
  0.2095584964518300  0.0440626071152047  0.4002528110851465
  0.2105767298452475  0.1702447134345565  0.4014354552968317
  0.2087412021269363  0.2943159702610701  0.4023530145456697
  0.2051469665727380  0.4170088847331763  0.4023181656986495
  0.2053468701639278  0.5415025381607141  0.4011137069176426
  0.2072441163061380  0.6671057870187238  0.3998760086910947
  0.2084055120658890  0.7926924433754944  0.3995246420894271
  0.2089862751200323  0.9182785282793361  0.3996883409818379
  0.3339772401560119  0.0435958809911346  0.4000854305461370
  0.3346902879982009  0.1702384136115034  0.4014677282162774
  0.3370059942182557  0.2990271213562761  0.4033271751132576
  0.3290386505775781  0.5419634415682875  0.4036745586900387
  0.3312627653854587  0.6662366474088203  0.4017904223185050
  0.3328011434392439  0.7917301034207544  0.4001479648832592
  0.3334503956020357  0.9175156034794042  0.3996851026700587
  0.4583784486374889  0.0417809141215856  0.3997967567367304
  0.4590124931334202  0.1679734689616700  0.4005883351760245
  0.4605515533427004  0.2943338913937670  0.4023682347700482
  0.4533803507685552  0.6604204797632908  0.4035308608728466
  0.4570443171072500  0.7893063264274768  0.4014783900681577
  0.4578860610726897  0.9157024204121791  0.4000532492680413
  0.5828273443181646  0.0401876575516754  0.3997802568615330
  0.5834105648050312  0.1660033398568828  0.3997286261787687
  0.5844946817734876  0.2915921638063284  0.4005159968196012
  0.5868280698056296  0.4170152806796719  0.4022513432769592
  0.5878774183290350  0.5419520582281029  0.4036198780748032
  0.5819815144738794  0.6603833313678236  0.4035175413910377
  0.5805728186058295  0.7861255610732514  0.4021951836825710
  0.5822324132152537  0.9138297613979511  0.4005325087390774
  0.7073826817655647  0.0397061939427401  0.3998245592168337
  0.7078820669212442  0.1653663104409477  0.3996427563397003
  0.7086524151491038  0.2909194961549720  0.3994884239913508
  0.7100473817453353  0.4163161894299914  0.3999390319931074
  0.7111176186106536  0.5414962961570478  0.4010301079743802
  0.7099472648577131  0.6662385578214203  0.4017804997417026
  0.7072621767320350  0.7892960039988629  0.4015308365155758
  0.7066346302167821  0.9138291812245016  0.4005247132678901
  0.8324207549559218  0.0401891719550992  0.3997350655073818
  0.8324876104786606  0.1653620302948164  0.3996282446549734
  0.8328186321071142  0.2906345000867339  0.3995178858382292
  0.8336976288198490  0.4161729577138255  0.3992711785132986
  0.8346954045742008  0.5418171788598550  0.3993888678314895
  0.8348238689440873  0.6670868242898527  0.3998627807618096
  0.8339442907442671  0.7917273206399503  0.4002126788628789
  0.8328634702587646  0.9157034407926705  0.4000783642530611
  0.9584578313182288  0.0417861683434229  0.3997776932337258
  0.9576182610500769  0.1660129582229804  0.3996690803550120
  0.9572466120256959  0.2909236801998240  0.3994768309358340
  0.9574351679680829  0.4161806052762045  0.3993165296056118
  0.9583728822933923  0.5417822441172709  0.3992825291502551
  0.9591582260759209  0.6673954715786616  0.3993759060052947
  0.9592921038023381  0.7927041286141714  0.3995576183156316
  0.9591212181317722  0.9175297193933460  0.3997324423477789
  0.4089702806803556  0.5802887143734388  0.4043839709931321
  0.5462604301923542  0.5802628593787290  0.4043518531596937
  0.3286804862899536  0.4197097803610311  0.4043839045703675
  0.4659975827964289  0.4197368066843117  0.4043528181670820
 
  0.00000000E+00  0.00000000E+00  0.00000000E+00
  0.00000000E+00  0.00000000E+00  0.00000000E+00
  0.00000000E+00  0.00000000E+00  0.00000000E+00
  0.00000000E+00  0.00000000E+00  0.00000000E+00
  0.00000000E+00  0.00000000E+00  0.00000000E+00
  0.00000000E+00  0.00000000E+00  0.00000000E+00
  0.00000000E+00  0.00000000E+00  0.00000000E+00
  0.00000000E+00  0.00000000E+00  0.00000000E+00
  0.00000000E+00  0.00000000E+00  0.00000000E+00
  0.00000000E+00  0.00000000E+00  0.00000000E+00
  0.00000000E+00  0.00000000E+00  0.00000000E+00
  0.00000000E+00  0.00000000E+00  0.00000000E+00
  0.00000000E+00  0.00000000E+00  0.00000000E+00
  0.00000000E+00  0.00000000E+00  0.00000000E+00
  0.00000000E+00  0.00000000E+00  0.00000000E+00
  0.00000000E+00  0.00000000E+00  0.00000000E+00
  0.00000000E+00  0.00000000E+00  0.00000000E+00
  0.00000000E+00  0.00000000E+00  0.00000000E+00
  0.00000000E+00  0.00000000E+00  0.00000000E+00
  0.00000000E+00  0.00000000E+00  0.00000000E+00
  0.00000000E+00  0.00000000E+00  0.00000000E+00
  0.00000000E+00  0.00000000E+00  0.00000000E+00
  0.00000000E+00  0.00000000E+00  0.00000000E+00
  0.00000000E+00  0.00000000E+00  0.00000000E+00
  0.00000000E+00  0.00000000E+00  0.00000000E+00
  0.00000000E+00  0.00000000E+00  0.00000000E+00
  0.00000000E+00  0.00000000E+00  0.00000000E+00
  0.00000000E+00  0.00000000E+00  0.00000000E+00
  0.00000000E+00  0.00000000E+00  0.00000000E+00
  0.00000000E+00  0.00000000E+00  0.00000000E+00
  0.00000000E+00  0.00000000E+00  0.00000000E+00
  0.00000000E+00  0.00000000E+00  0.00000000E+00
  0.00000000E+00  0.00000000E+00  0.00000000E+00
  0.00000000E+00  0.00000000E+00  0.00000000E+00
  0.00000000E+00  0.00000000E+00  0.00000000E+00
  0.00000000E+00  0.00000000E+00  0.00000000E+00
  0.00000000E+00  0.00000000E+00  0.00000000E+00
  0.00000000E+00  0.00000000E+00  0.00000000E+00
  0.00000000E+00  0.00000000E+00  0.00000000E+00
  0.00000000E+00  0.00000000E+00  0.00000000E+00
  0.00000000E+00  0.00000000E+00  0.00000000E+00
  0.00000000E+00  0.00000000E+00  0.00000000E+00
  0.00000000E+00  0.00000000E+00  0.00000000E+00
  0.00000000E+00  0.00000000E+00  0.00000000E+00
  0.00000000E+00  0.00000000E+00  0.00000000E+00
  0.00000000E+00  0.00000000E+00  0.00000000E+00
  0.00000000E+00  0.00000000E+00  0.00000000E+00
  0.00000000E+00  0.00000000E+00  0.00000000E+00
  0.00000000E+00  0.00000000E+00  0.00000000E+00
  0.00000000E+00  0.00000000E+00  0.00000000E+00
  0.00000000E+00  0.00000000E+00  0.00000000E+00
  0.00000000E+00  0.00000000E+00  0.00000000E+00
  0.00000000E+00  0.00000000E+00  0.00000000E+00
  0.00000000E+00  0.00000000E+00  0.00000000E+00
  0.00000000E+00  0.00000000E+00  0.00000000E+00
  0.00000000E+00  0.00000000E+00  0.00000000E+00
  0.00000000E+00  0.00000000E+00  0.00000000E+00
  0.00000000E+00  0.00000000E+00  0.00000000E+00
  0.00000000E+00  0.00000000E+00  0.00000000E+00
  0.00000000E+00  0.00000000E+00  0.00000000E+00
  0.00000000E+00  0.00000000E+00  0.00000000E+00
  0.00000000E+00  0.00000000E+00  0.00000000E+00
  0.00000000E+00  0.00000000E+00  0.00000000E+00
  0.00000000E+00  0.00000000E+00  0.00000000E+00
  0.00000000E+00  0.00000000E+00  0.00000000E+00
  0.00000000E+00  0.00000000E+00  0.00000000E+00
  0.00000000E+00  0.00000000E+00  0.00000000E+00
  0.00000000E+00  0.00000000E+00  0.00000000E+00
  0.00000000E+00  0.00000000E+00  0.00000000E+00
  0.00000000E+00  0.00000000E+00  0.00000000E+00
  0.00000000E+00  0.00000000E+00  0.00000000E+00
  0.00000000E+00  0.00000000E+00  0.00000000E+00
  0.00000000E+00  0.00000000E+00  0.00000000E+00
  0.00000000E+00  0.00000000E+00  0.00000000E+00
  0.00000000E+00  0.00000000E+00  0.00000000E+00
  0.00000000E+00  0.00000000E+00  0.00000000E+00
  0.00000000E+00  0.00000000E+00  0.00000000E+00
  0.00000000E+00  0.00000000E+00  0.00000000E+00
  0.00000000E+00  0.00000000E+00  0.00000000E+00
  0.00000000E+00  0.00000000E+00  0.00000000E+00
  0.00000000E+00  0.00000000E+00  0.00000000E+00
  0.00000000E+00  0.00000000E+00  0.00000000E+00
  0.00000000E+00  0.00000000E+00  0.00000000E+00
  0.00000000E+00  0.00000000E+00  0.00000000E+00
  0.00000000E+00  0.00000000E+00  0.00000000E+00
  0.00000000E+00  0.00000000E+00  0.00000000E+00
  0.00000000E+00  0.00000000E+00  0.00000000E+00
  0.00000000E+00  0.00000000E+00  0.00000000E+00
  0.00000000E+00  0.00000000E+00  0.00000000E+00
  0.00000000E+00  0.00000000E+00  0.00000000E+00
  0.00000000E+00  0.00000000E+00  0.00000000E+00
  0.00000000E+00  0.00000000E+00  0.00000000E+00
  0.00000000E+00  0.00000000E+00  0.00000000E+00
  0.00000000E+00  0.00000000E+00  0.00000000E+00
  0.00000000E+00  0.00000000E+00  0.00000000E+00
  0.00000000E+00  0.00000000E+00  0.00000000E+00
  0.00000000E+00  0.00000000E+00  0.00000000E+00
  0.00000000E+00  0.00000000E+00  0.00000000E+00
  0.00000000E+00  0.00000000E+00  0.00000000E+00
  0.00000000E+00  0.00000000E+00  0.00000000E+00
  0.00000000E+00  0.00000000E+00  0.00000000E+00
  0.00000000E+00  0.00000000E+00  0.00000000E+00
  0.00000000E+00  0.00000000E+00  0.00000000E+00
  0.00000000E+00  0.00000000E+00  0.00000000E+00
  0.00000000E+00  0.00000000E+00  0.00000000E+00
  0.00000000E+00  0.00000000E+00  0.00000000E+00
  0.00000000E+00  0.00000000E+00  0.00000000E+00
  0.00000000E+00  0.00000000E+00  0.00000000E+00
  0.00000000E+00  0.00000000E+00  0.00000000E+00
  0.00000000E+00  0.00000000E+00  0.00000000E+00
  0.00000000E+00  0.00000000E+00  0.00000000E+00
  0.00000000E+00  0.00000000E+00  0.00000000E+00
  0.00000000E+00  0.00000000E+00  0.00000000E+00
  0.00000000E+00  0.00000000E+00  0.00000000E+00
  0.00000000E+00  0.00000000E+00  0.00000000E+00
  0.00000000E+00  0.00000000E+00  0.00000000E+00
  0.00000000E+00  0.00000000E+00  0.00000000E+00
  0.00000000E+00  0.00000000E+00  0.00000000E+00
  0.00000000E+00  0.00000000E+00  0.00000000E+00
  0.00000000E+00  0.00000000E+00  0.00000000E+00
  0.00000000E+00  0.00000000E+00  0.00000000E+00
  0.00000000E+00  0.00000000E+00  0.00000000E+00
  0.00000000E+00  0.00000000E+00  0.00000000E+00
  0.00000000E+00  0.00000000E+00  0.00000000E+00
  0.00000000E+00  0.00000000E+00  0.00000000E+00
  0.00000000E+00  0.00000000E+00  0.00000000E+00
  0.00000000E+00  0.00000000E+00  0.00000000E+00
