Ru1 C122 N4                             
   1.00000000000000     
    19.8398871834699939   -0.0000003931732555    0.0030235665841207
    -9.9199435784987937   17.0197562407371592   -0.0012060265807998
     0.0045356351620606    0.0005344654040149   29.7995388023671381
   Ru   C    N 
     1   122     4
Direct
  0.4374819384616175  0.5000129108662916  0.4163823598154044
  0.0420848086301571  0.0843070173564821  0.3997183427898310
  0.0406886931251636  0.2080521793902816  0.3996214408326955
  0.0396997223445655  0.3327101311553648  0.3991977457072621
  0.0398379495789838  0.4581709544180158  0.3988536425325294
  0.0410917074076082  0.5839069415145486  0.3991452841191721
  0.0422534601726847  0.7095103932671035  0.3995762734110563
  0.0426764844844612  0.8348650965276698  0.3997142597747111
  0.0427993860795787  0.9600196900331541  0.3996752418893508
  0.1684606937811900  0.0864263307267040  0.4003639809356785
  0.1674636475344707  0.2106330691240214  0.4009634025397325
  0.1643185105203419  0.3335320910822095  0.4009919474255076
  0.1629474052397784  0.4584597026689842  0.3998089314117633
  0.1643598780040638  0.5837892481966079  0.3990144299712321
  0.1662164719636427  0.7092838668415798  0.3992359844161323
  0.1671944974249098  0.8348657663254931  0.3997169978849918
  0.1678101721611154  0.9605729662556343  0.3998611405118916
  0.2929948966759329  0.0863999949315033  0.4004066496351965
  0.2946578483638869  0.2142923954278726  0.4025093649104439
  0.2919993074431457  0.3391762916388759  0.4048907967334086
  0.2852652554006505  0.4580428264947494  0.4045961449909654
  0.2871734484500617  0.5832201105533602  0.4014379340328398
  0.2902190889006969  0.7085970340432753  0.3997386124355408
  0.2915499637732160  0.8341560281862682  0.3994290810188837
  0.2922793378681574  0.9600097046398200  0.3996841899645548
  0.4172731755367696  0.0842952159125987  0.3997524457081161
  0.4181672570481115  0.2106130500542544  0.4010572891317437
  0.4221648903817232  0.3391643866800002  0.4049424174907326
  0.4140725314520136  0.7056734281545192  0.4019887368134737
  0.4158349968281339  0.8321091343595796  0.3999801403583683
  0.4166328985532719  0.9582230502801671  0.3995381092909525
  0.5415722128628789  0.0823062888090684  0.3995299337212856
  0.5423758248642369  0.2080554577698872  0.3996428805972007
  0.5441724123354446  0.3335150815520979  0.4010411291553602
  0.5477353594559845  0.4580314390044414  0.4046382813790144
  0.5378099659448972  0.7006192701478120  0.4047471308528398
  0.5400195664508063  0.8294504988204520  0.4013025786525790
  0.5409365729013339  0.9561846916936458  0.3998597950343769
  0.6659263140705607  0.0814302156926390  0.3997658230071868
  0.6666624523897042  0.2071041866894896  0.3994450029957947
  0.6679768592582745  0.3327190530273456  0.3991888802264080
  0.6704566236626393  0.4584580897668381  0.3998285799880039
  0.6710174255821846  0.5832388764960759  0.4014734519956566
  0.6666016288575708  0.7056994589355396  0.4020823723675458
  0.6644691547060536  0.8294811494220810  0.4013808986986048
  0.6653411377621100  0.9556404496578519  0.4001904170333618
  0.7905531305925372  0.0814293128193162  0.3997659969024793
  0.7909406438137370  0.2068796375377203  0.3997759262208853
  0.7918026444605789  0.3324711436621734  0.3993225034469311
  0.7932568438862518  0.4581692682924510  0.3988565506015121
  0.7943596767185326  0.5837843729982862  0.3990222784167013
  0.7933512260122336  0.7085908948672380  0.3997543873546239
  0.7913081787887727  0.8321158253529163  0.4000269509307620
  0.7903057200667845  0.9562068171963298  0.3998924798912293
  0.9157990641644330  0.0823034079609113  0.3995207902350195
  0.9154391294993465  0.2070812332976562  0.3994486065613718
  0.9156470884004891  0.3324686279302250  0.3993355941055289
  0.9165496297188375  0.4581603567925889  0.3992456090648784
  0.9177459909233743  0.5839037751054019  0.3991477887027645
  0.9180369001291747  0.7092642714907199  0.3992204205980522
  0.9176310552165710  0.8341514227092784  0.3994356983388827
  0.9166683732900064  0.9582271342837441  0.3995471607501341
  0.0847518842668260  0.0438155372356947  0.3998594186480091
  0.0837264355091950  0.1678915716335727  0.3999800578763381
  0.0816231366779490  0.2914025364028079  0.3997380204390512
  0.0805715162830754  0.4162118835755000  0.3990153219751405
  0.0816668224382898  0.5418293487566386  0.3988525161758797
  0.0831785217338493  0.6675319834953999  0.3993341724493830
  0.0840606790202478  0.7931202215048372  0.3997764942304061
  0.0844957144485719  0.9185694025740144  0.3997661643820589
  0.2097023288671502  0.0443597278356038  0.4001903162166434
  0.2105696057080985  0.1705490458775793  0.4013040236132435
  0.2083995455438561  0.2943251495273183  0.4019908609828440
  0.2039544226465098  0.4167806411915543  0.4014380444059847
  0.2044877768402774  0.5415418184522497  0.3998089704360443
  0.2069895177185058  0.6672911738754117  0.3991963497873891
  0.2083575064076054  0.7929198492842536  0.3994477541450391
  0.2091236082890714  0.9185707308816063  0.3997663298814304
  0.3340990915036072  0.0437932580603405  0.3998921950823587
  0.3349868616737107  0.1705184756157493  0.4013810801004730
  0.3371909642611945  0.2993808634963602  0.4047486051948253
  0.3272197652487092  0.5419570742305385  0.4045963533933172
  0.3307850954673645  0.6664678621880503  0.4009915957178844
  0.3326363086056112  0.7919483775222551  0.3996227019980063
  0.3334955203786221  0.9176968264869749  0.3995211655807725
  0.4584403703128526  0.0417729676297442  0.3995473886510338
  0.4591926127732456  0.1678852903254736  0.4000270194129603
  0.4609013440542684  0.2942999827170402  0.4020836220951700
  0.4528218022748786  0.6608243404065285  0.4048883018041379
  0.4568297378826300  0.7893665189242416  0.4009613814155931
  0.4577773521156018  0.9156931147651974  0.3997191259711366
  0.5827793510301617  0.0399804009369864  0.3996757360464842
  0.5834794072454409  0.1658483717826096  0.3994361177217130
  0.5847592605305225  0.2914083376767270  0.3997547882340002
  0.5877793004301718  0.4167619269463815  0.4014758214935917
  0.5897058944222482  0.5419679972444483  0.4046381463543516
  0.5830020149617851  0.6608359317971516  0.4049400879172161
  0.5803653432760647  0.7857069920899403  0.4025080676246028
  0.5820337197876988  0.9135733879167717  0.4003641208529023
  0.7072381487878316  0.0394274576484442  0.3998606079040022
  0.7078114412768457  0.1651346835548886  0.3997140766564266
  0.7087722834774717  0.2907357243335411  0.3992203204540200
  0.7105751963301418  0.4162163948075875  0.3990226406181747
  0.7119985285625968  0.5415424161239820  0.3998283002113193
  0.7106580167334681  0.6664840043131293  0.4010393244898868
  0.7075548942805074  0.7893871160795478  0.4010571638889280
  0.7065963886360908  0.9136000211437428  0.4004066493337931
  0.8322702247973758  0.0399911226289461  0.3996849813924727
  0.8323299329768178  0.1651344535816556  0.3997171741715465
  0.8327433242780876  0.2904900115691281  0.3995762440457040
  0.8338415426499498  0.4160957298143306  0.3991481951800009
  0.8350864395803893  0.5418300559596909  0.3988562738018036
  0.8352579253238814  0.6672804804712592  0.3991886706180384
  0.8343202109243586  0.7919442985643963  0.3996428222996571
  0.8329787952285050  0.9157058570269535  0.3997526519453261
  0.9584101931866110  0.0417775400342697  0.3995372765392264
  0.9573947321078792  0.1658443143145202  0.3994282030332796
  0.9569329264632863  0.2907162935701142  0.3992379897844470
  0.9571853425332294  0.4160931865788323  0.3991469296161237
  0.9583887800291200  0.5418394111159818  0.3992451875401988
  0.9593312481006234  0.6675292915464296  0.3993224159257184
  0.9595579732247209  0.7928953915340763  0.3994449963572871
  0.9592650918686352  0.9176936921827871  0.3995295039963807
  0.4074658830060361  0.5801269461248196  0.4079702747569814
  0.5476343135862740  0.5801366301011671  0.4079926260999623
  0.3273292668901433  0.4198647097299143  0.4079701823086328
  0.4674996841472236  0.4198551277931303  0.4079918624120835
 
  0.00000000E+00  0.00000000E+00  0.00000000E+00
  0.00000000E+00  0.00000000E+00  0.00000000E+00
  0.00000000E+00  0.00000000E+00  0.00000000E+00
  0.00000000E+00  0.00000000E+00  0.00000000E+00
  0.00000000E+00  0.00000000E+00  0.00000000E+00
  0.00000000E+00  0.00000000E+00  0.00000000E+00
  0.00000000E+00  0.00000000E+00  0.00000000E+00
  0.00000000E+00  0.00000000E+00  0.00000000E+00
  0.00000000E+00  0.00000000E+00  0.00000000E+00
  0.00000000E+00  0.00000000E+00  0.00000000E+00
  0.00000000E+00  0.00000000E+00  0.00000000E+00
  0.00000000E+00  0.00000000E+00  0.00000000E+00
  0.00000000E+00  0.00000000E+00  0.00000000E+00
  0.00000000E+00  0.00000000E+00  0.00000000E+00
  0.00000000E+00  0.00000000E+00  0.00000000E+00
  0.00000000E+00  0.00000000E+00  0.00000000E+00
  0.00000000E+00  0.00000000E+00  0.00000000E+00
  0.00000000E+00  0.00000000E+00  0.00000000E+00
  0.00000000E+00  0.00000000E+00  0.00000000E+00
  0.00000000E+00  0.00000000E+00  0.00000000E+00
  0.00000000E+00  0.00000000E+00  0.00000000E+00
  0.00000000E+00  0.00000000E+00  0.00000000E+00
  0.00000000E+00  0.00000000E+00  0.00000000E+00
  0.00000000E+00  0.00000000E+00  0.00000000E+00
  0.00000000E+00  0.00000000E+00  0.00000000E+00
  0.00000000E+00  0.00000000E+00  0.00000000E+00
  0.00000000E+00  0.00000000E+00  0.00000000E+00
  0.00000000E+00  0.00000000E+00  0.00000000E+00
  0.00000000E+00  0.00000000E+00  0.00000000E+00
  0.00000000E+00  0.00000000E+00  0.00000000E+00
  0.00000000E+00  0.00000000E+00  0.00000000E+00
  0.00000000E+00  0.00000000E+00  0.00000000E+00
  0.00000000E+00  0.00000000E+00  0.00000000E+00
  0.00000000E+00  0.00000000E+00  0.00000000E+00
  0.00000000E+00  0.00000000E+00  0.00000000E+00
  0.00000000E+00  0.00000000E+00  0.00000000E+00
  0.00000000E+00  0.00000000E+00  0.00000000E+00
  0.00000000E+00  0.00000000E+00  0.00000000E+00
  0.00000000E+00  0.00000000E+00  0.00000000E+00
  0.00000000E+00  0.00000000E+00  0.00000000E+00
  0.00000000E+00  0.00000000E+00  0.00000000E+00
  0.00000000E+00  0.00000000E+00  0.00000000E+00
  0.00000000E+00  0.00000000E+00  0.00000000E+00
  0.00000000E+00  0.00000000E+00  0.00000000E+00
  0.00000000E+00  0.00000000E+00  0.00000000E+00
  0.00000000E+00  0.00000000E+00  0.00000000E+00
  0.00000000E+00  0.00000000E+00  0.00000000E+00
  0.00000000E+00  0.00000000E+00  0.00000000E+00
  0.00000000E+00  0.00000000E+00  0.00000000E+00
  0.00000000E+00  0.00000000E+00  0.00000000E+00
  0.00000000E+00  0.00000000E+00  0.00000000E+00
  0.00000000E+00  0.00000000E+00  0.00000000E+00
  0.00000000E+00  0.00000000E+00  0.00000000E+00
  0.00000000E+00  0.00000000E+00  0.00000000E+00
  0.00000000E+00  0.00000000E+00  0.00000000E+00
  0.00000000E+00  0.00000000E+00  0.00000000E+00
  0.00000000E+00  0.00000000E+00  0.00000000E+00
  0.00000000E+00  0.00000000E+00  0.00000000E+00
  0.00000000E+00  0.00000000E+00  0.00000000E+00
  0.00000000E+00  0.00000000E+00  0.00000000E+00
  0.00000000E+00  0.00000000E+00  0.00000000E+00
  0.00000000E+00  0.00000000E+00  0.00000000E+00
  0.00000000E+00  0.00000000E+00  0.00000000E+00
  0.00000000E+00  0.00000000E+00  0.00000000E+00
  0.00000000E+00  0.00000000E+00  0.00000000E+00
  0.00000000E+00  0.00000000E+00  0.00000000E+00
  0.00000000E+00  0.00000000E+00  0.00000000E+00
  0.00000000E+00  0.00000000E+00  0.00000000E+00
  0.00000000E+00  0.00000000E+00  0.00000000E+00
  0.00000000E+00  0.00000000E+00  0.00000000E+00
  0.00000000E+00  0.00000000E+00  0.00000000E+00
  0.00000000E+00  0.00000000E+00  0.00000000E+00
  0.00000000E+00  0.00000000E+00  0.00000000E+00
  0.00000000E+00  0.00000000E+00  0.00000000E+00
  0.00000000E+00  0.00000000E+00  0.00000000E+00
  0.00000000E+00  0.00000000E+00  0.00000000E+00
  0.00000000E+00  0.00000000E+00  0.00000000E+00
  0.00000000E+00  0.00000000E+00  0.00000000E+00
  0.00000000E+00  0.00000000E+00  0.00000000E+00
  0.00000000E+00  0.00000000E+00  0.00000000E+00
  0.00000000E+00  0.00000000E+00  0.00000000E+00
  0.00000000E+00  0.00000000E+00  0.00000000E+00
  0.00000000E+00  0.00000000E+00  0.00000000E+00
  0.00000000E+00  0.00000000E+00  0.00000000E+00
  0.00000000E+00  0.00000000E+00  0.00000000E+00
  0.00000000E+00  0.00000000E+00  0.00000000E+00
  0.00000000E+00  0.00000000E+00  0.00000000E+00
  0.00000000E+00  0.00000000E+00  0.00000000E+00
  0.00000000E+00  0.00000000E+00  0.00000000E+00
  0.00000000E+00  0.00000000E+00  0.00000000E+00
  0.00000000E+00  0.00000000E+00  0.00000000E+00
  0.00000000E+00  0.00000000E+00  0.00000000E+00
  0.00000000E+00  0.00000000E+00  0.00000000E+00
  0.00000000E+00  0.00000000E+00  0.00000000E+00
  0.00000000E+00  0.00000000E+00  0.00000000E+00
  0.00000000E+00  0.00000000E+00  0.00000000E+00
  0.00000000E+00  0.00000000E+00  0.00000000E+00
  0.00000000E+00  0.00000000E+00  0.00000000E+00
  0.00000000E+00  0.00000000E+00  0.00000000E+00
  0.00000000E+00  0.00000000E+00  0.00000000E+00
  0.00000000E+00  0.00000000E+00  0.00000000E+00
  0.00000000E+00  0.00000000E+00  0.00000000E+00
  0.00000000E+00  0.00000000E+00  0.00000000E+00
  0.00000000E+00  0.00000000E+00  0.00000000E+00
  0.00000000E+00  0.00000000E+00  0.00000000E+00
  0.00000000E+00  0.00000000E+00  0.00000000E+00
  0.00000000E+00  0.00000000E+00  0.00000000E+00
  0.00000000E+00  0.00000000E+00  0.00000000E+00
  0.00000000E+00  0.00000000E+00  0.00000000E+00
  0.00000000E+00  0.00000000E+00  0.00000000E+00
  0.00000000E+00  0.00000000E+00  0.00000000E+00
  0.00000000E+00  0.00000000E+00  0.00000000E+00
  0.00000000E+00  0.00000000E+00  0.00000000E+00
  0.00000000E+00  0.00000000E+00  0.00000000E+00
  0.00000000E+00  0.00000000E+00  0.00000000E+00
  0.00000000E+00  0.00000000E+00  0.00000000E+00
  0.00000000E+00  0.00000000E+00  0.00000000E+00
  0.00000000E+00  0.00000000E+00  0.00000000E+00
  0.00000000E+00  0.00000000E+00  0.00000000E+00
  0.00000000E+00  0.00000000E+00  0.00000000E+00
  0.00000000E+00  0.00000000E+00  0.00000000E+00
  0.00000000E+00  0.00000000E+00  0.00000000E+00
  0.00000000E+00  0.00000000E+00  0.00000000E+00
  0.00000000E+00  0.00000000E+00  0.00000000E+00
  0.00000000E+00  0.00000000E+00  0.00000000E+00
  0.00000000E+00  0.00000000E+00  0.00000000E+00
  0.00000000E+00  0.00000000E+00  0.00000000E+00
