Mo1 H1 C123 N3                          
   1.00000000000000     
    19.8064603151065484    0.0252266650621691    0.0856937200235637
    -9.8813620749043753   17.0238191680079645   -0.1475336614805400
     0.1291690790374045   -0.1832344970304818   29.8223450646684611
   Mo   H    C    N 
     1     1   123     3
Direct
  0.4374269347376640  0.5007407723847572  0.4310238297656267
  0.4577620909243756  0.5010655239007332  0.4878284623332362
  0.0416243000650472  0.0839134605562899  0.3994197005357206
  0.0404402217182273  0.2079335179812294  0.3994793272490588
  0.0397859809186825  0.3327949806644800  0.3992031077502024
  0.0402606561333484  0.4581309396389373  0.3990511597754643
  0.0414924203643949  0.5837324318811968  0.3994811158830281
  0.0424616326192209  0.7092518931170848  0.3997289581801161
  0.0426899211338840  0.8345197860027997  0.3997540301363965
  0.0424600140003568  0.9595613520078284  0.3995060741868038
  0.1675517805745121  0.0852636485590174  0.3998577301798558
  0.1666116151573663  0.2096447725295102  0.3999708790587025
  0.1641460302639379  0.3330813015633355  0.4003440804867290
  0.1638441729190527  0.4580605231189853  0.3987220396920626
  0.1652833695624505  0.5834471145360804  0.3989581259950617
  0.1666545063641792  0.7088426515700363  0.3995374320188059
  0.1672979923607379  0.8343620878974242  0.3998368465702768
  0.1675401352880540  0.9599305407580568  0.3998026015976922
  0.2924536787186203  0.0856977459005506  0.3999234700222048
  0.2927083172449554  0.2122396817031778  0.4013898481762040
  0.2906314245208143  0.3369194314535069  0.4045611786836467
  0.2866686232614971  0.4571532788408954  0.4025234687104953
  0.2886673549349464  0.5823297768232176  0.3990256963185870
  0.2909686165525943  0.7079396165165122  0.3992522134250483
  0.2918486009151784  0.8337186882517241  0.3996605084940736
  0.2922165232619301  0.9595741776987384  0.3997304952372836
  0.4169623424494057  0.0844430294127945  0.3996176284606570
  0.4173771749057625  0.2108538350528355  0.4003642013800294
  0.4185777170166836  0.3385455770663853  0.4032555804678929
  0.4151917977429392  0.7053493862923839  0.3998702574417283
  0.4162529052578319  0.8319717282236742  0.3997937983096926
  0.4166874010397791  0.9582435448217090  0.3997109065190148
  0.5413679251262843  0.0828995907445014  0.3996597572612223
  0.5418394462653608  0.2088743604626211  0.3995115741510040
  0.5428617108795287  0.3348433353485449  0.4001513570463410
  0.5468661062803640  0.4610631558435326  0.4028056902996861
  0.5390383675606145  0.7021053796458674  0.4027960318056637
  0.5406160808861582  0.8302355095591634  0.4003992309537588
  0.5410671319247483  0.9567846702652815  0.3999039623077590
  0.6658827103190688  0.0821930508651672  0.3999439588623561
  0.6662651569996738  0.2078054974593809  0.3995828122352314
  0.6671754557659850  0.3334155967973521  0.3992141024209357
  0.6695059460846544  0.4592092240167592  0.3992870368474500
  0.6713260738466419  0.5848241920257746  0.4002398037322191
  0.6675717159021424  0.7071905278076431  0.4006901295905930
  0.6650371401003302  0.8306551123411792  0.4004338457728200
  0.6655275368847505  0.9564827130148909  0.4001012961939013
  0.7905483098763845  0.0821013616359035  0.3998152426230360
  0.7907609536836826  0.2074833117962282  0.3998563814484550
  0.7914236582517584  0.3329667961002284  0.3995263196438112
  0.7927924472950237  0.4585297372436737  0.3990762643017938
  0.7941680495123916  0.5841623036524134  0.3988061477517457
  0.7938822141965327  0.7093279500666599  0.3993734194518949
  0.7916934530000208  0.8328617982710708  0.3993624296880137
  0.7905133207348563  0.9569285954207155  0.3996659895582409
  0.9156893792228320  0.0825962279500253  0.3994944941155469
  0.9153514260438148  0.2074578949912932  0.3995996026057771
  0.9155979418425054  0.3327941071312078  0.3995183451987320
  0.9165495819261270  0.4583639785861677  0.3995065905019342
  0.9177509518044958  0.5839420389026465  0.3993985443941674
  0.9181702337587251  0.7092757979240879  0.3993608005494741
  0.9177595953204825  0.8342750552842247  0.3993773666409482
  0.9166417715689511  0.9584002048904782  0.3993967676249243
  0.0840945875264767  0.0430671250189359  0.3995236426291108
  0.0831019483244474  0.1673504548923118  0.3994615233108091
  0.0815534256042452  0.2912790637148610  0.3995670782858633
  0.0811548406832920  0.4161055917501874  0.3988179828752678
  0.0823712034708743  0.5417060076542648  0.3991266010854960
  0.0835975219326018  0.6672763959121905  0.3996184835404956
  0.0841850659336854  0.7927397325796582  0.3998315798683043
  0.0843063832992883  0.9180625135461136  0.3997185294456108
  0.2091863717309960  0.0435654796223766  0.3998574863616663
  0.2092310793456035  0.1690340693248165  0.4004203034823798
  0.2075034874100529  0.2931404532457909  0.4009709540178477
  0.2048208509558671  0.4162955809595589  0.3999052078109053
  0.2057920993159966  0.5411269389544902  0.3988094225447187
  0.2076851549774412  0.6667848732159344  0.3992328673488119
  0.2086632148032904  0.7924201962251249  0.3996855929158341
  0.2090594271344290  0.9180018931692806  0.3998380127930880
  0.3338275200346725  0.0433458094629499  0.3996946754942689
  0.3340611183867970  0.1696631070139283  0.4005304054072025
  0.3344324907297200  0.2967338951705993  0.4035572824377920
  0.3291792268642522  0.5405501129148406  0.4003399250080849
  0.3317814204815302  0.6656673605573448  0.3991400626935198
  0.3331227197949865  0.7914471892583380  0.3995833115163188
  0.3335626779566759  0.9172954625285769  0.3997064518875140
  0.4582698040762783  0.0419377435260509  0.3996299326614478
  0.4586109736646680  0.1681964975198066  0.3997319542610279
  0.4592994454715943  0.2947971278941910  0.4009896620055476
  0.4640225346460813  0.4221981153187623  0.4061101234066036
  0.4547080308645894  0.6607966232339009  0.4014236554586079
  0.4574579001035891  0.7892442579074769  0.4000039558017625
  0.4579367014181682  0.9157354659346035  0.3998143478517711
  0.5827058812869024  0.0405916721221843  0.3998429502485696
  0.5831005457270853  0.1665504019725929  0.3995169764192833
  0.5838348873247318  0.2923712541359221  0.3994652464960522
  0.5866163140368651  0.4183264380923279  0.4003756820060348
  0.5901142192236932  0.5444009462390245  0.4037653963431231
  0.5842403027504446  0.6629442295356560  0.4043364050835966
  0.5812449617860477  0.7871244990065570  0.4011486424653550
  0.5823546268254687  0.9143566957562032  0.4001148476061999
  0.7073136966652924  0.0402174277398518  0.3999719969236069
  0.7076455242611899  0.1658411681569764  0.3998483558441038
  0.7082364293904545  0.2913680105040310  0.3993938688006403
  0.7098791713771153  0.4168334577483873  0.3990226530314775
  0.7116828445992475  0.5423113095496945  0.3989952148173941
  0.7113560766643892  0.6677221070835881  0.4001709001866498
  0.7081818459665581  0.7905432680206865  0.3998108534556556
  0.7069381935265604  0.9145574863717372  0.4000522145489453
  0.8322987469666107  0.0405430147402842  0.3996296755918467
  0.8322620337090793  0.1656800430750531  0.3997999968559144
  0.8325655613845325  0.2909761268161440  0.3997038382663875
  0.8336112002614844  0.4164788254840725  0.3994073662401333
  0.8349417794020342  0.5420841353215587  0.3990254346432603
  0.8354205998807939  0.6675701622492775  0.3990967203254308
  0.8346431255290987  0.7924720620898142  0.3993109070000372
  0.8331481416116496  0.9162712787687252  0.3994408162401646
  0.9581741141453131  0.0417732269563440  0.3994293319922589
  0.9572234533776651  0.1660029898715772  0.3994926280638302
  0.9569441767609426  0.2909862908213147  0.3994248490727815
  0.9574236804271860  0.4163156786970674  0.3994032394553916
  0.9586050105279061  0.5418723648313714  0.3995324933630631
  0.9594985503901731  0.6674458387582908  0.3995179115130459
  0.9596105565969874  0.7928091005738627  0.3995336182079184
  0.9591516398428449  0.9176220223070316  0.3993867561850377
  0.4103126023841097  0.5791372863209536  0.4019080319709147
  0.5490694186289198  0.5833607644354891  0.4103553781510413
  0.3272358140250880  0.4177034050485540  0.4101297397563860
 
  0.00000000E+00  0.00000000E+00  0.00000000E+00
  0.00000000E+00  0.00000000E+00  0.00000000E+00
  0.00000000E+00  0.00000000E+00  0.00000000E+00
  0.00000000E+00  0.00000000E+00  0.00000000E+00
  0.00000000E+00  0.00000000E+00  0.00000000E+00
  0.00000000E+00  0.00000000E+00  0.00000000E+00
  0.00000000E+00  0.00000000E+00  0.00000000E+00
  0.00000000E+00  0.00000000E+00  0.00000000E+00
  0.00000000E+00  0.00000000E+00  0.00000000E+00
  0.00000000E+00  0.00000000E+00  0.00000000E+00
  0.00000000E+00  0.00000000E+00  0.00000000E+00
  0.00000000E+00  0.00000000E+00  0.00000000E+00
  0.00000000E+00  0.00000000E+00  0.00000000E+00
  0.00000000E+00  0.00000000E+00  0.00000000E+00
  0.00000000E+00  0.00000000E+00  0.00000000E+00
  0.00000000E+00  0.00000000E+00  0.00000000E+00
  0.00000000E+00  0.00000000E+00  0.00000000E+00
  0.00000000E+00  0.00000000E+00  0.00000000E+00
  0.00000000E+00  0.00000000E+00  0.00000000E+00
  0.00000000E+00  0.00000000E+00  0.00000000E+00
  0.00000000E+00  0.00000000E+00  0.00000000E+00
  0.00000000E+00  0.00000000E+00  0.00000000E+00
  0.00000000E+00  0.00000000E+00  0.00000000E+00
  0.00000000E+00  0.00000000E+00  0.00000000E+00
  0.00000000E+00  0.00000000E+00  0.00000000E+00
  0.00000000E+00  0.00000000E+00  0.00000000E+00
  0.00000000E+00  0.00000000E+00  0.00000000E+00
  0.00000000E+00  0.00000000E+00  0.00000000E+00
  0.00000000E+00  0.00000000E+00  0.00000000E+00
  0.00000000E+00  0.00000000E+00  0.00000000E+00
  0.00000000E+00  0.00000000E+00  0.00000000E+00
  0.00000000E+00  0.00000000E+00  0.00000000E+00
  0.00000000E+00  0.00000000E+00  0.00000000E+00
  0.00000000E+00  0.00000000E+00  0.00000000E+00
  0.00000000E+00  0.00000000E+00  0.00000000E+00
  0.00000000E+00  0.00000000E+00  0.00000000E+00
  0.00000000E+00  0.00000000E+00  0.00000000E+00
  0.00000000E+00  0.00000000E+00  0.00000000E+00
  0.00000000E+00  0.00000000E+00  0.00000000E+00
  0.00000000E+00  0.00000000E+00  0.00000000E+00
  0.00000000E+00  0.00000000E+00  0.00000000E+00
  0.00000000E+00  0.00000000E+00  0.00000000E+00
  0.00000000E+00  0.00000000E+00  0.00000000E+00
  0.00000000E+00  0.00000000E+00  0.00000000E+00
  0.00000000E+00  0.00000000E+00  0.00000000E+00
  0.00000000E+00  0.00000000E+00  0.00000000E+00
  0.00000000E+00  0.00000000E+00  0.00000000E+00
  0.00000000E+00  0.00000000E+00  0.00000000E+00
  0.00000000E+00  0.00000000E+00  0.00000000E+00
  0.00000000E+00  0.00000000E+00  0.00000000E+00
  0.00000000E+00  0.00000000E+00  0.00000000E+00
  0.00000000E+00  0.00000000E+00  0.00000000E+00
  0.00000000E+00  0.00000000E+00  0.00000000E+00
  0.00000000E+00  0.00000000E+00  0.00000000E+00
  0.00000000E+00  0.00000000E+00  0.00000000E+00
  0.00000000E+00  0.00000000E+00  0.00000000E+00
  0.00000000E+00  0.00000000E+00  0.00000000E+00
  0.00000000E+00  0.00000000E+00  0.00000000E+00
  0.00000000E+00  0.00000000E+00  0.00000000E+00
  0.00000000E+00  0.00000000E+00  0.00000000E+00
  0.00000000E+00  0.00000000E+00  0.00000000E+00
  0.00000000E+00  0.00000000E+00  0.00000000E+00
  0.00000000E+00  0.00000000E+00  0.00000000E+00
  0.00000000E+00  0.00000000E+00  0.00000000E+00
  0.00000000E+00  0.00000000E+00  0.00000000E+00
  0.00000000E+00  0.00000000E+00  0.00000000E+00
  0.00000000E+00  0.00000000E+00  0.00000000E+00
  0.00000000E+00  0.00000000E+00  0.00000000E+00
  0.00000000E+00  0.00000000E+00  0.00000000E+00
  0.00000000E+00  0.00000000E+00  0.00000000E+00
  0.00000000E+00  0.00000000E+00  0.00000000E+00
  0.00000000E+00  0.00000000E+00  0.00000000E+00
  0.00000000E+00  0.00000000E+00  0.00000000E+00
  0.00000000E+00  0.00000000E+00  0.00000000E+00
  0.00000000E+00  0.00000000E+00  0.00000000E+00
  0.00000000E+00  0.00000000E+00  0.00000000E+00
  0.00000000E+00  0.00000000E+00  0.00000000E+00
  0.00000000E+00  0.00000000E+00  0.00000000E+00
  0.00000000E+00  0.00000000E+00  0.00000000E+00
  0.00000000E+00  0.00000000E+00  0.00000000E+00
  0.00000000E+00  0.00000000E+00  0.00000000E+00
  0.00000000E+00  0.00000000E+00  0.00000000E+00
  0.00000000E+00  0.00000000E+00  0.00000000E+00
  0.00000000E+00  0.00000000E+00  0.00000000E+00
  0.00000000E+00  0.00000000E+00  0.00000000E+00
  0.00000000E+00  0.00000000E+00  0.00000000E+00
  0.00000000E+00  0.00000000E+00  0.00000000E+00
  0.00000000E+00  0.00000000E+00  0.00000000E+00
  0.00000000E+00  0.00000000E+00  0.00000000E+00
  0.00000000E+00  0.00000000E+00  0.00000000E+00
  0.00000000E+00  0.00000000E+00  0.00000000E+00
  0.00000000E+00  0.00000000E+00  0.00000000E+00
  0.00000000E+00  0.00000000E+00  0.00000000E+00
  0.00000000E+00  0.00000000E+00  0.00000000E+00
  0.00000000E+00  0.00000000E+00  0.00000000E+00
  0.00000000E+00  0.00000000E+00  0.00000000E+00
  0.00000000E+00  0.00000000E+00  0.00000000E+00
  0.00000000E+00  0.00000000E+00  0.00000000E+00
  0.00000000E+00  0.00000000E+00  0.00000000E+00
  0.00000000E+00  0.00000000E+00  0.00000000E+00
  0.00000000E+00  0.00000000E+00  0.00000000E+00
  0.00000000E+00  0.00000000E+00  0.00000000E+00
  0.00000000E+00  0.00000000E+00  0.00000000E+00
  0.00000000E+00  0.00000000E+00  0.00000000E+00
  0.00000000E+00  0.00000000E+00  0.00000000E+00
  0.00000000E+00  0.00000000E+00  0.00000000E+00
  0.00000000E+00  0.00000000E+00  0.00000000E+00
  0.00000000E+00  0.00000000E+00  0.00000000E+00
  0.00000000E+00  0.00000000E+00  0.00000000E+00
  0.00000000E+00  0.00000000E+00  0.00000000E+00
  0.00000000E+00  0.00000000E+00  0.00000000E+00
  0.00000000E+00  0.00000000E+00  0.00000000E+00
  0.00000000E+00  0.00000000E+00  0.00000000E+00
  0.00000000E+00  0.00000000E+00  0.00000000E+00
  0.00000000E+00  0.00000000E+00  0.00000000E+00
  0.00000000E+00  0.00000000E+00  0.00000000E+00
  0.00000000E+00  0.00000000E+00  0.00000000E+00
  0.00000000E+00  0.00000000E+00  0.00000000E+00
  0.00000000E+00  0.00000000E+00  0.00000000E+00
  0.00000000E+00  0.00000000E+00  0.00000000E+00
  0.00000000E+00  0.00000000E+00  0.00000000E+00
  0.00000000E+00  0.00000000E+00  0.00000000E+00
  0.00000000E+00  0.00000000E+00  0.00000000E+00
  0.00000000E+00  0.00000000E+00  0.00000000E+00
  0.00000000E+00  0.00000000E+00  0.00000000E+00
  0.00000000E+00  0.00000000E+00  0.00000000E+00
  0.00000000E+00  0.00000000E+00  0.00000000E+00
  0.00000000E+00  0.00000000E+00  0.00000000E+00
