H1 Ru1 C126 O1                          
   1.00000000000000     
    19.7995960700091231    0.0018169668559702   -0.0388960964338169
    -9.8981399420512677   17.0429986835445604    0.2291823486061141
    -0.0584594054941638    0.3662402094969561   29.8224898753936642
   H    Ru   C    O 
     1     1   126     1
Direct
  0.4992897692964571  0.5731749365658262  0.5056990671056478
  0.4379346629978562  0.5010041343118278  0.4328961787339597
  0.0419632885884582  0.0838526828308269  0.3996453616917702
  0.0409973391852095  0.2079371971543447  0.3994433554461155
  0.0404282248531807  0.3325689165219802  0.3993252170552267
  0.0404518337397641  0.4579313126091065  0.3994570147904489
  0.0412113666130149  0.5833318980002951  0.3997865842411230
  0.0418646553494110  0.7086371369133782  0.3998684248365093
  0.0421201446922378  0.8340343803044445  0.3999166299029386
  0.0422365492845221  0.9591374546250029  0.3998668243293411
  0.1675315346921854  0.0850142770241150  0.3998234250620223
  0.1674877428623348  0.2099783481471709  0.3995387211703403
  0.1654972772059125  0.3332028790540181  0.3993674069342893
  0.1642708530270048  0.4579971633753518  0.3991514789527125
  0.1651590914163656  0.5832271246493015  0.3992131538611340
  0.1664346180253506  0.7086378212600004  0.3995397786687884
  0.1670100449078468  0.8340535275934617  0.3998676133611154
  0.1673135099667749  0.9595259937681503  0.4000594723961794
  0.2925695981955995  0.0850360769520313  0.3998470672756422
  0.2932556810726894  0.2114991371975010  0.4004764538244404
  0.2937065734080113  0.3377185966749532  0.4015953479820602
  0.2876506593193521  0.4578264345097079  0.4008376718202692
  0.2890196832456696  0.5832397719704303  0.3994352345302965
  0.2910550387895222  0.7084014509752683  0.3994212054994674
  0.2916115845259229  0.8336094322929789  0.3995614316992706
  0.2920355349409401  0.9591586482730020  0.3998284209357252
  0.4170118972787674  0.0839188984905622  0.3996538765084765
  0.4175345258087698  0.2100728516473655  0.3995918971110991
  0.4190143926493923  0.3377553574212253  0.4022522130454637
  0.4108065009844110  0.5782194358568562  0.4060105118348448
  0.4153236931810679  0.7057686739353328  0.4007507250527645
  0.4162292742841739  0.8321873310684826  0.3997458959569445
  0.4167057914061336  0.9580926715477407  0.3996917229353890
  0.5415530478838529  0.0825445400580483  0.3997457876228883
  0.5420221382965210  0.2080245038664330  0.3992716420662417
  0.5427455190423051  0.3333084336798008  0.3991239690385394
  0.5451615937362096  0.4579085968578980  0.4018086358812880
  0.5430348051704915  0.5784961814420945  0.4087245986778234
  0.5397113410651392  0.7042078554825075  0.4040480781908476
  0.5406830270599655  0.8309624181168388  0.4007465034219176
  0.5411822873733914  0.9569333026578594  0.3997263249664657
  0.6661615809782603  0.0820038627063769  0.3997481794947847
  0.6665172830330510  0.2073389610298655  0.3998027203092924
  0.6671692988509862  0.3326099961386569  0.3989344308308044
  0.6686989713786788  0.4580357678437417  0.3984956330122521
  0.6692361407756887  0.5831833723247384  0.3997059267538711
  0.6656572564542006  0.7058184387339349  0.4013662698624494
  0.6653806491737625  0.8309488993732893  0.4009222015621244
  0.6658184751320834  0.9565344575905054  0.3999080588347286
  0.7909160576033560  0.0819882062317324  0.3996808212751483
  0.7910974193656072  0.2071415613958001  0.4000544696786533
  0.7915864687502633  0.3324878017740001  0.3998708301584977
  0.7924642030871373  0.4579281225089665  0.3991039825567426
  0.7931001366366854  0.5832253422747968  0.3986966453317327
  0.7924285682128992  0.7083844400150214  0.3992799093100587
  0.7910870509283954  0.8321925736214860  0.3997116366730339
  0.7908329472019069  0.9569178297619035  0.3997004008240993
  0.9160704244305072  0.0825021497824403  0.3996640788920968
  0.9158588145019005  0.2073079019932715  0.3997782036727291
  0.9159441049221783  0.3324831679863712  0.3999349727713187
  0.9164308387341547  0.4578303377835425  0.3999405805756961
  0.9171485992018196  0.5833431793837411  0.3996865484755923
  0.9172659290327514  0.7086094737434868  0.3994278198048324
  0.9170917720066978  0.8335944186379208  0.3995053228036158
  0.9164980702997146  0.9580575577088262  0.3996116358047349
  0.0840383106575969  0.0427121510015722  0.3997656078016943
  0.0836877264190942  0.1673520938945473  0.3994731924208242
  0.0821491197602663  0.2911236698046825  0.3992543708887489
  0.0815889337366316  0.4161462786705249  0.3991698903484164
  0.0822511917044395  0.5414612703428026  0.3994662233166579
  0.0832037705999194  0.6669060141955352  0.3997653606109308
  0.0837022232413875  0.7923145782456746  0.3999260357091125
  0.0839045174893003  0.9175759264710839  0.4000264520254164
  0.2090695118501261  0.0430572918922092  0.3999594746901592
  0.2093381555406457  0.1686852035824378  0.3998722729096931
  0.2092162941480413  0.2938047854202575  0.3997800347960460
  0.2053308272731945  0.4161126622433275  0.3995058019334293
  0.2059108195307799  0.5413520335964382  0.3990882324557866
  0.2076652289804132  0.6668807539786363  0.3993265221348970
  0.2083894511726899  0.7922191611092851  0.3996281150283463
  0.2087862084715036  0.9175928751860601  0.3999718720560856
  0.3337727346967387  0.0427401921128376  0.3997624792453090
  0.3343709834323924  0.1687041924730660  0.3999698244270293
  0.3350034784026112  0.2950018246620492  0.4018794020608847
  0.3324918376430979  0.4208982705013769  0.4036433990647656
  0.3290848306191818  0.5413793870817109  0.4010985337252868
  0.3322223241266286  0.6664280001169142  0.3997613851636996
  0.3329817531109565  0.7916166953179214  0.3995462940722647
  0.3333760876983902  0.9170523935739336  0.3996932585891447
  0.4583542713888146  0.0415650706197323  0.3997169455508146
  0.4587226494941610  0.1674465266044169  0.3993933102267458
  0.4596130426041555  0.2939110263123937  0.3999624289655575
  0.4633661259631084  0.4208579925856191  0.4053298224550076
  0.4559204572299409  0.6618083186965218  0.4033792151331775
  0.4573597214232170  0.7896008876705294  0.4003495669040169
  0.4580011905544024  0.9157998169391658  0.3996980497078690
  0.5829208804818754  0.0404786836566627  0.3997218861208146
  0.5833470837757117  0.1659876088425867  0.3996369319286215
  0.5840095771638922  0.2912302776183014  0.3988830839118152
  0.5857274633201771  0.4162343634813870  0.3992219946622643
  0.5874307023138776  0.5413504821208553  0.4025822220151029
  0.5812435668666215  0.6620254839650630  0.4045782744281761
  0.5817619098394510  0.7883941181077381  0.4018608322199115
  0.5824904755085258  0.9147034386588173  0.4000378395770641
  0.7076382437089304  0.0401583447662382  0.3996683463227010
  0.7079395711031248  0.1654927527227080  0.3999520862721614
  0.7084237396482229  0.2908164592719231  0.3995572970770082
  0.7095505225675698  0.4161801492888333  0.3986197145492977
  0.7104523368427288  0.5413461366872205  0.3985584276849434
  0.7093552232398528  0.6664312864976911  0.4000360852339264
  0.7073781151480224  0.7896360010240757  0.4005403800349204
  0.7073215472458091  0.9147091763901534  0.4000877179384518
  0.8326572785009719  0.0404688483283440  0.3996347394228498
  0.8326298591302350  0.1654807330831765  0.3998702237696454
  0.8328991421717039  0.2906961677749469  0.4001081221451708
  0.8334998265804958  0.4160006807375546  0.3997166274476089
  0.8342467213987557  0.5414712241420672  0.3991218474233893
  0.8343001821892260  0.6668698637893667  0.3990278463641641
  0.8337510411276060  0.7916324428416859  0.3994392821413394
  0.8329316209754580  0.9158151785046782  0.3996164740879150
  0.9582895829561935  0.0415297394003306  0.3996604979936104
  0.9576706673333049  0.1659308462967931  0.3996439942776738
  0.9574098339104167  0.2907645127517346  0.3997033094679101
  0.9575356689010081  0.4160011321467380  0.3998360507226423
  0.9582678521463441  0.5414860616103091  0.3999169472160040
  0.9587939453932411  0.6669073916008423  0.3997089559296383
  0.9589169326449081  0.7922094509536772  0.3996154097184985
  0.9587848211314837  0.9170398826377274  0.3996712340938038
  0.4541065296555375  0.5265171293685931  0.4941367396964044
 
  0.00000000E+00  0.00000000E+00  0.00000000E+00
  0.00000000E+00  0.00000000E+00  0.00000000E+00
  0.00000000E+00  0.00000000E+00  0.00000000E+00
  0.00000000E+00  0.00000000E+00  0.00000000E+00
  0.00000000E+00  0.00000000E+00  0.00000000E+00
  0.00000000E+00  0.00000000E+00  0.00000000E+00
  0.00000000E+00  0.00000000E+00  0.00000000E+00
  0.00000000E+00  0.00000000E+00  0.00000000E+00
  0.00000000E+00  0.00000000E+00  0.00000000E+00
  0.00000000E+00  0.00000000E+00  0.00000000E+00
  0.00000000E+00  0.00000000E+00  0.00000000E+00
  0.00000000E+00  0.00000000E+00  0.00000000E+00
  0.00000000E+00  0.00000000E+00  0.00000000E+00
  0.00000000E+00  0.00000000E+00  0.00000000E+00
  0.00000000E+00  0.00000000E+00  0.00000000E+00
  0.00000000E+00  0.00000000E+00  0.00000000E+00
  0.00000000E+00  0.00000000E+00  0.00000000E+00
  0.00000000E+00  0.00000000E+00  0.00000000E+00
  0.00000000E+00  0.00000000E+00  0.00000000E+00
  0.00000000E+00  0.00000000E+00  0.00000000E+00
  0.00000000E+00  0.00000000E+00  0.00000000E+00
  0.00000000E+00  0.00000000E+00  0.00000000E+00
  0.00000000E+00  0.00000000E+00  0.00000000E+00
  0.00000000E+00  0.00000000E+00  0.00000000E+00
  0.00000000E+00  0.00000000E+00  0.00000000E+00
  0.00000000E+00  0.00000000E+00  0.00000000E+00
  0.00000000E+00  0.00000000E+00  0.00000000E+00
  0.00000000E+00  0.00000000E+00  0.00000000E+00
  0.00000000E+00  0.00000000E+00  0.00000000E+00
  0.00000000E+00  0.00000000E+00  0.00000000E+00
  0.00000000E+00  0.00000000E+00  0.00000000E+00
  0.00000000E+00  0.00000000E+00  0.00000000E+00
  0.00000000E+00  0.00000000E+00  0.00000000E+00
  0.00000000E+00  0.00000000E+00  0.00000000E+00
  0.00000000E+00  0.00000000E+00  0.00000000E+00
  0.00000000E+00  0.00000000E+00  0.00000000E+00
  0.00000000E+00  0.00000000E+00  0.00000000E+00
  0.00000000E+00  0.00000000E+00  0.00000000E+00
  0.00000000E+00  0.00000000E+00  0.00000000E+00
  0.00000000E+00  0.00000000E+00  0.00000000E+00
  0.00000000E+00  0.00000000E+00  0.00000000E+00
  0.00000000E+00  0.00000000E+00  0.00000000E+00
  0.00000000E+00  0.00000000E+00  0.00000000E+00
  0.00000000E+00  0.00000000E+00  0.00000000E+00
  0.00000000E+00  0.00000000E+00  0.00000000E+00
  0.00000000E+00  0.00000000E+00  0.00000000E+00
  0.00000000E+00  0.00000000E+00  0.00000000E+00
  0.00000000E+00  0.00000000E+00  0.00000000E+00
  0.00000000E+00  0.00000000E+00  0.00000000E+00
  0.00000000E+00  0.00000000E+00  0.00000000E+00
  0.00000000E+00  0.00000000E+00  0.00000000E+00
  0.00000000E+00  0.00000000E+00  0.00000000E+00
  0.00000000E+00  0.00000000E+00  0.00000000E+00
  0.00000000E+00  0.00000000E+00  0.00000000E+00
  0.00000000E+00  0.00000000E+00  0.00000000E+00
  0.00000000E+00  0.00000000E+00  0.00000000E+00
  0.00000000E+00  0.00000000E+00  0.00000000E+00
  0.00000000E+00  0.00000000E+00  0.00000000E+00
  0.00000000E+00  0.00000000E+00  0.00000000E+00
  0.00000000E+00  0.00000000E+00  0.00000000E+00
  0.00000000E+00  0.00000000E+00  0.00000000E+00
  0.00000000E+00  0.00000000E+00  0.00000000E+00
  0.00000000E+00  0.00000000E+00  0.00000000E+00
  0.00000000E+00  0.00000000E+00  0.00000000E+00
  0.00000000E+00  0.00000000E+00  0.00000000E+00
  0.00000000E+00  0.00000000E+00  0.00000000E+00
  0.00000000E+00  0.00000000E+00  0.00000000E+00
  0.00000000E+00  0.00000000E+00  0.00000000E+00
  0.00000000E+00  0.00000000E+00  0.00000000E+00
  0.00000000E+00  0.00000000E+00  0.00000000E+00
  0.00000000E+00  0.00000000E+00  0.00000000E+00
  0.00000000E+00  0.00000000E+00  0.00000000E+00
  0.00000000E+00  0.00000000E+00  0.00000000E+00
  0.00000000E+00  0.00000000E+00  0.00000000E+00
  0.00000000E+00  0.00000000E+00  0.00000000E+00
  0.00000000E+00  0.00000000E+00  0.00000000E+00
  0.00000000E+00  0.00000000E+00  0.00000000E+00
  0.00000000E+00  0.00000000E+00  0.00000000E+00
  0.00000000E+00  0.00000000E+00  0.00000000E+00
  0.00000000E+00  0.00000000E+00  0.00000000E+00
  0.00000000E+00  0.00000000E+00  0.00000000E+00
  0.00000000E+00  0.00000000E+00  0.00000000E+00
  0.00000000E+00  0.00000000E+00  0.00000000E+00
  0.00000000E+00  0.00000000E+00  0.00000000E+00
  0.00000000E+00  0.00000000E+00  0.00000000E+00
  0.00000000E+00  0.00000000E+00  0.00000000E+00
  0.00000000E+00  0.00000000E+00  0.00000000E+00
  0.00000000E+00  0.00000000E+00  0.00000000E+00
  0.00000000E+00  0.00000000E+00  0.00000000E+00
  0.00000000E+00  0.00000000E+00  0.00000000E+00
  0.00000000E+00  0.00000000E+00  0.00000000E+00
  0.00000000E+00  0.00000000E+00  0.00000000E+00
  0.00000000E+00  0.00000000E+00  0.00000000E+00
  0.00000000E+00  0.00000000E+00  0.00000000E+00
  0.00000000E+00  0.00000000E+00  0.00000000E+00
  0.00000000E+00  0.00000000E+00  0.00000000E+00
  0.00000000E+00  0.00000000E+00  0.00000000E+00
  0.00000000E+00  0.00000000E+00  0.00000000E+00
  0.00000000E+00  0.00000000E+00  0.00000000E+00
  0.00000000E+00  0.00000000E+00  0.00000000E+00
  0.00000000E+00  0.00000000E+00  0.00000000E+00
  0.00000000E+00  0.00000000E+00  0.00000000E+00
  0.00000000E+00  0.00000000E+00  0.00000000E+00
  0.00000000E+00  0.00000000E+00  0.00000000E+00
  0.00000000E+00  0.00000000E+00  0.00000000E+00
  0.00000000E+00  0.00000000E+00  0.00000000E+00
  0.00000000E+00  0.00000000E+00  0.00000000E+00
  0.00000000E+00  0.00000000E+00  0.00000000E+00
  0.00000000E+00  0.00000000E+00  0.00000000E+00
  0.00000000E+00  0.00000000E+00  0.00000000E+00
  0.00000000E+00  0.00000000E+00  0.00000000E+00
  0.00000000E+00  0.00000000E+00  0.00000000E+00
  0.00000000E+00  0.00000000E+00  0.00000000E+00
  0.00000000E+00  0.00000000E+00  0.00000000E+00
  0.00000000E+00  0.00000000E+00  0.00000000E+00
  0.00000000E+00  0.00000000E+00  0.00000000E+00
  0.00000000E+00  0.00000000E+00  0.00000000E+00
  0.00000000E+00  0.00000000E+00  0.00000000E+00
  0.00000000E+00  0.00000000E+00  0.00000000E+00
  0.00000000E+00  0.00000000E+00  0.00000000E+00
  0.00000000E+00  0.00000000E+00  0.00000000E+00
  0.00000000E+00  0.00000000E+00  0.00000000E+00
  0.00000000E+00  0.00000000E+00  0.00000000E+00
  0.00000000E+00  0.00000000E+00  0.00000000E+00
  0.00000000E+00  0.00000000E+00  0.00000000E+00
  0.00000000E+00  0.00000000E+00  0.00000000E+00
  0.00000000E+00  0.00000000E+00  0.00000000E+00
  0.00000000E+00  0.00000000E+00  0.00000000E+00
  0.00000000E+00  0.00000000E+00  0.00000000E+00
