Mn1 H1 C125 N1 O2                       
   1.00000000000000     
    19.7967467074582935   -0.0193694896145735    0.0697868448207151
    -9.9151036644806840   17.0635082138097367   -0.0051010096818287
     0.1049422399600153    0.0523490819767772   29.8053096922172323
   Mn   H    C    N    O 
     1     1   125     1     2
Direct
  0.4377289456112409  0.5004702664882700  0.4264603008645340
  0.5298892216326470  0.5454294880247765  0.5284846982752430
  0.0419412172670341  0.0839430925122921  0.3997661357526132
  0.0416260935839103  0.2084653446948025  0.3995890986863649
  0.0412561168434996  0.3330581875634239  0.3993863296889267
  0.0410566486370159  0.4582196036205506  0.3993024092191005
  0.0412894106401814  0.5834683191512138  0.3993098018495384
  0.0416136590156975  0.7086826536696701  0.3993687339413979
  0.0418103600864975  0.8339129961610036  0.3994948162044401
  0.0419409689658872  0.9590520979625314  0.3996692221225795
  0.1673752764210271  0.0848338010681583  0.4002606345566103
  0.1676322581696981  0.2100069006620850  0.4004810167109017
  0.1667910193497779  0.3342232594567460  0.3999475608881128
  0.1654201385825530  0.4585739843757157  0.3995877313932942
  0.1654846000181006  0.5835485200757136  0.3994582674932284
  0.1661482764691466  0.7087866243343162  0.3995443746534379
  0.1666378280489508  0.8340346502721921  0.3995931406498019
  0.1670057781287849  0.9593844401554918  0.3998892142821932
  0.2922656124422293  0.0847152574037463  0.4004080803653072
  0.2931603381582194  0.2110495890863955  0.4019595013636368
  0.2939726169139027  0.3374972106273696  0.4025964759974042
  0.2905460635899347  0.4596384354300208  0.4013719930342604
  0.2893679079848405  0.5844079159735414  0.4004689360216524
  0.2905443501336365  0.7090218895112926  0.4000177892986309
  0.2913454140582614  0.8339137299735199  0.3996815560203087
  0.2917019356773708  0.9590910598016203  0.3996842663827981
  0.4168327683032808  0.0836699911860139  0.3997332711712074
  0.4174064580599319  0.2092945636804944  0.4011150026018618
  0.4190523010469880  0.3361579313639070  0.4058278410423642
  0.4146773745229211  0.7072680103389681  0.4017051097818687
  0.4159747647919977  0.8329115439685991  0.4001042254790743
  0.4164379426844664  0.9582691411479574  0.3995726233082207
  0.5415159171866830  0.0826485109226670  0.3994619406244589
  0.5419675234115575  0.2078216687101857  0.3998085647617303
  0.5427329508832672  0.3327618920496235  0.4016387776234124
  0.5445902838924234  0.4569541609615062  0.4048734844376343
  0.5434229490397926  0.5791383627226214  0.4051268240897496
  0.5382022724006711  0.7037059434313269  0.4037364969831976
  0.5402594862442398  0.8312276889729489  0.4012475957589454
  0.5411301338850494  0.9572183384328828  0.3999750961585384
  0.6662454715535728  0.0822146683405557  0.3997475353141616
  0.6666615880822750  0.2075197039244804  0.3994113248201516
  0.6671664700235760  0.3326017154409137  0.3995210032528985
  0.6684678954386580  0.4578295766436553  0.4000722703409789
  0.6690224783465009  0.5831446195893163  0.4006646153214159
  0.6651287653418658  0.7058506300722345  0.4012143442364176
  0.6647241172884880  0.8306999866444400  0.4012226657045421
  0.6656968947918729  0.9567071317077802  0.4004299305453136
  0.7910786309836645  0.0822466324863096  0.3998505935763449
  0.7913929506404854  0.2074616614594160  0.3995662315084317
  0.7917873952201111  0.3327228819221317  0.3992652408552600
  0.7924418780578008  0.4580742762498379  0.3990832193558659
  0.7927548490617200  0.5832354350541342  0.3992727513890719
  0.7920631298598121  0.7082813147656130  0.3996243078506742
  0.7907478478292167  0.8322375274196769  0.4000617411251708
  0.7905921990736777  0.9569548042716303  0.4000877686890272
  0.9162430718710756  0.0827983808150241  0.3996682243561407
  0.9163328460686130  0.2077612360883714  0.3995378535436581
  0.9164074754506801  0.3328367352836151  0.3994163874135362
  0.9166525178970771  0.4580413629242309  0.3992465287744566
  0.9170209109832961  0.5833894776878126  0.3991222432101581
  0.9169628072817516  0.7086255834930132  0.3992116761804487
  0.9167405732656821  0.8335283372045450  0.3994394547798185
  0.9163318407258028  0.9580841946291970  0.3996515137265951
  0.0838331820928402  0.0426428545673296  0.3998696955265602
  0.0838757477813663  0.1675226295842255  0.3998745040258554
  0.0831933149359665  0.2918872237085807  0.3994998009073424
  0.0825498771328032  0.4166477501810338  0.3993411218483588
  0.0825101058613576  0.5416819958005503  0.3993277832656355
  0.0829819799182369  0.6669816911084916  0.3993923189601905
  0.0833753528503378  0.7922796523012438  0.3995090075762469
  0.0835821432146932  0.9174835175887113  0.3997018076613996
  0.2088235971520179  0.0429167507571063  0.4002287258010063
  0.2093224734610607  0.1685646729197071  0.4008034442122496
  0.2096949205403903  0.2939422978721794  0.4007920926012391
  0.2073369185944132  0.4175473207714213  0.4000999731163985
  0.2065225818759709  0.5419315611103462  0.3996043799584170
  0.2074673389556019  0.6671303409058832  0.3996476662377041
  0.2080808715626866  0.7922621817669039  0.3996155265412163
  0.2084727713941575  0.9175453494859500  0.3997340658383036
  0.3335424643136675  0.0425626840611729  0.3999090337963008
  0.3342133499042640  0.1682969223312844  0.4012499733612573
  0.3351297882053319  0.2945500358874578  0.4039932662090708
  0.3338207536065164  0.4209036415601859  0.4029517057374759
  0.3313655899973392  0.5443660083053912  0.4022616239456356
  0.3317359706504278  0.6673352541989291  0.4007556786594315
  0.3327558062879130  0.7921630915147378  0.3999241466413450
  0.3332052158300804  0.9172439882980733  0.3996009716249868
  0.4582803458732382  0.0416511179153355  0.3995012441524691
  0.4586665899123868  0.1670227676447881  0.4000637952791698
  0.4595365646029487  0.2927882027659617  0.4026529640571722
  0.4630941148283714  0.4187548054862104  0.4097164395313681
  0.4538727424393671  0.6629710946022452  0.4040645501973312
  0.4572091667150061  0.7906845881982141  0.4009143837903158
  0.4578463261325815  0.9162401141962864  0.3998265368173565
  0.5829773209948490  0.0407319540109507  0.3996691057168744
  0.5833957969969819  0.1660195460148053  0.3994549631516432
  0.5840163819666060  0.2909933351168565  0.4001533787125499
  0.5855356489026845  0.4157356319966334  0.4018279480932020
  0.5866340810847087  0.5410708066199950  0.4030895600496613
  0.5804865845820271  0.6617894364335900  0.4031988214895069
  0.5806031159663976  0.7878359347450311  0.4021098968731949
  0.5823431588898281  0.9149502928617537  0.4005421932566096
  0.7076544787508549  0.0403150740703461  0.4000072324517619
  0.7081339044837950  0.1657681955180445  0.3995635725438468
  0.7085403253556940  0.2909521595156173  0.3993068278836641
  0.7094416644019227  0.4162095106506733  0.3993643429441970
  0.7101344130903514  0.5413790264692904  0.3998956967940425
  0.7087018653534147  0.6661770548465338  0.4003407493178530
  0.7068413406751749  0.7896287576354675  0.4008422201124890
  0.7068995770030767  0.9145686411160256  0.4005723618384383
  0.8326392468525362  0.0406480425227283  0.3998509148561306
  0.8329379605013724  0.1658345198456297  0.3996486052023011
  0.8332248582089159  0.2910716000047190  0.3994109663427848
  0.8336376877510016  0.4162641814571524  0.3991644539980603
  0.8340393283216255  0.5415323797919545  0.3990823821692632
  0.8338311202137690  0.6668757005401028  0.3992813214187985
  0.8333004289493100  0.7915462996253027  0.3996345795915794
  0.8326059662975989  0.9157877486472946  0.3999140723688709
  0.9582462429107124  0.0416636807170645  0.3996483845350209
  0.9581130524657003  0.1663590156796430  0.3995532099782639
  0.9580023710231580  0.2912341915291431  0.3994414610055627
  0.9579722938300689  0.4163450190267192  0.3993347188008374
  0.9583106267552485  0.5416823831906332  0.3992147665612888
  0.9584799379112747  0.6669301994733239  0.3992116021936328
  0.9584796688846364  0.7920592943060221  0.3993549633033835
  0.9584113868004484  0.9169856373215773  0.3995454969367400
  0.4102798413184262  0.5827752871163087  0.4058948800633836
  0.4926451232877366  0.4974530657820366  0.5127709836907453
  0.4541424446741946  0.5285733483409816  0.4849277724658741
 
  0.00000000E+00  0.00000000E+00  0.00000000E+00
  0.00000000E+00  0.00000000E+00  0.00000000E+00
  0.00000000E+00  0.00000000E+00  0.00000000E+00
  0.00000000E+00  0.00000000E+00  0.00000000E+00
  0.00000000E+00  0.00000000E+00  0.00000000E+00
  0.00000000E+00  0.00000000E+00  0.00000000E+00
  0.00000000E+00  0.00000000E+00  0.00000000E+00
  0.00000000E+00  0.00000000E+00  0.00000000E+00
  0.00000000E+00  0.00000000E+00  0.00000000E+00
  0.00000000E+00  0.00000000E+00  0.00000000E+00
  0.00000000E+00  0.00000000E+00  0.00000000E+00
  0.00000000E+00  0.00000000E+00  0.00000000E+00
  0.00000000E+00  0.00000000E+00  0.00000000E+00
  0.00000000E+00  0.00000000E+00  0.00000000E+00
  0.00000000E+00  0.00000000E+00  0.00000000E+00
  0.00000000E+00  0.00000000E+00  0.00000000E+00
  0.00000000E+00  0.00000000E+00  0.00000000E+00
  0.00000000E+00  0.00000000E+00  0.00000000E+00
  0.00000000E+00  0.00000000E+00  0.00000000E+00
  0.00000000E+00  0.00000000E+00  0.00000000E+00
  0.00000000E+00  0.00000000E+00  0.00000000E+00
  0.00000000E+00  0.00000000E+00  0.00000000E+00
  0.00000000E+00  0.00000000E+00  0.00000000E+00
  0.00000000E+00  0.00000000E+00  0.00000000E+00
  0.00000000E+00  0.00000000E+00  0.00000000E+00
  0.00000000E+00  0.00000000E+00  0.00000000E+00
  0.00000000E+00  0.00000000E+00  0.00000000E+00
  0.00000000E+00  0.00000000E+00  0.00000000E+00
  0.00000000E+00  0.00000000E+00  0.00000000E+00
  0.00000000E+00  0.00000000E+00  0.00000000E+00
  0.00000000E+00  0.00000000E+00  0.00000000E+00
  0.00000000E+00  0.00000000E+00  0.00000000E+00
  0.00000000E+00  0.00000000E+00  0.00000000E+00
  0.00000000E+00  0.00000000E+00  0.00000000E+00
  0.00000000E+00  0.00000000E+00  0.00000000E+00
  0.00000000E+00  0.00000000E+00  0.00000000E+00
  0.00000000E+00  0.00000000E+00  0.00000000E+00
  0.00000000E+00  0.00000000E+00  0.00000000E+00
  0.00000000E+00  0.00000000E+00  0.00000000E+00
  0.00000000E+00  0.00000000E+00  0.00000000E+00
  0.00000000E+00  0.00000000E+00  0.00000000E+00
  0.00000000E+00  0.00000000E+00  0.00000000E+00
  0.00000000E+00  0.00000000E+00  0.00000000E+00
  0.00000000E+00  0.00000000E+00  0.00000000E+00
  0.00000000E+00  0.00000000E+00  0.00000000E+00
  0.00000000E+00  0.00000000E+00  0.00000000E+00
  0.00000000E+00  0.00000000E+00  0.00000000E+00
  0.00000000E+00  0.00000000E+00  0.00000000E+00
  0.00000000E+00  0.00000000E+00  0.00000000E+00
  0.00000000E+00  0.00000000E+00  0.00000000E+00
  0.00000000E+00  0.00000000E+00  0.00000000E+00
  0.00000000E+00  0.00000000E+00  0.00000000E+00
  0.00000000E+00  0.00000000E+00  0.00000000E+00
  0.00000000E+00  0.00000000E+00  0.00000000E+00
  0.00000000E+00  0.00000000E+00  0.00000000E+00
  0.00000000E+00  0.00000000E+00  0.00000000E+00
  0.00000000E+00  0.00000000E+00  0.00000000E+00
  0.00000000E+00  0.00000000E+00  0.00000000E+00
  0.00000000E+00  0.00000000E+00  0.00000000E+00
  0.00000000E+00  0.00000000E+00  0.00000000E+00
  0.00000000E+00  0.00000000E+00  0.00000000E+00
  0.00000000E+00  0.00000000E+00  0.00000000E+00
  0.00000000E+00  0.00000000E+00  0.00000000E+00
  0.00000000E+00  0.00000000E+00  0.00000000E+00
  0.00000000E+00  0.00000000E+00  0.00000000E+00
  0.00000000E+00  0.00000000E+00  0.00000000E+00
  0.00000000E+00  0.00000000E+00  0.00000000E+00
  0.00000000E+00  0.00000000E+00  0.00000000E+00
  0.00000000E+00  0.00000000E+00  0.00000000E+00
  0.00000000E+00  0.00000000E+00  0.00000000E+00
  0.00000000E+00  0.00000000E+00  0.00000000E+00
  0.00000000E+00  0.00000000E+00  0.00000000E+00
  0.00000000E+00  0.00000000E+00  0.00000000E+00
  0.00000000E+00  0.00000000E+00  0.00000000E+00
  0.00000000E+00  0.00000000E+00  0.00000000E+00
  0.00000000E+00  0.00000000E+00  0.00000000E+00
  0.00000000E+00  0.00000000E+00  0.00000000E+00
  0.00000000E+00  0.00000000E+00  0.00000000E+00
  0.00000000E+00  0.00000000E+00  0.00000000E+00
  0.00000000E+00  0.00000000E+00  0.00000000E+00
  0.00000000E+00  0.00000000E+00  0.00000000E+00
  0.00000000E+00  0.00000000E+00  0.00000000E+00
  0.00000000E+00  0.00000000E+00  0.00000000E+00
  0.00000000E+00  0.00000000E+00  0.00000000E+00
  0.00000000E+00  0.00000000E+00  0.00000000E+00
  0.00000000E+00  0.00000000E+00  0.00000000E+00
  0.00000000E+00  0.00000000E+00  0.00000000E+00
  0.00000000E+00  0.00000000E+00  0.00000000E+00
  0.00000000E+00  0.00000000E+00  0.00000000E+00
  0.00000000E+00  0.00000000E+00  0.00000000E+00
  0.00000000E+00  0.00000000E+00  0.00000000E+00
  0.00000000E+00  0.00000000E+00  0.00000000E+00
  0.00000000E+00  0.00000000E+00  0.00000000E+00
  0.00000000E+00  0.00000000E+00  0.00000000E+00
  0.00000000E+00  0.00000000E+00  0.00000000E+00
  0.00000000E+00  0.00000000E+00  0.00000000E+00
  0.00000000E+00  0.00000000E+00  0.00000000E+00
  0.00000000E+00  0.00000000E+00  0.00000000E+00
  0.00000000E+00  0.00000000E+00  0.00000000E+00
  0.00000000E+00  0.00000000E+00  0.00000000E+00
  0.00000000E+00  0.00000000E+00  0.00000000E+00
  0.00000000E+00  0.00000000E+00  0.00000000E+00
  0.00000000E+00  0.00000000E+00  0.00000000E+00
  0.00000000E+00  0.00000000E+00  0.00000000E+00
  0.00000000E+00  0.00000000E+00  0.00000000E+00
  0.00000000E+00  0.00000000E+00  0.00000000E+00
  0.00000000E+00  0.00000000E+00  0.00000000E+00
  0.00000000E+00  0.00000000E+00  0.00000000E+00
  0.00000000E+00  0.00000000E+00  0.00000000E+00
  0.00000000E+00  0.00000000E+00  0.00000000E+00
  0.00000000E+00  0.00000000E+00  0.00000000E+00
  0.00000000E+00  0.00000000E+00  0.00000000E+00
  0.00000000E+00  0.00000000E+00  0.00000000E+00
  0.00000000E+00  0.00000000E+00  0.00000000E+00
  0.00000000E+00  0.00000000E+00  0.00000000E+00
  0.00000000E+00  0.00000000E+00  0.00000000E+00
  0.00000000E+00  0.00000000E+00  0.00000000E+00
  0.00000000E+00  0.00000000E+00  0.00000000E+00
  0.00000000E+00  0.00000000E+00  0.00000000E+00
  0.00000000E+00  0.00000000E+00  0.00000000E+00
  0.00000000E+00  0.00000000E+00  0.00000000E+00
  0.00000000E+00  0.00000000E+00  0.00000000E+00
  0.00000000E+00  0.00000000E+00  0.00000000E+00
  0.00000000E+00  0.00000000E+00  0.00000000E+00
  0.00000000E+00  0.00000000E+00  0.00000000E+00
  0.00000000E+00  0.00000000E+00  0.00000000E+00
  0.00000000E+00  0.00000000E+00  0.00000000E+00
  0.00000000E+00  0.00000000E+00  0.00000000E+00
  0.00000000E+00  0.00000000E+00  0.00000000E+00
  0.00000000E+00  0.00000000E+00  0.00000000E+00
