V1 H1 C123 N3                           
   1.00000000000000     
    19.7959366897889737    0.0097894935169726    0.0068409077455453
    -9.8893879233474493   17.0225833885257067   -0.1201004427280350
     0.0103825810019311   -0.2044525991808464   29.8535668647087000
   V    H    C    N 
     1     1   123     3
Direct
  0.4373671321413519  0.5007651259022892  0.4270763072120971
  0.4408727878371180  0.4937425938894812  0.4832706101247345
  0.0419729265193865  0.0842111145215845  0.3999871306009369
  0.0411955204030387  0.2083811836549686  0.4001579776772269
  0.0406026501118407  0.3331584698463727  0.3999858891493885
  0.0407554589112302  0.4583192015703648  0.3995679260078641
  0.0415547641339919  0.5838264703748531  0.3995032432104401
  0.0422592570258824  0.7092849028215945  0.3997316300349064
  0.0424541772685420  0.8345002026846895  0.3998819739175200
  0.0423686593670839  0.9595778128549154  0.3998177441873980
  0.1677516802261284  0.0854835905670984  0.4002025066983098
  0.1675484095335344  0.2104272322800315  0.4006355514801847
  0.1654351117562181  0.3338240717645126  0.4010281024527368
  0.1647761415590256  0.4585381277530046  0.4000848691489132
  0.1655077979703106  0.5836646708916104  0.3996249343169284
  0.1666066842186557  0.7089826028749755  0.3995030722360569
  0.1671882825116187  0.8344657534914488  0.3995963319585067
  0.1674919624392791  0.9600062507643039  0.3997939623289840
  0.2926061715297918  0.0858439081600592  0.4001387177162655
  0.2931831840623694  0.2125698339663711  0.4012383746123793
  0.2928273294632208  0.3384410797789646  0.4031094208696314
  0.2885085385027018  0.4581699971065133  0.4020619245782765
  0.2890728404790162  0.5828281750115363  0.3999234505357348
  0.2909305846619055  0.7082308917920525  0.3997342196598588
  0.2918175746770136  0.8338875208762049  0.3996680276072799
  0.2922420491619887  0.9596545493886559  0.3996800074244827
  0.4171096806473405  0.0844403767416118  0.3998111624150189
  0.4176987900114543  0.2108734857047001  0.4004331997099285
  0.4193593526896868  0.3389373911797132  0.4022531098903202
  0.4150385154941711  0.7055367144278683  0.4001253140760029
  0.4162559972599454  0.8320706519783023  0.3999332049706476
  0.4168063051731317  0.9583275840471742  0.3997780597505208
  0.5416310574981709  0.0828717313919852  0.3998036492715542
  0.5421000821920591  0.2087738122381290  0.3998212893134322
  0.5430405398507507  0.3344995456128436  0.4000601600195243
  0.5459633705894611  0.4599312474342646  0.4011648805457939
  0.5385071531544471  0.7017125507735580  0.4017054543940662
  0.5405728477855224  0.8301630317768768  0.4003292926697568
  0.5411920955354125  0.9567740636657166  0.4000443662707501
  0.6661837189328403  0.0821724525420807  0.3999664806029625
  0.6665844690053774  0.2077451607805647  0.3997379358837304
  0.6674175531080027  0.3332712735565984  0.3995757908716807
  0.6692437199570600  0.4588320647720441  0.3994826566356117
  0.6701006560926646  0.5840154595294927  0.4000629367841837
  0.6662070935623575  0.7061021469419583  0.4005685325627042
  0.6647306332717162  0.8303167389750852  0.4003778451779189
  0.6656424566303254  0.9563788626994167  0.4001464854606434
  0.7908522988826895  0.0821388657024907  0.3997479687740245
  0.7911745512121374  0.2075095037134554  0.3997339341091686
  0.7917726908529692  0.3329375202099266  0.3995930796806056
  0.7928023430495621  0.4584275751497961  0.3995004853730140
  0.7936158044905474  0.5838520097477826  0.3994302235430822
  0.7930815761877802  0.7088567409523322  0.3997707869707184
  0.7910936303193112  0.8323819758604941  0.3998322597713196
  0.7905411613941585  0.9568350019144473  0.3998841856538519
  0.9160274080536949  0.0827802574410170  0.3998017453324748
  0.9159218313509975  0.2076691522954309  0.3997502298526728
  0.9160907148166579  0.3328923458159186  0.3995435081055547
  0.9167810515706329  0.4583899724777063  0.3995226943738769
  0.9175721861101853  0.5839024008966867  0.3996995125891050
  0.9177030218787431  0.7091298008195986  0.3998793490753019
  0.9173543678961066  0.8340875856259884  0.3998178520082026
  0.9165304537232388  0.9583442509033443  0.3997701308345288
  0.0842264459706498  0.0432096133672170  0.3999644339631407
  0.0838217221517070  0.1678559199106280  0.4002128960319223
  0.0825447451605320  0.2918175193287831  0.4003614155336649
  0.0819160530976735  0.4164862256308616  0.3998331138352249
  0.0825706057167294  0.5418897255591175  0.3995252934799399
  0.0834863923421772  0.6673724011435155  0.3995267080360003
  0.0839635001178486  0.7927729116849218  0.3997739449274719
  0.0841783466566906  0.9180853118638486  0.3998246969378649
  0.2092461991495969  0.0437077401497093  0.4000542419915748
  0.2096878644912351  0.1693927297281159  0.4006902509270457
  0.2090364515878669  0.2942331135934342  0.4013787842226738
  0.2062619311003288  0.4170925961729877  0.4009319510361704
  0.2062448223943809  0.5415373792066982  0.3998663579357405
  0.2076619359969779  0.6669864600285136  0.3995995746893711
  0.2085719029492826  0.7925444728875929  0.3995386722873313
  0.2089662301052987  0.9180734488841905  0.3996464906614267
  0.3339056064758393  0.0434214113187158  0.3998588158170169
  0.3342925360640432  0.1697768790548875  0.4006011027277460
  0.3351923670992062  0.2971047737417840  0.4025374109223306
  0.3301038842808338  0.5415532557322573  0.4007979847137350
  0.3318171570748983  0.6660389045606273  0.3998187217862629
  0.3330752803642861  0.7916224587014077  0.3998064870306451
  0.3335499204301126  0.9174031564656455  0.3996803027356097
  0.4583995682747924  0.0419382202129627  0.3997474688419944
  0.4587972620025643  0.1681529219391795  0.3999730082645470
  0.4596894068248863  0.2946844116518914  0.4007360512543350
  0.4637285514094088  0.4220908900993567  0.4037752479295884
  0.4542700489810453  0.6606467259989862  0.4012559467288770
  0.4573465348563557  0.7892913220431937  0.4000752172570980
  0.4580152077264350  0.9158020545929744  0.3999172988370686
  0.5828997732092513  0.0405568874192772  0.3999608062947216
  0.5833884192710529  0.1664783234139482  0.3997805102828594
  0.5841179507635301  0.2921300611850952  0.3997241654983001
  0.5864153503050626  0.4178150384283092  0.3999769918454372
  0.5885097857769194  0.5432988963851062  0.4015582288120513
  0.5821780981418797  0.6612091510406880  0.4022801687808523
  0.5809927444438789  0.7868707829952521  0.4007615993360814
  0.5824014011041224  0.9142629614962056  0.4001972167284036
  0.7075441751746451  0.0401686042480643  0.3999600402737732
  0.7079653621236043  0.1657866840638028  0.3998212246136514
  0.7085746478632018  0.2913221854978785  0.3996355598588761
  0.7099000650890762  0.4166994227247158  0.3994482358560359
  0.7110130516550048  0.5419151722016147  0.3994147975387715
  0.7102391160106852  0.6670049926773581  0.4001267987568637
  0.7073395109597816  0.7897491045675815  0.4001309637822366
  0.7068794052522792  0.9143472769302350  0.4001300065089210
  0.8325333415910084  0.0405608688803909  0.3997556869325077
  0.8326994461300449  0.1657775103748327  0.3997017939387825
  0.8329955129901145  0.2910214859403114  0.3996011248605333
  0.8338050435439958  0.4164627579659194  0.3995597473464604
  0.8347126847501286  0.5419911971655533  0.3995391546259285
  0.8348052471468072  0.6672905031766050  0.3996938954704795
  0.8340185400128064  0.7920616409879961  0.3997901663430334
  0.8328764543582606  0.9159825860504310  0.3997988054908583
  0.9583726829566892  0.0418850304167961  0.3998490199594599
  0.9578051981846887  0.1662872110086523  0.3998765952596321
  0.9575982862734486  0.2912480127851916  0.3997268073084211
  0.9578234282375095  0.4164455953647847  0.3994989085729865
  0.9586124144010061  0.5419221083904866  0.3995933548530499
  0.9592114363755370  0.6674202601468140  0.3998219410309621
  0.9592249206168585  0.7926917571120154  0.3999094863265517
  0.9589434263747064  0.9175219406708239  0.3997663107101140
  0.4107637218019785  0.5796135861846189  0.4022817312119237
  0.5454687100743885  0.5805233332750303  0.4046168544046745
  0.3312253094788287  0.4201464726887484  0.4056527501711040
 
  0.00000000E+00  0.00000000E+00  0.00000000E+00
  0.00000000E+00  0.00000000E+00  0.00000000E+00
  0.00000000E+00  0.00000000E+00  0.00000000E+00
  0.00000000E+00  0.00000000E+00  0.00000000E+00
  0.00000000E+00  0.00000000E+00  0.00000000E+00
  0.00000000E+00  0.00000000E+00  0.00000000E+00
  0.00000000E+00  0.00000000E+00  0.00000000E+00
  0.00000000E+00  0.00000000E+00  0.00000000E+00
  0.00000000E+00  0.00000000E+00  0.00000000E+00
  0.00000000E+00  0.00000000E+00  0.00000000E+00
  0.00000000E+00  0.00000000E+00  0.00000000E+00
  0.00000000E+00  0.00000000E+00  0.00000000E+00
  0.00000000E+00  0.00000000E+00  0.00000000E+00
  0.00000000E+00  0.00000000E+00  0.00000000E+00
  0.00000000E+00  0.00000000E+00  0.00000000E+00
  0.00000000E+00  0.00000000E+00  0.00000000E+00
  0.00000000E+00  0.00000000E+00  0.00000000E+00
  0.00000000E+00  0.00000000E+00  0.00000000E+00
  0.00000000E+00  0.00000000E+00  0.00000000E+00
  0.00000000E+00  0.00000000E+00  0.00000000E+00
  0.00000000E+00  0.00000000E+00  0.00000000E+00
  0.00000000E+00  0.00000000E+00  0.00000000E+00
  0.00000000E+00  0.00000000E+00  0.00000000E+00
  0.00000000E+00  0.00000000E+00  0.00000000E+00
  0.00000000E+00  0.00000000E+00  0.00000000E+00
  0.00000000E+00  0.00000000E+00  0.00000000E+00
  0.00000000E+00  0.00000000E+00  0.00000000E+00
  0.00000000E+00  0.00000000E+00  0.00000000E+00
  0.00000000E+00  0.00000000E+00  0.00000000E+00
  0.00000000E+00  0.00000000E+00  0.00000000E+00
  0.00000000E+00  0.00000000E+00  0.00000000E+00
  0.00000000E+00  0.00000000E+00  0.00000000E+00
  0.00000000E+00  0.00000000E+00  0.00000000E+00
  0.00000000E+00  0.00000000E+00  0.00000000E+00
  0.00000000E+00  0.00000000E+00  0.00000000E+00
  0.00000000E+00  0.00000000E+00  0.00000000E+00
  0.00000000E+00  0.00000000E+00  0.00000000E+00
  0.00000000E+00  0.00000000E+00  0.00000000E+00
  0.00000000E+00  0.00000000E+00  0.00000000E+00
  0.00000000E+00  0.00000000E+00  0.00000000E+00
  0.00000000E+00  0.00000000E+00  0.00000000E+00
  0.00000000E+00  0.00000000E+00  0.00000000E+00
  0.00000000E+00  0.00000000E+00  0.00000000E+00
  0.00000000E+00  0.00000000E+00  0.00000000E+00
  0.00000000E+00  0.00000000E+00  0.00000000E+00
  0.00000000E+00  0.00000000E+00  0.00000000E+00
  0.00000000E+00  0.00000000E+00  0.00000000E+00
  0.00000000E+00  0.00000000E+00  0.00000000E+00
  0.00000000E+00  0.00000000E+00  0.00000000E+00
  0.00000000E+00  0.00000000E+00  0.00000000E+00
  0.00000000E+00  0.00000000E+00  0.00000000E+00
  0.00000000E+00  0.00000000E+00  0.00000000E+00
  0.00000000E+00  0.00000000E+00  0.00000000E+00
  0.00000000E+00  0.00000000E+00  0.00000000E+00
  0.00000000E+00  0.00000000E+00  0.00000000E+00
  0.00000000E+00  0.00000000E+00  0.00000000E+00
  0.00000000E+00  0.00000000E+00  0.00000000E+00
  0.00000000E+00  0.00000000E+00  0.00000000E+00
  0.00000000E+00  0.00000000E+00  0.00000000E+00
  0.00000000E+00  0.00000000E+00  0.00000000E+00
  0.00000000E+00  0.00000000E+00  0.00000000E+00
  0.00000000E+00  0.00000000E+00  0.00000000E+00
  0.00000000E+00  0.00000000E+00  0.00000000E+00
  0.00000000E+00  0.00000000E+00  0.00000000E+00
  0.00000000E+00  0.00000000E+00  0.00000000E+00
  0.00000000E+00  0.00000000E+00  0.00000000E+00
  0.00000000E+00  0.00000000E+00  0.00000000E+00
  0.00000000E+00  0.00000000E+00  0.00000000E+00
  0.00000000E+00  0.00000000E+00  0.00000000E+00
  0.00000000E+00  0.00000000E+00  0.00000000E+00
  0.00000000E+00  0.00000000E+00  0.00000000E+00
  0.00000000E+00  0.00000000E+00  0.00000000E+00
  0.00000000E+00  0.00000000E+00  0.00000000E+00
  0.00000000E+00  0.00000000E+00  0.00000000E+00
  0.00000000E+00  0.00000000E+00  0.00000000E+00
  0.00000000E+00  0.00000000E+00  0.00000000E+00
  0.00000000E+00  0.00000000E+00  0.00000000E+00
  0.00000000E+00  0.00000000E+00  0.00000000E+00
  0.00000000E+00  0.00000000E+00  0.00000000E+00
  0.00000000E+00  0.00000000E+00  0.00000000E+00
  0.00000000E+00  0.00000000E+00  0.00000000E+00
  0.00000000E+00  0.00000000E+00  0.00000000E+00
  0.00000000E+00  0.00000000E+00  0.00000000E+00
  0.00000000E+00  0.00000000E+00  0.00000000E+00
  0.00000000E+00  0.00000000E+00  0.00000000E+00
  0.00000000E+00  0.00000000E+00  0.00000000E+00
  0.00000000E+00  0.00000000E+00  0.00000000E+00
  0.00000000E+00  0.00000000E+00  0.00000000E+00
  0.00000000E+00  0.00000000E+00  0.00000000E+00
  0.00000000E+00  0.00000000E+00  0.00000000E+00
  0.00000000E+00  0.00000000E+00  0.00000000E+00
  0.00000000E+00  0.00000000E+00  0.00000000E+00
  0.00000000E+00  0.00000000E+00  0.00000000E+00
  0.00000000E+00  0.00000000E+00  0.00000000E+00
  0.00000000E+00  0.00000000E+00  0.00000000E+00
  0.00000000E+00  0.00000000E+00  0.00000000E+00
  0.00000000E+00  0.00000000E+00  0.00000000E+00
  0.00000000E+00  0.00000000E+00  0.00000000E+00
  0.00000000E+00  0.00000000E+00  0.00000000E+00
  0.00000000E+00  0.00000000E+00  0.00000000E+00
  0.00000000E+00  0.00000000E+00  0.00000000E+00
  0.00000000E+00  0.00000000E+00  0.00000000E+00
  0.00000000E+00  0.00000000E+00  0.00000000E+00
  0.00000000E+00  0.00000000E+00  0.00000000E+00
  0.00000000E+00  0.00000000E+00  0.00000000E+00
  0.00000000E+00  0.00000000E+00  0.00000000E+00
  0.00000000E+00  0.00000000E+00  0.00000000E+00
  0.00000000E+00  0.00000000E+00  0.00000000E+00
  0.00000000E+00  0.00000000E+00  0.00000000E+00
  0.00000000E+00  0.00000000E+00  0.00000000E+00
  0.00000000E+00  0.00000000E+00  0.00000000E+00
  0.00000000E+00  0.00000000E+00  0.00000000E+00
  0.00000000E+00  0.00000000E+00  0.00000000E+00
  0.00000000E+00  0.00000000E+00  0.00000000E+00
  0.00000000E+00  0.00000000E+00  0.00000000E+00
  0.00000000E+00  0.00000000E+00  0.00000000E+00
  0.00000000E+00  0.00000000E+00  0.00000000E+00
  0.00000000E+00  0.00000000E+00  0.00000000E+00
  0.00000000E+00  0.00000000E+00  0.00000000E+00
  0.00000000E+00  0.00000000E+00  0.00000000E+00
  0.00000000E+00  0.00000000E+00  0.00000000E+00
  0.00000000E+00  0.00000000E+00  0.00000000E+00
  0.00000000E+00  0.00000000E+00  0.00000000E+00
  0.00000000E+00  0.00000000E+00  0.00000000E+00
  0.00000000E+00  0.00000000E+00  0.00000000E+00
  0.00000000E+00  0.00000000E+00  0.00000000E+00
  0.00000000E+00  0.00000000E+00  0.00000000E+00
  0.00000000E+00  0.00000000E+00  0.00000000E+00
