Ru1 C126 O1                             
   1.00000000000000     
    19.8176885795035034   -0.0001166558446228   -0.0579729954785392
    -9.9089852407961843   17.0584292799687063   -0.0693229579494910
    -0.0870650307515380   -0.1714837665234457   29.7666294810309537
   Ru   C    O 
     1   126     1
Direct
  0.4385460055969287  0.5009057333314798  0.4308434961972430
  0.0420666924550017  0.0841785535912492  0.3996495072333822
  0.0409008692398586  0.2080546516144155  0.3995234404171342
  0.0403311165029946  0.3326875676290527  0.3993483234889392
  0.0404521654897145  0.4583340945612864  0.3994647886869144
  0.0414139520199535  0.5839455690829345  0.3999287918304696
  0.0422387815924754  0.7093427507542907  0.4001041815306425
  0.0426056598256805  0.8347218572483388  0.4000874902981140
  0.0426101122092137  0.9597099635431550  0.3998627060764445
  0.1678211526395841  0.0855503526496339  0.3998859490881955
  0.1673415057430588  0.2100845782321414  0.4001806486156531
  0.1652363849452694  0.3333163858462197  0.3999283085672419
  0.1638874980431681  0.4583069258460186  0.3990492374917216
  0.1650549680907681  0.5836738912839839  0.3990888623341190
  0.1665307813343798  0.7093010179992547  0.3996955494668640
  0.1672585675259780  0.8347670098836809  0.4000687188129696
  0.1676776251399177  0.9602152190759284  0.3998919533136802
  0.2928070656304286  0.0855435696489544  0.3998817455769614
  0.2935721110485006  0.2120617980057968  0.4012765023639334
  0.2931512376369477  0.3375081216148690  0.4034313312165015
  0.2866964229285531  0.4579408193235193  0.4024212154894517
  0.2884885499804486  0.5838631595303386  0.3994834662279058
  0.2907861332336040  0.7089645534835819  0.3992747296653746
  0.2916936717580178  0.8341743995134544  0.3997401142147792
  0.2922875689547401  0.9597512048419854  0.3998550556378857
  0.4172958343230216  0.0842205033929629  0.3996625788261393
  0.4178214409067135  0.2100887516284422  0.4000499011016545
  0.4194901438727562  0.3375201036099829  0.4030080680058738
  0.4101070496171304  0.5802312854010829  0.4057384872236422
  0.4151676287454100  0.7064703100258274  0.4001729309982612
  0.4161696602001592  0.8326620444023076  0.3995743515320215
  0.4167673684898514  0.9584509642307895  0.3998082795862681
  0.5417157846066393  0.0826764365495849  0.3998396973929960
  0.5422732215195095  0.2080992630352454  0.3995972702672637
  0.5431634022223322  0.3333201498563272  0.3996044670600556
  0.5463166188731973  0.4579178221799756  0.4015390752245250
  0.5452589460339043  0.5801755026352523  0.4050740148891764
  0.5399497923212240  0.7047865846857808  0.4023380845906203
  0.5404854035074795  0.8310625727009131  0.4001329168993192
  0.5412096928466928  0.9570076913777060  0.3998538337459597
  0.6661796972000423  0.0819530010902915  0.4000138474051415
  0.6666990606379256  0.2074110086179674  0.3998620628542345
  0.6674304062751137  0.3327052381222095  0.3994647023054361
  0.6694929019412080  0.4582985268899090  0.3988380092464656
  0.6704309657252301  0.5838328091215707  0.3989306682844701
  0.6663602825122997  0.7064300660497933  0.3998183319546130
  0.6656159279636974  0.8310474793406933  0.4000399967788321
  0.6657845045360441  0.9564870934266010  0.3999476519457724
  0.7909150953075932  0.0819150729282624  0.4000392233388617
  0.7911753152558236  0.2071902375954783  0.4001797982497127
  0.7918133179427960  0.3327212013059189  0.3999859141082290
  0.7929516298612659  0.4583300750900180  0.3996691482252596
  0.7936580093255929  0.5836317180550192  0.3992043916496241
  0.7932291487157823  0.7089180735943212  0.3992527215683719
  0.7915532176485377  0.8326128641285440  0.3995534097137483
  0.7908881261915854  0.9569593491523382  0.3998611695710594
  0.9161132477688447  0.0826150892997888  0.3998015317049733
  0.9158186165114672  0.2073931038805975  0.3998186296730489
  0.9160192681673621  0.3327326351032437  0.3999436408928365
  0.9166768841721423  0.4582408553926519  0.4001069142278164
  0.9176312280075924  0.5839322081375048  0.4000115805231069
  0.9178230088541105  0.7092506244867544  0.3998096794803127
  0.9175542027774726  0.8341263522077998  0.3998607199738743
  0.9168343039301609  0.9583858523740938  0.3998684481400768
  0.0843108745666593  0.0432314724989134  0.3997276560517629
  0.0836203634390551  0.1675748422414203  0.3996100153663014
  0.0819533704958253  0.2912320029050974  0.3994348090094822
  0.0814891543217046  0.4165093906007007  0.3991437705235497
  0.0822263360793578  0.5419013505120925  0.3994693453527685
  0.0834089735210104  0.6675485740473335  0.3999486688363662
  0.0841100957354999  0.7930844094888022  0.4001350268582349
  0.0843192376454744  0.9182688749037361  0.3999791841215836
  0.2094046019465345  0.0437217903628268  0.3998403696410067
  0.2095546994953450  0.1691892190329306  0.4004429636398043
  0.2088292442810626  0.2937664495728022  0.4008508022262213
  0.2047422136943875  0.4163430207621967  0.3998276288520411
  0.2056587340660750  0.5418741899908290  0.3989590988215443
  0.2076963361684922  0.6674901953918748  0.3992913243336959
  0.2085228227266419  0.7928080508725508  0.3998521278655959
  0.2091326409524653  0.9183137645927335  0.3999879746318357
  0.3340681182376615  0.0432732706959356  0.3997372124922071
  0.3347008180019682  0.1691888192818639  0.4003757766944694
  0.3353531690161025  0.2955671888908636  0.4032356564427133
  0.3300785567313559  0.4202596164684849  0.4062899247808030
  0.3289412285532402  0.5424053969940559  0.4021503905311077
  0.3319951989509534  0.6668936237226755  0.3994626391807721
  0.3329539251041924  0.7921586944262182  0.3995261157222265
  0.3336300785845260  0.9176155661568067  0.3998186505750875
  0.4586117910681952  0.0419069495528378  0.3997881588198500
  0.4590854423740963  0.1676110844981205  0.3996132557431599
  0.4600287653756809  0.2937713716793259  0.4004867005494562
  0.4653503849368702  0.4202968395392466  0.4055743846886001
  0.4558249684310489  0.6628414951937205  0.4025957981303938
  0.4573736524278652  0.7901421360032390  0.3997989098080335
  0.4580186291949259  0.9160853015010977  0.3997498433372287
  0.5830401540211139  0.0405241349431574  0.3999181109455150
  0.5835515966526804  0.1660865335155134  0.3997529212621027
  0.5843653566033312  0.2912586758991116  0.3994311121150113
  0.5866720350138855  0.4163323337975411  0.3992694055661174
  0.5885283967650191  0.5423662559268337  0.4012954449571763
  0.5821156943077083  0.6628127897553915  0.4022107807681556
  0.5816340881291425  0.7882210559872329  0.4006742107255387
  0.5823829715332437  0.9146847341810123  0.3999302399262951
  0.7075627492523060  0.0399913397224856  0.3999864532290161
  0.7080262226443563  0.1654940185844141  0.4000798627742116
  0.7086328939381427  0.2909093324668205  0.3997767008576676
  0.7100925707654178  0.4165186961373761  0.3992667354164665
  0.7112692977738053  0.5418410274726319  0.3987415343005159
  0.7099628426625021  0.6668579452446298  0.3991390153722159
  0.7078003172348353  0.7901128138585025  0.3996457246645032
  0.7073644061924441  0.9146772317393063  0.3999050307993828
  0.8326274782475456  0.0404763576371973  0.3999240160968722
  0.8326009115798700  0.1654657909881962  0.4000879561602781
  0.8330425745907919  0.2909528375753607  0.4001261250937352
  0.8338378584373765  0.4163578433207999  0.4000009109888016
  0.8347456408856319  0.5418845137674351  0.3996631351599715
  0.8348227481010184  0.6674382378638781  0.3994098905358351
  0.8342596541709018  0.7921096206939653  0.3995699714018369
  0.8331824948786000  0.9160324253333828  0.3997838601995557
  0.9584621010306323  0.0418427213855766  0.3997810506877288
  0.9576257119441447  0.1660365300128560  0.3996632820040933
  0.9573552451543833  0.2909050773214141  0.3996715212881377
  0.9576107620833640  0.4163620661312186  0.3999088708935072
  0.9586269802456941  0.5421206215217905  0.4001218920246705
  0.9592516681725056  0.6675382584436067  0.4000012430427669
  0.9593468410192543  0.7927507057128108  0.3999354393398067
  0.9591307867547278  0.9175638718820839  0.3999135575331989
  0.4403445682084933  0.5021393795560433  0.4871285472392092
 
  0.00000000E+00  0.00000000E+00  0.00000000E+00
  0.00000000E+00  0.00000000E+00  0.00000000E+00
  0.00000000E+00  0.00000000E+00  0.00000000E+00
  0.00000000E+00  0.00000000E+00  0.00000000E+00
  0.00000000E+00  0.00000000E+00  0.00000000E+00
  0.00000000E+00  0.00000000E+00  0.00000000E+00
  0.00000000E+00  0.00000000E+00  0.00000000E+00
  0.00000000E+00  0.00000000E+00  0.00000000E+00
  0.00000000E+00  0.00000000E+00  0.00000000E+00
  0.00000000E+00  0.00000000E+00  0.00000000E+00
  0.00000000E+00  0.00000000E+00  0.00000000E+00
  0.00000000E+00  0.00000000E+00  0.00000000E+00
  0.00000000E+00  0.00000000E+00  0.00000000E+00
  0.00000000E+00  0.00000000E+00  0.00000000E+00
  0.00000000E+00  0.00000000E+00  0.00000000E+00
  0.00000000E+00  0.00000000E+00  0.00000000E+00
  0.00000000E+00  0.00000000E+00  0.00000000E+00
  0.00000000E+00  0.00000000E+00  0.00000000E+00
  0.00000000E+00  0.00000000E+00  0.00000000E+00
  0.00000000E+00  0.00000000E+00  0.00000000E+00
  0.00000000E+00  0.00000000E+00  0.00000000E+00
  0.00000000E+00  0.00000000E+00  0.00000000E+00
  0.00000000E+00  0.00000000E+00  0.00000000E+00
  0.00000000E+00  0.00000000E+00  0.00000000E+00
  0.00000000E+00  0.00000000E+00  0.00000000E+00
  0.00000000E+00  0.00000000E+00  0.00000000E+00
  0.00000000E+00  0.00000000E+00  0.00000000E+00
  0.00000000E+00  0.00000000E+00  0.00000000E+00
  0.00000000E+00  0.00000000E+00  0.00000000E+00
  0.00000000E+00  0.00000000E+00  0.00000000E+00
  0.00000000E+00  0.00000000E+00  0.00000000E+00
  0.00000000E+00  0.00000000E+00  0.00000000E+00
  0.00000000E+00  0.00000000E+00  0.00000000E+00
  0.00000000E+00  0.00000000E+00  0.00000000E+00
  0.00000000E+00  0.00000000E+00  0.00000000E+00
  0.00000000E+00  0.00000000E+00  0.00000000E+00
  0.00000000E+00  0.00000000E+00  0.00000000E+00
  0.00000000E+00  0.00000000E+00  0.00000000E+00
  0.00000000E+00  0.00000000E+00  0.00000000E+00
  0.00000000E+00  0.00000000E+00  0.00000000E+00
  0.00000000E+00  0.00000000E+00  0.00000000E+00
  0.00000000E+00  0.00000000E+00  0.00000000E+00
  0.00000000E+00  0.00000000E+00  0.00000000E+00
  0.00000000E+00  0.00000000E+00  0.00000000E+00
  0.00000000E+00  0.00000000E+00  0.00000000E+00
  0.00000000E+00  0.00000000E+00  0.00000000E+00
  0.00000000E+00  0.00000000E+00  0.00000000E+00
  0.00000000E+00  0.00000000E+00  0.00000000E+00
  0.00000000E+00  0.00000000E+00  0.00000000E+00
  0.00000000E+00  0.00000000E+00  0.00000000E+00
  0.00000000E+00  0.00000000E+00  0.00000000E+00
  0.00000000E+00  0.00000000E+00  0.00000000E+00
  0.00000000E+00  0.00000000E+00  0.00000000E+00
  0.00000000E+00  0.00000000E+00  0.00000000E+00
  0.00000000E+00  0.00000000E+00  0.00000000E+00
  0.00000000E+00  0.00000000E+00  0.00000000E+00
  0.00000000E+00  0.00000000E+00  0.00000000E+00
  0.00000000E+00  0.00000000E+00  0.00000000E+00
  0.00000000E+00  0.00000000E+00  0.00000000E+00
  0.00000000E+00  0.00000000E+00  0.00000000E+00
  0.00000000E+00  0.00000000E+00  0.00000000E+00
  0.00000000E+00  0.00000000E+00  0.00000000E+00
  0.00000000E+00  0.00000000E+00  0.00000000E+00
  0.00000000E+00  0.00000000E+00  0.00000000E+00
  0.00000000E+00  0.00000000E+00  0.00000000E+00
  0.00000000E+00  0.00000000E+00  0.00000000E+00
  0.00000000E+00  0.00000000E+00  0.00000000E+00
  0.00000000E+00  0.00000000E+00  0.00000000E+00
  0.00000000E+00  0.00000000E+00  0.00000000E+00
  0.00000000E+00  0.00000000E+00  0.00000000E+00
  0.00000000E+00  0.00000000E+00  0.00000000E+00
  0.00000000E+00  0.00000000E+00  0.00000000E+00
  0.00000000E+00  0.00000000E+00  0.00000000E+00
  0.00000000E+00  0.00000000E+00  0.00000000E+00
  0.00000000E+00  0.00000000E+00  0.00000000E+00
  0.00000000E+00  0.00000000E+00  0.00000000E+00
  0.00000000E+00  0.00000000E+00  0.00000000E+00
  0.00000000E+00  0.00000000E+00  0.00000000E+00
  0.00000000E+00  0.00000000E+00  0.00000000E+00
  0.00000000E+00  0.00000000E+00  0.00000000E+00
  0.00000000E+00  0.00000000E+00  0.00000000E+00
  0.00000000E+00  0.00000000E+00  0.00000000E+00
  0.00000000E+00  0.00000000E+00  0.00000000E+00
  0.00000000E+00  0.00000000E+00  0.00000000E+00
  0.00000000E+00  0.00000000E+00  0.00000000E+00
  0.00000000E+00  0.00000000E+00  0.00000000E+00
  0.00000000E+00  0.00000000E+00  0.00000000E+00
  0.00000000E+00  0.00000000E+00  0.00000000E+00
  0.00000000E+00  0.00000000E+00  0.00000000E+00
  0.00000000E+00  0.00000000E+00  0.00000000E+00
  0.00000000E+00  0.00000000E+00  0.00000000E+00
  0.00000000E+00  0.00000000E+00  0.00000000E+00
  0.00000000E+00  0.00000000E+00  0.00000000E+00
  0.00000000E+00  0.00000000E+00  0.00000000E+00
  0.00000000E+00  0.00000000E+00  0.00000000E+00
  0.00000000E+00  0.00000000E+00  0.00000000E+00
  0.00000000E+00  0.00000000E+00  0.00000000E+00
  0.00000000E+00  0.00000000E+00  0.00000000E+00
  0.00000000E+00  0.00000000E+00  0.00000000E+00
  0.00000000E+00  0.00000000E+00  0.00000000E+00
  0.00000000E+00  0.00000000E+00  0.00000000E+00
  0.00000000E+00  0.00000000E+00  0.00000000E+00
  0.00000000E+00  0.00000000E+00  0.00000000E+00
  0.00000000E+00  0.00000000E+00  0.00000000E+00
  0.00000000E+00  0.00000000E+00  0.00000000E+00
  0.00000000E+00  0.00000000E+00  0.00000000E+00
  0.00000000E+00  0.00000000E+00  0.00000000E+00
  0.00000000E+00  0.00000000E+00  0.00000000E+00
  0.00000000E+00  0.00000000E+00  0.00000000E+00
  0.00000000E+00  0.00000000E+00  0.00000000E+00
  0.00000000E+00  0.00000000E+00  0.00000000E+00
  0.00000000E+00  0.00000000E+00  0.00000000E+00
  0.00000000E+00  0.00000000E+00  0.00000000E+00
  0.00000000E+00  0.00000000E+00  0.00000000E+00
  0.00000000E+00  0.00000000E+00  0.00000000E+00
  0.00000000E+00  0.00000000E+00  0.00000000E+00
  0.00000000E+00  0.00000000E+00  0.00000000E+00
  0.00000000E+00  0.00000000E+00  0.00000000E+00
  0.00000000E+00  0.00000000E+00  0.00000000E+00
  0.00000000E+00  0.00000000E+00  0.00000000E+00
  0.00000000E+00  0.00000000E+00  0.00000000E+00
  0.00000000E+00  0.00000000E+00  0.00000000E+00
  0.00000000E+00  0.00000000E+00  0.00000000E+00
  0.00000000E+00  0.00000000E+00  0.00000000E+00
  0.00000000E+00  0.00000000E+00  0.00000000E+00
  0.00000000E+00  0.00000000E+00  0.00000000E+00
  0.00000000E+00  0.00000000E+00  0.00000000E+00
  0.00000000E+00  0.00000000E+00  0.00000000E+00
