Fe1 H1 C126                             
   1.00000000000000     
    19.7982107508141532   -0.0000738721359313    0.1434549506176504
    -9.8993142650250991   17.0731998885656040   -0.1144804664790952
     0.2163467001191792   -0.0745978027196974   29.7706083004175710
   Fe   H    C 
     1     1   126
Direct
  0.4370598907024111  0.5003636959348554  0.4172092047313503
  0.4652333189849738  0.5028663566165572  0.4645070965806868
  0.0417107419710739  0.0839442774219007  0.3999285357263838
  0.0409028823565920  0.2081762856931554  0.4000159213017793
  0.0405054545263098  0.3329159207681168  0.4001659130487200
  0.0405541011741429  0.4583322575863289  0.4003044310418697
  0.0411910197340468  0.5836897302065162  0.4001326813265503
  0.0418019342944824  0.7090021391293281  0.3999697095787915
  0.0420998698862514  0.8343479468099080  0.3998940540759675
  0.0421341782774864  0.9593630099711541  0.3997866889769562
  0.1672595251784505  0.0848962178135618  0.4000653460967137
  0.1668528650574571  0.2095079037806106  0.4003389578883412
  0.1654344361845101  0.3332726878720425  0.4000983804449356
  0.1644960740176479  0.4583003526345061  0.4002995279559824
  0.1652842919982345  0.5835447295922862  0.4003037647565837
  0.1663205751095183  0.7089737243861360  0.4000739107762884
  0.1668069844232514  0.8342842681393337  0.3999237527441795
  0.1671376463012355  0.9596264444629033  0.3998422557289801
  0.2922476622433055  0.0848039006451886  0.4002046998104291
  0.2927890001112188  0.2108767410227827  0.4013769683705881
  0.2924712195350679  0.3363529553613999  0.4010730228293338
  0.2880842313986858  0.4576983053243592  0.3991669197031777
  0.2892988415483151  0.5837648369866482  0.3999718607820427
  0.2908218024956656  0.7087611374541948  0.4000533021162982
  0.2913982541056360  0.8338474992592607  0.3999124828520254
  0.2918208595217632  0.9592256490916337  0.3997343757870321
  0.4168080586243043  0.0837450617958945  0.3997675121539497
  0.4172621903805532  0.2093244619717598  0.4010102479965660
  0.4183692468125321  0.3358439498920603  0.4053504829381844
  0.4124205430276949  0.5811337073202183  0.4001313784668600
  0.4154231532080293  0.7071201027742198  0.4002664764261306
  0.4160642752930588  0.8328465721589847  0.4000577956481782
  0.4164260540252100  0.9582741136411274  0.3998096442845675
  0.5413936845305879  0.0827163053660679  0.3996854923019355
  0.5418568659229314  0.2080231657785898  0.3997282570641003
  0.5425281681453051  0.3331830781441817  0.4013130420616787
  0.5445788121273941  0.4577860006715151  0.4057501855300780
  0.5445482764729916  0.5820345692474833  0.4098032792035508
  0.5403004046454511  0.7059187437014744  0.4027308322880679
  0.5406160554305441  0.8317316920719849  0.4003207627614795
  0.5410421614009467  0.9573078674844856  0.3999015514866362
  0.6660492360496922  0.0823108086533113  0.3999043271733588
  0.6664390684525262  0.2076053285360470  0.3996170751268850
  0.6670359817612485  0.3328630676322984  0.3992845518244952
  0.6684033751820158  0.4583169360086476  0.3996048424734916
  0.6690414067160884  0.5837240908516568  0.4012943995332622
  0.6665504953115856  0.7073293613707131  0.4022285309324262
  0.6658299994618159  0.8318302607325568  0.4008161984983116
  0.6658359733614900  0.9570452354930015  0.4000007819936481
  0.7909189130509503  0.0823830884773628  0.3998196347222563
  0.7910603636923438  0.2075192935538094  0.3999500019394586
  0.7915519905104580  0.3328883290185775  0.3995670324582674
  0.7923376679820529  0.4583094986856919  0.3990187817813767
  0.7928766788419686  0.5835809938317669  0.3989960791010668
  0.7925998377601167  0.7088200438336626  0.3997458717139288
  0.7915570803327885  0.8330024818777025  0.3998870352971341
  0.7909782265218837  0.9574638908125577  0.3998319834910703
  0.9160782260481936  0.0829067169301781  0.3997757890016869
  0.9158435845963282  0.2077173925373978  0.3999100256193174
  0.9159661762250034  0.3329167042270412  0.4000275226869007
  0.9164027727520082  0.4582321058640793  0.3998428896015707
  0.9170783340640678  0.5837159377032749  0.3994728851847225
  0.9172878664272458  0.7090211639606071  0.3994111571781812
  0.9171524008014873  0.8339785413193574  0.3995948583800740
  0.9166143629123217  0.9584765031039241  0.3997181339191349
  0.0837921657413820  0.0428005054896232  0.3998887403954124
  0.0832764597090164  0.1672708027820139  0.4000749367651026
  0.0821353551195193  0.2913633231801968  0.4000836168389741
  0.0818038971063042  0.4165779936077071  0.4003222700680084
  0.0822753735735587  0.5417947072626901  0.4003134972378805
  0.0831043444623790  0.6672049094598318  0.4000828390872090
  0.0836011962028906  0.7926037623221662  0.3999969290588388
  0.0837954512850700  0.9178114986624235  0.3998659543196291
  0.2088588323748158  0.0430729011798093  0.4000095228685762
  0.2089493715062516  0.1683902575904293  0.4004274824266908
  0.2083890879810643  0.2930081755894207  0.4003535824326317
  0.2056078838070339  0.4163530617760453  0.4000088963174663
  0.2062489786495897  0.5418214084789119  0.4002853773057236
  0.2076322625281423  0.6672004317190120  0.4001405321916580
  0.2081837924143321  0.7923975658947857  0.3999481961419167
  0.2086040302976677  0.9177292025498800  0.3998012558019591
  0.3335836003981664  0.0426529984841214  0.3998484631270670
  0.3340693428574728  0.1682980154972228  0.4010045041333921
  0.3344714171250848  0.2942378315494045  0.4029472831934569
  0.3313945835523726  0.4190115687140194  0.4001968155925662
  0.3304206248830182  0.5424077380829214  0.3991298779514386
  0.3322062875948328  0.6668518357821426  0.4000426292516098
  0.3327853251693623  0.7919518253667450  0.4000206841445245
  0.3332321541359035  0.9172156459231341  0.3997904315893629
  0.4582031067236865  0.0416333804819922  0.3997007437281577
  0.4586177140247529  0.1670940161639107  0.3999872428049808
  0.4593015824673934  0.2927987413466595  0.4025274010882930
  0.4626281387073672  0.4182424507960376  0.4100422146069425
  0.4561765574006227  0.6638096742308606  0.4009390215630010
  0.4574097768270641  0.7906252141684073  0.4002677676199403
  0.4578223471889843  0.9161767178185818  0.3999296074218454
  0.5828265645696263  0.0407518024803303  0.3998163622231336
  0.5832293590004161  0.1661127008310066  0.3995865202879458
  0.5838435091743283  0.2912727441333754  0.3998792881844329
  0.5853869712688903  0.4163906141045646  0.4014860081199561
  0.5868836826543053  0.5423740972748268  0.4056151502182734
  0.5826007792119984  0.6643525911140756  0.4050785382714197
  0.5819847005192388  0.7892634590951266  0.4011775568659459
  0.5824206038367687  0.9152250988562030  0.4000353953854486
  0.7075571631311680  0.0404826942052154  0.3998913298948602
  0.7078186581188927  0.1657715171855351  0.3998734805242399
  0.7083263030590374  0.2910818136870034  0.3993770016523128
  0.7093548035214496  0.4165103142865612  0.3990421020695623
  0.7101426766435377  0.5417855805569927  0.3995435637451676
  0.7093894125407718  0.6669391016131582  0.4010620948217709
  0.7079856000149243  0.7907937573733889  0.4007869469231113
  0.7075013202923028  0.9153275455954556  0.4001316594012895
  0.8326548975092393  0.0408928369372378  0.3997371310784701
  0.8325823781364849  0.1658344135795078  0.3999001066901310
  0.8328701103983235  0.2911277468159036  0.3998948257175287
  0.8334351153277102  0.4164051443455254  0.3994438749575454
  0.8340912147686782  0.5417841413447891  0.3990165454400724
  0.8342278253762940  0.6672375207815611  0.3992331952451004
  0.8338771187189122  0.7920871001019976  0.3996664362959608
  0.8331076933007143  0.9163666268962184  0.3997551515281203
  0.9582060811236027  0.0418382095980979  0.3998109939442963
  0.9576120087045402  0.1662701593765360  0.3998820464208839
  0.9574134503937166  0.2911505608481608  0.4000481149096876
  0.9575603727571033  0.4164346439721321  0.4001007105078968
  0.9582345269817615  0.5418917234636189  0.3998598073504260
  0.9587264867416430  0.6672249754164243  0.3996218885555372
  0.9588819308315840  0.7925010867640111  0.3996498149174780
  0.9587200095559633  0.9173873744143771  0.3996889455017744
 
  0.00000000E+00  0.00000000E+00  0.00000000E+00
  0.00000000E+00  0.00000000E+00  0.00000000E+00
  0.00000000E+00  0.00000000E+00  0.00000000E+00
  0.00000000E+00  0.00000000E+00  0.00000000E+00
  0.00000000E+00  0.00000000E+00  0.00000000E+00
  0.00000000E+00  0.00000000E+00  0.00000000E+00
  0.00000000E+00  0.00000000E+00  0.00000000E+00
  0.00000000E+00  0.00000000E+00  0.00000000E+00
  0.00000000E+00  0.00000000E+00  0.00000000E+00
  0.00000000E+00  0.00000000E+00  0.00000000E+00
  0.00000000E+00  0.00000000E+00  0.00000000E+00
  0.00000000E+00  0.00000000E+00  0.00000000E+00
  0.00000000E+00  0.00000000E+00  0.00000000E+00
  0.00000000E+00  0.00000000E+00  0.00000000E+00
  0.00000000E+00  0.00000000E+00  0.00000000E+00
  0.00000000E+00  0.00000000E+00  0.00000000E+00
  0.00000000E+00  0.00000000E+00  0.00000000E+00
  0.00000000E+00  0.00000000E+00  0.00000000E+00
  0.00000000E+00  0.00000000E+00  0.00000000E+00
  0.00000000E+00  0.00000000E+00  0.00000000E+00
  0.00000000E+00  0.00000000E+00  0.00000000E+00
  0.00000000E+00  0.00000000E+00  0.00000000E+00
  0.00000000E+00  0.00000000E+00  0.00000000E+00
  0.00000000E+00  0.00000000E+00  0.00000000E+00
  0.00000000E+00  0.00000000E+00  0.00000000E+00
  0.00000000E+00  0.00000000E+00  0.00000000E+00
  0.00000000E+00  0.00000000E+00  0.00000000E+00
  0.00000000E+00  0.00000000E+00  0.00000000E+00
  0.00000000E+00  0.00000000E+00  0.00000000E+00
  0.00000000E+00  0.00000000E+00  0.00000000E+00
  0.00000000E+00  0.00000000E+00  0.00000000E+00
  0.00000000E+00  0.00000000E+00  0.00000000E+00
  0.00000000E+00  0.00000000E+00  0.00000000E+00
  0.00000000E+00  0.00000000E+00  0.00000000E+00
  0.00000000E+00  0.00000000E+00  0.00000000E+00
  0.00000000E+00  0.00000000E+00  0.00000000E+00
  0.00000000E+00  0.00000000E+00  0.00000000E+00
  0.00000000E+00  0.00000000E+00  0.00000000E+00
  0.00000000E+00  0.00000000E+00  0.00000000E+00
  0.00000000E+00  0.00000000E+00  0.00000000E+00
  0.00000000E+00  0.00000000E+00  0.00000000E+00
  0.00000000E+00  0.00000000E+00  0.00000000E+00
  0.00000000E+00  0.00000000E+00  0.00000000E+00
  0.00000000E+00  0.00000000E+00  0.00000000E+00
  0.00000000E+00  0.00000000E+00  0.00000000E+00
  0.00000000E+00  0.00000000E+00  0.00000000E+00
  0.00000000E+00  0.00000000E+00  0.00000000E+00
  0.00000000E+00  0.00000000E+00  0.00000000E+00
  0.00000000E+00  0.00000000E+00  0.00000000E+00
  0.00000000E+00  0.00000000E+00  0.00000000E+00
  0.00000000E+00  0.00000000E+00  0.00000000E+00
  0.00000000E+00  0.00000000E+00  0.00000000E+00
  0.00000000E+00  0.00000000E+00  0.00000000E+00
  0.00000000E+00  0.00000000E+00  0.00000000E+00
  0.00000000E+00  0.00000000E+00  0.00000000E+00
  0.00000000E+00  0.00000000E+00  0.00000000E+00
  0.00000000E+00  0.00000000E+00  0.00000000E+00
  0.00000000E+00  0.00000000E+00  0.00000000E+00
  0.00000000E+00  0.00000000E+00  0.00000000E+00
  0.00000000E+00  0.00000000E+00  0.00000000E+00
  0.00000000E+00  0.00000000E+00  0.00000000E+00
  0.00000000E+00  0.00000000E+00  0.00000000E+00
  0.00000000E+00  0.00000000E+00  0.00000000E+00
  0.00000000E+00  0.00000000E+00  0.00000000E+00
  0.00000000E+00  0.00000000E+00  0.00000000E+00
  0.00000000E+00  0.00000000E+00  0.00000000E+00
  0.00000000E+00  0.00000000E+00  0.00000000E+00
  0.00000000E+00  0.00000000E+00  0.00000000E+00
  0.00000000E+00  0.00000000E+00  0.00000000E+00
  0.00000000E+00  0.00000000E+00  0.00000000E+00
  0.00000000E+00  0.00000000E+00  0.00000000E+00
  0.00000000E+00  0.00000000E+00  0.00000000E+00
  0.00000000E+00  0.00000000E+00  0.00000000E+00
  0.00000000E+00  0.00000000E+00  0.00000000E+00
  0.00000000E+00  0.00000000E+00  0.00000000E+00
  0.00000000E+00  0.00000000E+00  0.00000000E+00
  0.00000000E+00  0.00000000E+00  0.00000000E+00
  0.00000000E+00  0.00000000E+00  0.00000000E+00
  0.00000000E+00  0.00000000E+00  0.00000000E+00
  0.00000000E+00  0.00000000E+00  0.00000000E+00
  0.00000000E+00  0.00000000E+00  0.00000000E+00
  0.00000000E+00  0.00000000E+00  0.00000000E+00
  0.00000000E+00  0.00000000E+00  0.00000000E+00
  0.00000000E+00  0.00000000E+00  0.00000000E+00
  0.00000000E+00  0.00000000E+00  0.00000000E+00
  0.00000000E+00  0.00000000E+00  0.00000000E+00
  0.00000000E+00  0.00000000E+00  0.00000000E+00
  0.00000000E+00  0.00000000E+00  0.00000000E+00
  0.00000000E+00  0.00000000E+00  0.00000000E+00
  0.00000000E+00  0.00000000E+00  0.00000000E+00
  0.00000000E+00  0.00000000E+00  0.00000000E+00
  0.00000000E+00  0.00000000E+00  0.00000000E+00
  0.00000000E+00  0.00000000E+00  0.00000000E+00
  0.00000000E+00  0.00000000E+00  0.00000000E+00
  0.00000000E+00  0.00000000E+00  0.00000000E+00
  0.00000000E+00  0.00000000E+00  0.00000000E+00
  0.00000000E+00  0.00000000E+00  0.00000000E+00
  0.00000000E+00  0.00000000E+00  0.00000000E+00
  0.00000000E+00  0.00000000E+00  0.00000000E+00
  0.00000000E+00  0.00000000E+00  0.00000000E+00
  0.00000000E+00  0.00000000E+00  0.00000000E+00
  0.00000000E+00  0.00000000E+00  0.00000000E+00
  0.00000000E+00  0.00000000E+00  0.00000000E+00
  0.00000000E+00  0.00000000E+00  0.00000000E+00
  0.00000000E+00  0.00000000E+00  0.00000000E+00
  0.00000000E+00  0.00000000E+00  0.00000000E+00
  0.00000000E+00  0.00000000E+00  0.00000000E+00
  0.00000000E+00  0.00000000E+00  0.00000000E+00
  0.00000000E+00  0.00000000E+00  0.00000000E+00
  0.00000000E+00  0.00000000E+00  0.00000000E+00
  0.00000000E+00  0.00000000E+00  0.00000000E+00
  0.00000000E+00  0.00000000E+00  0.00000000E+00
  0.00000000E+00  0.00000000E+00  0.00000000E+00
  0.00000000E+00  0.00000000E+00  0.00000000E+00
  0.00000000E+00  0.00000000E+00  0.00000000E+00
  0.00000000E+00  0.00000000E+00  0.00000000E+00
  0.00000000E+00  0.00000000E+00  0.00000000E+00
  0.00000000E+00  0.00000000E+00  0.00000000E+00
  0.00000000E+00  0.00000000E+00  0.00000000E+00
  0.00000000E+00  0.00000000E+00  0.00000000E+00
  0.00000000E+00  0.00000000E+00  0.00000000E+00
  0.00000000E+00  0.00000000E+00  0.00000000E+00
  0.00000000E+00  0.00000000E+00  0.00000000E+00
  0.00000000E+00  0.00000000E+00  0.00000000E+00
  0.00000000E+00  0.00000000E+00  0.00000000E+00
  0.00000000E+00  0.00000000E+00  0.00000000E+00
  0.00000000E+00  0.00000000E+00  0.00000000E+00
  0.00000000E+00  0.00000000E+00  0.00000000E+00
