H1 Ru1 C122 N4                          
   1.00000000000000     
    19.8487510241502854    0.0000020329590554   -0.0192109180169368
    -9.9243779615735352   17.0238350747928173   -0.0099653465499533
    -0.0288880841609898   -0.0342569274643897   29.7791600646790542
   H    Ru   C    N 
     1     1   122     4
Direct
  0.4397552532254487  0.5036448946233754  0.4661680062962161
  0.4376747760709523  0.5002459976526261  0.4132869728291908
  0.0420802676676646  0.0842690624682109  0.3998037753059904
  0.0406666779529732  0.2080291924059046  0.3999814514866270
  0.0396863700601625  0.3327171978369227  0.3995081065661698
  0.0398833657235365  0.4581907963644764  0.3987039395417046
  0.0411350543873529  0.5839395372422069  0.3985019989184420
  0.0423004357291049  0.7095419982561105  0.3988520754750186
  0.0427307957173080  0.8348846325862149  0.3992281434023089
  0.0428323709752478  0.9600245464220946  0.3994903504054817
  0.1684988518519469  0.0864301858998867  0.4008189131508736
  0.1673737930198088  0.2105395651622701  0.4019383132403700
  0.1642104982108642  0.3334446308441463  0.4022324091737989
  0.1629036951811241  0.4585048660514904  0.4008029276881580
  0.1643745983893367  0.5838311697723001  0.3994515101160747
  0.1662479985890467  0.7093159876933969  0.3990268933468766
  0.1672226367040454  0.8348873209525419  0.3992122305888721
  0.1678489047893711  0.9605866649937231  0.3997409147199383
  0.2930207397996971  0.0864254042693638  0.4007991368499434
  0.2946724859989450  0.2142787237858687  0.4034574085343045
  0.2918165053202894  0.3390463823476524  0.4062760685445972
  0.2849799254737736  0.4579536709717578  0.4061137898435601
  0.2871034285935051  0.5833211031724491  0.4028148422605231
  0.2902031686027703  0.7086985179891818  0.4004206298770631
  0.2915628293844871  0.8342224693148210  0.3993523047339007
  0.2923118808904891  0.9600390564110384  0.3994725353509504
  0.4172907096515183  0.0842847434599314  0.3998058479096455
  0.4182223610491128  0.2105551227873685  0.4019143674613819
  0.4222724113173543  0.3390738630527232  0.4061651366844605
  0.4140263386527527  0.7059333952817483  0.4033228729441196
  0.4158605255407861  0.8322222453579710  0.4004667783086702
  0.4166679002198390  0.9582777621521097  0.3993449206144968
  0.5416115507629020  0.0823160225902022  0.3993151450098334
  0.5424167945730028  0.2080354319486041  0.4000115208131000
  0.5442488151016096  0.3334404696621680  0.4021269201833474
  0.5480188289598419  0.4579646696932618  0.4058223760672832
  0.5378840315124320  0.7007404910963719  0.4057036862523755
  0.5400771658004093  0.8295553039945518  0.4021506568286380
  0.5409806404997903  0.9562414441847942  0.3999932231514375
  0.6659733413535133  0.0814640670045999  0.3994977373299352
  0.6666870285305952  0.2071002159833412  0.3992152579959446
  0.6680512254528382  0.3327172707107299  0.3995507603659666
  0.6706231837312898  0.4585011561636327  0.4007053693928537
  0.6712477151395166  0.5833390203222037  0.4026138343089792
  0.6669056621009212  0.7059128212125029  0.4032213738409761
  0.6645294877207260  0.8295520437102686  0.4021110508044664
  0.6653844031246710  0.9556819852175961  0.4004836561303521
  0.7905841046240200  0.0814467804526985  0.3994883719972375
  0.7909672705390003  0.2068839998474141  0.3991457589968474
  0.7918657128520139  0.3324900382206888  0.3987662754462920
  0.7933129469695506  0.4581832205939480  0.3987400107569026
  0.7944669478935751  0.5838264439647302  0.3994728518725348
  0.7935169222185350  0.7086938000415625  0.4004133604415834
  0.7914009792726705  0.8321920256119265  0.4004644696719971
  0.7903338356312566  0.9562269676017774  0.3999812393316237
  0.9157930869568341  0.0822894188401339  0.3992957609061639
  0.9154509059393346  0.2070727522273592  0.3991509703094714
  0.9156731868798539  0.3324858862724996  0.3987240548855558
  0.9166094772274246  0.4581912930683643  0.3983635978780646
  0.9178164493500759  0.5839380917175685  0.3985166693843735
  0.9180977250638567  0.7092963296166838  0.3990715023354064
  0.9177161169266690  0.8341957384357402  0.3993879042919308
  0.9167032371606862  0.9582467246593246  0.3993542135270845
  0.0847767695588476  0.0438057184442838  0.3999748680272385
  0.0836840836799092  0.1678363555957288  0.4004513115546265
  0.0815525453813817  0.2913559087406863  0.4004252591612372
  0.0805879340339251  0.4162457130536213  0.3994510082590078
  0.0817183696603401  0.5418681471769098  0.3987110013472882
  0.0832065326681557  0.6675666125624460  0.3987368880782522
  0.0841087656195225  0.7931601490248018  0.3991295346047558
  0.0845376546378577  0.9185776026704832  0.3994810709355333
  0.2097230878854651  0.0443538097942125  0.4004669743386550
  0.2105760220717659  0.1705071056335459  0.4021653037123620
  0.2081473935706755  0.2941360578214876  0.4033910717071008
  0.2038322168900981  0.4167681955874892  0.4028440162646051
  0.2044390698672233  0.5415862681768594  0.4008003636751181
  0.2069871592334930  0.6673526052385061  0.3995184863813022
  0.2083909549862221  0.7929734564601046  0.3991613358983755
  0.2091491640364581  0.9185840646151454  0.3994683430912085
  0.3341142115697241  0.0438052873814185  0.3999656044549835
  0.3349935427824705  0.1705006203712605  0.4021243424555725
  0.3372064014161801  0.2993704693854594  0.4058487218899511
  0.3270785666390837  0.5421656564460774  0.4060490488372937
  0.3307834080649553  0.6666235966341637  0.4021862218488602
  0.3326498475630268  0.7920254609712535  0.3999970356242252
  0.3335130667191352  0.9177450330006000  0.3992916484007373
  0.4584589381173959  0.0417857510118709  0.3993489863704980
  0.4592203319733625  0.1678566116678103  0.4004611678797348
  0.4610178551012193  0.2941617593909779  0.4033049959574334
  0.4528190568450995  0.6610834709627891  0.4061220025737666
  0.4568479974716472  0.7895211669087312  0.4019286621131904
  0.4578192274324809  0.9157709079587548  0.3998128376548546
  0.5828163347437526  0.0400131164621519  0.3995039901058209
  0.5835285223581284  0.1658513664938153  0.3993868067683499
  0.5848327896201341  0.2913651983447853  0.4004210372209511
  0.5879574752853129  0.4167572680595267  0.4026405453974291
  0.5901240972758608  0.5421584425069813  0.4057600708904831
  0.5832744327138853  0.6610599425794345  0.4059982792500217
  0.5804212940443754  0.7857974732009654  0.4033975310293418
  0.5820742167548055  0.9136197488605244  0.4008347645287519
  0.7072799764567939  0.0394512081968443  0.3997629119423206
  0.7078526311965593  0.1651572237653118  0.3992461256286854
  0.7088238579302074  0.2907602219385586  0.3990782478877678
  0.7106667806910696  0.4162468828114552  0.3994669080790183
  0.7121689809416250  0.5415924582687596  0.4007074895498902
  0.7108610479486465  0.6666301344841925  0.4020764430323908
  0.7077035922534261  0.7895013204520492  0.4018842938888756
  0.7066242998257487  0.9136170344911708  0.4008112530915925
  0.8322987616850177  0.0399967044381304  0.3994888263417022
  0.8323624344787629  0.1651465810671406  0.3992251650562922
  0.8327906495681460  0.2905086839346843  0.3988520105472688
  0.8339038393299911  0.4161130380857859  0.3985137573806958
  0.8351545778848900  0.5418669129527932  0.3987459311982007
  0.8353761595505349  0.6673453322925842  0.3995525153905102
  0.8344190325191415  0.7920129680699221  0.4000198014257790
  0.8330319037686595  0.9157502350188873  0.3998153775395268
  0.9584208861968776  0.0417587337743494  0.3993466492413421
  0.9573739944106729  0.1658203084371692  0.3993385050048909
  0.9569688143160201  0.2907357760932327  0.3990021605914639
  0.9572336129782472  0.4161162575487288  0.3984913878276161
  0.9584447653658630  0.5418643804970367  0.3983672000727057
  0.9593991210335391  0.6675611544808866  0.3987690156435639
  0.9596248880190557  0.7929509357707137  0.3992017175742926
  0.9593259307296533  0.9177275298281340  0.3993123264295396
  0.4074013161839392  0.5805050234758059  0.4086905772424194
  0.5481444575891365  0.5804816332173015  0.4084801727971256
  0.3268986883809873  0.4196089753032180  0.4089129052529494
  0.4677833258833954  0.4196375998603017  0.4087040333743646
 
  0.00000000E+00  0.00000000E+00  0.00000000E+00
  0.00000000E+00  0.00000000E+00  0.00000000E+00
  0.00000000E+00  0.00000000E+00  0.00000000E+00
  0.00000000E+00  0.00000000E+00  0.00000000E+00
  0.00000000E+00  0.00000000E+00  0.00000000E+00
  0.00000000E+00  0.00000000E+00  0.00000000E+00
  0.00000000E+00  0.00000000E+00  0.00000000E+00
  0.00000000E+00  0.00000000E+00  0.00000000E+00
  0.00000000E+00  0.00000000E+00  0.00000000E+00
  0.00000000E+00  0.00000000E+00  0.00000000E+00
  0.00000000E+00  0.00000000E+00  0.00000000E+00
  0.00000000E+00  0.00000000E+00  0.00000000E+00
  0.00000000E+00  0.00000000E+00  0.00000000E+00
  0.00000000E+00  0.00000000E+00  0.00000000E+00
  0.00000000E+00  0.00000000E+00  0.00000000E+00
  0.00000000E+00  0.00000000E+00  0.00000000E+00
  0.00000000E+00  0.00000000E+00  0.00000000E+00
  0.00000000E+00  0.00000000E+00  0.00000000E+00
  0.00000000E+00  0.00000000E+00  0.00000000E+00
  0.00000000E+00  0.00000000E+00  0.00000000E+00
  0.00000000E+00  0.00000000E+00  0.00000000E+00
  0.00000000E+00  0.00000000E+00  0.00000000E+00
  0.00000000E+00  0.00000000E+00  0.00000000E+00
  0.00000000E+00  0.00000000E+00  0.00000000E+00
  0.00000000E+00  0.00000000E+00  0.00000000E+00
  0.00000000E+00  0.00000000E+00  0.00000000E+00
  0.00000000E+00  0.00000000E+00  0.00000000E+00
  0.00000000E+00  0.00000000E+00  0.00000000E+00
  0.00000000E+00  0.00000000E+00  0.00000000E+00
  0.00000000E+00  0.00000000E+00  0.00000000E+00
  0.00000000E+00  0.00000000E+00  0.00000000E+00
  0.00000000E+00  0.00000000E+00  0.00000000E+00
  0.00000000E+00  0.00000000E+00  0.00000000E+00
  0.00000000E+00  0.00000000E+00  0.00000000E+00
  0.00000000E+00  0.00000000E+00  0.00000000E+00
  0.00000000E+00  0.00000000E+00  0.00000000E+00
  0.00000000E+00  0.00000000E+00  0.00000000E+00
  0.00000000E+00  0.00000000E+00  0.00000000E+00
  0.00000000E+00  0.00000000E+00  0.00000000E+00
  0.00000000E+00  0.00000000E+00  0.00000000E+00
  0.00000000E+00  0.00000000E+00  0.00000000E+00
  0.00000000E+00  0.00000000E+00  0.00000000E+00
  0.00000000E+00  0.00000000E+00  0.00000000E+00
  0.00000000E+00  0.00000000E+00  0.00000000E+00
  0.00000000E+00  0.00000000E+00  0.00000000E+00
  0.00000000E+00  0.00000000E+00  0.00000000E+00
  0.00000000E+00  0.00000000E+00  0.00000000E+00
  0.00000000E+00  0.00000000E+00  0.00000000E+00
  0.00000000E+00  0.00000000E+00  0.00000000E+00
  0.00000000E+00  0.00000000E+00  0.00000000E+00
  0.00000000E+00  0.00000000E+00  0.00000000E+00
  0.00000000E+00  0.00000000E+00  0.00000000E+00
  0.00000000E+00  0.00000000E+00  0.00000000E+00
  0.00000000E+00  0.00000000E+00  0.00000000E+00
  0.00000000E+00  0.00000000E+00  0.00000000E+00
  0.00000000E+00  0.00000000E+00  0.00000000E+00
  0.00000000E+00  0.00000000E+00  0.00000000E+00
  0.00000000E+00  0.00000000E+00  0.00000000E+00
  0.00000000E+00  0.00000000E+00  0.00000000E+00
  0.00000000E+00  0.00000000E+00  0.00000000E+00
  0.00000000E+00  0.00000000E+00  0.00000000E+00
  0.00000000E+00  0.00000000E+00  0.00000000E+00
  0.00000000E+00  0.00000000E+00  0.00000000E+00
  0.00000000E+00  0.00000000E+00  0.00000000E+00
  0.00000000E+00  0.00000000E+00  0.00000000E+00
  0.00000000E+00  0.00000000E+00  0.00000000E+00
  0.00000000E+00  0.00000000E+00  0.00000000E+00
  0.00000000E+00  0.00000000E+00  0.00000000E+00
  0.00000000E+00  0.00000000E+00  0.00000000E+00
  0.00000000E+00  0.00000000E+00  0.00000000E+00
  0.00000000E+00  0.00000000E+00  0.00000000E+00
  0.00000000E+00  0.00000000E+00  0.00000000E+00
  0.00000000E+00  0.00000000E+00  0.00000000E+00
  0.00000000E+00  0.00000000E+00  0.00000000E+00
  0.00000000E+00  0.00000000E+00  0.00000000E+00
  0.00000000E+00  0.00000000E+00  0.00000000E+00
  0.00000000E+00  0.00000000E+00  0.00000000E+00
  0.00000000E+00  0.00000000E+00  0.00000000E+00
  0.00000000E+00  0.00000000E+00  0.00000000E+00
  0.00000000E+00  0.00000000E+00  0.00000000E+00
  0.00000000E+00  0.00000000E+00  0.00000000E+00
  0.00000000E+00  0.00000000E+00  0.00000000E+00
  0.00000000E+00  0.00000000E+00  0.00000000E+00
  0.00000000E+00  0.00000000E+00  0.00000000E+00
  0.00000000E+00  0.00000000E+00  0.00000000E+00
  0.00000000E+00  0.00000000E+00  0.00000000E+00
  0.00000000E+00  0.00000000E+00  0.00000000E+00
  0.00000000E+00  0.00000000E+00  0.00000000E+00
  0.00000000E+00  0.00000000E+00  0.00000000E+00
  0.00000000E+00  0.00000000E+00  0.00000000E+00
  0.00000000E+00  0.00000000E+00  0.00000000E+00
  0.00000000E+00  0.00000000E+00  0.00000000E+00
  0.00000000E+00  0.00000000E+00  0.00000000E+00
  0.00000000E+00  0.00000000E+00  0.00000000E+00
  0.00000000E+00  0.00000000E+00  0.00000000E+00
  0.00000000E+00  0.00000000E+00  0.00000000E+00
  0.00000000E+00  0.00000000E+00  0.00000000E+00
  0.00000000E+00  0.00000000E+00  0.00000000E+00
  0.00000000E+00  0.00000000E+00  0.00000000E+00
  0.00000000E+00  0.00000000E+00  0.00000000E+00
  0.00000000E+00  0.00000000E+00  0.00000000E+00
  0.00000000E+00  0.00000000E+00  0.00000000E+00
  0.00000000E+00  0.00000000E+00  0.00000000E+00
  0.00000000E+00  0.00000000E+00  0.00000000E+00
  0.00000000E+00  0.00000000E+00  0.00000000E+00
  0.00000000E+00  0.00000000E+00  0.00000000E+00
  0.00000000E+00  0.00000000E+00  0.00000000E+00
  0.00000000E+00  0.00000000E+00  0.00000000E+00
  0.00000000E+00  0.00000000E+00  0.00000000E+00
  0.00000000E+00  0.00000000E+00  0.00000000E+00
  0.00000000E+00  0.00000000E+00  0.00000000E+00
  0.00000000E+00  0.00000000E+00  0.00000000E+00
  0.00000000E+00  0.00000000E+00  0.00000000E+00
  0.00000000E+00  0.00000000E+00  0.00000000E+00
  0.00000000E+00  0.00000000E+00  0.00000000E+00
  0.00000000E+00  0.00000000E+00  0.00000000E+00
  0.00000000E+00  0.00000000E+00  0.00000000E+00
  0.00000000E+00  0.00000000E+00  0.00000000E+00
  0.00000000E+00  0.00000000E+00  0.00000000E+00
  0.00000000E+00  0.00000000E+00  0.00000000E+00
  0.00000000E+00  0.00000000E+00  0.00000000E+00
  0.00000000E+00  0.00000000E+00  0.00000000E+00
  0.00000000E+00  0.00000000E+00  0.00000000E+00
  0.00000000E+00  0.00000000E+00  0.00000000E+00
  0.00000000E+00  0.00000000E+00  0.00000000E+00
  0.00000000E+00  0.00000000E+00  0.00000000E+00
  0.00000000E+00  0.00000000E+00  0.00000000E+00
  0.00000000E+00  0.00000000E+00  0.00000000E+00
