Sc1 H1 C126                             
   1.00000000000000     
    19.8027075520112739   -0.0001443232547308    0.0335789898600045
    -9.9014766528363953   17.0979867989115739    0.0145187770429761
     0.0503673608418591    0.0544409332057375   29.7191976452376529
   Sc   H    C 
     1     1   126
Direct
  0.4335077628950015  0.4937608407746412  0.4367385545673077
  0.4735450232265698  0.5352225020842019  0.5113093218282120
  0.0414682531203878  0.0834400413751047  0.3998871361476030
  0.0406510515352909  0.2078016307082860  0.3996899029708421
  0.0403564494334283  0.3327535107329394  0.3995611340980310
  0.0406064262499439  0.4582830520142147  0.3997337524565075
  0.0413896109489397  0.5836227650003596  0.3999973935911449
  0.0419169232234774  0.7088431834107903  0.4001151728588219
  0.0421718979310832  0.8340824748363233  0.4000790204970304
  0.0421240494656987  0.9590023170956121  0.4000090826757374
  0.1670825243101686  0.0843262848139508  0.3998729247160950
  0.1661318601944027  0.2084599274549194  0.3996384868011083
  0.1649285631992486  0.3328760153467754  0.3993763103700081
  0.1643197218822675  0.4580896301299158  0.3992225976299175
  0.1656412428669616  0.5835422254430841  0.3994644771729254
  0.1664642125237763  0.7089133995305948  0.3998433289015484
  0.1668729936853175  0.8340962139872873  0.4000559243122154
  0.1671340964138041  0.9593205347163412  0.3999976661651821
  0.2922091822364307  0.0843483544319902  0.3998803478770971
  0.2925931310505636  0.2102392198555252  0.4003776186938717
  0.2907965657350212  0.3345637241074775  0.4012864419971330
  0.2876824246994656  0.4568584302550369  0.4004792674997258
  0.2898277608334262  0.5838245028835695  0.3998102754410626
  0.2909478577026123  0.7088279102296536  0.3995152883308720
  0.2915373730864179  0.8338209063168490  0.3998504445040608
  0.2918551199169389  0.9590079719541643  0.3999624136069379
  0.4169350746687114  0.0834682222391522  0.3998972805071039
  0.4173185957570504  0.2085388269770858  0.3996245415361966
  0.4187482179329345  0.3346659250295829  0.4015158830601145
  0.4132909804376393  0.5838036707481367  0.4022785160044504
  0.4158264117724800  0.7081624063712451  0.3999480707383208
  0.4162646637971330  0.8333033474597299  0.3997491237745117
  0.4165552568854373  0.9583321155269141  0.3999704377475835
  0.5416037669059612  0.0827841610303394  0.4000101243688263
  0.5420994193488716  0.2078308821857642  0.3997061019576618
  0.5429070289099289  0.3329355531018930  0.3993503055284364
  0.5441161559995399  0.4569016418857933  0.4008033637233486
  0.5453443421220550  0.5837536235887874  0.4028473660598864
  0.5412105321147550  0.7074628224950592  0.4009251778691355
  0.5410364889469084  0.8325660982739014  0.3999792874984597
  0.5413541405057646  0.9576980882089118  0.3999199312769486
  0.6662973170619909  0.0824828893874016  0.4000365166560714
  0.6667146596057389  0.2076671284291290  0.3999836386437411
  0.6673225169921113  0.3327775382798918  0.3995340878256107
  0.6687141717755655  0.4581282899475426  0.3991217305984499
  0.6689542398567314  0.5838385336348738  0.3997847342524322
  0.6672766900134003  0.7081297393925936  0.3999949299614328
  0.6664823080202669  0.8325364056027337  0.3999988704999116
  0.6662118008315588  0.9574743291792241  0.3998836979325687
  0.7911301198315314  0.0824826873560513  0.4000150681523334
  0.7912486999259127  0.2075618911122140  0.4001028451296972
  0.7917577129457321  0.3328514201727251  0.4000149715761057
  0.7926029282179938  0.4582825716736084  0.3997047378969933
  0.7928763372554648  0.5835486627376357  0.3994254929385043
  0.7928443169232771  0.7088196267188012  0.3995071908548153
  0.7919937921334607  0.8332767107371045  0.3997637563812519
  0.7912824272365868  0.9576904366245723  0.3998988369945320
  0.9161315311729551  0.0827804371863919  0.3999512006818023
  0.9158860341407609  0.2076627265417822  0.3999487292146671
  0.9160548023366721  0.3328513558015160  0.4000317998102965
  0.9165530380341367  0.4581752594668838  0.4001295447432219
  0.9171855260754255  0.5836154218388901  0.3999892834441321
  0.9174122842393060  0.7089044530296006  0.3998522551172217
  0.9172381872932529  0.8338099245821928  0.3999019598449682
  0.9167185740017518  0.9582979852115960  0.3999860559015599
  0.0836989215376516  0.0423552975421076  0.3999005573641700
  0.0827947455569239  0.1665831285721196  0.3996995538755070
  0.0817864026739678  0.2910370253139703  0.3995028708961972
  0.0817111820620382  0.4164180330798880  0.3993969766971969
  0.0825141850501339  0.5417537764911188  0.3997272321656368
  0.0832755690736920  0.6671280157095986  0.4000198230186396
  0.0836900673242150  0.7924177744296865  0.4001061973392103
  0.0838139752071313  0.9175201287193926  0.4000450641034274
  0.2088038708694022  0.0426412973417327  0.3999260428885667
  0.2085769110580508  0.1676908638225574  0.3999267951444099
  0.2072929227936074  0.2917427813669120  0.3995776579182377
  0.2050066194347346  0.4159975705936550  0.3993075708760595
  0.2066509973224331  0.5417980901065668  0.3993965319637280
  0.2078322653498021  0.6671967073146153  0.3995530303804106
  0.2082799575235345  0.7922824498287747  0.3999408930818325
  0.2086564584427398  0.9175233134155857  0.4000141539035306
  0.3336137662700719  0.0423666668815114  0.3998873864504646
  0.3340745914462274  0.1677254488840141  0.3999451677394814
  0.3340547180218519  0.2932034161021774  0.4016391365866583
  0.3287258139039247  0.4167595417861458  0.4031464969438222
  0.3314651668582035  0.5422249504601522  0.4004109948761036
  0.3324214582677899  0.6669688696774840  0.3997277804656059
  0.3329391118268945  0.7920591606249544  0.3996549318930432
  0.3333496272748592  0.9171488132163557  0.3999549469608175
  0.4584143199795734  0.0416118008285559  0.3999997093586363
  0.4587585408730263  0.1666394983614048  0.3997059529745330
  0.4593784428345233  0.2918320787367183  0.3996081579546765
  0.4628933538148555  0.4168921849725956  0.4038471417183185
  0.4569848890172521  0.6655398673940702  0.4008167753758585
  0.4578310916190861  0.7914668607175570  0.3998646797290925
  0.4580475132612890  0.9164893028327085  0.3998936897145062
  0.5831226260548139  0.0410050630823439  0.4000051293945084
  0.5834675935115702  0.1661027784537348  0.3999190457707871
  0.5841968498171255  0.2910889508821759  0.3994773004946006
  0.5859279828580872  0.4160754173312181  0.3992670240035969
  0.5857118551314376  0.5422376748796082  0.4007089110197647
  0.5834719450208524  0.6654984305565225  0.4010194873399020
  0.5825957497303510  0.7902163074393073  0.4002653057991616
  0.5828552152384309  0.9158610185501576  0.3998735639067880
  0.7078391534290095  0.0407202204540460  0.3999780783739458
  0.7080999518319325  0.1659050913737286  0.4000871595227506
  0.7085972502411072  0.2910393719064746  0.3998662193903550
  0.7096486509669276  0.4164468282839545  0.3993403047289611
  0.7101251146015632  0.5418243795470919  0.3993084720767093
  0.7095298651052250  0.6669637435236967  0.3997176872104384
  0.7085990437659178  0.7914469268618375  0.3998738861093548
  0.7079556452010403  0.9158356354141690  0.3998735541687148
  0.8328548050540867  0.0410016607927140  0.3999643637055740
  0.8327319460780854  0.1658902276575282  0.4000566820641443
  0.8330367448328394  0.2911138671543006  0.4000996559161769
  0.8336488332685098  0.4163807991782992  0.4000130135079171
  0.8341860122264535  0.5417384903948645  0.3997027416647310
  0.8343323405985832  0.6671920493619540  0.3995436399516441
  0.8340809052401067  0.7920549672825744  0.3996869391734675
  0.8333960082619453  0.9164799404328997  0.3998943123963963
  0.9581331936335268  0.0415766830933108  0.3999731734816220
  0.9575542039308798  0.1660678989438716  0.3998637762428057
  0.9573594379430996  0.2910166801043592  0.3998654331100515
  0.9576498012949739  0.4163786848720515  0.4000342368695637
  0.9584095978819746  0.5418556179773933  0.4001102554797314
  0.9588386352658815  0.6671263611473429  0.4000151090717990
  0.9589605036522346  0.7922861659654865  0.3999682227425971
  0.9587709113885777  0.9171549727194572  0.4000136825387125
 
  0.00000000E+00  0.00000000E+00  0.00000000E+00
  0.00000000E+00  0.00000000E+00  0.00000000E+00
  0.00000000E+00  0.00000000E+00  0.00000000E+00
  0.00000000E+00  0.00000000E+00  0.00000000E+00
  0.00000000E+00  0.00000000E+00  0.00000000E+00
  0.00000000E+00  0.00000000E+00  0.00000000E+00
  0.00000000E+00  0.00000000E+00  0.00000000E+00
  0.00000000E+00  0.00000000E+00  0.00000000E+00
  0.00000000E+00  0.00000000E+00  0.00000000E+00
  0.00000000E+00  0.00000000E+00  0.00000000E+00
  0.00000000E+00  0.00000000E+00  0.00000000E+00
  0.00000000E+00  0.00000000E+00  0.00000000E+00
  0.00000000E+00  0.00000000E+00  0.00000000E+00
  0.00000000E+00  0.00000000E+00  0.00000000E+00
  0.00000000E+00  0.00000000E+00  0.00000000E+00
  0.00000000E+00  0.00000000E+00  0.00000000E+00
  0.00000000E+00  0.00000000E+00  0.00000000E+00
  0.00000000E+00  0.00000000E+00  0.00000000E+00
  0.00000000E+00  0.00000000E+00  0.00000000E+00
  0.00000000E+00  0.00000000E+00  0.00000000E+00
  0.00000000E+00  0.00000000E+00  0.00000000E+00
  0.00000000E+00  0.00000000E+00  0.00000000E+00
  0.00000000E+00  0.00000000E+00  0.00000000E+00
  0.00000000E+00  0.00000000E+00  0.00000000E+00
  0.00000000E+00  0.00000000E+00  0.00000000E+00
  0.00000000E+00  0.00000000E+00  0.00000000E+00
  0.00000000E+00  0.00000000E+00  0.00000000E+00
  0.00000000E+00  0.00000000E+00  0.00000000E+00
  0.00000000E+00  0.00000000E+00  0.00000000E+00
  0.00000000E+00  0.00000000E+00  0.00000000E+00
  0.00000000E+00  0.00000000E+00  0.00000000E+00
  0.00000000E+00  0.00000000E+00  0.00000000E+00
  0.00000000E+00  0.00000000E+00  0.00000000E+00
  0.00000000E+00  0.00000000E+00  0.00000000E+00
  0.00000000E+00  0.00000000E+00  0.00000000E+00
  0.00000000E+00  0.00000000E+00  0.00000000E+00
  0.00000000E+00  0.00000000E+00  0.00000000E+00
  0.00000000E+00  0.00000000E+00  0.00000000E+00
  0.00000000E+00  0.00000000E+00  0.00000000E+00
  0.00000000E+00  0.00000000E+00  0.00000000E+00
  0.00000000E+00  0.00000000E+00  0.00000000E+00
  0.00000000E+00  0.00000000E+00  0.00000000E+00
  0.00000000E+00  0.00000000E+00  0.00000000E+00
  0.00000000E+00  0.00000000E+00  0.00000000E+00
  0.00000000E+00  0.00000000E+00  0.00000000E+00
  0.00000000E+00  0.00000000E+00  0.00000000E+00
  0.00000000E+00  0.00000000E+00  0.00000000E+00
  0.00000000E+00  0.00000000E+00  0.00000000E+00
  0.00000000E+00  0.00000000E+00  0.00000000E+00
  0.00000000E+00  0.00000000E+00  0.00000000E+00
  0.00000000E+00  0.00000000E+00  0.00000000E+00
  0.00000000E+00  0.00000000E+00  0.00000000E+00
  0.00000000E+00  0.00000000E+00  0.00000000E+00
  0.00000000E+00  0.00000000E+00  0.00000000E+00
  0.00000000E+00  0.00000000E+00  0.00000000E+00
  0.00000000E+00  0.00000000E+00  0.00000000E+00
  0.00000000E+00  0.00000000E+00  0.00000000E+00
  0.00000000E+00  0.00000000E+00  0.00000000E+00
  0.00000000E+00  0.00000000E+00  0.00000000E+00
  0.00000000E+00  0.00000000E+00  0.00000000E+00
  0.00000000E+00  0.00000000E+00  0.00000000E+00
  0.00000000E+00  0.00000000E+00  0.00000000E+00
  0.00000000E+00  0.00000000E+00  0.00000000E+00
  0.00000000E+00  0.00000000E+00  0.00000000E+00
  0.00000000E+00  0.00000000E+00  0.00000000E+00
  0.00000000E+00  0.00000000E+00  0.00000000E+00
  0.00000000E+00  0.00000000E+00  0.00000000E+00
  0.00000000E+00  0.00000000E+00  0.00000000E+00
  0.00000000E+00  0.00000000E+00  0.00000000E+00
  0.00000000E+00  0.00000000E+00  0.00000000E+00
  0.00000000E+00  0.00000000E+00  0.00000000E+00
  0.00000000E+00  0.00000000E+00  0.00000000E+00
  0.00000000E+00  0.00000000E+00  0.00000000E+00
  0.00000000E+00  0.00000000E+00  0.00000000E+00
  0.00000000E+00  0.00000000E+00  0.00000000E+00
  0.00000000E+00  0.00000000E+00  0.00000000E+00
  0.00000000E+00  0.00000000E+00  0.00000000E+00
  0.00000000E+00  0.00000000E+00  0.00000000E+00
  0.00000000E+00  0.00000000E+00  0.00000000E+00
  0.00000000E+00  0.00000000E+00  0.00000000E+00
  0.00000000E+00  0.00000000E+00  0.00000000E+00
  0.00000000E+00  0.00000000E+00  0.00000000E+00
  0.00000000E+00  0.00000000E+00  0.00000000E+00
  0.00000000E+00  0.00000000E+00  0.00000000E+00
  0.00000000E+00  0.00000000E+00  0.00000000E+00
  0.00000000E+00  0.00000000E+00  0.00000000E+00
  0.00000000E+00  0.00000000E+00  0.00000000E+00
  0.00000000E+00  0.00000000E+00  0.00000000E+00
  0.00000000E+00  0.00000000E+00  0.00000000E+00
  0.00000000E+00  0.00000000E+00  0.00000000E+00
  0.00000000E+00  0.00000000E+00  0.00000000E+00
  0.00000000E+00  0.00000000E+00  0.00000000E+00
  0.00000000E+00  0.00000000E+00  0.00000000E+00
  0.00000000E+00  0.00000000E+00  0.00000000E+00
  0.00000000E+00  0.00000000E+00  0.00000000E+00
  0.00000000E+00  0.00000000E+00  0.00000000E+00
  0.00000000E+00  0.00000000E+00  0.00000000E+00
  0.00000000E+00  0.00000000E+00  0.00000000E+00
  0.00000000E+00  0.00000000E+00  0.00000000E+00
  0.00000000E+00  0.00000000E+00  0.00000000E+00
  0.00000000E+00  0.00000000E+00  0.00000000E+00
  0.00000000E+00  0.00000000E+00  0.00000000E+00
  0.00000000E+00  0.00000000E+00  0.00000000E+00
  0.00000000E+00  0.00000000E+00  0.00000000E+00
  0.00000000E+00  0.00000000E+00  0.00000000E+00
  0.00000000E+00  0.00000000E+00  0.00000000E+00
  0.00000000E+00  0.00000000E+00  0.00000000E+00
  0.00000000E+00  0.00000000E+00  0.00000000E+00
  0.00000000E+00  0.00000000E+00  0.00000000E+00
  0.00000000E+00  0.00000000E+00  0.00000000E+00
  0.00000000E+00  0.00000000E+00  0.00000000E+00
  0.00000000E+00  0.00000000E+00  0.00000000E+00
  0.00000000E+00  0.00000000E+00  0.00000000E+00
  0.00000000E+00  0.00000000E+00  0.00000000E+00
  0.00000000E+00  0.00000000E+00  0.00000000E+00
  0.00000000E+00  0.00000000E+00  0.00000000E+00
  0.00000000E+00  0.00000000E+00  0.00000000E+00
  0.00000000E+00  0.00000000E+00  0.00000000E+00
  0.00000000E+00  0.00000000E+00  0.00000000E+00
  0.00000000E+00  0.00000000E+00  0.00000000E+00
  0.00000000E+00  0.00000000E+00  0.00000000E+00
  0.00000000E+00  0.00000000E+00  0.00000000E+00
  0.00000000E+00  0.00000000E+00  0.00000000E+00
  0.00000000E+00  0.00000000E+00  0.00000000E+00
  0.00000000E+00  0.00000000E+00  0.00000000E+00
  0.00000000E+00  0.00000000E+00  0.00000000E+00
  0.00000000E+00  0.00000000E+00  0.00000000E+00
  0.00000000E+00  0.00000000E+00  0.00000000E+00
