Cu1 H1 C126 O2                          
   1.00000000000000     
    19.8406700632652857   -0.0001500141490721    0.0462017430132450
    -9.9204536637722605   17.0520329932980630    0.0071216864106735
     0.0692775578834204    0.0527307033298747   29.7423458494881245
   Cu   H    C    O 
     1     1   126     2
Direct
  0.4373193851858375  0.4998746252817463  0.4075996820188522
  0.5277316208141585  0.5485634337116729  0.5159995078517565
  0.0418525249430475  0.0839598201021522  0.4000107754834826
  0.0406180170709053  0.2079065004288101  0.4002213023917044
  0.0399727344801107  0.3326397252043619  0.4000040980582935
  0.0400759615731610  0.4581875990509226  0.3994338739081558
  0.0411664176450681  0.5837877706621938  0.3991334402433593
  0.0420882318224630  0.7092208504131483  0.3992907710204832
  0.0424668670157224  0.8346175187038763  0.3994700362152147
  0.0424876836860102  0.9596095380413531  0.3996579661615589
  0.1677234126143409  0.0855277398312848  0.4005958394165450
  0.1669681177541335  0.2099428773534852  0.4014075446741382
  0.1646624868666094  0.3330737717589228  0.4016755381242986
  0.1633503937826125  0.4582177504595646  0.4011140881503383
  0.1646126615384433  0.5836321913108019  0.4000779945182900
  0.1662988697749624  0.7091846551489264  0.3994320625146667
  0.1671119637688933  0.8346257355313177  0.3994768869271189
  0.1675551575998798  0.9600939588692007  0.3998277234381200
  0.2927887108373758  0.0855323061614017  0.4005715839885824
  0.2935287799000610  0.2121171065685019  0.4020425601626431
  0.2924375315751968  0.3376026628875652  0.4034058092868799
  0.2859041636143917  0.4578336956510912  0.4035735828900372
  0.2879257992951868  0.5837812239906400  0.4022538274581961
  0.2905319616546548  0.7088550242065342  0.4006150971395380
  0.2914490522428079  0.8340393966739196  0.3995933370790902
  0.2921229206464601  0.9596082075600607  0.3996312593341497
  0.4170951806504836  0.0839715840467094  0.3999960159664778
  0.4179221816596290  0.2099633372025593  0.4013358183212971
  0.4200621044278490  0.3376221699772686  0.4033967102259130
  0.4097379937405876  0.5795991128670380  0.4047044027782769
  0.4146828016315510  0.7064152125144728  0.4024297802828648
  0.4159305855663813  0.8325540369508097  0.4005086824472205
  0.4165918393081993  0.9582855545969617  0.3996338328673248
  0.5415979765798492  0.0825009253163625  0.3995635297014981
  0.5422551088946376  0.2079321056380474  0.4002132848803683
  0.5433303856023473  0.3331040233684301  0.4015711740686872
  0.5467571815641445  0.4578258298486194  0.4035369046869471
  0.5447139746312245  0.5796084438766830  0.4049670144888705
  0.5394533478647021  0.7040954252778420  0.4036150660135459
  0.5402327032323027  0.8307676886277189  0.4014965159693846
  0.5410007679664297  0.9568020149457693  0.4000245725582117
  0.6660379145227147  0.0817956845287882  0.3996188825171125
  0.6666114911064431  0.2072631351229539  0.3994504028342064
  0.6675963809895019  0.3326577591614633  0.3999538630015539
  0.6697809653570499  0.4582356801041781  0.4010071332236591
  0.6707570305452930  0.5838056479225568  0.4021990218109576
  0.6666336695580964  0.7064301624925808  0.4024793527589314
  0.6654490639114377  0.8307691662219121  0.4015177672681503
  0.6656238596958607  0.9562851318084681  0.4002899485200080
  0.7907483318094045  0.0817854223831535  0.3995998600781065
  0.7910108971754830  0.2070770287278707  0.3994911566461137
  0.7917148271459638  0.3325804080317907  0.3992404248190193
  0.7930257751181246  0.4582009756167837  0.3994058281193795
  0.7939310182387791  0.5836362879112466  0.4000247959677573
  0.7932755874909977  0.7088769420438065  0.4006295813401688
  0.7915651381987656  0.8325550143682495  0.4005215686460342
  0.7907601535570743  0.9567970104585884  0.3999914494885424
  0.9158874139511866  0.0824834294497326  0.3995387314937460
  0.9155893137125312  0.2072422467779847  0.3994653520580734
  0.9157987094491473  0.3325720940064071  0.3992671666501909
  0.9165216626520140  0.4581192906327424  0.3990475778985533
  0.9175436720529129  0.5837875180900132  0.3991259903664878
  0.9178210289180400  0.7091726602691464  0.3993949042440842
  0.9175629180119472  0.8340398601622010  0.3995845969348309
  0.9166834000509911  0.9582770267476680  0.3996210216145419
  0.0841913415649881  0.0431519549976776  0.4000778471176543
  0.0833694791203517  0.1673883931113411  0.4005255053592356
  0.0816479941262503  0.2910723601972069  0.4006007089025724
  0.0809473433950518  0.4163043478452683  0.4000899197773923
  0.0818624505042684  0.5417565565133291  0.3994166993641948
  0.0832124412106213  0.6673810060435348  0.3992347150104490
  0.0839183384155180  0.7928804306991127  0.3994808495448041
  0.0842318553523280  0.9181625260355469  0.3996421442748668
  0.2093370211232334  0.0436780042946403  0.4003394531665889
  0.2094686298694524  0.1691770433813238  0.4013865477194140
  0.2082583208842493  0.2935030836451071  0.4022141109619482
  0.2041023170131570  0.4161055351283740  0.4021483009079992
  0.2050841048853579  0.5416932639523909  0.4011308454969660
  0.2073033005967088  0.6672989560218224  0.3999711966170206
  0.2083179309355480  0.7927074179832588  0.3994269425817905
  0.2089402758401359  0.9181718400509001  0.3996135780647864
  0.3339490154862578  0.0431577806675848  0.4000471845995515
  0.3346661232210257  0.1691851753831980  0.4013608888666981
  0.3353646943270721  0.2958321702655508  0.4031836038614550
  0.3300784782453993  0.4202471339245110  0.4043596211943973
  0.3279873585064745  0.5420189030376228  0.4036977047931469
  0.3315285949902487  0.6668263496481747  0.4018100096626245
  0.3326665101253831  0.7920252845850833  0.4001873354129847
  0.3333720873442816  0.9174630557057334  0.3995295683466429
  0.4583735150939470  0.0416797863172850  0.3996606200297909
  0.4589873299433783  0.1674090462093450  0.4004824815892623
  0.4601658673283670  0.2935239703870154  0.4021094766473923
  0.4650252891261571  0.4202489491046523  0.4044869270807642
  0.4547492587135741  0.6622821445832561  0.4037822307978708
  0.4569704144642773  0.7899890530045759  0.4015183838676739
  0.4578510193576036  0.9159851986313481  0.3999621420415451
  0.5828500751580004  0.0403542098418933  0.3996348124357499
  0.5834924498661069  0.1659228301954064  0.3996529513184877
  0.5843608252067468  0.2910960659867405  0.4005521378836692
  0.5868876483267420  0.4161198928177714  0.4020206755963377
  0.5888788482807663  0.5420337469255395  0.4037284423821529
  0.5823923190188027  0.6622903436974923  0.4039111615475768
  0.5813556271328745  0.7878179232780161  0.4023012642126753
  0.5821588762678623  0.9144281337732301  0.4005673981284420
  0.7074385871504217  0.0398667416497291  0.3997804907869810
  0.7078240196483813  0.1653437110751797  0.3994929915890161
  0.7086168943740867  0.2907836596058413  0.3994390630840293
  0.7102703654882724  0.4163202163529197  0.4000287526743930
  0.7115201194734107  0.5416887038353241  0.4010419173211534
  0.7102163214334425  0.6668397937591591  0.4018194565216571
  0.7079491246571532  0.7900086454327769  0.4015504360349421
  0.7072289289865608  0.9144257768865152  0.4005556788297444
  0.8324988267801773  0.0403504132331880  0.3996004194842218
  0.8324729577130949  0.1653344771404452  0.3994850193015196
  0.8328456656569606  0.2907323917968677  0.3993118006954753
  0.8337296079561973  0.4161685795061233  0.3991473109586369
  0.8348084056789135  0.5417542468292529  0.3993925499673703
  0.8349250116946394  0.6672983005180056  0.3999518829112532
  0.8343251509546772  0.7920419467675952  0.4002104870143054
  0.8331098669106808  0.9159965867476146  0.3999442901588054
  0.9582975645449028  0.0416644680398364  0.3996476964323158
  0.9573890696807803  0.1659022389900121  0.3996462736977652
  0.9570955805341184  0.2907631795867199  0.3994818711363413
  0.9573574482247771  0.4161658560165633  0.3991566064530536
  0.9583884205404780  0.5418335349571640  0.3990402055862337
  0.9591244363354823  0.6673723867107381  0.3992095913081809
  0.9593399421729831  0.7926956104176123  0.3993911625670009
  0.9590987332884767  0.9174683796405173  0.3995262872344826
  0.4878364923715417  0.4937873443987121  0.5094836675073272
  0.4307513031382939  0.4999292085747118  0.4874578315666289
 
  0.00000000E+00  0.00000000E+00  0.00000000E+00
  0.00000000E+00  0.00000000E+00  0.00000000E+00
  0.00000000E+00  0.00000000E+00  0.00000000E+00
  0.00000000E+00  0.00000000E+00  0.00000000E+00
  0.00000000E+00  0.00000000E+00  0.00000000E+00
  0.00000000E+00  0.00000000E+00  0.00000000E+00
  0.00000000E+00  0.00000000E+00  0.00000000E+00
  0.00000000E+00  0.00000000E+00  0.00000000E+00
  0.00000000E+00  0.00000000E+00  0.00000000E+00
  0.00000000E+00  0.00000000E+00  0.00000000E+00
  0.00000000E+00  0.00000000E+00  0.00000000E+00
  0.00000000E+00  0.00000000E+00  0.00000000E+00
  0.00000000E+00  0.00000000E+00  0.00000000E+00
  0.00000000E+00  0.00000000E+00  0.00000000E+00
  0.00000000E+00  0.00000000E+00  0.00000000E+00
  0.00000000E+00  0.00000000E+00  0.00000000E+00
  0.00000000E+00  0.00000000E+00  0.00000000E+00
  0.00000000E+00  0.00000000E+00  0.00000000E+00
  0.00000000E+00  0.00000000E+00  0.00000000E+00
  0.00000000E+00  0.00000000E+00  0.00000000E+00
  0.00000000E+00  0.00000000E+00  0.00000000E+00
  0.00000000E+00  0.00000000E+00  0.00000000E+00
  0.00000000E+00  0.00000000E+00  0.00000000E+00
  0.00000000E+00  0.00000000E+00  0.00000000E+00
  0.00000000E+00  0.00000000E+00  0.00000000E+00
  0.00000000E+00  0.00000000E+00  0.00000000E+00
  0.00000000E+00  0.00000000E+00  0.00000000E+00
  0.00000000E+00  0.00000000E+00  0.00000000E+00
  0.00000000E+00  0.00000000E+00  0.00000000E+00
  0.00000000E+00  0.00000000E+00  0.00000000E+00
  0.00000000E+00  0.00000000E+00  0.00000000E+00
  0.00000000E+00  0.00000000E+00  0.00000000E+00
  0.00000000E+00  0.00000000E+00  0.00000000E+00
  0.00000000E+00  0.00000000E+00  0.00000000E+00
  0.00000000E+00  0.00000000E+00  0.00000000E+00
  0.00000000E+00  0.00000000E+00  0.00000000E+00
  0.00000000E+00  0.00000000E+00  0.00000000E+00
  0.00000000E+00  0.00000000E+00  0.00000000E+00
  0.00000000E+00  0.00000000E+00  0.00000000E+00
  0.00000000E+00  0.00000000E+00  0.00000000E+00
  0.00000000E+00  0.00000000E+00  0.00000000E+00
  0.00000000E+00  0.00000000E+00  0.00000000E+00
  0.00000000E+00  0.00000000E+00  0.00000000E+00
  0.00000000E+00  0.00000000E+00  0.00000000E+00
  0.00000000E+00  0.00000000E+00  0.00000000E+00
  0.00000000E+00  0.00000000E+00  0.00000000E+00
  0.00000000E+00  0.00000000E+00  0.00000000E+00
  0.00000000E+00  0.00000000E+00  0.00000000E+00
  0.00000000E+00  0.00000000E+00  0.00000000E+00
  0.00000000E+00  0.00000000E+00  0.00000000E+00
  0.00000000E+00  0.00000000E+00  0.00000000E+00
  0.00000000E+00  0.00000000E+00  0.00000000E+00
  0.00000000E+00  0.00000000E+00  0.00000000E+00
  0.00000000E+00  0.00000000E+00  0.00000000E+00
  0.00000000E+00  0.00000000E+00  0.00000000E+00
  0.00000000E+00  0.00000000E+00  0.00000000E+00
  0.00000000E+00  0.00000000E+00  0.00000000E+00
  0.00000000E+00  0.00000000E+00  0.00000000E+00
  0.00000000E+00  0.00000000E+00  0.00000000E+00
  0.00000000E+00  0.00000000E+00  0.00000000E+00
  0.00000000E+00  0.00000000E+00  0.00000000E+00
  0.00000000E+00  0.00000000E+00  0.00000000E+00
  0.00000000E+00  0.00000000E+00  0.00000000E+00
  0.00000000E+00  0.00000000E+00  0.00000000E+00
  0.00000000E+00  0.00000000E+00  0.00000000E+00
  0.00000000E+00  0.00000000E+00  0.00000000E+00
  0.00000000E+00  0.00000000E+00  0.00000000E+00
  0.00000000E+00  0.00000000E+00  0.00000000E+00
  0.00000000E+00  0.00000000E+00  0.00000000E+00
  0.00000000E+00  0.00000000E+00  0.00000000E+00
  0.00000000E+00  0.00000000E+00  0.00000000E+00
  0.00000000E+00  0.00000000E+00  0.00000000E+00
  0.00000000E+00  0.00000000E+00  0.00000000E+00
  0.00000000E+00  0.00000000E+00  0.00000000E+00
  0.00000000E+00  0.00000000E+00  0.00000000E+00
  0.00000000E+00  0.00000000E+00  0.00000000E+00
  0.00000000E+00  0.00000000E+00  0.00000000E+00
  0.00000000E+00  0.00000000E+00  0.00000000E+00
  0.00000000E+00  0.00000000E+00  0.00000000E+00
  0.00000000E+00  0.00000000E+00  0.00000000E+00
  0.00000000E+00  0.00000000E+00  0.00000000E+00
  0.00000000E+00  0.00000000E+00  0.00000000E+00
  0.00000000E+00  0.00000000E+00  0.00000000E+00
  0.00000000E+00  0.00000000E+00  0.00000000E+00
  0.00000000E+00  0.00000000E+00  0.00000000E+00
  0.00000000E+00  0.00000000E+00  0.00000000E+00
  0.00000000E+00  0.00000000E+00  0.00000000E+00
  0.00000000E+00  0.00000000E+00  0.00000000E+00
  0.00000000E+00  0.00000000E+00  0.00000000E+00
  0.00000000E+00  0.00000000E+00  0.00000000E+00
  0.00000000E+00  0.00000000E+00  0.00000000E+00
  0.00000000E+00  0.00000000E+00  0.00000000E+00
  0.00000000E+00  0.00000000E+00  0.00000000E+00
  0.00000000E+00  0.00000000E+00  0.00000000E+00
  0.00000000E+00  0.00000000E+00  0.00000000E+00
  0.00000000E+00  0.00000000E+00  0.00000000E+00
  0.00000000E+00  0.00000000E+00  0.00000000E+00
  0.00000000E+00  0.00000000E+00  0.00000000E+00
  0.00000000E+00  0.00000000E+00  0.00000000E+00
  0.00000000E+00  0.00000000E+00  0.00000000E+00
  0.00000000E+00  0.00000000E+00  0.00000000E+00
  0.00000000E+00  0.00000000E+00  0.00000000E+00
  0.00000000E+00  0.00000000E+00  0.00000000E+00
  0.00000000E+00  0.00000000E+00  0.00000000E+00
  0.00000000E+00  0.00000000E+00  0.00000000E+00
  0.00000000E+00  0.00000000E+00  0.00000000E+00
  0.00000000E+00  0.00000000E+00  0.00000000E+00
  0.00000000E+00  0.00000000E+00  0.00000000E+00
  0.00000000E+00  0.00000000E+00  0.00000000E+00
  0.00000000E+00  0.00000000E+00  0.00000000E+00
  0.00000000E+00  0.00000000E+00  0.00000000E+00
  0.00000000E+00  0.00000000E+00  0.00000000E+00
  0.00000000E+00  0.00000000E+00  0.00000000E+00
  0.00000000E+00  0.00000000E+00  0.00000000E+00
  0.00000000E+00  0.00000000E+00  0.00000000E+00
  0.00000000E+00  0.00000000E+00  0.00000000E+00
  0.00000000E+00  0.00000000E+00  0.00000000E+00
  0.00000000E+00  0.00000000E+00  0.00000000E+00
  0.00000000E+00  0.00000000E+00  0.00000000E+00
  0.00000000E+00  0.00000000E+00  0.00000000E+00
  0.00000000E+00  0.00000000E+00  0.00000000E+00
  0.00000000E+00  0.00000000E+00  0.00000000E+00
  0.00000000E+00  0.00000000E+00  0.00000000E+00
  0.00000000E+00  0.00000000E+00  0.00000000E+00
  0.00000000E+00  0.00000000E+00  0.00000000E+00
  0.00000000E+00  0.00000000E+00  0.00000000E+00
  0.00000000E+00  0.00000000E+00  0.00000000E+00
  0.00000000E+00  0.00000000E+00  0.00000000E+00
  0.00000000E+00  0.00000000E+00  0.00000000E+00
  0.00000000E+00  0.00000000E+00  0.00000000E+00
