Co1 H1 C123 N3                          
   1.00000000000000     
    19.8085389349113363    0.0039481228914401    0.1350606521014031
    -9.9008788939887431   17.0137866642260853   -0.2174707079985401
     0.2031623024328303   -0.2624967426248127   29.8574063434486092
   Co   H    C    N 
     1     1   123     3
Direct
  0.4370702088704823  0.4992726206557043  0.4077105146498059
  0.4399883105116343  0.4835287769935155  0.4543696608147974
  0.0420573538989967  0.0846158620196808  0.4005921870846030
  0.0409063895555918  0.2084788272997035  0.4008558822501609
  0.0401895064156594  0.3330438568486292  0.4003883791290652
  0.0404451011105413  0.4583408571546040  0.3995905688840703
  0.0413600705865920  0.5839395498148697  0.3989847098675752
  0.0422057946799876  0.7094774864529451  0.3989393258678098
  0.0425200509036914  0.8349053716779772  0.3991963683630990
  0.0425374249505552  0.9600463098153166  0.3997142071664378
  0.1679914732080637  0.0863061700214084  0.4011487150883777
  0.1676957928221518  0.2111889227143279  0.4023670432622372
  0.1651153621094351  0.3341161656056219  0.4023550688688931
  0.1642042932149518  0.4586494704535081  0.4013212967385289
  0.1650677295175604  0.5837770380868300  0.4002299060216086
  0.1664041468268302  0.7092735629225685  0.3994444284357910
  0.1671767211004530  0.8348882857958905  0.3991940144520460
  0.1676505544909721  0.9606181868542721  0.3998087275589124
  0.2928378084911347  0.0864865746132071  0.4012355484218207
  0.2937026263481058  0.2138014537867318  0.4032922799861736
  0.2932076799855180  0.3401176684921911  0.4042807472740183
  0.2878034210596065  0.4583769919410000  0.4033620466335316
  0.2883969800984656  0.5832623482086516  0.4019633769442088
  0.2905358143094097  0.7086277966356294  0.4007338597509901
  0.2916299156575141  0.8342003455961209  0.3997202521613493
  0.2922324587203203  0.9601067658082170  0.3997428591872894
  0.4171782326556183  0.0846855700096896  0.4006837559901054
  0.4179373846490036  0.2112656574347251  0.4026676086816119
  0.4201031556224800  0.3395643235486076  0.4050410505491843
  0.4143921151945555  0.7056213883107397  0.4023981689087816
  0.4159573205096772  0.8322064977916056  0.4008963576552821
  0.4166365251212775  0.9584363835558860  0.3999447209169931
  0.5414832961459041  0.0826881718404751  0.3998456938104017
  0.5421992724994925  0.2086461638458776  0.4010918548951309
  0.5434246006683973  0.3343728425680662  0.4032105388695176
  0.5468791919399610  0.4596758906524917  0.4049975252510010
  0.5376680926579344  0.7008330482381888  0.4038453377523619
  0.5400819184917849  0.8297276496405140  0.4018509464233744
  0.5409321452597027  0.9564865688195718  0.4002789486497711
  0.6659112009474770  0.0817846458605763  0.3995738243886816
  0.6665120413785796  0.2074648657301159  0.3995303989847883
  0.6675075405073527  0.3330490945351942  0.4006451210790344
  0.6696550304597885  0.4587218958779165  0.4022740228853460
  0.6705006064695908  0.5841694199619750  0.4033831551788631
  0.6656665138222780  0.7054748974169260  0.4030707976822629
  0.6642803983321198  0.8297487576409738  0.4019664224110136
  0.6653118926822572  0.9559517837499671  0.4005705610622238
  0.7905447620196731  0.0817673523330983  0.3996153527270211
  0.7909364414825364  0.2071816700447451  0.3990760580994227
  0.7916774956004704  0.3327281168529320  0.3990121038939741
  0.7929379418448935  0.4583931439928395  0.3997265715803661
  0.7937535553979669  0.5838854119266047  0.4007210867551074
  0.7931499862049335  0.7089766975117011  0.4012366054320858
  0.7908452326543520  0.8321542294353185  0.4010948557927607
  0.7901929866849708  0.9564861366461364  0.4003131711862516
  0.9158030706430736  0.0826094359230829  0.3998290954544875
  0.9155920366190001  0.2074443517808397  0.3995505654752089
  0.9158260328682035  0.3327310260504542  0.3990450298966028
  0.9166560445949853  0.4582891673579630  0.3986987812755798
  0.9175897311756200  0.5839615800666030  0.3989831767568139
  0.9177999983985358  0.7093494422786356  0.3995149482927904
  0.9174082709718149  0.8342822146654578  0.3998065517092285
  0.9164413995900104  0.9583776331112324  0.3999853223120160
  0.0844174344935068  0.0437994661430076  0.4004332002221572
  0.0838558241063981  0.1682991173788047  0.4013153888584947
  0.0820679313147591  0.2918487178029102  0.4012377465778175
  0.0815060660430384  0.4165521308513362  0.4004262561024659
  0.0822286260082215  0.5419691689896246  0.3995469531361387
  0.0833162640099030  0.6675612741010536  0.3990510139661006
  0.0840017404205524  0.7931410073586557  0.3990583596309390
  0.0842867005518808  0.9185854380174447  0.3994898431006568
  0.2094882413155517  0.0444033566786079  0.4007137744180004
  0.2099178858690747  0.1703144602634963  0.4023470604743575
  0.2091550268764246  0.2951555040661150  0.4031199798020297
  0.2056339648402960  0.4172306013493722  0.4023931785224680
  0.2055973011778844  0.5417355717499561  0.4011503890310144
  0.2073874102906191  0.6673246697774552  0.4000855150458038
  0.2084579878223053  0.7929067437158793  0.3993712418370201
  0.2090599301462323  0.9185995839814097  0.3995074387345054
  0.3339870597091248  0.0439004762186718  0.4005041436582260
  0.3346865014511323  0.1705615740828473  0.4025133299232809
  0.3359388055763683  0.2983306699959686  0.4045325802359079
  0.3295100981133977  0.5424488284013689  0.4031407629488834
  0.3313450745601721  0.6664619644829253  0.4017383567456074
  0.3328115156565544  0.7919634432584622  0.4004223762470386
  0.3334835727572897  0.9177601339147383  0.3997024055319485
  0.4583492861439896  0.0420501404695644  0.4000696465902469
  0.4589392546036582  0.1683282349844998  0.4015299058962787
  0.4600933542667728  0.2951352697275750  0.4037346970149722
  0.4648422002533738  0.4231648472033863  0.4058100174503581
  0.4531149654070077  0.6602867624898461  0.4036424588028782
  0.4569398251847920  0.7893667258550306  0.4017804237870209
  0.4577898368751844  0.9158262904133074  0.4003437956689626
  0.5827070211380203  0.0402871523517144  0.3997460458144461
  0.5833271680317488  0.1662788884729897  0.4000358826879725
  0.5842992600717565  0.2920349478080901  0.4016997323649820
  0.5868828820185578  0.4175940921924833  0.4036299011604623
  0.5888548521238721  0.5431415054637214  0.4047870533432156
  0.5812659464680299  0.6598667502450757  0.4042766425939067
  0.5802842790004232  0.7859361664538419  0.4026697013960122
  0.5820347157571171  0.9138460057785004  0.4008894686123524
  0.7072251078304024  0.0397390856679501  0.3998562767501032
  0.7077663223511762  0.1654654908418888  0.3992620383715249
  0.7084987806638825  0.2910692172205463  0.3995930223980076
  0.7101243057709644  0.4166654391146152  0.4008145134770392
  0.7112786166126762  0.5419632379883278  0.4021903581104231
  0.7102068740304455  0.6669740645277544  0.4026553127176113
  0.7068941505414700  0.7892609569385052  0.4020694530778290
  0.7064621766649205  0.9138476681253497  0.4009254384588216
  0.8322282940696176  0.0402715588620478  0.3997755472343703
  0.8323598024448392  0.1654536474070551  0.3993025087244718
  0.8328037297499541  0.2908226007515887  0.3988898918885547
  0.8337724343678270  0.4163897652981596  0.3989614399758964
  0.8347711121458888  0.5420148766819346  0.3997064289594043
  0.8348803089257019  0.6674531944757556  0.4004468857993944
  0.8340274410177334  0.7921400309723932  0.4006631925312304
  0.8326598890560258  0.9157811266519099  0.4004207727290641
  0.9582830566775261  0.0419897137246003  0.4000481179033540
  0.9575063063737388  0.1661615615434399  0.3999760209917705
  0.9572446815931792  0.2910713957372951  0.3995896744056489
  0.9575675803245657  0.4163672604834571  0.3989733311712436
  0.9585105656213699  0.5420035630331107  0.3987316157093377
  0.9592077623556463  0.6675741840758986  0.3990395818347461
  0.9592951502844634  0.7929501702309113  0.3994185139465692
  0.9589899029957333  0.9177696857785257  0.3997282519730350
  0.4091930782449010  0.5796428200244443  0.4042716783653364
  0.5448526655359258  0.5790000286827027  0.4052039454809994
  0.3311306410839395  0.4216465793932109  0.4043554555506507
 
  0.00000000E+00  0.00000000E+00  0.00000000E+00
  0.00000000E+00  0.00000000E+00  0.00000000E+00
  0.00000000E+00  0.00000000E+00  0.00000000E+00
  0.00000000E+00  0.00000000E+00  0.00000000E+00
  0.00000000E+00  0.00000000E+00  0.00000000E+00
  0.00000000E+00  0.00000000E+00  0.00000000E+00
  0.00000000E+00  0.00000000E+00  0.00000000E+00
  0.00000000E+00  0.00000000E+00  0.00000000E+00
  0.00000000E+00  0.00000000E+00  0.00000000E+00
  0.00000000E+00  0.00000000E+00  0.00000000E+00
  0.00000000E+00  0.00000000E+00  0.00000000E+00
  0.00000000E+00  0.00000000E+00  0.00000000E+00
  0.00000000E+00  0.00000000E+00  0.00000000E+00
  0.00000000E+00  0.00000000E+00  0.00000000E+00
  0.00000000E+00  0.00000000E+00  0.00000000E+00
  0.00000000E+00  0.00000000E+00  0.00000000E+00
  0.00000000E+00  0.00000000E+00  0.00000000E+00
  0.00000000E+00  0.00000000E+00  0.00000000E+00
  0.00000000E+00  0.00000000E+00  0.00000000E+00
  0.00000000E+00  0.00000000E+00  0.00000000E+00
  0.00000000E+00  0.00000000E+00  0.00000000E+00
  0.00000000E+00  0.00000000E+00  0.00000000E+00
  0.00000000E+00  0.00000000E+00  0.00000000E+00
  0.00000000E+00  0.00000000E+00  0.00000000E+00
  0.00000000E+00  0.00000000E+00  0.00000000E+00
  0.00000000E+00  0.00000000E+00  0.00000000E+00
  0.00000000E+00  0.00000000E+00  0.00000000E+00
  0.00000000E+00  0.00000000E+00  0.00000000E+00
  0.00000000E+00  0.00000000E+00  0.00000000E+00
  0.00000000E+00  0.00000000E+00  0.00000000E+00
  0.00000000E+00  0.00000000E+00  0.00000000E+00
  0.00000000E+00  0.00000000E+00  0.00000000E+00
  0.00000000E+00  0.00000000E+00  0.00000000E+00
  0.00000000E+00  0.00000000E+00  0.00000000E+00
  0.00000000E+00  0.00000000E+00  0.00000000E+00
  0.00000000E+00  0.00000000E+00  0.00000000E+00
  0.00000000E+00  0.00000000E+00  0.00000000E+00
  0.00000000E+00  0.00000000E+00  0.00000000E+00
  0.00000000E+00  0.00000000E+00  0.00000000E+00
  0.00000000E+00  0.00000000E+00  0.00000000E+00
  0.00000000E+00  0.00000000E+00  0.00000000E+00
  0.00000000E+00  0.00000000E+00  0.00000000E+00
  0.00000000E+00  0.00000000E+00  0.00000000E+00
  0.00000000E+00  0.00000000E+00  0.00000000E+00
  0.00000000E+00  0.00000000E+00  0.00000000E+00
  0.00000000E+00  0.00000000E+00  0.00000000E+00
  0.00000000E+00  0.00000000E+00  0.00000000E+00
  0.00000000E+00  0.00000000E+00  0.00000000E+00
  0.00000000E+00  0.00000000E+00  0.00000000E+00
  0.00000000E+00  0.00000000E+00  0.00000000E+00
  0.00000000E+00  0.00000000E+00  0.00000000E+00
  0.00000000E+00  0.00000000E+00  0.00000000E+00
  0.00000000E+00  0.00000000E+00  0.00000000E+00
  0.00000000E+00  0.00000000E+00  0.00000000E+00
  0.00000000E+00  0.00000000E+00  0.00000000E+00
  0.00000000E+00  0.00000000E+00  0.00000000E+00
  0.00000000E+00  0.00000000E+00  0.00000000E+00
  0.00000000E+00  0.00000000E+00  0.00000000E+00
  0.00000000E+00  0.00000000E+00  0.00000000E+00
  0.00000000E+00  0.00000000E+00  0.00000000E+00
  0.00000000E+00  0.00000000E+00  0.00000000E+00
  0.00000000E+00  0.00000000E+00  0.00000000E+00
  0.00000000E+00  0.00000000E+00  0.00000000E+00
  0.00000000E+00  0.00000000E+00  0.00000000E+00
  0.00000000E+00  0.00000000E+00  0.00000000E+00
  0.00000000E+00  0.00000000E+00  0.00000000E+00
  0.00000000E+00  0.00000000E+00  0.00000000E+00
  0.00000000E+00  0.00000000E+00  0.00000000E+00
  0.00000000E+00  0.00000000E+00  0.00000000E+00
  0.00000000E+00  0.00000000E+00  0.00000000E+00
  0.00000000E+00  0.00000000E+00  0.00000000E+00
  0.00000000E+00  0.00000000E+00  0.00000000E+00
  0.00000000E+00  0.00000000E+00  0.00000000E+00
  0.00000000E+00  0.00000000E+00  0.00000000E+00
  0.00000000E+00  0.00000000E+00  0.00000000E+00
  0.00000000E+00  0.00000000E+00  0.00000000E+00
  0.00000000E+00  0.00000000E+00  0.00000000E+00
  0.00000000E+00  0.00000000E+00  0.00000000E+00
  0.00000000E+00  0.00000000E+00  0.00000000E+00
  0.00000000E+00  0.00000000E+00  0.00000000E+00
  0.00000000E+00  0.00000000E+00  0.00000000E+00
  0.00000000E+00  0.00000000E+00  0.00000000E+00
  0.00000000E+00  0.00000000E+00  0.00000000E+00
  0.00000000E+00  0.00000000E+00  0.00000000E+00
  0.00000000E+00  0.00000000E+00  0.00000000E+00
  0.00000000E+00  0.00000000E+00  0.00000000E+00
  0.00000000E+00  0.00000000E+00  0.00000000E+00
  0.00000000E+00  0.00000000E+00  0.00000000E+00
  0.00000000E+00  0.00000000E+00  0.00000000E+00
  0.00000000E+00  0.00000000E+00  0.00000000E+00
  0.00000000E+00  0.00000000E+00  0.00000000E+00
  0.00000000E+00  0.00000000E+00  0.00000000E+00
  0.00000000E+00  0.00000000E+00  0.00000000E+00
  0.00000000E+00  0.00000000E+00  0.00000000E+00
  0.00000000E+00  0.00000000E+00  0.00000000E+00
  0.00000000E+00  0.00000000E+00  0.00000000E+00
  0.00000000E+00  0.00000000E+00  0.00000000E+00
  0.00000000E+00  0.00000000E+00  0.00000000E+00
  0.00000000E+00  0.00000000E+00  0.00000000E+00
  0.00000000E+00  0.00000000E+00  0.00000000E+00
  0.00000000E+00  0.00000000E+00  0.00000000E+00
  0.00000000E+00  0.00000000E+00  0.00000000E+00
  0.00000000E+00  0.00000000E+00  0.00000000E+00
  0.00000000E+00  0.00000000E+00  0.00000000E+00
  0.00000000E+00  0.00000000E+00  0.00000000E+00
  0.00000000E+00  0.00000000E+00  0.00000000E+00
  0.00000000E+00  0.00000000E+00  0.00000000E+00
  0.00000000E+00  0.00000000E+00  0.00000000E+00
  0.00000000E+00  0.00000000E+00  0.00000000E+00
  0.00000000E+00  0.00000000E+00  0.00000000E+00
  0.00000000E+00  0.00000000E+00  0.00000000E+00
  0.00000000E+00  0.00000000E+00  0.00000000E+00
  0.00000000E+00  0.00000000E+00  0.00000000E+00
  0.00000000E+00  0.00000000E+00  0.00000000E+00
  0.00000000E+00  0.00000000E+00  0.00000000E+00
  0.00000000E+00  0.00000000E+00  0.00000000E+00
  0.00000000E+00  0.00000000E+00  0.00000000E+00
  0.00000000E+00  0.00000000E+00  0.00000000E+00
  0.00000000E+00  0.00000000E+00  0.00000000E+00
  0.00000000E+00  0.00000000E+00  0.00000000E+00
  0.00000000E+00  0.00000000E+00  0.00000000E+00
  0.00000000E+00  0.00000000E+00  0.00000000E+00
  0.00000000E+00  0.00000000E+00  0.00000000E+00
  0.00000000E+00  0.00000000E+00  0.00000000E+00
  0.00000000E+00  0.00000000E+00  0.00000000E+00
  0.00000000E+00  0.00000000E+00  0.00000000E+00
  0.00000000E+00  0.00000000E+00  0.00000000E+00
  0.00000000E+00  0.00000000E+00  0.00000000E+00
