Hf1 H1 C122 N4 O2                       
   1.00000000000000     
    19.7997732783258762   -0.0005997480194908   -0.1401459113038961
    -9.9010193622997633   17.0422707963030931   -0.1040062090032824
    -0.2109981698004226   -0.3045392951479729   29.8255917819525429
   Hf   H    C    N    O 
     1     1   122     4     2
Direct
  0.4380323862632382  0.5020466014011072  0.4362910805074480
  0.5412858926634571  0.5580040195435131  0.5128981106604206
  0.0422011146361374  0.0842097458820660  0.3996740148000082
  0.0414346377556865  0.2084627522287021  0.3996487610301691
  0.0407453773622810  0.3332692783834372  0.3994066224680534
  0.0407810676313080  0.4584255348493072  0.3991397373837925
  0.0415229652801537  0.5837860469258545  0.3995054672194341
  0.0422375894930239  0.7091918218733132  0.3999401867150217
  0.0423549859985941  0.8342738421318708  0.3999566804516906
  0.0425577865335090  0.9595409068781097  0.3997022132455462
  0.1680549959675672  0.0854199043989863  0.3999555229379359
  0.1677055848718703  0.2101247626410608  0.4001956455015321
  0.1655624921505342  0.3339863000069084  0.4006322444093134
  0.1646714834771288  0.4585861264349639  0.3995899180127621
  0.1654870979728505  0.5837962872106155  0.3991126811426836
  0.1665585139577032  0.7089833669302662  0.3995772143363869
  0.1671485862049588  0.8342463793554655  0.3998663542771051
  0.1675136248589115  0.9597804353710423  0.3998865385279436
  0.2926475929381888  0.0854112226428752  0.3999059371719884
  0.2939362185752902  0.2125180071132817  0.4012725573325668
  0.2922356540205529  0.3374821535820747  0.4034445462853191
  0.2883934664724002  0.4585600291222163  0.4029412779142426
  0.2890366376766975  0.5831849745938871  0.4005992425945865
  0.2909557102659363  0.7082771984399983  0.3995214344918768
  0.2918764974090206  0.8338174850870425  0.3995296812969635
  0.2922099701277290  0.9594689774066040  0.3996230949660726
  0.4172519005458754  0.0842063499646751  0.3995678361154979
  0.4177009532787919  0.2102734023465892  0.4000005273445413
  0.4208773046956048  0.3380254219663355  0.4032572159812878
  0.4155094207404625  0.7067111619079615  0.4003419051250591
  0.4164118944350391  0.8325759089434249  0.3994451123361895
  0.4168406025116224  0.9583115178822971  0.3995195261194409
  0.5417840888015819  0.0829089419129034  0.3996202693296216
  0.5422626424736139  0.2084510305589256  0.3995998325058127
  0.5436784370509387  0.3339879375108861  0.4002853225402941
  0.5454327718258856  0.4585199434910380  0.4024504976465208
  0.5391887263764849  0.7030608217244122  0.4023510838329675
  0.5409376733961172  0.8309279438361525  0.3999435574680962
  0.5415128996853917  0.9571442511076769  0.3996610472017338
  0.6664353545215846  0.0823751051525899  0.3999462292675450
  0.6669512119727800  0.2078495640915346  0.3997980368944766
  0.6677768050748077  0.3332632104333460  0.3995802616148119
  0.6691336153755451  0.4585615035731627  0.3995455781356674
  0.6693479468888979  0.5831454174985884  0.4001849594953747
  0.6663270980422878  0.7065442083079952  0.4000701592136338
  0.6652356244757686  0.8309365487474988  0.3998393421736575
  0.6660754290431212  0.9568768567090696  0.3998583006802954
  0.7912405576902467  0.0823980452911722  0.3998640755917081
  0.7915189319721211  0.2077341650233158  0.3999690252180183
  0.7920006955642845  0.3330212124358033  0.3998054587280550
  0.7928569893568944  0.4583960619508705  0.3995260536317398
  0.7934922407427514  0.5837563131672473  0.3993423676106352
  0.7925974275620319  0.7083212667518880  0.3994449990653811
  0.7913414324843416  0.8325396076712985  0.3993408240609014
  0.7909103608793805  0.9571887076188897  0.3995695143519601
  0.9164336577485278  0.0829699190418526  0.3996169943842887
  0.9161634265004711  0.2078834102068070  0.3996730877817043
  0.9163354505706836  0.3330521484265687  0.3995738411278979
  0.9168619116518322  0.4584539554218908  0.3996002842869551
  0.9174993324550264  0.5837838978613045  0.3997581129677193
  0.9176764844128606  0.7089868246638101  0.3997587531429578
  0.9172326136524942  0.8338994904640137  0.3995631297710052
  0.9167384834171508  0.9583534736193805  0.3995479843429342
  0.0845288978479375  0.0431864807163933  0.3997174925385785
  0.0839849534589795  0.1677265249484282  0.3997479103940716
  0.0828154554387507  0.2920120749623077  0.3997691576058074
  0.0818286311997374  0.4164741522567260  0.3991643388714333
  0.0824880364034389  0.5418678614785274  0.3991623576772984
  0.0834416178085375  0.6672748640092506  0.3996976721693662
  0.0839347625757174  0.7926106639125088  0.3999898187334630
  0.0842135863821236  0.9179690666782129  0.3998755606275921
  0.2093698434462707  0.0434395979736563  0.3999281415027362
  0.2102374742698129  0.1694455371209330  0.4004509443518494
  0.2089682508144190  0.2936599866929823  0.4010186062243652
  0.2060188021606895  0.4171602992672783  0.4009206371453529
  0.2062331277918926  0.5416862017788077  0.3995074739136514
  0.2075997141229176  0.6669905003335632  0.3993438039934337
  0.2084448367389109  0.7924355611769758  0.3996985677612595
  0.2089995282971963  0.9179252282485780  0.3998163946506542
  0.3339098384150468  0.0431195411544476  0.3996439694054961
  0.3345001922161130  0.1694303770128044  0.4003570011907547
  0.3364669965924237  0.2975329256337741  0.4031887675027650
  0.3300811327943973  0.5419138182323554  0.4026541845935656
  0.3317183161981548  0.6663184216328291  0.4001576618257103
  0.3331216273241461  0.7918355125046875  0.3994536560472636
  0.3336237794492375  0.9173366612064499  0.3995195594069256
  0.4585751376486996  0.0419893379363537  0.3995527081548359
  0.4589678599378334  0.1677752849120799  0.3996050897136602
  0.4600178128748252  0.2938399167829850  0.4007110538840399
  0.4550291027202644  0.6630976042380338  0.4026466390171216
  0.4577413699643214  0.7901984830473405  0.3996485833732686
  0.4581518863163812  0.9161105546011740  0.3995260012112035
  0.5832219733078248  0.0408219694800148  0.3997414308839329
  0.5835281542625104  0.1664149710597561  0.3996195682148220
  0.5844493859047506  0.2919635060022856  0.3996948639160078
  0.5864015119466340  0.4171610013060115  0.4004792147077153
  0.5871155921825798  0.5419165106089798  0.4021933852740738
  0.5831629594361236  0.6626697245556858  0.4024909531012016
  0.5816174224185854  0.7879356607996811  0.4005843914690422
  0.5827941547144297  0.9149302254120940  0.3997769471553736
  0.7079315178381053  0.0405704185467027  0.3999424218754251
  0.7082859514555186  0.1660627493812931  0.3999744451252888
  0.7088881899689043  0.2913179093779698  0.3997430327367674
  0.7099174216533486  0.4164766183860413  0.3994163100092689
  0.7107000902962386  0.5416715513748469  0.3994575883572489
  0.7098755297206129  0.6663389135907486  0.3998429816485093
  0.7076143619386360  0.7901088470997967  0.3994848101491393
  0.7074113007955140  0.9149298678531782  0.3996913363708431
  0.8329147800228925  0.0408511990452743  0.3996680601447503
  0.8330817020203832  0.1660822526958038  0.3998801861035883
  0.8332593021786678  0.2911761291289995  0.3998362738347721
  0.8339062160782134  0.4165162340024830  0.3997047166175416
  0.8346261134965548  0.5418687277566760  0.3995305496186698
  0.8346441623817724  0.6669944105658334  0.3994799066084522
  0.8339777255574855  0.7918778522237385  0.3994053805410004
  0.8331988506593335  0.9161236189849464  0.3994825962666546
  0.9586952871647879  0.0420152976935415  0.3996155324703721
  0.9581744023231559  0.1664617953809193  0.3995903731209961
  0.9577320766101076  0.2913341476147536  0.3994967309605305
  0.9579086176284252  0.4165373600117088  0.3994161368733999
  0.9585838146527064  0.5418877888177471  0.3996548350650311
  0.9591141410986467  0.6672743415997467  0.3998902979856352
  0.9592499896293006  0.7924549932691727  0.3997956971396973
  0.9590201029898349  0.9174158379010956  0.3995676576291193
  0.4115392967310521  0.5822482194880543  0.4060614128387124
  0.5458911346440991  0.5817894028826222  0.4056752267955027
  0.3296492427257139  0.4185297315735358  0.4067373418933733
  0.4645935219315745  0.4190186659651268  0.4061923353976245
  0.5023724517192799  0.5065339323744429  0.5004085162393405
  0.4279466502684745  0.5094578680205401  0.5037999286058044
 
  0.00000000E+00  0.00000000E+00  0.00000000E+00
  0.00000000E+00  0.00000000E+00  0.00000000E+00
  0.00000000E+00  0.00000000E+00  0.00000000E+00
  0.00000000E+00  0.00000000E+00  0.00000000E+00
  0.00000000E+00  0.00000000E+00  0.00000000E+00
  0.00000000E+00  0.00000000E+00  0.00000000E+00
  0.00000000E+00  0.00000000E+00  0.00000000E+00
  0.00000000E+00  0.00000000E+00  0.00000000E+00
  0.00000000E+00  0.00000000E+00  0.00000000E+00
  0.00000000E+00  0.00000000E+00  0.00000000E+00
  0.00000000E+00  0.00000000E+00  0.00000000E+00
  0.00000000E+00  0.00000000E+00  0.00000000E+00
  0.00000000E+00  0.00000000E+00  0.00000000E+00
  0.00000000E+00  0.00000000E+00  0.00000000E+00
  0.00000000E+00  0.00000000E+00  0.00000000E+00
  0.00000000E+00  0.00000000E+00  0.00000000E+00
  0.00000000E+00  0.00000000E+00  0.00000000E+00
  0.00000000E+00  0.00000000E+00  0.00000000E+00
  0.00000000E+00  0.00000000E+00  0.00000000E+00
  0.00000000E+00  0.00000000E+00  0.00000000E+00
  0.00000000E+00  0.00000000E+00  0.00000000E+00
  0.00000000E+00  0.00000000E+00  0.00000000E+00
  0.00000000E+00  0.00000000E+00  0.00000000E+00
  0.00000000E+00  0.00000000E+00  0.00000000E+00
  0.00000000E+00  0.00000000E+00  0.00000000E+00
  0.00000000E+00  0.00000000E+00  0.00000000E+00
  0.00000000E+00  0.00000000E+00  0.00000000E+00
  0.00000000E+00  0.00000000E+00  0.00000000E+00
  0.00000000E+00  0.00000000E+00  0.00000000E+00
  0.00000000E+00  0.00000000E+00  0.00000000E+00
  0.00000000E+00  0.00000000E+00  0.00000000E+00
  0.00000000E+00  0.00000000E+00  0.00000000E+00
  0.00000000E+00  0.00000000E+00  0.00000000E+00
  0.00000000E+00  0.00000000E+00  0.00000000E+00
  0.00000000E+00  0.00000000E+00  0.00000000E+00
  0.00000000E+00  0.00000000E+00  0.00000000E+00
  0.00000000E+00  0.00000000E+00  0.00000000E+00
  0.00000000E+00  0.00000000E+00  0.00000000E+00
  0.00000000E+00  0.00000000E+00  0.00000000E+00
  0.00000000E+00  0.00000000E+00  0.00000000E+00
  0.00000000E+00  0.00000000E+00  0.00000000E+00
  0.00000000E+00  0.00000000E+00  0.00000000E+00
  0.00000000E+00  0.00000000E+00  0.00000000E+00
  0.00000000E+00  0.00000000E+00  0.00000000E+00
  0.00000000E+00  0.00000000E+00  0.00000000E+00
  0.00000000E+00  0.00000000E+00  0.00000000E+00
  0.00000000E+00  0.00000000E+00  0.00000000E+00
  0.00000000E+00  0.00000000E+00  0.00000000E+00
  0.00000000E+00  0.00000000E+00  0.00000000E+00
  0.00000000E+00  0.00000000E+00  0.00000000E+00
  0.00000000E+00  0.00000000E+00  0.00000000E+00
  0.00000000E+00  0.00000000E+00  0.00000000E+00
  0.00000000E+00  0.00000000E+00  0.00000000E+00
  0.00000000E+00  0.00000000E+00  0.00000000E+00
  0.00000000E+00  0.00000000E+00  0.00000000E+00
  0.00000000E+00  0.00000000E+00  0.00000000E+00
  0.00000000E+00  0.00000000E+00  0.00000000E+00
  0.00000000E+00  0.00000000E+00  0.00000000E+00
  0.00000000E+00  0.00000000E+00  0.00000000E+00
  0.00000000E+00  0.00000000E+00  0.00000000E+00
  0.00000000E+00  0.00000000E+00  0.00000000E+00
  0.00000000E+00  0.00000000E+00  0.00000000E+00
  0.00000000E+00  0.00000000E+00  0.00000000E+00
  0.00000000E+00  0.00000000E+00  0.00000000E+00
  0.00000000E+00  0.00000000E+00  0.00000000E+00
  0.00000000E+00  0.00000000E+00  0.00000000E+00
  0.00000000E+00  0.00000000E+00  0.00000000E+00
  0.00000000E+00  0.00000000E+00  0.00000000E+00
  0.00000000E+00  0.00000000E+00  0.00000000E+00
  0.00000000E+00  0.00000000E+00  0.00000000E+00
  0.00000000E+00  0.00000000E+00  0.00000000E+00
  0.00000000E+00  0.00000000E+00  0.00000000E+00
  0.00000000E+00  0.00000000E+00  0.00000000E+00
  0.00000000E+00  0.00000000E+00  0.00000000E+00
  0.00000000E+00  0.00000000E+00  0.00000000E+00
  0.00000000E+00  0.00000000E+00  0.00000000E+00
  0.00000000E+00  0.00000000E+00  0.00000000E+00
  0.00000000E+00  0.00000000E+00  0.00000000E+00
  0.00000000E+00  0.00000000E+00  0.00000000E+00
  0.00000000E+00  0.00000000E+00  0.00000000E+00
  0.00000000E+00  0.00000000E+00  0.00000000E+00
  0.00000000E+00  0.00000000E+00  0.00000000E+00
  0.00000000E+00  0.00000000E+00  0.00000000E+00
  0.00000000E+00  0.00000000E+00  0.00000000E+00
  0.00000000E+00  0.00000000E+00  0.00000000E+00
  0.00000000E+00  0.00000000E+00  0.00000000E+00
  0.00000000E+00  0.00000000E+00  0.00000000E+00
  0.00000000E+00  0.00000000E+00  0.00000000E+00
  0.00000000E+00  0.00000000E+00  0.00000000E+00
  0.00000000E+00  0.00000000E+00  0.00000000E+00
  0.00000000E+00  0.00000000E+00  0.00000000E+00
  0.00000000E+00  0.00000000E+00  0.00000000E+00
  0.00000000E+00  0.00000000E+00  0.00000000E+00
  0.00000000E+00  0.00000000E+00  0.00000000E+00
  0.00000000E+00  0.00000000E+00  0.00000000E+00
  0.00000000E+00  0.00000000E+00  0.00000000E+00
  0.00000000E+00  0.00000000E+00  0.00000000E+00
  0.00000000E+00  0.00000000E+00  0.00000000E+00
  0.00000000E+00  0.00000000E+00  0.00000000E+00
  0.00000000E+00  0.00000000E+00  0.00000000E+00
  0.00000000E+00  0.00000000E+00  0.00000000E+00
  0.00000000E+00  0.00000000E+00  0.00000000E+00
  0.00000000E+00  0.00000000E+00  0.00000000E+00
  0.00000000E+00  0.00000000E+00  0.00000000E+00
  0.00000000E+00  0.00000000E+00  0.00000000E+00
  0.00000000E+00  0.00000000E+00  0.00000000E+00
  0.00000000E+00  0.00000000E+00  0.00000000E+00
  0.00000000E+00  0.00000000E+00  0.00000000E+00
  0.00000000E+00  0.00000000E+00  0.00000000E+00
  0.00000000E+00  0.00000000E+00  0.00000000E+00
  0.00000000E+00  0.00000000E+00  0.00000000E+00
  0.00000000E+00  0.00000000E+00  0.00000000E+00
  0.00000000E+00  0.00000000E+00  0.00000000E+00
  0.00000000E+00  0.00000000E+00  0.00000000E+00
  0.00000000E+00  0.00000000E+00  0.00000000E+00
  0.00000000E+00  0.00000000E+00  0.00000000E+00
  0.00000000E+00  0.00000000E+00  0.00000000E+00
  0.00000000E+00  0.00000000E+00  0.00000000E+00
  0.00000000E+00  0.00000000E+00  0.00000000E+00
  0.00000000E+00  0.00000000E+00  0.00000000E+00
  0.00000000E+00  0.00000000E+00  0.00000000E+00
  0.00000000E+00  0.00000000E+00  0.00000000E+00
  0.00000000E+00  0.00000000E+00  0.00000000E+00
  0.00000000E+00  0.00000000E+00  0.00000000E+00
  0.00000000E+00  0.00000000E+00  0.00000000E+00
  0.00000000E+00  0.00000000E+00  0.00000000E+00
  0.00000000E+00  0.00000000E+00  0.00000000E+00
  0.00000000E+00  0.00000000E+00  0.00000000E+00
  0.00000000E+00  0.00000000E+00  0.00000000E+00
  0.00000000E+00  0.00000000E+00  0.00000000E+00
