Cr1 C125 N1 O1                          
   1.00000000000000     
    19.8102777347054300   -0.0077510645099853   -0.0400229073364712
    -9.9119260742064998   17.0543616554145636   -0.0509367695182590
    -0.0602115542684290   -0.1239293077391676   29.7909320581720678
   Cr   C    N    O 
     1   125     1     1
Direct
  0.4378259814426033  0.5016864145778018  0.4282516996773948
  0.0419964672400900  0.0840713724408333  0.3996360797328025
  0.0412578101855755  0.2083328780527014  0.3995213863228547
  0.0407612309972275  0.3329358125342078  0.3993696565179001
  0.0407908538436172  0.4583121153911304  0.3994465679445505
  0.0414669029617628  0.5837339486020142  0.3997614538478239
  0.0420251509043394  0.7090318223051393  0.3999640372942866
  0.0423421955342576  0.8343813496807793  0.3999750456447168
  0.0423704089775508  0.9594512847209118  0.3997992263024191
  0.1677048059071824  0.0853588736727618  0.4000278523495904
  0.1674155565055251  0.2100949526318010  0.4003406121165107
  0.1660758787394463  0.3340153084922895  0.4000707332594976
  0.1646544228667901  0.4584546091542486  0.3993765547616248
  0.1654144346785691  0.5836289714467189  0.3993471207201051
  0.1664100282516137  0.7090438033202660  0.3997096639786518
  0.1670702655996106  0.8344607782441276  0.3999364241652742
  0.1674745330973528  0.9598997101344988  0.3999095596082889
  0.2926969083617668  0.0853030995881114  0.4000841306536178
  0.2936744352588909  0.2120122560719576  0.4018531255388031
  0.2931652430259680  0.3375804442430462  0.4038114442854218
  0.2889165330652939  0.4590207310927252  0.4024556520258226
  0.2891318422913309  0.5842312090102659  0.4001983667414641
  0.2907792247184016  0.7090318886270670  0.3996919550036659
  0.2916547349729332  0.8340987700228694  0.3996617683038738
  0.2920567821816700  0.9594519387250815  0.3996969931217049
  0.4171218366915803  0.0839540004141725  0.3995946453135718
  0.4177837727875098  0.2098320790833677  0.4006238022617508
  0.4198793559635272  0.3372971510837033  0.4049842390258654
  0.4149158420152924  0.7068316299804578  0.4010810966501649
  0.4161864380759336  0.8327754123709928  0.3997983817933464
  0.4166824295244938  0.9583696870573674  0.3995763403493295
  0.5416342720449971  0.0826613002594785  0.3995964708737280
  0.5422103089888916  0.2079818152792311  0.3995642052176723
  0.5431342021404472  0.3331788056773909  0.4006067640442614
  0.5456658182571819  0.4576033143841914  0.4037513887904401
  0.5448359669002774  0.5800269248573434  0.4062414070350132
  0.5386250082736449  0.7034852395830099  0.4033021652407656
  0.5404231538163529  0.8309923782189327  0.4006528731733072
  0.5412502058623370  0.9571209823261314  0.3998131229961766
  0.6662457146359736  0.0821163568688782  0.3999277757299458
  0.6667343163922789  0.2074926149023073  0.3996645116641646
  0.6674185785978128  0.3326882958101237  0.3993240197890010
  0.6690965886612157  0.4581026476022123  0.3993025841848376
  0.6700224115450689  0.5836651808382686  0.3998624369920970
  0.6660948031284780  0.7063969733622352  0.4006120686847733
  0.6649654178461886  0.8306413694747793  0.4005525719396239
  0.6657629346393817  0.9565887170773882  0.4001027152029796
  0.7910151123395915  0.0821332735179514  0.4000055679494444
  0.7912944279009586  0.2073578405036522  0.4000025760733410
  0.7918780688748613  0.3327552953124691  0.3997212068010954
  0.7928042064695779  0.4582403230282044  0.3992928595898667
  0.7933783239612897  0.5834993548923662  0.3990297993627543
  0.7928060819100846  0.7087062276890791  0.3992479422041158
  0.7912782204353179  0.8325566785504018  0.3995989992043162
  0.7907098802747916  0.9569498887396283  0.3998677372668278
  0.9161777957714912  0.0827303470636966  0.3997012721821429
  0.9160678160529221  0.2075979398085409  0.3997642738644749
  0.9162320671800503  0.3328005004749650  0.3997976833599671
  0.9167373369576108  0.4581733948467617  0.3997925238388608
  0.9174441588254241  0.5836754585439969  0.3996708361534267
  0.9175525741300050  0.7090364723957102  0.3995635931923311
  0.9172665654148411  0.8339049422990266  0.3996295433820551
  0.9166062590992506  0.9582801886388361  0.3996404646906662
  0.0841522382428746  0.0430223126169774  0.3997527441338676
  0.0837153158296332  0.1675650562813740  0.3996824063749338
  0.0825881734855072  0.2917033407724408  0.3994936953134816
  0.0819962187643125  0.4166054251566225  0.3992530643663411
  0.0824780944062553  0.5418397010477477  0.3994867628932853
  0.0832784448523551  0.6672724545989795  0.3998450323437660
  0.0838641703881582  0.7927235067113176  0.4000151935699875
  0.0840862871813850  0.9179692829053410  0.3999403431405004
  0.2092384614960360  0.0434683564354651  0.3999932695359533
  0.2095979288637994  0.1691388404549031  0.4006645901111539
  0.2091185573115414  0.2938776716226887  0.4010086322626735
  0.2061196309411622  0.4172297862864650  0.4001424054299808
  0.2062045486810159  0.5418664976998707  0.3994166178577344
  0.2076568736936469  0.6673093209013167  0.3995173175309853
  0.2084309380495551  0.7925879207956079  0.3997867541188090
  0.2089038770571962  0.9179900972687546  0.3998721987330797
  0.3338727305922928  0.0429700456959607  0.3997133326681196
  0.3346593048682499  0.1689881440473406  0.4008456269221443
  0.3355050161156683  0.2954661841256997  0.4043042354920082
  0.3315188799584534  0.4204266852075188  0.4058400685560804
  0.3307263346803354  0.5439236590346387  0.4024806097027132
  0.3319120463826766  0.6672201612853342  0.4002674596845622
  0.3330295185847117  0.7922457539598307  0.3996728668786153
  0.3335161552239251  0.9174840456255147  0.3996272193025648
  0.4585062015342968  0.0417999689145965  0.3995434716246927
  0.4589574322111807  0.1673590892761657  0.3997596351482937
  0.4599956497509081  0.2934560539426889  0.4017399918922451
  0.4647499933072179  0.4199653346734002  0.4081808454298680
  0.4542036630269899  0.6624198126058134  0.4034078433942187
  0.4574304155914876  0.7904313058185666  0.4004160461118867
  0.4580340244868189  0.9161986842283997  0.3996779109247242
  0.5830649977260877  0.0406696990873110  0.3997593537008891
  0.5835267766000991  0.1660645101438520  0.3995337613110611
  0.5843356309923101  0.2911989994382935  0.3996305411859661
  0.5862805748273360  0.4161091867847275  0.4006208676461044
  0.5880386998040392  0.5421866606409860  0.4029625979164335
  0.5818967405301236  0.6622769618102083  0.4033419313158820
  0.5807535351011188  0.7875059299263187  0.4014299029198087
  0.5824380798787288  0.9147936790355273  0.4001357102589774
  0.7076373116774320  0.0401894723298649  0.4000201799475911
  0.7081247602816010  0.1656767619601072  0.3999038693406413
  0.7086978318465275  0.2909730143290958  0.3995328598470513
  0.7098701843723547  0.4164004420827761  0.3991213302776191
  0.7109124536379170  0.5417319710393872  0.3991148216664480
  0.7095475968698797  0.6666669793136468  0.3997088117116028
  0.7075190839112916  0.7899997145601638  0.4001008123516153
  0.7070284656213944  0.9145049609653165  0.4001097312149327
  0.8326371879224240  0.0405948410671154  0.3998712948348224
  0.8327735333023127  0.1656932271914181  0.3999770233335173
  0.8331728148332215  0.2910252211865331  0.3999151687469913
  0.8338279320586068  0.4163605756197702  0.3996465778183249
  0.8345320387983114  0.5417546854744193  0.3993068003715186
  0.8344838184908212  0.6672600747681195  0.3991916863279503
  0.8339210130226443  0.7919434443689940  0.3994363499887703
  0.8329628884904812  0.9160120588969274  0.3996776373345683
  0.9583591548719874  0.0417850051390070  0.3996387917088911
  0.9578663710266384  0.1662309694704791  0.3996020603836832
  0.9576461463218385  0.2910867990435299  0.3996315892272427
  0.9578308204517905  0.4163736700648525  0.3997210498263851
  0.9585603716621260  0.5419079010634547  0.3997994234019738
  0.9589859737127709  0.6672911400705411  0.3997735694875879
  0.9590688116124467  0.7925189040968574  0.3997509572660526
  0.9588523057295059  0.9173631427476570  0.3997042069363238
  0.4098599281721653  0.5818132970296738  0.4053944736069733
  0.4380721362857051  0.4999712536551058  0.4811064893493351
 
  0.00000000E+00  0.00000000E+00  0.00000000E+00
  0.00000000E+00  0.00000000E+00  0.00000000E+00
  0.00000000E+00  0.00000000E+00  0.00000000E+00
  0.00000000E+00  0.00000000E+00  0.00000000E+00
  0.00000000E+00  0.00000000E+00  0.00000000E+00
  0.00000000E+00  0.00000000E+00  0.00000000E+00
  0.00000000E+00  0.00000000E+00  0.00000000E+00
  0.00000000E+00  0.00000000E+00  0.00000000E+00
  0.00000000E+00  0.00000000E+00  0.00000000E+00
  0.00000000E+00  0.00000000E+00  0.00000000E+00
  0.00000000E+00  0.00000000E+00  0.00000000E+00
  0.00000000E+00  0.00000000E+00  0.00000000E+00
  0.00000000E+00  0.00000000E+00  0.00000000E+00
  0.00000000E+00  0.00000000E+00  0.00000000E+00
  0.00000000E+00  0.00000000E+00  0.00000000E+00
  0.00000000E+00  0.00000000E+00  0.00000000E+00
  0.00000000E+00  0.00000000E+00  0.00000000E+00
  0.00000000E+00  0.00000000E+00  0.00000000E+00
  0.00000000E+00  0.00000000E+00  0.00000000E+00
  0.00000000E+00  0.00000000E+00  0.00000000E+00
  0.00000000E+00  0.00000000E+00  0.00000000E+00
  0.00000000E+00  0.00000000E+00  0.00000000E+00
  0.00000000E+00  0.00000000E+00  0.00000000E+00
  0.00000000E+00  0.00000000E+00  0.00000000E+00
  0.00000000E+00  0.00000000E+00  0.00000000E+00
  0.00000000E+00  0.00000000E+00  0.00000000E+00
  0.00000000E+00  0.00000000E+00  0.00000000E+00
  0.00000000E+00  0.00000000E+00  0.00000000E+00
  0.00000000E+00  0.00000000E+00  0.00000000E+00
  0.00000000E+00  0.00000000E+00  0.00000000E+00
  0.00000000E+00  0.00000000E+00  0.00000000E+00
  0.00000000E+00  0.00000000E+00  0.00000000E+00
  0.00000000E+00  0.00000000E+00  0.00000000E+00
  0.00000000E+00  0.00000000E+00  0.00000000E+00
  0.00000000E+00  0.00000000E+00  0.00000000E+00
  0.00000000E+00  0.00000000E+00  0.00000000E+00
  0.00000000E+00  0.00000000E+00  0.00000000E+00
  0.00000000E+00  0.00000000E+00  0.00000000E+00
  0.00000000E+00  0.00000000E+00  0.00000000E+00
  0.00000000E+00  0.00000000E+00  0.00000000E+00
  0.00000000E+00  0.00000000E+00  0.00000000E+00
  0.00000000E+00  0.00000000E+00  0.00000000E+00
  0.00000000E+00  0.00000000E+00  0.00000000E+00
  0.00000000E+00  0.00000000E+00  0.00000000E+00
  0.00000000E+00  0.00000000E+00  0.00000000E+00
  0.00000000E+00  0.00000000E+00  0.00000000E+00
  0.00000000E+00  0.00000000E+00  0.00000000E+00
  0.00000000E+00  0.00000000E+00  0.00000000E+00
  0.00000000E+00  0.00000000E+00  0.00000000E+00
  0.00000000E+00  0.00000000E+00  0.00000000E+00
  0.00000000E+00  0.00000000E+00  0.00000000E+00
  0.00000000E+00  0.00000000E+00  0.00000000E+00
  0.00000000E+00  0.00000000E+00  0.00000000E+00
  0.00000000E+00  0.00000000E+00  0.00000000E+00
  0.00000000E+00  0.00000000E+00  0.00000000E+00
  0.00000000E+00  0.00000000E+00  0.00000000E+00
  0.00000000E+00  0.00000000E+00  0.00000000E+00
  0.00000000E+00  0.00000000E+00  0.00000000E+00
  0.00000000E+00  0.00000000E+00  0.00000000E+00
  0.00000000E+00  0.00000000E+00  0.00000000E+00
  0.00000000E+00  0.00000000E+00  0.00000000E+00
  0.00000000E+00  0.00000000E+00  0.00000000E+00
  0.00000000E+00  0.00000000E+00  0.00000000E+00
  0.00000000E+00  0.00000000E+00  0.00000000E+00
  0.00000000E+00  0.00000000E+00  0.00000000E+00
  0.00000000E+00  0.00000000E+00  0.00000000E+00
  0.00000000E+00  0.00000000E+00  0.00000000E+00
  0.00000000E+00  0.00000000E+00  0.00000000E+00
  0.00000000E+00  0.00000000E+00  0.00000000E+00
  0.00000000E+00  0.00000000E+00  0.00000000E+00
  0.00000000E+00  0.00000000E+00  0.00000000E+00
  0.00000000E+00  0.00000000E+00  0.00000000E+00
  0.00000000E+00  0.00000000E+00  0.00000000E+00
  0.00000000E+00  0.00000000E+00  0.00000000E+00
  0.00000000E+00  0.00000000E+00  0.00000000E+00
  0.00000000E+00  0.00000000E+00  0.00000000E+00
  0.00000000E+00  0.00000000E+00  0.00000000E+00
  0.00000000E+00  0.00000000E+00  0.00000000E+00
  0.00000000E+00  0.00000000E+00  0.00000000E+00
  0.00000000E+00  0.00000000E+00  0.00000000E+00
  0.00000000E+00  0.00000000E+00  0.00000000E+00
  0.00000000E+00  0.00000000E+00  0.00000000E+00
  0.00000000E+00  0.00000000E+00  0.00000000E+00
  0.00000000E+00  0.00000000E+00  0.00000000E+00
  0.00000000E+00  0.00000000E+00  0.00000000E+00
  0.00000000E+00  0.00000000E+00  0.00000000E+00
  0.00000000E+00  0.00000000E+00  0.00000000E+00
  0.00000000E+00  0.00000000E+00  0.00000000E+00
  0.00000000E+00  0.00000000E+00  0.00000000E+00
  0.00000000E+00  0.00000000E+00  0.00000000E+00
  0.00000000E+00  0.00000000E+00  0.00000000E+00
  0.00000000E+00  0.00000000E+00  0.00000000E+00
  0.00000000E+00  0.00000000E+00  0.00000000E+00
  0.00000000E+00  0.00000000E+00  0.00000000E+00
  0.00000000E+00  0.00000000E+00  0.00000000E+00
  0.00000000E+00  0.00000000E+00  0.00000000E+00
  0.00000000E+00  0.00000000E+00  0.00000000E+00
  0.00000000E+00  0.00000000E+00  0.00000000E+00
  0.00000000E+00  0.00000000E+00  0.00000000E+00
  0.00000000E+00  0.00000000E+00  0.00000000E+00
  0.00000000E+00  0.00000000E+00  0.00000000E+00
  0.00000000E+00  0.00000000E+00  0.00000000E+00
  0.00000000E+00  0.00000000E+00  0.00000000E+00
  0.00000000E+00  0.00000000E+00  0.00000000E+00
  0.00000000E+00  0.00000000E+00  0.00000000E+00
  0.00000000E+00  0.00000000E+00  0.00000000E+00
  0.00000000E+00  0.00000000E+00  0.00000000E+00
  0.00000000E+00  0.00000000E+00  0.00000000E+00
  0.00000000E+00  0.00000000E+00  0.00000000E+00
  0.00000000E+00  0.00000000E+00  0.00000000E+00
  0.00000000E+00  0.00000000E+00  0.00000000E+00
  0.00000000E+00  0.00000000E+00  0.00000000E+00
  0.00000000E+00  0.00000000E+00  0.00000000E+00
  0.00000000E+00  0.00000000E+00  0.00000000E+00
  0.00000000E+00  0.00000000E+00  0.00000000E+00
  0.00000000E+00  0.00000000E+00  0.00000000E+00
  0.00000000E+00  0.00000000E+00  0.00000000E+00
  0.00000000E+00  0.00000000E+00  0.00000000E+00
  0.00000000E+00  0.00000000E+00  0.00000000E+00
  0.00000000E+00  0.00000000E+00  0.00000000E+00
  0.00000000E+00  0.00000000E+00  0.00000000E+00
  0.00000000E+00  0.00000000E+00  0.00000000E+00
  0.00000000E+00  0.00000000E+00  0.00000000E+00
  0.00000000E+00  0.00000000E+00  0.00000000E+00
  0.00000000E+00  0.00000000E+00  0.00000000E+00
  0.00000000E+00  0.00000000E+00  0.00000000E+00
  0.00000000E+00  0.00000000E+00  0.00000000E+00
  0.00000000E+00  0.00000000E+00  0.00000000E+00
