Co1 C124 N2 O1                          
   1.00000000000000     
    19.8115011286614369   -0.0093447929761614    0.0027098666526728
    -9.9142028848140793   17.0381682339100102   -0.0021672062128151
     0.0040716249083958   -0.0014206273347824   29.8181737403021359
   Co   C    N    O 
     1   124     2     1
Direct
  0.4374916715072161  0.5000050261484364  0.4161298275450994
  0.0421855991250309  0.0842783907705166  0.3998593262399490
  0.0412352560669753  0.2083598978130870  0.3997641587431062
  0.0405277007862885  0.3328797845253291  0.3996077427218829
  0.0404717263652066  0.4582717929625557  0.3996376241872444
  0.0412936993246060  0.5837736257127650  0.3997771898751555
  0.0419767392980710  0.7092039602019561  0.3999356228637794
  0.0423769507852004  0.8345755391277445  0.3999761985931853
  0.0425373557082857  0.9597380658430774  0.3999074042695049
  0.1682504821447727  0.0860263522883515  0.4002170995800899
  0.1678167992684197  0.2106498925769068  0.4003180076131680
  0.1658121620140555  0.3340884903648900  0.4000120352567423
  0.1640999745579934  0.4584874403818540  0.3995836233689979
  0.1651211742562153  0.5837114915554753  0.3996907852071220
  0.1662866607218820  0.7091604131479783  0.3997882558058132
  0.1670222869777107  0.8346328205114353  0.3999520522789184
  0.1676161742364660  0.9602584045276872  0.4000162404566032
  0.2928805610364009  0.0857901561229069  0.4002317509193023
  0.2946437357963388  0.2131680223175331  0.4013724090318617
  0.2937003451558868  0.3386515321614744  0.4024652468789711
  0.2879629929089608  0.4592292570600445  0.4013396370196872
  0.2887607282432071  0.5841280665258385  0.4005006319200571
  0.2904942685000872  0.7089256749351476  0.4000485122731737
  0.2915541375578100  0.8341339921923749  0.3997826886559735
  0.2921050131114165  0.9596963254305610  0.3998574051590419
  0.4171821457851154  0.0841482119822626  0.3998744965380679
  0.4179458170838209  0.2103348321450449  0.4007170488862175
  0.4214301567935603  0.3390579928152038  0.4023869012425869
  0.4145103635191975  0.7058993512397744  0.4011830997205177
  0.4159571568889943  0.8323440354985845  0.4001038319728050
  0.4165797582922939  0.9582385955150667  0.3997423276764431
  0.5415596043188261  0.0824386623129084  0.3997842990128710
  0.5422124977890922  0.2078880351140213  0.3999461945961181
  0.5435005357460839  0.3330488868236128  0.4005958823173235
  0.5450669194974905  0.4567213296767026  0.4013941414315768
  0.5437093927315014  0.5786853881779733  0.4041358084810815
  0.5380623903772178  0.7024715399240209  0.4025134252625214
  0.5400582257582323  0.8303496659088012  0.4007440984660871
  0.5410580981283051  0.9566823449122556  0.3999548974632205
  0.6660622527378649  0.0817298658477580  0.3999636386623148
  0.6666660566763193  0.2072676454709119  0.3998474188715294
  0.6675828999523002  0.3326635770972396  0.3997959829540454
  0.6691655714236970  0.4581192846393720  0.3998551143026612
  0.6694724338219911  0.5827586719257007  0.3998417958924027
  0.6656060701107059  0.7055743255257282  0.4006236825677296
  0.6646077871494519  0.8299748799559302  0.4006272522215423
  0.6654760640302363  0.9560282435301983  0.4001228507420989
  0.7907984247618675  0.0817415252651647  0.3999625422882261
  0.7911544693988798  0.2070916797271823  0.3999931403512469
  0.7918200404679805  0.3325966906197897  0.3998398676970230
  0.7927651187830057  0.4581411819207711  0.3996332334084227
  0.7934387569977787  0.5834703650844009  0.3995299812626154
  0.7925075403732817  0.7082704290425820  0.3997228270679701
  0.7910489950487027  0.8321497808241562  0.3998921506832774
  0.7904629137803285  0.9565121549250803  0.3999295821988220
  0.9160981511521226  0.0825732604753431  0.3997978143128504
  0.9158973817314819  0.2073921458580327  0.3998305863344208
  0.9160543681358855  0.3326250223166950  0.3998467190464436
  0.9165720862762087  0.4581053276302672  0.3998348177446392
  0.9174000004361341  0.5837144927070473  0.3998007316699830
  0.9175156385259908  0.7090497757470802  0.3997452949293681
  0.9172130438749719  0.8338475595872944  0.3997786791886795
  0.9165646104602915  0.9581915642837537  0.3997877596611236
  0.0845483916288449  0.0434793898030432  0.3999615956065383
  0.0839525568353899  0.1678478714887356  0.3998978184455861
  0.0824902016073988  0.2917319927995073  0.3997255156491921
  0.0815563866697438  0.4165274134535086  0.3995299181525512
  0.0822269334702243  0.5418551117262088  0.3996275356099963
  0.0831753524460419  0.6674004494507120  0.3998340866975870
  0.0838477009970960  0.7928964418161296  0.3999914686233212
  0.0842125816722473  0.9182479747936150  0.3999835504123481
  0.2095384504913970  0.0439711462019655  0.4001529716527143
  0.2103884643691874  0.1700182383163916  0.4006661588721994
  0.2093902518833787  0.2944293757660457  0.4006347480307411
  0.2055219421492480  0.4172439737067097  0.3998558157578258
  0.2058245280630106  0.5418812939627623  0.3998565964102376
  0.2074116368804563  0.6673373948088073  0.3997910682012092
  0.2083337833166448  0.7927318165642823  0.3998339113222618
  0.2089456878317874  0.9182676429849286  0.3999573926243202
  0.3339533302180293  0.0433309740841571  0.3999501925660502
  0.3349516400783208  0.1696680358528312  0.4007632714844118
  0.3369318329064389  0.2975343035081641  0.4025423874616694
  0.3312761345805084  0.4213226031660214  0.4041529967277597
  0.3299194737898441  0.5432824995144375  0.4014045605593347
  0.3315014952203795  0.6669608294937431  0.4005936662029952
  0.3327912819052164  0.7921191320310259  0.3999389949360305
  0.3334498714906046  0.9175711061294166  0.3997668776995587
  0.4584292047222540  0.0417765682501060  0.3997466509468292
  0.4590428867934625  0.1676699835622949  0.4001151451545989
  0.4604857495361787  0.2941113460860079  0.4012009464248769
  0.4535622808675616  0.6609479607494885  0.4023664777299303
  0.4570586904161144  0.7896760636205024  0.4006951611230194
  0.4578278963797635  0.9158622244307392  0.3998751803422294
  0.5829086131623897  0.0403139384388971  0.3998749780522309
  0.5834482870215374  0.1658731311281771  0.3997960944478561
  0.5845004498197570  0.2910815291698163  0.4000510534454697
  0.5862307523886197  0.4158833848066004  0.4004930713470851
  0.5870274404897614  0.5407748536000541  0.4013212492301835
  0.5812904564625330  0.6613550459909119  0.4024435415069920
  0.5803477555218407  0.7868339215144389  0.4013327537969550
  0.5821310661165631  0.9142178865392045  0.4002155507068237
  0.7073940150018291  0.0397349856896169  0.3999976499898945
  0.7079793711240869  0.1653647668833179  0.3999592715670713
  0.7087096341287165  0.2908357396087131  0.3997957925253712
  0.7098733464702601  0.4162919547763257  0.3996952533848676
  0.7108939226664677  0.5415175769323723  0.3995793111850884
  0.7091787130505373  0.6659105014469815  0.4000033592471701
  0.7071835649075134  0.7893487345375201  0.4002976468926662
  0.7067550837344447  0.9139632953999723  0.4001795506769741
  0.8324708831339286  0.0402444630325282  0.3998764751344248
  0.8326252023710351  0.1654108685027589  0.3999619374694248
  0.8330172068830090  0.2907871689028630  0.3999419838514702
  0.8336975073624214  0.4162198286188822  0.3997812818982511
  0.8345267444921121  0.5417283129070646  0.3996373408309665
  0.8344629597922760  0.6671119185604352  0.3996058939441521
  0.8337615969330052  0.7916318691409492  0.3997692914401902
  0.8328238306311206  0.9157126412676007  0.3998411751720954
  0.9584475478178999  0.0417965839197371  0.3997868107331828
  0.9577910483336419  0.1661430245857481  0.3997658578369030
  0.9574855347672871  0.2909475527623410  0.3997449178924122
  0.9575918734794843  0.4162738676965934  0.3998063669154467
  0.9584209642102892  0.5418878471858805  0.3998322433566264
  0.9589386715609854  0.6673652470718912  0.3998388353936596
  0.9590986710013819  0.7925938888541221  0.3998426953641708
  0.9589149286298297  0.9174158702344029  0.3998180233184385
  0.4093521486944116  0.5799411451469433  0.4026027372617719
  0.4656360921923100  0.4200644743580877  0.4026072568962811
  0.4374395621582747  0.4999942854062964  0.4720456922682602
 
  0.00000000E+00  0.00000000E+00  0.00000000E+00
  0.00000000E+00  0.00000000E+00  0.00000000E+00
  0.00000000E+00  0.00000000E+00  0.00000000E+00
  0.00000000E+00  0.00000000E+00  0.00000000E+00
  0.00000000E+00  0.00000000E+00  0.00000000E+00
  0.00000000E+00  0.00000000E+00  0.00000000E+00
  0.00000000E+00  0.00000000E+00  0.00000000E+00
  0.00000000E+00  0.00000000E+00  0.00000000E+00
  0.00000000E+00  0.00000000E+00  0.00000000E+00
  0.00000000E+00  0.00000000E+00  0.00000000E+00
  0.00000000E+00  0.00000000E+00  0.00000000E+00
  0.00000000E+00  0.00000000E+00  0.00000000E+00
  0.00000000E+00  0.00000000E+00  0.00000000E+00
  0.00000000E+00  0.00000000E+00  0.00000000E+00
  0.00000000E+00  0.00000000E+00  0.00000000E+00
  0.00000000E+00  0.00000000E+00  0.00000000E+00
  0.00000000E+00  0.00000000E+00  0.00000000E+00
  0.00000000E+00  0.00000000E+00  0.00000000E+00
  0.00000000E+00  0.00000000E+00  0.00000000E+00
  0.00000000E+00  0.00000000E+00  0.00000000E+00
  0.00000000E+00  0.00000000E+00  0.00000000E+00
  0.00000000E+00  0.00000000E+00  0.00000000E+00
  0.00000000E+00  0.00000000E+00  0.00000000E+00
  0.00000000E+00  0.00000000E+00  0.00000000E+00
  0.00000000E+00  0.00000000E+00  0.00000000E+00
  0.00000000E+00  0.00000000E+00  0.00000000E+00
  0.00000000E+00  0.00000000E+00  0.00000000E+00
  0.00000000E+00  0.00000000E+00  0.00000000E+00
  0.00000000E+00  0.00000000E+00  0.00000000E+00
  0.00000000E+00  0.00000000E+00  0.00000000E+00
  0.00000000E+00  0.00000000E+00  0.00000000E+00
  0.00000000E+00  0.00000000E+00  0.00000000E+00
  0.00000000E+00  0.00000000E+00  0.00000000E+00
  0.00000000E+00  0.00000000E+00  0.00000000E+00
  0.00000000E+00  0.00000000E+00  0.00000000E+00
  0.00000000E+00  0.00000000E+00  0.00000000E+00
  0.00000000E+00  0.00000000E+00  0.00000000E+00
  0.00000000E+00  0.00000000E+00  0.00000000E+00
  0.00000000E+00  0.00000000E+00  0.00000000E+00
  0.00000000E+00  0.00000000E+00  0.00000000E+00
  0.00000000E+00  0.00000000E+00  0.00000000E+00
  0.00000000E+00  0.00000000E+00  0.00000000E+00
  0.00000000E+00  0.00000000E+00  0.00000000E+00
  0.00000000E+00  0.00000000E+00  0.00000000E+00
  0.00000000E+00  0.00000000E+00  0.00000000E+00
  0.00000000E+00  0.00000000E+00  0.00000000E+00
  0.00000000E+00  0.00000000E+00  0.00000000E+00
  0.00000000E+00  0.00000000E+00  0.00000000E+00
  0.00000000E+00  0.00000000E+00  0.00000000E+00
  0.00000000E+00  0.00000000E+00  0.00000000E+00
  0.00000000E+00  0.00000000E+00  0.00000000E+00
  0.00000000E+00  0.00000000E+00  0.00000000E+00
  0.00000000E+00  0.00000000E+00  0.00000000E+00
  0.00000000E+00  0.00000000E+00  0.00000000E+00
  0.00000000E+00  0.00000000E+00  0.00000000E+00
  0.00000000E+00  0.00000000E+00  0.00000000E+00
  0.00000000E+00  0.00000000E+00  0.00000000E+00
  0.00000000E+00  0.00000000E+00  0.00000000E+00
  0.00000000E+00  0.00000000E+00  0.00000000E+00
  0.00000000E+00  0.00000000E+00  0.00000000E+00
  0.00000000E+00  0.00000000E+00  0.00000000E+00
  0.00000000E+00  0.00000000E+00  0.00000000E+00
  0.00000000E+00  0.00000000E+00  0.00000000E+00
  0.00000000E+00  0.00000000E+00  0.00000000E+00
  0.00000000E+00  0.00000000E+00  0.00000000E+00
  0.00000000E+00  0.00000000E+00  0.00000000E+00
  0.00000000E+00  0.00000000E+00  0.00000000E+00
  0.00000000E+00  0.00000000E+00  0.00000000E+00
  0.00000000E+00  0.00000000E+00  0.00000000E+00
  0.00000000E+00  0.00000000E+00  0.00000000E+00
  0.00000000E+00  0.00000000E+00  0.00000000E+00
  0.00000000E+00  0.00000000E+00  0.00000000E+00
  0.00000000E+00  0.00000000E+00  0.00000000E+00
  0.00000000E+00  0.00000000E+00  0.00000000E+00
  0.00000000E+00  0.00000000E+00  0.00000000E+00
  0.00000000E+00  0.00000000E+00  0.00000000E+00
  0.00000000E+00  0.00000000E+00  0.00000000E+00
  0.00000000E+00  0.00000000E+00  0.00000000E+00
  0.00000000E+00  0.00000000E+00  0.00000000E+00
  0.00000000E+00  0.00000000E+00  0.00000000E+00
  0.00000000E+00  0.00000000E+00  0.00000000E+00
  0.00000000E+00  0.00000000E+00  0.00000000E+00
  0.00000000E+00  0.00000000E+00  0.00000000E+00
  0.00000000E+00  0.00000000E+00  0.00000000E+00
  0.00000000E+00  0.00000000E+00  0.00000000E+00
  0.00000000E+00  0.00000000E+00  0.00000000E+00
  0.00000000E+00  0.00000000E+00  0.00000000E+00
  0.00000000E+00  0.00000000E+00  0.00000000E+00
  0.00000000E+00  0.00000000E+00  0.00000000E+00
  0.00000000E+00  0.00000000E+00  0.00000000E+00
  0.00000000E+00  0.00000000E+00  0.00000000E+00
  0.00000000E+00  0.00000000E+00  0.00000000E+00
  0.00000000E+00  0.00000000E+00  0.00000000E+00
  0.00000000E+00  0.00000000E+00  0.00000000E+00
  0.00000000E+00  0.00000000E+00  0.00000000E+00
  0.00000000E+00  0.00000000E+00  0.00000000E+00
  0.00000000E+00  0.00000000E+00  0.00000000E+00
  0.00000000E+00  0.00000000E+00  0.00000000E+00
  0.00000000E+00  0.00000000E+00  0.00000000E+00
  0.00000000E+00  0.00000000E+00  0.00000000E+00
  0.00000000E+00  0.00000000E+00  0.00000000E+00
  0.00000000E+00  0.00000000E+00  0.00000000E+00
  0.00000000E+00  0.00000000E+00  0.00000000E+00
  0.00000000E+00  0.00000000E+00  0.00000000E+00
  0.00000000E+00  0.00000000E+00  0.00000000E+00
  0.00000000E+00  0.00000000E+00  0.00000000E+00
  0.00000000E+00  0.00000000E+00  0.00000000E+00
  0.00000000E+00  0.00000000E+00  0.00000000E+00
  0.00000000E+00  0.00000000E+00  0.00000000E+00
  0.00000000E+00  0.00000000E+00  0.00000000E+00
  0.00000000E+00  0.00000000E+00  0.00000000E+00
  0.00000000E+00  0.00000000E+00  0.00000000E+00
  0.00000000E+00  0.00000000E+00  0.00000000E+00
  0.00000000E+00  0.00000000E+00  0.00000000E+00
  0.00000000E+00  0.00000000E+00  0.00000000E+00
  0.00000000E+00  0.00000000E+00  0.00000000E+00
  0.00000000E+00  0.00000000E+00  0.00000000E+00
  0.00000000E+00  0.00000000E+00  0.00000000E+00
  0.00000000E+00  0.00000000E+00  0.00000000E+00
  0.00000000E+00  0.00000000E+00  0.00000000E+00
  0.00000000E+00  0.00000000E+00  0.00000000E+00
  0.00000000E+00  0.00000000E+00  0.00000000E+00
  0.00000000E+00  0.00000000E+00  0.00000000E+00
  0.00000000E+00  0.00000000E+00  0.00000000E+00
  0.00000000E+00  0.00000000E+00  0.00000000E+00
  0.00000000E+00  0.00000000E+00  0.00000000E+00
  0.00000000E+00  0.00000000E+00  0.00000000E+00
  0.00000000E+00  0.00000000E+00  0.00000000E+00
