Cr1 H1 C124 N2 O1                       
   1.00000000000000     
    19.8014049344368921   -0.0279149117999911   -0.3050183319747551
    -9.9261283582289508   17.0543574991249152    0.0904366721977718
    -0.4588075992030421   -0.1087526025901685   29.8288104891067753
   Cr   H    C    N    O 
     1     1   124     2     1
Direct
  0.4400596125197907  0.5005998650085751  0.4248092051214563
  0.4446992419968507  0.5441585563462866  0.5011485119894290
  0.0425758535868019  0.0843602190326430  0.3997984364954442
  0.0420739987833077  0.2087266459741904  0.3994138549246538
  0.0414042786646225  0.3332202106700597  0.3989896834086936
  0.0410739825185944  0.4584378154837670  0.3989079918786480
  0.0414254197227593  0.5837693115060847  0.3991396769611228
  0.0418384201807719  0.7090245486899838  0.3994047364582407
  0.0421389055059185  0.8342377180742577  0.3995857690236403
  0.0424476627106162  0.9594540761371239  0.3997783673042787
  0.1683695162625391  0.0856781152559739  0.4004458934797920
  0.1686054653087358  0.2108019738377415  0.4004951175518786
  0.1671253485212517  0.3346016636283373  0.3998163414037550
  0.1651310140542247  0.4589089457793264  0.3995072467257038
  0.1654965693018197  0.5839282475498081  0.3992744779048160
  0.1663047087717922  0.7091368988948294  0.3994869474007409
  0.1669108168778634  0.8343796527288202  0.3997146372084592
  0.1674770518355251  0.9598357796261791  0.4000273866000154
  0.2928705003733005  0.0852490649414190  0.4006310927441387
  0.2949388587850437  0.2126152371361489  0.4020349578081631
  0.2952803329461351  0.3390181192102562  0.4023449807950327
  0.2898285260921775  0.4602463425130267  0.4020165982606985
  0.2893675998407115  0.5847154663917766  0.4013200688724756
  0.2907296534306157  0.7092893949634701  0.4003165843113062
  0.2916184790675198  0.8341835155969834  0.3997563130733002
  0.2920824633890371  0.9594193389243065  0.3998636135135160
  0.4173098179118655  0.0838195974773527  0.3999645100490397
  0.4181268259036255  0.2095128266640840  0.4009866045571422
  0.4219303940015915  0.3374482765036049  0.4045712920306592
  0.4149273307290574  0.7071598624047305  0.4023158469893532
  0.4162517493299545  0.8329244613154811  0.4002738122192134
  0.4167649817437139  0.9583639807951936  0.3997366913769266
  0.5419222110100711  0.0825947561419956  0.3997505167742420
  0.5425266720224053  0.2076888556951407  0.4000039679685001
  0.5437781277286106  0.3324826048517629  0.4008446199273760
  0.5449761581545707  0.4556692337548617  0.4021602995421808
  0.5420873809826084  0.5780027515013927  0.4007809793677563
  0.5383600426752206  0.7033423477061529  0.4030380265427423
  0.5406006662660412  0.8311061195559512  0.4012742825921224
  0.5414752547701122  0.9571753985799332  0.4001122169231631
  0.6666375936182588  0.0821983080035277  0.3998971644247747
  0.6671613091795827  0.2074668223656406  0.3996714388427317
  0.6679284953155902  0.3326173178806953  0.3994666431789771
  0.6691057332717532  0.4578742565860138  0.3987840345406820
  0.6683782182925362  0.5821277731010380  0.3984333248193040
  0.6649048112601296  0.7053848209222775  0.3992896196530457
  0.6648776798132522  0.8304620536822104  0.4004561381813446
  0.6660352920266950  0.9566515243185826  0.4003356070971903
  0.7914264837440077  0.0822623588078974  0.3997798342308154
  0.7917998035453334  0.2075079425337604  0.3995322002018573
  0.7922935512554317  0.3328087869706445  0.3993001076094164
  0.7928573864104922  0.4581318034655357  0.3989310155946908
  0.7929844383444191  0.5832858475175228  0.3985086511414962
  0.7918530806706591  0.7079497537147914  0.3985052173929516
  0.7908090436394422  0.8320657160161420  0.3993507273513055
  0.7908707818845344  0.9569002020362875  0.3998135335475742
  0.9166347759800808  0.0829284312098452  0.3995520195221409
  0.9166363489226457  0.2078226861162389  0.3992716835382600
  0.9166772880195946  0.3329420061828610  0.3990949036998490
  0.9169169684528976  0.4582432524326005  0.3991011444850874
  0.9172749938474604  0.5836086007378888  0.3990889531765750
  0.9171316449622928  0.7087611977465359  0.3990622897772442
  0.9169158167866844  0.8335964862818990  0.3992456101691541
  0.9166817989892275  0.9582424124501987  0.3995449465619884
  0.0846010597259550  0.0432328233740222  0.3999858093430740
  0.0846459867650816  0.1680592808321543  0.3998678574433234
  0.0835173260936874  0.2921398430257348  0.3992529674936239
  0.0823826943650309  0.4168046527090795  0.3989666452552698
  0.0825366221633944  0.5419681526044402  0.3990084033906261
  0.0831283208933942  0.6673122370405665  0.3993256579450574
  0.0836414304795824  0.7926107617993158  0.3995911228496416
  0.0840111293673786  0.9178525978072068  0.3998056066564469
  0.2094841681900858  0.0434862218971099  0.4004283147823043
  0.2107266766174543  0.1696860398602325  0.4009823138789910
  0.2106223062898622  0.2947457528420008  0.4006550769124422
  0.2070129201636310  0.4179415034923104  0.4001804343137080
  0.2063561534259689  0.5422251219810578  0.3997031015801812
  0.2075379029344208  0.6674855230867517  0.3996312883178509
  0.2083112727933859  0.7926433592634158  0.3996619871412260
  0.2088287324002202  0.9179304958152071  0.3998817534099168
  0.3340055425326864  0.0429499425218228  0.4001063194383797
  0.3350563844577782  0.1690480588244448  0.4013443038993514
  0.3375762371754023  0.2968947185239694  0.4035959977043787
  0.3336241979089098  0.4221924692153351  0.4030333722262919
  0.3309671722649850  0.5445153531953134  0.4039309065523247
  0.3318424098109148  0.6676268751467838  0.4015073777004917
  0.3329960533103697  0.7924281059718106  0.4000776952208255
  0.3335147811404697  0.9175141083592112  0.3997280872062132
  0.4586661936556428  0.0417511809095013  0.3997511886781588
  0.4592886564265776  0.1672095846714858  0.4002066585923639
  0.4608130601722911  0.2929962976137385  0.4018335368658279
  0.4541889958733159  0.6628221076884676  0.4050105241306928
  0.4574998199091968  0.7906355303333416  0.4011061740772300
  0.4581591470420906  0.9162947947208825  0.3999622017802317
  0.5833766874455444  0.0407063797311234  0.3998739979197410
  0.5838650688412844  0.1659223257960314  0.3997565516798069
  0.5848076602606875  0.2908482305431929  0.4000593914876065
  0.5862715981897628  0.4153948805735047  0.4001253835944459
  0.5857134000945354  0.5398254497567921  0.3997422680576248
  0.5804078640282975  0.6611474410817411  0.4007919673191124
  0.5808114024121005  0.7875777050152845  0.4016299054721933
  0.5826692890210865  0.9148906554108340  0.4005753725758035
  0.7079905701939275  0.0402783421223391  0.4000227500801503
  0.7085452985322290  0.1657403638707576  0.3997000598461489
  0.7091327340026503  0.2909745540614553  0.3994775692188853
  0.7099354018057703  0.4161750945153667  0.3989420985148627
  0.7102658549188305  0.5411761252353174  0.3984198226644243
  0.7082736041766183  0.6654749273515277  0.3984033807601680
  0.7069203621384735  0.7893351121714760  0.3996934937207594
  0.7071550892500966  0.9144616052146290  0.4001949638154982
  0.8330002589809891  0.0406744179184016  0.3997255063040871
  0.8332892846911363  0.1658626584144716  0.3995094749472855
  0.8335700840024232  0.2910804222201091  0.3993132630492147
  0.8339842941675369  0.4163481860209916  0.3991486571436441
  0.8342952387965912  0.5416544869036566  0.3988305184732082
  0.8339483546150128  0.6668523879264244  0.3986073235289624
  0.8333089665956314  0.7913606862214670  0.3989639710840987
  0.8328779389094564  0.9157723788498097  0.3995757751184284
  0.9587469334638190  0.0418995105414704  0.3996095908209955
  0.9584980927017189  0.1665107182489884  0.3993668232429462
  0.9582462339792436  0.2913385296966375  0.3990579774458456
  0.9581050041660284  0.4165077178511110  0.3990029888265321
  0.9584863206711359  0.5418838097225511  0.3991209302033987
  0.9587049264615053  0.6671634373539064  0.3992105540173488
  0.9587653630251241  0.7922924632007188  0.3992978298006402
  0.9587890845204304  0.9172060938868820  0.3995277272654216
  0.4105652924551144  0.5824707325170874  0.4086971589654106
  0.4660235388916384  0.4178937590351587  0.4074067782690084
  0.4495073167336849  0.5041467579624959  0.4849335231615268
 
  0.00000000E+00  0.00000000E+00  0.00000000E+00
  0.00000000E+00  0.00000000E+00  0.00000000E+00
  0.00000000E+00  0.00000000E+00  0.00000000E+00
  0.00000000E+00  0.00000000E+00  0.00000000E+00
  0.00000000E+00  0.00000000E+00  0.00000000E+00
  0.00000000E+00  0.00000000E+00  0.00000000E+00
  0.00000000E+00  0.00000000E+00  0.00000000E+00
  0.00000000E+00  0.00000000E+00  0.00000000E+00
  0.00000000E+00  0.00000000E+00  0.00000000E+00
  0.00000000E+00  0.00000000E+00  0.00000000E+00
  0.00000000E+00  0.00000000E+00  0.00000000E+00
  0.00000000E+00  0.00000000E+00  0.00000000E+00
  0.00000000E+00  0.00000000E+00  0.00000000E+00
  0.00000000E+00  0.00000000E+00  0.00000000E+00
  0.00000000E+00  0.00000000E+00  0.00000000E+00
  0.00000000E+00  0.00000000E+00  0.00000000E+00
  0.00000000E+00  0.00000000E+00  0.00000000E+00
  0.00000000E+00  0.00000000E+00  0.00000000E+00
  0.00000000E+00  0.00000000E+00  0.00000000E+00
  0.00000000E+00  0.00000000E+00  0.00000000E+00
  0.00000000E+00  0.00000000E+00  0.00000000E+00
  0.00000000E+00  0.00000000E+00  0.00000000E+00
  0.00000000E+00  0.00000000E+00  0.00000000E+00
  0.00000000E+00  0.00000000E+00  0.00000000E+00
  0.00000000E+00  0.00000000E+00  0.00000000E+00
  0.00000000E+00  0.00000000E+00  0.00000000E+00
  0.00000000E+00  0.00000000E+00  0.00000000E+00
  0.00000000E+00  0.00000000E+00  0.00000000E+00
  0.00000000E+00  0.00000000E+00  0.00000000E+00
  0.00000000E+00  0.00000000E+00  0.00000000E+00
  0.00000000E+00  0.00000000E+00  0.00000000E+00
  0.00000000E+00  0.00000000E+00  0.00000000E+00
  0.00000000E+00  0.00000000E+00  0.00000000E+00
  0.00000000E+00  0.00000000E+00  0.00000000E+00
  0.00000000E+00  0.00000000E+00  0.00000000E+00
  0.00000000E+00  0.00000000E+00  0.00000000E+00
  0.00000000E+00  0.00000000E+00  0.00000000E+00
  0.00000000E+00  0.00000000E+00  0.00000000E+00
  0.00000000E+00  0.00000000E+00  0.00000000E+00
  0.00000000E+00  0.00000000E+00  0.00000000E+00
  0.00000000E+00  0.00000000E+00  0.00000000E+00
  0.00000000E+00  0.00000000E+00  0.00000000E+00
  0.00000000E+00  0.00000000E+00  0.00000000E+00
  0.00000000E+00  0.00000000E+00  0.00000000E+00
  0.00000000E+00  0.00000000E+00  0.00000000E+00
  0.00000000E+00  0.00000000E+00  0.00000000E+00
  0.00000000E+00  0.00000000E+00  0.00000000E+00
  0.00000000E+00  0.00000000E+00  0.00000000E+00
  0.00000000E+00  0.00000000E+00  0.00000000E+00
  0.00000000E+00  0.00000000E+00  0.00000000E+00
  0.00000000E+00  0.00000000E+00  0.00000000E+00
  0.00000000E+00  0.00000000E+00  0.00000000E+00
  0.00000000E+00  0.00000000E+00  0.00000000E+00
  0.00000000E+00  0.00000000E+00  0.00000000E+00
  0.00000000E+00  0.00000000E+00  0.00000000E+00
  0.00000000E+00  0.00000000E+00  0.00000000E+00
  0.00000000E+00  0.00000000E+00  0.00000000E+00
  0.00000000E+00  0.00000000E+00  0.00000000E+00
  0.00000000E+00  0.00000000E+00  0.00000000E+00
  0.00000000E+00  0.00000000E+00  0.00000000E+00
  0.00000000E+00  0.00000000E+00  0.00000000E+00
  0.00000000E+00  0.00000000E+00  0.00000000E+00
  0.00000000E+00  0.00000000E+00  0.00000000E+00
  0.00000000E+00  0.00000000E+00  0.00000000E+00
  0.00000000E+00  0.00000000E+00  0.00000000E+00
  0.00000000E+00  0.00000000E+00  0.00000000E+00
  0.00000000E+00  0.00000000E+00  0.00000000E+00
  0.00000000E+00  0.00000000E+00  0.00000000E+00
  0.00000000E+00  0.00000000E+00  0.00000000E+00
  0.00000000E+00  0.00000000E+00  0.00000000E+00
  0.00000000E+00  0.00000000E+00  0.00000000E+00
  0.00000000E+00  0.00000000E+00  0.00000000E+00
  0.00000000E+00  0.00000000E+00  0.00000000E+00
  0.00000000E+00  0.00000000E+00  0.00000000E+00
  0.00000000E+00  0.00000000E+00  0.00000000E+00
  0.00000000E+00  0.00000000E+00  0.00000000E+00
  0.00000000E+00  0.00000000E+00  0.00000000E+00
  0.00000000E+00  0.00000000E+00  0.00000000E+00
  0.00000000E+00  0.00000000E+00  0.00000000E+00
  0.00000000E+00  0.00000000E+00  0.00000000E+00
  0.00000000E+00  0.00000000E+00  0.00000000E+00
  0.00000000E+00  0.00000000E+00  0.00000000E+00
  0.00000000E+00  0.00000000E+00  0.00000000E+00
  0.00000000E+00  0.00000000E+00  0.00000000E+00
  0.00000000E+00  0.00000000E+00  0.00000000E+00
  0.00000000E+00  0.00000000E+00  0.00000000E+00
  0.00000000E+00  0.00000000E+00  0.00000000E+00
  0.00000000E+00  0.00000000E+00  0.00000000E+00
  0.00000000E+00  0.00000000E+00  0.00000000E+00
  0.00000000E+00  0.00000000E+00  0.00000000E+00
  0.00000000E+00  0.00000000E+00  0.00000000E+00
  0.00000000E+00  0.00000000E+00  0.00000000E+00
  0.00000000E+00  0.00000000E+00  0.00000000E+00
  0.00000000E+00  0.00000000E+00  0.00000000E+00
  0.00000000E+00  0.00000000E+00  0.00000000E+00
  0.00000000E+00  0.00000000E+00  0.00000000E+00
  0.00000000E+00  0.00000000E+00  0.00000000E+00
  0.00000000E+00  0.00000000E+00  0.00000000E+00
  0.00000000E+00  0.00000000E+00  0.00000000E+00
  0.00000000E+00  0.00000000E+00  0.00000000E+00
  0.00000000E+00  0.00000000E+00  0.00000000E+00
  0.00000000E+00  0.00000000E+00  0.00000000E+00
  0.00000000E+00  0.00000000E+00  0.00000000E+00
  0.00000000E+00  0.00000000E+00  0.00000000E+00
  0.00000000E+00  0.00000000E+00  0.00000000E+00
  0.00000000E+00  0.00000000E+00  0.00000000E+00
  0.00000000E+00  0.00000000E+00  0.00000000E+00
  0.00000000E+00  0.00000000E+00  0.00000000E+00
  0.00000000E+00  0.00000000E+00  0.00000000E+00
  0.00000000E+00  0.00000000E+00  0.00000000E+00
  0.00000000E+00  0.00000000E+00  0.00000000E+00
  0.00000000E+00  0.00000000E+00  0.00000000E+00
  0.00000000E+00  0.00000000E+00  0.00000000E+00
  0.00000000E+00  0.00000000E+00  0.00000000E+00
  0.00000000E+00  0.00000000E+00  0.00000000E+00
  0.00000000E+00  0.00000000E+00  0.00000000E+00
  0.00000000E+00  0.00000000E+00  0.00000000E+00
  0.00000000E+00  0.00000000E+00  0.00000000E+00
  0.00000000E+00  0.00000000E+00  0.00000000E+00
  0.00000000E+00  0.00000000E+00  0.00000000E+00
  0.00000000E+00  0.00000000E+00  0.00000000E+00
  0.00000000E+00  0.00000000E+00  0.00000000E+00
  0.00000000E+00  0.00000000E+00  0.00000000E+00
  0.00000000E+00  0.00000000E+00  0.00000000E+00
  0.00000000E+00  0.00000000E+00  0.00000000E+00
  0.00000000E+00  0.00000000E+00  0.00000000E+00
  0.00000000E+00  0.00000000E+00  0.00000000E+00
  0.00000000E+00  0.00000000E+00  0.00000000E+00
  0.00000000E+00  0.00000000E+00  0.00000000E+00
