Fe1 H1 C123 N3 O2                       
   1.00000000000000     
    19.7993954242396661    0.0058039498473149    0.0363611813732159
    -9.8946249030560498   17.0174467748865581    0.0185613837446915
     0.0540420912060920    0.0643509561406688   29.8596863652686970
   Fe   H    C    N    O 
     1     1   123     3     2
Direct
  0.4387197542495030  0.4989860453216412  0.4207559717806313
  0.5221547850449906  0.5487437820710566  0.5174002640919687
  0.0420900844661986  0.0842506556715421  0.4001184643972393
  0.0412094443684085  0.2083170628756227  0.4002044197555930
  0.0406410509892410  0.3329717004834227  0.3997535780557053
  0.0408076130403531  0.4581415022855616  0.3992413440481417
  0.0414113009185868  0.5835556717344145  0.3991666184248879
  0.0420600714652795  0.7089836352564920  0.3993849950414630
  0.0423256419483859  0.8342459517215947  0.3995971096307298
  0.0423508735293192  0.9594302426527236  0.3997918893382422
  0.1678092777114731  0.0855516249726023  0.4008075690509187
  0.1677685571141976  0.2106455082644222  0.4016249312585592
  0.1654955142033167  0.3337886661928290  0.4014020719549373
  0.1647710423298911  0.4583641761877952  0.4001675363671923
  0.1653860867734514  0.5834569258892858  0.3994557279697540
  0.1664233520194265  0.7087449424352089  0.3993135282458894
  0.1669895738422919  0.8341999289635267  0.3996516861149846
  0.1674044857612666  0.9598526154052976  0.4000522592793569
  0.2925477695336383  0.0858065527069912  0.4006680226429357
  0.2932796839559654  0.2127973782364626  0.4023306111858643
  0.2932838042867135  0.3393475673568254  0.4043296977284540
  0.2885439663823302  0.4580136031547997  0.4030996781461790
  0.2888007658586791  0.5828513915559631  0.4009247660559293
  0.2906939157944301  0.7081433880953001  0.4000239504676129
  0.2916103204338122  0.8336872616398114  0.3995917197201557
  0.2920506804941967  0.9594858459192902  0.3998620202499204
  0.4169856662052197  0.0842712698973618  0.3999909349747466
  0.4175583847967240  0.2106259200609013  0.4009368694192777
  0.4193516696260370  0.3385168761194852  0.4034940320533850
  0.4145897841723357  0.7051655092496657  0.4018262343992294
  0.4160724832121961  0.8318320707997368  0.4003321803274215
  0.4166216461134947  0.9580716706210898  0.3997547596491786
  0.5414787898792153  0.0826645604039337  0.3996807810589436
  0.5419385747314220  0.2084930301696612  0.3999352478219749
  0.5429142249966570  0.3341394043309932  0.4010411484875956
  0.5458168074161317  0.4593978272146052  0.4032964405179367
  0.5378664335949904  0.7008998351877108  0.4037973740740345
  0.5402488417828956  0.8297026179132462  0.4015281067585536
  0.5410696253393354  0.9564951802997439  0.4002489488089612
  0.6660819939957151  0.0820052743593607  0.3999177245867773
  0.6664917026008019  0.2075766352976418  0.3994716349364520
  0.6671585610240129  0.3330126373350276  0.3998079630254651
  0.6690435725805846  0.4585131677684278  0.4009579014569704
  0.6700543706815726  0.5838395584235582  0.4021570655521262
  0.6658372663663538  0.7055925958683464  0.4021061924553886
  0.6643839285619996  0.8297865671895998  0.4015207775520595
  0.6654859249540217  0.9560750241924286  0.4006199445440486
  0.7907681539814131  0.0819893957326449  0.3999317858396181
  0.7910950726423377  0.2073786319329794  0.3996184200951504
  0.7915724887007399  0.3327719857412582  0.3992822014552970
  0.7925884051347213  0.4582069736602216  0.3995893282138333
  0.7934256322217921  0.5836333688138213  0.4002637839835323
  0.7929512526582865  0.7086403058959350  0.4006108900722093
  0.7908559569879642  0.8320840851420992  0.4005025560328089
  0.7903294080601860  0.9565265700778107  0.4002352228139710
  0.9159832769212732  0.0826172631092505  0.3997334786529796
  0.9158780213867961  0.2075367768763196  0.3995812938550114
  0.9160415455169341  0.3327690611949419  0.3992786317332179
  0.9166488179141166  0.4581661375844978  0.3991750574460947
  0.9173660042124715  0.5836262452616989  0.3993555046686775
  0.9175550931156532  0.7088940777101020  0.3996038234860223
  0.9172215771038524  0.8338631632308279  0.3996689389743504
  0.9164574025634338  0.9581661039982747  0.3997302669815578
  0.0842695901333670  0.0431789528887699  0.4002093677989253
  0.0839847849343918  0.1679536548889858  0.4006137921599319
  0.0825146494971436  0.2916767266007591  0.4003831359023386
  0.0820059035440820  0.4163718743754390  0.3996192102010780
  0.0825104653512335  0.5416899611026575  0.3992047375288167
  0.0832964168461596  0.6671133439544796  0.3992598013328411
  0.0837955207378994  0.7925288577274658  0.3996036887352867
  0.0840604224236915  0.9178682168496423  0.3997876665315686
  0.2091953852430785  0.0436297192879638  0.4005345617813704
  0.2097228164301214  0.1695126461298017  0.4016794440503608
  0.2093308829028735  0.2946065317316826  0.4024643894579654
  0.2062536889493531  0.4169124101324396  0.4012732837705985
  0.2061024382627370  0.5414352821381917  0.4000566428930352
  0.2075398574038775  0.6668346976786432  0.3994811373704057
  0.2083775688389467  0.7923115500409500  0.3994626951743986
  0.2087975856101546  0.9178367235380732  0.3998771839679365
  0.3337736381704247  0.0433093703396443  0.4001473261557001
  0.3342856840596146  0.1697842488135922  0.4013132824536856
  0.3353149436581833  0.2972428780857911  0.4038764966931077
  0.3299763011781587  0.5417678816719509  0.4028281521808563
  0.3315107298120685  0.6659227150444929  0.4009014749180269
  0.3328963370944900  0.7914793955352013  0.3999302912450104
  0.3333829671337811  0.9172334530109556  0.3996961724664067
  0.4582628396542841  0.0417573455342254  0.3997261074846709
  0.4586690101718568  0.1679206739121209  0.4002606157851162
  0.4596233307218621  0.2944231739794337  0.4014748584877923
  0.4637172306751360  0.4213512979343332  0.4053035075528002
  0.4533069092893588  0.6597706400696041  0.4037832028862500
  0.4570994157717495  0.7889978522037495  0.4012050455060689
  0.4578688091498817  0.9155546449287556  0.4000756411327555
  0.5828033462482204  0.0403664189829481  0.3999171186094767
  0.5832811777179140  0.1662963107491702  0.3995882400275621
  0.5839333371602561  0.2918486373742566  0.4001774956762248
  0.5862335244230713  0.4173462522769770  0.4017068306126857
  0.5882258348598716  0.5428990245534450  0.4035513809427456
  0.5816735010892047  0.6603095181328539  0.4038123214531155
  0.5804526511980301  0.7860365169969188  0.4023196850554845
  0.5821991660536008  0.9138911383574813  0.4008047412580593
  0.7074069207883794  0.0399451484341385  0.4001406626869382
  0.7079027038461679  0.1656770708004090  0.3996533890821267
  0.7083647130498283  0.2911313851351774  0.3993955679716905
  0.7096865196345318  0.4164914177747547  0.4000463656171335
  0.7108451279160585  0.5417262860363822  0.4011579946253611
  0.7100321116837793  0.6667083906838682  0.4016381620794275
  0.7070334949145990  0.7893340152966164  0.4013480035056867
  0.7066166186153140  0.9139335392044482  0.4007863200090657
  0.8323871092597791  0.0403739076276495  0.3999094744167934
  0.8326076144408616  0.1656819500452303  0.3997033639209424
  0.8328758911895632  0.2909396074810320  0.3993578723004015
  0.8336411971491349  0.4163283737172269  0.3992605864191442
  0.8344782947565347  0.5417811354197893  0.3996528858892135
  0.8346146914689747  0.6671035800348201  0.4001422060590074
  0.8338565199593111  0.7918410213754287  0.4001977791217663
  0.8327149408925182  0.9157283918677659  0.4000863039768587
  0.9583853264138866  0.0418073792373464  0.3997621969038921
  0.9577779269456010  0.1661802096861942  0.3997238926664110
  0.9575777579064308  0.2911152131057313  0.3994426726915765
  0.9578272722930636  0.4163335049578357  0.3991802594931694
  0.9584443023343887  0.5417360837803497  0.3992022516562879
  0.9590173297519330  0.6671714100332425  0.3993960394490703
  0.9590808831464263  0.7924487067903960  0.3995352918754552
  0.9588580827896673  0.9173506163338692  0.3996469553425316
  0.4095206868841085  0.5790996841516993  0.4052340687495666
  0.5451606045800942  0.5796724839978263  0.4050429045099363
  0.3316302675904793  0.4209461394182466  0.4056619564663729
  0.4949732322019165  0.4971511532625261  0.5030050304182909
  0.4307004169274927  0.5016876510404742  0.4815559370873493
 
  0.00000000E+00  0.00000000E+00  0.00000000E+00
  0.00000000E+00  0.00000000E+00  0.00000000E+00
  0.00000000E+00  0.00000000E+00  0.00000000E+00
  0.00000000E+00  0.00000000E+00  0.00000000E+00
  0.00000000E+00  0.00000000E+00  0.00000000E+00
  0.00000000E+00  0.00000000E+00  0.00000000E+00
  0.00000000E+00  0.00000000E+00  0.00000000E+00
  0.00000000E+00  0.00000000E+00  0.00000000E+00
  0.00000000E+00  0.00000000E+00  0.00000000E+00
  0.00000000E+00  0.00000000E+00  0.00000000E+00
  0.00000000E+00  0.00000000E+00  0.00000000E+00
  0.00000000E+00  0.00000000E+00  0.00000000E+00
  0.00000000E+00  0.00000000E+00  0.00000000E+00
  0.00000000E+00  0.00000000E+00  0.00000000E+00
  0.00000000E+00  0.00000000E+00  0.00000000E+00
  0.00000000E+00  0.00000000E+00  0.00000000E+00
  0.00000000E+00  0.00000000E+00  0.00000000E+00
  0.00000000E+00  0.00000000E+00  0.00000000E+00
  0.00000000E+00  0.00000000E+00  0.00000000E+00
  0.00000000E+00  0.00000000E+00  0.00000000E+00
  0.00000000E+00  0.00000000E+00  0.00000000E+00
  0.00000000E+00  0.00000000E+00  0.00000000E+00
  0.00000000E+00  0.00000000E+00  0.00000000E+00
  0.00000000E+00  0.00000000E+00  0.00000000E+00
  0.00000000E+00  0.00000000E+00  0.00000000E+00
  0.00000000E+00  0.00000000E+00  0.00000000E+00
  0.00000000E+00  0.00000000E+00  0.00000000E+00
  0.00000000E+00  0.00000000E+00  0.00000000E+00
  0.00000000E+00  0.00000000E+00  0.00000000E+00
  0.00000000E+00  0.00000000E+00  0.00000000E+00
  0.00000000E+00  0.00000000E+00  0.00000000E+00
  0.00000000E+00  0.00000000E+00  0.00000000E+00
  0.00000000E+00  0.00000000E+00  0.00000000E+00
  0.00000000E+00  0.00000000E+00  0.00000000E+00
  0.00000000E+00  0.00000000E+00  0.00000000E+00
  0.00000000E+00  0.00000000E+00  0.00000000E+00
  0.00000000E+00  0.00000000E+00  0.00000000E+00
  0.00000000E+00  0.00000000E+00  0.00000000E+00
  0.00000000E+00  0.00000000E+00  0.00000000E+00
  0.00000000E+00  0.00000000E+00  0.00000000E+00
  0.00000000E+00  0.00000000E+00  0.00000000E+00
  0.00000000E+00  0.00000000E+00  0.00000000E+00
  0.00000000E+00  0.00000000E+00  0.00000000E+00
  0.00000000E+00  0.00000000E+00  0.00000000E+00
  0.00000000E+00  0.00000000E+00  0.00000000E+00
  0.00000000E+00  0.00000000E+00  0.00000000E+00
  0.00000000E+00  0.00000000E+00  0.00000000E+00
  0.00000000E+00  0.00000000E+00  0.00000000E+00
  0.00000000E+00  0.00000000E+00  0.00000000E+00
  0.00000000E+00  0.00000000E+00  0.00000000E+00
  0.00000000E+00  0.00000000E+00  0.00000000E+00
  0.00000000E+00  0.00000000E+00  0.00000000E+00
  0.00000000E+00  0.00000000E+00  0.00000000E+00
  0.00000000E+00  0.00000000E+00  0.00000000E+00
  0.00000000E+00  0.00000000E+00  0.00000000E+00
  0.00000000E+00  0.00000000E+00  0.00000000E+00
  0.00000000E+00  0.00000000E+00  0.00000000E+00
  0.00000000E+00  0.00000000E+00  0.00000000E+00
  0.00000000E+00  0.00000000E+00  0.00000000E+00
  0.00000000E+00  0.00000000E+00  0.00000000E+00
  0.00000000E+00  0.00000000E+00  0.00000000E+00
  0.00000000E+00  0.00000000E+00  0.00000000E+00
  0.00000000E+00  0.00000000E+00  0.00000000E+00
  0.00000000E+00  0.00000000E+00  0.00000000E+00
  0.00000000E+00  0.00000000E+00  0.00000000E+00
  0.00000000E+00  0.00000000E+00  0.00000000E+00
  0.00000000E+00  0.00000000E+00  0.00000000E+00
  0.00000000E+00  0.00000000E+00  0.00000000E+00
  0.00000000E+00  0.00000000E+00  0.00000000E+00
  0.00000000E+00  0.00000000E+00  0.00000000E+00
  0.00000000E+00  0.00000000E+00  0.00000000E+00
  0.00000000E+00  0.00000000E+00  0.00000000E+00
  0.00000000E+00  0.00000000E+00  0.00000000E+00
  0.00000000E+00  0.00000000E+00  0.00000000E+00
  0.00000000E+00  0.00000000E+00  0.00000000E+00
  0.00000000E+00  0.00000000E+00  0.00000000E+00
  0.00000000E+00  0.00000000E+00  0.00000000E+00
  0.00000000E+00  0.00000000E+00  0.00000000E+00
  0.00000000E+00  0.00000000E+00  0.00000000E+00
  0.00000000E+00  0.00000000E+00  0.00000000E+00
  0.00000000E+00  0.00000000E+00  0.00000000E+00
  0.00000000E+00  0.00000000E+00  0.00000000E+00
  0.00000000E+00  0.00000000E+00  0.00000000E+00
  0.00000000E+00  0.00000000E+00  0.00000000E+00
  0.00000000E+00  0.00000000E+00  0.00000000E+00
  0.00000000E+00  0.00000000E+00  0.00000000E+00
  0.00000000E+00  0.00000000E+00  0.00000000E+00
  0.00000000E+00  0.00000000E+00  0.00000000E+00
  0.00000000E+00  0.00000000E+00  0.00000000E+00
  0.00000000E+00  0.00000000E+00  0.00000000E+00
  0.00000000E+00  0.00000000E+00  0.00000000E+00
  0.00000000E+00  0.00000000E+00  0.00000000E+00
  0.00000000E+00  0.00000000E+00  0.00000000E+00
  0.00000000E+00  0.00000000E+00  0.00000000E+00
  0.00000000E+00  0.00000000E+00  0.00000000E+00
  0.00000000E+00  0.00000000E+00  0.00000000E+00
  0.00000000E+00  0.00000000E+00  0.00000000E+00
  0.00000000E+00  0.00000000E+00  0.00000000E+00
  0.00000000E+00  0.00000000E+00  0.00000000E+00
  0.00000000E+00  0.00000000E+00  0.00000000E+00
  0.00000000E+00  0.00000000E+00  0.00000000E+00
  0.00000000E+00  0.00000000E+00  0.00000000E+00
  0.00000000E+00  0.00000000E+00  0.00000000E+00
  0.00000000E+00  0.00000000E+00  0.00000000E+00
  0.00000000E+00  0.00000000E+00  0.00000000E+00
  0.00000000E+00  0.00000000E+00  0.00000000E+00
  0.00000000E+00  0.00000000E+00  0.00000000E+00
  0.00000000E+00  0.00000000E+00  0.00000000E+00
  0.00000000E+00  0.00000000E+00  0.00000000E+00
  0.00000000E+00  0.00000000E+00  0.00000000E+00
  0.00000000E+00  0.00000000E+00  0.00000000E+00
  0.00000000E+00  0.00000000E+00  0.00000000E+00
  0.00000000E+00  0.00000000E+00  0.00000000E+00
  0.00000000E+00  0.00000000E+00  0.00000000E+00
  0.00000000E+00  0.00000000E+00  0.00000000E+00
  0.00000000E+00  0.00000000E+00  0.00000000E+00
  0.00000000E+00  0.00000000E+00  0.00000000E+00
  0.00000000E+00  0.00000000E+00  0.00000000E+00
  0.00000000E+00  0.00000000E+00  0.00000000E+00
  0.00000000E+00  0.00000000E+00  0.00000000E+00
  0.00000000E+00  0.00000000E+00  0.00000000E+00
  0.00000000E+00  0.00000000E+00  0.00000000E+00
  0.00000000E+00  0.00000000E+00  0.00000000E+00
  0.00000000E+00  0.00000000E+00  0.00000000E+00
  0.00000000E+00  0.00000000E+00  0.00000000E+00
  0.00000000E+00  0.00000000E+00  0.00000000E+00
  0.00000000E+00  0.00000000E+00  0.00000000E+00
  0.00000000E+00  0.00000000E+00  0.00000000E+00
  0.00000000E+00  0.00000000E+00  0.00000000E+00
  0.00000000E+00  0.00000000E+00  0.00000000E+00
