Hf1 C122 N4                             
   1.00000000000000     
    19.8017976690810471   -0.0000572625223163    0.0007683238933097
    -9.9009488187659329   17.0476632930358605   -0.0004877978546593
     0.0011530591162888   -0.0001824638433551   29.8080330342483997
   Hf   C    N 
     1   122     4
Direct
  0.4374801455624655  0.5000008453522938  0.4318967356920231
  0.0419270541029483  0.0839600714890661  0.3998769455368428
  0.0412102048125974  0.2082659789483662  0.3997801813801053
  0.0405691145995059  0.3331208995552800  0.3997946137333718
  0.0405921935329370  0.4582602527409359  0.3998049852680508
  0.0413221740915032  0.5836242347721136  0.4000170067932736
  0.0419963389831476  0.7089688315440562  0.4000755928400127
  0.0421182118991245  0.8340534983213639  0.4000791406558818
  0.0422654624242598  0.9592480659327351  0.4000349572705060
  0.1676959066791222  0.0850689067773902  0.3998681906096865
  0.1673818014531850  0.2097905931130349  0.3995955162992171
  0.1653357354300466  0.3337450272917057  0.3999174926440676
  0.1645218388799596  0.4584472890577486  0.3996742617848659
  0.1653228490065342  0.5836625938816072  0.3996604183168341
  0.1663594517728310  0.7087977204633442  0.3999502646950048
  0.1669163118161235  0.8340569396100690  0.4000553525577544
  0.1672365960429695  0.9595027501518023  0.3999841738141456
  0.2923426329467260  0.0850693323817589  0.3998337269332922
  0.2934932185337574  0.2120252884625519  0.4001186359474844
  0.2918480903345749  0.3370146226600897  0.4013328936641228
  0.2881233160738208  0.4582929484580953  0.4011298861936484
  0.2888691530949741  0.5830525696887119  0.4000575720876959
  0.2908105742992728  0.7081989298495168  0.3997791483134300
  0.2916732123808090  0.8336937163422093  0.3999417219362050
  0.2919736140014451  0.9592400370253549  0.3999901527014213
  0.4170223923408534  0.0839458778339683  0.3998513180853972
  0.4173784812796219  0.2097890717647025  0.3995771650864398
  0.4201637185488784  0.3370179527331548  0.4013306986839629
  0.4153295123048117  0.7066610477380265  0.3998014950114821
  0.4162631945656615  0.8325314134526554  0.3996864305035797
  0.4166409344164874  0.9581871918145676  0.4000199601784085
  0.5415723437471648  0.0827925147647307  0.4000547225983679
  0.5420499381148866  0.2082605127907051  0.3997991175237603
  0.5434253754556478  0.3337374811036147  0.3999224320495331
  0.5451951319495599  0.4582859820636876  0.4011410750806071
  0.5390460585769518  0.7031039095225965  0.4010778346521384
  0.5407984834425353  0.8309760720566923  0.3998476531432617
  0.5413223885708055  0.9571092945922590  0.3999121775443437
  0.6662399071703313  0.0823071665196968  0.4000488968463537
  0.6667420223463898  0.2077170489463158  0.4000391248738300
  0.6675703746260873  0.3331358246352137  0.3997958703778837
  0.6689620779936822  0.4584555162073480  0.3996665967075184
  0.6692228939330908  0.5830582714665221  0.4000574543472247
  0.6663303436224952  0.7066573182101324  0.3997930427415444
  0.6651466448865412  0.8309880443899590  0.3998277751605178
  0.6659172422818239  0.9568499832393774  0.3999020084204602
  0.7910518986747596  0.0822985808512149  0.4000285535140742
  0.7913016114647730  0.2076121930421435  0.4000653563426278
  0.7917920570275304  0.3329073715075532  0.4000220016279588
  0.7926614790372579  0.4582675725164790  0.3997746605694303
  0.7933385169224458  0.5836464647109408  0.3996465794988878
  0.7924108272585622  0.7082086371505902  0.3998016143653109
  0.7912707864549489  0.8325403609729229  0.3996729577639652
  0.7907720868927651  0.9571156070003346  0.3998660679607167
  0.9162299895951319  0.0828073813597242  0.4000076283758114
  0.9159620816405746  0.2077131935470547  0.4000099750910738
  0.9161333747339055  0.3329067027527912  0.4000388173567361
  0.9166460496149891  0.4582951465143764  0.4000835477869524
  0.9172875932155207  0.5836208007912286  0.3999967181217190
  0.9174415094511147  0.7087974744873433  0.3999561553128418
  0.9170266353694478  0.8337118404384374  0.3999843624386205
  0.9165644744196422  0.9582063127054389  0.4000271545292102
  0.0842150245033810  0.0428910882877900  0.3999121998482884
  0.0837335149159057  0.1674700604867687  0.3996864894365842
  0.0826151043066932  0.2918047784941217  0.3997802107451136
  0.0816637950912807  0.4163385626265937  0.3996605290909821
  0.0823348543810930  0.5417399249488730  0.3998049640461516
  0.0832273332753616  0.6670929637705680  0.4000387224469923
  0.0836911556926383  0.7923872819482998  0.4000651209188101
  0.0839339962721727  0.9176921618005955  0.4000491034405574
  0.2090681337244818  0.0431491219744496  0.3999019067428101
  0.2098236976502114  0.1690246687036382  0.3998476098999395
  0.2086689930604008  0.2933408501057588  0.3998024883829576
  0.2058170695666342  0.4169472717727864  0.4000583490618544
  0.2060754857376110  0.5415503294192722  0.3996741503558618
  0.2074482442519781  0.6668758705767540  0.3997939486329032
  0.2082481290672215  0.7922853658188467  0.4000098589803320
  0.2087529399237440  0.9177005686381164  0.4000294641928172
  0.3336567954806941  0.0428840821556059  0.3998658662772139
  0.3341578555973608  0.1690107965631178  0.3998276392334735
  0.3359429551330350  0.2968965007590907  0.4010778490615170
  0.3298294573250035  0.5417047715788235  0.4011304732432624
  0.3315890854313487  0.6662500412562909  0.3999167805133110
  0.3329438474518332  0.7917307902739755  0.3997800798222244
  0.3334221407944610  0.9171915453103103  0.4000075230447009
  0.4583601840731051  0.0417937959415341  0.4000261730670290
  0.4587314225585890  0.1674601988971005  0.3996727498576615
  0.4596730688033642  0.2933424033834719  0.3997930108483405
  0.4548324813121504  0.6629845741472161  0.4013327768103898
  0.4575905346210407  0.7902071394558428  0.3995946521420752
  0.4579679440841297  0.9160391099399875  0.3998768663524735
  0.5830218134796349  0.0407521399385227  0.4000344376519597
  0.5833185711157465  0.1662893984096378  0.3999842773650495
  0.5842046457328325  0.2917910003030462  0.3998012690954602
  0.5861650815760620  0.4169415888247822  0.4000575516699290
  0.5869091925043519  0.5417145379249940  0.4011411182158298
  0.5831460673805798  0.6629825986408301  0.4013307319684261
  0.5814682126434098  0.7879748268747950  0.4001186330489591
  0.5826290229768643  0.9149306239799893  0.3998688146809823
  0.7077367942873704  0.0404980243866175  0.3999832807644751
  0.7080695786645129  0.1659486288364850  0.4000791612308762
  0.7086488242074984  0.2912031089668659  0.3999561571119678
  0.7096958125967869  0.4163527906295068  0.3996470578741612
  0.7105089211754245  0.5415450766872005  0.3996659169916755
  0.7096893356725962  0.6662634265672553  0.3999224232355998
  0.7075900458873069  0.7902116936711066  0.3995771476619118
  0.7072738825109320  0.9149305004186374  0.3998341039985125
  0.8327339854936676  0.0407600341013713  0.3999900357932210
  0.8328609074667285  0.1659440317945837  0.4000552385160671
  0.8330315808798061  0.2910323694511540  0.4000755820496567
  0.8336714657988729  0.4163796054626258  0.3999966113131638
  0.8343994022884530  0.5417326933074724  0.3997746869097544
  0.8344383354953889  0.6668645117462716  0.3997957246774889
  0.8337918295431282  0.7917397494713690  0.3997998907746857
  0.8330769467800027  0.9160545325554986  0.3998521795747805
  0.9584544947056604  0.0418132074378018  0.4000208533616054
  0.9579806975979295  0.1663072061280405  0.3999416615440654
  0.9575644057914010  0.2912037279068224  0.3999511453127806
  0.9577013639497772  0.4163770434837921  0.4000168782109535
  0.9583540872072392  0.5417048303322326  0.4000842214175869
  0.9588867336010716  0.6670913834962159  0.4000223419817988
  0.9590280151202716  0.7922830397102920  0.4000391066661594
  0.9587816484248266  0.9172075148404241  0.4000549104170240
  0.4111473801696797  0.5819739049551619  0.4042712767695344
  0.5458436221394949  0.5819673711677964  0.4042931093994829
  0.3291726360566331  0.4180252650600420  0.4042711810331288
  0.4638767802888354  0.4180333134294438  0.4042931572731253
 
  0.00000000E+00  0.00000000E+00  0.00000000E+00
  0.00000000E+00  0.00000000E+00  0.00000000E+00
  0.00000000E+00  0.00000000E+00  0.00000000E+00
  0.00000000E+00  0.00000000E+00  0.00000000E+00
  0.00000000E+00  0.00000000E+00  0.00000000E+00
  0.00000000E+00  0.00000000E+00  0.00000000E+00
  0.00000000E+00  0.00000000E+00  0.00000000E+00
  0.00000000E+00  0.00000000E+00  0.00000000E+00
  0.00000000E+00  0.00000000E+00  0.00000000E+00
  0.00000000E+00  0.00000000E+00  0.00000000E+00
  0.00000000E+00  0.00000000E+00  0.00000000E+00
  0.00000000E+00  0.00000000E+00  0.00000000E+00
  0.00000000E+00  0.00000000E+00  0.00000000E+00
  0.00000000E+00  0.00000000E+00  0.00000000E+00
  0.00000000E+00  0.00000000E+00  0.00000000E+00
  0.00000000E+00  0.00000000E+00  0.00000000E+00
  0.00000000E+00  0.00000000E+00  0.00000000E+00
  0.00000000E+00  0.00000000E+00  0.00000000E+00
  0.00000000E+00  0.00000000E+00  0.00000000E+00
  0.00000000E+00  0.00000000E+00  0.00000000E+00
  0.00000000E+00  0.00000000E+00  0.00000000E+00
  0.00000000E+00  0.00000000E+00  0.00000000E+00
  0.00000000E+00  0.00000000E+00  0.00000000E+00
  0.00000000E+00  0.00000000E+00  0.00000000E+00
  0.00000000E+00  0.00000000E+00  0.00000000E+00
  0.00000000E+00  0.00000000E+00  0.00000000E+00
  0.00000000E+00  0.00000000E+00  0.00000000E+00
  0.00000000E+00  0.00000000E+00  0.00000000E+00
  0.00000000E+00  0.00000000E+00  0.00000000E+00
  0.00000000E+00  0.00000000E+00  0.00000000E+00
  0.00000000E+00  0.00000000E+00  0.00000000E+00
  0.00000000E+00  0.00000000E+00  0.00000000E+00
  0.00000000E+00  0.00000000E+00  0.00000000E+00
  0.00000000E+00  0.00000000E+00  0.00000000E+00
  0.00000000E+00  0.00000000E+00  0.00000000E+00
  0.00000000E+00  0.00000000E+00  0.00000000E+00
  0.00000000E+00  0.00000000E+00  0.00000000E+00
  0.00000000E+00  0.00000000E+00  0.00000000E+00
  0.00000000E+00  0.00000000E+00  0.00000000E+00
  0.00000000E+00  0.00000000E+00  0.00000000E+00
  0.00000000E+00  0.00000000E+00  0.00000000E+00
  0.00000000E+00  0.00000000E+00  0.00000000E+00
  0.00000000E+00  0.00000000E+00  0.00000000E+00
  0.00000000E+00  0.00000000E+00  0.00000000E+00
  0.00000000E+00  0.00000000E+00  0.00000000E+00
  0.00000000E+00  0.00000000E+00  0.00000000E+00
  0.00000000E+00  0.00000000E+00  0.00000000E+00
  0.00000000E+00  0.00000000E+00  0.00000000E+00
  0.00000000E+00  0.00000000E+00  0.00000000E+00
  0.00000000E+00  0.00000000E+00  0.00000000E+00
  0.00000000E+00  0.00000000E+00  0.00000000E+00
  0.00000000E+00  0.00000000E+00  0.00000000E+00
  0.00000000E+00  0.00000000E+00  0.00000000E+00
  0.00000000E+00  0.00000000E+00  0.00000000E+00
  0.00000000E+00  0.00000000E+00  0.00000000E+00
  0.00000000E+00  0.00000000E+00  0.00000000E+00
  0.00000000E+00  0.00000000E+00  0.00000000E+00
  0.00000000E+00  0.00000000E+00  0.00000000E+00
  0.00000000E+00  0.00000000E+00  0.00000000E+00
  0.00000000E+00  0.00000000E+00  0.00000000E+00
  0.00000000E+00  0.00000000E+00  0.00000000E+00
  0.00000000E+00  0.00000000E+00  0.00000000E+00
  0.00000000E+00  0.00000000E+00  0.00000000E+00
  0.00000000E+00  0.00000000E+00  0.00000000E+00
  0.00000000E+00  0.00000000E+00  0.00000000E+00
  0.00000000E+00  0.00000000E+00  0.00000000E+00
  0.00000000E+00  0.00000000E+00  0.00000000E+00
  0.00000000E+00  0.00000000E+00  0.00000000E+00
  0.00000000E+00  0.00000000E+00  0.00000000E+00
  0.00000000E+00  0.00000000E+00  0.00000000E+00
  0.00000000E+00  0.00000000E+00  0.00000000E+00
  0.00000000E+00  0.00000000E+00  0.00000000E+00
  0.00000000E+00  0.00000000E+00  0.00000000E+00
  0.00000000E+00  0.00000000E+00  0.00000000E+00
  0.00000000E+00  0.00000000E+00  0.00000000E+00
  0.00000000E+00  0.00000000E+00  0.00000000E+00
  0.00000000E+00  0.00000000E+00  0.00000000E+00
  0.00000000E+00  0.00000000E+00  0.00000000E+00
  0.00000000E+00  0.00000000E+00  0.00000000E+00
  0.00000000E+00  0.00000000E+00  0.00000000E+00
  0.00000000E+00  0.00000000E+00  0.00000000E+00
  0.00000000E+00  0.00000000E+00  0.00000000E+00
  0.00000000E+00  0.00000000E+00  0.00000000E+00
  0.00000000E+00  0.00000000E+00  0.00000000E+00
  0.00000000E+00  0.00000000E+00  0.00000000E+00
  0.00000000E+00  0.00000000E+00  0.00000000E+00
  0.00000000E+00  0.00000000E+00  0.00000000E+00
  0.00000000E+00  0.00000000E+00  0.00000000E+00
  0.00000000E+00  0.00000000E+00  0.00000000E+00
  0.00000000E+00  0.00000000E+00  0.00000000E+00
  0.00000000E+00  0.00000000E+00  0.00000000E+00
  0.00000000E+00  0.00000000E+00  0.00000000E+00
  0.00000000E+00  0.00000000E+00  0.00000000E+00
  0.00000000E+00  0.00000000E+00  0.00000000E+00
  0.00000000E+00  0.00000000E+00  0.00000000E+00
  0.00000000E+00  0.00000000E+00  0.00000000E+00
  0.00000000E+00  0.00000000E+00  0.00000000E+00
  0.00000000E+00  0.00000000E+00  0.00000000E+00
  0.00000000E+00  0.00000000E+00  0.00000000E+00
  0.00000000E+00  0.00000000E+00  0.00000000E+00
  0.00000000E+00  0.00000000E+00  0.00000000E+00
  0.00000000E+00  0.00000000E+00  0.00000000E+00
  0.00000000E+00  0.00000000E+00  0.00000000E+00
  0.00000000E+00  0.00000000E+00  0.00000000E+00
  0.00000000E+00  0.00000000E+00  0.00000000E+00
  0.00000000E+00  0.00000000E+00  0.00000000E+00
  0.00000000E+00  0.00000000E+00  0.00000000E+00
  0.00000000E+00  0.00000000E+00  0.00000000E+00
  0.00000000E+00  0.00000000E+00  0.00000000E+00
  0.00000000E+00  0.00000000E+00  0.00000000E+00
  0.00000000E+00  0.00000000E+00  0.00000000E+00
  0.00000000E+00  0.00000000E+00  0.00000000E+00
  0.00000000E+00  0.00000000E+00  0.00000000E+00
  0.00000000E+00  0.00000000E+00  0.00000000E+00
  0.00000000E+00  0.00000000E+00  0.00000000E+00
  0.00000000E+00  0.00000000E+00  0.00000000E+00
  0.00000000E+00  0.00000000E+00  0.00000000E+00
  0.00000000E+00  0.00000000E+00  0.00000000E+00
  0.00000000E+00  0.00000000E+00  0.00000000E+00
  0.00000000E+00  0.00000000E+00  0.00000000E+00
  0.00000000E+00  0.00000000E+00  0.00000000E+00
  0.00000000E+00  0.00000000E+00  0.00000000E+00
  0.00000000E+00  0.00000000E+00  0.00000000E+00
  0.00000000E+00  0.00000000E+00  0.00000000E+00
  0.00000000E+00  0.00000000E+00  0.00000000E+00
  0.00000000E+00  0.00000000E+00  0.00000000E+00
  0.00000000E+00  0.00000000E+00  0.00000000E+00
