Pt1 C122 N4 O1                          
   1.00000000000000     
    19.8445134418006504    0.0000069809550208    0.0072529166471401
    -9.9222504481868548   17.0193119171338658   -0.0035915572601744
     0.0108708325969956    0.0000585538895778   29.7933676557138476
   Pt   C    N    O 
     1   122     4     1
Direct
  0.4374771745314218  0.5000003654985620  0.4092323760645499
  0.0421229758757644  0.0843370625164803  0.3999885228224195
  0.0407316778940359  0.2080791608564375  0.4000580123359493
  0.0397134006662700  0.3327359082483209  0.3998025360929158
  0.0398372301557875  0.4581677643970664  0.3992720998684242
  0.0410978320657829  0.5839048419904126  0.3990756925463514
  0.0422685704441568  0.7095333767632352  0.3993595008314099
  0.0426738488383251  0.8348433917223594  0.3995565671097850
  0.0427693115849670  0.9600093846335587  0.3997151845155940
  0.1684790408514514  0.0864013275455208  0.4006024073094721
  0.1675879487060811  0.2107236434491883  0.4016043419896008
  0.1643453194120261  0.3336002368404427  0.4019671843479634
  0.1628739216088484  0.4584328656044711  0.4013687393352798
  0.1643591830389471  0.5838244235976108  0.3999441033917338
  0.1662173589494230  0.7092824714691380  0.3993998582307892
  0.1671663036677290  0.8348335741060902  0.3995546080486462
  0.1677847059502340  0.9605297867606729  0.3998542958705082
  0.2929569141826008  0.0863818817776233  0.4005823133397259
  0.2945977520457106  0.2141568823505439  0.4026050361285538
  0.2921974917942520  0.3391129352396961  0.4043072211473553
  0.2850838022287869  0.4581971904609460  0.4048636760770689
  0.2869627095560280  0.5832831669220310  0.4028674008891512
  0.2901691564467497  0.7085658846125774  0.4004606484916222
  0.2915566873157051  0.8341528152972733  0.3995898788701303
  0.2922810760186913  0.9599944050690401  0.3997123844458408
  0.4172512362001509  0.0843208288498415  0.3999973769992473
  0.4181490869711422  0.2107167827036894  0.4016504185768567
  0.4219100888508407  0.3391134768923109  0.4043438697512130
  0.4140635351675527  0.7056725758878614  0.4026576772531571
  0.4158545464273545  0.8320502740739663  0.4004865802882004
  0.4166330382830029  0.9582012083080199  0.3996752828398799
  0.5415541631176352  0.0823036399490137  0.3996140624282669
  0.5423465769844138  0.2080759052505256  0.4000786784116994
  0.5442385820806456  0.3335903881419375  0.4020059635273595
  0.5480834046626873  0.4581891145516045  0.4049241191661024
  0.5377718872123874  0.7005491396953758  0.4041719343038775
  0.5401000243514121  0.8294525833463413  0.4016550481502711
  0.5409549244650510  0.9561958058942873  0.4000440301968661
  0.6659424213382892  0.0814557096136705  0.3996983401864881
  0.6666544463538046  0.2071093032246918  0.3994881669923750
  0.6679837857410209  0.3327251841539902  0.3997992864081589
  0.6705146776013436  0.4584236390962337  0.4013744951939664
  0.6712937714342443  0.5832950498652870  0.4028950696318824
  0.6665982004538116  0.7056751333775014  0.4027136752895374
  0.6643999094666845  0.8294729513106258  0.4016761607455884
  0.6653451635893743  0.9556453812169733  0.4003159836527507
  0.7905529992295818  0.0814579477895226  0.3996956268063396
  0.7909370228904722  0.2068768602676065  0.3995389971571736
  0.7918085626096152  0.3324573889376908  0.3992608213767549
  0.7932628756353972  0.4581595358838209  0.3992806162127117
  0.7944110609625553  0.5838253821512061  0.3999477462739591
  0.7933814984786923  0.7085798683317797  0.4004683576889297
  0.7912137975336253  0.8320537188247111  0.4005266001323788
  0.7902931976897449  0.9562194239010305  0.4000377906481762
  0.9158017349463535  0.0823086912468844  0.3996195838451911
  0.9154497978148557  0.2070971043326595  0.3994803720678483
  0.9156397450751945  0.3324562035340317  0.3992548128067587
  0.9165623353466298  0.4581731199514061  0.3990042491701696
  0.9177505403581787  0.5839038246719638  0.3990948968683710
  0.9180526027372532  0.7092733101469788  0.3993999532445518
  0.9176154794098513  0.8341549276185433  0.3995958669339693
  0.9166306366603606  0.9582111673787740  0.3996765886646687
  0.0847587981646096  0.0438038142765973  0.4000427933288865
  0.0838056463313367  0.1679519875151772  0.4004856154189280
  0.0816041108652220  0.2914340106708048  0.4004597155952608
  0.0805341829453488  0.4161749864620548  0.3999433170820403
  0.0816674000621594  0.5418325622721666  0.3992722214109407
  0.0831814010997753  0.6675435806504330  0.3992555773346819
  0.0840588760012020  0.7931213411872021  0.3995387841373804
  0.0844862919052682  0.9185438624722887  0.3996974955842308
  0.2097002124177463  0.0443553734144619  0.4003140747385765
  0.2106489839449096  0.1705493299553293  0.4016541169114073
  0.2083932172438600  0.2943287067429775  0.4026576221911162
  0.2036804535672054  0.4167159387775821  0.4028665752030705
  0.2044412897923649  0.5415671343632327  0.4013689842679789
  0.2069770846735454  0.6672648971917229  0.3998028572771610
  0.2083529414045512  0.7929033252155357  0.3994803650589257
  0.2090943384526151  0.9185416880347141  0.3996946760199041
  0.3340721432656936  0.0437801733136394  0.4000361199967536
  0.3349264186393153  0.1705269895885938  0.4016750225364472
  0.3372231067254601  0.2994517262702029  0.4041718988135724
  0.3268884962047474  0.5418033917715140  0.4048637947562274
  0.3307455069841915  0.6664002616708670  0.4019681754049508
  0.3326523187504107  0.7919204462113636  0.4000585986121029
  0.3334922219620557  0.9176914782183350  0.3996188318475003
  0.4584186161244084  0.0417909300743283  0.3996759193976421
  0.4591586461491182  0.1679455125196781  0.4005264132745286
  0.4609224844236658  0.2943243445670665  0.4027126152327055
  0.4530852862652838  0.6608885870785409  0.4043071976593015
  0.4568643281914277  0.7892770468706163  0.4016045184973794
  0.4577855887569476  0.9156631532646674  0.3999891132837821
  0.5827603659152946  0.0399914755393928  0.3997152654868968
  0.5834622655146121  0.1658455304916241  0.3995956333819228
  0.5848014272548190  0.2914196422667218  0.4004676432642927
  0.5879967678133585  0.4167050857225175  0.4028950976068992
  0.5898916363160528  0.5418083963403623  0.4049241910579959
  0.5827949755314268  0.6608845558415206  0.4043439934741660
  0.5804406345419271  0.7858430119817540  0.4026060085794327
  0.5820783665213304  0.9135988683803993  0.4006036129791291
  0.7072553802775362  0.0394700549077955  0.3998554977206503
  0.7078302859107544  0.1651569825943847  0.3995565204896186
  0.7087809962737429  0.2907280883362007  0.3993998382287827
  0.7105868532318836  0.4161740494806502  0.3999478217055272
  0.7120918603644383  0.5415762168554924  0.4013737875688787
  0.7106467482448333  0.6664080937110538  0.4020077106457893
  0.7074308946689462  0.7892823621645961  0.4016513577294202
  0.7065739419355853  0.9136170067055102  0.4005842901959613
  0.8322854778427177  0.0400035511166061  0.3997128305357854
  0.8323316937781208  0.1651659606752967  0.3995554748183129
  0.8327348199750786  0.2904671154015163  0.3993601378347251
  0.8338478828014807  0.4160967826663809  0.3990949992298034
  0.8351056461058242  0.5418405559165903  0.3992808469832587
  0.8352584172204200  0.6672741353181891  0.3997993665260794
  0.8342704129981861  0.7919234004591447  0.4000791460736000
  0.8329286368241240  0.9156780301756547  0.3999976857476930
  0.9584315267387875  0.0417988463766063  0.3996754133555757
  0.9574032232881521  0.1658470211747833  0.3995898873900479
  0.9569342574182672  0.2907174779087601  0.3993989433690497
  0.9571914556891667  0.4160954234811760  0.3990756955548970
  0.9583871874084657  0.5418270632783457  0.3990035697322427
  0.9593492076727528  0.6675412338119072  0.3992606787455981
  0.9595451101636397  0.7928894094215838  0.3994889500304594
  0.9592492916178893  0.9176951792919817  0.3996149108298680
  0.4069720184267896  0.5804409965587300  0.4048170971079474
  0.5484454282441714  0.5804390349408030  0.4048653261247899
  0.3265320034982871  0.4195596963485732  0.4048170863322538
  0.4680044324785346  0.4195599637781683  0.4048654246906932
  0.4373453262171758  0.4999988218558719  0.4748975580059990
 
  0.00000000E+00  0.00000000E+00  0.00000000E+00
  0.00000000E+00  0.00000000E+00  0.00000000E+00
  0.00000000E+00  0.00000000E+00  0.00000000E+00
  0.00000000E+00  0.00000000E+00  0.00000000E+00
  0.00000000E+00  0.00000000E+00  0.00000000E+00
  0.00000000E+00  0.00000000E+00  0.00000000E+00
  0.00000000E+00  0.00000000E+00  0.00000000E+00
  0.00000000E+00  0.00000000E+00  0.00000000E+00
  0.00000000E+00  0.00000000E+00  0.00000000E+00
  0.00000000E+00  0.00000000E+00  0.00000000E+00
  0.00000000E+00  0.00000000E+00  0.00000000E+00
  0.00000000E+00  0.00000000E+00  0.00000000E+00
  0.00000000E+00  0.00000000E+00  0.00000000E+00
  0.00000000E+00  0.00000000E+00  0.00000000E+00
  0.00000000E+00  0.00000000E+00  0.00000000E+00
  0.00000000E+00  0.00000000E+00  0.00000000E+00
  0.00000000E+00  0.00000000E+00  0.00000000E+00
  0.00000000E+00  0.00000000E+00  0.00000000E+00
  0.00000000E+00  0.00000000E+00  0.00000000E+00
  0.00000000E+00  0.00000000E+00  0.00000000E+00
  0.00000000E+00  0.00000000E+00  0.00000000E+00
  0.00000000E+00  0.00000000E+00  0.00000000E+00
  0.00000000E+00  0.00000000E+00  0.00000000E+00
  0.00000000E+00  0.00000000E+00  0.00000000E+00
  0.00000000E+00  0.00000000E+00  0.00000000E+00
  0.00000000E+00  0.00000000E+00  0.00000000E+00
  0.00000000E+00  0.00000000E+00  0.00000000E+00
  0.00000000E+00  0.00000000E+00  0.00000000E+00
  0.00000000E+00  0.00000000E+00  0.00000000E+00
  0.00000000E+00  0.00000000E+00  0.00000000E+00
  0.00000000E+00  0.00000000E+00  0.00000000E+00
  0.00000000E+00  0.00000000E+00  0.00000000E+00
  0.00000000E+00  0.00000000E+00  0.00000000E+00
  0.00000000E+00  0.00000000E+00  0.00000000E+00
  0.00000000E+00  0.00000000E+00  0.00000000E+00
  0.00000000E+00  0.00000000E+00  0.00000000E+00
  0.00000000E+00  0.00000000E+00  0.00000000E+00
  0.00000000E+00  0.00000000E+00  0.00000000E+00
  0.00000000E+00  0.00000000E+00  0.00000000E+00
  0.00000000E+00  0.00000000E+00  0.00000000E+00
  0.00000000E+00  0.00000000E+00  0.00000000E+00
  0.00000000E+00  0.00000000E+00  0.00000000E+00
  0.00000000E+00  0.00000000E+00  0.00000000E+00
  0.00000000E+00  0.00000000E+00  0.00000000E+00
  0.00000000E+00  0.00000000E+00  0.00000000E+00
  0.00000000E+00  0.00000000E+00  0.00000000E+00
  0.00000000E+00  0.00000000E+00  0.00000000E+00
  0.00000000E+00  0.00000000E+00  0.00000000E+00
  0.00000000E+00  0.00000000E+00  0.00000000E+00
  0.00000000E+00  0.00000000E+00  0.00000000E+00
  0.00000000E+00  0.00000000E+00  0.00000000E+00
  0.00000000E+00  0.00000000E+00  0.00000000E+00
  0.00000000E+00  0.00000000E+00  0.00000000E+00
  0.00000000E+00  0.00000000E+00  0.00000000E+00
  0.00000000E+00  0.00000000E+00  0.00000000E+00
  0.00000000E+00  0.00000000E+00  0.00000000E+00
  0.00000000E+00  0.00000000E+00  0.00000000E+00
  0.00000000E+00  0.00000000E+00  0.00000000E+00
  0.00000000E+00  0.00000000E+00  0.00000000E+00
  0.00000000E+00  0.00000000E+00  0.00000000E+00
  0.00000000E+00  0.00000000E+00  0.00000000E+00
  0.00000000E+00  0.00000000E+00  0.00000000E+00
  0.00000000E+00  0.00000000E+00  0.00000000E+00
  0.00000000E+00  0.00000000E+00  0.00000000E+00
  0.00000000E+00  0.00000000E+00  0.00000000E+00
  0.00000000E+00  0.00000000E+00  0.00000000E+00
  0.00000000E+00  0.00000000E+00  0.00000000E+00
  0.00000000E+00  0.00000000E+00  0.00000000E+00
  0.00000000E+00  0.00000000E+00  0.00000000E+00
  0.00000000E+00  0.00000000E+00  0.00000000E+00
  0.00000000E+00  0.00000000E+00  0.00000000E+00
  0.00000000E+00  0.00000000E+00  0.00000000E+00
  0.00000000E+00  0.00000000E+00  0.00000000E+00
  0.00000000E+00  0.00000000E+00  0.00000000E+00
  0.00000000E+00  0.00000000E+00  0.00000000E+00
  0.00000000E+00  0.00000000E+00  0.00000000E+00
  0.00000000E+00  0.00000000E+00  0.00000000E+00
  0.00000000E+00  0.00000000E+00  0.00000000E+00
  0.00000000E+00  0.00000000E+00  0.00000000E+00
  0.00000000E+00  0.00000000E+00  0.00000000E+00
  0.00000000E+00  0.00000000E+00  0.00000000E+00
  0.00000000E+00  0.00000000E+00  0.00000000E+00
  0.00000000E+00  0.00000000E+00  0.00000000E+00
  0.00000000E+00  0.00000000E+00  0.00000000E+00
  0.00000000E+00  0.00000000E+00  0.00000000E+00
  0.00000000E+00  0.00000000E+00  0.00000000E+00
  0.00000000E+00  0.00000000E+00  0.00000000E+00
  0.00000000E+00  0.00000000E+00  0.00000000E+00
  0.00000000E+00  0.00000000E+00  0.00000000E+00
  0.00000000E+00  0.00000000E+00  0.00000000E+00
  0.00000000E+00  0.00000000E+00  0.00000000E+00
  0.00000000E+00  0.00000000E+00  0.00000000E+00
  0.00000000E+00  0.00000000E+00  0.00000000E+00
  0.00000000E+00  0.00000000E+00  0.00000000E+00
  0.00000000E+00  0.00000000E+00  0.00000000E+00
  0.00000000E+00  0.00000000E+00  0.00000000E+00
  0.00000000E+00  0.00000000E+00  0.00000000E+00
  0.00000000E+00  0.00000000E+00  0.00000000E+00
  0.00000000E+00  0.00000000E+00  0.00000000E+00
  0.00000000E+00  0.00000000E+00  0.00000000E+00
  0.00000000E+00  0.00000000E+00  0.00000000E+00
  0.00000000E+00  0.00000000E+00  0.00000000E+00
  0.00000000E+00  0.00000000E+00  0.00000000E+00
  0.00000000E+00  0.00000000E+00  0.00000000E+00
  0.00000000E+00  0.00000000E+00  0.00000000E+00
  0.00000000E+00  0.00000000E+00  0.00000000E+00
  0.00000000E+00  0.00000000E+00  0.00000000E+00
  0.00000000E+00  0.00000000E+00  0.00000000E+00
  0.00000000E+00  0.00000000E+00  0.00000000E+00
  0.00000000E+00  0.00000000E+00  0.00000000E+00
  0.00000000E+00  0.00000000E+00  0.00000000E+00
  0.00000000E+00  0.00000000E+00  0.00000000E+00
  0.00000000E+00  0.00000000E+00  0.00000000E+00
  0.00000000E+00  0.00000000E+00  0.00000000E+00
  0.00000000E+00  0.00000000E+00  0.00000000E+00
  0.00000000E+00  0.00000000E+00  0.00000000E+00
  0.00000000E+00  0.00000000E+00  0.00000000E+00
  0.00000000E+00  0.00000000E+00  0.00000000E+00
  0.00000000E+00  0.00000000E+00  0.00000000E+00
  0.00000000E+00  0.00000000E+00  0.00000000E+00
  0.00000000E+00  0.00000000E+00  0.00000000E+00
  0.00000000E+00  0.00000000E+00  0.00000000E+00
  0.00000000E+00  0.00000000E+00  0.00000000E+00
  0.00000000E+00  0.00000000E+00  0.00000000E+00
  0.00000000E+00  0.00000000E+00  0.00000000E+00
  0.00000000E+00  0.00000000E+00  0.00000000E+00
  0.00000000E+00  0.00000000E+00  0.00000000E+00
  0.00000000E+00  0.00000000E+00  0.00000000E+00
