H1 Pd1 C122 N4 O2                       
   1.00000000000000     
    19.8369370104032683    0.0000500672914785    0.0725648474306213
    -9.9184193256817927   17.0202359332316888   -0.0376448087080178
     0.1088981408229223   -0.0023825916052143   29.8034858046594451
   H    Pd   C    N    O 
     1     1   122     4     2
Direct
  0.5285054670808434  0.5482260280247220  0.5153168108265292
  0.4372775744667096  0.4999379880587852  0.4064696901347669
  0.0420665023951289  0.0842936880915398  0.4000299119859849
  0.0407500501255841  0.2081147919573739  0.4001694436514870
  0.0397596507029371  0.3327793654642003  0.3999322988941932
  0.0399005314470504  0.4581811927272488  0.3994379201878543
  0.0410982825817573  0.5839026908220124  0.3991682261479982
  0.0422108853514864  0.7095025843058567  0.3993671773814108
  0.0426073404615143  0.8347971920979833  0.3995809978875786
  0.0426978009062271  0.9599585277636358  0.3997061100637183
  0.1684159683603534  0.0863272843187128  0.4006064185618154
  0.1674426898009641  0.2105925715227483  0.4014014151765191
  0.1644315525940759  0.3335836318632016  0.4016259925496437
  0.1630552536034242  0.4584724057218524  0.4010386857245741
  0.1644401603733061  0.5838083006884978  0.4000399045979572
  0.1661901477599005  0.7092394800885514  0.3994713507967063
  0.1671068144985352  0.8347913026231100  0.3995713051355951
  0.1677181911051944  0.9604745128099516  0.3998911927367500
  0.2928595155984722  0.0863155847719893  0.4005920521171909
  0.2944876529379934  0.2140775770897862  0.4021334156198402
  0.2922689391191163  0.3392523369899331  0.4033121901758434
  0.2856320110786643  0.4580497345170746  0.4032777619590540
  0.2872288142813176  0.5832190342837174  0.4020791131111862
  0.2901842457707031  0.7086020589989753  0.4005278620480485
  0.2915132706371688  0.8341468281893470  0.3996280590922538
  0.2922499185971295  0.9599551325245737  0.3996939264012009
  0.4171921681791259  0.0842812696228844  0.4000274567609836
  0.4180416213723639  0.2105921358455487  0.4014377677655430
  0.4218117947029469  0.3392389993354580  0.4034727691592748
  0.4140368475392658  0.7058655900699038  0.4022182810046897
  0.4158429924740737  0.8321293411000000  0.4004922993285628
  0.4166117454506345  0.9582481776904771  0.3996784816244291
  0.5415464999797198  0.0823556024880044  0.3995976807834167
  0.5422839241505509  0.2081197308228579  0.4001657457449170
  0.5440157235732004  0.3335692833502318  0.4017438584230527
  0.5471684506264779  0.4580063376946503  0.4038071953963979
  0.5378444515477326  0.7008641975728979  0.4033215566396001
  0.5401455324240156  0.8296513393129963  0.4014244400927984
  0.5409405050371191  0.9562906309829984  0.4000659175085514
  0.6659653415668347  0.0815667594604915  0.3997204384855395
  0.6666004347262765  0.2071627856703887  0.3994866613181484
  0.6678967799840448  0.3327824133969535  0.3998881256611128
  0.6702442187270682  0.4584540833053709  0.4011535224399418
  0.6708327074864400  0.5832236886023401  0.4023546377757203
  0.6666862918797245  0.7058926435318124  0.4023139609774189
  0.6644116815975355  0.8296752344219332  0.4014453884177583
  0.6653787210728536  0.9557935028258183  0.4003377941824549
  0.7905789967604080  0.0815642609293903  0.3997044900673470
  0.7909533097034880  0.2069820685256215  0.3995779010830069
  0.7917809190395717  0.3325302325449759  0.3992674865655101
  0.7931428927260480  0.4581852761877961  0.3993672244317422
  0.7942146820180840  0.5837983454509675  0.3999966711641801
  0.7932940577033919  0.7085952938207073  0.4005104720525604
  0.7912233386326145  0.8321478590543488  0.4004972185625029
  0.7903223589583405  0.9563091560921910  0.4000549418676531
  0.9158032894023942  0.0823592384217473  0.3995873520195669
  0.9154902758718252  0.2071592258170800  0.3994901089914065
  0.9156663420567706  0.3325362090517661  0.3992960798646621
  0.9165501483025831  0.4582231374913606  0.3990483162313719
  0.9176674163211739  0.5838986532023911  0.3991260688474714
  0.9179409733440408  0.7092275917035826  0.3994249069877431
  0.9175698066708807  0.8341440580517308  0.3996268231223395
  0.9166162542398905  0.9582551860772055  0.3996842241999169
  0.0846731567345182  0.0437426608936049  0.4000833174536018
  0.0837345697276232  0.1678964581680955  0.4005089527507528
  0.0816017053851278  0.2914159184873096  0.4005270375526467
  0.0806463273851151  0.4162106299586774  0.4000451029871898
  0.0817277455302552  0.5418350986066327  0.3994353822506918
  0.0831377879582850  0.6674864894451709  0.3992939893665677
  0.0839826742342189  0.7930445070127726  0.3995819731258951
  0.0844097818748057  0.9184631581455885  0.3997188013248189
  0.2096052982988703  0.0442431921085343  0.4003527148722904
  0.2105255727234430  0.1703932066327852  0.4014291094840658
  0.2082005779167397  0.2941571396318113  0.4021768350884161
  0.2040198279906091  0.4167881159333940  0.4020499781959284
  0.2045881183303452  0.5415435532233001  0.4010413493025848
  0.2069827044814292  0.6672427680053427  0.3999271155772749
  0.2083392443818919  0.7928689123144024  0.3994906017008850
  0.2090289325935023  0.9184688723911527  0.3997041881067382
  0.3340333917375169  0.0437322167859729  0.4000735968060702
  0.3347703757250811  0.1703738881798895  0.4014554067469935
  0.3370129994231872  0.2991757063385365  0.4032199228470442
  0.3275596145085500  0.5419358035053184  0.4033245768867966
  0.3308414518361726  0.6664304794675846  0.4016555053508091
  0.3326423570389341  0.7919100275093698  0.4001585182675781
  0.3334548191839743  0.9176728516027020  0.3995846049807737
  0.4583756979832050  0.0417803967842781  0.3996882081462329
  0.4590894220883075  0.1678915682177405  0.4005248940878894
  0.4608086415843046  0.2941488677224361  0.4022922940009947
  0.4529912531700970  0.6607497126938802  0.4033981945354744
  0.4568512441992709  0.7894336892277222  0.4014028650302708
  0.4577816814183714  0.9157423174359794  0.4000098847281603
  0.5827506790918527  0.0400705618665114  0.3997031435688524
  0.5834349959735464  0.1658775696965231  0.3996377406445261
  0.5846956089509162  0.2914117632063525  0.4005161396844858
  0.5875773822643423  0.4167494555519610  0.4023398216392999
  0.5891587303452146  0.5419124375270717  0.4038765031373358
  0.5825915195208466  0.6608166070285543  0.4035750472886887
  0.5804353451282311  0.7859940556196300  0.4021627970523822
  0.5821019372876283  0.9137138190340607  0.4005830671419933
  0.7072636151242265  0.0395632730394933  0.3998898224551219
  0.7078195816969747  0.1652245701983299  0.3995796488906055
  0.7087181146205451  0.2907831536304311  0.3994328506339259
  0.7104132345801453  0.4162024023142009  0.4000083021316611
  0.7117929409799946  0.5415317644402948  0.4011449093994771
  0.7104616470345311  0.6664386358807686  0.4017624246145078
  0.7074756237710472  0.7894597953760023  0.4014203466787351
  0.7065677662066695  0.9137336687009419  0.4005681535502985
  0.8323194979887391  0.0400772845493364  0.3996889722116357
  0.8323334597069759  0.1652331294031331  0.3995702621133622
  0.8327222093715746  0.2905184914578418  0.3993658262929308
  0.8337776483470269  0.4161145946216336  0.3991320307310346
  0.8349700279596105  0.5418229753960305  0.3993613039513691
  0.8351267649783014  0.6672284655425228  0.3998762662891971
  0.8341807364198663  0.7919106472414100  0.4001445475529083
  0.8329357565925694  0.9157617552171973  0.4000086416865492
  0.9583886408311016  0.0417859492784331  0.3996869701273728
  0.9573879926392694  0.1658764591315774  0.3996328242150086
  0.9569673057538767  0.2907777049045572  0.3994748812840945
  0.9572062215225225  0.4161155969701204  0.3991721424979817
  0.9583374008029840  0.5417929549001677  0.3990459110346598
  0.9592606113864163  0.6674863722156820  0.3992627688264884
  0.9594507231037059  0.7928623153064003  0.3994836193277463
  0.9592050668176441  0.9176749280202831  0.3995942170176011
  0.4075469718836123  0.5808208353525078  0.4040375351387523
  0.5480257146209954  0.5808204617964927  0.4045729077977051
  0.3267145395911074  0.4191699395031600  0.4038911393870461
  0.4672140558288132  0.4191600290947252  0.4042698713802116
  0.4894458163083819  0.4927035868379758  0.5101255173337108
  0.4282174120393790  0.4961834178754151  0.4899737052203049
 
  0.00000000E+00  0.00000000E+00  0.00000000E+00
  0.00000000E+00  0.00000000E+00  0.00000000E+00
  0.00000000E+00  0.00000000E+00  0.00000000E+00
  0.00000000E+00  0.00000000E+00  0.00000000E+00
  0.00000000E+00  0.00000000E+00  0.00000000E+00
  0.00000000E+00  0.00000000E+00  0.00000000E+00
  0.00000000E+00  0.00000000E+00  0.00000000E+00
  0.00000000E+00  0.00000000E+00  0.00000000E+00
  0.00000000E+00  0.00000000E+00  0.00000000E+00
  0.00000000E+00  0.00000000E+00  0.00000000E+00
  0.00000000E+00  0.00000000E+00  0.00000000E+00
  0.00000000E+00  0.00000000E+00  0.00000000E+00
  0.00000000E+00  0.00000000E+00  0.00000000E+00
  0.00000000E+00  0.00000000E+00  0.00000000E+00
  0.00000000E+00  0.00000000E+00  0.00000000E+00
  0.00000000E+00  0.00000000E+00  0.00000000E+00
  0.00000000E+00  0.00000000E+00  0.00000000E+00
  0.00000000E+00  0.00000000E+00  0.00000000E+00
  0.00000000E+00  0.00000000E+00  0.00000000E+00
  0.00000000E+00  0.00000000E+00  0.00000000E+00
  0.00000000E+00  0.00000000E+00  0.00000000E+00
  0.00000000E+00  0.00000000E+00  0.00000000E+00
  0.00000000E+00  0.00000000E+00  0.00000000E+00
  0.00000000E+00  0.00000000E+00  0.00000000E+00
  0.00000000E+00  0.00000000E+00  0.00000000E+00
  0.00000000E+00  0.00000000E+00  0.00000000E+00
  0.00000000E+00  0.00000000E+00  0.00000000E+00
  0.00000000E+00  0.00000000E+00  0.00000000E+00
  0.00000000E+00  0.00000000E+00  0.00000000E+00
  0.00000000E+00  0.00000000E+00  0.00000000E+00
  0.00000000E+00  0.00000000E+00  0.00000000E+00
  0.00000000E+00  0.00000000E+00  0.00000000E+00
  0.00000000E+00  0.00000000E+00  0.00000000E+00
  0.00000000E+00  0.00000000E+00  0.00000000E+00
  0.00000000E+00  0.00000000E+00  0.00000000E+00
  0.00000000E+00  0.00000000E+00  0.00000000E+00
  0.00000000E+00  0.00000000E+00  0.00000000E+00
  0.00000000E+00  0.00000000E+00  0.00000000E+00
  0.00000000E+00  0.00000000E+00  0.00000000E+00
  0.00000000E+00  0.00000000E+00  0.00000000E+00
  0.00000000E+00  0.00000000E+00  0.00000000E+00
  0.00000000E+00  0.00000000E+00  0.00000000E+00
  0.00000000E+00  0.00000000E+00  0.00000000E+00
  0.00000000E+00  0.00000000E+00  0.00000000E+00
  0.00000000E+00  0.00000000E+00  0.00000000E+00
  0.00000000E+00  0.00000000E+00  0.00000000E+00
  0.00000000E+00  0.00000000E+00  0.00000000E+00
  0.00000000E+00  0.00000000E+00  0.00000000E+00
  0.00000000E+00  0.00000000E+00  0.00000000E+00
  0.00000000E+00  0.00000000E+00  0.00000000E+00
  0.00000000E+00  0.00000000E+00  0.00000000E+00
  0.00000000E+00  0.00000000E+00  0.00000000E+00
  0.00000000E+00  0.00000000E+00  0.00000000E+00
  0.00000000E+00  0.00000000E+00  0.00000000E+00
  0.00000000E+00  0.00000000E+00  0.00000000E+00
  0.00000000E+00  0.00000000E+00  0.00000000E+00
  0.00000000E+00  0.00000000E+00  0.00000000E+00
  0.00000000E+00  0.00000000E+00  0.00000000E+00
  0.00000000E+00  0.00000000E+00  0.00000000E+00
  0.00000000E+00  0.00000000E+00  0.00000000E+00
  0.00000000E+00  0.00000000E+00  0.00000000E+00
  0.00000000E+00  0.00000000E+00  0.00000000E+00
  0.00000000E+00  0.00000000E+00  0.00000000E+00
  0.00000000E+00  0.00000000E+00  0.00000000E+00
  0.00000000E+00  0.00000000E+00  0.00000000E+00
  0.00000000E+00  0.00000000E+00  0.00000000E+00
  0.00000000E+00  0.00000000E+00  0.00000000E+00
  0.00000000E+00  0.00000000E+00  0.00000000E+00
  0.00000000E+00  0.00000000E+00  0.00000000E+00
  0.00000000E+00  0.00000000E+00  0.00000000E+00
  0.00000000E+00  0.00000000E+00  0.00000000E+00
  0.00000000E+00  0.00000000E+00  0.00000000E+00
  0.00000000E+00  0.00000000E+00  0.00000000E+00
  0.00000000E+00  0.00000000E+00  0.00000000E+00
  0.00000000E+00  0.00000000E+00  0.00000000E+00
  0.00000000E+00  0.00000000E+00  0.00000000E+00
  0.00000000E+00  0.00000000E+00  0.00000000E+00
  0.00000000E+00  0.00000000E+00  0.00000000E+00
  0.00000000E+00  0.00000000E+00  0.00000000E+00
  0.00000000E+00  0.00000000E+00  0.00000000E+00
  0.00000000E+00  0.00000000E+00  0.00000000E+00
  0.00000000E+00  0.00000000E+00  0.00000000E+00
  0.00000000E+00  0.00000000E+00  0.00000000E+00
  0.00000000E+00  0.00000000E+00  0.00000000E+00
  0.00000000E+00  0.00000000E+00  0.00000000E+00
  0.00000000E+00  0.00000000E+00  0.00000000E+00
  0.00000000E+00  0.00000000E+00  0.00000000E+00
  0.00000000E+00  0.00000000E+00  0.00000000E+00
  0.00000000E+00  0.00000000E+00  0.00000000E+00
  0.00000000E+00  0.00000000E+00  0.00000000E+00
  0.00000000E+00  0.00000000E+00  0.00000000E+00
  0.00000000E+00  0.00000000E+00  0.00000000E+00
  0.00000000E+00  0.00000000E+00  0.00000000E+00
  0.00000000E+00  0.00000000E+00  0.00000000E+00
  0.00000000E+00  0.00000000E+00  0.00000000E+00
  0.00000000E+00  0.00000000E+00  0.00000000E+00
  0.00000000E+00  0.00000000E+00  0.00000000E+00
  0.00000000E+00  0.00000000E+00  0.00000000E+00
  0.00000000E+00  0.00000000E+00  0.00000000E+00
  0.00000000E+00  0.00000000E+00  0.00000000E+00
  0.00000000E+00  0.00000000E+00  0.00000000E+00
  0.00000000E+00  0.00000000E+00  0.00000000E+00
  0.00000000E+00  0.00000000E+00  0.00000000E+00
  0.00000000E+00  0.00000000E+00  0.00000000E+00
  0.00000000E+00  0.00000000E+00  0.00000000E+00
  0.00000000E+00  0.00000000E+00  0.00000000E+00
  0.00000000E+00  0.00000000E+00  0.00000000E+00
  0.00000000E+00  0.00000000E+00  0.00000000E+00
  0.00000000E+00  0.00000000E+00  0.00000000E+00
  0.00000000E+00  0.00000000E+00  0.00000000E+00
  0.00000000E+00  0.00000000E+00  0.00000000E+00
  0.00000000E+00  0.00000000E+00  0.00000000E+00
  0.00000000E+00  0.00000000E+00  0.00000000E+00
  0.00000000E+00  0.00000000E+00  0.00000000E+00
  0.00000000E+00  0.00000000E+00  0.00000000E+00
  0.00000000E+00  0.00000000E+00  0.00000000E+00
  0.00000000E+00  0.00000000E+00  0.00000000E+00
  0.00000000E+00  0.00000000E+00  0.00000000E+00
  0.00000000E+00  0.00000000E+00  0.00000000E+00
  0.00000000E+00  0.00000000E+00  0.00000000E+00
  0.00000000E+00  0.00000000E+00  0.00000000E+00
  0.00000000E+00  0.00000000E+00  0.00000000E+00
  0.00000000E+00  0.00000000E+00  0.00000000E+00
  0.00000000E+00  0.00000000E+00  0.00000000E+00
  0.00000000E+00  0.00000000E+00  0.00000000E+00
  0.00000000E+00  0.00000000E+00  0.00000000E+00
  0.00000000E+00  0.00000000E+00  0.00000000E+00
  0.00000000E+00  0.00000000E+00  0.00000000E+00
  0.00000000E+00  0.00000000E+00  0.00000000E+00
  0.00000000E+00  0.00000000E+00  0.00000000E+00
