Re1 H1 C125 N1                          
   1.00000000000000     
    19.8038091553353652   -0.0164399088724693    0.1036555171332049
    -9.9160690494570805   17.0552331628932805   -0.3148306318880232
     0.1558991051841510   -0.4597138369239926   29.8140161293868502
   Re   H    C    N 
     1     1   125     1
Direct
  0.4373154615618144  0.5021714744245663  0.4316152472685439
  0.4459599916663798  0.4736246075111755  0.4832607778027193
  0.0421617746600062  0.0844326102276768  0.3994999618413484
  0.0416516673369224  0.2088314847020836  0.3995695931079585
  0.0410467461546493  0.3334116900873802  0.3997722533923321
  0.0408740112596176  0.4585905577435190  0.3997719063176151
  0.0414643148593612  0.5839810629038358  0.3997476090874648
  0.0419938050939084  0.7092984771643626  0.3997349903850994
  0.0421529984367947  0.8345022921145516  0.3997306485061327
  0.0422163153707236  0.9596033696821286  0.3996120031288442
  0.1677238126221584  0.0854448068282180  0.3995073260998419
  0.1679166638024123  0.2106890800984922  0.3996715209294091
  0.1665691351908713  0.3346077548585569  0.4000968480134450
  0.1649298324180126  0.4589580946984583  0.4002907810144613
  0.1654237066578753  0.5840391384254940  0.4000674346544566
  0.1663888798678554  0.7092880362376897  0.4000016342706866
  0.1669279195959366  0.8345643181846024  0.3998557346348245
  0.1672975094106544  0.9599205947683619  0.3997144160932702
  0.2924990759772681  0.0852899771862576  0.3998302282509860
  0.2933944561537498  0.2116276853207049  0.4009151543395369
  0.2942185367979027  0.3380860022678405  0.4021448448308353
  0.2894788464161847  0.4603396545818966  0.4010807268358017
  0.2891428633403917  0.5846221472667711  0.4000957859949744
  0.2907408267103494  0.7092471671032675  0.3997682814377878
  0.2915933367601099  0.8343095343895977  0.3997869214575031
  0.2920147531824717  0.9596133428073383  0.3996548365525679
  0.4170568043568258  0.0842245374658414  0.3997038243837679
  0.4176641088987037  0.2101867161833145  0.4008286635442658
  0.4190949626871926  0.3371495082798389  0.4051662074426636
  0.4148978513720716  0.7071641823445188  0.3994728603126243
  0.4161269579971220  0.8330104041022794  0.3995015950111436
  0.4166466591514641  0.9586243541141909  0.3995793943425368
  0.5416491271758065  0.0829855202124121  0.3995995560203352
  0.5421289721185938  0.2083251761478719  0.4000557428845832
  0.5431429651415356  0.3334785861380773  0.4021696512955610
  0.5463447176348961  0.4584021136150947  0.4052087653293542
  0.5431917656238825  0.5793737654128462  0.4059526186013986
  0.5384255746545749  0.7039852382839024  0.4005847827040230
  0.5405090446366103  0.8314338516530274  0.3995085752861154
  0.5412175322371848  0.9574270361403138  0.3996324591263826
  0.6663056001289738  0.0824565510914086  0.3997536678481384
  0.6667546452847639  0.2077717276623728  0.3996622697732520
  0.6675115579340113  0.3330400844457783  0.3999474192422130
  0.6691780695160309  0.4584019276263755  0.4005368620693556
  0.6696731560208332  0.5834408129670648  0.4006446643003314
  0.6652811247215936  0.7060603597170783  0.3999441425008947
  0.6648013468627759  0.8309835640839314  0.3997173857460949
  0.6657847309421161  0.9569505487358779  0.3999276607779274
  0.7910736015353169  0.0824698159115029  0.3999881065395688
  0.7914162133999907  0.2076907248980921  0.3997030094717700
  0.7919306782681259  0.3329794139885592  0.3994095566932238
  0.7928160966707259  0.4583534138538531  0.3992460237372544
  0.7934150991520383  0.5836764631413772  0.3991840518759652
  0.7923642301333766  0.7085662963936106  0.3992045494358197
  0.7908371001594636  0.8324110013355169  0.3993658076988386
  0.7906797518599080  0.9571877072733302  0.3998541987842758
  0.9162795081609391  0.0830807992296383  0.3997983339181266
  0.9162450652418939  0.2079502448124985  0.3997712267253862
  0.9163644789569879  0.3330872379923167  0.3995029849583039
  0.9168272645341002  0.4584562591222716  0.3993233243653487
  0.9174392972462324  0.5838777853347553  0.3992310288000521
  0.9173628415334000  0.7090777917440161  0.3992771157153109
  0.9170166812474992  0.8339660954408384  0.3994648715022209
  0.9164881126798028  0.9584687471256463  0.3996789478746935
  0.0841461798044473  0.0432188064678079  0.3994742463201193
  0.0841293676628352  0.1680873849516039  0.3994563836221519
  0.0830811039314061  0.2922273649057767  0.3997265415875514
  0.0820987835469597  0.4168682806799949  0.3999367489904422
  0.0824618954825802  0.5421259390459110  0.3999021341441957
  0.0832538035072627  0.6675193876706992  0.3998830484136251
  0.0837039968660129  0.7928370402899955  0.3998341134327338
  0.0839154923969722  0.9180428903443445  0.3997156498582267
  0.2091674553977597  0.0435388409389635  0.3996629395614852
  0.2097714360090351  0.1692316356317210  0.3998172618017993
  0.2098382948595483  0.2945309964210036  0.4002415537294060
  0.2066068883308293  0.4178781786047554  0.4005238637997440
  0.2062451080286216  0.5422419349998693  0.4002389928298649
  0.2075437729013414  0.6675104795245580  0.4000051407562690
  0.2083480922488819  0.7927905750770320  0.3999070746279402
  0.2087588466410237  0.9180939553126540  0.3997509593078639
  0.3338104240579016  0.0431336148082883  0.3996919511450568
  0.3344142315662199  0.1690401670294659  0.4005127146314997
  0.3357435615213933  0.2956982463106901  0.4031482311641089
  0.3333480156962550  0.4218374324623932  0.4039439075820409
  0.3304538072484528  0.5441695550914427  0.4005459237655077
  0.3318067261917308  0.6675520892707740  0.3996693142926149
  0.3329524175120246  0.7924622590719927  0.3996895326863856
  0.3334341617684014  0.9176739620306732  0.3996465271088177
  0.4584349450543136  0.0420715439074431  0.3995928414070777
  0.4588908405463029  0.1677384874887581  0.4000630628927767
  0.4598579870315464  0.2938839723352449  0.4025062652955002
  0.4640634478022360  0.4208201692475289  0.4113438369786717
  0.4546001813002391  0.6632657647714321  0.4003332404589241
  0.4573772355177327  0.7906820049102309  0.3993351875893271
  0.4579926954733253  0.9164722419998785  0.3995547146040672
  0.5830339960847745  0.0409731258133042  0.3996403851639893
  0.5835067624627365  0.1664044492152015  0.3997051509645266
  0.5841923758002382  0.2916238149271205  0.4006132497458559
  0.5862926722992670  0.4166269975640366  0.4025154012056391
  0.5877001004149732  0.5414190460745881  0.4034980944685304
  0.5806284779751477  0.6622090912866651  0.4016224959661716
  0.5809503254447265  0.7883301836038069  0.3997808805296827
  0.5825026489974422  0.9152239831643658  0.3997121353452494
  0.7077106005499021  0.0405759597872581  0.3999367354991428
  0.7081631069724517  0.1659996873194612  0.3996818362315455
  0.7086921848770992  0.2912763175365413  0.3996085764438275
  0.7098707231582428  0.4164998508125760  0.3997431043170901
  0.7107714800774163  0.5416828562814423  0.3999863786406289
  0.7090957030906926  0.6664611038914429  0.3997276088322795
  0.7069497270539380  0.7897747203185241  0.3994657196989252
  0.7069977121371398  0.9148483365952724  0.3998588657712407
  0.8327149384816572  0.0408807774388351  0.3999489326415585
  0.8328950942310582  0.1660198965594653  0.3998671357987142
  0.8332108148145885  0.2911988167008696  0.3994897349709141
  0.8338294773632050  0.4164974774150673  0.3992648365306755
  0.8345276663137908  0.5418974282495883  0.3991073149009951
  0.8342812100730790  0.6671629303494084  0.3991308150802311
  0.8335373531127607  0.7918326061030193  0.3992800648305696
  0.8327610745483229  0.9160644119546756  0.3996427098076809
  0.9584473343929881  0.0420448464941756  0.3996907858497435
  0.9581055481408274  0.1666116630218157  0.3997146846289268
  0.9578635551207175  0.2914544069531708  0.3996557424235360
  0.9579117485956833  0.4166232846866799  0.3994915656215828
  0.9585193889217537  0.5420250697621030  0.3994165071852848
  0.9588836197237409  0.6674145298498707  0.3993905814550019
  0.9588610937314884  0.7926009634783803  0.3994974708977476
  0.9587014024591538  0.9174544197561436  0.3996048871474795
  0.4108073494936834  0.5820634198261504  0.4014583341316769
 
  0.00000000E+00  0.00000000E+00  0.00000000E+00
  0.00000000E+00  0.00000000E+00  0.00000000E+00
  0.00000000E+00  0.00000000E+00  0.00000000E+00
  0.00000000E+00  0.00000000E+00  0.00000000E+00
  0.00000000E+00  0.00000000E+00  0.00000000E+00
  0.00000000E+00  0.00000000E+00  0.00000000E+00
  0.00000000E+00  0.00000000E+00  0.00000000E+00
  0.00000000E+00  0.00000000E+00  0.00000000E+00
  0.00000000E+00  0.00000000E+00  0.00000000E+00
  0.00000000E+00  0.00000000E+00  0.00000000E+00
  0.00000000E+00  0.00000000E+00  0.00000000E+00
  0.00000000E+00  0.00000000E+00  0.00000000E+00
  0.00000000E+00  0.00000000E+00  0.00000000E+00
  0.00000000E+00  0.00000000E+00  0.00000000E+00
  0.00000000E+00  0.00000000E+00  0.00000000E+00
  0.00000000E+00  0.00000000E+00  0.00000000E+00
  0.00000000E+00  0.00000000E+00  0.00000000E+00
  0.00000000E+00  0.00000000E+00  0.00000000E+00
  0.00000000E+00  0.00000000E+00  0.00000000E+00
  0.00000000E+00  0.00000000E+00  0.00000000E+00
  0.00000000E+00  0.00000000E+00  0.00000000E+00
  0.00000000E+00  0.00000000E+00  0.00000000E+00
  0.00000000E+00  0.00000000E+00  0.00000000E+00
  0.00000000E+00  0.00000000E+00  0.00000000E+00
  0.00000000E+00  0.00000000E+00  0.00000000E+00
  0.00000000E+00  0.00000000E+00  0.00000000E+00
  0.00000000E+00  0.00000000E+00  0.00000000E+00
  0.00000000E+00  0.00000000E+00  0.00000000E+00
  0.00000000E+00  0.00000000E+00  0.00000000E+00
  0.00000000E+00  0.00000000E+00  0.00000000E+00
  0.00000000E+00  0.00000000E+00  0.00000000E+00
  0.00000000E+00  0.00000000E+00  0.00000000E+00
  0.00000000E+00  0.00000000E+00  0.00000000E+00
  0.00000000E+00  0.00000000E+00  0.00000000E+00
  0.00000000E+00  0.00000000E+00  0.00000000E+00
  0.00000000E+00  0.00000000E+00  0.00000000E+00
  0.00000000E+00  0.00000000E+00  0.00000000E+00
  0.00000000E+00  0.00000000E+00  0.00000000E+00
  0.00000000E+00  0.00000000E+00  0.00000000E+00
  0.00000000E+00  0.00000000E+00  0.00000000E+00
  0.00000000E+00  0.00000000E+00  0.00000000E+00
  0.00000000E+00  0.00000000E+00  0.00000000E+00
  0.00000000E+00  0.00000000E+00  0.00000000E+00
  0.00000000E+00  0.00000000E+00  0.00000000E+00
  0.00000000E+00  0.00000000E+00  0.00000000E+00
  0.00000000E+00  0.00000000E+00  0.00000000E+00
  0.00000000E+00  0.00000000E+00  0.00000000E+00
  0.00000000E+00  0.00000000E+00  0.00000000E+00
  0.00000000E+00  0.00000000E+00  0.00000000E+00
  0.00000000E+00  0.00000000E+00  0.00000000E+00
  0.00000000E+00  0.00000000E+00  0.00000000E+00
  0.00000000E+00  0.00000000E+00  0.00000000E+00
  0.00000000E+00  0.00000000E+00  0.00000000E+00
  0.00000000E+00  0.00000000E+00  0.00000000E+00
  0.00000000E+00  0.00000000E+00  0.00000000E+00
  0.00000000E+00  0.00000000E+00  0.00000000E+00
  0.00000000E+00  0.00000000E+00  0.00000000E+00
  0.00000000E+00  0.00000000E+00  0.00000000E+00
  0.00000000E+00  0.00000000E+00  0.00000000E+00
  0.00000000E+00  0.00000000E+00  0.00000000E+00
  0.00000000E+00  0.00000000E+00  0.00000000E+00
  0.00000000E+00  0.00000000E+00  0.00000000E+00
  0.00000000E+00  0.00000000E+00  0.00000000E+00
  0.00000000E+00  0.00000000E+00  0.00000000E+00
  0.00000000E+00  0.00000000E+00  0.00000000E+00
  0.00000000E+00  0.00000000E+00  0.00000000E+00
  0.00000000E+00  0.00000000E+00  0.00000000E+00
  0.00000000E+00  0.00000000E+00  0.00000000E+00
  0.00000000E+00  0.00000000E+00  0.00000000E+00
  0.00000000E+00  0.00000000E+00  0.00000000E+00
  0.00000000E+00  0.00000000E+00  0.00000000E+00
  0.00000000E+00  0.00000000E+00  0.00000000E+00
  0.00000000E+00  0.00000000E+00  0.00000000E+00
  0.00000000E+00  0.00000000E+00  0.00000000E+00
  0.00000000E+00  0.00000000E+00  0.00000000E+00
  0.00000000E+00  0.00000000E+00  0.00000000E+00
  0.00000000E+00  0.00000000E+00  0.00000000E+00
  0.00000000E+00  0.00000000E+00  0.00000000E+00
  0.00000000E+00  0.00000000E+00  0.00000000E+00
  0.00000000E+00  0.00000000E+00  0.00000000E+00
  0.00000000E+00  0.00000000E+00  0.00000000E+00
  0.00000000E+00  0.00000000E+00  0.00000000E+00
  0.00000000E+00  0.00000000E+00  0.00000000E+00
  0.00000000E+00  0.00000000E+00  0.00000000E+00
  0.00000000E+00  0.00000000E+00  0.00000000E+00
  0.00000000E+00  0.00000000E+00  0.00000000E+00
  0.00000000E+00  0.00000000E+00  0.00000000E+00
  0.00000000E+00  0.00000000E+00  0.00000000E+00
  0.00000000E+00  0.00000000E+00  0.00000000E+00
  0.00000000E+00  0.00000000E+00  0.00000000E+00
  0.00000000E+00  0.00000000E+00  0.00000000E+00
  0.00000000E+00  0.00000000E+00  0.00000000E+00
  0.00000000E+00  0.00000000E+00  0.00000000E+00
  0.00000000E+00  0.00000000E+00  0.00000000E+00
  0.00000000E+00  0.00000000E+00  0.00000000E+00
  0.00000000E+00  0.00000000E+00  0.00000000E+00
  0.00000000E+00  0.00000000E+00  0.00000000E+00
  0.00000000E+00  0.00000000E+00  0.00000000E+00
  0.00000000E+00  0.00000000E+00  0.00000000E+00
  0.00000000E+00  0.00000000E+00  0.00000000E+00
  0.00000000E+00  0.00000000E+00  0.00000000E+00
  0.00000000E+00  0.00000000E+00  0.00000000E+00
  0.00000000E+00  0.00000000E+00  0.00000000E+00
  0.00000000E+00  0.00000000E+00  0.00000000E+00
  0.00000000E+00  0.00000000E+00  0.00000000E+00
  0.00000000E+00  0.00000000E+00  0.00000000E+00
  0.00000000E+00  0.00000000E+00  0.00000000E+00
  0.00000000E+00  0.00000000E+00  0.00000000E+00
  0.00000000E+00  0.00000000E+00  0.00000000E+00
  0.00000000E+00  0.00000000E+00  0.00000000E+00
  0.00000000E+00  0.00000000E+00  0.00000000E+00
  0.00000000E+00  0.00000000E+00  0.00000000E+00
  0.00000000E+00  0.00000000E+00  0.00000000E+00
  0.00000000E+00  0.00000000E+00  0.00000000E+00
  0.00000000E+00  0.00000000E+00  0.00000000E+00
  0.00000000E+00  0.00000000E+00  0.00000000E+00
  0.00000000E+00  0.00000000E+00  0.00000000E+00
  0.00000000E+00  0.00000000E+00  0.00000000E+00
  0.00000000E+00  0.00000000E+00  0.00000000E+00
  0.00000000E+00  0.00000000E+00  0.00000000E+00
  0.00000000E+00  0.00000000E+00  0.00000000E+00
  0.00000000E+00  0.00000000E+00  0.00000000E+00
  0.00000000E+00  0.00000000E+00  0.00000000E+00
  0.00000000E+00  0.00000000E+00  0.00000000E+00
  0.00000000E+00  0.00000000E+00  0.00000000E+00
  0.00000000E+00  0.00000000E+00  0.00000000E+00
  0.00000000E+00  0.00000000E+00  0.00000000E+00
  0.00000000E+00  0.00000000E+00  0.00000000E+00
