H1 Pt1 C122 N4 O1                       
   1.00000000000000     
    19.8464143380349007   -0.0000465587766662   -0.0415158695263093
    -9.9232086016142240   17.0182088886549465   -0.0322811054105539
    -0.0622769677367820   -0.0927575771081605   29.7929072553998431
   H    Pt   C    N    O 
     1     1   122     4     1
Direct
  0.4749477461869405  0.5476874364537139  0.4936007293832726
  0.4376205516913499  0.5000559592751433  0.4074156817317861
  0.0421741959733436  0.0843558394585144  0.4002066977256393
  0.0407742226775508  0.2081255642220491  0.4004906943403037
  0.0397101977872707  0.3327616486897783  0.4002219046051396
  0.0398750663131637  0.4582236185513612  0.3994092611263277
  0.0411632172885908  0.5839878417936473  0.3988253853947255
  0.0423531391813285  0.7096263501763400  0.3988930900854227
  0.0427758267837519  0.8349214366343450  0.3992698113860139
  0.0428449330210836  0.9600634452340746  0.3996922701369873
  0.1685825428330968  0.0864819557105655  0.4009628971783223
  0.1675826186822789  0.2107338581743575  0.4020558912658746
  0.1643330916210122  0.3336040238877029  0.4025239688988407
  0.1628665079483764  0.4585093842197752  0.4019258850311492
  0.1643940311086456  0.5839115243060892  0.4004095168752239
  0.1662836927649700  0.7093699252638619  0.3994084635797012
  0.1672428891454564  0.8349244055446453  0.3992426760333076
  0.1678796241424486  0.9606129284853423  0.3998437965822660
  0.2930516198354267  0.0864767830096663  0.4009512467171891
  0.2947161272201550  0.2142968616685360  0.4028268830357489
  0.2922926868453299  0.3393370135874501  0.4041628539392320
  0.2851453822304636  0.4581697151159200  0.4045689396212621
  0.2869881679170376  0.5833474678302074  0.4032473818768263
  0.2902050814472196  0.7086886261309303  0.4009880410951017
  0.2916308544751209  0.8342553600748809  0.3996449917602194
  0.2923804409687638  0.9600823650114680  0.3996718780123565
  0.4173523428496971  0.0843718299458103  0.4002530095996776
  0.4182732331713306  0.2107332682026760  0.4020762423836597
  0.4221519176218567  0.3393429988090128  0.4040076441933511
  0.4140397480045040  0.7058196982729933  0.4030674192159547
  0.4159350796619902  0.8321468087825921  0.4008175752713375
  0.4167468975804529  0.9582971190523977  0.3996532396778709
  0.5416646911050587  0.0823566310313016  0.3996341348695066
  0.5424723320300830  0.2081436398803731  0.4005677576124357
  0.5443322564891916  0.3335939204710939  0.4024179931584097
  0.5480650717538535  0.4581295076710611  0.4041981338607464
  0.5378667317603485  0.7006351713876509  0.4040538513423986
  0.5401979832317774  0.8295381756490472  0.4019989511163070
  0.5410368880206996  0.9562480213339202  0.4001763383563748
  0.6660454064968404  0.0815257848619266  0.3995521448229062
  0.6667337791726341  0.2071582967873554  0.3994598101335836
  0.6681069943216689  0.3327782530517422  0.4002547501626404
  0.6706756000102276  0.4585019591461183  0.4017764999571965
  0.6714240965824030  0.5833461282615985  0.4030397381606403
  0.6668645262389825  0.7058327606933199  0.4029962170548720
  0.6644730677342239  0.8295532808842929  0.4019568988675160
  0.6654292431888236  0.9557074099390762  0.4005166828372743
  0.7906181786756175  0.0815020909015770  0.3995280868636621
  0.7910168326399150  0.2069436061103201  0.3990392158912401
  0.7918947044550849  0.3325410908904133  0.3989837590603214
  0.7933661276565620  0.4582328127652551  0.3994309941424378
  0.7945346007542387  0.5838934545533520  0.4003789324876966
  0.7935409091298795  0.7086771193150466  0.4010328045732581
  0.7913181272159175  0.8321231604823744  0.4008473630423973
  0.7903563602307888  0.9562447491845490  0.4001552981818531
  0.9158440338208156  0.0823321742250240  0.3995971534023056
  0.9155050976909039  0.2071244522470361  0.3993869621091888
  0.9157022017903325  0.3325297221691825  0.3989256889285909
  0.9166489129731593  0.4582820957042112  0.3985403571424094
  0.9178453991321310  0.5839886876516441  0.3988463198926777
  0.9181353151984420  0.7093389818000360  0.3994831044861222
  0.9177103629558088  0.8342171093116845  0.3997187655586711
  0.9167075363627782  0.9582682181855201  0.3996803696273146
  0.0848256600703578  0.0438557702723829  0.4002469081921767
  0.0838286480874093  0.1679710631465520  0.4009192231680198
  0.0815697914964062  0.2914364022478879  0.4010494895909403
  0.0805411133271802  0.4162208450841265  0.4004283434418131
  0.0817267726829610  0.5419157279334371  0.3994112033805706
  0.0832553224894101  0.6676200165436769  0.3989634824345327
  0.0841352652763233  0.7931828652808528  0.3990827744783245
  0.0845685677813294  0.9185900855265836  0.3995726924126590
  0.2097792438618422  0.0444046313415924  0.4005903481757557
  0.2107277912112177  0.1705976224794161  0.4020583368447956
  0.2083062846039339  0.2943293064031104  0.4030375150407943
  0.2037136618639044  0.4167906034881429  0.4032021439455857
  0.2044180284922808  0.5416304349522559  0.4019131836975263
  0.2070225659119763  0.6673653766218813  0.4001870946728068
  0.2084555312914202  0.7930031450493629  0.3993831591397720
  0.2091745419495292  0.9185972749253424  0.3995607566617811
  0.3341924756355289  0.0438635743798843  0.4002446492456151
  0.3350046150266243  0.1705841805557859  0.4020398615435291
  0.3373172969222570  0.2995309483214923  0.4039229048191656
  0.3270151030465509  0.5419672388586089  0.4046806353482675
  0.3307819574931329  0.6665324730024625  0.4025319598407299
  0.3327231151836313  0.7919926791989826  0.4003961043148462
  0.3335869102627665  0.9177769409785560  0.3995455615116017
  0.4585199809368972  0.0418368012251597  0.3997246071857991
  0.4592754911909524  0.1679913354521182  0.4009860519912349
  0.4611033752209225  0.2943206797167500  0.4029686156278549
  0.4530159055663401  0.6608302780379202  0.4043181603001022
  0.4569121966757591  0.7893912465283652  0.4020018151765449
  0.4578954575139845  0.9157508292454046  0.4001172826155298
  0.5828495011785633  0.0400335507169439  0.3996789626011748
  0.5835804988166937  0.1658871151251534  0.3997802413535655
  0.5849413865611960  0.2914392458081723  0.4010628255657993
  0.5881252419843612  0.4167584933493416  0.4029661579091268
  0.5900317764565297  0.5419302481858297  0.4043580540107522
  0.5829271180967779  0.6608723346430256  0.4042088294646977
  0.5805012124454716  0.7858778108769451  0.4028204948992733
  0.5821680616555182  0.9136373616675177  0.4008856522797661
  0.7073235497007954  0.0394965683674290  0.3998045777347375
  0.7079242926051886  0.1651973939529907  0.3992442782895895
  0.7088750642539102  0.2907869383933429  0.3994863166356458
  0.7107102593795948  0.4162325139900219  0.4003951809353919
  0.7122531752895384  0.5416184189367544  0.4017662927004425
  0.7108104602593306  0.6665300239227488  0.4024639259048029
  0.7075937596240416  0.7894005547061265  0.4019739159239754
  0.7066230861387655  0.9136527449579023  0.4008414630545603
  0.8323365675091648  0.0400161082682919  0.3996498494474032
  0.8323694522786962  0.1651840739955029  0.3992169974720799
  0.8327966015643469  0.2905076735504099  0.3988529497258278
  0.8339419936444867  0.4161752274275028  0.3988303762533659
  0.8352221321170518  0.5419187079447910  0.3994296640635362
  0.8353907406211779  0.6673494672560302  0.4002366096369647
  0.8343616053370508  0.7919740093704118  0.4004797927190623
  0.8330098782401377  0.9157383364288718  0.4001435557362273
  0.9584829246666083  0.0418154823877320  0.3997116107030267
  0.9574152430066649  0.1658627468131403  0.3997054992913667
  0.9569650964349014  0.2907567412288014  0.3993972201220765
  0.9572476547111227  0.4161690015140984  0.3987961508214669
  0.9584608561730589  0.5418934517060818  0.3985598110934878
  0.9594353074638506  0.6676152994841833  0.3990073525389424
  0.9596234388805470  0.7929640711994105  0.3994548161000682
  0.9593274550264363  0.9177451394878612  0.3995828064699111
  0.4070598320210784  0.5806028901825138  0.4051138943627848
  0.5486662482295505  0.5806165352669554  0.4049204445638914
  0.3265147780266660  0.4195405154430948  0.4047965612793696
  0.4681042717634172  0.4195079068633608  0.4043669444646577
  0.4372727629656897  0.4941423916596846  0.4836750136094713
 
  0.00000000E+00  0.00000000E+00  0.00000000E+00
  0.00000000E+00  0.00000000E+00  0.00000000E+00
  0.00000000E+00  0.00000000E+00  0.00000000E+00
  0.00000000E+00  0.00000000E+00  0.00000000E+00
  0.00000000E+00  0.00000000E+00  0.00000000E+00
  0.00000000E+00  0.00000000E+00  0.00000000E+00
  0.00000000E+00  0.00000000E+00  0.00000000E+00
  0.00000000E+00  0.00000000E+00  0.00000000E+00
  0.00000000E+00  0.00000000E+00  0.00000000E+00
  0.00000000E+00  0.00000000E+00  0.00000000E+00
  0.00000000E+00  0.00000000E+00  0.00000000E+00
  0.00000000E+00  0.00000000E+00  0.00000000E+00
  0.00000000E+00  0.00000000E+00  0.00000000E+00
  0.00000000E+00  0.00000000E+00  0.00000000E+00
  0.00000000E+00  0.00000000E+00  0.00000000E+00
  0.00000000E+00  0.00000000E+00  0.00000000E+00
  0.00000000E+00  0.00000000E+00  0.00000000E+00
  0.00000000E+00  0.00000000E+00  0.00000000E+00
  0.00000000E+00  0.00000000E+00  0.00000000E+00
  0.00000000E+00  0.00000000E+00  0.00000000E+00
  0.00000000E+00  0.00000000E+00  0.00000000E+00
  0.00000000E+00  0.00000000E+00  0.00000000E+00
  0.00000000E+00  0.00000000E+00  0.00000000E+00
  0.00000000E+00  0.00000000E+00  0.00000000E+00
  0.00000000E+00  0.00000000E+00  0.00000000E+00
  0.00000000E+00  0.00000000E+00  0.00000000E+00
  0.00000000E+00  0.00000000E+00  0.00000000E+00
  0.00000000E+00  0.00000000E+00  0.00000000E+00
  0.00000000E+00  0.00000000E+00  0.00000000E+00
  0.00000000E+00  0.00000000E+00  0.00000000E+00
  0.00000000E+00  0.00000000E+00  0.00000000E+00
  0.00000000E+00  0.00000000E+00  0.00000000E+00
  0.00000000E+00  0.00000000E+00  0.00000000E+00
  0.00000000E+00  0.00000000E+00  0.00000000E+00
  0.00000000E+00  0.00000000E+00  0.00000000E+00
  0.00000000E+00  0.00000000E+00  0.00000000E+00
  0.00000000E+00  0.00000000E+00  0.00000000E+00
  0.00000000E+00  0.00000000E+00  0.00000000E+00
  0.00000000E+00  0.00000000E+00  0.00000000E+00
  0.00000000E+00  0.00000000E+00  0.00000000E+00
  0.00000000E+00  0.00000000E+00  0.00000000E+00
  0.00000000E+00  0.00000000E+00  0.00000000E+00
  0.00000000E+00  0.00000000E+00  0.00000000E+00
  0.00000000E+00  0.00000000E+00  0.00000000E+00
  0.00000000E+00  0.00000000E+00  0.00000000E+00
  0.00000000E+00  0.00000000E+00  0.00000000E+00
  0.00000000E+00  0.00000000E+00  0.00000000E+00
  0.00000000E+00  0.00000000E+00  0.00000000E+00
  0.00000000E+00  0.00000000E+00  0.00000000E+00
  0.00000000E+00  0.00000000E+00  0.00000000E+00
  0.00000000E+00  0.00000000E+00  0.00000000E+00
  0.00000000E+00  0.00000000E+00  0.00000000E+00
  0.00000000E+00  0.00000000E+00  0.00000000E+00
  0.00000000E+00  0.00000000E+00  0.00000000E+00
  0.00000000E+00  0.00000000E+00  0.00000000E+00
  0.00000000E+00  0.00000000E+00  0.00000000E+00
  0.00000000E+00  0.00000000E+00  0.00000000E+00
  0.00000000E+00  0.00000000E+00  0.00000000E+00
  0.00000000E+00  0.00000000E+00  0.00000000E+00
  0.00000000E+00  0.00000000E+00  0.00000000E+00
  0.00000000E+00  0.00000000E+00  0.00000000E+00
  0.00000000E+00  0.00000000E+00  0.00000000E+00
  0.00000000E+00  0.00000000E+00  0.00000000E+00
  0.00000000E+00  0.00000000E+00  0.00000000E+00
  0.00000000E+00  0.00000000E+00  0.00000000E+00
  0.00000000E+00  0.00000000E+00  0.00000000E+00
  0.00000000E+00  0.00000000E+00  0.00000000E+00
  0.00000000E+00  0.00000000E+00  0.00000000E+00
  0.00000000E+00  0.00000000E+00  0.00000000E+00
  0.00000000E+00  0.00000000E+00  0.00000000E+00
  0.00000000E+00  0.00000000E+00  0.00000000E+00
  0.00000000E+00  0.00000000E+00  0.00000000E+00
  0.00000000E+00  0.00000000E+00  0.00000000E+00
  0.00000000E+00  0.00000000E+00  0.00000000E+00
  0.00000000E+00  0.00000000E+00  0.00000000E+00
  0.00000000E+00  0.00000000E+00  0.00000000E+00
  0.00000000E+00  0.00000000E+00  0.00000000E+00
  0.00000000E+00  0.00000000E+00  0.00000000E+00
  0.00000000E+00  0.00000000E+00  0.00000000E+00
  0.00000000E+00  0.00000000E+00  0.00000000E+00
  0.00000000E+00  0.00000000E+00  0.00000000E+00
  0.00000000E+00  0.00000000E+00  0.00000000E+00
  0.00000000E+00  0.00000000E+00  0.00000000E+00
  0.00000000E+00  0.00000000E+00  0.00000000E+00
  0.00000000E+00  0.00000000E+00  0.00000000E+00
  0.00000000E+00  0.00000000E+00  0.00000000E+00
  0.00000000E+00  0.00000000E+00  0.00000000E+00
  0.00000000E+00  0.00000000E+00  0.00000000E+00
  0.00000000E+00  0.00000000E+00  0.00000000E+00
  0.00000000E+00  0.00000000E+00  0.00000000E+00
  0.00000000E+00  0.00000000E+00  0.00000000E+00
  0.00000000E+00  0.00000000E+00  0.00000000E+00
  0.00000000E+00  0.00000000E+00  0.00000000E+00
  0.00000000E+00  0.00000000E+00  0.00000000E+00
  0.00000000E+00  0.00000000E+00  0.00000000E+00
  0.00000000E+00  0.00000000E+00  0.00000000E+00
  0.00000000E+00  0.00000000E+00  0.00000000E+00
  0.00000000E+00  0.00000000E+00  0.00000000E+00
  0.00000000E+00  0.00000000E+00  0.00000000E+00
  0.00000000E+00  0.00000000E+00  0.00000000E+00
  0.00000000E+00  0.00000000E+00  0.00000000E+00
  0.00000000E+00  0.00000000E+00  0.00000000E+00
  0.00000000E+00  0.00000000E+00  0.00000000E+00
  0.00000000E+00  0.00000000E+00  0.00000000E+00
  0.00000000E+00  0.00000000E+00  0.00000000E+00
  0.00000000E+00  0.00000000E+00  0.00000000E+00
  0.00000000E+00  0.00000000E+00  0.00000000E+00
  0.00000000E+00  0.00000000E+00  0.00000000E+00
  0.00000000E+00  0.00000000E+00  0.00000000E+00
  0.00000000E+00  0.00000000E+00  0.00000000E+00
  0.00000000E+00  0.00000000E+00  0.00000000E+00
  0.00000000E+00  0.00000000E+00  0.00000000E+00
  0.00000000E+00  0.00000000E+00  0.00000000E+00
  0.00000000E+00  0.00000000E+00  0.00000000E+00
  0.00000000E+00  0.00000000E+00  0.00000000E+00
  0.00000000E+00  0.00000000E+00  0.00000000E+00
  0.00000000E+00  0.00000000E+00  0.00000000E+00
  0.00000000E+00  0.00000000E+00  0.00000000E+00
  0.00000000E+00  0.00000000E+00  0.00000000E+00
  0.00000000E+00  0.00000000E+00  0.00000000E+00
  0.00000000E+00  0.00000000E+00  0.00000000E+00
  0.00000000E+00  0.00000000E+00  0.00000000E+00
  0.00000000E+00  0.00000000E+00  0.00000000E+00
  0.00000000E+00  0.00000000E+00  0.00000000E+00
  0.00000000E+00  0.00000000E+00  0.00000000E+00
  0.00000000E+00  0.00000000E+00  0.00000000E+00
  0.00000000E+00  0.00000000E+00  0.00000000E+00
  0.00000000E+00  0.00000000E+00  0.00000000E+00
  0.00000000E+00  0.00000000E+00  0.00000000E+00
