Mo1 H1 C125 N1 O2                       
   1.00000000000000     
    19.8035154192010516   -0.0106155187642700   -0.0310580155016060
    -9.9103008283523302   17.0614036180824193   -0.1157804257498510
    -0.0466827367331567   -0.2292852961317469   29.7925099868636032
   Mo   H    C    N    O 
     1     1   125     1     2
Direct
  0.4398031668026492  0.5013596866444315  0.4357602718547247
  0.5398788313934612  0.5647784880755834  0.5162479688944340
  0.0421293792534383  0.0841242761199112  0.3994213706134098
  0.0416250644271939  0.2085735196185490  0.3992804776645489
  0.0410976954921235  0.3331837521712992  0.3988923328542420
  0.0409723339109782  0.4583882906348737  0.3987662955129650
  0.0414768623525854  0.5837064948428790  0.3991946440235828
  0.0419445004766306  0.7089488308169417  0.3995168934115878
  0.0421763357550220  0.8341613265276687  0.3994982333591587
  0.0422164569496852  0.9592462746364364  0.3994081594269070
  0.1675417517288731  0.0849353194480670  0.4000607985886720
  0.1677005986602007  0.2101859383285977  0.4004764509786521
  0.1664673706366223  0.3342105062257268  0.4001313602483006
  0.1650175717856224  0.4586466991381433  0.3988626999538664
  0.1656045128383499  0.5837113625094905  0.3986283616310374
  0.1664518257018066  0.7089370692949776  0.3991736260454178
  0.1669604200518913  0.8341883509652952  0.3995195023348069
  0.1672946631983822  0.9595492916153039  0.3997158239348535
  0.2924576220889462  0.0848558894586079  0.4001348157463826
  0.2931873359365927  0.2111982934339559  0.4019454914634386
  0.2937680394518769  0.3375953355550206  0.4042804175243865
  0.2893416574276650  0.4596592464555240  0.4028012937958177
  0.2894572606988091  0.5842162673223495  0.4001003066737213
  0.2909709871829455  0.7089833128953444  0.3994182238612397
  0.2916918574785956  0.8339904963778003  0.3992907533823332
  0.2919981416075048  0.9592049130589224  0.3995046250854945
  0.4170428034724840  0.0838077470264008  0.3995393082891002
  0.4175155433513469  0.2094541139769464  0.4005709878514562
  0.4190499375803010  0.3362986843450559  0.4043560464536589
  0.4151482528110464  0.7067991482374449  0.4015413447679971
  0.4163107298461280  0.8328037818144838  0.3996621605101506
  0.4167527408733100  0.9583749691070100  0.3992903815530336
  0.5417359549913725  0.0829072321898459  0.3993801587840438
  0.5421209916241991  0.2081071747467554  0.3995235498050082
  0.5428816458131660  0.3332140734419542  0.4004676726135545
  0.5452790461935990  0.4578060506354616  0.4031341444458548
  0.5443179794484646  0.5807414243485741  0.4056801485126201
  0.5387654756619573  0.7042790708562199  0.4040655809179499
  0.5406969615465487  0.8315656495720347  0.4008546795342602
  0.5414304161661112  0.9574971991965410  0.3995954905658091
  0.6664761571319431  0.0825713443805288  0.3995766901104211
  0.6668010367579357  0.2078058366249520  0.3995170197704745
  0.6673253325154581  0.3329161933720641  0.3992744119187844
  0.6688553764232797  0.4582884800770260  0.3991141567021683
  0.6694696055190108  0.5836311930024517  0.3996057807155421
  0.6660897274004400  0.7068660720032378  0.4004296718901728
  0.6651648906277325  0.8312864708288944  0.4005737910602660
  0.6660225330435973  0.9571540391714644  0.3999424083892718
  0.7912807932597521  0.0825756210218931  0.3995141367051968
  0.7915138643806993  0.2077548524323400  0.3995836581187284
  0.7919060691149863  0.3330037001952882  0.3995744531776156
  0.7926591546747694  0.4583405251822688  0.3991251218616025
  0.7931392711942845  0.5835870194175008  0.3986715737216933
  0.7925448112496368  0.7087470103361001  0.3988503679369643
  0.7912702870742018  0.8327991563716695  0.3992843296545529
  0.7909489154383327  0.9573593629714280  0.3994989114796283
  0.9164264030136900  0.0830586136727388  0.3992104229305413
  0.9163553755837019  0.2079452923512479  0.3992337532801833
  0.9164427977824243  0.3330757036487776  0.3993123377414809
  0.9167739837620796  0.4583184405755352  0.3994226482643831
  0.9173200902037734  0.5836892572687777  0.3993876281450328
  0.9173279097651320  0.7089262289398531  0.3992501187549043
  0.9171226878859330  0.8338447173446505  0.3991737461454473
  0.9166823906810200  0.9584318498112473  0.3992002611476357
  0.0840464121061714  0.0427910669138788  0.3995634181837051
  0.0839912268195917  0.1676970236761335  0.3996043086194851
  0.0830740516394696  0.2919387026911193  0.3992594844199779
  0.0822493901294306  0.4166754668332087  0.3986158789397504
  0.0826137534316906  0.5418828540787630  0.3987467127227962
  0.0832764860021862  0.6672096104005016  0.3993178419457846
  0.0837054276192012  0.7925006548712938  0.3995524367591789
  0.0838871393820017  0.9176583402769574  0.3995381067437884
  0.2090405951190050  0.0430393336614997  0.4000064491451076
  0.2094034675498558  0.1686701049697122  0.4008227448632219
  0.2096133860621225  0.2940593541914765  0.4013033329095169
  0.2066487938354440  0.4174997096891257  0.4000679265741407
  0.2064339995010119  0.5418936775631477  0.3988091953787100
  0.2077225308685463  0.6672336981585167  0.3989601175587156
  0.2084184202261928  0.7924403635530406  0.3993515579825108
  0.2087698777759174  0.9176851708262374  0.3995995408553330
  0.3337819902656080  0.0427132826741936  0.3996841438367613
  0.3343043983911950  0.1684796634020912  0.4008788131804609
  0.3350500750820893  0.2948003761455102  0.4042695417709070
  0.3328466474573725  0.4212376816163213  0.4073332063100884
  0.3304450850014139  0.5435965970310422  0.4030418681712042
  0.3320434475636963  0.6672639103844813  0.4003723137427278
  0.3331450224741820  0.7922090667849573  0.3994131366580264
  0.3335131675120698  0.9173498860813178  0.3993331825954657
  0.4585304349855036  0.0418032759944428  0.3993380488329570
  0.4588086379504247  0.1672162322920085  0.3997544496969237
  0.4596463020647432  0.2930272005953016  0.4014454991151610
  0.4635647472278676  0.4191227723362876  0.4073667676862264
  0.4547750949343656  0.6627843599385240  0.4046610890801998
  0.4575955589780977  0.7904687825747366  0.4005343946463859
  0.4581688985996758  0.9163095242867884  0.3994394898804237
  0.5832204894056316  0.0410059827992191  0.3994674080502650
  0.5835642629639212  0.1663125186167691  0.3994189538474026
  0.5841467927353110  0.2913375729349952  0.3995673236088941
  0.5859539221163959  0.4163060076422030  0.4005832246679346
  0.5874444592900491  0.5420528181181199  0.4022257294739495
  0.5818561145263693  0.6631403885647024  0.4033919648647750
  0.5811343400423771  0.7885022401237040  0.4018255105835569
  0.5827391855491425  0.9153553850389236  0.4000585038345232
  0.7079162903351960  0.0407161839740416  0.3996571997620115
  0.7083147025565952  0.1660887203306746  0.3995738925433914
  0.7086940005796966  0.2912689406504567  0.3994825608086741
  0.7096840477844708  0.4165243068827363  0.3989536501230999
  0.7105646915553154  0.5417396645323024  0.3987942463188446
  0.7092618835759747  0.6667768867056605  0.3993523027431778
  0.7075792786010894  0.7904268556934634  0.3999772451364638
  0.7072771247625237  0.9150707698447409  0.3999505120406624
  0.8328949290081651  0.0409714816141231  0.3993784848612394
  0.8330555865227974  0.1660948473465437  0.3994605147363098
  0.8332926837287558  0.2913015335553663  0.3995653034314749
  0.8337864916524037  0.4165301007509126  0.3994807801348548
  0.8343384318458220  0.5418335214280062  0.3990343117200864
  0.8342605278267540  0.6672041658810435  0.3988413346267753
  0.8337336700346047  0.7919336532223555  0.3990377623995223
  0.8330753927189181  0.9162920135840279  0.3992852700661263
  0.9585021922220859  0.0419138774139117  0.3992329252121961
  0.9581807207740256  0.1665413960612042  0.3991541856682573
  0.9579762676475060  0.2914047319516418  0.3991051898498234
  0.9579883414347485  0.4165737682624093  0.3992057824089991
  0.9584855399447311  0.5419093192142117  0.3994019254187497
  0.9588180841286559  0.6672091942168477  0.3994522007624949
  0.9588736373445581  0.7923669744646753  0.3993307431810250
  0.9587477894874052  0.9172597471502428  0.3992497952818206
  0.4103785488544698  0.5815160876679568  0.4081714088185071
  0.5112564147440588  0.5101830711647860  0.5054158948870974
  0.4303315099910080  0.4991729954360123  0.4999557062302647
 
  0.00000000E+00  0.00000000E+00  0.00000000E+00
  0.00000000E+00  0.00000000E+00  0.00000000E+00
  0.00000000E+00  0.00000000E+00  0.00000000E+00
  0.00000000E+00  0.00000000E+00  0.00000000E+00
  0.00000000E+00  0.00000000E+00  0.00000000E+00
  0.00000000E+00  0.00000000E+00  0.00000000E+00
  0.00000000E+00  0.00000000E+00  0.00000000E+00
  0.00000000E+00  0.00000000E+00  0.00000000E+00
  0.00000000E+00  0.00000000E+00  0.00000000E+00
  0.00000000E+00  0.00000000E+00  0.00000000E+00
  0.00000000E+00  0.00000000E+00  0.00000000E+00
  0.00000000E+00  0.00000000E+00  0.00000000E+00
  0.00000000E+00  0.00000000E+00  0.00000000E+00
  0.00000000E+00  0.00000000E+00  0.00000000E+00
  0.00000000E+00  0.00000000E+00  0.00000000E+00
  0.00000000E+00  0.00000000E+00  0.00000000E+00
  0.00000000E+00  0.00000000E+00  0.00000000E+00
  0.00000000E+00  0.00000000E+00  0.00000000E+00
  0.00000000E+00  0.00000000E+00  0.00000000E+00
  0.00000000E+00  0.00000000E+00  0.00000000E+00
  0.00000000E+00  0.00000000E+00  0.00000000E+00
  0.00000000E+00  0.00000000E+00  0.00000000E+00
  0.00000000E+00  0.00000000E+00  0.00000000E+00
  0.00000000E+00  0.00000000E+00  0.00000000E+00
  0.00000000E+00  0.00000000E+00  0.00000000E+00
  0.00000000E+00  0.00000000E+00  0.00000000E+00
  0.00000000E+00  0.00000000E+00  0.00000000E+00
  0.00000000E+00  0.00000000E+00  0.00000000E+00
  0.00000000E+00  0.00000000E+00  0.00000000E+00
  0.00000000E+00  0.00000000E+00  0.00000000E+00
  0.00000000E+00  0.00000000E+00  0.00000000E+00
  0.00000000E+00  0.00000000E+00  0.00000000E+00
  0.00000000E+00  0.00000000E+00  0.00000000E+00
  0.00000000E+00  0.00000000E+00  0.00000000E+00
  0.00000000E+00  0.00000000E+00  0.00000000E+00
  0.00000000E+00  0.00000000E+00  0.00000000E+00
  0.00000000E+00  0.00000000E+00  0.00000000E+00
  0.00000000E+00  0.00000000E+00  0.00000000E+00
  0.00000000E+00  0.00000000E+00  0.00000000E+00
  0.00000000E+00  0.00000000E+00  0.00000000E+00
  0.00000000E+00  0.00000000E+00  0.00000000E+00
  0.00000000E+00  0.00000000E+00  0.00000000E+00
  0.00000000E+00  0.00000000E+00  0.00000000E+00
  0.00000000E+00  0.00000000E+00  0.00000000E+00
  0.00000000E+00  0.00000000E+00  0.00000000E+00
  0.00000000E+00  0.00000000E+00  0.00000000E+00
  0.00000000E+00  0.00000000E+00  0.00000000E+00
  0.00000000E+00  0.00000000E+00  0.00000000E+00
  0.00000000E+00  0.00000000E+00  0.00000000E+00
  0.00000000E+00  0.00000000E+00  0.00000000E+00
  0.00000000E+00  0.00000000E+00  0.00000000E+00
  0.00000000E+00  0.00000000E+00  0.00000000E+00
  0.00000000E+00  0.00000000E+00  0.00000000E+00
  0.00000000E+00  0.00000000E+00  0.00000000E+00
  0.00000000E+00  0.00000000E+00  0.00000000E+00
  0.00000000E+00  0.00000000E+00  0.00000000E+00
  0.00000000E+00  0.00000000E+00  0.00000000E+00
  0.00000000E+00  0.00000000E+00  0.00000000E+00
  0.00000000E+00  0.00000000E+00  0.00000000E+00
  0.00000000E+00  0.00000000E+00  0.00000000E+00
  0.00000000E+00  0.00000000E+00  0.00000000E+00
  0.00000000E+00  0.00000000E+00  0.00000000E+00
  0.00000000E+00  0.00000000E+00  0.00000000E+00
  0.00000000E+00  0.00000000E+00  0.00000000E+00
  0.00000000E+00  0.00000000E+00  0.00000000E+00
  0.00000000E+00  0.00000000E+00  0.00000000E+00
  0.00000000E+00  0.00000000E+00  0.00000000E+00
  0.00000000E+00  0.00000000E+00  0.00000000E+00
  0.00000000E+00  0.00000000E+00  0.00000000E+00
  0.00000000E+00  0.00000000E+00  0.00000000E+00
  0.00000000E+00  0.00000000E+00  0.00000000E+00
  0.00000000E+00  0.00000000E+00  0.00000000E+00
  0.00000000E+00  0.00000000E+00  0.00000000E+00
  0.00000000E+00  0.00000000E+00  0.00000000E+00
  0.00000000E+00  0.00000000E+00  0.00000000E+00
  0.00000000E+00  0.00000000E+00  0.00000000E+00
  0.00000000E+00  0.00000000E+00  0.00000000E+00
  0.00000000E+00  0.00000000E+00  0.00000000E+00
  0.00000000E+00  0.00000000E+00  0.00000000E+00
  0.00000000E+00  0.00000000E+00  0.00000000E+00
  0.00000000E+00  0.00000000E+00  0.00000000E+00
  0.00000000E+00  0.00000000E+00  0.00000000E+00
  0.00000000E+00  0.00000000E+00  0.00000000E+00
  0.00000000E+00  0.00000000E+00  0.00000000E+00
  0.00000000E+00  0.00000000E+00  0.00000000E+00
  0.00000000E+00  0.00000000E+00  0.00000000E+00
  0.00000000E+00  0.00000000E+00  0.00000000E+00
  0.00000000E+00  0.00000000E+00  0.00000000E+00
  0.00000000E+00  0.00000000E+00  0.00000000E+00
  0.00000000E+00  0.00000000E+00  0.00000000E+00
  0.00000000E+00  0.00000000E+00  0.00000000E+00
  0.00000000E+00  0.00000000E+00  0.00000000E+00
  0.00000000E+00  0.00000000E+00  0.00000000E+00
  0.00000000E+00  0.00000000E+00  0.00000000E+00
  0.00000000E+00  0.00000000E+00  0.00000000E+00
  0.00000000E+00  0.00000000E+00  0.00000000E+00
  0.00000000E+00  0.00000000E+00  0.00000000E+00
  0.00000000E+00  0.00000000E+00  0.00000000E+00
  0.00000000E+00  0.00000000E+00  0.00000000E+00
  0.00000000E+00  0.00000000E+00  0.00000000E+00
  0.00000000E+00  0.00000000E+00  0.00000000E+00
  0.00000000E+00  0.00000000E+00  0.00000000E+00
  0.00000000E+00  0.00000000E+00  0.00000000E+00
  0.00000000E+00  0.00000000E+00  0.00000000E+00
  0.00000000E+00  0.00000000E+00  0.00000000E+00
  0.00000000E+00  0.00000000E+00  0.00000000E+00
  0.00000000E+00  0.00000000E+00  0.00000000E+00
  0.00000000E+00  0.00000000E+00  0.00000000E+00
  0.00000000E+00  0.00000000E+00  0.00000000E+00
  0.00000000E+00  0.00000000E+00  0.00000000E+00
  0.00000000E+00  0.00000000E+00  0.00000000E+00
  0.00000000E+00  0.00000000E+00  0.00000000E+00
  0.00000000E+00  0.00000000E+00  0.00000000E+00
  0.00000000E+00  0.00000000E+00  0.00000000E+00
  0.00000000E+00  0.00000000E+00  0.00000000E+00
  0.00000000E+00  0.00000000E+00  0.00000000E+00
  0.00000000E+00  0.00000000E+00  0.00000000E+00
  0.00000000E+00  0.00000000E+00  0.00000000E+00
  0.00000000E+00  0.00000000E+00  0.00000000E+00
  0.00000000E+00  0.00000000E+00  0.00000000E+00
  0.00000000E+00  0.00000000E+00  0.00000000E+00
  0.00000000E+00  0.00000000E+00  0.00000000E+00
  0.00000000E+00  0.00000000E+00  0.00000000E+00
  0.00000000E+00  0.00000000E+00  0.00000000E+00
  0.00000000E+00  0.00000000E+00  0.00000000E+00
  0.00000000E+00  0.00000000E+00  0.00000000E+00
  0.00000000E+00  0.00000000E+00  0.00000000E+00
  0.00000000E+00  0.00000000E+00  0.00000000E+00
  0.00000000E+00  0.00000000E+00  0.00000000E+00
  0.00000000E+00  0.00000000E+00  0.00000000E+00
