Cu1 H1 C126 O1                          
   1.00000000000000     
    19.7238762030632273   -0.0001639750363318    0.0496662600155784
    -9.8621767913171219   17.0958917746195276   -0.0381446252613035
     0.0749835054881503   -0.0231881948316754   29.8416740077775131
   Cu   H    C    O 
     1     1   126     1
Direct
  0.4368663716213067  0.4997029532787716  0.4275777250538926
  0.4789548376189097  0.5505807298737208  0.5013196457041187
  0.0417438928274434  0.0834765369199564  0.3999926371370760
  0.0417297307361829  0.2083893090622205  0.4002448186217288
  0.0418370904424811  0.3332911824808074  0.3999730032925555
  0.0419241296917251  0.4583731925224028  0.3996545764045541
  0.0417159748313613  0.5833036045931179  0.3993369435675996
  0.0415900778451970  0.7082789927862619  0.3992973656137954
  0.0416341597784899  0.8333730576081492  0.3994196693753260
  0.0416452300444144  0.9583855126663576  0.3996355723727357
  0.1666376871161522  0.0834221676197059  0.4005623147250207
  0.1669207109351619  0.2085293695785932  0.4015780443946269
  0.1669827417257931  0.3333570718709062  0.4012599392354644
  0.1671405152728400  0.4582807857289469  0.4003187076779014
  0.1669991663966792  0.5832520630949893  0.4000285751545287
  0.1667251788863394  0.7083294869646261  0.3996053058834034
  0.1666491920052637  0.8333638643253963  0.3994654830457547
  0.1666885008209802  0.9584400454607959  0.3997311944113826
  0.2916976660045820  0.0834133728344522  0.4006189027722922
  0.2916770924491567  0.2084650236178608  0.4026982658315562
  0.2927393991836306  0.3341911211282751  0.4040543336547351
  0.2926762214367484  0.4577487962607538  0.4013325518539385
  0.2923134549403422  0.5835760251541773  0.4007353539203681
  0.2917324938217700  0.7083798734318658  0.4004146874204762
  0.2916757443417703  0.8333326614025366  0.3997474626384227
  0.2916656836153233  0.9583721088815634  0.3996250268524682
  0.4166596121078677  0.0834345525782593  0.3999373022486857
  0.4165083938763011  0.2084492802838973  0.4017193286182844
  0.4162420711930411  0.3339036731476273  0.4049090503678508
  0.4167271248051134  0.5838676334365089  0.4043939341218145
  0.4166911378551124  0.7080255484263931  0.4023703677585340
  0.4166723222966355  0.8332360642786041  0.4004731157935899
  0.4166258879672279  0.9583147047355928  0.3996633914174186
  0.5416079909614335  0.0833462092814548  0.3996167897259389
  0.5415951662434118  0.2083754318427694  0.4001523735924290
  0.5412836703203199  0.3333331754954836  0.4013920881966439
  0.5398634984572490  0.4577236118550792  0.4027538534744872
  0.5425668640731869  0.5843345172084052  0.4065615692354249
  0.5418950132656800  0.7089971091813270  0.4044677074463000
  0.5415636827498730  0.8333978293211924  0.4015928540835018
  0.5416175091474411  0.9583296895794433  0.3999969246255433
  0.6665934039753646  0.0833270796881743  0.3995993666610917
  0.6666036498895515  0.2083734756673431  0.3995287311719296
  0.6663719697274667  0.3332974648754813  0.3997763798925926
  0.6659582730005332  0.4582760740056987  0.4000638589419748
  0.6660934976938369  0.5836093391107032  0.4010803672455867
  0.6663089855305908  0.7081207890638569  0.4030637265989113
  0.6667407680146303  0.8334133475457225  0.4018284945470715
  0.6666355337983193  0.9583513411213943  0.4002256384558520
  0.7916576228837561  0.0833251805066857  0.3995783587070361
  0.7916237332892424  0.2083140589329272  0.3993853808609466
  0.7915798433499780  0.3333730655616570  0.3993027558692603
  0.7913461174936605  0.4583764263657646  0.3994519801934446
  0.7910839167031416  0.5832491897965653  0.3997833600968466
  0.7915384177820793  0.7083792886118172  0.4004446238923193
  0.7915047896780086  0.8332633764969135  0.4004867541308367
  0.7916395787719033  0.9583386261752096  0.3999579313991857
  0.9166822034117477  0.0833599112436625  0.3995960030112120
  0.9167076508469841  0.2083772220867650  0.3995651782866491
  0.9167143355747679  0.3333846718864016  0.3993563566169219
  0.9166085123379923  0.4583074197732240  0.3991777711403858
  0.9164857073228222  0.5833110934433152  0.3992515352079884
  0.9164956668378368  0.7083418012475936  0.3994649179555375
  0.9165885988926316  0.8333554598668927  0.3996758233897504
  0.9166345942875881  0.9583498581041382  0.3996153955134122
  0.0833060795609051  0.0417101001037971  0.4000070765331062
  0.0834652512956388  0.1668006395899542  0.4005152196768202
  0.0833838824402875  0.2916590166742500  0.4004592362351144
  0.0837683607916922  0.4167789962287474  0.4000349408130031
  0.0835646205792115  0.5416669956454342  0.3996520465227792
  0.0833373682147977  0.6666578371301045  0.3993714058298297
  0.0833199631567208  0.7917288764814007  0.3993705013638577
  0.0832857525023158  0.9167171412663639  0.3995778059781689
  0.2083144135080991  0.0416985102136781  0.4002700470908139
  0.2081934993531350  0.1666406549959602  0.4016348481073000
  0.2087093844145769  0.2920096543426607  0.4023932861908197
  0.2087464234357654  0.4164305921967590  0.4007359944920899
  0.2088517836630912  0.5417298683062838  0.4003141293733122
  0.2085486897579681  0.6667375032370765  0.3999639203187125
  0.2083435469317277  0.7916587748300263  0.3995736168875703
  0.2083549297167422  0.9167167284806280  0.3995805549322924
  0.3333247641376328  0.0417020035954650  0.3999839552159201
  0.3333629541700217  0.1666264773128625  0.4018016078664435
  0.3329386780821948  0.2910329163530447  0.4043535399079772
  0.3328542195846865  0.4161424352858685  0.4044413586661590
  0.3349152671628278  0.5422471098633849  0.4013373390069510
  0.3336180082292086  0.6666620042631017  0.4012165381786256
  0.3333482262708057  0.7916429174220838  0.4002093909390494
  0.3333481616697008  0.9166817000923894  0.3996099700976702
  0.4583117179964522  0.0416872562924968  0.3996437267143850
  0.4582713241145000  0.1667619917359167  0.4004536018753375
  0.4582151710893617  0.2918818805352140  0.4028205226371529
  0.4583074728340973  0.4155616741030169  0.4063404081548470
  0.4585252432758172  0.6658263939920342  0.4040934683814815
  0.4583967113088692  0.7915026041517302  0.4015252002536493
  0.4582840365524649  0.9165600241450917  0.3999839903748612
  0.5832826541829962  0.0416594496595855  0.3996589253385491
  0.5832678423339891  0.1666894738248117  0.3997055100197296
  0.5831916860715493  0.2916492642047363  0.4003516875522892
  0.5825190596249444  0.4163829489480357  0.4009128930605038
  0.5820933394299644  0.5422276091414540  0.4028824882990296
  0.5822801131247062  0.6660872946341742  0.4051736830218766
  0.5832219132601018  0.7915802882536396  0.4027377094041011
  0.5832309441502495  0.9166175477632397  0.4005171874145328
  0.7082620798771329  0.0416004836657146  0.3997200095813673
  0.7082924924340970  0.1666756307570406  0.3994549060566890
  0.7081965053829452  0.2917074458794655  0.3994837580404352
  0.7078693917406751  0.4167807720943620  0.3997499352140613
  0.7076759525525571  0.5417368461263912  0.4001173760897375
  0.7079313879422044  0.6666819395765352  0.4016046483660524
  0.7080402940513368  0.7915696387990881  0.4018178892682863
  0.7082922446409313  0.9166271594630111  0.4005856644884425
  0.8333041565876460  0.0416656714534446  0.3996070130473595
  0.8333107200729646  0.1666761074176115  0.3994671848342897
  0.8333473053638233  0.2917705470009417  0.3992958590462641
  0.8332168424965520  0.4167443752425881  0.3992503235942987
  0.8329903807089090  0.5416741820600532  0.3994528613435100
  0.8330702605508558  0.6667386849817397  0.3998122882839014
  0.8332133083036901  0.7916575990605434  0.4001810552937135
  0.8332239428687125  0.9165917304320290  0.3999157667771184
  0.9583250400760420  0.0417211126313950  0.3996457895312672
  0.9583636863437129  0.1667056757612400  0.3997490162357006
  0.9584306022457847  0.2917174759030636  0.3995967978233538
  0.9584449869715407  0.4167466959184553  0.3993306793462860
  0.9583236966434546  0.5417480926905930  0.3991793366605235
  0.9582185869472095  0.6666790430919780  0.3992945592589783
  0.9582332385078477  0.7916758674806882  0.3994892293855348
  0.9582717678624814  0.9166972264066205  0.3995797945854168
  0.4487434100427105  0.4977413398317755  0.4891774780117568
 
  0.00000000E+00  0.00000000E+00  0.00000000E+00
  0.00000000E+00  0.00000000E+00  0.00000000E+00
  0.00000000E+00  0.00000000E+00  0.00000000E+00
  0.00000000E+00  0.00000000E+00  0.00000000E+00
  0.00000000E+00  0.00000000E+00  0.00000000E+00
  0.00000000E+00  0.00000000E+00  0.00000000E+00
  0.00000000E+00  0.00000000E+00  0.00000000E+00
  0.00000000E+00  0.00000000E+00  0.00000000E+00
  0.00000000E+00  0.00000000E+00  0.00000000E+00
  0.00000000E+00  0.00000000E+00  0.00000000E+00
  0.00000000E+00  0.00000000E+00  0.00000000E+00
  0.00000000E+00  0.00000000E+00  0.00000000E+00
  0.00000000E+00  0.00000000E+00  0.00000000E+00
  0.00000000E+00  0.00000000E+00  0.00000000E+00
  0.00000000E+00  0.00000000E+00  0.00000000E+00
  0.00000000E+00  0.00000000E+00  0.00000000E+00
  0.00000000E+00  0.00000000E+00  0.00000000E+00
  0.00000000E+00  0.00000000E+00  0.00000000E+00
  0.00000000E+00  0.00000000E+00  0.00000000E+00
  0.00000000E+00  0.00000000E+00  0.00000000E+00
  0.00000000E+00  0.00000000E+00  0.00000000E+00
  0.00000000E+00  0.00000000E+00  0.00000000E+00
  0.00000000E+00  0.00000000E+00  0.00000000E+00
  0.00000000E+00  0.00000000E+00  0.00000000E+00
  0.00000000E+00  0.00000000E+00  0.00000000E+00
  0.00000000E+00  0.00000000E+00  0.00000000E+00
  0.00000000E+00  0.00000000E+00  0.00000000E+00
  0.00000000E+00  0.00000000E+00  0.00000000E+00
  0.00000000E+00  0.00000000E+00  0.00000000E+00
  0.00000000E+00  0.00000000E+00  0.00000000E+00
  0.00000000E+00  0.00000000E+00  0.00000000E+00
  0.00000000E+00  0.00000000E+00  0.00000000E+00
  0.00000000E+00  0.00000000E+00  0.00000000E+00
  0.00000000E+00  0.00000000E+00  0.00000000E+00
  0.00000000E+00  0.00000000E+00  0.00000000E+00
  0.00000000E+00  0.00000000E+00  0.00000000E+00
  0.00000000E+00  0.00000000E+00  0.00000000E+00
  0.00000000E+00  0.00000000E+00  0.00000000E+00
  0.00000000E+00  0.00000000E+00  0.00000000E+00
  0.00000000E+00  0.00000000E+00  0.00000000E+00
  0.00000000E+00  0.00000000E+00  0.00000000E+00
  0.00000000E+00  0.00000000E+00  0.00000000E+00
  0.00000000E+00  0.00000000E+00  0.00000000E+00
  0.00000000E+00  0.00000000E+00  0.00000000E+00
  0.00000000E+00  0.00000000E+00  0.00000000E+00
  0.00000000E+00  0.00000000E+00  0.00000000E+00
  0.00000000E+00  0.00000000E+00  0.00000000E+00
  0.00000000E+00  0.00000000E+00  0.00000000E+00
  0.00000000E+00  0.00000000E+00  0.00000000E+00
  0.00000000E+00  0.00000000E+00  0.00000000E+00
  0.00000000E+00  0.00000000E+00  0.00000000E+00
  0.00000000E+00  0.00000000E+00  0.00000000E+00
  0.00000000E+00  0.00000000E+00  0.00000000E+00
  0.00000000E+00  0.00000000E+00  0.00000000E+00
  0.00000000E+00  0.00000000E+00  0.00000000E+00
  0.00000000E+00  0.00000000E+00  0.00000000E+00
  0.00000000E+00  0.00000000E+00  0.00000000E+00
  0.00000000E+00  0.00000000E+00  0.00000000E+00
  0.00000000E+00  0.00000000E+00  0.00000000E+00
  0.00000000E+00  0.00000000E+00  0.00000000E+00
  0.00000000E+00  0.00000000E+00  0.00000000E+00
  0.00000000E+00  0.00000000E+00  0.00000000E+00
  0.00000000E+00  0.00000000E+00  0.00000000E+00
  0.00000000E+00  0.00000000E+00  0.00000000E+00
  0.00000000E+00  0.00000000E+00  0.00000000E+00
  0.00000000E+00  0.00000000E+00  0.00000000E+00
  0.00000000E+00  0.00000000E+00  0.00000000E+00
  0.00000000E+00  0.00000000E+00  0.00000000E+00
  0.00000000E+00  0.00000000E+00  0.00000000E+00
  0.00000000E+00  0.00000000E+00  0.00000000E+00
  0.00000000E+00  0.00000000E+00  0.00000000E+00
  0.00000000E+00  0.00000000E+00  0.00000000E+00
  0.00000000E+00  0.00000000E+00  0.00000000E+00
  0.00000000E+00  0.00000000E+00  0.00000000E+00
  0.00000000E+00  0.00000000E+00  0.00000000E+00
  0.00000000E+00  0.00000000E+00  0.00000000E+00
  0.00000000E+00  0.00000000E+00  0.00000000E+00
  0.00000000E+00  0.00000000E+00  0.00000000E+00
  0.00000000E+00  0.00000000E+00  0.00000000E+00
  0.00000000E+00  0.00000000E+00  0.00000000E+00
  0.00000000E+00  0.00000000E+00  0.00000000E+00
  0.00000000E+00  0.00000000E+00  0.00000000E+00
  0.00000000E+00  0.00000000E+00  0.00000000E+00
  0.00000000E+00  0.00000000E+00  0.00000000E+00
  0.00000000E+00  0.00000000E+00  0.00000000E+00
  0.00000000E+00  0.00000000E+00  0.00000000E+00
  0.00000000E+00  0.00000000E+00  0.00000000E+00
  0.00000000E+00  0.00000000E+00  0.00000000E+00
  0.00000000E+00  0.00000000E+00  0.00000000E+00
  0.00000000E+00  0.00000000E+00  0.00000000E+00
  0.00000000E+00  0.00000000E+00  0.00000000E+00
  0.00000000E+00  0.00000000E+00  0.00000000E+00
  0.00000000E+00  0.00000000E+00  0.00000000E+00
  0.00000000E+00  0.00000000E+00  0.00000000E+00
  0.00000000E+00  0.00000000E+00  0.00000000E+00
  0.00000000E+00  0.00000000E+00  0.00000000E+00
  0.00000000E+00  0.00000000E+00  0.00000000E+00
  0.00000000E+00  0.00000000E+00  0.00000000E+00
  0.00000000E+00  0.00000000E+00  0.00000000E+00
  0.00000000E+00  0.00000000E+00  0.00000000E+00
  0.00000000E+00  0.00000000E+00  0.00000000E+00
  0.00000000E+00  0.00000000E+00  0.00000000E+00
  0.00000000E+00  0.00000000E+00  0.00000000E+00
  0.00000000E+00  0.00000000E+00  0.00000000E+00
  0.00000000E+00  0.00000000E+00  0.00000000E+00
  0.00000000E+00  0.00000000E+00  0.00000000E+00
  0.00000000E+00  0.00000000E+00  0.00000000E+00
  0.00000000E+00  0.00000000E+00  0.00000000E+00
  0.00000000E+00  0.00000000E+00  0.00000000E+00
  0.00000000E+00  0.00000000E+00  0.00000000E+00
  0.00000000E+00  0.00000000E+00  0.00000000E+00
  0.00000000E+00  0.00000000E+00  0.00000000E+00
  0.00000000E+00  0.00000000E+00  0.00000000E+00
  0.00000000E+00  0.00000000E+00  0.00000000E+00
  0.00000000E+00  0.00000000E+00  0.00000000E+00
  0.00000000E+00  0.00000000E+00  0.00000000E+00
  0.00000000E+00  0.00000000E+00  0.00000000E+00
  0.00000000E+00  0.00000000E+00  0.00000000E+00
  0.00000000E+00  0.00000000E+00  0.00000000E+00
  0.00000000E+00  0.00000000E+00  0.00000000E+00
  0.00000000E+00  0.00000000E+00  0.00000000E+00
  0.00000000E+00  0.00000000E+00  0.00000000E+00
  0.00000000E+00  0.00000000E+00  0.00000000E+00
  0.00000000E+00  0.00000000E+00  0.00000000E+00
  0.00000000E+00  0.00000000E+00  0.00000000E+00
  0.00000000E+00  0.00000000E+00  0.00000000E+00
  0.00000000E+00  0.00000000E+00  0.00000000E+00
  0.00000000E+00  0.00000000E+00  0.00000000E+00
  0.00000000E+00  0.00000000E+00  0.00000000E+00
