Nb1 H1 C122 N4                          
   1.00000000000000     
    19.7844502615032276    0.0003031510399407    0.1612603873550372
    -9.8917944656984176   17.0408263681900749   -0.1535751663526193
     0.2428509143056821   -0.1276742159678860   29.8483498652694657
   Nb   H    C    N 
     1     1   122     4
Direct
  0.4489413918659758  0.5009638023911703  0.4297280843475806
  0.4630184384656530  0.5036809335769902  0.4896689316285875
  0.0422568140530232  0.0846173897151220  0.3999451392721939
  0.0414202959316161  0.2087111205291679  0.4000633157036019
  0.0406128582713860  0.3333146637546970  0.3991163712390428
  0.0405455161544055  0.4583338062685507  0.3982643648572994
  0.0411567133831457  0.5837005076306805  0.3986837893638048
  0.0417748587574791  0.7090465609605995  0.3993699638410655
  0.0419797588749053  0.8342389964356145  0.3996940663585022
  0.0422364409284021  0.9595775791577994  0.3997982319735407
  0.1677230623768753  0.0854280294510185  0.4001526799567353
  0.1680849778902332  0.2109173897037730  0.4009401741916416
  0.1655441521870518  0.3341924131221028  0.4014799373514176
  0.1646301609297217  0.4586195003545784  0.3986902691949329
  0.1652734553207479  0.5836533336241078  0.3984267953334309
  0.1662087029482372  0.7087585798356223  0.3990498230395153
  0.1667482827875467  0.8341062759332630  0.3994017541826801
  0.1670882537159322  0.9596469784613495  0.3997013774517078
  0.2922207491870936  0.0851571904007866  0.3994750078622867
  0.2933149698013879  0.2123691043831105  0.4005135764862645
  0.2932986881701746  0.3393770055609037  0.4055095637657176
  0.2879549333443890  0.4589271809997191  0.4048351137596281
  0.2889424728974759  0.5829773959485052  0.4007857178723470
  0.2907115667861973  0.7080892071521359  0.4000721565485363
  0.2914452644669661  0.8335641750862022  0.3996494542906852
  0.2917604794156490  0.9591530857115860  0.3994823399020447
  0.4167531754679804  0.0837094494878725  0.3994552745390442
  0.4170833602528532  0.2093315739145716  0.3989076304744206
  0.4190782473638052  0.3354827808600181  0.3987390793804904
  0.4149551575236085  0.7054812872679042  0.4023736444216346
  0.4160052555625106  0.8319520145972445  0.4001627585775928
  0.4164122439603077  0.9578720617937658  0.3997199423599139
  0.5412970424734689  0.0826084939264797  0.3997065019199187
  0.5418398016543173  0.2081690343696165  0.3995386150820225
  0.5430329319035967  0.3337834446595246  0.3998458057757004
  0.5439532463642233  0.4580412305090654  0.3992463818465550
  0.5384781109671658  0.7029778548077822  0.4012067878892633
  0.5404557197491529  0.8307203865697135  0.4005055808599178
  0.5410438019841379  0.9568808091653862  0.4000483572807786
  0.6660474008228956  0.0822370016432583  0.3997998779992279
  0.6664888676210334  0.2076989038671575  0.3998570399338149
  0.6671759625688167  0.3331274021879874  0.4006636179107370
  0.6683071201845672  0.4584329643710965  0.4022111288085702
  0.6688654379296163  0.5834067528457056  0.4010555078353290
  0.6663745789374770  0.7072371615166804  0.3976332812259536
  0.6649730634430672  0.8310688707920175  0.3991150947311122
  0.6656884911457064  0.9568206014679264  0.3998643447138384
  0.7909825517254239  0.0824350937687687  0.3995483274970146
  0.7911196502118131  0.2076354547948390  0.3994808292219860
  0.7915903730030160  0.3329458596156266  0.3998609318930711
  0.7923222931843081  0.4583667817656761  0.4009395386413758
  0.7928526966078354  0.5837242333569322  0.4014435186882064
  0.7922128863497649  0.7083890117656274  0.3998621302062396
  0.7913092140793111  0.8329417659607405  0.3992314841550456
  0.7907162920483820  0.9573033104579939  0.3994469339648950
  0.9162772255364118  0.0831458106245613  0.3996278938138992
  0.9159530622222121  0.2078784529060332  0.3993663828354688
  0.9160588949832553  0.3330081007619231  0.3988873935128645
  0.9164190190974975  0.4583655983694874  0.3992101163620547
  0.9169974480691564  0.5837147461853646  0.4000670850927000
  0.9172312380262282  0.7089571159577146  0.4002529860106311
  0.9168923620339267  0.8339126370540247  0.3997497709721626
  0.9167219617381466  0.9586737891689591  0.3996834756896579
  0.0842574742427838  0.0432933017937283  0.3999886120482226
  0.0842351136182990  0.1682923705037765  0.4002305622503580
  0.0827929667938194  0.2921239756961609  0.4001069224054761
  0.0817252508696130  0.4164971349456371  0.3984079405155381
  0.0822576594368431  0.5418096298422481  0.3982795761762969
  0.0830449120556610  0.6671371181130894  0.3988994784278942
  0.0834828917639008  0.7925116815283898  0.3994719207301274
  0.0838541837462116  0.9179264913652024  0.3997386875988654
  0.2089517574558680  0.0433471544976059  0.3998215834369139
  0.2098641469034549  0.1694850166264714  0.4006698775397450
  0.2097184684061848  0.2948726359873159  0.4026491797682764
  0.2061516577856310  0.4173031223882546  0.4008795760863592
  0.2060555446487747  0.5415563971690225  0.3986845020331554
  0.2073229698585005  0.6668692222588891  0.3991246287221027
  0.2080770143392463  0.7922607757530836  0.3993729864414414
  0.2085707772350993  0.9177067937107504  0.3995174805897836
  0.3334663547639902  0.0428443254721847  0.3994158820053220
  0.3340033738321889  0.1690945439427340  0.3993790292223677
  0.3356238527118161  0.2972764438536952  0.4018594392859216
  0.3291982701229022  0.5415023771703190  0.4047050402229613
  0.3314268791925787  0.6661041554110626  0.4013552527337041
  0.3327670022163041  0.7915346286737299  0.4000231586812111
  0.3331554089675709  0.9170212202206250  0.3995902474501919
  0.4581276172751537  0.0414948496688248  0.3996454612239280
  0.4584534949805305  0.1671881841006625  0.3992908975480047
  0.4591951753225892  0.2928681827980162  0.3983275907932824
  0.4541147630756667  0.6610862830524510  0.4050406193459475
  0.4572517858243564  0.7893734776978534  0.4007520772524311
  0.4577090866068658  0.9156176645963978  0.3999550911477853
  0.5827493348538996  0.0405710125030300  0.3998615193717395
  0.5830719775751153  0.1662137617813456  0.3996988922167560
  0.5839162458613896  0.2917307668154963  0.4000459715248376
  0.5855467915487110  0.4167714474448024  0.4015006790323811
  0.5859447859241808  0.5420344555844294  0.3988594503118708
  0.5836396674379818  0.6646423702152692  0.3978950887011011
  0.5810354031956552  0.7878583828467924  0.4001196652102142
  0.5823809645768587  0.9147647675037986  0.4001691770479502
  0.7075219176030487  0.0404960907431371  0.3997661713303629
  0.7078444758533874  0.1658881387498791  0.3997116328308609
  0.7083761999462425  0.2911723536428091  0.4001711275766839
  0.7092056060149973  0.4164304457712392  0.4014495153385905
  0.7099403152217710  0.5417364866345741  0.4021037614154911
  0.7092761641045847  0.6663126322015812  0.3993005628667857
  0.7077873438690457  0.7907957950304536  0.3985680900407781
  0.7071314541292023  0.9150100810414890  0.3994483827421781
  0.8327009526818655  0.0410016649100333  0.3995272756540406
  0.8327491682189196  0.1660199528587253  0.3994059434243984
  0.8328527738782999  0.2910909272455900  0.3993356459958086
  0.8333701670363619  0.4164498551967572  0.3999949404833214
  0.8340027064653062  0.5417895180435781  0.4009818364971629
  0.8340556615963526  0.6670072574488162  0.4006615179443768
  0.8336842651477964  0.7919513831333074  0.3995142787899735
  0.8331076228636545  0.9164466799430188  0.3995026070381283
  0.9586739219407834  0.0423098804508334  0.3997378809665317
  0.9580222253885252  0.1665922941604033  0.3996627937239485
  0.9575671082795085  0.2913627666764672  0.3990425537370408
  0.9575538126811045  0.4164625125764803  0.3986659330049291
  0.9581012328534962  0.5417864335520405  0.3992387142495073
  0.9586466461041069  0.6672045861831568  0.3999482918019554
  0.9587978046039405  0.7924371321771235  0.3998985090183817
  0.9587403280599945  0.9175437551089095  0.3997109384458678
  0.4096253919173771  0.5794047202996109  0.4113818436190623
  0.5459207354100414  0.5836876921960575  0.3984083900515349
  0.3306353004727304  0.4213258426340733  0.4117152111623331
  0.4622722269226870  0.4163759485724899  0.3992528532515995
 
  0.00000000E+00  0.00000000E+00  0.00000000E+00
  0.00000000E+00  0.00000000E+00  0.00000000E+00
  0.00000000E+00  0.00000000E+00  0.00000000E+00
  0.00000000E+00  0.00000000E+00  0.00000000E+00
  0.00000000E+00  0.00000000E+00  0.00000000E+00
  0.00000000E+00  0.00000000E+00  0.00000000E+00
  0.00000000E+00  0.00000000E+00  0.00000000E+00
  0.00000000E+00  0.00000000E+00  0.00000000E+00
  0.00000000E+00  0.00000000E+00  0.00000000E+00
  0.00000000E+00  0.00000000E+00  0.00000000E+00
  0.00000000E+00  0.00000000E+00  0.00000000E+00
  0.00000000E+00  0.00000000E+00  0.00000000E+00
  0.00000000E+00  0.00000000E+00  0.00000000E+00
  0.00000000E+00  0.00000000E+00  0.00000000E+00
  0.00000000E+00  0.00000000E+00  0.00000000E+00
  0.00000000E+00  0.00000000E+00  0.00000000E+00
  0.00000000E+00  0.00000000E+00  0.00000000E+00
  0.00000000E+00  0.00000000E+00  0.00000000E+00
  0.00000000E+00  0.00000000E+00  0.00000000E+00
  0.00000000E+00  0.00000000E+00  0.00000000E+00
  0.00000000E+00  0.00000000E+00  0.00000000E+00
  0.00000000E+00  0.00000000E+00  0.00000000E+00
  0.00000000E+00  0.00000000E+00  0.00000000E+00
  0.00000000E+00  0.00000000E+00  0.00000000E+00
  0.00000000E+00  0.00000000E+00  0.00000000E+00
  0.00000000E+00  0.00000000E+00  0.00000000E+00
  0.00000000E+00  0.00000000E+00  0.00000000E+00
  0.00000000E+00  0.00000000E+00  0.00000000E+00
  0.00000000E+00  0.00000000E+00  0.00000000E+00
  0.00000000E+00  0.00000000E+00  0.00000000E+00
  0.00000000E+00  0.00000000E+00  0.00000000E+00
  0.00000000E+00  0.00000000E+00  0.00000000E+00
  0.00000000E+00  0.00000000E+00  0.00000000E+00
  0.00000000E+00  0.00000000E+00  0.00000000E+00
  0.00000000E+00  0.00000000E+00  0.00000000E+00
  0.00000000E+00  0.00000000E+00  0.00000000E+00
  0.00000000E+00  0.00000000E+00  0.00000000E+00
  0.00000000E+00  0.00000000E+00  0.00000000E+00
  0.00000000E+00  0.00000000E+00  0.00000000E+00
  0.00000000E+00  0.00000000E+00  0.00000000E+00
  0.00000000E+00  0.00000000E+00  0.00000000E+00
  0.00000000E+00  0.00000000E+00  0.00000000E+00
  0.00000000E+00  0.00000000E+00  0.00000000E+00
  0.00000000E+00  0.00000000E+00  0.00000000E+00
  0.00000000E+00  0.00000000E+00  0.00000000E+00
  0.00000000E+00  0.00000000E+00  0.00000000E+00
  0.00000000E+00  0.00000000E+00  0.00000000E+00
  0.00000000E+00  0.00000000E+00  0.00000000E+00
  0.00000000E+00  0.00000000E+00  0.00000000E+00
  0.00000000E+00  0.00000000E+00  0.00000000E+00
  0.00000000E+00  0.00000000E+00  0.00000000E+00
  0.00000000E+00  0.00000000E+00  0.00000000E+00
  0.00000000E+00  0.00000000E+00  0.00000000E+00
  0.00000000E+00  0.00000000E+00  0.00000000E+00
  0.00000000E+00  0.00000000E+00  0.00000000E+00
  0.00000000E+00  0.00000000E+00  0.00000000E+00
  0.00000000E+00  0.00000000E+00  0.00000000E+00
  0.00000000E+00  0.00000000E+00  0.00000000E+00
  0.00000000E+00  0.00000000E+00  0.00000000E+00
  0.00000000E+00  0.00000000E+00  0.00000000E+00
  0.00000000E+00  0.00000000E+00  0.00000000E+00
  0.00000000E+00  0.00000000E+00  0.00000000E+00
  0.00000000E+00  0.00000000E+00  0.00000000E+00
  0.00000000E+00  0.00000000E+00  0.00000000E+00
  0.00000000E+00  0.00000000E+00  0.00000000E+00
  0.00000000E+00  0.00000000E+00  0.00000000E+00
  0.00000000E+00  0.00000000E+00  0.00000000E+00
  0.00000000E+00  0.00000000E+00  0.00000000E+00
  0.00000000E+00  0.00000000E+00  0.00000000E+00
  0.00000000E+00  0.00000000E+00  0.00000000E+00
  0.00000000E+00  0.00000000E+00  0.00000000E+00
  0.00000000E+00  0.00000000E+00  0.00000000E+00
  0.00000000E+00  0.00000000E+00  0.00000000E+00
  0.00000000E+00  0.00000000E+00  0.00000000E+00
  0.00000000E+00  0.00000000E+00  0.00000000E+00
  0.00000000E+00  0.00000000E+00  0.00000000E+00
  0.00000000E+00  0.00000000E+00  0.00000000E+00
  0.00000000E+00  0.00000000E+00  0.00000000E+00
  0.00000000E+00  0.00000000E+00  0.00000000E+00
  0.00000000E+00  0.00000000E+00  0.00000000E+00
  0.00000000E+00  0.00000000E+00  0.00000000E+00
  0.00000000E+00  0.00000000E+00  0.00000000E+00
  0.00000000E+00  0.00000000E+00  0.00000000E+00
  0.00000000E+00  0.00000000E+00  0.00000000E+00
  0.00000000E+00  0.00000000E+00  0.00000000E+00
  0.00000000E+00  0.00000000E+00  0.00000000E+00
  0.00000000E+00  0.00000000E+00  0.00000000E+00
  0.00000000E+00  0.00000000E+00  0.00000000E+00
  0.00000000E+00  0.00000000E+00  0.00000000E+00
  0.00000000E+00  0.00000000E+00  0.00000000E+00
  0.00000000E+00  0.00000000E+00  0.00000000E+00
  0.00000000E+00  0.00000000E+00  0.00000000E+00
  0.00000000E+00  0.00000000E+00  0.00000000E+00
  0.00000000E+00  0.00000000E+00  0.00000000E+00
  0.00000000E+00  0.00000000E+00  0.00000000E+00
  0.00000000E+00  0.00000000E+00  0.00000000E+00
  0.00000000E+00  0.00000000E+00  0.00000000E+00
  0.00000000E+00  0.00000000E+00  0.00000000E+00
  0.00000000E+00  0.00000000E+00  0.00000000E+00
  0.00000000E+00  0.00000000E+00  0.00000000E+00
  0.00000000E+00  0.00000000E+00  0.00000000E+00
  0.00000000E+00  0.00000000E+00  0.00000000E+00
  0.00000000E+00  0.00000000E+00  0.00000000E+00
  0.00000000E+00  0.00000000E+00  0.00000000E+00
  0.00000000E+00  0.00000000E+00  0.00000000E+00
  0.00000000E+00  0.00000000E+00  0.00000000E+00
  0.00000000E+00  0.00000000E+00  0.00000000E+00
  0.00000000E+00  0.00000000E+00  0.00000000E+00
  0.00000000E+00  0.00000000E+00  0.00000000E+00
  0.00000000E+00  0.00000000E+00  0.00000000E+00
  0.00000000E+00  0.00000000E+00  0.00000000E+00
  0.00000000E+00  0.00000000E+00  0.00000000E+00
  0.00000000E+00  0.00000000E+00  0.00000000E+00
  0.00000000E+00  0.00000000E+00  0.00000000E+00
  0.00000000E+00  0.00000000E+00  0.00000000E+00
  0.00000000E+00  0.00000000E+00  0.00000000E+00
  0.00000000E+00  0.00000000E+00  0.00000000E+00
  0.00000000E+00  0.00000000E+00  0.00000000E+00
  0.00000000E+00  0.00000000E+00  0.00000000E+00
  0.00000000E+00  0.00000000E+00  0.00000000E+00
  0.00000000E+00  0.00000000E+00  0.00000000E+00
  0.00000000E+00  0.00000000E+00  0.00000000E+00
  0.00000000E+00  0.00000000E+00  0.00000000E+00
  0.00000000E+00  0.00000000E+00  0.00000000E+00
  0.00000000E+00  0.00000000E+00  0.00000000E+00
  0.00000000E+00  0.00000000E+00  0.00000000E+00
  0.00000000E+00  0.00000000E+00  0.00000000E+00
  0.00000000E+00  0.00000000E+00  0.00000000E+00
