Cd1 C126 O1                             
   1.00000000000000     
    19.8334920763727460    0.0004102919703129   -0.0024583892844697
    -9.9164108643133950   17.0871729950766316   -0.0058575659201176
    -0.0037038542186526   -0.0124026636371316   29.6911859403158651
   Cd   C    O 
     1   126     1
Direct
  0.4376249784007143  0.5000779281888639  0.4307651859558450
  0.0416000489690926  0.0836039927783992  0.3995685870393458
  0.0405326860323132  0.2077790457791802  0.3992189045412167
  0.0400641225640945  0.3326281295835108  0.3984745269558427
  0.0402611214369659  0.4582257926406010  0.3982156497322196
  0.0412184676769235  0.5837429436041888  0.3985816490902446
  0.0420576707148444  0.7091033927635084  0.3989750656000390
  0.0423796763336035  0.8343748621385373  0.3992853597450076
  0.0423345900613640  0.9592920927749478  0.3994861686102356
  0.1673218890774662  0.0847169106878032  0.4002369329008760
  0.1662625864869065  0.2087667257905426  0.4008973297201571
  0.1645583943577555  0.3327644314319960  0.4003196416779699
  0.1636323389918664  0.4581649555262325  0.3985568549471212
  0.1649039493651036  0.5837341749221713  0.3981659290083484
  0.1663253317828608  0.7091126107560523  0.3986428624771507
  0.1669644024110140  0.8343614758381057  0.3992398163733681
  0.1673210344338252  0.9596323059853653  0.3995800819352757
  0.2923894437813884  0.0847123935267197  0.4002326384919361
  0.2928094474493177  0.2106261430501392  0.4027762410895562
  0.2907936917868638  0.3347596264908198  0.4060106869345949
  0.2861515526649795  0.4577123832016917  0.4042360713117370
  0.2882533911109220  0.5841150372765929  0.4001625043714800
  0.2905843720045888  0.7090474225420784  0.3990433634254301
  0.2914252797509585  0.8340119379868827  0.3991208303568652
  0.2919535111657321  0.9592496041376543  0.3994860550432128
  0.4169840495653289  0.0835551421854240  0.3995907797470770
  0.4174846833965170  0.2087333942081716  0.4008987099176640
  0.4189746324621084  0.3347345592622658  0.4059364551491612
  0.4092661130476337  0.5843045679367049  0.4091942092025867
  0.4151184514480746  0.7080190449655642  0.4019890661965603
  0.4160650620048534  0.8331829372057730  0.3996876418775611
  0.4165669373371468  0.9583558361460940  0.3994666979934629
  0.5416354913244548  0.0826375935175790  0.3993762565703746
  0.5422090280653578  0.2077751361297699  0.3992298236232493
  0.5432027241456707  0.3327724276170926  0.4002699841241929
  0.5465421297900643  0.4577153467703592  0.4040207689411304
  0.5500644922630250  0.5843305670204493  0.4088498568415903
  0.5406847252955613  0.7063345868406441  0.4055873497579764
  0.5407632306985840  0.8319241639498578  0.4013025129250714
  0.5412144721175898  0.9573357123999169  0.3997096478535114
  0.6662191235765668  0.0822006884148275  0.3994768572901609
  0.6666866810828869  0.2074685730006842  0.3990213052988619
  0.6675348733704066  0.3326456457752266  0.3984688974133074
  0.6695352639372900  0.4581958994214095  0.3984993890035980
  0.6708671750922809  0.5841371190465942  0.4000162716854631
  0.6679552820653818  0.7080662499098096  0.4019206531553837
  0.6661781568603754  0.8319288993077069  0.4013020276487101
  0.6660208765555976  0.9570299061070952  0.4000255556795710
  0.7909660373952866  0.0822089846915098  0.3994605234815292
  0.7911338890075990  0.2073378065024011  0.3992061301497291
  0.7917564829152860  0.3327090263242957  0.3987403038200736
  0.7929364902225187  0.4582395808135979  0.3982159254720286
  0.7938189374110123  0.5837542753685540  0.3981551982020532
  0.7934798895698975  0.7090685099775504  0.3990206538533186
  0.7921726486313863  0.8332441585283311  0.3997167188409760
  0.7911493171599877  0.9573828573046146  0.3997241352118794
  0.9160152664164699  0.0826627119104184  0.3993753691631454
  0.9157066577014941  0.2074615200308861  0.3989809653968382
  0.9159133765178571  0.3327136123230189  0.3987212208451980
  0.9165687996861783  0.4581847760159769  0.3987026721264513
  0.9175068808655231  0.5837612971353717  0.3985873092596434
  0.9178039256158642  0.7091393987169902  0.3986778198646788
  0.9176067920225772  0.8340425446167766  0.3991451129239584
  0.9168485696469066  0.9584114788499210  0.3994585633359959
  0.0838812638910513  0.0426710549493373  0.3996969683352354
  0.0828672796177221  0.1668237960398605  0.3997023771271792
  0.0815148373298710  0.2909538615089479  0.3990663352294785
  0.0811564520971445  0.4162569148229522  0.3981718232813650
  0.0820347830546323  0.5417742383971490  0.3982138534087060
  0.0832265977874524  0.6672882771490004  0.3987287701862709
  0.0838328535750626  0.7926825613129839  0.3992162066015374
  0.0840402236574765  0.9178140036746181  0.3994640358699779
  0.2089997115231202  0.0429873503385274  0.4000126819089104
  0.2088399322635213  0.1680982713888227  0.4013534139059414
  0.2070936223360226  0.2919936870700793  0.4020654873088179
  0.2041266677641107  0.4158790347505363  0.4001821356209697
  0.2054623441546386  0.5418120469567218  0.3985564592741150
  0.2074557937000251  0.6673705507121678  0.3984697926578777
  0.2082781060374309  0.7925421603087990  0.3989838468494897
  0.2087820344140984  0.9178031659875139  0.3994430425486403
  0.3337708051196824  0.0426345105392127  0.3997147788355224
  0.3342480070192796  0.1680886558815950  0.4013377285047821
  0.3343443567318816  0.2936898500690222  0.4057302522385224
  0.3249850656183355  0.4157486469609058  0.4093344172977578
  0.3284474699125982  0.5422925827104277  0.4041962877786471
  0.3318046840519518  0.6672307684327680  0.4002730023121729
  0.3327731461921788  0.7922178887530396  0.3992132004563768
  0.3333622411367415  0.9173419873358255  0.3993777494067274
  0.4584361187871044  0.0416016093499574  0.3994640992158454
  0.4589200638223579  0.1667773889403149  0.3997180748518400
  0.4598968901323711  0.2919616705162661  0.4020303246543346
  0.4657676016789711  0.4157140496990854  0.4091274051986134
  0.4560498996649435  0.6652547358821044  0.4058936358940310
  0.4575138398061191  0.7912497745864489  0.4008371745812738
  0.4580091572256605  0.9164018586810292  0.3995815630051115
  0.5830416004704402  0.0407234930436055  0.3994967980358803
  0.5835476708025584  0.1659695067601228  0.3991405677424643
  0.5844137587977289  0.2909507331046715  0.3990511110991896
  0.5867413051957581  0.4158894483713443  0.4000893499177597
  0.5888329544953504  0.5423050899549579  0.4039439272738586
  0.5842651050306451  0.6653086680702577  0.4057434879551537
  0.5822127120815785  0.7894008333741861  0.4027010854634058
  0.5826164509394000  0.9152952402583517  0.4002340055327762
  0.7076800383528882  0.0403816182471204  0.3996027830947386
  0.7079865694220221  0.1656360390992072  0.3992767786262413
  0.7086538794403905  0.2908864748620775  0.3986648573696319
  0.7100724141607357  0.4162782385166406  0.3981625184331714
  0.7113571823774587  0.5418400642536472  0.3984817063089501
  0.7104412921068217  0.6672472619458507  0.4001867051666889
  0.7087780300609027  0.7912900887178513  0.4008607384107704
  0.7076892336063629  0.9153119013180809  0.4002306651120995
  0.8326945809807148  0.0407581040017750  0.3995005368447385
  0.8325826997860382  0.1656535769124517  0.3992442943443836
  0.8329431580264745  0.2909134778721605  0.3989578603845775
  0.8337434013996985  0.4162596387716474  0.3985828678836684
  0.8347097286624059  0.5417849407069837  0.3982142833167118
  0.8349157892288813  0.6673849276471469  0.3984597819305907
  0.8344580834742353  0.7922465405813545  0.3992234574815770
  0.8334481873898042  0.9164631563060440  0.3995985203556531
  0.9582094929409054  0.0416552953024488  0.3994516734519607
  0.9573891853500319  0.1659902626062859  0.3991150463629493
  0.9571849191395103  0.2908865048510385  0.3986365188238880
  0.9574721514886825  0.4162653796481683  0.3985780336132281
  0.9584020305884403  0.5418262106472534  0.3987060851083350
  0.9590750851459343  0.6673110215458542  0.3987606266999768
  0.9592541785741912  0.7925558213337456  0.3990346269195338
  0.9590146370001874  0.9173706525432807  0.3993731858274056
  0.4416210482792066  0.5033139794665393  0.5028803135831750
 
  0.00000000E+00  0.00000000E+00  0.00000000E+00
  0.00000000E+00  0.00000000E+00  0.00000000E+00
  0.00000000E+00  0.00000000E+00  0.00000000E+00
  0.00000000E+00  0.00000000E+00  0.00000000E+00
  0.00000000E+00  0.00000000E+00  0.00000000E+00
  0.00000000E+00  0.00000000E+00  0.00000000E+00
  0.00000000E+00  0.00000000E+00  0.00000000E+00
  0.00000000E+00  0.00000000E+00  0.00000000E+00
  0.00000000E+00  0.00000000E+00  0.00000000E+00
  0.00000000E+00  0.00000000E+00  0.00000000E+00
  0.00000000E+00  0.00000000E+00  0.00000000E+00
  0.00000000E+00  0.00000000E+00  0.00000000E+00
  0.00000000E+00  0.00000000E+00  0.00000000E+00
  0.00000000E+00  0.00000000E+00  0.00000000E+00
  0.00000000E+00  0.00000000E+00  0.00000000E+00
  0.00000000E+00  0.00000000E+00  0.00000000E+00
  0.00000000E+00  0.00000000E+00  0.00000000E+00
  0.00000000E+00  0.00000000E+00  0.00000000E+00
  0.00000000E+00  0.00000000E+00  0.00000000E+00
  0.00000000E+00  0.00000000E+00  0.00000000E+00
  0.00000000E+00  0.00000000E+00  0.00000000E+00
  0.00000000E+00  0.00000000E+00  0.00000000E+00
  0.00000000E+00  0.00000000E+00  0.00000000E+00
  0.00000000E+00  0.00000000E+00  0.00000000E+00
  0.00000000E+00  0.00000000E+00  0.00000000E+00
  0.00000000E+00  0.00000000E+00  0.00000000E+00
  0.00000000E+00  0.00000000E+00  0.00000000E+00
  0.00000000E+00  0.00000000E+00  0.00000000E+00
  0.00000000E+00  0.00000000E+00  0.00000000E+00
  0.00000000E+00  0.00000000E+00  0.00000000E+00
  0.00000000E+00  0.00000000E+00  0.00000000E+00
  0.00000000E+00  0.00000000E+00  0.00000000E+00
  0.00000000E+00  0.00000000E+00  0.00000000E+00
  0.00000000E+00  0.00000000E+00  0.00000000E+00
  0.00000000E+00  0.00000000E+00  0.00000000E+00
  0.00000000E+00  0.00000000E+00  0.00000000E+00
  0.00000000E+00  0.00000000E+00  0.00000000E+00
  0.00000000E+00  0.00000000E+00  0.00000000E+00
  0.00000000E+00  0.00000000E+00  0.00000000E+00
  0.00000000E+00  0.00000000E+00  0.00000000E+00
  0.00000000E+00  0.00000000E+00  0.00000000E+00
  0.00000000E+00  0.00000000E+00  0.00000000E+00
  0.00000000E+00  0.00000000E+00  0.00000000E+00
  0.00000000E+00  0.00000000E+00  0.00000000E+00
  0.00000000E+00  0.00000000E+00  0.00000000E+00
  0.00000000E+00  0.00000000E+00  0.00000000E+00
  0.00000000E+00  0.00000000E+00  0.00000000E+00
  0.00000000E+00  0.00000000E+00  0.00000000E+00
  0.00000000E+00  0.00000000E+00  0.00000000E+00
  0.00000000E+00  0.00000000E+00  0.00000000E+00
  0.00000000E+00  0.00000000E+00  0.00000000E+00
  0.00000000E+00  0.00000000E+00  0.00000000E+00
  0.00000000E+00  0.00000000E+00  0.00000000E+00
  0.00000000E+00  0.00000000E+00  0.00000000E+00
  0.00000000E+00  0.00000000E+00  0.00000000E+00
  0.00000000E+00  0.00000000E+00  0.00000000E+00
  0.00000000E+00  0.00000000E+00  0.00000000E+00
  0.00000000E+00  0.00000000E+00  0.00000000E+00
  0.00000000E+00  0.00000000E+00  0.00000000E+00
  0.00000000E+00  0.00000000E+00  0.00000000E+00
  0.00000000E+00  0.00000000E+00  0.00000000E+00
  0.00000000E+00  0.00000000E+00  0.00000000E+00
  0.00000000E+00  0.00000000E+00  0.00000000E+00
  0.00000000E+00  0.00000000E+00  0.00000000E+00
  0.00000000E+00  0.00000000E+00  0.00000000E+00
  0.00000000E+00  0.00000000E+00  0.00000000E+00
  0.00000000E+00  0.00000000E+00  0.00000000E+00
  0.00000000E+00  0.00000000E+00  0.00000000E+00
  0.00000000E+00  0.00000000E+00  0.00000000E+00
  0.00000000E+00  0.00000000E+00  0.00000000E+00
  0.00000000E+00  0.00000000E+00  0.00000000E+00
  0.00000000E+00  0.00000000E+00  0.00000000E+00
  0.00000000E+00  0.00000000E+00  0.00000000E+00
  0.00000000E+00  0.00000000E+00  0.00000000E+00
  0.00000000E+00  0.00000000E+00  0.00000000E+00
  0.00000000E+00  0.00000000E+00  0.00000000E+00
  0.00000000E+00  0.00000000E+00  0.00000000E+00
  0.00000000E+00  0.00000000E+00  0.00000000E+00
  0.00000000E+00  0.00000000E+00  0.00000000E+00
  0.00000000E+00  0.00000000E+00  0.00000000E+00
  0.00000000E+00  0.00000000E+00  0.00000000E+00
  0.00000000E+00  0.00000000E+00  0.00000000E+00
  0.00000000E+00  0.00000000E+00  0.00000000E+00
  0.00000000E+00  0.00000000E+00  0.00000000E+00
  0.00000000E+00  0.00000000E+00  0.00000000E+00
  0.00000000E+00  0.00000000E+00  0.00000000E+00
  0.00000000E+00  0.00000000E+00  0.00000000E+00
  0.00000000E+00  0.00000000E+00  0.00000000E+00
  0.00000000E+00  0.00000000E+00  0.00000000E+00
  0.00000000E+00  0.00000000E+00  0.00000000E+00
  0.00000000E+00  0.00000000E+00  0.00000000E+00
  0.00000000E+00  0.00000000E+00  0.00000000E+00
  0.00000000E+00  0.00000000E+00  0.00000000E+00
  0.00000000E+00  0.00000000E+00  0.00000000E+00
  0.00000000E+00  0.00000000E+00  0.00000000E+00
  0.00000000E+00  0.00000000E+00  0.00000000E+00
  0.00000000E+00  0.00000000E+00  0.00000000E+00
  0.00000000E+00  0.00000000E+00  0.00000000E+00
  0.00000000E+00  0.00000000E+00  0.00000000E+00
  0.00000000E+00  0.00000000E+00  0.00000000E+00
  0.00000000E+00  0.00000000E+00  0.00000000E+00
  0.00000000E+00  0.00000000E+00  0.00000000E+00
  0.00000000E+00  0.00000000E+00  0.00000000E+00
  0.00000000E+00  0.00000000E+00  0.00000000E+00
  0.00000000E+00  0.00000000E+00  0.00000000E+00
  0.00000000E+00  0.00000000E+00  0.00000000E+00
  0.00000000E+00  0.00000000E+00  0.00000000E+00
  0.00000000E+00  0.00000000E+00  0.00000000E+00
  0.00000000E+00  0.00000000E+00  0.00000000E+00
  0.00000000E+00  0.00000000E+00  0.00000000E+00
  0.00000000E+00  0.00000000E+00  0.00000000E+00
  0.00000000E+00  0.00000000E+00  0.00000000E+00
  0.00000000E+00  0.00000000E+00  0.00000000E+00
  0.00000000E+00  0.00000000E+00  0.00000000E+00
  0.00000000E+00  0.00000000E+00  0.00000000E+00
  0.00000000E+00  0.00000000E+00  0.00000000E+00
  0.00000000E+00  0.00000000E+00  0.00000000E+00
  0.00000000E+00  0.00000000E+00  0.00000000E+00
  0.00000000E+00  0.00000000E+00  0.00000000E+00
  0.00000000E+00  0.00000000E+00  0.00000000E+00
  0.00000000E+00  0.00000000E+00  0.00000000E+00
  0.00000000E+00  0.00000000E+00  0.00000000E+00
  0.00000000E+00  0.00000000E+00  0.00000000E+00
  0.00000000E+00  0.00000000E+00  0.00000000E+00
  0.00000000E+00  0.00000000E+00  0.00000000E+00
  0.00000000E+00  0.00000000E+00  0.00000000E+00
  0.00000000E+00  0.00000000E+00  0.00000000E+00
  0.00000000E+00  0.00000000E+00  0.00000000E+00
