H1 W1 C125 N1 O1                        
   1.00000000000000     
    19.8088390627288717   -0.0106280330314993    0.0623252474876033
    -9.9123915908040612   17.0591353205006939   -0.2486645110595662
     0.0937785610962696   -0.3796305821302526   29.7917702831925659
   H    W    C    N    O 
     1     1   125     1     1
Direct
  0.4891100347870586  0.5290820005569682  0.5158507348163153
  0.4393667228908609  0.5035465503562813  0.4328991792153865
  0.0421037670380918  0.0842555928451824  0.3993153019066674
  0.0415441416881891  0.2086478150781156  0.3995263191504644
  0.0410025829724877  0.3332937448929165  0.3999615228086584
  0.0408746473458124  0.4585230906598445  0.3999075690009424
  0.0414270907560787  0.5838418938249563  0.3995962453622711
  0.0418907288650842  0.7090887591273000  0.3993991962953613
  0.0421278718427732  0.8343320498296455  0.3993323272244187
  0.0421944129417272  0.9594106334967487  0.3992826697838757
  0.1675824595158218  0.0851861423731346  0.3997918127528783
  0.1676830303826323  0.2103508968400327  0.4000330607507931
  0.1663043936611001  0.3343550014239730  0.4008113691285614
  0.1647720817550248  0.4588572176406758  0.4011849934821932
  0.1654372858634036  0.5839406573257977  0.4003030930105702
  0.1663783472450928  0.7091220687374987  0.3996418203260089
  0.1669283380545693  0.8343761453778645  0.3994568342150986
  0.1672596117922896  0.9597529881352045  0.3995504476757546
  0.2924201543736181  0.0850910539253628  0.3998130848129438
  0.2932571086198529  0.2115000521565025  0.4009659213149022
  0.2936948830153743  0.3377016911199228  0.4023312125486330
  0.2890097845413184  0.4597625544264078  0.4033782103568327
  0.2891549161961582  0.5845015577390560  0.4017666886740982
  0.2908884079859412  0.7091703357088815  0.4000225794950397
  0.2916483147153868  0.8341578738789013  0.3993327460681811
  0.2919506986646112  0.9594062289290242  0.3993755831538047
  0.4170175248783951  0.0840210922075501  0.3992911588757531
  0.4175187982642016  0.2097954671892528  0.3999425190183247
  0.4190427172922340  0.3369317453363703  0.4028822562205702
  0.4150858084146899  0.7070238677477594  0.4003913891582657
  0.4162500488435918  0.8329194551194282  0.3992425310384488
  0.4167062855183603  0.9584690395978775  0.3991013371303019
  0.5416647158664923  0.0828937988495986  0.3991649094528562
  0.5421091271637932  0.2081660816096676  0.3994520114666313
  0.5429387407450501  0.3332820896876821  0.4007717615315506
  0.5457549081317453  0.4578700880867096  0.4033271766062048
  0.5435609434415608  0.5799796524108100  0.4031402647600946
  0.5385841303261502  0.7041177097792697  0.4009297393946274
  0.5406712176495690  0.8315527240661511  0.3995157804286689
  0.5413671405665453  0.9574663217531171  0.3990994989372080
  0.6663866796868487  0.0824877406292103  0.3992636925321067
  0.6667467575980724  0.2077575206293042  0.3994215866070169
  0.6673863099341004  0.3329174845367392  0.3998041177754610
  0.6691570737600815  0.4583437359312763  0.4005122975930004
  0.6697542614330163  0.5836374897858492  0.4003948483614241
  0.6657554159496945  0.7065414675069425  0.3990125093431475
  0.6649856870784224  0.8311447296250480  0.3990672242839097
  0.6659379919219475  0.9570654116091252  0.3991606676612934
  0.7911993419244919  0.0825296431679321  0.3992595475758533
  0.7914678804446565  0.2077410627629162  0.3993941560370418
  0.7919017579327294  0.3330064466990840  0.3995369427688970
  0.7927639828573080  0.4583745208067430  0.3995431177970380
  0.7933201491595266  0.5836584416321300  0.3994373736627621
  0.7924887563947893  0.7087219201380043  0.3988191615368191
  0.7910781505507886  0.8326418267286726  0.3985108315588272
  0.7908037657769089  0.9572720992366223  0.3988460779623675
  0.9163400411134219  0.0830427474662970  0.3991081145627465
  0.9163092877514496  0.2079539441094065  0.3994415912656016
  0.9163750891084705  0.3330803810661093  0.3996042488606106
  0.9167553930577658  0.4583657649142184  0.3994932198695538
  0.9173500437893087  0.5837822088250523  0.3993409580950053
  0.9173105692648275  0.7089953129285098  0.3991421028880431
  0.9170471941445391  0.8338874329827375  0.3988991022031030
  0.9165902733728469  0.9584337580796232  0.3989253281078855
  0.0840790179663707  0.0429894081716005  0.3994230292453658
  0.0839521296919076  0.1678279203069767  0.3995404059533881
  0.0829208985718842  0.2920172132035937  0.4000141883908460
  0.0820564364810009  0.4168123955895798  0.4002726899350806
  0.0824987430135143  0.5420375050053341  0.3999240796782320
  0.0832104328201927  0.6673495334336317  0.3995445341279926
  0.0836581289585396  0.7926281135491756  0.3994109032911906
  0.0838580525562853  0.9178411260517840  0.3994089224284816
  0.2090207900371699  0.0432512792230512  0.3997660482769273
  0.2094839902202834  0.1689035393500057  0.4002552757442260
  0.2095529553571375  0.2942087337981620  0.4006762617342848
  0.2062531217141730  0.4176286220379007  0.4018620625466463
  0.2061892392033651  0.5421560182285449  0.4011725726023289
  0.2076078859505702  0.6674593046860090  0.3999959703292760
  0.2083755134565356  0.7926391422870772  0.3994798277972085
  0.2087279016666008  0.9178756760298513  0.3994859661427185
  0.3337292321744935  0.0429200186338111  0.3994489872621184
  0.3343054496803619  0.1687279625823116  0.4002552652886646
  0.3351934202842964  0.2952058705165974  0.4024001631243796
  0.3329441798739879  0.4213708301192028  0.4050230321877547
  0.3300641961730057  0.5438297547658700  0.4032152422541813
  0.3319087665964879  0.6674955644033413  0.4007785811606222
  0.3330829148638890  0.7923642075362523  0.3994340558203522
  0.3334604913872727  0.9174989193558839  0.3992212856311510
  0.4584636673401141  0.0419065694651879  0.3991523486825899
  0.4588089940022402  0.1674587747101021  0.3994356565838625
  0.4596387830795566  0.2934833471411433  0.4007547518583470
  0.4636847248446037  0.4202191732284446  0.4064617876328353
  0.4548676587792574  0.6632407025687086  0.4018124220045924
  0.4575420541645262  0.7906126350071804  0.3995170116834367
  0.4581094914258899  0.9163850565238280  0.3990771992859896
  0.5831435026329855  0.0409749927503278  0.3991597420642310
  0.5835034434881362  0.1662967481732523  0.3993022796670022
  0.5841622701432978  0.2913772909036647  0.3999277743936761
  0.5862724121199941  0.4163810578600341  0.4015321105199862
  0.5878186907400595  0.5419407158123851  0.4019056055438746
  0.5813731375194133  0.6627249304166919  0.4005910943106938
  0.5810610800956134  0.7884399271012802  0.3997828023463675
  0.5826844174922911  0.9153364444966963  0.3992036259157573
  0.7078461363198909  0.0406628865170400  0.3992414443298541
  0.7082306077351430  0.1660178967999254  0.3993434572645652
  0.7086731369626499  0.2912308968333256  0.3995714284644835
  0.7098617639967346  0.4165252660952573  0.3998647126492332
  0.7108174084738347  0.5417765280267526  0.4002048481342757
  0.7092563546901661  0.6667132944983366  0.3991968952483280
  0.7073244749633829  0.7901487383120542  0.3986551509028960
  0.7071500091784214  0.9149524561758213  0.3989600545074112
  0.8328018965890401  0.0409162697329205  0.3990712196305367
  0.8329981478565603  0.1660647451859840  0.3993626472516372
  0.8332521673778004  0.2912917295601749  0.3994840642990787
  0.8337981096870297  0.4165104606430218  0.3995119881650504
  0.8344435299535182  0.5418789299317901  0.3994027634217687
  0.8342922753225662  0.6672566433812351  0.3990814425991900
  0.8336404432581290  0.7919117764298316  0.3986099677849470
  0.8329267049724267  0.9161907936573920  0.3987147616234884
  0.9584655221481959  0.0419637354884473  0.3990929926082100
  0.9581238375230408  0.1665602752635952  0.3993069036598533
  0.9578766477049140  0.2914314934564090  0.3996418471574643
  0.9579235074634213  0.4165933442894469  0.3996395125636697
  0.9584746711254980  0.5419610002792812  0.3994364202823926
  0.9588079836606703  0.6672972360219049  0.3993045765272861
  0.9588486402999564  0.7924870175455646  0.3991416967247983
  0.9587173041519571  0.9173360329915332  0.3990308980099246
  0.4106255925488669  0.5819100237656050  0.4049167588348001
  0.4429231308501207  0.5052016824477585  0.4966233076484682
 
  0.00000000E+00  0.00000000E+00  0.00000000E+00
  0.00000000E+00  0.00000000E+00  0.00000000E+00
  0.00000000E+00  0.00000000E+00  0.00000000E+00
  0.00000000E+00  0.00000000E+00  0.00000000E+00
  0.00000000E+00  0.00000000E+00  0.00000000E+00
  0.00000000E+00  0.00000000E+00  0.00000000E+00
  0.00000000E+00  0.00000000E+00  0.00000000E+00
  0.00000000E+00  0.00000000E+00  0.00000000E+00
  0.00000000E+00  0.00000000E+00  0.00000000E+00
  0.00000000E+00  0.00000000E+00  0.00000000E+00
  0.00000000E+00  0.00000000E+00  0.00000000E+00
  0.00000000E+00  0.00000000E+00  0.00000000E+00
  0.00000000E+00  0.00000000E+00  0.00000000E+00
  0.00000000E+00  0.00000000E+00  0.00000000E+00
  0.00000000E+00  0.00000000E+00  0.00000000E+00
  0.00000000E+00  0.00000000E+00  0.00000000E+00
  0.00000000E+00  0.00000000E+00  0.00000000E+00
  0.00000000E+00  0.00000000E+00  0.00000000E+00
  0.00000000E+00  0.00000000E+00  0.00000000E+00
  0.00000000E+00  0.00000000E+00  0.00000000E+00
  0.00000000E+00  0.00000000E+00  0.00000000E+00
  0.00000000E+00  0.00000000E+00  0.00000000E+00
  0.00000000E+00  0.00000000E+00  0.00000000E+00
  0.00000000E+00  0.00000000E+00  0.00000000E+00
  0.00000000E+00  0.00000000E+00  0.00000000E+00
  0.00000000E+00  0.00000000E+00  0.00000000E+00
  0.00000000E+00  0.00000000E+00  0.00000000E+00
  0.00000000E+00  0.00000000E+00  0.00000000E+00
  0.00000000E+00  0.00000000E+00  0.00000000E+00
  0.00000000E+00  0.00000000E+00  0.00000000E+00
  0.00000000E+00  0.00000000E+00  0.00000000E+00
  0.00000000E+00  0.00000000E+00  0.00000000E+00
  0.00000000E+00  0.00000000E+00  0.00000000E+00
  0.00000000E+00  0.00000000E+00  0.00000000E+00
  0.00000000E+00  0.00000000E+00  0.00000000E+00
  0.00000000E+00  0.00000000E+00  0.00000000E+00
  0.00000000E+00  0.00000000E+00  0.00000000E+00
  0.00000000E+00  0.00000000E+00  0.00000000E+00
  0.00000000E+00  0.00000000E+00  0.00000000E+00
  0.00000000E+00  0.00000000E+00  0.00000000E+00
  0.00000000E+00  0.00000000E+00  0.00000000E+00
  0.00000000E+00  0.00000000E+00  0.00000000E+00
  0.00000000E+00  0.00000000E+00  0.00000000E+00
  0.00000000E+00  0.00000000E+00  0.00000000E+00
  0.00000000E+00  0.00000000E+00  0.00000000E+00
  0.00000000E+00  0.00000000E+00  0.00000000E+00
  0.00000000E+00  0.00000000E+00  0.00000000E+00
  0.00000000E+00  0.00000000E+00  0.00000000E+00
  0.00000000E+00  0.00000000E+00  0.00000000E+00
  0.00000000E+00  0.00000000E+00  0.00000000E+00
  0.00000000E+00  0.00000000E+00  0.00000000E+00
  0.00000000E+00  0.00000000E+00  0.00000000E+00
  0.00000000E+00  0.00000000E+00  0.00000000E+00
  0.00000000E+00  0.00000000E+00  0.00000000E+00
  0.00000000E+00  0.00000000E+00  0.00000000E+00
  0.00000000E+00  0.00000000E+00  0.00000000E+00
  0.00000000E+00  0.00000000E+00  0.00000000E+00
  0.00000000E+00  0.00000000E+00  0.00000000E+00
  0.00000000E+00  0.00000000E+00  0.00000000E+00
  0.00000000E+00  0.00000000E+00  0.00000000E+00
  0.00000000E+00  0.00000000E+00  0.00000000E+00
  0.00000000E+00  0.00000000E+00  0.00000000E+00
  0.00000000E+00  0.00000000E+00  0.00000000E+00
  0.00000000E+00  0.00000000E+00  0.00000000E+00
  0.00000000E+00  0.00000000E+00  0.00000000E+00
  0.00000000E+00  0.00000000E+00  0.00000000E+00
  0.00000000E+00  0.00000000E+00  0.00000000E+00
  0.00000000E+00  0.00000000E+00  0.00000000E+00
  0.00000000E+00  0.00000000E+00  0.00000000E+00
  0.00000000E+00  0.00000000E+00  0.00000000E+00
  0.00000000E+00  0.00000000E+00  0.00000000E+00
  0.00000000E+00  0.00000000E+00  0.00000000E+00
  0.00000000E+00  0.00000000E+00  0.00000000E+00
  0.00000000E+00  0.00000000E+00  0.00000000E+00
  0.00000000E+00  0.00000000E+00  0.00000000E+00
  0.00000000E+00  0.00000000E+00  0.00000000E+00
  0.00000000E+00  0.00000000E+00  0.00000000E+00
  0.00000000E+00  0.00000000E+00  0.00000000E+00
  0.00000000E+00  0.00000000E+00  0.00000000E+00
  0.00000000E+00  0.00000000E+00  0.00000000E+00
  0.00000000E+00  0.00000000E+00  0.00000000E+00
  0.00000000E+00  0.00000000E+00  0.00000000E+00
  0.00000000E+00  0.00000000E+00  0.00000000E+00
  0.00000000E+00  0.00000000E+00  0.00000000E+00
  0.00000000E+00  0.00000000E+00  0.00000000E+00
  0.00000000E+00  0.00000000E+00  0.00000000E+00
  0.00000000E+00  0.00000000E+00  0.00000000E+00
  0.00000000E+00  0.00000000E+00  0.00000000E+00
  0.00000000E+00  0.00000000E+00  0.00000000E+00
  0.00000000E+00  0.00000000E+00  0.00000000E+00
  0.00000000E+00  0.00000000E+00  0.00000000E+00
  0.00000000E+00  0.00000000E+00  0.00000000E+00
  0.00000000E+00  0.00000000E+00  0.00000000E+00
  0.00000000E+00  0.00000000E+00  0.00000000E+00
  0.00000000E+00  0.00000000E+00  0.00000000E+00
  0.00000000E+00  0.00000000E+00  0.00000000E+00
  0.00000000E+00  0.00000000E+00  0.00000000E+00
  0.00000000E+00  0.00000000E+00  0.00000000E+00
  0.00000000E+00  0.00000000E+00  0.00000000E+00
  0.00000000E+00  0.00000000E+00  0.00000000E+00
  0.00000000E+00  0.00000000E+00  0.00000000E+00
  0.00000000E+00  0.00000000E+00  0.00000000E+00
  0.00000000E+00  0.00000000E+00  0.00000000E+00
  0.00000000E+00  0.00000000E+00  0.00000000E+00
  0.00000000E+00  0.00000000E+00  0.00000000E+00
  0.00000000E+00  0.00000000E+00  0.00000000E+00
  0.00000000E+00  0.00000000E+00  0.00000000E+00
  0.00000000E+00  0.00000000E+00  0.00000000E+00
  0.00000000E+00  0.00000000E+00  0.00000000E+00
  0.00000000E+00  0.00000000E+00  0.00000000E+00
  0.00000000E+00  0.00000000E+00  0.00000000E+00
  0.00000000E+00  0.00000000E+00  0.00000000E+00
  0.00000000E+00  0.00000000E+00  0.00000000E+00
  0.00000000E+00  0.00000000E+00  0.00000000E+00
  0.00000000E+00  0.00000000E+00  0.00000000E+00
  0.00000000E+00  0.00000000E+00  0.00000000E+00
  0.00000000E+00  0.00000000E+00  0.00000000E+00
  0.00000000E+00  0.00000000E+00  0.00000000E+00
  0.00000000E+00  0.00000000E+00  0.00000000E+00
  0.00000000E+00  0.00000000E+00  0.00000000E+00
  0.00000000E+00  0.00000000E+00  0.00000000E+00
  0.00000000E+00  0.00000000E+00  0.00000000E+00
  0.00000000E+00  0.00000000E+00  0.00000000E+00
  0.00000000E+00  0.00000000E+00  0.00000000E+00
  0.00000000E+00  0.00000000E+00  0.00000000E+00
  0.00000000E+00  0.00000000E+00  0.00000000E+00
  0.00000000E+00  0.00000000E+00  0.00000000E+00
  0.00000000E+00  0.00000000E+00  0.00000000E+00
  0.00000000E+00  0.00000000E+00  0.00000000E+00
