H1 Au1 C123 N3 O1                       
   1.00000000000000     
    19.8490570774062043    0.0013160721095185   -0.1351091265581232
    -9.9230437332311592   17.0338796197906674    0.0708924964466330
    -0.2018605107263408    0.0056055856181593   29.7613013507475550
   H    Au   C    N    O 
     1     1   123     3     1
Direct
  0.4785201965941723  0.5501473033254805  0.4978752193211044
  0.4375343270193982  0.4988409384970856  0.4083019287867481
  0.0418391639517640  0.0839907590797685  0.4003273938076386
  0.0406739471774416  0.2079234612770040  0.4005562394315718
  0.0398861834237476  0.3327082071371405  0.4000379504461054
  0.0400890034494639  0.4581502882218445  0.3989819228259461
  0.0412449368020056  0.5838719072096530  0.3982687759809269
  0.0423157114364877  0.7094564539486363  0.3982962406780468
  0.0426738512770026  0.8347262535505388  0.3989501484039927
  0.0425841867785809  0.9597246185414761  0.3997725276103732
  0.1679351889950258  0.0856533419052206  0.4011282932281966
  0.1670571390695292  0.2099864485909908  0.4022194520546550
  0.1644077506988697  0.3333821898583094  0.4023460407708663
  0.1632523391798006  0.4584311473577037  0.4014298519430407
  0.1644525351233605  0.5838386869189356  0.3999405990696945
  0.1662328740905550  0.7092730002170027  0.3989006808935081
  0.1671699307434405  0.8347662412548120  0.3987442567430317
  0.1676734107501487  0.9602928276268068  0.3997707430800289
  0.2928490016481943  0.0859990904587226  0.4011423370963276
  0.2935397810142345  0.2128622970136933  0.4030419710428048
  0.2916241390294604  0.3377211359582329  0.4041884433332517
  0.2858607712817249  0.4581184664369780  0.4039278296655957
  0.2870576545820129  0.5834124460677420  0.4026460599622520
  0.2901772746758331  0.7087522654719480  0.4007086787710625
  0.2915610396990455  0.8342111558014305  0.3993947947781036
  0.2922692120059273  0.9598647101609040  0.3996336234974178
  0.4172771802144797  0.0841684614617262  0.4003903972245579
  0.4181539133183664  0.2101961665723726  0.4021313689913208
  0.4204265315726024  0.3375977010876111  0.4043254536951427
  0.4141590022035783  0.7065360499872777  0.4028423031761934
  0.4159365215754196  0.8324560290321587  0.4006566400706666
  0.4167193190933934  0.9583321338230437  0.3996335941597203
  0.5416911922180081  0.0823864032302061  0.3997356553091713
  0.5425336231558124  0.2080818744628786  0.4007228699264161
  0.5441758982887561  0.3335773365041922  0.4024388894157967
  0.5493000485480626  0.4591124279800038  0.4042296168505232
  0.5381024233021452  0.7010136838861516  0.4041015797613158
  0.5403368709158907  0.8298658165977117  0.4020092219176127
  0.5410872740089882  0.9564319958288294  0.4001484472852547
  0.6661080795614830  0.0816031809765680  0.3993702959999755
  0.6667783052792267  0.2071324297740144  0.3994527818137167
  0.6680838620878339  0.3326092468857940  0.4003927109680715
  0.6710600148134257  0.4583698053528157  0.4018674059968291
  0.6724974874349074  0.5841502407963884  0.4031917494234876
  0.6671214657162946  0.7061161713094579  0.4031839547016882
  0.6646832903916083  0.8298345011769359  0.4021014497440719
  0.6655226058732483  0.9558891160997600  0.4004797419453294
  0.7906684166803410  0.0815546539072647  0.3993469854963193
  0.7910678655062033  0.2069333343447744  0.3987103012336922
  0.7919710360205685  0.3324636642601845  0.3987881645221171
  0.7936173114772398  0.4581557251134763  0.3994796700994795
  0.7948299838466365  0.5838516355071688  0.4006212266372793
  0.7940035173581720  0.7090325751456729  0.4012877824621947
  0.7914477671593483  0.8322964270032475  0.4010193535800221
  0.7904200465803640  0.9563668606152944  0.4002313860105585
  0.9158050409167777  0.0823047213941684  0.3996635818268362
  0.9155527231704533  0.2071260930726413  0.3992655422024036
  0.9158278432799460  0.3324777624782521  0.3985730754806150
  0.9168100853956200  0.4581498338124755  0.3981889603593327
  0.9179762087181035  0.5838855899961559  0.3986069602633019
  0.9182251413398094  0.7092849747335744  0.3994450682877123
  0.9177468697533501  0.8341890591700836  0.3998329971610736
  0.9166136795554966  0.9581618786390010  0.3998175782272545
  0.0843567446016385  0.0433282722551823  0.4003852897043037
  0.0833964862913803  0.1675120977886946  0.4010264397859138
  0.0816647452307664  0.2913159488854377  0.4009736750158860
  0.0808457194254448  0.4161687315033231  0.4000765720198687
  0.0818115395891399  0.5418091786489777  0.3989160308471872
  0.0832484424526490  0.6674929902653177  0.3983418658090362
  0.0840366722061579  0.7930152567785724  0.3985134662400249
  0.0843587720090430  0.9183214752423450  0.3994517851389907
  0.2094326745110553  0.0439066115383195  0.4007345554289764
  0.2097291928820842  0.1694907495538651  0.4022394621745062
  0.2079221712183337  0.2936072791679931  0.4031047301930866
  0.2042201598237738  0.4167267779349771  0.4027241174665807
  0.2045958572882187  0.5416287626957345  0.4013577904468374
  0.2070040412414445  0.6672981669896888  0.3998036298905540
  0.2083724971099701  0.7928621535650150  0.3989336124976828
  0.2090567324934318  0.9183651829469458  0.3993276614841078
  0.3340837180466240  0.0435576021405117  0.4003800016425961
  0.3347052537869712  0.1698345483169900  0.4022232599453696
  0.3355893592862773  0.2972701217440959  0.4041655422350211
  0.3275604522258887  0.5423504208949830  0.4039987695570820
  0.3308298045877452  0.6666543905474603  0.4021733040497797
  0.3327042673450504  0.7920473307970632  0.4001859785552777
  0.3335042709234284  0.9176607553240727  0.3994429400336113
  0.4585224768854146  0.0417734946147214  0.3998327869451529
  0.4592124995802387  0.1676537191752981  0.4010866043760971
  0.4607262068717605  0.2937514837251716  0.4029945732223046
  0.4677964432177922  0.4192849068064957  0.4051521136598581
  0.4530683002326610  0.6616964206638898  0.4041423648706813
  0.4570179911950060  0.7899070936991435  0.4018769322492182
  0.4579147961700007  0.9159542908269622  0.4000373949325461
  0.5828991491272885  0.0401264629932571  0.3996561508576025
  0.5836437149037574  0.1659047834313180  0.3999225770829503
  0.5849148560664242  0.2913128947217005  0.4011908841899650
  0.5886071142962286  0.4167597828462831  0.4029064620669113
  0.5915439581949072  0.5428335786287075  0.4043397029195375
  0.5831406107387767  0.6612016111868715  0.4043605102996879
  0.5807117448284551  0.7862086016485813  0.4029159972599560
  0.5822620341514524  0.9138594118263224  0.4008755760790680
  0.7073951272983631  0.0396207283676476  0.3996222052768032
  0.7079689619952970  0.1651995307884952  0.3990325179565750
  0.7089113406489959  0.2906806838290887  0.3994890173744193
  0.7110309656506587  0.4161543580773943  0.4005318147728404
  0.7127325426978889  0.5416798168346628  0.4019836217883418
  0.7113921247953431  0.6671139572665898  0.4026721110012912
  0.7077682524228791  0.7897047339890730  0.4021478461785765
  0.7067503620526658  0.9138775569407761  0.4009196363459244
  0.8323345796920643  0.0400881450791526  0.3996378729867410
  0.8324331940914930  0.1652113030786884  0.3989626807801001
  0.8329038209755596  0.2905042155502179  0.3985113117693783
  0.8341255433363409  0.4160680646836480  0.3986573099745548
  0.8354347567135164  0.5418196983104070  0.3994868349399459
  0.8355825559747968  0.6674137599401924  0.4004682665769093
  0.8345548443048498  0.7921777962550083  0.4006820179602126
  0.8330054293881484  0.9158110112509529  0.4002708568525444
  0.9582694216256693  0.0416440339589816  0.3998198379607449
  0.9573926680760267  0.1657998621111038  0.3997497225380332
  0.9570828087106475  0.2907307646336121  0.3991923439648766
  0.9574550024040662  0.4160976258548502  0.3983924710570588
  0.9585877266390911  0.5417954829139955  0.3981392392876157
  0.9594731787834405  0.6674905509356046  0.3986810815208566
  0.9595773473827388  0.7928597086074762  0.3993662039933197
  0.9591742409308811  0.9176052662903442  0.3997153053566183
  0.4071805243972226  0.5823708700551998  0.4048157860196507
  0.5500300317243810  0.5810556245558961  0.4050557677477079
  0.3261048294938969  0.4182146116879094  0.4042756797470958
  0.4305863499271940  0.5029016919253663  0.4883887616480829
 
  0.00000000E+00  0.00000000E+00  0.00000000E+00
  0.00000000E+00  0.00000000E+00  0.00000000E+00
  0.00000000E+00  0.00000000E+00  0.00000000E+00
  0.00000000E+00  0.00000000E+00  0.00000000E+00
  0.00000000E+00  0.00000000E+00  0.00000000E+00
  0.00000000E+00  0.00000000E+00  0.00000000E+00
  0.00000000E+00  0.00000000E+00  0.00000000E+00
  0.00000000E+00  0.00000000E+00  0.00000000E+00
  0.00000000E+00  0.00000000E+00  0.00000000E+00
  0.00000000E+00  0.00000000E+00  0.00000000E+00
  0.00000000E+00  0.00000000E+00  0.00000000E+00
  0.00000000E+00  0.00000000E+00  0.00000000E+00
  0.00000000E+00  0.00000000E+00  0.00000000E+00
  0.00000000E+00  0.00000000E+00  0.00000000E+00
  0.00000000E+00  0.00000000E+00  0.00000000E+00
  0.00000000E+00  0.00000000E+00  0.00000000E+00
  0.00000000E+00  0.00000000E+00  0.00000000E+00
  0.00000000E+00  0.00000000E+00  0.00000000E+00
  0.00000000E+00  0.00000000E+00  0.00000000E+00
  0.00000000E+00  0.00000000E+00  0.00000000E+00
  0.00000000E+00  0.00000000E+00  0.00000000E+00
  0.00000000E+00  0.00000000E+00  0.00000000E+00
  0.00000000E+00  0.00000000E+00  0.00000000E+00
  0.00000000E+00  0.00000000E+00  0.00000000E+00
  0.00000000E+00  0.00000000E+00  0.00000000E+00
  0.00000000E+00  0.00000000E+00  0.00000000E+00
  0.00000000E+00  0.00000000E+00  0.00000000E+00
  0.00000000E+00  0.00000000E+00  0.00000000E+00
  0.00000000E+00  0.00000000E+00  0.00000000E+00
  0.00000000E+00  0.00000000E+00  0.00000000E+00
  0.00000000E+00  0.00000000E+00  0.00000000E+00
  0.00000000E+00  0.00000000E+00  0.00000000E+00
  0.00000000E+00  0.00000000E+00  0.00000000E+00
  0.00000000E+00  0.00000000E+00  0.00000000E+00
  0.00000000E+00  0.00000000E+00  0.00000000E+00
  0.00000000E+00  0.00000000E+00  0.00000000E+00
  0.00000000E+00  0.00000000E+00  0.00000000E+00
  0.00000000E+00  0.00000000E+00  0.00000000E+00
  0.00000000E+00  0.00000000E+00  0.00000000E+00
  0.00000000E+00  0.00000000E+00  0.00000000E+00
  0.00000000E+00  0.00000000E+00  0.00000000E+00
  0.00000000E+00  0.00000000E+00  0.00000000E+00
  0.00000000E+00  0.00000000E+00  0.00000000E+00
  0.00000000E+00  0.00000000E+00  0.00000000E+00
  0.00000000E+00  0.00000000E+00  0.00000000E+00
  0.00000000E+00  0.00000000E+00  0.00000000E+00
  0.00000000E+00  0.00000000E+00  0.00000000E+00
  0.00000000E+00  0.00000000E+00  0.00000000E+00
  0.00000000E+00  0.00000000E+00  0.00000000E+00
  0.00000000E+00  0.00000000E+00  0.00000000E+00
  0.00000000E+00  0.00000000E+00  0.00000000E+00
  0.00000000E+00  0.00000000E+00  0.00000000E+00
  0.00000000E+00  0.00000000E+00  0.00000000E+00
  0.00000000E+00  0.00000000E+00  0.00000000E+00
  0.00000000E+00  0.00000000E+00  0.00000000E+00
  0.00000000E+00  0.00000000E+00  0.00000000E+00
  0.00000000E+00  0.00000000E+00  0.00000000E+00
  0.00000000E+00  0.00000000E+00  0.00000000E+00
  0.00000000E+00  0.00000000E+00  0.00000000E+00
  0.00000000E+00  0.00000000E+00  0.00000000E+00
  0.00000000E+00  0.00000000E+00  0.00000000E+00
  0.00000000E+00  0.00000000E+00  0.00000000E+00
  0.00000000E+00  0.00000000E+00  0.00000000E+00
  0.00000000E+00  0.00000000E+00  0.00000000E+00
  0.00000000E+00  0.00000000E+00  0.00000000E+00
  0.00000000E+00  0.00000000E+00  0.00000000E+00
  0.00000000E+00  0.00000000E+00  0.00000000E+00
  0.00000000E+00  0.00000000E+00  0.00000000E+00
  0.00000000E+00  0.00000000E+00  0.00000000E+00
  0.00000000E+00  0.00000000E+00  0.00000000E+00
  0.00000000E+00  0.00000000E+00  0.00000000E+00
  0.00000000E+00  0.00000000E+00  0.00000000E+00
  0.00000000E+00  0.00000000E+00  0.00000000E+00
  0.00000000E+00  0.00000000E+00  0.00000000E+00
  0.00000000E+00  0.00000000E+00  0.00000000E+00
  0.00000000E+00  0.00000000E+00  0.00000000E+00
  0.00000000E+00  0.00000000E+00  0.00000000E+00
  0.00000000E+00  0.00000000E+00  0.00000000E+00
  0.00000000E+00  0.00000000E+00  0.00000000E+00
  0.00000000E+00  0.00000000E+00  0.00000000E+00
  0.00000000E+00  0.00000000E+00  0.00000000E+00
  0.00000000E+00  0.00000000E+00  0.00000000E+00
  0.00000000E+00  0.00000000E+00  0.00000000E+00
  0.00000000E+00  0.00000000E+00  0.00000000E+00
  0.00000000E+00  0.00000000E+00  0.00000000E+00
  0.00000000E+00  0.00000000E+00  0.00000000E+00
  0.00000000E+00  0.00000000E+00  0.00000000E+00
  0.00000000E+00  0.00000000E+00  0.00000000E+00
  0.00000000E+00  0.00000000E+00  0.00000000E+00
  0.00000000E+00  0.00000000E+00  0.00000000E+00
  0.00000000E+00  0.00000000E+00  0.00000000E+00
  0.00000000E+00  0.00000000E+00  0.00000000E+00
  0.00000000E+00  0.00000000E+00  0.00000000E+00
  0.00000000E+00  0.00000000E+00  0.00000000E+00
  0.00000000E+00  0.00000000E+00  0.00000000E+00
  0.00000000E+00  0.00000000E+00  0.00000000E+00
  0.00000000E+00  0.00000000E+00  0.00000000E+00
  0.00000000E+00  0.00000000E+00  0.00000000E+00
  0.00000000E+00  0.00000000E+00  0.00000000E+00
  0.00000000E+00  0.00000000E+00  0.00000000E+00
  0.00000000E+00  0.00000000E+00  0.00000000E+00
  0.00000000E+00  0.00000000E+00  0.00000000E+00
  0.00000000E+00  0.00000000E+00  0.00000000E+00
  0.00000000E+00  0.00000000E+00  0.00000000E+00
  0.00000000E+00  0.00000000E+00  0.00000000E+00
  0.00000000E+00  0.00000000E+00  0.00000000E+00
  0.00000000E+00  0.00000000E+00  0.00000000E+00
  0.00000000E+00  0.00000000E+00  0.00000000E+00
  0.00000000E+00  0.00000000E+00  0.00000000E+00
  0.00000000E+00  0.00000000E+00  0.00000000E+00
  0.00000000E+00  0.00000000E+00  0.00000000E+00
  0.00000000E+00  0.00000000E+00  0.00000000E+00
  0.00000000E+00  0.00000000E+00  0.00000000E+00
  0.00000000E+00  0.00000000E+00  0.00000000E+00
  0.00000000E+00  0.00000000E+00  0.00000000E+00
  0.00000000E+00  0.00000000E+00  0.00000000E+00
  0.00000000E+00  0.00000000E+00  0.00000000E+00
  0.00000000E+00  0.00000000E+00  0.00000000E+00
  0.00000000E+00  0.00000000E+00  0.00000000E+00
  0.00000000E+00  0.00000000E+00  0.00000000E+00
  0.00000000E+00  0.00000000E+00  0.00000000E+00
  0.00000000E+00  0.00000000E+00  0.00000000E+00
  0.00000000E+00  0.00000000E+00  0.00000000E+00
  0.00000000E+00  0.00000000E+00  0.00000000E+00
  0.00000000E+00  0.00000000E+00  0.00000000E+00
  0.00000000E+00  0.00000000E+00  0.00000000E+00
  0.00000000E+00  0.00000000E+00  0.00000000E+00
  0.00000000E+00  0.00000000E+00  0.00000000E+00
  0.00000000E+00  0.00000000E+00  0.00000000E+00
