Nb1 C122 N4                             
   1.00000000000000     
    19.7887106224103526   -0.0000237726290920    0.0364987840568516
    -9.8943752914683483   17.0452650887260120   -0.0180007719397081
     0.0548398148253891    0.0004365333015006   29.8320153805594330
   Nb   C    N 
     1   122     4
Direct
  0.4491154371941213  0.4999984698531790  0.4285871211743745
  0.0422405470703122  0.0844111678524799  0.3997256193024677
  0.0413842921162380  0.2085318967357931  0.3997059715165912
  0.0405909061363242  0.3332143919077692  0.3988711833866853
  0.0405675061277322  0.4582679479370799  0.3981768985707452
  0.0412288010928938  0.5836228551251879  0.3988799415344498
  0.0418685383591912  0.7089570594631621  0.3997203384075502
  0.0420946980603894  0.8341494059506360  0.3998717068268285
  0.0423155048137269  0.9594437994790999  0.3997983243356112
  0.1677407514275712  0.0852789529333711  0.4001194290846397
  0.1679890425123061  0.2106425079679616  0.4004589562737175
  0.1655182507596973  0.3340048481996085  0.4009596431857582
  0.1646321578433544  0.4585475986100725  0.3983615157144065
  0.1653102206150660  0.5835909417733651  0.3981122583456624
  0.1662942872577673  0.7086913060369012  0.3992251376794609
  0.1668597033985296  0.8340374834877329  0.3999023335158260
  0.1671777255155268  0.9595723034471157  0.3999742337660668
  0.2922626930054045  0.0850580850796991  0.3996655379237256
  0.2933117818295625  0.2122181744887336  0.4004044336791111
  0.2931145835247191  0.3389396907264684  0.4051161002961464
  0.2879591472585713  0.4586558486200352  0.4048185849302637
  0.2889744849338884  0.5828481368706601  0.4005706409875305
  0.2907850320772686  0.7080246860742994  0.3996571197227864
  0.2915562148431380  0.8335193329520784  0.3996914660943452
  0.2918494913924346  0.9591007408056854  0.3998230003592180
  0.4168337585188814  0.0836372451870043  0.3995772558081856
  0.4171278418880681  0.2092034407592522  0.3990666505547216
  0.4191216336812383  0.3352237256675706  0.3985444981212968
  0.4150523303756214  0.7054460652510196  0.4020957691406739
  0.4160958652284832  0.8319233975066729  0.3998040185563009
  0.4165340767103826  0.9578384029940267  0.3996931380880202
  0.5414092935915127  0.0825740366991832  0.3996523964693467
  0.5419310052374740  0.2080998101660021  0.3994977347070123
  0.5431220457292555  0.3336634866723485  0.3997593779010825
  0.5439559563095768  0.4578915183081366  0.3995618587398014
  0.5385608893126350  0.7029948375750523  0.4015619230656464
  0.5405444610260682  0.8307065322908673  0.4004857553310414
  0.5411593262071419  0.9568613290479197  0.3998966598464611
  0.6661397981260900  0.0822069400969515  0.3998944526317413
  0.6665891576608504  0.2076466298098516  0.3998140099868610
  0.6672780406093364  0.3330506212413022  0.4004241507724531
  0.6684294252668682  0.4583410118762698  0.4020181650895183
  0.6690504154311530  0.5833820687963518  0.4015060627918820
  0.6665490257312134  0.7072906708449216  0.3983627206358542
  0.6650693392461797  0.8310274579128296  0.3994941040676743
  0.6657764351786406  0.9567906785222998  0.3999700843517512
  0.7910466784348308  0.0823887854072214  0.3999649690199161
  0.7911919938109715  0.2076076378721373  0.3998841874324442
  0.7916476977025787  0.3328847411631580  0.3999685102688926
  0.7924202407159386  0.4582841234490038  0.4006548482599917
  0.7929904998554718  0.5836512614657897  0.4011074100349276
  0.7923979308994252  0.7083773211154921  0.3998793462095586
  0.7914385452574039  0.8328948837867346  0.3993966980203573
  0.7907809674251466  0.9572328668821798  0.3996535440376609
  0.9163087063787730  0.0830298549246059  0.3997533127618824
  0.9159844158185088  0.2078143294998323  0.3996816854838569
  0.9160707784921588  0.3329489729745674  0.3992409566220858
  0.9164924436781569  0.4582952935565908  0.3994069201325652
  0.9170898600100300  0.5836104280722387  0.4000162933294975
  0.9173668087733846  0.7088926326380915  0.4000711383690741
  0.9170222124156289  0.8338411650099691  0.3996344555751731
  0.9168049361579336  0.9585639749023387  0.3996602518300995
  0.0842966434090492  0.0431374256561896  0.3998940336338893
  0.0841712742084571  0.1680759682534313  0.3998011839016364
  0.0827597634484556  0.2919746345925483  0.3996524113203750
  0.0817215107253867  0.4164091706601689  0.3981094788856219
  0.0823014348204948  0.5417324085743982  0.3981780291123426
  0.0831265042089362  0.6670532175173677  0.3992433623332541
  0.0835860687170466  0.7923934631556602  0.3998844138347363
  0.0839339964897078  0.9177932919223436  0.3998944840729817
  0.2089861466819965  0.0432082706617856  0.3999677460366010
  0.2098360933320009  0.1692911323996054  0.4004845941048093
  0.2096040197100159  0.2945530831167219  0.4020934138446417
  0.2061269000251640  0.4171527296872358  0.4005677553665714
  0.2060861934167708  0.5414526846727259  0.3983633055739573
  0.2073786174187996  0.6667861569670859  0.3988738613993076
  0.2081726154211024  0.7921869586154083  0.3996834863546020
  0.2086594361801095  0.9176113549187819  0.3999631637195294
  0.3335488238382883  0.0427668818520562  0.3996524299897543
  0.3340406216581236  0.1689704051651038  0.3994949077678921
  0.3355643734903141  0.2970034320368032  0.4015619030823998
  0.3293020000637887  0.5413430297902976  0.4048194653042379
  0.3315126453098408  0.6659953477695044  0.4009646404139683
  0.3328531981002233  0.7914691982600155  0.3997084658479265
  0.3332817222632413  0.9169718567273791  0.3997526713537627
  0.4582408683251898  0.0414356350533673  0.3996613463400925
  0.4585414648637371  0.1671027525349666  0.3993979934279385
  0.4592567578715240  0.2927079884145629  0.3983640595025716
  0.4541753743837630  0.6610598206359749  0.4051170529761898
  0.4573471564947879  0.7893586522078253  0.4004606206962847
  0.4578300257678682  0.9155899367883111  0.3997280283591576
  0.5828721226668870  0.0405560220459061  0.3997985903115683
  0.5831807157030278  0.1661569794020747  0.3996354664554605
  0.5840201671066539  0.2916223467149299  0.3998821772114374
  0.5856686563842987  0.4166191730708317  0.4015066328580318
  0.5860650910082111  0.5421070330882135  0.3995619751876265
  0.5838994294205541  0.6647755241124454  0.3985437254408018
  0.5810952026085835  0.7877818670579814  0.4004043264636851
  0.5824633033166260  0.9147213611814691  0.4001215361237175
  0.7076058123762696  0.0404281669760550  0.3999764666195318
  0.7079451169510667  0.1658495226714320  0.3998723856621098
  0.7084746892451251  0.2911055919493357  0.4000712002583024
  0.7093383482197128  0.4163501955316602  0.4011091056021006
  0.7100878336202193  0.5416570533746526  0.4020166520289667
  0.7094570291572263  0.6663339333570056  0.3997577339583821
  0.7079264901755901  0.7907978590215313  0.3990648148743396
  0.7072064016333278  0.9149421279033443  0.3996667492965661
  0.8327503977282869  0.0408996168983898  0.3998249869751858
  0.8328219968928139  0.1659621453728659  0.3999021731204719
  0.8329119431620414  0.2910414132603308  0.3997191321538376
  0.8334793491722342  0.4163890308816761  0.4000144098005819
  0.8341366367402857  0.5417163749502939  0.4006554616785311
  0.8342292802982391  0.6669496717873561  0.4004228300976261
  0.8338319999244280  0.7919022555912911  0.3994956930971447
  0.8331982307529143  0.9163657388373194  0.3995764260022258
  0.9586953813612613  0.0421613901280860  0.3996915211290941
  0.9580372846405635  0.1664794300170405  0.3996913960546098
  0.9576040686850935  0.2913074809794471  0.3992230211975066
  0.9576075495509224  0.4163758225963521  0.3988780066112736
  0.9581998711630436  0.5417050757265234  0.3994080115901282
  0.9587662062613403  0.6671177643224258  0.3999691763965699
  0.9589456225763303  0.7923556689872588  0.3998130591196466
  0.9588357001400035  0.9174268383549501  0.3996522513632602
  0.4097883989030393  0.5794718777555623  0.4116794995727091
  0.5463072268243760  0.5839454009241195  0.3987623011831975
  0.3303158358383158  0.4205269028441018  0.4116786030653563
  0.4623617230881346  0.4160556413941362  0.3987623822220678
 
  0.00000000E+00  0.00000000E+00  0.00000000E+00
  0.00000000E+00  0.00000000E+00  0.00000000E+00
  0.00000000E+00  0.00000000E+00  0.00000000E+00
  0.00000000E+00  0.00000000E+00  0.00000000E+00
  0.00000000E+00  0.00000000E+00  0.00000000E+00
  0.00000000E+00  0.00000000E+00  0.00000000E+00
  0.00000000E+00  0.00000000E+00  0.00000000E+00
  0.00000000E+00  0.00000000E+00  0.00000000E+00
  0.00000000E+00  0.00000000E+00  0.00000000E+00
  0.00000000E+00  0.00000000E+00  0.00000000E+00
  0.00000000E+00  0.00000000E+00  0.00000000E+00
  0.00000000E+00  0.00000000E+00  0.00000000E+00
  0.00000000E+00  0.00000000E+00  0.00000000E+00
  0.00000000E+00  0.00000000E+00  0.00000000E+00
  0.00000000E+00  0.00000000E+00  0.00000000E+00
  0.00000000E+00  0.00000000E+00  0.00000000E+00
  0.00000000E+00  0.00000000E+00  0.00000000E+00
  0.00000000E+00  0.00000000E+00  0.00000000E+00
  0.00000000E+00  0.00000000E+00  0.00000000E+00
  0.00000000E+00  0.00000000E+00  0.00000000E+00
  0.00000000E+00  0.00000000E+00  0.00000000E+00
  0.00000000E+00  0.00000000E+00  0.00000000E+00
  0.00000000E+00  0.00000000E+00  0.00000000E+00
  0.00000000E+00  0.00000000E+00  0.00000000E+00
  0.00000000E+00  0.00000000E+00  0.00000000E+00
  0.00000000E+00  0.00000000E+00  0.00000000E+00
  0.00000000E+00  0.00000000E+00  0.00000000E+00
  0.00000000E+00  0.00000000E+00  0.00000000E+00
  0.00000000E+00  0.00000000E+00  0.00000000E+00
  0.00000000E+00  0.00000000E+00  0.00000000E+00
  0.00000000E+00  0.00000000E+00  0.00000000E+00
  0.00000000E+00  0.00000000E+00  0.00000000E+00
  0.00000000E+00  0.00000000E+00  0.00000000E+00
  0.00000000E+00  0.00000000E+00  0.00000000E+00
  0.00000000E+00  0.00000000E+00  0.00000000E+00
  0.00000000E+00  0.00000000E+00  0.00000000E+00
  0.00000000E+00  0.00000000E+00  0.00000000E+00
  0.00000000E+00  0.00000000E+00  0.00000000E+00
  0.00000000E+00  0.00000000E+00  0.00000000E+00
  0.00000000E+00  0.00000000E+00  0.00000000E+00
  0.00000000E+00  0.00000000E+00  0.00000000E+00
  0.00000000E+00  0.00000000E+00  0.00000000E+00
  0.00000000E+00  0.00000000E+00  0.00000000E+00
  0.00000000E+00  0.00000000E+00  0.00000000E+00
  0.00000000E+00  0.00000000E+00  0.00000000E+00
  0.00000000E+00  0.00000000E+00  0.00000000E+00
  0.00000000E+00  0.00000000E+00  0.00000000E+00
  0.00000000E+00  0.00000000E+00  0.00000000E+00
  0.00000000E+00  0.00000000E+00  0.00000000E+00
  0.00000000E+00  0.00000000E+00  0.00000000E+00
  0.00000000E+00  0.00000000E+00  0.00000000E+00
  0.00000000E+00  0.00000000E+00  0.00000000E+00
  0.00000000E+00  0.00000000E+00  0.00000000E+00
  0.00000000E+00  0.00000000E+00  0.00000000E+00
  0.00000000E+00  0.00000000E+00  0.00000000E+00
  0.00000000E+00  0.00000000E+00  0.00000000E+00
  0.00000000E+00  0.00000000E+00  0.00000000E+00
  0.00000000E+00  0.00000000E+00  0.00000000E+00
  0.00000000E+00  0.00000000E+00  0.00000000E+00
  0.00000000E+00  0.00000000E+00  0.00000000E+00
  0.00000000E+00  0.00000000E+00  0.00000000E+00
  0.00000000E+00  0.00000000E+00  0.00000000E+00
  0.00000000E+00  0.00000000E+00  0.00000000E+00
  0.00000000E+00  0.00000000E+00  0.00000000E+00
  0.00000000E+00  0.00000000E+00  0.00000000E+00
  0.00000000E+00  0.00000000E+00  0.00000000E+00
  0.00000000E+00  0.00000000E+00  0.00000000E+00
  0.00000000E+00  0.00000000E+00  0.00000000E+00
  0.00000000E+00  0.00000000E+00  0.00000000E+00
  0.00000000E+00  0.00000000E+00  0.00000000E+00
  0.00000000E+00  0.00000000E+00  0.00000000E+00
  0.00000000E+00  0.00000000E+00  0.00000000E+00
  0.00000000E+00  0.00000000E+00  0.00000000E+00
  0.00000000E+00  0.00000000E+00  0.00000000E+00
  0.00000000E+00  0.00000000E+00  0.00000000E+00
  0.00000000E+00  0.00000000E+00  0.00000000E+00
  0.00000000E+00  0.00000000E+00  0.00000000E+00
  0.00000000E+00  0.00000000E+00  0.00000000E+00
  0.00000000E+00  0.00000000E+00  0.00000000E+00
  0.00000000E+00  0.00000000E+00  0.00000000E+00
  0.00000000E+00  0.00000000E+00  0.00000000E+00
  0.00000000E+00  0.00000000E+00  0.00000000E+00
  0.00000000E+00  0.00000000E+00  0.00000000E+00
  0.00000000E+00  0.00000000E+00  0.00000000E+00
  0.00000000E+00  0.00000000E+00  0.00000000E+00
  0.00000000E+00  0.00000000E+00  0.00000000E+00
  0.00000000E+00  0.00000000E+00  0.00000000E+00
  0.00000000E+00  0.00000000E+00  0.00000000E+00
  0.00000000E+00  0.00000000E+00  0.00000000E+00
  0.00000000E+00  0.00000000E+00  0.00000000E+00
  0.00000000E+00  0.00000000E+00  0.00000000E+00
  0.00000000E+00  0.00000000E+00  0.00000000E+00
  0.00000000E+00  0.00000000E+00  0.00000000E+00
  0.00000000E+00  0.00000000E+00  0.00000000E+00
  0.00000000E+00  0.00000000E+00  0.00000000E+00
  0.00000000E+00  0.00000000E+00  0.00000000E+00
  0.00000000E+00  0.00000000E+00  0.00000000E+00
  0.00000000E+00  0.00000000E+00  0.00000000E+00
  0.00000000E+00  0.00000000E+00  0.00000000E+00
  0.00000000E+00  0.00000000E+00  0.00000000E+00
  0.00000000E+00  0.00000000E+00  0.00000000E+00
  0.00000000E+00  0.00000000E+00  0.00000000E+00
  0.00000000E+00  0.00000000E+00  0.00000000E+00
  0.00000000E+00  0.00000000E+00  0.00000000E+00
  0.00000000E+00  0.00000000E+00  0.00000000E+00
  0.00000000E+00  0.00000000E+00  0.00000000E+00
  0.00000000E+00  0.00000000E+00  0.00000000E+00
  0.00000000E+00  0.00000000E+00  0.00000000E+00
  0.00000000E+00  0.00000000E+00  0.00000000E+00
  0.00000000E+00  0.00000000E+00  0.00000000E+00
  0.00000000E+00  0.00000000E+00  0.00000000E+00
  0.00000000E+00  0.00000000E+00  0.00000000E+00
  0.00000000E+00  0.00000000E+00  0.00000000E+00
  0.00000000E+00  0.00000000E+00  0.00000000E+00
  0.00000000E+00  0.00000000E+00  0.00000000E+00
  0.00000000E+00  0.00000000E+00  0.00000000E+00
  0.00000000E+00  0.00000000E+00  0.00000000E+00
  0.00000000E+00  0.00000000E+00  0.00000000E+00
  0.00000000E+00  0.00000000E+00  0.00000000E+00
  0.00000000E+00  0.00000000E+00  0.00000000E+00
  0.00000000E+00  0.00000000E+00  0.00000000E+00
  0.00000000E+00  0.00000000E+00  0.00000000E+00
  0.00000000E+00  0.00000000E+00  0.00000000E+00
  0.00000000E+00  0.00000000E+00  0.00000000E+00
  0.00000000E+00  0.00000000E+00  0.00000000E+00
  0.00000000E+00  0.00000000E+00  0.00000000E+00
  0.00000000E+00  0.00000000E+00  0.00000000E+00
