Cr1 H1 C125 N1 O1                       
   1.00000000000000     
    19.7945789176380735   -0.0110079873516827    0.1137072230640449
    -9.9046559075813558   17.0501612286202224   -0.3929010357597406
     0.1705564006473097   -0.5875961882267325   29.8366813484552722
   Cr   H    C    N    O 
     1     1   125     1     1
Direct
  0.4374061482162571  0.5034221264280361  0.4307182520194798
  0.4711199174334143  0.4841626205346556  0.5082044888601135
  0.0421748748939251  0.0846023427325768  0.3996978818948927
  0.0416262843737192  0.2089352369156161  0.3991943591944535
  0.0411222156250264  0.3334384504743673  0.3983727678251545
  0.0410420408685656  0.4586469347989914  0.3978802055874017
  0.0415044757084686  0.5839636504388842  0.3979394270493576
  0.0419242255401119  0.7092595989415643  0.3984838556843903
  0.0422320373617680  0.8346522795685640  0.3991236774368177
  0.0423090264870363  0.9598050220595865  0.3995564219353682
  0.1677769880597432  0.0858033143836331  0.4005995761945065
  0.1677876002634019  0.2108656908254347  0.4009880069509705
  0.1665798044781853  0.3347642827708918  0.4000998190313166
  0.1651629483591918  0.4590136681609054  0.3989453623869207
  0.1656630024692522  0.5840649446884426  0.3984059912469610
  0.1664483512349794  0.7093439616347078  0.3985634595013450
  0.1669905088655666  0.8347103889777724  0.3990570060375633
  0.1674429435063486  0.9602608908547466  0.3997448008185352
  0.2926496235469376  0.0857494839411010  0.4010483051230152
  0.2935767644521618  0.2123791631988413  0.4034151710538449
  0.2939950070939287  0.3387139445459625  0.4042591786119832
  0.2899413881403394  0.4600627860522432  0.4017238713654887
  0.2895555486462802  0.5847260905146971  0.4001306255875265
  0.2909117872304623  0.7094582209578374  0.3994677905088316
  0.2916669176788759  0.8344624802331261  0.3993632910854011
  0.2920644846541728  0.9598642391098873  0.3997423951377584
  0.4171353227576653  0.0845098175795447  0.4002299851134399
  0.4177774083340963  0.2105381563501800  0.4024597284814818
  0.4195735780464014  0.3382571356737606  0.4072687624363905
  0.4150533854313272  0.7072913244218906  0.4012971426988564
  0.4162777428163662  0.8332584191570103  0.4000239951894575
  0.4167110382374697  0.9588206716318054  0.3996953508803701
  0.5416895320060603  0.0831555592292671  0.3993972726073327
  0.5421933310936298  0.2085774948791173  0.4002332543329841
  0.5430822456157232  0.3338816713725106  0.4026330717000878
  0.5454143186602517  0.4586673386235918  0.4062964621270246
  0.5435796021682862  0.5803220329880359  0.4082579630690514
  0.5386382051584114  0.7042901246129541  0.4039787811435352
  0.5405593258716797  0.8316531439541167  0.4010446391865066
  0.5413585780878577  0.9576402378437018  0.3997411165726273
  0.6663981261199183  0.0826174237115927  0.3991033602143180
  0.6667314009055922  0.2079216110028617  0.3989216739077120
  0.6673639784551083  0.3331855952883688  0.3995182968741705
  0.6688581736099000  0.4586265756632336  0.4005135344633846
  0.6695271863744463  0.5839748053307471  0.4016070289222086
  0.6656745215956854  0.7066522205057312  0.4020625243044393
  0.6649560879888227  0.8312363292469557  0.4012635682090519
  0.6658984062662653  0.9571308377644870  0.3999933448027415
  0.7912012206391721  0.0826219848599640  0.3989342479615867
  0.7914335315364812  0.2077966407562471  0.3983968284965430
  0.7918665578618070  0.3330796429122430  0.3983506663324356
  0.7926479941944973  0.4585216609566874  0.3984976587612676
  0.7931732098863751  0.5838309477223246  0.3989636320620479
  0.7925205377208875  0.7089495362710242  0.3996773318092276
  0.7910937657511647  0.8328255887154293  0.3999905078165465
  0.7907940880208932  0.9574122435457574  0.3997273103678296
  0.9163477932604392  0.0832311845298622  0.3990419841787209
  0.9163280727223435  0.2080519772282391  0.3983747906532570
  0.9164129125072218  0.3331531166601173  0.3979426678773915
  0.9167474683909883  0.4584283474090002  0.3978906498225940
  0.9173024495823667  0.5838723648241709  0.3981578347906896
  0.9173701846524677  0.7092562761504918  0.3987594282369301
  0.9171454134778315  0.8341758041309916  0.3992510717159433
  0.9165976563004087  0.9586528047600585  0.3994188362588567
  0.0842097553609398  0.0434565636062225  0.3998993000252605
  0.0840389620073672  0.1681959255014220  0.3998862147546866
  0.0830585980092664  0.2923091423000216  0.3991066511398789
  0.0823580092487327  0.4170247146493911  0.3982563260006832
  0.0826608468516583  0.5421641820324377  0.3979560906139766
  0.0832729457851736  0.6675250781722316  0.3982514368301115
  0.0837293941504121  0.7929209079039989  0.3988572529600318
  0.0840163716112072  0.9182760061939085  0.3994919742487349
  0.2092453657838786  0.0438846880661785  0.4004716330492087
  0.2097066816409223  0.1696195676221951  0.4016541910367780
  0.2096970143425613  0.2947749538474790  0.4015024727874620
  0.2068880138447987  0.4179771929778593  0.4000167169149380
  0.2065809775956574  0.5423427201383015  0.3990164162633991
  0.2077421423975840  0.6676642039971360  0.3987305768293512
  0.2084210004877576  0.7928972588887464  0.3989602856953050
  0.2088487005497235  0.9183171759964767  0.3994947713971650
  0.3338863031642351  0.0434585761304717  0.4003119505600428
  0.3345770516647737  0.1694815775517202  0.4024951089324468
  0.3355641805548342  0.2961628165982555  0.4058083205994491
  0.3334220708900604  0.4220396279629668  0.4051428490352609
  0.3312787230968533  0.5444699349285022  0.4017219187687597
  0.3320514380401690  0.6677052250757095  0.4002610801337843
  0.3330873179332310  0.7926560816908503  0.3996203652538008
  0.3334900714675738  0.9178703186523357  0.3996047339551510
  0.4585104724569528  0.0422798118048149  0.3997039633585306
  0.4589664518787618  0.1680102783328326  0.4008700942755266
  0.4599419476155215  0.2942971300427912  0.4040392158560598
  0.4640059615738139  0.4215925400256125  0.4110370327491585
  0.4544748898805299  0.6629890512778026  0.4033607702938999
  0.4574968442374873  0.7909111419447874  0.4007538784660003
  0.4581156717880929  0.9166843809614994  0.3998071571280116
  0.5831491683982963  0.0411718525129154  0.3993343902850506
  0.5835113186509834  0.1665633302389898  0.3993677355931669
  0.5842353380227526  0.2918210754105294  0.4006638370780967
  0.5859928298828041  0.4169161178009509  0.4028163839505535
  0.5874552644992057  0.5425717917644640  0.4051789206334760
  0.5811922138982780  0.6626853969319036  0.4047636424269847
  0.5808893421403226  0.7883497492414271  0.4021455255497722
  0.5826047698962337  0.9153824499075137  0.4002122487263222
  0.7078084451680785  0.0407176719605926  0.3992960887689260
  0.7082027369150073  0.1661472287802706  0.3987460747147966
  0.7086315550735448  0.2913947912439714  0.3988409899414135
  0.7096881316508485  0.4167847594659373  0.3993248635264428
  0.7106014379542341  0.5420835385567465  0.4001772995415259
  0.7092530563166923  0.6669656571930327  0.4009839984869805
  0.7072657142965986  0.7902772693410409  0.4010154124313405
  0.7070997228189811  0.9150318948303633  0.4003213157232179
  0.8328050115982143  0.0410483897669079  0.3991550186344912
  0.8329813242230821  0.1661564639690171  0.3984832911484569
  0.8332597081889500  0.2913893448926410  0.3981588041847696
  0.8337571669218097  0.4166382296858722  0.3981888162430134
  0.8343398242126804  0.5420243833051602  0.3984065985573226
  0.8342829923265183  0.6674784178644919  0.3990105159866263
  0.8337240499827406  0.7921661107271850  0.3995585411769180
  0.8329169199196028  0.9163436853025155  0.3996688883916384
  0.9584901154225741  0.0422181784043436  0.3993613448110847
  0.9581509299299821  0.1667419735921115  0.3988003718751039
  0.9579467398906243  0.2915255466810908  0.3981063844306583
  0.9579999661502443  0.4167086016881345  0.3978287106779491
  0.9585001373908888  0.5421019706959245  0.3979223888376344
  0.9588308615822426  0.6674861147820446  0.3984355312953503
  0.9589434914546050  0.7927715970082109  0.3990300686663779
  0.9587975833613989  0.9176471372034994  0.3993845953329700
  0.4108302232420480  0.5821155937266294  0.4043426908729917
  0.4422914654140111  0.5001734486414023  0.4893016690773083
 
  0.00000000E+00  0.00000000E+00  0.00000000E+00
  0.00000000E+00  0.00000000E+00  0.00000000E+00
  0.00000000E+00  0.00000000E+00  0.00000000E+00
  0.00000000E+00  0.00000000E+00  0.00000000E+00
  0.00000000E+00  0.00000000E+00  0.00000000E+00
  0.00000000E+00  0.00000000E+00  0.00000000E+00
  0.00000000E+00  0.00000000E+00  0.00000000E+00
  0.00000000E+00  0.00000000E+00  0.00000000E+00
  0.00000000E+00  0.00000000E+00  0.00000000E+00
  0.00000000E+00  0.00000000E+00  0.00000000E+00
  0.00000000E+00  0.00000000E+00  0.00000000E+00
  0.00000000E+00  0.00000000E+00  0.00000000E+00
  0.00000000E+00  0.00000000E+00  0.00000000E+00
  0.00000000E+00  0.00000000E+00  0.00000000E+00
  0.00000000E+00  0.00000000E+00  0.00000000E+00
  0.00000000E+00  0.00000000E+00  0.00000000E+00
  0.00000000E+00  0.00000000E+00  0.00000000E+00
  0.00000000E+00  0.00000000E+00  0.00000000E+00
  0.00000000E+00  0.00000000E+00  0.00000000E+00
  0.00000000E+00  0.00000000E+00  0.00000000E+00
  0.00000000E+00  0.00000000E+00  0.00000000E+00
  0.00000000E+00  0.00000000E+00  0.00000000E+00
  0.00000000E+00  0.00000000E+00  0.00000000E+00
  0.00000000E+00  0.00000000E+00  0.00000000E+00
  0.00000000E+00  0.00000000E+00  0.00000000E+00
  0.00000000E+00  0.00000000E+00  0.00000000E+00
  0.00000000E+00  0.00000000E+00  0.00000000E+00
  0.00000000E+00  0.00000000E+00  0.00000000E+00
  0.00000000E+00  0.00000000E+00  0.00000000E+00
  0.00000000E+00  0.00000000E+00  0.00000000E+00
  0.00000000E+00  0.00000000E+00  0.00000000E+00
  0.00000000E+00  0.00000000E+00  0.00000000E+00
  0.00000000E+00  0.00000000E+00  0.00000000E+00
  0.00000000E+00  0.00000000E+00  0.00000000E+00
  0.00000000E+00  0.00000000E+00  0.00000000E+00
  0.00000000E+00  0.00000000E+00  0.00000000E+00
  0.00000000E+00  0.00000000E+00  0.00000000E+00
  0.00000000E+00  0.00000000E+00  0.00000000E+00
  0.00000000E+00  0.00000000E+00  0.00000000E+00
  0.00000000E+00  0.00000000E+00  0.00000000E+00
  0.00000000E+00  0.00000000E+00  0.00000000E+00
  0.00000000E+00  0.00000000E+00  0.00000000E+00
  0.00000000E+00  0.00000000E+00  0.00000000E+00
  0.00000000E+00  0.00000000E+00  0.00000000E+00
  0.00000000E+00  0.00000000E+00  0.00000000E+00
  0.00000000E+00  0.00000000E+00  0.00000000E+00
  0.00000000E+00  0.00000000E+00  0.00000000E+00
  0.00000000E+00  0.00000000E+00  0.00000000E+00
  0.00000000E+00  0.00000000E+00  0.00000000E+00
  0.00000000E+00  0.00000000E+00  0.00000000E+00
  0.00000000E+00  0.00000000E+00  0.00000000E+00
  0.00000000E+00  0.00000000E+00  0.00000000E+00
  0.00000000E+00  0.00000000E+00  0.00000000E+00
  0.00000000E+00  0.00000000E+00  0.00000000E+00
  0.00000000E+00  0.00000000E+00  0.00000000E+00
  0.00000000E+00  0.00000000E+00  0.00000000E+00
  0.00000000E+00  0.00000000E+00  0.00000000E+00
  0.00000000E+00  0.00000000E+00  0.00000000E+00
  0.00000000E+00  0.00000000E+00  0.00000000E+00
  0.00000000E+00  0.00000000E+00  0.00000000E+00
  0.00000000E+00  0.00000000E+00  0.00000000E+00
  0.00000000E+00  0.00000000E+00  0.00000000E+00
  0.00000000E+00  0.00000000E+00  0.00000000E+00
  0.00000000E+00  0.00000000E+00  0.00000000E+00
  0.00000000E+00  0.00000000E+00  0.00000000E+00
  0.00000000E+00  0.00000000E+00  0.00000000E+00
  0.00000000E+00  0.00000000E+00  0.00000000E+00
  0.00000000E+00  0.00000000E+00  0.00000000E+00
  0.00000000E+00  0.00000000E+00  0.00000000E+00
  0.00000000E+00  0.00000000E+00  0.00000000E+00
  0.00000000E+00  0.00000000E+00  0.00000000E+00
  0.00000000E+00  0.00000000E+00  0.00000000E+00
  0.00000000E+00  0.00000000E+00  0.00000000E+00
  0.00000000E+00  0.00000000E+00  0.00000000E+00
  0.00000000E+00  0.00000000E+00  0.00000000E+00
  0.00000000E+00  0.00000000E+00  0.00000000E+00
  0.00000000E+00  0.00000000E+00  0.00000000E+00
  0.00000000E+00  0.00000000E+00  0.00000000E+00
  0.00000000E+00  0.00000000E+00  0.00000000E+00
  0.00000000E+00  0.00000000E+00  0.00000000E+00
  0.00000000E+00  0.00000000E+00  0.00000000E+00
  0.00000000E+00  0.00000000E+00  0.00000000E+00
  0.00000000E+00  0.00000000E+00  0.00000000E+00
  0.00000000E+00  0.00000000E+00  0.00000000E+00
  0.00000000E+00  0.00000000E+00  0.00000000E+00
  0.00000000E+00  0.00000000E+00  0.00000000E+00
  0.00000000E+00  0.00000000E+00  0.00000000E+00
  0.00000000E+00  0.00000000E+00  0.00000000E+00
  0.00000000E+00  0.00000000E+00  0.00000000E+00
  0.00000000E+00  0.00000000E+00  0.00000000E+00
  0.00000000E+00  0.00000000E+00  0.00000000E+00
  0.00000000E+00  0.00000000E+00  0.00000000E+00
  0.00000000E+00  0.00000000E+00  0.00000000E+00
  0.00000000E+00  0.00000000E+00  0.00000000E+00
  0.00000000E+00  0.00000000E+00  0.00000000E+00
  0.00000000E+00  0.00000000E+00  0.00000000E+00
  0.00000000E+00  0.00000000E+00  0.00000000E+00
  0.00000000E+00  0.00000000E+00  0.00000000E+00
  0.00000000E+00  0.00000000E+00  0.00000000E+00
  0.00000000E+00  0.00000000E+00  0.00000000E+00
  0.00000000E+00  0.00000000E+00  0.00000000E+00
  0.00000000E+00  0.00000000E+00  0.00000000E+00
  0.00000000E+00  0.00000000E+00  0.00000000E+00
  0.00000000E+00  0.00000000E+00  0.00000000E+00
  0.00000000E+00  0.00000000E+00  0.00000000E+00
  0.00000000E+00  0.00000000E+00  0.00000000E+00
  0.00000000E+00  0.00000000E+00  0.00000000E+00
  0.00000000E+00  0.00000000E+00  0.00000000E+00
  0.00000000E+00  0.00000000E+00  0.00000000E+00
  0.00000000E+00  0.00000000E+00  0.00000000E+00
  0.00000000E+00  0.00000000E+00  0.00000000E+00
  0.00000000E+00  0.00000000E+00  0.00000000E+00
  0.00000000E+00  0.00000000E+00  0.00000000E+00
  0.00000000E+00  0.00000000E+00  0.00000000E+00
  0.00000000E+00  0.00000000E+00  0.00000000E+00
  0.00000000E+00  0.00000000E+00  0.00000000E+00
  0.00000000E+00  0.00000000E+00  0.00000000E+00
  0.00000000E+00  0.00000000E+00  0.00000000E+00
  0.00000000E+00  0.00000000E+00  0.00000000E+00
  0.00000000E+00  0.00000000E+00  0.00000000E+00
  0.00000000E+00  0.00000000E+00  0.00000000E+00
  0.00000000E+00  0.00000000E+00  0.00000000E+00
  0.00000000E+00  0.00000000E+00  0.00000000E+00
  0.00000000E+00  0.00000000E+00  0.00000000E+00
  0.00000000E+00  0.00000000E+00  0.00000000E+00
  0.00000000E+00  0.00000000E+00  0.00000000E+00
  0.00000000E+00  0.00000000E+00  0.00000000E+00
  0.00000000E+00  0.00000000E+00  0.00000000E+00
  0.00000000E+00  0.00000000E+00  0.00000000E+00
