Y1 H1 C123 N3                           
   1.00000000000000     
    19.8090157573120678    0.0060170814005184   -0.1384866960989882
    -9.8990240376051677   17.0477213494741804   -0.1381962141347419
    -0.2079282285862294   -0.3620996586832224   29.7976222449780686
   Y    H    C    N 
     1     1   123     3
Direct
  0.4394683792474068  0.5044251397235818  0.4502420915248679
  0.4452021604571678  0.5062825775638403  0.5194729119678274
  0.0418866039180851  0.0840006133705280  0.3992959355265691
  0.0409806211207583  0.2081707035404600  0.3990383057337122
  0.0404378114987155  0.3329973220337930  0.3982182907523145
  0.0406724707631878  0.4583086993137752  0.3978361778251524
  0.0415429335045435  0.5838115140176739  0.3984947441353617
  0.0422849525707572  0.7091960491141616  0.3989979984815812
  0.0425541602156328  0.8344886854480924  0.3990927827735478
  0.0425192176638372  0.9595566939565158  0.3991864314462596
  0.1677942615733112  0.0853823983394703  0.4000160017475688
  0.1669577051415549  0.2096809505225201  0.4008994828664478
  0.1651476878878821  0.3335379031925725  0.4005113802031145
  0.1645106265744565  0.4584207498692391  0.3982320390939075
  0.1654309393311587  0.5836372472648582  0.3977228184995708
  0.1665673063934540  0.7090108186965552  0.3984571323886001
  0.1672353233535318  0.8344614374203921  0.3989840727140079
  0.1675683549243509  0.9599563271458889  0.3991564225953746
  0.2926916898659946  0.0855997537459249  0.4000012436611782
  0.2934038077478335  0.2125278589044773  0.4032665690087197
  0.2914706791121652  0.3375592541912246  0.4068085281380365
  0.2881249995959806  0.4573192241868564  0.4044935990959875
  0.2890073831229888  0.5830424339584326  0.3994145875393434
  0.2908755574493785  0.7085210386532504  0.3983992881479024
  0.2918015001205925  0.8339667218627941  0.3988413821309910
  0.2922475364431824  0.9595790541147474  0.3991160135672511
  0.4172041827830713  0.0840678390460749  0.3990724024333724
  0.4177882830119449  0.2098368289824479  0.4004738138584104
  0.4204300344495921  0.3372547280333296  0.4069264052738656
  0.4151186063165202  0.7069015144788091  0.4000124502164449
  0.4163291159156058  0.8326541332375403  0.3989732469173297
  0.4168351796286872  0.9583832749798284  0.3990878584012726
  0.5417315916792254  0.0827879465915704  0.3988945561927090
  0.5422747312842063  0.2084106578559906  0.3985381937140183
  0.5432930073859894  0.3340033133709317  0.3997297225116230
  0.5456498216383993  0.4589216679427095  0.4049199585955914
  0.5392799445015178  0.7028748549549003  0.4035967517359044
  0.5408054468750372  0.8307419781991502  0.4000688468587518
  0.5413510346231528  0.9570037415530489  0.3993393394626562
  0.6663172998863947  0.0822601884457178  0.3992343001865078
  0.6667368327540921  0.2076841567636213  0.3984772322160423
  0.6674773615288616  0.3330420214596906  0.3978248283297889
  0.6691701659177459  0.4585405006445062  0.3977896445974904
  0.6703328625100419  0.5842148017158010  0.3992085069806375
  0.6675985337242867  0.7074235629695790  0.4000217272302564
  0.6652846269951724  0.8308932944379721  0.4000795758167505
  0.6659123404068071  0.9567093287630982  0.3996346190128915
  0.7910105554770180  0.0822372298740636  0.3993421985408452
  0.7912633218829651  0.2075205573965679  0.3989489080332797
  0.7918339423517136  0.3329156751459200  0.3984020901292292
  0.7928330625476563  0.4583981509037776  0.3978831762866710
  0.7935543275143722  0.5837534780051683  0.3976341824976813
  0.7934640179970004  0.7090731573198142  0.3982939992407095
  0.7917762407509856  0.8329631867694047  0.3989595610522384
  0.7908229105855911  0.9570782484737884  0.3994107164977662
  0.9160956450133700  0.0827411715412122  0.3991907850441400
  0.9159074412880822  0.2076212807896994  0.3987460135860187
  0.9160943307615441  0.3328949261895847  0.3984618523021473
  0.9167688402336196  0.4583452868145055  0.3986343698801883
  0.9175939931905451  0.5838432255901779  0.3986408032898564
  0.9178632193287315  0.7091404848910189  0.3986608178450421
  0.9176145300282703  0.8341626932565002  0.3989816562546000
  0.9168220764600695  0.9584737015365106  0.3992906801269714
  0.0842578750443402  0.0431139557130415  0.3993845801160995
  0.0834295197829941  0.1674200862727807  0.3995234040652009
  0.0821493313925250  0.2915280440107723  0.3989847793320502
  0.0817469550547952  0.4164429221306173  0.3977630122341500
  0.0825042801734860  0.5418619870683586  0.3978836351392943
  0.0834630201599640  0.6673279075964546  0.3986672210162311
  0.0840249543504668  0.7927490399987182  0.3990837382671388
  0.0842219551538008  0.9180097209317329  0.3990955027569318
  0.2092970034320115  0.0435121735942022  0.3997218141734596
  0.2095224874395021  0.1691025698471126  0.4014390773921216
  0.2080011305041781  0.2931728427006161  0.4022805302218435
  0.2057782674795688  0.4169246471178120  0.4003951557931685
  0.2061394802891127  0.5415837790376070  0.3980533027899038
  0.2076494362372808  0.6671189102270164  0.3981074524744053
  0.2085767141149862  0.7925689052907662  0.3987597750309083
  0.2090284589195873  0.9180256856309862  0.3990569738858604
  0.3339837428350698  0.0432326455824398  0.3993045465430324
  0.3345225536862460  0.1694070291435938  0.4013421062435394
  0.3354889830140178  0.2965062010233269  0.4069267300341636
  0.3309793299509849  0.5428006198977449  0.4032737383885952
  0.3318665593490291  0.6664560682668836  0.3990764035913060
  0.3331160688827480  0.7918820029577391  0.3987004251396737
  0.3336101456832255  0.9174315273812527  0.3990613131590992
  0.4585565480767366  0.0418193979041676  0.3989809481834345
  0.4589829607367747  0.1674748972970916  0.3991214719541231
  0.4599896599306471  0.2933527928168988  0.4016239566452626
  0.4650853551343693  0.4193281769570228  0.4119403379463044
  0.4542735892752810  0.6624179141029628  0.4034537218381464
  0.4575758005261162  0.7903019098970903  0.3994603514518497
  0.4581598514666093  0.9161521069592590  0.3991344697883726
  0.5830934791411199  0.0406531118762741  0.3991943470359398
  0.5835548908623807  0.1663188717271125  0.3985071182205921
  0.5843322975436691  0.2917797226300295  0.3983653004126959
  0.5865256427779338  0.4173992444855662  0.3998033216154180
  0.5888466145087102  0.5442349618354106  0.4040223480104731
  0.5843376441699834  0.6629544461626529  0.4039833663839748
  0.5813610867368058  0.7873323211933806  0.4011275154738090
  0.5826364427032158  0.9146184084865170  0.3996381001717008
  0.7077204458616351  0.0403300439965222  0.3994413977108899
  0.7081043338537211  0.1658167268841413  0.3989319443843211
  0.7086619404305236  0.2911897864263189  0.3981262477888082
  0.7099071630614652  0.4166019557184869  0.3975091871699410
  0.7109942511904642  0.5419016760453728  0.3977200672131510
  0.7106045920096971  0.6672805889909873  0.3989251846433112
  0.7082865199854366  0.7907331298307850  0.3993914819635829
  0.7072083024640347  0.9147169856449512  0.3996495076447696
  0.8326655941696472  0.0406888999614766  0.3993643719678901
  0.8327391629463260  0.1657905496413741  0.3990679023265581
  0.8330568094512736  0.2910616975186935  0.3986869883491134
  0.8338361602407703  0.4164711674196661  0.3984009805558039
  0.8346855203593950  0.5419360781156738  0.3979899021732906
  0.8349406987098771  0.6673588008102609  0.3981228871499726
  0.8343752126362053  0.7922701441911378  0.3987081969778506
  0.8333169620313521  0.9163490520998617  0.3992508471512109
  0.9584018174926381  0.0418432447719625  0.3992450669143044
  0.9576935374903293  0.1661623186518719  0.3988831111444430
  0.9574790450941718  0.2911555173503113  0.3983614760479144
  0.9577830719388483  0.4164286395379220  0.3983546160549703
  0.9586286043351188  0.5419434917773676  0.3987430198009656
  0.9592739763647868  0.6673767105879389  0.3988419253206677
  0.9593597436493091  0.7926751692112862  0.3989638767844613
  0.9591409870238694  0.9175741456763074  0.3992133453956137
  0.4106993881103383  0.5829846580702528  0.4071545518405039
  0.5491859726785266  0.5838309254198687  0.4085009509652248
  0.3276029410741942  0.4177323808205279  0.4103770489252975
 
  0.00000000E+00  0.00000000E+00  0.00000000E+00
  0.00000000E+00  0.00000000E+00  0.00000000E+00
  0.00000000E+00  0.00000000E+00  0.00000000E+00
  0.00000000E+00  0.00000000E+00  0.00000000E+00
  0.00000000E+00  0.00000000E+00  0.00000000E+00
  0.00000000E+00  0.00000000E+00  0.00000000E+00
  0.00000000E+00  0.00000000E+00  0.00000000E+00
  0.00000000E+00  0.00000000E+00  0.00000000E+00
  0.00000000E+00  0.00000000E+00  0.00000000E+00
  0.00000000E+00  0.00000000E+00  0.00000000E+00
  0.00000000E+00  0.00000000E+00  0.00000000E+00
  0.00000000E+00  0.00000000E+00  0.00000000E+00
  0.00000000E+00  0.00000000E+00  0.00000000E+00
  0.00000000E+00  0.00000000E+00  0.00000000E+00
  0.00000000E+00  0.00000000E+00  0.00000000E+00
  0.00000000E+00  0.00000000E+00  0.00000000E+00
  0.00000000E+00  0.00000000E+00  0.00000000E+00
  0.00000000E+00  0.00000000E+00  0.00000000E+00
  0.00000000E+00  0.00000000E+00  0.00000000E+00
  0.00000000E+00  0.00000000E+00  0.00000000E+00
  0.00000000E+00  0.00000000E+00  0.00000000E+00
  0.00000000E+00  0.00000000E+00  0.00000000E+00
  0.00000000E+00  0.00000000E+00  0.00000000E+00
  0.00000000E+00  0.00000000E+00  0.00000000E+00
  0.00000000E+00  0.00000000E+00  0.00000000E+00
  0.00000000E+00  0.00000000E+00  0.00000000E+00
  0.00000000E+00  0.00000000E+00  0.00000000E+00
  0.00000000E+00  0.00000000E+00  0.00000000E+00
  0.00000000E+00  0.00000000E+00  0.00000000E+00
  0.00000000E+00  0.00000000E+00  0.00000000E+00
  0.00000000E+00  0.00000000E+00  0.00000000E+00
  0.00000000E+00  0.00000000E+00  0.00000000E+00
  0.00000000E+00  0.00000000E+00  0.00000000E+00
  0.00000000E+00  0.00000000E+00  0.00000000E+00
  0.00000000E+00  0.00000000E+00  0.00000000E+00
  0.00000000E+00  0.00000000E+00  0.00000000E+00
  0.00000000E+00  0.00000000E+00  0.00000000E+00
  0.00000000E+00  0.00000000E+00  0.00000000E+00
  0.00000000E+00  0.00000000E+00  0.00000000E+00
  0.00000000E+00  0.00000000E+00  0.00000000E+00
  0.00000000E+00  0.00000000E+00  0.00000000E+00
  0.00000000E+00  0.00000000E+00  0.00000000E+00
  0.00000000E+00  0.00000000E+00  0.00000000E+00
  0.00000000E+00  0.00000000E+00  0.00000000E+00
  0.00000000E+00  0.00000000E+00  0.00000000E+00
  0.00000000E+00  0.00000000E+00  0.00000000E+00
  0.00000000E+00  0.00000000E+00  0.00000000E+00
  0.00000000E+00  0.00000000E+00  0.00000000E+00
  0.00000000E+00  0.00000000E+00  0.00000000E+00
  0.00000000E+00  0.00000000E+00  0.00000000E+00
  0.00000000E+00  0.00000000E+00  0.00000000E+00
  0.00000000E+00  0.00000000E+00  0.00000000E+00
  0.00000000E+00  0.00000000E+00  0.00000000E+00
  0.00000000E+00  0.00000000E+00  0.00000000E+00
  0.00000000E+00  0.00000000E+00  0.00000000E+00
  0.00000000E+00  0.00000000E+00  0.00000000E+00
  0.00000000E+00  0.00000000E+00  0.00000000E+00
  0.00000000E+00  0.00000000E+00  0.00000000E+00
  0.00000000E+00  0.00000000E+00  0.00000000E+00
  0.00000000E+00  0.00000000E+00  0.00000000E+00
  0.00000000E+00  0.00000000E+00  0.00000000E+00
  0.00000000E+00  0.00000000E+00  0.00000000E+00
  0.00000000E+00  0.00000000E+00  0.00000000E+00
  0.00000000E+00  0.00000000E+00  0.00000000E+00
  0.00000000E+00  0.00000000E+00  0.00000000E+00
  0.00000000E+00  0.00000000E+00  0.00000000E+00
  0.00000000E+00  0.00000000E+00  0.00000000E+00
  0.00000000E+00  0.00000000E+00  0.00000000E+00
  0.00000000E+00  0.00000000E+00  0.00000000E+00
  0.00000000E+00  0.00000000E+00  0.00000000E+00
  0.00000000E+00  0.00000000E+00  0.00000000E+00
  0.00000000E+00  0.00000000E+00  0.00000000E+00
  0.00000000E+00  0.00000000E+00  0.00000000E+00
  0.00000000E+00  0.00000000E+00  0.00000000E+00
  0.00000000E+00  0.00000000E+00  0.00000000E+00
  0.00000000E+00  0.00000000E+00  0.00000000E+00
  0.00000000E+00  0.00000000E+00  0.00000000E+00
  0.00000000E+00  0.00000000E+00  0.00000000E+00
  0.00000000E+00  0.00000000E+00  0.00000000E+00
  0.00000000E+00  0.00000000E+00  0.00000000E+00
  0.00000000E+00  0.00000000E+00  0.00000000E+00
  0.00000000E+00  0.00000000E+00  0.00000000E+00
  0.00000000E+00  0.00000000E+00  0.00000000E+00
  0.00000000E+00  0.00000000E+00  0.00000000E+00
  0.00000000E+00  0.00000000E+00  0.00000000E+00
  0.00000000E+00  0.00000000E+00  0.00000000E+00
  0.00000000E+00  0.00000000E+00  0.00000000E+00
  0.00000000E+00  0.00000000E+00  0.00000000E+00
  0.00000000E+00  0.00000000E+00  0.00000000E+00
  0.00000000E+00  0.00000000E+00  0.00000000E+00
  0.00000000E+00  0.00000000E+00  0.00000000E+00
  0.00000000E+00  0.00000000E+00  0.00000000E+00
  0.00000000E+00  0.00000000E+00  0.00000000E+00
  0.00000000E+00  0.00000000E+00  0.00000000E+00
  0.00000000E+00  0.00000000E+00  0.00000000E+00
  0.00000000E+00  0.00000000E+00  0.00000000E+00
  0.00000000E+00  0.00000000E+00  0.00000000E+00
  0.00000000E+00  0.00000000E+00  0.00000000E+00
  0.00000000E+00  0.00000000E+00  0.00000000E+00
  0.00000000E+00  0.00000000E+00  0.00000000E+00
  0.00000000E+00  0.00000000E+00  0.00000000E+00
  0.00000000E+00  0.00000000E+00  0.00000000E+00
  0.00000000E+00  0.00000000E+00  0.00000000E+00
  0.00000000E+00  0.00000000E+00  0.00000000E+00
  0.00000000E+00  0.00000000E+00  0.00000000E+00
  0.00000000E+00  0.00000000E+00  0.00000000E+00
  0.00000000E+00  0.00000000E+00  0.00000000E+00
  0.00000000E+00  0.00000000E+00  0.00000000E+00
  0.00000000E+00  0.00000000E+00  0.00000000E+00
  0.00000000E+00  0.00000000E+00  0.00000000E+00
  0.00000000E+00  0.00000000E+00  0.00000000E+00
  0.00000000E+00  0.00000000E+00  0.00000000E+00
  0.00000000E+00  0.00000000E+00  0.00000000E+00
  0.00000000E+00  0.00000000E+00  0.00000000E+00
  0.00000000E+00  0.00000000E+00  0.00000000E+00
  0.00000000E+00  0.00000000E+00  0.00000000E+00
  0.00000000E+00  0.00000000E+00  0.00000000E+00
  0.00000000E+00  0.00000000E+00  0.00000000E+00
  0.00000000E+00  0.00000000E+00  0.00000000E+00
  0.00000000E+00  0.00000000E+00  0.00000000E+00
  0.00000000E+00  0.00000000E+00  0.00000000E+00
  0.00000000E+00  0.00000000E+00  0.00000000E+00
  0.00000000E+00  0.00000000E+00  0.00000000E+00
  0.00000000E+00  0.00000000E+00  0.00000000E+00
  0.00000000E+00  0.00000000E+00  0.00000000E+00
  0.00000000E+00  0.00000000E+00  0.00000000E+00
  0.00000000E+00  0.00000000E+00  0.00000000E+00
  0.00000000E+00  0.00000000E+00  0.00000000E+00
