Ir1 C123 N3 O1                          
   1.00000000000000     
    19.8203887888513854    0.0246476783820564    0.0887599766486412
    -9.8889226254383971   17.0094411160941341   -0.1037918524959328
     0.1336919458049498   -0.1040410012702638   29.8263422245811931
   Ir   C    N    O 
     1   123     3     1
Direct
  0.4363644262724158  0.4993951595839372  0.4252570613362932
  0.0416993476647203  0.0840644415536577  0.3997719854904306
  0.0401703503767684  0.2078004928335263  0.3999851290582553
  0.0393632514641232  0.3325326943276644  0.3994607045342426
  0.0399346797977481  0.4579803647093301  0.3990350437899226
  0.0414268106688582  0.5837062447783470  0.3991389108833400
  0.0426718819511866  0.7093738530101509  0.3991892205853352
  0.0429627828075641  0.8347165426767660  0.3993692537968038
  0.0426883238033598  0.9597782633401826  0.3995147887618377
  0.1678074682776544  0.0857650665294300  0.4005639737121104
  0.1667868707103735  0.2101855819680426  0.4015338219125697
  0.1636842159010317  0.3330470350607183  0.4018986770875428
  0.1631983768214995  0.4578610111437384  0.3993409792653346
  0.1649238832679330  0.5833269378229510  0.3992543699730012
  0.1667034888567025  0.7088832242952278  0.3994504971319998
  0.1675350446108072  0.8345548907325893  0.3993796659706675
  0.1678226678142491  0.9602759450780820  0.3997224795634277
  0.2927028331656011  0.0861445602241295  0.4004849621045197
  0.2930906336508842  0.2130527604199746  0.4029931952839069
  0.2907656451023621  0.3378371445537122  0.4074204228566642
  0.2854301015453489  0.4572808080504713  0.4042349402175957
  0.2879615766907498  0.5822471523267410  0.3994138466172664
  0.2908271991585054  0.7078308325869893  0.3994729940281315
  0.2919436338103641  0.8337400262380924  0.3995761313356447
  0.2923703766129658  0.9597793683492798  0.3995953690739352
  0.4170818853676612  0.0846391402229075  0.3999456469699265
  0.4175851451014664  0.2113266183715458  0.4010255820273049
  0.4190658493814515  0.3392624588875394  0.4036674532617333
  0.4148657677771972  0.7046806533043859  0.4003111304488177
  0.4161750521290377  0.8316511263431569  0.4001971584064893
  0.4166859407245818  0.9581493815854750  0.3996472229794317
  0.5412592369188212  0.0827072608394722  0.3995802606856969
  0.5418637925089378  0.2088452742805939  0.3998214432510308
  0.5431764199722279  0.3349176913584187  0.4002935974929656
  0.5482672027499883  0.4611963142292625  0.4040936700538342
  0.5383335571267587  0.7008356427401692  0.4045776152892174
  0.5402774629409156  0.8294765286782145  0.4012244964767677
  0.5409033040936720  0.9563702794486143  0.3999901574079568
  0.6655983244757722  0.0817545344761813  0.3995502199618753
  0.6661312078637686  0.2075782095630663  0.3994525968212810
  0.6672546808138186  0.3333491129437770  0.3993972407957532
  0.6700286233022094  0.4592316129054187  0.4000127503518753
  0.6720942507172660  0.5849379198511573  0.4027477241123769
  0.6671871665371316  0.7063908129944125  0.4033640179048294
  0.6646541597868652  0.8298787092219192  0.4017686168191349
  0.6652329967451004  0.9559008597933418  0.4003276493993111
  0.7902429310945291  0.0816443354144785  0.3996883219113293
  0.7904491238706561  0.2070962109179520  0.3993529796711058
  0.7912987037676240  0.3327559628391862  0.3991973256513445
  0.7930009529741098  0.4585218857187675  0.3989830749967563
  0.7945650317833376  0.5842589219622231  0.3991221793025733
  0.7941279387434662  0.7093439872604498  0.4002458278682945
  0.7915088811925022  0.8324760764516650  0.4001152150040351
  0.7902662345209825  0.9564836180554837  0.3999756911422235
  0.9154923046036827  0.0823253557962316  0.3995188621927381
  0.9150027639400460  0.2071165760190308  0.3994883056954015
  0.9152886921121712  0.3325070665063701  0.3991452411270554
  0.9164610709914914  0.4582394676759788  0.3989632178310050
  0.9179377507688312  0.5840017780489858  0.3988822385146290
  0.9184764505587615  0.7094244292235375  0.3991160493400518
  0.9179662740041503  0.8343495809120777  0.3993233821762072
  0.9166057439926455  0.9582707935691309  0.3994563445924709
  0.0843357869289647  0.0433833354032123  0.3998763528624830
  0.0831934735424467  0.1675833761953551  0.4002319500405542
  0.0811573402811993  0.2911311775284399  0.4003173155354323
  0.0806216568302674  0.4158741480337586  0.3991089865294788
  0.0820681985418639  0.5415683460919838  0.3991533053615388
  0.0836354678008411  0.6672978846860735  0.3992841156531987
  0.0844676780596807  0.7929347850167274  0.3993074103731948
  0.0845878126324492  0.9183418586705858  0.3995426339517243
  0.2094791273445550  0.0440500129366031  0.4002633544763133
  0.2095559548276071  0.1697019544130899  0.4018315500528921
  0.2076639085817388  0.2937911697764335  0.4032381116440861
  0.2039420399461993  0.4160422786754414  0.4012219900343647
  0.2051928885798820  0.5409371150169212  0.3993226206031522
  0.2075800216660280  0.6667317067147901  0.3994124017368523
  0.2087788253530255  0.7925011708538245  0.3994448927133490
  0.2093280297062303  0.9183065752703707  0.3995296028340496
  0.3339817489287629  0.0436481256661808  0.3999512946998872
  0.3343751294613965  0.1703143548832602  0.4014734892735582
  0.3350714892538987  0.2978184962535393  0.4055572024004697
  0.3278794558524464  0.5402327985042944  0.4007566332703174
  0.3314825018153156  0.6654737211674557  0.3993336321177380
  0.3330887333268477  0.7913659133441182  0.3997847912375199
  0.3336610252487326  0.9173676113110621  0.3995441176491535
  0.4582786788990935  0.0419448497047116  0.3996490633104040
  0.4587119593201819  0.1684446151636150  0.4002437536548417
  0.4596011962184884  0.2953999230070545  0.4012975966515901
  0.4658176943316134  0.4233224828689158  0.4052909761780696
  0.4543038975348420  0.6601313792946509  0.4017039585714196
  0.4572572493489685  0.7887274465560856  0.4007215186623380
  0.4578447765980395  0.9154544539344438  0.3999735690252219
  0.5825439101364854  0.0402603669712446  0.3996144240978594
  0.5830176772516446  0.1664134269833148  0.3995959238975429
  0.5839677181817757  0.2924153099678777  0.3996759599497559
  0.5873319879549233  0.4182668971679482  0.4010207025054861
  0.5911134482289221  0.5441185935372079  0.4072497858802804
  0.5837588536569053  0.6616567141836113  0.4075701720034799
  0.5808084317466028  0.7861471070785589  0.4025940633604120
  0.5821011996576292  0.9137875461296563  0.4004859693630190
  0.7070103260111221  0.0397121107127466  0.3997957823541393
  0.7074171590753919  0.1655275071809239  0.3993959239681841
  0.7081837150424479  0.2912082346452366  0.3993559068438313
  0.7101955965248374  0.4168436391115889  0.3992699757289039
  0.7122115025104870  0.5424337257028697  0.4001012489339820
  0.7116639861763288  0.6676158252657599  0.4023433489615811
  0.7078513112251626  0.7898442853705295  0.4014443992269125
  0.7066297673350785  0.9139342455495744  0.4006359691413997
  0.8320493948207093  0.0401631805724666  0.3996778984887748
  0.8319454525963564  0.1653065387309998  0.3995081050547503
  0.8323165751064947  0.2906911409267806  0.3992105614638252
  0.8336208341990021  0.4163548060102664  0.3990179784952262
  0.8352089577460713  0.5421113029277564  0.3988406113678564
  0.8357269068959509  0.6676810612736434  0.3993522946733953
  0.8348006466899029  0.7924308378499266  0.3997591210436218
  0.8329965129282136  0.9159275826343229  0.3997500459050152
  0.9581683734994104  0.0417198354580863  0.3995222050799648
  0.9569707169265094  0.1657810233005122  0.3995619421568257
  0.9565603099752766  0.2906836380667049  0.3993120514428193
  0.9571402523130681  0.4161023276782828  0.3990460684790832
  0.9586057500700543  0.5418278977197525  0.3989505075684047
  0.9597279033467215  0.6675536208881987  0.3990134093780401
  0.9598974329279286  0.7929426522027276  0.3992899333177611
  0.9593242392959604  0.9176938785163345  0.3993422034533286
  0.4087330788254147  0.5779442837569517  0.4006431414628917
  0.5493643877668530  0.5819208460411228  0.4137046624630917
  0.3266539587915563  0.4189277033628011  0.4125160188809595
  0.4464852310437735  0.4955476489763851  0.4852195601967934
 
  0.00000000E+00  0.00000000E+00  0.00000000E+00
  0.00000000E+00  0.00000000E+00  0.00000000E+00
  0.00000000E+00  0.00000000E+00  0.00000000E+00
  0.00000000E+00  0.00000000E+00  0.00000000E+00
  0.00000000E+00  0.00000000E+00  0.00000000E+00
  0.00000000E+00  0.00000000E+00  0.00000000E+00
  0.00000000E+00  0.00000000E+00  0.00000000E+00
  0.00000000E+00  0.00000000E+00  0.00000000E+00
  0.00000000E+00  0.00000000E+00  0.00000000E+00
  0.00000000E+00  0.00000000E+00  0.00000000E+00
  0.00000000E+00  0.00000000E+00  0.00000000E+00
  0.00000000E+00  0.00000000E+00  0.00000000E+00
  0.00000000E+00  0.00000000E+00  0.00000000E+00
  0.00000000E+00  0.00000000E+00  0.00000000E+00
  0.00000000E+00  0.00000000E+00  0.00000000E+00
  0.00000000E+00  0.00000000E+00  0.00000000E+00
  0.00000000E+00  0.00000000E+00  0.00000000E+00
  0.00000000E+00  0.00000000E+00  0.00000000E+00
  0.00000000E+00  0.00000000E+00  0.00000000E+00
  0.00000000E+00  0.00000000E+00  0.00000000E+00
  0.00000000E+00  0.00000000E+00  0.00000000E+00
  0.00000000E+00  0.00000000E+00  0.00000000E+00
  0.00000000E+00  0.00000000E+00  0.00000000E+00
  0.00000000E+00  0.00000000E+00  0.00000000E+00
  0.00000000E+00  0.00000000E+00  0.00000000E+00
  0.00000000E+00  0.00000000E+00  0.00000000E+00
  0.00000000E+00  0.00000000E+00  0.00000000E+00
  0.00000000E+00  0.00000000E+00  0.00000000E+00
  0.00000000E+00  0.00000000E+00  0.00000000E+00
  0.00000000E+00  0.00000000E+00  0.00000000E+00
  0.00000000E+00  0.00000000E+00  0.00000000E+00
  0.00000000E+00  0.00000000E+00  0.00000000E+00
  0.00000000E+00  0.00000000E+00  0.00000000E+00
  0.00000000E+00  0.00000000E+00  0.00000000E+00
  0.00000000E+00  0.00000000E+00  0.00000000E+00
  0.00000000E+00  0.00000000E+00  0.00000000E+00
  0.00000000E+00  0.00000000E+00  0.00000000E+00
  0.00000000E+00  0.00000000E+00  0.00000000E+00
  0.00000000E+00  0.00000000E+00  0.00000000E+00
  0.00000000E+00  0.00000000E+00  0.00000000E+00
  0.00000000E+00  0.00000000E+00  0.00000000E+00
  0.00000000E+00  0.00000000E+00  0.00000000E+00
  0.00000000E+00  0.00000000E+00  0.00000000E+00
  0.00000000E+00  0.00000000E+00  0.00000000E+00
  0.00000000E+00  0.00000000E+00  0.00000000E+00
  0.00000000E+00  0.00000000E+00  0.00000000E+00
  0.00000000E+00  0.00000000E+00  0.00000000E+00
  0.00000000E+00  0.00000000E+00  0.00000000E+00
  0.00000000E+00  0.00000000E+00  0.00000000E+00
  0.00000000E+00  0.00000000E+00  0.00000000E+00
  0.00000000E+00  0.00000000E+00  0.00000000E+00
  0.00000000E+00  0.00000000E+00  0.00000000E+00
  0.00000000E+00  0.00000000E+00  0.00000000E+00
  0.00000000E+00  0.00000000E+00  0.00000000E+00
  0.00000000E+00  0.00000000E+00  0.00000000E+00
  0.00000000E+00  0.00000000E+00  0.00000000E+00
  0.00000000E+00  0.00000000E+00  0.00000000E+00
  0.00000000E+00  0.00000000E+00  0.00000000E+00
  0.00000000E+00  0.00000000E+00  0.00000000E+00
  0.00000000E+00  0.00000000E+00  0.00000000E+00
  0.00000000E+00  0.00000000E+00  0.00000000E+00
  0.00000000E+00  0.00000000E+00  0.00000000E+00
  0.00000000E+00  0.00000000E+00  0.00000000E+00
  0.00000000E+00  0.00000000E+00  0.00000000E+00
  0.00000000E+00  0.00000000E+00  0.00000000E+00
  0.00000000E+00  0.00000000E+00  0.00000000E+00
  0.00000000E+00  0.00000000E+00  0.00000000E+00
  0.00000000E+00  0.00000000E+00  0.00000000E+00
  0.00000000E+00  0.00000000E+00  0.00000000E+00
  0.00000000E+00  0.00000000E+00  0.00000000E+00
  0.00000000E+00  0.00000000E+00  0.00000000E+00
  0.00000000E+00  0.00000000E+00  0.00000000E+00
  0.00000000E+00  0.00000000E+00  0.00000000E+00
  0.00000000E+00  0.00000000E+00  0.00000000E+00
  0.00000000E+00  0.00000000E+00  0.00000000E+00
  0.00000000E+00  0.00000000E+00  0.00000000E+00
  0.00000000E+00  0.00000000E+00  0.00000000E+00
  0.00000000E+00  0.00000000E+00  0.00000000E+00
  0.00000000E+00  0.00000000E+00  0.00000000E+00
  0.00000000E+00  0.00000000E+00  0.00000000E+00
  0.00000000E+00  0.00000000E+00  0.00000000E+00
  0.00000000E+00  0.00000000E+00  0.00000000E+00
  0.00000000E+00  0.00000000E+00  0.00000000E+00
  0.00000000E+00  0.00000000E+00  0.00000000E+00
  0.00000000E+00  0.00000000E+00  0.00000000E+00
  0.00000000E+00  0.00000000E+00  0.00000000E+00
  0.00000000E+00  0.00000000E+00  0.00000000E+00
  0.00000000E+00  0.00000000E+00  0.00000000E+00
  0.00000000E+00  0.00000000E+00  0.00000000E+00
  0.00000000E+00  0.00000000E+00  0.00000000E+00
  0.00000000E+00  0.00000000E+00  0.00000000E+00
  0.00000000E+00  0.00000000E+00  0.00000000E+00
  0.00000000E+00  0.00000000E+00  0.00000000E+00
  0.00000000E+00  0.00000000E+00  0.00000000E+00
  0.00000000E+00  0.00000000E+00  0.00000000E+00
  0.00000000E+00  0.00000000E+00  0.00000000E+00
  0.00000000E+00  0.00000000E+00  0.00000000E+00
  0.00000000E+00  0.00000000E+00  0.00000000E+00
  0.00000000E+00  0.00000000E+00  0.00000000E+00
  0.00000000E+00  0.00000000E+00  0.00000000E+00
  0.00000000E+00  0.00000000E+00  0.00000000E+00
  0.00000000E+00  0.00000000E+00  0.00000000E+00
  0.00000000E+00  0.00000000E+00  0.00000000E+00
  0.00000000E+00  0.00000000E+00  0.00000000E+00
  0.00000000E+00  0.00000000E+00  0.00000000E+00
  0.00000000E+00  0.00000000E+00  0.00000000E+00
  0.00000000E+00  0.00000000E+00  0.00000000E+00
  0.00000000E+00  0.00000000E+00  0.00000000E+00
  0.00000000E+00  0.00000000E+00  0.00000000E+00
  0.00000000E+00  0.00000000E+00  0.00000000E+00
  0.00000000E+00  0.00000000E+00  0.00000000E+00
  0.00000000E+00  0.00000000E+00  0.00000000E+00
  0.00000000E+00  0.00000000E+00  0.00000000E+00
  0.00000000E+00  0.00000000E+00  0.00000000E+00
  0.00000000E+00  0.00000000E+00  0.00000000E+00
  0.00000000E+00  0.00000000E+00  0.00000000E+00
  0.00000000E+00  0.00000000E+00  0.00000000E+00
  0.00000000E+00  0.00000000E+00  0.00000000E+00
  0.00000000E+00  0.00000000E+00  0.00000000E+00
  0.00000000E+00  0.00000000E+00  0.00000000E+00
  0.00000000E+00  0.00000000E+00  0.00000000E+00
  0.00000000E+00  0.00000000E+00  0.00000000E+00
  0.00000000E+00  0.00000000E+00  0.00000000E+00
  0.00000000E+00  0.00000000E+00  0.00000000E+00
  0.00000000E+00  0.00000000E+00  0.00000000E+00
  0.00000000E+00  0.00000000E+00  0.00000000E+00
  0.00000000E+00  0.00000000E+00  0.00000000E+00
  0.00000000E+00  0.00000000E+00  0.00000000E+00
