H1 Pd1 C123 N3                          
   1.00000000000000     
    19.8438740792784287    0.0046420142531093    0.0501585990210285
    -9.9178580952465047   17.0354205640326271   -0.0767772926464402
     0.0751814157608900   -0.0900139384616703   29.7625648799188269
   H    Pd   C    N 
     1     1   123     3
Direct
  0.4410583129540240  0.4937268446011181  0.4668615101972184
  0.4371111782149764  0.4989889290559212  0.4142565060147047
  0.0417519634466187  0.0840581628885242  0.3998887812844497
  0.0406212703319813  0.2080133742242699  0.4001395505888883
  0.0398773170249861  0.3327857419353950  0.3997218804656202
  0.0401060382107114  0.4581857821114483  0.3991476562485866
  0.0412074817991799  0.5838824433131613  0.3990783729621962
  0.0422479040470249  0.7094580059016644  0.3993285068745760
  0.0425858104485866  0.8347159378758173  0.3994818080034294
  0.0424767215764900  0.9597304190583561  0.3995465551463830
  0.1677995284850811  0.0856936396352620  0.4004926667098649
  0.1669562805818531  0.2101065540264706  0.4018053041867012
  0.1644172071326284  0.3335080582657247  0.4018410326276239
  0.1634231854884828  0.4584626942779372  0.4003982935139042
  0.1645519074891890  0.5838398900644670  0.3993216789073171
  0.1662188259249431  0.7092620036171410  0.3992795839070107
  0.1671064845843574  0.8347563229313513  0.3995190377326400
  0.1675719632078252  0.9602928535796998  0.3997459527608223
  0.2926786057849624  0.0860505654388632  0.4005329445608447
  0.2933025456339783  0.2128678561876829  0.4031553187399819
  0.2914700656662763  0.3378685317829012  0.4053067102079920
  0.2862262978286423  0.4582492613969294  0.4039347006536029
  0.2872885229202584  0.5833929566236163  0.4013719404230212
  0.2902032876419325  0.7086988750368944  0.3999350705299597
  0.2915205110741576  0.8341945932094511  0.3994662327388478
  0.2921836663210745  0.9598832148581552  0.3995932434196756
  0.4171225492390193  0.0842754285021145  0.3998198297640949
  0.4179015955717691  0.2104185414397707  0.4016822976231318
  0.4199564361619119  0.3378104348441516  0.4068390933983523
  0.4141690636298910  0.7064761977183627  0.4021888583698617
  0.4158809554531273  0.8324336245258677  0.4000742610466201
  0.4166266437422030  0.9583739328226157  0.3995306017016291
  0.5415537053467858  0.0825055454090029  0.3995066038446986
  0.5422781399606368  0.2082691186934984  0.3999484871309148
  0.5437588343737028  0.3338392567624994  0.4022736320931837
  0.5486789120306076  0.4595270448425385  0.4066694122233299
  0.5379440900471536  0.7011979588301506  0.4049778367182730
  0.5402115628631414  0.8298985581522946  0.4014442180193952
  0.5409819959656240  0.9564958969499342  0.3998662995730130
  0.6660002686319210  0.0816899404152096  0.3996520218628855
  0.6666081850011469  0.2072551988151112  0.3993839869606183
  0.6677819704703498  0.3327861116211660  0.3995316799027702
  0.6704977990284819  0.4585297410404962  0.4008472382011862
  0.6719346316719887  0.5842284416102158  0.4030035500586971
  0.6668959419507003  0.7062314537154860  0.4030000527381927
  0.6645389857455388  0.8298838132171185  0.4016176246107359
  0.6654023894174107  0.9559328922264034  0.4002211340253951
  0.7905777585178677  0.0816317197798309  0.3996717911925248
  0.7909655432945124  0.2070293172958065  0.3995128272701060
  0.7917961426725107  0.3325576858081413  0.3991375672837135
  0.7933026329869589  0.4582112375653807  0.3989766589749396
  0.7944549480148138  0.5838848826797831  0.3995191537491990
  0.7936935247759799  0.7089979709325693  0.4002345420258089
  0.7912913950829958  0.8323231341597582  0.4003261278247772
  0.7903198397433693  0.9564208025423452  0.3999196227463728
  0.9157197593860898  0.0823688724895566  0.3995820720354074
  0.9154787077457257  0.2072035864693259  0.3995196106082003
  0.9157430180992462  0.3325430023387917  0.3992607985900412
  0.9166944166681243  0.4581974453789672  0.3990050440706510
  0.9178094707676282  0.5838947085223660  0.3989893199214708
  0.9180562364694146  0.7092761348957727  0.3992478585726494
  0.9176167612874279  0.8341896096637376  0.3994495236377620
  0.9165162400169994  0.9581951120833807  0.3995287762911252
  0.0842320067849574  0.0433516052759326  0.3998910290677611
  0.0833361720140026  0.1676098517111352  0.4005133862303016
  0.0816892311141059  0.2914325174125553  0.4004223031299534
  0.0809221323523045  0.4162196363568211  0.3996057074920186
  0.0818523023695298  0.5418417592483569  0.3990892566070610
  0.0832131941512579  0.6675077706046888  0.3992179616537510
  0.0839714810006614  0.7930157846508036  0.3995094220901801
  0.0842756167487541  0.9183266200226095  0.3995760731603592
  0.2093156363085279  0.0439716207752569  0.4002214434702652
  0.2096088903201868  0.1695834929355719  0.4017892439547979
  0.2078591998782161  0.2937247516287186  0.4030896650284687
  0.2044551429179485  0.4168343508595056  0.4020439209955582
  0.2047955146180928  0.5416485273793430  0.4000818729643256
  0.2070283918810976  0.6672742588498985  0.3993921568591804
  0.2083325822078438  0.7928525653916406  0.3994073400893839
  0.2089740555436797  0.9183727411999624  0.3996164225970986
  0.3339410034074642  0.0435945691341365  0.3999075423101069
  0.3344745141843515  0.1699369404352645  0.4018428754857596
  0.3352860716333481  0.2973470196832663  0.4056050243842553
  0.3278607877237400  0.5423277126295077  0.4039111251939435
  0.3308496368997661  0.6666094040789465  0.4011344947004231
  0.3326758302152799  0.7920331412818112  0.3997660481315190
  0.3334348755450894  0.9176709654328649  0.3994810825201172
  0.4583842980189784  0.0418602394687970  0.3995450393258552
  0.4589895816898505  0.1678286821233608  0.4003255046170570
  0.4603126647873578  0.2939666153678743  0.4034157632074516
  0.4669002972328611  0.4199271371739168  0.4098470831923469
  0.4530043643007324  0.6617167198725552  0.4049881252284279
  0.4569523556398221  0.7898703691793701  0.4011146086932800
  0.4578154552075698  0.9159622244876466  0.3997487591479064
  0.5827785146414407  0.0402145383752983  0.3996098533458607
  0.5834542556050160  0.1660417585940341  0.3994936855945782
  0.5845541120491501  0.2915753301041756  0.4003488445967263
  0.5879916897253518  0.4171261533477836  0.4030839974495145
  0.5908978008073861  0.5431730863340026  0.4060321965310774
  0.5829337879815274  0.6613029871960208  0.4055626574288758
  0.5805704542887808  0.7863053887017023  0.4027505167439199
  0.5821518128643456  0.9139325604331956  0.4004222430880641
  0.7072958708394560  0.0396937463737024  0.3998052657536398
  0.7078425955489585  0.1653123835856548  0.3995053278549262
  0.7086889762626066  0.2908319602988479  0.3992328171493909
  0.7106059745386720  0.4163012823581876  0.3994625191912532
  0.7122297884131832  0.5418071255581343  0.4009238078274334
  0.7110483481229164  0.6671436188156040  0.4020074873236673
  0.7075876090310074  0.7897367924835765  0.4015540102542342
  0.7066285625628311  0.9139127858572932  0.4004753212298638
  0.8322458173868230  0.0401511370214429  0.3996517005749028
  0.8323453874628821  0.1652979498549498  0.3995645455571186
  0.8327897835474497  0.2905969498706426  0.3993168830294002
  0.8339335399646861  0.4161565583161561  0.3989732457081140
  0.8351622078421467  0.5418715158816462  0.3989913742921441
  0.8353128392424216  0.6674064147454805  0.3995409977032497
  0.8343665171406611  0.7921673684260616  0.3998955153737129
  0.8328850655151067  0.9158381310068805  0.3998258104259564
  0.9581812050490208  0.0416941182595619  0.3995789406775310
  0.9573268113820466  0.1658765140809269  0.3996428346889773
  0.9570323339406671  0.2908053943427956  0.3994266198476603
  0.9574081161640670  0.4161658758757297  0.3991054472522887
  0.9584953687647162  0.5418303509407025  0.3990065550618125
  0.9593526200356047  0.6674991036383644  0.3991676476901664
  0.9594553996272059  0.7928534599107950  0.3993644802534689
  0.9590598610341990  0.9176091990655655  0.3994530675819762
  0.4075772631861286  0.5819313788998240  0.4070671797050990
  0.5490062997360476  0.5811190911486878  0.4074591908594430
  0.3272511873451074  0.4188445289867278  0.4055062767574513
 
  0.00000000E+00  0.00000000E+00  0.00000000E+00
  0.00000000E+00  0.00000000E+00  0.00000000E+00
  0.00000000E+00  0.00000000E+00  0.00000000E+00
  0.00000000E+00  0.00000000E+00  0.00000000E+00
  0.00000000E+00  0.00000000E+00  0.00000000E+00
  0.00000000E+00  0.00000000E+00  0.00000000E+00
  0.00000000E+00  0.00000000E+00  0.00000000E+00
  0.00000000E+00  0.00000000E+00  0.00000000E+00
  0.00000000E+00  0.00000000E+00  0.00000000E+00
  0.00000000E+00  0.00000000E+00  0.00000000E+00
  0.00000000E+00  0.00000000E+00  0.00000000E+00
  0.00000000E+00  0.00000000E+00  0.00000000E+00
  0.00000000E+00  0.00000000E+00  0.00000000E+00
  0.00000000E+00  0.00000000E+00  0.00000000E+00
  0.00000000E+00  0.00000000E+00  0.00000000E+00
  0.00000000E+00  0.00000000E+00  0.00000000E+00
  0.00000000E+00  0.00000000E+00  0.00000000E+00
  0.00000000E+00  0.00000000E+00  0.00000000E+00
  0.00000000E+00  0.00000000E+00  0.00000000E+00
  0.00000000E+00  0.00000000E+00  0.00000000E+00
  0.00000000E+00  0.00000000E+00  0.00000000E+00
  0.00000000E+00  0.00000000E+00  0.00000000E+00
  0.00000000E+00  0.00000000E+00  0.00000000E+00
  0.00000000E+00  0.00000000E+00  0.00000000E+00
  0.00000000E+00  0.00000000E+00  0.00000000E+00
  0.00000000E+00  0.00000000E+00  0.00000000E+00
  0.00000000E+00  0.00000000E+00  0.00000000E+00
  0.00000000E+00  0.00000000E+00  0.00000000E+00
  0.00000000E+00  0.00000000E+00  0.00000000E+00
  0.00000000E+00  0.00000000E+00  0.00000000E+00
  0.00000000E+00  0.00000000E+00  0.00000000E+00
  0.00000000E+00  0.00000000E+00  0.00000000E+00
  0.00000000E+00  0.00000000E+00  0.00000000E+00
  0.00000000E+00  0.00000000E+00  0.00000000E+00
  0.00000000E+00  0.00000000E+00  0.00000000E+00
  0.00000000E+00  0.00000000E+00  0.00000000E+00
  0.00000000E+00  0.00000000E+00  0.00000000E+00
  0.00000000E+00  0.00000000E+00  0.00000000E+00
  0.00000000E+00  0.00000000E+00  0.00000000E+00
  0.00000000E+00  0.00000000E+00  0.00000000E+00
  0.00000000E+00  0.00000000E+00  0.00000000E+00
  0.00000000E+00  0.00000000E+00  0.00000000E+00
  0.00000000E+00  0.00000000E+00  0.00000000E+00
  0.00000000E+00  0.00000000E+00  0.00000000E+00
  0.00000000E+00  0.00000000E+00  0.00000000E+00
  0.00000000E+00  0.00000000E+00  0.00000000E+00
  0.00000000E+00  0.00000000E+00  0.00000000E+00
  0.00000000E+00  0.00000000E+00  0.00000000E+00
  0.00000000E+00  0.00000000E+00  0.00000000E+00
  0.00000000E+00  0.00000000E+00  0.00000000E+00
  0.00000000E+00  0.00000000E+00  0.00000000E+00
  0.00000000E+00  0.00000000E+00  0.00000000E+00
  0.00000000E+00  0.00000000E+00  0.00000000E+00
  0.00000000E+00  0.00000000E+00  0.00000000E+00
  0.00000000E+00  0.00000000E+00  0.00000000E+00
  0.00000000E+00  0.00000000E+00  0.00000000E+00
  0.00000000E+00  0.00000000E+00  0.00000000E+00
  0.00000000E+00  0.00000000E+00  0.00000000E+00
  0.00000000E+00  0.00000000E+00  0.00000000E+00
  0.00000000E+00  0.00000000E+00  0.00000000E+00
  0.00000000E+00  0.00000000E+00  0.00000000E+00
  0.00000000E+00  0.00000000E+00  0.00000000E+00
  0.00000000E+00  0.00000000E+00  0.00000000E+00
  0.00000000E+00  0.00000000E+00  0.00000000E+00
  0.00000000E+00  0.00000000E+00  0.00000000E+00
  0.00000000E+00  0.00000000E+00  0.00000000E+00
  0.00000000E+00  0.00000000E+00  0.00000000E+00
  0.00000000E+00  0.00000000E+00  0.00000000E+00
  0.00000000E+00  0.00000000E+00  0.00000000E+00
  0.00000000E+00  0.00000000E+00  0.00000000E+00
  0.00000000E+00  0.00000000E+00  0.00000000E+00
  0.00000000E+00  0.00000000E+00  0.00000000E+00
  0.00000000E+00  0.00000000E+00  0.00000000E+00
  0.00000000E+00  0.00000000E+00  0.00000000E+00
  0.00000000E+00  0.00000000E+00  0.00000000E+00
  0.00000000E+00  0.00000000E+00  0.00000000E+00
  0.00000000E+00  0.00000000E+00  0.00000000E+00
  0.00000000E+00  0.00000000E+00  0.00000000E+00
  0.00000000E+00  0.00000000E+00  0.00000000E+00
  0.00000000E+00  0.00000000E+00  0.00000000E+00
  0.00000000E+00  0.00000000E+00  0.00000000E+00
  0.00000000E+00  0.00000000E+00  0.00000000E+00
  0.00000000E+00  0.00000000E+00  0.00000000E+00
  0.00000000E+00  0.00000000E+00  0.00000000E+00
  0.00000000E+00  0.00000000E+00  0.00000000E+00
  0.00000000E+00  0.00000000E+00  0.00000000E+00
  0.00000000E+00  0.00000000E+00  0.00000000E+00
  0.00000000E+00  0.00000000E+00  0.00000000E+00
  0.00000000E+00  0.00000000E+00  0.00000000E+00
  0.00000000E+00  0.00000000E+00  0.00000000E+00
  0.00000000E+00  0.00000000E+00  0.00000000E+00
  0.00000000E+00  0.00000000E+00  0.00000000E+00
  0.00000000E+00  0.00000000E+00  0.00000000E+00
  0.00000000E+00  0.00000000E+00  0.00000000E+00
  0.00000000E+00  0.00000000E+00  0.00000000E+00
  0.00000000E+00  0.00000000E+00  0.00000000E+00
  0.00000000E+00  0.00000000E+00  0.00000000E+00
  0.00000000E+00  0.00000000E+00  0.00000000E+00
  0.00000000E+00  0.00000000E+00  0.00000000E+00
  0.00000000E+00  0.00000000E+00  0.00000000E+00
  0.00000000E+00  0.00000000E+00  0.00000000E+00
  0.00000000E+00  0.00000000E+00  0.00000000E+00
  0.00000000E+00  0.00000000E+00  0.00000000E+00
  0.00000000E+00  0.00000000E+00  0.00000000E+00
  0.00000000E+00  0.00000000E+00  0.00000000E+00
  0.00000000E+00  0.00000000E+00  0.00000000E+00
  0.00000000E+00  0.00000000E+00  0.00000000E+00
  0.00000000E+00  0.00000000E+00  0.00000000E+00
  0.00000000E+00  0.00000000E+00  0.00000000E+00
  0.00000000E+00  0.00000000E+00  0.00000000E+00
  0.00000000E+00  0.00000000E+00  0.00000000E+00
  0.00000000E+00  0.00000000E+00  0.00000000E+00
  0.00000000E+00  0.00000000E+00  0.00000000E+00
  0.00000000E+00  0.00000000E+00  0.00000000E+00
  0.00000000E+00  0.00000000E+00  0.00000000E+00
  0.00000000E+00  0.00000000E+00  0.00000000E+00
  0.00000000E+00  0.00000000E+00  0.00000000E+00
  0.00000000E+00  0.00000000E+00  0.00000000E+00
  0.00000000E+00  0.00000000E+00  0.00000000E+00
  0.00000000E+00  0.00000000E+00  0.00000000E+00
  0.00000000E+00  0.00000000E+00  0.00000000E+00
  0.00000000E+00  0.00000000E+00  0.00000000E+00
  0.00000000E+00  0.00000000E+00  0.00000000E+00
  0.00000000E+00  0.00000000E+00  0.00000000E+00
  0.00000000E+00  0.00000000E+00  0.00000000E+00
  0.00000000E+00  0.00000000E+00  0.00000000E+00
  0.00000000E+00  0.00000000E+00  0.00000000E+00
  0.00000000E+00  0.00000000E+00  0.00000000E+00
