H1 Ru1 C124 N2                          
   1.00000000000000     
    19.8098933512415343   -0.0421022323896245   -0.2008719247066002
    -9.9414639962964273   17.0531352419963653    0.1857471408966296
    -0.3016647572990190    0.1484854237762581   29.8269887755896832
   H    Ru   C    N 
     1     1   124     2
Direct
  0.4315054682899494  0.5293997834812371  0.4767600562140488
  0.4396485115144193  0.4992821475015032  0.4276366744028381
  0.0428805715261960  0.0846867525071224  0.3998059333939515
  0.0425034636059671  0.2090331734662655  0.3995157061900065
  0.0416019957046394  0.3334263450096981  0.3991376970812924
  0.0409191872193570  0.4585051247038030  0.3990692100526448
  0.0411553129618944  0.5838339632198556  0.3993741556753743
  0.0415973474333601  0.7091197700298182  0.3997335716644203
  0.0419247504988381  0.8342990906832509  0.3998237322903269
  0.0423888881055623  0.9595827542218957  0.3998849180214286
  0.1685345209196773  0.0859707372776446  0.4001400958655302
  0.1694143634939035  0.2116746894808115  0.4001766244822754
  0.1676186788861591  0.3352222098945716  0.3996189686486525
  0.1649897571039206  0.4593561286218406  0.3993789585515387
  0.1650959840797316  0.5842196865753080  0.3992115044275598
  0.1659571967606600  0.7093048182509916  0.3994724379538779
  0.1666403267634605  0.8345017991616557  0.3997656494735049
  0.1673638057899116  0.9599631146210945  0.3999679658753531
  0.2928220563214244  0.0852891635621036  0.4001331699576106
  0.2950151522728977  0.2126567292463305  0.4011661093722406
  0.2968930077086178  0.3402834945543907  0.4022322749303634
  0.2895470147330008  0.4615462720232170  0.4020640413774801
  0.2887616586101078  0.5851155288086568  0.4014268992566762
  0.2902330001995463  0.7094033925160794  0.4003519797535641
  0.2912758331176118  0.8342470179813276  0.3994647110590036
  0.2919735690955521  0.9594784630308121  0.3996152815322995
  0.4172573695326928  0.0835246272022154  0.3997038743804910
  0.4181715047012141  0.2091359916172134  0.4001751787526843
  0.4219023472846213  0.3365752068618575  0.4036779858370464
  0.4142125872149340  0.7067643819499723  0.4028714533445891
  0.4158605375136532  0.8326359659336254  0.4000968634636285
  0.4166006694154923  0.9581184720025836  0.3993670231520430
  0.5418920686138862  0.0821177528554519  0.3995433320578741
  0.5425790213445429  0.2071893623016484  0.3998764126998788
  0.5439938481472552  0.3318503929889223  0.4003927965995946
  0.5454753787207703  0.4548958729909055  0.4015612461235761
  0.5409307720389220  0.5762903609232867  0.4007197252321603
  0.5373061546703847  0.7024714935423976  0.4035718168663008
  0.5401347044641822  0.8305326287636842  0.4012935137746415
  0.5412198912308942  0.9566438183427013  0.3996528203764035
  0.6665548516137152  0.0816343919179899  0.3996711536375605
  0.6672148744935414  0.2069536404086783  0.3998266926899431
  0.6681627419868935  0.3321755828580257  0.3997245137005202
  0.6694493633140798  0.4574093958656222  0.3991697549071288
  0.6681592936033756  0.5814276967335202  0.3988548712237477
  0.6638552755875934  0.7042303043969717  0.3997330970050474
  0.6642543848011688  0.8296987898636201  0.4005760309622787
  0.6657602795648817  0.9560333343977953  0.4000235309573555
  0.7913888841035633  0.0817910681080883  0.3997958796728246
  0.7918604475552058  0.2070442024086384  0.3998997542107631
  0.7924028663973484  0.3323744266559864  0.3997282047838603
  0.7930286470833269  0.4577665067163088  0.3995419315733416
  0.7929689621452064  0.5829518887692799  0.3993890767914540
  0.7913835043532668  0.7073929163396989  0.3992506514609613
  0.7902274458922740  0.8313445290744262  0.3997545922573306
  0.7906158190684229  0.9563586509708683  0.3997838354473348
  0.9167173146111843  0.0827740653508719  0.3997098820262325
  0.9167963094328534  0.2076144420844179  0.3996640258445281
  0.9167691529538955  0.3327206999173121  0.3995304700007505
  0.9169166261221728  0.4580668444648342  0.3995334109183548
  0.9171690343170501  0.5834933183157957  0.3995812516687547
  0.9168823970587473  0.7086135701200015  0.3996238730033047
  0.9166247682979433  0.8334098312945578  0.3996703217446548
  0.9165487858995671  0.9580412081999762  0.3996756566473840
  0.0847414397491240  0.0434781119778593  0.3999521779385298
  0.0852659768436430  0.1686354312279446  0.3997491224405212
  0.0839897740487244  0.2925330409131371  0.3992423809082009
  0.0822717542600228  0.4169628748314393  0.3990166884283286
  0.0822093765864142  0.5420852845353719  0.3990838465810138
  0.0828057661323786  0.6673940566564666  0.3995225822957627
  0.0833747420134837  0.7926928759170030  0.3998612852342148
  0.0838995400380164  0.9179658592271763  0.3999079816860259
  0.2094793450863690  0.0436682300175794  0.4001196540225804
  0.2110765820416022  0.1700760042691631  0.4004558895934078
  0.2117448255874628  0.2959248897169927  0.4005082252794840
  0.2070360223370088  0.4185760494737815  0.3999362616545166
  0.2059455424332522  0.5425669683009733  0.3995555008172140
  0.2070809456329171  0.6676555493920316  0.3995831527241420
  0.2079757662000937  0.7927854467646004  0.3995567699634041
  0.2086474886683302  0.9180542909513136  0.3998063915446240
  0.3339483234120482  0.0429582408737382  0.3997972640445153
  0.3350228007462172  0.1690487655870181  0.4005136458306263
  0.3380264664302149  0.2971540443643368  0.4027782738871746
  0.3345118753850008  0.4243801722668231  0.4041120770128482
  0.3299519568600416  0.5447284419135109  0.4043936574659717
  0.3312295135920177  0.6677665158023968  0.4018690346332608
  0.3325858090572392  0.7924554759371308  0.3999209146986420
  0.3333147202272622  0.9175342327311643  0.3993959646464562
  0.4585857268880185  0.0414306329572576  0.3995006644324566
  0.4593149596483005  0.1668475031636111  0.3998323002801356
  0.4609427860822944  0.2924193047802763  0.4008913276691233
  0.4532726651294082  0.6622192486771936  0.4060265624830174
  0.4569956394955255  0.7902119788168652  0.4012586633671387
  0.4579032505258057  0.9159744107683786  0.3995490255354763
  0.5832230043482677  0.0401644483669920  0.3995101215195329
  0.5838969710545699  0.1654337639047391  0.3997542088340684
  0.5849383440266578  0.2903239153415297  0.3999522267809479
  0.5866249388935495  0.4147904374836657  0.3998619666003899
  0.5854128957665427  0.5385087183254805  0.3992590366941388
  0.5788068420434839  0.6599573219210847  0.4009365978651228
  0.5801980030018032  0.7869219574136554  0.4018699552645061
  0.5823489610198671  0.9143178618936548  0.4002379057865958
  0.7078625027958341  0.0397360324810068  0.3997708452962431
  0.7085424529129969  0.1652149825956353  0.3998386254682659
  0.7092438420976113  0.2904987420091586  0.3997881410431191
  0.7101809812851121  0.4156920264159623  0.3994307114368787
  0.7102310659766670  0.5406169417440302  0.3991814944401716
  0.7077017004769401  0.6647278951833548  0.3989785102997532
  0.7061017402805443  0.7883446105081749  0.4000935910008376
  0.7067868683698486  0.9137918102587816  0.4000823023113301
  0.8329609074210730  0.0402552588246494  0.3997475622863634
  0.8333637102290270  0.1654636726088817  0.3998275236120188
  0.8336345347680355  0.2906453030259147  0.3997899144347579
  0.8340273420594089  0.4159438450486137  0.3996358601030798
  0.8342683303322496  0.5413450341083363  0.3995144684487181
  0.8336870548951411  0.6664590518115003  0.3994281168953625
  0.8328988344632485  0.7908728600489993  0.3995673222237006
  0.8325591829848059  0.9152376424403893  0.3997114607914775
  0.9589018645719731  0.0418761072062262  0.3997026933794316
  0.9587640386006211  0.1664745441404368  0.3996394002046916
  0.9584085239792962  0.2912338026262996  0.3994303609336887
  0.9580271675963075  0.4163110992351537  0.3993600769149253
  0.9582682168316137  0.5417043797415607  0.3995162332089597
  0.9584651600097290  0.6670721291211096  0.3996605427602472
  0.9585093447138333  0.7922058343034077  0.3996756592449806
  0.9586696716372684  0.9171089885342107  0.3997493234704949
  0.4091768613222131  0.5818449302853087  0.4107245848313342
  0.4661024502285295  0.4167893342884821  0.4074745352148665
 
  0.00000000E+00  0.00000000E+00  0.00000000E+00
  0.00000000E+00  0.00000000E+00  0.00000000E+00
  0.00000000E+00  0.00000000E+00  0.00000000E+00
  0.00000000E+00  0.00000000E+00  0.00000000E+00
  0.00000000E+00  0.00000000E+00  0.00000000E+00
  0.00000000E+00  0.00000000E+00  0.00000000E+00
  0.00000000E+00  0.00000000E+00  0.00000000E+00
  0.00000000E+00  0.00000000E+00  0.00000000E+00
  0.00000000E+00  0.00000000E+00  0.00000000E+00
  0.00000000E+00  0.00000000E+00  0.00000000E+00
  0.00000000E+00  0.00000000E+00  0.00000000E+00
  0.00000000E+00  0.00000000E+00  0.00000000E+00
  0.00000000E+00  0.00000000E+00  0.00000000E+00
  0.00000000E+00  0.00000000E+00  0.00000000E+00
  0.00000000E+00  0.00000000E+00  0.00000000E+00
  0.00000000E+00  0.00000000E+00  0.00000000E+00
  0.00000000E+00  0.00000000E+00  0.00000000E+00
  0.00000000E+00  0.00000000E+00  0.00000000E+00
  0.00000000E+00  0.00000000E+00  0.00000000E+00
  0.00000000E+00  0.00000000E+00  0.00000000E+00
  0.00000000E+00  0.00000000E+00  0.00000000E+00
  0.00000000E+00  0.00000000E+00  0.00000000E+00
  0.00000000E+00  0.00000000E+00  0.00000000E+00
  0.00000000E+00  0.00000000E+00  0.00000000E+00
  0.00000000E+00  0.00000000E+00  0.00000000E+00
  0.00000000E+00  0.00000000E+00  0.00000000E+00
  0.00000000E+00  0.00000000E+00  0.00000000E+00
  0.00000000E+00  0.00000000E+00  0.00000000E+00
  0.00000000E+00  0.00000000E+00  0.00000000E+00
  0.00000000E+00  0.00000000E+00  0.00000000E+00
  0.00000000E+00  0.00000000E+00  0.00000000E+00
  0.00000000E+00  0.00000000E+00  0.00000000E+00
  0.00000000E+00  0.00000000E+00  0.00000000E+00
  0.00000000E+00  0.00000000E+00  0.00000000E+00
  0.00000000E+00  0.00000000E+00  0.00000000E+00
  0.00000000E+00  0.00000000E+00  0.00000000E+00
  0.00000000E+00  0.00000000E+00  0.00000000E+00
  0.00000000E+00  0.00000000E+00  0.00000000E+00
  0.00000000E+00  0.00000000E+00  0.00000000E+00
  0.00000000E+00  0.00000000E+00  0.00000000E+00
  0.00000000E+00  0.00000000E+00  0.00000000E+00
  0.00000000E+00  0.00000000E+00  0.00000000E+00
  0.00000000E+00  0.00000000E+00  0.00000000E+00
  0.00000000E+00  0.00000000E+00  0.00000000E+00
  0.00000000E+00  0.00000000E+00  0.00000000E+00
  0.00000000E+00  0.00000000E+00  0.00000000E+00
  0.00000000E+00  0.00000000E+00  0.00000000E+00
  0.00000000E+00  0.00000000E+00  0.00000000E+00
  0.00000000E+00  0.00000000E+00  0.00000000E+00
  0.00000000E+00  0.00000000E+00  0.00000000E+00
  0.00000000E+00  0.00000000E+00  0.00000000E+00
  0.00000000E+00  0.00000000E+00  0.00000000E+00
  0.00000000E+00  0.00000000E+00  0.00000000E+00
  0.00000000E+00  0.00000000E+00  0.00000000E+00
  0.00000000E+00  0.00000000E+00  0.00000000E+00
  0.00000000E+00  0.00000000E+00  0.00000000E+00
  0.00000000E+00  0.00000000E+00  0.00000000E+00
  0.00000000E+00  0.00000000E+00  0.00000000E+00
  0.00000000E+00  0.00000000E+00  0.00000000E+00
  0.00000000E+00  0.00000000E+00  0.00000000E+00
  0.00000000E+00  0.00000000E+00  0.00000000E+00
  0.00000000E+00  0.00000000E+00  0.00000000E+00
  0.00000000E+00  0.00000000E+00  0.00000000E+00
  0.00000000E+00  0.00000000E+00  0.00000000E+00
  0.00000000E+00  0.00000000E+00  0.00000000E+00
  0.00000000E+00  0.00000000E+00  0.00000000E+00
  0.00000000E+00  0.00000000E+00  0.00000000E+00
  0.00000000E+00  0.00000000E+00  0.00000000E+00
  0.00000000E+00  0.00000000E+00  0.00000000E+00
  0.00000000E+00  0.00000000E+00  0.00000000E+00
  0.00000000E+00  0.00000000E+00  0.00000000E+00
  0.00000000E+00  0.00000000E+00  0.00000000E+00
  0.00000000E+00  0.00000000E+00  0.00000000E+00
  0.00000000E+00  0.00000000E+00  0.00000000E+00
  0.00000000E+00  0.00000000E+00  0.00000000E+00
  0.00000000E+00  0.00000000E+00  0.00000000E+00
  0.00000000E+00  0.00000000E+00  0.00000000E+00
  0.00000000E+00  0.00000000E+00  0.00000000E+00
  0.00000000E+00  0.00000000E+00  0.00000000E+00
  0.00000000E+00  0.00000000E+00  0.00000000E+00
  0.00000000E+00  0.00000000E+00  0.00000000E+00
  0.00000000E+00  0.00000000E+00  0.00000000E+00
  0.00000000E+00  0.00000000E+00  0.00000000E+00
  0.00000000E+00  0.00000000E+00  0.00000000E+00
  0.00000000E+00  0.00000000E+00  0.00000000E+00
  0.00000000E+00  0.00000000E+00  0.00000000E+00
  0.00000000E+00  0.00000000E+00  0.00000000E+00
  0.00000000E+00  0.00000000E+00  0.00000000E+00
  0.00000000E+00  0.00000000E+00  0.00000000E+00
  0.00000000E+00  0.00000000E+00  0.00000000E+00
  0.00000000E+00  0.00000000E+00  0.00000000E+00
  0.00000000E+00  0.00000000E+00  0.00000000E+00
  0.00000000E+00  0.00000000E+00  0.00000000E+00
  0.00000000E+00  0.00000000E+00  0.00000000E+00
  0.00000000E+00  0.00000000E+00  0.00000000E+00
  0.00000000E+00  0.00000000E+00  0.00000000E+00
  0.00000000E+00  0.00000000E+00  0.00000000E+00
  0.00000000E+00  0.00000000E+00  0.00000000E+00
  0.00000000E+00  0.00000000E+00  0.00000000E+00
  0.00000000E+00  0.00000000E+00  0.00000000E+00
  0.00000000E+00  0.00000000E+00  0.00000000E+00
  0.00000000E+00  0.00000000E+00  0.00000000E+00
  0.00000000E+00  0.00000000E+00  0.00000000E+00
  0.00000000E+00  0.00000000E+00  0.00000000E+00
  0.00000000E+00  0.00000000E+00  0.00000000E+00
  0.00000000E+00  0.00000000E+00  0.00000000E+00
  0.00000000E+00  0.00000000E+00  0.00000000E+00
  0.00000000E+00  0.00000000E+00  0.00000000E+00
  0.00000000E+00  0.00000000E+00  0.00000000E+00
  0.00000000E+00  0.00000000E+00  0.00000000E+00
  0.00000000E+00  0.00000000E+00  0.00000000E+00
  0.00000000E+00  0.00000000E+00  0.00000000E+00
  0.00000000E+00  0.00000000E+00  0.00000000E+00
  0.00000000E+00  0.00000000E+00  0.00000000E+00
  0.00000000E+00  0.00000000E+00  0.00000000E+00
  0.00000000E+00  0.00000000E+00  0.00000000E+00
  0.00000000E+00  0.00000000E+00  0.00000000E+00
  0.00000000E+00  0.00000000E+00  0.00000000E+00
  0.00000000E+00  0.00000000E+00  0.00000000E+00
  0.00000000E+00  0.00000000E+00  0.00000000E+00
  0.00000000E+00  0.00000000E+00  0.00000000E+00
  0.00000000E+00  0.00000000E+00  0.00000000E+00
  0.00000000E+00  0.00000000E+00  0.00000000E+00
  0.00000000E+00  0.00000000E+00  0.00000000E+00
  0.00000000E+00  0.00000000E+00  0.00000000E+00
  0.00000000E+00  0.00000000E+00  0.00000000E+00
  0.00000000E+00  0.00000000E+00  0.00000000E+00
  0.00000000E+00  0.00000000E+00  0.00000000E+00
