Au1 C123 N3 O1                          
   1.00000000000000     
    19.8497213447106589    0.0017937955998436   -0.0232224951000674
    -9.9230184385832363   17.0348204217554091    0.0185404455254434
    -0.0345035189973856    0.0119008515315760   29.7569151001761725
   Au   C    N    O 
     1   123     3     1
Direct
  0.4372801463407201  0.4989145061943459  0.4099001993319951
  0.0417619851215500  0.0840207954489341  0.4000134230961115
  0.0406020606201830  0.2079434480577680  0.4000635569597192
  0.0398366245518023  0.3327392019299658  0.3994918383330278
  0.0400470562131986  0.4581685101041643  0.3988287309149707
  0.0411979934123265  0.5838917175792768  0.3987473784635068
  0.0422946752822285  0.7094808366571467  0.3991043010919124
  0.0426303430650735  0.8347328386792803  0.3994425921850908
  0.0424999708326462  0.9597166846441734  0.3997042666911401
  0.1678427529998394  0.0856951654427979  0.4005687618391202
  0.1669616466240981  0.2100088393727219  0.4015699143018271
  0.1643327658709567  0.3334097387422975  0.4014431242991671
  0.1632124045044571  0.4584570335476900  0.4000896417405218
  0.1644396140314835  0.5838574615868829  0.3990353164906356
  0.1662232679858540  0.7092923605090669  0.3990645452669490
  0.1671385103356949  0.8347786837468801  0.3994493389334413
  0.1676198090972967  0.9603185693012541  0.3998173670193153
  0.2927450701456340  0.0860551539235261  0.4006107047835497
  0.2933677987717995  0.2128462772534913  0.4027841796589633
  0.2914782907999089  0.3376730797952128  0.4044651949922636
  0.2856820520769745  0.4581448798135879  0.4036306355943707
  0.2869659295438701  0.5833822106920831  0.4012753358420991
  0.2901768850124194  0.7087163665217857  0.3997048939829579
  0.2915243484609025  0.8342113517006318  0.3994344165582010
  0.2922185848531598  0.9598879145706684  0.3997350836117143
  0.4171838295257119  0.0842246913930740  0.4000300238705410
  0.4180078002971627  0.2102441613686256  0.4017256974437415
  0.4202362889937676  0.3375677555011607  0.4053979057250813
  0.4141036784550114  0.7065014915929870  0.4019645232367904
  0.4158713001193785  0.8323920153482304  0.3999742757692033
  0.4166508105291639  0.9583246443479387  0.3996359952308071
  0.5415958501375236  0.0824020043209105  0.3996328651158113
  0.5424007838976852  0.2081408346946639  0.4001582579111462
  0.5439910883570895  0.3336313389219025  0.4022135742423240
  0.5491907191035185  0.4591588930409917  0.4056062196911225
  0.5379843822796725  0.7010519328757659  0.4043341440348674
  0.5402471652561828  0.8297872484950665  0.4012338019806574
  0.5409879953008349  0.9564006121770838  0.3998465262811005
  0.6660341692242456  0.0815891081549785  0.3996134467006847
  0.6666783880831678  0.2071461990933227  0.3994400686228676
  0.6679248927737663  0.3326613457002723  0.3997282790339521
  0.6708620581527593  0.4584192045316662  0.4011155989433426
  0.6722723121344657  0.5841234177761164  0.4029382551519030
  0.6669685786903922  0.7060883084021070  0.4029163765868374
  0.6645188837546460  0.8297415529608771  0.4015157999066611
  0.6654099001487995  0.9558462045432836  0.4001623527605818
  0.7905771532959532  0.0815286272191638  0.3996560177861536
  0.7909961646332998  0.2069267607055888  0.3993614552103326
  0.7918758191004799  0.3324736832067008  0.3990301845707760
  0.7934740401525632  0.4581717048162375  0.3990027598178911
  0.7946390715949081  0.5838535705771688  0.3997161939437903
  0.7937872994770051  0.7089665987462365  0.4004225814443743
  0.7912878215026530  0.8322157505083830  0.4004348466043540
  0.7903131910549349  0.9563218884586903  0.4000036795088837
  0.9157068141464626  0.0822844211946384  0.3996825623772671
  0.9154664283706906  0.2071131898813853  0.3994356242841402
  0.9157484916643719  0.3324745329409750  0.3990190956997362
  0.9167255223470488  0.4581573891462834  0.3986986689672618
  0.9178810052671578  0.5838992038786864  0.3987824638172965
  0.9181161291136491  0.7092693601338678  0.3992434157456747
  0.9176466888779986  0.8341663403070123  0.3995710218360895
  0.9165091576578891  0.9581301086399094  0.3997059736845026
  0.0842569737497679  0.0433287872730838  0.4000399657855824
  0.0833244984324489  0.1675509349122405  0.4004720483381992
  0.0816311120922553  0.2913510208081940  0.4001981495294456
  0.0807951295677361  0.4161716993933271  0.3993047818267408
  0.0817855267303816  0.5418217579279981  0.3987528114945276
  0.0832188532147803  0.6675083560370200  0.3989476653117759
  0.0840059057000586  0.7930205350811228  0.3993551184040129
  0.0843096721063598  0.9183233764412368  0.3996507433883376
  0.2093452561260095  0.0439483056959249  0.4002990097080302
  0.2096442311865518  0.1695295141989389  0.4016484677129930
  0.2078175125463042  0.2936108502038929  0.4025858188156329
  0.2041189547118391  0.4167291407616273  0.4016356729586347
  0.2045569556897754  0.5416029257847348  0.3998633273128429
  0.2070027412967398  0.6672878860924190  0.3991520970899798
  0.2083490496599577  0.7928773897066776  0.3993138631442529
  0.2090089531340591  0.9183789605940559  0.3996692389517782
  0.3339973785673163  0.0435935975828846  0.4000812551895885
  0.3345641921132749  0.1698858643191479  0.4017613372666216
  0.3353533342650357  0.2972081642251455  0.4046519796208082
  0.3273047520158187  0.5422483304479698  0.4036873292210152
  0.3307772707543340  0.6665924099998101  0.4009073349226240
  0.3326739870681004  0.7920145992336902  0.3996332257758802
  0.3334572251051673  0.9176682270230602  0.3995834738620103
  0.4584275625841583  0.0417829073999583  0.3997179780062520
  0.4590866927307180  0.1677172197024076  0.4005238788984551
  0.4605623983416757  0.2937415631810164  0.4031610129009190
  0.4676230297960177  0.4192224252319323  0.4071172916007567
  0.4530446031206761  0.6617548891615370  0.4043254482050070
  0.4569574171921463  0.7898488217704646  0.4009358436454740
  0.4578226384464282  0.9158949541718625  0.3997527214303992
  0.5828064891314401  0.0401139168166958  0.3996442386498807
  0.5835369250095396  0.1659177403291365  0.3996466706860440
  0.5847359957461945  0.2913688111363277  0.4005257511839971
  0.5884132733128744  0.4168086867804954  0.4029773133912078
  0.5913671484439983  0.5428598862707572  0.4053918981065949
  0.5830036978341854  0.6611940449387999  0.4049038340116989
  0.5805675618187525  0.7861593490747470  0.4024365795584746
  0.5821460605544881  0.9137959682957967  0.4003220069375443
  0.7073088048555719  0.0395976713968001  0.3997567541035364
  0.7078910089283043  0.1651876339656734  0.3994488608404959
  0.7087947525080204  0.2907065310029616  0.3992927416678820
  0.7108384464795278  0.4161906883180659  0.3997091520706884
  0.7124862359945731  0.5416696333013814  0.4011449642866015
  0.7111407184705840  0.6670327850885576  0.4020764757854896
  0.7075947560291512  0.7896314856651803  0.4015543491600071
  0.7066085907372851  0.9137932709039260  0.4004588721297813
  0.8322389562187382  0.0400623714737570  0.3997292107102407
  0.8323545420007048  0.1651896405718479  0.3994702785994021
  0.8328272750678745  0.2904921986523991  0.3991251627823870
  0.8340264434378371  0.4160656824573772  0.3988032780660088
  0.8352890601328438  0.5418259298831501  0.3989951184333798
  0.8353999735290780  0.6673743776544336  0.3996832723466615
  0.8344045949024220  0.7921141556217015  0.4000523316969784
  0.8328701458701904  0.9157395278876301  0.3999613580539748
  0.9581786498902152  0.0416290364533109  0.3997360249213864
  0.9572993911361201  0.1657827524206845  0.3996477595775007
  0.9570080827274281  0.2907260136722832  0.3992426890853986
  0.9573809889096936  0.4160966309789389  0.3987984706016584
  0.9585099464412310  0.5417851637309327  0.3986874095737993
  0.9594260378340800  0.6674883031445327  0.3990053917693756
  0.9595122345129531  0.7928537162336853  0.3993897334421000
  0.9590836024765563  0.9175908275970823  0.3996178590785582
  0.4070525154561030  0.5822821648913632  0.4058107259749598
  0.5498396516715569  0.5810908402813815  0.4063818421045478
  0.3261106839686366  0.4182967069741576  0.4049842544456535
  0.4370756898892577  0.5035337203530726  0.4899322003263642
 
  0.00000000E+00  0.00000000E+00  0.00000000E+00
  0.00000000E+00  0.00000000E+00  0.00000000E+00
  0.00000000E+00  0.00000000E+00  0.00000000E+00
  0.00000000E+00  0.00000000E+00  0.00000000E+00
  0.00000000E+00  0.00000000E+00  0.00000000E+00
  0.00000000E+00  0.00000000E+00  0.00000000E+00
  0.00000000E+00  0.00000000E+00  0.00000000E+00
  0.00000000E+00  0.00000000E+00  0.00000000E+00
  0.00000000E+00  0.00000000E+00  0.00000000E+00
  0.00000000E+00  0.00000000E+00  0.00000000E+00
  0.00000000E+00  0.00000000E+00  0.00000000E+00
  0.00000000E+00  0.00000000E+00  0.00000000E+00
  0.00000000E+00  0.00000000E+00  0.00000000E+00
  0.00000000E+00  0.00000000E+00  0.00000000E+00
  0.00000000E+00  0.00000000E+00  0.00000000E+00
  0.00000000E+00  0.00000000E+00  0.00000000E+00
  0.00000000E+00  0.00000000E+00  0.00000000E+00
  0.00000000E+00  0.00000000E+00  0.00000000E+00
  0.00000000E+00  0.00000000E+00  0.00000000E+00
  0.00000000E+00  0.00000000E+00  0.00000000E+00
  0.00000000E+00  0.00000000E+00  0.00000000E+00
  0.00000000E+00  0.00000000E+00  0.00000000E+00
  0.00000000E+00  0.00000000E+00  0.00000000E+00
  0.00000000E+00  0.00000000E+00  0.00000000E+00
  0.00000000E+00  0.00000000E+00  0.00000000E+00
  0.00000000E+00  0.00000000E+00  0.00000000E+00
  0.00000000E+00  0.00000000E+00  0.00000000E+00
  0.00000000E+00  0.00000000E+00  0.00000000E+00
  0.00000000E+00  0.00000000E+00  0.00000000E+00
  0.00000000E+00  0.00000000E+00  0.00000000E+00
  0.00000000E+00  0.00000000E+00  0.00000000E+00
  0.00000000E+00  0.00000000E+00  0.00000000E+00
  0.00000000E+00  0.00000000E+00  0.00000000E+00
  0.00000000E+00  0.00000000E+00  0.00000000E+00
  0.00000000E+00  0.00000000E+00  0.00000000E+00
  0.00000000E+00  0.00000000E+00  0.00000000E+00
  0.00000000E+00  0.00000000E+00  0.00000000E+00
  0.00000000E+00  0.00000000E+00  0.00000000E+00
  0.00000000E+00  0.00000000E+00  0.00000000E+00
  0.00000000E+00  0.00000000E+00  0.00000000E+00
  0.00000000E+00  0.00000000E+00  0.00000000E+00
  0.00000000E+00  0.00000000E+00  0.00000000E+00
  0.00000000E+00  0.00000000E+00  0.00000000E+00
  0.00000000E+00  0.00000000E+00  0.00000000E+00
  0.00000000E+00  0.00000000E+00  0.00000000E+00
  0.00000000E+00  0.00000000E+00  0.00000000E+00
  0.00000000E+00  0.00000000E+00  0.00000000E+00
  0.00000000E+00  0.00000000E+00  0.00000000E+00
  0.00000000E+00  0.00000000E+00  0.00000000E+00
  0.00000000E+00  0.00000000E+00  0.00000000E+00
  0.00000000E+00  0.00000000E+00  0.00000000E+00
  0.00000000E+00  0.00000000E+00  0.00000000E+00
  0.00000000E+00  0.00000000E+00  0.00000000E+00
  0.00000000E+00  0.00000000E+00  0.00000000E+00
  0.00000000E+00  0.00000000E+00  0.00000000E+00
  0.00000000E+00  0.00000000E+00  0.00000000E+00
  0.00000000E+00  0.00000000E+00  0.00000000E+00
  0.00000000E+00  0.00000000E+00  0.00000000E+00
  0.00000000E+00  0.00000000E+00  0.00000000E+00
  0.00000000E+00  0.00000000E+00  0.00000000E+00
  0.00000000E+00  0.00000000E+00  0.00000000E+00
  0.00000000E+00  0.00000000E+00  0.00000000E+00
  0.00000000E+00  0.00000000E+00  0.00000000E+00
  0.00000000E+00  0.00000000E+00  0.00000000E+00
  0.00000000E+00  0.00000000E+00  0.00000000E+00
  0.00000000E+00  0.00000000E+00  0.00000000E+00
  0.00000000E+00  0.00000000E+00  0.00000000E+00
  0.00000000E+00  0.00000000E+00  0.00000000E+00
  0.00000000E+00  0.00000000E+00  0.00000000E+00
  0.00000000E+00  0.00000000E+00  0.00000000E+00
  0.00000000E+00  0.00000000E+00  0.00000000E+00
  0.00000000E+00  0.00000000E+00  0.00000000E+00
  0.00000000E+00  0.00000000E+00  0.00000000E+00
  0.00000000E+00  0.00000000E+00  0.00000000E+00
  0.00000000E+00  0.00000000E+00  0.00000000E+00
  0.00000000E+00  0.00000000E+00  0.00000000E+00
  0.00000000E+00  0.00000000E+00  0.00000000E+00
  0.00000000E+00  0.00000000E+00  0.00000000E+00
  0.00000000E+00  0.00000000E+00  0.00000000E+00
  0.00000000E+00  0.00000000E+00  0.00000000E+00
  0.00000000E+00  0.00000000E+00  0.00000000E+00
  0.00000000E+00  0.00000000E+00  0.00000000E+00
  0.00000000E+00  0.00000000E+00  0.00000000E+00
  0.00000000E+00  0.00000000E+00  0.00000000E+00
  0.00000000E+00  0.00000000E+00  0.00000000E+00
  0.00000000E+00  0.00000000E+00  0.00000000E+00
  0.00000000E+00  0.00000000E+00  0.00000000E+00
  0.00000000E+00  0.00000000E+00  0.00000000E+00
  0.00000000E+00  0.00000000E+00  0.00000000E+00
  0.00000000E+00  0.00000000E+00  0.00000000E+00
  0.00000000E+00  0.00000000E+00  0.00000000E+00
  0.00000000E+00  0.00000000E+00  0.00000000E+00
  0.00000000E+00  0.00000000E+00  0.00000000E+00
  0.00000000E+00  0.00000000E+00  0.00000000E+00
  0.00000000E+00  0.00000000E+00  0.00000000E+00
  0.00000000E+00  0.00000000E+00  0.00000000E+00
  0.00000000E+00  0.00000000E+00  0.00000000E+00
  0.00000000E+00  0.00000000E+00  0.00000000E+00
  0.00000000E+00  0.00000000E+00  0.00000000E+00
  0.00000000E+00  0.00000000E+00  0.00000000E+00
  0.00000000E+00  0.00000000E+00  0.00000000E+00
  0.00000000E+00  0.00000000E+00  0.00000000E+00
  0.00000000E+00  0.00000000E+00  0.00000000E+00
  0.00000000E+00  0.00000000E+00  0.00000000E+00
  0.00000000E+00  0.00000000E+00  0.00000000E+00
  0.00000000E+00  0.00000000E+00  0.00000000E+00
  0.00000000E+00  0.00000000E+00  0.00000000E+00
  0.00000000E+00  0.00000000E+00  0.00000000E+00
  0.00000000E+00  0.00000000E+00  0.00000000E+00
  0.00000000E+00  0.00000000E+00  0.00000000E+00
  0.00000000E+00  0.00000000E+00  0.00000000E+00
  0.00000000E+00  0.00000000E+00  0.00000000E+00
  0.00000000E+00  0.00000000E+00  0.00000000E+00
  0.00000000E+00  0.00000000E+00  0.00000000E+00
  0.00000000E+00  0.00000000E+00  0.00000000E+00
  0.00000000E+00  0.00000000E+00  0.00000000E+00
  0.00000000E+00  0.00000000E+00  0.00000000E+00
  0.00000000E+00  0.00000000E+00  0.00000000E+00
  0.00000000E+00  0.00000000E+00  0.00000000E+00
  0.00000000E+00  0.00000000E+00  0.00000000E+00
  0.00000000E+00  0.00000000E+00  0.00000000E+00
  0.00000000E+00  0.00000000E+00  0.00000000E+00
  0.00000000E+00  0.00000000E+00  0.00000000E+00
  0.00000000E+00  0.00000000E+00  0.00000000E+00
  0.00000000E+00  0.00000000E+00  0.00000000E+00
  0.00000000E+00  0.00000000E+00  0.00000000E+00
  0.00000000E+00  0.00000000E+00  0.00000000E+00
  0.00000000E+00  0.00000000E+00  0.00000000E+00
