Cd1 H1 C122 N4 O1                       
   1.00000000000000     
    19.8084843958435854   -0.0006078302039993   -0.0237499016196865
    -9.9047382245351816   17.0325566746226222   -0.0536294483639823
    -0.0357741455940076   -0.1146060692064679   29.8253632666314807
   Cd   H    C    N    O 
     1     1   122     4     1
Direct
  0.4396950317046432  0.5015951895870810  0.4479487500577107
  0.4957395693596669  0.5672831543102945  0.5239738935561351
  0.0420932439838103  0.0841897603022842  0.3997709577055033
  0.0410610944885624  0.2082244353606225  0.3990936964173383
  0.0403567881247434  0.3329077566810444  0.3982222144378482
  0.0405492764607122  0.4582414045875439  0.3982752945266362
  0.0413171895162876  0.5837218783920212  0.3992560188886782
  0.0421109889884152  0.7091883161517666  0.3998188605913630
  0.0425238481117286  0.8346077112197144  0.4000339817184780
  0.0426883661839124  0.9598249242375755  0.4000164424678108
  0.1683043250421839  0.0860875118545635  0.4002622750805535
  0.1673524935795893  0.2102171656180380  0.4001122578224415
  0.1652458882111754  0.3337014503537342  0.3992070600362254
  0.1644001447975736  0.4584362544544656  0.3972077583952706
  0.1652167691882686  0.5835955511613862  0.3976280956576874
  0.1663454584483017  0.7090462580971112  0.3990996715391255
  0.1670920982934510  0.8345913085981392  0.3999416592040262
  0.1676551912394940  0.9602701309864377  0.4001694315003134
  0.2927944108269443  0.0860611129126646  0.4002533725083735
  0.2944833710192207  0.2139079620375797  0.4018212050739451
  0.2920916933322818  0.3389629536750961  0.4042539040199551
  0.2880964312826490  0.4572153764095643  0.4025247712903046
  0.2888149938353591  0.5831372960759325  0.3983680873384012
  0.2905374736821099  0.7085828997576402  0.3984544309684658
  0.2915776453487012  0.8340324983160580  0.3994645586849981
  0.2921778777473879  0.9597758125582038  0.3999895501939280
  0.4171260489951492  0.0841195784170759  0.3998793855564685
  0.4179061904204110  0.2101465525103589  0.4000030993332971
  0.4219869727355984  0.3389582308751125  0.4028675021428025
  0.4145761072717711  0.7065361364389025  0.3998827949024041
  0.4160500301498266  0.8325017464655803  0.3993761889939993
  0.4166460490378340  0.9583324596413542  0.3998967213747564
  0.5415805477551001  0.0825196575040007  0.3999145312318795
  0.5422016920570796  0.2081859039261886  0.3992384806094600
  0.5434854925198300  0.3336556646056158  0.3985571378336596
  0.5439565478415880  0.4571188709602025  0.3998265885684453
  0.5383723786957857  0.7017176907555498  0.4022434693627444
  0.5403288552799266  0.8301279921941442  0.4002914390441418
  0.5410851113645602  0.9566098500816900  0.3999727688092632
  0.6661057976768096  0.0818723859269087  0.4001583368347070
  0.6666184276616349  0.2073950776224271  0.3997077337159187
  0.6675531953370525  0.3328686617857425  0.3985030851183549
  0.6690698565041014  0.4584128622732830  0.3969527264708846
  0.6693184709869119  0.5831319866483382  0.3973112167494483
  0.6669894181639434  0.7065720705740720  0.3993331584133285
  0.6648337921628291  0.8301668127214105  0.4002689269251836
  0.6655997768380424  0.9561783957253819  0.4002035980613505
  0.7908222286639395  0.0818884615270135  0.4001189715611226
  0.7911507800908131  0.2072619301890358  0.3999286458466642
  0.7917787226676070  0.3327254507380378  0.3996162105479808
  0.7926818792160150  0.4582146032448584  0.3988040032558761
  0.7933593756429687  0.5835880953641390  0.3979928172656423
  0.7930675932751756  0.7086191708778267  0.3985608099336351
  0.7915120455951736  0.8325623869749283  0.3995395436999789
  0.7905754760939293  0.9566565663875205  0.4000128606631523
  0.9160331406594925  0.0825675636542790  0.3997933142897005
  0.9158359533319125  0.2074254257269751  0.3994893077314329
  0.9160019206795956  0.3327560242883115  0.3993488863541039
  0.9166032491417240  0.4581948822741466  0.3996150936026955
  0.9173933676055286  0.5837272067609739  0.3995748164887197
  0.9177078435537479  0.7090775492691662  0.3994087200766241
  0.9175121397157129  0.8340870735322605  0.3996643953874263
  0.9167916456566660  0.9584003137845906  0.3999761997124502
  0.0846025655130312  0.0435245390294385  0.3999838956147755
  0.0837172023211217  0.1676636667668979  0.3994747404363098
  0.0820913766436622  0.2915181731312336  0.3985614639663217
  0.0816955292116519  0.4164399367732276  0.3975844347830328
  0.0823170284430769  0.5417913967262057  0.3983141550023771
  0.0832303036789138  0.6672801892235657  0.3994539023547857
  0.0839024389616975  0.7927971005304655  0.3999392297924353
  0.0843072700261620  0.9182191045375330  0.4001267413346862
  0.2094810736987785  0.0439424441891657  0.4002670793144775
  0.2103449246367503  0.1700554082450624  0.4007903653838695
  0.2082725358449224  0.2937082157956896  0.4006793372672120
  0.2058186720725972  0.4169763568064965  0.3986895614639274
  0.2059473470733588  0.5416062626928946  0.3971884441913974
  0.2074253156458176  0.6671460516123711  0.3982746273180162
  0.2083843256469493  0.7926344779861687  0.3995560813512410
  0.2089555818207148  0.9182108929813819  0.4000854425716873
  0.3339338697905567  0.0434811610681469  0.4000094465375839
  0.3347499767567746  0.1700169747580590  0.4007126315608646
  0.3368244819137029  0.2985466547955873  0.4038421459562599
  0.3310443370297844  0.5430894341168352  0.4018831856024400
  0.3315187502279197  0.6664203783678937  0.3987458299419351
  0.3328048283604794  0.7918667365772535  0.3990689186084722
  0.3334396238668607  0.9175329878477301  0.3998077998887160
  0.4583743682466232  0.0417396894823472  0.3999584211340769
  0.4589793842386075  0.1675852868624741  0.3995802477138113
  0.4604821270635723  0.2936198237704102  0.3999700983967767
  0.4532068823831327  0.6613399891454074  0.4026144320764249
  0.4571502553408083  0.7899917352562281  0.3996704452711146
  0.4578915002302099  0.9159559834220252  0.3997671393531738
  0.5828648209373690  0.0402978507182749  0.4000476059744850
  0.5834340253182949  0.1660114141062219  0.3996168023084202
  0.5844434561488848  0.2914505812928487  0.3985770802357685
  0.5861802095252558  0.4169316909010278  0.3975548857857374
  0.5869071487262508  0.5430593575910919  0.3992910673291981
  0.5831305448547826  0.6612814296443035  0.4013766986982426
  0.5806584578197252  0.7863041934302992  0.4009261459528688
  0.5822528628009738  0.9140623481556135  0.4001213949143564
  0.7074400922424268  0.0398413660875034  0.4001925975086755
  0.7079594153082277  0.1654834825329922  0.4000485414766189
  0.7086362424141039  0.2909720815256092  0.3993197573087370
  0.7097585740750729  0.4164206904707246  0.3979315722318070
  0.7106883441402899  0.5416120126929722  0.3969562611778344
  0.7099213449632780  0.6664463420346093  0.3982359127070049
  0.7078845008784355  0.7900456391167774  0.3996641234374162
  0.7068370609647328  0.9141015254242681  0.4001372438680997
  0.8325148000876932  0.0403515650815600  0.4000058280939010
  0.8325881891845316  0.1654986549997611  0.3999359735845718
  0.8329667502879862  0.2908525476216824  0.3997461937489226
  0.8336751809203482  0.4162738423586764  0.3995345814490096
  0.8344666617585288  0.5417706504674551  0.3988447483589994
  0.8347313746712011  0.6671573915537339  0.3985861335149369
  0.8341088827329070  0.7919085208863592  0.3992710491049409
  0.8331514398566530  0.9160331133616899  0.3999004810922089
  0.9584763145124976  0.0418124699065668  0.3998799287564085
  0.9576725092141999  0.1660653177633490  0.3994125635399944
  0.9573952742524477  0.2909991660803176  0.3989871165733460
  0.9576370066430491  0.4162892055778527  0.3991917826123543
  0.9584096825370572  0.5418094726247388  0.3996435769280957
  0.9590652835789462  0.6672878895538022  0.3996869488132790
  0.9592736907035335  0.7926556261095915  0.3997539184650980
  0.9591843167725823  0.9175871033085841  0.3999141773349456
  0.4095461018044575  0.5820666147971870  0.4055458705159654
  0.5472276879880246  0.5818881146092006  0.4025403250614947
  0.3275930491983837  0.4183763277868343  0.4075829976712293
  0.4656116038821890  0.4184083780556702  0.4043039905466525
  0.4585574377634669  0.5127466033281010  0.5165831929789545
 
  0.00000000E+00  0.00000000E+00  0.00000000E+00
  0.00000000E+00  0.00000000E+00  0.00000000E+00
  0.00000000E+00  0.00000000E+00  0.00000000E+00
  0.00000000E+00  0.00000000E+00  0.00000000E+00
  0.00000000E+00  0.00000000E+00  0.00000000E+00
  0.00000000E+00  0.00000000E+00  0.00000000E+00
  0.00000000E+00  0.00000000E+00  0.00000000E+00
  0.00000000E+00  0.00000000E+00  0.00000000E+00
  0.00000000E+00  0.00000000E+00  0.00000000E+00
  0.00000000E+00  0.00000000E+00  0.00000000E+00
  0.00000000E+00  0.00000000E+00  0.00000000E+00
  0.00000000E+00  0.00000000E+00  0.00000000E+00
  0.00000000E+00  0.00000000E+00  0.00000000E+00
  0.00000000E+00  0.00000000E+00  0.00000000E+00
  0.00000000E+00  0.00000000E+00  0.00000000E+00
  0.00000000E+00  0.00000000E+00  0.00000000E+00
  0.00000000E+00  0.00000000E+00  0.00000000E+00
  0.00000000E+00  0.00000000E+00  0.00000000E+00
  0.00000000E+00  0.00000000E+00  0.00000000E+00
  0.00000000E+00  0.00000000E+00  0.00000000E+00
  0.00000000E+00  0.00000000E+00  0.00000000E+00
  0.00000000E+00  0.00000000E+00  0.00000000E+00
  0.00000000E+00  0.00000000E+00  0.00000000E+00
  0.00000000E+00  0.00000000E+00  0.00000000E+00
  0.00000000E+00  0.00000000E+00  0.00000000E+00
  0.00000000E+00  0.00000000E+00  0.00000000E+00
  0.00000000E+00  0.00000000E+00  0.00000000E+00
  0.00000000E+00  0.00000000E+00  0.00000000E+00
  0.00000000E+00  0.00000000E+00  0.00000000E+00
  0.00000000E+00  0.00000000E+00  0.00000000E+00
  0.00000000E+00  0.00000000E+00  0.00000000E+00
  0.00000000E+00  0.00000000E+00  0.00000000E+00
  0.00000000E+00  0.00000000E+00  0.00000000E+00
  0.00000000E+00  0.00000000E+00  0.00000000E+00
  0.00000000E+00  0.00000000E+00  0.00000000E+00
  0.00000000E+00  0.00000000E+00  0.00000000E+00
  0.00000000E+00  0.00000000E+00  0.00000000E+00
  0.00000000E+00  0.00000000E+00  0.00000000E+00
  0.00000000E+00  0.00000000E+00  0.00000000E+00
  0.00000000E+00  0.00000000E+00  0.00000000E+00
  0.00000000E+00  0.00000000E+00  0.00000000E+00
  0.00000000E+00  0.00000000E+00  0.00000000E+00
  0.00000000E+00  0.00000000E+00  0.00000000E+00
  0.00000000E+00  0.00000000E+00  0.00000000E+00
  0.00000000E+00  0.00000000E+00  0.00000000E+00
  0.00000000E+00  0.00000000E+00  0.00000000E+00
  0.00000000E+00  0.00000000E+00  0.00000000E+00
  0.00000000E+00  0.00000000E+00  0.00000000E+00
  0.00000000E+00  0.00000000E+00  0.00000000E+00
  0.00000000E+00  0.00000000E+00  0.00000000E+00
  0.00000000E+00  0.00000000E+00  0.00000000E+00
  0.00000000E+00  0.00000000E+00  0.00000000E+00
  0.00000000E+00  0.00000000E+00  0.00000000E+00
  0.00000000E+00  0.00000000E+00  0.00000000E+00
  0.00000000E+00  0.00000000E+00  0.00000000E+00
  0.00000000E+00  0.00000000E+00  0.00000000E+00
  0.00000000E+00  0.00000000E+00  0.00000000E+00
  0.00000000E+00  0.00000000E+00  0.00000000E+00
  0.00000000E+00  0.00000000E+00  0.00000000E+00
  0.00000000E+00  0.00000000E+00  0.00000000E+00
  0.00000000E+00  0.00000000E+00  0.00000000E+00
  0.00000000E+00  0.00000000E+00  0.00000000E+00
  0.00000000E+00  0.00000000E+00  0.00000000E+00
  0.00000000E+00  0.00000000E+00  0.00000000E+00
  0.00000000E+00  0.00000000E+00  0.00000000E+00
  0.00000000E+00  0.00000000E+00  0.00000000E+00
  0.00000000E+00  0.00000000E+00  0.00000000E+00
  0.00000000E+00  0.00000000E+00  0.00000000E+00
  0.00000000E+00  0.00000000E+00  0.00000000E+00
  0.00000000E+00  0.00000000E+00  0.00000000E+00
  0.00000000E+00  0.00000000E+00  0.00000000E+00
  0.00000000E+00  0.00000000E+00  0.00000000E+00
  0.00000000E+00  0.00000000E+00  0.00000000E+00
  0.00000000E+00  0.00000000E+00  0.00000000E+00
  0.00000000E+00  0.00000000E+00  0.00000000E+00
  0.00000000E+00  0.00000000E+00  0.00000000E+00
  0.00000000E+00  0.00000000E+00  0.00000000E+00
  0.00000000E+00  0.00000000E+00  0.00000000E+00
  0.00000000E+00  0.00000000E+00  0.00000000E+00
  0.00000000E+00  0.00000000E+00  0.00000000E+00
  0.00000000E+00  0.00000000E+00  0.00000000E+00
  0.00000000E+00  0.00000000E+00  0.00000000E+00
  0.00000000E+00  0.00000000E+00  0.00000000E+00
  0.00000000E+00  0.00000000E+00  0.00000000E+00
  0.00000000E+00  0.00000000E+00  0.00000000E+00
  0.00000000E+00  0.00000000E+00  0.00000000E+00
  0.00000000E+00  0.00000000E+00  0.00000000E+00
  0.00000000E+00  0.00000000E+00  0.00000000E+00
  0.00000000E+00  0.00000000E+00  0.00000000E+00
  0.00000000E+00  0.00000000E+00  0.00000000E+00
  0.00000000E+00  0.00000000E+00  0.00000000E+00
  0.00000000E+00  0.00000000E+00  0.00000000E+00
  0.00000000E+00  0.00000000E+00  0.00000000E+00
  0.00000000E+00  0.00000000E+00  0.00000000E+00
  0.00000000E+00  0.00000000E+00  0.00000000E+00
  0.00000000E+00  0.00000000E+00  0.00000000E+00
  0.00000000E+00  0.00000000E+00  0.00000000E+00
  0.00000000E+00  0.00000000E+00  0.00000000E+00
  0.00000000E+00  0.00000000E+00  0.00000000E+00
  0.00000000E+00  0.00000000E+00  0.00000000E+00
  0.00000000E+00  0.00000000E+00  0.00000000E+00
  0.00000000E+00  0.00000000E+00  0.00000000E+00
  0.00000000E+00  0.00000000E+00  0.00000000E+00
  0.00000000E+00  0.00000000E+00  0.00000000E+00
  0.00000000E+00  0.00000000E+00  0.00000000E+00
  0.00000000E+00  0.00000000E+00  0.00000000E+00
  0.00000000E+00  0.00000000E+00  0.00000000E+00
  0.00000000E+00  0.00000000E+00  0.00000000E+00
  0.00000000E+00  0.00000000E+00  0.00000000E+00
  0.00000000E+00  0.00000000E+00  0.00000000E+00
  0.00000000E+00  0.00000000E+00  0.00000000E+00
  0.00000000E+00  0.00000000E+00  0.00000000E+00
  0.00000000E+00  0.00000000E+00  0.00000000E+00
  0.00000000E+00  0.00000000E+00  0.00000000E+00
  0.00000000E+00  0.00000000E+00  0.00000000E+00
  0.00000000E+00  0.00000000E+00  0.00000000E+00
  0.00000000E+00  0.00000000E+00  0.00000000E+00
  0.00000000E+00  0.00000000E+00  0.00000000E+00
  0.00000000E+00  0.00000000E+00  0.00000000E+00
  0.00000000E+00  0.00000000E+00  0.00000000E+00
  0.00000000E+00  0.00000000E+00  0.00000000E+00
  0.00000000E+00  0.00000000E+00  0.00000000E+00
  0.00000000E+00  0.00000000E+00  0.00000000E+00
  0.00000000E+00  0.00000000E+00  0.00000000E+00
  0.00000000E+00  0.00000000E+00  0.00000000E+00
  0.00000000E+00  0.00000000E+00  0.00000000E+00
  0.00000000E+00  0.00000000E+00  0.00000000E+00
  0.00000000E+00  0.00000000E+00  0.00000000E+00
  0.00000000E+00  0.00000000E+00  0.00000000E+00
