Cd1 C122 N4                             
   1.00000000000000     
    19.8266436101774133   -0.0000119238928474   -0.0006754707202812
    -9.9133317083174433   17.0387714101021466    0.0003266109953979
    -0.0010139509945955   -0.0000204642808650   29.7861757245354681
   Cd   C    N 
     1   122     4
Direct
  0.4374908584801421  0.5000000888571592  0.4390945154297889
  0.0419252164890059  0.0840179140437519  0.3998693647289889
  0.0408784780294702  0.2081184828184423  0.3997460351985625
  0.0400698859620583  0.3328636885145910  0.3994523645392367
  0.0402494646368609  0.4581804771481531  0.3995739823876882
  0.0412409319754526  0.5837793187835032  0.4000849469165514
  0.0421531396677905  0.7092828389398977  0.4001975398197226
  0.0424897031285658  0.8345418583738601  0.4000938970708554
  0.0425630142322022  0.9596836527124207  0.3999715809690864
  0.1681810088496616  0.0858689889098876  0.3999784076349198
  0.1670811934155596  0.2099643706549409  0.3998522472094077
  0.1647866984651015  0.3335242553860382  0.3993408780677090
  0.1637897637361624  0.4584348504140016  0.3981969710906558
  0.1648976338541346  0.5836939228315788  0.3989878519763599
  0.1662904951403198  0.7090737932508405  0.3998997093570285
  0.1670437287399392  0.8345434050533385  0.4000802295526201
  0.1675627528324035  0.9601116851766968  0.3999857057068956
  0.2926724034622644  0.0858612093063224  0.3999668444165141
  0.2942124121934766  0.2134464875140171  0.4009362151484698
  0.2915927652872683  0.3382946247307564  0.4025891016538737
  0.2871037319774896  0.4574285473108027  0.4004746625959075
  0.2881534073395741  0.5830802110051359  0.3986175175735750
  0.2904342097512722  0.7085632144500873  0.3994377250127753
  0.2915394239791003  0.8340184176836491  0.3999227824890340
  0.2921419465923523  0.9596841855154078  0.3999457969050976
  0.4171026796483371  0.0840227669662757  0.3998448214389591
  0.4178492275736763  0.2099648478394666  0.3998551303632394
  0.4216910302617428  0.3383153412524776  0.4025860820742388
  0.4144851144143297  0.7066520096684819  0.4000835248694986
  0.4160078809549197  0.8324931727160555  0.3997330192563129
  0.4166448329663905  0.9582946417625560  0.3999546956935927
  0.5415954928966576  0.0824987427117022  0.3999841745120022
  0.5422331400361291  0.2081244492736326  0.3997298612584590
  0.5437347422681170  0.3335259662762808  0.3993146333131235
  0.5453303253005860  0.4574378964337503  0.4004971142762370
  0.5383154376360688  0.7016429360832948  0.4024674994814639
  0.5403986811480914  0.8301823315233410  0.4002314392724276
  0.5410890666910863  0.9566284192870558  0.3999075885868617
  0.6661224758998113  0.0818697385023088  0.4000156639372039
  0.6666525190505298  0.2073607175877418  0.4000030030594329
  0.6678021282399766  0.3328791354137465  0.3994321752325652
  0.6696580688929643  0.4584510532858285  0.3982043736629425
  0.6699299436464601  0.5830949587943162  0.3986236339272340
  0.6671400781404822  0.7066427082052257  0.4000741350786167
  0.6647666675877393  0.8301955669614152  0.4002467790951213
  0.6656059711910073  0.9562038389387335  0.3999911311291951
  0.7907789735166527  0.0818715204170673  0.4000083783203994
  0.7911201158371617  0.2072301485642850  0.4001544938833083
  0.7918300403418989  0.3326825579926632  0.4000907874762472
  0.7929290334750699  0.4581898462499192  0.3995867406557067
  0.7937894992549989  0.5836928000605959  0.3989939232264698
  0.7931224590003927  0.7085588154999276  0.3994101919606599
  0.7914842886334646  0.8324923076087850  0.3997144489346393
  0.7905477834673665  0.9566376185017266  0.3998708407955776
  0.9159339549558693  0.0825051817646407  0.3999533904509940
  0.9157002529469888  0.2073489825733367  0.3999972133367010
  0.9158766553373545  0.3326778184664758  0.4000922048787123
  0.9166144171037676  0.4582264536057885  0.4002592953419114
  0.9175294557261767  0.5837739381157740  0.4000927475462368
  0.9177852526126360  0.7090672188919200  0.3998963929658365
  0.9174820004449685  0.8340207311807061  0.3999320594737460
  0.9166793876122864  0.9582958474174567  0.3999563826334449
  0.0844602942269235  0.0433707350592736  0.3999078758818860
  0.0835141248294985  0.1675066093114237  0.3997333865157575
  0.0818708868822472  0.2914369289838319  0.3994385582196117
  0.0812062996968172  0.4163066769616043  0.3989885249732839
  0.0820701829712695  0.5418198963194033  0.3995737974666844
  0.0831990362795664  0.6673226388746222  0.4000926826574572
  0.0838914912022576  0.7927716596107445  0.4001544601757278
  0.0842529104822167  0.9181299667520264  0.4000158981136752
  0.2093988225818137  0.0437934256969845  0.3999914027909240
  0.2102151211679164  0.1698162825083640  0.4002322431304590
  0.2078329785820699  0.2933479682998613  0.4000844563578236
  0.2050733570551006  0.4169200628429908  0.3986174508100917
  0.2053556833821985  0.5415647088161338  0.3981968188520811
  0.2072062503846905  0.6671370115945907  0.3994522289584618
  0.2083517163759842  0.7926515081337905  0.3999979211289162
  0.2089076833669208  0.9181284073246564  0.4000083599469302
  0.3339090577782110  0.0433610427021160  0.3998708824460025
  0.3345691929849924  0.1698019656818481  0.4002475697615205
  0.3366721852988175  0.2983567710846606  0.4024684455064842
  0.3296744255122935  0.5425716039457600  0.4004745088287692
  0.3312621257101502  0.6664754396148251  0.3993406083550770
  0.3327593485724313  0.7918813973308660  0.3997452355730304
  0.3334284859913518  0.9174949119644041  0.3999533614519061
  0.4583842237007845  0.0417043723688570  0.3999555569681234
  0.4589924231795995  0.1675060104537774  0.3997135705061889
  0.4604973474301582  0.2933569582576865  0.4000742401938650
  0.4532979610929416  0.6617053501554412  0.4025880390818887
  0.4571169689694771  0.7900354944079632  0.3998512941677356
  0.4579088376016794  0.9159843917938074  0.3998685995077535
  0.5828795246080419  0.0403164243646683  0.3999709235153971
  0.5834616264744887  0.1659783371057271  0.3999320930409312
  0.5845633350610820  0.2914394634711668  0.3994110527457775
  0.5868348140281279  0.4169044886154706  0.3986245075643925
  0.5878923134036356  0.5425619871450498  0.4004969984643322
  0.5833749454109756  0.6616839983625545  0.4025852990603934
  0.5807660203719274  0.7865540083747300  0.4009357883017822
  0.5823128687467204  0.9141315926732699  0.3999783230020779
  0.7074515513421830  0.0398891081633183  0.3999850494672371
  0.7079480545907082  0.1654577577145729  0.4000939152327173
  0.7087178184252934  0.2909305475307203  0.3998964041208103
  0.7100947880627599  0.4163059739886223  0.3989947111504937
  0.7112061757512518  0.5415484758090350  0.3982034773544357
  0.7102088617374844  0.6664742706051970  0.3993143936462769
  0.7078856980917649  0.7900352985441814  0.3998551237873836
  0.7068112733213261  0.9141415438575756  0.3999655910843505
  0.8324573978949352  0.0403168558968003  0.3999457712598952
  0.8325010487305997  0.1654573253747218  0.4000808089537590
  0.8328723074189507  0.2907162176000102  0.4001966961685446
  0.8337566531771701  0.4162252626771810  0.4000924563619783
  0.8347400015264897  0.5418111887507543  0.3995866054751191
  0.8349235960998294  0.6671222062935281  0.3994311472593035
  0.8341130019948368  0.7918779013257911  0.3997301510843099
  0.8330821455715266  0.9159787541462087  0.3998458066661667
  0.9583488768725604  0.0417045583881777  0.3999549788071243
  0.9575201462760267  0.1659816044514473  0.3999227729025130
  0.9572174568000439  0.2909263550958033  0.3998991802725039
  0.9574627061653338  0.4162205266297818  0.4000846775124450
  0.9583894071343461  0.5417734307111243  0.4002598806917836
  0.9591500323048239  0.6673197417576984  0.4000916438881119
  0.9592930256426178  0.7926401633853197  0.4000030043537314
  0.9590973145077683  0.9175009380183624  0.3999844644808129
  0.4087825268799942  0.5820850492879435  0.4047191101762860
  0.5482918352831002  0.5820742006422580  0.4047406412512055
  0.3266974375188054  0.4179149797815918  0.4047199870968402
  0.4662176465523307  0.4179257508272933  0.4047407406199993
 
  0.00000000E+00  0.00000000E+00  0.00000000E+00
  0.00000000E+00  0.00000000E+00  0.00000000E+00
  0.00000000E+00  0.00000000E+00  0.00000000E+00
  0.00000000E+00  0.00000000E+00  0.00000000E+00
  0.00000000E+00  0.00000000E+00  0.00000000E+00
  0.00000000E+00  0.00000000E+00  0.00000000E+00
  0.00000000E+00  0.00000000E+00  0.00000000E+00
  0.00000000E+00  0.00000000E+00  0.00000000E+00
  0.00000000E+00  0.00000000E+00  0.00000000E+00
  0.00000000E+00  0.00000000E+00  0.00000000E+00
  0.00000000E+00  0.00000000E+00  0.00000000E+00
  0.00000000E+00  0.00000000E+00  0.00000000E+00
  0.00000000E+00  0.00000000E+00  0.00000000E+00
  0.00000000E+00  0.00000000E+00  0.00000000E+00
  0.00000000E+00  0.00000000E+00  0.00000000E+00
  0.00000000E+00  0.00000000E+00  0.00000000E+00
  0.00000000E+00  0.00000000E+00  0.00000000E+00
  0.00000000E+00  0.00000000E+00  0.00000000E+00
  0.00000000E+00  0.00000000E+00  0.00000000E+00
  0.00000000E+00  0.00000000E+00  0.00000000E+00
  0.00000000E+00  0.00000000E+00  0.00000000E+00
  0.00000000E+00  0.00000000E+00  0.00000000E+00
  0.00000000E+00  0.00000000E+00  0.00000000E+00
  0.00000000E+00  0.00000000E+00  0.00000000E+00
  0.00000000E+00  0.00000000E+00  0.00000000E+00
  0.00000000E+00  0.00000000E+00  0.00000000E+00
  0.00000000E+00  0.00000000E+00  0.00000000E+00
  0.00000000E+00  0.00000000E+00  0.00000000E+00
  0.00000000E+00  0.00000000E+00  0.00000000E+00
  0.00000000E+00  0.00000000E+00  0.00000000E+00
  0.00000000E+00  0.00000000E+00  0.00000000E+00
  0.00000000E+00  0.00000000E+00  0.00000000E+00
  0.00000000E+00  0.00000000E+00  0.00000000E+00
  0.00000000E+00  0.00000000E+00  0.00000000E+00
  0.00000000E+00  0.00000000E+00  0.00000000E+00
  0.00000000E+00  0.00000000E+00  0.00000000E+00
  0.00000000E+00  0.00000000E+00  0.00000000E+00
  0.00000000E+00  0.00000000E+00  0.00000000E+00
  0.00000000E+00  0.00000000E+00  0.00000000E+00
  0.00000000E+00  0.00000000E+00  0.00000000E+00
  0.00000000E+00  0.00000000E+00  0.00000000E+00
  0.00000000E+00  0.00000000E+00  0.00000000E+00
  0.00000000E+00  0.00000000E+00  0.00000000E+00
  0.00000000E+00  0.00000000E+00  0.00000000E+00
  0.00000000E+00  0.00000000E+00  0.00000000E+00
  0.00000000E+00  0.00000000E+00  0.00000000E+00
  0.00000000E+00  0.00000000E+00  0.00000000E+00
  0.00000000E+00  0.00000000E+00  0.00000000E+00
  0.00000000E+00  0.00000000E+00  0.00000000E+00
  0.00000000E+00  0.00000000E+00  0.00000000E+00
  0.00000000E+00  0.00000000E+00  0.00000000E+00
  0.00000000E+00  0.00000000E+00  0.00000000E+00
  0.00000000E+00  0.00000000E+00  0.00000000E+00
  0.00000000E+00  0.00000000E+00  0.00000000E+00
  0.00000000E+00  0.00000000E+00  0.00000000E+00
  0.00000000E+00  0.00000000E+00  0.00000000E+00
  0.00000000E+00  0.00000000E+00  0.00000000E+00
  0.00000000E+00  0.00000000E+00  0.00000000E+00
  0.00000000E+00  0.00000000E+00  0.00000000E+00
  0.00000000E+00  0.00000000E+00  0.00000000E+00
  0.00000000E+00  0.00000000E+00  0.00000000E+00
  0.00000000E+00  0.00000000E+00  0.00000000E+00
  0.00000000E+00  0.00000000E+00  0.00000000E+00
  0.00000000E+00  0.00000000E+00  0.00000000E+00
  0.00000000E+00  0.00000000E+00  0.00000000E+00
  0.00000000E+00  0.00000000E+00  0.00000000E+00
  0.00000000E+00  0.00000000E+00  0.00000000E+00
  0.00000000E+00  0.00000000E+00  0.00000000E+00
  0.00000000E+00  0.00000000E+00  0.00000000E+00
  0.00000000E+00  0.00000000E+00  0.00000000E+00
  0.00000000E+00  0.00000000E+00  0.00000000E+00
  0.00000000E+00  0.00000000E+00  0.00000000E+00
  0.00000000E+00  0.00000000E+00  0.00000000E+00
  0.00000000E+00  0.00000000E+00  0.00000000E+00
  0.00000000E+00  0.00000000E+00  0.00000000E+00
  0.00000000E+00  0.00000000E+00  0.00000000E+00
  0.00000000E+00  0.00000000E+00  0.00000000E+00
  0.00000000E+00  0.00000000E+00  0.00000000E+00
  0.00000000E+00  0.00000000E+00  0.00000000E+00
  0.00000000E+00  0.00000000E+00  0.00000000E+00
  0.00000000E+00  0.00000000E+00  0.00000000E+00
  0.00000000E+00  0.00000000E+00  0.00000000E+00
  0.00000000E+00  0.00000000E+00  0.00000000E+00
  0.00000000E+00  0.00000000E+00  0.00000000E+00
  0.00000000E+00  0.00000000E+00  0.00000000E+00
  0.00000000E+00  0.00000000E+00  0.00000000E+00
  0.00000000E+00  0.00000000E+00  0.00000000E+00
  0.00000000E+00  0.00000000E+00  0.00000000E+00
  0.00000000E+00  0.00000000E+00  0.00000000E+00
  0.00000000E+00  0.00000000E+00  0.00000000E+00
  0.00000000E+00  0.00000000E+00  0.00000000E+00
  0.00000000E+00  0.00000000E+00  0.00000000E+00
  0.00000000E+00  0.00000000E+00  0.00000000E+00
  0.00000000E+00  0.00000000E+00  0.00000000E+00
  0.00000000E+00  0.00000000E+00  0.00000000E+00
  0.00000000E+00  0.00000000E+00  0.00000000E+00
  0.00000000E+00  0.00000000E+00  0.00000000E+00
  0.00000000E+00  0.00000000E+00  0.00000000E+00
  0.00000000E+00  0.00000000E+00  0.00000000E+00
  0.00000000E+00  0.00000000E+00  0.00000000E+00
  0.00000000E+00  0.00000000E+00  0.00000000E+00
  0.00000000E+00  0.00000000E+00  0.00000000E+00
  0.00000000E+00  0.00000000E+00  0.00000000E+00
  0.00000000E+00  0.00000000E+00  0.00000000E+00
  0.00000000E+00  0.00000000E+00  0.00000000E+00
  0.00000000E+00  0.00000000E+00  0.00000000E+00
  0.00000000E+00  0.00000000E+00  0.00000000E+00
  0.00000000E+00  0.00000000E+00  0.00000000E+00
  0.00000000E+00  0.00000000E+00  0.00000000E+00
  0.00000000E+00  0.00000000E+00  0.00000000E+00
  0.00000000E+00  0.00000000E+00  0.00000000E+00
  0.00000000E+00  0.00000000E+00  0.00000000E+00
  0.00000000E+00  0.00000000E+00  0.00000000E+00
  0.00000000E+00  0.00000000E+00  0.00000000E+00
  0.00000000E+00  0.00000000E+00  0.00000000E+00
  0.00000000E+00  0.00000000E+00  0.00000000E+00
  0.00000000E+00  0.00000000E+00  0.00000000E+00
  0.00000000E+00  0.00000000E+00  0.00000000E+00
  0.00000000E+00  0.00000000E+00  0.00000000E+00
  0.00000000E+00  0.00000000E+00  0.00000000E+00
  0.00000000E+00  0.00000000E+00  0.00000000E+00
  0.00000000E+00  0.00000000E+00  0.00000000E+00
  0.00000000E+00  0.00000000E+00  0.00000000E+00
  0.00000000E+00  0.00000000E+00  0.00000000E+00
  0.00000000E+00  0.00000000E+00  0.00000000E+00
  0.00000000E+00  0.00000000E+00  0.00000000E+00
  0.00000000E+00  0.00000000E+00  0.00000000E+00
