Cd1 C124 N2 O1                          
   1.00000000000000     
    19.7781753903421773   -0.0300932707613471    0.1857572276862336
    -9.9149221964711884   17.0788316823441555   -0.0194954764296234
     0.2793390615191785    0.1282382043316319   29.8186352241427919
   Cd   C    N    O 
     1   124     2     1
Direct
  0.4301095391581191  0.4913258958965752  0.4554541355139394
  0.0420623568294459  0.0840422421517548  0.3991351160631287
  0.0418665726278354  0.2086582356043438  0.3981837344346829
  0.0415582878161824  0.3333790115082907  0.3969806150042114
  0.0413676697693116  0.4585104676445682  0.3972812120561497
  0.0412794050205575  0.5836096712651941  0.3984518152702634
  0.0413516620616359  0.7087475068971707  0.3992228911724329
  0.0415971167976880  0.8339607391217952  0.3995381944248299
  0.0419499849170606  0.9591650213855166  0.3995622588335266
  0.1675873244507843  0.0850915104734489  0.4002981938773564
  0.1677202710119119  0.2100313553020051  0.3999991373455625
  0.1669292814323766  0.3344257934164603  0.3986935454514118
  0.1660601914898724  0.4588615428513088  0.3958599264866645
  0.1658508000600887  0.5838334359917267  0.3972834983634962
  0.1660288051219863  0.7089834890407135  0.3988717565016485
  0.1664269625363074  0.8341460722741114  0.3995536880598643
  0.1668986302484778  0.9594777388994986  0.3998676562427630
  0.2922269254376140  0.0848301167231195  0.4002763456993622
  0.2937102145602623  0.2117814809210286  0.4024305461304808
  0.2925488879419047  0.3369247506052548  0.4081584146455637
  0.2903278886886914  0.4593826765850363  0.4049205616714348
  0.2901708121518252  0.5846358879501040  0.3988231160078567
  0.2904833352615889  0.7092413379677739  0.3987718060336023
  0.2911820991888238  0.8340715209613973  0.3995777752931695
  0.2916139735416846  0.9592135105692562  0.3998536245416756
  0.4168396812383879  0.0834454698868069  0.3998996727825855
  0.4173434663970014  0.2084469573604845  0.4005697686989382
  0.4207362867934947  0.3360088022276554  0.4024156044082062
  0.4147070990817464  0.7082670829336232  0.4008660419822719
  0.4158760331542120  0.8333901273576735  0.3999737338906328
  0.4163927710603848  0.9583909658088163  0.3999452971472727
  0.5416120432128139  0.0825676839199215  0.3997647605037171
  0.5421006734562293  0.2074503323552652  0.3994271657894845
  0.5428836707535988  0.3320860238495710  0.3992400546351125
  0.5414301406338919  0.4538746340420263  0.3990863031745836
  0.5459066038015586  0.5824280532008522  0.4032476156050026
  0.5382358858744095  0.7050289903520257  0.4025158222026637
  0.5403356215773496  0.8319018756451001  0.4008542723771505
  0.5411728261021302  0.9574461318669077  0.4001806528348522
  0.6664177667533516  0.0823182499633263  0.3999193709926016
  0.6668884643792963  0.2074734156612672  0.3993620082462274
  0.6673794610731300  0.3324538585658355  0.3987568513680485
  0.6679246346650184  0.4574667831006598  0.3983226970018633
  0.6669529308150698  0.5819865535078129  0.3984819596709769
  0.6654468969238713  0.7065594551546923  0.4005488530261986
  0.6649189442552907  0.8311894131601186  0.4007364066114675
  0.6658797361682172  0.9570043454563428  0.4003549615987083
  0.7913232558607937  0.0824080283753902  0.3998419885564384
  0.7916383205683341  0.2075583014077113  0.3994787885545878
  0.7920356350931872  0.3327871562861247  0.3990818787979530
  0.7923188054641856  0.4579875912873063  0.3986621360653290
  0.7919632428227217  0.5829773140207452  0.3984991019818442
  0.7912747191250354  0.7077305812519538  0.3991352256876957
  0.7908482129880717  0.8324266540065745  0.3997967608320313
  0.7907756330528946  0.9571358234596729  0.3999790232301419
  0.9164836255600983  0.0829626672763930  0.3992335860111406
  0.9165834534016826  0.2079306865017115  0.3987759839714394
  0.9166734646675869  0.3330172395769658  0.3985100456811808
  0.9167428254234129  0.4581707012806143  0.3987575629832111
  0.9167118632249551  0.5833879978112819  0.3989362213177119
  0.9165522542621863  0.7085039507371972  0.3990921916464741
  0.9164286614908776  0.8333734365979395  0.3994389755920383
  0.9164274926184184  0.9581858922242452  0.3995369535887420
  0.0839779437204264  0.0428095345998136  0.3996072964140709
  0.0839646342581199  0.1675849302171124  0.3987148088752928
  0.0835205575375773  0.2922035447179986  0.3975228274762951
  0.0829801604816164  0.4169401670186423  0.3962888708970423
  0.0827136022612707  0.5419349394770433  0.3975347676452104
  0.0828226124277768  0.6671153695561625  0.3988760173674672
  0.0831291864168153  0.7923537258128621  0.3994723371686234
  0.0834622169999130  0.9175382077304821  0.3996916418279811
  0.2087887376995665  0.0430213844778294  0.4002210045132680
  0.2096439123858178  0.1689033849926199  0.4012202267112813
  0.2093822841110257  0.2937031966648014  0.4014015269953323
  0.2079642877572068  0.4178499788844978  0.3977408784519112
  0.2072436768415966  0.5423343553575461  0.3968531640299379
  0.2074731360663870  0.6673726559229172  0.3982785999035008
  0.2078741398930243  0.7924184520830616  0.3993660046010007
  0.2083147658549097  0.9176334132119343  0.3997642177976994
  0.3334965678127384  0.0426296941513017  0.3999704480719828
  0.3342242676205798  0.1683733887230080  0.4009269129551360
  0.3356554458287835  0.2955900726199477  0.4053733713973156
  0.3279063839826338  0.4184247618579465  0.4171909529130607
  0.3330945323220570  0.5449571240297828  0.4028693474840601
  0.3318061544389316  0.6675898524450081  0.3992854645147907
  0.3325987508174101  0.7923846613297403  0.3994698592708516
  0.3330937212962406  0.9173796741365864  0.3998402643626903
  0.4583297125150382  0.0415935496223996  0.3998637765076166
  0.4587530430593654  0.1665525030247910  0.3999144554601153
  0.4597874593002554  0.2915601530422653  0.4005315167996842
  0.4536763845749957  0.6640023246297975  0.4028380431577609
  0.4572345404543759  0.7914647292224501  0.4005407004109735
  0.4578263622796347  0.9165392326554131  0.4000612485722382
  0.5831172484410821  0.0408033519446524  0.3999611062001962
  0.5835661512571123  0.1658330762810494  0.3994726171674379
  0.5843118870537565  0.2905381195141600  0.3989872376223260
  0.5850099418507135  0.4149321425943199  0.3988017318029997
  0.5829914514854458  0.5391867939108944  0.3992572573965677
  0.5807748372620746  0.6635230461208715  0.4023894115746223
  0.5807551484489648  0.7886380682330211  0.4013550382369580
  0.5824676175161116  0.9153838429161461  0.4004523015136789
  0.7078362964255296  0.0404946644003559  0.4000891181322523
  0.7083480195887912  0.1657763397490373  0.3996202058193197
  0.7088079106638550  0.2908946347465710  0.3990696906911484
  0.7092337958353832  0.4160353869950100  0.3984895194212997
  0.7089818013449020  0.5409101685664067  0.3981801473354446
  0.7075411978585417  0.6654076571901107  0.3993339123079964
  0.7070803619832029  0.7901766652208672  0.4003306783384730
  0.7071037654517436  0.9149170339274301  0.4003578038082263
  0.8328618136675113  0.0407979145268787  0.3997224941646574
  0.8332117419961392  0.1659835573056600  0.3994740689681049
  0.8334550374995527  0.2911427456097693  0.3991404959763986
  0.8336675298180547  0.4162724445544712  0.3988924526382211
  0.8335683082467591  0.5414222172105694  0.3986990619616076
  0.8332151209368225  0.6665697172837699  0.3988319518341117
  0.8328573050701534  0.7911837894462497  0.3994759901697990
  0.8327320804844295  0.9159214274055399  0.3997818016559540
  0.9583987877182395  0.0417675235260485  0.3992596713944186
  0.9583489241942903  0.1665215355647056  0.3986702179821181
  0.9582677965168226  0.2914136739967572  0.3980385611098486
  0.9581947811073874  0.4165545853806583  0.3982699245741208
  0.9581836634231611  0.5417509443122995  0.3987799232418883
  0.9581617313673203  0.6668976752986259  0.3990925295183010
  0.9581995226190992  0.7919850079733779  0.3993605630146757
  0.9583232400049196  0.9169828372009261  0.3994989374138387
  0.4117759766761372  0.5847795830720909  0.4046228887238302
  0.4632424153016835  0.4150831777608057  0.4006075810266448
  0.4898505079512245  0.5390424485580759  0.5124736905367231
 
  0.00000000E+00  0.00000000E+00  0.00000000E+00
  0.00000000E+00  0.00000000E+00  0.00000000E+00
  0.00000000E+00  0.00000000E+00  0.00000000E+00
  0.00000000E+00  0.00000000E+00  0.00000000E+00
  0.00000000E+00  0.00000000E+00  0.00000000E+00
  0.00000000E+00  0.00000000E+00  0.00000000E+00
  0.00000000E+00  0.00000000E+00  0.00000000E+00
  0.00000000E+00  0.00000000E+00  0.00000000E+00
  0.00000000E+00  0.00000000E+00  0.00000000E+00
  0.00000000E+00  0.00000000E+00  0.00000000E+00
  0.00000000E+00  0.00000000E+00  0.00000000E+00
  0.00000000E+00  0.00000000E+00  0.00000000E+00
  0.00000000E+00  0.00000000E+00  0.00000000E+00
  0.00000000E+00  0.00000000E+00  0.00000000E+00
  0.00000000E+00  0.00000000E+00  0.00000000E+00
  0.00000000E+00  0.00000000E+00  0.00000000E+00
  0.00000000E+00  0.00000000E+00  0.00000000E+00
  0.00000000E+00  0.00000000E+00  0.00000000E+00
  0.00000000E+00  0.00000000E+00  0.00000000E+00
  0.00000000E+00  0.00000000E+00  0.00000000E+00
  0.00000000E+00  0.00000000E+00  0.00000000E+00
  0.00000000E+00  0.00000000E+00  0.00000000E+00
  0.00000000E+00  0.00000000E+00  0.00000000E+00
  0.00000000E+00  0.00000000E+00  0.00000000E+00
  0.00000000E+00  0.00000000E+00  0.00000000E+00
  0.00000000E+00  0.00000000E+00  0.00000000E+00
  0.00000000E+00  0.00000000E+00  0.00000000E+00
  0.00000000E+00  0.00000000E+00  0.00000000E+00
  0.00000000E+00  0.00000000E+00  0.00000000E+00
  0.00000000E+00  0.00000000E+00  0.00000000E+00
  0.00000000E+00  0.00000000E+00  0.00000000E+00
  0.00000000E+00  0.00000000E+00  0.00000000E+00
  0.00000000E+00  0.00000000E+00  0.00000000E+00
  0.00000000E+00  0.00000000E+00  0.00000000E+00
  0.00000000E+00  0.00000000E+00  0.00000000E+00
  0.00000000E+00  0.00000000E+00  0.00000000E+00
  0.00000000E+00  0.00000000E+00  0.00000000E+00
  0.00000000E+00  0.00000000E+00  0.00000000E+00
  0.00000000E+00  0.00000000E+00  0.00000000E+00
  0.00000000E+00  0.00000000E+00  0.00000000E+00
  0.00000000E+00  0.00000000E+00  0.00000000E+00
  0.00000000E+00  0.00000000E+00  0.00000000E+00
  0.00000000E+00  0.00000000E+00  0.00000000E+00
  0.00000000E+00  0.00000000E+00  0.00000000E+00
  0.00000000E+00  0.00000000E+00  0.00000000E+00
  0.00000000E+00  0.00000000E+00  0.00000000E+00
  0.00000000E+00  0.00000000E+00  0.00000000E+00
  0.00000000E+00  0.00000000E+00  0.00000000E+00
  0.00000000E+00  0.00000000E+00  0.00000000E+00
  0.00000000E+00  0.00000000E+00  0.00000000E+00
  0.00000000E+00  0.00000000E+00  0.00000000E+00
  0.00000000E+00  0.00000000E+00  0.00000000E+00
  0.00000000E+00  0.00000000E+00  0.00000000E+00
  0.00000000E+00  0.00000000E+00  0.00000000E+00
  0.00000000E+00  0.00000000E+00  0.00000000E+00
  0.00000000E+00  0.00000000E+00  0.00000000E+00
  0.00000000E+00  0.00000000E+00  0.00000000E+00
  0.00000000E+00  0.00000000E+00  0.00000000E+00
  0.00000000E+00  0.00000000E+00  0.00000000E+00
  0.00000000E+00  0.00000000E+00  0.00000000E+00
  0.00000000E+00  0.00000000E+00  0.00000000E+00
  0.00000000E+00  0.00000000E+00  0.00000000E+00
  0.00000000E+00  0.00000000E+00  0.00000000E+00
  0.00000000E+00  0.00000000E+00  0.00000000E+00
  0.00000000E+00  0.00000000E+00  0.00000000E+00
  0.00000000E+00  0.00000000E+00  0.00000000E+00
  0.00000000E+00  0.00000000E+00  0.00000000E+00
  0.00000000E+00  0.00000000E+00  0.00000000E+00
  0.00000000E+00  0.00000000E+00  0.00000000E+00
  0.00000000E+00  0.00000000E+00  0.00000000E+00
  0.00000000E+00  0.00000000E+00  0.00000000E+00
  0.00000000E+00  0.00000000E+00  0.00000000E+00
  0.00000000E+00  0.00000000E+00  0.00000000E+00
  0.00000000E+00  0.00000000E+00  0.00000000E+00
  0.00000000E+00  0.00000000E+00  0.00000000E+00
  0.00000000E+00  0.00000000E+00  0.00000000E+00
  0.00000000E+00  0.00000000E+00  0.00000000E+00
  0.00000000E+00  0.00000000E+00  0.00000000E+00
  0.00000000E+00  0.00000000E+00  0.00000000E+00
  0.00000000E+00  0.00000000E+00  0.00000000E+00
  0.00000000E+00  0.00000000E+00  0.00000000E+00
  0.00000000E+00  0.00000000E+00  0.00000000E+00
  0.00000000E+00  0.00000000E+00  0.00000000E+00
  0.00000000E+00  0.00000000E+00  0.00000000E+00
  0.00000000E+00  0.00000000E+00  0.00000000E+00
  0.00000000E+00  0.00000000E+00  0.00000000E+00
  0.00000000E+00  0.00000000E+00  0.00000000E+00
  0.00000000E+00  0.00000000E+00  0.00000000E+00
  0.00000000E+00  0.00000000E+00  0.00000000E+00
  0.00000000E+00  0.00000000E+00  0.00000000E+00
  0.00000000E+00  0.00000000E+00  0.00000000E+00
  0.00000000E+00  0.00000000E+00  0.00000000E+00
  0.00000000E+00  0.00000000E+00  0.00000000E+00
  0.00000000E+00  0.00000000E+00  0.00000000E+00
  0.00000000E+00  0.00000000E+00  0.00000000E+00
  0.00000000E+00  0.00000000E+00  0.00000000E+00
  0.00000000E+00  0.00000000E+00  0.00000000E+00
  0.00000000E+00  0.00000000E+00  0.00000000E+00
  0.00000000E+00  0.00000000E+00  0.00000000E+00
  0.00000000E+00  0.00000000E+00  0.00000000E+00
  0.00000000E+00  0.00000000E+00  0.00000000E+00
  0.00000000E+00  0.00000000E+00  0.00000000E+00
  0.00000000E+00  0.00000000E+00  0.00000000E+00
  0.00000000E+00  0.00000000E+00  0.00000000E+00
  0.00000000E+00  0.00000000E+00  0.00000000E+00
  0.00000000E+00  0.00000000E+00  0.00000000E+00
  0.00000000E+00  0.00000000E+00  0.00000000E+00
  0.00000000E+00  0.00000000E+00  0.00000000E+00
  0.00000000E+00  0.00000000E+00  0.00000000E+00
  0.00000000E+00  0.00000000E+00  0.00000000E+00
  0.00000000E+00  0.00000000E+00  0.00000000E+00
  0.00000000E+00  0.00000000E+00  0.00000000E+00
  0.00000000E+00  0.00000000E+00  0.00000000E+00
  0.00000000E+00  0.00000000E+00  0.00000000E+00
  0.00000000E+00  0.00000000E+00  0.00000000E+00
  0.00000000E+00  0.00000000E+00  0.00000000E+00
  0.00000000E+00  0.00000000E+00  0.00000000E+00
  0.00000000E+00  0.00000000E+00  0.00000000E+00
  0.00000000E+00  0.00000000E+00  0.00000000E+00
  0.00000000E+00  0.00000000E+00  0.00000000E+00
  0.00000000E+00  0.00000000E+00  0.00000000E+00
  0.00000000E+00  0.00000000E+00  0.00000000E+00
  0.00000000E+00  0.00000000E+00  0.00000000E+00
  0.00000000E+00  0.00000000E+00  0.00000000E+00
  0.00000000E+00  0.00000000E+00  0.00000000E+00
  0.00000000E+00  0.00000000E+00  0.00000000E+00
  0.00000000E+00  0.00000000E+00  0.00000000E+00
  0.00000000E+00  0.00000000E+00  0.00000000E+00
