H1 Au1 C125 N1                          
   1.00000000000000     
    19.8636810997596420   -0.0032937783131738    0.1214898768044131
    -9.9348151268002329   17.0635857560387549   -0.0608206572054866
     0.1816460724983193    0.0000625501520593   29.6913673676263166
   H    Au   C    N 
     1     1   125     1
Direct
  0.4533254210039982  0.5039050475133943  0.4698095946841754
  0.4369979594700497  0.4990543738963539  0.4153567181954943
  0.0414526595476575  0.0838020511892514  0.3997170797968377
  0.0402243068478838  0.2077840309751493  0.3998000086111319
  0.0394893475035519  0.3324693430511932  0.3991221568552883
  0.0397208357182253  0.4581532415172401  0.3984893282570962
  0.0410604956747595  0.5839166381117605  0.3983000184839517
  0.0421749732476941  0.7094566429961492  0.3984736608246414
  0.0426071172358822  0.8348296023168101  0.3987243302517077
  0.0424560667344564  0.9597228969733971  0.3991451865155328
  0.1675564683706467  0.0854721099161212  0.4007970190827688
  0.1662043585760400  0.2093854998088010  0.4017169544356065
  0.1641629144116057  0.3333203372150796  0.4010103109609454
  0.1625849459351132  0.4582568948897286  0.3995020641120683
  0.1641750300379935  0.5838481604215751  0.3990385793933194
  0.1660295401127931  0.7094112437490370  0.3989516128877370
  0.1670324309137779  0.8348606879698618  0.3989586670451998
  0.1675427060515754  0.9602736529880533  0.3995442460342227
  0.2926173911012238  0.0855237482297570  0.4009478604771811
  0.2932562502691838  0.2119330781668332  0.4036491404026545
  0.2906327362686498  0.3360523339631948  0.4054373753309053
  0.2852073740223060  0.4586553451176552  0.4034320596149011
  0.2868589672521795  0.5843759487965215  0.4010507947699772
  0.2899418118309912  0.7093073904775593  0.4000374068374838
  0.2913497778918514  0.8343957607746995  0.3993224563175091
  0.2920233496131457  0.9597752023172352  0.3993655416999421
  0.4170574993921051  0.0839230360472764  0.3999061322394173
  0.4177929340653808  0.2095626545863030  0.4025265853449641
  0.4197315930087728  0.3363873200069473  0.4073850226284028
  0.4139165538890917  0.7071092730869558  0.4026838768021481
  0.4156438895863671  0.8328541697810915  0.4004601112854420
  0.4164555848879234  0.9583776110407666  0.3993000150304198
  0.5414699771305231  0.0823118539897714  0.3992042295751517
  0.5422975559603332  0.2076607161943903  0.4002828541521413
  0.5437926592647818  0.3327880729341986  0.4032155431664569
  0.5490726959967450  0.4578530839148562  0.4084208731375190
  0.5500455456276332  0.5818244270718709  0.4113230716551372
  0.5380434531910536  0.7027976274121212  0.4059744098383479
  0.5398997952252891  0.8305905318883541  0.4021160882566813
  0.5408615168095877  0.9566820821868026  0.3999181332641439
  0.6658732685334493  0.0815467512640328  0.3992359163612277
  0.6666026333816744  0.2070043321591596  0.3989863448069252
  0.6678276460387355  0.3323461375594962  0.3997420302098162
  0.6708196804808247  0.4581046124102161  0.4016244857621951
  0.6726959256657629  0.5841241620762142  0.4040960694519788
  0.6673986745068602  0.7069388919482221  0.4039570541042553
  0.6647344886229843  0.8302676859894255  0.4023189689205920
  0.6653009839377130  0.9560247004401182  0.4004574583127399
  0.7904532704276278  0.0815224221957467  0.3992241611440096
  0.7908030660622324  0.2067706237914735  0.3987384759006475
  0.7917766415711786  0.3323465739329891  0.3984236525259932
  0.7934875452914660  0.4581321425076126  0.3984964773047837
  0.7948333166315589  0.5838220765101630  0.3994406993536234
  0.7939011941329718  0.7091251063721539  0.4005220104172215
  0.7916653258305066  0.8326837252016589  0.4004359676615047
  0.7903260309476731  0.9564868594981774  0.3998541121226326
  0.9155614822892253  0.0822520003416242  0.3991197526687361
  0.9152440933360133  0.2070280934318521  0.3989642752240413
  0.9155412075193539  0.3323698449446750  0.3984773998173094
  0.9165561682589249  0.4580503886770830  0.3979572916985559
  0.9179151534366102  0.5839056086661456  0.3980500727981809
  0.9181915921301704  0.7094511649462638  0.3986524169616559
  0.9177142647127364  0.8342520297175952  0.3990050928713064
  0.9165317655514862  0.9582193351992524  0.3991001536798527
  0.0840389980629690  0.0431950458014863  0.3998244472803567
  0.0827325333284387  0.1670815830374611  0.4003512197593792
  0.0811716564963704  0.2911239162094109  0.3998624124458160
  0.0803536213623675  0.4161661335528321  0.3989163952105017
  0.0815276269576967  0.5418061506070321  0.3985283373741923
  0.0830718464650750  0.6675591361181430  0.3985486537325443
  0.0839802345718574  0.7931428558699839  0.3987055092318547
  0.0842492933571115  0.9183645115961155  0.3990928379653820
  0.2092371087964360  0.0437650161455769  0.4004702208704154
  0.2091447077124209  0.1690838657623847  0.4021488186452786
  0.2071053994639769  0.2928396424377342  0.4025704852118662
  0.2033953204392915  0.4166899369297584  0.4008146706052902
  0.2042781425820223  0.5418054060091756  0.3996199157159940
  0.2068768890354034  0.6675493099074359  0.3992772461662175
  0.2082125241249248  0.7929669034660115  0.3990777306775178
  0.2089390755501516  0.9183855541857603  0.3992644307660599
  0.3338857630267886  0.0432599544532907  0.3999952620288536
  0.3345392920238828  0.1690962142680401  0.4025215242106446
  0.3349164664642530  0.2955756851669080  0.4060285986695079
  0.3260130926760557  0.4181632838863336  0.4069906138426337
  0.3271551384394444  0.5435223444443916  0.4034694352806667
  0.3306991428950372  0.6674496746994675  0.4012220314500825
  0.3325101166494105  0.7924964453145228  0.3999286904815811
  0.3333704687167132  0.9177525413515020  0.3992318132974672
  0.4584025586050922  0.0417176086643674  0.3992999435093014
  0.4590417300999231  0.1672214890084233  0.4008079157485559
  0.4603901228426943  0.2929912714969333  0.4044013057763411
  0.4677164098613957  0.4182632781275225  0.4102668007682906
  0.4530633028184985  0.6628424844997175  0.4052948695744552
  0.4568397813366462  0.7905498528893589  0.4017947035444525
  0.4576947912516600  0.9161564423752343  0.3998204733133718
  0.5827657436815205  0.0402037171439069  0.3993281126311358
  0.5834878409202251  0.1656904010183576  0.3993400143449077
  0.5847226176753041  0.2908235773945465  0.4009247787294673
  0.5882568489907355  0.4158549071968093  0.4042781895089743
  0.5917340057429435  0.5424749587145167  0.4086396202845375
  0.5834119686368298  0.6631171260905876  0.4074519984758991
  0.5803203485808804  0.7870780442555546  0.4035464021943431
  0.5820406055390098  0.9143399765820479  0.4008013066818541
  0.7071737786985096  0.0396027378260732  0.3995861061317608
  0.7078040056456621  0.1650874160336018  0.3988772636055315
  0.7087278529061443  0.2905081426970704  0.3989076838821634
  0.7108562999774526  0.4160954898748171  0.3996655202043153
  0.7128569800816079  0.5418186667174418  0.4014597124369455
  0.7111078286203781  0.6671918406740108  0.4028544583790601
  0.7080720860526710  0.7902676063010659  0.4021117299573123
  0.7066479574189745  0.9140216781920029  0.4008334930330012
  0.8320968533215763  0.0400666684046427  0.3992631324273724
  0.8321390731553073  0.1650834403538742  0.3989150096939431
  0.8327082069852046  0.2904633250703187  0.3984882550540522
  0.8339569472025734  0.4160136168791887  0.3981184669832691
  0.8353795916413163  0.5417804217913362  0.3984172243760279
  0.8354912060115600  0.6675995215286642  0.3994043367155153
  0.8345578888530431  0.7922842173923206  0.3998732486004754
  0.8329741347008807  0.9159634385636415  0.3996727389272606
  0.9579680372216504  0.0415580396904745  0.3991701491691255
  0.9570346901138658  0.1657065345578291  0.3992090819224549
  0.9567079962166490  0.2905479392643755  0.3988264295227785
  0.9571265434811776  0.4160278022163382  0.3982516852126475
  0.9584924060384143  0.5418840084582793  0.3979621092618512
  0.9593837815399610  0.6675955710507528  0.3983082516400296
  0.9595423089962765  0.7929469943070433  0.3987332177036595
  0.9590384345866415  0.9175998204641391  0.3989410752918833
  0.4062490657745256  0.5826888217465561  0.4064034255271591
 
  0.00000000E+00  0.00000000E+00  0.00000000E+00
  0.00000000E+00  0.00000000E+00  0.00000000E+00
  0.00000000E+00  0.00000000E+00  0.00000000E+00
  0.00000000E+00  0.00000000E+00  0.00000000E+00
  0.00000000E+00  0.00000000E+00  0.00000000E+00
  0.00000000E+00  0.00000000E+00  0.00000000E+00
  0.00000000E+00  0.00000000E+00  0.00000000E+00
  0.00000000E+00  0.00000000E+00  0.00000000E+00
  0.00000000E+00  0.00000000E+00  0.00000000E+00
  0.00000000E+00  0.00000000E+00  0.00000000E+00
  0.00000000E+00  0.00000000E+00  0.00000000E+00
  0.00000000E+00  0.00000000E+00  0.00000000E+00
  0.00000000E+00  0.00000000E+00  0.00000000E+00
  0.00000000E+00  0.00000000E+00  0.00000000E+00
  0.00000000E+00  0.00000000E+00  0.00000000E+00
  0.00000000E+00  0.00000000E+00  0.00000000E+00
  0.00000000E+00  0.00000000E+00  0.00000000E+00
  0.00000000E+00  0.00000000E+00  0.00000000E+00
  0.00000000E+00  0.00000000E+00  0.00000000E+00
  0.00000000E+00  0.00000000E+00  0.00000000E+00
  0.00000000E+00  0.00000000E+00  0.00000000E+00
  0.00000000E+00  0.00000000E+00  0.00000000E+00
  0.00000000E+00  0.00000000E+00  0.00000000E+00
  0.00000000E+00  0.00000000E+00  0.00000000E+00
  0.00000000E+00  0.00000000E+00  0.00000000E+00
  0.00000000E+00  0.00000000E+00  0.00000000E+00
  0.00000000E+00  0.00000000E+00  0.00000000E+00
  0.00000000E+00  0.00000000E+00  0.00000000E+00
  0.00000000E+00  0.00000000E+00  0.00000000E+00
  0.00000000E+00  0.00000000E+00  0.00000000E+00
  0.00000000E+00  0.00000000E+00  0.00000000E+00
  0.00000000E+00  0.00000000E+00  0.00000000E+00
  0.00000000E+00  0.00000000E+00  0.00000000E+00
  0.00000000E+00  0.00000000E+00  0.00000000E+00
  0.00000000E+00  0.00000000E+00  0.00000000E+00
  0.00000000E+00  0.00000000E+00  0.00000000E+00
  0.00000000E+00  0.00000000E+00  0.00000000E+00
  0.00000000E+00  0.00000000E+00  0.00000000E+00
  0.00000000E+00  0.00000000E+00  0.00000000E+00
  0.00000000E+00  0.00000000E+00  0.00000000E+00
  0.00000000E+00  0.00000000E+00  0.00000000E+00
  0.00000000E+00  0.00000000E+00  0.00000000E+00
  0.00000000E+00  0.00000000E+00  0.00000000E+00
  0.00000000E+00  0.00000000E+00  0.00000000E+00
  0.00000000E+00  0.00000000E+00  0.00000000E+00
  0.00000000E+00  0.00000000E+00  0.00000000E+00
  0.00000000E+00  0.00000000E+00  0.00000000E+00
  0.00000000E+00  0.00000000E+00  0.00000000E+00
  0.00000000E+00  0.00000000E+00  0.00000000E+00
  0.00000000E+00  0.00000000E+00  0.00000000E+00
  0.00000000E+00  0.00000000E+00  0.00000000E+00
  0.00000000E+00  0.00000000E+00  0.00000000E+00
  0.00000000E+00  0.00000000E+00  0.00000000E+00
  0.00000000E+00  0.00000000E+00  0.00000000E+00
  0.00000000E+00  0.00000000E+00  0.00000000E+00
  0.00000000E+00  0.00000000E+00  0.00000000E+00
  0.00000000E+00  0.00000000E+00  0.00000000E+00
  0.00000000E+00  0.00000000E+00  0.00000000E+00
  0.00000000E+00  0.00000000E+00  0.00000000E+00
  0.00000000E+00  0.00000000E+00  0.00000000E+00
  0.00000000E+00  0.00000000E+00  0.00000000E+00
  0.00000000E+00  0.00000000E+00  0.00000000E+00
  0.00000000E+00  0.00000000E+00  0.00000000E+00
  0.00000000E+00  0.00000000E+00  0.00000000E+00
  0.00000000E+00  0.00000000E+00  0.00000000E+00
  0.00000000E+00  0.00000000E+00  0.00000000E+00
  0.00000000E+00  0.00000000E+00  0.00000000E+00
  0.00000000E+00  0.00000000E+00  0.00000000E+00
  0.00000000E+00  0.00000000E+00  0.00000000E+00
  0.00000000E+00  0.00000000E+00  0.00000000E+00
  0.00000000E+00  0.00000000E+00  0.00000000E+00
  0.00000000E+00  0.00000000E+00  0.00000000E+00
  0.00000000E+00  0.00000000E+00  0.00000000E+00
  0.00000000E+00  0.00000000E+00  0.00000000E+00
  0.00000000E+00  0.00000000E+00  0.00000000E+00
  0.00000000E+00  0.00000000E+00  0.00000000E+00
  0.00000000E+00  0.00000000E+00  0.00000000E+00
  0.00000000E+00  0.00000000E+00  0.00000000E+00
  0.00000000E+00  0.00000000E+00  0.00000000E+00
  0.00000000E+00  0.00000000E+00  0.00000000E+00
  0.00000000E+00  0.00000000E+00  0.00000000E+00
  0.00000000E+00  0.00000000E+00  0.00000000E+00
  0.00000000E+00  0.00000000E+00  0.00000000E+00
  0.00000000E+00  0.00000000E+00  0.00000000E+00
  0.00000000E+00  0.00000000E+00  0.00000000E+00
  0.00000000E+00  0.00000000E+00  0.00000000E+00
  0.00000000E+00  0.00000000E+00  0.00000000E+00
  0.00000000E+00  0.00000000E+00  0.00000000E+00
  0.00000000E+00  0.00000000E+00  0.00000000E+00
  0.00000000E+00  0.00000000E+00  0.00000000E+00
  0.00000000E+00  0.00000000E+00  0.00000000E+00
  0.00000000E+00  0.00000000E+00  0.00000000E+00
  0.00000000E+00  0.00000000E+00  0.00000000E+00
  0.00000000E+00  0.00000000E+00  0.00000000E+00
  0.00000000E+00  0.00000000E+00  0.00000000E+00
  0.00000000E+00  0.00000000E+00  0.00000000E+00
  0.00000000E+00  0.00000000E+00  0.00000000E+00
  0.00000000E+00  0.00000000E+00  0.00000000E+00
  0.00000000E+00  0.00000000E+00  0.00000000E+00
  0.00000000E+00  0.00000000E+00  0.00000000E+00
  0.00000000E+00  0.00000000E+00  0.00000000E+00
  0.00000000E+00  0.00000000E+00  0.00000000E+00
  0.00000000E+00  0.00000000E+00  0.00000000E+00
  0.00000000E+00  0.00000000E+00  0.00000000E+00
  0.00000000E+00  0.00000000E+00  0.00000000E+00
  0.00000000E+00  0.00000000E+00  0.00000000E+00
  0.00000000E+00  0.00000000E+00  0.00000000E+00
  0.00000000E+00  0.00000000E+00  0.00000000E+00
  0.00000000E+00  0.00000000E+00  0.00000000E+00
  0.00000000E+00  0.00000000E+00  0.00000000E+00
  0.00000000E+00  0.00000000E+00  0.00000000E+00
  0.00000000E+00  0.00000000E+00  0.00000000E+00
  0.00000000E+00  0.00000000E+00  0.00000000E+00
  0.00000000E+00  0.00000000E+00  0.00000000E+00
  0.00000000E+00  0.00000000E+00  0.00000000E+00
  0.00000000E+00  0.00000000E+00  0.00000000E+00
  0.00000000E+00  0.00000000E+00  0.00000000E+00
  0.00000000E+00  0.00000000E+00  0.00000000E+00
  0.00000000E+00  0.00000000E+00  0.00000000E+00
  0.00000000E+00  0.00000000E+00  0.00000000E+00
  0.00000000E+00  0.00000000E+00  0.00000000E+00
  0.00000000E+00  0.00000000E+00  0.00000000E+00
  0.00000000E+00  0.00000000E+00  0.00000000E+00
  0.00000000E+00  0.00000000E+00  0.00000000E+00
  0.00000000E+00  0.00000000E+00  0.00000000E+00
  0.00000000E+00  0.00000000E+00  0.00000000E+00
  0.00000000E+00  0.00000000E+00  0.00000000E+00
  0.00000000E+00  0.00000000E+00  0.00000000E+00
