Cu1 C124 N2 O1                          
   1.00000000000000     
    19.8079308672910308   -0.0148803307879989    0.0078652543786599
    -9.9171435066663314   17.0429003410839996   -0.0048893152613647
     0.0118294855591750   -0.0016833361574531   29.8201218649469872
   Cu   C    N    O 
     1   124     2     1
Direct
  0.4374909958383498  0.5000041315311798  0.4154222793607342
  0.0422952922809607  0.0843428960241858  0.3999596599216508
  0.0415035766289443  0.2085170260690114  0.3999806539891078
  0.0407519386642554  0.3330443672567018  0.3997131021281835
  0.0405889093710993  0.4583850967512489  0.3995329277898306
  0.0412304549527202  0.5838026376465564  0.3993774961778944
  0.0418498068476668  0.7091882727494873  0.3994335437467855
  0.0421914945225726  0.8345086424655407  0.3996552108257304
  0.0424604100535609  0.9597005108228780  0.3998182267123438
  0.1682548735167908  0.0859724099966749  0.4004959871144078
  0.1679852460363301  0.2106925395459630  0.4013343054072578
  0.1660855208247719  0.3342949876700691  0.4017100916421581
  0.1644048465492980  0.4586662871224888  0.4005511100513577
  0.1651928390176882  0.5838511765375688  0.4001567037090416
  0.1661913423714879  0.7092199278736646  0.3996178021871242
  0.1668792407315192  0.8346063356336532  0.3995541744825594
  0.1675052240884920  0.9601635173911325  0.3998341516073280
  0.2928159762361471  0.0856530931374704  0.4004296119708789
  0.2946370528771617  0.2130183612680657  0.4024022198168388
  0.2938192377221155  0.3385013795327007  0.4057399145009760
  0.2884319559091449  0.4597109945611831  0.4041978320242907
  0.2888888726974922  0.5843842774362624  0.4019139193451892
  0.2904480825030517  0.7090367981630422  0.4005327639111864
  0.2914534985955384  0.8341734403759981  0.3997428670463444
  0.2920363437557095  0.9596544719554095  0.3997265004778311
  0.4171774924689484  0.0840411852936242  0.4000820605546004
  0.4179410165741385  0.2100613708164286  0.4014927062035645
  0.4213939659303787  0.3385896206992282  0.4029484932746651
  0.4145150906133147  0.7063019659280316  0.4021195062356827
  0.4159243884340001  0.8325153361609918  0.4006143635893121
  0.4165559572588350  0.9582675921021518  0.3997709231952559
  0.5416425644481045  0.0824165529165894  0.3997313079347838
  0.5422895273440733  0.2077939026469691  0.4003336787180244
  0.5434948397169058  0.3328654934864171  0.4014282958719154
  0.5447773117929636  0.4563914741447236  0.4025573398233511
  0.5443234005533005  0.5791429338486518  0.4086334744908201
  0.5380502611636511  0.7027413000559374  0.4041290819994583
  0.5400967418536979  0.8305110724563228  0.4013515405216539
  0.5410880631312064  0.9567501735334674  0.4000116136922388
  0.6661958390350876  0.0817742316793788  0.3997206638243554
  0.6667987366129609  0.2072421723302476  0.3995941749973635
  0.6676167371547813  0.3325749709242512  0.4000765613147475
  0.6690140695762365  0.4579425381991605  0.4009129192511556
  0.6691659055730246  0.5825947660210434  0.4016600488685705
  0.6655008942730404  0.7055711735393378  0.4027721190379417
  0.6645922101522772  0.8300574414428145  0.4015209785425445
  0.6655664908316414  0.9561359967174696  0.4001825406910993
  0.7909500692483387  0.0818025791691103  0.3996989602110458
  0.7913230236440139  0.2071110661346020  0.3995275899063804
  0.7919113897974744  0.3325553796156179  0.3994091440499627
  0.7927074203989429  0.4580359195711377  0.3995277626526024
  0.7932019889882055  0.5833480763763722  0.3997198835190238
  0.7922806450284681  0.7081042637456811  0.4003368017389364
  0.7908949403881839  0.8320612941961444  0.4002872709099436
  0.7904880666580060  0.9565385831236670  0.3999855836588672
  0.9162320487051819  0.0826438777793747  0.3997510336735126
  0.9161234660894071  0.2074952718975693  0.3996476570743199
  0.9161925214440449  0.3326980600311106  0.3994465500721541
  0.9166079508384675  0.4581224997579019  0.3992528400096246
  0.9172476941752865  0.5836346540161386  0.3993208987069936
  0.9173339962126789  0.7089661230554609  0.3995557644530445
  0.9170254044927169  0.8337790606727238  0.3997698020991762
  0.9165318250570981  0.9581878350629416  0.3998243515410580
  0.0845332168186600  0.0434526476651047  0.4000351952756956
  0.0841290912909277  0.1679374651266203  0.4002442242638912
  0.0827264975424965  0.2919174261841251  0.4003043092136236
  0.0817612861189117  0.4166521349718616  0.3997893806817022
  0.0822414918061182  0.5419492769409101  0.3996088302258928
  0.0830532785653435  0.6674068735282215  0.3994201084612020
  0.0836705265341915  0.7928520061288572  0.3995352977877421
  0.0840801726703956  0.9181714967090430  0.3997514306761042
  0.2094628510199043  0.0438537923021328  0.4002158396785495
  0.2104291939064573  0.1699542470519166  0.4015167815882896
  0.2094837996391540  0.2944343247614668  0.4027458081591566
  0.2058253499793680  0.4174282655316643  0.4017261239483399
  0.2059729325267245  0.5420649710696628  0.4009619484879138
  0.2073581728557440  0.6674240859556483  0.4000902547459692
  0.2081930307193656  0.7927400883886082  0.3995667232472688
  0.2088261735844871  0.9182077232386814  0.3997070669514536
  0.3339151707200928  0.0432382829418494  0.4000049494675148
  0.3349108908518730  0.1694974473036911  0.4013725751362582
  0.3369385262604588  0.2972802406537827  0.4041337106860208
  0.3306549843013860  0.4208676659612075  0.4086849432892503
  0.3302374783701924  0.5436425426317275  0.4026378508093297
  0.3314964157821451  0.6671505529809715  0.4014409251850260
  0.3327125493818985  0.7922089328678500  0.4002642698148168
  0.3333768056283126  0.9175757444013539  0.3996986950939369
  0.4584638173644181  0.0417289381417085  0.3997882199347749
  0.4590883349442961  0.1674946706041960  0.4006543138447706
  0.4604806293330064  0.2937215860155521  0.4020984545378727
  0.4535992860247107  0.6614371071257004  0.4029770574992216
  0.4570719572484723  0.7899615084674213  0.4014745104455595
  0.4578325434940906  0.9159584121792705  0.4000657192934020
  0.5829849585352129  0.0403336492278082  0.3997519358762728
  0.5835510373601543  0.1658186930619774  0.3997928460682892
  0.5845371825654996  0.2909698342878076  0.4005688706045319
  0.5861165467670612  0.4156328498740444  0.4018723111293556
  0.5865674022372207  0.5403274950999680  0.4041114691690657
  0.5811576201703159  0.6615112529078855  0.4057210007447546
  0.5803737694445764  0.7869986821388503  0.4023925080285404
  0.5822016836278248  0.9143416563208988  0.4004182191808843
  0.7075270892811093  0.0398200101084431  0.3998046922336230
  0.7081244107036021  0.1653727950789345  0.3995729347266158
  0.7087861613854941  0.2907657067183044  0.3996122853034024
  0.7097803993762090  0.4161582601875132  0.4000958839322141
  0.7105695288104755  0.5413373371097422  0.4004739590845713
  0.7089085814521057  0.6657306801491827  0.4017085178889230
  0.7070302114049241  0.7893086431318963  0.4013663587278845
  0.7067669506812838  0.9140203189924829  0.4004567827643283
  0.8325804409970387  0.0402924104560198  0.3997506816157457
  0.8328269085457237  0.1654711318981429  0.3996122257118786
  0.8331373829378239  0.2907758118957287  0.3994320992116899
  0.8337042433768604  0.4161643166667354  0.3993293083834828
  0.8343425654898797  0.5415975223678561  0.3994509297125851
  0.8342336176231486  0.6669621427531158  0.3997016884569267
  0.8335274573945654  0.7914900399272516  0.4000351595142133
  0.8327438376156099  0.9156558509379751  0.3999491993417629
  0.9585099287274319  0.0418190196847446  0.3998171490782372
  0.9580128428327568  0.1662407949197721  0.3997184872939956
  0.9576642175290909  0.2910461361068019  0.3995455129277123
  0.9576910800015954  0.4163339094954008  0.3993702611750548
  0.9583297062259251  0.5418444489880327  0.3992506336456872
  0.9587788594004781  0.6672817214861958  0.3994393747090996
  0.9588956742012159  0.7925118637012342  0.3996922428254573
  0.9588155201239994  0.9173745646905579  0.3997944503234199
  0.4095968376137449  0.5807956182284074  0.4017252188230006
  0.4654141308043369  0.4192327123092376  0.4016695522693525
  0.4374247712201215  0.4999932725933064  0.4789573882301151
 
  0.00000000E+00  0.00000000E+00  0.00000000E+00
  0.00000000E+00  0.00000000E+00  0.00000000E+00
  0.00000000E+00  0.00000000E+00  0.00000000E+00
  0.00000000E+00  0.00000000E+00  0.00000000E+00
  0.00000000E+00  0.00000000E+00  0.00000000E+00
  0.00000000E+00  0.00000000E+00  0.00000000E+00
  0.00000000E+00  0.00000000E+00  0.00000000E+00
  0.00000000E+00  0.00000000E+00  0.00000000E+00
  0.00000000E+00  0.00000000E+00  0.00000000E+00
  0.00000000E+00  0.00000000E+00  0.00000000E+00
  0.00000000E+00  0.00000000E+00  0.00000000E+00
  0.00000000E+00  0.00000000E+00  0.00000000E+00
  0.00000000E+00  0.00000000E+00  0.00000000E+00
  0.00000000E+00  0.00000000E+00  0.00000000E+00
  0.00000000E+00  0.00000000E+00  0.00000000E+00
  0.00000000E+00  0.00000000E+00  0.00000000E+00
  0.00000000E+00  0.00000000E+00  0.00000000E+00
  0.00000000E+00  0.00000000E+00  0.00000000E+00
  0.00000000E+00  0.00000000E+00  0.00000000E+00
  0.00000000E+00  0.00000000E+00  0.00000000E+00
  0.00000000E+00  0.00000000E+00  0.00000000E+00
  0.00000000E+00  0.00000000E+00  0.00000000E+00
  0.00000000E+00  0.00000000E+00  0.00000000E+00
  0.00000000E+00  0.00000000E+00  0.00000000E+00
  0.00000000E+00  0.00000000E+00  0.00000000E+00
  0.00000000E+00  0.00000000E+00  0.00000000E+00
  0.00000000E+00  0.00000000E+00  0.00000000E+00
  0.00000000E+00  0.00000000E+00  0.00000000E+00
  0.00000000E+00  0.00000000E+00  0.00000000E+00
  0.00000000E+00  0.00000000E+00  0.00000000E+00
  0.00000000E+00  0.00000000E+00  0.00000000E+00
  0.00000000E+00  0.00000000E+00  0.00000000E+00
  0.00000000E+00  0.00000000E+00  0.00000000E+00
  0.00000000E+00  0.00000000E+00  0.00000000E+00
  0.00000000E+00  0.00000000E+00  0.00000000E+00
  0.00000000E+00  0.00000000E+00  0.00000000E+00
  0.00000000E+00  0.00000000E+00  0.00000000E+00
  0.00000000E+00  0.00000000E+00  0.00000000E+00
  0.00000000E+00  0.00000000E+00  0.00000000E+00
  0.00000000E+00  0.00000000E+00  0.00000000E+00
  0.00000000E+00  0.00000000E+00  0.00000000E+00
  0.00000000E+00  0.00000000E+00  0.00000000E+00
  0.00000000E+00  0.00000000E+00  0.00000000E+00
  0.00000000E+00  0.00000000E+00  0.00000000E+00
  0.00000000E+00  0.00000000E+00  0.00000000E+00
  0.00000000E+00  0.00000000E+00  0.00000000E+00
  0.00000000E+00  0.00000000E+00  0.00000000E+00
  0.00000000E+00  0.00000000E+00  0.00000000E+00
  0.00000000E+00  0.00000000E+00  0.00000000E+00
  0.00000000E+00  0.00000000E+00  0.00000000E+00
  0.00000000E+00  0.00000000E+00  0.00000000E+00
  0.00000000E+00  0.00000000E+00  0.00000000E+00
  0.00000000E+00  0.00000000E+00  0.00000000E+00
  0.00000000E+00  0.00000000E+00  0.00000000E+00
  0.00000000E+00  0.00000000E+00  0.00000000E+00
  0.00000000E+00  0.00000000E+00  0.00000000E+00
  0.00000000E+00  0.00000000E+00  0.00000000E+00
  0.00000000E+00  0.00000000E+00  0.00000000E+00
  0.00000000E+00  0.00000000E+00  0.00000000E+00
  0.00000000E+00  0.00000000E+00  0.00000000E+00
  0.00000000E+00  0.00000000E+00  0.00000000E+00
  0.00000000E+00  0.00000000E+00  0.00000000E+00
  0.00000000E+00  0.00000000E+00  0.00000000E+00
  0.00000000E+00  0.00000000E+00  0.00000000E+00
  0.00000000E+00  0.00000000E+00  0.00000000E+00
  0.00000000E+00  0.00000000E+00  0.00000000E+00
  0.00000000E+00  0.00000000E+00  0.00000000E+00
  0.00000000E+00  0.00000000E+00  0.00000000E+00
  0.00000000E+00  0.00000000E+00  0.00000000E+00
  0.00000000E+00  0.00000000E+00  0.00000000E+00
  0.00000000E+00  0.00000000E+00  0.00000000E+00
  0.00000000E+00  0.00000000E+00  0.00000000E+00
  0.00000000E+00  0.00000000E+00  0.00000000E+00
  0.00000000E+00  0.00000000E+00  0.00000000E+00
  0.00000000E+00  0.00000000E+00  0.00000000E+00
  0.00000000E+00  0.00000000E+00  0.00000000E+00
  0.00000000E+00  0.00000000E+00  0.00000000E+00
  0.00000000E+00  0.00000000E+00  0.00000000E+00
  0.00000000E+00  0.00000000E+00  0.00000000E+00
  0.00000000E+00  0.00000000E+00  0.00000000E+00
  0.00000000E+00  0.00000000E+00  0.00000000E+00
  0.00000000E+00  0.00000000E+00  0.00000000E+00
  0.00000000E+00  0.00000000E+00  0.00000000E+00
  0.00000000E+00  0.00000000E+00  0.00000000E+00
  0.00000000E+00  0.00000000E+00  0.00000000E+00
  0.00000000E+00  0.00000000E+00  0.00000000E+00
  0.00000000E+00  0.00000000E+00  0.00000000E+00
  0.00000000E+00  0.00000000E+00  0.00000000E+00
  0.00000000E+00  0.00000000E+00  0.00000000E+00
  0.00000000E+00  0.00000000E+00  0.00000000E+00
  0.00000000E+00  0.00000000E+00  0.00000000E+00
  0.00000000E+00  0.00000000E+00  0.00000000E+00
  0.00000000E+00  0.00000000E+00  0.00000000E+00
  0.00000000E+00  0.00000000E+00  0.00000000E+00
  0.00000000E+00  0.00000000E+00  0.00000000E+00
  0.00000000E+00  0.00000000E+00  0.00000000E+00
  0.00000000E+00  0.00000000E+00  0.00000000E+00
  0.00000000E+00  0.00000000E+00  0.00000000E+00
  0.00000000E+00  0.00000000E+00  0.00000000E+00
  0.00000000E+00  0.00000000E+00  0.00000000E+00
  0.00000000E+00  0.00000000E+00  0.00000000E+00
  0.00000000E+00  0.00000000E+00  0.00000000E+00
  0.00000000E+00  0.00000000E+00  0.00000000E+00
  0.00000000E+00  0.00000000E+00  0.00000000E+00
  0.00000000E+00  0.00000000E+00  0.00000000E+00
  0.00000000E+00  0.00000000E+00  0.00000000E+00
  0.00000000E+00  0.00000000E+00  0.00000000E+00
  0.00000000E+00  0.00000000E+00  0.00000000E+00
  0.00000000E+00  0.00000000E+00  0.00000000E+00
  0.00000000E+00  0.00000000E+00  0.00000000E+00
  0.00000000E+00  0.00000000E+00  0.00000000E+00
  0.00000000E+00  0.00000000E+00  0.00000000E+00
  0.00000000E+00  0.00000000E+00  0.00000000E+00
  0.00000000E+00  0.00000000E+00  0.00000000E+00
  0.00000000E+00  0.00000000E+00  0.00000000E+00
  0.00000000E+00  0.00000000E+00  0.00000000E+00
  0.00000000E+00  0.00000000E+00  0.00000000E+00
  0.00000000E+00  0.00000000E+00  0.00000000E+00
  0.00000000E+00  0.00000000E+00  0.00000000E+00
  0.00000000E+00  0.00000000E+00  0.00000000E+00
  0.00000000E+00  0.00000000E+00  0.00000000E+00
  0.00000000E+00  0.00000000E+00  0.00000000E+00
  0.00000000E+00  0.00000000E+00  0.00000000E+00
  0.00000000E+00  0.00000000E+00  0.00000000E+00
  0.00000000E+00  0.00000000E+00  0.00000000E+00
  0.00000000E+00  0.00000000E+00  0.00000000E+00
  0.00000000E+00  0.00000000E+00  0.00000000E+00
  0.00000000E+00  0.00000000E+00  0.00000000E+00
