Mn1 C123 N3 O1                          
   1.00000000000000     
    19.7874538662435704    0.0078709692840285    0.0070285995066894
    -9.8868089757000153   17.0078522004474806   -0.0567463038677194
     0.0103594861555508   -0.0930267793131784   29.8927970261635352
   Mn   C    N    O 
     1   123     3     1
Direct
  0.4369417398998610  0.5002055098663262  0.4264620054727429
  0.0421338332711150  0.0843732257876113  0.4002677503411407
  0.0413100314461605  0.2084583177603125  0.4003788594526472
  0.0407588401087335  0.3331799745268190  0.3998557331870602
  0.0408966327986944  0.4582634182379432  0.3992939062299318
  0.0415475819889753  0.5836499238750210  0.3991676865158359
  0.0421342350703261  0.7090387669158621  0.3992095582460051
  0.0423576395976136  0.8343237666029687  0.3994025190892938
  0.0423456141204954  0.9595412669599586  0.3997819589078289
  0.1678309036333219  0.0856118089597172  0.4011026209078311
  0.1679553443502042  0.2108848048283170  0.4020380013667807
  0.1656647190055580  0.3339600344804280  0.4016019003975667
  0.1650114001261112  0.4584902435237838  0.3999264776179982
  0.1656525568224979  0.5835365412324633  0.3993874473593901
  0.1665920163782141  0.7087826260666205  0.3993840373587178
  0.1671032787772479  0.8342719012244376  0.3994305723666639
  0.1674592828877460  0.9599558843408195  0.3999694756116554
  0.2926141204461729  0.0858889416756985  0.4009832155351026
  0.2933507943220567  0.2128593513898143  0.4032260665898510
  0.2937437094998294  0.3395654760234973  0.4050119557789476
  0.2888536784534683  0.4583169682331461  0.4025890559142960
  0.2892900560645408  0.5828028845161448  0.4002453764714314
  0.2910110013404033  0.7081143821899590  0.3998452423371956
  0.2917646723313616  0.8337248104478778  0.3996408727421588
  0.2921583541738814  0.9595403323851264  0.3997870419592430
  0.4170297797478297  0.0844170748353689  0.4001379398210613
  0.4176790549318365  0.2110884063422327  0.4015075385840545
  0.4195019974878181  0.3395912006727209  0.4045244472029105
  0.4150069002874731  0.7049244733448194  0.4015392976860046
  0.4162817717266038  0.8318185463633858  0.4003302192235265
  0.4167108820490629  0.9581645184336082  0.3997824321387811
  0.5415174895971274  0.0827626904325719  0.3996720440918922
  0.5419744996223904  0.2086815903822218  0.4000097707163577
  0.5429160238467332  0.3344377350764173  0.4009999714734972
  0.5458320934982430  0.4598293010722192  0.4030678902820327
  0.5381964092227045  0.7011158402248689  0.4042659061310429
  0.5405053070691505  0.8298659081666100  0.4016016765731586
  0.5411541596893310  0.9566434429931138  0.4002680139806438
  0.6661140405436613  0.0821110215287345  0.3997840971535180
  0.6664939548707769  0.2077003989773783  0.3993540148134705
  0.6672086785429246  0.3331815144113695  0.3995121169151546
  0.6689615986269508  0.4587035575695788  0.4003368678501219
  0.6697271685432441  0.5838930207017846  0.4019022536132771
  0.6656097393373555  0.7054425003530611  0.4027374544099451
  0.6645606250818873  0.8300148831877328  0.4019044810160975
  0.6655885077615870  0.9562402368574321  0.4006931822461329
  0.7908465130037236  0.0821225268200931  0.3998072097333158
  0.7911640538613011  0.2075184079057799  0.3993610593138869
  0.7916505707284689  0.3329108198723650  0.3990413049269927
  0.7925751970758427  0.4583197627440483  0.3991320909752904
  0.7933204544093739  0.5837216654074876  0.3998052392407253
  0.7928797802386862  0.7087099446797215  0.4006382654220798
  0.7908333555143745  0.8321256338825253  0.4006910680075301
  0.7904897680539252  0.9567481377948752  0.4002962964661396
  0.9160759572879685  0.0827743365972245  0.3997249360413380
  0.9160036068477898  0.2076982207280571  0.3995224372932534
  0.9161435366185590  0.3329009744186792  0.3991866393584069
  0.9167121763229676  0.4583022702766934  0.3989732251108312
  0.9173743298980375  0.5837013930486183  0.3990214541430874
  0.9175374578239101  0.7089440523101410  0.3993419456639197
  0.9172494130974995  0.8339661742754816  0.3996238604030088
  0.9164880628632002  0.9582748084752523  0.3997553315683369
  0.0842723978885894  0.0432680429788890  0.4003337082293043
  0.0841051330489511  0.1681224325325272  0.4008551192084956
  0.0826718263952574  0.2918614533798278  0.4005785673753837
  0.0821376540449919  0.4165054112987141  0.3996504659429264
  0.0826969932479034  0.5418082240521085  0.3992536334970361
  0.0834366867533704  0.6671820192923539  0.3992546861201325
  0.0838566992759981  0.7925730654464485  0.3993407141753140
  0.0841033659410791  0.9179788427592223  0.3996912638786413
  0.2092588478009769  0.0437562286191708  0.4007097875394385
  0.2098615447223273  0.1696429155583713  0.4022973471662719
  0.2096503081762307  0.2948904723177043  0.4028266955015625
  0.2065411205034597  0.4170749810485863  0.4010752896424551
  0.2064812780338075  0.5414836414778913  0.3996777733806333
  0.2077910129836089  0.6668818137532903  0.3994866320815217
  0.2085302221636562  0.7923489787002969  0.3994630465914430
  0.2088846814902841  0.9179385315484663  0.3996858283722200
  0.3338485825949788  0.0433763556693574  0.4002428564649873
  0.3343475100528200  0.1699440039721604  0.4020294921943164
  0.3355055401441051  0.2975966139654088  0.4049568331667475
  0.3302537270373694  0.5414294814543188  0.4018059450325351
  0.3319074543461475  0.6658744959247476  0.4004227419269489
  0.3331173083335621  0.7914978109145739  0.3999297461593707
  0.3334987154360439  0.9172744627332046  0.3996747371046274
  0.4583058670657950  0.0418614713316032  0.3997872733801505
  0.4587041686456909  0.1682000108361771  0.4004966769371840
  0.4596970833638060  0.2950435123071327  0.4020583228604791
  0.4640187751780216  0.4228444897512803  0.4063926487777256
  0.4540612069913861  0.6596659638461027  0.4036053526693130
  0.4573393224181611  0.7888839782046522  0.4011407851254299
  0.4579756338597223  0.9156161624528687  0.4001008818665702
  0.5828368096978696  0.0404793420336974  0.3998523730171192
  0.5832799086506399  0.1663894164222646  0.3995834908957977
  0.5839356942186279  0.2920316430635556  0.4000949357793361
  0.5861309884756084  0.4176233683874196  0.4010940030854487
  0.5879207503713382  0.5428647326760848  0.4035910518640584
  0.5812958676126718  0.6600963493873488  0.4048237367986319
  0.5807991095690367  0.7864375320297043  0.4026531417639351
  0.5823361336254065  0.9140921596593424  0.4008654363887051
  0.7074930968979527  0.0401037092879199  0.4000777115341073
  0.7079415918008939  0.1657928751661063  0.3994380740593966
  0.7084238544279962  0.2912744958434498  0.3992013338217137
  0.7096558465182424  0.4166281918039632  0.3995602084439370
  0.7106499516389794  0.5418202057707918  0.4006124110651089
  0.7099425890843348  0.6667570451619523  0.4018995691341286
  0.7069657110016374  0.7892963032913508  0.4017624336259536
  0.7068086867912468  0.9141872715132595  0.4009553677027931
  0.8325285176095036  0.0405568722501460  0.3998662526967739
  0.8327100616745881  0.1658114061489247  0.3994996063524248
  0.8329875948638181  0.2910725672813412  0.3991449115690255
  0.8336909663133465  0.4164420124143384  0.3989560015675487
  0.8344430415790970  0.5418846852618344  0.3991778613910154
  0.8345793305362573  0.6671608720453521  0.3998720458887173
  0.8338650976783396  0.7919263470114309  0.4002685489764508
  0.8327523912376966  0.9158241486795754  0.4001583341914114
  0.9584337307260162  0.0419190888608345  0.3998087583050037
  0.9578620767434868  0.1663064324408953  0.3997617702863276
  0.9576784712853997  0.2912781034913248  0.3994652831777727
  0.9579010906732578  0.4164506739965727  0.3991233640520222
  0.9585195541448904  0.5418263433537834  0.3990145777041623
  0.9590334748184284  0.6672338825827293  0.3991346926649991
  0.9590852612975961  0.7925199582373202  0.3993904285498951
  0.9588726076940745  0.9174514908012948  0.3996249740808777
  0.4104257728903666  0.5782763340456505  0.4045387789014868
  0.5441183250378023  0.5790154396564332  0.4066046549758487
  0.3325022311313965  0.4216590570513304  0.4063612078585414
  0.4375841910991943  0.4957166215482877  0.4788384981121883
 
  0.00000000E+00  0.00000000E+00  0.00000000E+00
  0.00000000E+00  0.00000000E+00  0.00000000E+00
  0.00000000E+00  0.00000000E+00  0.00000000E+00
  0.00000000E+00  0.00000000E+00  0.00000000E+00
  0.00000000E+00  0.00000000E+00  0.00000000E+00
  0.00000000E+00  0.00000000E+00  0.00000000E+00
  0.00000000E+00  0.00000000E+00  0.00000000E+00
  0.00000000E+00  0.00000000E+00  0.00000000E+00
  0.00000000E+00  0.00000000E+00  0.00000000E+00
  0.00000000E+00  0.00000000E+00  0.00000000E+00
  0.00000000E+00  0.00000000E+00  0.00000000E+00
  0.00000000E+00  0.00000000E+00  0.00000000E+00
  0.00000000E+00  0.00000000E+00  0.00000000E+00
  0.00000000E+00  0.00000000E+00  0.00000000E+00
  0.00000000E+00  0.00000000E+00  0.00000000E+00
  0.00000000E+00  0.00000000E+00  0.00000000E+00
  0.00000000E+00  0.00000000E+00  0.00000000E+00
  0.00000000E+00  0.00000000E+00  0.00000000E+00
  0.00000000E+00  0.00000000E+00  0.00000000E+00
  0.00000000E+00  0.00000000E+00  0.00000000E+00
  0.00000000E+00  0.00000000E+00  0.00000000E+00
  0.00000000E+00  0.00000000E+00  0.00000000E+00
  0.00000000E+00  0.00000000E+00  0.00000000E+00
  0.00000000E+00  0.00000000E+00  0.00000000E+00
  0.00000000E+00  0.00000000E+00  0.00000000E+00
  0.00000000E+00  0.00000000E+00  0.00000000E+00
  0.00000000E+00  0.00000000E+00  0.00000000E+00
  0.00000000E+00  0.00000000E+00  0.00000000E+00
  0.00000000E+00  0.00000000E+00  0.00000000E+00
  0.00000000E+00  0.00000000E+00  0.00000000E+00
  0.00000000E+00  0.00000000E+00  0.00000000E+00
  0.00000000E+00  0.00000000E+00  0.00000000E+00
  0.00000000E+00  0.00000000E+00  0.00000000E+00
  0.00000000E+00  0.00000000E+00  0.00000000E+00
  0.00000000E+00  0.00000000E+00  0.00000000E+00
  0.00000000E+00  0.00000000E+00  0.00000000E+00
  0.00000000E+00  0.00000000E+00  0.00000000E+00
  0.00000000E+00  0.00000000E+00  0.00000000E+00
  0.00000000E+00  0.00000000E+00  0.00000000E+00
  0.00000000E+00  0.00000000E+00  0.00000000E+00
  0.00000000E+00  0.00000000E+00  0.00000000E+00
  0.00000000E+00  0.00000000E+00  0.00000000E+00
  0.00000000E+00  0.00000000E+00  0.00000000E+00
  0.00000000E+00  0.00000000E+00  0.00000000E+00
  0.00000000E+00  0.00000000E+00  0.00000000E+00
  0.00000000E+00  0.00000000E+00  0.00000000E+00
  0.00000000E+00  0.00000000E+00  0.00000000E+00
  0.00000000E+00  0.00000000E+00  0.00000000E+00
  0.00000000E+00  0.00000000E+00  0.00000000E+00
  0.00000000E+00  0.00000000E+00  0.00000000E+00
  0.00000000E+00  0.00000000E+00  0.00000000E+00
  0.00000000E+00  0.00000000E+00  0.00000000E+00
  0.00000000E+00  0.00000000E+00  0.00000000E+00
  0.00000000E+00  0.00000000E+00  0.00000000E+00
  0.00000000E+00  0.00000000E+00  0.00000000E+00
  0.00000000E+00  0.00000000E+00  0.00000000E+00
  0.00000000E+00  0.00000000E+00  0.00000000E+00
  0.00000000E+00  0.00000000E+00  0.00000000E+00
  0.00000000E+00  0.00000000E+00  0.00000000E+00
  0.00000000E+00  0.00000000E+00  0.00000000E+00
  0.00000000E+00  0.00000000E+00  0.00000000E+00
  0.00000000E+00  0.00000000E+00  0.00000000E+00
  0.00000000E+00  0.00000000E+00  0.00000000E+00
  0.00000000E+00  0.00000000E+00  0.00000000E+00
  0.00000000E+00  0.00000000E+00  0.00000000E+00
  0.00000000E+00  0.00000000E+00  0.00000000E+00
  0.00000000E+00  0.00000000E+00  0.00000000E+00
  0.00000000E+00  0.00000000E+00  0.00000000E+00
  0.00000000E+00  0.00000000E+00  0.00000000E+00
  0.00000000E+00  0.00000000E+00  0.00000000E+00
  0.00000000E+00  0.00000000E+00  0.00000000E+00
  0.00000000E+00  0.00000000E+00  0.00000000E+00
  0.00000000E+00  0.00000000E+00  0.00000000E+00
  0.00000000E+00  0.00000000E+00  0.00000000E+00
  0.00000000E+00  0.00000000E+00  0.00000000E+00
  0.00000000E+00  0.00000000E+00  0.00000000E+00
  0.00000000E+00  0.00000000E+00  0.00000000E+00
  0.00000000E+00  0.00000000E+00  0.00000000E+00
  0.00000000E+00  0.00000000E+00  0.00000000E+00
  0.00000000E+00  0.00000000E+00  0.00000000E+00
  0.00000000E+00  0.00000000E+00  0.00000000E+00
  0.00000000E+00  0.00000000E+00  0.00000000E+00
  0.00000000E+00  0.00000000E+00  0.00000000E+00
  0.00000000E+00  0.00000000E+00  0.00000000E+00
  0.00000000E+00  0.00000000E+00  0.00000000E+00
  0.00000000E+00  0.00000000E+00  0.00000000E+00
  0.00000000E+00  0.00000000E+00  0.00000000E+00
  0.00000000E+00  0.00000000E+00  0.00000000E+00
  0.00000000E+00  0.00000000E+00  0.00000000E+00
  0.00000000E+00  0.00000000E+00  0.00000000E+00
  0.00000000E+00  0.00000000E+00  0.00000000E+00
  0.00000000E+00  0.00000000E+00  0.00000000E+00
  0.00000000E+00  0.00000000E+00  0.00000000E+00
  0.00000000E+00  0.00000000E+00  0.00000000E+00
  0.00000000E+00  0.00000000E+00  0.00000000E+00
  0.00000000E+00  0.00000000E+00  0.00000000E+00
  0.00000000E+00  0.00000000E+00  0.00000000E+00
  0.00000000E+00  0.00000000E+00  0.00000000E+00
  0.00000000E+00  0.00000000E+00  0.00000000E+00
  0.00000000E+00  0.00000000E+00  0.00000000E+00
  0.00000000E+00  0.00000000E+00  0.00000000E+00
  0.00000000E+00  0.00000000E+00  0.00000000E+00
  0.00000000E+00  0.00000000E+00  0.00000000E+00
  0.00000000E+00  0.00000000E+00  0.00000000E+00
  0.00000000E+00  0.00000000E+00  0.00000000E+00
  0.00000000E+00  0.00000000E+00  0.00000000E+00
  0.00000000E+00  0.00000000E+00  0.00000000E+00
  0.00000000E+00  0.00000000E+00  0.00000000E+00
  0.00000000E+00  0.00000000E+00  0.00000000E+00
  0.00000000E+00  0.00000000E+00  0.00000000E+00
  0.00000000E+00  0.00000000E+00  0.00000000E+00
  0.00000000E+00  0.00000000E+00  0.00000000E+00
  0.00000000E+00  0.00000000E+00  0.00000000E+00
  0.00000000E+00  0.00000000E+00  0.00000000E+00
  0.00000000E+00  0.00000000E+00  0.00000000E+00
  0.00000000E+00  0.00000000E+00  0.00000000E+00
  0.00000000E+00  0.00000000E+00  0.00000000E+00
  0.00000000E+00  0.00000000E+00  0.00000000E+00
  0.00000000E+00  0.00000000E+00  0.00000000E+00
  0.00000000E+00  0.00000000E+00  0.00000000E+00
  0.00000000E+00  0.00000000E+00  0.00000000E+00
  0.00000000E+00  0.00000000E+00  0.00000000E+00
  0.00000000E+00  0.00000000E+00  0.00000000E+00
  0.00000000E+00  0.00000000E+00  0.00000000E+00
  0.00000000E+00  0.00000000E+00  0.00000000E+00
  0.00000000E+00  0.00000000E+00  0.00000000E+00
  0.00000000E+00  0.00000000E+00  0.00000000E+00
  0.00000000E+00  0.00000000E+00  0.00000000E+00
