Cd1 H1 C124 N2                          
   1.00000000000000     
    19.7795871557610639   -0.0273547698549706    0.1816715902422156
    -9.9134970675254461   17.0770131070779669   -0.0924140493357114
     0.2731908327896811   -0.0023666290674729   29.8166110325323714
   Cd   H    C    N 
     1     1   124     2
Direct
  0.4303950185899330  0.4908020182341314  0.4576514628264283
  0.4861195980664740  0.5302530777813478  0.5034254635414873
  0.0420694798824690  0.0840952221633753  0.3991505668787695
  0.0418446642073751  0.2086803995337093  0.3983312156559973
  0.0415125804719372  0.3333756113345100  0.3970913068511905
  0.0413431939043672  0.4585025983043967  0.3972799755207612
  0.0413260196710090  0.5836357957265241  0.3984482584966215
  0.0414441024506956  0.7087965550182733  0.3992708236469719
  0.0416675471372334  0.8340148801524302  0.3994961822017932
  0.0419962906121258  0.9592492363395050  0.3995274463199633
  0.1676200485756517  0.0851675415186838  0.4003317910202085
  0.1676664956607128  0.2100200719077071  0.4001600527904035
  0.1668414718589122  0.3344245065448642  0.3990000279757779
  0.1659879105969461  0.4588501069664172  0.3961152586820265
  0.1658916789370142  0.5838602544154691  0.3973074660689841
  0.1660760173880404  0.7090176411447836  0.3988729236764549
  0.1664595949484552  0.8341773676291026  0.3995994724437965
  0.1669290737991527  0.9595279087861901  0.3998454092744312
  0.2922519221828282  0.0849031130778455  0.4002522795750363
  0.2937811706248618  0.2119166019308365  0.4025008592872125
  0.2925284468834121  0.3371469235140449  0.4083076549867925
  0.2903157006743404  0.4594089598938386  0.4052919662056479
  0.2902461289378769  0.5846786896654702  0.3991345619594900
  0.2905561212697500  0.7092809320207022  0.3987785931044421
  0.2912169583420161  0.8341291430355621  0.3995057235960344
  0.2916175561027749  0.9592492874579958  0.3997883790507565
  0.4168252359370254  0.0834987279628004  0.3998968753449397
  0.4173967746820574  0.2086212003804449  0.4006880808399089
  0.4207373871064042  0.3361685243190646  0.4025903864570496
  0.4147813369891564  0.7082874666469308  0.4011467072595751
  0.4159262876056138  0.8334162368143632  0.3998999527689354
  0.4163694305223990  0.9584272485253960  0.3998640603741622
  0.5415800769182604  0.0826374181324042  0.3996992432942820
  0.5421089442394101  0.2075600639161865  0.3995308387012685
  0.5429129866232566  0.3322063415523721  0.3995446733937176
  0.5415032245353316  0.4541310248797561  0.3989850976972164
  0.5460052900312614  0.5826569012004729  0.4014100555968694
  0.5382973260733548  0.7051198047312647  0.4025073739754251
  0.5403753262857900  0.8319956563121302  0.4009440553987653
  0.5411669590039070  0.9575132707371476  0.4000664917470828
  0.6663553851498751  0.0824052886075105  0.3999083018597654
  0.6668557829104205  0.2075597143114843  0.3994803813660351
  0.6673805719202157  0.3325557412339483  0.3990335439740919
  0.6679739653895806  0.4575573107703957  0.3986494940431527
  0.6670353213441091  0.5820371283612724  0.3984585539312715
  0.6656004753460929  0.7067587670696829  0.4003490811642293
  0.6649753850587754  0.8313192124684380  0.4007902642990449
  0.6658650226739214  0.9571280606500920  0.4003649295672225
  0.7912746074678556  0.0824978239996702  0.3998397478033366
  0.7915906606568436  0.2076306612075383  0.3994471602979698
  0.7920262418792685  0.3328515314199288  0.3992363085302734
  0.7923210761581955  0.4580461893903304  0.3989814882027846
  0.7920478394588411  0.5830573358163635  0.3988217902888601
  0.7913871261158232  0.7078176777307658  0.3992708403810345
  0.7909409473324234  0.8325465312054412  0.3998808776830766
  0.7907889348343644  0.9572570593153636  0.4000114959037161
  0.9164749424734209  0.0830489452241961  0.3991851689549223
  0.9165311491500805  0.2079685686411537  0.3986619306067675
  0.9166535741678694  0.3330491958480535  0.3983799638834585
  0.9167696851542475  0.4582150980304807  0.3987834315404900
  0.9167996461371838  0.5834453841721888  0.3990834982509557
  0.9166478483655941  0.7085672043627911  0.3991730108830662
  0.9165149582246354  0.8334678675254783  0.3994349055690729
  0.9164755337619019  0.9582978541665809  0.3994737424678957
  0.0839930382471390  0.0428670892169152  0.3996253326538139
  0.0839451356412142  0.1676267522369518  0.3988487613576154
  0.0835037994217840  0.2922362231906813  0.3977677710982890
  0.0829319669316170  0.4169366505323246  0.3964312670959926
  0.0827438435990397  0.5419459584715977  0.3975210790200400
  0.0828746562402621  0.6671323963095415  0.3989026336739935
  0.0831591018955961  0.7923675907308878  0.3994973229877261
  0.0834797781143909  0.9175653324623791  0.3996515504653919
  0.2088109839891713  0.0430677182202738  0.4002081290238020
  0.2097030766285868  0.1689886120864962  0.4012895159426377
  0.2093090464310301  0.2937057713058636  0.4016344376380617
  0.2079315155163706  0.4178967657247111  0.3980655275178797
  0.2072684383820645  0.5423371114514675  0.3970290223463538
  0.2075241272173749  0.6673882534780738  0.3982503551137209
  0.2078930069430511  0.7924324640987964  0.3993830806370965
  0.2083157596665793  0.9176458909229501  0.3997557666927303
  0.3334886036691700  0.0426682711843085  0.3999244100443600
  0.3342648208041479  0.1684758066126704  0.4009770688745053
  0.3356894593599212  0.2957912955483471  0.4054951413031567
  0.3284131665298881  0.4189249404083094  0.4175539776691267
  0.3331096150326768  0.5449682609971956  0.4034729225619444
  0.3318432385008208  0.6676087368378941  0.3995208425425784
  0.3326312039911923  0.7924185816141163  0.3993833479847780
  0.3330940332501569  0.9174084135669597  0.3997623399110528
  0.4582998045859069  0.0416339628668464  0.3998125160850628
  0.4587501904992026  0.1666315400228160  0.3999944359474886
  0.4598027163382372  0.2917248926737616  0.4007392100870469
  0.4536994987459024  0.6639817280996845  0.4033430013638774
  0.4572596185727796  0.7914758026950213  0.4006000599358527
  0.4578054519425240  0.9165705094732371  0.3999589499205232
  0.5830695070318982  0.0408711667822463  0.3998591320721685
  0.5835346963486907  0.1658944926055699  0.3995052903590900
  0.5843048007771241  0.2906188564588894  0.3992253134122450
  0.5850432083816887  0.4150563313851823  0.3990800282737033
  0.5831217683176730  0.5393480649410916  0.3985531192160034
  0.5810870534750389  0.6637378870834804  0.4016324273516615
  0.5807969759147518  0.7887429960773175  0.4014653446233412
  0.5824614235854203  0.9154704578122770  0.4004284400685741
  0.7077920708854800  0.0405939522780449  0.4001025690931717
  0.7083063358348336  0.1658555350127394  0.3996734789150120
  0.7088125305510906  0.2909672297645516  0.3992961775794278
  0.7092789599002340  0.4161179739511478  0.3988179074270282
  0.7090621721689130  0.5410449895714095  0.3984801261882060
  0.7076538615520872  0.6655069959098040  0.3993081749840460
  0.7072026323390876  0.7903247304600376  0.4003830196176573
  0.7071158820371652  0.9150326323999460  0.4004114705812278
  0.8328213237451986  0.0408657509803421  0.3997204161762711
  0.8331521951262661  0.1660441459060853  0.3993866640641205
  0.8334262445640861  0.2911797687292900  0.3991067752663173
  0.8336776319195816  0.4163419552837901  0.3990856304777641
  0.8336566456207661  0.5414913933559234  0.3990029708152964
  0.8333423650660172  0.6666622293471929  0.3990177952884431
  0.8329609137467555  0.7913215599961086  0.3995495598401567
  0.8327660952858131  0.9160499290614439  0.3998014100325145
  0.9583939755363482  0.0418298271661386  0.3991965632966877
  0.9583332388165471  0.1665790632264835  0.3986549222478027
  0.9582489406592822  0.2914531302801756  0.3979282416824441
  0.9581959154861414  0.4165745023950595  0.3981896272724544
  0.9582204168542281  0.5417776664901127  0.3988209634849694
  0.9582293518705811  0.6669351868152720  0.3991792563828772
  0.9582664802707463  0.7920473858005340  0.3993467581224591
  0.9583503107284237  0.9170417572857065  0.3994461275781004
  0.4118621817072932  0.5846512787391824  0.4056572728170549
  0.4631901377458292  0.4153963718687547  0.4006923219560366
 
  0.00000000E+00  0.00000000E+00  0.00000000E+00
  0.00000000E+00  0.00000000E+00  0.00000000E+00
  0.00000000E+00  0.00000000E+00  0.00000000E+00
  0.00000000E+00  0.00000000E+00  0.00000000E+00
  0.00000000E+00  0.00000000E+00  0.00000000E+00
  0.00000000E+00  0.00000000E+00  0.00000000E+00
  0.00000000E+00  0.00000000E+00  0.00000000E+00
  0.00000000E+00  0.00000000E+00  0.00000000E+00
  0.00000000E+00  0.00000000E+00  0.00000000E+00
  0.00000000E+00  0.00000000E+00  0.00000000E+00
  0.00000000E+00  0.00000000E+00  0.00000000E+00
  0.00000000E+00  0.00000000E+00  0.00000000E+00
  0.00000000E+00  0.00000000E+00  0.00000000E+00
  0.00000000E+00  0.00000000E+00  0.00000000E+00
  0.00000000E+00  0.00000000E+00  0.00000000E+00
  0.00000000E+00  0.00000000E+00  0.00000000E+00
  0.00000000E+00  0.00000000E+00  0.00000000E+00
  0.00000000E+00  0.00000000E+00  0.00000000E+00
  0.00000000E+00  0.00000000E+00  0.00000000E+00
  0.00000000E+00  0.00000000E+00  0.00000000E+00
  0.00000000E+00  0.00000000E+00  0.00000000E+00
  0.00000000E+00  0.00000000E+00  0.00000000E+00
  0.00000000E+00  0.00000000E+00  0.00000000E+00
  0.00000000E+00  0.00000000E+00  0.00000000E+00
  0.00000000E+00  0.00000000E+00  0.00000000E+00
  0.00000000E+00  0.00000000E+00  0.00000000E+00
  0.00000000E+00  0.00000000E+00  0.00000000E+00
  0.00000000E+00  0.00000000E+00  0.00000000E+00
  0.00000000E+00  0.00000000E+00  0.00000000E+00
  0.00000000E+00  0.00000000E+00  0.00000000E+00
  0.00000000E+00  0.00000000E+00  0.00000000E+00
  0.00000000E+00  0.00000000E+00  0.00000000E+00
  0.00000000E+00  0.00000000E+00  0.00000000E+00
  0.00000000E+00  0.00000000E+00  0.00000000E+00
  0.00000000E+00  0.00000000E+00  0.00000000E+00
  0.00000000E+00  0.00000000E+00  0.00000000E+00
  0.00000000E+00  0.00000000E+00  0.00000000E+00
  0.00000000E+00  0.00000000E+00  0.00000000E+00
  0.00000000E+00  0.00000000E+00  0.00000000E+00
  0.00000000E+00  0.00000000E+00  0.00000000E+00
  0.00000000E+00  0.00000000E+00  0.00000000E+00
  0.00000000E+00  0.00000000E+00  0.00000000E+00
  0.00000000E+00  0.00000000E+00  0.00000000E+00
  0.00000000E+00  0.00000000E+00  0.00000000E+00
  0.00000000E+00  0.00000000E+00  0.00000000E+00
  0.00000000E+00  0.00000000E+00  0.00000000E+00
  0.00000000E+00  0.00000000E+00  0.00000000E+00
  0.00000000E+00  0.00000000E+00  0.00000000E+00
  0.00000000E+00  0.00000000E+00  0.00000000E+00
  0.00000000E+00  0.00000000E+00  0.00000000E+00
  0.00000000E+00  0.00000000E+00  0.00000000E+00
  0.00000000E+00  0.00000000E+00  0.00000000E+00
  0.00000000E+00  0.00000000E+00  0.00000000E+00
  0.00000000E+00  0.00000000E+00  0.00000000E+00
  0.00000000E+00  0.00000000E+00  0.00000000E+00
  0.00000000E+00  0.00000000E+00  0.00000000E+00
  0.00000000E+00  0.00000000E+00  0.00000000E+00
  0.00000000E+00  0.00000000E+00  0.00000000E+00
  0.00000000E+00  0.00000000E+00  0.00000000E+00
  0.00000000E+00  0.00000000E+00  0.00000000E+00
  0.00000000E+00  0.00000000E+00  0.00000000E+00
  0.00000000E+00  0.00000000E+00  0.00000000E+00
  0.00000000E+00  0.00000000E+00  0.00000000E+00
  0.00000000E+00  0.00000000E+00  0.00000000E+00
  0.00000000E+00  0.00000000E+00  0.00000000E+00
  0.00000000E+00  0.00000000E+00  0.00000000E+00
  0.00000000E+00  0.00000000E+00  0.00000000E+00
  0.00000000E+00  0.00000000E+00  0.00000000E+00
  0.00000000E+00  0.00000000E+00  0.00000000E+00
  0.00000000E+00  0.00000000E+00  0.00000000E+00
  0.00000000E+00  0.00000000E+00  0.00000000E+00
  0.00000000E+00  0.00000000E+00  0.00000000E+00
  0.00000000E+00  0.00000000E+00  0.00000000E+00
  0.00000000E+00  0.00000000E+00  0.00000000E+00
  0.00000000E+00  0.00000000E+00  0.00000000E+00
  0.00000000E+00  0.00000000E+00  0.00000000E+00
  0.00000000E+00  0.00000000E+00  0.00000000E+00
  0.00000000E+00  0.00000000E+00  0.00000000E+00
  0.00000000E+00  0.00000000E+00  0.00000000E+00
  0.00000000E+00  0.00000000E+00  0.00000000E+00
  0.00000000E+00  0.00000000E+00  0.00000000E+00
  0.00000000E+00  0.00000000E+00  0.00000000E+00
  0.00000000E+00  0.00000000E+00  0.00000000E+00
  0.00000000E+00  0.00000000E+00  0.00000000E+00
  0.00000000E+00  0.00000000E+00  0.00000000E+00
  0.00000000E+00  0.00000000E+00  0.00000000E+00
  0.00000000E+00  0.00000000E+00  0.00000000E+00
  0.00000000E+00  0.00000000E+00  0.00000000E+00
  0.00000000E+00  0.00000000E+00  0.00000000E+00
  0.00000000E+00  0.00000000E+00  0.00000000E+00
  0.00000000E+00  0.00000000E+00  0.00000000E+00
  0.00000000E+00  0.00000000E+00  0.00000000E+00
  0.00000000E+00  0.00000000E+00  0.00000000E+00
  0.00000000E+00  0.00000000E+00  0.00000000E+00
  0.00000000E+00  0.00000000E+00  0.00000000E+00
  0.00000000E+00  0.00000000E+00  0.00000000E+00
  0.00000000E+00  0.00000000E+00  0.00000000E+00
  0.00000000E+00  0.00000000E+00  0.00000000E+00
  0.00000000E+00  0.00000000E+00  0.00000000E+00
  0.00000000E+00  0.00000000E+00  0.00000000E+00
  0.00000000E+00  0.00000000E+00  0.00000000E+00
  0.00000000E+00  0.00000000E+00  0.00000000E+00
  0.00000000E+00  0.00000000E+00  0.00000000E+00
  0.00000000E+00  0.00000000E+00  0.00000000E+00
  0.00000000E+00  0.00000000E+00  0.00000000E+00
  0.00000000E+00  0.00000000E+00  0.00000000E+00
  0.00000000E+00  0.00000000E+00  0.00000000E+00
  0.00000000E+00  0.00000000E+00  0.00000000E+00
  0.00000000E+00  0.00000000E+00  0.00000000E+00
  0.00000000E+00  0.00000000E+00  0.00000000E+00
  0.00000000E+00  0.00000000E+00  0.00000000E+00
  0.00000000E+00  0.00000000E+00  0.00000000E+00
  0.00000000E+00  0.00000000E+00  0.00000000E+00
  0.00000000E+00  0.00000000E+00  0.00000000E+00
  0.00000000E+00  0.00000000E+00  0.00000000E+00
  0.00000000E+00  0.00000000E+00  0.00000000E+00
  0.00000000E+00  0.00000000E+00  0.00000000E+00
  0.00000000E+00  0.00000000E+00  0.00000000E+00
  0.00000000E+00  0.00000000E+00  0.00000000E+00
  0.00000000E+00  0.00000000E+00  0.00000000E+00
  0.00000000E+00  0.00000000E+00  0.00000000E+00
  0.00000000E+00  0.00000000E+00  0.00000000E+00
  0.00000000E+00  0.00000000E+00  0.00000000E+00
  0.00000000E+00  0.00000000E+00  0.00000000E+00
  0.00000000E+00  0.00000000E+00  0.00000000E+00
  0.00000000E+00  0.00000000E+00  0.00000000E+00
  0.00000000E+00  0.00000000E+00  0.00000000E+00
  0.00000000E+00  0.00000000E+00  0.00000000E+00
