Rh1 C122 N4 O1                          
   1.00000000000000     
    19.8344181067967114   -0.0000451378219735    0.0046941755733291
    -9.9172476778129397   17.0194165309462306   -0.0089366646935910
     0.0070385438870767   -0.0115411813464371   29.8083992956009496
   Rh   C    N    O 
     1   122     4     1
Direct
  0.4374860307120848  0.5000274409133528  0.4138455473351246
  0.0421149770431263  0.0843065367189124  0.3999206241145958
  0.0408047660760030  0.2081204750311677  0.4000713556891720
  0.0398163666343731  0.3327796310773861  0.3998197831900274
  0.0399381280989977  0.4581760675682401  0.3992374718333456
  0.0411348491992903  0.5838861628032851  0.3989831853270115
  0.0422595063649606  0.7095056412166794  0.3992118403942266
  0.0426527751491550  0.8348034553142224  0.3994284176398538
  0.0427509489051990  0.9599662099071787  0.3995848777643043
  0.1684395380944390  0.0863133292417270  0.4007556934007874
  0.1675528181242792  0.2106491003724295  0.4016219406346510
  0.1644901169089202  0.3336155605875207  0.4018056730115201
  0.1631247742295245  0.4584405449302965  0.4010476943932960
  0.1644828076917154  0.5837991861996025  0.3998893836371502
  0.1662374499950444  0.7092401458901411  0.3993575822137116
  0.1671735874080293  0.8348065868601757  0.3994335630949292
  0.1677746747334335  0.9604814053017926  0.3998308093154995
  0.2929227028426311  0.0863059088776187  0.4007513253927799
  0.2945115368292410  0.2139955064335157  0.4029269450953143
  0.2923070762976471  0.3391682814167083  0.4046396936551450
  0.2856868293643146  0.4581704734853463  0.4044900305037994
  0.2873119638536464  0.5831928991215649  0.4023662120850224
  0.2902460929279219  0.7085466363731954  0.4004641697122629
  0.2915747306763288  0.8341293213153306  0.3995161397138728
  0.2922892937029304  0.9599583694443404  0.3995982255563703
  0.4172477428842675  0.0843018974470407  0.3999534289190587
  0.4181147024298838  0.2106540382116110  0.4016548782198744
  0.4218483559283185  0.3391757336630213  0.4046558435333883
  0.4141846154118467  0.7057324799929945  0.4025077265061259
  0.4158977345097435  0.8321131829109765  0.4004802611091908
  0.4166566653385947  0.9582299642160529  0.3995211894877641
  0.5415731555078795  0.0823606742114469  0.3994554542228134
  0.5423300560241682  0.2081193582324879  0.4001000480734122
  0.5441080347406820  0.3336123086914082  0.4017971318213368
  0.5474334848880231  0.4581618796922196  0.4044708942512089
  0.5378887763086926  0.7007808554752218  0.4046142367160415
  0.5401792623041005  0.8296097852772080  0.4018313822641409
  0.5409844717614821  0.9562793769046142  0.4000424915562803
  0.6659851768275260  0.0815380625287410  0.3996008128065402
  0.6666546504576147  0.2071679969606218  0.3993851292688604
  0.6679397691314527  0.3327870143548119  0.3997957812799151
  0.6702723494863528  0.4584496223268164  0.4009905895401440
  0.6708527397839994  0.5832171002980747  0.4023243963616337
  0.6665395420197219  0.7057344603925424  0.4025242409776865
  0.6644747333851991  0.8296175658614330  0.4018310357453657
  0.6654034018862219  0.9557460051243866  0.4004610138921011
  0.7906176473824945  0.0815311855264123  0.3996051453392183
  0.7909931281541374  0.2069607105435857  0.3993951671405276
  0.7918139328728367  0.3325188150181998  0.3991313958245195
  0.7931912235147428  0.4581819814536235  0.3992123342424842
  0.7942637343025388  0.5838053586134893  0.3998468354457825
  0.7932924206542565  0.7085684715637268  0.4004510915433453
  0.7912456737544350  0.8321133812384180  0.4005173075823295
  0.7903469069004895  0.9562862217943866  0.4000423001021275
  0.9158555380560797  0.0823588402351082  0.3994422180996479
  0.9155241862121045  0.2071532341624838  0.3993837112215510
  0.9157115096923848  0.3325204892231192  0.3991402230037704
  0.9165904362648974  0.4582112129914228  0.3988443648398176
  0.9177110128152616  0.5838902927787869  0.3989625967307023
  0.9179944829971022  0.7092350043241137  0.3993404679244563
  0.9175960030276930  0.8341351722765117  0.3995215385286759
  0.9166489962989474  0.9582282448546418  0.3995285262367314
  0.0847167288790283  0.0437391264530640  0.4000300662507252
  0.0837930595282251  0.1679010569476426  0.4004841577925731
  0.0817107997146287  0.2914676380814728  0.4004768336765320
  0.0806987104368255  0.4162147885905076  0.3998944411791364
  0.0817716576495191  0.5418382047333645  0.3992372356870365
  0.0831970987189164  0.6674971635568435  0.3991450273369337
  0.0840427405042111  0.7930583978226932  0.3994027560127423
  0.0844599181345672  0.9184808937074911  0.3995958505831187
  0.2096690177950971  0.0442742183365715  0.4004599441610672
  0.2105810343533137  0.1704149747065777  0.4018573984354791
  0.2084618876016081  0.2942894138493337  0.4025444326947563
  0.2041304773490193  0.4168291664554570  0.4023884117187425
  0.2046983489165406  0.5415755088782335  0.4010395991833613
  0.2070447349451470  0.6672272717050801  0.3998183440311598
  0.2083778126794973  0.7928546712781730  0.3993899000660232
  0.2090963076120853  0.9184849928428869  0.3996042076941602
  0.3340721728831400  0.0437292094274157  0.4000447996575593
  0.3348644720980893  0.1704026994379754  0.4018634383195335
  0.3371241515382088  0.2992522056642078  0.4046640225865702
  0.3275353793192242  0.5418592904844347  0.4044768289660752
  0.3308862303310424  0.6664041444001683  0.4017744956123845
  0.3326951764946223  0.7918930448076824  0.4000729102709040
  0.3335090107720209  0.9176543179125427  0.3994496504613433
  0.4584293551998764  0.0417857344585767  0.3995304897099055
  0.4591423415834958  0.1679066307306025  0.4005310019852122
  0.4608201566064621  0.2942895605962719  0.4025670931508837
  0.4531566876349452  0.6608594438632354  0.4045991626157010
  0.4569146128730590  0.7893710952252110  0.4015956343556377
  0.4578160389725732  0.9157081101125124  0.3999290178830691
  0.5827873025879320  0.0400468763503776  0.3995956525867512
  0.5834678662940204  0.1658853539131037  0.3995204592418292
  0.5847385610416064  0.2914564388549800  0.4004674180031970
  0.5876563430342499  0.4168124345663882  0.4023445110903376
  0.5892888437639715  0.5418687881308476  0.4044585516490167
  0.5826921804029416  0.6608583512535452  0.4046143001756277
  0.5805282070852819  0.7860296751709646  0.4028844845808355
  0.5821323288929933  0.9137064175196467  0.4007554524259269
  0.7073008861397134  0.0395351824637575  0.3998381950572982
  0.7078575270048504  0.1652168748874408  0.3994251569815137
  0.7087673654101914  0.2907857425659968  0.3993405763722954
  0.7104716331896634  0.4162189341101672  0.3998568085963156
  0.7118406341053335  0.5415764596139646  0.4009822990107875
  0.7105124225102126  0.6664130338669793  0.4017663948181138
  0.7074737524917765  0.7893677184221702  0.4016202086139984
  0.7066212294009875  0.9137111810719128  0.4007385333006659
  0.8323390344763774  0.0400551297803115  0.3995973209931430
  0.8323770683044895  0.1652114513454821  0.3994299197755650
  0.8327613807138626  0.2905163210394212  0.3992072418392449
  0.8338268528338918  0.4161298986679637  0.3989614745715608
  0.8350165901894204  0.5418370102675633  0.3992099295562426
  0.8351597602181478  0.6672258401465735  0.3997859668210982
  0.8342180717694094  0.7918954671959323  0.4000937415373652
  0.8329542306336017  0.9157118337602490  0.3999510840990273
  0.9584330103561780  0.0417833186281937  0.3995145041495977
  0.9574542172583421  0.1658809502391983  0.3995081747942209
  0.9570049520148473  0.2907702857360162  0.3993532731242161
  0.9572616702223155  0.4161345039068060  0.3989799415682984
  0.9583844334464661  0.5418057635802666  0.3988474447788442
  0.9592978433320889  0.6674945071990159  0.3991335616765117
  0.9594901803407260  0.7928402500658984  0.3993875201499676
  0.9592249175343579  0.9176580653900802  0.3994537954777451
  0.4076474886156676  0.5804719534645693  0.4059299969706156
  0.5477931162955034  0.5804764893075223  0.4059345838932832
  0.3271896070373634  0.4195624022790961  0.4059556247042174
  0.4673345466551315  0.4195596505434688  0.4059559464168723
  0.4374952274916766  0.5001126138543792  0.4755384234572172
 
  0.00000000E+00  0.00000000E+00  0.00000000E+00
  0.00000000E+00  0.00000000E+00  0.00000000E+00
  0.00000000E+00  0.00000000E+00  0.00000000E+00
  0.00000000E+00  0.00000000E+00  0.00000000E+00
  0.00000000E+00  0.00000000E+00  0.00000000E+00
  0.00000000E+00  0.00000000E+00  0.00000000E+00
  0.00000000E+00  0.00000000E+00  0.00000000E+00
  0.00000000E+00  0.00000000E+00  0.00000000E+00
  0.00000000E+00  0.00000000E+00  0.00000000E+00
  0.00000000E+00  0.00000000E+00  0.00000000E+00
  0.00000000E+00  0.00000000E+00  0.00000000E+00
  0.00000000E+00  0.00000000E+00  0.00000000E+00
  0.00000000E+00  0.00000000E+00  0.00000000E+00
  0.00000000E+00  0.00000000E+00  0.00000000E+00
  0.00000000E+00  0.00000000E+00  0.00000000E+00
  0.00000000E+00  0.00000000E+00  0.00000000E+00
  0.00000000E+00  0.00000000E+00  0.00000000E+00
  0.00000000E+00  0.00000000E+00  0.00000000E+00
  0.00000000E+00  0.00000000E+00  0.00000000E+00
  0.00000000E+00  0.00000000E+00  0.00000000E+00
  0.00000000E+00  0.00000000E+00  0.00000000E+00
  0.00000000E+00  0.00000000E+00  0.00000000E+00
  0.00000000E+00  0.00000000E+00  0.00000000E+00
  0.00000000E+00  0.00000000E+00  0.00000000E+00
  0.00000000E+00  0.00000000E+00  0.00000000E+00
  0.00000000E+00  0.00000000E+00  0.00000000E+00
  0.00000000E+00  0.00000000E+00  0.00000000E+00
  0.00000000E+00  0.00000000E+00  0.00000000E+00
  0.00000000E+00  0.00000000E+00  0.00000000E+00
  0.00000000E+00  0.00000000E+00  0.00000000E+00
  0.00000000E+00  0.00000000E+00  0.00000000E+00
  0.00000000E+00  0.00000000E+00  0.00000000E+00
  0.00000000E+00  0.00000000E+00  0.00000000E+00
  0.00000000E+00  0.00000000E+00  0.00000000E+00
  0.00000000E+00  0.00000000E+00  0.00000000E+00
  0.00000000E+00  0.00000000E+00  0.00000000E+00
  0.00000000E+00  0.00000000E+00  0.00000000E+00
  0.00000000E+00  0.00000000E+00  0.00000000E+00
  0.00000000E+00  0.00000000E+00  0.00000000E+00
  0.00000000E+00  0.00000000E+00  0.00000000E+00
  0.00000000E+00  0.00000000E+00  0.00000000E+00
  0.00000000E+00  0.00000000E+00  0.00000000E+00
  0.00000000E+00  0.00000000E+00  0.00000000E+00
  0.00000000E+00  0.00000000E+00  0.00000000E+00
  0.00000000E+00  0.00000000E+00  0.00000000E+00
  0.00000000E+00  0.00000000E+00  0.00000000E+00
  0.00000000E+00  0.00000000E+00  0.00000000E+00
  0.00000000E+00  0.00000000E+00  0.00000000E+00
  0.00000000E+00  0.00000000E+00  0.00000000E+00
  0.00000000E+00  0.00000000E+00  0.00000000E+00
  0.00000000E+00  0.00000000E+00  0.00000000E+00
  0.00000000E+00  0.00000000E+00  0.00000000E+00
  0.00000000E+00  0.00000000E+00  0.00000000E+00
  0.00000000E+00  0.00000000E+00  0.00000000E+00
  0.00000000E+00  0.00000000E+00  0.00000000E+00
  0.00000000E+00  0.00000000E+00  0.00000000E+00
  0.00000000E+00  0.00000000E+00  0.00000000E+00
  0.00000000E+00  0.00000000E+00  0.00000000E+00
  0.00000000E+00  0.00000000E+00  0.00000000E+00
  0.00000000E+00  0.00000000E+00  0.00000000E+00
  0.00000000E+00  0.00000000E+00  0.00000000E+00
  0.00000000E+00  0.00000000E+00  0.00000000E+00
  0.00000000E+00  0.00000000E+00  0.00000000E+00
  0.00000000E+00  0.00000000E+00  0.00000000E+00
  0.00000000E+00  0.00000000E+00  0.00000000E+00
  0.00000000E+00  0.00000000E+00  0.00000000E+00
  0.00000000E+00  0.00000000E+00  0.00000000E+00
  0.00000000E+00  0.00000000E+00  0.00000000E+00
  0.00000000E+00  0.00000000E+00  0.00000000E+00
  0.00000000E+00  0.00000000E+00  0.00000000E+00
  0.00000000E+00  0.00000000E+00  0.00000000E+00
  0.00000000E+00  0.00000000E+00  0.00000000E+00
  0.00000000E+00  0.00000000E+00  0.00000000E+00
  0.00000000E+00  0.00000000E+00  0.00000000E+00
  0.00000000E+00  0.00000000E+00  0.00000000E+00
  0.00000000E+00  0.00000000E+00  0.00000000E+00
  0.00000000E+00  0.00000000E+00  0.00000000E+00
  0.00000000E+00  0.00000000E+00  0.00000000E+00
  0.00000000E+00  0.00000000E+00  0.00000000E+00
  0.00000000E+00  0.00000000E+00  0.00000000E+00
  0.00000000E+00  0.00000000E+00  0.00000000E+00
  0.00000000E+00  0.00000000E+00  0.00000000E+00
  0.00000000E+00  0.00000000E+00  0.00000000E+00
  0.00000000E+00  0.00000000E+00  0.00000000E+00
  0.00000000E+00  0.00000000E+00  0.00000000E+00
  0.00000000E+00  0.00000000E+00  0.00000000E+00
  0.00000000E+00  0.00000000E+00  0.00000000E+00
  0.00000000E+00  0.00000000E+00  0.00000000E+00
  0.00000000E+00  0.00000000E+00  0.00000000E+00
  0.00000000E+00  0.00000000E+00  0.00000000E+00
  0.00000000E+00  0.00000000E+00  0.00000000E+00
  0.00000000E+00  0.00000000E+00  0.00000000E+00
  0.00000000E+00  0.00000000E+00  0.00000000E+00
  0.00000000E+00  0.00000000E+00  0.00000000E+00
  0.00000000E+00  0.00000000E+00  0.00000000E+00
  0.00000000E+00  0.00000000E+00  0.00000000E+00
  0.00000000E+00  0.00000000E+00  0.00000000E+00
  0.00000000E+00  0.00000000E+00  0.00000000E+00
  0.00000000E+00  0.00000000E+00  0.00000000E+00
  0.00000000E+00  0.00000000E+00  0.00000000E+00
  0.00000000E+00  0.00000000E+00  0.00000000E+00
  0.00000000E+00  0.00000000E+00  0.00000000E+00
  0.00000000E+00  0.00000000E+00  0.00000000E+00
  0.00000000E+00  0.00000000E+00  0.00000000E+00
  0.00000000E+00  0.00000000E+00  0.00000000E+00
  0.00000000E+00  0.00000000E+00  0.00000000E+00
  0.00000000E+00  0.00000000E+00  0.00000000E+00
  0.00000000E+00  0.00000000E+00  0.00000000E+00
  0.00000000E+00  0.00000000E+00  0.00000000E+00
  0.00000000E+00  0.00000000E+00  0.00000000E+00
  0.00000000E+00  0.00000000E+00  0.00000000E+00
  0.00000000E+00  0.00000000E+00  0.00000000E+00
  0.00000000E+00  0.00000000E+00  0.00000000E+00
  0.00000000E+00  0.00000000E+00  0.00000000E+00
  0.00000000E+00  0.00000000E+00  0.00000000E+00
  0.00000000E+00  0.00000000E+00  0.00000000E+00
  0.00000000E+00  0.00000000E+00  0.00000000E+00
  0.00000000E+00  0.00000000E+00  0.00000000E+00
  0.00000000E+00  0.00000000E+00  0.00000000E+00
  0.00000000E+00  0.00000000E+00  0.00000000E+00
  0.00000000E+00  0.00000000E+00  0.00000000E+00
  0.00000000E+00  0.00000000E+00  0.00000000E+00
  0.00000000E+00  0.00000000E+00  0.00000000E+00
  0.00000000E+00  0.00000000E+00  0.00000000E+00
  0.00000000E+00  0.00000000E+00  0.00000000E+00
  0.00000000E+00  0.00000000E+00  0.00000000E+00
  0.00000000E+00  0.00000000E+00  0.00000000E+00
  0.00000000E+00  0.00000000E+00  0.00000000E+00
