Ti1 H1 C123 N3                          
   1.00000000000000     
    19.7933756057668830    0.0100303617084108   -0.0320076462706045
    -9.8879887593618747   17.0352881399244502   -0.1006488833238616
    -0.0480685741251776   -0.2040848722423630   29.8350284247103481
   Ti   H    C    N 
     1     1   123     3
Direct
  0.4381327129389158  0.5007707580439966  0.4285469518907652
  0.4396048603859752  0.4963419867285430  0.4868519193005123
  0.0419394432662241  0.0840918960119706  0.3996604478123105
  0.0412626556215929  0.2083925570801607  0.3998411597513428
  0.0407005196890615  0.3332096785630931  0.3999660869983578
  0.0408459243891898  0.4583381201117931  0.3997048296850063
  0.0415805243981625  0.5837807004575192  0.3997222149070836
  0.0422159237769109  0.7091557233951465  0.3997439662970749
  0.0423707338124589  0.8343037641244049  0.3996608085172432
  0.0423214736054028  0.9594186928057205  0.3996003157838998
  0.1675873663532500  0.0851312636422633  0.3999346701740331
  0.1673353338990474  0.2100303132483896  0.4002847491709337
  0.1655202114441693  0.3337847822487954  0.4008906333982961
  0.1649680295048927  0.4585401615495567  0.4001972950709025
  0.1656422713272024  0.5836781968546991  0.3996758102952963
  0.1666296102873755  0.7089248169735325  0.3998248320655378
  0.1671483231451135  0.8343105044074846  0.3998932526390882
  0.1673836222901461  0.9597668113564586  0.3997635573827540
  0.2924467221530880  0.0854464669817257  0.3999350495108290
  0.2928780804987068  0.2119419120571195  0.4009475958745694
  0.2923311086713090  0.3374928592917166  0.4027863999590012
  0.2888323559999421  0.4580709534078891  0.4023916647956904
  0.2893375693945322  0.5828819007741294  0.4002662502501729
  0.2910116334647165  0.7082328363319337  0.3996088334966336
  0.2918389368184444  0.8338326068033347  0.3997593430554162
  0.2921882674613233  0.9594594152988462  0.3997590596449353
  0.4170592585590501  0.0841946396998724  0.3996835117879259
  0.4175107331525369  0.2102691245687809  0.4002409758753918
  0.4189964736315909  0.3377111872333923  0.4019436661212695
  0.4152800115000377  0.7060584906008681  0.3998040954226976
  0.4163310236615355  0.8322549365277484  0.3996503644174969
  0.4168299398028061  0.9583075342669951  0.3996887647845952
  0.5416701363711872  0.0829132160674427  0.3996469003726670
  0.5420716338715533  0.2086831510328312  0.3998506595702832
  0.5429013534756106  0.3343402459948664  0.4007039879328057
  0.5452983018818937  0.4597703200328803  0.4019657537721844
  0.5389862164409831  0.7026301984483688  0.4010360956097556
  0.5407940110826631  0.8306282014141793  0.3999499994815103
  0.5413029049615548  0.9569953873765429  0.3998565151379110
  0.6663007838976958  0.0823746915839368  0.3997677555015273
  0.6666422499734431  0.2078456046224711  0.3995185513160687
  0.6673322649484678  0.3332615028290606  0.3999374907676255
  0.6689565716714810  0.4587886374418138  0.4006796996979801
  0.6699891611034514  0.5841694111777698  0.4009653663791029
  0.6667553654525050  0.7068451140042025  0.4003070946736691
  0.6650729225670420  0.8308675864992560  0.4000356077899377
  0.6658249712441393  0.9567238317030410  0.4000043676908638
  0.7909872226980725  0.0823197556398721  0.3998764538609339
  0.7912818906048914  0.2076628402123568  0.3997305788824366
  0.7917979007320992  0.3330296933571947  0.3994817959603776
  0.7926541513900492  0.4584086590994833  0.3996858847425643
  0.7934476222614388  0.5838288585933135  0.3999747576507734
  0.7931406261449961  0.7089586762693194  0.4000298861131014
  0.7913855260876096  0.8327166498924846  0.3997739150299093
  0.7907554884837132  0.9571115857889166  0.3998354579646964
  0.9161641067087907  0.0828846234103138  0.3996973627551069
  0.9160073367693095  0.2077475978819183  0.3998827560037188
  0.9161932588103716  0.3329880592345957  0.3998176125520401
  0.9167812225589560  0.4584185187072630  0.3995477570505261
  0.9174809685237021  0.5838114849615526  0.3995292956851396
  0.9176339599056188  0.7090083083700671  0.3996393445145622
  0.9173919048084445  0.8340536010331363  0.3996824310649915
  0.9166638761230536  0.9584173926434251  0.3996722518002325
  0.0840988544620162  0.0429858047854025  0.3996808254690770
  0.0836950326042647  0.1676751602243806  0.3998328031183739
  0.0826383264653645  0.2918363269903157  0.4001385677983673
  0.0820408191690632  0.4164842953718384  0.3998486100916044
  0.0826526046704296  0.5418672095180123  0.3996893564726297
  0.0834782336140310  0.6672815039047926  0.3998218924107609
  0.0838907551587844  0.7925945530048116  0.3998050040496634
  0.0840703328246868  0.9178510581807583  0.3996381373723353
  0.2090639400353355  0.0433474835612416  0.3998891895379360
  0.2094014559507131  0.1689267303197347  0.4004006506903581
  0.2087343352994147  0.2937118101218515  0.4010763472668961
  0.2064494143423507  0.4171129147109646  0.4011617958451100
  0.2065043482504567  0.5415829063790073  0.3999986221966493
  0.2077132060497973  0.6669408601214661  0.3996771021044927
  0.2085708576405835  0.7924689311972056  0.3998700733170775
  0.2088988574611871  0.9178658375781559  0.3998355251414682
  0.3338287562965176  0.0431443272821230  0.3997449654397396
  0.3340798456522345  0.1692324173494003  0.4003336988163507
  0.3347231409699664  0.2962194097728532  0.4021981948665007
  0.3306347059345252  0.5417053089160521  0.4012321132809861
  0.3319550838739273  0.6661086805498073  0.3997808858603032
  0.3331345186006144  0.7916321302421331  0.3996357890036733
  0.3335626597697474  0.9173050980800386  0.3997207013446510
  0.4584395096578925  0.0418595983128453  0.3996498853564107
  0.4587318849510505  0.1677977781130602  0.3998841338484521
  0.4595016311978288  0.2939129298874559  0.4006896423794261
  0.4628823705643474  0.4203826091741094  0.4032262730895458
  0.4547560127779690  0.6615960376546324  0.4008614123548846
  0.4575173542096799  0.7896643426545645  0.3996756861900402
  0.4580879607682311  0.9159305239745243  0.3997465756310991
  0.5830007928495288  0.0407217380264406  0.3997635747984706
  0.5834191709141023  0.1664937748179847  0.3996178675393980
  0.5840584532979546  0.2920169185417089  0.4001635789822466
  0.5861091608819194  0.4177121664365627  0.4012338232298694
  0.5882463250161848  0.5436494313903568  0.4019419319341663
  0.5829273381875533  0.6624059651442660  0.4015228500873668
  0.5813421795525309  0.7875494986324086  0.4002756867925561
  0.5825758952890419  0.9146262193370320  0.3999608759478512
  0.7076725393823533  0.0404185715449930  0.3999081770713151
  0.7080480404842702  0.1659410973180844  0.3996127143697621
  0.7085763397656282  0.2913644088209040  0.3995515362812757
  0.7097181411779914  0.4166737596058316  0.4000621531581924
  0.7107929554943383  0.5419383160273772  0.4005469849386159
  0.7102961701148686  0.6672074465461603  0.4004413715101352
  0.7077627610622028  0.7903338966449562  0.3998800950884874
  0.7071492203600528  0.9147758755036099  0.3999613524839102
  0.8326995732434080  0.0407770707837966  0.3998042144995424
  0.8327845834768842  0.1659130011015992  0.3998618696039593
  0.8330485993166729  0.2911102425549512  0.3996433125844697
  0.8337464659042515  0.4164883226855055  0.3994913707273592
  0.8345500350503352  0.5419450078621465  0.3996876163844064
  0.8347280859776012  0.6672485251676137  0.3998869745245981
  0.8341096835435413  0.7921680937821191  0.3998096053449360
  0.8330898349125633  0.9162276783421690  0.3997550572161518
  0.9584235028125392  0.0419003230182740  0.3996418231658715
  0.9578950910187615  0.1663505152529451  0.3997446198688213
  0.9576703879542217  0.2912830733020931  0.3999262718325929
  0.9578755268779405  0.4164694467177387  0.3997118761035973
  0.9585675122441468  0.5418647362432359  0.3995774488320849
  0.9591246675423978  0.6672803770648144  0.3995721612861388
  0.9591708985717818  0.7925520838452125  0.3996380367685481
  0.9589399112682113  0.9174752113840779  0.3996221437507623
  0.4115764955142353  0.5808097914248407  0.4022438481451195
  0.5461977705440528  0.5820596565279459  0.4035240494596194
  0.3306495147134222  0.4189761838949241  0.4054472018808576
 
  0.00000000E+00  0.00000000E+00  0.00000000E+00
  0.00000000E+00  0.00000000E+00  0.00000000E+00
  0.00000000E+00  0.00000000E+00  0.00000000E+00
  0.00000000E+00  0.00000000E+00  0.00000000E+00
  0.00000000E+00  0.00000000E+00  0.00000000E+00
  0.00000000E+00  0.00000000E+00  0.00000000E+00
  0.00000000E+00  0.00000000E+00  0.00000000E+00
  0.00000000E+00  0.00000000E+00  0.00000000E+00
  0.00000000E+00  0.00000000E+00  0.00000000E+00
  0.00000000E+00  0.00000000E+00  0.00000000E+00
  0.00000000E+00  0.00000000E+00  0.00000000E+00
  0.00000000E+00  0.00000000E+00  0.00000000E+00
  0.00000000E+00  0.00000000E+00  0.00000000E+00
  0.00000000E+00  0.00000000E+00  0.00000000E+00
  0.00000000E+00  0.00000000E+00  0.00000000E+00
  0.00000000E+00  0.00000000E+00  0.00000000E+00
  0.00000000E+00  0.00000000E+00  0.00000000E+00
  0.00000000E+00  0.00000000E+00  0.00000000E+00
  0.00000000E+00  0.00000000E+00  0.00000000E+00
  0.00000000E+00  0.00000000E+00  0.00000000E+00
  0.00000000E+00  0.00000000E+00  0.00000000E+00
  0.00000000E+00  0.00000000E+00  0.00000000E+00
  0.00000000E+00  0.00000000E+00  0.00000000E+00
  0.00000000E+00  0.00000000E+00  0.00000000E+00
  0.00000000E+00  0.00000000E+00  0.00000000E+00
  0.00000000E+00  0.00000000E+00  0.00000000E+00
  0.00000000E+00  0.00000000E+00  0.00000000E+00
  0.00000000E+00  0.00000000E+00  0.00000000E+00
  0.00000000E+00  0.00000000E+00  0.00000000E+00
  0.00000000E+00  0.00000000E+00  0.00000000E+00
  0.00000000E+00  0.00000000E+00  0.00000000E+00
  0.00000000E+00  0.00000000E+00  0.00000000E+00
  0.00000000E+00  0.00000000E+00  0.00000000E+00
  0.00000000E+00  0.00000000E+00  0.00000000E+00
  0.00000000E+00  0.00000000E+00  0.00000000E+00
  0.00000000E+00  0.00000000E+00  0.00000000E+00
  0.00000000E+00  0.00000000E+00  0.00000000E+00
  0.00000000E+00  0.00000000E+00  0.00000000E+00
  0.00000000E+00  0.00000000E+00  0.00000000E+00
  0.00000000E+00  0.00000000E+00  0.00000000E+00
  0.00000000E+00  0.00000000E+00  0.00000000E+00
  0.00000000E+00  0.00000000E+00  0.00000000E+00
  0.00000000E+00  0.00000000E+00  0.00000000E+00
  0.00000000E+00  0.00000000E+00  0.00000000E+00
  0.00000000E+00  0.00000000E+00  0.00000000E+00
  0.00000000E+00  0.00000000E+00  0.00000000E+00
  0.00000000E+00  0.00000000E+00  0.00000000E+00
  0.00000000E+00  0.00000000E+00  0.00000000E+00
  0.00000000E+00  0.00000000E+00  0.00000000E+00
  0.00000000E+00  0.00000000E+00  0.00000000E+00
  0.00000000E+00  0.00000000E+00  0.00000000E+00
  0.00000000E+00  0.00000000E+00  0.00000000E+00
  0.00000000E+00  0.00000000E+00  0.00000000E+00
  0.00000000E+00  0.00000000E+00  0.00000000E+00
  0.00000000E+00  0.00000000E+00  0.00000000E+00
  0.00000000E+00  0.00000000E+00  0.00000000E+00
  0.00000000E+00  0.00000000E+00  0.00000000E+00
  0.00000000E+00  0.00000000E+00  0.00000000E+00
  0.00000000E+00  0.00000000E+00  0.00000000E+00
  0.00000000E+00  0.00000000E+00  0.00000000E+00
  0.00000000E+00  0.00000000E+00  0.00000000E+00
  0.00000000E+00  0.00000000E+00  0.00000000E+00
  0.00000000E+00  0.00000000E+00  0.00000000E+00
  0.00000000E+00  0.00000000E+00  0.00000000E+00
  0.00000000E+00  0.00000000E+00  0.00000000E+00
  0.00000000E+00  0.00000000E+00  0.00000000E+00
  0.00000000E+00  0.00000000E+00  0.00000000E+00
  0.00000000E+00  0.00000000E+00  0.00000000E+00
  0.00000000E+00  0.00000000E+00  0.00000000E+00
  0.00000000E+00  0.00000000E+00  0.00000000E+00
  0.00000000E+00  0.00000000E+00  0.00000000E+00
  0.00000000E+00  0.00000000E+00  0.00000000E+00
  0.00000000E+00  0.00000000E+00  0.00000000E+00
  0.00000000E+00  0.00000000E+00  0.00000000E+00
  0.00000000E+00  0.00000000E+00  0.00000000E+00
  0.00000000E+00  0.00000000E+00  0.00000000E+00
  0.00000000E+00  0.00000000E+00  0.00000000E+00
  0.00000000E+00  0.00000000E+00  0.00000000E+00
  0.00000000E+00  0.00000000E+00  0.00000000E+00
  0.00000000E+00  0.00000000E+00  0.00000000E+00
  0.00000000E+00  0.00000000E+00  0.00000000E+00
  0.00000000E+00  0.00000000E+00  0.00000000E+00
  0.00000000E+00  0.00000000E+00  0.00000000E+00
  0.00000000E+00  0.00000000E+00  0.00000000E+00
  0.00000000E+00  0.00000000E+00  0.00000000E+00
  0.00000000E+00  0.00000000E+00  0.00000000E+00
  0.00000000E+00  0.00000000E+00  0.00000000E+00
  0.00000000E+00  0.00000000E+00  0.00000000E+00
  0.00000000E+00  0.00000000E+00  0.00000000E+00
  0.00000000E+00  0.00000000E+00  0.00000000E+00
  0.00000000E+00  0.00000000E+00  0.00000000E+00
  0.00000000E+00  0.00000000E+00  0.00000000E+00
  0.00000000E+00  0.00000000E+00  0.00000000E+00
  0.00000000E+00  0.00000000E+00  0.00000000E+00
  0.00000000E+00  0.00000000E+00  0.00000000E+00
  0.00000000E+00  0.00000000E+00  0.00000000E+00
  0.00000000E+00  0.00000000E+00  0.00000000E+00
  0.00000000E+00  0.00000000E+00  0.00000000E+00
  0.00000000E+00  0.00000000E+00  0.00000000E+00
  0.00000000E+00  0.00000000E+00  0.00000000E+00
  0.00000000E+00  0.00000000E+00  0.00000000E+00
  0.00000000E+00  0.00000000E+00  0.00000000E+00
  0.00000000E+00  0.00000000E+00  0.00000000E+00
  0.00000000E+00  0.00000000E+00  0.00000000E+00
  0.00000000E+00  0.00000000E+00  0.00000000E+00
  0.00000000E+00  0.00000000E+00  0.00000000E+00
  0.00000000E+00  0.00000000E+00  0.00000000E+00
  0.00000000E+00  0.00000000E+00  0.00000000E+00
  0.00000000E+00  0.00000000E+00  0.00000000E+00
  0.00000000E+00  0.00000000E+00  0.00000000E+00
  0.00000000E+00  0.00000000E+00  0.00000000E+00
  0.00000000E+00  0.00000000E+00  0.00000000E+00
  0.00000000E+00  0.00000000E+00  0.00000000E+00
  0.00000000E+00  0.00000000E+00  0.00000000E+00
  0.00000000E+00  0.00000000E+00  0.00000000E+00
  0.00000000E+00  0.00000000E+00  0.00000000E+00
  0.00000000E+00  0.00000000E+00  0.00000000E+00
  0.00000000E+00  0.00000000E+00  0.00000000E+00
  0.00000000E+00  0.00000000E+00  0.00000000E+00
  0.00000000E+00  0.00000000E+00  0.00000000E+00
  0.00000000E+00  0.00000000E+00  0.00000000E+00
  0.00000000E+00  0.00000000E+00  0.00000000E+00
  0.00000000E+00  0.00000000E+00  0.00000000E+00
  0.00000000E+00  0.00000000E+00  0.00000000E+00
  0.00000000E+00  0.00000000E+00  0.00000000E+00
  0.00000000E+00  0.00000000E+00  0.00000000E+00
  0.00000000E+00  0.00000000E+00  0.00000000E+00
  0.00000000E+00  0.00000000E+00  0.00000000E+00
