Zn1 H1 C125 N1                          
   1.00000000000000     
    19.8084136630445400   -0.0057978714357705   -0.0738565083258146
    -9.9093391029444167   17.0592165394634847    0.0881826010831414
    -0.1111101365144638    0.0890300668392867   29.7835899583060524
   Zn   H    C    N 
     1     1   125     1
Direct
  0.4382005992783084  0.5002650803792783  0.4225455134826983
  0.4304135994094152  0.5081602148197621  0.4754377676401189
  0.0418527856442243  0.0838444679444553  0.3999485523087618
  0.0412621195921585  0.2082504902403798  0.4002144443338324
  0.0408590904585858  0.3329343320676028  0.3995186561381248
  0.0409588095743772  0.4582384599048814  0.3988909972415591
  0.0414659951660206  0.5836215850523326  0.3988875203088386
  0.0420340952570546  0.7089817057170111  0.3992277758973142
  0.0422865657188297  0.8342698866597720  0.3994488995712150
  0.0422647433993102  0.9592829145283881  0.3996009303107470
  0.1675039083563306  0.0849427110509200  0.4008201660426254
  0.1671302632155285  0.2096075271915894  0.4020664626254382
  0.1660438074437942  0.3338512328468538  0.4019464399999230
  0.1650520312966464  0.4584324014636691  0.3996592274503938
  0.1654470572886480  0.5836362717343194  0.3991232013910084
  0.1663472702605360  0.7089882219671053  0.3991802949185499
  0.1669574455191189  0.8343330979462925  0.3994823168240745
  0.1673729684651597  0.9597035635593240  0.3997934797395276
  0.2925321639121004  0.0850412768123864  0.4005363465346881
  0.2931160244940496  0.2111238963693678  0.4028774462797533
  0.2925858300132655  0.3363113368392089  0.4071064213134943
  0.2896722242810972  0.4594541052135511  0.4042526610084832
  0.2890872321724507  0.5842335610702525  0.4008712892666394
  0.2906238827083899  0.7089849593138983  0.3998735718439255
  0.2915297880160153  0.8340445013431453  0.3995491005541734
  0.2920159093368960  0.9593809524668072  0.3997582528587246
  0.4170842893577248  0.0839378292319210  0.3999254757399472
  0.4175726596402111  0.2097028984011214  0.4010104820190696
  0.4188635430963126  0.3368413329132037  0.4028917550487388
  0.4147934080382167  0.7069589740146416  0.4021152494940411
  0.4160427514865869  0.8327587940241674  0.4003538894428017
  0.4166043934652933  0.9583299697679958  0.3996469635270807
  0.5416235438369621  0.0825984016935267  0.3996044647539581
  0.5421664321928196  0.2079997094334956  0.3998820112196254
  0.5429710092759809  0.3331814923197106  0.4003164540823632
  0.5458370447794819  0.4583183224937009  0.4019292512615212
  0.5468815270648596  0.5803288705907763  0.4109840495173553
  0.5385373645455939  0.7032971761014603  0.4056302183688906
  0.5403461105297888  0.8308786764344011  0.4018458014440925
  0.5411534534771953  0.9569636817100281  0.3999940820501961
  0.6662167808092661  0.0819626820359108  0.3995960227919709
  0.6667024078276903  0.2073881601446136  0.3994850506444874
  0.6673811529422896  0.3326630533887823  0.3995726127898706
  0.6691045118918487  0.4581156670821367  0.4000509879683157
  0.6706343989712706  0.5837667095031440  0.4016973673907536
  0.6662942881063483  0.7062809118639632  0.4035879431286375
  0.6649230976857213  0.8304826231734925  0.4023351154286254
  0.6657025720357581  0.9563989567488307  0.4003910811880322
  0.7909723980662277  0.0819615495315485  0.3995579742946430
  0.7912774777997484  0.2072242391803959  0.3993933091685961
  0.7918386190553037  0.3326068134290474  0.3992707501534062
  0.7928222380333971  0.4581016280002367  0.3992489236445912
  0.7936557969511850  0.5835163002553290  0.3995840109670474
  0.7929891528621713  0.7086198520741213  0.4006847739485551
  0.7912317029186219  0.8323382411765927  0.4006136851172442
  0.7906116861416539  0.9567223622262284  0.4000351607157426
  0.9161157352781060  0.0826000866823146  0.3995141345787104
  0.9160697570906130  0.2075306051201037  0.3994509790931172
  0.9162610304721760  0.3327134526725600  0.3991428718308448
  0.9168068199511296  0.4580603309832044  0.3990405499004109
  0.9175071004277257  0.5835694152046901  0.3991406023258464
  0.9176158017584214  0.7089555778169906  0.3994062709752226
  0.9172626558162018  0.8337886737963718  0.3996318897800083
  0.9165109723506182  0.9580820824642382  0.3995580903897171
  0.0840008412560482  0.0427993134465642  0.4000573267727273
  0.0835163839516706  0.1673118996534368  0.4005806982681177
  0.0826529625003172  0.2916595705390976  0.4004591301387206
  0.0822443622907242  0.4164987953597660  0.3991973659053232
  0.0825128769449757  0.5417599388713834  0.3988059644133345
  0.0832582704197266  0.6671881369613692  0.3990504592910193
  0.0837834754033811  0.7926114915765098  0.3994087059907797
  0.0840101778583103  0.9178281441673244  0.3995757067795070
  0.2091303196753139  0.0432232482073095  0.4003733132676937
  0.2092355021416321  0.1685404723394635  0.4021862716597852
  0.2085641176251748  0.2932039318154068  0.4036711643402552
  0.2065969890020488  0.4170965821095588  0.4012613448347551
  0.2063322026822474  0.5418616505688286  0.3997591986408650
  0.2075630998294628  0.6672065427745897  0.3993029897135659
  0.2083096110655384  0.7924913590050359  0.3993843647781352
  0.2088242121640135  0.9178655631673828  0.3996907903580180
  0.3338480813594022  0.0428925125041874  0.4000163735139018
  0.3343805524948484  0.1686056985562633  0.4013852785201572
  0.3347666905005421  0.2945014591510721  0.4048523347306287
  0.3298253948274233  0.4183132441809666  0.4105481375086257
  0.3308771386046386  0.5438252447595519  0.4026035540267019
  0.3317410228514321  0.6671369007432812  0.4008040177007305
  0.3328539818939749  0.7921646620257383  0.3998753589044440
  0.3334327319084024  0.9174296624424878  0.3996321993665690
  0.4584716874759045  0.0417659685336819  0.3996535358397386
  0.4589058842921837  0.1673578394392108  0.4002257897595297
  0.4597691016036164  0.2932764487716876  0.4012885678495911
  0.4640967465568903  0.4190093262634031  0.4021723748689120
  0.4539516996569114  0.6623958282275351  0.4041015662802203
  0.4572988744648940  0.7904283000382641  0.4014983598420273
  0.4579391221761225  0.9161397691551244  0.3999231049116171
  0.5830037752392108  0.0405237755136520  0.3996614336104316
  0.5835026948603780  0.1660195218750998  0.3996189751735840
  0.5842549525007542  0.2911987420052271  0.3998332497066224
  0.5861190264044359  0.4160712393428559  0.4005589320002391
  0.5886197600753620  0.5417805960420741  0.4045397148654489
  0.5819853813455499  0.6622502227780765  0.4073354975349118
  0.5807482652168231  0.7874226493349281  0.4033908237671268
  0.5823810298190248  0.9146498365127932  0.4006657965831478
  0.7075985066392418  0.0400399719152945  0.3997355416506174
  0.7080892599912101  0.1655323957876324  0.3994615810802434
  0.7086372014066208  0.2908557023021589  0.3994245870648410
  0.7098363889757279  0.4162685595901909  0.3995491039745768
  0.7111850163756833  0.5416756289217063  0.4000479826769787
  0.7098848462206911  0.6666308476537144  0.4021717080631176
  0.7074626044210246  0.7897973549261139  0.4020725225787700
  0.7069502312522181  0.9143095029377225  0.4008489077017429
  0.8325675004074927  0.0404058484892977  0.3995892195569956
  0.8327730269467895  0.1655743543929971  0.3994302220280898
  0.8331412967377432  0.2908618231546116  0.3992722499804295
  0.8338336002164952  0.4161970393391274  0.3991627153060153
  0.8346445214992685  0.5416282526476762  0.3992484669510281
  0.8346339343763333  0.6671344297836880  0.3998038333987220
  0.8339634646469058  0.7918072189514536  0.4002801768109761
  0.8328666743566545  0.9157982096346947  0.3999580533227219
  0.9582506674397921  0.0415985400525157  0.3995453768051044
  0.9578603304472559  0.1661576066782162  0.3996281926913200
  0.9577050513277113  0.2910442906111348  0.3992858129568471
  0.9579548611779177  0.4162815692671509  0.3989975585155224
  0.9585668965910529  0.5417333515601082  0.3990060051025489
  0.9590031999111642  0.6671743284250883  0.3992133606090871
  0.9590785301680308  0.7924204184452599  0.3994660167422305
  0.9587950364464077  0.9172169467335654  0.3995197172547314
  0.4098844547724744  0.5822498608511130  0.4037792730905469
 
  0.00000000E+00  0.00000000E+00  0.00000000E+00
  0.00000000E+00  0.00000000E+00  0.00000000E+00
  0.00000000E+00  0.00000000E+00  0.00000000E+00
  0.00000000E+00  0.00000000E+00  0.00000000E+00
  0.00000000E+00  0.00000000E+00  0.00000000E+00
  0.00000000E+00  0.00000000E+00  0.00000000E+00
  0.00000000E+00  0.00000000E+00  0.00000000E+00
  0.00000000E+00  0.00000000E+00  0.00000000E+00
  0.00000000E+00  0.00000000E+00  0.00000000E+00
  0.00000000E+00  0.00000000E+00  0.00000000E+00
  0.00000000E+00  0.00000000E+00  0.00000000E+00
  0.00000000E+00  0.00000000E+00  0.00000000E+00
  0.00000000E+00  0.00000000E+00  0.00000000E+00
  0.00000000E+00  0.00000000E+00  0.00000000E+00
  0.00000000E+00  0.00000000E+00  0.00000000E+00
  0.00000000E+00  0.00000000E+00  0.00000000E+00
  0.00000000E+00  0.00000000E+00  0.00000000E+00
  0.00000000E+00  0.00000000E+00  0.00000000E+00
  0.00000000E+00  0.00000000E+00  0.00000000E+00
  0.00000000E+00  0.00000000E+00  0.00000000E+00
  0.00000000E+00  0.00000000E+00  0.00000000E+00
  0.00000000E+00  0.00000000E+00  0.00000000E+00
  0.00000000E+00  0.00000000E+00  0.00000000E+00
  0.00000000E+00  0.00000000E+00  0.00000000E+00
  0.00000000E+00  0.00000000E+00  0.00000000E+00
  0.00000000E+00  0.00000000E+00  0.00000000E+00
  0.00000000E+00  0.00000000E+00  0.00000000E+00
  0.00000000E+00  0.00000000E+00  0.00000000E+00
  0.00000000E+00  0.00000000E+00  0.00000000E+00
  0.00000000E+00  0.00000000E+00  0.00000000E+00
  0.00000000E+00  0.00000000E+00  0.00000000E+00
  0.00000000E+00  0.00000000E+00  0.00000000E+00
  0.00000000E+00  0.00000000E+00  0.00000000E+00
  0.00000000E+00  0.00000000E+00  0.00000000E+00
  0.00000000E+00  0.00000000E+00  0.00000000E+00
  0.00000000E+00  0.00000000E+00  0.00000000E+00
  0.00000000E+00  0.00000000E+00  0.00000000E+00
  0.00000000E+00  0.00000000E+00  0.00000000E+00
  0.00000000E+00  0.00000000E+00  0.00000000E+00
  0.00000000E+00  0.00000000E+00  0.00000000E+00
  0.00000000E+00  0.00000000E+00  0.00000000E+00
  0.00000000E+00  0.00000000E+00  0.00000000E+00
  0.00000000E+00  0.00000000E+00  0.00000000E+00
  0.00000000E+00  0.00000000E+00  0.00000000E+00
  0.00000000E+00  0.00000000E+00  0.00000000E+00
  0.00000000E+00  0.00000000E+00  0.00000000E+00
  0.00000000E+00  0.00000000E+00  0.00000000E+00
  0.00000000E+00  0.00000000E+00  0.00000000E+00
  0.00000000E+00  0.00000000E+00  0.00000000E+00
  0.00000000E+00  0.00000000E+00  0.00000000E+00
  0.00000000E+00  0.00000000E+00  0.00000000E+00
  0.00000000E+00  0.00000000E+00  0.00000000E+00
  0.00000000E+00  0.00000000E+00  0.00000000E+00
  0.00000000E+00  0.00000000E+00  0.00000000E+00
  0.00000000E+00  0.00000000E+00  0.00000000E+00
  0.00000000E+00  0.00000000E+00  0.00000000E+00
  0.00000000E+00  0.00000000E+00  0.00000000E+00
  0.00000000E+00  0.00000000E+00  0.00000000E+00
  0.00000000E+00  0.00000000E+00  0.00000000E+00
  0.00000000E+00  0.00000000E+00  0.00000000E+00
  0.00000000E+00  0.00000000E+00  0.00000000E+00
  0.00000000E+00  0.00000000E+00  0.00000000E+00
  0.00000000E+00  0.00000000E+00  0.00000000E+00
  0.00000000E+00  0.00000000E+00  0.00000000E+00
  0.00000000E+00  0.00000000E+00  0.00000000E+00
  0.00000000E+00  0.00000000E+00  0.00000000E+00
  0.00000000E+00  0.00000000E+00  0.00000000E+00
  0.00000000E+00  0.00000000E+00  0.00000000E+00
  0.00000000E+00  0.00000000E+00  0.00000000E+00
  0.00000000E+00  0.00000000E+00  0.00000000E+00
  0.00000000E+00  0.00000000E+00  0.00000000E+00
  0.00000000E+00  0.00000000E+00  0.00000000E+00
  0.00000000E+00  0.00000000E+00  0.00000000E+00
  0.00000000E+00  0.00000000E+00  0.00000000E+00
  0.00000000E+00  0.00000000E+00  0.00000000E+00
  0.00000000E+00  0.00000000E+00  0.00000000E+00
  0.00000000E+00  0.00000000E+00  0.00000000E+00
  0.00000000E+00  0.00000000E+00  0.00000000E+00
  0.00000000E+00  0.00000000E+00  0.00000000E+00
  0.00000000E+00  0.00000000E+00  0.00000000E+00
  0.00000000E+00  0.00000000E+00  0.00000000E+00
  0.00000000E+00  0.00000000E+00  0.00000000E+00
  0.00000000E+00  0.00000000E+00  0.00000000E+00
  0.00000000E+00  0.00000000E+00  0.00000000E+00
  0.00000000E+00  0.00000000E+00  0.00000000E+00
  0.00000000E+00  0.00000000E+00  0.00000000E+00
  0.00000000E+00  0.00000000E+00  0.00000000E+00
  0.00000000E+00  0.00000000E+00  0.00000000E+00
  0.00000000E+00  0.00000000E+00  0.00000000E+00
  0.00000000E+00  0.00000000E+00  0.00000000E+00
  0.00000000E+00  0.00000000E+00  0.00000000E+00
  0.00000000E+00  0.00000000E+00  0.00000000E+00
  0.00000000E+00  0.00000000E+00  0.00000000E+00
  0.00000000E+00  0.00000000E+00  0.00000000E+00
  0.00000000E+00  0.00000000E+00  0.00000000E+00
  0.00000000E+00  0.00000000E+00  0.00000000E+00
  0.00000000E+00  0.00000000E+00  0.00000000E+00
  0.00000000E+00  0.00000000E+00  0.00000000E+00
  0.00000000E+00  0.00000000E+00  0.00000000E+00
  0.00000000E+00  0.00000000E+00  0.00000000E+00
  0.00000000E+00  0.00000000E+00  0.00000000E+00
  0.00000000E+00  0.00000000E+00  0.00000000E+00
  0.00000000E+00  0.00000000E+00  0.00000000E+00
  0.00000000E+00  0.00000000E+00  0.00000000E+00
  0.00000000E+00  0.00000000E+00  0.00000000E+00
  0.00000000E+00  0.00000000E+00  0.00000000E+00
  0.00000000E+00  0.00000000E+00  0.00000000E+00
  0.00000000E+00  0.00000000E+00  0.00000000E+00
  0.00000000E+00  0.00000000E+00  0.00000000E+00
  0.00000000E+00  0.00000000E+00  0.00000000E+00
  0.00000000E+00  0.00000000E+00  0.00000000E+00
  0.00000000E+00  0.00000000E+00  0.00000000E+00
  0.00000000E+00  0.00000000E+00  0.00000000E+00
  0.00000000E+00  0.00000000E+00  0.00000000E+00
  0.00000000E+00  0.00000000E+00  0.00000000E+00
  0.00000000E+00  0.00000000E+00  0.00000000E+00
  0.00000000E+00  0.00000000E+00  0.00000000E+00
  0.00000000E+00  0.00000000E+00  0.00000000E+00
  0.00000000E+00  0.00000000E+00  0.00000000E+00
  0.00000000E+00  0.00000000E+00  0.00000000E+00
  0.00000000E+00  0.00000000E+00  0.00000000E+00
  0.00000000E+00  0.00000000E+00  0.00000000E+00
  0.00000000E+00  0.00000000E+00  0.00000000E+00
  0.00000000E+00  0.00000000E+00  0.00000000E+00
  0.00000000E+00  0.00000000E+00  0.00000000E+00
  0.00000000E+00  0.00000000E+00  0.00000000E+00
  0.00000000E+00  0.00000000E+00  0.00000000E+00
  0.00000000E+00  0.00000000E+00  0.00000000E+00
