Hf1 C125 N1                             
   1.00000000000000     
    19.8207524436946301   -0.0131124230581320    0.0044672499294179
    -9.9217373200465016   17.0747605422556106   -0.0004641080157863
     0.0067614646923840    0.0030398289186420   29.7436548279162807
   Hf   C    N 
     1   125     1
Direct
  0.4367101541888724  0.5002000222388023  0.4380557622364173
  0.0418830469809822  0.0839291589896244  0.3992161216830106
  0.0412828110449985  0.2083545218161223  0.3989223830124738
  0.0406878667074946  0.3330079287367502  0.3989102466433623
  0.0405824679330023  0.4582926711572110  0.3989660464577867
  0.0412648292618821  0.5837269682935576  0.3993827932912034
  0.0418681129728759  0.7090344110814408  0.3998110501502091
  0.0421640074031820  0.8342795336263752  0.4000303826601971
  0.0422018713031114  0.9592984759728694  0.3997468100709983
  0.1675142238115203  0.0849853046771865  0.3995440862428011
  0.1671659018962136  0.2097264622720777  0.3992658390231681
  0.1659354966888057  0.3340154713417408  0.3993036276502404
  0.1643797057123146  0.4586111253386567  0.3991272412571311
  0.1651431888165628  0.5838137876102015  0.3988915276082189
  0.1661924875936035  0.7090717128000500  0.3993805732234332
  0.1668543919372904  0.8343570921249956  0.3999083252400994
  0.1672631101569924  0.9596722611274872  0.3999439551476188
  0.2924379728860477  0.0848555890931321  0.3996617824622198
  0.2932002369953098  0.2111129415286594  0.4008138831520827
  0.2926592340863688  0.3366455462961431  0.4026172535911294
  0.2885099784932389  0.4593095761790289  0.4027754654542737
  0.2887302288675132  0.5843388776151944  0.4005807161782091
  0.2905600229248130  0.7091352094272820  0.3993664255706614
  0.2914523957041763  0.8341103508512960  0.3993631927997418
  0.2919364042702501  0.9593124178584472  0.3995876720516066
  0.4170542017360017  0.0836219454611926  0.3991436052242921
  0.4176088860855752  0.2089625187137006  0.3997350246376346
  0.4193763783897011  0.3353043739203979  0.4049504712646387
  0.4148029536771035  0.7074176868470001  0.4006717934270514
  0.4160107022989796  0.8329441178138824  0.3992428859460329
  0.4166097584681314  0.9583119041510398  0.3992304185584915
  0.5416895127500093  0.0825587625606386  0.3993171595554978
  0.5422780123509848  0.2077453271216327  0.3990300100576228
  0.5432508501344553  0.3327611446779490  0.4004927695618876
  0.5459697117067733  0.4570309192071033  0.4054655878717304
  0.5449054605475929  0.5808869649491728  0.4065780276942756
  0.5386498818861741  0.7041325096336999  0.4028305334182124
  0.5405058114734766  0.8314079382641414  0.4000084069310426
  0.5412368968518386  0.9571967081136830  0.3994855570644150
  0.6663403799322664  0.0821349927488088  0.3998859138538739
  0.6668143000908456  0.2073596904598189  0.3994890194054677
  0.6676090245071088  0.3325657645479487  0.3990020976608157
  0.6694024694993700  0.4580075161373864  0.3993410993562197
  0.6698213316756778  0.5833246742398915  0.4002336369603832
  0.6663888713868520  0.7068101443462367  0.3997672002881367
  0.6650381680088334  0.8309875869746638  0.3997909837931551
  0.6658189370324757  0.9567505279686866  0.3998718159576088
  0.7910665726127001  0.0821554515789171  0.4000458727033204
  0.7913685363425341  0.2073336752970583  0.3999923672851973
  0.7919690552431422  0.3326697305215383  0.3994726581387844
  0.7929174203065021  0.4581168916145248  0.3988553295737162
  0.7934266424466870  0.5834450970690914  0.3986343041177736
  0.7927123683424010  0.7085801220473484  0.3986102771899244
  0.7913118216657187  0.8326057646340499  0.3988931966449345
  0.7907545214100385  0.9569951103243962  0.3995608492999859
  0.9161881411466360  0.0827422020535029  0.3995761625386384
  0.9160724432204049  0.2075754401931207  0.3996567144866308
  0.9162179481743050  0.3327638859821407  0.3995676565567669
  0.9167058695701799  0.4581421169248743  0.3994826816863100
  0.9173751516677697  0.5836486325777409  0.3993643929501897
  0.9174104937647939  0.7089343156564538  0.3993367350702516
  0.9171594028741931  0.8338104919281336  0.3993360367472001
  0.9165783844208060  0.9582600761276464  0.3993853923449697
  0.0839931636222808  0.0428271294183672  0.3994655876570163
  0.0835631660856646  0.1673998507330491  0.3989509953814266
  0.0825954247530831  0.2917478520658829  0.3988002723859573
  0.0816723283783042  0.4165348932881459  0.3987465557423766
  0.0822188332654713  0.5418632048319948  0.3989796513063764
  0.0830632619838571  0.6672546948889716  0.3995456418609386
  0.0836449493271762  0.7926114029485416  0.4000175526172432
  0.0838926119700860  0.9177775208091850  0.3999970284337434
  0.2090243400030537  0.0431085626946019  0.3997756859958249
  0.2093039754850547  0.1685672956443424  0.3996984031955030
  0.2087617737286876  0.2933721964539809  0.3998374894130921
  0.2058568092800040  0.4174314956280777  0.4000807962247026
  0.2058396598669371  0.5419840113620414  0.3992386137265085
  0.2073178403507272  0.6673684100722433  0.3991430357580961
  0.2082096599597814  0.7926045436006226  0.3995777121238079
  0.2087310681944862  0.9178406404497013  0.3998964813558661
  0.3337942270744579  0.0427485114592032  0.3994184305888535
  0.3343473878749271  0.1683150934588244  0.4000408657633923
  0.3350380820480716  0.2944849902629081  0.4033906377377841
  0.3310505902396872  0.4197839686794569  0.4053201622980454
  0.3298757855520600  0.5439954219013905  0.4034016351559797
  0.3316088786501665  0.6675288302402939  0.4002030046112696
  0.3328391683406131  0.7923669235369689  0.3992353613567807
  0.3333771855613659  0.9174257783601784  0.3993913255699992
  0.4584856367520666  0.0416164913956238  0.3991824416180995
  0.4589630273227440  0.1668916533752857  0.3990867220732711
  0.4598904384227058  0.2923014740051167  0.4011510103425537
  0.4643465541097104  0.4175699603672028  0.4101398907561322
  0.4544628388698645  0.6636687635690979  0.4034529499935254
  0.4573554414934182  0.7908045956561564  0.3997084725239991
  0.4579740275425943  0.9162999320600688  0.3992508585954751
  0.5830893899901559  0.0406396787639721  0.3995841123046389
  0.5836158933593169  0.1659311923165277  0.3992214057504311
  0.5844379458965580  0.2909477901706570  0.3992390160312270
  0.5866308550158342  0.4159180064591907  0.4013038798730305
  0.5879590137932880  0.5419268375898145  0.4040322544708597
  0.5822907651009752  0.6631632484854658  0.4028028715266260
  0.5809719051891939  0.7882475526712455  0.4007101475545972
  0.5825444378541755  0.9150713832301601  0.3997278975147324
  0.7077267543048601  0.0402795142631426  0.3999954310631821
  0.7082029358400728  0.1656147272891891  0.3998750814686032
  0.7087952046202755  0.2908408592756901  0.3992722104233912
  0.7100530026004319  0.4161894226387734  0.3987514875909125
  0.7109380788978873  0.5415059566502733  0.3991108549474816
  0.7094951420343434  0.6665817444744701  0.3991774198157268
  0.7076759260659354  0.7902763941248404  0.3991907066829563
  0.7071054695401590  0.9147037487135048  0.3996834715790124
  0.8326972278983827  0.0406012603590744  0.3998131465064826
  0.8328250072401001  0.1656606704044930  0.4000211735721639
  0.8331708286598776  0.2908863285250182  0.3997786448023170
  0.8338449795298507  0.4162035898757295  0.3993015512963283
  0.8345294664457843  0.5416450766704382  0.3988826295328205
  0.8344633000822318  0.6671112063957161  0.3987922672412778
  0.8338229623645167  0.7918169622230503  0.3988068678221077
  0.8329950117805947  0.9160553267669173  0.3992571526081889
  0.9583192733351639  0.0417009932034962  0.3993829011118151
  0.9578961164774410  0.1662350289453720  0.3993866972890203
  0.9576322526387216  0.2910787343838663  0.3993743774923969
  0.9577070446082966  0.4162950390640660  0.3993932192782723
  0.9583970636251589  0.5417902181661469  0.3994933475391722
  0.9588540235702530  0.6671942022582944  0.3995684223558270
  0.9589477169099220  0.7924501586610363  0.3996326567052951
  0.9587631284399942  0.9172601677594082  0.3995398396978160
  0.4100063178446767  0.5828757445598435  0.4072647757062529
 
  0.00000000E+00  0.00000000E+00  0.00000000E+00
  0.00000000E+00  0.00000000E+00  0.00000000E+00
  0.00000000E+00  0.00000000E+00  0.00000000E+00
  0.00000000E+00  0.00000000E+00  0.00000000E+00
  0.00000000E+00  0.00000000E+00  0.00000000E+00
  0.00000000E+00  0.00000000E+00  0.00000000E+00
  0.00000000E+00  0.00000000E+00  0.00000000E+00
  0.00000000E+00  0.00000000E+00  0.00000000E+00
  0.00000000E+00  0.00000000E+00  0.00000000E+00
  0.00000000E+00  0.00000000E+00  0.00000000E+00
  0.00000000E+00  0.00000000E+00  0.00000000E+00
  0.00000000E+00  0.00000000E+00  0.00000000E+00
  0.00000000E+00  0.00000000E+00  0.00000000E+00
  0.00000000E+00  0.00000000E+00  0.00000000E+00
  0.00000000E+00  0.00000000E+00  0.00000000E+00
  0.00000000E+00  0.00000000E+00  0.00000000E+00
  0.00000000E+00  0.00000000E+00  0.00000000E+00
  0.00000000E+00  0.00000000E+00  0.00000000E+00
  0.00000000E+00  0.00000000E+00  0.00000000E+00
  0.00000000E+00  0.00000000E+00  0.00000000E+00
  0.00000000E+00  0.00000000E+00  0.00000000E+00
  0.00000000E+00  0.00000000E+00  0.00000000E+00
  0.00000000E+00  0.00000000E+00  0.00000000E+00
  0.00000000E+00  0.00000000E+00  0.00000000E+00
  0.00000000E+00  0.00000000E+00  0.00000000E+00
  0.00000000E+00  0.00000000E+00  0.00000000E+00
  0.00000000E+00  0.00000000E+00  0.00000000E+00
  0.00000000E+00  0.00000000E+00  0.00000000E+00
  0.00000000E+00  0.00000000E+00  0.00000000E+00
  0.00000000E+00  0.00000000E+00  0.00000000E+00
  0.00000000E+00  0.00000000E+00  0.00000000E+00
  0.00000000E+00  0.00000000E+00  0.00000000E+00
  0.00000000E+00  0.00000000E+00  0.00000000E+00
  0.00000000E+00  0.00000000E+00  0.00000000E+00
  0.00000000E+00  0.00000000E+00  0.00000000E+00
  0.00000000E+00  0.00000000E+00  0.00000000E+00
  0.00000000E+00  0.00000000E+00  0.00000000E+00
  0.00000000E+00  0.00000000E+00  0.00000000E+00
  0.00000000E+00  0.00000000E+00  0.00000000E+00
  0.00000000E+00  0.00000000E+00  0.00000000E+00
  0.00000000E+00  0.00000000E+00  0.00000000E+00
  0.00000000E+00  0.00000000E+00  0.00000000E+00
  0.00000000E+00  0.00000000E+00  0.00000000E+00
  0.00000000E+00  0.00000000E+00  0.00000000E+00
  0.00000000E+00  0.00000000E+00  0.00000000E+00
  0.00000000E+00  0.00000000E+00  0.00000000E+00
  0.00000000E+00  0.00000000E+00  0.00000000E+00
  0.00000000E+00  0.00000000E+00  0.00000000E+00
  0.00000000E+00  0.00000000E+00  0.00000000E+00
  0.00000000E+00  0.00000000E+00  0.00000000E+00
  0.00000000E+00  0.00000000E+00  0.00000000E+00
  0.00000000E+00  0.00000000E+00  0.00000000E+00
  0.00000000E+00  0.00000000E+00  0.00000000E+00
  0.00000000E+00  0.00000000E+00  0.00000000E+00
  0.00000000E+00  0.00000000E+00  0.00000000E+00
  0.00000000E+00  0.00000000E+00  0.00000000E+00
  0.00000000E+00  0.00000000E+00  0.00000000E+00
  0.00000000E+00  0.00000000E+00  0.00000000E+00
  0.00000000E+00  0.00000000E+00  0.00000000E+00
  0.00000000E+00  0.00000000E+00  0.00000000E+00
  0.00000000E+00  0.00000000E+00  0.00000000E+00
  0.00000000E+00  0.00000000E+00  0.00000000E+00
  0.00000000E+00  0.00000000E+00  0.00000000E+00
  0.00000000E+00  0.00000000E+00  0.00000000E+00
  0.00000000E+00  0.00000000E+00  0.00000000E+00
  0.00000000E+00  0.00000000E+00  0.00000000E+00
  0.00000000E+00  0.00000000E+00  0.00000000E+00
  0.00000000E+00  0.00000000E+00  0.00000000E+00
  0.00000000E+00  0.00000000E+00  0.00000000E+00
  0.00000000E+00  0.00000000E+00  0.00000000E+00
  0.00000000E+00  0.00000000E+00  0.00000000E+00
  0.00000000E+00  0.00000000E+00  0.00000000E+00
  0.00000000E+00  0.00000000E+00  0.00000000E+00
  0.00000000E+00  0.00000000E+00  0.00000000E+00
  0.00000000E+00  0.00000000E+00  0.00000000E+00
  0.00000000E+00  0.00000000E+00  0.00000000E+00
  0.00000000E+00  0.00000000E+00  0.00000000E+00
  0.00000000E+00  0.00000000E+00  0.00000000E+00
  0.00000000E+00  0.00000000E+00  0.00000000E+00
  0.00000000E+00  0.00000000E+00  0.00000000E+00
  0.00000000E+00  0.00000000E+00  0.00000000E+00
  0.00000000E+00  0.00000000E+00  0.00000000E+00
  0.00000000E+00  0.00000000E+00  0.00000000E+00
  0.00000000E+00  0.00000000E+00  0.00000000E+00
  0.00000000E+00  0.00000000E+00  0.00000000E+00
  0.00000000E+00  0.00000000E+00  0.00000000E+00
  0.00000000E+00  0.00000000E+00  0.00000000E+00
  0.00000000E+00  0.00000000E+00  0.00000000E+00
  0.00000000E+00  0.00000000E+00  0.00000000E+00
  0.00000000E+00  0.00000000E+00  0.00000000E+00
  0.00000000E+00  0.00000000E+00  0.00000000E+00
  0.00000000E+00  0.00000000E+00  0.00000000E+00
  0.00000000E+00  0.00000000E+00  0.00000000E+00
  0.00000000E+00  0.00000000E+00  0.00000000E+00
  0.00000000E+00  0.00000000E+00  0.00000000E+00
  0.00000000E+00  0.00000000E+00  0.00000000E+00
  0.00000000E+00  0.00000000E+00  0.00000000E+00
  0.00000000E+00  0.00000000E+00  0.00000000E+00
  0.00000000E+00  0.00000000E+00  0.00000000E+00
  0.00000000E+00  0.00000000E+00  0.00000000E+00
  0.00000000E+00  0.00000000E+00  0.00000000E+00
  0.00000000E+00  0.00000000E+00  0.00000000E+00
  0.00000000E+00  0.00000000E+00  0.00000000E+00
  0.00000000E+00  0.00000000E+00  0.00000000E+00
  0.00000000E+00  0.00000000E+00  0.00000000E+00
  0.00000000E+00  0.00000000E+00  0.00000000E+00
  0.00000000E+00  0.00000000E+00  0.00000000E+00
  0.00000000E+00  0.00000000E+00  0.00000000E+00
  0.00000000E+00  0.00000000E+00  0.00000000E+00
  0.00000000E+00  0.00000000E+00  0.00000000E+00
  0.00000000E+00  0.00000000E+00  0.00000000E+00
  0.00000000E+00  0.00000000E+00  0.00000000E+00
  0.00000000E+00  0.00000000E+00  0.00000000E+00
  0.00000000E+00  0.00000000E+00  0.00000000E+00
  0.00000000E+00  0.00000000E+00  0.00000000E+00
  0.00000000E+00  0.00000000E+00  0.00000000E+00
  0.00000000E+00  0.00000000E+00  0.00000000E+00
  0.00000000E+00  0.00000000E+00  0.00000000E+00
  0.00000000E+00  0.00000000E+00  0.00000000E+00
  0.00000000E+00  0.00000000E+00  0.00000000E+00
  0.00000000E+00  0.00000000E+00  0.00000000E+00
  0.00000000E+00  0.00000000E+00  0.00000000E+00
  0.00000000E+00  0.00000000E+00  0.00000000E+00
  0.00000000E+00  0.00000000E+00  0.00000000E+00
  0.00000000E+00  0.00000000E+00  0.00000000E+00
  0.00000000E+00  0.00000000E+00  0.00000000E+00
  0.00000000E+00  0.00000000E+00  0.00000000E+00
