Pd1 C124 N2 O1                          
   1.00000000000000     
    19.8126835178658887   -0.0296661046485911    0.0121492292469456
    -9.9320533417263306   17.0563426238774767   -0.0001114229617214
     0.0182457164933922    0.0104429339439009   29.8024443469671780
   Pd   C    N    O 
     1   124     2     1
Direct
  0.4372315612395942  0.4998353319719953  0.4262477964488502
  0.0423769822807365  0.0843850362491024  0.3998484828486610
  0.0418861191273507  0.2087442154576519  0.3997543541029160
  0.0410986014485790  0.3332856866595751  0.3993127218717395
  0.0406671441349447  0.4584793481778839  0.3990393945173494
  0.0410866585962213  0.5838589645432150  0.3990592991462276
  0.0415998029035305  0.7091870603750037  0.3992273658683194
  0.0419079738180516  0.8343777478015002  0.3993858676243817
  0.0422607227064085  0.9595832131782445  0.3996128613057857
  0.1681920362552816  0.0857950158796801  0.4005263496336315
  0.1683714702249790  0.2108488428934572  0.4010077613336435
  0.1666620291099085  0.3346758356518476  0.4002558675915485
  0.1645525671414697  0.4590830694767317  0.3996224105134781
  0.1649601953907763  0.5841592260230324  0.3992846876098237
  0.1659396723529508  0.7093176419131402  0.3993609849561026
  0.1666215031906545  0.8345619204685875  0.3994670782794162
  0.1672672838769203  0.9599811960036797  0.3997832892663886
  0.2926643799209336  0.0853378155596655  0.4005997340457142
  0.2945764018323135  0.2124676737333089  0.4028581166487573
  0.2948183164015248  0.3386253139199662  0.4036435909304559
  0.2888227890539924  0.4608499671756000  0.4021145321353283
  0.2885148525638775  0.5849381251770195  0.4014089706442129
  0.2902096532271451  0.7094121447586114  0.4002183872811776
  0.2912620906147798  0.8343165562744956  0.3995861824239607
  0.2918934058183038  0.9595611557154380  0.3996278505566992
  0.4171279585181858  0.0837653951625952  0.3998471086429839
  0.4179730749001298  0.2094041244166784  0.4015555319174358
  0.4215082193077171  0.3371291156962092  0.4064326117317890
  0.4142627211699878  0.7071636009251174  0.4029850393918097
  0.4158414621854502  0.8328813430424341  0.4002824263735705
  0.4165161358048374  0.9583181467207142  0.3995777855373256
  0.5417465201661739  0.0823509306327634  0.3995439301944156
  0.5424112002733541  0.2074778014403697  0.4000133080837209
  0.5437848514933422  0.3322495029997610  0.4016955474322597
  0.5453892357090359  0.4556084330010817  0.4043710561477689
  0.5441255531942190  0.5786704982192302  0.4056047402336831
  0.5377328027547827  0.7031367351505871  0.4051711502942596
  0.5401673817684147  0.8309128157495816  0.4017425582083574
  0.5411353440456539  0.9569104682485240  0.3999455336123607
  0.6663815029241851  0.0818517625786754  0.3996073019674352
  0.6670152349890047  0.2071731118676485  0.3994818787198519
  0.6679065431950243  0.3323741948602784  0.3995469167544099
  0.6692325157206308  0.4575934453035916  0.3997311587252033
  0.6687750545923453  0.5819927294533317  0.4003086122220876
  0.6648099627673738  0.7051932205438383  0.4014464743354608
  0.6644319962975488  0.8301766645314393  0.4014656885461944
  0.6656976949140854  0.9563185692354119  0.4003028591752728
  0.7911802779954061  0.0819515024740766  0.3995487080576421
  0.7916127291438375  0.2072028001821411  0.3993507845045390
  0.7921838915953004  0.3325472596003637  0.3991890204311916
  0.7928747948882994  0.4579374835798364  0.3990195154736375
  0.7931122159062521  0.5832051130423606  0.3991821533325530
  0.7917543685966263  0.7077748911960776  0.3996663591895789
  0.7905868531435627  0.8318748749774928  0.4001241279139020
  0.7905557368142642  0.9566216120428059  0.3998950590695865
  0.9164221210174126  0.0827799577816929  0.3994902852046635
  0.9164262341150101  0.2076260410927136  0.3993147814751544
  0.9164665463500344  0.3327750990199554  0.3991291674950818
  0.9167311224618132  0.4581725763769378  0.3990009498379383
  0.9171611951830974  0.5836110264940945  0.3990433463269889
  0.9170056620642076  0.7087980786561869  0.3992161929469167
  0.9167134056607251  0.8336148948429229  0.3994692967324577
  0.9164452830599563  0.9581562777357198  0.3995684380107098
  0.0844354513935932  0.0433626093064650  0.3999392932247181
  0.0844096381957044  0.1680972316736235  0.4001585280188307
  0.0832311756209345  0.2922154478809935  0.3996876627576967
  0.0818592445265795  0.4168075651467249  0.3992211992601501
  0.0820746074701338  0.5420652729595610  0.3990388607247824
  0.0827942104674341  0.6674356241845457  0.3991941001448242
  0.0833765236617733  0.7927720671752672  0.3993592766679537
  0.0838242166404630  0.9180215888896189  0.3995809263502768
  0.2092902933558823  0.0436515373489392  0.4003223946966479
  0.2105526787480238  0.1697934460434452  0.4014666091656127
  0.2101321251156745  0.2947445846944703  0.4013553720058646
  0.2062218115481653  0.4180186896126353  0.4002366759919940
  0.2057280318151969  0.5424262949515938  0.3997489016853663
  0.2070633977805678  0.6676432805319522  0.3995397775614334
  0.2079627817344583  0.7928148124189158  0.3994782223224199
  0.2086081768008269  0.9181213535896398  0.3996205087897121
  0.3338355628538786  0.0430648396331532  0.3999455806682753
  0.3348011052725453  0.1690654297962258  0.4017900235156960
  0.3372062293419129  0.2968289273073409  0.4050382648051396
  0.3310657322757916  0.4213667058006104  0.4046300567129558
  0.3295361246998886  0.5443645224255887  0.4039644445665854
  0.3311893314311540  0.6677576778530251  0.4016392701883716
  0.3325704443195156  0.7925249576966508  0.3999887767018979
  0.3332624881958515  0.9176424034712541  0.3995411855154545
  0.4584810157070937  0.0416672389800620  0.3995790743426699
  0.4591502188213543  0.1671032521064352  0.4003064294635323
  0.4606901450836737  0.2928154090558856  0.4030671234940103
  0.4533977430177367  0.6627970395118185  0.4063517493873229
  0.4570055173742253  0.7905729560651703  0.4014935142050468
  0.4578505836550470  0.9162120745124636  0.3998356137093433
  0.5830952860857481  0.0404156141985910  0.3996288204535142
  0.5837195375479324  0.1656800715146422  0.3995942153572549
  0.5847640473777675  0.2906043883605856  0.4002537446125278
  0.5864328398235656  0.4150742562583309  0.4014985252171689
  0.5861627043953930  0.5391199148894266  0.4026290588120119
  0.5801138005527148  0.6613183372688540  0.4040112991504033
  0.5803778826401380  0.7874903093114054  0.4028797447613611
  0.5823143005284958  0.9146389428097249  0.4005843341974302
  0.7077209678577575  0.0399843804978395  0.3997627955826685
  0.7083576220597622  0.1654165457603415  0.3994606962707983
  0.7090401937838232  0.2906877581527364  0.3993632695718776
  0.7099873103182418  0.4158575424467073  0.3992635580459957
  0.7104238147438778  0.5409293531021921  0.3995712817184369
  0.7083173097599097  0.6653083024267592  0.4003026557215150
  0.7066024299829572  0.7891087742569359  0.4009881603204471
  0.7067945858514431  0.9141795455935029  0.4004843239284093
  0.8327492563168908  0.0404039822751380  0.3995752654429024
  0.8330811066889537  0.1655983459563249  0.3993617970701107
  0.8333749312135147  0.2907829554065325  0.3992211790347763
  0.8338461250092181  0.4161285573923377  0.3990549254990411
  0.8342740483948817  0.5415117670434363  0.3990317841814964
  0.8338832195915181  0.6667188862862019  0.3992956730160754
  0.8331244939772021  0.7912468324853947  0.3997339452467012
  0.8326352124815776  0.9156029980348075  0.3998331260486274
  0.9585722923583074  0.0418425074153190  0.3995614193978715
  0.9583035821784824  0.1663960651319939  0.3994598426812814
  0.9579775103733582  0.2911997918812910  0.3992179412844278
  0.9577863068055744  0.4163665754574455  0.3990305943158704
  0.9582186014670711  0.5418003401996861  0.3990101356758293
  0.9584984014743797  0.6672032832797268  0.3991447918170838
  0.9585638084454877  0.7923590276667766  0.3993288727709118
  0.9586079610745347  0.9172409971740654  0.3995161168933124
  0.4087532329409110  0.5827138382143409  0.4090057469325313
  0.4661044705146409  0.4172032981420788  0.4093669563332267
  0.4414875805403757  0.5035198691707454  0.4895386441567482
 
  0.00000000E+00  0.00000000E+00  0.00000000E+00
  0.00000000E+00  0.00000000E+00  0.00000000E+00
  0.00000000E+00  0.00000000E+00  0.00000000E+00
  0.00000000E+00  0.00000000E+00  0.00000000E+00
  0.00000000E+00  0.00000000E+00  0.00000000E+00
  0.00000000E+00  0.00000000E+00  0.00000000E+00
  0.00000000E+00  0.00000000E+00  0.00000000E+00
  0.00000000E+00  0.00000000E+00  0.00000000E+00
  0.00000000E+00  0.00000000E+00  0.00000000E+00
  0.00000000E+00  0.00000000E+00  0.00000000E+00
  0.00000000E+00  0.00000000E+00  0.00000000E+00
  0.00000000E+00  0.00000000E+00  0.00000000E+00
  0.00000000E+00  0.00000000E+00  0.00000000E+00
  0.00000000E+00  0.00000000E+00  0.00000000E+00
  0.00000000E+00  0.00000000E+00  0.00000000E+00
  0.00000000E+00  0.00000000E+00  0.00000000E+00
  0.00000000E+00  0.00000000E+00  0.00000000E+00
  0.00000000E+00  0.00000000E+00  0.00000000E+00
  0.00000000E+00  0.00000000E+00  0.00000000E+00
  0.00000000E+00  0.00000000E+00  0.00000000E+00
  0.00000000E+00  0.00000000E+00  0.00000000E+00
  0.00000000E+00  0.00000000E+00  0.00000000E+00
  0.00000000E+00  0.00000000E+00  0.00000000E+00
  0.00000000E+00  0.00000000E+00  0.00000000E+00
  0.00000000E+00  0.00000000E+00  0.00000000E+00
  0.00000000E+00  0.00000000E+00  0.00000000E+00
  0.00000000E+00  0.00000000E+00  0.00000000E+00
  0.00000000E+00  0.00000000E+00  0.00000000E+00
  0.00000000E+00  0.00000000E+00  0.00000000E+00
  0.00000000E+00  0.00000000E+00  0.00000000E+00
  0.00000000E+00  0.00000000E+00  0.00000000E+00
  0.00000000E+00  0.00000000E+00  0.00000000E+00
  0.00000000E+00  0.00000000E+00  0.00000000E+00
  0.00000000E+00  0.00000000E+00  0.00000000E+00
  0.00000000E+00  0.00000000E+00  0.00000000E+00
  0.00000000E+00  0.00000000E+00  0.00000000E+00
  0.00000000E+00  0.00000000E+00  0.00000000E+00
  0.00000000E+00  0.00000000E+00  0.00000000E+00
  0.00000000E+00  0.00000000E+00  0.00000000E+00
  0.00000000E+00  0.00000000E+00  0.00000000E+00
  0.00000000E+00  0.00000000E+00  0.00000000E+00
  0.00000000E+00  0.00000000E+00  0.00000000E+00
  0.00000000E+00  0.00000000E+00  0.00000000E+00
  0.00000000E+00  0.00000000E+00  0.00000000E+00
  0.00000000E+00  0.00000000E+00  0.00000000E+00
  0.00000000E+00  0.00000000E+00  0.00000000E+00
  0.00000000E+00  0.00000000E+00  0.00000000E+00
  0.00000000E+00  0.00000000E+00  0.00000000E+00
  0.00000000E+00  0.00000000E+00  0.00000000E+00
  0.00000000E+00  0.00000000E+00  0.00000000E+00
  0.00000000E+00  0.00000000E+00  0.00000000E+00
  0.00000000E+00  0.00000000E+00  0.00000000E+00
  0.00000000E+00  0.00000000E+00  0.00000000E+00
  0.00000000E+00  0.00000000E+00  0.00000000E+00
  0.00000000E+00  0.00000000E+00  0.00000000E+00
  0.00000000E+00  0.00000000E+00  0.00000000E+00
  0.00000000E+00  0.00000000E+00  0.00000000E+00
  0.00000000E+00  0.00000000E+00  0.00000000E+00
  0.00000000E+00  0.00000000E+00  0.00000000E+00
  0.00000000E+00  0.00000000E+00  0.00000000E+00
  0.00000000E+00  0.00000000E+00  0.00000000E+00
  0.00000000E+00  0.00000000E+00  0.00000000E+00
  0.00000000E+00  0.00000000E+00  0.00000000E+00
  0.00000000E+00  0.00000000E+00  0.00000000E+00
  0.00000000E+00  0.00000000E+00  0.00000000E+00
  0.00000000E+00  0.00000000E+00  0.00000000E+00
  0.00000000E+00  0.00000000E+00  0.00000000E+00
  0.00000000E+00  0.00000000E+00  0.00000000E+00
  0.00000000E+00  0.00000000E+00  0.00000000E+00
  0.00000000E+00  0.00000000E+00  0.00000000E+00
  0.00000000E+00  0.00000000E+00  0.00000000E+00
  0.00000000E+00  0.00000000E+00  0.00000000E+00
  0.00000000E+00  0.00000000E+00  0.00000000E+00
  0.00000000E+00  0.00000000E+00  0.00000000E+00
  0.00000000E+00  0.00000000E+00  0.00000000E+00
  0.00000000E+00  0.00000000E+00  0.00000000E+00
  0.00000000E+00  0.00000000E+00  0.00000000E+00
  0.00000000E+00  0.00000000E+00  0.00000000E+00
  0.00000000E+00  0.00000000E+00  0.00000000E+00
  0.00000000E+00  0.00000000E+00  0.00000000E+00
  0.00000000E+00  0.00000000E+00  0.00000000E+00
  0.00000000E+00  0.00000000E+00  0.00000000E+00
  0.00000000E+00  0.00000000E+00  0.00000000E+00
  0.00000000E+00  0.00000000E+00  0.00000000E+00
  0.00000000E+00  0.00000000E+00  0.00000000E+00
  0.00000000E+00  0.00000000E+00  0.00000000E+00
  0.00000000E+00  0.00000000E+00  0.00000000E+00
  0.00000000E+00  0.00000000E+00  0.00000000E+00
  0.00000000E+00  0.00000000E+00  0.00000000E+00
  0.00000000E+00  0.00000000E+00  0.00000000E+00
  0.00000000E+00  0.00000000E+00  0.00000000E+00
  0.00000000E+00  0.00000000E+00  0.00000000E+00
  0.00000000E+00  0.00000000E+00  0.00000000E+00
  0.00000000E+00  0.00000000E+00  0.00000000E+00
  0.00000000E+00  0.00000000E+00  0.00000000E+00
  0.00000000E+00  0.00000000E+00  0.00000000E+00
  0.00000000E+00  0.00000000E+00  0.00000000E+00
  0.00000000E+00  0.00000000E+00  0.00000000E+00
  0.00000000E+00  0.00000000E+00  0.00000000E+00
  0.00000000E+00  0.00000000E+00  0.00000000E+00
  0.00000000E+00  0.00000000E+00  0.00000000E+00
  0.00000000E+00  0.00000000E+00  0.00000000E+00
  0.00000000E+00  0.00000000E+00  0.00000000E+00
  0.00000000E+00  0.00000000E+00  0.00000000E+00
  0.00000000E+00  0.00000000E+00  0.00000000E+00
  0.00000000E+00  0.00000000E+00  0.00000000E+00
  0.00000000E+00  0.00000000E+00  0.00000000E+00
  0.00000000E+00  0.00000000E+00  0.00000000E+00
  0.00000000E+00  0.00000000E+00  0.00000000E+00
  0.00000000E+00  0.00000000E+00  0.00000000E+00
  0.00000000E+00  0.00000000E+00  0.00000000E+00
  0.00000000E+00  0.00000000E+00  0.00000000E+00
  0.00000000E+00  0.00000000E+00  0.00000000E+00
  0.00000000E+00  0.00000000E+00  0.00000000E+00
  0.00000000E+00  0.00000000E+00  0.00000000E+00
  0.00000000E+00  0.00000000E+00  0.00000000E+00
  0.00000000E+00  0.00000000E+00  0.00000000E+00
  0.00000000E+00  0.00000000E+00  0.00000000E+00
  0.00000000E+00  0.00000000E+00  0.00000000E+00
  0.00000000E+00  0.00000000E+00  0.00000000E+00
  0.00000000E+00  0.00000000E+00  0.00000000E+00
  0.00000000E+00  0.00000000E+00  0.00000000E+00
  0.00000000E+00  0.00000000E+00  0.00000000E+00
  0.00000000E+00  0.00000000E+00  0.00000000E+00
  0.00000000E+00  0.00000000E+00  0.00000000E+00
  0.00000000E+00  0.00000000E+00  0.00000000E+00
  0.00000000E+00  0.00000000E+00  0.00000000E+00
  0.00000000E+00  0.00000000E+00  0.00000000E+00
