Pd1 C125 N1 O1                          
   1.00000000000000     
    19.8016004600995288   -0.0232558669178923    0.2355500278165621
    -9.9212413470448286   17.0661175962747826   -0.0438932681745556
     0.3547035389219871    0.1297986651202136   29.8011749791998319
   Pd   C    N    O 
     1   125     1     1
Direct
  0.4361946782713627  0.4986543499436954  0.4304530747556248
  0.0417207301303377  0.0839772238156442  0.3997469622554717
  0.0413191180067555  0.2084400867452003  0.3996547319770793
  0.0409015540321755  0.3330421144455288  0.3993305095405985
  0.0407691344296507  0.4582861862416639  0.3994031835390425
  0.0411159096831027  0.5836361848915868  0.3996211220966910
  0.0415672090808121  0.7089259675080054  0.3994555685294141
  0.0417973840507254  0.8341699646154747  0.3994417378234264
  0.0418694523347623  0.9592437545474916  0.3996331055574451
  0.1672633061464222  0.0850251204458394  0.4003026368949037
  0.1673344525628168  0.2100330639079593  0.4004052855677597
  0.1664605289799651  0.3342648401812360  0.3991256409142913
  0.1650099556484235  0.4586758444540959  0.3984322187577475
  0.1651601120468886  0.5837616163795468  0.3991180275632591
  0.1659230513801281  0.7090298819179824  0.3996633553829190
  0.1665194925132819  0.8343041404350554  0.3995613874409076
  0.1669438644873317  0.9596283684973715  0.3998008806733320
  0.2921397665503518  0.0848767815967554  0.4005026740142331
  0.2929352824088284  0.2111137100718926  0.4025472887832500
  0.2935292330617116  0.3373581436746789  0.4026285990173458
  0.2900354801582612  0.4599287409672820  0.3992461897375217
  0.2888897432844557  0.5846399648434834  0.3988358470524641
  0.2902244447684865  0.7092169057254811  0.3996478415467632
  0.2911252292511776  0.8341134822872466  0.3996432299161484
  0.2916170857263627  0.9593208875122253  0.3995425623382871
  0.4167481232329467  0.0837035566445353  0.3995695537449459
  0.4172674788524467  0.2091827679030572  0.4014565950887535
  0.4186281112340486  0.3355507173709963  0.4076231714231605
  0.4142607659350914  0.7075907915211581  0.4014050188524286
  0.4156747881107828  0.8330329061996921  0.4001047398163524
  0.4162703477513935  0.9583569383423060  0.3993926858627986
  0.5413762297537099  0.0824914566388663  0.3992837110364655
  0.5419372725262805  0.2076533747064128  0.3996443236474978
  0.5427805429756730  0.3325393769156901  0.4018251910789070
  0.5452452466318654  0.4567352907388506  0.4074608768339052
  0.5461577743211052  0.5802018145298440  0.4102470340932452
  0.5375992456208943  0.7036186595024357  0.4051948097746577
  0.5399525549641271  0.8311140377624918  0.4016048135822602
  0.5408814106212018  0.9570425908641229  0.3998295692145835
  0.6660340519887423  0.0819724040967399  0.3994327124881442
  0.6665586774215952  0.2072699654309494  0.3992141286498243
  0.6672422352618682  0.3324049545066815  0.3990634356629378
  0.6687199625725192  0.4576626889593048  0.3995895907422205
  0.6694899492220086  0.5830796917068697  0.4011322978562405
  0.6650737945148134  0.7056436644098000  0.4025656940049435
  0.6643750564279249  0.8304516643065178  0.4019038627155321
  0.6654319546505993  0.9564612989193321  0.4003292137659745
  0.7908131680647371  0.0820011543514732  0.3996269254279643
  0.7911739181060771  0.2072230904190189  0.3994879900858732
  0.7917334545535967  0.3325422152895224  0.3991143769439554
  0.7925794389080814  0.4579636886748894  0.3984770460405940
  0.7930652342140154  0.5832873015892667  0.3985783115020236
  0.7921371116295872  0.7082460791956248  0.3994645783030061
  0.7905358027030573  0.8320248009299924  0.3998750350958363
  0.7903031437826251  0.9567038456976584  0.3998931435306203
  0.9159613413032792  0.0826482744113724  0.3996809835379145
  0.9159943130531472  0.2075631097510100  0.3997446008294350
  0.9161775767374265  0.3327207935247854  0.3996728992758807
  0.9165813626019930  0.4580325040913314  0.3993882944728255
  0.9170870275696987  0.5834795383265381  0.3989773277673904
  0.9170646980875687  0.7087941609972536  0.3989142295580971
  0.9167129001695463  0.8336171689351342  0.3992206095866866
  0.9161275542690513  0.9580211857627042  0.3994611576051529
  0.0837260193052392  0.0428229822958058  0.3998448518244647
  0.0836100695669480  0.1675464929225329  0.3998349331801381
  0.0828467431769274  0.2918855182224277  0.3992787716253375
  0.0821402032467573  0.4166364967231066  0.3990327997223146
  0.0822061800725921  0.5418090179118892  0.3994212191335443
  0.0828070234412217  0.6671684550106104  0.3996363242469028
  0.0833093092279913  0.7925341425478996  0.3994973024394858
  0.0835328480157806  0.9177206137751099  0.3996507043277286
  0.2087455250173117  0.0431490712476805  0.4002410682543323
  0.2091580773284039  0.1687083368232082  0.4009715226127369
  0.2092664045564809  0.2938641408039996  0.4003936199840622
  0.2068886094814781  0.4176247931281412  0.3984098437941223
  0.2060896913795698  0.5420669661521330  0.3984846921732703
  0.2071551371688552  0.6673244056704151  0.3994538282305999
  0.2078793984806722  0.7925139946931204  0.3996366916475633
  0.2083786804254301  0.9177942564659894  0.3996124257057324
  0.3334599325996857  0.0427476420910401  0.3997951380393517
  0.3340399543621853  0.1683856234714769  0.4017134093947738
  0.3348054242137176  0.2945231155984844  0.4049846796165612
  0.3325793441802405  0.4205488836710569  0.4022222279036063
  0.3308131178815483  0.5444993031121885  0.3999338079906424
  0.3313409874675043  0.6675211864576216  0.3998776157172361
  0.3324713139483497  0.7923610448973554  0.3998408726059495
  0.3330518513527111  0.9174337745118545  0.3994647593478569
  0.4581652617530165  0.0416687135720161  0.3993000610502939
  0.4586368005337514  0.1669941561728418  0.3999929569002394
  0.4595396780425542  0.2925484563579162  0.4034052830808768
  0.4639316811187731  0.4172538605008846  0.4130223521204631
  0.4533555038765578  0.6633261534098726  0.4038787898864671
  0.4569197165581926  0.7908820590060299  0.4010552927066531
  0.4576288834683069  0.9162971801541824  0.3997251821149219
  0.5827695255745957  0.0405167837103276  0.3994210402653527
  0.5833154004001049  0.1658326450225431  0.3992946913156576
  0.5840584523319562  0.2908130789218730  0.3999031045652282
  0.5858218721738095  0.4154213259397179  0.4022136234701030
  0.5872458085125244  0.5406020859139521  0.4062611286152767
  0.5801275907969943  0.6617852884411752  0.4061723416157323
  0.5802400026458799  0.7876472186342922  0.4030454195222309
  0.5820820088119459  0.9147879006229035  0.4005536801584106
  0.7074041426704937  0.0400619939846093  0.3996880624972128
  0.7079417788191381  0.1655062606299404  0.3993201524999405
  0.7085012797862553  0.2907101068342243  0.3990128478820686
  0.7095788404913841  0.4159866942814401  0.3986886551998020
  0.7104033235766228  0.5412272082119308  0.3993271199993251
  0.7087392771566066  0.6660287247233743  0.4008885977425332
  0.7065550370777498  0.7893695607692083  0.4013250298525721
  0.7065753515817195  0.9142955474492767  0.4006543672711316
  0.8323596390398846  0.0403956206351108  0.3996860051444469
  0.8326319009203729  0.1655780506175579  0.3996279108462836
  0.8330305895614122  0.2908366589327500  0.3994892352099546
  0.8336202355791701  0.4161180894063611  0.3989466092425551
  0.8341854487021443  0.5414847050124428  0.3985008518437548
  0.8339507748205884  0.6668850477129314  0.3988294438540936
  0.8332503192145433  0.7914861996223410  0.3994055340315215
  0.8323784729738412  0.9155991937155169  0.3996314643518272
  0.9580171837439698  0.0415894929978983  0.3996071749890161
  0.9577935307004904  0.1662168394872982  0.3997387524622375
  0.9576676132439168  0.2910842047190310  0.3996930376429645
  0.9577410586190558  0.4162693851821178  0.3996212710166580
  0.9581988725577645  0.5416874365070715  0.3993986728467162
  0.9584991607012913  0.6670633495020886  0.3991004154251760
  0.9585243249148034  0.7922624329647779  0.3991866853088428
  0.9583319546268976  0.9170803940556908  0.3994097768870029
  0.4094708681191827  0.5834295254193073  0.4039214462207394
  0.4798311689644453  0.5234062624633465  0.4871636216504718
 
  0.00000000E+00  0.00000000E+00  0.00000000E+00
  0.00000000E+00  0.00000000E+00  0.00000000E+00
  0.00000000E+00  0.00000000E+00  0.00000000E+00
  0.00000000E+00  0.00000000E+00  0.00000000E+00
  0.00000000E+00  0.00000000E+00  0.00000000E+00
  0.00000000E+00  0.00000000E+00  0.00000000E+00
  0.00000000E+00  0.00000000E+00  0.00000000E+00
  0.00000000E+00  0.00000000E+00  0.00000000E+00
  0.00000000E+00  0.00000000E+00  0.00000000E+00
  0.00000000E+00  0.00000000E+00  0.00000000E+00
  0.00000000E+00  0.00000000E+00  0.00000000E+00
  0.00000000E+00  0.00000000E+00  0.00000000E+00
  0.00000000E+00  0.00000000E+00  0.00000000E+00
  0.00000000E+00  0.00000000E+00  0.00000000E+00
  0.00000000E+00  0.00000000E+00  0.00000000E+00
  0.00000000E+00  0.00000000E+00  0.00000000E+00
  0.00000000E+00  0.00000000E+00  0.00000000E+00
  0.00000000E+00  0.00000000E+00  0.00000000E+00
  0.00000000E+00  0.00000000E+00  0.00000000E+00
  0.00000000E+00  0.00000000E+00  0.00000000E+00
  0.00000000E+00  0.00000000E+00  0.00000000E+00
  0.00000000E+00  0.00000000E+00  0.00000000E+00
  0.00000000E+00  0.00000000E+00  0.00000000E+00
  0.00000000E+00  0.00000000E+00  0.00000000E+00
  0.00000000E+00  0.00000000E+00  0.00000000E+00
  0.00000000E+00  0.00000000E+00  0.00000000E+00
  0.00000000E+00  0.00000000E+00  0.00000000E+00
  0.00000000E+00  0.00000000E+00  0.00000000E+00
  0.00000000E+00  0.00000000E+00  0.00000000E+00
  0.00000000E+00  0.00000000E+00  0.00000000E+00
  0.00000000E+00  0.00000000E+00  0.00000000E+00
  0.00000000E+00  0.00000000E+00  0.00000000E+00
  0.00000000E+00  0.00000000E+00  0.00000000E+00
  0.00000000E+00  0.00000000E+00  0.00000000E+00
  0.00000000E+00  0.00000000E+00  0.00000000E+00
  0.00000000E+00  0.00000000E+00  0.00000000E+00
  0.00000000E+00  0.00000000E+00  0.00000000E+00
  0.00000000E+00  0.00000000E+00  0.00000000E+00
  0.00000000E+00  0.00000000E+00  0.00000000E+00
  0.00000000E+00  0.00000000E+00  0.00000000E+00
  0.00000000E+00  0.00000000E+00  0.00000000E+00
  0.00000000E+00  0.00000000E+00  0.00000000E+00
  0.00000000E+00  0.00000000E+00  0.00000000E+00
  0.00000000E+00  0.00000000E+00  0.00000000E+00
  0.00000000E+00  0.00000000E+00  0.00000000E+00
  0.00000000E+00  0.00000000E+00  0.00000000E+00
  0.00000000E+00  0.00000000E+00  0.00000000E+00
  0.00000000E+00  0.00000000E+00  0.00000000E+00
  0.00000000E+00  0.00000000E+00  0.00000000E+00
  0.00000000E+00  0.00000000E+00  0.00000000E+00
  0.00000000E+00  0.00000000E+00  0.00000000E+00
  0.00000000E+00  0.00000000E+00  0.00000000E+00
  0.00000000E+00  0.00000000E+00  0.00000000E+00
  0.00000000E+00  0.00000000E+00  0.00000000E+00
  0.00000000E+00  0.00000000E+00  0.00000000E+00
  0.00000000E+00  0.00000000E+00  0.00000000E+00
  0.00000000E+00  0.00000000E+00  0.00000000E+00
  0.00000000E+00  0.00000000E+00  0.00000000E+00
  0.00000000E+00  0.00000000E+00  0.00000000E+00
  0.00000000E+00  0.00000000E+00  0.00000000E+00
  0.00000000E+00  0.00000000E+00  0.00000000E+00
  0.00000000E+00  0.00000000E+00  0.00000000E+00
  0.00000000E+00  0.00000000E+00  0.00000000E+00
  0.00000000E+00  0.00000000E+00  0.00000000E+00
  0.00000000E+00  0.00000000E+00  0.00000000E+00
  0.00000000E+00  0.00000000E+00  0.00000000E+00
  0.00000000E+00  0.00000000E+00  0.00000000E+00
  0.00000000E+00  0.00000000E+00  0.00000000E+00
  0.00000000E+00  0.00000000E+00  0.00000000E+00
  0.00000000E+00  0.00000000E+00  0.00000000E+00
  0.00000000E+00  0.00000000E+00  0.00000000E+00
  0.00000000E+00  0.00000000E+00  0.00000000E+00
  0.00000000E+00  0.00000000E+00  0.00000000E+00
  0.00000000E+00  0.00000000E+00  0.00000000E+00
  0.00000000E+00  0.00000000E+00  0.00000000E+00
  0.00000000E+00  0.00000000E+00  0.00000000E+00
  0.00000000E+00  0.00000000E+00  0.00000000E+00
  0.00000000E+00  0.00000000E+00  0.00000000E+00
  0.00000000E+00  0.00000000E+00  0.00000000E+00
  0.00000000E+00  0.00000000E+00  0.00000000E+00
  0.00000000E+00  0.00000000E+00  0.00000000E+00
  0.00000000E+00  0.00000000E+00  0.00000000E+00
  0.00000000E+00  0.00000000E+00  0.00000000E+00
  0.00000000E+00  0.00000000E+00  0.00000000E+00
  0.00000000E+00  0.00000000E+00  0.00000000E+00
  0.00000000E+00  0.00000000E+00  0.00000000E+00
  0.00000000E+00  0.00000000E+00  0.00000000E+00
  0.00000000E+00  0.00000000E+00  0.00000000E+00
  0.00000000E+00  0.00000000E+00  0.00000000E+00
  0.00000000E+00  0.00000000E+00  0.00000000E+00
  0.00000000E+00  0.00000000E+00  0.00000000E+00
  0.00000000E+00  0.00000000E+00  0.00000000E+00
  0.00000000E+00  0.00000000E+00  0.00000000E+00
  0.00000000E+00  0.00000000E+00  0.00000000E+00
  0.00000000E+00  0.00000000E+00  0.00000000E+00
  0.00000000E+00  0.00000000E+00  0.00000000E+00
  0.00000000E+00  0.00000000E+00  0.00000000E+00
  0.00000000E+00  0.00000000E+00  0.00000000E+00
  0.00000000E+00  0.00000000E+00  0.00000000E+00
  0.00000000E+00  0.00000000E+00  0.00000000E+00
  0.00000000E+00  0.00000000E+00  0.00000000E+00
  0.00000000E+00  0.00000000E+00  0.00000000E+00
  0.00000000E+00  0.00000000E+00  0.00000000E+00
  0.00000000E+00  0.00000000E+00  0.00000000E+00
  0.00000000E+00  0.00000000E+00  0.00000000E+00
  0.00000000E+00  0.00000000E+00  0.00000000E+00
  0.00000000E+00  0.00000000E+00  0.00000000E+00
  0.00000000E+00  0.00000000E+00  0.00000000E+00
  0.00000000E+00  0.00000000E+00  0.00000000E+00
  0.00000000E+00  0.00000000E+00  0.00000000E+00
  0.00000000E+00  0.00000000E+00  0.00000000E+00
  0.00000000E+00  0.00000000E+00  0.00000000E+00
  0.00000000E+00  0.00000000E+00  0.00000000E+00
  0.00000000E+00  0.00000000E+00  0.00000000E+00
  0.00000000E+00  0.00000000E+00  0.00000000E+00
  0.00000000E+00  0.00000000E+00  0.00000000E+00
  0.00000000E+00  0.00000000E+00  0.00000000E+00
  0.00000000E+00  0.00000000E+00  0.00000000E+00
  0.00000000E+00  0.00000000E+00  0.00000000E+00
  0.00000000E+00  0.00000000E+00  0.00000000E+00
  0.00000000E+00  0.00000000E+00  0.00000000E+00
  0.00000000E+00  0.00000000E+00  0.00000000E+00
  0.00000000E+00  0.00000000E+00  0.00000000E+00
  0.00000000E+00  0.00000000E+00  0.00000000E+00
  0.00000000E+00  0.00000000E+00  0.00000000E+00
  0.00000000E+00  0.00000000E+00  0.00000000E+00
  0.00000000E+00  0.00000000E+00  0.00000000E+00
  0.00000000E+00  0.00000000E+00  0.00000000E+00
