Pd1 C123 N3                             
   1.00000000000000     
    19.8512191269411922    0.0029694554540060    0.0041707939093126
    -9.9229309586079868   17.0371493031912422   -0.0229692492532230
     0.0061955769895119   -0.0361939488524553   29.7495757797554674
   Pd   C    N 
     1   123     3
Direct
  0.4372200248056647  0.4990594519373082  0.4071040234963363
  0.0417397852355506  0.0840541808906914  0.3999466911135499
  0.0404665943762864  0.2078961328622440  0.4001316528484795
  0.0397357671362523  0.3326389565171749  0.3997915216072121
  0.0400516856522095  0.4581362041159022  0.3992242956460222
  0.0412161389883605  0.5838812527584525  0.3990521824939506
  0.0423151728541442  0.7094817552410454  0.3993731809932132
  0.0427166973294110  0.8348754440027603  0.3995251407201619
  0.0426070051531498  0.9598518995706012  0.3995690064654688
  0.1679107081305317  0.0859011567793573  0.4005128916194522
  0.1668454411782375  0.2100302092803741  0.4014472223000965
  0.1642518765937162  0.3333492780579120  0.4016634557331159
  0.1632452625714128  0.4583545815635891  0.4006979017216742
  0.1644747297336334  0.5837358100982415  0.3996150255239156
  0.1662347995450200  0.7093042137903912  0.3992503093700012
  0.1672061729153047  0.8348908575571690  0.3995474596372616
  0.1677243732125324  0.9604962585243744  0.3997872470709740
  0.2928738107516639  0.0862102035657564  0.4005650991715113
  0.2935872533961058  0.2132747157014919  0.4023304364083848
  0.2913341771589059  0.3381017186723834  0.4040802861153024
  0.2859699489561994  0.4575939476555560  0.4038902521521348
  0.2871833074420992  0.5833608846827097  0.4018076194870110
  0.2901430563467509  0.7087809381614596  0.4001201444562366
  0.2915156381482841  0.8342526856000553  0.3994336771755881
  0.2922491041445366  0.9599987424734789  0.3996136956597581
  0.4172331520023090  0.0842719462895661  0.4000065397026284
  0.4180821452243083  0.2103329240558201  0.4016543874353626
  0.4205194894635815  0.3379203599825285  0.4046157429641760
  0.4140232877665951  0.7065231253295180  0.4020197364444371
  0.4158235720562434  0.8324413251417357  0.4002248807242827
  0.4166233979454612  0.9583550164084496  0.3995639760501608
  0.5415701306646054  0.0823665515481981  0.3995084057190399
  0.5424366499422137  0.2081338717386360  0.4002008699409875
  0.5439712227378964  0.3336927627542317  0.4021264101490247
  0.5484857528265674  0.4589926283316346  0.4049867529349437
  0.5379675320896740  0.7009169798206559  0.4037094641104237
  0.5400975243322625  0.8296935274384962  0.4012237888436140
  0.5409381390940755  0.9563189185060804  0.3999120063332711
  0.6659440757469376  0.0814799373753235  0.3996539780124406
  0.6666653125253198  0.2070990044377332  0.3993613426808498
  0.6678800198937856  0.3326204456139156  0.3998458006137730
  0.6706723331740377  0.4583847295236735  0.4011607023378999
  0.6721305698970584  0.5842292813307037  0.4025173584213871
  0.6671205016911913  0.7061748072924504  0.4025444157047876
  0.6645671168566886  0.8296702286281317  0.4014136465703755
  0.6653576362565458  0.9557297296785894  0.4002340157612267
  0.7905016123982879  0.0814242249250925  0.3996905973094930
  0.7909189772513041  0.2068319682237642  0.3996156584658045
  0.7918316336261582  0.3324294335089193  0.3991472424102381
  0.7934215884584456  0.4581750525953251  0.3991988698808727
  0.7945440422447083  0.5837910352191300  0.3998270118332621
  0.7939417655690244  0.7090690989706249  0.4004070389330247
  0.7914350324707821  0.8323006927836657  0.4004198041055310
  0.7902780887761626  0.9562515591921794  0.3999894698837430
  0.9156424840358310  0.0822233505893997  0.3995446416410255
  0.9153793668657195  0.2070497578994283  0.3994595288545711
  0.9156875556128666  0.3324365833965814  0.3992344807298206
  0.9166931196384683  0.4581054514782136  0.3990222653170410
  0.9178937940013315  0.5838987471465278  0.3990053596548891
  0.9181942695168471  0.7093370721206145  0.3992337141857001
  0.9177626060399369  0.8342500955749074  0.3994566489808576
  0.9165684681708037  0.9581797011857046  0.3995765458681116
  0.0843338648407646  0.0434685260808528  0.3999654937907277
  0.0832418525407343  0.1675314778654886  0.4004839131212281
  0.0814186623637636  0.2912437362020029  0.4004493234509243
  0.0808511166765569  0.4161962420860967  0.3997736786895698
  0.0818135051452104  0.5417961933131517  0.3991703400184452
  0.0832400169919561  0.6675285427055713  0.3991955062450176
  0.0840921193701627  0.7931429839581201  0.3996278216662077
  0.0844010825868993  0.9184833695950126  0.3996008647256046
  0.2094683098250845  0.0441212917857833  0.4002764633492014
  0.2096278242779687  0.1697069716975408  0.4014302427354890
  0.2076765580974541  0.2936099821699797  0.4024208544384673
  0.2042028682025242  0.4166343090313727  0.4020402142417887
  0.2046523905614771  0.5415800047646007  0.4005881684583494
  0.2070311914880894  0.6673276496135568  0.3995451052627683
  0.2083660587121207  0.7929235203926414  0.3993484306484121
  0.2090944350580699  0.9185238751448842  0.3996140852931356
  0.3340555625913931  0.0437010525069324  0.4000377507147935
  0.3347610928908359  0.1700790215332318  0.4015483118032607
  0.3356296619617739  0.2974481581872807  0.4039563199801138
  0.3280735788108289  0.5426469546722094  0.4037859188342043
  0.3308295353761285  0.6666566809391499  0.4013003918351790
  0.3326295610509251  0.7920657090134898  0.3998686261115245
  0.3334647254607683  0.9177291760748412  0.3994719940364057
  0.4584481964403417  0.0418079780946911  0.3996062053946682
  0.4591536277430562  0.1677306310475561  0.4005901057739425
  0.4605678279575930  0.2939150776963038  0.4028725888504465
  0.4668391934370582  0.4202234421154403  0.4062609922839721
  0.4527451997450151  0.6615042187909067  0.4037807788406614
  0.4568818052549781  0.7898899459871217  0.4011126915226490
  0.4577918878108404  0.9159124626762695  0.3998432251678185
  0.5827685600384246  0.0400329265099208  0.3995972085688750
  0.5835380223175740  0.1659112715361020  0.3995491685311344
  0.5847432804592567  0.2914253656714033  0.4006309781337007
  0.5881439436526735  0.4169056022798180  0.4027624328690492
  0.5910167545299317  0.5432833537370866  0.4047507470085714
  0.5831658028459079  0.6609241125471514  0.4042542708284864
  0.5804276041321630  0.7858164315379954  0.4021631466871634
  0.5820656731079895  0.9136806461722137  0.4004024959408462
  0.7072189889455159  0.0394453845615895  0.3998440501672059
  0.7078250490299336  0.1651136838255093  0.3995229453415975
  0.7087480964939818  0.2906682150680234  0.3992908883621427
  0.7107718111145951  0.4162556075746147  0.3999095700781171
  0.7124088610291812  0.5417451722049131  0.4010832687522662
  0.7112380964667528  0.6671420707804323  0.4018358626260678
  0.7077396773933027  0.7896876810070925  0.4014379001593534
  0.7065863426175010  0.9136809308530301  0.4004866024347694
  0.8321596472335920  0.0399681081866641  0.3996471783635151
  0.8322552652931854  0.1650908928266409  0.3996025539700022
  0.8327847505926140  0.2904794433820358  0.3993555418814761
  0.8339983246475393  0.4160775818113079  0.3990112509279717
  0.8352661743432012  0.5418230183946564  0.3991843299433813
  0.8354739748241945  0.6674517453476115  0.3997138005709292
  0.8345515176597443  0.7921954125246400  0.4000195661007385
  0.8329467496906271  0.9157629707111058  0.3999255859013899
  0.9581514049166711  0.0416371246585081  0.3996006878049024
  0.9572067121333907  0.1657223799884212  0.3995857602140921
  0.9569266580345673  0.2906725004378758  0.3993835842358412
  0.9573659000989619  0.4160805257828157  0.3990911741311139
  0.9585497723039064  0.5418481468048706  0.3990147480715277
  0.9594654609693096  0.6675392069040723  0.3991415604942041
  0.9596005766948881  0.7929317562280536  0.3993298460246927
  0.9591847717955144  0.9176739446897634  0.3994588252381295
  0.4073774404281709  0.5821427195470817  0.4051629406318397
  0.5492872588389154  0.5810153094617954  0.4059790048480371
  0.3265432634359498  0.4184291646064580  0.4053205983760121
 
  0.00000000E+00  0.00000000E+00  0.00000000E+00
  0.00000000E+00  0.00000000E+00  0.00000000E+00
  0.00000000E+00  0.00000000E+00  0.00000000E+00
  0.00000000E+00  0.00000000E+00  0.00000000E+00
  0.00000000E+00  0.00000000E+00  0.00000000E+00
  0.00000000E+00  0.00000000E+00  0.00000000E+00
  0.00000000E+00  0.00000000E+00  0.00000000E+00
  0.00000000E+00  0.00000000E+00  0.00000000E+00
  0.00000000E+00  0.00000000E+00  0.00000000E+00
  0.00000000E+00  0.00000000E+00  0.00000000E+00
  0.00000000E+00  0.00000000E+00  0.00000000E+00
  0.00000000E+00  0.00000000E+00  0.00000000E+00
  0.00000000E+00  0.00000000E+00  0.00000000E+00
  0.00000000E+00  0.00000000E+00  0.00000000E+00
  0.00000000E+00  0.00000000E+00  0.00000000E+00
  0.00000000E+00  0.00000000E+00  0.00000000E+00
  0.00000000E+00  0.00000000E+00  0.00000000E+00
  0.00000000E+00  0.00000000E+00  0.00000000E+00
  0.00000000E+00  0.00000000E+00  0.00000000E+00
  0.00000000E+00  0.00000000E+00  0.00000000E+00
  0.00000000E+00  0.00000000E+00  0.00000000E+00
  0.00000000E+00  0.00000000E+00  0.00000000E+00
  0.00000000E+00  0.00000000E+00  0.00000000E+00
  0.00000000E+00  0.00000000E+00  0.00000000E+00
  0.00000000E+00  0.00000000E+00  0.00000000E+00
  0.00000000E+00  0.00000000E+00  0.00000000E+00
  0.00000000E+00  0.00000000E+00  0.00000000E+00
  0.00000000E+00  0.00000000E+00  0.00000000E+00
  0.00000000E+00  0.00000000E+00  0.00000000E+00
  0.00000000E+00  0.00000000E+00  0.00000000E+00
  0.00000000E+00  0.00000000E+00  0.00000000E+00
  0.00000000E+00  0.00000000E+00  0.00000000E+00
  0.00000000E+00  0.00000000E+00  0.00000000E+00
  0.00000000E+00  0.00000000E+00  0.00000000E+00
  0.00000000E+00  0.00000000E+00  0.00000000E+00
  0.00000000E+00  0.00000000E+00  0.00000000E+00
  0.00000000E+00  0.00000000E+00  0.00000000E+00
  0.00000000E+00  0.00000000E+00  0.00000000E+00
  0.00000000E+00  0.00000000E+00  0.00000000E+00
  0.00000000E+00  0.00000000E+00  0.00000000E+00
  0.00000000E+00  0.00000000E+00  0.00000000E+00
  0.00000000E+00  0.00000000E+00  0.00000000E+00
  0.00000000E+00  0.00000000E+00  0.00000000E+00
  0.00000000E+00  0.00000000E+00  0.00000000E+00
  0.00000000E+00  0.00000000E+00  0.00000000E+00
  0.00000000E+00  0.00000000E+00  0.00000000E+00
  0.00000000E+00  0.00000000E+00  0.00000000E+00
  0.00000000E+00  0.00000000E+00  0.00000000E+00
  0.00000000E+00  0.00000000E+00  0.00000000E+00
  0.00000000E+00  0.00000000E+00  0.00000000E+00
  0.00000000E+00  0.00000000E+00  0.00000000E+00
  0.00000000E+00  0.00000000E+00  0.00000000E+00
  0.00000000E+00  0.00000000E+00  0.00000000E+00
  0.00000000E+00  0.00000000E+00  0.00000000E+00
  0.00000000E+00  0.00000000E+00  0.00000000E+00
  0.00000000E+00  0.00000000E+00  0.00000000E+00
  0.00000000E+00  0.00000000E+00  0.00000000E+00
  0.00000000E+00  0.00000000E+00  0.00000000E+00
  0.00000000E+00  0.00000000E+00  0.00000000E+00
  0.00000000E+00  0.00000000E+00  0.00000000E+00
  0.00000000E+00  0.00000000E+00  0.00000000E+00
  0.00000000E+00  0.00000000E+00  0.00000000E+00
  0.00000000E+00  0.00000000E+00  0.00000000E+00
  0.00000000E+00  0.00000000E+00  0.00000000E+00
  0.00000000E+00  0.00000000E+00  0.00000000E+00
  0.00000000E+00  0.00000000E+00  0.00000000E+00
  0.00000000E+00  0.00000000E+00  0.00000000E+00
  0.00000000E+00  0.00000000E+00  0.00000000E+00
  0.00000000E+00  0.00000000E+00  0.00000000E+00
  0.00000000E+00  0.00000000E+00  0.00000000E+00
  0.00000000E+00  0.00000000E+00  0.00000000E+00
  0.00000000E+00  0.00000000E+00  0.00000000E+00
  0.00000000E+00  0.00000000E+00  0.00000000E+00
  0.00000000E+00  0.00000000E+00  0.00000000E+00
  0.00000000E+00  0.00000000E+00  0.00000000E+00
  0.00000000E+00  0.00000000E+00  0.00000000E+00
  0.00000000E+00  0.00000000E+00  0.00000000E+00
  0.00000000E+00  0.00000000E+00  0.00000000E+00
  0.00000000E+00  0.00000000E+00  0.00000000E+00
  0.00000000E+00  0.00000000E+00  0.00000000E+00
  0.00000000E+00  0.00000000E+00  0.00000000E+00
  0.00000000E+00  0.00000000E+00  0.00000000E+00
  0.00000000E+00  0.00000000E+00  0.00000000E+00
  0.00000000E+00  0.00000000E+00  0.00000000E+00
  0.00000000E+00  0.00000000E+00  0.00000000E+00
  0.00000000E+00  0.00000000E+00  0.00000000E+00
  0.00000000E+00  0.00000000E+00  0.00000000E+00
  0.00000000E+00  0.00000000E+00  0.00000000E+00
  0.00000000E+00  0.00000000E+00  0.00000000E+00
  0.00000000E+00  0.00000000E+00  0.00000000E+00
  0.00000000E+00  0.00000000E+00  0.00000000E+00
  0.00000000E+00  0.00000000E+00  0.00000000E+00
  0.00000000E+00  0.00000000E+00  0.00000000E+00
  0.00000000E+00  0.00000000E+00  0.00000000E+00
  0.00000000E+00  0.00000000E+00  0.00000000E+00
  0.00000000E+00  0.00000000E+00  0.00000000E+00
  0.00000000E+00  0.00000000E+00  0.00000000E+00
  0.00000000E+00  0.00000000E+00  0.00000000E+00
  0.00000000E+00  0.00000000E+00  0.00000000E+00
  0.00000000E+00  0.00000000E+00  0.00000000E+00
  0.00000000E+00  0.00000000E+00  0.00000000E+00
  0.00000000E+00  0.00000000E+00  0.00000000E+00
  0.00000000E+00  0.00000000E+00  0.00000000E+00
  0.00000000E+00  0.00000000E+00  0.00000000E+00
  0.00000000E+00  0.00000000E+00  0.00000000E+00
  0.00000000E+00  0.00000000E+00  0.00000000E+00
  0.00000000E+00  0.00000000E+00  0.00000000E+00
  0.00000000E+00  0.00000000E+00  0.00000000E+00
  0.00000000E+00  0.00000000E+00  0.00000000E+00
  0.00000000E+00  0.00000000E+00  0.00000000E+00
  0.00000000E+00  0.00000000E+00  0.00000000E+00
  0.00000000E+00  0.00000000E+00  0.00000000E+00
  0.00000000E+00  0.00000000E+00  0.00000000E+00
  0.00000000E+00  0.00000000E+00  0.00000000E+00
  0.00000000E+00  0.00000000E+00  0.00000000E+00
  0.00000000E+00  0.00000000E+00  0.00000000E+00
  0.00000000E+00  0.00000000E+00  0.00000000E+00
  0.00000000E+00  0.00000000E+00  0.00000000E+00
  0.00000000E+00  0.00000000E+00  0.00000000E+00
  0.00000000E+00  0.00000000E+00  0.00000000E+00
  0.00000000E+00  0.00000000E+00  0.00000000E+00
  0.00000000E+00  0.00000000E+00  0.00000000E+00
  0.00000000E+00  0.00000000E+00  0.00000000E+00
  0.00000000E+00  0.00000000E+00  0.00000000E+00
  0.00000000E+00  0.00000000E+00  0.00000000E+00
  0.00000000E+00  0.00000000E+00  0.00000000E+00
  0.00000000E+00  0.00000000E+00  0.00000000E+00
