Ta1 H1 C124 N2                          
   1.00000000000000     
    19.8026990003983876   -0.0187263280238129   -0.0470899381547936
    -9.9176729343947656   17.0645296681455179   -0.0489377865520766
    -0.0709555784163166   -0.1266644892413626   29.7942481127080434
   Ta   H    C    N 
     1     1   124     2
Direct
  0.4400404984313462  0.5012954884161334  0.4305877007443857
  0.4434781694976848  0.5063166628858078  0.4912731977132483
  0.0422831201066869  0.0842314665724662  0.3997007938338539
  0.0417580337877121  0.2087209734077437  0.3995799033772756
  0.0410418927628429  0.3333096223978415  0.3997012735547688
  0.0408189827731768  0.4584306545035149  0.3996585861207655
  0.0413552015426345  0.5838011974800178  0.3997323082190058
  0.0418924604873918  0.7091177080221142  0.3998410169196977
  0.0421405112517810  0.8342837054567064  0.3999706878229118
  0.0423009536509679  0.9594114558010323  0.3999205055630046
  0.1679756210955489  0.0853085444241613  0.3997922628146126
  0.1678830048013402  0.2103043801619728  0.3996820221774472
  0.1665451819369934  0.3343918191624676  0.4002638244866533
  0.1648719060962166  0.4588132600660671  0.4004291166413297
  0.1654181330088027  0.5839074384426137  0.3998248891367125
  0.1663027429465656  0.7090089761006142  0.3998541093773767
  0.1668624593551323  0.8342608041387899  0.3999261808469443
  0.1673063782459411  0.9596334467953282  0.3999588303196900
  0.2924385537856682  0.0848463925316985  0.3998186906069647
  0.2938889974221293  0.2114919571164046  0.4002687058701745
  0.2938187283513173  0.3375664470975024  0.4011787489622388
  0.2893531705748442  0.4600756779591244  0.4022086946859741
  0.2892439249637322  0.5843366187973752  0.4015408682137414
  0.2908075965078773  0.7089947004171855  0.4000815495518643
  0.2915643643595664  0.8340269802754128  0.3997982574741898
  0.2920030272842599  0.9592877161415301  0.3998197421247626
  0.4170728761993883  0.0837798236705011  0.3997361002246969
  0.4175666997327542  0.2093801898018320  0.3998663920756478
  0.4198443914468590  0.3361802193785434  0.4016753725578071
  0.4151263088516352  0.7071741802858631  0.4005482369039255
  0.4161864224845507  0.8328677896464739  0.3997159191080423
  0.4166704493403832  0.9583377459292394  0.3997724485175980
  0.5416936832021189  0.0826928753603124  0.3997798612534408
  0.5421446462430288  0.2078388321588262  0.3998993366745253
  0.5432724255353606  0.3327077703133429  0.4008609046472199
  0.5451043451295802  0.4565303119421922  0.4016474379481381
  0.5427816257613116  0.5801164924169417  0.3998994697719646
  0.5386473373711241  0.7043271807734461  0.4004294836042958
  0.5407182891569000  0.8315952653581962  0.3998326560521577
  0.5413352973240839  0.9573357048347704  0.3998510455397354
  0.6664169780573714  0.0823319778660286  0.3999151613491871
  0.6668010495688879  0.2075391961939274  0.3998391526364140
  0.6676355627826798  0.3328367919834420  0.4001003408012367
  0.6689554626652073  0.4581303861312889  0.4006853952946183
  0.6686750175369073  0.5824965488729512  0.4003437315305692
  0.6657202004605605  0.7064075610723924  0.3990087179826690
  0.6649785365485404  0.8311068446541201  0.3994821879516893
  0.6659588659674833  0.9569648244315617  0.3999193062045925
  0.7912591921135143  0.0824253839102810  0.3999867974180585
  0.7914989416630182  0.2076156750808794  0.3999830935273300
  0.7919630625249897  0.3328727301205400  0.3997915907276580
  0.7927263606203050  0.4582267007409786  0.3998449681263226
  0.7931739007175546  0.5835268206471649  0.4000849127701062
  0.7920638695545529  0.7081238359267978  0.3998240620037447
  0.7910540854182274  0.8324226218742876  0.3996793646801757
  0.7908720092816846  0.9571342075877727  0.3998852426703171
  0.9164489895460906  0.0829839824991106  0.3998641563017230
  0.9163506776394096  0.2078385591894503  0.3998786840393695
  0.9163895966738806  0.3329949352168802  0.3998256040682062
  0.9167706124598117  0.4583777597400101  0.3997016262014044
  0.9172810205241494  0.5837271459559786  0.3997458626332062
  0.9172463003982284  0.7088684103271142  0.3999206690427701
  0.9169674411156884  0.8337361756794204  0.3999356464343397
  0.9166857198799524  0.9583998620075769  0.3999459180539303
  0.0843184204324041  0.0430611332852556  0.3997705602397509
  0.0841860796483143  0.1678393543739712  0.3995669390283217
  0.0831056931012202  0.2920729769658127  0.3997337183408766
  0.0819900954641182  0.4166802396248890  0.3997539280501669
  0.0824098406912622  0.5419617778839366  0.3996735483088869
  0.0831087614655906  0.6672659992955614  0.3998210137044961
  0.0836278085976402  0.7925497176105919  0.3999242454182438
  0.0839416945948099  0.9177669897389696  0.3999906803514578
  0.2092017772224160  0.0431818348728052  0.3998747255222576
  0.2101189532573808  0.1690697707531641  0.3998744266693405
  0.2095561370967266  0.2939084621362559  0.4000873196131277
  0.2065268870453126  0.4177125912539245  0.4011478086363223
  0.2061817103435315  0.5420192732224627  0.4004698547380569
  0.2074472942750594  0.6672789089753042  0.3998975114018986
  0.2082627142008782  0.7925108290384650  0.3998786187335271
  0.2087196585285418  0.9177706875581467  0.3999334171771368
  0.3338074218946878  0.0427716012200157  0.3997689763744705
  0.3344053025702322  0.1685515184193719  0.3999434687569604
  0.3364176286695760  0.2958415008633120  0.4011806079607769
  0.3326681742440452  0.4204838547570419  0.4029537634939069
  0.3300076386680856  0.5436206639739288  0.4030317488114150
  0.3318717205808427  0.6674467724263665  0.4008357285653125
  0.3329744150855769  0.7922560006705676  0.3998055728017008
  0.3334431877330475  0.9173800514893515  0.3997790425665369
  0.4584868940464145  0.0417427739873323  0.3997718517138574
  0.4589614473006273  0.1672082327420390  0.3997671543067031
  0.4599860037991145  0.2928939795657003  0.4005037464212765
  0.4552261010887333  0.6638119700517826  0.4019278146433156
  0.4575470598425816  0.7906919407208598  0.3997677240802953
  0.4580878701138718  0.9163101385366826  0.3997611399581583
  0.5831595496080951  0.0408200943957130  0.3998446696756278
  0.5835433730842278  0.1660488276685243  0.3998029946464646
  0.5843064919356621  0.2911173142999653  0.4002753881665657
  0.5859969447502980  0.4158316433671840  0.4013329817901471
  0.5857326597504235  0.5400949893836240  0.4001370777410097
  0.5815001526736917  0.6629067412557546  0.3994026154034607
  0.5812194542597026  0.7886669493235897  0.3997737741813035
  0.5827245555300338  0.9153183732972714  0.3998898192772605
  0.7078787549129425  0.0405362397474611  0.3999632383467170
  0.7082583731531713  0.1658577637974890  0.3999042086351760
  0.7087611681390481  0.2910611947187107  0.3998624841339278
  0.7097261221679307  0.4162375234093142  0.4001520317037592
  0.7103001212661300  0.5413694353950219  0.4005313014755433
  0.7086507357647078  0.6658046858559851  0.3995898326609195
  0.7073295614856653  0.7899513620260515  0.3992779152733865
  0.7071893849250321  0.9148633293657482  0.3997687609512025
  0.8329124597084023  0.0407954834132979  0.3999563682731158
  0.8330311683360924  0.1659387967088216  0.4000080023640381
  0.8332320092114425  0.2910706083121928  0.3998824077333079
  0.8337634819533953  0.4163857403438936  0.3997323748860948
  0.8343186002619408  0.5417568274788124  0.3998628998647990
  0.8341094569768990  0.6668909094315730  0.3999916873437323
  0.8334131920676435  0.7914988944985226  0.3998082936350065
  0.8330042809817984  0.9160446365497193  0.3998862350949192
  0.9586215089635963  0.0419068824451313  0.3998527894818153
  0.9582169232377463  0.1664917135019072  0.3997331198389312
  0.9579083418928399  0.2913533841377244  0.3997751365274197
  0.9578508000576546  0.4164771137856433  0.3997188410567263
  0.9583702074536746  0.5418353732598413  0.3997075941742792
  0.9587428976116678  0.6672135182814665  0.3998147958522060
  0.9588319909789338  0.7923827809230940  0.3999406495402603
  0.9587873229107472  0.9172563511408119  0.3999494175697976
  0.4112245646672547  0.5823347624136669  0.4059051707191511
  0.4639481311928810  0.4177827959005206  0.4043491411049170
 
  0.00000000E+00  0.00000000E+00  0.00000000E+00
  0.00000000E+00  0.00000000E+00  0.00000000E+00
  0.00000000E+00  0.00000000E+00  0.00000000E+00
  0.00000000E+00  0.00000000E+00  0.00000000E+00
  0.00000000E+00  0.00000000E+00  0.00000000E+00
  0.00000000E+00  0.00000000E+00  0.00000000E+00
  0.00000000E+00  0.00000000E+00  0.00000000E+00
  0.00000000E+00  0.00000000E+00  0.00000000E+00
  0.00000000E+00  0.00000000E+00  0.00000000E+00
  0.00000000E+00  0.00000000E+00  0.00000000E+00
  0.00000000E+00  0.00000000E+00  0.00000000E+00
  0.00000000E+00  0.00000000E+00  0.00000000E+00
  0.00000000E+00  0.00000000E+00  0.00000000E+00
  0.00000000E+00  0.00000000E+00  0.00000000E+00
  0.00000000E+00  0.00000000E+00  0.00000000E+00
  0.00000000E+00  0.00000000E+00  0.00000000E+00
  0.00000000E+00  0.00000000E+00  0.00000000E+00
  0.00000000E+00  0.00000000E+00  0.00000000E+00
  0.00000000E+00  0.00000000E+00  0.00000000E+00
  0.00000000E+00  0.00000000E+00  0.00000000E+00
  0.00000000E+00  0.00000000E+00  0.00000000E+00
  0.00000000E+00  0.00000000E+00  0.00000000E+00
  0.00000000E+00  0.00000000E+00  0.00000000E+00
  0.00000000E+00  0.00000000E+00  0.00000000E+00
  0.00000000E+00  0.00000000E+00  0.00000000E+00
  0.00000000E+00  0.00000000E+00  0.00000000E+00
  0.00000000E+00  0.00000000E+00  0.00000000E+00
  0.00000000E+00  0.00000000E+00  0.00000000E+00
  0.00000000E+00  0.00000000E+00  0.00000000E+00
  0.00000000E+00  0.00000000E+00  0.00000000E+00
  0.00000000E+00  0.00000000E+00  0.00000000E+00
  0.00000000E+00  0.00000000E+00  0.00000000E+00
  0.00000000E+00  0.00000000E+00  0.00000000E+00
  0.00000000E+00  0.00000000E+00  0.00000000E+00
  0.00000000E+00  0.00000000E+00  0.00000000E+00
  0.00000000E+00  0.00000000E+00  0.00000000E+00
  0.00000000E+00  0.00000000E+00  0.00000000E+00
  0.00000000E+00  0.00000000E+00  0.00000000E+00
  0.00000000E+00  0.00000000E+00  0.00000000E+00
  0.00000000E+00  0.00000000E+00  0.00000000E+00
  0.00000000E+00  0.00000000E+00  0.00000000E+00
  0.00000000E+00  0.00000000E+00  0.00000000E+00
  0.00000000E+00  0.00000000E+00  0.00000000E+00
  0.00000000E+00  0.00000000E+00  0.00000000E+00
  0.00000000E+00  0.00000000E+00  0.00000000E+00
  0.00000000E+00  0.00000000E+00  0.00000000E+00
  0.00000000E+00  0.00000000E+00  0.00000000E+00
  0.00000000E+00  0.00000000E+00  0.00000000E+00
  0.00000000E+00  0.00000000E+00  0.00000000E+00
  0.00000000E+00  0.00000000E+00  0.00000000E+00
  0.00000000E+00  0.00000000E+00  0.00000000E+00
  0.00000000E+00  0.00000000E+00  0.00000000E+00
  0.00000000E+00  0.00000000E+00  0.00000000E+00
  0.00000000E+00  0.00000000E+00  0.00000000E+00
  0.00000000E+00  0.00000000E+00  0.00000000E+00
  0.00000000E+00  0.00000000E+00  0.00000000E+00
  0.00000000E+00  0.00000000E+00  0.00000000E+00
  0.00000000E+00  0.00000000E+00  0.00000000E+00
  0.00000000E+00  0.00000000E+00  0.00000000E+00
  0.00000000E+00  0.00000000E+00  0.00000000E+00
  0.00000000E+00  0.00000000E+00  0.00000000E+00
  0.00000000E+00  0.00000000E+00  0.00000000E+00
  0.00000000E+00  0.00000000E+00  0.00000000E+00
  0.00000000E+00  0.00000000E+00  0.00000000E+00
  0.00000000E+00  0.00000000E+00  0.00000000E+00
  0.00000000E+00  0.00000000E+00  0.00000000E+00
  0.00000000E+00  0.00000000E+00  0.00000000E+00
  0.00000000E+00  0.00000000E+00  0.00000000E+00
  0.00000000E+00  0.00000000E+00  0.00000000E+00
  0.00000000E+00  0.00000000E+00  0.00000000E+00
  0.00000000E+00  0.00000000E+00  0.00000000E+00
  0.00000000E+00  0.00000000E+00  0.00000000E+00
  0.00000000E+00  0.00000000E+00  0.00000000E+00
  0.00000000E+00  0.00000000E+00  0.00000000E+00
  0.00000000E+00  0.00000000E+00  0.00000000E+00
  0.00000000E+00  0.00000000E+00  0.00000000E+00
  0.00000000E+00  0.00000000E+00  0.00000000E+00
  0.00000000E+00  0.00000000E+00  0.00000000E+00
  0.00000000E+00  0.00000000E+00  0.00000000E+00
  0.00000000E+00  0.00000000E+00  0.00000000E+00
  0.00000000E+00  0.00000000E+00  0.00000000E+00
  0.00000000E+00  0.00000000E+00  0.00000000E+00
  0.00000000E+00  0.00000000E+00  0.00000000E+00
  0.00000000E+00  0.00000000E+00  0.00000000E+00
  0.00000000E+00  0.00000000E+00  0.00000000E+00
  0.00000000E+00  0.00000000E+00  0.00000000E+00
  0.00000000E+00  0.00000000E+00  0.00000000E+00
  0.00000000E+00  0.00000000E+00  0.00000000E+00
  0.00000000E+00  0.00000000E+00  0.00000000E+00
  0.00000000E+00  0.00000000E+00  0.00000000E+00
  0.00000000E+00  0.00000000E+00  0.00000000E+00
  0.00000000E+00  0.00000000E+00  0.00000000E+00
  0.00000000E+00  0.00000000E+00  0.00000000E+00
  0.00000000E+00  0.00000000E+00  0.00000000E+00
  0.00000000E+00  0.00000000E+00  0.00000000E+00
  0.00000000E+00  0.00000000E+00  0.00000000E+00
  0.00000000E+00  0.00000000E+00  0.00000000E+00
  0.00000000E+00  0.00000000E+00  0.00000000E+00
  0.00000000E+00  0.00000000E+00  0.00000000E+00
  0.00000000E+00  0.00000000E+00  0.00000000E+00
  0.00000000E+00  0.00000000E+00  0.00000000E+00
  0.00000000E+00  0.00000000E+00  0.00000000E+00
  0.00000000E+00  0.00000000E+00  0.00000000E+00
  0.00000000E+00  0.00000000E+00  0.00000000E+00
  0.00000000E+00  0.00000000E+00  0.00000000E+00
  0.00000000E+00  0.00000000E+00  0.00000000E+00
  0.00000000E+00  0.00000000E+00  0.00000000E+00
  0.00000000E+00  0.00000000E+00  0.00000000E+00
  0.00000000E+00  0.00000000E+00  0.00000000E+00
  0.00000000E+00  0.00000000E+00  0.00000000E+00
  0.00000000E+00  0.00000000E+00  0.00000000E+00
  0.00000000E+00  0.00000000E+00  0.00000000E+00
  0.00000000E+00  0.00000000E+00  0.00000000E+00
  0.00000000E+00  0.00000000E+00  0.00000000E+00
  0.00000000E+00  0.00000000E+00  0.00000000E+00
  0.00000000E+00  0.00000000E+00  0.00000000E+00
  0.00000000E+00  0.00000000E+00  0.00000000E+00
  0.00000000E+00  0.00000000E+00  0.00000000E+00
  0.00000000E+00  0.00000000E+00  0.00000000E+00
  0.00000000E+00  0.00000000E+00  0.00000000E+00
  0.00000000E+00  0.00000000E+00  0.00000000E+00
  0.00000000E+00  0.00000000E+00  0.00000000E+00
  0.00000000E+00  0.00000000E+00  0.00000000E+00
  0.00000000E+00  0.00000000E+00  0.00000000E+00
  0.00000000E+00  0.00000000E+00  0.00000000E+00
  0.00000000E+00  0.00000000E+00  0.00000000E+00
  0.00000000E+00  0.00000000E+00  0.00000000E+00
  0.00000000E+00  0.00000000E+00  0.00000000E+00
