Fe1 C124 N2                             
   1.00000000000000     
    19.8241773863061113   -0.0047760488483287    0.0011328251848125
    -9.9163747732445593   17.0562804426718628   -0.0001323595890103
     0.0017257670641526    0.0007596917967071   29.7634584520517151
   Fe   C    N 
     1   124     2
Direct
  0.4375002219373978  0.4999985454977529  0.4056871363175794
  0.0418899691377441  0.0838077383669492  0.3996783823610897
  0.0411098144245998  0.2081898585974050  0.3994733894981137
  0.0404188119691392  0.3328645475362624  0.3993347765767425
  0.0403862966369483  0.4582338393924175  0.3994428402080587
  0.0413050961902253  0.5836297588805107  0.3997280444744352
  0.0419826127695781  0.7089046764305225  0.3998795256246885
  0.0422762246550627  0.8342174048066379  0.3999424516627358
  0.0423361015722829  0.9593304023593414  0.3998952725737343
  0.1679199016254986  0.0853473758229438  0.4001064537687840
  0.1670282335126595  0.2096212599018352  0.4004592913714329
  0.1654062307914523  0.3336599999646792  0.4005266452424657
  0.1638329498803281  0.4584021688787997  0.3997813315052981
  0.1651085353738388  0.5835919006323176  0.3994601036955491
  0.1663567937919379  0.7088481392871483  0.3997064096457967
  0.1670060122775851  0.8341750170901210  0.3999004425424415
  0.1673662809685225  0.9596401376395666  0.4000438480298621
  0.2924931953361115  0.0850396276492812  0.4001508821223406
  0.2940812936872713  0.2121186921692817  0.4014546620804081
  0.2921478734465375  0.3369137183208249  0.4029709035431450
  0.2872573517608429  0.4587625613796043  0.4029667959648090
  0.2885999639050555  0.5839740369618128  0.4011568126721989
  0.2907857806279305  0.7088591873046850  0.3998846335313607
  0.2916649382407925  0.8339317660419564  0.3997056636342557
  0.2920167321326027  0.9592612788007373  0.3998371002852650
  0.4169531445218875  0.0838363698245795  0.3997278520877397
  0.4175481419528399  0.2096768585396921  0.4007450989539195
  0.4205956262283946  0.3376197113152631  0.4028956500979953
  0.4149145250436971  0.7066633973317813  0.4015175501032970
  0.4161789213289679  0.8326602972871550  0.3999865519149893
  0.4166432064056204  0.9582639832570217  0.3995965446006558
  0.5415328829965880  0.0826759640154445  0.3997108455502780
  0.5419734229807335  0.2079030226960618  0.3997694808627401
  0.5432489350691131  0.3329105141203602  0.4008353039929173
  0.5457334389075031  0.4569205555119801  0.4028533149550835
  0.5460752336356797  0.5812899399196935  0.4042867098903796
  0.5387285001966965  0.7036977623497783  0.4027013317746858
  0.5405282622209365  0.8311540333111547  0.4007720425304139
  0.5412400579001118  0.9571880601127202  0.3998543744051946
  0.6662024283029736  0.0822735576650733  0.3999688521246831
  0.6665862343169954  0.2075977225367114  0.3997845109901098
  0.6675072746474023  0.3328877846276685  0.3995910818985872
  0.6694072517907993  0.4583575899883963  0.3999036630462312
  0.6700427539125758  0.5830817924819468  0.4009920402321873
  0.6668292032187598  0.7069246942056658  0.4012501364186992
  0.6650899546317056  0.8308896740628493  0.4006602888727470
  0.6657777337773222  0.9567686954000908  0.4000878822434717
  0.7910018527406404  0.0822569792878243  0.3999775113184312
  0.7912231415063726  0.2075346140681487  0.3999004602934734
  0.7917996631789475  0.3328754947478111  0.3997825815326771
  0.7927688155726096  0.4582588922625163  0.3994724913100718
  0.7936886408768641  0.5836059631149006  0.3992605078736548
  0.7928083298409697  0.7085555327569147  0.3994919533843360
  0.7914657263075479  0.8327301886259647  0.3997154451767964
  0.7907666625091171  0.9570295368208388  0.3998400452997265
  0.9160916686749963  0.0827097302987139  0.3997598018087397
  0.9159649057975449  0.2075762928116112  0.3997937842552040
  0.9160522922083589  0.3328474874337927  0.3998064388041665
  0.9165894534997535  0.4582107992054897  0.3997816358799406
  0.9174242314053614  0.5836539588322922  0.3997268824454807
  0.9175484009752158  0.7089211052324681  0.3996582807883833
  0.9172541273854671  0.8338114801658549  0.3996503797198702
  0.9166732895905927  0.9583012462459388  0.3996656431508872
  0.0842315991050748  0.0429678676178064  0.3998486175160071
  0.0835342778218315  0.1672727433433426  0.3997300221260696
  0.0821987735392030  0.2914496122999827  0.3995074665097951
  0.0813113259586302  0.4163952147040677  0.3992697303286965
  0.0822283966332638  0.5417363776673246  0.3994884117196222
  0.0832004543715901  0.6671297233250151  0.3997850265602054
  0.0837706568148462  0.7924627453873855  0.3999053790830417
  0.0840013252047841  0.9177421661860280  0.3999907753529861
  0.2092247683752427  0.0432316482832647  0.4000886013365299
  0.2099084026429111  0.1691078249510660  0.4006713686374610
  0.2081706519552344  0.2930781717930674  0.4012756525864227
  0.2049616808858506  0.4169228233872644  0.4010183074436174
  0.2055973564032068  0.5416442349071089  0.3999267069183960
  0.2074840052508670  0.6671069180307839  0.3995990785514311
  0.2084128912906295  0.7924040055863038  0.3997811480582507
  0.2087988914903608  0.9177275757910635  0.3999697608631393
  0.3337555711504888  0.0428106472189482  0.3998577196246104
  0.3344710762516410  0.1688397231993840  0.4007810441506438
  0.3362695483407342  0.2962945812066225  0.4027210228114900
  0.3289245097756546  0.4187089537366130  0.4043061262418500
  0.3292661528930282  0.5430765697737845  0.4028669408791830
  0.3317408530508087  0.6670819375252651  0.4008378770956723
  0.3330199818038379  0.7920959083736631  0.3997674830677222
  0.3334626676235926  0.9173221363651178  0.3997095204005113
  0.4583541447160866  0.0417332108248624  0.3995962202652768
  0.4588205434346373  0.1673383914822274  0.3999829113568044
  0.4600814814361168  0.2933352525122976  0.4015195035752865
  0.4544003944242007  0.6623779183261195  0.4028891930911385
  0.4574479348614605  0.7903228478385749  0.4007413639199421
  0.4580443584549164  0.9161617681707682  0.3997246376965646
  0.5829834724468139  0.0407394247761863  0.3998367657764979
  0.5833402578209337  0.1660673841645917  0.3997105162479063
  0.5842127498398675  0.2911385908574490  0.3998806208846623
  0.5863993049297799  0.4160279556677001  0.4011433132729166
  0.5877491578904289  0.5412364068344853  0.4029461247250076
  0.5828564782385849  0.6630877704590326  0.4029452778712981
  0.5809156187805818  0.7878792660613712  0.4014424071131104
  0.5825060679254654  0.9149589694408903  0.4001443128093216
  0.7076333352376452  0.0403618801910305  0.4000399476747431
  0.7079993103520070  0.1658279982846716  0.3999060156797914
  0.7086461275501484  0.2911553407984238  0.3997064482599431
  0.7098934232927402  0.4164080407156895  0.3994379917207920
  0.7111678606230937  0.5415947185134888  0.3997564932363098
  0.7095986723393848  0.6663443141420147  0.4005018166398861
  0.7079753220429673  0.7903807371948510  0.4004397691152194
  0.7070787239092130  0.9146502380342426  0.4001032666832685
  0.8326632646260119  0.0406689380544474  0.3998811473968625
  0.8327247229210397  0.1657895488469397  0.3999278206647856
  0.8330206368494136  0.2910994267657053  0.3998780053085243
  0.8336963552366821  0.4163696065627250  0.3997224593273686
  0.8346130496925643  0.5417670637719226  0.3994311813576745
  0.8345891680461023  0.6671391836141882  0.3993263727915505
  0.8338891666965512  0.7918096894845678  0.3994648953741966
  0.8331145896058509  0.9161947585302339  0.3996716161223884
  0.9583257152976562  0.0417026923361890  0.3996650304664487
  0.9577435228165124  0.1661877458620471  0.3996417404286344
  0.9574583780697974  0.2910822625539750  0.3996523493251882
  0.9575738329544309  0.4163477765492534  0.3997254608529738
  0.9584127700442132  0.5417921964607767  0.3997819046535626
  0.9589461149041227  0.6671502827925173  0.3998075789622534
  0.9590358919222008  0.7924228651761964  0.3998032995227349
  0.9589077544205912  0.9172904621315732  0.3997722387587345
  0.4095133637174248  0.5813469599596371  0.4039031384240728
  0.4654865902888456  0.4186500824102979  0.4038993052615618
 
  0.00000000E+00  0.00000000E+00  0.00000000E+00
  0.00000000E+00  0.00000000E+00  0.00000000E+00
  0.00000000E+00  0.00000000E+00  0.00000000E+00
  0.00000000E+00  0.00000000E+00  0.00000000E+00
  0.00000000E+00  0.00000000E+00  0.00000000E+00
  0.00000000E+00  0.00000000E+00  0.00000000E+00
  0.00000000E+00  0.00000000E+00  0.00000000E+00
  0.00000000E+00  0.00000000E+00  0.00000000E+00
  0.00000000E+00  0.00000000E+00  0.00000000E+00
  0.00000000E+00  0.00000000E+00  0.00000000E+00
  0.00000000E+00  0.00000000E+00  0.00000000E+00
  0.00000000E+00  0.00000000E+00  0.00000000E+00
  0.00000000E+00  0.00000000E+00  0.00000000E+00
  0.00000000E+00  0.00000000E+00  0.00000000E+00
  0.00000000E+00  0.00000000E+00  0.00000000E+00
  0.00000000E+00  0.00000000E+00  0.00000000E+00
  0.00000000E+00  0.00000000E+00  0.00000000E+00
  0.00000000E+00  0.00000000E+00  0.00000000E+00
  0.00000000E+00  0.00000000E+00  0.00000000E+00
  0.00000000E+00  0.00000000E+00  0.00000000E+00
  0.00000000E+00  0.00000000E+00  0.00000000E+00
  0.00000000E+00  0.00000000E+00  0.00000000E+00
  0.00000000E+00  0.00000000E+00  0.00000000E+00
  0.00000000E+00  0.00000000E+00  0.00000000E+00
  0.00000000E+00  0.00000000E+00  0.00000000E+00
  0.00000000E+00  0.00000000E+00  0.00000000E+00
  0.00000000E+00  0.00000000E+00  0.00000000E+00
  0.00000000E+00  0.00000000E+00  0.00000000E+00
  0.00000000E+00  0.00000000E+00  0.00000000E+00
  0.00000000E+00  0.00000000E+00  0.00000000E+00
  0.00000000E+00  0.00000000E+00  0.00000000E+00
  0.00000000E+00  0.00000000E+00  0.00000000E+00
  0.00000000E+00  0.00000000E+00  0.00000000E+00
  0.00000000E+00  0.00000000E+00  0.00000000E+00
  0.00000000E+00  0.00000000E+00  0.00000000E+00
  0.00000000E+00  0.00000000E+00  0.00000000E+00
  0.00000000E+00  0.00000000E+00  0.00000000E+00
  0.00000000E+00  0.00000000E+00  0.00000000E+00
  0.00000000E+00  0.00000000E+00  0.00000000E+00
  0.00000000E+00  0.00000000E+00  0.00000000E+00
  0.00000000E+00  0.00000000E+00  0.00000000E+00
  0.00000000E+00  0.00000000E+00  0.00000000E+00
  0.00000000E+00  0.00000000E+00  0.00000000E+00
  0.00000000E+00  0.00000000E+00  0.00000000E+00
  0.00000000E+00  0.00000000E+00  0.00000000E+00
  0.00000000E+00  0.00000000E+00  0.00000000E+00
  0.00000000E+00  0.00000000E+00  0.00000000E+00
  0.00000000E+00  0.00000000E+00  0.00000000E+00
  0.00000000E+00  0.00000000E+00  0.00000000E+00
  0.00000000E+00  0.00000000E+00  0.00000000E+00
  0.00000000E+00  0.00000000E+00  0.00000000E+00
  0.00000000E+00  0.00000000E+00  0.00000000E+00
  0.00000000E+00  0.00000000E+00  0.00000000E+00
  0.00000000E+00  0.00000000E+00  0.00000000E+00
  0.00000000E+00  0.00000000E+00  0.00000000E+00
  0.00000000E+00  0.00000000E+00  0.00000000E+00
  0.00000000E+00  0.00000000E+00  0.00000000E+00
  0.00000000E+00  0.00000000E+00  0.00000000E+00
  0.00000000E+00  0.00000000E+00  0.00000000E+00
  0.00000000E+00  0.00000000E+00  0.00000000E+00
  0.00000000E+00  0.00000000E+00  0.00000000E+00
  0.00000000E+00  0.00000000E+00  0.00000000E+00
  0.00000000E+00  0.00000000E+00  0.00000000E+00
  0.00000000E+00  0.00000000E+00  0.00000000E+00
  0.00000000E+00  0.00000000E+00  0.00000000E+00
  0.00000000E+00  0.00000000E+00  0.00000000E+00
  0.00000000E+00  0.00000000E+00  0.00000000E+00
  0.00000000E+00  0.00000000E+00  0.00000000E+00
  0.00000000E+00  0.00000000E+00  0.00000000E+00
  0.00000000E+00  0.00000000E+00  0.00000000E+00
  0.00000000E+00  0.00000000E+00  0.00000000E+00
  0.00000000E+00  0.00000000E+00  0.00000000E+00
  0.00000000E+00  0.00000000E+00  0.00000000E+00
  0.00000000E+00  0.00000000E+00  0.00000000E+00
  0.00000000E+00  0.00000000E+00  0.00000000E+00
  0.00000000E+00  0.00000000E+00  0.00000000E+00
  0.00000000E+00  0.00000000E+00  0.00000000E+00
  0.00000000E+00  0.00000000E+00  0.00000000E+00
  0.00000000E+00  0.00000000E+00  0.00000000E+00
  0.00000000E+00  0.00000000E+00  0.00000000E+00
  0.00000000E+00  0.00000000E+00  0.00000000E+00
  0.00000000E+00  0.00000000E+00  0.00000000E+00
  0.00000000E+00  0.00000000E+00  0.00000000E+00
  0.00000000E+00  0.00000000E+00  0.00000000E+00
  0.00000000E+00  0.00000000E+00  0.00000000E+00
  0.00000000E+00  0.00000000E+00  0.00000000E+00
  0.00000000E+00  0.00000000E+00  0.00000000E+00
  0.00000000E+00  0.00000000E+00  0.00000000E+00
  0.00000000E+00  0.00000000E+00  0.00000000E+00
  0.00000000E+00  0.00000000E+00  0.00000000E+00
  0.00000000E+00  0.00000000E+00  0.00000000E+00
  0.00000000E+00  0.00000000E+00  0.00000000E+00
  0.00000000E+00  0.00000000E+00  0.00000000E+00
  0.00000000E+00  0.00000000E+00  0.00000000E+00
  0.00000000E+00  0.00000000E+00  0.00000000E+00
  0.00000000E+00  0.00000000E+00  0.00000000E+00
  0.00000000E+00  0.00000000E+00  0.00000000E+00
  0.00000000E+00  0.00000000E+00  0.00000000E+00
  0.00000000E+00  0.00000000E+00  0.00000000E+00
  0.00000000E+00  0.00000000E+00  0.00000000E+00
  0.00000000E+00  0.00000000E+00  0.00000000E+00
  0.00000000E+00  0.00000000E+00  0.00000000E+00
  0.00000000E+00  0.00000000E+00  0.00000000E+00
  0.00000000E+00  0.00000000E+00  0.00000000E+00
  0.00000000E+00  0.00000000E+00  0.00000000E+00
  0.00000000E+00  0.00000000E+00  0.00000000E+00
  0.00000000E+00  0.00000000E+00  0.00000000E+00
  0.00000000E+00  0.00000000E+00  0.00000000E+00
  0.00000000E+00  0.00000000E+00  0.00000000E+00
  0.00000000E+00  0.00000000E+00  0.00000000E+00
  0.00000000E+00  0.00000000E+00  0.00000000E+00
  0.00000000E+00  0.00000000E+00  0.00000000E+00
  0.00000000E+00  0.00000000E+00  0.00000000E+00
  0.00000000E+00  0.00000000E+00  0.00000000E+00
  0.00000000E+00  0.00000000E+00  0.00000000E+00
  0.00000000E+00  0.00000000E+00  0.00000000E+00
  0.00000000E+00  0.00000000E+00  0.00000000E+00
  0.00000000E+00  0.00000000E+00  0.00000000E+00
  0.00000000E+00  0.00000000E+00  0.00000000E+00
  0.00000000E+00  0.00000000E+00  0.00000000E+00
  0.00000000E+00  0.00000000E+00  0.00000000E+00
  0.00000000E+00  0.00000000E+00  0.00000000E+00
  0.00000000E+00  0.00000000E+00  0.00000000E+00
  0.00000000E+00  0.00000000E+00  0.00000000E+00
  0.00000000E+00  0.00000000E+00  0.00000000E+00
  0.00000000E+00  0.00000000E+00  0.00000000E+00
  0.00000000E+00  0.00000000E+00  0.00000000E+00
