Ta1 C125 N1 O1                          
   1.00000000000000     
    19.8250112147918962   -0.0072279480379618   -0.1050468528558774
    -9.9185262300093431   17.0738651199393026   -0.1106247594714645
    -0.1571802625485046   -0.2836480673631318   29.7372331108147421
   Ta   C    N    O 
     1   125     1     1
Direct
  0.4362920064613197  0.5017143739744460  0.4375483300640524
  0.0418676165879053  0.0840132680027436  0.3995186544568459
  0.0410553173046877  0.2082976029263857  0.3992249174896464
  0.0405197574661964  0.3329663237853718  0.3987775652133597
  0.0405803720355842  0.4583771885058234  0.3988848072312573
  0.0414152076098929  0.5838710521821885  0.3992755664997461
  0.0421801811016955  0.7092602735069096  0.3993765984296303
  0.0425381016937093  0.8346334702458491  0.3995064950517979
  0.0425267412478369  0.9596568803351653  0.3995550703515507
  0.1677283122311042  0.0853680782686986  0.4002160289304610
  0.1667872282838913  0.2095249191480998  0.4000883757373095
  0.1655553943442788  0.3338364394892795  0.3992869897593076
  0.1642050060120054  0.4584942600922374  0.3982907181120266
  0.1651597380180292  0.5838261107933224  0.3986201571459908
  0.1663986641635332  0.7092565638932165  0.3992694864641678
  0.1671866878973516  0.8346976161671383  0.3997423256950526
  0.1676231581013713  0.9600974912841046  0.4000943378712953
  0.2927557661040935  0.0852769174012370  0.4002219709446991
  0.2935811059856806  0.2116458743244946  0.4022343425511584
  0.2915969290361212  0.3359693739614537  0.4041633729869725
  0.2881895925776851  0.4587366905536299  0.4020103287832515
  0.2886522625411242  0.5845045044590838  0.3993230549712946
  0.2906923785002283  0.7093544214986727  0.3989538588171371
  0.2916441377544039  0.8343156351218519  0.3991766212543777
  0.2921684594988478  0.9596236466566063  0.3996042580553126
  0.4172282358534360  0.0838895155347869  0.3993629700615303
  0.4178844236217393  0.2093370988320577  0.4003789283127758
  0.4202387676126080  0.3359919170736431  0.4068633231883259
  0.4149897205054529  0.7078052899201205  0.4006176391347266
  0.4161552496898401  0.8331648077930145  0.3992021585504800
  0.4167145899213454  0.9584993556275238  0.3991747599801019
  0.5417312305447827  0.0826442479488537  0.3992748715825755
  0.5424085990385803  0.2079028728831463  0.3990244352889494
  0.5435185357300392  0.3330210121572765  0.4001506373025112
  0.5466499551787640  0.4574611468117720  0.4058924261087883
  0.5479143552546942  0.5825600358256459  0.4105774328792465
  0.5393533512321375  0.7043541762115397  0.4042657577284686
  0.5405916714991125  0.8313971708154173  0.4004277794371763
  0.5412970422604370  0.9572106742819101  0.3993898252511488
  0.6663148836207490  0.0821076572732345  0.3995793595253792
  0.6668530827718407  0.2074343651317629  0.3991851611266691
  0.6676994196788484  0.3326683693576171  0.3983164779869307
  0.6695360195325879  0.4581042614699528  0.3980980701688617
  0.6706531884353850  0.5838864544722837  0.3994920930143143
  0.6672416598025912  0.7073537707176195  0.4004630088398044
  0.6653901375100250  0.8310767959770428  0.4003559260628278
  0.6659046425517420  0.9567239083708982  0.3997565871468666
  0.7910593716558103  0.0821300817647476  0.3996232987325322
  0.7913189906464918  0.2072869417437028  0.3995417471290192
  0.7919799820779746  0.3326855212191884  0.3989617421911794
  0.7930894795868948  0.4582653389146683  0.3980689410358081
  0.7937601667781250  0.5836360908506038  0.3975976297880959
  0.7932680105843911  0.7089316879262896  0.3980117683274689
  0.7917934847138752  0.8329312701819964  0.3986129684966340
  0.7908769303950406  0.9570775892473616  0.3992727959608824
  0.9161797910449327  0.0827704482895587  0.3994097984448336
  0.9160065298165483  0.2076059185465819  0.3994959028997517
  0.9161593409802619  0.3327683109251292  0.3993111378456096
  0.9167783832535522  0.4582007211062920  0.3990640687343446
  0.9176257713328040  0.5838003532938904  0.3986741804873686
  0.9178442492761324  0.7092506557994859  0.3984576981141284
  0.9175777556756375  0.8341182423280483  0.3986324377639128
  0.9167942743396931  0.9584485167033662  0.3990380860949084
  0.0841823851392397  0.0431356239737272  0.3997359264552597
  0.0833062459328035  0.1673211761340034  0.3994781645966212
  0.0822266531775308  0.2916300816215819  0.3988828128366341
  0.0816148486489919  0.4165937006998562  0.3984460365254933
  0.0822770707182523  0.5419485941573132  0.3989717370042370
  0.0833094165829998  0.6674452440229569  0.3993957926197894
  0.0839980489105274  0.7929498948768362  0.3996239744323687
  0.0842595356865399  0.9181925260765819  0.3998055577754672
  0.2093423505444136  0.0435575784419147  0.4002856436534564
  0.2094337767771443  0.1689544485689707  0.4007548858024240
  0.2080247886398310  0.2929202069093899  0.4005152667013259
  0.2054253035582275  0.4171415620238983  0.3991923092504889
  0.2058120187775475  0.5419993126832137  0.3983802895555393
  0.2075361665200645  0.6675039152056949  0.3988892284153961
  0.2084478386372505  0.7928113580158913  0.3994144616814250
  0.2090349934111570  0.9182089238618832  0.3999021887762544
  0.3339960057473990  0.0430357930937672  0.3996701623416484
  0.3347352799473582  0.1687809081946048  0.4010000847673328
  0.3354283309238552  0.2949942793822956  0.4054756121079178
  0.3290871696116120  0.4183066721888747  0.4063941281499726
  0.3302240281544462  0.5443869143798087  0.4021288057116419
  0.3318074792931804  0.6676277613834423  0.3995104520149346
  0.3329946510111418  0.7925288531554460  0.3990382275199802
  0.3335539409056311  0.9176476699335573  0.3992627722825388
  0.4586009864098201  0.0418012838696877  0.3992594371956130
  0.4591462585625657  0.1671335736778704  0.3993441295457939
  0.4602596122182404  0.2927102544395185  0.4018472244618360
  0.4660669918244997  0.4181711604234405  0.4124795307911864
  0.4546319792564075  0.6641622146327967  0.4037806222136037
  0.4575318408565465  0.7910833504244035  0.3999432581598979
  0.4580750072611832  0.9164291080789038  0.3991790902517025
  0.5831274417226265  0.0406613498559494  0.3994072805437852
  0.5836858589829222  0.1660207591301266  0.3991242745447433
  0.5846364767374248  0.2911036425713718  0.3988371991841921
  0.5868907425452248  0.4160629134794923  0.4003102465652947
  0.5892484503993134  0.5428256523090180  0.4051544946229625
  0.5838253023764246  0.6639973263979820  0.4050540362648498
  0.5812074137165976  0.7881610785262866  0.4015774707108809
  0.5825885624675318  0.9150044470753692  0.3997822543099223
  0.7077277780750376  0.0402447935619229  0.3996451112101231
  0.7081651428025029  0.1656142486459084  0.3995115731193890
  0.7088467659928057  0.2909096129992358  0.3987655175997542
  0.7102130903037192  0.4163691393323818  0.3978042936070713
  0.7113538189016503  0.5418197871996291  0.3978666696849009
  0.7101725972173490  0.6669659512097301  0.3990016501170946
  0.7082095791781176  0.7906294305324015  0.3995017854887307
  0.7072528864447403  0.9147332328418983  0.3997180878539670
  0.8326884033520378  0.0406137443543693  0.3994237848343676
  0.8327728158421680  0.1656426222419431  0.3996456502400396
  0.8331483500860858  0.2909078892087978  0.3993473182941330
  0.8339232515995468  0.4163043790681387  0.3987272663978637
  0.8347962335852114  0.5418208056224456  0.3980340953434874
  0.8348512449930622  0.6674021111800910  0.3978590366524050
  0.8342938958004862  0.7921610889567900  0.3982660546151551
  0.8332356331011369  0.9162365064566819  0.3989001485794202
  0.9583434518143313  0.0418155119985815  0.3993355585015157
  0.9577665412426064  0.1662424636453466  0.3993974914439207
  0.9575076893706140  0.2910653385320916  0.3992421767605351
  0.9577291809255835  0.4163409650037119  0.3992014520984491
  0.9585582107233388  0.5419250601490181  0.3990628530673665
  0.9591881261442974  0.6674565670490956  0.3988593142697029
  0.9593433035601621  0.7927343965349483  0.3988619503167937
  0.9590520826496676  0.9175403019677354  0.3990403913017820
  0.4096074189913096  0.5839282699365821  0.4061146634792771
  0.4338668581444853  0.4953660979867691  0.4966089711857339
 
  0.00000000E+00  0.00000000E+00  0.00000000E+00
  0.00000000E+00  0.00000000E+00  0.00000000E+00
  0.00000000E+00  0.00000000E+00  0.00000000E+00
  0.00000000E+00  0.00000000E+00  0.00000000E+00
  0.00000000E+00  0.00000000E+00  0.00000000E+00
  0.00000000E+00  0.00000000E+00  0.00000000E+00
  0.00000000E+00  0.00000000E+00  0.00000000E+00
  0.00000000E+00  0.00000000E+00  0.00000000E+00
  0.00000000E+00  0.00000000E+00  0.00000000E+00
  0.00000000E+00  0.00000000E+00  0.00000000E+00
  0.00000000E+00  0.00000000E+00  0.00000000E+00
  0.00000000E+00  0.00000000E+00  0.00000000E+00
  0.00000000E+00  0.00000000E+00  0.00000000E+00
  0.00000000E+00  0.00000000E+00  0.00000000E+00
  0.00000000E+00  0.00000000E+00  0.00000000E+00
  0.00000000E+00  0.00000000E+00  0.00000000E+00
  0.00000000E+00  0.00000000E+00  0.00000000E+00
  0.00000000E+00  0.00000000E+00  0.00000000E+00
  0.00000000E+00  0.00000000E+00  0.00000000E+00
  0.00000000E+00  0.00000000E+00  0.00000000E+00
  0.00000000E+00  0.00000000E+00  0.00000000E+00
  0.00000000E+00  0.00000000E+00  0.00000000E+00
  0.00000000E+00  0.00000000E+00  0.00000000E+00
  0.00000000E+00  0.00000000E+00  0.00000000E+00
  0.00000000E+00  0.00000000E+00  0.00000000E+00
  0.00000000E+00  0.00000000E+00  0.00000000E+00
  0.00000000E+00  0.00000000E+00  0.00000000E+00
  0.00000000E+00  0.00000000E+00  0.00000000E+00
  0.00000000E+00  0.00000000E+00  0.00000000E+00
  0.00000000E+00  0.00000000E+00  0.00000000E+00
  0.00000000E+00  0.00000000E+00  0.00000000E+00
  0.00000000E+00  0.00000000E+00  0.00000000E+00
  0.00000000E+00  0.00000000E+00  0.00000000E+00
  0.00000000E+00  0.00000000E+00  0.00000000E+00
  0.00000000E+00  0.00000000E+00  0.00000000E+00
  0.00000000E+00  0.00000000E+00  0.00000000E+00
  0.00000000E+00  0.00000000E+00  0.00000000E+00
  0.00000000E+00  0.00000000E+00  0.00000000E+00
  0.00000000E+00  0.00000000E+00  0.00000000E+00
  0.00000000E+00  0.00000000E+00  0.00000000E+00
  0.00000000E+00  0.00000000E+00  0.00000000E+00
  0.00000000E+00  0.00000000E+00  0.00000000E+00
  0.00000000E+00  0.00000000E+00  0.00000000E+00
  0.00000000E+00  0.00000000E+00  0.00000000E+00
  0.00000000E+00  0.00000000E+00  0.00000000E+00
  0.00000000E+00  0.00000000E+00  0.00000000E+00
  0.00000000E+00  0.00000000E+00  0.00000000E+00
  0.00000000E+00  0.00000000E+00  0.00000000E+00
  0.00000000E+00  0.00000000E+00  0.00000000E+00
  0.00000000E+00  0.00000000E+00  0.00000000E+00
  0.00000000E+00  0.00000000E+00  0.00000000E+00
  0.00000000E+00  0.00000000E+00  0.00000000E+00
  0.00000000E+00  0.00000000E+00  0.00000000E+00
  0.00000000E+00  0.00000000E+00  0.00000000E+00
  0.00000000E+00  0.00000000E+00  0.00000000E+00
  0.00000000E+00  0.00000000E+00  0.00000000E+00
  0.00000000E+00  0.00000000E+00  0.00000000E+00
  0.00000000E+00  0.00000000E+00  0.00000000E+00
  0.00000000E+00  0.00000000E+00  0.00000000E+00
  0.00000000E+00  0.00000000E+00  0.00000000E+00
  0.00000000E+00  0.00000000E+00  0.00000000E+00
  0.00000000E+00  0.00000000E+00  0.00000000E+00
  0.00000000E+00  0.00000000E+00  0.00000000E+00
  0.00000000E+00  0.00000000E+00  0.00000000E+00
  0.00000000E+00  0.00000000E+00  0.00000000E+00
  0.00000000E+00  0.00000000E+00  0.00000000E+00
  0.00000000E+00  0.00000000E+00  0.00000000E+00
  0.00000000E+00  0.00000000E+00  0.00000000E+00
  0.00000000E+00  0.00000000E+00  0.00000000E+00
  0.00000000E+00  0.00000000E+00  0.00000000E+00
  0.00000000E+00  0.00000000E+00  0.00000000E+00
  0.00000000E+00  0.00000000E+00  0.00000000E+00
  0.00000000E+00  0.00000000E+00  0.00000000E+00
  0.00000000E+00  0.00000000E+00  0.00000000E+00
  0.00000000E+00  0.00000000E+00  0.00000000E+00
  0.00000000E+00  0.00000000E+00  0.00000000E+00
  0.00000000E+00  0.00000000E+00  0.00000000E+00
  0.00000000E+00  0.00000000E+00  0.00000000E+00
  0.00000000E+00  0.00000000E+00  0.00000000E+00
  0.00000000E+00  0.00000000E+00  0.00000000E+00
  0.00000000E+00  0.00000000E+00  0.00000000E+00
  0.00000000E+00  0.00000000E+00  0.00000000E+00
  0.00000000E+00  0.00000000E+00  0.00000000E+00
  0.00000000E+00  0.00000000E+00  0.00000000E+00
  0.00000000E+00  0.00000000E+00  0.00000000E+00
  0.00000000E+00  0.00000000E+00  0.00000000E+00
  0.00000000E+00  0.00000000E+00  0.00000000E+00
  0.00000000E+00  0.00000000E+00  0.00000000E+00
  0.00000000E+00  0.00000000E+00  0.00000000E+00
  0.00000000E+00  0.00000000E+00  0.00000000E+00
  0.00000000E+00  0.00000000E+00  0.00000000E+00
  0.00000000E+00  0.00000000E+00  0.00000000E+00
  0.00000000E+00  0.00000000E+00  0.00000000E+00
  0.00000000E+00  0.00000000E+00  0.00000000E+00
  0.00000000E+00  0.00000000E+00  0.00000000E+00
  0.00000000E+00  0.00000000E+00  0.00000000E+00
  0.00000000E+00  0.00000000E+00  0.00000000E+00
  0.00000000E+00  0.00000000E+00  0.00000000E+00
  0.00000000E+00  0.00000000E+00  0.00000000E+00
  0.00000000E+00  0.00000000E+00  0.00000000E+00
  0.00000000E+00  0.00000000E+00  0.00000000E+00
  0.00000000E+00  0.00000000E+00  0.00000000E+00
  0.00000000E+00  0.00000000E+00  0.00000000E+00
  0.00000000E+00  0.00000000E+00  0.00000000E+00
  0.00000000E+00  0.00000000E+00  0.00000000E+00
  0.00000000E+00  0.00000000E+00  0.00000000E+00
  0.00000000E+00  0.00000000E+00  0.00000000E+00
  0.00000000E+00  0.00000000E+00  0.00000000E+00
  0.00000000E+00  0.00000000E+00  0.00000000E+00
  0.00000000E+00  0.00000000E+00  0.00000000E+00
  0.00000000E+00  0.00000000E+00  0.00000000E+00
  0.00000000E+00  0.00000000E+00  0.00000000E+00
  0.00000000E+00  0.00000000E+00  0.00000000E+00
  0.00000000E+00  0.00000000E+00  0.00000000E+00
  0.00000000E+00  0.00000000E+00  0.00000000E+00
  0.00000000E+00  0.00000000E+00  0.00000000E+00
  0.00000000E+00  0.00000000E+00  0.00000000E+00
  0.00000000E+00  0.00000000E+00  0.00000000E+00
  0.00000000E+00  0.00000000E+00  0.00000000E+00
  0.00000000E+00  0.00000000E+00  0.00000000E+00
  0.00000000E+00  0.00000000E+00  0.00000000E+00
  0.00000000E+00  0.00000000E+00  0.00000000E+00
  0.00000000E+00  0.00000000E+00  0.00000000E+00
  0.00000000E+00  0.00000000E+00  0.00000000E+00
  0.00000000E+00  0.00000000E+00  0.00000000E+00
  0.00000000E+00  0.00000000E+00  0.00000000E+00
  0.00000000E+00  0.00000000E+00  0.00000000E+00
  0.00000000E+00  0.00000000E+00  0.00000000E+00
