H1 Pt1 C124 N2 O1                       
   1.00000000000000     
    19.8303074285545584   -0.0263960091926781    0.1584187699081288
    -9.9385200086564840   17.0482544292218172    0.1635149892242956
     0.2377391845835774    0.4238046275804836   29.7951573746763003
   H    Pt   C    N    O 
     1     1   124     2     1
Direct
  0.4759340020719636  0.5635566030990288  0.5002641222775442
  0.4352273726558799  0.4972144924791232  0.4240198318849139
  0.0420788790121733  0.0842146538854023  0.3998448009029531
  0.0413452830918182  0.2083979425857828  0.3993252518006296
  0.0404322418520756  0.3329298080565935  0.3989351059793308
  0.0400617921425699  0.4582540108903078  0.3989707140329502
  0.0408066598112947  0.5837716718143400  0.3989290344478575
  0.0415990748789335  0.7092156965584216  0.3989622159712861
  0.0419838265453291  0.8344458029688117  0.3993131763122382
  0.0422437024005040  0.9595977633090004  0.3997668899789535
  0.1680559467401459  0.0858206082119573  0.4003922273074330
  0.1679091724934239  0.2106515362309416  0.4001217292679938
  0.1659324486929627  0.3343647747195851  0.3987879603684329
  0.1635541801058624  0.4587974124916423  0.3989856565213943
  0.1643660876653740  0.5839723425146446  0.3992601649060013
  0.1657195702428108  0.7092452355431202  0.3993151372687223
  0.1665937408591992  0.8345905127014154  0.3993719555293204
  0.1672420792173571  0.9600484306779128  0.3998692654121623
  0.2925423410814205  0.0853792580643459  0.4007159454356190
  0.2943560985820114  0.2126117763484487  0.4023616903529466
  0.2939407720840937  0.3383972294843829  0.4017625107049130
  0.2870526633313096  0.4602055726805835  0.4012166737161965
  0.2873689149258100  0.5845048838336617  0.4018231841375186
  0.2897472204988772  0.7090929213114285  0.4008718042519505
  0.2910842555211758  0.8341677656178856  0.3996957987002588
  0.2918060092051018  0.9595454985464532  0.3996386726066106
  0.4169808005986614  0.0836444495369333  0.3999251012594888
  0.4177547555132222  0.2093096774835175  0.4018298419579545
  0.4211762524494198  0.3367200678622999  0.4072572904194641
  0.4135035007585874  0.7061735701477087  0.4044235769455585
  0.4154532287017206  0.8323268616098695  0.4008593434856227
  0.4163198375378002  0.9580439188441902  0.3996007660974111
  0.5414598248131670  0.0820124074532587  0.3993430806212935
  0.5422022007890256  0.2072367588301381  0.4001817197221937
  0.5436492133234305  0.3319618112993233  0.4027985167695174
  0.5459004468708791  0.4552388188994009  0.4067373530770258
  0.5451320230299010  0.5784902988172431  0.4057845560947573
  0.5369021838660158  0.7017989237026619  0.4065649610965386
  0.5395968571662085  0.8300558763906708  0.4026376820472537
  0.5407955275904728  0.9563748091004454  0.3999941969234981
  0.6659938984975899  0.0814017589482578  0.3993994556721995
  0.6666884047999424  0.2068200302589824  0.3992272905312447
  0.6677481567948426  0.3321145437883344  0.3996865721964125
  0.6694932830533190  0.4574646561523084  0.4005821770068152
  0.6695133450922645  0.5820069651051167  0.4013814670530392
  0.6650628591142088  0.7049980007546057  0.4016482404766434
  0.6640045163944086  0.8294603649244694  0.4018929486909890
  0.6652387191058481  0.9557326493962638  0.4004310628188646
  0.7907243922112670  0.0814922080260615  0.3995735179726518
  0.7911447737388166  0.2068058265354014  0.3992533726435514
  0.7918635534256219  0.3322490590746835  0.3989637165252160
  0.7928602458150330  0.4577967483759602  0.3988311872061320
  0.7934284676476668  0.5831727046365752  0.3991591033000546
  0.7920865425252255  0.7078123705920492  0.3996343167328475
  0.7905726427063978  0.8316891819533546  0.4002214988123634
  0.7901797361913109  0.9561563674543101  0.4000275343472561
  0.9159834811371670  0.0823977425481480  0.3996169918704500
  0.9158829843668168  0.2072327045060895  0.3993674901599908
  0.9159691282605268  0.3324638401404552  0.3991430183689003
  0.9164286963730223  0.4579717212301420  0.3988417178633020
  0.9171963305256308  0.5835754670326215  0.3987275402545955
  0.9171786635439571  0.7088580185399814  0.3989446653297376
  0.9168086599608071  0.8336009921478004  0.3994361080996781
  0.9163163992882981  0.9579800627290912  0.3997550046162141
  0.0843328210290344  0.0433649425249091  0.3999892331720796
  0.0840078763699099  0.1678919311928375  0.3997075217663147
  0.0826415822969093  0.2918960942416534  0.3988487937977980
  0.0810765381166647  0.4164980973736117  0.3988727016490495
  0.0815971539160200  0.5418794828555267  0.3989701264449950
  0.0826581233677650  0.6673939647160675  0.3989990533388212
  0.0834038149270862  0.7928312273758441  0.3992048987863043
  0.0838550940113713  0.9180894876477977  0.3996625692669751
  0.2092071382011991  0.0437053391933181  0.4003838533596764
  0.2103175882364222  0.1698362475870515  0.4008550607255552
  0.2096614228904989  0.2945355949107816  0.3998170721586136
  0.2051312647294309  0.4177317639268645  0.3990222571796893
  0.2048329921917641  0.5421079430481304  0.3994858586044073
  0.2066686656986834  0.6674680131239242  0.3997397343511138
  0.2078306248842010  0.7927773006600172  0.3994379586768614
  0.2085799572437773  0.9181606903121892  0.3996190888419213
  0.3337132829903576  0.0430647751892878  0.4000515606856700
  0.3346133462961339  0.1691125167133532  0.4018412303526233
  0.3367563209164866  0.2969695397510990  0.4043502300274727
  0.3307415333957486  0.4217635681775666  0.4030518661617258
  0.3275358930535655  0.5434378111745367  0.4049498845659152
  0.3304511822864179  0.6672590964437414  0.4027203283193916
  0.3322459791085873  0.7922359773663777  0.4004694473429141
  0.3331168064244042  0.9175105545667839  0.3995680925796404
  0.4582642241291838  0.0414186472594945  0.3995183154433727
  0.4589481262780739  0.1669877675131764  0.4005274852900231
  0.4604980283333046  0.2926505235581514  0.4037906011481362
  0.4522123051246884  0.6614288995880091  0.4085183940150456
  0.4564762506511855  0.7897664422557458  0.4025224976886551
  0.4575313088306622  0.9157505454950660  0.4000316064965859
  0.5827647881195747  0.0399692070992769  0.3994087165842151
  0.5834432353243370  0.1653753268311851  0.3994455193448476
  0.5846111422035610  0.2903416237435949  0.4007355165321299
  0.5866948435077605  0.4147724732774296  0.4030312845672270
  0.5872106157178332  0.5393023017475134  0.4041889865118218
  0.5805882203274413  0.6609162052340815  0.4044992982951969
  0.5796473959700943  0.7863590338889073  0.4038411711717954
  0.5818547315221128  0.9139520641924852  0.4009065634562454
  0.7072822060597868  0.0394614082061841  0.3997078664354913
  0.7079626247409947  0.1650072386926633  0.3992197823041122
  0.7087705856005379  0.2903708167866948  0.3991560657672685
  0.7100304385262303  0.4156936448863136  0.3994617318011602
  0.7108970194745896  0.5408631263088414  0.4002825716532483
  0.7087182486700446  0.6652672696291929  0.4006111489410362
  0.7066360278363130  0.7888562751626838  0.4012259233903498
  0.7063598187365158  0.9135590962071475  0.4006965901021050
  0.8323287155005125  0.0399875739413496  0.3996905740816168
  0.8326084413961031  0.1651862860580064  0.3994006834044803
  0.8329604332526440  0.2904455305908477  0.3991224734396983
  0.8336431176499827  0.4158819942666422  0.3988010434951206
  0.8344197681351802  0.5414212588782797  0.3987658588401045
  0.8341509265786733  0.6667595939835511  0.3991437026237178
  0.8333073657942921  0.7912276793626699  0.3996885042706340
  0.8324811208568489  0.9153526992965895  0.3999726687511927
  0.9582982154741335  0.0416298630027613  0.3997270259021476
  0.9578079139684863  0.1660265074392555  0.3994602514935056
  0.9574260766112761  0.2908379214709599  0.3992110669994340
  0.9573013345480954  0.4160993512778214  0.3989975726241857
  0.9580351578370557  0.5416782395996769  0.3988042844883685
  0.9585901172430114  0.6672180877780863  0.3988241383889582
  0.9587188544267480  0.7924180392358205  0.3991856151958941
  0.9586099539214037  0.9172160162878336  0.3996538310994850
  0.4059658299295362  0.5806446253643770  0.4126328260062674
  0.4664146871905565  0.4165009102785658  0.4120810006648887
  0.4854449121301999  0.5241974847958484  0.4869453139918575
 
  0.00000000E+00  0.00000000E+00  0.00000000E+00
  0.00000000E+00  0.00000000E+00  0.00000000E+00
  0.00000000E+00  0.00000000E+00  0.00000000E+00
  0.00000000E+00  0.00000000E+00  0.00000000E+00
  0.00000000E+00  0.00000000E+00  0.00000000E+00
  0.00000000E+00  0.00000000E+00  0.00000000E+00
  0.00000000E+00  0.00000000E+00  0.00000000E+00
  0.00000000E+00  0.00000000E+00  0.00000000E+00
  0.00000000E+00  0.00000000E+00  0.00000000E+00
  0.00000000E+00  0.00000000E+00  0.00000000E+00
  0.00000000E+00  0.00000000E+00  0.00000000E+00
  0.00000000E+00  0.00000000E+00  0.00000000E+00
  0.00000000E+00  0.00000000E+00  0.00000000E+00
  0.00000000E+00  0.00000000E+00  0.00000000E+00
  0.00000000E+00  0.00000000E+00  0.00000000E+00
  0.00000000E+00  0.00000000E+00  0.00000000E+00
  0.00000000E+00  0.00000000E+00  0.00000000E+00
  0.00000000E+00  0.00000000E+00  0.00000000E+00
  0.00000000E+00  0.00000000E+00  0.00000000E+00
  0.00000000E+00  0.00000000E+00  0.00000000E+00
  0.00000000E+00  0.00000000E+00  0.00000000E+00
  0.00000000E+00  0.00000000E+00  0.00000000E+00
  0.00000000E+00  0.00000000E+00  0.00000000E+00
  0.00000000E+00  0.00000000E+00  0.00000000E+00
  0.00000000E+00  0.00000000E+00  0.00000000E+00
  0.00000000E+00  0.00000000E+00  0.00000000E+00
  0.00000000E+00  0.00000000E+00  0.00000000E+00
  0.00000000E+00  0.00000000E+00  0.00000000E+00
  0.00000000E+00  0.00000000E+00  0.00000000E+00
  0.00000000E+00  0.00000000E+00  0.00000000E+00
  0.00000000E+00  0.00000000E+00  0.00000000E+00
  0.00000000E+00  0.00000000E+00  0.00000000E+00
  0.00000000E+00  0.00000000E+00  0.00000000E+00
  0.00000000E+00  0.00000000E+00  0.00000000E+00
  0.00000000E+00  0.00000000E+00  0.00000000E+00
  0.00000000E+00  0.00000000E+00  0.00000000E+00
  0.00000000E+00  0.00000000E+00  0.00000000E+00
  0.00000000E+00  0.00000000E+00  0.00000000E+00
  0.00000000E+00  0.00000000E+00  0.00000000E+00
  0.00000000E+00  0.00000000E+00  0.00000000E+00
  0.00000000E+00  0.00000000E+00  0.00000000E+00
  0.00000000E+00  0.00000000E+00  0.00000000E+00
  0.00000000E+00  0.00000000E+00  0.00000000E+00
  0.00000000E+00  0.00000000E+00  0.00000000E+00
  0.00000000E+00  0.00000000E+00  0.00000000E+00
  0.00000000E+00  0.00000000E+00  0.00000000E+00
  0.00000000E+00  0.00000000E+00  0.00000000E+00
  0.00000000E+00  0.00000000E+00  0.00000000E+00
  0.00000000E+00  0.00000000E+00  0.00000000E+00
  0.00000000E+00  0.00000000E+00  0.00000000E+00
  0.00000000E+00  0.00000000E+00  0.00000000E+00
  0.00000000E+00  0.00000000E+00  0.00000000E+00
  0.00000000E+00  0.00000000E+00  0.00000000E+00
  0.00000000E+00  0.00000000E+00  0.00000000E+00
  0.00000000E+00  0.00000000E+00  0.00000000E+00
  0.00000000E+00  0.00000000E+00  0.00000000E+00
  0.00000000E+00  0.00000000E+00  0.00000000E+00
  0.00000000E+00  0.00000000E+00  0.00000000E+00
  0.00000000E+00  0.00000000E+00  0.00000000E+00
  0.00000000E+00  0.00000000E+00  0.00000000E+00
  0.00000000E+00  0.00000000E+00  0.00000000E+00
  0.00000000E+00  0.00000000E+00  0.00000000E+00
  0.00000000E+00  0.00000000E+00  0.00000000E+00
  0.00000000E+00  0.00000000E+00  0.00000000E+00
  0.00000000E+00  0.00000000E+00  0.00000000E+00
  0.00000000E+00  0.00000000E+00  0.00000000E+00
  0.00000000E+00  0.00000000E+00  0.00000000E+00
  0.00000000E+00  0.00000000E+00  0.00000000E+00
  0.00000000E+00  0.00000000E+00  0.00000000E+00
  0.00000000E+00  0.00000000E+00  0.00000000E+00
  0.00000000E+00  0.00000000E+00  0.00000000E+00
  0.00000000E+00  0.00000000E+00  0.00000000E+00
  0.00000000E+00  0.00000000E+00  0.00000000E+00
  0.00000000E+00  0.00000000E+00  0.00000000E+00
  0.00000000E+00  0.00000000E+00  0.00000000E+00
  0.00000000E+00  0.00000000E+00  0.00000000E+00
  0.00000000E+00  0.00000000E+00  0.00000000E+00
  0.00000000E+00  0.00000000E+00  0.00000000E+00
  0.00000000E+00  0.00000000E+00  0.00000000E+00
  0.00000000E+00  0.00000000E+00  0.00000000E+00
  0.00000000E+00  0.00000000E+00  0.00000000E+00
  0.00000000E+00  0.00000000E+00  0.00000000E+00
  0.00000000E+00  0.00000000E+00  0.00000000E+00
  0.00000000E+00  0.00000000E+00  0.00000000E+00
  0.00000000E+00  0.00000000E+00  0.00000000E+00
  0.00000000E+00  0.00000000E+00  0.00000000E+00
  0.00000000E+00  0.00000000E+00  0.00000000E+00
  0.00000000E+00  0.00000000E+00  0.00000000E+00
  0.00000000E+00  0.00000000E+00  0.00000000E+00
  0.00000000E+00  0.00000000E+00  0.00000000E+00
  0.00000000E+00  0.00000000E+00  0.00000000E+00
  0.00000000E+00  0.00000000E+00  0.00000000E+00
  0.00000000E+00  0.00000000E+00  0.00000000E+00
  0.00000000E+00  0.00000000E+00  0.00000000E+00
  0.00000000E+00  0.00000000E+00  0.00000000E+00
  0.00000000E+00  0.00000000E+00  0.00000000E+00
  0.00000000E+00  0.00000000E+00  0.00000000E+00
  0.00000000E+00  0.00000000E+00  0.00000000E+00
  0.00000000E+00  0.00000000E+00  0.00000000E+00
  0.00000000E+00  0.00000000E+00  0.00000000E+00
  0.00000000E+00  0.00000000E+00  0.00000000E+00
  0.00000000E+00  0.00000000E+00  0.00000000E+00
  0.00000000E+00  0.00000000E+00  0.00000000E+00
  0.00000000E+00  0.00000000E+00  0.00000000E+00
  0.00000000E+00  0.00000000E+00  0.00000000E+00
  0.00000000E+00  0.00000000E+00  0.00000000E+00
  0.00000000E+00  0.00000000E+00  0.00000000E+00
  0.00000000E+00  0.00000000E+00  0.00000000E+00
  0.00000000E+00  0.00000000E+00  0.00000000E+00
  0.00000000E+00  0.00000000E+00  0.00000000E+00
  0.00000000E+00  0.00000000E+00  0.00000000E+00
  0.00000000E+00  0.00000000E+00  0.00000000E+00
  0.00000000E+00  0.00000000E+00  0.00000000E+00
  0.00000000E+00  0.00000000E+00  0.00000000E+00
  0.00000000E+00  0.00000000E+00  0.00000000E+00
  0.00000000E+00  0.00000000E+00  0.00000000E+00
  0.00000000E+00  0.00000000E+00  0.00000000E+00
  0.00000000E+00  0.00000000E+00  0.00000000E+00
  0.00000000E+00  0.00000000E+00  0.00000000E+00
  0.00000000E+00  0.00000000E+00  0.00000000E+00
  0.00000000E+00  0.00000000E+00  0.00000000E+00
  0.00000000E+00  0.00000000E+00  0.00000000E+00
  0.00000000E+00  0.00000000E+00  0.00000000E+00
  0.00000000E+00  0.00000000E+00  0.00000000E+00
  0.00000000E+00  0.00000000E+00  0.00000000E+00
  0.00000000E+00  0.00000000E+00  0.00000000E+00
  0.00000000E+00  0.00000000E+00  0.00000000E+00
  0.00000000E+00  0.00000000E+00  0.00000000E+00
  0.00000000E+00  0.00000000E+00  0.00000000E+00
