Ti1 H1 C124 N2                          
   1.00000000000000     
    19.8049092397683246   -0.0182298455575169   -0.0362050206029908
    -9.9182890749696107   17.0625738002455627   -0.0379512087132271
    -0.0545308398684558   -0.0979144739282947   29.7936184280071927
   Ti   H    C    N 
     1     1   124     2
Direct
  0.4392667564107468  0.5013042735009460  0.4287416911318957
  0.4437247155812755  0.5066346831138254  0.4873460741732885
  0.0422077156086016  0.0842383008535171  0.3997458287967870
  0.0416173360561779  0.2086406591234099  0.3995542844888785
  0.0409177464965604  0.3331800572403794  0.3996071677665537
  0.0407424089152497  0.4583996881315337  0.3997548449541483
  0.0413003141024063  0.5837768183406976  0.3998990066214775
  0.0418861247429920  0.7091258951442665  0.3999333451685075
  0.0422098675842947  0.8344196845526922  0.4000327209347316
  0.0423909387970194  0.9595722679800893  0.3999897313560566
  0.1680603807310749  0.0856138432931646  0.3998062078230676
  0.1677176821234274  0.2102754687723990  0.3997958232305247
  0.1663929267609276  0.3343386366434210  0.3999732817339977
  0.1647430845695068  0.4587963819497905  0.3998092199372998
  0.1653107449668436  0.5838531349362047  0.3996550238545076
  0.1662544797764325  0.7091303009966107  0.3998608934856241
  0.1668784345765360  0.8344663181702455  0.3999695716997719
  0.1674041000384246  0.9599160715995754  0.3999902499809137
  0.2925978857939801  0.0851843104216865  0.3998514673075539
  0.2942630506369353  0.2121699991152004  0.4007172518794968
  0.2935828617799681  0.3377824631830036  0.4019882139863634
  0.2892736422879567  0.4596175880774685  0.4019895868165406
  0.2891345768082009  0.5844183759314949  0.4006307300145673
  0.2906265655866538  0.7091365693655991  0.3998861498882698
  0.2914803724515395  0.8341571991710596  0.3998228370809377
  0.2919801945277040  0.9594577163866260  0.3998570179060599
  0.4170921140906690  0.0838120331714950  0.3997477723922038
  0.4177303325710004  0.2094208916806349  0.4000127628904425
  0.4207414702629479  0.3369490430749468  0.4024704607598870
  0.4148628283765272  0.7072632175419710  0.4005482855027326
  0.4160238858032769  0.8329005346492587  0.3997860394634830
  0.4165676647361356  0.9583439756748350  0.3997956890713206
  0.5416475657817000  0.0825503231878902  0.3998404356782224
  0.5422319727196034  0.2077608113156359  0.3998202465175731
  0.5434077369329662  0.3326731386271601  0.4004704070885758
  0.5445323220123648  0.4560233752424444  0.4016031658757505
  0.5432828795924384  0.5799762309728681  0.4008245459649721
  0.5385734780973688  0.7039713425374025  0.4012665560724239
  0.5404610163441002  0.8312892563502330  0.4001770647567690
  0.5411908583766044  0.9571158435856857  0.3998513797509102
  0.6662918349071646  0.0820778689359513  0.3999762811850474
  0.6668237171923150  0.2074042738508948  0.3999036445557945
  0.6677096957676854  0.3327164580326324  0.3998157696533177
  0.6690831001863232  0.4580914080479822  0.3999890674183794
  0.6687581841816954  0.5824574055353412  0.3999060356622355
  0.6658733485941446  0.7062711180283868  0.3995870776590419
  0.6650058815042103  0.8307897358654845  0.3999447035252624
  0.6658387888804710  0.9566710730009980  0.3999470685358593
  0.7911341118224816  0.0821629018194714  0.4000255377501044
  0.7914121933449189  0.2073537754711292  0.4000268660801585
  0.7919985903240185  0.3327109109593994  0.3998911415644115
  0.7927924989391397  0.4581496389037401  0.3997577634580513
  0.7931998334760541  0.5834146568432973  0.3998218364851976
  0.7922685910023871  0.7081732967755218  0.3997171287661573
  0.7911799260717798  0.8324005900873990  0.3997400574045474
  0.7908022997922324  0.9569426968901684  0.3998563310866783
  0.9163654403416788  0.0828698676196213  0.3999518361333471
  0.9162482141579474  0.2076968552512748  0.3999874048336952
  0.9162987827226566  0.3328262769030166  0.3999812296999641
  0.9167121132626022  0.4581865598538656  0.3999375232381642
  0.9173102857960540  0.5836656523711902  0.3998872163270207
  0.9173431256186055  0.7089288718604817  0.3999231489363171
  0.9170825820662801  0.8337875374139693  0.3999106895936984
  0.9166728060476965  0.9583485172810028  0.3999549407778959
  0.0843788735425217  0.0432594266390217  0.3998168110183571
  0.0840206898741064  0.1677938050636344  0.3995651918653063
  0.0829133641831411  0.2919986753905324  0.3995344819598751
  0.0819828421457748  0.4167280892479094  0.3995861200008552
  0.0823396842817872  0.5419375424834915  0.3997628999181709
  0.0830895885488084  0.6673199212635039  0.3998921772100121
  0.0836607954595213  0.7927106769681130  0.3999858726290020
  0.0840152649592545  0.9179950247390873  0.4000414362097249
  0.2092931126301734  0.0434881270156792  0.3998945614741956
  0.2101545154494692  0.1694063567328533  0.4000220847177458
  0.2093204067895864  0.2939288860487747  0.4002729421352795
  0.2064450912757513  0.4176896997046055  0.4004391772605603
  0.2061191440190165  0.5420576542654495  0.3998251575026085
  0.2074012021068829  0.6673964167883149  0.3997913642363422
  0.2082164648140810  0.7926656233254609  0.3998920370099635
  0.2087552104105383  0.9180047244970270  0.3999711346260296
  0.3338323470047019  0.0429667080747526  0.3997797221755725
  0.3346485385009214  0.1688723658657337  0.4001419599934729
  0.3365639950199008  0.2962252183335795  0.4021744541084435
  0.3319564552048917  0.4202939455197306  0.4036344952629604
  0.3306524789166982  0.5441395914157600  0.4024748997784171
  0.3317398542970446  0.6674802153531758  0.4003743219333092
  0.3328254527788765  0.7923348901674739  0.3997967155160005
  0.3333700250837685  0.9175063461054263  0.3998206255680702
  0.4584433650027514  0.0417192119085734  0.3997998446861667
  0.4590311112069894  0.1671918204364790  0.3997690105976155
  0.4602627138809299  0.2928968740802217  0.4006548337665103
  0.4544182027085707  0.6632496509655597  0.4022179574406147
  0.4573641161056295  0.7907130407261328  0.3999960335394682
  0.4579266504256597  0.9162537925507999  0.3997836818982855
  0.5830519757927687  0.0406106907317376  0.3998848716419092
  0.5835496734031671  0.1659122164471467  0.3998339394065005
  0.5844715178859955  0.2909873880134241  0.3999514700135899
  0.5860959816732949  0.4157389342407766  0.4005929666944693
  0.5858771955887996  0.5405122051439686  0.4002952713803585
  0.5816003059236868  0.6624685865481392  0.4003354903957972
  0.5808829148998964  0.7880178340213856  0.4004106010600882
  0.5824970293969211  0.9149596163756940  0.3999683576128864
  0.7077259614306108  0.0402262188274813  0.3999782111354958
  0.7081662848811460  0.1656007671074740  0.3999892245062197
  0.7088207515858380  0.2909353290200825  0.3998515331861418
  0.7098338434345054  0.4162626989083665  0.3997651600391744
  0.7104560546055484  0.5413619688910011  0.3999515297273732
  0.7087846696097192  0.6658174955287818  0.3996391758376311
  0.7074686106294658  0.7899203962111155  0.3997170351627236
  0.7071078538083740  0.9145786592435448  0.3998655658700659
  0.8328162737901287  0.0406270646940107  0.3999765889154351
  0.8329469463012299  0.1657168228089819  0.4000610138683642
  0.8332158209200279  0.2909123937029521  0.3999892305891655
  0.8337809549315351  0.4162521648309882  0.3998575480165225
  0.8343702344535877  0.5416840459622349  0.3998141967418108
  0.8342420950061530  0.6669771350173135  0.3998214640116072
  0.8335869972134030  0.7915465239912273  0.3997504119176566
  0.8329969262742014  0.9159646143743914  0.3998534528776772
  0.9585449437102849  0.0418742199208982  0.3999121665517832
  0.9581328588182021  0.1664195949043630  0.3998373007783188
  0.9578262852339093  0.2912073979557439  0.3998761336467623
  0.9577983361422194  0.4163719650981987  0.3999319987956324
  0.9583792198553397  0.5418264075467021  0.3999243210000636
  0.9588097012588549  0.6672377697355980  0.3999279769223610
  0.9589217360985421  0.7924652384346554  0.3999685644358842
  0.9588509452031677  0.9173529436634932  0.3999880250178339
  0.4106482083975398  0.5827034933438738  0.4050572678761348
  0.4646263558045232  0.4176132058677886  0.4044815941941517
 
  0.00000000E+00  0.00000000E+00  0.00000000E+00
  0.00000000E+00  0.00000000E+00  0.00000000E+00
  0.00000000E+00  0.00000000E+00  0.00000000E+00
  0.00000000E+00  0.00000000E+00  0.00000000E+00
  0.00000000E+00  0.00000000E+00  0.00000000E+00
  0.00000000E+00  0.00000000E+00  0.00000000E+00
  0.00000000E+00  0.00000000E+00  0.00000000E+00
  0.00000000E+00  0.00000000E+00  0.00000000E+00
  0.00000000E+00  0.00000000E+00  0.00000000E+00
  0.00000000E+00  0.00000000E+00  0.00000000E+00
  0.00000000E+00  0.00000000E+00  0.00000000E+00
  0.00000000E+00  0.00000000E+00  0.00000000E+00
  0.00000000E+00  0.00000000E+00  0.00000000E+00
  0.00000000E+00  0.00000000E+00  0.00000000E+00
  0.00000000E+00  0.00000000E+00  0.00000000E+00
  0.00000000E+00  0.00000000E+00  0.00000000E+00
  0.00000000E+00  0.00000000E+00  0.00000000E+00
  0.00000000E+00  0.00000000E+00  0.00000000E+00
  0.00000000E+00  0.00000000E+00  0.00000000E+00
  0.00000000E+00  0.00000000E+00  0.00000000E+00
  0.00000000E+00  0.00000000E+00  0.00000000E+00
  0.00000000E+00  0.00000000E+00  0.00000000E+00
  0.00000000E+00  0.00000000E+00  0.00000000E+00
  0.00000000E+00  0.00000000E+00  0.00000000E+00
  0.00000000E+00  0.00000000E+00  0.00000000E+00
  0.00000000E+00  0.00000000E+00  0.00000000E+00
  0.00000000E+00  0.00000000E+00  0.00000000E+00
  0.00000000E+00  0.00000000E+00  0.00000000E+00
  0.00000000E+00  0.00000000E+00  0.00000000E+00
  0.00000000E+00  0.00000000E+00  0.00000000E+00
  0.00000000E+00  0.00000000E+00  0.00000000E+00
  0.00000000E+00  0.00000000E+00  0.00000000E+00
  0.00000000E+00  0.00000000E+00  0.00000000E+00
  0.00000000E+00  0.00000000E+00  0.00000000E+00
  0.00000000E+00  0.00000000E+00  0.00000000E+00
  0.00000000E+00  0.00000000E+00  0.00000000E+00
  0.00000000E+00  0.00000000E+00  0.00000000E+00
  0.00000000E+00  0.00000000E+00  0.00000000E+00
  0.00000000E+00  0.00000000E+00  0.00000000E+00
  0.00000000E+00  0.00000000E+00  0.00000000E+00
  0.00000000E+00  0.00000000E+00  0.00000000E+00
  0.00000000E+00  0.00000000E+00  0.00000000E+00
  0.00000000E+00  0.00000000E+00  0.00000000E+00
  0.00000000E+00  0.00000000E+00  0.00000000E+00
  0.00000000E+00  0.00000000E+00  0.00000000E+00
  0.00000000E+00  0.00000000E+00  0.00000000E+00
  0.00000000E+00  0.00000000E+00  0.00000000E+00
  0.00000000E+00  0.00000000E+00  0.00000000E+00
  0.00000000E+00  0.00000000E+00  0.00000000E+00
  0.00000000E+00  0.00000000E+00  0.00000000E+00
  0.00000000E+00  0.00000000E+00  0.00000000E+00
  0.00000000E+00  0.00000000E+00  0.00000000E+00
  0.00000000E+00  0.00000000E+00  0.00000000E+00
  0.00000000E+00  0.00000000E+00  0.00000000E+00
  0.00000000E+00  0.00000000E+00  0.00000000E+00
  0.00000000E+00  0.00000000E+00  0.00000000E+00
  0.00000000E+00  0.00000000E+00  0.00000000E+00
  0.00000000E+00  0.00000000E+00  0.00000000E+00
  0.00000000E+00  0.00000000E+00  0.00000000E+00
  0.00000000E+00  0.00000000E+00  0.00000000E+00
  0.00000000E+00  0.00000000E+00  0.00000000E+00
  0.00000000E+00  0.00000000E+00  0.00000000E+00
  0.00000000E+00  0.00000000E+00  0.00000000E+00
  0.00000000E+00  0.00000000E+00  0.00000000E+00
  0.00000000E+00  0.00000000E+00  0.00000000E+00
  0.00000000E+00  0.00000000E+00  0.00000000E+00
  0.00000000E+00  0.00000000E+00  0.00000000E+00
  0.00000000E+00  0.00000000E+00  0.00000000E+00
  0.00000000E+00  0.00000000E+00  0.00000000E+00
  0.00000000E+00  0.00000000E+00  0.00000000E+00
  0.00000000E+00  0.00000000E+00  0.00000000E+00
  0.00000000E+00  0.00000000E+00  0.00000000E+00
  0.00000000E+00  0.00000000E+00  0.00000000E+00
  0.00000000E+00  0.00000000E+00  0.00000000E+00
  0.00000000E+00  0.00000000E+00  0.00000000E+00
  0.00000000E+00  0.00000000E+00  0.00000000E+00
  0.00000000E+00  0.00000000E+00  0.00000000E+00
  0.00000000E+00  0.00000000E+00  0.00000000E+00
  0.00000000E+00  0.00000000E+00  0.00000000E+00
  0.00000000E+00  0.00000000E+00  0.00000000E+00
  0.00000000E+00  0.00000000E+00  0.00000000E+00
  0.00000000E+00  0.00000000E+00  0.00000000E+00
  0.00000000E+00  0.00000000E+00  0.00000000E+00
  0.00000000E+00  0.00000000E+00  0.00000000E+00
  0.00000000E+00  0.00000000E+00  0.00000000E+00
  0.00000000E+00  0.00000000E+00  0.00000000E+00
  0.00000000E+00  0.00000000E+00  0.00000000E+00
  0.00000000E+00  0.00000000E+00  0.00000000E+00
  0.00000000E+00  0.00000000E+00  0.00000000E+00
  0.00000000E+00  0.00000000E+00  0.00000000E+00
  0.00000000E+00  0.00000000E+00  0.00000000E+00
  0.00000000E+00  0.00000000E+00  0.00000000E+00
  0.00000000E+00  0.00000000E+00  0.00000000E+00
  0.00000000E+00  0.00000000E+00  0.00000000E+00
  0.00000000E+00  0.00000000E+00  0.00000000E+00
  0.00000000E+00  0.00000000E+00  0.00000000E+00
  0.00000000E+00  0.00000000E+00  0.00000000E+00
  0.00000000E+00  0.00000000E+00  0.00000000E+00
  0.00000000E+00  0.00000000E+00  0.00000000E+00
  0.00000000E+00  0.00000000E+00  0.00000000E+00
  0.00000000E+00  0.00000000E+00  0.00000000E+00
  0.00000000E+00  0.00000000E+00  0.00000000E+00
  0.00000000E+00  0.00000000E+00  0.00000000E+00
  0.00000000E+00  0.00000000E+00  0.00000000E+00
  0.00000000E+00  0.00000000E+00  0.00000000E+00
  0.00000000E+00  0.00000000E+00  0.00000000E+00
  0.00000000E+00  0.00000000E+00  0.00000000E+00
  0.00000000E+00  0.00000000E+00  0.00000000E+00
  0.00000000E+00  0.00000000E+00  0.00000000E+00
  0.00000000E+00  0.00000000E+00  0.00000000E+00
  0.00000000E+00  0.00000000E+00  0.00000000E+00
  0.00000000E+00  0.00000000E+00  0.00000000E+00
  0.00000000E+00  0.00000000E+00  0.00000000E+00
  0.00000000E+00  0.00000000E+00  0.00000000E+00
  0.00000000E+00  0.00000000E+00  0.00000000E+00
  0.00000000E+00  0.00000000E+00  0.00000000E+00
  0.00000000E+00  0.00000000E+00  0.00000000E+00
  0.00000000E+00  0.00000000E+00  0.00000000E+00
  0.00000000E+00  0.00000000E+00  0.00000000E+00
  0.00000000E+00  0.00000000E+00  0.00000000E+00
  0.00000000E+00  0.00000000E+00  0.00000000E+00
  0.00000000E+00  0.00000000E+00  0.00000000E+00
  0.00000000E+00  0.00000000E+00  0.00000000E+00
  0.00000000E+00  0.00000000E+00  0.00000000E+00
  0.00000000E+00  0.00000000E+00  0.00000000E+00
  0.00000000E+00  0.00000000E+00  0.00000000E+00
  0.00000000E+00  0.00000000E+00  0.00000000E+00
  0.00000000E+00  0.00000000E+00  0.00000000E+00
