Cr1 C124 N2                             
   1.00000000000000     
    19.8187205397606441   -0.0285738610894341   -0.0003022254725052
    -9.9342137451332473   17.0668580557666267    0.0014588228704704
    -0.0004523940020091    0.0022892258460518   29.7740215884398509
   Cr   C    N 
     1   124     2
Direct
  0.4375205068818009  0.5000022558305012  0.4220063567484959
  0.0422260257824481  0.0841549728139350  0.3999313130974614
  0.0417941611782305  0.2086505334800514  0.3997608794697615
  0.0410794466146937  0.3331969467188742  0.3997495099834511
  0.0407255089041619  0.4584244903323297  0.3997734281676928
  0.0411553475951568  0.5837699426308707  0.3998441712950988
  0.0416195499938017  0.7090255841862362  0.3999655593509994
  0.0418937224289853  0.8342108733402968  0.3999851194805972
  0.0421640351607218  0.9593839516301441  0.3999509546112399
  0.1680342609416620  0.0854790607298617  0.4000120938533279
  0.1679823134361727  0.2103875677278486  0.4000175556164681
  0.1666192428977597  0.3344784514345998  0.3996440794593323
  0.1645743428066050  0.4589554203413391  0.3999000012727738
  0.1650510525863955  0.5840011879854212  0.3995201608163599
  0.1660360319390007  0.7091531065391187  0.3997599831405087
  0.1666560894911670  0.8343568259510482  0.3999994437736630
  0.1671786433441144  0.9597355177616343  0.4000153873690338
  0.2924751849041079  0.0849392293158791  0.4000573944899033
  0.2943963381223368  0.2120965590201263  0.4007167047488905
  0.2942695707747915  0.3381764515559844  0.4005356958457060
  0.2890148627923150  0.4601961510140605  0.4008870413873711
  0.2886629399307312  0.5848025394612228  0.4005699779429713
  0.2903524812733363  0.7093928548301357  0.3998319113043791
  0.2913400728552581  0.8341931202466122  0.3997493599932211
  0.2918385298206838  0.9593239622129789  0.3998960437612580
  0.4170173727930526  0.0835431057375370  0.3996959010844162
  0.4177747221019347  0.2089904424907489  0.4000099424253697
  0.4213179977844823  0.3365239727714608  0.4036088133996675
  0.4145236635184185  0.7076969260902460  0.4009774544931900
  0.4159750405802951  0.8331348876981466  0.3996281694714729
  0.4165561187106244  0.9583692733175645  0.3997457390937714
  0.5417066605125028  0.0825138205692345  0.3997994474839739
  0.5422859488002798  0.2074858315203670  0.3996880120799428
  0.5435999540419054  0.3321814577612400  0.4005586161930905
  0.5448872502295632  0.4553035881559489  0.4028973526512166
  0.5432956696215100  0.5790872162614297  0.4007095733891698
  0.5380509585789924  0.7037742049148378  0.4018526384136938
  0.5403940213504634  0.8313937329215657  0.4002975557391463
  0.5412757818547037  0.9572252797919181  0.3998736795172724
  0.6664306683086333  0.0821334490948586  0.4000205941426110
  0.6669186443961802  0.2073370760325497  0.3998727399360881
  0.6678419950528679  0.3324815425902842  0.3996054190587273
  0.6692306596445553  0.4577607109605515  0.3996418530359426
  0.6686715062497700  0.5821086481960717  0.4000166096348400
  0.6652715278934318  0.7058459102268865  0.3998421842243313
  0.6647371553147621  0.8306679762218938  0.4001172762505008
  0.6658557893023310  0.9567014993696342  0.4000352036501486
  0.7912573808840782  0.0822275387749218  0.3999681434651249
  0.7916063406725818  0.2074340058513654  0.4000058091127656
  0.7921086482320706  0.3327050845650555  0.3998602344439766
  0.7928097271694304  0.4580368147107953  0.3996454123120631
  0.7930816993942298  0.5832641762187578  0.3997390218705107
  0.7918752856908664  0.7079723980637358  0.3996098729161772
  0.7908059511933592  0.8321928005853013  0.3998731236650568
  0.7906810019580844  0.9568733950721208  0.3999279897303806
  0.9164179141058825  0.0828409989211967  0.3999042390189840
  0.9164458227260198  0.2077347582995995  0.3999193495349155
  0.9164697067581006  0.3328606416623563  0.3999426780288519
  0.9167295142874017  0.4581981379637869  0.3998927394344878
  0.9171614455168144  0.5835970009579952  0.3998793703971635
  0.9169841716781272  0.7087339384919638  0.3998961559425642
  0.9167175355828172  0.8335635430250889  0.3998692200121014
  0.9164900464938491  0.9582140544847104  0.3998917345641352
  0.0843206914797152  0.0431253939208220  0.3999548969455944
  0.0841991088709057  0.1678086498861306  0.3999017005802250
  0.0831314794939013  0.2920309172640410  0.3996203085013861
  0.0819115664908372  0.4167301925241713  0.3997610252951036
  0.0821789468048381  0.5419592285660996  0.3996764757950769
  0.0828916458999957  0.6672928846206937  0.3998710747717018
  0.0833982746502501  0.7925743526553209  0.4000031234002840
  0.0837441346403052  0.9177747572249835  0.3999754853084361
  0.2091488262989372  0.0433014088427672  0.4000500031268172
  0.2102652845987561  0.1693359179330677  0.4001676124066719
  0.2097402989703730  0.2941622550384759  0.3999004733957929
  0.2063230728478143  0.4178923235991393  0.4000568730056606
  0.2057596108475603  0.5422383961924241  0.3996749463096688
  0.2071559132523251  0.6675186878332208  0.3996259484000497
  0.2080830330740743  0.7926636650342838  0.3998712719794580
  0.2085664541948337  0.9178644686892370  0.4000044340756399
  0.3337274737784682  0.0427727294428944  0.3998676893390564
  0.3346105206315387  0.1686107052440885  0.4003200102950939
  0.3369434020154088  0.2962271063704529  0.4018925731899982
  0.3317086049776233  0.4209248527169495  0.4007853313213213
  0.3301101878034478  0.5447002033683691  0.4029295493688149
  0.3313960208735056  0.6678187563479151  0.4005707405103713
  0.3327160269990770  0.7925133084701685  0.3996829553493303
  0.3332944137813654  0.9174807869528318  0.3997835130788115
  0.4584449451536795  0.0416308874300296  0.3997494788691663
  0.4590264918389999  0.1668649944289918  0.3996320436428018
  0.4604768861024674  0.2923088175431490  0.4009879203465000
  0.4536776443381185  0.6634801320642032  0.4035917718009411
  0.4572307850018431  0.7910153709270052  0.3999926671086043
  0.4579830102536221  0.9164545272029788  0.3996966129028589
  0.5831640533471866  0.0406721919218897  0.3999115021958111
  0.5836643794229917  0.1658040433305356  0.3997582646030722
  0.5846462689630475  0.2906051282807600  0.3998240553714929
  0.5863290106229218  0.4151968141948512  0.4005411467872768
  0.5859786380043061  0.5398083529646983  0.4008363565546095
  0.5807433032822419  0.6618389869964642  0.4004670446800118
  0.5805959788222141  0.7878954788352189  0.4006780308587600
  0.5825310270370162  0.9150617138510561  0.4000470047510873
  0.7078241543112782  0.0402670893366573  0.4000209857264926
  0.7083439886226712  0.1656377498059960  0.4000079633224262
  0.7089664501607611  0.2908489815830911  0.3997461858344635
  0.7099406711040529  0.4160010793832628  0.3994878875290337
  0.7104188407621844  0.5410447564908258  0.3998724339724549
  0.7083794629911447  0.6655242988528171  0.3996045949622329
  0.7070168845075476  0.7896107816747250  0.3999726296953860
  0.7069624944389592  0.9145175628871390  0.3999740044784049
  0.8328335516455883  0.0406150786058736  0.3999314240251590
  0.8331061308492640  0.1657912526547595  0.3999815407365449
  0.8333803444832889  0.2909750403665864  0.3999633386927348
  0.8338405234771530  0.4162283371129109  0.3998260657621011
  0.8342700170289342  0.5415702036314525  0.3997485371596918
  0.8339208610453092  0.6667994894282405  0.3997409215953100
  0.8332059014619834  0.7913459198578361  0.3997529919766413
  0.8327724342526321  0.9158358574995257  0.3999080150695657
  0.9585049127524772  0.0417790626890383  0.3998954775031496
  0.9582877587163229  0.1664373300483526  0.3998645183825308
  0.9580156388786454  0.2912593868236608  0.3998960968117092
  0.9578340810099297  0.4163990052236957  0.3998876059398550
  0.9582661010928928  0.5417965674872490  0.3998945329060728
  0.9585339254250362  0.6671371851515520  0.3999400457533194
  0.9585532007312114  0.7922614758856953  0.3999221403489834
  0.9585789886040313  0.9171528017703509  0.3999126873242657
  0.4095305208309284  0.5834905691585296  0.4075977398916891
  0.4654671839078188  0.4165153504449612  0.4075887215785920
 
  0.00000000E+00  0.00000000E+00  0.00000000E+00
  0.00000000E+00  0.00000000E+00  0.00000000E+00
  0.00000000E+00  0.00000000E+00  0.00000000E+00
  0.00000000E+00  0.00000000E+00  0.00000000E+00
  0.00000000E+00  0.00000000E+00  0.00000000E+00
  0.00000000E+00  0.00000000E+00  0.00000000E+00
  0.00000000E+00  0.00000000E+00  0.00000000E+00
  0.00000000E+00  0.00000000E+00  0.00000000E+00
  0.00000000E+00  0.00000000E+00  0.00000000E+00
  0.00000000E+00  0.00000000E+00  0.00000000E+00
  0.00000000E+00  0.00000000E+00  0.00000000E+00
  0.00000000E+00  0.00000000E+00  0.00000000E+00
  0.00000000E+00  0.00000000E+00  0.00000000E+00
  0.00000000E+00  0.00000000E+00  0.00000000E+00
  0.00000000E+00  0.00000000E+00  0.00000000E+00
  0.00000000E+00  0.00000000E+00  0.00000000E+00
  0.00000000E+00  0.00000000E+00  0.00000000E+00
  0.00000000E+00  0.00000000E+00  0.00000000E+00
  0.00000000E+00  0.00000000E+00  0.00000000E+00
  0.00000000E+00  0.00000000E+00  0.00000000E+00
  0.00000000E+00  0.00000000E+00  0.00000000E+00
  0.00000000E+00  0.00000000E+00  0.00000000E+00
  0.00000000E+00  0.00000000E+00  0.00000000E+00
  0.00000000E+00  0.00000000E+00  0.00000000E+00
  0.00000000E+00  0.00000000E+00  0.00000000E+00
  0.00000000E+00  0.00000000E+00  0.00000000E+00
  0.00000000E+00  0.00000000E+00  0.00000000E+00
  0.00000000E+00  0.00000000E+00  0.00000000E+00
  0.00000000E+00  0.00000000E+00  0.00000000E+00
  0.00000000E+00  0.00000000E+00  0.00000000E+00
  0.00000000E+00  0.00000000E+00  0.00000000E+00
  0.00000000E+00  0.00000000E+00  0.00000000E+00
  0.00000000E+00  0.00000000E+00  0.00000000E+00
  0.00000000E+00  0.00000000E+00  0.00000000E+00
  0.00000000E+00  0.00000000E+00  0.00000000E+00
  0.00000000E+00  0.00000000E+00  0.00000000E+00
  0.00000000E+00  0.00000000E+00  0.00000000E+00
  0.00000000E+00  0.00000000E+00  0.00000000E+00
  0.00000000E+00  0.00000000E+00  0.00000000E+00
  0.00000000E+00  0.00000000E+00  0.00000000E+00
  0.00000000E+00  0.00000000E+00  0.00000000E+00
  0.00000000E+00  0.00000000E+00  0.00000000E+00
  0.00000000E+00  0.00000000E+00  0.00000000E+00
  0.00000000E+00  0.00000000E+00  0.00000000E+00
  0.00000000E+00  0.00000000E+00  0.00000000E+00
  0.00000000E+00  0.00000000E+00  0.00000000E+00
  0.00000000E+00  0.00000000E+00  0.00000000E+00
  0.00000000E+00  0.00000000E+00  0.00000000E+00
  0.00000000E+00  0.00000000E+00  0.00000000E+00
  0.00000000E+00  0.00000000E+00  0.00000000E+00
  0.00000000E+00  0.00000000E+00  0.00000000E+00
  0.00000000E+00  0.00000000E+00  0.00000000E+00
  0.00000000E+00  0.00000000E+00  0.00000000E+00
  0.00000000E+00  0.00000000E+00  0.00000000E+00
  0.00000000E+00  0.00000000E+00  0.00000000E+00
  0.00000000E+00  0.00000000E+00  0.00000000E+00
  0.00000000E+00  0.00000000E+00  0.00000000E+00
  0.00000000E+00  0.00000000E+00  0.00000000E+00
  0.00000000E+00  0.00000000E+00  0.00000000E+00
  0.00000000E+00  0.00000000E+00  0.00000000E+00
  0.00000000E+00  0.00000000E+00  0.00000000E+00
  0.00000000E+00  0.00000000E+00  0.00000000E+00
  0.00000000E+00  0.00000000E+00  0.00000000E+00
  0.00000000E+00  0.00000000E+00  0.00000000E+00
  0.00000000E+00  0.00000000E+00  0.00000000E+00
  0.00000000E+00  0.00000000E+00  0.00000000E+00
  0.00000000E+00  0.00000000E+00  0.00000000E+00
  0.00000000E+00  0.00000000E+00  0.00000000E+00
  0.00000000E+00  0.00000000E+00  0.00000000E+00
  0.00000000E+00  0.00000000E+00  0.00000000E+00
  0.00000000E+00  0.00000000E+00  0.00000000E+00
  0.00000000E+00  0.00000000E+00  0.00000000E+00
  0.00000000E+00  0.00000000E+00  0.00000000E+00
  0.00000000E+00  0.00000000E+00  0.00000000E+00
  0.00000000E+00  0.00000000E+00  0.00000000E+00
  0.00000000E+00  0.00000000E+00  0.00000000E+00
  0.00000000E+00  0.00000000E+00  0.00000000E+00
  0.00000000E+00  0.00000000E+00  0.00000000E+00
  0.00000000E+00  0.00000000E+00  0.00000000E+00
  0.00000000E+00  0.00000000E+00  0.00000000E+00
  0.00000000E+00  0.00000000E+00  0.00000000E+00
  0.00000000E+00  0.00000000E+00  0.00000000E+00
  0.00000000E+00  0.00000000E+00  0.00000000E+00
  0.00000000E+00  0.00000000E+00  0.00000000E+00
  0.00000000E+00  0.00000000E+00  0.00000000E+00
  0.00000000E+00  0.00000000E+00  0.00000000E+00
  0.00000000E+00  0.00000000E+00  0.00000000E+00
  0.00000000E+00  0.00000000E+00  0.00000000E+00
  0.00000000E+00  0.00000000E+00  0.00000000E+00
  0.00000000E+00  0.00000000E+00  0.00000000E+00
  0.00000000E+00  0.00000000E+00  0.00000000E+00
  0.00000000E+00  0.00000000E+00  0.00000000E+00
  0.00000000E+00  0.00000000E+00  0.00000000E+00
  0.00000000E+00  0.00000000E+00  0.00000000E+00
  0.00000000E+00  0.00000000E+00  0.00000000E+00
  0.00000000E+00  0.00000000E+00  0.00000000E+00
  0.00000000E+00  0.00000000E+00  0.00000000E+00
  0.00000000E+00  0.00000000E+00  0.00000000E+00
  0.00000000E+00  0.00000000E+00  0.00000000E+00
  0.00000000E+00  0.00000000E+00  0.00000000E+00
  0.00000000E+00  0.00000000E+00  0.00000000E+00
  0.00000000E+00  0.00000000E+00  0.00000000E+00
  0.00000000E+00  0.00000000E+00  0.00000000E+00
  0.00000000E+00  0.00000000E+00  0.00000000E+00
  0.00000000E+00  0.00000000E+00  0.00000000E+00
  0.00000000E+00  0.00000000E+00  0.00000000E+00
  0.00000000E+00  0.00000000E+00  0.00000000E+00
  0.00000000E+00  0.00000000E+00  0.00000000E+00
  0.00000000E+00  0.00000000E+00  0.00000000E+00
  0.00000000E+00  0.00000000E+00  0.00000000E+00
  0.00000000E+00  0.00000000E+00  0.00000000E+00
  0.00000000E+00  0.00000000E+00  0.00000000E+00
  0.00000000E+00  0.00000000E+00  0.00000000E+00
  0.00000000E+00  0.00000000E+00  0.00000000E+00
  0.00000000E+00  0.00000000E+00  0.00000000E+00
  0.00000000E+00  0.00000000E+00  0.00000000E+00
  0.00000000E+00  0.00000000E+00  0.00000000E+00
  0.00000000E+00  0.00000000E+00  0.00000000E+00
  0.00000000E+00  0.00000000E+00  0.00000000E+00
  0.00000000E+00  0.00000000E+00  0.00000000E+00
  0.00000000E+00  0.00000000E+00  0.00000000E+00
  0.00000000E+00  0.00000000E+00  0.00000000E+00
  0.00000000E+00  0.00000000E+00  0.00000000E+00
  0.00000000E+00  0.00000000E+00  0.00000000E+00
  0.00000000E+00  0.00000000E+00  0.00000000E+00
  0.00000000E+00  0.00000000E+00  0.00000000E+00
  0.00000000E+00  0.00000000E+00  0.00000000E+00
