H1 Os1 C124 N2 O2                       
   1.00000000000000     
    19.7605229809957983   -0.0700284376997328    1.0236844746199747
    -9.9547946409881956   17.0549450953587396    0.8302116340379020
     1.5379367370220338    2.3268702612092462   30.1834918319972267
   H    Os   C    N    O 
     1     1   124     2     2
Direct
  0.4756936433240128  0.5427020300146778  0.4096987797850892
  0.6049701517847778  0.6032517346571392  0.4595224166049022
  0.0399041668005638  0.0816882450154004  0.4013528229880072
  0.0403085790168260  0.2068012345528567  0.4002241446086893
  0.0402427952274549  0.3316257736066822  0.3995306596839414
  0.0398611172164318  0.4567020111265092  0.3997445555074730
  0.0393774694166425  0.5815692570294410  0.4006656057346715
  0.0390861830118321  0.7063451123115462  0.4017301491554874
  0.0391390219747945  0.8313260861020212  0.4025401842556371
  0.0394230091711043  0.9565258806024527  0.4022907231184811
  0.1656173954595479  0.0827669804322432  0.4006188980024174
  0.1659842712501555  0.2077814733538696  0.3998850219018756
  0.1661157577249768  0.3330633427890675  0.3990495702857143
  0.1648082384566417  0.4574546115180187  0.3989362657180677
  0.1640347570821468  0.5821142306744064  0.3997264263338292
  0.1640288384125592  0.7070780635499917  0.4005865490043115
  0.1643030272882347  0.8320013200852361  0.4011232196795642
  0.1647562972273617  0.9571563688344273  0.4011149175060340
  0.2905639531910851  0.0826221733641259  0.3996788699989241
  0.2922805384741663  0.2093127135007843  0.3994298414443380
  0.2925195598689070  0.3346797014357861  0.3986848439627011
  0.2916523363598333  0.4595744431930613  0.3976927551788398
  0.2886413001247959  0.5836897398807447  0.3986430217758854
  0.2885683523816242  0.7078089637634738  0.3996725347093480
  0.2892910185080562  0.8323238606941706  0.4000981686528955
  0.2898720597901568  0.9572736712869346  0.3999362874127428
  0.4154000897099896  0.0817016665474781  0.3992601574257475
  0.4159543436959416  0.2065520449254748  0.3991912011621099
  0.4192894434003968  0.3337666316299804  0.3996828191975004
  0.4129120657537370  0.7073419309959477  0.3993893975268112
  0.4139966085058913  0.8319256559850032  0.4001176167807514
  0.4146779379258874  0.9566966090723413  0.3997876150395540
  0.5400439948783473  0.0807768271681104  0.3998026954948320
  0.5407462372997418  0.2056663414385307  0.3992443935181151
  0.5414100527278202  0.3300977253407134  0.3995454936283348
  0.5380272497852490  0.4508246067414246  0.4010865413790571
  0.5398838845476461  0.5774214330821430  0.4054582347888327
  0.5359262436507988  0.7037098320122442  0.4004182527619203
  0.5382667701677692  0.8301324600367798  0.4007690402825137
  0.5393452388395362  0.9555918537530417  0.4005934674048762
  0.6646157059981169  0.0803011515287800  0.4007488835267863
  0.6654070855175931  0.2055568478129030  0.3998445089655557
  0.6658918787372918  0.3303563511572142  0.3996368793418481
  0.6661073540128022  0.4550806063566689  0.4000161212601163
  0.6653846256830034  0.5789056977283936  0.3998473757520699
  0.6628496631681994  0.7046126852296213  0.4013303542470225
  0.6627626237017088  0.8290159539141904  0.4022380089064501
  0.6638034362670773  0.9549117049415887  0.4016982405618290
  0.7893370956294218  0.0802204185538110  0.4015435578864010
  0.7899969240079570  0.2055444285460181  0.4004537828971059
  0.7905282740491888  0.3307313695885086  0.3999835183511933
  0.7905333077516055  0.4556740900270425  0.4003172752390381
  0.7899145891671111  0.5800711071480900  0.4013671173668086
  0.7895521161058320  0.7050697092468530  0.4032568534122190
  0.7880182506305181  0.8297725141915990  0.4031947184578093
  0.7883342175887298  0.9546945399494061  0.4026424926917356
  0.9143828689337196  0.0806946557960131  0.4016691843073504
  0.9149253594117112  0.2059759969254659  0.4004907919309071
  0.9151849032182763  0.3310942309451881  0.3999511099258098
  0.9150317109073902  0.4560131120842767  0.4002763309270000
  0.9147590805821186  0.5809628573389714  0.4013486851237074
  0.9141353433242090  0.7057989663241243  0.4027127156761123
  0.9136274239409211  0.8304168234104968  0.4033458659950229
  0.9138961408924829  0.9554839082692120  0.4028155862919461
  0.0817102166826185  0.0403512715151333  0.4014533693798402
  0.0820780841453259  0.1654283143319285  0.4004857435022794
  0.0821762814822979  0.2905230778381029  0.3995310180379087
  0.0816793056014103  0.4153327535202171  0.3993573837940356
  0.0809116609082472  0.5400287734421896  0.4000417650943464
  0.0806994898880735  0.6649349346918741  0.4010306100510351
  0.0807942342177379  0.7899519779226467  0.4019061864546284
  0.0810263743225020  0.9149715587692514  0.4021207715335912
  0.2068723811981043  0.0407981580037991  0.4004415958209764
  0.2079546272079396  0.1666581311893720  0.3999292261731623
  0.2079579923412600  0.2916098790814831  0.3991531210555582
  0.2072331629364402  0.4167096219053489  0.3985279851554610
  0.2056064962875115  0.5409397493422140  0.3990849132605336
  0.2055681104492920  0.6657125402060142  0.3999602788230547
  0.2058708091237136  0.7904546800930222  0.4005830603629935
  0.2062946539031068  0.9154747334134199  0.4007378844546334
  0.3318979306921221  0.0406492683816767  0.3995243517412587
  0.3327796481615187  0.1660871966858745  0.3993955793448015
  0.3347787952291436  0.2928223939446952  0.3991657244900547
  0.3285855316553369  0.4161578102172306  0.3977957016611894
  0.3330666172637769  0.5451931207955250  0.3975207402247292
  0.3300501751386291  0.6664186393504618  0.3991254591126831
  0.3307227041558001  0.7908295424171822  0.3999380494467651
  0.3313629517460293  0.9156170693163306  0.3998659911957448
  0.4567937097854451  0.0398854775573888  0.3995295045229513
  0.4573764753974591  0.1647646040155387  0.3991481216643156
  0.4583753635636861  0.2895819866967545  0.3994320185132659
  0.4519481378717509  0.6632750705280129  0.3986746359578903
  0.4553319143986069  0.7901058287221937  0.4001808248945019
  0.4560054265195987  0.9148590503734585  0.4001910074349805
  0.5813840496535714  0.0389310399202659  0.4004127558929992
  0.5820866071924347  0.1640030693858438  0.3995626277281786
  0.5829153910017986  0.2886164154727147  0.3993548425443666
  0.5826112654128071  0.4125335216623899  0.4001400950844715
  0.5814593574463650  0.5361713263499113  0.4010713220712805
  0.5787207789221521  0.6618906805955647  0.4006445180689901
  0.5783867222601740  0.7865262560522618  0.4011908447648326
  0.5804400312938136  0.9134488426240136  0.4010676329865859
  0.7058215085630438  0.0383300525919845  0.4014271100032930
  0.7066959004144724  0.1637850939643966  0.4003598135216739
  0.7073203215624444  0.2888573035582319  0.3997939560378704
  0.7075418710541537  0.4137264333818026  0.3999328089278917
  0.7078448779237910  0.5378621609286446  0.4004660213428861
  0.7053407327238214  0.6625006989161124  0.4020131267721924
  0.7048173077157730  0.7885830806342102  0.4026856131993137
  0.7048645051259861  0.9127573856286134  0.4023205328275570
  0.8306406778427875  0.0384993621359227  0.4020763047231377
  0.8314012514532302  0.1638869178277476  0.4008492524747841
  0.8319144766229637  0.2891341946416147  0.4001246126742311
  0.8320544777956166  0.4141040729594975  0.4001483214966670
  0.8316971525995277  0.5388827483626845  0.4010442366187513
  0.8308525183725995  0.6638848596157527  0.4026051729686548
  0.8301371143369425  0.7881271368110760  0.4034559050999777
  0.8300543966809019  0.9131844971637503  0.4030387250731829
  0.9560628324275738  0.0392576132325487  0.4020388414316549
  0.9565847834972351  0.1645017228512495  0.4007565535236925
  0.9567806775539899  0.2895539031366791  0.3999457580831246
  0.9566017820645328  0.4145640934573028  0.3999339599264698
  0.9563048361029473  0.5395705327889256  0.4007881585195866
  0.9559051349448411  0.6643525883862011  0.4020166958844286
  0.9555031268532960  0.7890977110218096  0.4030886345789429
  0.9556238232246981  0.9141856687989282  0.4029572577599395
  0.4109791120420901  0.5847136298845770  0.3968037102196953
  0.4599609683455098  0.4127015368043194  0.4006311666217945
  0.5924307869326326  0.5490962340571047  0.5193900161485595
  0.5663766011046025  0.6081100310082923  0.5189793527965112
 
  0.00000000E+00  0.00000000E+00  0.00000000E+00
  0.00000000E+00  0.00000000E+00  0.00000000E+00
  0.00000000E+00  0.00000000E+00  0.00000000E+00
  0.00000000E+00  0.00000000E+00  0.00000000E+00
  0.00000000E+00  0.00000000E+00  0.00000000E+00
  0.00000000E+00  0.00000000E+00  0.00000000E+00
  0.00000000E+00  0.00000000E+00  0.00000000E+00
  0.00000000E+00  0.00000000E+00  0.00000000E+00
  0.00000000E+00  0.00000000E+00  0.00000000E+00
  0.00000000E+00  0.00000000E+00  0.00000000E+00
  0.00000000E+00  0.00000000E+00  0.00000000E+00
  0.00000000E+00  0.00000000E+00  0.00000000E+00
  0.00000000E+00  0.00000000E+00  0.00000000E+00
  0.00000000E+00  0.00000000E+00  0.00000000E+00
  0.00000000E+00  0.00000000E+00  0.00000000E+00
  0.00000000E+00  0.00000000E+00  0.00000000E+00
  0.00000000E+00  0.00000000E+00  0.00000000E+00
  0.00000000E+00  0.00000000E+00  0.00000000E+00
  0.00000000E+00  0.00000000E+00  0.00000000E+00
  0.00000000E+00  0.00000000E+00  0.00000000E+00
  0.00000000E+00  0.00000000E+00  0.00000000E+00
  0.00000000E+00  0.00000000E+00  0.00000000E+00
  0.00000000E+00  0.00000000E+00  0.00000000E+00
  0.00000000E+00  0.00000000E+00  0.00000000E+00
  0.00000000E+00  0.00000000E+00  0.00000000E+00
  0.00000000E+00  0.00000000E+00  0.00000000E+00
  0.00000000E+00  0.00000000E+00  0.00000000E+00
  0.00000000E+00  0.00000000E+00  0.00000000E+00
  0.00000000E+00  0.00000000E+00  0.00000000E+00
  0.00000000E+00  0.00000000E+00  0.00000000E+00
  0.00000000E+00  0.00000000E+00  0.00000000E+00
  0.00000000E+00  0.00000000E+00  0.00000000E+00
  0.00000000E+00  0.00000000E+00  0.00000000E+00
  0.00000000E+00  0.00000000E+00  0.00000000E+00
  0.00000000E+00  0.00000000E+00  0.00000000E+00
  0.00000000E+00  0.00000000E+00  0.00000000E+00
  0.00000000E+00  0.00000000E+00  0.00000000E+00
  0.00000000E+00  0.00000000E+00  0.00000000E+00
  0.00000000E+00  0.00000000E+00  0.00000000E+00
  0.00000000E+00  0.00000000E+00  0.00000000E+00
  0.00000000E+00  0.00000000E+00  0.00000000E+00
  0.00000000E+00  0.00000000E+00  0.00000000E+00
  0.00000000E+00  0.00000000E+00  0.00000000E+00
  0.00000000E+00  0.00000000E+00  0.00000000E+00
  0.00000000E+00  0.00000000E+00  0.00000000E+00
  0.00000000E+00  0.00000000E+00  0.00000000E+00
  0.00000000E+00  0.00000000E+00  0.00000000E+00
  0.00000000E+00  0.00000000E+00  0.00000000E+00
  0.00000000E+00  0.00000000E+00  0.00000000E+00
  0.00000000E+00  0.00000000E+00  0.00000000E+00
  0.00000000E+00  0.00000000E+00  0.00000000E+00
  0.00000000E+00  0.00000000E+00  0.00000000E+00
  0.00000000E+00  0.00000000E+00  0.00000000E+00
  0.00000000E+00  0.00000000E+00  0.00000000E+00
  0.00000000E+00  0.00000000E+00  0.00000000E+00
  0.00000000E+00  0.00000000E+00  0.00000000E+00
  0.00000000E+00  0.00000000E+00  0.00000000E+00
  0.00000000E+00  0.00000000E+00  0.00000000E+00
  0.00000000E+00  0.00000000E+00  0.00000000E+00
  0.00000000E+00  0.00000000E+00  0.00000000E+00
  0.00000000E+00  0.00000000E+00  0.00000000E+00
  0.00000000E+00  0.00000000E+00  0.00000000E+00
  0.00000000E+00  0.00000000E+00  0.00000000E+00
  0.00000000E+00  0.00000000E+00  0.00000000E+00
  0.00000000E+00  0.00000000E+00  0.00000000E+00
  0.00000000E+00  0.00000000E+00  0.00000000E+00
  0.00000000E+00  0.00000000E+00  0.00000000E+00
  0.00000000E+00  0.00000000E+00  0.00000000E+00
  0.00000000E+00  0.00000000E+00  0.00000000E+00
  0.00000000E+00  0.00000000E+00  0.00000000E+00
  0.00000000E+00  0.00000000E+00  0.00000000E+00
  0.00000000E+00  0.00000000E+00  0.00000000E+00
  0.00000000E+00  0.00000000E+00  0.00000000E+00
  0.00000000E+00  0.00000000E+00  0.00000000E+00
  0.00000000E+00  0.00000000E+00  0.00000000E+00
  0.00000000E+00  0.00000000E+00  0.00000000E+00
  0.00000000E+00  0.00000000E+00  0.00000000E+00
  0.00000000E+00  0.00000000E+00  0.00000000E+00
  0.00000000E+00  0.00000000E+00  0.00000000E+00
  0.00000000E+00  0.00000000E+00  0.00000000E+00
  0.00000000E+00  0.00000000E+00  0.00000000E+00
  0.00000000E+00  0.00000000E+00  0.00000000E+00
  0.00000000E+00  0.00000000E+00  0.00000000E+00
  0.00000000E+00  0.00000000E+00  0.00000000E+00
  0.00000000E+00  0.00000000E+00  0.00000000E+00
  0.00000000E+00  0.00000000E+00  0.00000000E+00
  0.00000000E+00  0.00000000E+00  0.00000000E+00
  0.00000000E+00  0.00000000E+00  0.00000000E+00
  0.00000000E+00  0.00000000E+00  0.00000000E+00
  0.00000000E+00  0.00000000E+00  0.00000000E+00
  0.00000000E+00  0.00000000E+00  0.00000000E+00
  0.00000000E+00  0.00000000E+00  0.00000000E+00
  0.00000000E+00  0.00000000E+00  0.00000000E+00
  0.00000000E+00  0.00000000E+00  0.00000000E+00
  0.00000000E+00  0.00000000E+00  0.00000000E+00
  0.00000000E+00  0.00000000E+00  0.00000000E+00
  0.00000000E+00  0.00000000E+00  0.00000000E+00
  0.00000000E+00  0.00000000E+00  0.00000000E+00
  0.00000000E+00  0.00000000E+00  0.00000000E+00
  0.00000000E+00  0.00000000E+00  0.00000000E+00
  0.00000000E+00  0.00000000E+00  0.00000000E+00
  0.00000000E+00  0.00000000E+00  0.00000000E+00
  0.00000000E+00  0.00000000E+00  0.00000000E+00
  0.00000000E+00  0.00000000E+00  0.00000000E+00
  0.00000000E+00  0.00000000E+00  0.00000000E+00
  0.00000000E+00  0.00000000E+00  0.00000000E+00
  0.00000000E+00  0.00000000E+00  0.00000000E+00
  0.00000000E+00  0.00000000E+00  0.00000000E+00
  0.00000000E+00  0.00000000E+00  0.00000000E+00
  0.00000000E+00  0.00000000E+00  0.00000000E+00
  0.00000000E+00  0.00000000E+00  0.00000000E+00
  0.00000000E+00  0.00000000E+00  0.00000000E+00
  0.00000000E+00  0.00000000E+00  0.00000000E+00
  0.00000000E+00  0.00000000E+00  0.00000000E+00
  0.00000000E+00  0.00000000E+00  0.00000000E+00
  0.00000000E+00  0.00000000E+00  0.00000000E+00
  0.00000000E+00  0.00000000E+00  0.00000000E+00
  0.00000000E+00  0.00000000E+00  0.00000000E+00
  0.00000000E+00  0.00000000E+00  0.00000000E+00
  0.00000000E+00  0.00000000E+00  0.00000000E+00
  0.00000000E+00  0.00000000E+00  0.00000000E+00
  0.00000000E+00  0.00000000E+00  0.00000000E+00
  0.00000000E+00  0.00000000E+00  0.00000000E+00
  0.00000000E+00  0.00000000E+00  0.00000000E+00
  0.00000000E+00  0.00000000E+00  0.00000000E+00
  0.00000000E+00  0.00000000E+00  0.00000000E+00
  0.00000000E+00  0.00000000E+00  0.00000000E+00
  0.00000000E+00  0.00000000E+00  0.00000000E+00
  0.00000000E+00  0.00000000E+00  0.00000000E+00
  0.00000000E+00  0.00000000E+00  0.00000000E+00
