H1 Os1 C125 N1                          
   1.00000000000000     
    19.8124315711405572   -0.0211326570858586    0.1770430223289788
    -9.9233700504978959   17.0451583234291810   -0.3952441643192107
     0.2661996332980888   -0.5363128056404297   29.8269045344892767
   H    Os   C    N 
     1     1   125     1
Direct
  0.4493771140741673  0.4652744462200303  0.4772024360824966
  0.4363957556647101  0.5023786235280677  0.4320309257656808
  0.0422085153889264  0.0847386288425813  0.3995568381330163
  0.0416500551101751  0.2089813492253085  0.3993911960815520
  0.0410162072306442  0.3334869133751867  0.3992464494966991
  0.0407838597643277  0.4587497475470595  0.3995824588110356
  0.0413330026576686  0.5842329854968257  0.3998695151814358
  0.0418631826108172  0.7096152025601091  0.3996860095779058
  0.0421128294389333  0.8348895303961525  0.3994977037545535
  0.0422335757691279  0.9599812699681572  0.3995152852577798
  0.1679322913481155  0.0861464156656316  0.4000205682693074
  0.1681656064537838  0.2113050540227564  0.4002097954770921
  0.1666042054724819  0.3348866482783092  0.3994566596276746
  0.1646571949408021  0.4591987899542104  0.3989215076633169
  0.1651348161326304  0.5843001056770373  0.3993077426956828
  0.1661596455190780  0.7096674342882916  0.3999685935903530
  0.1668427559102480  0.8350629837373400  0.3998594608450972
  0.1673718101782382  0.9605083311041437  0.3997190232874462
  0.2927299143217900  0.0859569875917712  0.4004068600724186
  0.2939321782595670  0.2126823586208498  0.4023014202255384
  0.2947417342269110  0.3391894949636862  0.4031372566571777
  0.2889479335597194  0.4605593099683966  0.4003581849475112
  0.2886944673511085  0.5848557505907721  0.3988521442578102
  0.2904397895064322  0.7095782068683940  0.3991762933665785
  0.2914093227912674  0.8346682902654547  0.3996241306707608
  0.2920508739451844  0.9600899002651362  0.3996797912773517
  0.4171877078762787  0.0844615980272822  0.4000027963589166
  0.4180484712242787  0.2106208776090179  0.4017004686411417
  0.4201173755360250  0.3383052452924597  0.4069659932182408
  0.4144389116515095  0.7071180560969835  0.3995641163001055
  0.4158926208366426  0.8330474184176672  0.3993181181142245
  0.4165602367028526  0.9587384184952579  0.3995415108904436
  0.5416948640189128  0.0827955640765120  0.3997608619583358
  0.5423841260128844  0.2081733150621922  0.4002358646947922
  0.5436031320710667  0.3332887974433446  0.4019413267233739
  0.5470644630099430  0.4580190379068029  0.4054626259516230
  0.5428882620207472  0.5776810009765664  0.4083715505046316
  0.5377506905965754  0.7030961576902494  0.4021530042727941
  0.5401391529691416  0.8309490969406872  0.3998179365318172
  0.5410584293636725  0.9571163776799025  0.3996109662931611
  0.6662554779625118  0.0820959887900968  0.3997901330104685
  0.6668834818764010  0.2074748782618590  0.3996095971543270
  0.6678224326279635  0.3327783274467159  0.3993980390788081
  0.6695536845580574  0.4580832173130589  0.3993622870544073
  0.6697946799722456  0.5830681537617648  0.4001851476516537
  0.6645265209364696  0.7051874503873876  0.4009227001670765
  0.6643185004545932  0.8303232304418133  0.4002964904020276
  0.6655551253069590  0.9564690239615148  0.3999495586653531
  0.7909713429413874  0.0821414924253300  0.3999017327239583
  0.7914525529292255  0.2074165290109223  0.3996897228663774
  0.7920961678697117  0.3327882328533205  0.3991566752187240
  0.7930732743551725  0.4582753600431589  0.3985105557985308
  0.7935431127360375  0.5836178170156185  0.3984625290411866
  0.7921333907729141  0.7084075523222789  0.3990242170261675
  0.7904184115718423  0.8320260479854310  0.3995839873560516
  0.7904055561164259  0.9568072636217217  0.3999250044465276
  0.9161882433352133  0.0829822089488661  0.3996959786752919
  0.9162488241904148  0.2078507106755129  0.3996014604103550
  0.9164214365060411  0.3330540660700183  0.3996346368594141
  0.9169002632909590  0.4584871321973389  0.3992849779787058
  0.9174699203458359  0.5840051725667421  0.3988041418234832
  0.9172993359892695  0.7092607025854036  0.3988313907833855
  0.9168906433593470  0.8340736512546506  0.3992710018036389
  0.9163293824041808  0.9584416689393002  0.3995931287625072
  0.0842823988024044  0.0436995235355489  0.3996028556532237
  0.0842982541732162  0.1684632236737052  0.3996009485836158
  0.0830872177799396  0.2923782514818125  0.3992019161848085
  0.0819628875198286  0.4170285623798891  0.3991945078979018
  0.0822692711669572  0.5423456872150219  0.3997118765402288
  0.0830654550079325  0.6678314914603851  0.4000174006982087
  0.0836402687640578  0.7932489967879407  0.3997327175668183
  0.0839626267714770  0.9185017793281092  0.3995860942800009
  0.2093605309187702  0.0442161043522331  0.4000275568283550
  0.2101217174606103  0.1700577180031626  0.4007324835819983
  0.2101864610208592  0.2952610167954421  0.4004992775650568
  0.2063785443659266  0.4181286501754866  0.3991706459433338
  0.2058442411461112  0.5424566568121965  0.3988530670218167
  0.2072609804589561  0.6678535325085135  0.3994856601263916
  0.2081830217144398  0.7932036782849589  0.3998958309975502
  0.2087684952127174  0.9186248114870740  0.3997212654906095
  0.3339252156061652  0.0436246484460205  0.3999445763967800
  0.3348007665200222  0.1697657260033618  0.4015953691658042
  0.3364506349763667  0.2968610562602985  0.4048893466210324
  0.3331435665543146  0.4230607773478494  0.4049558642693691
  0.3299282378199112  0.5444902149098355  0.4001265937990885
  0.3314469889837686  0.6677910555384503  0.3990427311083898
  0.3326916361597232  0.7927427312710432  0.3993623365714020
  0.3333461636114253  0.9180182533004838  0.3995687086162446
  0.4584726448554311  0.0421529747517687  0.3997273593350748
  0.4591569336937008  0.1679427872756074  0.4005215598423261
  0.4604498972610332  0.2943672757199640  0.4033276556444546
  0.4658066654180959  0.4220805477354297  0.4132409687132316
  0.4537269255337159  0.6628439419179244  0.4014451219652282
  0.4570410043383805  0.7906189246115795  0.3994131259702864
  0.4578455445178274  0.9164596687813387  0.3994643610082689
  0.5829895171997151  0.0406770357735052  0.3997134953192426
  0.5836683765882155  0.1661792918179600  0.3998160551016792
  0.5845778172592770  0.2913941051137088  0.4003930774236782
  0.5868024510949130  0.4162045051928677  0.4015260355523807
  0.5881058753519769  0.5408354500526474  0.4039723021815576
  0.5796375604567150  0.6608714953061133  0.4034319341717173
  0.5803747926218107  0.7874963259619782  0.4006260683445411
  0.5822394749966593  0.9147526150980423  0.3997414594745430
  0.7075796665708803  0.0401675836973675  0.3999066237017123
  0.7082232015413272  0.1656963064596742  0.3996860080831874
  0.7089205004919542  0.2910122073710860  0.3992828428452810
  0.7102338507210293  0.4162363704732715  0.3988606661391568
  0.7110020460714934  0.5414157397675190  0.3990618673085845
  0.7088524358802420  0.6661029241843349  0.3998521228208196
  0.7063632602048830  0.7890765385832932  0.4001030449439488
  0.7066449392596086  0.9142921171086345  0.4000242627660633
  0.8325509796850243  0.0405797043114103  0.3998904847364252
  0.8328644858092237  0.1657959347763313  0.3997705905396520
  0.8332955233759960  0.2910678529809003  0.3995204115042283
  0.8339954151252004  0.4164074350222814  0.3988741182020024
  0.8346614829913104  0.5418500130487337  0.3984006088278137
  0.8342105536195159  0.6671567532564273  0.3986416231736680
  0.8333201133557249  0.7917097521173623  0.3992478818338391
  0.8324718756041738  0.9157500726091033  0.3997198475009912
  0.9583880344828153  0.0420963888225614  0.3995942060176474
  0.9580864220740392  0.1665847018567554  0.3995239055656084
  0.9578746407609855  0.2914384137463581  0.3995347481113394
  0.9578888430707020  0.4166759328633224  0.3996357610215181
  0.9584849727051205  0.5421528491746339  0.3993515684237921
  0.9588106498851807  0.6676161524523491  0.3990343272981492
  0.9587882743184274  0.7928140282541829  0.3991862999920012
  0.9586382133563753  0.9175913036785928  0.3994580842073001
  0.4096907114088388  0.5820492312978215  0.4028463965937153
 
  0.00000000E+00  0.00000000E+00  0.00000000E+00
  0.00000000E+00  0.00000000E+00  0.00000000E+00
  0.00000000E+00  0.00000000E+00  0.00000000E+00
  0.00000000E+00  0.00000000E+00  0.00000000E+00
  0.00000000E+00  0.00000000E+00  0.00000000E+00
  0.00000000E+00  0.00000000E+00  0.00000000E+00
  0.00000000E+00  0.00000000E+00  0.00000000E+00
  0.00000000E+00  0.00000000E+00  0.00000000E+00
  0.00000000E+00  0.00000000E+00  0.00000000E+00
  0.00000000E+00  0.00000000E+00  0.00000000E+00
  0.00000000E+00  0.00000000E+00  0.00000000E+00
  0.00000000E+00  0.00000000E+00  0.00000000E+00
  0.00000000E+00  0.00000000E+00  0.00000000E+00
  0.00000000E+00  0.00000000E+00  0.00000000E+00
  0.00000000E+00  0.00000000E+00  0.00000000E+00
  0.00000000E+00  0.00000000E+00  0.00000000E+00
  0.00000000E+00  0.00000000E+00  0.00000000E+00
  0.00000000E+00  0.00000000E+00  0.00000000E+00
  0.00000000E+00  0.00000000E+00  0.00000000E+00
  0.00000000E+00  0.00000000E+00  0.00000000E+00
  0.00000000E+00  0.00000000E+00  0.00000000E+00
  0.00000000E+00  0.00000000E+00  0.00000000E+00
  0.00000000E+00  0.00000000E+00  0.00000000E+00
  0.00000000E+00  0.00000000E+00  0.00000000E+00
  0.00000000E+00  0.00000000E+00  0.00000000E+00
  0.00000000E+00  0.00000000E+00  0.00000000E+00
  0.00000000E+00  0.00000000E+00  0.00000000E+00
  0.00000000E+00  0.00000000E+00  0.00000000E+00
  0.00000000E+00  0.00000000E+00  0.00000000E+00
  0.00000000E+00  0.00000000E+00  0.00000000E+00
  0.00000000E+00  0.00000000E+00  0.00000000E+00
  0.00000000E+00  0.00000000E+00  0.00000000E+00
  0.00000000E+00  0.00000000E+00  0.00000000E+00
  0.00000000E+00  0.00000000E+00  0.00000000E+00
  0.00000000E+00  0.00000000E+00  0.00000000E+00
  0.00000000E+00  0.00000000E+00  0.00000000E+00
  0.00000000E+00  0.00000000E+00  0.00000000E+00
  0.00000000E+00  0.00000000E+00  0.00000000E+00
  0.00000000E+00  0.00000000E+00  0.00000000E+00
  0.00000000E+00  0.00000000E+00  0.00000000E+00
  0.00000000E+00  0.00000000E+00  0.00000000E+00
  0.00000000E+00  0.00000000E+00  0.00000000E+00
  0.00000000E+00  0.00000000E+00  0.00000000E+00
  0.00000000E+00  0.00000000E+00  0.00000000E+00
  0.00000000E+00  0.00000000E+00  0.00000000E+00
  0.00000000E+00  0.00000000E+00  0.00000000E+00
  0.00000000E+00  0.00000000E+00  0.00000000E+00
  0.00000000E+00  0.00000000E+00  0.00000000E+00
  0.00000000E+00  0.00000000E+00  0.00000000E+00
  0.00000000E+00  0.00000000E+00  0.00000000E+00
  0.00000000E+00  0.00000000E+00  0.00000000E+00
  0.00000000E+00  0.00000000E+00  0.00000000E+00
  0.00000000E+00  0.00000000E+00  0.00000000E+00
  0.00000000E+00  0.00000000E+00  0.00000000E+00
  0.00000000E+00  0.00000000E+00  0.00000000E+00
  0.00000000E+00  0.00000000E+00  0.00000000E+00
  0.00000000E+00  0.00000000E+00  0.00000000E+00
  0.00000000E+00  0.00000000E+00  0.00000000E+00
  0.00000000E+00  0.00000000E+00  0.00000000E+00
  0.00000000E+00  0.00000000E+00  0.00000000E+00
  0.00000000E+00  0.00000000E+00  0.00000000E+00
  0.00000000E+00  0.00000000E+00  0.00000000E+00
  0.00000000E+00  0.00000000E+00  0.00000000E+00
  0.00000000E+00  0.00000000E+00  0.00000000E+00
  0.00000000E+00  0.00000000E+00  0.00000000E+00
  0.00000000E+00  0.00000000E+00  0.00000000E+00
  0.00000000E+00  0.00000000E+00  0.00000000E+00
  0.00000000E+00  0.00000000E+00  0.00000000E+00
  0.00000000E+00  0.00000000E+00  0.00000000E+00
  0.00000000E+00  0.00000000E+00  0.00000000E+00
  0.00000000E+00  0.00000000E+00  0.00000000E+00
  0.00000000E+00  0.00000000E+00  0.00000000E+00
  0.00000000E+00  0.00000000E+00  0.00000000E+00
  0.00000000E+00  0.00000000E+00  0.00000000E+00
  0.00000000E+00  0.00000000E+00  0.00000000E+00
  0.00000000E+00  0.00000000E+00  0.00000000E+00
  0.00000000E+00  0.00000000E+00  0.00000000E+00
  0.00000000E+00  0.00000000E+00  0.00000000E+00
  0.00000000E+00  0.00000000E+00  0.00000000E+00
  0.00000000E+00  0.00000000E+00  0.00000000E+00
  0.00000000E+00  0.00000000E+00  0.00000000E+00
  0.00000000E+00  0.00000000E+00  0.00000000E+00
  0.00000000E+00  0.00000000E+00  0.00000000E+00
  0.00000000E+00  0.00000000E+00  0.00000000E+00
  0.00000000E+00  0.00000000E+00  0.00000000E+00
  0.00000000E+00  0.00000000E+00  0.00000000E+00
  0.00000000E+00  0.00000000E+00  0.00000000E+00
  0.00000000E+00  0.00000000E+00  0.00000000E+00
  0.00000000E+00  0.00000000E+00  0.00000000E+00
  0.00000000E+00  0.00000000E+00  0.00000000E+00
  0.00000000E+00  0.00000000E+00  0.00000000E+00
  0.00000000E+00  0.00000000E+00  0.00000000E+00
  0.00000000E+00  0.00000000E+00  0.00000000E+00
  0.00000000E+00  0.00000000E+00  0.00000000E+00
  0.00000000E+00  0.00000000E+00  0.00000000E+00
  0.00000000E+00  0.00000000E+00  0.00000000E+00
  0.00000000E+00  0.00000000E+00  0.00000000E+00
  0.00000000E+00  0.00000000E+00  0.00000000E+00
  0.00000000E+00  0.00000000E+00  0.00000000E+00
  0.00000000E+00  0.00000000E+00  0.00000000E+00
  0.00000000E+00  0.00000000E+00  0.00000000E+00
  0.00000000E+00  0.00000000E+00  0.00000000E+00
  0.00000000E+00  0.00000000E+00  0.00000000E+00
  0.00000000E+00  0.00000000E+00  0.00000000E+00
  0.00000000E+00  0.00000000E+00  0.00000000E+00
  0.00000000E+00  0.00000000E+00  0.00000000E+00
  0.00000000E+00  0.00000000E+00  0.00000000E+00
  0.00000000E+00  0.00000000E+00  0.00000000E+00
  0.00000000E+00  0.00000000E+00  0.00000000E+00
  0.00000000E+00  0.00000000E+00  0.00000000E+00
  0.00000000E+00  0.00000000E+00  0.00000000E+00
  0.00000000E+00  0.00000000E+00  0.00000000E+00
  0.00000000E+00  0.00000000E+00  0.00000000E+00
  0.00000000E+00  0.00000000E+00  0.00000000E+00
  0.00000000E+00  0.00000000E+00  0.00000000E+00
  0.00000000E+00  0.00000000E+00  0.00000000E+00
  0.00000000E+00  0.00000000E+00  0.00000000E+00
  0.00000000E+00  0.00000000E+00  0.00000000E+00
  0.00000000E+00  0.00000000E+00  0.00000000E+00
  0.00000000E+00  0.00000000E+00  0.00000000E+00
  0.00000000E+00  0.00000000E+00  0.00000000E+00
  0.00000000E+00  0.00000000E+00  0.00000000E+00
  0.00000000E+00  0.00000000E+00  0.00000000E+00
  0.00000000E+00  0.00000000E+00  0.00000000E+00
  0.00000000E+00  0.00000000E+00  0.00000000E+00
  0.00000000E+00  0.00000000E+00  0.00000000E+00
  0.00000000E+00  0.00000000E+00  0.00000000E+00
  0.00000000E+00  0.00000000E+00  0.00000000E+00
