Cd1 C124 N2                             
   1.00000000000000     
    19.8294663406331040   -0.0146657500196047    0.0000592557295698
    -9.9275592777487258   17.0688445331891359    0.0018701905255568
     0.0000942775468675    0.0033137604981325   29.7422471765311869
   Cd   C    N 
     1   124     2
Direct
  0.4375171010246726  0.4999992853103458  0.4378366828783565
  0.0419287919293426  0.0840129354117374  0.3994900152702979
  0.0410078335183314  0.2081751492798425  0.3987932979104196
  0.0403510278057616  0.3328738920197508  0.3980736349004193
  0.0404129938161510  0.4583170619010546  0.3989261038613195
  0.0411495303267327  0.5838350426304409  0.4001108244719258
  0.0419178066553668  0.7092774902275480  0.4003518513291134
  0.0423221820911986  0.8345773348161123  0.4001220349359491
  0.0424885680366033  0.9596654783609754  0.3998679071000993
  0.1680195468964404  0.0856990290254166  0.4000652197318985
  0.1671010375432841  0.2097975075156739  0.3995640156749918
  0.1652739233504866  0.3337476746041840  0.3986279792340737
  0.1640181307503120  0.4585066933260985  0.3964793705422667
  0.1648645262977619  0.5838702997781746  0.3985993166948777
  0.1660995065543525  0.7093146161697153  0.4000332877169566
  0.1668761030673677  0.8346744800795829  0.4002204512055848
  0.1674757724621910  0.9601251641051192  0.4000482924865620
  0.2926910695730343  0.0854651729729702  0.3998769403159646
  0.2943162901459706  0.2126975917395226  0.4013373229409604
  0.2915033455952625  0.3367477323846281  0.4070384957556454
  0.2874394337814522  0.4587699567646872  0.4034394147775329
  0.2882379446082980  0.5844867166661402  0.3986768375644231
  0.2902253330483792  0.7092774353240859  0.3991377809874711
  0.2913651842504808  0.8343184198204372  0.3999461588557226
  0.2919957483598338  0.9596596793222341  0.3999620142405317
  0.4171616810487740  0.0837296707875027  0.3998761514418611
  0.4178888506259805  0.2091125757180206  0.4001836685769319
  0.4216940889673978  0.3369781383467384  0.4012939134282064
  0.4144417665868998  0.7076353924134404  0.4000535400200128
  0.4158529988288754  0.8330306666703392  0.3998948564791167
  0.4165301774473088  0.9583632802502825  0.3999010844895877
  0.5416742455407467  0.0823516786542264  0.4000036727348908
  0.5424048095426167  0.2075620310898918  0.3997027036749338
  0.5437415924498209  0.3325407445051038  0.3989558067314609
  0.5447760613056618  0.4556404144274832  0.4004311553483954
  0.5502497345709698  0.5825120145867914  0.4160214160330224
  0.5385917991305164  0.7032197449433962  0.4038128558001234
  0.5402006544199263  0.8308136640231568  0.4001545717090213
  0.5410952432748789  0.9568463235283793  0.3998462547836656
  0.6661877292143263  0.0817724361397265  0.4000909524314687
  0.6668522103337960  0.2071955626772151  0.4001186661996902
  0.6678387226151047  0.3325154696950126  0.3993147196571326
  0.6695137028074201  0.4579775397639713  0.3977219591366281
  0.6696526648819104  0.5829528367453946  0.3973455756542147
  0.6668450849792421  0.7067722494364151  0.4006022011632945
  0.6649940227828105  0.8304952298423676  0.4005049236970449
  0.6656610120103968  0.9562933111876241  0.3999694064297584
  0.7909004703413882  0.0818095917613968  0.4000286286581603
  0.7912435407291920  0.2070700919342116  0.4002675443231459
  0.7919719355310803  0.3325466753569872  0.4002660154737588
  0.7929885986746527  0.4581012814259310  0.3992130491754088
  0.7935490604271118  0.5835154876693219  0.3975582204271445
  0.7928215885924232  0.7084191704929305  0.3981774916877736
  0.7915491928273826  0.8325976345219788  0.3989151910852333
  0.7906450903197899  0.9567112243924766  0.3997477716290645
  0.9160779369667326  0.0825624753796619  0.3996537806003037
  0.9158783166300830  0.2073830846645846  0.3996110599751811
  0.9160778634536090  0.3326356698460121  0.3998822931730757
  0.9166527274405990  0.4581462781705702  0.4003082230705746
  0.9173812588480947  0.5837278694397563  0.3999282749059881
  0.9176106878204454  0.7090885443647649  0.3992205518339080
  0.9173205865260793  0.8339245275620969  0.3993608127814478
  0.9166734481429781  0.9582695329594546  0.3996778737786921
  0.0843435301750210  0.0432914869624055  0.3997879864882740
  0.0834698907957842  0.1674122042339720  0.3989354571435637
  0.0821959356531607  0.2915898816434593  0.3981765563014587
  0.0814420422828263  0.4164870271167518  0.3975253058530830
  0.0819979711280022  0.5418999261606391  0.3991925016203687
  0.0830267060348355  0.6674405173970562  0.4002939086930406
  0.0837339089131595  0.7929074691204363  0.4002986947334216
  0.0841070257340292  0.9181807132138532  0.4000700105736948
  0.2093328966083328  0.0437092988984817  0.4000027850504100
  0.2100088747462897  0.1695286457578203  0.4005471546552347
  0.2081634136256354  0.2932424717913325  0.4006704909290565
  0.2053574418997750  0.4170706782156911  0.3973789355388131
  0.2054840024694349  0.5420443425967049  0.3976994993838223
  0.2071554532626071  0.6675030009183599  0.3993066417511629
  0.2081340721905192  0.7928149285905985  0.4001140319753629
  0.2088133747897763  0.9182184710495214  0.4000787530955461
  0.3338841499194235  0.0431379981046225  0.3998418959133438
  0.3347818591859182  0.1691716814494874  0.4002214169029415
  0.3364202485894023  0.2967814799214878  0.4039012594945470
  0.3247267388349732  0.4174860711821954  0.4161052382360590
  0.3302269640751392  0.5443689477062198  0.4004430973336641
  0.3312602498151627  0.6674682001837136  0.3989407296114864
  0.3325948352966939  0.7924537738787695  0.3997057899627527
  0.3333490962283622  0.9176557550195708  0.3999663854024484
  0.4584863812047888  0.0416326048110996  0.3999142200857978
  0.4591406905420123  0.1669546764548601  0.3999098000992865
  0.4605492737115561  0.2923449517780256  0.4000930917661120
  0.4533185809347283  0.6630046401219073  0.4012124421690650
  0.4571066064934904  0.7908679964558205  0.4001473992827580
  0.4578340908162872  0.9162541198661865  0.3998663890472141
  0.5830121042566591  0.0403267479622656  0.3999883873910400
  0.5836392599384420  0.1656882019002798  0.3999568436638284
  0.5847767890992694  0.2907513172191134  0.3991424598936441
  0.5867557447717657  0.4155182766842762  0.3986769215007337
  0.5875446850820600  0.5412446828509845  0.4033798138498631
  0.5835146949905009  0.6632777501045972  0.4069677987906000
  0.5806910718232032  0.7873098877871519  0.4012597860448168
  0.5822906449664955  0.9145238682442735  0.3998441076735267
  0.7075396322350642  0.0398732676256700  0.4000271661490254
  0.7081073388711483  0.1653120094351663  0.4002327173944912
  0.7089026368622255  0.2907002684591462  0.4000225185170197
  0.7101187888647226  0.4161483232219300  0.3986355145871855
  0.7109724056132800  0.5415028537751824  0.3964979971784335
  0.7097484595619490  0.6662853895238168  0.3985921340789010
  0.7079057950518851  0.7902248905672603  0.3995220311461408
  0.7069745540072135  0.9143146172296656  0.4000165620655585
  0.8325337578276115  0.0403306797463967  0.3998324535536094
  0.8326774490273243  0.1654128853261682  0.4000737566248069
  0.8330792497164774  0.2906949533977595  0.4003130859436824
  0.8338193367039840  0.4161496707070371  0.4001080061743976
  0.8345576003296356  0.5416687973264639  0.3989613046840648
  0.8346569506845285  0.6671323045718088  0.3980884699620745
  0.8340095658388497  0.7918334935827105  0.3987788432499910
  0.8330847976669974  0.9159890324628129  0.3994664601163431
  0.9583449465893463  0.0417301436007576  0.3996804094462912
  0.9576942001705334  0.1660732804926879  0.3993504213030326
  0.9573929147335140  0.2908994191866069  0.3991998713174197
  0.9575899277238296  0.4162422814733384  0.3999133456854899
  0.9583356080424369  0.5418297350569482  0.4003109458180453
  0.9589249023800556  0.6673446971120126  0.3999021024345439
  0.9591249130055197  0.7926103367366426  0.3996452838300864
  0.9589402108581173  0.9174374601107915  0.3996716798162623
  0.4089636293876562  0.5835077137367026  0.3996517305121859
  0.4660402392344704  0.4164748472494237  0.3996991109264177
 
  0.00000000E+00  0.00000000E+00  0.00000000E+00
  0.00000000E+00  0.00000000E+00  0.00000000E+00
  0.00000000E+00  0.00000000E+00  0.00000000E+00
  0.00000000E+00  0.00000000E+00  0.00000000E+00
  0.00000000E+00  0.00000000E+00  0.00000000E+00
  0.00000000E+00  0.00000000E+00  0.00000000E+00
  0.00000000E+00  0.00000000E+00  0.00000000E+00
  0.00000000E+00  0.00000000E+00  0.00000000E+00
  0.00000000E+00  0.00000000E+00  0.00000000E+00
  0.00000000E+00  0.00000000E+00  0.00000000E+00
  0.00000000E+00  0.00000000E+00  0.00000000E+00
  0.00000000E+00  0.00000000E+00  0.00000000E+00
  0.00000000E+00  0.00000000E+00  0.00000000E+00
  0.00000000E+00  0.00000000E+00  0.00000000E+00
  0.00000000E+00  0.00000000E+00  0.00000000E+00
  0.00000000E+00  0.00000000E+00  0.00000000E+00
  0.00000000E+00  0.00000000E+00  0.00000000E+00
  0.00000000E+00  0.00000000E+00  0.00000000E+00
  0.00000000E+00  0.00000000E+00  0.00000000E+00
  0.00000000E+00  0.00000000E+00  0.00000000E+00
  0.00000000E+00  0.00000000E+00  0.00000000E+00
  0.00000000E+00  0.00000000E+00  0.00000000E+00
  0.00000000E+00  0.00000000E+00  0.00000000E+00
  0.00000000E+00  0.00000000E+00  0.00000000E+00
  0.00000000E+00  0.00000000E+00  0.00000000E+00
  0.00000000E+00  0.00000000E+00  0.00000000E+00
  0.00000000E+00  0.00000000E+00  0.00000000E+00
  0.00000000E+00  0.00000000E+00  0.00000000E+00
  0.00000000E+00  0.00000000E+00  0.00000000E+00
  0.00000000E+00  0.00000000E+00  0.00000000E+00
  0.00000000E+00  0.00000000E+00  0.00000000E+00
  0.00000000E+00  0.00000000E+00  0.00000000E+00
  0.00000000E+00  0.00000000E+00  0.00000000E+00
  0.00000000E+00  0.00000000E+00  0.00000000E+00
  0.00000000E+00  0.00000000E+00  0.00000000E+00
  0.00000000E+00  0.00000000E+00  0.00000000E+00
  0.00000000E+00  0.00000000E+00  0.00000000E+00
  0.00000000E+00  0.00000000E+00  0.00000000E+00
  0.00000000E+00  0.00000000E+00  0.00000000E+00
  0.00000000E+00  0.00000000E+00  0.00000000E+00
  0.00000000E+00  0.00000000E+00  0.00000000E+00
  0.00000000E+00  0.00000000E+00  0.00000000E+00
  0.00000000E+00  0.00000000E+00  0.00000000E+00
  0.00000000E+00  0.00000000E+00  0.00000000E+00
  0.00000000E+00  0.00000000E+00  0.00000000E+00
  0.00000000E+00  0.00000000E+00  0.00000000E+00
  0.00000000E+00  0.00000000E+00  0.00000000E+00
  0.00000000E+00  0.00000000E+00  0.00000000E+00
  0.00000000E+00  0.00000000E+00  0.00000000E+00
  0.00000000E+00  0.00000000E+00  0.00000000E+00
  0.00000000E+00  0.00000000E+00  0.00000000E+00
  0.00000000E+00  0.00000000E+00  0.00000000E+00
  0.00000000E+00  0.00000000E+00  0.00000000E+00
  0.00000000E+00  0.00000000E+00  0.00000000E+00
  0.00000000E+00  0.00000000E+00  0.00000000E+00
  0.00000000E+00  0.00000000E+00  0.00000000E+00
  0.00000000E+00  0.00000000E+00  0.00000000E+00
  0.00000000E+00  0.00000000E+00  0.00000000E+00
  0.00000000E+00  0.00000000E+00  0.00000000E+00
  0.00000000E+00  0.00000000E+00  0.00000000E+00
  0.00000000E+00  0.00000000E+00  0.00000000E+00
  0.00000000E+00  0.00000000E+00  0.00000000E+00
  0.00000000E+00  0.00000000E+00  0.00000000E+00
  0.00000000E+00  0.00000000E+00  0.00000000E+00
  0.00000000E+00  0.00000000E+00  0.00000000E+00
  0.00000000E+00  0.00000000E+00  0.00000000E+00
  0.00000000E+00  0.00000000E+00  0.00000000E+00
  0.00000000E+00  0.00000000E+00  0.00000000E+00
  0.00000000E+00  0.00000000E+00  0.00000000E+00
  0.00000000E+00  0.00000000E+00  0.00000000E+00
  0.00000000E+00  0.00000000E+00  0.00000000E+00
  0.00000000E+00  0.00000000E+00  0.00000000E+00
  0.00000000E+00  0.00000000E+00  0.00000000E+00
  0.00000000E+00  0.00000000E+00  0.00000000E+00
  0.00000000E+00  0.00000000E+00  0.00000000E+00
  0.00000000E+00  0.00000000E+00  0.00000000E+00
  0.00000000E+00  0.00000000E+00  0.00000000E+00
  0.00000000E+00  0.00000000E+00  0.00000000E+00
  0.00000000E+00  0.00000000E+00  0.00000000E+00
  0.00000000E+00  0.00000000E+00  0.00000000E+00
  0.00000000E+00  0.00000000E+00  0.00000000E+00
  0.00000000E+00  0.00000000E+00  0.00000000E+00
  0.00000000E+00  0.00000000E+00  0.00000000E+00
  0.00000000E+00  0.00000000E+00  0.00000000E+00
  0.00000000E+00  0.00000000E+00  0.00000000E+00
  0.00000000E+00  0.00000000E+00  0.00000000E+00
  0.00000000E+00  0.00000000E+00  0.00000000E+00
  0.00000000E+00  0.00000000E+00  0.00000000E+00
  0.00000000E+00  0.00000000E+00  0.00000000E+00
  0.00000000E+00  0.00000000E+00  0.00000000E+00
  0.00000000E+00  0.00000000E+00  0.00000000E+00
  0.00000000E+00  0.00000000E+00  0.00000000E+00
  0.00000000E+00  0.00000000E+00  0.00000000E+00
  0.00000000E+00  0.00000000E+00  0.00000000E+00
  0.00000000E+00  0.00000000E+00  0.00000000E+00
  0.00000000E+00  0.00000000E+00  0.00000000E+00
  0.00000000E+00  0.00000000E+00  0.00000000E+00
  0.00000000E+00  0.00000000E+00  0.00000000E+00
  0.00000000E+00  0.00000000E+00  0.00000000E+00
  0.00000000E+00  0.00000000E+00  0.00000000E+00
  0.00000000E+00  0.00000000E+00  0.00000000E+00
  0.00000000E+00  0.00000000E+00  0.00000000E+00
  0.00000000E+00  0.00000000E+00  0.00000000E+00
  0.00000000E+00  0.00000000E+00  0.00000000E+00
  0.00000000E+00  0.00000000E+00  0.00000000E+00
  0.00000000E+00  0.00000000E+00  0.00000000E+00
  0.00000000E+00  0.00000000E+00  0.00000000E+00
  0.00000000E+00  0.00000000E+00  0.00000000E+00
  0.00000000E+00  0.00000000E+00  0.00000000E+00
  0.00000000E+00  0.00000000E+00  0.00000000E+00
  0.00000000E+00  0.00000000E+00  0.00000000E+00
  0.00000000E+00  0.00000000E+00  0.00000000E+00
  0.00000000E+00  0.00000000E+00  0.00000000E+00
  0.00000000E+00  0.00000000E+00  0.00000000E+00
  0.00000000E+00  0.00000000E+00  0.00000000E+00
  0.00000000E+00  0.00000000E+00  0.00000000E+00
  0.00000000E+00  0.00000000E+00  0.00000000E+00
  0.00000000E+00  0.00000000E+00  0.00000000E+00
  0.00000000E+00  0.00000000E+00  0.00000000E+00
  0.00000000E+00  0.00000000E+00  0.00000000E+00
  0.00000000E+00  0.00000000E+00  0.00000000E+00
  0.00000000E+00  0.00000000E+00  0.00000000E+00
  0.00000000E+00  0.00000000E+00  0.00000000E+00
  0.00000000E+00  0.00000000E+00  0.00000000E+00
  0.00000000E+00  0.00000000E+00  0.00000000E+00
  0.00000000E+00  0.00000000E+00  0.00000000E+00
  0.00000000E+00  0.00000000E+00  0.00000000E+00
