Au1 C125 N1 O1                          
   1.00000000000000     
    19.8643297989053806   -0.0043652517888091    0.0287345375210370
    -9.9359416110448251   17.0626188046834528   -0.0261320781487632
     0.0432678100200176   -0.0202675062201370   29.6919804711954143
   Au   C    N    O 
     1   125     1     1
Direct
  0.4373438596663755  0.4988244220926913  0.4154893760885949
  0.0415720940762481  0.0838373344426802  0.3996620919983476
  0.0403136678522533  0.2078041395998252  0.3996263113478472
  0.0395964283226331  0.3324648837686331  0.3992258263634055
  0.0398431143659200  0.4581681924823195  0.3988671635352139
  0.0411788693705815  0.5839331664265743  0.3988871481321765
  0.0422961235448726  0.7094821738513117  0.3991382927442221
  0.0427355712706779  0.8348777243014492  0.3993779778731043
  0.0425961802144763  0.9597690694875098  0.3995412059739547
  0.1677280849118475  0.0856058732860916  0.4002027238271419
  0.1663392323826921  0.2094484500770680  0.4008525378544027
  0.1642980398392872  0.3333758663343979  0.4007871984456336
  0.1627068063041422  0.4582657187718173  0.3997107951663996
  0.1642896014107936  0.5838561617894849  0.3991485765488367
  0.1661473154054519  0.7094727084116571  0.3992470911463781
  0.1671821306575178  0.8349538210896665  0.3994478580749419
  0.1677067225783355  0.9603814088392139  0.3997078091858203
  0.2928397835590683  0.0856799235351607  0.4003324984185967
  0.2935621945663575  0.2121676726915325  0.4024328767335156
  0.2907565869198681  0.3360687514035154  0.4048243172554172
  0.2854426971653325  0.4586263093632735  0.4039598769825425
  0.2869940416890545  0.5845045985795991  0.4012102310478721
  0.2900236926700770  0.7094231112723868  0.3998248692239241
  0.2914542226773146  0.8344863174064072  0.3995334833133052
  0.2921622996528259  0.9598740095792381  0.3996434785940995
  0.4172318610068708  0.0840012710058762  0.3998260647238796
  0.4180312783712255  0.2096663142937446  0.4013834103233903
  0.4201879830596088  0.3365987197784405  0.4061683685446473
  0.4139915148825045  0.7072881349507580  0.4020717009242522
  0.4157512937430581  0.8329475387739861  0.4000031619693043
  0.4165642387723214  0.9584479894864020  0.3995930864557999
  0.5415971758764619  0.0823188630107977  0.3995705662170306
  0.5424786610395911  0.2076872167503376  0.3999535860965823
  0.5439871467528803  0.3328078487423878  0.4019396655230833
  0.5490400472885123  0.4576887951283488  0.4067399256561652
  0.5500934853892342  0.5816380727434797  0.4090926071330587
  0.5381945691975090  0.7028053650136413  0.4047639773719865
  0.5399645385398221  0.8305535382886818  0.4011254101117138
  0.5409614760711768  0.9566845365121701  0.3998182452839655
  0.6659646830063621  0.0815056200578160  0.3995883608254026
  0.6667273688833339  0.2069865601276709  0.3994170118786050
  0.6679552195644821  0.3323350448653324  0.3995786941198112
  0.6708942638447337  0.4580672196982644  0.4006691893360028
  0.6727812925158310  0.5841389847265227  0.4024732588381760
  0.6674366933872845  0.7068432564382618  0.4024768600053183
  0.6648337232378068  0.8301715149019633  0.4012441060580544
  0.6654035589721206  0.9559759192778320  0.4001013484440195
  0.7905398023271791  0.0814733344173022  0.3996003048172093
  0.7909065236879298  0.2067390022908928  0.3993387077969942
  0.7918952956841434  0.3323337748213712  0.3990552506623620
  0.7936013772677631  0.4581423424902462  0.3989025443192026
  0.7949203396565350  0.5838182249635693  0.3993366868296922
  0.7940200414261719  0.7091354273202884  0.3999594180220084
  0.7917859142385563  0.8326614010208555  0.3999974678583068
  0.7904025883298710  0.9564425543738144  0.3998224498301106
  0.9156505248857220  0.0822378227268608  0.3995163108371527
  0.9153283579876260  0.2070082919326926  0.3993584064249930
  0.9156489177332434  0.3323542028059671  0.3990521459394933
  0.9166611101238028  0.4580337246323571  0.3987968446637471
  0.9180270030081324  0.5839186092577709  0.3988064386873185
  0.9183310859259839  0.7094812634556728  0.3991357549594946
  0.9178305359262813  0.8342481179068804  0.3994005524074929
  0.9166245987021923  0.9582050022011237  0.3994973340156390
  0.0841732546863302  0.0432629079015871  0.3997448469917496
  0.0828383268308593  0.1671132295974076  0.3999034379586259
  0.0812338852249761  0.2911268971867351  0.3996909348170753
  0.0805011338603413  0.4162076777983822  0.3990862712389932
  0.0816404046738100  0.5418276439849606  0.3988818495059543
  0.0831998934263719  0.6675912794899861  0.3990804506507263
  0.0841192043670907  0.7932069302136359  0.3993299070695553
  0.0844002753199861  0.9184503072992978  0.3995452276531761
  0.2094190534896789  0.0438954657166441  0.4000817537976809
  0.2093391164577308  0.1692433194019311  0.4011032490271472
  0.2071627459565219  0.2928664724900319  0.4019133820952894
  0.2035101606193793  0.4167019803096749  0.4010457561010189
  0.2044464659713241  0.5418707609740813  0.3997633338496800
  0.2070079441412637  0.6676113872578440  0.3993286804172771
  0.2083206756766400  0.7930267580269309  0.3994196949634079
  0.2090951124954840  0.9184973163671256  0.3996051857756280
  0.3340421123569880  0.0433594423644418  0.3998768072562058
  0.3348145630667464  0.1692537974651383  0.4013908699579594
  0.3352368182651185  0.2956740657922567  0.4050168193304739
  0.3256802324090254  0.4178726012684669  0.4069982018674725
  0.3276836574675750  0.5439335035212945  0.4041476803094153
  0.3308106910080778  0.6675245072736399  0.4009756637416241
  0.3326065980192141  0.7925829633786492  0.3997472604170740
  0.3334791790255892  0.9178336844080289  0.3995675967360106
  0.4585359816771324  0.0417819137127517  0.3996143172686343
  0.4592323545890583  0.1672733106998391  0.4002242868792407
  0.4606501875177849  0.2931051876124461  0.4030008057337333
  0.4680261897141745  0.4184092026225414  0.4094558218037657
  0.4530475465080143  0.6629631581165121  0.4048888655792680
  0.4569340121184659  0.7906441275972077  0.4009346261192670
  0.4577964164041325  0.9162034900190401  0.3997377541079513
  0.5828752355481693  0.0401938613833478  0.3996125335477022
  0.5836287322004590  0.1656979311099355  0.3995734800984638
  0.5849204292211228  0.2908399235667380  0.4002780255331242
  0.5883590276905042  0.4157997943475893  0.4027652163711434
  0.5916910234388302  0.5424724238340924  0.4064734793125845
  0.5834480332666826  0.6629525029289632  0.4055672014769615
  0.5803858962100255  0.7869245241708973  0.4023209152358708
  0.5821062938532070  0.9142808959310874  0.4002524492773276
  0.7072648344600774  0.0395452241205762  0.3997288342398497
  0.7078922438735076  0.1650715857044010  0.3994209115120813
  0.7088543908757732  0.2904890198099971  0.3992627279607144
  0.7109688277534379  0.4161192685455958  0.3994614516551649
  0.7129205609404737  0.5418464499632396  0.4005755123627551
  0.7111567245566960  0.6671486002207627  0.4015264909706148
  0.7081249571840111  0.7901796124535950  0.4010781751096215
  0.7067184693801770  0.9139430636359692  0.4002913519659020
  0.8321729382896701  0.0400272274295945  0.3996167792945625
  0.8322178826219518  0.1650451273555943  0.3994298930911283
  0.8328166579377115  0.2904509532246968  0.3991436289123136
  0.8340525107410760  0.4160272744005642  0.3988430850747056
  0.8354717658170142  0.5417912477102267  0.3988645894762302
  0.8355785105420214  0.6676217405803995  0.3993678650629163
  0.8346656357836166  0.7922783137111130  0.3996818025611725
  0.8330614730246626  0.9159304852075727  0.3996959422465095
  0.9580503682265153  0.0415624511073565  0.3995182250208848
  0.9571106225273206  0.1657015909001427  0.3994530175157282
  0.9567873032077364  0.2905297508408103  0.3991746549082730
  0.9572261271081296  0.4160263907645555  0.3988769673378323
  0.9585948083249778  0.5419050672053964  0.3987914960181496
  0.9594921194811559  0.6676165322280982  0.3989985228965262
  0.9596620545077934  0.7929701674381948  0.3993081770214845
  0.9591517287749272  0.9176186250196184  0.3994442310224221
  0.4063928239918106  0.5832209035901639  0.4069643959003249
  0.4377533439060265  0.5005239496166755  0.4876897912006993
 
  0.00000000E+00  0.00000000E+00  0.00000000E+00
  0.00000000E+00  0.00000000E+00  0.00000000E+00
  0.00000000E+00  0.00000000E+00  0.00000000E+00
  0.00000000E+00  0.00000000E+00  0.00000000E+00
  0.00000000E+00  0.00000000E+00  0.00000000E+00
  0.00000000E+00  0.00000000E+00  0.00000000E+00
  0.00000000E+00  0.00000000E+00  0.00000000E+00
  0.00000000E+00  0.00000000E+00  0.00000000E+00
  0.00000000E+00  0.00000000E+00  0.00000000E+00
  0.00000000E+00  0.00000000E+00  0.00000000E+00
  0.00000000E+00  0.00000000E+00  0.00000000E+00
  0.00000000E+00  0.00000000E+00  0.00000000E+00
  0.00000000E+00  0.00000000E+00  0.00000000E+00
  0.00000000E+00  0.00000000E+00  0.00000000E+00
  0.00000000E+00  0.00000000E+00  0.00000000E+00
  0.00000000E+00  0.00000000E+00  0.00000000E+00
  0.00000000E+00  0.00000000E+00  0.00000000E+00
  0.00000000E+00  0.00000000E+00  0.00000000E+00
  0.00000000E+00  0.00000000E+00  0.00000000E+00
  0.00000000E+00  0.00000000E+00  0.00000000E+00
  0.00000000E+00  0.00000000E+00  0.00000000E+00
  0.00000000E+00  0.00000000E+00  0.00000000E+00
  0.00000000E+00  0.00000000E+00  0.00000000E+00
  0.00000000E+00  0.00000000E+00  0.00000000E+00
  0.00000000E+00  0.00000000E+00  0.00000000E+00
  0.00000000E+00  0.00000000E+00  0.00000000E+00
  0.00000000E+00  0.00000000E+00  0.00000000E+00
  0.00000000E+00  0.00000000E+00  0.00000000E+00
  0.00000000E+00  0.00000000E+00  0.00000000E+00
  0.00000000E+00  0.00000000E+00  0.00000000E+00
  0.00000000E+00  0.00000000E+00  0.00000000E+00
  0.00000000E+00  0.00000000E+00  0.00000000E+00
  0.00000000E+00  0.00000000E+00  0.00000000E+00
  0.00000000E+00  0.00000000E+00  0.00000000E+00
  0.00000000E+00  0.00000000E+00  0.00000000E+00
  0.00000000E+00  0.00000000E+00  0.00000000E+00
  0.00000000E+00  0.00000000E+00  0.00000000E+00
  0.00000000E+00  0.00000000E+00  0.00000000E+00
  0.00000000E+00  0.00000000E+00  0.00000000E+00
  0.00000000E+00  0.00000000E+00  0.00000000E+00
  0.00000000E+00  0.00000000E+00  0.00000000E+00
  0.00000000E+00  0.00000000E+00  0.00000000E+00
  0.00000000E+00  0.00000000E+00  0.00000000E+00
  0.00000000E+00  0.00000000E+00  0.00000000E+00
  0.00000000E+00  0.00000000E+00  0.00000000E+00
  0.00000000E+00  0.00000000E+00  0.00000000E+00
  0.00000000E+00  0.00000000E+00  0.00000000E+00
  0.00000000E+00  0.00000000E+00  0.00000000E+00
  0.00000000E+00  0.00000000E+00  0.00000000E+00
  0.00000000E+00  0.00000000E+00  0.00000000E+00
  0.00000000E+00  0.00000000E+00  0.00000000E+00
  0.00000000E+00  0.00000000E+00  0.00000000E+00
  0.00000000E+00  0.00000000E+00  0.00000000E+00
  0.00000000E+00  0.00000000E+00  0.00000000E+00
  0.00000000E+00  0.00000000E+00  0.00000000E+00
  0.00000000E+00  0.00000000E+00  0.00000000E+00
  0.00000000E+00  0.00000000E+00  0.00000000E+00
  0.00000000E+00  0.00000000E+00  0.00000000E+00
  0.00000000E+00  0.00000000E+00  0.00000000E+00
  0.00000000E+00  0.00000000E+00  0.00000000E+00
  0.00000000E+00  0.00000000E+00  0.00000000E+00
  0.00000000E+00  0.00000000E+00  0.00000000E+00
  0.00000000E+00  0.00000000E+00  0.00000000E+00
  0.00000000E+00  0.00000000E+00  0.00000000E+00
  0.00000000E+00  0.00000000E+00  0.00000000E+00
  0.00000000E+00  0.00000000E+00  0.00000000E+00
  0.00000000E+00  0.00000000E+00  0.00000000E+00
  0.00000000E+00  0.00000000E+00  0.00000000E+00
  0.00000000E+00  0.00000000E+00  0.00000000E+00
  0.00000000E+00  0.00000000E+00  0.00000000E+00
  0.00000000E+00  0.00000000E+00  0.00000000E+00
  0.00000000E+00  0.00000000E+00  0.00000000E+00
  0.00000000E+00  0.00000000E+00  0.00000000E+00
  0.00000000E+00  0.00000000E+00  0.00000000E+00
  0.00000000E+00  0.00000000E+00  0.00000000E+00
  0.00000000E+00  0.00000000E+00  0.00000000E+00
  0.00000000E+00  0.00000000E+00  0.00000000E+00
  0.00000000E+00  0.00000000E+00  0.00000000E+00
  0.00000000E+00  0.00000000E+00  0.00000000E+00
  0.00000000E+00  0.00000000E+00  0.00000000E+00
  0.00000000E+00  0.00000000E+00  0.00000000E+00
  0.00000000E+00  0.00000000E+00  0.00000000E+00
  0.00000000E+00  0.00000000E+00  0.00000000E+00
  0.00000000E+00  0.00000000E+00  0.00000000E+00
  0.00000000E+00  0.00000000E+00  0.00000000E+00
  0.00000000E+00  0.00000000E+00  0.00000000E+00
  0.00000000E+00  0.00000000E+00  0.00000000E+00
  0.00000000E+00  0.00000000E+00  0.00000000E+00
  0.00000000E+00  0.00000000E+00  0.00000000E+00
  0.00000000E+00  0.00000000E+00  0.00000000E+00
  0.00000000E+00  0.00000000E+00  0.00000000E+00
  0.00000000E+00  0.00000000E+00  0.00000000E+00
  0.00000000E+00  0.00000000E+00  0.00000000E+00
  0.00000000E+00  0.00000000E+00  0.00000000E+00
  0.00000000E+00  0.00000000E+00  0.00000000E+00
  0.00000000E+00  0.00000000E+00  0.00000000E+00
  0.00000000E+00  0.00000000E+00  0.00000000E+00
  0.00000000E+00  0.00000000E+00  0.00000000E+00
  0.00000000E+00  0.00000000E+00  0.00000000E+00
  0.00000000E+00  0.00000000E+00  0.00000000E+00
  0.00000000E+00  0.00000000E+00  0.00000000E+00
  0.00000000E+00  0.00000000E+00  0.00000000E+00
  0.00000000E+00  0.00000000E+00  0.00000000E+00
  0.00000000E+00  0.00000000E+00  0.00000000E+00
  0.00000000E+00  0.00000000E+00  0.00000000E+00
  0.00000000E+00  0.00000000E+00  0.00000000E+00
  0.00000000E+00  0.00000000E+00  0.00000000E+00
  0.00000000E+00  0.00000000E+00  0.00000000E+00
  0.00000000E+00  0.00000000E+00  0.00000000E+00
  0.00000000E+00  0.00000000E+00  0.00000000E+00
  0.00000000E+00  0.00000000E+00  0.00000000E+00
  0.00000000E+00  0.00000000E+00  0.00000000E+00
  0.00000000E+00  0.00000000E+00  0.00000000E+00
  0.00000000E+00  0.00000000E+00  0.00000000E+00
  0.00000000E+00  0.00000000E+00  0.00000000E+00
  0.00000000E+00  0.00000000E+00  0.00000000E+00
  0.00000000E+00  0.00000000E+00  0.00000000E+00
  0.00000000E+00  0.00000000E+00  0.00000000E+00
  0.00000000E+00  0.00000000E+00  0.00000000E+00
  0.00000000E+00  0.00000000E+00  0.00000000E+00
  0.00000000E+00  0.00000000E+00  0.00000000E+00
  0.00000000E+00  0.00000000E+00  0.00000000E+00
  0.00000000E+00  0.00000000E+00  0.00000000E+00
  0.00000000E+00  0.00000000E+00  0.00000000E+00
  0.00000000E+00  0.00000000E+00  0.00000000E+00
  0.00000000E+00  0.00000000E+00  0.00000000E+00
  0.00000000E+00  0.00000000E+00  0.00000000E+00
  0.00000000E+00  0.00000000E+00  0.00000000E+00
