Zn1 C126 O1                             
   1.00000000000000     
    19.8253538123503752    0.0000000003851484   -0.0014735809337717
    -9.9126784057575179   17.0663553556495700    0.0006932985633700
    -0.0021932305835772   -0.0000759701853560   29.7399585106860940
   Zn   C    O 
     1   126     1
Direct
  0.4375198583435420  0.4999999999998934  0.4176996009785370
  0.0418144541238732  0.0838770391458183  0.3998606827224904
  0.0407734805244715  0.2079810959725634  0.3999257700874495
  0.0402573809514379  0.3327264240503780  0.3996094694010495
  0.0403648979694395  0.4582300614416468  0.3992283098378309
  0.0412751998164751  0.5837442268691433  0.3992402723931150
  0.0420684476714754  0.7091347661060894  0.3994695369693844
  0.0423996345945454  0.8344657441372760  0.3996276048296536
  0.0423750891429862  0.9594282128554994  0.3997117986116123
  0.1675330665641681  0.0851366657187782  0.4003975637029527
  0.1668566269573759  0.2095382269164858  0.4012015930974258
  0.1649809536858768  0.3330993561148787  0.4013599049079488
  0.1638817969369057  0.4582495505254798  0.4003947084403450
  0.1649984442237056  0.5836451321202603  0.3995864551210531
  0.1663922115266985  0.7091034887436862  0.3993916379234577
  0.1670614390933167  0.8344720857022878  0.3996288806130508
  0.1674310805401120  0.9598473071149556  0.3998333200304671
  0.2926083591835749  0.0851504408623143  0.4003855451060261
  0.2931607143564179  0.2113372811875536  0.4023242939982126
  0.2921769618241612  0.3364560836885104  0.4047181285504919
  0.2867380418927894  0.4579853288981823  0.4040887987683703
  0.2885299616397461  0.5839071867207792  0.4016800362941026
  0.2907065643352880  0.7088501244066876  0.4001527795246176
  0.2914939561525003  0.8339769609969352  0.3995943533819357
  0.2920749420123627  0.9594318078930328  0.3997081251254642
  0.4170715419166200  0.0838773240012571  0.3998554868339568
  0.4176875533345168  0.2095493472986263  0.4012054752885703
  0.4192910041609750  0.3364605203474866  0.4046880540641595
  0.4102664260470021  0.5816382643901861  0.4063983635388126
  0.4150731978154028  0.7069964670520434  0.4023276388269608
  0.4160750831031166  0.8327622210710928  0.4002141696398809
  0.4166040352934104  0.9583099009293505  0.3996648242360479
  0.5416251785484931  0.0826296899638308  0.3996230904352416
  0.5422127810431192  0.2079855053536761  0.3999087664974752
  0.5431278444830596  0.3331068966530211  0.4013009536634016
  0.5462633684766729  0.4579932234347339  0.4040349726491570
  0.5463804359618649  0.5816339739438590  0.4063655239961861
  0.5401706875803640  0.7053466295825785  0.4043150993318321
  0.5405435985767397  0.8313331704434361  0.4013152963156443
  0.5411122834586806  0.9570727950650166  0.3999423306513563
  0.6661392768262786  0.0820289209757874  0.3997243312598044
  0.6666488528630765  0.2074286927819387  0.3995031615501219
  0.6674633653556157  0.3327407033990752  0.3995948308446557
  0.6693753683667794  0.4582560504547502  0.4003346414559061
  0.6703894730444304  0.5839068943715446  0.4016110730518321
  0.6669162202522614  0.7069825872818782  0.4022843254525341
  0.6657714773447836  0.8313091668867401  0.4013215094249176
  0.6658317420068656  0.9566520072731919  0.4001896290050482
  0.7908994736068991  0.0820204941108429  0.3997310541547137
  0.7911221834945792  0.2072533287951330  0.3996219221650037
  0.7917399478858727  0.3326933511075509  0.3993521207103754
  0.7928413453821719  0.4582386265985505  0.3992307607306316
  0.7936283568393989  0.5836259436235878  0.3995717924304714
  0.7931336224459997  0.7088369732077595  0.4001187078928226
  0.7916895554345800  0.8327552032222201  0.4002051466668135
  0.7909528566958599  0.9570646189385670  0.3999268522460895
  0.9160211790301460  0.0826325848945189  0.3996218001568366
  0.9157681051808737  0.2074268491420312  0.3995099863615508
  0.9159456523239129  0.3326939552126333  0.3993529780909952
  0.9165656903677615  0.4581556416300288  0.3992533869858050
  0.9174382623073782  0.5837383161802094  0.3992462845966145
  0.9177005848965791  0.7090981665549378  0.3993911921445701
  0.9174806469859931  0.8339714635383402  0.3995903262248888
  0.9167222038904299  0.9583065572218104  0.3996645066439726
  0.0840394883936710  0.0429272049349905  0.3999423306513421
  0.0833138620320639  0.1672377789289925  0.4002151696398499
  0.0818564399286004  0.2911498755933053  0.4001537795246222
  0.0813533121034666  0.4163548678797753  0.3995874551210790
  0.0821348365278496  0.5417689385584765  0.3992283098378238
  0.0832516971112653  0.6673060447873311  0.3993519780909978
  0.0838688546993751  0.7927466712047035  0.3996219221649824
  0.0841113558504958  0.9179710790241984  0.3997243312598187
  0.2091807347337138  0.0433479927268863  0.4001896290050126
  0.2092104281333462  0.1686668295566491  0.4013152963156443
  0.2080777307633781  0.2930035329479992  0.4023276388269679
  0.2046227749189526  0.4160928132791852  0.4016800362940955
  0.2056312464113859  0.5417494494744375  0.4003947084403734
  0.2075309569010955  0.6672735759496788  0.3996094694010708
  0.2083402560388663  0.7925721508580281  0.3995089863615249
  0.2088789794960491  0.9179795058891429  0.3997310541547208
  0.3338882377573000  0.0429353810614330  0.3999268522460753
  0.3344623104580933  0.1686908331133594  0.4013215094249247
  0.3348240579977855  0.2946533704174357  0.4043150993317681
  0.3286291616566999  0.4183617356095795  0.4063983635388411
  0.3287527129945715  0.5420146711017324  0.4040887987684272
  0.3318805975710148  0.6669006438851355  0.4013589049079371
  0.3327913845519248  0.7920179040274675  0.3999257700874566
  0.3333895941356246  0.9173674151054598  0.3996218001568437
  0.4584156466686053  0.0416934427781683  0.3996655066439914
  0.4589333522123837  0.1672437967778251  0.4002041466667805
  0.4599336329704045  0.2930174127181715  0.4022843254525412
  0.4647464620179065  0.4183660260559421  0.4063645239962028
  0.4557208781356223  0.6635439163114185  0.4047181285505062
  0.4573184000409327  0.7904607730836020  0.4012015930974400
  0.4579364149780716  0.9161219608542197  0.3998606827224904
  0.5829468762874797  0.0405717871444793  0.3997117986116336
  0.5835091834476742  0.1660285364616811  0.3995893262248700
  0.5842966492382473  0.2911640267922664  0.4001177078928393
  0.5864825786728503  0.4160941056283889  0.4016110730518179
  0.5882711450418725  0.5420077765651428  0.4040349726491996
  0.5828304838134457  0.6635394796524352  0.4046880540641666
  0.5818234331689283  0.7886627188125672  0.4023232939982435
  0.5823954008454066  0.9148633342812644  0.4003975637029455
  0.7075837734251778  0.0401526928850799  0.3998333200304955
  0.7079338904572126  0.1655342558626174  0.3996276048296608
  0.7086024183416839  0.2909018334451474  0.3993911921445488
  0.7100024132158254  0.4163740563764264  0.3995717924304927
  0.7111203179119769  0.5417439495451504  0.4003346414559417
  0.7100209478300386  0.6668941033469764  0.4013009536633945
  0.7081382060359260  0.7904506527014448  0.4012054752885916
  0.7074579183212890  0.9148495591377426  0.4003855451060190
  0.8326431341193157  0.0405681921069387  0.3997081251254855
  0.8325893533909934  0.1655269142976366  0.3996288806130579
  0.8329346815653125  0.2908652338937685  0.3994695369694057
  0.8336999461271546  0.4162616838197621  0.3992462845966216
  0.8346027187836711  0.5417603734015586  0.3992307607306316
  0.8347216619565643  0.6672582966009699  0.3995958308446887
  0.8342272756894573  0.7920144946463523  0.3999087664974965
  0.8331932179153867  0.9161226759987784  0.3998554868339568
  0.9582941343640528  0.0416900990706282  0.3996648242360692
  0.9575169951555722  0.1660230390030861  0.3995953533818977
  0.9572877227830574  0.2908965112563990  0.3993926379234338
  0.9575309729473247  0.4162547731308166  0.3992412723931267
  0.9584090487376500  0.5418433583698032  0.3992533869858335
  0.9590465967783075  0.6673056488924232  0.3993511207103708
  0.9592201600811450  0.7925713072180969  0.3995031615501077
  0.9589944885846435  0.9173703100361479  0.3996230904352558
  0.4374044300830562  0.5000000000003340  0.4838455277128162
 
  0.00000000E+00  0.00000000E+00  0.00000000E+00
  0.00000000E+00  0.00000000E+00  0.00000000E+00
  0.00000000E+00  0.00000000E+00  0.00000000E+00
  0.00000000E+00  0.00000000E+00  0.00000000E+00
  0.00000000E+00  0.00000000E+00  0.00000000E+00
  0.00000000E+00  0.00000000E+00  0.00000000E+00
  0.00000000E+00  0.00000000E+00  0.00000000E+00
  0.00000000E+00  0.00000000E+00  0.00000000E+00
  0.00000000E+00  0.00000000E+00  0.00000000E+00
  0.00000000E+00  0.00000000E+00  0.00000000E+00
  0.00000000E+00  0.00000000E+00  0.00000000E+00
  0.00000000E+00  0.00000000E+00  0.00000000E+00
  0.00000000E+00  0.00000000E+00  0.00000000E+00
  0.00000000E+00  0.00000000E+00  0.00000000E+00
  0.00000000E+00  0.00000000E+00  0.00000000E+00
  0.00000000E+00  0.00000000E+00  0.00000000E+00
  0.00000000E+00  0.00000000E+00  0.00000000E+00
  0.00000000E+00  0.00000000E+00  0.00000000E+00
  0.00000000E+00  0.00000000E+00  0.00000000E+00
  0.00000000E+00  0.00000000E+00  0.00000000E+00
  0.00000000E+00  0.00000000E+00  0.00000000E+00
  0.00000000E+00  0.00000000E+00  0.00000000E+00
  0.00000000E+00  0.00000000E+00  0.00000000E+00
  0.00000000E+00  0.00000000E+00  0.00000000E+00
  0.00000000E+00  0.00000000E+00  0.00000000E+00
  0.00000000E+00  0.00000000E+00  0.00000000E+00
  0.00000000E+00  0.00000000E+00  0.00000000E+00
  0.00000000E+00  0.00000000E+00  0.00000000E+00
  0.00000000E+00  0.00000000E+00  0.00000000E+00
  0.00000000E+00  0.00000000E+00  0.00000000E+00
  0.00000000E+00  0.00000000E+00  0.00000000E+00
  0.00000000E+00  0.00000000E+00  0.00000000E+00
  0.00000000E+00  0.00000000E+00  0.00000000E+00
  0.00000000E+00  0.00000000E+00  0.00000000E+00
  0.00000000E+00  0.00000000E+00  0.00000000E+00
  0.00000000E+00  0.00000000E+00  0.00000000E+00
  0.00000000E+00  0.00000000E+00  0.00000000E+00
  0.00000000E+00  0.00000000E+00  0.00000000E+00
  0.00000000E+00  0.00000000E+00  0.00000000E+00
  0.00000000E+00  0.00000000E+00  0.00000000E+00
  0.00000000E+00  0.00000000E+00  0.00000000E+00
  0.00000000E+00  0.00000000E+00  0.00000000E+00
  0.00000000E+00  0.00000000E+00  0.00000000E+00
  0.00000000E+00  0.00000000E+00  0.00000000E+00
  0.00000000E+00  0.00000000E+00  0.00000000E+00
  0.00000000E+00  0.00000000E+00  0.00000000E+00
  0.00000000E+00  0.00000000E+00  0.00000000E+00
  0.00000000E+00  0.00000000E+00  0.00000000E+00
  0.00000000E+00  0.00000000E+00  0.00000000E+00
  0.00000000E+00  0.00000000E+00  0.00000000E+00
  0.00000000E+00  0.00000000E+00  0.00000000E+00
  0.00000000E+00  0.00000000E+00  0.00000000E+00
  0.00000000E+00  0.00000000E+00  0.00000000E+00
  0.00000000E+00  0.00000000E+00  0.00000000E+00
  0.00000000E+00  0.00000000E+00  0.00000000E+00
  0.00000000E+00  0.00000000E+00  0.00000000E+00
  0.00000000E+00  0.00000000E+00  0.00000000E+00
  0.00000000E+00  0.00000000E+00  0.00000000E+00
  0.00000000E+00  0.00000000E+00  0.00000000E+00
  0.00000000E+00  0.00000000E+00  0.00000000E+00
  0.00000000E+00  0.00000000E+00  0.00000000E+00
  0.00000000E+00  0.00000000E+00  0.00000000E+00
  0.00000000E+00  0.00000000E+00  0.00000000E+00
  0.00000000E+00  0.00000000E+00  0.00000000E+00
  0.00000000E+00  0.00000000E+00  0.00000000E+00
  0.00000000E+00  0.00000000E+00  0.00000000E+00
  0.00000000E+00  0.00000000E+00  0.00000000E+00
  0.00000000E+00  0.00000000E+00  0.00000000E+00
  0.00000000E+00  0.00000000E+00  0.00000000E+00
  0.00000000E+00  0.00000000E+00  0.00000000E+00
  0.00000000E+00  0.00000000E+00  0.00000000E+00
  0.00000000E+00  0.00000000E+00  0.00000000E+00
  0.00000000E+00  0.00000000E+00  0.00000000E+00
  0.00000000E+00  0.00000000E+00  0.00000000E+00
  0.00000000E+00  0.00000000E+00  0.00000000E+00
  0.00000000E+00  0.00000000E+00  0.00000000E+00
  0.00000000E+00  0.00000000E+00  0.00000000E+00
  0.00000000E+00  0.00000000E+00  0.00000000E+00
  0.00000000E+00  0.00000000E+00  0.00000000E+00
  0.00000000E+00  0.00000000E+00  0.00000000E+00
  0.00000000E+00  0.00000000E+00  0.00000000E+00
  0.00000000E+00  0.00000000E+00  0.00000000E+00
  0.00000000E+00  0.00000000E+00  0.00000000E+00
  0.00000000E+00  0.00000000E+00  0.00000000E+00
  0.00000000E+00  0.00000000E+00  0.00000000E+00
  0.00000000E+00  0.00000000E+00  0.00000000E+00
  0.00000000E+00  0.00000000E+00  0.00000000E+00
  0.00000000E+00  0.00000000E+00  0.00000000E+00
  0.00000000E+00  0.00000000E+00  0.00000000E+00
  0.00000000E+00  0.00000000E+00  0.00000000E+00
  0.00000000E+00  0.00000000E+00  0.00000000E+00
  0.00000000E+00  0.00000000E+00  0.00000000E+00
  0.00000000E+00  0.00000000E+00  0.00000000E+00
  0.00000000E+00  0.00000000E+00  0.00000000E+00
  0.00000000E+00  0.00000000E+00  0.00000000E+00
  0.00000000E+00  0.00000000E+00  0.00000000E+00
  0.00000000E+00  0.00000000E+00  0.00000000E+00
  0.00000000E+00  0.00000000E+00  0.00000000E+00
  0.00000000E+00  0.00000000E+00  0.00000000E+00
  0.00000000E+00  0.00000000E+00  0.00000000E+00
  0.00000000E+00  0.00000000E+00  0.00000000E+00
  0.00000000E+00  0.00000000E+00  0.00000000E+00
  0.00000000E+00  0.00000000E+00  0.00000000E+00
  0.00000000E+00  0.00000000E+00  0.00000000E+00
  0.00000000E+00  0.00000000E+00  0.00000000E+00
  0.00000000E+00  0.00000000E+00  0.00000000E+00
  0.00000000E+00  0.00000000E+00  0.00000000E+00
  0.00000000E+00  0.00000000E+00  0.00000000E+00
  0.00000000E+00  0.00000000E+00  0.00000000E+00
  0.00000000E+00  0.00000000E+00  0.00000000E+00
  0.00000000E+00  0.00000000E+00  0.00000000E+00
  0.00000000E+00  0.00000000E+00  0.00000000E+00
  0.00000000E+00  0.00000000E+00  0.00000000E+00
  0.00000000E+00  0.00000000E+00  0.00000000E+00
  0.00000000E+00  0.00000000E+00  0.00000000E+00
  0.00000000E+00  0.00000000E+00  0.00000000E+00
  0.00000000E+00  0.00000000E+00  0.00000000E+00
  0.00000000E+00  0.00000000E+00  0.00000000E+00
  0.00000000E+00  0.00000000E+00  0.00000000E+00
  0.00000000E+00  0.00000000E+00  0.00000000E+00
  0.00000000E+00  0.00000000E+00  0.00000000E+00
  0.00000000E+00  0.00000000E+00  0.00000000E+00
  0.00000000E+00  0.00000000E+00  0.00000000E+00
  0.00000000E+00  0.00000000E+00  0.00000000E+00
  0.00000000E+00  0.00000000E+00  0.00000000E+00
  0.00000000E+00  0.00000000E+00  0.00000000E+00
  0.00000000E+00  0.00000000E+00  0.00000000E+00
  0.00000000E+00  0.00000000E+00  0.00000000E+00
