H1 Ru1 C122 N4 O2                       
   1.00000000000000     
    19.8388691086530571    0.0000035719797700    0.0345859475333473
    -9.9194329280425357   17.0212598649673623   -0.0646801423253332
     0.0519267279715121   -0.0828974979437980   29.7987533379208962
   H    Ru   C    N    O 
     1     1   122     4     2
Direct
  0.5247985455433227  0.5506542244023559  0.5205246872693667
  0.4375569039426851  0.5003007261569815  0.4189805837429935
  0.0421043524774080  0.0843091070320358  0.3998446236429082
  0.0407627852700423  0.2081080972103945  0.3998537194265469
  0.0397527622655494  0.3327891257869070  0.3993871678816194
  0.0398706588934010  0.4582036670482595  0.3987521825534996
  0.0411047150663571  0.5839461147419334  0.3987093435402840
  0.0422561427744546  0.7095538664468006  0.3990436782572396
  0.0426737247056943  0.8348555935726959  0.3993174002132627
  0.0427690710540623  0.9600055944080026  0.3995066640558744
  0.1684600033051333  0.0863916897771869  0.4008192502417616
  0.1674808296336286  0.2106500307342541  0.4016246617445509
  0.1643923568508354  0.3336178194026149  0.4015043111276311
  0.1630091932905235  0.4585178178402860  0.4001144223015956
  0.1644187214129145  0.5838724700036467  0.3992208269996991
  0.1662436506457454  0.7093139971322310  0.3991388148875121
  0.1671951474552285  0.8348763454579693  0.3993128465572134
  0.1678026481525458  0.9605495190671464  0.3998345659277133
  0.2929504906036373  0.0864080017826852  0.4008479844318524
  0.2945082831127459  0.2141143272654171  0.4034645620908165
  0.2920026551536067  0.3390727199838610  0.4057669809706778
  0.2853646202848633  0.4582219236237928  0.4049079747481360
  0.2871725906921503  0.5832497488845909  0.4017904256536712
  0.2902428058969281  0.7086309682567546  0.4000693050935890
  0.2915907974173496  0.8342183303057136  0.3993579666001568
  0.2923204507761353  0.9600462004910316  0.3995264550979282
  0.4172650863794722  0.0843678324199481  0.3999042870487407
  0.4181218867341968  0.2106823882463840  0.4018633404363791
  0.4219469179883157  0.3391445882224952  0.4060448541904558
  0.4141264966937782  0.7059018871001698  0.4025373638330063
  0.4158979852718376  0.8322066884424254  0.4003144822515020
  0.4166888607060161  0.9583145101062014  0.3994064104535605
  0.5415982929389292  0.0824082902899571  0.3993483309575730
  0.5423373274157685  0.2081659252356200  0.4000051373516550
  0.5441058712377989  0.3336359768078453  0.4019020418425606
  0.5476322101716609  0.4581933817409283  0.4053432804615511
  0.5378181009715964  0.7008588180248532  0.4056654283185188
  0.5401530609306490  0.8296566261025690  0.4019830792570838
  0.5409990744011427  0.9563317861622159  0.4000017522069331
  0.6660013508594559  0.0815646725312981  0.3995445401422985
  0.6666462824589466  0.2071932053519331  0.3992506993044064
  0.6679387753107809  0.3328076967458048  0.3995083342598733
  0.6703318004421834  0.4585020764191129  0.4004383324539899
  0.6709267958955338  0.5832509253656808  0.4021643437143048
  0.6666525302427184  0.7058639350441883  0.4027741846977534
  0.6644411278115600  0.8296308220127055  0.4019847939005681
  0.6653949052130775  0.9557750395060555  0.4005432859993335
  0.7906135346793632  0.0815341200329969  0.3995839439319557
  0.7909739331125706  0.2069682548260337  0.3992261460509003
  0.7918013788095575  0.3325385788067717  0.3989025151292367
  0.7931796690517432  0.4582000657106150  0.3988100065994258
  0.7942744153988185  0.5838381185959797  0.3993366982028549
  0.7932982980364104  0.7086066163721549  0.4001866950523302
  0.7912454436087265  0.8321434246098296  0.4004145961899603
  0.7903288216424863  0.9562775579622721  0.4000159010305083
  0.9158302876046550  0.0823366129441045  0.3993534769088589
  0.9154882346642073  0.2071292365364997  0.3992603269143042
  0.9156701937082492  0.3325247384063060  0.3989187830487653
  0.9165519222711008  0.4582312263237330  0.3985499310111018
  0.9177013092997439  0.5839266432085273  0.3987034006628710
  0.9179953113311750  0.7092743210649065  0.3991693030280790
  0.9175946528572604  0.8341548280739265  0.3994136215865806
  0.9166542874547106  0.9582380001009135  0.3994409059848603
  0.0847414629072498  0.0437922251728150  0.3999806335001576
  0.0837659309725192  0.1679152018349229  0.4003547932121630
  0.0816798808334748  0.2914765109384387  0.4000935657219293
  0.0806101659826677  0.4162270370581409  0.3992139099151075
  0.0817198106672481  0.5418842129648280  0.3987631325434745
  0.0831950045267012  0.6675691182464735  0.3989422113916116
  0.0840566892269053  0.7931243707267261  0.3992512988560775
  0.0844949012733642  0.9185460602952018  0.3995369290958093
  0.2096893398596581  0.0443572698449065  0.4005427818911212
  0.2105776327800658  0.1704976313532583  0.4020717094302791
  0.2083044546576019  0.2942467747116588  0.4026582519421812
  0.2039963076808425  0.4168809029550338  0.4018205763501709
  0.2045492665593223  0.5415900892038027  0.4001159079683598
  0.2070117841460569  0.6673105605538771  0.3993804878457589
  0.2084015831041028  0.7929549424825875  0.3992472692592582
  0.2091265158401615  0.9185692751435398  0.3995479734587443
  0.3341059344222339  0.0438240312503096  0.4000184920355755
  0.3348810992483489  0.1705064931238279  0.4021492366429052
  0.3370662278967624  0.2993384689999288  0.4058679115380504
  0.3272170630420414  0.5419498987375940  0.4048767812372430
  0.3308320332854796  0.6665102910440578  0.4014432892944070
  0.3327041808799718  0.7919927872937387  0.3998320046986641
  0.3335342017708636  0.9177474091856880  0.3993360302202191
  0.4584559309367217  0.0418591937827581  0.3994269496909966
  0.4591574168165197  0.1679801021585693  0.4005295418237363
  0.4608493310011093  0.2942802741658699  0.4030443284796634
  0.4530130976857880  0.6611155447210246  0.4056005484942387
  0.4569032781404658  0.7894971044544717  0.4015385984443259
  0.4578428679651809  0.9158024249865609  0.3998322184025548
  0.5828106707886052  0.0400955099388458  0.3995212899417110
  0.5834762876332830  0.1659371518351229  0.3993972165554923
  0.5847336763940052  0.2915009664069370  0.4003160881740883
  0.5877355022738916  0.4168711185167483  0.4022845600137733
  0.5895499012387648  0.5419649963743335  0.4053109300735395
  0.5829193829084501  0.6610607726361962  0.4058020958418808
  0.5804767815120616  0.7860511929455856  0.4032961163165096
  0.5821333014861066  0.9137472625199317  0.4008138994129858
  0.7073141810746723  0.0395676265964349  0.3998664898261040
  0.7078622465403347  0.1652420992389923  0.3992822885885644
  0.7087617584123965  0.2908164189416160  0.3991476863737036
  0.7104883904794507  0.4162446325095663  0.3993751892383894
  0.7118978694812407  0.5415880001840788  0.4003878737330014
  0.7105571026766260  0.6664846995948798  0.4016854546379687
  0.7075183035264253  0.7894510286047176  0.4016356683651304
  0.7066002710049281  0.9137168452238585  0.4007889864726477
  0.8323282908852437  0.0400479384901319  0.3995578515233451
  0.8323770844181592  0.1652182763842896  0.3993249350652918
  0.8327584121244473  0.2905376015017426  0.3990007531156352
  0.8338207770390746  0.4161494654760638  0.3986682166673631
  0.8350289638577324  0.5418754057301947  0.3988154469472502
  0.8351978536907879  0.6672854496324248  0.3994592135238109
  0.8342471319592036  0.7919515086531160  0.3999346975228043
  0.8329676653329701  0.9157507047892554  0.3998873876423210
  0.9584390873100533  0.0417831306749105  0.3994241175020423
  0.9574281814118033  0.1658711739690535  0.3993671422194283
  0.9569898996394074  0.2907766835401637  0.3991376210551260
  0.9572184762738787  0.4161452467193104  0.3986800946769252
  0.9583787319107671  0.5418499822140820  0.3985747132080154
  0.9593189152631827  0.6675522371222312  0.3989531274267377
  0.9595213809240132  0.7929112962810504  0.3992822670916012
  0.9592524641692591  0.9176936506065798  0.3993560902719296
  0.4074822389650837  0.5805906868746831  0.4083972985458658
  0.5479206449490426  0.5805899229409447  0.4085148640140644
  0.3270159898833108  0.4196487854701621  0.4084864586184502
  0.4674687487470210  0.4196727727063635  0.4086233887428884
  0.5025436668143608  0.5003950874314844  0.5044576171851226
  0.4352930326073885  0.5021250210637747  0.4818655410109577
 
  0.00000000E+00  0.00000000E+00  0.00000000E+00
  0.00000000E+00  0.00000000E+00  0.00000000E+00
  0.00000000E+00  0.00000000E+00  0.00000000E+00
  0.00000000E+00  0.00000000E+00  0.00000000E+00
  0.00000000E+00  0.00000000E+00  0.00000000E+00
  0.00000000E+00  0.00000000E+00  0.00000000E+00
  0.00000000E+00  0.00000000E+00  0.00000000E+00
  0.00000000E+00  0.00000000E+00  0.00000000E+00
  0.00000000E+00  0.00000000E+00  0.00000000E+00
  0.00000000E+00  0.00000000E+00  0.00000000E+00
  0.00000000E+00  0.00000000E+00  0.00000000E+00
  0.00000000E+00  0.00000000E+00  0.00000000E+00
  0.00000000E+00  0.00000000E+00  0.00000000E+00
  0.00000000E+00  0.00000000E+00  0.00000000E+00
  0.00000000E+00  0.00000000E+00  0.00000000E+00
  0.00000000E+00  0.00000000E+00  0.00000000E+00
  0.00000000E+00  0.00000000E+00  0.00000000E+00
  0.00000000E+00  0.00000000E+00  0.00000000E+00
  0.00000000E+00  0.00000000E+00  0.00000000E+00
  0.00000000E+00  0.00000000E+00  0.00000000E+00
  0.00000000E+00  0.00000000E+00  0.00000000E+00
  0.00000000E+00  0.00000000E+00  0.00000000E+00
  0.00000000E+00  0.00000000E+00  0.00000000E+00
  0.00000000E+00  0.00000000E+00  0.00000000E+00
  0.00000000E+00  0.00000000E+00  0.00000000E+00
  0.00000000E+00  0.00000000E+00  0.00000000E+00
  0.00000000E+00  0.00000000E+00  0.00000000E+00
  0.00000000E+00  0.00000000E+00  0.00000000E+00
  0.00000000E+00  0.00000000E+00  0.00000000E+00
  0.00000000E+00  0.00000000E+00  0.00000000E+00
  0.00000000E+00  0.00000000E+00  0.00000000E+00
  0.00000000E+00  0.00000000E+00  0.00000000E+00
  0.00000000E+00  0.00000000E+00  0.00000000E+00
  0.00000000E+00  0.00000000E+00  0.00000000E+00
  0.00000000E+00  0.00000000E+00  0.00000000E+00
  0.00000000E+00  0.00000000E+00  0.00000000E+00
  0.00000000E+00  0.00000000E+00  0.00000000E+00
  0.00000000E+00  0.00000000E+00  0.00000000E+00
  0.00000000E+00  0.00000000E+00  0.00000000E+00
  0.00000000E+00  0.00000000E+00  0.00000000E+00
  0.00000000E+00  0.00000000E+00  0.00000000E+00
  0.00000000E+00  0.00000000E+00  0.00000000E+00
  0.00000000E+00  0.00000000E+00  0.00000000E+00
  0.00000000E+00  0.00000000E+00  0.00000000E+00
  0.00000000E+00  0.00000000E+00  0.00000000E+00
  0.00000000E+00  0.00000000E+00  0.00000000E+00
  0.00000000E+00  0.00000000E+00  0.00000000E+00
  0.00000000E+00  0.00000000E+00  0.00000000E+00
  0.00000000E+00  0.00000000E+00  0.00000000E+00
  0.00000000E+00  0.00000000E+00  0.00000000E+00
  0.00000000E+00  0.00000000E+00  0.00000000E+00
  0.00000000E+00  0.00000000E+00  0.00000000E+00
  0.00000000E+00  0.00000000E+00  0.00000000E+00
  0.00000000E+00  0.00000000E+00  0.00000000E+00
  0.00000000E+00  0.00000000E+00  0.00000000E+00
  0.00000000E+00  0.00000000E+00  0.00000000E+00
  0.00000000E+00  0.00000000E+00  0.00000000E+00
  0.00000000E+00  0.00000000E+00  0.00000000E+00
  0.00000000E+00  0.00000000E+00  0.00000000E+00
  0.00000000E+00  0.00000000E+00  0.00000000E+00
  0.00000000E+00  0.00000000E+00  0.00000000E+00
  0.00000000E+00  0.00000000E+00  0.00000000E+00
  0.00000000E+00  0.00000000E+00  0.00000000E+00
  0.00000000E+00  0.00000000E+00  0.00000000E+00
  0.00000000E+00  0.00000000E+00  0.00000000E+00
  0.00000000E+00  0.00000000E+00  0.00000000E+00
  0.00000000E+00  0.00000000E+00  0.00000000E+00
  0.00000000E+00  0.00000000E+00  0.00000000E+00
  0.00000000E+00  0.00000000E+00  0.00000000E+00
  0.00000000E+00  0.00000000E+00  0.00000000E+00
  0.00000000E+00  0.00000000E+00  0.00000000E+00
  0.00000000E+00  0.00000000E+00  0.00000000E+00
  0.00000000E+00  0.00000000E+00  0.00000000E+00
  0.00000000E+00  0.00000000E+00  0.00000000E+00
  0.00000000E+00  0.00000000E+00  0.00000000E+00
  0.00000000E+00  0.00000000E+00  0.00000000E+00
  0.00000000E+00  0.00000000E+00  0.00000000E+00
  0.00000000E+00  0.00000000E+00  0.00000000E+00
  0.00000000E+00  0.00000000E+00  0.00000000E+00
  0.00000000E+00  0.00000000E+00  0.00000000E+00
  0.00000000E+00  0.00000000E+00  0.00000000E+00
  0.00000000E+00  0.00000000E+00  0.00000000E+00
  0.00000000E+00  0.00000000E+00  0.00000000E+00
  0.00000000E+00  0.00000000E+00  0.00000000E+00
  0.00000000E+00  0.00000000E+00  0.00000000E+00
  0.00000000E+00  0.00000000E+00  0.00000000E+00
  0.00000000E+00  0.00000000E+00  0.00000000E+00
  0.00000000E+00  0.00000000E+00  0.00000000E+00
  0.00000000E+00  0.00000000E+00  0.00000000E+00
  0.00000000E+00  0.00000000E+00  0.00000000E+00
  0.00000000E+00  0.00000000E+00  0.00000000E+00
  0.00000000E+00  0.00000000E+00  0.00000000E+00
  0.00000000E+00  0.00000000E+00  0.00000000E+00
  0.00000000E+00  0.00000000E+00  0.00000000E+00
  0.00000000E+00  0.00000000E+00  0.00000000E+00
  0.00000000E+00  0.00000000E+00  0.00000000E+00
  0.00000000E+00  0.00000000E+00  0.00000000E+00
  0.00000000E+00  0.00000000E+00  0.00000000E+00
  0.00000000E+00  0.00000000E+00  0.00000000E+00
  0.00000000E+00  0.00000000E+00  0.00000000E+00
  0.00000000E+00  0.00000000E+00  0.00000000E+00
  0.00000000E+00  0.00000000E+00  0.00000000E+00
  0.00000000E+00  0.00000000E+00  0.00000000E+00
  0.00000000E+00  0.00000000E+00  0.00000000E+00
  0.00000000E+00  0.00000000E+00  0.00000000E+00
  0.00000000E+00  0.00000000E+00  0.00000000E+00
  0.00000000E+00  0.00000000E+00  0.00000000E+00
  0.00000000E+00  0.00000000E+00  0.00000000E+00
  0.00000000E+00  0.00000000E+00  0.00000000E+00
  0.00000000E+00  0.00000000E+00  0.00000000E+00
  0.00000000E+00  0.00000000E+00  0.00000000E+00
  0.00000000E+00  0.00000000E+00  0.00000000E+00
  0.00000000E+00  0.00000000E+00  0.00000000E+00
  0.00000000E+00  0.00000000E+00  0.00000000E+00
  0.00000000E+00  0.00000000E+00  0.00000000E+00
  0.00000000E+00  0.00000000E+00  0.00000000E+00
  0.00000000E+00  0.00000000E+00  0.00000000E+00
  0.00000000E+00  0.00000000E+00  0.00000000E+00
  0.00000000E+00  0.00000000E+00  0.00000000E+00
  0.00000000E+00  0.00000000E+00  0.00000000E+00
  0.00000000E+00  0.00000000E+00  0.00000000E+00
  0.00000000E+00  0.00000000E+00  0.00000000E+00
  0.00000000E+00  0.00000000E+00  0.00000000E+00
  0.00000000E+00  0.00000000E+00  0.00000000E+00
  0.00000000E+00  0.00000000E+00  0.00000000E+00
  0.00000000E+00  0.00000000E+00  0.00000000E+00
  0.00000000E+00  0.00000000E+00  0.00000000E+00
  0.00000000E+00  0.00000000E+00  0.00000000E+00
  0.00000000E+00  0.00000000E+00  0.00000000E+00
  0.00000000E+00  0.00000000E+00  0.00000000E+00
