Re1 C122 N4 O1                          
   1.00000000000000     
    19.8041291386411338   -0.0000387855090721   -0.0356101738811555
    -9.9020941483083647   17.0083806648839762   -0.0344603813486305
    -0.0535363444969914   -0.0915642099712377   29.8737197680692752
   Re   C    N    O 
     1   122     4     1
Direct
  0.4386904050715509  0.5011684358651747  0.4326529805177260
  0.0423751294642080  0.0845542351872407  0.3995854564950750
  0.0412562856412198  0.2083927162637205  0.3995680146826310
  0.0402970625797936  0.3330158848219033  0.3990512723712847
  0.0402610412139560  0.4582058059161064  0.3986278768732375
  0.0412443663831975  0.5837675730782238  0.3989528620550354
  0.0421884042206779  0.7093187569962837  0.3993739224805400
  0.0424574685765068  0.8345703095686168  0.3995775983712000
  0.0426759944998760  0.9598629623099505  0.3995768536273505
  0.1683970846454521  0.0862385079577028  0.4002197907662544
  0.1683079767435998  0.2111863352287429  0.4008592562819772
  0.1652479938885500  0.3340998140476009  0.4008675971586804
  0.1638721333204590  0.4585433275976296  0.3991201914537064
  0.1648902977017076  0.5837417913837676  0.3987099369170798
  0.1663565188206342  0.7090488126385907  0.3991579395520468
  0.1671464872019861  0.8345538485838198  0.3995576811546646
  0.1676876156073430  0.9603089126201593  0.3997678665670736
  0.2928785861843305  0.0862034897288271  0.4002551175809588
  0.2945185466066729  0.2139575137553908  0.4025007928473971
  0.2933516941389616  0.3396764728288213  0.4055986962579596
  0.2868071085997702  0.4588929127089904  0.4038420516000545
  0.2880327048454650  0.5830256419327634  0.4004698312457514
  0.2906090070949132  0.7081871521519825  0.3996001729077080
  0.2917270876917464  0.8339019766313210  0.3993954899984364
  0.2922480964284949  0.9598226648706273  0.3995721183037919
  0.4172216749446526  0.0845043038229254  0.3996280263803716
  0.4179158180507019  0.2111373519051293  0.4008765036136888
  0.4214194982557810  0.3396322563949992  0.4053311679167257
  0.4147613402235604  0.7051138117449216  0.4017522102548617
  0.4160842210827732  0.8318602685681850  0.3998783454374829
  0.4166635666354967  0.9581444311948827  0.3994505077471818
  0.5415158941595738  0.0825505946801891  0.3994516627402789
  0.5421848155364998  0.2083698391737031  0.3996368589128805
  0.5439093951821460  0.3340638173577243  0.4007928878129791
  0.5471679618403633  0.4588758774519844  0.4032501507691324
  0.5380300942284829  0.7009707848622507  0.4045753803637463
  0.5402777365092417  0.8296474701321327  0.4011462163122121
  0.5410848817905159  0.9564047722015890  0.3997877669402680
  0.6660042691045230  0.0817136119677819  0.3996583891395625
  0.6666700298515704  0.2073999696686864  0.3994012506799686
  0.6677658376838920  0.3330261724008052  0.3991928853002257
  0.6697364421580038  0.4585488685720760  0.3992021812446093
  0.6700821447236439  0.5830619488730989  0.4002245323120205
  0.6654364420509117  0.7051503313884856  0.4015795312707483
  0.6644584543304621  0.8296852511157750  0.4011785658419777
  0.6654941088052398  0.9559337791971981  0.4001386538881881
  0.7907666225328821  0.0817170445728149  0.3996646017081594
  0.7911029613206604  0.2071644668040546  0.3995458126553775
  0.7917714186814274  0.3326506144463200  0.3991884274569629
  0.7929819661626271  0.4582208991085020  0.3988121742736054
  0.7938806845464473  0.5837436674596944  0.3989211287738120
  0.7926485628518110  0.7082228799005251  0.3996681239748051
  0.7908562384393721  0.8318990708167170  0.3999253003527430
  0.7903926822336362  0.9564402544463561  0.3998011008644062
  0.9161209168588108  0.0825911846343815  0.3994357834104794
  0.9157760291463709  0.2074128645485207  0.3993818110401522
  0.9159328794861462  0.3326591030734644  0.3991265373447140
  0.9166230536354968  0.4582197531234627  0.3989850482953488
  0.9175505402835284  0.5837844012483560  0.3990282895407919
  0.9177403074619433  0.7090675417856980  0.3992439251380098
  0.9172585658388738  0.8339474591205591  0.3994397305303552
  0.9165858401671814  0.9581989132288761  0.3994685512176704
  0.0847792894355452  0.0437199027514869  0.3997235830262947
  0.0843568184161217  0.1682878364891154  0.3998383668780887
  0.0825257258512267  0.2919133002912273  0.3996632600570432
  0.0812010625061186  0.4162937099355491  0.3987070247247962
  0.0820421640259248  0.5417933276612782  0.3986500140707093
  0.0832662460666587  0.6673542269695878  0.3991656635628413
  0.0839584638101464  0.7928728965818079  0.3995589016484400
  0.0843543784756376  0.9183647252530284  0.3996590973900139
  0.2096185184127570  0.0441893483731567  0.4000871590303074
  0.2107527236682051  0.1705447935993341  0.4011930836321361
  0.2098384983708991  0.2951386061067007  0.4021041547762139
  0.2051390652248709  0.4171363427803507  0.4007327182395891
  0.2053384344755511  0.5415388191684500  0.3990716520206266
  0.2072726107567037  0.6670359367629826  0.3990537457795531
  0.2083604950667062  0.7926395560438025  0.3993800972955423
  0.2090701923105698  0.9183508857041611  0.3996594590743057
  0.3339709674085958  0.0436743154557774  0.3997551864224874
  0.3348420113407656  0.1705089583946492  0.4012161228858984
  0.3372280865938272  0.2993639313105313  0.4051661239818450
  0.3279936006732732  0.5413656884528749  0.4035370081520216
  0.3311862860381516  0.6660631993837547  0.4006044351683398
  0.3328665868034091  0.7917110626148195  0.3995864635759098
  0.3335346699963644  0.9175005152381032  0.3994374459311398
  0.4583877928813430  0.0419232775056729  0.3994550501167161
  0.4589773500495985  0.1682534669745492  0.3999067169659828
  0.4603559620634807  0.2951025853434293  0.4019733993117678
  0.4538324615840118  0.6607016949212194  0.4049252677322441
  0.4571752318054334  0.7890233969686120  0.4007673033531942
  0.4578397641682929  0.9155829527650933  0.3996408270385872
  0.5828240847295462  0.0402433387287315  0.3995884546489300
  0.5833110376738795  0.1661451205079480  0.3994098192230233
  0.5844416783419216  0.2918890006572702  0.3997361153306677
  0.5870666513278946  0.4170990403765767  0.4005310984099171
  0.5884508260877205  0.5413711883377385  0.4029018894350776
  0.5819816288526916  0.6607329816871829  0.4046095948654234
  0.5806887799101053  0.7862887857410741  0.4022875499116249
  0.5822135495099205  0.9139154112769436  0.4002913242234423
  0.7074144443354610  0.0397791863794304  0.3997858293205266
  0.7079017523483444  0.1654981012625937  0.3995608492577311
  0.7086744172809574  0.2909883557679323  0.3992203642014986
  0.7101415844307002  0.4163166976913496  0.3989091462860518
  0.7112584738734702  0.5415472508786232  0.3991481595396579
  0.7099549644997140  0.6661032560228604  0.4004843195233341
  0.7069313109999563  0.7890705854419214  0.4007808139075925
  0.7067687257064635  0.9139450748743214  0.4003078506847277
  0.8325005643386708  0.0402721610755811  0.3995902334275848
  0.8326372074090823  0.1655013828735706  0.3995705762769141
  0.8328819470365223  0.2907038972320148  0.3993414629663488
  0.8337677194132210  0.4162294855835602  0.3989994975416937
  0.8347748543743648  0.5417965186532652  0.3988374175464204
  0.8348035623302281  0.6670421353635634  0.3991957391030014
  0.8339139269477698  0.7917424627797089  0.3996424808903351
  0.8328420511647279  0.9156333549995885  0.3996745633243643
  0.9586329375345187  0.0419747525109355  0.3994378396048192
  0.9579119012418564  0.1661806791894399  0.3993804169678178
  0.9573561085705296  0.2909926336057707  0.3991315537544496
  0.9574889657114219  0.4162377932718286  0.3989180057005799
  0.9584031954528475  0.5417791118333549  0.3989995126160554
  0.9591391235824243  0.6673717453511312  0.3992219483564023
  0.9593304048731013  0.7926672332333522  0.3994250776106723
  0.9590681510758018  0.9175527454441798  0.3994677884859623
  0.4087511004983899  0.5788973730125319  0.4089152477610235
  0.5452725054821619  0.5788844524928640  0.4081896915753287
  0.3301804843268307  0.4216316692125471  0.4096576028903258
  0.4666114556014476  0.4216103541345301  0.4090280428457657
  0.4426454708788465  0.5049119370463264  0.4898624006181492
 
  0.00000000E+00  0.00000000E+00  0.00000000E+00
  0.00000000E+00  0.00000000E+00  0.00000000E+00
  0.00000000E+00  0.00000000E+00  0.00000000E+00
  0.00000000E+00  0.00000000E+00  0.00000000E+00
  0.00000000E+00  0.00000000E+00  0.00000000E+00
  0.00000000E+00  0.00000000E+00  0.00000000E+00
  0.00000000E+00  0.00000000E+00  0.00000000E+00
  0.00000000E+00  0.00000000E+00  0.00000000E+00
  0.00000000E+00  0.00000000E+00  0.00000000E+00
  0.00000000E+00  0.00000000E+00  0.00000000E+00
  0.00000000E+00  0.00000000E+00  0.00000000E+00
  0.00000000E+00  0.00000000E+00  0.00000000E+00
  0.00000000E+00  0.00000000E+00  0.00000000E+00
  0.00000000E+00  0.00000000E+00  0.00000000E+00
  0.00000000E+00  0.00000000E+00  0.00000000E+00
  0.00000000E+00  0.00000000E+00  0.00000000E+00
  0.00000000E+00  0.00000000E+00  0.00000000E+00
  0.00000000E+00  0.00000000E+00  0.00000000E+00
  0.00000000E+00  0.00000000E+00  0.00000000E+00
  0.00000000E+00  0.00000000E+00  0.00000000E+00
  0.00000000E+00  0.00000000E+00  0.00000000E+00
  0.00000000E+00  0.00000000E+00  0.00000000E+00
  0.00000000E+00  0.00000000E+00  0.00000000E+00
  0.00000000E+00  0.00000000E+00  0.00000000E+00
  0.00000000E+00  0.00000000E+00  0.00000000E+00
  0.00000000E+00  0.00000000E+00  0.00000000E+00
  0.00000000E+00  0.00000000E+00  0.00000000E+00
  0.00000000E+00  0.00000000E+00  0.00000000E+00
  0.00000000E+00  0.00000000E+00  0.00000000E+00
  0.00000000E+00  0.00000000E+00  0.00000000E+00
  0.00000000E+00  0.00000000E+00  0.00000000E+00
  0.00000000E+00  0.00000000E+00  0.00000000E+00
  0.00000000E+00  0.00000000E+00  0.00000000E+00
  0.00000000E+00  0.00000000E+00  0.00000000E+00
  0.00000000E+00  0.00000000E+00  0.00000000E+00
  0.00000000E+00  0.00000000E+00  0.00000000E+00
  0.00000000E+00  0.00000000E+00  0.00000000E+00
  0.00000000E+00  0.00000000E+00  0.00000000E+00
  0.00000000E+00  0.00000000E+00  0.00000000E+00
  0.00000000E+00  0.00000000E+00  0.00000000E+00
  0.00000000E+00  0.00000000E+00  0.00000000E+00
  0.00000000E+00  0.00000000E+00  0.00000000E+00
  0.00000000E+00  0.00000000E+00  0.00000000E+00
  0.00000000E+00  0.00000000E+00  0.00000000E+00
  0.00000000E+00  0.00000000E+00  0.00000000E+00
  0.00000000E+00  0.00000000E+00  0.00000000E+00
  0.00000000E+00  0.00000000E+00  0.00000000E+00
  0.00000000E+00  0.00000000E+00  0.00000000E+00
  0.00000000E+00  0.00000000E+00  0.00000000E+00
  0.00000000E+00  0.00000000E+00  0.00000000E+00
  0.00000000E+00  0.00000000E+00  0.00000000E+00
  0.00000000E+00  0.00000000E+00  0.00000000E+00
  0.00000000E+00  0.00000000E+00  0.00000000E+00
  0.00000000E+00  0.00000000E+00  0.00000000E+00
  0.00000000E+00  0.00000000E+00  0.00000000E+00
  0.00000000E+00  0.00000000E+00  0.00000000E+00
  0.00000000E+00  0.00000000E+00  0.00000000E+00
  0.00000000E+00  0.00000000E+00  0.00000000E+00
  0.00000000E+00  0.00000000E+00  0.00000000E+00
  0.00000000E+00  0.00000000E+00  0.00000000E+00
  0.00000000E+00  0.00000000E+00  0.00000000E+00
  0.00000000E+00  0.00000000E+00  0.00000000E+00
  0.00000000E+00  0.00000000E+00  0.00000000E+00
  0.00000000E+00  0.00000000E+00  0.00000000E+00
  0.00000000E+00  0.00000000E+00  0.00000000E+00
  0.00000000E+00  0.00000000E+00  0.00000000E+00
  0.00000000E+00  0.00000000E+00  0.00000000E+00
  0.00000000E+00  0.00000000E+00  0.00000000E+00
  0.00000000E+00  0.00000000E+00  0.00000000E+00
  0.00000000E+00  0.00000000E+00  0.00000000E+00
  0.00000000E+00  0.00000000E+00  0.00000000E+00
  0.00000000E+00  0.00000000E+00  0.00000000E+00
  0.00000000E+00  0.00000000E+00  0.00000000E+00
  0.00000000E+00  0.00000000E+00  0.00000000E+00
  0.00000000E+00  0.00000000E+00  0.00000000E+00
  0.00000000E+00  0.00000000E+00  0.00000000E+00
  0.00000000E+00  0.00000000E+00  0.00000000E+00
  0.00000000E+00  0.00000000E+00  0.00000000E+00
  0.00000000E+00  0.00000000E+00  0.00000000E+00
  0.00000000E+00  0.00000000E+00  0.00000000E+00
  0.00000000E+00  0.00000000E+00  0.00000000E+00
  0.00000000E+00  0.00000000E+00  0.00000000E+00
  0.00000000E+00  0.00000000E+00  0.00000000E+00
  0.00000000E+00  0.00000000E+00  0.00000000E+00
  0.00000000E+00  0.00000000E+00  0.00000000E+00
  0.00000000E+00  0.00000000E+00  0.00000000E+00
  0.00000000E+00  0.00000000E+00  0.00000000E+00
  0.00000000E+00  0.00000000E+00  0.00000000E+00
  0.00000000E+00  0.00000000E+00  0.00000000E+00
  0.00000000E+00  0.00000000E+00  0.00000000E+00
  0.00000000E+00  0.00000000E+00  0.00000000E+00
  0.00000000E+00  0.00000000E+00  0.00000000E+00
  0.00000000E+00  0.00000000E+00  0.00000000E+00
  0.00000000E+00  0.00000000E+00  0.00000000E+00
  0.00000000E+00  0.00000000E+00  0.00000000E+00
  0.00000000E+00  0.00000000E+00  0.00000000E+00
  0.00000000E+00  0.00000000E+00  0.00000000E+00
  0.00000000E+00  0.00000000E+00  0.00000000E+00
  0.00000000E+00  0.00000000E+00  0.00000000E+00
  0.00000000E+00  0.00000000E+00  0.00000000E+00
  0.00000000E+00  0.00000000E+00  0.00000000E+00
  0.00000000E+00  0.00000000E+00  0.00000000E+00
  0.00000000E+00  0.00000000E+00  0.00000000E+00
  0.00000000E+00  0.00000000E+00  0.00000000E+00
  0.00000000E+00  0.00000000E+00  0.00000000E+00
  0.00000000E+00  0.00000000E+00  0.00000000E+00
  0.00000000E+00  0.00000000E+00  0.00000000E+00
  0.00000000E+00  0.00000000E+00  0.00000000E+00
  0.00000000E+00  0.00000000E+00  0.00000000E+00
  0.00000000E+00  0.00000000E+00  0.00000000E+00
  0.00000000E+00  0.00000000E+00  0.00000000E+00
  0.00000000E+00  0.00000000E+00  0.00000000E+00
  0.00000000E+00  0.00000000E+00  0.00000000E+00
  0.00000000E+00  0.00000000E+00  0.00000000E+00
  0.00000000E+00  0.00000000E+00  0.00000000E+00
  0.00000000E+00  0.00000000E+00  0.00000000E+00
  0.00000000E+00  0.00000000E+00  0.00000000E+00
  0.00000000E+00  0.00000000E+00  0.00000000E+00
  0.00000000E+00  0.00000000E+00  0.00000000E+00
  0.00000000E+00  0.00000000E+00  0.00000000E+00
  0.00000000E+00  0.00000000E+00  0.00000000E+00
  0.00000000E+00  0.00000000E+00  0.00000000E+00
  0.00000000E+00  0.00000000E+00  0.00000000E+00
  0.00000000E+00  0.00000000E+00  0.00000000E+00
  0.00000000E+00  0.00000000E+00  0.00000000E+00
  0.00000000E+00  0.00000000E+00  0.00000000E+00
  0.00000000E+00  0.00000000E+00  0.00000000E+00
  0.00000000E+00  0.00000000E+00  0.00000000E+00
