H1 Au1 C125 N1 O1                       
   1.00000000000000     
    19.8586616556583913   -0.0063631124720300    0.1467719722673543
    -9.9353398113939040   17.0609004567820293    0.1751117601876610
     0.2193837090207980    0.4317963020322167   29.7130250429101288
   H    Au   C    N    O 
     1     1   125     1     1
Direct
  0.5043200741782426  0.5663073043643730  0.4947644066055673
  0.4358319990563763  0.4972322867869707  0.4168077980538843
  0.0414052386667941  0.0835753401127323  0.3997054128473300
  0.0403241997198654  0.2076506879977457  0.3994921864421158
  0.0396746361892699  0.3323898199622545  0.3990259131494581
  0.0398146899180682  0.4580542802983493  0.3987150793558013
  0.0409944471328194  0.5837710681390637  0.3983755047197496
  0.0420432860623400  0.7092863600178556  0.3983321983998043
  0.0424620249761806  0.8346054698844867  0.3987478035119614
  0.0423473938127332  0.9594847220085229  0.3993592930575565
  0.1674574770769633  0.0851843213049999  0.4004793619056493
  0.1662065436425878  0.2091414254197831  0.4006595165426858
  0.1644073616315658  0.3331805407981672  0.3998682434337506
  0.1628103731505907  0.4582037139543189  0.3993660122067491
  0.1641439898784254  0.5837196855946500  0.3992195817917393
  0.1659026059452888  0.7092647011831607  0.3989037998308240
  0.1668965187114782  0.8346825227207714  0.3989507889089353
  0.1674054748001352  0.9600123927538214  0.3996247306461329
  0.2924927700336772  0.0852167951951715  0.4007792352165060
  0.2931375734533903  0.2115011356745466  0.4026288544459706
  0.2907434363013478  0.3356572910579757  0.4034661231809518
  0.2856701317975068  0.4584227695550468  0.4018827907234589
  0.2868228095403965  0.5843162446019474  0.4011969938255872
  0.2897251544629621  0.7091806508460883  0.4003165689000636
  0.2912046621891180  0.8342482423395032  0.3994124109004327
  0.2919088759582718  0.9595798608680317  0.3995614371833417
  0.4169935133847517  0.0836796189729801  0.3999578212817309
  0.4176878581825499  0.2091967802534660  0.4019838839581106
  0.4195346468889798  0.3357853646265671  0.4068958769968841
  0.4135878285607108  0.7068782281682957  0.4031673486552004
  0.4154884250064088  0.8326784116859344  0.4005982905156044
  0.4163435249175994  0.9582050121185656  0.3995309431022639
  0.5414487275110916  0.0821235090090566  0.3993199662310801
  0.5422264247132926  0.2074149576787589  0.4001046259312576
  0.5435541942248486  0.3323436625046620  0.4028044154303737
  0.5481520594234354  0.4568267358706983  0.4088625711374681
  0.5493370475275728  0.5807101173222597  0.4121380384454897
  0.5376586911612162  0.7022143540730309  0.4066115043265235
  0.5396163389975542  0.8301888715841983  0.4022562257704052
  0.5407627944924285  0.9564468652173383  0.3998918083695531
  0.6658268143778233  0.0813482199987089  0.3991780048895666
  0.6665859658393866  0.2068230544213676  0.3990130569069618
  0.6677270935636089  0.3321397932533288  0.3995957281898711
  0.6704666703457391  0.4577414796340578  0.4016230633876045
  0.6722583647359605  0.5835951774336556  0.4046276989797789
  0.6669624829837415  0.7063158455400470  0.4044714277292048
  0.6645153131847343  0.8297956571335524  0.4025362357174621
  0.6652084761167628  0.9557507844994487  0.4003255062610218
  0.7904407834817523  0.0813258552518566  0.3992413300241371
  0.7908602537382549  0.2066478524002445  0.3988523547862953
  0.7917663303096617  0.3322159684452816  0.3985664342657426
  0.7933654714453320  0.4579739305579447  0.3985693761861126
  0.7945670593174239  0.5835672580452171  0.3995093121375510
  0.7936156222543981  0.7087645443982581  0.4006648062402771
  0.7914742643819881  0.8323483832903225  0.4006443638886543
  0.7902264228536463  0.9562323098530869  0.3999745074186198
  0.9155509777817916  0.0820836640562364  0.3993347833746332
  0.9153326981350458  0.2069021308063969  0.3990613536051679
  0.9156245290479484  0.3322626874598655  0.3987174596831015
  0.9165302314939880  0.4578987952754913  0.3982569059122944
  0.9177888436620519  0.5837396258331121  0.3980776755468791
  0.9180288392249073  0.7092482579771634  0.3985192410405474
  0.9175480363967743  0.8339870395331478  0.3990881262127337
  0.9164199613462752  0.9579736915634129  0.3994134112950555
  0.0839367020877776  0.0429442804291786  0.3998407001647767
  0.0827500335009000  0.1668856002585472  0.3998931026818749
  0.0813835697552470  0.2910217924270019  0.3993462723782263
  0.0805907411427512  0.4161377633261128  0.3989681349190787
  0.0815363398198938  0.5416944064456369  0.3986929427430546
  0.0829724273393961  0.6674001885612226  0.3984622064959844
  0.0838545034894827  0.7929666394752776  0.3986428378430514
  0.0841143306211289  0.9181366074831410  0.3992267378766863
  0.2091068247822579  0.0434811239982374  0.4003635655235774
  0.2090947163971267  0.1687968957397637  0.4012320814254893
  0.2072168645028720  0.2925915445097054  0.4009613673751405
  0.2038270797393547  0.4166523896606695  0.3998507003578877
  0.2043733826497395  0.5417301123906676  0.3997049891020800
  0.2067801377649574  0.6674037720669705  0.3994222851835614
  0.2080667240572855  0.7927855462657905  0.3990404528825522
  0.2088004148224862  0.9181800863115153  0.3993759158202069
  0.3337656258815899  0.0429931329622298  0.4000853200882528
  0.3343968415741971  0.1687109964319109  0.4019716412400449
  0.3347940415203605  0.2950317503877961  0.4047841264744745
  0.3264288333087958  0.4177418748347331  0.4049884952916713
  0.3275419504238990  0.5435605050698861  0.4032302771080269
  0.3304818959700563  0.6672068236989982  0.4016762846550878
  0.3323227741612121  0.7923133599843322  0.4000788506937362
  0.3332471544649637  0.9175798800869266  0.3994407880479148
  0.4583046526171342  0.0415059152155132  0.3995101745134343
  0.4589511385161666  0.1669366442354841  0.4005675993343824
  0.4601521003568824  0.2925206117134853  0.4038163330618773
  0.4666416640271063  0.4174139300108836  0.4110152534081575
  0.4523559814583890  0.6622146029588043  0.4059547009884866
  0.4565749824278733  0.7902802712379913  0.4020498523735084
  0.4575773428117336  0.9159483912898997  0.3999237003872995
  0.5827215304881653  0.0399937585291036  0.3993314643211319
  0.5834462435954471  0.1654878375361279  0.3993681934074885
  0.5845705408032954  0.2905417916869854  0.4006311863759320
  0.5877371782289360  0.4153215965871802  0.4040988573106515
  0.5909210559173099  0.5415686941770904  0.4092493578535036
  0.5828109906900918  0.6622200896890006  0.4079754944192348
  0.5799374445123842  0.7864200660104201  0.4038867099444010
  0.5818269885059619  0.9139716103006532  0.4007227953261145
  0.7071218880376001  0.0393621473627936  0.3994524237653621
  0.7077637835752516  0.1649262383499994  0.3989257640863327
  0.7086818915492230  0.2903393115333143  0.3988847404206549
  0.7106604660715486  0.4159052161186346  0.3996214665919737
  0.7124731244172762  0.5414700836507027  0.4017210330521377
  0.7106824835707035  0.6666419891618725  0.4033071079549687
  0.7077329354076559  0.7897745213818305  0.4024603177127077
  0.7064962917272641  0.9136761345441788  0.4008469977103014
  0.8320512922288039  0.0398599652186394  0.3994149475127235
  0.8322008220148824  0.1649322443832129  0.3990004740936730
  0.8327620349357211  0.2903643973873073  0.3986836259592649
  0.8338868280264563  0.4158987388778256  0.3983136277541596
  0.8351959858472480  0.5416106749973074  0.3984544670454226
  0.8352371638223304  0.6673429685514466  0.3994020857760830
  0.8343406754104064  0.7919665318936251  0.3999745807776125
  0.8328213440765120  0.9156695145712411  0.3998980167601715
  0.9578985605609350  0.0413409808147440  0.3994307301739942
  0.9571062612752654  0.1655713054746159  0.3992755919075002
  0.9568454638959262  0.2904598486803551  0.3989378857628529
  0.9571808967563701  0.4159083546866921  0.3985384573011037
  0.9584019227886819  0.5417344861688906  0.3981390349812334
  0.9592193990510878  0.6674249340982481  0.3981786373786910
  0.9593785809249180  0.7927176291241924  0.3986853583197238
  0.9589041438229872  0.9173618503063262  0.3991997545192251
  0.4058981595488736  0.5825065932618092  0.4069147354047988
  0.4509805266236344  0.5236483262279616  0.4905928582620284
 
  0.00000000E+00  0.00000000E+00  0.00000000E+00
  0.00000000E+00  0.00000000E+00  0.00000000E+00
  0.00000000E+00  0.00000000E+00  0.00000000E+00
  0.00000000E+00  0.00000000E+00  0.00000000E+00
  0.00000000E+00  0.00000000E+00  0.00000000E+00
  0.00000000E+00  0.00000000E+00  0.00000000E+00
  0.00000000E+00  0.00000000E+00  0.00000000E+00
  0.00000000E+00  0.00000000E+00  0.00000000E+00
  0.00000000E+00  0.00000000E+00  0.00000000E+00
  0.00000000E+00  0.00000000E+00  0.00000000E+00
  0.00000000E+00  0.00000000E+00  0.00000000E+00
  0.00000000E+00  0.00000000E+00  0.00000000E+00
  0.00000000E+00  0.00000000E+00  0.00000000E+00
  0.00000000E+00  0.00000000E+00  0.00000000E+00
  0.00000000E+00  0.00000000E+00  0.00000000E+00
  0.00000000E+00  0.00000000E+00  0.00000000E+00
  0.00000000E+00  0.00000000E+00  0.00000000E+00
  0.00000000E+00  0.00000000E+00  0.00000000E+00
  0.00000000E+00  0.00000000E+00  0.00000000E+00
  0.00000000E+00  0.00000000E+00  0.00000000E+00
  0.00000000E+00  0.00000000E+00  0.00000000E+00
  0.00000000E+00  0.00000000E+00  0.00000000E+00
  0.00000000E+00  0.00000000E+00  0.00000000E+00
  0.00000000E+00  0.00000000E+00  0.00000000E+00
  0.00000000E+00  0.00000000E+00  0.00000000E+00
  0.00000000E+00  0.00000000E+00  0.00000000E+00
  0.00000000E+00  0.00000000E+00  0.00000000E+00
  0.00000000E+00  0.00000000E+00  0.00000000E+00
  0.00000000E+00  0.00000000E+00  0.00000000E+00
  0.00000000E+00  0.00000000E+00  0.00000000E+00
  0.00000000E+00  0.00000000E+00  0.00000000E+00
  0.00000000E+00  0.00000000E+00  0.00000000E+00
  0.00000000E+00  0.00000000E+00  0.00000000E+00
  0.00000000E+00  0.00000000E+00  0.00000000E+00
  0.00000000E+00  0.00000000E+00  0.00000000E+00
  0.00000000E+00  0.00000000E+00  0.00000000E+00
  0.00000000E+00  0.00000000E+00  0.00000000E+00
  0.00000000E+00  0.00000000E+00  0.00000000E+00
  0.00000000E+00  0.00000000E+00  0.00000000E+00
  0.00000000E+00  0.00000000E+00  0.00000000E+00
  0.00000000E+00  0.00000000E+00  0.00000000E+00
  0.00000000E+00  0.00000000E+00  0.00000000E+00
  0.00000000E+00  0.00000000E+00  0.00000000E+00
  0.00000000E+00  0.00000000E+00  0.00000000E+00
  0.00000000E+00  0.00000000E+00  0.00000000E+00
  0.00000000E+00  0.00000000E+00  0.00000000E+00
  0.00000000E+00  0.00000000E+00  0.00000000E+00
  0.00000000E+00  0.00000000E+00  0.00000000E+00
  0.00000000E+00  0.00000000E+00  0.00000000E+00
  0.00000000E+00  0.00000000E+00  0.00000000E+00
  0.00000000E+00  0.00000000E+00  0.00000000E+00
  0.00000000E+00  0.00000000E+00  0.00000000E+00
  0.00000000E+00  0.00000000E+00  0.00000000E+00
  0.00000000E+00  0.00000000E+00  0.00000000E+00
  0.00000000E+00  0.00000000E+00  0.00000000E+00
  0.00000000E+00  0.00000000E+00  0.00000000E+00
  0.00000000E+00  0.00000000E+00  0.00000000E+00
  0.00000000E+00  0.00000000E+00  0.00000000E+00
  0.00000000E+00  0.00000000E+00  0.00000000E+00
  0.00000000E+00  0.00000000E+00  0.00000000E+00
  0.00000000E+00  0.00000000E+00  0.00000000E+00
  0.00000000E+00  0.00000000E+00  0.00000000E+00
  0.00000000E+00  0.00000000E+00  0.00000000E+00
  0.00000000E+00  0.00000000E+00  0.00000000E+00
  0.00000000E+00  0.00000000E+00  0.00000000E+00
  0.00000000E+00  0.00000000E+00  0.00000000E+00
  0.00000000E+00  0.00000000E+00  0.00000000E+00
  0.00000000E+00  0.00000000E+00  0.00000000E+00
  0.00000000E+00  0.00000000E+00  0.00000000E+00
  0.00000000E+00  0.00000000E+00  0.00000000E+00
  0.00000000E+00  0.00000000E+00  0.00000000E+00
  0.00000000E+00  0.00000000E+00  0.00000000E+00
  0.00000000E+00  0.00000000E+00  0.00000000E+00
  0.00000000E+00  0.00000000E+00  0.00000000E+00
  0.00000000E+00  0.00000000E+00  0.00000000E+00
  0.00000000E+00  0.00000000E+00  0.00000000E+00
  0.00000000E+00  0.00000000E+00  0.00000000E+00
  0.00000000E+00  0.00000000E+00  0.00000000E+00
  0.00000000E+00  0.00000000E+00  0.00000000E+00
  0.00000000E+00  0.00000000E+00  0.00000000E+00
  0.00000000E+00  0.00000000E+00  0.00000000E+00
  0.00000000E+00  0.00000000E+00  0.00000000E+00
  0.00000000E+00  0.00000000E+00  0.00000000E+00
  0.00000000E+00  0.00000000E+00  0.00000000E+00
  0.00000000E+00  0.00000000E+00  0.00000000E+00
  0.00000000E+00  0.00000000E+00  0.00000000E+00
  0.00000000E+00  0.00000000E+00  0.00000000E+00
  0.00000000E+00  0.00000000E+00  0.00000000E+00
  0.00000000E+00  0.00000000E+00  0.00000000E+00
  0.00000000E+00  0.00000000E+00  0.00000000E+00
  0.00000000E+00  0.00000000E+00  0.00000000E+00
  0.00000000E+00  0.00000000E+00  0.00000000E+00
  0.00000000E+00  0.00000000E+00  0.00000000E+00
  0.00000000E+00  0.00000000E+00  0.00000000E+00
  0.00000000E+00  0.00000000E+00  0.00000000E+00
  0.00000000E+00  0.00000000E+00  0.00000000E+00
  0.00000000E+00  0.00000000E+00  0.00000000E+00
  0.00000000E+00  0.00000000E+00  0.00000000E+00
  0.00000000E+00  0.00000000E+00  0.00000000E+00
  0.00000000E+00  0.00000000E+00  0.00000000E+00
  0.00000000E+00  0.00000000E+00  0.00000000E+00
  0.00000000E+00  0.00000000E+00  0.00000000E+00
  0.00000000E+00  0.00000000E+00  0.00000000E+00
  0.00000000E+00  0.00000000E+00  0.00000000E+00
  0.00000000E+00  0.00000000E+00  0.00000000E+00
  0.00000000E+00  0.00000000E+00  0.00000000E+00
  0.00000000E+00  0.00000000E+00  0.00000000E+00
  0.00000000E+00  0.00000000E+00  0.00000000E+00
  0.00000000E+00  0.00000000E+00  0.00000000E+00
  0.00000000E+00  0.00000000E+00  0.00000000E+00
  0.00000000E+00  0.00000000E+00  0.00000000E+00
  0.00000000E+00  0.00000000E+00  0.00000000E+00
  0.00000000E+00  0.00000000E+00  0.00000000E+00
  0.00000000E+00  0.00000000E+00  0.00000000E+00
  0.00000000E+00  0.00000000E+00  0.00000000E+00
  0.00000000E+00  0.00000000E+00  0.00000000E+00
  0.00000000E+00  0.00000000E+00  0.00000000E+00
  0.00000000E+00  0.00000000E+00  0.00000000E+00
  0.00000000E+00  0.00000000E+00  0.00000000E+00
  0.00000000E+00  0.00000000E+00  0.00000000E+00
  0.00000000E+00  0.00000000E+00  0.00000000E+00
  0.00000000E+00  0.00000000E+00  0.00000000E+00
  0.00000000E+00  0.00000000E+00  0.00000000E+00
  0.00000000E+00  0.00000000E+00  0.00000000E+00
  0.00000000E+00  0.00000000E+00  0.00000000E+00
  0.00000000E+00  0.00000000E+00  0.00000000E+00
  0.00000000E+00  0.00000000E+00  0.00000000E+00
  0.00000000E+00  0.00000000E+00  0.00000000E+00
  0.00000000E+00  0.00000000E+00  0.00000000E+00
