W1 C124 N2 O1                           
   1.00000000000000     
    19.7896928808559593   -0.0161745294588891    0.0378703087692848
    -9.9092215525741238   17.0644868632418074   -0.0722051279855933
     0.0569703586355802   -0.0929399250931567   29.8113602390960963
   W    C    N    O 
     1   124     2     1
Direct
  0.4481999364921556  0.5007584670297184  0.4281893508179175
  0.0422839925266485  0.0843162168541219  0.3993427189589592
  0.0417546312779662  0.2087873892196828  0.3994713821498123
  0.0410376262636286  0.3332992237142791  0.3998602759713843
  0.0407485452319099  0.4584088501942298  0.3995670340177169
  0.0412446297017497  0.5836757872604411  0.3994046893907698
  0.0416808365001648  0.7088644512440878  0.3995430075822951
  0.0418938757173867  0.8340014680076625  0.3995606682616687
  0.0421246711013784  0.9592566561620151  0.3994048563151790
  0.1677321338401707  0.0851646994824896  0.3994864842852474
  0.1680339941844321  0.2105336644755773  0.3998144263200544
  0.1665007756901839  0.3343988966085358  0.4014439275358593
  0.1647046575472497  0.4587865694081897  0.4019645740049574
  0.1654313360532474  0.5837532285221684  0.4005884104940150
  0.1662539012203772  0.7088116758927467  0.3996266287059264
  0.1666791486473009  0.8339819396911780  0.3993412121150492
  0.1670199510204222  0.9593191664249187  0.3993390240539388
  0.2920910736077411  0.0844434587333154  0.3992608602124944
  0.2936375804612812  0.2113367060166719  0.4000311921925004
  0.2943391842786008  0.3385474952063982  0.4026958558598284
  0.2888396579251625  0.4597064434118960  0.4063754953079502
  0.2894461049846352  0.5842465381201467  0.4037574071679270
  0.2908333698107605  0.7088674455476076  0.4008533522671979
  0.2914997990779134  0.8337733632066445  0.3995367726434572
  0.2917520874518926  0.9589289082596071  0.3992667756635653
  0.4168204106356177  0.0834225432804635  0.3994121486507453
  0.4171721349182080  0.2087139570873284  0.3994216830555942
  0.4190757134459944  0.3345888939760823  0.3994611241460584
  0.4151259267241683  0.7066661546670303  0.4019344966257198
  0.4161903451913975  0.8326372086214061  0.3999484451895959
  0.4165338357281176  0.9581255767042143  0.3994472606788201
  0.5415649451184896  0.0827226342173397  0.3996037897185746
  0.5419062269523952  0.2077295761971029  0.4001504004015135
  0.5428900794489439  0.3325920930579705  0.4013161777792575
  0.5437860829980774  0.4560902413689942  0.4001258749339411
  0.5433549670400094  0.5824821759194294  0.3950006503841024
  0.5388233884833887  0.7046793805463907  0.4002582472784365
  0.5406827276255671  0.8317226784272499  0.4002018228704046
  0.5412817348360145  0.9574163406930734  0.3996184496323330
  0.6663646153454659  0.0825624003073056  0.3995105465576935
  0.6667269364129735  0.2077022306673032  0.4000760148725733
  0.6673431269731519  0.3328754087629920  0.4014548656997822
  0.6682567446490066  0.4580771072790045  0.4030233786122331
  0.6680326912487995  0.5828350249146440  0.4014544164257711
  0.6662453975021358  0.7074258807492041  0.3975393390881411
  0.6651272007879221  0.8315560906402726  0.3988805004389058
  0.6659842804990724  0.9572838133885940  0.3994212046763440
  0.7912701925070716  0.0827071503244621  0.3992336682948255
  0.7914678755651929  0.2078012863611176  0.3994648863792523
  0.7918066676202423  0.3329402736705990  0.4001550435616081
  0.7923736734017377  0.4582509628626424  0.4012423533918982
  0.7925821055845881  0.5835283839468253  0.4016114318258877
  0.7918331184547222  0.7082356171569697  0.4000570944948580
  0.7913274524894591  0.8329264622690936  0.3991634957890235
  0.7909669767923168  0.9575182087963783  0.3991019960837937
  0.9164835643072844  0.0831456195296658  0.3992034523890823
  0.9163576861108110  0.2079934883600112  0.3992273927852444
  0.9163540060091354  0.3330880981276694  0.3992782383760953
  0.9165583646692823  0.4583288959627037  0.3996240347396610
  0.9169259387899742  0.5835926605180947  0.4002135230297002
  0.9169855847284474  0.7087649171480718  0.4002686149835513
  0.9168312031555298  0.8337097649967308  0.3996159103820829
  0.9167073253543575  0.9585466347238648  0.3993384452788162
  0.0841398845662321  0.0429438651332346  0.3993879922995054
  0.0842674242689822  0.1679642657782741  0.3994413099685210
  0.0830424376020531  0.2920494388773863  0.4001327060741499
  0.0819634644247710  0.4167319281068623  0.4002579811427586
  0.0824122079468985  0.5419057711404548  0.3996901398815999
  0.0830197344335180  0.6670883841423600  0.3994305121995253
  0.0834284497761121  0.7922796753426935  0.3994637110392968
  0.0836433171841988  0.9174960147374741  0.3994322267944536
  0.2088833718522660  0.0428674597942549  0.3993597388062290
  0.2098677028965644  0.1689270658948977  0.3998423607454518
  0.2098533741099096  0.2943851487354416  0.4009283051960958
  0.2062904994309455  0.4176310157772381  0.4032570201211212
  0.2062885791812556  0.5419661802769248  0.4021387078088151
  0.2075391935321675  0.6671772551469428  0.4003620174721751
  0.2081959678334282  0.7922948742116522  0.3994713470169054
  0.2084820650881716  0.9174524989621389  0.3993010302901113
  0.3334956403703231  0.0423813898003711  0.3992569032334208
  0.3340567934371578  0.1681614035902125  0.3993890087462649
  0.3360209888608741  0.2955163562198702  0.4008156851177894
  0.3325746003794384  0.4213705188780750  0.4075295567847222
  0.3305040656565583  0.5436464610288236  0.4068360529485482
  0.3319921174381456  0.6672426499611984  0.4023858593360712
  0.3329583528806536  0.7920116933394773  0.4000218521120588
  0.3333140225147552  0.9171071813391225  0.3993726097845629
  0.4583033433191357  0.0415213814353103  0.3994775897575678
  0.4586924109543541  0.1667770692986641  0.3996397352365648
  0.4594779601535587  0.2920052699025339  0.3996453303343553
  0.4549536372344015  0.6626556741319334  0.4035144968611442
  0.4575411947423186  0.7904031488708302  0.4004399192763413
  0.4580027203269608  0.9161219586566187  0.3996011875315373
  0.5831027634069462  0.0409313519479054  0.3995399817655885
  0.5833924061567627  0.1660714504629651  0.3999426162477234
  0.5840547339825668  0.2910663199665733  0.4010978515367348
  0.5854327552597500  0.4156848825112137  0.4027328456844304
  0.5844501885088899  0.5405733383084870  0.3985400213732045
  0.5824124910731051  0.6645574908018055  0.3966108599688325
  0.5812066096902464  0.7888372696617779  0.3998531941931930
  0.5826548193141305  0.9154303143946877  0.3997419610466016
  0.7078787602831774  0.0408072643899602  0.3993601572592022
  0.7082145126200097  0.1660657922813340  0.3996438319381477
  0.7086350729349419  0.2911667913773278  0.4005985144282084
  0.7092937305963011  0.4163209204428668  0.4021056659804299
  0.7095769916806327  0.5416558022245139  0.4026530569135860
  0.7084064161560946  0.6660885424754517  0.3995136725438423
  0.7076872895797636  0.7906909224464396  0.3985114098753566
  0.7072556190996609  0.9152564551468738  0.3990985100639967
  0.8329324797553831  0.0410782918924103  0.3991759792967924
  0.8330015697216090  0.1661191918207779  0.3992510864278014
  0.8331662866502536  0.2912077065705013  0.3995215462927415
  0.8335274598303810  0.4164668413166753  0.4003106980071827
  0.8338910927759239  0.5417453437049916  0.4010986886247214
  0.8337370768092420  0.6668944808239392  0.4007784384330633
  0.8333433553168648  0.7916830689188258  0.3995258626099257
  0.8331347365899298  0.9164147840421626  0.3992240078153053
  0.9586037907653174  0.0420315390056050  0.3992979998061112
  0.9582417989733913  0.1666421580300483  0.3992335326425893
  0.9579150681795923  0.2914519149554043  0.3993119197909139
  0.9577484610361947  0.4164966198505497  0.3992968024818913
  0.9581594580971845  0.5417863833958133  0.3996288501209725
  0.9584880880013200  0.6671102631248178  0.4000341940754336
  0.9585973836971237  0.7922190169815375  0.3998179451652264
  0.9586299549681787  0.9171918153855592  0.3994374587659414
  0.4110754669523066  0.5814576781465252  0.4086838997837184
  0.4627251048310342  0.4155867692055457  0.3996018651219062
  0.4529079355902706  0.5088366805542389  0.4862823782033926
 
  0.00000000E+00  0.00000000E+00  0.00000000E+00
  0.00000000E+00  0.00000000E+00  0.00000000E+00
  0.00000000E+00  0.00000000E+00  0.00000000E+00
  0.00000000E+00  0.00000000E+00  0.00000000E+00
  0.00000000E+00  0.00000000E+00  0.00000000E+00
  0.00000000E+00  0.00000000E+00  0.00000000E+00
  0.00000000E+00  0.00000000E+00  0.00000000E+00
  0.00000000E+00  0.00000000E+00  0.00000000E+00
  0.00000000E+00  0.00000000E+00  0.00000000E+00
  0.00000000E+00  0.00000000E+00  0.00000000E+00
  0.00000000E+00  0.00000000E+00  0.00000000E+00
  0.00000000E+00  0.00000000E+00  0.00000000E+00
  0.00000000E+00  0.00000000E+00  0.00000000E+00
  0.00000000E+00  0.00000000E+00  0.00000000E+00
  0.00000000E+00  0.00000000E+00  0.00000000E+00
  0.00000000E+00  0.00000000E+00  0.00000000E+00
  0.00000000E+00  0.00000000E+00  0.00000000E+00
  0.00000000E+00  0.00000000E+00  0.00000000E+00
  0.00000000E+00  0.00000000E+00  0.00000000E+00
  0.00000000E+00  0.00000000E+00  0.00000000E+00
  0.00000000E+00  0.00000000E+00  0.00000000E+00
  0.00000000E+00  0.00000000E+00  0.00000000E+00
  0.00000000E+00  0.00000000E+00  0.00000000E+00
  0.00000000E+00  0.00000000E+00  0.00000000E+00
  0.00000000E+00  0.00000000E+00  0.00000000E+00
  0.00000000E+00  0.00000000E+00  0.00000000E+00
  0.00000000E+00  0.00000000E+00  0.00000000E+00
  0.00000000E+00  0.00000000E+00  0.00000000E+00
  0.00000000E+00  0.00000000E+00  0.00000000E+00
  0.00000000E+00  0.00000000E+00  0.00000000E+00
  0.00000000E+00  0.00000000E+00  0.00000000E+00
  0.00000000E+00  0.00000000E+00  0.00000000E+00
  0.00000000E+00  0.00000000E+00  0.00000000E+00
  0.00000000E+00  0.00000000E+00  0.00000000E+00
  0.00000000E+00  0.00000000E+00  0.00000000E+00
  0.00000000E+00  0.00000000E+00  0.00000000E+00
  0.00000000E+00  0.00000000E+00  0.00000000E+00
  0.00000000E+00  0.00000000E+00  0.00000000E+00
  0.00000000E+00  0.00000000E+00  0.00000000E+00
  0.00000000E+00  0.00000000E+00  0.00000000E+00
  0.00000000E+00  0.00000000E+00  0.00000000E+00
  0.00000000E+00  0.00000000E+00  0.00000000E+00
  0.00000000E+00  0.00000000E+00  0.00000000E+00
  0.00000000E+00  0.00000000E+00  0.00000000E+00
  0.00000000E+00  0.00000000E+00  0.00000000E+00
  0.00000000E+00  0.00000000E+00  0.00000000E+00
  0.00000000E+00  0.00000000E+00  0.00000000E+00
  0.00000000E+00  0.00000000E+00  0.00000000E+00
  0.00000000E+00  0.00000000E+00  0.00000000E+00
  0.00000000E+00  0.00000000E+00  0.00000000E+00
  0.00000000E+00  0.00000000E+00  0.00000000E+00
  0.00000000E+00  0.00000000E+00  0.00000000E+00
  0.00000000E+00  0.00000000E+00  0.00000000E+00
  0.00000000E+00  0.00000000E+00  0.00000000E+00
  0.00000000E+00  0.00000000E+00  0.00000000E+00
  0.00000000E+00  0.00000000E+00  0.00000000E+00
  0.00000000E+00  0.00000000E+00  0.00000000E+00
  0.00000000E+00  0.00000000E+00  0.00000000E+00
  0.00000000E+00  0.00000000E+00  0.00000000E+00
  0.00000000E+00  0.00000000E+00  0.00000000E+00
  0.00000000E+00  0.00000000E+00  0.00000000E+00
  0.00000000E+00  0.00000000E+00  0.00000000E+00
  0.00000000E+00  0.00000000E+00  0.00000000E+00
  0.00000000E+00  0.00000000E+00  0.00000000E+00
  0.00000000E+00  0.00000000E+00  0.00000000E+00
  0.00000000E+00  0.00000000E+00  0.00000000E+00
  0.00000000E+00  0.00000000E+00  0.00000000E+00
  0.00000000E+00  0.00000000E+00  0.00000000E+00
  0.00000000E+00  0.00000000E+00  0.00000000E+00
  0.00000000E+00  0.00000000E+00  0.00000000E+00
  0.00000000E+00  0.00000000E+00  0.00000000E+00
  0.00000000E+00  0.00000000E+00  0.00000000E+00
  0.00000000E+00  0.00000000E+00  0.00000000E+00
  0.00000000E+00  0.00000000E+00  0.00000000E+00
  0.00000000E+00  0.00000000E+00  0.00000000E+00
  0.00000000E+00  0.00000000E+00  0.00000000E+00
  0.00000000E+00  0.00000000E+00  0.00000000E+00
  0.00000000E+00  0.00000000E+00  0.00000000E+00
  0.00000000E+00  0.00000000E+00  0.00000000E+00
  0.00000000E+00  0.00000000E+00  0.00000000E+00
  0.00000000E+00  0.00000000E+00  0.00000000E+00
  0.00000000E+00  0.00000000E+00  0.00000000E+00
  0.00000000E+00  0.00000000E+00  0.00000000E+00
  0.00000000E+00  0.00000000E+00  0.00000000E+00
  0.00000000E+00  0.00000000E+00  0.00000000E+00
  0.00000000E+00  0.00000000E+00  0.00000000E+00
  0.00000000E+00  0.00000000E+00  0.00000000E+00
  0.00000000E+00  0.00000000E+00  0.00000000E+00
  0.00000000E+00  0.00000000E+00  0.00000000E+00
  0.00000000E+00  0.00000000E+00  0.00000000E+00
  0.00000000E+00  0.00000000E+00  0.00000000E+00
  0.00000000E+00  0.00000000E+00  0.00000000E+00
  0.00000000E+00  0.00000000E+00  0.00000000E+00
  0.00000000E+00  0.00000000E+00  0.00000000E+00
  0.00000000E+00  0.00000000E+00  0.00000000E+00
  0.00000000E+00  0.00000000E+00  0.00000000E+00
  0.00000000E+00  0.00000000E+00  0.00000000E+00
  0.00000000E+00  0.00000000E+00  0.00000000E+00
  0.00000000E+00  0.00000000E+00  0.00000000E+00
  0.00000000E+00  0.00000000E+00  0.00000000E+00
  0.00000000E+00  0.00000000E+00  0.00000000E+00
  0.00000000E+00  0.00000000E+00  0.00000000E+00
  0.00000000E+00  0.00000000E+00  0.00000000E+00
  0.00000000E+00  0.00000000E+00  0.00000000E+00
  0.00000000E+00  0.00000000E+00  0.00000000E+00
  0.00000000E+00  0.00000000E+00  0.00000000E+00
  0.00000000E+00  0.00000000E+00  0.00000000E+00
  0.00000000E+00  0.00000000E+00  0.00000000E+00
  0.00000000E+00  0.00000000E+00  0.00000000E+00
  0.00000000E+00  0.00000000E+00  0.00000000E+00
  0.00000000E+00  0.00000000E+00  0.00000000E+00
  0.00000000E+00  0.00000000E+00  0.00000000E+00
  0.00000000E+00  0.00000000E+00  0.00000000E+00
  0.00000000E+00  0.00000000E+00  0.00000000E+00
  0.00000000E+00  0.00000000E+00  0.00000000E+00
  0.00000000E+00  0.00000000E+00  0.00000000E+00
  0.00000000E+00  0.00000000E+00  0.00000000E+00
  0.00000000E+00  0.00000000E+00  0.00000000E+00
  0.00000000E+00  0.00000000E+00  0.00000000E+00
  0.00000000E+00  0.00000000E+00  0.00000000E+00
  0.00000000E+00  0.00000000E+00  0.00000000E+00
  0.00000000E+00  0.00000000E+00  0.00000000E+00
  0.00000000E+00  0.00000000E+00  0.00000000E+00
  0.00000000E+00  0.00000000E+00  0.00000000E+00
  0.00000000E+00  0.00000000E+00  0.00000000E+00
  0.00000000E+00  0.00000000E+00  0.00000000E+00
  0.00000000E+00  0.00000000E+00  0.00000000E+00
  0.00000000E+00  0.00000000E+00  0.00000000E+00
