Mo1 H1 C124 N2                          
   1.00000000000000     
    19.7977094031043315   -0.0252248122727598   -0.1995175668804194
    -9.9202274885871589   17.0516276180543294    0.1442007681959543
    -0.3001621334195523    0.0773920835531223   29.8325415516538754
   Mo   H    C    N 
     1     1   124     2
Direct
  0.4416585656368863  0.5000879483941749  0.4319111104124623
  0.4354286458627473  0.5258111985321333  0.4870509354073720
  0.0425852127570938  0.0844100055438255  0.3997434742491626
  0.0421634347801610  0.2088415233391161  0.3995069337478484
  0.0413751008779578  0.3333734949011573  0.3991346283213131
  0.0409293356933263  0.4584783535503945  0.3987544867352171
  0.0413067714781114  0.5837926502173481  0.3990893121558023
  0.0417530196015489  0.7090755438932247  0.3996020088477844
  0.0420220306448030  0.8342408001718286  0.3996333730770066
  0.0423413770828271  0.9594585476442106  0.3997190363636000
  0.1682325034544556  0.0855726244885098  0.4001202020841974
  0.1686343489082432  0.2109236493218452  0.4001702797474766
  0.1670406662003742  0.3347332580192190  0.4003550213814279
  0.1650138141578439  0.4590563427028168  0.3999382731538834
  0.1653858962083509  0.5840263908080864  0.3991475895858298
  0.1661892740638717  0.7091169734304360  0.3993260699124804
  0.1667618114724130  0.8343377636410233  0.3997635281401194
  0.1673283659571988  0.9597481054727607  0.3999130359186456
  0.2926428879679008  0.0850267785198379  0.4000218619650407
  0.2944225376522214  0.2120369382603964  0.4007387415334168
  0.2952781291029918  0.3389408341175479  0.4024696583422794
  0.2894444650875660  0.4605414534310462  0.4040452991836725
  0.2892534841664978  0.5845061943007505  0.4021943266430467
  0.2906187878689340  0.7090543601971928  0.4001503661264298
  0.2914538674332477  0.8340544907426535  0.3994366095742706
  0.2920131588938258  0.9593235005695826  0.3998194080338478
  0.4172138934073876  0.0836051667196023  0.3997853639498288
  0.4178922412177555  0.2092519120596654  0.3999385448954453
  0.4207300552737089  0.3365867884615627  0.4011019631525657
  0.4147389012931054  0.7065489932824361  0.4025013592948113
  0.4160684236070019  0.8325653461942344  0.3997162754898995
  0.4166875340470622  0.9581247833299741  0.3994941133943087
  0.5418725013460450  0.0823668598332335  0.3997438490742937
  0.5424285523805631  0.2075210409910959  0.3999521354733163
  0.5435867487032786  0.3323914634898590  0.4001807013794809
  0.5447978799435362  0.4559002665180820  0.4001294802405878
  0.5417977604363862  0.5783917211608205  0.4009573358339205
  0.5379916839545594  0.7032509875867224  0.4031970372389779
  0.5404402810468800  0.8309328057405910  0.4007722660006655
  0.5413351148875817  0.9569271308236220  0.3995951394308151
  0.6665802607000335  0.0819591852115028  0.3997575931146863
  0.6671113925373611  0.2072495249195201  0.3999717944016493
  0.6679100298790567  0.3325087774120153  0.4001695168791911
  0.6690726721020956  0.4577646241777119  0.4000712326675770
  0.6684489121735102  0.5820670348274436  0.3990885046956597
  0.6649202857713311  0.7054711265457817  0.3993687230083403
  0.6646199462910015  0.8303439322611128  0.4001789867059353
  0.6659005900752137  0.9564380583372661  0.3998288586620274
  0.7914037459741227  0.0821160925182400  0.3995719228991512
  0.7917896805574238  0.2073454813785176  0.3996709502878438
  0.7922564274751211  0.3326315141518560  0.3998265697361704
  0.7928584630940405  0.4579898964446786  0.3998923450984976
  0.7930479787876901  0.5832433211861351  0.3996947713304304
  0.7917575689162293  0.7078016095260643  0.3992501216641771
  0.7907120006522502  0.8319522233769545  0.3994232544873736
  0.7907757141875044  0.9567383203630625  0.3995763580325768
  0.9166274271513690  0.0828667430318990  0.3995384171253529
  0.9166652358450399  0.2077408692854826  0.3993984463865319
  0.9166687575202714  0.3328880305463513  0.3992624610250812
  0.9168722801710917  0.4582220707871518  0.3993316002948625
  0.9172168413230439  0.5835762967335669  0.3996313466414075
  0.9170634493591561  0.7087319846231228  0.3995943024372793
  0.9168143570843897  0.8335739696382688  0.3994630582055275
  0.9166426209981752  0.9582140217515898  0.3995367761677429
  0.0845222538954855  0.0432098656518993  0.3998732897237373
  0.0847215964251044  0.1681630262266435  0.3997525925276571
  0.0835633903205069  0.2922559574804661  0.3994982998521530
  0.0821895257710311  0.4168018965655632  0.3989953554803340
  0.0824022355383670  0.5420102996500400  0.3987822765778186
  0.0829983407577700  0.6672959220094766  0.3993543728660383
  0.0835010330033347  0.7925853739160476  0.3996902312231183
  0.0839094259056299  0.9178213886012873  0.3997316550333032
  0.2093426204738474  0.0433816781293397  0.4000614046483169
  0.2105659759699563  0.1694967224452786  0.4004212377463459
  0.2105900772893673  0.2948400459853815  0.4007546586463225
  0.2068222788095298  0.4180312495674428  0.4011685053051229
  0.2062428633762925  0.5422063659769309  0.4000734799285144
  0.2073478067880478  0.6674093298898196  0.3994157666797670
  0.2081598669891258  0.7926117581709181  0.3995478661319212
  0.2087064780530536  0.9178696391916101  0.3999009682800118
  0.3339117333953349  0.0428188999423161  0.3998575673329264
  0.3347260300645546  0.1687638417466728  0.4001817657439648
  0.3370215441467295  0.2964264590128769  0.4016546259064416
  0.3337214777864070  0.4223030779185803  0.4060822362313098
  0.3300546908841856  0.5437322096947412  0.4055649957070476
  0.3316579823885504  0.6674121035745149  0.4019041503534506
  0.3328393344932145  0.7922303588352995  0.3996327570418309
  0.3334185452929334  0.9173799857124326  0.3995560253192734
  0.4586045457908527  0.0415110078938828  0.3996735166961433
  0.4591862788360917  0.1669986316796671  0.3998530277311627
  0.4603895843585886  0.2926918803375436  0.4000863598690411
  0.4543660092866048  0.6624426418477486  0.4055610731522639
  0.4572994447052257  0.7901499919102130  0.4006977396076522
  0.4580514872315648  0.9160099388838280  0.3994597269970288
  0.5832742336119894  0.0404441506108071  0.3996752110095045
  0.5838022843353140  0.1657082639539153  0.3999122231875346
  0.5846519142656861  0.2907284698217112  0.4001282033375340
  0.5861659307679093  0.4153559359202310  0.4002512373130996
  0.5855707762005885  0.5396507630237869  0.3989896348221094
  0.5803541963262584  0.6615700445116479  0.4009123622978181
  0.5807185427735054  0.7877105540631918  0.4013594276547390
  0.5825736287771988  0.9147239904975422  0.3999620821544655
  0.7079507825802006  0.0401118111154832  0.3996780182393128
  0.7085218266345810  0.1655148112235854  0.3998380575919002
  0.7090860279769737  0.2907564421042507  0.4000468429774237
  0.7099115046497292  0.4159517799303514  0.4001043539135253
  0.7102368464865421  0.5410332957166943  0.3997061253536520
  0.7082455805110378  0.6653674924972293  0.3990082933730296
  0.7068159834277777  0.7892238704133874  0.3996253878314538
  0.7070188065471801  0.9142842821268627  0.3998105441102269
  0.8329879656693701  0.0405010916152336  0.3995538171731262
  0.8333120412728976  0.1657049196510811  0.3995293849432434
  0.8335219716599997  0.2908659086078804  0.3996132079658355
  0.8339140472244599  0.4161691096657670  0.3997167268107020
  0.8342824850636655  0.5415268982070710  0.3997890777608361
  0.8338969956725990  0.6666798459568555  0.3995029809975085
  0.8332014625812142  0.7912236778533051  0.3993457857127530
  0.8328362565497839  0.9156712808133087  0.3995031599155477
  0.9587868380577351  0.0418658326364060  0.3995963756069014
  0.9585460743325956  0.1664589898572521  0.3994525383320529
  0.9582293167425189  0.2912940491621700  0.3991987613893505
  0.9579968144383056  0.4164035841211214  0.3990399735176891
  0.9583374233810189  0.5417520667751213  0.3993302284850393
  0.9586028698526659  0.6671166693249113  0.3996446156345712
  0.9586629759028217  0.7922676542845345  0.3995368427081036
  0.9587376495180081  0.9171651900613262  0.3995579710797318
  0.4104080196804696  0.5812220692008726  0.4114106863310529
  0.4642897653173322  0.4177019567887461  0.4019412846809970
 
  0.00000000E+00  0.00000000E+00  0.00000000E+00
  0.00000000E+00  0.00000000E+00  0.00000000E+00
  0.00000000E+00  0.00000000E+00  0.00000000E+00
  0.00000000E+00  0.00000000E+00  0.00000000E+00
  0.00000000E+00  0.00000000E+00  0.00000000E+00
  0.00000000E+00  0.00000000E+00  0.00000000E+00
  0.00000000E+00  0.00000000E+00  0.00000000E+00
  0.00000000E+00  0.00000000E+00  0.00000000E+00
  0.00000000E+00  0.00000000E+00  0.00000000E+00
  0.00000000E+00  0.00000000E+00  0.00000000E+00
  0.00000000E+00  0.00000000E+00  0.00000000E+00
  0.00000000E+00  0.00000000E+00  0.00000000E+00
  0.00000000E+00  0.00000000E+00  0.00000000E+00
  0.00000000E+00  0.00000000E+00  0.00000000E+00
  0.00000000E+00  0.00000000E+00  0.00000000E+00
  0.00000000E+00  0.00000000E+00  0.00000000E+00
  0.00000000E+00  0.00000000E+00  0.00000000E+00
  0.00000000E+00  0.00000000E+00  0.00000000E+00
  0.00000000E+00  0.00000000E+00  0.00000000E+00
  0.00000000E+00  0.00000000E+00  0.00000000E+00
  0.00000000E+00  0.00000000E+00  0.00000000E+00
  0.00000000E+00  0.00000000E+00  0.00000000E+00
  0.00000000E+00  0.00000000E+00  0.00000000E+00
  0.00000000E+00  0.00000000E+00  0.00000000E+00
  0.00000000E+00  0.00000000E+00  0.00000000E+00
  0.00000000E+00  0.00000000E+00  0.00000000E+00
  0.00000000E+00  0.00000000E+00  0.00000000E+00
  0.00000000E+00  0.00000000E+00  0.00000000E+00
  0.00000000E+00  0.00000000E+00  0.00000000E+00
  0.00000000E+00  0.00000000E+00  0.00000000E+00
  0.00000000E+00  0.00000000E+00  0.00000000E+00
  0.00000000E+00  0.00000000E+00  0.00000000E+00
  0.00000000E+00  0.00000000E+00  0.00000000E+00
  0.00000000E+00  0.00000000E+00  0.00000000E+00
  0.00000000E+00  0.00000000E+00  0.00000000E+00
  0.00000000E+00  0.00000000E+00  0.00000000E+00
  0.00000000E+00  0.00000000E+00  0.00000000E+00
  0.00000000E+00  0.00000000E+00  0.00000000E+00
  0.00000000E+00  0.00000000E+00  0.00000000E+00
  0.00000000E+00  0.00000000E+00  0.00000000E+00
  0.00000000E+00  0.00000000E+00  0.00000000E+00
  0.00000000E+00  0.00000000E+00  0.00000000E+00
  0.00000000E+00  0.00000000E+00  0.00000000E+00
  0.00000000E+00  0.00000000E+00  0.00000000E+00
  0.00000000E+00  0.00000000E+00  0.00000000E+00
  0.00000000E+00  0.00000000E+00  0.00000000E+00
  0.00000000E+00  0.00000000E+00  0.00000000E+00
  0.00000000E+00  0.00000000E+00  0.00000000E+00
  0.00000000E+00  0.00000000E+00  0.00000000E+00
  0.00000000E+00  0.00000000E+00  0.00000000E+00
  0.00000000E+00  0.00000000E+00  0.00000000E+00
  0.00000000E+00  0.00000000E+00  0.00000000E+00
  0.00000000E+00  0.00000000E+00  0.00000000E+00
  0.00000000E+00  0.00000000E+00  0.00000000E+00
  0.00000000E+00  0.00000000E+00  0.00000000E+00
  0.00000000E+00  0.00000000E+00  0.00000000E+00
  0.00000000E+00  0.00000000E+00  0.00000000E+00
  0.00000000E+00  0.00000000E+00  0.00000000E+00
  0.00000000E+00  0.00000000E+00  0.00000000E+00
  0.00000000E+00  0.00000000E+00  0.00000000E+00
  0.00000000E+00  0.00000000E+00  0.00000000E+00
  0.00000000E+00  0.00000000E+00  0.00000000E+00
  0.00000000E+00  0.00000000E+00  0.00000000E+00
  0.00000000E+00  0.00000000E+00  0.00000000E+00
  0.00000000E+00  0.00000000E+00  0.00000000E+00
  0.00000000E+00  0.00000000E+00  0.00000000E+00
  0.00000000E+00  0.00000000E+00  0.00000000E+00
  0.00000000E+00  0.00000000E+00  0.00000000E+00
  0.00000000E+00  0.00000000E+00  0.00000000E+00
  0.00000000E+00  0.00000000E+00  0.00000000E+00
  0.00000000E+00  0.00000000E+00  0.00000000E+00
  0.00000000E+00  0.00000000E+00  0.00000000E+00
  0.00000000E+00  0.00000000E+00  0.00000000E+00
  0.00000000E+00  0.00000000E+00  0.00000000E+00
  0.00000000E+00  0.00000000E+00  0.00000000E+00
  0.00000000E+00  0.00000000E+00  0.00000000E+00
  0.00000000E+00  0.00000000E+00  0.00000000E+00
  0.00000000E+00  0.00000000E+00  0.00000000E+00
  0.00000000E+00  0.00000000E+00  0.00000000E+00
  0.00000000E+00  0.00000000E+00  0.00000000E+00
  0.00000000E+00  0.00000000E+00  0.00000000E+00
  0.00000000E+00  0.00000000E+00  0.00000000E+00
  0.00000000E+00  0.00000000E+00  0.00000000E+00
  0.00000000E+00  0.00000000E+00  0.00000000E+00
  0.00000000E+00  0.00000000E+00  0.00000000E+00
  0.00000000E+00  0.00000000E+00  0.00000000E+00
  0.00000000E+00  0.00000000E+00  0.00000000E+00
  0.00000000E+00  0.00000000E+00  0.00000000E+00
  0.00000000E+00  0.00000000E+00  0.00000000E+00
  0.00000000E+00  0.00000000E+00  0.00000000E+00
  0.00000000E+00  0.00000000E+00  0.00000000E+00
  0.00000000E+00  0.00000000E+00  0.00000000E+00
  0.00000000E+00  0.00000000E+00  0.00000000E+00
  0.00000000E+00  0.00000000E+00  0.00000000E+00
  0.00000000E+00  0.00000000E+00  0.00000000E+00
  0.00000000E+00  0.00000000E+00  0.00000000E+00
  0.00000000E+00  0.00000000E+00  0.00000000E+00
  0.00000000E+00  0.00000000E+00  0.00000000E+00
  0.00000000E+00  0.00000000E+00  0.00000000E+00
  0.00000000E+00  0.00000000E+00  0.00000000E+00
  0.00000000E+00  0.00000000E+00  0.00000000E+00
  0.00000000E+00  0.00000000E+00  0.00000000E+00
  0.00000000E+00  0.00000000E+00  0.00000000E+00
  0.00000000E+00  0.00000000E+00  0.00000000E+00
  0.00000000E+00  0.00000000E+00  0.00000000E+00
  0.00000000E+00  0.00000000E+00  0.00000000E+00
  0.00000000E+00  0.00000000E+00  0.00000000E+00
  0.00000000E+00  0.00000000E+00  0.00000000E+00
  0.00000000E+00  0.00000000E+00  0.00000000E+00
  0.00000000E+00  0.00000000E+00  0.00000000E+00
  0.00000000E+00  0.00000000E+00  0.00000000E+00
  0.00000000E+00  0.00000000E+00  0.00000000E+00
  0.00000000E+00  0.00000000E+00  0.00000000E+00
  0.00000000E+00  0.00000000E+00  0.00000000E+00
  0.00000000E+00  0.00000000E+00  0.00000000E+00
  0.00000000E+00  0.00000000E+00  0.00000000E+00
  0.00000000E+00  0.00000000E+00  0.00000000E+00
  0.00000000E+00  0.00000000E+00  0.00000000E+00
  0.00000000E+00  0.00000000E+00  0.00000000E+00
  0.00000000E+00  0.00000000E+00  0.00000000E+00
  0.00000000E+00  0.00000000E+00  0.00000000E+00
  0.00000000E+00  0.00000000E+00  0.00000000E+00
  0.00000000E+00  0.00000000E+00  0.00000000E+00
  0.00000000E+00  0.00000000E+00  0.00000000E+00
  0.00000000E+00  0.00000000E+00  0.00000000E+00
  0.00000000E+00  0.00000000E+00  0.00000000E+00
  0.00000000E+00  0.00000000E+00  0.00000000E+00
  0.00000000E+00  0.00000000E+00  0.00000000E+00
