Zr1 C126                                
   1.00000000000000     
    19.8206330202574890    0.0000011034589273    0.0056920677669610
    -9.9103161425735031   17.0846152605390564   -0.0027357600317943
     0.0085177456205953    0.0001917470499136   29.7152488216657851
   Zr   C 
     1   126
Direct
  0.4374555401891860  0.4999991867648125  0.4404304450112137
  0.0416598903054035  0.0836311933681699  0.3993140430039023
  0.0407375465731954  0.2078259246580052  0.3989986267532344
  0.0403669132904241  0.3326574312846435  0.3988210742921020
  0.0405350293297061  0.4582433204647273  0.3989091818146853
  0.0413059438310148  0.5836768307001983  0.3994595871733138
  0.0419898250856915  0.7089575681440543  0.3998624037096625
  0.0423187255247623  0.8342673260242591  0.3999423086149792
  0.0422846658629601  0.9592056843587614  0.3996449087967809
  0.1673047999858243  0.0846553968238742  0.3997607825844763
  0.1664951401555962  0.2089005665560324  0.3995673412891362
  0.1650104733768607  0.3329005750790312  0.3994277407658014
  0.1641345258176079  0.4581434385566656  0.3987479964688967
  0.1652196962093384  0.5835827672146606  0.3985612947810456
  0.1664160558578721  0.7090408636794825  0.3993278525266947
  0.1669271475455019  0.8342627496924185  0.3999274601812041
  0.1672691862841415  0.9595404178346115  0.3999541776529398
  0.2923559712428340  0.0846725232581704  0.3997686066144672
  0.2928654019517283  0.2107396567217408  0.4010554999592592
  0.2914041612757118  0.3354023343496334  0.4037091238960798
  0.2871136865521802  0.4571975481591443  0.4033058228545780
  0.2888414946740540  0.5839485343952326  0.3998947643664326
  0.2907949509814796  0.7089695353793189  0.3988256794377207
  0.2915110117033105  0.8339504419328252  0.3993084759160659
  0.2919286618326674  0.9591962974602691  0.3996859851893901
  0.4169762110063602  0.0836194393901408  0.3993256422880010
  0.4174126238515475  0.2089071098297655  0.3995854883275289
  0.4189910738840108  0.3354101077862744  0.4037241396727477
  0.4112295090583722  0.5822918847031632  0.4072615505000521
  0.4154121842363152  0.7077067621810685  0.4002779442737039
  0.4161799733888658  0.8331412829076879  0.3991250589141281
  0.4165742008825172  0.9583473074094367  0.3993749341174297
  0.5415992207111581  0.0826883222329070  0.3994546737696174
  0.5420968092022042  0.2078289665224174  0.3990483684487220
  0.5429062488523790  0.3329110212105031  0.3995152466737972
  0.5450854565220412  0.4572107250994594  0.4033655162644499
  0.5460560504373912  0.5822932420707403  0.4072923740629467
  0.5405704152016230  0.7061597410691872  0.4035899946592147
  0.5407741836900882  0.8319052349416886  0.4000749410197665
  0.5412750696638053  0.9574078874428740  0.3995345377411597
  0.6662411049335308  0.0822845905134051  0.3999021073695771
  0.6666610007138147  0.2075313690741520  0.3996162009568479
  0.6672981805518302  0.3326716432744205  0.3989243173889019
  0.6690270548882190  0.4581520980382241  0.3989050006957146
  0.6701071515922200  0.5839285546957057  0.4000099269250308
  0.6672857142602787  0.7076888327551522  0.4003130677514096
  0.6661148202424210  0.8318944575706350  0.4000789232760117
  0.6660460382662048  0.9570853580059822  0.3998810877400636
  0.7910432732648596  0.0822898633263784  0.3999373818286062
  0.7911920303410320  0.2073962519759192  0.3999975975749556
  0.7917487790674741  0.3327663322261071  0.3996561824866354
  0.7927082509234759  0.4582477090712705  0.3990056494542381
  0.7933534549495487  0.5835677971033248  0.3986972957891976
  0.7931640267203856  0.7089549343764974  0.3989127541615118
  0.7919648488756421  0.8331305969945622  0.3991567586830472
  0.7911288329312390  0.9574084262015810  0.3995602262164030
  0.9161071687644107  0.0826983859431214  0.3994690465051943
  0.9158595592048335  0.2075324426573256  0.3995551463406174
  0.9160343435444666  0.3327720798426984  0.3996073492145806
  0.9165612414960381  0.4581198847606277  0.3996244406963088
  0.9173671360727094  0.5836760038641631  0.3995039102620337
  0.9176160055423530  0.7090373602830642  0.3994090175460257
  0.9174394386418410  0.8339554699738336  0.3993527631852423
  0.9167908710556757  0.9583518029278409  0.3993787149158379
  0.0838665704281539  0.0425926522613401  0.3995349362786714
  0.0830384935012633  0.1668572541000244  0.3991267361157775
  0.0818258056337111  0.2910299813942439  0.3988273458491295
  0.0816362044109143  0.4164165496939294  0.3985612331318227
  0.0822908642609788  0.5417559550580824  0.3989094339276631
  0.0832613623809342  0.6672271745823688  0.3996093085662049
  0.0837955313320958  0.7926042225108684  0.3999983926828599
  0.0839562717135789  0.9177165112847785  0.3999031842268466
  0.2089598531445663  0.0429150610802798  0.3998808635083528
  0.2088680685520431  0.1680953525965646  0.4000756697804301
  0.2077051750070293  0.2922926888733823  0.4002791188655113
  0.2048928957546445  0.4160507835991364  0.3998954844634686
  0.2059913796642081  0.5418571164190864  0.3987477803781406
  0.2077096067687160  0.6673424337632425  0.3988208465507490
  0.2083273877762180  0.7924677041496773  0.3995544092499828
  0.2087536468264718  0.9177110340369107  0.3999379995996771
  0.3337211653357410  0.0425924072443857  0.3995575933857005
  0.3342216014612308  0.1681063413489647  0.4000772655818100
  0.3344103967379137  0.2938408525972688  0.4035888703368402
  0.3289367583914542  0.4177076416815761  0.4072617908593930
  0.3299192623201641  0.5428041280594973  0.4033055746254126
  0.3321118566034254  0.6671012738987020  0.3994263692362677
  0.3329133657934337  0.7921749373305499  0.3989969557948427
  0.3334104277012179  0.9173026901310142  0.3994661825016199
  0.4584396502718157  0.0416487784997814  0.3993746716321188
  0.4588346011026055  0.1668700234901202  0.3991524796857668
  0.4595964166372503  0.2923109385293244  0.4003101464326023
  0.4637618794701165  0.4177062783827893  0.4072908260846675
  0.4560039775618154  0.6645995095327900  0.4037089127635174
  0.4575962927488270  0.7911007808120032  0.3995659040332728
  0.4580303321848212  0.9163698881524770  0.3993128208915820
  0.5830781739208338  0.0407945460083604  0.3996437656348323
  0.5834837297729354  0.1660443907630711  0.3993512209465092
  0.5842089558431041  0.2910449813736392  0.3989099004665352
  0.5861771691513074  0.4160699431147350  0.4000090647410085
  0.5878743186992003  0.5427885033696720  0.4033663782650959
  0.5835818130252820  0.6645901856286479  0.4037263287593493
  0.5821266594023347  0.7892605319356428  0.4010563079156260
  0.5826501233602276  0.9153454233108457  0.3997605054309699
  0.7077286598055655  0.0404596410730581  0.3999530740000490
  0.7080505077113796  0.1657318887637392  0.3999412618307097
  0.7085786166792346  0.2909622656740487  0.3994075550500442
  0.7097853793317734  0.4164317829518251  0.3986969183194854
  0.7108735030399101  0.5418469914788104  0.3989051432888353
  0.7099947822072684  0.6670886540942199  0.3995177074813424
  0.7085066507211505  0.7910921291024644  0.3995884685179268
  0.7076840337226638  0.9153270220524059  0.3997701641212157
  0.8327323894907360  0.0408032246100224  0.3996872755238485
  0.8326638854461160  0.1657365464949256  0.3999272952631991
  0.8330323045376604  0.2910419510751314  0.3998604065763552
  0.8336915438888830  0.4163242858479186  0.3995029329632778
  0.8344603466637143  0.5417528232431631  0.3990058242898620
  0.8346252168058258  0.6673284988361764  0.3989260691145918
  0.8342677475882532  0.7921715488802723  0.3990512124621555
  0.8333576961470281  0.9163808184580032  0.3993299830484791
  0.9582271198087285  0.0416524612826118  0.3993781358829704
  0.9575609164407760  0.1660488379052615  0.3993102482825962
  0.9573754139883909  0.2909587304180828  0.3993270918310616
  0.9576291127871149  0.4163229034064345  0.3994585964319702
  0.9584411530220606  0.5418797142151838  0.3996249099364472
  0.9589818286480446  0.6672339874352867  0.3996580177934790
  0.9591292411549472  0.7924692300940188  0.3996172322858375
  0.9589109028379449  0.9173122188931482  0.3994564351722956
 
  0.00000000E+00  0.00000000E+00  0.00000000E+00
  0.00000000E+00  0.00000000E+00  0.00000000E+00
  0.00000000E+00  0.00000000E+00  0.00000000E+00
  0.00000000E+00  0.00000000E+00  0.00000000E+00
  0.00000000E+00  0.00000000E+00  0.00000000E+00
  0.00000000E+00  0.00000000E+00  0.00000000E+00
  0.00000000E+00  0.00000000E+00  0.00000000E+00
  0.00000000E+00  0.00000000E+00  0.00000000E+00
  0.00000000E+00  0.00000000E+00  0.00000000E+00
  0.00000000E+00  0.00000000E+00  0.00000000E+00
  0.00000000E+00  0.00000000E+00  0.00000000E+00
  0.00000000E+00  0.00000000E+00  0.00000000E+00
  0.00000000E+00  0.00000000E+00  0.00000000E+00
  0.00000000E+00  0.00000000E+00  0.00000000E+00
  0.00000000E+00  0.00000000E+00  0.00000000E+00
  0.00000000E+00  0.00000000E+00  0.00000000E+00
  0.00000000E+00  0.00000000E+00  0.00000000E+00
  0.00000000E+00  0.00000000E+00  0.00000000E+00
  0.00000000E+00  0.00000000E+00  0.00000000E+00
  0.00000000E+00  0.00000000E+00  0.00000000E+00
  0.00000000E+00  0.00000000E+00  0.00000000E+00
  0.00000000E+00  0.00000000E+00  0.00000000E+00
  0.00000000E+00  0.00000000E+00  0.00000000E+00
  0.00000000E+00  0.00000000E+00  0.00000000E+00
  0.00000000E+00  0.00000000E+00  0.00000000E+00
  0.00000000E+00  0.00000000E+00  0.00000000E+00
  0.00000000E+00  0.00000000E+00  0.00000000E+00
  0.00000000E+00  0.00000000E+00  0.00000000E+00
  0.00000000E+00  0.00000000E+00  0.00000000E+00
  0.00000000E+00  0.00000000E+00  0.00000000E+00
  0.00000000E+00  0.00000000E+00  0.00000000E+00
  0.00000000E+00  0.00000000E+00  0.00000000E+00
  0.00000000E+00  0.00000000E+00  0.00000000E+00
  0.00000000E+00  0.00000000E+00  0.00000000E+00
  0.00000000E+00  0.00000000E+00  0.00000000E+00
  0.00000000E+00  0.00000000E+00  0.00000000E+00
  0.00000000E+00  0.00000000E+00  0.00000000E+00
  0.00000000E+00  0.00000000E+00  0.00000000E+00
  0.00000000E+00  0.00000000E+00  0.00000000E+00
  0.00000000E+00  0.00000000E+00  0.00000000E+00
  0.00000000E+00  0.00000000E+00  0.00000000E+00
  0.00000000E+00  0.00000000E+00  0.00000000E+00
  0.00000000E+00  0.00000000E+00  0.00000000E+00
  0.00000000E+00  0.00000000E+00  0.00000000E+00
  0.00000000E+00  0.00000000E+00  0.00000000E+00
  0.00000000E+00  0.00000000E+00  0.00000000E+00
  0.00000000E+00  0.00000000E+00  0.00000000E+00
  0.00000000E+00  0.00000000E+00  0.00000000E+00
  0.00000000E+00  0.00000000E+00  0.00000000E+00
  0.00000000E+00  0.00000000E+00  0.00000000E+00
  0.00000000E+00  0.00000000E+00  0.00000000E+00
  0.00000000E+00  0.00000000E+00  0.00000000E+00
  0.00000000E+00  0.00000000E+00  0.00000000E+00
  0.00000000E+00  0.00000000E+00  0.00000000E+00
  0.00000000E+00  0.00000000E+00  0.00000000E+00
  0.00000000E+00  0.00000000E+00  0.00000000E+00
  0.00000000E+00  0.00000000E+00  0.00000000E+00
  0.00000000E+00  0.00000000E+00  0.00000000E+00
  0.00000000E+00  0.00000000E+00  0.00000000E+00
  0.00000000E+00  0.00000000E+00  0.00000000E+00
  0.00000000E+00  0.00000000E+00  0.00000000E+00
  0.00000000E+00  0.00000000E+00  0.00000000E+00
  0.00000000E+00  0.00000000E+00  0.00000000E+00
  0.00000000E+00  0.00000000E+00  0.00000000E+00
  0.00000000E+00  0.00000000E+00  0.00000000E+00
  0.00000000E+00  0.00000000E+00  0.00000000E+00
  0.00000000E+00  0.00000000E+00  0.00000000E+00
  0.00000000E+00  0.00000000E+00  0.00000000E+00
  0.00000000E+00  0.00000000E+00  0.00000000E+00
  0.00000000E+00  0.00000000E+00  0.00000000E+00
  0.00000000E+00  0.00000000E+00  0.00000000E+00
  0.00000000E+00  0.00000000E+00  0.00000000E+00
  0.00000000E+00  0.00000000E+00  0.00000000E+00
  0.00000000E+00  0.00000000E+00  0.00000000E+00
  0.00000000E+00  0.00000000E+00  0.00000000E+00
  0.00000000E+00  0.00000000E+00  0.00000000E+00
  0.00000000E+00  0.00000000E+00  0.00000000E+00
  0.00000000E+00  0.00000000E+00  0.00000000E+00
  0.00000000E+00  0.00000000E+00  0.00000000E+00
  0.00000000E+00  0.00000000E+00  0.00000000E+00
  0.00000000E+00  0.00000000E+00  0.00000000E+00
  0.00000000E+00  0.00000000E+00  0.00000000E+00
  0.00000000E+00  0.00000000E+00  0.00000000E+00
  0.00000000E+00  0.00000000E+00  0.00000000E+00
  0.00000000E+00  0.00000000E+00  0.00000000E+00
  0.00000000E+00  0.00000000E+00  0.00000000E+00
  0.00000000E+00  0.00000000E+00  0.00000000E+00
  0.00000000E+00  0.00000000E+00  0.00000000E+00
  0.00000000E+00  0.00000000E+00  0.00000000E+00
  0.00000000E+00  0.00000000E+00  0.00000000E+00
  0.00000000E+00  0.00000000E+00  0.00000000E+00
  0.00000000E+00  0.00000000E+00  0.00000000E+00
  0.00000000E+00  0.00000000E+00  0.00000000E+00
  0.00000000E+00  0.00000000E+00  0.00000000E+00
  0.00000000E+00  0.00000000E+00  0.00000000E+00
  0.00000000E+00  0.00000000E+00  0.00000000E+00
  0.00000000E+00  0.00000000E+00  0.00000000E+00
  0.00000000E+00  0.00000000E+00  0.00000000E+00
  0.00000000E+00  0.00000000E+00  0.00000000E+00
  0.00000000E+00  0.00000000E+00  0.00000000E+00
  0.00000000E+00  0.00000000E+00  0.00000000E+00
  0.00000000E+00  0.00000000E+00  0.00000000E+00
  0.00000000E+00  0.00000000E+00  0.00000000E+00
  0.00000000E+00  0.00000000E+00  0.00000000E+00
  0.00000000E+00  0.00000000E+00  0.00000000E+00
  0.00000000E+00  0.00000000E+00  0.00000000E+00
  0.00000000E+00  0.00000000E+00  0.00000000E+00
  0.00000000E+00  0.00000000E+00  0.00000000E+00
  0.00000000E+00  0.00000000E+00  0.00000000E+00
  0.00000000E+00  0.00000000E+00  0.00000000E+00
  0.00000000E+00  0.00000000E+00  0.00000000E+00
  0.00000000E+00  0.00000000E+00  0.00000000E+00
  0.00000000E+00  0.00000000E+00  0.00000000E+00
  0.00000000E+00  0.00000000E+00  0.00000000E+00
  0.00000000E+00  0.00000000E+00  0.00000000E+00
  0.00000000E+00  0.00000000E+00  0.00000000E+00
  0.00000000E+00  0.00000000E+00  0.00000000E+00
  0.00000000E+00  0.00000000E+00  0.00000000E+00
  0.00000000E+00  0.00000000E+00  0.00000000E+00
  0.00000000E+00  0.00000000E+00  0.00000000E+00
  0.00000000E+00  0.00000000E+00  0.00000000E+00
  0.00000000E+00  0.00000000E+00  0.00000000E+00
  0.00000000E+00  0.00000000E+00  0.00000000E+00
  0.00000000E+00  0.00000000E+00  0.00000000E+00
  0.00000000E+00  0.00000000E+00  0.00000000E+00
  0.00000000E+00  0.00000000E+00  0.00000000E+00
  0.00000000E+00  0.00000000E+00  0.00000000E+00
