Os1 C122 N4                             
   1.00000000000000     
    19.8466120389395932   -0.0000023954223501    0.0017105656345895
    -9.9233083475599368   17.0194068859305219   -0.0009157389173239
     0.0025677387947725   -0.0001047244804195   29.7900535763178489
   Os   C    N 
     1   122     4
Direct
  0.4374942048783115  0.5000001563438572  0.4154305235837925
  0.0421127057112434  0.0843478568897089  0.3997170573003901
  0.0406737643937544  0.2080532703420177  0.3995984165496579
  0.0396204865063145  0.3327443319233095  0.3990619443216032
  0.0397192143824934  0.4581539040403748  0.3987786989579452
  0.0410720223722410  0.5839403634230221  0.3991889490979846
  0.0422956647324861  0.7095857522275457  0.3996285897228538
  0.0426898597641795  0.8349237650006019  0.3997572192355205
  0.0428189992649175  0.9600740878309265  0.3996857090323703
  0.1684936300984182  0.0864913885975714  0.4004145906643310
  0.1675903414085468  0.2108442689980346  0.4010142767517812
  0.1642863923922162  0.3335597324315987  0.4008694207351864
  0.1627519423940346  0.4585305406404215  0.3993326130072233
  0.1641963920878467  0.5838573621514023  0.3987699130692529
  0.1661944636830793  0.7093045839531751  0.3992295191112045
  0.1672293096582355  0.8349174239025611  0.3997510283487340
  0.1678356187938964  0.9606323844911209  0.3999174700746767
  0.2930160983176295  0.0864687062195208  0.4004629393023216
  0.2945906011092804  0.2141668494872922  0.4026129979744983
  0.2921169401548471  0.3390931231898969  0.4051809417369252
  0.2847339195425105  0.4584566005140119  0.4043418681480304
  0.2869079636403390  0.5831236228672639  0.4010476016964855
  0.2902483810560782  0.7085658344932548  0.3996244946119202
  0.2915497391079069  0.8341869995135287  0.3994336855023392
  0.2923012037703847  0.9600692573489381  0.3997073960118455
  0.4172742908453945  0.0843340343186379  0.3997766262104029
  0.4182320433421165  0.2108144508173638  0.4011247403535025
  0.4219634476545288  0.3390943666432737  0.4052399316089983
  0.4140843597901378  0.7054539952142408  0.4020697426086539
  0.4157996170645903  0.8319884837425590  0.3999851205122871
  0.4166426368264571  0.9582181769797647  0.3995272466439334
  0.5415743694531571  0.0822695067283089  0.3995301497662519
  0.5423772240406715  0.2080550805698130  0.3996293015925145
  0.5442329041131237  0.3335449324150327  0.4009249201029363
  0.5487195309232346  0.4584569683026284  0.4043764822261185
  0.5377414990540975  0.7004956174275189  0.4048891121626529
  0.5400177067085880  0.8293674213870018  0.4013931772875888
  0.5409037340636380  0.9561116777264805  0.3998684205834028
  0.6659016728572117  0.0813573606116666  0.3998059704540704
  0.6666500730353530  0.2070403977819058  0.3994787692813618
  0.6680954192872449  0.3327544652413226  0.3990724370753146
  0.6707487486816259  0.4585297323944857  0.3993516411943945
  0.6712061634202023  0.5831462699349192  0.4010954791640016
  0.6663602228529588  0.7054763456227138  0.4021682704124302
  0.6643742186475708  0.8293962908130960  0.4014777598550287
  0.6652829618416832  0.9555320085920868  0.4002467788125446
  0.7904955777092415  0.0813614528278643  0.3998110906338496
  0.7909263125389412  0.2068587729451551  0.3998146397798212
  0.7918183206105415  0.3324468089921112  0.3993736701543402
  0.7933862443435981  0.4581504449873244  0.3988070515394102
  0.7946136333978702  0.5838524794318563  0.3987990937769550
  0.7932896928282995  0.7085574379969142  0.3996514142707154
  0.7912082181339293  0.8319971154113918  0.4000512003841936
  0.7902478475641899  0.9561284316942292  0.3999257212053277
  0.9157434639744434  0.0822634338819944  0.3995279909947336
  0.9153815743877982  0.2070256722067028  0.3994700595547602
  0.9156205355454068  0.3324510836961832  0.3993673255743196
  0.9165773330980879  0.4581961033693563  0.3993269308034741
  0.9178233480214917  0.5839466825769017  0.3992063841711496
  0.9180869077095618  0.7092923133054128  0.3992319314154645
  0.9176434775127241  0.8341742762074433  0.3994459117700850
  0.9166401086968879  0.9582210257491660  0.3995427737383962
  0.0847921540551503  0.0438884122363541  0.3998676464554834
  0.0838110366267519  0.1680115232985802  0.3999844103935026
  0.0816831014937960  0.2914349103269220  0.3996239098358218
  0.0803395228450517  0.4161427427331857  0.3987693539084286
  0.0815665148238963  0.5418466896352977  0.3987788708465503
  0.0831699326576633  0.6675494310583197  0.3993666456272304
  0.0840680310868698  0.7931412457884436  0.3998137649704541
  0.0845446161429916  0.9186425846328131  0.3998059863185480
  0.2097512016678272  0.0444680005622252  0.4002467742793920
  0.2106502454180213  0.1706324127669700  0.4013929259933483
  0.2086304534533838  0.2945459163748839  0.4020695464592011
  0.2037848693521105  0.4168768072293815  0.4010469038877843
  0.2042223076394615  0.5414692939914522  0.3993330395061847
  0.2068769996566917  0.6672554073983188  0.3990622400426662
  0.2083565845778910  0.7929747458449206  0.3994691252394736
  0.2091341348045788  0.9186383705161071  0.3998105650243819
  0.3341195932446691  0.0438714539838912  0.3999257070525995
  0.3349781617264159  0.1706037735609755  0.4014779839909395
  0.3372458293687220  0.2995044288922486  0.4048889917904192
  0.3262777548681094  0.5415437794455864  0.4043422936700481
  0.3307265105523152  0.6664398156024413  0.4008702201944869
  0.3326209468922132  0.7919468017706279  0.3995987392530345
  0.3334803222474298  0.9177366896188515  0.3995277554970098
  0.4584192935139089  0.0417787437571417  0.3995430086115974
  0.4592111242692837  0.1680024786131069  0.4000515473964322
  0.4608840282723792  0.2945238073144955  0.4021675456151578
  0.4530239785283626  0.6609066883119541  0.4051812287178724
  0.4567462486520314  0.7891553310136996  0.4010148400676076
  0.4577653832588950  0.9156522003307901  0.3997177319483205
  0.5827451144040136  0.0399259068301434  0.3996858140167168
  0.5834692359930810  0.1658253844189508  0.3994458102205325
  0.5847324635584492  0.2914422824869835  0.3996509695390318
  0.5880599744123743  0.4168538371044893  0.4010947568396532
  0.5902625359437814  0.5415431181296172  0.4043768584626069
  0.5828694277068560  0.6609058842381417  0.4052404713976304
  0.5804240406977984  0.7858332804328396  0.4026129421784542
  0.5820026249666215  0.9135085972538060  0.4004148435515902
  0.7072036189782219  0.0393674413873261  0.3999177660084287
  0.7077665487996100  0.1650761908849317  0.3997572041654184
  0.7087952753732440  0.2907074470194699  0.3992318540263373
  0.7107618514925249  0.4161472410919735  0.3987987765855061
  0.7122192942863793  0.5414700611422997  0.3993520932358305
  0.7106882315598905  0.6664554458905066  0.4009258598811392
  0.7074178256683407  0.7891856444419413  0.4011246731501824
  0.7065476513540280  0.9135314500998252  0.4004628149627570
  0.8322324894234768  0.0399304974415557  0.3997079407458571
  0.8323123454746146  0.1650828235186087  0.3997520187467673
  0.8327105575510743  0.2904144898985920  0.3996296143684785
  0.8338777804628870  0.4160529618785494  0.3992076208697242
  0.8352364211017158  0.5418493555126671  0.3988068194462344
  0.8353412866287200  0.6672454411980898  0.3990728825527623
  0.8343225823117006  0.7919451434230071  0.3996292301578415
  0.8329403308709694  0.9156658627084961  0.3997766095588544
  0.9584244882930875  0.0417816325367780  0.3995269724778946
  0.9573630586578556  0.1658133781128310  0.3994340097133285
  0.9568902893586114  0.2906958137666827  0.3992299209492257
  0.9571320933506452  0.4160597781507020  0.3991891427552389
  0.9583819950579062  0.5418046071523512  0.3993264199956861
  0.9593720020788643  0.6675531534803866  0.3993728732851891
  0.9596103705882014  0.7929600331149084  0.3994788598208261
  0.9593052763748675  0.9177305381289371  0.3995300599898182
  0.4073626120489864  0.5797328555420562  0.4088721646678141
  0.5473584528837937  0.5797297358564674  0.4088971368876942
  0.3276297572333442  0.4202672662537891  0.4088718989731702
  0.4676289135588159  0.4202706474955362  0.4088968609975694
 
  0.00000000E+00  0.00000000E+00  0.00000000E+00
  0.00000000E+00  0.00000000E+00  0.00000000E+00
  0.00000000E+00  0.00000000E+00  0.00000000E+00
  0.00000000E+00  0.00000000E+00  0.00000000E+00
  0.00000000E+00  0.00000000E+00  0.00000000E+00
  0.00000000E+00  0.00000000E+00  0.00000000E+00
  0.00000000E+00  0.00000000E+00  0.00000000E+00
  0.00000000E+00  0.00000000E+00  0.00000000E+00
  0.00000000E+00  0.00000000E+00  0.00000000E+00
  0.00000000E+00  0.00000000E+00  0.00000000E+00
  0.00000000E+00  0.00000000E+00  0.00000000E+00
  0.00000000E+00  0.00000000E+00  0.00000000E+00
  0.00000000E+00  0.00000000E+00  0.00000000E+00
  0.00000000E+00  0.00000000E+00  0.00000000E+00
  0.00000000E+00  0.00000000E+00  0.00000000E+00
  0.00000000E+00  0.00000000E+00  0.00000000E+00
  0.00000000E+00  0.00000000E+00  0.00000000E+00
  0.00000000E+00  0.00000000E+00  0.00000000E+00
  0.00000000E+00  0.00000000E+00  0.00000000E+00
  0.00000000E+00  0.00000000E+00  0.00000000E+00
  0.00000000E+00  0.00000000E+00  0.00000000E+00
  0.00000000E+00  0.00000000E+00  0.00000000E+00
  0.00000000E+00  0.00000000E+00  0.00000000E+00
  0.00000000E+00  0.00000000E+00  0.00000000E+00
  0.00000000E+00  0.00000000E+00  0.00000000E+00
  0.00000000E+00  0.00000000E+00  0.00000000E+00
  0.00000000E+00  0.00000000E+00  0.00000000E+00
  0.00000000E+00  0.00000000E+00  0.00000000E+00
  0.00000000E+00  0.00000000E+00  0.00000000E+00
  0.00000000E+00  0.00000000E+00  0.00000000E+00
  0.00000000E+00  0.00000000E+00  0.00000000E+00
  0.00000000E+00  0.00000000E+00  0.00000000E+00
  0.00000000E+00  0.00000000E+00  0.00000000E+00
  0.00000000E+00  0.00000000E+00  0.00000000E+00
  0.00000000E+00  0.00000000E+00  0.00000000E+00
  0.00000000E+00  0.00000000E+00  0.00000000E+00
  0.00000000E+00  0.00000000E+00  0.00000000E+00
  0.00000000E+00  0.00000000E+00  0.00000000E+00
  0.00000000E+00  0.00000000E+00  0.00000000E+00
  0.00000000E+00  0.00000000E+00  0.00000000E+00
  0.00000000E+00  0.00000000E+00  0.00000000E+00
  0.00000000E+00  0.00000000E+00  0.00000000E+00
  0.00000000E+00  0.00000000E+00  0.00000000E+00
  0.00000000E+00  0.00000000E+00  0.00000000E+00
  0.00000000E+00  0.00000000E+00  0.00000000E+00
  0.00000000E+00  0.00000000E+00  0.00000000E+00
  0.00000000E+00  0.00000000E+00  0.00000000E+00
  0.00000000E+00  0.00000000E+00  0.00000000E+00
  0.00000000E+00  0.00000000E+00  0.00000000E+00
  0.00000000E+00  0.00000000E+00  0.00000000E+00
  0.00000000E+00  0.00000000E+00  0.00000000E+00
  0.00000000E+00  0.00000000E+00  0.00000000E+00
  0.00000000E+00  0.00000000E+00  0.00000000E+00
  0.00000000E+00  0.00000000E+00  0.00000000E+00
  0.00000000E+00  0.00000000E+00  0.00000000E+00
  0.00000000E+00  0.00000000E+00  0.00000000E+00
  0.00000000E+00  0.00000000E+00  0.00000000E+00
  0.00000000E+00  0.00000000E+00  0.00000000E+00
  0.00000000E+00  0.00000000E+00  0.00000000E+00
  0.00000000E+00  0.00000000E+00  0.00000000E+00
  0.00000000E+00  0.00000000E+00  0.00000000E+00
  0.00000000E+00  0.00000000E+00  0.00000000E+00
  0.00000000E+00  0.00000000E+00  0.00000000E+00
  0.00000000E+00  0.00000000E+00  0.00000000E+00
  0.00000000E+00  0.00000000E+00  0.00000000E+00
  0.00000000E+00  0.00000000E+00  0.00000000E+00
  0.00000000E+00  0.00000000E+00  0.00000000E+00
  0.00000000E+00  0.00000000E+00  0.00000000E+00
  0.00000000E+00  0.00000000E+00  0.00000000E+00
  0.00000000E+00  0.00000000E+00  0.00000000E+00
  0.00000000E+00  0.00000000E+00  0.00000000E+00
  0.00000000E+00  0.00000000E+00  0.00000000E+00
  0.00000000E+00  0.00000000E+00  0.00000000E+00
  0.00000000E+00  0.00000000E+00  0.00000000E+00
  0.00000000E+00  0.00000000E+00  0.00000000E+00
  0.00000000E+00  0.00000000E+00  0.00000000E+00
  0.00000000E+00  0.00000000E+00  0.00000000E+00
  0.00000000E+00  0.00000000E+00  0.00000000E+00
  0.00000000E+00  0.00000000E+00  0.00000000E+00
  0.00000000E+00  0.00000000E+00  0.00000000E+00
  0.00000000E+00  0.00000000E+00  0.00000000E+00
  0.00000000E+00  0.00000000E+00  0.00000000E+00
  0.00000000E+00  0.00000000E+00  0.00000000E+00
  0.00000000E+00  0.00000000E+00  0.00000000E+00
  0.00000000E+00  0.00000000E+00  0.00000000E+00
  0.00000000E+00  0.00000000E+00  0.00000000E+00
  0.00000000E+00  0.00000000E+00  0.00000000E+00
  0.00000000E+00  0.00000000E+00  0.00000000E+00
  0.00000000E+00  0.00000000E+00  0.00000000E+00
  0.00000000E+00  0.00000000E+00  0.00000000E+00
  0.00000000E+00  0.00000000E+00  0.00000000E+00
  0.00000000E+00  0.00000000E+00  0.00000000E+00
  0.00000000E+00  0.00000000E+00  0.00000000E+00
  0.00000000E+00  0.00000000E+00  0.00000000E+00
  0.00000000E+00  0.00000000E+00  0.00000000E+00
  0.00000000E+00  0.00000000E+00  0.00000000E+00
  0.00000000E+00  0.00000000E+00  0.00000000E+00
  0.00000000E+00  0.00000000E+00  0.00000000E+00
  0.00000000E+00  0.00000000E+00  0.00000000E+00
  0.00000000E+00  0.00000000E+00  0.00000000E+00
  0.00000000E+00  0.00000000E+00  0.00000000E+00
  0.00000000E+00  0.00000000E+00  0.00000000E+00
  0.00000000E+00  0.00000000E+00  0.00000000E+00
  0.00000000E+00  0.00000000E+00  0.00000000E+00
  0.00000000E+00  0.00000000E+00  0.00000000E+00
  0.00000000E+00  0.00000000E+00  0.00000000E+00
  0.00000000E+00  0.00000000E+00  0.00000000E+00
  0.00000000E+00  0.00000000E+00  0.00000000E+00
  0.00000000E+00  0.00000000E+00  0.00000000E+00
  0.00000000E+00  0.00000000E+00  0.00000000E+00
  0.00000000E+00  0.00000000E+00  0.00000000E+00
  0.00000000E+00  0.00000000E+00  0.00000000E+00
  0.00000000E+00  0.00000000E+00  0.00000000E+00
  0.00000000E+00  0.00000000E+00  0.00000000E+00
  0.00000000E+00  0.00000000E+00  0.00000000E+00
  0.00000000E+00  0.00000000E+00  0.00000000E+00
  0.00000000E+00  0.00000000E+00  0.00000000E+00
  0.00000000E+00  0.00000000E+00  0.00000000E+00
  0.00000000E+00  0.00000000E+00  0.00000000E+00
  0.00000000E+00  0.00000000E+00  0.00000000E+00
  0.00000000E+00  0.00000000E+00  0.00000000E+00
  0.00000000E+00  0.00000000E+00  0.00000000E+00
  0.00000000E+00  0.00000000E+00  0.00000000E+00
  0.00000000E+00  0.00000000E+00  0.00000000E+00
  0.00000000E+00  0.00000000E+00  0.00000000E+00
  0.00000000E+00  0.00000000E+00  0.00000000E+00
  0.00000000E+00  0.00000000E+00  0.00000000E+00
