Zr1 C123 N3 O1                          
   1.00000000000000     
    19.8065017470576130    0.0058669594042985   -0.1076419549882009
    -9.8977986262445032   17.0472941794322317   -0.1206664148742568
    -0.1613334321230952   -0.3040886962644522   29.8004140795624437
   Zr   C    N    O 
     1   123     3     1
Direct
  0.4373990622649379  0.5028597707181320  0.4424166653175792
  0.0418549487123682  0.0839725890825853  0.3996096181531876
  0.0409401185753721  0.2081152473243441  0.3993830308971998
  0.0404103323794899  0.3329751605776122  0.3990307482095758
  0.0406798314386201  0.4582987451363961  0.3991132798594971
  0.0415767882251163  0.5838413491058951  0.3998442066416696
  0.0423245513658332  0.7092454292108219  0.4001578875312038
  0.0426110652457067  0.8345420644914494  0.3999861360666678
  0.0425295893820401  0.9595620844721586  0.3997339656420287
  0.1677438662158157  0.0853043133651798  0.4000683525069134
  0.1668948377884161  0.2095969130873784  0.4002937550978836
  0.1651214361425841  0.3334760485967792  0.3998626562311172
  0.1644870137440898  0.4583777137738091  0.3983334102562062
  0.1654295719448838  0.5836318969759117  0.3985083811701080
  0.1665930697749589  0.7090594516173843  0.3995803168144531
  0.1672558234328044  0.8344787549725736  0.3999924376062075
  0.1675805928240691  0.9599420884892736  0.3999123233016754
  0.2926735581030479  0.0855325068687908  0.3999780119542635
  0.2933036316409005  0.2123697121251198  0.4019368617209664
  0.2913518059983156  0.3371792642989326  0.4043989772382937
  0.2880704705313146  0.4572440805030511  0.4021038966213143
  0.2888981905194614  0.5830406989326246  0.3985840579788239
  0.2908522603485180  0.7085511139460329  0.3986115681982462
  0.2918106933952918  0.8340235578233927  0.3993845403089674
  0.2922456309023201  0.9595621028415512  0.3996597125853472
  0.4171911732676085  0.0840592954402068  0.3993682819237549
  0.4177622210416845  0.2098171383418377  0.3996530532276454
  0.4201544233087339  0.3369300258673181  0.4049085037570231
  0.4151014681230527  0.7069940065444731  0.3992227525490423
  0.4163165837691208  0.8326809395227105  0.3990540906648344
  0.4168522065183045  0.9584206302868111  0.3995103059102658
  0.5417532006353124  0.0828054395937259  0.3995589763139532
  0.5422596198554354  0.2083613273634609  0.3987873306778478
  0.5433028071861812  0.3339807326148901  0.3989865933298182
  0.5457055697499023  0.4589291688327516  0.4036938128872575
  0.5393016353830966  0.7029791623388968  0.4025807975993235
  0.5407935570704635  0.8307735797142344  0.3998134900780956
  0.5413611622486826  0.9570576995079517  0.3996650443075542
  0.6663417365506781  0.0822722844848862  0.4000561198766560
  0.6667538605646538  0.2076820151617123  0.3994714359700539
  0.6675188124717744  0.3330072220611659  0.3983289902792755
  0.6691950630811497  0.4585051202008297  0.3976511741069316
  0.6704317512750754  0.5842060540125391  0.3988910144839842
  0.6675720672269040  0.7073995195512810  0.3997547586158028
  0.6653202792938167  0.8309098923205158  0.3998844914979088
  0.6659273654403606  0.9567231606736045  0.3999561937171265
  0.7910086493798848  0.0822547988559462  0.4000269698757233
  0.7912783189881446  0.2075475268426949  0.4000606407200551
  0.7918747384996119  0.3329249490464392  0.3995831354942530
  0.7928805951435253  0.4583770749655489  0.3986235679212848
  0.7936255216325576  0.5837641609756437  0.3980330128552114
  0.7935285572116342  0.7090996643770029  0.3984985991916386
  0.7917806722432705  0.8329472944244348  0.3989680953344494
  0.7908564260934157  0.9571217771579044  0.3995833454232279
  0.9160885012649781  0.0827712692891128  0.3996110306070562
  0.9158955585674254  0.2076507142002776  0.3997177614301325
  0.9161025458361927  0.3329259957709687  0.3997574494847669
  0.9167965745937947  0.4583667550997481  0.3998278514728521
  0.9176393176053071  0.5838727752766677  0.3996358338666220
  0.9179443055979016  0.7091975081081774  0.3993785206399409
  0.9176853992146380  0.8342234870944000  0.3993407433590508
  0.9168137292479884  0.9584888022234738  0.3994690646843052
  0.0842144114611327  0.0430726857478674  0.3997411798926985
  0.0833951232329907  0.1673726357795614  0.3996105037470696
  0.0821157079027348  0.2914870731336259  0.3992457982103108
  0.0817341883460829  0.4164107658292365  0.3986310866841677
  0.0825191487973290  0.5418688190216445  0.3991590164519663
  0.0834977860560105  0.6673668967530461  0.3999926082625986
  0.0840643151689258  0.7927821903980378  0.4001209823951349
  0.0842633426771236  0.9180528705840889  0.3999140046176800
  0.2092779990324488  0.0434702046014490  0.4000073808003975
  0.2094767083379303  0.1690213771229483  0.4007707774320936
  0.2079271255087486  0.2930372724632640  0.4009589787726887
  0.2056719131288079  0.4168260581579996  0.3994743852276287
  0.2061149576511336  0.5415715782847238  0.3981237312923357
  0.2076141446927438  0.6671073909596539  0.3988306719982054
  0.2085954346170293  0.7925963744947543  0.3997104040197322
  0.2090398123669243  0.9180221413784764  0.3998794122733961
  0.3339606741310172  0.0431787409032500  0.3996076499304626
  0.3344854141581026  0.1693401933216525  0.4005685951025015
  0.3353469333442116  0.2962924462171679  0.4047212595476195
  0.3308451500966943  0.5426817262264563  0.4010770546745822
  0.3318212901594814  0.6664488469749892  0.3985937213530946
  0.3331034456657471  0.7919398396253599  0.3989681127665147
  0.3336143163706856  0.9174595107915762  0.3995020150765742
  0.4585568725943593  0.0418300859581042  0.3995027564935235
  0.4589426585636301  0.1674632980493330  0.3990699481735862
  0.4599591742363597  0.2933044884105845  0.4002723174035644
  0.4648997847423959  0.4187622581574652  0.4100469363635420
  0.4543665843996326  0.6626712234289480  0.4019127061671813
  0.4575347935418754  0.7903274561491807  0.3991619013199669
  0.4581577972887853  0.9161822338100480  0.3994252414605284
  0.5830990164142683  0.0406791204317912  0.3998170506132502
  0.5835582338626816  0.1663086598721279  0.3992305656632101
  0.5843495433254932  0.2917450983046533  0.3983702880891028
  0.5865626376264662  0.4173593088026170  0.3990743524677313
  0.5888840070721230  0.5441275058501401  0.4031882609689895
  0.5842773567295447  0.6630528574841635  0.4032983578424444
  0.5813869099092573  0.7874165335120275  0.4006385786920215
  0.5826315544344675  0.9146696988614832  0.3997743476610788
  0.7077195613225127  0.0403447531669580  0.4000887083351058
  0.7081048649819364  0.1658242479245128  0.3999754092254727
  0.7086906770140028  0.2911788778352513  0.3991219451224937
  0.7099433180701291  0.4165812429378630  0.3978849895612981
  0.7110448195500917  0.5419034725433148  0.3976785336930584
  0.7106268413690779  0.6672551046551980  0.3988664344644492
  0.7082863387554306  0.7906995847932026  0.3992225785871857
  0.7072456719863562  0.9147653537275846  0.3997531949472573
  0.8326573771184788  0.0407229616960150  0.3997658124003179
  0.8327193942826232  0.1658143017475062  0.4000334278974679
  0.8330609576188527  0.2910923148546835  0.3999276939843266
  0.8338817658543766  0.4164967057863163  0.3994712443398559
  0.8347289533532428  0.5419539768939911  0.3987148443006103
  0.8350063273853597  0.6673850306115104  0.3985597092955243
  0.8344419790183739  0.7923151524813660  0.3988867197764707
  0.8333018674083910  0.9163475332605470  0.3993288543750281
  0.9583642341634351  0.0418504120799013  0.3995555864991523
  0.9576587442437089  0.1661758125000430  0.3995005881632441
  0.9574527860939994  0.2911812423070834  0.3994871246785063
  0.9577967903036445  0.4164690919520841  0.3996815740761518
  0.9586711191940959  0.5419918741524620  0.3999264721613538
  0.9593181657124190  0.6674163480159327  0.3998375893897331
  0.9594159157808606  0.7927294866790491  0.3996428991368677
  0.9591536610331365  0.9176179258908869  0.3995252825982925
  0.4106489374624219  0.5831935106902617  0.4042890577609492
  0.5493350716857250  0.5838740644792153  0.4075961966560754
  0.3274259436573283  0.4172550260384065  0.4070018079562883
  0.4371559318560347  0.4986164979639447  0.5024601486641779
 
  0.00000000E+00  0.00000000E+00  0.00000000E+00
  0.00000000E+00  0.00000000E+00  0.00000000E+00
  0.00000000E+00  0.00000000E+00  0.00000000E+00
  0.00000000E+00  0.00000000E+00  0.00000000E+00
  0.00000000E+00  0.00000000E+00  0.00000000E+00
  0.00000000E+00  0.00000000E+00  0.00000000E+00
  0.00000000E+00  0.00000000E+00  0.00000000E+00
  0.00000000E+00  0.00000000E+00  0.00000000E+00
  0.00000000E+00  0.00000000E+00  0.00000000E+00
  0.00000000E+00  0.00000000E+00  0.00000000E+00
  0.00000000E+00  0.00000000E+00  0.00000000E+00
  0.00000000E+00  0.00000000E+00  0.00000000E+00
  0.00000000E+00  0.00000000E+00  0.00000000E+00
  0.00000000E+00  0.00000000E+00  0.00000000E+00
  0.00000000E+00  0.00000000E+00  0.00000000E+00
  0.00000000E+00  0.00000000E+00  0.00000000E+00
  0.00000000E+00  0.00000000E+00  0.00000000E+00
  0.00000000E+00  0.00000000E+00  0.00000000E+00
  0.00000000E+00  0.00000000E+00  0.00000000E+00
  0.00000000E+00  0.00000000E+00  0.00000000E+00
  0.00000000E+00  0.00000000E+00  0.00000000E+00
  0.00000000E+00  0.00000000E+00  0.00000000E+00
  0.00000000E+00  0.00000000E+00  0.00000000E+00
  0.00000000E+00  0.00000000E+00  0.00000000E+00
  0.00000000E+00  0.00000000E+00  0.00000000E+00
  0.00000000E+00  0.00000000E+00  0.00000000E+00
  0.00000000E+00  0.00000000E+00  0.00000000E+00
  0.00000000E+00  0.00000000E+00  0.00000000E+00
  0.00000000E+00  0.00000000E+00  0.00000000E+00
  0.00000000E+00  0.00000000E+00  0.00000000E+00
  0.00000000E+00  0.00000000E+00  0.00000000E+00
  0.00000000E+00  0.00000000E+00  0.00000000E+00
  0.00000000E+00  0.00000000E+00  0.00000000E+00
  0.00000000E+00  0.00000000E+00  0.00000000E+00
  0.00000000E+00  0.00000000E+00  0.00000000E+00
  0.00000000E+00  0.00000000E+00  0.00000000E+00
  0.00000000E+00  0.00000000E+00  0.00000000E+00
  0.00000000E+00  0.00000000E+00  0.00000000E+00
  0.00000000E+00  0.00000000E+00  0.00000000E+00
  0.00000000E+00  0.00000000E+00  0.00000000E+00
  0.00000000E+00  0.00000000E+00  0.00000000E+00
  0.00000000E+00  0.00000000E+00  0.00000000E+00
  0.00000000E+00  0.00000000E+00  0.00000000E+00
  0.00000000E+00  0.00000000E+00  0.00000000E+00
  0.00000000E+00  0.00000000E+00  0.00000000E+00
  0.00000000E+00  0.00000000E+00  0.00000000E+00
  0.00000000E+00  0.00000000E+00  0.00000000E+00
  0.00000000E+00  0.00000000E+00  0.00000000E+00
  0.00000000E+00  0.00000000E+00  0.00000000E+00
  0.00000000E+00  0.00000000E+00  0.00000000E+00
  0.00000000E+00  0.00000000E+00  0.00000000E+00
  0.00000000E+00  0.00000000E+00  0.00000000E+00
  0.00000000E+00  0.00000000E+00  0.00000000E+00
  0.00000000E+00  0.00000000E+00  0.00000000E+00
  0.00000000E+00  0.00000000E+00  0.00000000E+00
  0.00000000E+00  0.00000000E+00  0.00000000E+00
  0.00000000E+00  0.00000000E+00  0.00000000E+00
  0.00000000E+00  0.00000000E+00  0.00000000E+00
  0.00000000E+00  0.00000000E+00  0.00000000E+00
  0.00000000E+00  0.00000000E+00  0.00000000E+00
  0.00000000E+00  0.00000000E+00  0.00000000E+00
  0.00000000E+00  0.00000000E+00  0.00000000E+00
  0.00000000E+00  0.00000000E+00  0.00000000E+00
  0.00000000E+00  0.00000000E+00  0.00000000E+00
  0.00000000E+00  0.00000000E+00  0.00000000E+00
  0.00000000E+00  0.00000000E+00  0.00000000E+00
  0.00000000E+00  0.00000000E+00  0.00000000E+00
  0.00000000E+00  0.00000000E+00  0.00000000E+00
  0.00000000E+00  0.00000000E+00  0.00000000E+00
  0.00000000E+00  0.00000000E+00  0.00000000E+00
  0.00000000E+00  0.00000000E+00  0.00000000E+00
  0.00000000E+00  0.00000000E+00  0.00000000E+00
  0.00000000E+00  0.00000000E+00  0.00000000E+00
  0.00000000E+00  0.00000000E+00  0.00000000E+00
  0.00000000E+00  0.00000000E+00  0.00000000E+00
  0.00000000E+00  0.00000000E+00  0.00000000E+00
  0.00000000E+00  0.00000000E+00  0.00000000E+00
  0.00000000E+00  0.00000000E+00  0.00000000E+00
  0.00000000E+00  0.00000000E+00  0.00000000E+00
  0.00000000E+00  0.00000000E+00  0.00000000E+00
  0.00000000E+00  0.00000000E+00  0.00000000E+00
  0.00000000E+00  0.00000000E+00  0.00000000E+00
  0.00000000E+00  0.00000000E+00  0.00000000E+00
  0.00000000E+00  0.00000000E+00  0.00000000E+00
  0.00000000E+00  0.00000000E+00  0.00000000E+00
  0.00000000E+00  0.00000000E+00  0.00000000E+00
  0.00000000E+00  0.00000000E+00  0.00000000E+00
  0.00000000E+00  0.00000000E+00  0.00000000E+00
  0.00000000E+00  0.00000000E+00  0.00000000E+00
  0.00000000E+00  0.00000000E+00  0.00000000E+00
  0.00000000E+00  0.00000000E+00  0.00000000E+00
  0.00000000E+00  0.00000000E+00  0.00000000E+00
  0.00000000E+00  0.00000000E+00  0.00000000E+00
  0.00000000E+00  0.00000000E+00  0.00000000E+00
  0.00000000E+00  0.00000000E+00  0.00000000E+00
  0.00000000E+00  0.00000000E+00  0.00000000E+00
  0.00000000E+00  0.00000000E+00  0.00000000E+00
  0.00000000E+00  0.00000000E+00  0.00000000E+00
  0.00000000E+00  0.00000000E+00  0.00000000E+00
  0.00000000E+00  0.00000000E+00  0.00000000E+00
  0.00000000E+00  0.00000000E+00  0.00000000E+00
  0.00000000E+00  0.00000000E+00  0.00000000E+00
  0.00000000E+00  0.00000000E+00  0.00000000E+00
  0.00000000E+00  0.00000000E+00  0.00000000E+00
  0.00000000E+00  0.00000000E+00  0.00000000E+00
  0.00000000E+00  0.00000000E+00  0.00000000E+00
  0.00000000E+00  0.00000000E+00  0.00000000E+00
  0.00000000E+00  0.00000000E+00  0.00000000E+00
  0.00000000E+00  0.00000000E+00  0.00000000E+00
  0.00000000E+00  0.00000000E+00  0.00000000E+00
  0.00000000E+00  0.00000000E+00  0.00000000E+00
  0.00000000E+00  0.00000000E+00  0.00000000E+00
  0.00000000E+00  0.00000000E+00  0.00000000E+00
  0.00000000E+00  0.00000000E+00  0.00000000E+00
  0.00000000E+00  0.00000000E+00  0.00000000E+00
  0.00000000E+00  0.00000000E+00  0.00000000E+00
  0.00000000E+00  0.00000000E+00  0.00000000E+00
  0.00000000E+00  0.00000000E+00  0.00000000E+00
  0.00000000E+00  0.00000000E+00  0.00000000E+00
  0.00000000E+00  0.00000000E+00  0.00000000E+00
  0.00000000E+00  0.00000000E+00  0.00000000E+00
  0.00000000E+00  0.00000000E+00  0.00000000E+00
  0.00000000E+00  0.00000000E+00  0.00000000E+00
  0.00000000E+00  0.00000000E+00  0.00000000E+00
  0.00000000E+00  0.00000000E+00  0.00000000E+00
  0.00000000E+00  0.00000000E+00  0.00000000E+00
  0.00000000E+00  0.00000000E+00  0.00000000E+00
  0.00000000E+00  0.00000000E+00  0.00000000E+00
