Cr1 H1 C126 O1                          
   1.00000000000000     
    19.8016036258666155   -0.0015895301603451   -0.0603163112569799
    -9.9021857064216530   17.0643018155971475   -0.0073041977599945
    -0.0906678261841333   -0.0653456848242334   29.7810186082702621
   Cr   H    C    O 
     1     1   126     1
Direct
  0.4391180358204571  0.5014347210121960  0.4271476363483377
  0.4831691318772247  0.5521281760040131  0.5005271535808083
  0.0419671246620355  0.0839178082744963  0.3997079154653725
  0.0411631832815757  0.2081163075988455  0.3995907236340270
  0.0407714056031269  0.3328196140755139  0.3995761614846411
  0.0408381053552437  0.4582705309718625  0.3995914178798438
  0.0414446906281764  0.5836284668755575  0.3997790673231627
  0.0419723507913095  0.7088645275923370  0.3999150776729798
  0.0422564108482608  0.8342073217336193  0.3999567958830331
  0.0422961080829767  0.9592349923172288  0.3998856408529198
  0.1675188602149519  0.0849398374484383  0.3999365329544797
  0.1672861485189379  0.2096830961371763  0.4000262222281212
  0.1656784154729927  0.3333125345863989  0.4002347169801970
  0.1646398181362240  0.4582421298716507  0.3998054354400283
  0.1655248705618141  0.5834598662807678  0.3995027518051883
  0.1665791631889579  0.7089021358622165  0.3997299204266961
  0.1670244512976390  0.8342026117630356  0.3999406676165742
  0.1673206599017718  0.9595832522280666  0.3999791161678010
  0.2924858606807288  0.0849369532592053  0.3998943733979805
  0.2932310762138685  0.2113515338321806  0.4007055966913970
  0.2931538173396637  0.3370087046530422  0.4027243167611373
  0.2880766941968006  0.4578168550755294  0.4027917002837986
  0.2894146317385007  0.5837461134406410  0.4003021839707328
  0.2910843941954675  0.7087479652361258  0.3995627288615070
  0.2916682726178156  0.8338216576181797  0.3997187890844963
  0.2919988621762380  0.9592360164955847  0.3998382832783136
  0.4170077632747002  0.0838770574035595  0.3997029118527378
  0.4174942108796081  0.2095805948745794  0.3998585873433132
  0.4191387336447094  0.3369196509791094  0.4021076019248386
  0.4120009758581570  0.5805350976766795  0.4051001393665092
  0.4156014930013183  0.7068768996208553  0.4003889767535270
  0.4163201086809243  0.8327921652486602  0.3996303018669174
  0.4166769881552516  0.9583127769353718  0.3997370174673934
  0.5416259214136134  0.0827986127642612  0.3998133179716491
  0.5420560470752492  0.2080710931982236  0.3996357648431201
  0.5427902087363810  0.3332031943388712  0.3999056489551456
  0.5449010009547172  0.4576181731248216  0.4017298980233611
  0.5435690324848007  0.5803624033397959  0.4041772488479639
  0.5402842940689782  0.7055456959433368  0.4020217704058153
  0.5408361573302980  0.8316672431922825  0.4001148188748261
  0.5413439154895269  0.9573479125753422  0.3998166035081990
  0.6663027964267266  0.0823649351936065  0.3999568699886570
  0.6666717505963063  0.2076549858340750  0.3998476842628382
  0.6672010749212386  0.3327735356587622  0.3996707107202269
  0.6687659765282730  0.4581724950903244  0.3997412797798542
  0.6694174702444219  0.5836697081889489  0.4001650311499937
  0.6663057222464942  0.7068685156826752  0.4002124451477357
  0.6658633660220210  0.8316621531117965  0.4000672822707602
  0.6660556241257214  0.9570473160355616  0.3999489527770808
  0.7911485412054570  0.0823679406953396  0.3999401266855716
  0.7913104500667559  0.2075021499653247  0.3999697665901883
  0.7917636741150267  0.3328402221400875  0.3998692998984683
  0.7925856520199859  0.4582484282735687  0.3997234024497613
  0.7930437805002742  0.5834641399674333  0.3996335340051922
  0.7927099741169368  0.7087411293498103  0.3996369280244553
  0.7915227650047513  0.8328039960945279  0.3996665360229337
  0.7910798597825022  0.9573586106078774  0.3998004445233717
  0.9162858547480816  0.0828268826764118  0.3997605996531778
  0.9161139239031829  0.2076738518589845  0.3997766714535212
  0.9162206426175946  0.3328528968426534  0.3998068846767294
  0.9166459098253461  0.4581327327903035  0.3998329232891794
  0.9172765675281044  0.5836226577563205  0.3998379208909154
  0.9174004891230491  0.7089000422336600  0.3998069459714985
  0.9172002028261115  0.8338165948865405  0.3997756510756936
  0.9167175484032136  0.9583276162817598  0.3997638421026976
  0.0840491744492015  0.0427480289497187  0.3998223077403702
  0.0836113807340843  0.1673256581403491  0.3996580251404673
  0.0823565696459899  0.2913197160955809  0.3996577902946097
  0.0820547365524091  0.4165333530620817  0.3995184324210875
  0.0825675252444439  0.5417499134553543  0.3996158935258044
  0.0833647709742841  0.6671809264573884  0.3998225198769320
  0.0838048390049760  0.7925380149086129  0.3999556505015083
  0.0839500738269862  0.9177033286025975  0.3999645148460241
  0.2090664097021918  0.0430757094379772  0.3999592330129398
  0.2092726214893059  0.1685476603883155  0.4001976195416485
  0.2089067430533450  0.2933808830962153  0.4006850408353172
  0.2056390269092108  0.4163240593901548  0.4006605523796608
  0.2064026628250068  0.5417725346589964  0.3997156567802167
  0.2079547894126076  0.6672008749476434  0.3995547269437395
  0.2084655722180767  0.7923679513008693  0.3998248923113835
  0.2088106621811175  0.9176988139610492  0.3999401883134756
  0.3337605455489029  0.0427421781065154  0.3997819775114267
  0.3343590285596406  0.1685291984608286  0.4000842558573424
  0.3349796984213489  0.2947350252824929  0.4022705459842735
  0.3313916102646639  0.4197977229699532  0.4056137584186428
  0.3303960497568334  0.5424129930111474  0.4025111888066061
  0.3324286081608603  0.6668417087027805  0.3999474662094092
  0.3330789136866485  0.7919567590788873  0.3995836304046549
  0.3334799045399428  0.9172527886782122  0.3997803417367061
  0.4584468011810880  0.0417597551583617  0.3997474257366947
  0.4587896746564792  0.1672604703920416  0.3996319353872914
  0.4596396146225142  0.2932498991891077  0.4002598351121318
  0.4636284935292644  0.4196852360283115  0.4043132517395803
  0.4562527798047243  0.6633652922670901  0.4023225435861729
  0.4576617888707919  0.7905371176887231  0.3998990099665378
  0.4580877034309758  0.9161926903771456  0.3997062091837760
  0.5831009437447026  0.0408297718457114  0.3998642306008561
  0.5834632153172581  0.1662110350645981  0.3997611895209834
  0.5841167090190125  0.2912500061847564  0.3996320036339427
  0.5858678999613507  0.4162159279563306  0.4001585450602185
  0.5870920488876173  0.5422217894089384  0.4016589153694745
  0.5821039026527268  0.6633717741745316  0.4018944929500616
  0.5820112481446369  0.7890000672959853  0.4006007654708238
  0.5826837493752081  0.9152352290539167  0.3999262260575567
  0.7078014390994480  0.0405219748208977  0.3999715189706411
  0.7081167976574607  0.1658465372876988  0.3999547266817322
  0.7085667085907433  0.2910920394434007  0.3997984393546162
  0.7096440898800480  0.4164844673147465  0.3996356918408567
  0.7104773196920088  0.5417169200109274  0.3997617764191364
  0.7094496671129392  0.6668172745662897  0.3998926563407189
  0.7079109586088630  0.7905529560532304  0.3998601533359819
  0.7076077225533458  0.9152379844108838  0.3998963877760667
  0.8328218297715383  0.0408540308959284  0.3998410888497175
  0.8328386707620121  0.1658564619396067  0.3999379877265185
  0.8331402140426877  0.2911510122960610  0.3999159596112624
  0.8337130447893580  0.4163824012660654  0.3998307288980200
  0.8342848354928553  0.5417403438936222  0.3997231350185230
  0.8343206514890932  0.6672023597812088  0.3996730739049281
  0.8339093613210766  0.7919565207938654  0.3996584431268354
  0.8331709637100451  0.9162176956181147  0.3997290620186954
  0.9584039257460707  0.0417816861077830  0.3997393055293351
  0.9578791508439889  0.1662364967971597  0.3996793934735861
  0.9576847190513281  0.2911264819892342  0.3997044200549599
  0.9578459077492879  0.4164023168590888  0.3997614324659769
  0.9584942771483219  0.5418881879442796  0.3998339973588921
  0.9588876836854128  0.6671643967783192  0.3998728676028972
  0.9589724531947231  0.7923746203067737  0.3998681520230658
  0.9588200195086443  0.9172456639504872  0.3998177288230147
  0.4420920867896774  0.5049714669690716  0.4858838165343123
 
  0.00000000E+00  0.00000000E+00  0.00000000E+00
  0.00000000E+00  0.00000000E+00  0.00000000E+00
  0.00000000E+00  0.00000000E+00  0.00000000E+00
  0.00000000E+00  0.00000000E+00  0.00000000E+00
  0.00000000E+00  0.00000000E+00  0.00000000E+00
  0.00000000E+00  0.00000000E+00  0.00000000E+00
  0.00000000E+00  0.00000000E+00  0.00000000E+00
  0.00000000E+00  0.00000000E+00  0.00000000E+00
  0.00000000E+00  0.00000000E+00  0.00000000E+00
  0.00000000E+00  0.00000000E+00  0.00000000E+00
  0.00000000E+00  0.00000000E+00  0.00000000E+00
  0.00000000E+00  0.00000000E+00  0.00000000E+00
  0.00000000E+00  0.00000000E+00  0.00000000E+00
  0.00000000E+00  0.00000000E+00  0.00000000E+00
  0.00000000E+00  0.00000000E+00  0.00000000E+00
  0.00000000E+00  0.00000000E+00  0.00000000E+00
  0.00000000E+00  0.00000000E+00  0.00000000E+00
  0.00000000E+00  0.00000000E+00  0.00000000E+00
  0.00000000E+00  0.00000000E+00  0.00000000E+00
  0.00000000E+00  0.00000000E+00  0.00000000E+00
  0.00000000E+00  0.00000000E+00  0.00000000E+00
  0.00000000E+00  0.00000000E+00  0.00000000E+00
  0.00000000E+00  0.00000000E+00  0.00000000E+00
  0.00000000E+00  0.00000000E+00  0.00000000E+00
  0.00000000E+00  0.00000000E+00  0.00000000E+00
  0.00000000E+00  0.00000000E+00  0.00000000E+00
  0.00000000E+00  0.00000000E+00  0.00000000E+00
  0.00000000E+00  0.00000000E+00  0.00000000E+00
  0.00000000E+00  0.00000000E+00  0.00000000E+00
  0.00000000E+00  0.00000000E+00  0.00000000E+00
  0.00000000E+00  0.00000000E+00  0.00000000E+00
  0.00000000E+00  0.00000000E+00  0.00000000E+00
  0.00000000E+00  0.00000000E+00  0.00000000E+00
  0.00000000E+00  0.00000000E+00  0.00000000E+00
  0.00000000E+00  0.00000000E+00  0.00000000E+00
  0.00000000E+00  0.00000000E+00  0.00000000E+00
  0.00000000E+00  0.00000000E+00  0.00000000E+00
  0.00000000E+00  0.00000000E+00  0.00000000E+00
  0.00000000E+00  0.00000000E+00  0.00000000E+00
  0.00000000E+00  0.00000000E+00  0.00000000E+00
  0.00000000E+00  0.00000000E+00  0.00000000E+00
  0.00000000E+00  0.00000000E+00  0.00000000E+00
  0.00000000E+00  0.00000000E+00  0.00000000E+00
  0.00000000E+00  0.00000000E+00  0.00000000E+00
  0.00000000E+00  0.00000000E+00  0.00000000E+00
  0.00000000E+00  0.00000000E+00  0.00000000E+00
  0.00000000E+00  0.00000000E+00  0.00000000E+00
  0.00000000E+00  0.00000000E+00  0.00000000E+00
  0.00000000E+00  0.00000000E+00  0.00000000E+00
  0.00000000E+00  0.00000000E+00  0.00000000E+00
  0.00000000E+00  0.00000000E+00  0.00000000E+00
  0.00000000E+00  0.00000000E+00  0.00000000E+00
  0.00000000E+00  0.00000000E+00  0.00000000E+00
  0.00000000E+00  0.00000000E+00  0.00000000E+00
  0.00000000E+00  0.00000000E+00  0.00000000E+00
  0.00000000E+00  0.00000000E+00  0.00000000E+00
  0.00000000E+00  0.00000000E+00  0.00000000E+00
  0.00000000E+00  0.00000000E+00  0.00000000E+00
  0.00000000E+00  0.00000000E+00  0.00000000E+00
  0.00000000E+00  0.00000000E+00  0.00000000E+00
  0.00000000E+00  0.00000000E+00  0.00000000E+00
  0.00000000E+00  0.00000000E+00  0.00000000E+00
  0.00000000E+00  0.00000000E+00  0.00000000E+00
  0.00000000E+00  0.00000000E+00  0.00000000E+00
  0.00000000E+00  0.00000000E+00  0.00000000E+00
  0.00000000E+00  0.00000000E+00  0.00000000E+00
  0.00000000E+00  0.00000000E+00  0.00000000E+00
  0.00000000E+00  0.00000000E+00  0.00000000E+00
  0.00000000E+00  0.00000000E+00  0.00000000E+00
  0.00000000E+00  0.00000000E+00  0.00000000E+00
  0.00000000E+00  0.00000000E+00  0.00000000E+00
  0.00000000E+00  0.00000000E+00  0.00000000E+00
  0.00000000E+00  0.00000000E+00  0.00000000E+00
  0.00000000E+00  0.00000000E+00  0.00000000E+00
  0.00000000E+00  0.00000000E+00  0.00000000E+00
  0.00000000E+00  0.00000000E+00  0.00000000E+00
  0.00000000E+00  0.00000000E+00  0.00000000E+00
  0.00000000E+00  0.00000000E+00  0.00000000E+00
  0.00000000E+00  0.00000000E+00  0.00000000E+00
  0.00000000E+00  0.00000000E+00  0.00000000E+00
  0.00000000E+00  0.00000000E+00  0.00000000E+00
  0.00000000E+00  0.00000000E+00  0.00000000E+00
  0.00000000E+00  0.00000000E+00  0.00000000E+00
  0.00000000E+00  0.00000000E+00  0.00000000E+00
  0.00000000E+00  0.00000000E+00  0.00000000E+00
  0.00000000E+00  0.00000000E+00  0.00000000E+00
  0.00000000E+00  0.00000000E+00  0.00000000E+00
  0.00000000E+00  0.00000000E+00  0.00000000E+00
  0.00000000E+00  0.00000000E+00  0.00000000E+00
  0.00000000E+00  0.00000000E+00  0.00000000E+00
  0.00000000E+00  0.00000000E+00  0.00000000E+00
  0.00000000E+00  0.00000000E+00  0.00000000E+00
  0.00000000E+00  0.00000000E+00  0.00000000E+00
  0.00000000E+00  0.00000000E+00  0.00000000E+00
  0.00000000E+00  0.00000000E+00  0.00000000E+00
  0.00000000E+00  0.00000000E+00  0.00000000E+00
  0.00000000E+00  0.00000000E+00  0.00000000E+00
  0.00000000E+00  0.00000000E+00  0.00000000E+00
  0.00000000E+00  0.00000000E+00  0.00000000E+00
  0.00000000E+00  0.00000000E+00  0.00000000E+00
  0.00000000E+00  0.00000000E+00  0.00000000E+00
  0.00000000E+00  0.00000000E+00  0.00000000E+00
  0.00000000E+00  0.00000000E+00  0.00000000E+00
  0.00000000E+00  0.00000000E+00  0.00000000E+00
  0.00000000E+00  0.00000000E+00  0.00000000E+00
  0.00000000E+00  0.00000000E+00  0.00000000E+00
  0.00000000E+00  0.00000000E+00  0.00000000E+00
  0.00000000E+00  0.00000000E+00  0.00000000E+00
  0.00000000E+00  0.00000000E+00  0.00000000E+00
  0.00000000E+00  0.00000000E+00  0.00000000E+00
  0.00000000E+00  0.00000000E+00  0.00000000E+00
  0.00000000E+00  0.00000000E+00  0.00000000E+00
  0.00000000E+00  0.00000000E+00  0.00000000E+00
  0.00000000E+00  0.00000000E+00  0.00000000E+00
  0.00000000E+00  0.00000000E+00  0.00000000E+00
  0.00000000E+00  0.00000000E+00  0.00000000E+00
  0.00000000E+00  0.00000000E+00  0.00000000E+00
  0.00000000E+00  0.00000000E+00  0.00000000E+00
  0.00000000E+00  0.00000000E+00  0.00000000E+00
  0.00000000E+00  0.00000000E+00  0.00000000E+00
  0.00000000E+00  0.00000000E+00  0.00000000E+00
  0.00000000E+00  0.00000000E+00  0.00000000E+00
  0.00000000E+00  0.00000000E+00  0.00000000E+00
  0.00000000E+00  0.00000000E+00  0.00000000E+00
  0.00000000E+00  0.00000000E+00  0.00000000E+00
  0.00000000E+00  0.00000000E+00  0.00000000E+00
  0.00000000E+00  0.00000000E+00  0.00000000E+00
  0.00000000E+00  0.00000000E+00  0.00000000E+00
  0.00000000E+00  0.00000000E+00  0.00000000E+00
