Au1 C126                                
   1.00000000000000     
    19.8866876752753754    0.0000060041750686    0.0009759094582382
    -9.9433374077031118   17.0681401465709790   -0.0005507137642186
     0.0014361219235971   -0.0001099351457093   29.6451305114232007
   Au   C 
     1   126
Direct
  0.4374874671137142  0.4999997673377420  0.4117646405276316
  0.0416220241492997  0.0838107890101927  0.3995643138442228
  0.0400478863111458  0.2075596055937630  0.3994633357641560
  0.0392835628494008  0.3323759072007813  0.3989682233789244
  0.0394841977623827  0.4581842420039031  0.3984604913877923
  0.0410040749015217  0.5839858850435512  0.3987083464558995
  0.0422923405839157  0.7095489377069022  0.3992664620440159
  0.0427666774647612  0.8349419067363670  0.3994991234884693
  0.0426800490423557  0.9598183763745046  0.3994994881604357
  0.1677608731263240  0.0856421993553458  0.4002284538844882
  0.1662279225654886  0.2093838892987845  0.4011916687125950
  0.1635230076732651  0.3326617698297762  0.4014526156499989
  0.1619561906566710  0.4581941592965459  0.4001028702981863
  0.1638352739680706  0.5838796963883905  0.3988343582751840
  0.1661410378491681  0.7095187127063284  0.3988998821273595
  0.1671785440985343  0.8349428321557377  0.3994870860397975
  0.1676971219326492  0.9603665562169358  0.3996991370493497
  0.2928644822398337  0.0856423977076079  0.4002392415015082
  0.2935987190898867  0.2122127118936878  0.4025589777989603
  0.2905613049580377  0.3363309861422311  0.4058356007230877
  0.2830633659082224  0.4575177925153813  0.4060587995096917
  0.2863115645184630  0.5842275883709774  0.4022510654235788
  0.2901105644194107  0.7092806761316467  0.3996837716253109
  0.2913493011044337  0.8343660299895010  0.3991752436272295
  0.2921515447060463  0.9598138811033166  0.3994818648645392
  0.4171827803877610  0.0838090223270688  0.3995885242746256
  0.4181472645820042  0.2093763690134135  0.4012646064273293
  0.4207505743814850  0.3363076101531994  0.4058576793560512
  0.4071143854783091  0.5816902059914587  0.4087836842366993
  0.4142326305079320  0.7073316819789794  0.4027486356363997
  0.4157450147379114  0.8329342853268098  0.3999145163512613
  0.4165501401792065  0.9583711887423852  0.3993367650893274
  0.5416257827283055  0.0822740239100659  0.3993257783750987
  0.5425020771568819  0.2075610539823046  0.3995083035601501
  0.5441391140844176  0.3326696498202736  0.4015136694554532
  0.5494269566381950  0.4575190255161719  0.4061197262265674
  0.5495593439600527  0.5817136313199210  0.4088302027576380
  0.5395845702073210  0.7041865565446286  0.4051910459662327
  0.5401410164005611  0.8307668600988380  0.4013060137224966
  0.5409326681841393  0.9567027521185248  0.3997117637547775
  0.6659670895305002  0.0815343123926395  0.3995890123735052
  0.6667345612082133  0.2069686687624842  0.3991690358991210
  0.6680981283118800  0.3323862429816695  0.3989702655937989
  0.6712392833714532  0.4581977009132914  0.4001469329807071
  0.6728935574245780  0.5842184049582729  0.4023088855502990
  0.6681036236563794  0.7073363494398874  0.4027917394604574
  0.6656106885603638  0.8307683457453005  0.4013580710691539
  0.6655487032886076  0.9561020138629357  0.4000243534488457
  0.7905931161577291  0.0815343773556682  0.3995758195488984
  0.7909010114379579  0.2067874808172472  0.3995541296709633
  0.7918760219743163  0.3323658193545536  0.3989441475136158
  0.7937099858384078  0.4581846266460955  0.3984645884956481
  0.7950478025504255  0.5838765945066049  0.3988576748028447
  0.7941629747454451  0.7092682043769800  0.3997281175589764
  0.7921866065211364  0.8329369308871887  0.3999733232552001
  0.7907518068692123  0.9567029046680259  0.3997109100823172
  0.9156674904475406  0.0822739050795566  0.3993104234253078
  0.9152301296817388  0.2069580879064876  0.3991543671423583
  0.9155261018387433  0.3323715719672061  0.3989546107806585
  0.9165615224486096  0.4581042645857500  0.3987894491174214
  0.9180010777901890  0.5839967856230061  0.3986869737636659
  0.9183859971496755  0.7095058666395468  0.3988884103632033
  0.9180117507048757  0.8343599359645226  0.3992022315717947
  0.9168251208825037  0.9583671997074086  0.3993513968973135
  0.0842296247089605  0.0432979561897831  0.3997120198173238
  0.0828101588677739  0.1670661788131544  0.3999142452410710
  0.0808295009267781  0.2907198751273199  0.3996828237263265
  0.0799562831104568  0.4161211380610675  0.3988331533041706
  0.0813017207640341  0.5418153902206810  0.3984609127323179
  0.0831542486653713  0.6676270920295094  0.3989560350945974
  0.0841128698968096  0.7932118603787056  0.3995545461428254
  0.0844328811657516  0.9184653298637000  0.3995891967704562
  0.2094463256771319  0.0438969651574002  0.4000239676211579
  0.2093734442685741  0.1692333038715787  0.4013055292577956
  0.2069004635722363  0.2926684241180457  0.4027477661843046
  0.2020825685688000  0.4157733091690334  0.4022505600370627
  0.2037610196516503  0.5418064329883606  0.4001036349942299
  0.2069073333469355  0.6676237361303738  0.3989689176515366
  0.2082721102314813  0.7930414045684637  0.3991543760641967
  0.2090573286575141  0.9184637639937064  0.3995754777155300
  0.3340484420726526  0.0432969199393117  0.3997093797242805
  0.3348421290105049  0.1692310406169069  0.4013561958603969
  0.3353984086220210  0.2958136541426450  0.4051908174838303
  0.3254232306946808  0.4183092344912177  0.4087832925037369
  0.3255437325675866  0.5424821073032043  0.4060586122406856
  0.3308604640614365  0.6673377473723484  0.4014536435171064
  0.3324881425812884  0.7924405926952470  0.3994633151373981
  0.3333927169082423  0.9177251200145542  0.3993095214494161
  0.4584583070068481  0.0416327785169552  0.3993487280093928
  0.4592498573845008  0.1670621891460147  0.3999725938272470
  0.4607672740112057  0.2926632289592933  0.4027916504154648
  0.4678457896310451  0.4182862385957015  0.4088301394447879
  0.4542302868315639  0.6636690252691191  0.4058359267098953
  0.4568434795447972  0.7906164494872688  0.4011923796976656
  0.4578110114223718  0.9161890629091732  0.3995638386023943
  0.5828618399383778  0.0401819997908300  0.3994985096227240
  0.5836513041482505  0.1656398656174237  0.3992002066692911
  0.5848950498237061  0.2907317540821396  0.3997270810125200
  0.5886756338247670  0.4157817594038405  0.4023089212257436
  0.5919077621002299  0.5424806612728024  0.4061197116363359
  0.5844424787859199  0.6636918630011880  0.4058576248043327
  0.5813852558484593  0.7877871453462315  0.4025599244349582
  0.5821192247433866  0.9143585350085833  0.4002284991303213
  0.7073297538003442  0.0396336579188888  0.3996991600591657
  0.7078241955564765  0.1650573048487238  0.3994987149185008
  0.7088793717136262  0.2904935932179706  0.3988870814372396
  0.7111704574583474  0.4161229975074454  0.3988570150439757
  0.7130415029024223  0.5418019644070259  0.4001469154469858
  0.7114690568025916  0.6673300822884208  0.4015137882820322
  0.7087701615011717  0.7906229755293280  0.4012656480728850
  0.7072221502565030  0.9143580688495686  0.4002408404740243
  0.8323375775822409  0.0401858655325344  0.3994827314007727
  0.8322359827331276  0.1650580660516665  0.3994871503709356
  0.8327436238281252  0.2904503217228886  0.3992648824727614
  0.8340047821049548  0.4160029399566592  0.3986859615418388
  0.8355245053052685  0.5418155260304650  0.3984650918119795
  0.8357115348329427  0.6676132309136621  0.3989717107008461
  0.8349416216768006  0.7924394252926991  0.3995088501152906
  0.8333737851719639  0.9161916003437145  0.3995901673420330
  0.9581786541733716  0.0416285543463480  0.3993385865450039
  0.9569824818581176  0.1656349376938766  0.3991754209070655
  0.9566228263481875  0.2904814401225664  0.3988990653847172
  0.9570182362982407  0.4160132027865348  0.3987075619414373
  0.9584563384871948  0.5418945344911738  0.3987899016754965
  0.9595097530151754  0.6676337420810415  0.3989455180540549
  0.9597657850113724  0.7930311053288533  0.3991706602563299
  0.9593515869393469  0.9177259209787898  0.3993280525111948
 
  0.00000000E+00  0.00000000E+00  0.00000000E+00
  0.00000000E+00  0.00000000E+00  0.00000000E+00
  0.00000000E+00  0.00000000E+00  0.00000000E+00
  0.00000000E+00  0.00000000E+00  0.00000000E+00
  0.00000000E+00  0.00000000E+00  0.00000000E+00
  0.00000000E+00  0.00000000E+00  0.00000000E+00
  0.00000000E+00  0.00000000E+00  0.00000000E+00
  0.00000000E+00  0.00000000E+00  0.00000000E+00
  0.00000000E+00  0.00000000E+00  0.00000000E+00
  0.00000000E+00  0.00000000E+00  0.00000000E+00
  0.00000000E+00  0.00000000E+00  0.00000000E+00
  0.00000000E+00  0.00000000E+00  0.00000000E+00
  0.00000000E+00  0.00000000E+00  0.00000000E+00
  0.00000000E+00  0.00000000E+00  0.00000000E+00
  0.00000000E+00  0.00000000E+00  0.00000000E+00
  0.00000000E+00  0.00000000E+00  0.00000000E+00
  0.00000000E+00  0.00000000E+00  0.00000000E+00
  0.00000000E+00  0.00000000E+00  0.00000000E+00
  0.00000000E+00  0.00000000E+00  0.00000000E+00
  0.00000000E+00  0.00000000E+00  0.00000000E+00
  0.00000000E+00  0.00000000E+00  0.00000000E+00
  0.00000000E+00  0.00000000E+00  0.00000000E+00
  0.00000000E+00  0.00000000E+00  0.00000000E+00
  0.00000000E+00  0.00000000E+00  0.00000000E+00
  0.00000000E+00  0.00000000E+00  0.00000000E+00
  0.00000000E+00  0.00000000E+00  0.00000000E+00
  0.00000000E+00  0.00000000E+00  0.00000000E+00
  0.00000000E+00  0.00000000E+00  0.00000000E+00
  0.00000000E+00  0.00000000E+00  0.00000000E+00
  0.00000000E+00  0.00000000E+00  0.00000000E+00
  0.00000000E+00  0.00000000E+00  0.00000000E+00
  0.00000000E+00  0.00000000E+00  0.00000000E+00
  0.00000000E+00  0.00000000E+00  0.00000000E+00
  0.00000000E+00  0.00000000E+00  0.00000000E+00
  0.00000000E+00  0.00000000E+00  0.00000000E+00
  0.00000000E+00  0.00000000E+00  0.00000000E+00
  0.00000000E+00  0.00000000E+00  0.00000000E+00
  0.00000000E+00  0.00000000E+00  0.00000000E+00
  0.00000000E+00  0.00000000E+00  0.00000000E+00
  0.00000000E+00  0.00000000E+00  0.00000000E+00
  0.00000000E+00  0.00000000E+00  0.00000000E+00
  0.00000000E+00  0.00000000E+00  0.00000000E+00
  0.00000000E+00  0.00000000E+00  0.00000000E+00
  0.00000000E+00  0.00000000E+00  0.00000000E+00
  0.00000000E+00  0.00000000E+00  0.00000000E+00
  0.00000000E+00  0.00000000E+00  0.00000000E+00
  0.00000000E+00  0.00000000E+00  0.00000000E+00
  0.00000000E+00  0.00000000E+00  0.00000000E+00
  0.00000000E+00  0.00000000E+00  0.00000000E+00
  0.00000000E+00  0.00000000E+00  0.00000000E+00
  0.00000000E+00  0.00000000E+00  0.00000000E+00
  0.00000000E+00  0.00000000E+00  0.00000000E+00
  0.00000000E+00  0.00000000E+00  0.00000000E+00
  0.00000000E+00  0.00000000E+00  0.00000000E+00
  0.00000000E+00  0.00000000E+00  0.00000000E+00
  0.00000000E+00  0.00000000E+00  0.00000000E+00
  0.00000000E+00  0.00000000E+00  0.00000000E+00
  0.00000000E+00  0.00000000E+00  0.00000000E+00
  0.00000000E+00  0.00000000E+00  0.00000000E+00
  0.00000000E+00  0.00000000E+00  0.00000000E+00
  0.00000000E+00  0.00000000E+00  0.00000000E+00
  0.00000000E+00  0.00000000E+00  0.00000000E+00
  0.00000000E+00  0.00000000E+00  0.00000000E+00
  0.00000000E+00  0.00000000E+00  0.00000000E+00
  0.00000000E+00  0.00000000E+00  0.00000000E+00
  0.00000000E+00  0.00000000E+00  0.00000000E+00
  0.00000000E+00  0.00000000E+00  0.00000000E+00
  0.00000000E+00  0.00000000E+00  0.00000000E+00
  0.00000000E+00  0.00000000E+00  0.00000000E+00
  0.00000000E+00  0.00000000E+00  0.00000000E+00
  0.00000000E+00  0.00000000E+00  0.00000000E+00
  0.00000000E+00  0.00000000E+00  0.00000000E+00
  0.00000000E+00  0.00000000E+00  0.00000000E+00
  0.00000000E+00  0.00000000E+00  0.00000000E+00
  0.00000000E+00  0.00000000E+00  0.00000000E+00
  0.00000000E+00  0.00000000E+00  0.00000000E+00
  0.00000000E+00  0.00000000E+00  0.00000000E+00
  0.00000000E+00  0.00000000E+00  0.00000000E+00
  0.00000000E+00  0.00000000E+00  0.00000000E+00
  0.00000000E+00  0.00000000E+00  0.00000000E+00
  0.00000000E+00  0.00000000E+00  0.00000000E+00
  0.00000000E+00  0.00000000E+00  0.00000000E+00
  0.00000000E+00  0.00000000E+00  0.00000000E+00
  0.00000000E+00  0.00000000E+00  0.00000000E+00
  0.00000000E+00  0.00000000E+00  0.00000000E+00
  0.00000000E+00  0.00000000E+00  0.00000000E+00
  0.00000000E+00  0.00000000E+00  0.00000000E+00
  0.00000000E+00  0.00000000E+00  0.00000000E+00
  0.00000000E+00  0.00000000E+00  0.00000000E+00
  0.00000000E+00  0.00000000E+00  0.00000000E+00
  0.00000000E+00  0.00000000E+00  0.00000000E+00
  0.00000000E+00  0.00000000E+00  0.00000000E+00
  0.00000000E+00  0.00000000E+00  0.00000000E+00
  0.00000000E+00  0.00000000E+00  0.00000000E+00
  0.00000000E+00  0.00000000E+00  0.00000000E+00
  0.00000000E+00  0.00000000E+00  0.00000000E+00
  0.00000000E+00  0.00000000E+00  0.00000000E+00
  0.00000000E+00  0.00000000E+00  0.00000000E+00
  0.00000000E+00  0.00000000E+00  0.00000000E+00
  0.00000000E+00  0.00000000E+00  0.00000000E+00
  0.00000000E+00  0.00000000E+00  0.00000000E+00
  0.00000000E+00  0.00000000E+00  0.00000000E+00
  0.00000000E+00  0.00000000E+00  0.00000000E+00
  0.00000000E+00  0.00000000E+00  0.00000000E+00
  0.00000000E+00  0.00000000E+00  0.00000000E+00
  0.00000000E+00  0.00000000E+00  0.00000000E+00
  0.00000000E+00  0.00000000E+00  0.00000000E+00
  0.00000000E+00  0.00000000E+00  0.00000000E+00
  0.00000000E+00  0.00000000E+00  0.00000000E+00
  0.00000000E+00  0.00000000E+00  0.00000000E+00
  0.00000000E+00  0.00000000E+00  0.00000000E+00
  0.00000000E+00  0.00000000E+00  0.00000000E+00
  0.00000000E+00  0.00000000E+00  0.00000000E+00
  0.00000000E+00  0.00000000E+00  0.00000000E+00
  0.00000000E+00  0.00000000E+00  0.00000000E+00
  0.00000000E+00  0.00000000E+00  0.00000000E+00
  0.00000000E+00  0.00000000E+00  0.00000000E+00
  0.00000000E+00  0.00000000E+00  0.00000000E+00
  0.00000000E+00  0.00000000E+00  0.00000000E+00
  0.00000000E+00  0.00000000E+00  0.00000000E+00
  0.00000000E+00  0.00000000E+00  0.00000000E+00
  0.00000000E+00  0.00000000E+00  0.00000000E+00
  0.00000000E+00  0.00000000E+00  0.00000000E+00
  0.00000000E+00  0.00000000E+00  0.00000000E+00
  0.00000000E+00  0.00000000E+00  0.00000000E+00
  0.00000000E+00  0.00000000E+00  0.00000000E+00
  0.00000000E+00  0.00000000E+00  0.00000000E+00
