Re1 C123 N3                             
   1.00000000000000     
    19.8209515571852428    0.0239041208265928    0.0243145721736923
    -9.8898006197418979   17.0228273177290212   -0.0282257150788789
     0.0368641581707320   -0.0283114146203711   29.8018174140350816
   Re   C    N 
     1   123     3
Direct
  0.4418443700671802  0.5006639150356732  0.4255388202394947
  0.0418446537215263  0.0841429166687426  0.3997568613251486
  0.0404067131957158  0.2079068814606680  0.3996942702679977
  0.0395597910192750  0.3325867024110576  0.3991762492602401
  0.0400212983692720  0.4579329075523049  0.3991434943808703
  0.0413983285289803  0.5836252063620421  0.3999112888911231
  0.0425534415599269  0.7092577874098801  0.4002083471093774
  0.0428317160098763  0.8345957451596642  0.4000829518629577
  0.0426456674090656  0.9596927673373917  0.3999066512287456
  0.1676921450939596  0.0855017675507925  0.4000249967215234
  0.1670528651958896  0.2102237055938761  0.4001361509623624
  0.1640448563032609  0.3331219310480084  0.4004495237454493
  0.1634254392956471  0.4579130184763111  0.3980616691232735
  0.1649122742653427  0.5833154368593180  0.3986600682533699
  0.1666006444086769  0.7087804726005428  0.3998202060107842
  0.1673913466040203  0.8343885734806248  0.4001524412265551
  0.1676591397290017  0.9600376776290948  0.4000372053415617
  0.2925327260693065  0.0857412906836630  0.3998023597792810
  0.2928819869567768  0.2125509435069272  0.4005451615393155
  0.2914538306475556  0.3381784837860396  0.4048264756988778
  0.2858974376538347  0.4572386690298644  0.4030099328846136
  0.2879836211872298  0.5822110188528046  0.3986725560028901
  0.2907735489962904  0.7078068258288667  0.3992659466682910
  0.2918136819666102  0.8336069154831259  0.3998919402641508
  0.2922296958783968  0.9595130647945626  0.3999555842766386
  0.4169630039798256  0.0841895224201771  0.3999110594939311
  0.4173872665097782  0.2105159813231945  0.3995473721302977
  0.4185303179261371  0.3377199655768143  0.3996368761210566
  0.4147604273408136  0.7045970830464546  0.4005378606617088
  0.4160802526387765  0.8315310811465842  0.3998545913487747
  0.4166397774805958  0.9579427709455105  0.3999761867664248
  0.5413007318342240  0.0825657305907495  0.3999747193136575
  0.5418673423806772  0.2085874587961421  0.3996315647272932
  0.5430593204065810  0.3345869473567311  0.3990763864256464
  0.5472813261269892  0.4607235963969923  0.4003883874192535
  0.5386268363442294  0.7013949480592261  0.4025660471788678
  0.5403356729389791  0.8297070552007869  0.4002617531914708
  0.5409373080458814  0.9563822817092927  0.3999475668668625
  0.6657357621859702  0.0817884264911013  0.4000570119908970
  0.6662299103045414  0.2074974970343358  0.3999616435664098
  0.6672893093657121  0.3332062867852351  0.3997290818540594
  0.6698413513157651  0.4590269544603819  0.3998717272952530
  0.6718906120623701  0.5847358107897378  0.4001737281318598
  0.6676053084191987  0.7070040912810291  0.3997361926920706
  0.6648849251541856  0.8302140960738575  0.3999003476818788
  0.6653630036270050  0.9560544824746772  0.3999931920654852
  0.7904089586148977  0.0817660310764528  0.4000649276236629
  0.7906010365703492  0.2071466014478249  0.4001781574681774
  0.7914062503034881  0.3327234553360429  0.4001057455996322
  0.7929752873898045  0.4584115840759099  0.3998421553497027
  0.7945073284762909  0.5841197892953872  0.3994299851623876
  0.7940550470023490  0.7093086996679779  0.3994670713798250
  0.7918364098885236  0.8327910523537567  0.3993490238294932
  0.7904606822284160  0.9566796363615532  0.3997667965549133
  0.9156747388881479  0.0824708792768584  0.3998095542388441
  0.9151782553697896  0.2071954344686051  0.3998732515241217
  0.9154236200844512  0.3325105470785894  0.3998864961491218
  0.9165110859070209  0.4581717464098362  0.4000695399064711
  0.9178947660442462  0.5838886836288908  0.3999662653334478
  0.9183591379441097  0.7093162304914157  0.3997117905981544
  0.9179298875933911  0.8343077770686191  0.3996566097301551
  0.9167946715036355  0.9584397666819237  0.3998022376947331
  0.0842688465944277  0.0432781617719903  0.3998914957024008
  0.0833940727135055  0.1676783650260783  0.3997033171468393
  0.0814530713148816  0.2912050989328759  0.3996195242732283
  0.0808143106638816  0.4158969741875200  0.3985650053839775
  0.0820703473008990  0.5415303789892032  0.3992264670520425
  0.0835456603744244  0.6672051740307336  0.4000727232145603
  0.0843059446155841  0.7927983323996527  0.4002203445022151
  0.0844726762948325  0.9182073544572260  0.4000390444208992
  0.2092762742752426  0.0437056606216514  0.3999696866469166
  0.2094151713684058  0.1693735193415429  0.4003166952024835
  0.2081585315651563  0.2939706531170350  0.4014256651268195
  0.2044282208794587  0.4161474275578335  0.3995635791829965
  0.2051970957184232  0.5409209606711736  0.3980885226514835
  0.2074716769173793  0.6666787551206175  0.3991887674132792
  0.2086249158788497  0.7923944922057066  0.3999944907275156
  0.2091442737269215  0.9180635349139434  0.4000517895198667
  0.3338402953774652  0.0433069604733945  0.3998513414357615
  0.3341779438107232  0.1697531059551495  0.3998031105831137
  0.3347323549078828  0.2971115401776697  0.4020238022570155
  0.3276831865750401  0.5401401606016749  0.4010324357884159
  0.3314206299776448  0.6654851710441819  0.3993465032231379
  0.3329855262134663  0.7912995754038865  0.3997138206607846
  0.3335320119548180  0.9171914137287074  0.3999678305818949
  0.4582499140620374  0.0416678637152080  0.3999938210732054
  0.4586113105467018  0.1679146572371265  0.3997428604728696
  0.4593118016237064  0.2944334673079805  0.3988958014930136
  0.4637958439965963  0.4214589528786268  0.4013389352796399
  0.4540536864297775  0.6598682029177070  0.4027215419118866
  0.4571716650465208  0.7886422406066514  0.4001342207707650
  0.4578108247564733  0.9153525457969347  0.3999293201085115
  0.5825906883026047  0.0402392837576432  0.3999845759056330
  0.5830508743591433  0.1662774767724397  0.3998663882004530
  0.5839420430198954  0.2921423517530820  0.3993972947112211
  0.5869910540316977  0.4179712832505341  0.3998549878798434
  0.5908833636347273  0.5441125736041599  0.4021668468412934
  0.5845553162884516  0.6631724437619314  0.4028497932165856
  0.5809343584968129  0.7865554801818119  0.4007294132216411
  0.5821546958367346  0.9139006905119634  0.3999840108537021
  0.7071452500077975  0.0398296155694894  0.4000651223629983
  0.7075201353144082  0.1655054461461906  0.4001006116746658
  0.7082564476398912  0.2911093656209995  0.3999625725390542
  0.7101232843136890  0.4166725337251487  0.3997589430305820
  0.7121355841928265  0.5422095777577371  0.3995595753486652
  0.7116315987963406  0.6676734015416401  0.3998689901520486
  0.7082898736399604  0.7904181546742683  0.3992975717223661
  0.7068319172089956  0.9142005668696452  0.3998418197718395
  0.8322490078825708  0.0403345721723924  0.3998949783182031
  0.8321145383558364  0.1653933864477850  0.4000989103097303
  0.8324329100187625  0.2907016407888860  0.4001482625505688
  0.8336474539117693  0.4163021822619843  0.4000573897459758
  0.8351723804795530  0.5420120020154524  0.3997173725760831
  0.8356453821436231  0.6675782369203435  0.3994747220240347
  0.8348618934167519  0.7925034002038196  0.3994224600853527
  0.8332537636546401  0.9162165572078577  0.3996525678738101
  0.9583426156657057  0.0418834767905398  0.3998049209644726
  0.9571714493922979  0.1658906630988383  0.3997500884200668
  0.9567548877834203  0.2907374703338944  0.3996433815697539
  0.9572380590559739  0.4160697267736709  0.3997995629966234
  0.9585811288653556  0.5417538205762900  0.4000844687207759
  0.9596298346550537  0.6674489482429468  0.3999791160299735
  0.9598345727052716  0.7928797121059266  0.3998139608797242
  0.9593311314185973  0.9177234863606385  0.3997981700698130
  0.4082078673800582  0.5775310587500981  0.4049833999098891
  0.5492952873830574  0.5830017009573040  0.4084192239936607
  0.3282011149368160  0.4196164040224588  0.4112910035904581
 
  0.00000000E+00  0.00000000E+00  0.00000000E+00
  0.00000000E+00  0.00000000E+00  0.00000000E+00
  0.00000000E+00  0.00000000E+00  0.00000000E+00
  0.00000000E+00  0.00000000E+00  0.00000000E+00
  0.00000000E+00  0.00000000E+00  0.00000000E+00
  0.00000000E+00  0.00000000E+00  0.00000000E+00
  0.00000000E+00  0.00000000E+00  0.00000000E+00
  0.00000000E+00  0.00000000E+00  0.00000000E+00
  0.00000000E+00  0.00000000E+00  0.00000000E+00
  0.00000000E+00  0.00000000E+00  0.00000000E+00
  0.00000000E+00  0.00000000E+00  0.00000000E+00
  0.00000000E+00  0.00000000E+00  0.00000000E+00
  0.00000000E+00  0.00000000E+00  0.00000000E+00
  0.00000000E+00  0.00000000E+00  0.00000000E+00
  0.00000000E+00  0.00000000E+00  0.00000000E+00
  0.00000000E+00  0.00000000E+00  0.00000000E+00
  0.00000000E+00  0.00000000E+00  0.00000000E+00
  0.00000000E+00  0.00000000E+00  0.00000000E+00
  0.00000000E+00  0.00000000E+00  0.00000000E+00
  0.00000000E+00  0.00000000E+00  0.00000000E+00
  0.00000000E+00  0.00000000E+00  0.00000000E+00
  0.00000000E+00  0.00000000E+00  0.00000000E+00
  0.00000000E+00  0.00000000E+00  0.00000000E+00
  0.00000000E+00  0.00000000E+00  0.00000000E+00
  0.00000000E+00  0.00000000E+00  0.00000000E+00
  0.00000000E+00  0.00000000E+00  0.00000000E+00
  0.00000000E+00  0.00000000E+00  0.00000000E+00
  0.00000000E+00  0.00000000E+00  0.00000000E+00
  0.00000000E+00  0.00000000E+00  0.00000000E+00
  0.00000000E+00  0.00000000E+00  0.00000000E+00
  0.00000000E+00  0.00000000E+00  0.00000000E+00
  0.00000000E+00  0.00000000E+00  0.00000000E+00
  0.00000000E+00  0.00000000E+00  0.00000000E+00
  0.00000000E+00  0.00000000E+00  0.00000000E+00
  0.00000000E+00  0.00000000E+00  0.00000000E+00
  0.00000000E+00  0.00000000E+00  0.00000000E+00
  0.00000000E+00  0.00000000E+00  0.00000000E+00
  0.00000000E+00  0.00000000E+00  0.00000000E+00
  0.00000000E+00  0.00000000E+00  0.00000000E+00
  0.00000000E+00  0.00000000E+00  0.00000000E+00
  0.00000000E+00  0.00000000E+00  0.00000000E+00
  0.00000000E+00  0.00000000E+00  0.00000000E+00
  0.00000000E+00  0.00000000E+00  0.00000000E+00
  0.00000000E+00  0.00000000E+00  0.00000000E+00
  0.00000000E+00  0.00000000E+00  0.00000000E+00
  0.00000000E+00  0.00000000E+00  0.00000000E+00
  0.00000000E+00  0.00000000E+00  0.00000000E+00
  0.00000000E+00  0.00000000E+00  0.00000000E+00
  0.00000000E+00  0.00000000E+00  0.00000000E+00
  0.00000000E+00  0.00000000E+00  0.00000000E+00
  0.00000000E+00  0.00000000E+00  0.00000000E+00
  0.00000000E+00  0.00000000E+00  0.00000000E+00
  0.00000000E+00  0.00000000E+00  0.00000000E+00
  0.00000000E+00  0.00000000E+00  0.00000000E+00
  0.00000000E+00  0.00000000E+00  0.00000000E+00
  0.00000000E+00  0.00000000E+00  0.00000000E+00
  0.00000000E+00  0.00000000E+00  0.00000000E+00
  0.00000000E+00  0.00000000E+00  0.00000000E+00
  0.00000000E+00  0.00000000E+00  0.00000000E+00
  0.00000000E+00  0.00000000E+00  0.00000000E+00
  0.00000000E+00  0.00000000E+00  0.00000000E+00
  0.00000000E+00  0.00000000E+00  0.00000000E+00
  0.00000000E+00  0.00000000E+00  0.00000000E+00
  0.00000000E+00  0.00000000E+00  0.00000000E+00
  0.00000000E+00  0.00000000E+00  0.00000000E+00
  0.00000000E+00  0.00000000E+00  0.00000000E+00
  0.00000000E+00  0.00000000E+00  0.00000000E+00
  0.00000000E+00  0.00000000E+00  0.00000000E+00
  0.00000000E+00  0.00000000E+00  0.00000000E+00
  0.00000000E+00  0.00000000E+00  0.00000000E+00
  0.00000000E+00  0.00000000E+00  0.00000000E+00
  0.00000000E+00  0.00000000E+00  0.00000000E+00
  0.00000000E+00  0.00000000E+00  0.00000000E+00
  0.00000000E+00  0.00000000E+00  0.00000000E+00
  0.00000000E+00  0.00000000E+00  0.00000000E+00
  0.00000000E+00  0.00000000E+00  0.00000000E+00
  0.00000000E+00  0.00000000E+00  0.00000000E+00
  0.00000000E+00  0.00000000E+00  0.00000000E+00
  0.00000000E+00  0.00000000E+00  0.00000000E+00
  0.00000000E+00  0.00000000E+00  0.00000000E+00
  0.00000000E+00  0.00000000E+00  0.00000000E+00
  0.00000000E+00  0.00000000E+00  0.00000000E+00
  0.00000000E+00  0.00000000E+00  0.00000000E+00
  0.00000000E+00  0.00000000E+00  0.00000000E+00
  0.00000000E+00  0.00000000E+00  0.00000000E+00
  0.00000000E+00  0.00000000E+00  0.00000000E+00
  0.00000000E+00  0.00000000E+00  0.00000000E+00
  0.00000000E+00  0.00000000E+00  0.00000000E+00
  0.00000000E+00  0.00000000E+00  0.00000000E+00
  0.00000000E+00  0.00000000E+00  0.00000000E+00
  0.00000000E+00  0.00000000E+00  0.00000000E+00
  0.00000000E+00  0.00000000E+00  0.00000000E+00
  0.00000000E+00  0.00000000E+00  0.00000000E+00
  0.00000000E+00  0.00000000E+00  0.00000000E+00
  0.00000000E+00  0.00000000E+00  0.00000000E+00
  0.00000000E+00  0.00000000E+00  0.00000000E+00
  0.00000000E+00  0.00000000E+00  0.00000000E+00
  0.00000000E+00  0.00000000E+00  0.00000000E+00
  0.00000000E+00  0.00000000E+00  0.00000000E+00
  0.00000000E+00  0.00000000E+00  0.00000000E+00
  0.00000000E+00  0.00000000E+00  0.00000000E+00
  0.00000000E+00  0.00000000E+00  0.00000000E+00
  0.00000000E+00  0.00000000E+00  0.00000000E+00
  0.00000000E+00  0.00000000E+00  0.00000000E+00
  0.00000000E+00  0.00000000E+00  0.00000000E+00
  0.00000000E+00  0.00000000E+00  0.00000000E+00
  0.00000000E+00  0.00000000E+00  0.00000000E+00
  0.00000000E+00  0.00000000E+00  0.00000000E+00
  0.00000000E+00  0.00000000E+00  0.00000000E+00
  0.00000000E+00  0.00000000E+00  0.00000000E+00
  0.00000000E+00  0.00000000E+00  0.00000000E+00
  0.00000000E+00  0.00000000E+00  0.00000000E+00
  0.00000000E+00  0.00000000E+00  0.00000000E+00
  0.00000000E+00  0.00000000E+00  0.00000000E+00
  0.00000000E+00  0.00000000E+00  0.00000000E+00
  0.00000000E+00  0.00000000E+00  0.00000000E+00
  0.00000000E+00  0.00000000E+00  0.00000000E+00
  0.00000000E+00  0.00000000E+00  0.00000000E+00
  0.00000000E+00  0.00000000E+00  0.00000000E+00
  0.00000000E+00  0.00000000E+00  0.00000000E+00
  0.00000000E+00  0.00000000E+00  0.00000000E+00
  0.00000000E+00  0.00000000E+00  0.00000000E+00
  0.00000000E+00  0.00000000E+00  0.00000000E+00
  0.00000000E+00  0.00000000E+00  0.00000000E+00
  0.00000000E+00  0.00000000E+00  0.00000000E+00
  0.00000000E+00  0.00000000E+00  0.00000000E+00
  0.00000000E+00  0.00000000E+00  0.00000000E+00
