H1 Ir1 C125 N1 O1                       
   1.00000000000000     
    19.8044604537720161   -0.0247340759884033   -0.1316451385812014
    -9.9258991595721611   17.0455185301204644    0.5675219025314129
    -0.1964059530293348    0.8764355774696069   29.8565264132527943
   H    Ir   C    N    O 
     1     1   125     1     1
Direct
  0.4898195170215049  0.5943564477820563  0.4938567673360673
  0.4363244326425961  0.4944514883233601  0.4330142573111483
  0.0420642472943785  0.0838699165270158  0.3991583606431859
  0.0417456635897549  0.2083606139993748  0.3987566333826393
  0.0412441748033000  0.3329516246365481  0.3983146183861077
  0.0409312820424876  0.4581502452191752  0.3982956481389497
  0.0412032419181216  0.5834935845863176  0.3985132509590781
  0.0416393085488436  0.7088018986234819  0.3987635262871348
  0.0418126327611871  0.8339292892027824  0.3992067920925941
  0.0419532548389056  0.9590016518401349  0.3994490326145763
  0.1676020395484234  0.0849520668664638  0.3996922749279645
  0.1680649814575357  0.2102878626753981  0.3999619746335181
  0.1669726788371770  0.3343348527841162  0.3990948593750016
  0.1651235005125367  0.4586172452952575  0.3987573872063281
  0.1651088568850789  0.5836632079057273  0.3987714973053963
  0.1659407795825906  0.7088622635991616  0.3989927088442635
  0.1665723497946018  0.8341298343184491  0.3991259631370105
  0.1670605850196294  0.9594326897145670  0.3994201149217216
  0.2923425234117455  0.0846762088464685  0.3999940136759912
  0.2934523074340464  0.2109454956037070  0.4018994048735838
  0.2947916620532687  0.3378667429505083  0.4027268248965189
  0.2899665937375053  0.4599125532575932  0.4010932329120673
  0.2885170525586986  0.5842902274472102  0.4009733513036948
  0.2901282780974274  0.7088374752084784  0.4005761212181038
  0.2911767859347519  0.8338638456234555  0.3996312699312667
  0.2917630141187677  0.9591205487966296  0.3992886649161332
  0.4169375906371360  0.0834628292972438  0.3994222730939803
  0.4175865706883446  0.2090177461952298  0.4011023528803374
  0.4191800172739986  0.3350561004752627  0.4071340610039054
  0.4139572706290506  0.7064310381863957  0.4039668913136458
  0.4156481499779400  0.8323652974462412  0.4010978577486820
  0.4163914411526338  0.9579720140082899  0.3995970364933313
  0.5415628042523217  0.0820928213741922  0.3992928503244326
  0.5421100433336783  0.2072797312057413  0.3995416809998108
  0.5431064286059829  0.3320017432152912  0.4015013324889254
  0.5460931022163387  0.4559923223007966  0.4051846127970295
  0.5427531757611304  0.5755942179537052  0.4081676820342162
  0.5371607827986694  0.7015517666919785  0.4069291789736790
  0.5398309237224164  0.8299790877736924  0.4030970500947165
  0.5409337446691456  0.9563989106207728  0.4004640696314231
  0.6661732297629284  0.0814332976856161  0.3997152637736656
  0.6667912503197928  0.2068754787698069  0.3991701012169010
  0.6675634754811927  0.3321256806647105  0.3990051749722700
  0.6691257055667086  0.4574378467823809  0.3986128946711368
  0.6692479513709205  0.5823284437131376  0.3990913657930669
  0.6641158450043173  0.7039650551529064  0.4018681656732409
  0.6640513321653196  0.8292300381729861  0.4025416205976001
  0.6654057318208065  0.9556614153984925  0.4010850885888516
  0.7909363489715616  0.0814750546735426  0.3997472054898411
  0.7914413476413611  0.2068394496678826  0.3992563399415164
  0.7920135440429833  0.3322515261666058  0.3988887990926360
  0.7928439387152850  0.4577240963824528  0.3982601081605357
  0.7931666655069793  0.5830321798497181  0.3978047403297136
  0.7918495396604409  0.7076863289134275  0.3987727670385666
  0.7901531900028778  0.8311488646984642  0.4001371893526355
  0.7902578621947765  0.9560046192397745  0.4003333677342590
  0.9161289024961919  0.0822934177202725  0.3992562882153299
  0.9163181042116240  0.2072897828400518  0.3988799865042283
  0.9164652016929759  0.3324552268967182  0.3986943192269859
  0.9168298526197708  0.4578420535253203  0.3985414562608673
  0.9172226140590956  0.5833199517606322  0.3984121047710063
  0.9169883084270989  0.7084982164887652  0.3986094513844370
  0.9166051973964617  0.8332000232628520  0.3993394736245773
  0.9161303058608793  0.9575840918995973  0.3994746139969771
  0.0839925487508111  0.0426939666727725  0.3993727326254571
  0.0842121217603721  0.1676379239489636  0.3991602555356730
  0.0833613998639336  0.2918800993754132  0.3985266273731166
  0.0823291706221353  0.4165239961065306  0.3983260693012222
  0.0822464274228623  0.5416770940575942  0.3983884640922264
  0.0828621198348560  0.6670506912374605  0.3986856309455791
  0.0833539886793283  0.7923632532735906  0.3990056968395546
  0.0836245452184714  0.9175074816252220  0.3994238606380343
  0.2089652456867004  0.0430086610902268  0.3996778662437130
  0.2097230191117970  0.1687086379135696  0.4004016818022668
  0.2103521127002874  0.2943732721286318  0.4003600260496499
  0.2071502849472703  0.4176629556200900  0.3992070529607298
  0.2059531724701782  0.5419006255396256  0.3990930193700601
  0.2070865865265636  0.6671053187274582  0.3993398863749149
  0.2079207353189426  0.7923311408772542  0.3992248031390316
  0.2084784918265069  0.9176354106314450  0.3992721593879620
  0.3336116850139121  0.0425444650292288  0.3994950201772240
  0.3343084545720554  0.1681973371183472  0.4011566159315681
  0.3357423722148559  0.2945601653517898  0.4044917352318055
  0.3347019918657852  0.4220510206344429  0.4034577844552406
  0.3298292991942254  0.5436110306274812  0.4035234297342350
  0.3310404410566082  0.6669327261897573  0.4020709354441026
  0.3324323678516609  0.7919614715080452  0.4004780186077622
  0.3331461383005207  0.9171880236818253  0.3994505828047531
  0.4582938658249118  0.0413438306729378  0.3993222928950269
  0.4588400722543644  0.1667823143297593  0.3998302863627649
  0.4597286793853161  0.2922836643324082  0.4030065863087602
  0.4642448885600010  0.4175250550670088  0.4133492436863521
  0.4528094614766592  0.6616668325217495  0.4075158433856856
  0.4567249372423209  0.7898691845819324  0.4027191122152366
  0.4576710414556225  0.9157506431706230  0.4003230913143767
  0.5828708952299692  0.0399912747396685  0.3997165593886260
  0.5834730192289808  0.1654581484956099  0.3991905805538132
  0.5842080256756306  0.2904702423110879  0.3998108671094151
  0.5862455950697701  0.4150702231527900  0.4011121827775569
  0.5872445189998150  0.5393195509660439  0.4029798968141144
  0.5790126441481332  0.6591031853418053  0.4055203667678207
  0.5799083477577903  0.7862090501848761  0.4043504602877074
  0.5820277201875971  0.9139177388136482  0.4015421520714791
  0.7074608645404580  0.0394545586287670  0.4001416659147153
  0.7081108655357357  0.1650579504917717  0.3993620968876311
  0.7087507082155371  0.2904117850192677  0.3989781676960665
  0.7099076640499965  0.4157100022241128  0.3984161795467641
  0.7105132268976602  0.5408607962447417  0.3980146793992957
  0.7084152116953247  0.6652591568633945  0.3995384604702438
  0.7059925160028852  0.7880247081038356  0.4015180164998241
  0.7064543448218704  0.9133822085811301  0.4013356499525695
  0.8324576664903629  0.0398715978321397  0.3997711176500467
  0.8328813740455531  0.1651813497057033  0.3992845976383322
  0.8332775720676764  0.2904831388738877  0.3990118083097020
  0.8338456097267389  0.4158436638016627  0.3985965292733181
  0.8343375330775098  0.5413010495062767  0.3980662686102925
  0.8339015181569189  0.6665341485953172  0.3982116608201356
  0.8330481011439005  0.7909003614044777  0.3993871776973106
  0.8322417180573072  0.9149213531601416  0.3999608964058158
  0.9582374283285715  0.0413034238130888  0.3992209509050887
  0.9581370986793455  0.1659937155965498  0.3988887224805387
  0.9580100532313595  0.2908793029410360  0.3985596849355121
  0.9579580248441171  0.4160700133137720  0.3984709169468502
  0.9583031063124396  0.5414873486959489  0.3985212405273687
  0.9585355452019138  0.6668822700118061  0.3985826474219203
  0.9584900960230065  0.7919512641772660  0.3990847601628270
  0.9583715710013732  0.9167223253943191  0.3994763426842112
  0.4079769096411734  0.5812917828324784  0.4100707787951827
  0.4643370037477559  0.5372393678340097  0.4925921378447927
 
  0.00000000E+00  0.00000000E+00  0.00000000E+00
  0.00000000E+00  0.00000000E+00  0.00000000E+00
  0.00000000E+00  0.00000000E+00  0.00000000E+00
  0.00000000E+00  0.00000000E+00  0.00000000E+00
  0.00000000E+00  0.00000000E+00  0.00000000E+00
  0.00000000E+00  0.00000000E+00  0.00000000E+00
  0.00000000E+00  0.00000000E+00  0.00000000E+00
  0.00000000E+00  0.00000000E+00  0.00000000E+00
  0.00000000E+00  0.00000000E+00  0.00000000E+00
  0.00000000E+00  0.00000000E+00  0.00000000E+00
  0.00000000E+00  0.00000000E+00  0.00000000E+00
  0.00000000E+00  0.00000000E+00  0.00000000E+00
  0.00000000E+00  0.00000000E+00  0.00000000E+00
  0.00000000E+00  0.00000000E+00  0.00000000E+00
  0.00000000E+00  0.00000000E+00  0.00000000E+00
  0.00000000E+00  0.00000000E+00  0.00000000E+00
  0.00000000E+00  0.00000000E+00  0.00000000E+00
  0.00000000E+00  0.00000000E+00  0.00000000E+00
  0.00000000E+00  0.00000000E+00  0.00000000E+00
  0.00000000E+00  0.00000000E+00  0.00000000E+00
  0.00000000E+00  0.00000000E+00  0.00000000E+00
  0.00000000E+00  0.00000000E+00  0.00000000E+00
  0.00000000E+00  0.00000000E+00  0.00000000E+00
  0.00000000E+00  0.00000000E+00  0.00000000E+00
  0.00000000E+00  0.00000000E+00  0.00000000E+00
  0.00000000E+00  0.00000000E+00  0.00000000E+00
  0.00000000E+00  0.00000000E+00  0.00000000E+00
  0.00000000E+00  0.00000000E+00  0.00000000E+00
  0.00000000E+00  0.00000000E+00  0.00000000E+00
  0.00000000E+00  0.00000000E+00  0.00000000E+00
  0.00000000E+00  0.00000000E+00  0.00000000E+00
  0.00000000E+00  0.00000000E+00  0.00000000E+00
  0.00000000E+00  0.00000000E+00  0.00000000E+00
  0.00000000E+00  0.00000000E+00  0.00000000E+00
  0.00000000E+00  0.00000000E+00  0.00000000E+00
  0.00000000E+00  0.00000000E+00  0.00000000E+00
  0.00000000E+00  0.00000000E+00  0.00000000E+00
  0.00000000E+00  0.00000000E+00  0.00000000E+00
  0.00000000E+00  0.00000000E+00  0.00000000E+00
  0.00000000E+00  0.00000000E+00  0.00000000E+00
  0.00000000E+00  0.00000000E+00  0.00000000E+00
  0.00000000E+00  0.00000000E+00  0.00000000E+00
  0.00000000E+00  0.00000000E+00  0.00000000E+00
  0.00000000E+00  0.00000000E+00  0.00000000E+00
  0.00000000E+00  0.00000000E+00  0.00000000E+00
  0.00000000E+00  0.00000000E+00  0.00000000E+00
  0.00000000E+00  0.00000000E+00  0.00000000E+00
  0.00000000E+00  0.00000000E+00  0.00000000E+00
  0.00000000E+00  0.00000000E+00  0.00000000E+00
  0.00000000E+00  0.00000000E+00  0.00000000E+00
  0.00000000E+00  0.00000000E+00  0.00000000E+00
  0.00000000E+00  0.00000000E+00  0.00000000E+00
  0.00000000E+00  0.00000000E+00  0.00000000E+00
  0.00000000E+00  0.00000000E+00  0.00000000E+00
  0.00000000E+00  0.00000000E+00  0.00000000E+00
  0.00000000E+00  0.00000000E+00  0.00000000E+00
  0.00000000E+00  0.00000000E+00  0.00000000E+00
  0.00000000E+00  0.00000000E+00  0.00000000E+00
  0.00000000E+00  0.00000000E+00  0.00000000E+00
  0.00000000E+00  0.00000000E+00  0.00000000E+00
  0.00000000E+00  0.00000000E+00  0.00000000E+00
  0.00000000E+00  0.00000000E+00  0.00000000E+00
  0.00000000E+00  0.00000000E+00  0.00000000E+00
  0.00000000E+00  0.00000000E+00  0.00000000E+00
  0.00000000E+00  0.00000000E+00  0.00000000E+00
  0.00000000E+00  0.00000000E+00  0.00000000E+00
  0.00000000E+00  0.00000000E+00  0.00000000E+00
  0.00000000E+00  0.00000000E+00  0.00000000E+00
  0.00000000E+00  0.00000000E+00  0.00000000E+00
  0.00000000E+00  0.00000000E+00  0.00000000E+00
  0.00000000E+00  0.00000000E+00  0.00000000E+00
  0.00000000E+00  0.00000000E+00  0.00000000E+00
  0.00000000E+00  0.00000000E+00  0.00000000E+00
  0.00000000E+00  0.00000000E+00  0.00000000E+00
  0.00000000E+00  0.00000000E+00  0.00000000E+00
  0.00000000E+00  0.00000000E+00  0.00000000E+00
  0.00000000E+00  0.00000000E+00  0.00000000E+00
  0.00000000E+00  0.00000000E+00  0.00000000E+00
  0.00000000E+00  0.00000000E+00  0.00000000E+00
  0.00000000E+00  0.00000000E+00  0.00000000E+00
  0.00000000E+00  0.00000000E+00  0.00000000E+00
  0.00000000E+00  0.00000000E+00  0.00000000E+00
  0.00000000E+00  0.00000000E+00  0.00000000E+00
  0.00000000E+00  0.00000000E+00  0.00000000E+00
  0.00000000E+00  0.00000000E+00  0.00000000E+00
  0.00000000E+00  0.00000000E+00  0.00000000E+00
  0.00000000E+00  0.00000000E+00  0.00000000E+00
  0.00000000E+00  0.00000000E+00  0.00000000E+00
  0.00000000E+00  0.00000000E+00  0.00000000E+00
  0.00000000E+00  0.00000000E+00  0.00000000E+00
  0.00000000E+00  0.00000000E+00  0.00000000E+00
  0.00000000E+00  0.00000000E+00  0.00000000E+00
  0.00000000E+00  0.00000000E+00  0.00000000E+00
  0.00000000E+00  0.00000000E+00  0.00000000E+00
  0.00000000E+00  0.00000000E+00  0.00000000E+00
  0.00000000E+00  0.00000000E+00  0.00000000E+00
  0.00000000E+00  0.00000000E+00  0.00000000E+00
  0.00000000E+00  0.00000000E+00  0.00000000E+00
  0.00000000E+00  0.00000000E+00  0.00000000E+00
  0.00000000E+00  0.00000000E+00  0.00000000E+00
  0.00000000E+00  0.00000000E+00  0.00000000E+00
  0.00000000E+00  0.00000000E+00  0.00000000E+00
  0.00000000E+00  0.00000000E+00  0.00000000E+00
  0.00000000E+00  0.00000000E+00  0.00000000E+00
  0.00000000E+00  0.00000000E+00  0.00000000E+00
  0.00000000E+00  0.00000000E+00  0.00000000E+00
  0.00000000E+00  0.00000000E+00  0.00000000E+00
  0.00000000E+00  0.00000000E+00  0.00000000E+00
  0.00000000E+00  0.00000000E+00  0.00000000E+00
  0.00000000E+00  0.00000000E+00  0.00000000E+00
  0.00000000E+00  0.00000000E+00  0.00000000E+00
  0.00000000E+00  0.00000000E+00  0.00000000E+00
  0.00000000E+00  0.00000000E+00  0.00000000E+00
  0.00000000E+00  0.00000000E+00  0.00000000E+00
  0.00000000E+00  0.00000000E+00  0.00000000E+00
  0.00000000E+00  0.00000000E+00  0.00000000E+00
  0.00000000E+00  0.00000000E+00  0.00000000E+00
  0.00000000E+00  0.00000000E+00  0.00000000E+00
  0.00000000E+00  0.00000000E+00  0.00000000E+00
  0.00000000E+00  0.00000000E+00  0.00000000E+00
  0.00000000E+00  0.00000000E+00  0.00000000E+00
  0.00000000E+00  0.00000000E+00  0.00000000E+00
  0.00000000E+00  0.00000000E+00  0.00000000E+00
  0.00000000E+00  0.00000000E+00  0.00000000E+00
  0.00000000E+00  0.00000000E+00  0.00000000E+00
  0.00000000E+00  0.00000000E+00  0.00000000E+00
  0.00000000E+00  0.00000000E+00  0.00000000E+00
  0.00000000E+00  0.00000000E+00  0.00000000E+00
  0.00000000E+00  0.00000000E+00  0.00000000E+00
