Ag1 H1 C126                             
   1.00000000000000     
    19.8631245385921069    0.0002681756459920    0.0045130266672269
    -9.9313326127990056   17.0619386525509995   -0.0032198878798902
     0.0067353673271763   -0.0016726843180540   29.6908555744044733
   Ag   H    C 
     1     1   126
Direct
  0.4375238251106970  0.5000188057700403  0.4166344516646087
  0.4409886572270280  0.5027216925881911  0.4734363060241314
  0.0416887464231160  0.0838064822936342  0.3994892377173753
  0.0403169154635023  0.2077274335635634  0.3992916388451285
  0.0395969036158979  0.3325173717664168  0.3988708580400768
  0.0397623973201797  0.4581876270274719  0.3986819331560187
  0.0410684196586498  0.5838817964848563  0.3991119460242243
  0.0422018616760553  0.7093907184646864  0.3995480583515615
  0.0425875537907302  0.8347150152403465  0.3996699351796589
  0.0425536134150549  0.9596208809579969  0.3995599439627520
  0.1676542376188932  0.0854130683423761  0.4001212772151523
  0.1664263759476550  0.2093813888269494  0.4008056588037321
  0.1640360637161184  0.3327787824840869  0.4008167824945342
  0.1626027387456948  0.4582605473544391  0.3993491353843930
  0.1641816956398371  0.5837836148198096  0.3986103317741923
  0.1662045538929768  0.7093495159412085  0.3991132432075752
  0.1671118777961678  0.8347150871697833  0.3996750025347348
  0.1675700166964070  0.9600918414275647  0.3998489099369944
  0.2927516411039126  0.0854060047155204  0.4001379913554747
  0.2933950605601457  0.2118189588342168  0.4024510027558521
  0.2909614959632049  0.3362346168768280  0.4061775174398888
  0.2841730054479152  0.4576525846921957  0.4058123196829036
  0.2870498715888430  0.5840365912252080  0.4014453526578792
  0.2903627003933905  0.7091188334470055  0.3993265704156332
  0.2913748695526677  0.8342043086289067  0.3992595423102225
  0.2920904848434734  0.9596137274655088  0.3995836504960109
  0.4171162057098656  0.0837908732028296  0.3994866869248649
  0.4179382738689028  0.2093654985663784  0.4008316701256926
  0.4202505975285082  0.3361952585253450  0.4063450270079706
  0.4079706431305937  0.5821877126170094  0.4095877145225019
  0.4145459252198730  0.7072679591062478  0.4023103921059984
  0.4158851139101156  0.8328962545500119  0.3996634338388426
  0.4165964705260915  0.9583621637410136  0.3993541624934893
  0.5416585834619352  0.0824362116409810  0.3993703617271561
  0.5423957215053120  0.2077429965809683  0.3992861375740275
  0.5437123764323547  0.3327777830201485  0.4008650566937412
  0.5484812443009583  0.4576435906168958  0.4061832941214385
  0.5493287479719953  0.5822732031658828  0.4099529105482118
  0.5398076570739427  0.7046355047476568  0.4056044606628555
  0.5403360713132995  0.8310479178670206  0.4010837738830167
  0.5410418256100327  0.9568910465370535  0.3996517631130923
  0.6660697587167400  0.0817847185612763  0.3997338016268484
  0.6667134951727530  0.2071518842742233  0.3993532276102723
  0.6678972738968396  0.3325242389185529  0.3988185589099373
  0.6706203574066750  0.4582541637666053  0.3993456173841080
  0.6719567898310126  0.5840394682637424  0.4015642858602498
  0.6677260666343180  0.7072782902264726  0.4023911515275016
  0.6656934064726825  0.8310474598952129  0.4011146090147691
  0.6657054368890433  0.9564016686827242  0.4000431762515364
  0.7907467586906117  0.0817882150138331  0.3997436844448451
  0.7910080533862239  0.2070345740859914  0.3997243471360151
  0.7918245519495083  0.3324989332204201  0.3992859832725000
  0.7933706967907993  0.4581885364272104  0.3986595064833471
  0.7945538580791178  0.5837846182399304  0.3985723049066141
  0.7937190908281616  0.7091034837644098  0.3993094973530593
  0.7920135795382187  0.8329081820810699  0.3996602341157408
  0.7908542724293882  0.9568919091981950  0.3996722959696398
  0.9157983229207992  0.0824313277723166  0.3993937825234645
  0.9154129708879056  0.2071433279682020  0.3993622821515785
  0.9156725182217663  0.3325027711683292  0.3992934596513536
  0.9165508683964528  0.4581571419439199  0.3992459398930319
  0.9177708997074789  0.5838953137145785  0.3991114713875214
  0.9181289690379372  0.7093444240868092  0.3990937226788239
  0.9178162423346478  0.8341988051425308  0.3992437479658046
  0.9168027921299573  0.9583710939796246  0.3993492486735917
  0.0841446992441674  0.0431108535367011  0.3996551264063191
  0.0829806359451943  0.1671026696771435  0.3996632721458993
  0.0812485887680196  0.2908867580176185  0.3993261266872506
  0.0803888187152174  0.4162063605752701  0.3986184399146644
  0.0815710078997624  0.5418120996535669  0.3986772046668851
  0.0831652400330633  0.6675032701134622  0.3992948448972602
  0.0839743689583388  0.7929675767846378  0.3997231140365863
  0.0842811213668631  0.9182149714153200  0.3997324910726481
  0.2093013077813604  0.0435944076559552  0.4000459699996838
  0.2092860051792171  0.1689528317935439  0.4010781004795350
  0.2072874911009247  0.2927352714787458  0.4022965584131201
  0.2030230624896139  0.4159656145157959  0.4014307172925095
  0.2043336891446798  0.5417415546814814  0.3993468617240716
  0.2070715420659768  0.6674808730822805  0.3988640930431142
  0.2082642617021078  0.7928567355168902  0.3993584527606533
  0.2089544017716275  0.9182124482406867  0.3997439783897946
  0.3339580653414092  0.0431087708577121  0.3996760868287621
  0.3346418651323255  0.1689531712502845  0.4011039342587541
  0.3351676698096667  0.2953601410771874  0.4055731452390065
  0.3258331357333359  0.4178285155786450  0.4095748744911065
  0.3264878294194452  0.5423405306354919  0.4058281560634576
  0.3312492161860267  0.6672252703142393  0.4008290355439528
  0.3325856689085639  0.7922772889603226  0.3992891430403546
  0.3333669676713066  0.9175750783516881  0.3993917004073687
  0.4584271783248563  0.0416313390603505  0.3993495280409399
  0.4590973146297559  0.1670933554331572  0.3996628569351670
  0.4604354746696996  0.2927259225270405  0.4023761958248433
  0.4670227137678736  0.4177533586758319  0.4099512652354221
  0.4547233888934923  0.6637767534454642  0.4062053712806357
  0.4570319725367449  0.7906149173634525  0.4008102419936942
  0.4578796383664029  0.9161980530112416  0.3994882345011981
  0.5829341205826712  0.0403811702511681  0.3995600149071848
  0.5836103887281957  0.1658054487335725  0.3992476126210299
  0.5846081964053396  0.2908976636772211  0.3993067683401554
  0.5879030171368037  0.4159625975091849  0.4015502359633664
  0.5908496880635052  0.5423515386177813  0.4061924156841454
  0.5840629924310063  0.6638208141745496  0.4063707271036546
  0.5815778296199148  0.7881857018661016  0.4024737177422054
  0.5822403465433976  0.9145890134461360  0.4001169018823327
  0.7074729344595885  0.0399093033229102  0.3998475133221416
  0.7078724751869877  0.1652885114344352  0.3996698429928378
  0.7087777927721128  0.2906570999170611  0.3990928004451411
  0.7107619622071661  0.4162184922822308  0.3985727507037413
  0.7123670014175962  0.5417449601123766  0.3993472066734756
  0.7109390255002900  0.6672239202720103  0.4008773624396156
  0.7085760136842314  0.7906341912512169  0.4008393533732563
  0.7073434442242424  0.9145927099631646  0.4001366647378972
  0.8324750630839969  0.0403883287089107  0.3995804040962734
  0.8323943461804626  0.1652830255788101  0.3996780356007407
  0.8328033416578842  0.2906099808153950  0.3995486916092237
  0.8338742703037242  0.4161123533009292  0.3991134059497712
  0.8351764709521404  0.5418146358345143  0.3986593364052168
  0.8353729072309208  0.6674760000872972  0.3988186104468230
  0.8346453857281707  0.7922554701692054  0.3992835273106445
  0.8333245117171548  0.9162120389603547  0.3994825678894434
  0.9582341126643779  0.0416409583825014  0.3993565290850771
  0.9571713417900662  0.1657974606187173  0.3992623210009432
  0.9568565476455416  0.2906570176126785  0.3991158771321393
  0.9571754515485348  0.4161162058556458  0.3991148959316568
  0.9583934801133818  0.5418471061755679  0.3992455306289635
  0.9593307851057776  0.6675093945717342  0.3992828294871865
  0.9595651323099131  0.7928586114464148  0.3993526872951494
  0.9592242103268402  0.9175676904785730  0.3993673600181756
 
  0.00000000E+00  0.00000000E+00  0.00000000E+00
  0.00000000E+00  0.00000000E+00  0.00000000E+00
  0.00000000E+00  0.00000000E+00  0.00000000E+00
  0.00000000E+00  0.00000000E+00  0.00000000E+00
  0.00000000E+00  0.00000000E+00  0.00000000E+00
  0.00000000E+00  0.00000000E+00  0.00000000E+00
  0.00000000E+00  0.00000000E+00  0.00000000E+00
  0.00000000E+00  0.00000000E+00  0.00000000E+00
  0.00000000E+00  0.00000000E+00  0.00000000E+00
  0.00000000E+00  0.00000000E+00  0.00000000E+00
  0.00000000E+00  0.00000000E+00  0.00000000E+00
  0.00000000E+00  0.00000000E+00  0.00000000E+00
  0.00000000E+00  0.00000000E+00  0.00000000E+00
  0.00000000E+00  0.00000000E+00  0.00000000E+00
  0.00000000E+00  0.00000000E+00  0.00000000E+00
  0.00000000E+00  0.00000000E+00  0.00000000E+00
  0.00000000E+00  0.00000000E+00  0.00000000E+00
  0.00000000E+00  0.00000000E+00  0.00000000E+00
  0.00000000E+00  0.00000000E+00  0.00000000E+00
  0.00000000E+00  0.00000000E+00  0.00000000E+00
  0.00000000E+00  0.00000000E+00  0.00000000E+00
  0.00000000E+00  0.00000000E+00  0.00000000E+00
  0.00000000E+00  0.00000000E+00  0.00000000E+00
  0.00000000E+00  0.00000000E+00  0.00000000E+00
  0.00000000E+00  0.00000000E+00  0.00000000E+00
  0.00000000E+00  0.00000000E+00  0.00000000E+00
  0.00000000E+00  0.00000000E+00  0.00000000E+00
  0.00000000E+00  0.00000000E+00  0.00000000E+00
  0.00000000E+00  0.00000000E+00  0.00000000E+00
  0.00000000E+00  0.00000000E+00  0.00000000E+00
  0.00000000E+00  0.00000000E+00  0.00000000E+00
  0.00000000E+00  0.00000000E+00  0.00000000E+00
  0.00000000E+00  0.00000000E+00  0.00000000E+00
  0.00000000E+00  0.00000000E+00  0.00000000E+00
  0.00000000E+00  0.00000000E+00  0.00000000E+00
  0.00000000E+00  0.00000000E+00  0.00000000E+00
  0.00000000E+00  0.00000000E+00  0.00000000E+00
  0.00000000E+00  0.00000000E+00  0.00000000E+00
  0.00000000E+00  0.00000000E+00  0.00000000E+00
  0.00000000E+00  0.00000000E+00  0.00000000E+00
  0.00000000E+00  0.00000000E+00  0.00000000E+00
  0.00000000E+00  0.00000000E+00  0.00000000E+00
  0.00000000E+00  0.00000000E+00  0.00000000E+00
  0.00000000E+00  0.00000000E+00  0.00000000E+00
  0.00000000E+00  0.00000000E+00  0.00000000E+00
  0.00000000E+00  0.00000000E+00  0.00000000E+00
  0.00000000E+00  0.00000000E+00  0.00000000E+00
  0.00000000E+00  0.00000000E+00  0.00000000E+00
  0.00000000E+00  0.00000000E+00  0.00000000E+00
  0.00000000E+00  0.00000000E+00  0.00000000E+00
  0.00000000E+00  0.00000000E+00  0.00000000E+00
  0.00000000E+00  0.00000000E+00  0.00000000E+00
  0.00000000E+00  0.00000000E+00  0.00000000E+00
  0.00000000E+00  0.00000000E+00  0.00000000E+00
  0.00000000E+00  0.00000000E+00  0.00000000E+00
  0.00000000E+00  0.00000000E+00  0.00000000E+00
  0.00000000E+00  0.00000000E+00  0.00000000E+00
  0.00000000E+00  0.00000000E+00  0.00000000E+00
  0.00000000E+00  0.00000000E+00  0.00000000E+00
  0.00000000E+00  0.00000000E+00  0.00000000E+00
  0.00000000E+00  0.00000000E+00  0.00000000E+00
  0.00000000E+00  0.00000000E+00  0.00000000E+00
  0.00000000E+00  0.00000000E+00  0.00000000E+00
  0.00000000E+00  0.00000000E+00  0.00000000E+00
  0.00000000E+00  0.00000000E+00  0.00000000E+00
  0.00000000E+00  0.00000000E+00  0.00000000E+00
  0.00000000E+00  0.00000000E+00  0.00000000E+00
  0.00000000E+00  0.00000000E+00  0.00000000E+00
  0.00000000E+00  0.00000000E+00  0.00000000E+00
  0.00000000E+00  0.00000000E+00  0.00000000E+00
  0.00000000E+00  0.00000000E+00  0.00000000E+00
  0.00000000E+00  0.00000000E+00  0.00000000E+00
  0.00000000E+00  0.00000000E+00  0.00000000E+00
  0.00000000E+00  0.00000000E+00  0.00000000E+00
  0.00000000E+00  0.00000000E+00  0.00000000E+00
  0.00000000E+00  0.00000000E+00  0.00000000E+00
  0.00000000E+00  0.00000000E+00  0.00000000E+00
  0.00000000E+00  0.00000000E+00  0.00000000E+00
  0.00000000E+00  0.00000000E+00  0.00000000E+00
  0.00000000E+00  0.00000000E+00  0.00000000E+00
  0.00000000E+00  0.00000000E+00  0.00000000E+00
  0.00000000E+00  0.00000000E+00  0.00000000E+00
  0.00000000E+00  0.00000000E+00  0.00000000E+00
  0.00000000E+00  0.00000000E+00  0.00000000E+00
  0.00000000E+00  0.00000000E+00  0.00000000E+00
  0.00000000E+00  0.00000000E+00  0.00000000E+00
  0.00000000E+00  0.00000000E+00  0.00000000E+00
  0.00000000E+00  0.00000000E+00  0.00000000E+00
  0.00000000E+00  0.00000000E+00  0.00000000E+00
  0.00000000E+00  0.00000000E+00  0.00000000E+00
  0.00000000E+00  0.00000000E+00  0.00000000E+00
  0.00000000E+00  0.00000000E+00  0.00000000E+00
  0.00000000E+00  0.00000000E+00  0.00000000E+00
  0.00000000E+00  0.00000000E+00  0.00000000E+00
  0.00000000E+00  0.00000000E+00  0.00000000E+00
  0.00000000E+00  0.00000000E+00  0.00000000E+00
  0.00000000E+00  0.00000000E+00  0.00000000E+00
  0.00000000E+00  0.00000000E+00  0.00000000E+00
  0.00000000E+00  0.00000000E+00  0.00000000E+00
  0.00000000E+00  0.00000000E+00  0.00000000E+00
  0.00000000E+00  0.00000000E+00  0.00000000E+00
  0.00000000E+00  0.00000000E+00  0.00000000E+00
  0.00000000E+00  0.00000000E+00  0.00000000E+00
  0.00000000E+00  0.00000000E+00  0.00000000E+00
  0.00000000E+00  0.00000000E+00  0.00000000E+00
  0.00000000E+00  0.00000000E+00  0.00000000E+00
  0.00000000E+00  0.00000000E+00  0.00000000E+00
  0.00000000E+00  0.00000000E+00  0.00000000E+00
  0.00000000E+00  0.00000000E+00  0.00000000E+00
  0.00000000E+00  0.00000000E+00  0.00000000E+00
  0.00000000E+00  0.00000000E+00  0.00000000E+00
  0.00000000E+00  0.00000000E+00  0.00000000E+00
  0.00000000E+00  0.00000000E+00  0.00000000E+00
  0.00000000E+00  0.00000000E+00  0.00000000E+00
  0.00000000E+00  0.00000000E+00  0.00000000E+00
  0.00000000E+00  0.00000000E+00  0.00000000E+00
  0.00000000E+00  0.00000000E+00  0.00000000E+00
  0.00000000E+00  0.00000000E+00  0.00000000E+00
  0.00000000E+00  0.00000000E+00  0.00000000E+00
  0.00000000E+00  0.00000000E+00  0.00000000E+00
  0.00000000E+00  0.00000000E+00  0.00000000E+00
  0.00000000E+00  0.00000000E+00  0.00000000E+00
  0.00000000E+00  0.00000000E+00  0.00000000E+00
  0.00000000E+00  0.00000000E+00  0.00000000E+00
  0.00000000E+00  0.00000000E+00  0.00000000E+00
  0.00000000E+00  0.00000000E+00  0.00000000E+00
  0.00000000E+00  0.00000000E+00  0.00000000E+00
  0.00000000E+00  0.00000000E+00  0.00000000E+00
