Ni1 H1 C124 N2                          
   1.00000000000000     
    19.8130497728544270   -0.0071324772207090    0.0116431374133717
    -9.9129556366477001   17.0331111438786742   -0.0023558066058436
     0.0175112784249521    0.0060769303898138   29.8227666278290151
   Ni   H    C    N 
     1     1   124     2
Direct
  0.4374881634613920  0.5000004111666736  0.4086204761425065
  0.4373953245271193  0.4999398113146267  0.4575442983875034
  0.0422105277343084  0.0843288605694672  0.4000554155607502
  0.0411820536177817  0.2083368421012358  0.4003405418046499
  0.0403750050350519  0.3328285200231726  0.3999847686227909
  0.0403552737771570  0.4582594649575049  0.3993994835410732
  0.0412694530848804  0.5837997362775891  0.3991153889461151
  0.0420500939341840  0.7092605730738110  0.3992569297985403
  0.0424387848136907  0.8346481102862309  0.3994034749659681
  0.0426183287741974  0.9598358134096334  0.3995737628529470
  0.1683093441521091  0.0861218391175963  0.4008447415441311
  0.1677718792715152  0.2106755178421208  0.4021497156278856
  0.1655856614151195  0.3340162239306332  0.4026173435503728
  0.1638956341642188  0.4584555816508270  0.4013615444001604
  0.1650570880892326  0.5837219725263937  0.4002103953758325
  0.1663088457432159  0.7091914794884341  0.3995517942646916
  0.1670775106494786  0.8346954213161706  0.3994759857684457
  0.1676730191669040  0.9603218359715934  0.3998159738940690
  0.2928982742515935  0.0858552050074716  0.4007614797648432
  0.2946822708137481  0.2133237873830540  0.4030581222164253
  0.2935082227636187  0.3387165516062947  0.4055056298421267
  0.2874816287749055  0.4591210103313764  0.4048551185889500
  0.2885919733917895  0.5840361008404440  0.4028144570353832
  0.2905245965757922  0.7088849295138204  0.4008247027555322
  0.2915814643436949  0.8341428413417500  0.3996640805324608
  0.2921674596616342  0.9597675053232037  0.3996035447847244
  0.4172187245932069  0.0842279547603226  0.4001466129867073
  0.4179498687097937  0.2104946576580790  0.4021129070625952
  0.4213499742914258  0.3393246493475050  0.4042795477523887
  0.4145060106512041  0.7056853770290294  0.4030823081649432
  0.4159472898605183  0.8322299022993374  0.4008777361002933
  0.4165980188371418  0.9582287952222650  0.3996657331486473
  0.5415553252200191  0.0823961054163745  0.3995613629436410
  0.5422122748128879  0.2079032357631144  0.4004302282019879
  0.5435108635657275  0.3330953866223654  0.4022813551377634
  0.5456225843752075  0.4570176523417467  0.4040902630042051
  0.5434237122526894  0.5783668046774593  0.4070944053760229
  0.5380762630484901  0.7022841224724450  0.4046114430243188
  0.5400511380728256  0.8302273642093174  0.4020509181323917
  0.5410205476379999  0.9565737562862869  0.4001090249800666
  0.6660254557543243  0.0816615862648563  0.3996054560824726
  0.6666462449967935  0.2072228453610422  0.3995210049893764
  0.6675845157382307  0.3326615716744264  0.4000612688161461
  0.6693370984609667  0.4581843649572326  0.4014035026721367
  0.6697380366732285  0.5828111478408857  0.4028625957124872
  0.6657237162287056  0.7055970704130666  0.4035024676189247
  0.6645688645954717  0.8299007680796392  0.4021578400653237
  0.6654593709776031  0.9559730098323381  0.4004539266932540
  0.7907617077804635  0.0816728926976753  0.3995237440381516
  0.7910953448440788  0.2070223619691026  0.3993778017404649
  0.7917983733127875  0.3325604662430082  0.3992372264256136
  0.7928125973697935  0.4581403513127641  0.3993520492867062
  0.7935883478797865  0.5835211613237078  0.3999884977501965
  0.7926531618212360  0.7083263452275462  0.4008543660792629
  0.7910576845806729  0.8321149775974485  0.4008192517730017
  0.7904221168299912  0.9564319309666077  0.4000591112325405
  0.9160585382269752  0.0825294299521384  0.3994294747816116
  0.9158163353888624  0.2073202650807311  0.3993933265501977
  0.9159692141597917  0.3325958088287442  0.3991556861379565
  0.9165509422215711  0.4581096800683300  0.3989064995939714
  0.9174610554061435  0.5837482224233251  0.3990039265061362
  0.9176174333916184  0.7091135541094467  0.3993715151934507
  0.9172755022903181  0.8339176016314027  0.3995964288977475
  0.9165938124071885  0.9582152494191627  0.3995372808898205
  0.0846128890285151  0.0435711736746504  0.4000943667444873
  0.0839560723559955  0.1678844826617229  0.4007983517375779
  0.0823442109961230  0.2916846171518340  0.4009104004023664
  0.0813752933785632  0.4164732587782478  0.4000926536264596
  0.0821536891865388  0.5418670248035258  0.3994566478376736
  0.0831820873205468  0.6674190974677889  0.3992741689502535
  0.0839037059417783  0.7929583294427802  0.3994110326773461
  0.0842735986078301  0.9183082142087413  0.3995676269926723
  0.2095724607619097  0.0440251944021971  0.4004485583992040
  0.2104375577061925  0.1701119763452619  0.4021377492719180
  0.2092473071782865  0.2944075581121206  0.4034957939288802
  0.2052577245536713  0.4172097924492847  0.4029202522314780
  0.2056412375754705  0.5418200878697470  0.4014554428605454
  0.2073998419775796  0.6673478867728786  0.4001031377600525
  0.2083470175144133  0.7927646866822596  0.3995205055523118
  0.2090137171440801  0.9183331343743298  0.3996048342312792
  0.3339911701876301  0.0434139669826889  0.4000820082836656
  0.3349353070367599  0.1697747001385985  0.4020019565763907
  0.3368955894983263  0.2977234002585942  0.4046029744478196
  0.3315574962069951  0.4216309950680173  0.4071195932735646
  0.3293794148264144  0.5430047615219867  0.4041159119164956
  0.3314723821097573  0.6669076462171050  0.4022518558752113
  0.3327907814420810  0.7920866000738741  0.4003783604293520
  0.3334750694330252  0.9175856723255656  0.3995450325768267
  0.4584381792833577  0.0417668340948691  0.3996707554618593
  0.4590613995816267  0.1677830449176216  0.4009024843930882
  0.4604759718064896  0.2943362108997412  0.4031055556168243
  0.4536206399710457  0.6607017979607541  0.4042846339410545
  0.4570411485060019  0.7895225089344625  0.4021174010899268
  0.4578069188870736  0.9157700107987576  0.4001474816126234
  0.5828709754824394  0.0402191109112638  0.3996192709487451
  0.5834266008445451  0.1658462694554567  0.3997006098765241
  0.5844701103319248  0.2911162301671011  0.4008420454108256
  0.5864006470295730  0.4159607242598319  0.4028099217589852
  0.5875117290567964  0.5408932196868907  0.4048070470396545
  0.5814442476277831  0.6612792747589428  0.4055036144890358
  0.5803033665498610  0.7866914419484120  0.4030946555450343
  0.5821182374445313  0.9141440302676125  0.4008106563525056
  0.7073647876468526  0.0396696581661624  0.3997983769957857
  0.7079227123190867  0.1652956109006379  0.3994626916951722
  0.7086731051921931  0.2908063978505207  0.3995189780512177
  0.7099194037181978  0.4162948000314179  0.4001194316390599
  0.7110930135253094  0.5415538065751342  0.4012843070003951
  0.7094062981838122  0.6660098483152315  0.4025662342130460
  0.7072201304059607  0.7893271979331753  0.4021770597384147
  0.7067068870509686  0.9138827719314786  0.4008291318871151
  0.8324343244237409  0.0401704726648774  0.3995270736564356
  0.8325715096781939  0.1653423438492344  0.3993654100671674
  0.8329538099793391  0.2907236226081978  0.3992316388164320
  0.8336857361812628  0.4161858721363501  0.3990581830824063
  0.8346053724033745  0.5417323490937208  0.3993008429813632
  0.8346134437424544  0.6671718818108933  0.3999149106208756
  0.8338461204552555  0.7916711139233360  0.4003498000056351
  0.8328282013968040  0.9156741815172657  0.4000459169267651
  0.9584584326211958  0.0417931611926710  0.3995272641175590
  0.9577547911012734  0.1660936275605877  0.3995660438150991
  0.9573751331981742  0.2908818636498617  0.3993900186157286
  0.9574920954849978  0.4162364665046970  0.3990428153442884
  0.9584140123663467  0.5418705309667773  0.3989119217952083
  0.9590289390104323  0.6673966908720562  0.3991532545662859
  0.9591968312636043  0.7926771339045251  0.3994110306180308
  0.9589950588109555  0.9174782592487040  0.3994718505789930
  0.4090912713118303  0.5793984021966239  0.4041150359552497
  0.4659078349028127  0.4206285939989868  0.4040941609839558
 
  0.00000000E+00  0.00000000E+00  0.00000000E+00
  0.00000000E+00  0.00000000E+00  0.00000000E+00
  0.00000000E+00  0.00000000E+00  0.00000000E+00
  0.00000000E+00  0.00000000E+00  0.00000000E+00
  0.00000000E+00  0.00000000E+00  0.00000000E+00
  0.00000000E+00  0.00000000E+00  0.00000000E+00
  0.00000000E+00  0.00000000E+00  0.00000000E+00
  0.00000000E+00  0.00000000E+00  0.00000000E+00
  0.00000000E+00  0.00000000E+00  0.00000000E+00
  0.00000000E+00  0.00000000E+00  0.00000000E+00
  0.00000000E+00  0.00000000E+00  0.00000000E+00
  0.00000000E+00  0.00000000E+00  0.00000000E+00
  0.00000000E+00  0.00000000E+00  0.00000000E+00
  0.00000000E+00  0.00000000E+00  0.00000000E+00
  0.00000000E+00  0.00000000E+00  0.00000000E+00
  0.00000000E+00  0.00000000E+00  0.00000000E+00
  0.00000000E+00  0.00000000E+00  0.00000000E+00
  0.00000000E+00  0.00000000E+00  0.00000000E+00
  0.00000000E+00  0.00000000E+00  0.00000000E+00
  0.00000000E+00  0.00000000E+00  0.00000000E+00
  0.00000000E+00  0.00000000E+00  0.00000000E+00
  0.00000000E+00  0.00000000E+00  0.00000000E+00
  0.00000000E+00  0.00000000E+00  0.00000000E+00
  0.00000000E+00  0.00000000E+00  0.00000000E+00
  0.00000000E+00  0.00000000E+00  0.00000000E+00
  0.00000000E+00  0.00000000E+00  0.00000000E+00
  0.00000000E+00  0.00000000E+00  0.00000000E+00
  0.00000000E+00  0.00000000E+00  0.00000000E+00
  0.00000000E+00  0.00000000E+00  0.00000000E+00
  0.00000000E+00  0.00000000E+00  0.00000000E+00
  0.00000000E+00  0.00000000E+00  0.00000000E+00
  0.00000000E+00  0.00000000E+00  0.00000000E+00
  0.00000000E+00  0.00000000E+00  0.00000000E+00
  0.00000000E+00  0.00000000E+00  0.00000000E+00
  0.00000000E+00  0.00000000E+00  0.00000000E+00
  0.00000000E+00  0.00000000E+00  0.00000000E+00
  0.00000000E+00  0.00000000E+00  0.00000000E+00
  0.00000000E+00  0.00000000E+00  0.00000000E+00
  0.00000000E+00  0.00000000E+00  0.00000000E+00
  0.00000000E+00  0.00000000E+00  0.00000000E+00
  0.00000000E+00  0.00000000E+00  0.00000000E+00
  0.00000000E+00  0.00000000E+00  0.00000000E+00
  0.00000000E+00  0.00000000E+00  0.00000000E+00
  0.00000000E+00  0.00000000E+00  0.00000000E+00
  0.00000000E+00  0.00000000E+00  0.00000000E+00
  0.00000000E+00  0.00000000E+00  0.00000000E+00
  0.00000000E+00  0.00000000E+00  0.00000000E+00
  0.00000000E+00  0.00000000E+00  0.00000000E+00
  0.00000000E+00  0.00000000E+00  0.00000000E+00
  0.00000000E+00  0.00000000E+00  0.00000000E+00
  0.00000000E+00  0.00000000E+00  0.00000000E+00
  0.00000000E+00  0.00000000E+00  0.00000000E+00
  0.00000000E+00  0.00000000E+00  0.00000000E+00
  0.00000000E+00  0.00000000E+00  0.00000000E+00
  0.00000000E+00  0.00000000E+00  0.00000000E+00
  0.00000000E+00  0.00000000E+00  0.00000000E+00
  0.00000000E+00  0.00000000E+00  0.00000000E+00
  0.00000000E+00  0.00000000E+00  0.00000000E+00
  0.00000000E+00  0.00000000E+00  0.00000000E+00
  0.00000000E+00  0.00000000E+00  0.00000000E+00
  0.00000000E+00  0.00000000E+00  0.00000000E+00
  0.00000000E+00  0.00000000E+00  0.00000000E+00
  0.00000000E+00  0.00000000E+00  0.00000000E+00
  0.00000000E+00  0.00000000E+00  0.00000000E+00
  0.00000000E+00  0.00000000E+00  0.00000000E+00
  0.00000000E+00  0.00000000E+00  0.00000000E+00
  0.00000000E+00  0.00000000E+00  0.00000000E+00
  0.00000000E+00  0.00000000E+00  0.00000000E+00
  0.00000000E+00  0.00000000E+00  0.00000000E+00
  0.00000000E+00  0.00000000E+00  0.00000000E+00
  0.00000000E+00  0.00000000E+00  0.00000000E+00
  0.00000000E+00  0.00000000E+00  0.00000000E+00
  0.00000000E+00  0.00000000E+00  0.00000000E+00
  0.00000000E+00  0.00000000E+00  0.00000000E+00
  0.00000000E+00  0.00000000E+00  0.00000000E+00
  0.00000000E+00  0.00000000E+00  0.00000000E+00
  0.00000000E+00  0.00000000E+00  0.00000000E+00
  0.00000000E+00  0.00000000E+00  0.00000000E+00
  0.00000000E+00  0.00000000E+00  0.00000000E+00
  0.00000000E+00  0.00000000E+00  0.00000000E+00
  0.00000000E+00  0.00000000E+00  0.00000000E+00
  0.00000000E+00  0.00000000E+00  0.00000000E+00
  0.00000000E+00  0.00000000E+00  0.00000000E+00
  0.00000000E+00  0.00000000E+00  0.00000000E+00
  0.00000000E+00  0.00000000E+00  0.00000000E+00
  0.00000000E+00  0.00000000E+00  0.00000000E+00
  0.00000000E+00  0.00000000E+00  0.00000000E+00
  0.00000000E+00  0.00000000E+00  0.00000000E+00
  0.00000000E+00  0.00000000E+00  0.00000000E+00
  0.00000000E+00  0.00000000E+00  0.00000000E+00
  0.00000000E+00  0.00000000E+00  0.00000000E+00
  0.00000000E+00  0.00000000E+00  0.00000000E+00
  0.00000000E+00  0.00000000E+00  0.00000000E+00
  0.00000000E+00  0.00000000E+00  0.00000000E+00
  0.00000000E+00  0.00000000E+00  0.00000000E+00
  0.00000000E+00  0.00000000E+00  0.00000000E+00
  0.00000000E+00  0.00000000E+00  0.00000000E+00
  0.00000000E+00  0.00000000E+00  0.00000000E+00
  0.00000000E+00  0.00000000E+00  0.00000000E+00
  0.00000000E+00  0.00000000E+00  0.00000000E+00
  0.00000000E+00  0.00000000E+00  0.00000000E+00
  0.00000000E+00  0.00000000E+00  0.00000000E+00
  0.00000000E+00  0.00000000E+00  0.00000000E+00
  0.00000000E+00  0.00000000E+00  0.00000000E+00
  0.00000000E+00  0.00000000E+00  0.00000000E+00
  0.00000000E+00  0.00000000E+00  0.00000000E+00
  0.00000000E+00  0.00000000E+00  0.00000000E+00
  0.00000000E+00  0.00000000E+00  0.00000000E+00
  0.00000000E+00  0.00000000E+00  0.00000000E+00
  0.00000000E+00  0.00000000E+00  0.00000000E+00
  0.00000000E+00  0.00000000E+00  0.00000000E+00
  0.00000000E+00  0.00000000E+00  0.00000000E+00
  0.00000000E+00  0.00000000E+00  0.00000000E+00
  0.00000000E+00  0.00000000E+00  0.00000000E+00
  0.00000000E+00  0.00000000E+00  0.00000000E+00
  0.00000000E+00  0.00000000E+00  0.00000000E+00
  0.00000000E+00  0.00000000E+00  0.00000000E+00
  0.00000000E+00  0.00000000E+00  0.00000000E+00
  0.00000000E+00  0.00000000E+00  0.00000000E+00
  0.00000000E+00  0.00000000E+00  0.00000000E+00
  0.00000000E+00  0.00000000E+00  0.00000000E+00
  0.00000000E+00  0.00000000E+00  0.00000000E+00
  0.00000000E+00  0.00000000E+00  0.00000000E+00
  0.00000000E+00  0.00000000E+00  0.00000000E+00
  0.00000000E+00  0.00000000E+00  0.00000000E+00
  0.00000000E+00  0.00000000E+00  0.00000000E+00
  0.00000000E+00  0.00000000E+00  0.00000000E+00
  0.00000000E+00  0.00000000E+00  0.00000000E+00
