Ti1 C122 N4                             
   1.00000000000000     
    19.7937008780802799   -0.0000164607102398   -0.0133314482707138
    -9.8968643649924974   17.0416244153524090    0.0067045688783653
    -0.0200338256525411    0.0000675012876283   29.8307718396046369
   Ti   C    N 
     1   122     4
Direct
  0.4297977018153715  0.5000001979488918  0.4242691971564393
  0.0418046965528967  0.0837180497210418  0.3996509823134695
  0.0411626807772643  0.2081129565687824  0.3996178787961982
  0.0406470237252983  0.3330514985681872  0.4001388437933452
  0.0407636585647482  0.4582392445302023  0.4001773330830528
  0.0414870071150514  0.5836368950643155  0.3998487711718525
  0.0421112863528841  0.7090083382763577  0.3996864321406511
  0.0421973564730552  0.8340771364106881  0.3997309070114514
  0.0422824312949199  0.9591775718919012  0.3997111054077625
  0.1677965650398871  0.0851341432478593  0.3997689636086371
  0.1671823309871555  0.2094907850141851  0.3994317442359440
  0.1653937628297492  0.3336384449413217  0.3999594360206536
  0.1647417849016387  0.4584045491442035  0.4011890541061306
  0.1655261285811977  0.5836876401255715  0.4004963262988975
  0.1665026784292485  0.7088733285714424  0.3999209400493115
  0.1670437981513095  0.8341642787528880  0.3998319047325162
  0.1673567474545581  0.9596186473858803  0.3998441913592155
  0.2925180171854118  0.0853557541410173  0.4000200978470793
  0.2937668429977865  0.2123417679905259  0.4006092016123803
  0.2915813876210754  0.3363709412371094  0.3999405951243485
  0.2887025259673450  0.4581028582882918  0.4006257838324355
  0.2891678243391226  0.5830810185159936  0.4010915150554517
  0.2909419915942339  0.7083094772997738  0.3998948942004331
  0.2917795031577396  0.8338532304367853  0.3996905273271479
  0.2921039578820808  0.9594571187212985  0.3997668905240271
  0.4171394933323417  0.0843246209997427  0.3996964999950860
  0.4176060997896112  0.2104262518058866  0.4003974823562833
  0.4208811040323219  0.3388337555218501  0.4039239311373452
  0.4154588723893119  0.7069703379093589  0.3991655176273001
  0.4163332229222633  0.8327670681524971  0.3995479276322847
  0.4167464898500053  0.9584838521558707  0.3996805391958921
  0.5416767653748614  0.0829293374732582  0.3996613833193322
  0.5421658034860752  0.2084902632195794  0.3996661491019732
  0.5434673777377023  0.3338987862367443  0.4009260361164848
  0.5453416952297597  0.4583271467730382  0.4045814754774200
  0.5390240955616297  0.7028229891340532  0.4017272220562186
  0.5408208749308903  0.8308983914772162  0.3998153712312033
  0.5413740836303848  0.9571513942088936  0.3996749050487464
  0.6662964648543797  0.0823045440000117  0.3997786268335474
  0.6667952107488276  0.2077493644266782  0.3996030899889476
  0.6676397660926486  0.3331745088864237  0.3992301546730461
  0.6690493346198381  0.4585370696124392  0.3993724769176636
  0.6690120596971842  0.5828785351307401  0.4011859896656786
  0.6656700791108173  0.7057004438099211  0.4015633859868513
  0.6650465663881622  0.8306555931766156  0.4004575958426337
  0.6659074380142561  0.9567240839890223  0.3999023806763823
  0.7910364761952775  0.0821644737618595  0.3998423617125098
  0.7913585937067988  0.2075592709783549  0.3997711350445720
  0.7918890928765916  0.3329006778267458  0.3994103334007515
  0.7927398327623802  0.4582539579363605  0.3988147213262815
  0.7933286973815765  0.5835581394522485  0.3988434413528221
  0.7923440968894691  0.7080731132810447  0.3997549674915914
  0.7909217134539023  0.8320339341208752  0.3998071741316929
  0.7906527291453380  0.9568220444435038  0.3998053034432594
  0.9161354988255483  0.0825897911259753  0.3996945849829920
  0.9159921809910598  0.2075999497539133  0.3998136964721755
  0.9162128034358319  0.3328461302241240  0.3998423819888949
  0.9167825919136328  0.4582792579360960  0.3995383510500546
  0.9174144840745427  0.5836347900785488  0.3992269988756142
  0.9174469929418581  0.7087248990295151  0.3993708963876211
  0.9170044646803209  0.8335655653095499  0.3996068208667023
  0.9163843543021313  0.9579083152719655  0.3996574609224096
  0.0842225934321965  0.0428481689997724  0.3996744590385965
  0.0835660894481702  0.1672327817718727  0.3995503869198899
  0.0826333699391650  0.2916906506727061  0.3998972574735250
  0.0818392600094752  0.4163124573262817  0.4004973649462255
  0.0825253149437872  0.5417601838218651  0.4001769678803424
  0.0833665696279536  0.6671530300047011  0.3998424329552663
  0.0837997938231192  0.7924401865673156  0.3997709765955963
  0.0839923142978872  0.9176948471027080  0.3997770110712727
  0.2091836548403916  0.0432759223787897  0.3999021234066094
  0.2099224175914460  0.1691012684493341  0.3998165221921155
  0.2084887853044299  0.2930296122627533  0.3991677519982297
  0.2060869497234090  0.4169190205929551  0.4010934354796133
  0.2063376320700336  0.5415955634123913  0.4011880199379030
  0.2075954150512844  0.6669483516143220  0.4001376623521323
  0.2083927351745308  0.7924001441018820  0.3998131634527263
  0.2088726372679341  0.9178358538245294  0.3998415052029462
  0.3338312811991565  0.0431785737401907  0.3998057413724320
  0.3343908932353257  0.1693442129644801  0.4004577809371095
  0.3362013908510208  0.2971768538425169  0.4017283941873166
  0.3305998326127443  0.5418974962544479  0.4006253285942756
  0.3317549694217427  0.6663615211149699  0.3999566824685647
  0.3330504958566046  0.7918874910409821  0.3996154508520670
  0.3335459883264914  0.9174105909634005  0.3996929268684534
  0.4584762833534409  0.0420917120328547  0.3996565945562690
  0.4588885232189095  0.1679664360407951  0.3998064755443290
  0.4599701484281638  0.2942993952500236  0.4015620995474065
  0.4552102498074322  0.6636293185652757  0.3999387919141092
  0.4576914878576686  0.7905087564586212  0.3994296236479180
  0.4580867517510558  0.9162813850892249  0.3996493028274886
  0.5831045661135338  0.0408215614874924  0.3997131018353440
  0.5834388254312782  0.1664340787134567  0.3996051546229143
  0.5842718703037365  0.2919273587891987  0.3997540780367824
  0.5861342491445124  0.4171216357245657  0.4011848989261590
  0.5870144249923103  0.5416726782985676  0.4045816520331121
  0.5820467293222604  0.6611660315009583  0.4039240314544506
  0.5814248751389726  0.7876581384997771  0.4006082326111627
  0.5826636473322229  0.9148662169232037  0.3997689788331911
  0.7077380437777715  0.0403811681042761  0.3998453107043554
  0.7081198867642907  0.1659222278044554  0.3997311220356095
  0.7087223277133983  0.2912747228363413  0.3993699500065973
  0.7097719790256030  0.4164423150290644  0.3988428842022426
  0.7105130666061995  0.5414632085180864  0.3993728233709973
  0.7095689564409076  0.6661016100127357  0.4009275559478961
  0.7071796127848030  0.7895739035657965  0.4003982258576261
  0.7071623574595437  0.9146443869377282  0.4000198774258338
  0.8326474082698792  0.0405435941761883  0.3997671775627810
  0.8328797726106933  0.1658360182809542  0.3998326655184102
  0.8331032688036349  0.2909914848519140  0.3996863551705713
  0.8337814428425515  0.4163657245740490  0.3992270535528964
  0.8344870836695863  0.5417463483235777  0.3988148818634570
  0.8344657679892608  0.6668255733287854  0.3992309078779837
  0.8336757550541855  0.7915100683621958  0.3996677810459845
  0.8328149409896702  0.9156757700714928  0.3996969954824617
  0.9582629289794417  0.0415162970041834  0.3996819661115861
  0.9579268575231010  0.1661472620101552  0.3996925417233683
  0.9576304511869210  0.2911269709555894  0.3999210818937840
  0.9578503617040635  0.4163626054111689  0.3998487672257060
  0.9585035300109277  0.5417196566795378  0.3995383552677020
  0.9589887228538401  0.6670983235126915  0.3994105337220444
  0.9590460292997778  0.7922497214452348  0.3996042094032998
  0.9587474916069819  0.9170702377445000  0.3996614353215397
  0.4122378084363559  0.5829843183777912  0.4012004599571617
  0.5446876884160783  0.5800384325706094  0.4086595159286845
  0.3292537093496518  0.4170160757222789  0.4011998289923266
  0.4646495424265502  0.4199609661644120  0.4086600871141570
 
  0.00000000E+00  0.00000000E+00  0.00000000E+00
  0.00000000E+00  0.00000000E+00  0.00000000E+00
  0.00000000E+00  0.00000000E+00  0.00000000E+00
  0.00000000E+00  0.00000000E+00  0.00000000E+00
  0.00000000E+00  0.00000000E+00  0.00000000E+00
  0.00000000E+00  0.00000000E+00  0.00000000E+00
  0.00000000E+00  0.00000000E+00  0.00000000E+00
  0.00000000E+00  0.00000000E+00  0.00000000E+00
  0.00000000E+00  0.00000000E+00  0.00000000E+00
  0.00000000E+00  0.00000000E+00  0.00000000E+00
  0.00000000E+00  0.00000000E+00  0.00000000E+00
  0.00000000E+00  0.00000000E+00  0.00000000E+00
  0.00000000E+00  0.00000000E+00  0.00000000E+00
  0.00000000E+00  0.00000000E+00  0.00000000E+00
  0.00000000E+00  0.00000000E+00  0.00000000E+00
  0.00000000E+00  0.00000000E+00  0.00000000E+00
  0.00000000E+00  0.00000000E+00  0.00000000E+00
  0.00000000E+00  0.00000000E+00  0.00000000E+00
  0.00000000E+00  0.00000000E+00  0.00000000E+00
  0.00000000E+00  0.00000000E+00  0.00000000E+00
  0.00000000E+00  0.00000000E+00  0.00000000E+00
  0.00000000E+00  0.00000000E+00  0.00000000E+00
  0.00000000E+00  0.00000000E+00  0.00000000E+00
  0.00000000E+00  0.00000000E+00  0.00000000E+00
  0.00000000E+00  0.00000000E+00  0.00000000E+00
  0.00000000E+00  0.00000000E+00  0.00000000E+00
  0.00000000E+00  0.00000000E+00  0.00000000E+00
  0.00000000E+00  0.00000000E+00  0.00000000E+00
  0.00000000E+00  0.00000000E+00  0.00000000E+00
  0.00000000E+00  0.00000000E+00  0.00000000E+00
  0.00000000E+00  0.00000000E+00  0.00000000E+00
  0.00000000E+00  0.00000000E+00  0.00000000E+00
  0.00000000E+00  0.00000000E+00  0.00000000E+00
  0.00000000E+00  0.00000000E+00  0.00000000E+00
  0.00000000E+00  0.00000000E+00  0.00000000E+00
  0.00000000E+00  0.00000000E+00  0.00000000E+00
  0.00000000E+00  0.00000000E+00  0.00000000E+00
  0.00000000E+00  0.00000000E+00  0.00000000E+00
  0.00000000E+00  0.00000000E+00  0.00000000E+00
  0.00000000E+00  0.00000000E+00  0.00000000E+00
  0.00000000E+00  0.00000000E+00  0.00000000E+00
  0.00000000E+00  0.00000000E+00  0.00000000E+00
  0.00000000E+00  0.00000000E+00  0.00000000E+00
  0.00000000E+00  0.00000000E+00  0.00000000E+00
  0.00000000E+00  0.00000000E+00  0.00000000E+00
  0.00000000E+00  0.00000000E+00  0.00000000E+00
  0.00000000E+00  0.00000000E+00  0.00000000E+00
  0.00000000E+00  0.00000000E+00  0.00000000E+00
  0.00000000E+00  0.00000000E+00  0.00000000E+00
  0.00000000E+00  0.00000000E+00  0.00000000E+00
  0.00000000E+00  0.00000000E+00  0.00000000E+00
  0.00000000E+00  0.00000000E+00  0.00000000E+00
  0.00000000E+00  0.00000000E+00  0.00000000E+00
  0.00000000E+00  0.00000000E+00  0.00000000E+00
  0.00000000E+00  0.00000000E+00  0.00000000E+00
  0.00000000E+00  0.00000000E+00  0.00000000E+00
  0.00000000E+00  0.00000000E+00  0.00000000E+00
  0.00000000E+00  0.00000000E+00  0.00000000E+00
  0.00000000E+00  0.00000000E+00  0.00000000E+00
  0.00000000E+00  0.00000000E+00  0.00000000E+00
  0.00000000E+00  0.00000000E+00  0.00000000E+00
  0.00000000E+00  0.00000000E+00  0.00000000E+00
  0.00000000E+00  0.00000000E+00  0.00000000E+00
  0.00000000E+00  0.00000000E+00  0.00000000E+00
  0.00000000E+00  0.00000000E+00  0.00000000E+00
  0.00000000E+00  0.00000000E+00  0.00000000E+00
  0.00000000E+00  0.00000000E+00  0.00000000E+00
  0.00000000E+00  0.00000000E+00  0.00000000E+00
  0.00000000E+00  0.00000000E+00  0.00000000E+00
  0.00000000E+00  0.00000000E+00  0.00000000E+00
  0.00000000E+00  0.00000000E+00  0.00000000E+00
  0.00000000E+00  0.00000000E+00  0.00000000E+00
  0.00000000E+00  0.00000000E+00  0.00000000E+00
  0.00000000E+00  0.00000000E+00  0.00000000E+00
  0.00000000E+00  0.00000000E+00  0.00000000E+00
  0.00000000E+00  0.00000000E+00  0.00000000E+00
  0.00000000E+00  0.00000000E+00  0.00000000E+00
  0.00000000E+00  0.00000000E+00  0.00000000E+00
  0.00000000E+00  0.00000000E+00  0.00000000E+00
  0.00000000E+00  0.00000000E+00  0.00000000E+00
  0.00000000E+00  0.00000000E+00  0.00000000E+00
  0.00000000E+00  0.00000000E+00  0.00000000E+00
  0.00000000E+00  0.00000000E+00  0.00000000E+00
  0.00000000E+00  0.00000000E+00  0.00000000E+00
  0.00000000E+00  0.00000000E+00  0.00000000E+00
  0.00000000E+00  0.00000000E+00  0.00000000E+00
  0.00000000E+00  0.00000000E+00  0.00000000E+00
  0.00000000E+00  0.00000000E+00  0.00000000E+00
  0.00000000E+00  0.00000000E+00  0.00000000E+00
  0.00000000E+00  0.00000000E+00  0.00000000E+00
  0.00000000E+00  0.00000000E+00  0.00000000E+00
  0.00000000E+00  0.00000000E+00  0.00000000E+00
  0.00000000E+00  0.00000000E+00  0.00000000E+00
  0.00000000E+00  0.00000000E+00  0.00000000E+00
  0.00000000E+00  0.00000000E+00  0.00000000E+00
  0.00000000E+00  0.00000000E+00  0.00000000E+00
  0.00000000E+00  0.00000000E+00  0.00000000E+00
  0.00000000E+00  0.00000000E+00  0.00000000E+00
  0.00000000E+00  0.00000000E+00  0.00000000E+00
  0.00000000E+00  0.00000000E+00  0.00000000E+00
  0.00000000E+00  0.00000000E+00  0.00000000E+00
  0.00000000E+00  0.00000000E+00  0.00000000E+00
  0.00000000E+00  0.00000000E+00  0.00000000E+00
  0.00000000E+00  0.00000000E+00  0.00000000E+00
  0.00000000E+00  0.00000000E+00  0.00000000E+00
  0.00000000E+00  0.00000000E+00  0.00000000E+00
  0.00000000E+00  0.00000000E+00  0.00000000E+00
  0.00000000E+00  0.00000000E+00  0.00000000E+00
  0.00000000E+00  0.00000000E+00  0.00000000E+00
  0.00000000E+00  0.00000000E+00  0.00000000E+00
  0.00000000E+00  0.00000000E+00  0.00000000E+00
  0.00000000E+00  0.00000000E+00  0.00000000E+00
  0.00000000E+00  0.00000000E+00  0.00000000E+00
  0.00000000E+00  0.00000000E+00  0.00000000E+00
  0.00000000E+00  0.00000000E+00  0.00000000E+00
  0.00000000E+00  0.00000000E+00  0.00000000E+00
  0.00000000E+00  0.00000000E+00  0.00000000E+00
  0.00000000E+00  0.00000000E+00  0.00000000E+00
  0.00000000E+00  0.00000000E+00  0.00000000E+00
  0.00000000E+00  0.00000000E+00  0.00000000E+00
  0.00000000E+00  0.00000000E+00  0.00000000E+00
  0.00000000E+00  0.00000000E+00  0.00000000E+00
  0.00000000E+00  0.00000000E+00  0.00000000E+00
  0.00000000E+00  0.00000000E+00  0.00000000E+00
  0.00000000E+00  0.00000000E+00  0.00000000E+00
  0.00000000E+00  0.00000000E+00  0.00000000E+00
  0.00000000E+00  0.00000000E+00  0.00000000E+00
