Mo1 H1 C125 N1                          
   1.00000000000000     
    19.7985918120408968   -0.0090968880303507    0.0428377293176183
    -9.9071964780636748   17.0607275038431254   -0.1828187587815004
     0.0642990454223980   -0.2816202463026196   29.8007355299355652
   Mo   H    C    N 
     1     1   125     1
Direct
  0.4417555913710566  0.5018347282912490  0.4317158126363031
  0.4474931002032459  0.4935832030020397  0.4898070997260926
  0.0420626528636325  0.0842644637204109  0.3995787417732673
  0.0415373989008836  0.2086760975124045  0.3996240897376725
  0.0409742269777359  0.3332376760203717  0.3996599585621692
  0.0408903346021388  0.4584633058324863  0.3993664587347054
  0.0414587348788099  0.5838678331829962  0.3994091640356001
  0.0419588192332215  0.7091437269752611  0.3997498327596101
  0.0421788469588407  0.8344127192827790  0.3998985136505148
  0.0422174831861275  0.9594666743538255  0.3996924209443600
  0.1675156579390270  0.0851129449795490  0.3997260380306817
  0.1676027063428194  0.2102587895829123  0.4000583563091650
  0.1664196444611273  0.3343431341670886  0.4007843461080912
  0.1649732241278035  0.4587909878943212  0.4006381675390705
  0.1654679234321801  0.5838224229824014  0.3997840922313366
  0.1663685760770972  0.7090983581515021  0.3995775117833119
  0.1669383422319960  0.8344193684810896  0.3997583355956599
  0.1672904610646570  0.9597584777234008  0.3997478083534159
  0.2923855547382518  0.0849694096896775  0.3997226651151101
  0.2930359823836262  0.2111194132485457  0.4005687915245821
  0.2937610184539308  0.3376334584415269  0.4025324536345129
  0.2895555140969301  0.4597666522744838  0.4033812867573394
  0.2893130484687205  0.5843289005431130  0.4011952237317782
  0.2907903847592649  0.7090706726534016  0.3999239352995144
  0.2915885058342170  0.8341219212584975  0.3996545933560151
  0.2919715230259030  0.9594031419815323  0.3996119128091626
  0.4170268421487664  0.0839431561099367  0.3995899226587586
  0.4174178829133855  0.2095622352214575  0.4000311045967875
  0.4183865103416878  0.3360968003096208  0.4018629908598774
  0.4149963255043855  0.7069194342438618  0.4003767870105225
  0.4161272342013760  0.8328216729598292  0.3996570220022163
  0.4166446638034386  0.9584238621565869  0.3996261454565381
  0.5416373138218581  0.0828387388917213  0.3996718572303978
  0.5420678044689156  0.2081369925263370  0.3998281289428953
  0.5428288364681598  0.3333028772286207  0.4009960747667055
  0.5452276620824896  0.4579893558824096  0.4025129284227407
  0.5440804574499583  0.5805311788201097  0.4018689385069802
  0.5386107480556093  0.7042205611566930  0.4006716594163959
  0.5405373450366342  0.8314648491231027  0.3998819767789485
  0.5412548716518923  0.9573328015537791  0.3997889924160182
  0.6662950443751811  0.0823581580282472  0.3999296056294137
  0.6667090964493733  0.2076797587260125  0.3998097369819629
  0.6673385649340032  0.3329069142111051  0.4001451623589768
  0.6689629843709687  0.4583434411174386  0.4009242121747681
  0.6697901259672039  0.5836277111082931  0.4001950679290895
  0.6659116317726059  0.7066154665484944  0.3989959593611940
  0.6649959073567484  0.8311115128409577  0.3995679681344718
  0.6658378646604047  0.9569333485614308  0.3999304297593763
  0.7910972130398152  0.0824094806964664  0.3998370179349396
  0.7913784621737571  0.2076273636283301  0.3998577614499840
  0.7918733054224236  0.3329373165913437  0.3997420836171879
  0.7927358908224200  0.4583471254563970  0.3998370889725202
  0.7933539306939119  0.5836328018005678  0.3999007599011451
  0.7926152569969216  0.7087406907267549  0.3994698153034579
  0.7911616560298877  0.8326643463728405  0.3994583168644684
  0.7907601531110745  0.9572089307385179  0.3997541408492747
  0.9162801587262193  0.0830206387333438  0.3996342651436170
  0.9162097082394351  0.2078583558908142  0.3995212266463462
  0.9163268933429783  0.3330178499696144  0.3993982451799739
  0.9167668078061282  0.4583503085747490  0.3994528895081152
  0.9174138205507140  0.5838177385077276  0.3996857473651494
  0.9174129568999031  0.7090809417407744  0.3997878967372850
  0.9171276277899866  0.8339762031551097  0.3997215042369674
  0.9165900136657521  0.9584834381868343  0.3997104342203067
  0.0840278510295531  0.0430024798132963  0.3996040647996668
  0.0839118690212558  0.1678186242962668  0.3996566724593555
  0.0829587694798169  0.2920374016129382  0.3999282636833634
  0.0821651552295952  0.4167699817366419  0.3997703891239924
  0.0825103063948377  0.5419733541018855  0.3994233705872991
  0.0832276707041239  0.6673540706818366  0.3995341083471041
  0.0837020421949481  0.7927232488503397  0.3998583824363999
  0.0838991236308416  0.9179205270133550  0.3998117759332609
  0.2090224052313021  0.0432205018080531  0.3997116981895917
  0.2093321313251108  0.1687121638009565  0.4001067151290383
  0.2094885164069980  0.2941084001838934  0.4008489438071102
  0.2067006146366428  0.4176731604667270  0.4015751072284177
  0.2063260333888278  0.5420325144367419  0.4005319406533994
  0.2075793813790908  0.6673587992026823  0.3997409847084650
  0.2083470045252086  0.7926306118359359  0.3996587124698548
  0.2087644743726107  0.9179153930414534  0.3997270812719087
  0.3337365556492451  0.0428632213568088  0.3996005371503871
  0.3342020992696856  0.1685277917550600  0.4000476761095718
  0.3348963696695828  0.2946845360298188  0.4018219210221165
  0.3331491371554186  0.4210477929779791  0.4056943176758321
  0.3306169843779569  0.5438572768485710  0.4030668553580682
  0.3319013534478397  0.6673586681909787  0.4004908871719610
  0.3329680948894309  0.7922849200036559  0.3997109981055130
  0.3334327616498121  0.9174706026016758  0.3996050529247636
  0.4584441454282446  0.0418361387509508  0.3996120085997886
  0.4588059485005114  0.1673327813159376  0.3997587509880842
  0.4594288191261828  0.2931383658552156  0.4006357898938825
  0.4627296161736699  0.4192532446171131  0.4050344256050343
  0.4547138202523046  0.6628726443497528  0.4018279897415060
  0.4574275264161394  0.7905083383274298  0.3997538840098086
  0.4579889789323724  0.9162709266186532  0.3996728416962956
  0.5830542689203075  0.0408466189467027  0.3998034204384440
  0.5834555391224402  0.1662434615828841  0.3997080236386507
  0.5840732168595405  0.2913970414838899  0.4002759437336019
  0.5859954393023697  0.4164590346682085  0.4018313453979157
  0.5876041378135056  0.5420175093147493  0.4009822379523968
  0.5814547675246989  0.6629411672453341  0.3999372942114878
  0.5809883416779437  0.7883591711370573  0.3999281057008464
  0.5825328741932836  0.9151818573445850  0.3998834832502321
  0.7077140985749681  0.0404887707969411  0.3999457608375055
  0.7081318867764986  0.1658824564174267  0.3999123188279120
  0.7086232225987127  0.2911642060191288  0.3998704667111506
  0.7097364240941536  0.4165144364414696  0.4002363522293461
  0.7107897866138184  0.5417687327685423  0.4004501460507628
  0.7093462534998248  0.6666805351395637  0.3993163878707296
  0.7074152390580151  0.7901937955234940  0.3992138052871306
  0.7071080226720619  0.9148701399643657  0.3997762078578601
  0.8327298734778840  0.0408367183526846  0.3997521284161745
  0.8328884947359093  0.1659366637783312  0.3997485250268089
  0.8331943866967219  0.2911868027572214  0.3996662535918304
  0.8337693572547333  0.4164537422559833  0.3996610854304605
  0.8344786243863950  0.5418507082010885  0.3998006386465975
  0.8343704354202167  0.6672546166696851  0.3997116566052389
  0.8337566020897621  0.7919652334661054  0.3995205407496499
  0.8329452138609699  0.9161863621790727  0.3996861570082912
  0.9584236331870866  0.0419759354631158  0.3996437063501885
  0.9580637412726979  0.1665229328078909  0.3995210123238847
  0.9578304029873420  0.2913499415805686  0.3994134765793829
  0.9578927327978717  0.4165071706188438  0.3993008954885477
  0.9585084252473940  0.5419710359479828  0.3995074939079997
  0.9588864834946738  0.6673489534632434  0.3997783645174733
  0.9589212031154812  0.7925857675445317  0.3998260563230309
  0.9587534510650577  0.9174224476002965  0.3997130257814903
  0.4108310299589221  0.5818177097133099  0.4051150603112974
 
  0.00000000E+00  0.00000000E+00  0.00000000E+00
  0.00000000E+00  0.00000000E+00  0.00000000E+00
  0.00000000E+00  0.00000000E+00  0.00000000E+00
  0.00000000E+00  0.00000000E+00  0.00000000E+00
  0.00000000E+00  0.00000000E+00  0.00000000E+00
  0.00000000E+00  0.00000000E+00  0.00000000E+00
  0.00000000E+00  0.00000000E+00  0.00000000E+00
  0.00000000E+00  0.00000000E+00  0.00000000E+00
  0.00000000E+00  0.00000000E+00  0.00000000E+00
  0.00000000E+00  0.00000000E+00  0.00000000E+00
  0.00000000E+00  0.00000000E+00  0.00000000E+00
  0.00000000E+00  0.00000000E+00  0.00000000E+00
  0.00000000E+00  0.00000000E+00  0.00000000E+00
  0.00000000E+00  0.00000000E+00  0.00000000E+00
  0.00000000E+00  0.00000000E+00  0.00000000E+00
  0.00000000E+00  0.00000000E+00  0.00000000E+00
  0.00000000E+00  0.00000000E+00  0.00000000E+00
  0.00000000E+00  0.00000000E+00  0.00000000E+00
  0.00000000E+00  0.00000000E+00  0.00000000E+00
  0.00000000E+00  0.00000000E+00  0.00000000E+00
  0.00000000E+00  0.00000000E+00  0.00000000E+00
  0.00000000E+00  0.00000000E+00  0.00000000E+00
  0.00000000E+00  0.00000000E+00  0.00000000E+00
  0.00000000E+00  0.00000000E+00  0.00000000E+00
  0.00000000E+00  0.00000000E+00  0.00000000E+00
  0.00000000E+00  0.00000000E+00  0.00000000E+00
  0.00000000E+00  0.00000000E+00  0.00000000E+00
  0.00000000E+00  0.00000000E+00  0.00000000E+00
  0.00000000E+00  0.00000000E+00  0.00000000E+00
  0.00000000E+00  0.00000000E+00  0.00000000E+00
  0.00000000E+00  0.00000000E+00  0.00000000E+00
  0.00000000E+00  0.00000000E+00  0.00000000E+00
  0.00000000E+00  0.00000000E+00  0.00000000E+00
  0.00000000E+00  0.00000000E+00  0.00000000E+00
  0.00000000E+00  0.00000000E+00  0.00000000E+00
  0.00000000E+00  0.00000000E+00  0.00000000E+00
  0.00000000E+00  0.00000000E+00  0.00000000E+00
  0.00000000E+00  0.00000000E+00  0.00000000E+00
  0.00000000E+00  0.00000000E+00  0.00000000E+00
  0.00000000E+00  0.00000000E+00  0.00000000E+00
  0.00000000E+00  0.00000000E+00  0.00000000E+00
  0.00000000E+00  0.00000000E+00  0.00000000E+00
  0.00000000E+00  0.00000000E+00  0.00000000E+00
  0.00000000E+00  0.00000000E+00  0.00000000E+00
  0.00000000E+00  0.00000000E+00  0.00000000E+00
  0.00000000E+00  0.00000000E+00  0.00000000E+00
  0.00000000E+00  0.00000000E+00  0.00000000E+00
  0.00000000E+00  0.00000000E+00  0.00000000E+00
  0.00000000E+00  0.00000000E+00  0.00000000E+00
  0.00000000E+00  0.00000000E+00  0.00000000E+00
  0.00000000E+00  0.00000000E+00  0.00000000E+00
  0.00000000E+00  0.00000000E+00  0.00000000E+00
  0.00000000E+00  0.00000000E+00  0.00000000E+00
  0.00000000E+00  0.00000000E+00  0.00000000E+00
  0.00000000E+00  0.00000000E+00  0.00000000E+00
  0.00000000E+00  0.00000000E+00  0.00000000E+00
  0.00000000E+00  0.00000000E+00  0.00000000E+00
  0.00000000E+00  0.00000000E+00  0.00000000E+00
  0.00000000E+00  0.00000000E+00  0.00000000E+00
  0.00000000E+00  0.00000000E+00  0.00000000E+00
  0.00000000E+00  0.00000000E+00  0.00000000E+00
  0.00000000E+00  0.00000000E+00  0.00000000E+00
  0.00000000E+00  0.00000000E+00  0.00000000E+00
  0.00000000E+00  0.00000000E+00  0.00000000E+00
  0.00000000E+00  0.00000000E+00  0.00000000E+00
  0.00000000E+00  0.00000000E+00  0.00000000E+00
  0.00000000E+00  0.00000000E+00  0.00000000E+00
  0.00000000E+00  0.00000000E+00  0.00000000E+00
  0.00000000E+00  0.00000000E+00  0.00000000E+00
  0.00000000E+00  0.00000000E+00  0.00000000E+00
  0.00000000E+00  0.00000000E+00  0.00000000E+00
  0.00000000E+00  0.00000000E+00  0.00000000E+00
  0.00000000E+00  0.00000000E+00  0.00000000E+00
  0.00000000E+00  0.00000000E+00  0.00000000E+00
  0.00000000E+00  0.00000000E+00  0.00000000E+00
  0.00000000E+00  0.00000000E+00  0.00000000E+00
  0.00000000E+00  0.00000000E+00  0.00000000E+00
  0.00000000E+00  0.00000000E+00  0.00000000E+00
  0.00000000E+00  0.00000000E+00  0.00000000E+00
  0.00000000E+00  0.00000000E+00  0.00000000E+00
  0.00000000E+00  0.00000000E+00  0.00000000E+00
  0.00000000E+00  0.00000000E+00  0.00000000E+00
  0.00000000E+00  0.00000000E+00  0.00000000E+00
  0.00000000E+00  0.00000000E+00  0.00000000E+00
  0.00000000E+00  0.00000000E+00  0.00000000E+00
  0.00000000E+00  0.00000000E+00  0.00000000E+00
  0.00000000E+00  0.00000000E+00  0.00000000E+00
  0.00000000E+00  0.00000000E+00  0.00000000E+00
  0.00000000E+00  0.00000000E+00  0.00000000E+00
  0.00000000E+00  0.00000000E+00  0.00000000E+00
  0.00000000E+00  0.00000000E+00  0.00000000E+00
  0.00000000E+00  0.00000000E+00  0.00000000E+00
  0.00000000E+00  0.00000000E+00  0.00000000E+00
  0.00000000E+00  0.00000000E+00  0.00000000E+00
  0.00000000E+00  0.00000000E+00  0.00000000E+00
  0.00000000E+00  0.00000000E+00  0.00000000E+00
  0.00000000E+00  0.00000000E+00  0.00000000E+00
  0.00000000E+00  0.00000000E+00  0.00000000E+00
  0.00000000E+00  0.00000000E+00  0.00000000E+00
  0.00000000E+00  0.00000000E+00  0.00000000E+00
  0.00000000E+00  0.00000000E+00  0.00000000E+00
  0.00000000E+00  0.00000000E+00  0.00000000E+00
  0.00000000E+00  0.00000000E+00  0.00000000E+00
  0.00000000E+00  0.00000000E+00  0.00000000E+00
  0.00000000E+00  0.00000000E+00  0.00000000E+00
  0.00000000E+00  0.00000000E+00  0.00000000E+00
  0.00000000E+00  0.00000000E+00  0.00000000E+00
  0.00000000E+00  0.00000000E+00  0.00000000E+00
  0.00000000E+00  0.00000000E+00  0.00000000E+00
  0.00000000E+00  0.00000000E+00  0.00000000E+00
  0.00000000E+00  0.00000000E+00  0.00000000E+00
  0.00000000E+00  0.00000000E+00  0.00000000E+00
  0.00000000E+00  0.00000000E+00  0.00000000E+00
  0.00000000E+00  0.00000000E+00  0.00000000E+00
  0.00000000E+00  0.00000000E+00  0.00000000E+00
  0.00000000E+00  0.00000000E+00  0.00000000E+00
  0.00000000E+00  0.00000000E+00  0.00000000E+00
  0.00000000E+00  0.00000000E+00  0.00000000E+00
  0.00000000E+00  0.00000000E+00  0.00000000E+00
  0.00000000E+00  0.00000000E+00  0.00000000E+00
  0.00000000E+00  0.00000000E+00  0.00000000E+00
  0.00000000E+00  0.00000000E+00  0.00000000E+00
  0.00000000E+00  0.00000000E+00  0.00000000E+00
  0.00000000E+00  0.00000000E+00  0.00000000E+00
  0.00000000E+00  0.00000000E+00  0.00000000E+00
  0.00000000E+00  0.00000000E+00  0.00000000E+00
  0.00000000E+00  0.00000000E+00  0.00000000E+00
  0.00000000E+00  0.00000000E+00  0.00000000E+00
