Mo1 H1 C122 N4 O1                       
   1.00000000000000     
    19.8019094887571825    0.0003383668130514    0.0083558947508471
    -9.9009998644980168   17.0115851124909057   -0.3223180547434269
     0.0126047020256822   -0.5577308757762587   29.8811696472200765
   Mo   H    C    N    O 
     1     1   122     4     1
Direct
  0.4380808369510270  0.5029351039136027  0.4348402555069398
  0.4783972048341843  0.5123210949749948  0.5184255961331917
  0.0423574004204962  0.0845630902381196  0.3998848482685468
  0.0414411155345651  0.2085952516397992  0.3993390683355012
  0.0405732049151621  0.3332109027936886  0.3979981008523649
  0.0404429873364061  0.4582892409312560  0.3968958751614241
  0.0412697408117911  0.5837274816727192  0.3968482534725975
  0.0420631572262260  0.7092243063814312  0.3976430940145713
  0.0423402503902518  0.8345152019151604  0.3987832169228850
  0.0425419806987045  0.9597965815039685  0.3995900079437932
  0.1683814607749449  0.0862602957320623  0.4008285261242818
  0.1682535390294740  0.2111494230941989  0.4009749222357740
  0.1655563390444607  0.3342799096286258  0.3999127397891906
  0.1642175934523117  0.4586665951115735  0.3979108607006940
  0.1651199755035102  0.5837380694573572  0.3972698222990986
  0.1664187306259359  0.7090090188625628  0.3978072202449372
  0.1671258094809117  0.8345039046648013  0.3988489421403071
  0.1676374708942293  0.9603024677197090  0.3999464737604881
  0.2928834968113795  0.0863076377183549  0.4010174043259297
  0.2946122472646135  0.2142542026952457  0.4030409009964248
  0.2934961337042756  0.3401010066100262  0.4046998738844890
  0.2875809151820953  0.4590541546856854  0.4022537278994380
  0.2885316570300001  0.5832252209233660  0.3991755188614949
  0.2908631499341374  0.7083789194020776  0.3986454251832017
  0.2918535148234737  0.8340416960723460  0.3989212632709220
  0.2922487708165575  0.9598986578520846  0.3997076074266370
  0.4172297566593960  0.0847064533124623  0.4000631391122174
  0.4179226440017859  0.2113544843739292  0.4015641587240154
  0.4216531861972107  0.3403625227858131  0.4059870124372558
  0.4150938348154065  0.7057158726646777  0.4009464510025710
  0.4163259140812341  0.8323104120101003  0.3996370130478342
  0.4167698945931043  0.9584382474009345  0.3994826188529957
  0.5416049975637507  0.0829429856502762  0.3993542551601036
  0.5421803591459898  0.2086792921377762  0.3996412416520126
  0.5437761417566406  0.3343727094408845  0.4006847825415902
  0.5466844385199590  0.4592563080103974  0.4037679445643915
  0.5383539618135716  0.7017282747432916  0.4049140506455209
  0.5405866938790815  0.8303239107241278  0.4012334120466837
  0.5412960743638682  0.9569527709227066  0.3998056354178511
  0.6661966188214954  0.0822084051554414  0.3993110637661191
  0.6667049075832023  0.2077341807605465  0.3985992588496622
  0.6676216316381740  0.3332142158720368  0.3979827722585409
  0.6693531261090145  0.4586233752525918  0.3977638992292221
  0.6696358327616380  0.5832453424552663  0.3997999377244231
  0.6654469789535888  0.7055494158683724  0.4020867843572864
  0.6646727284596557  0.8302776829362873  0.4015896827261107
  0.6657554731350981  0.9565325517010175  0.4003753963859844
  0.7909958349563304  0.0821942940554572  0.3993845000619277
  0.7912705312596913  0.2075585388334258  0.3984699728241011
  0.7917554839565851  0.3328773555282733  0.3974684723104691
  0.7927913794704572  0.4582709005322886  0.3966406976369443
  0.7935327573206190  0.5837056642211776  0.3969702453336470
  0.7924633776712842  0.7083350015293528  0.3989310493240241
  0.7908537422596936  0.8322070686698850  0.4000019290023827
  0.7905795552216897  0.9568778240265314  0.4000012159626079
  0.9162470720146388  0.0828728120708009  0.3993613140713851
  0.9160386715255499  0.2077327144004152  0.3985798744120292
  0.9160700153478445  0.3328746444561430  0.3975047008132136
  0.9165985687622642  0.4582747594231996  0.3967635866034716
  0.9173791552674527  0.5837295876043985  0.3967078791823014
  0.9175307714500972  0.7090004916892414  0.3976493283542126
  0.9171140450763593  0.8339591095774475  0.3988958916689917
  0.9165934763836925  0.9583690416217308  0.3994907192659994
  0.0846956665396676  0.0436839960434762  0.4001113497842508
  0.0843496470358788  0.1683120702462153  0.4000245881851926
  0.0827654554665364  0.2920808869650914  0.3989806481426433
  0.0815210186059856  0.4164639056239487  0.3974119721865448
  0.0822100716618492  0.5418291827938526  0.3968422957849682
  0.0832667340047165  0.6673205924622074  0.3973309159519998
  0.0838726030482847  0.7928152821112371  0.3984422115478420
  0.0842440940387193  0.9183161801714838  0.3994803189571221
  0.2095994182425997  0.0442136322821302  0.4007097484326839
  0.2107493130909575  0.1705879898419115  0.4016836351101432
  0.2098456219925655  0.2951476251172433  0.4013895857601164
  0.2056161454200722  0.4173459253703712  0.3994719414576189
  0.2056846088110211  0.5416479300179152  0.3978141427570537
  0.2074586733308503  0.6670635203586385  0.3977889199287091
  0.2084674162323706  0.7926425147601421  0.3985061799179033
  0.2090362604174419  0.9183288760676440  0.3995576861508212
  0.3339941998271176  0.0437850309765249  0.4002869984472144
  0.3348505996334525  0.1706656599210627  0.4020293365036989
  0.3373609458966420  0.2997234297743657  0.4053710871995759
  0.3290234593311527  0.5419585599896638  0.4020498322285170
  0.3315600385846518  0.6663504122309388  0.3994911247941543
  0.3330881910231660  0.7919183118292604  0.3990400511165784
  0.3336183814208411  0.9176712683328775  0.3993634794141812
  0.4584563520080314  0.0421929803113773  0.3995870491036378
  0.4589702022240817  0.1684722115348263  0.4003736693193097
  0.4603619720413448  0.2954306316885180  0.4024939659979312
  0.4540634091661821  0.6612511218110841  0.4042332369208976
  0.4574797606071933  0.7896482223731274  0.4005292023835105
  0.4580622263798613  0.9160413073913612  0.3995831150203786
  0.5830057163550993  0.0407499880315866  0.3994297268196886
  0.5833602828652590  0.1665005112652367  0.3991398913693947
  0.5843303076075066  0.2921578315608840  0.3993176226747570
  0.5866797492974606  0.4173691119345638  0.4000316037448405
  0.5880247802800155  0.5419010039327958  0.4036457337665197
  0.5820619893172495  0.6611666485198081  0.4055941727524368
  0.5809209915190127  0.7868991450327633  0.4025684077546511
  0.5824919475390528  0.9145129660564039  0.4004626773747653
  0.7076521099963622  0.0403122414137420  0.3996687665983198
  0.7080588897651650  0.1658991817356872  0.3987795463733969
  0.7086434046272510  0.2912479695342634  0.3979426752862830
  0.7098979172796385  0.4164496255107879  0.3971680680659650
  0.7108447887266465  0.5416260984975156  0.3976716919054974
  0.7097824796096778  0.6663476072998860  0.4003329948311608
  0.7070083395127832  0.7895078449373724  0.4011458066236802
  0.7069918683851552  0.9144925088858080  0.4006494089169028
  0.8326701318828031  0.0406793829201970  0.3995445264452024
  0.8328538651869385  0.1659032609302321  0.3987985691042771
  0.8329922977040110  0.2910248284227687  0.3977946998854983
  0.8337059489212177  0.4163768535569736  0.3968796685984458
  0.8345438324882360  0.5418003087398008  0.3965416579680300
  0.8345326054314365  0.6670363050718471  0.3976617001299181
  0.8337847956984582  0.7918828974743990  0.3992545615753895
  0.8328893970410584  0.9159552937680437  0.3997686774131046
  0.9586543321048160  0.0421281753584525  0.3995400024785671
  0.9580813343171305  0.1664285804580752  0.3990522087097421
  0.9575945632524727  0.2912586853655202  0.3979565664480081
  0.9576152267211666  0.4163764272132885  0.3969641750620698
  0.9583562440233451  0.5417933695294888  0.3966718582092710
  0.9589664425279933  0.6673085115758797  0.3972232275284425
  0.9591359057198469  0.7926147418174520  0.3984160909895474
  0.9589386947098881  0.9175740465739968  0.3992876218142138
  0.4095843125309396  0.5799842509215316  0.4077287501903320
  0.5452799811544141  0.5796814159343041  0.4104486577800275
  0.3305186419069139  0.4218392541592463  0.4080950749245025
  0.4666494937289205  0.4224784201904048  0.4106225304143259
  0.4391505878932465  0.5084797888569673  0.4972816578823990
 
  0.00000000E+00  0.00000000E+00  0.00000000E+00
  0.00000000E+00  0.00000000E+00  0.00000000E+00
  0.00000000E+00  0.00000000E+00  0.00000000E+00
  0.00000000E+00  0.00000000E+00  0.00000000E+00
  0.00000000E+00  0.00000000E+00  0.00000000E+00
  0.00000000E+00  0.00000000E+00  0.00000000E+00
  0.00000000E+00  0.00000000E+00  0.00000000E+00
  0.00000000E+00  0.00000000E+00  0.00000000E+00
  0.00000000E+00  0.00000000E+00  0.00000000E+00
  0.00000000E+00  0.00000000E+00  0.00000000E+00
  0.00000000E+00  0.00000000E+00  0.00000000E+00
  0.00000000E+00  0.00000000E+00  0.00000000E+00
  0.00000000E+00  0.00000000E+00  0.00000000E+00
  0.00000000E+00  0.00000000E+00  0.00000000E+00
  0.00000000E+00  0.00000000E+00  0.00000000E+00
  0.00000000E+00  0.00000000E+00  0.00000000E+00
  0.00000000E+00  0.00000000E+00  0.00000000E+00
  0.00000000E+00  0.00000000E+00  0.00000000E+00
  0.00000000E+00  0.00000000E+00  0.00000000E+00
  0.00000000E+00  0.00000000E+00  0.00000000E+00
  0.00000000E+00  0.00000000E+00  0.00000000E+00
  0.00000000E+00  0.00000000E+00  0.00000000E+00
  0.00000000E+00  0.00000000E+00  0.00000000E+00
  0.00000000E+00  0.00000000E+00  0.00000000E+00
  0.00000000E+00  0.00000000E+00  0.00000000E+00
  0.00000000E+00  0.00000000E+00  0.00000000E+00
  0.00000000E+00  0.00000000E+00  0.00000000E+00
  0.00000000E+00  0.00000000E+00  0.00000000E+00
  0.00000000E+00  0.00000000E+00  0.00000000E+00
  0.00000000E+00  0.00000000E+00  0.00000000E+00
  0.00000000E+00  0.00000000E+00  0.00000000E+00
  0.00000000E+00  0.00000000E+00  0.00000000E+00
  0.00000000E+00  0.00000000E+00  0.00000000E+00
  0.00000000E+00  0.00000000E+00  0.00000000E+00
  0.00000000E+00  0.00000000E+00  0.00000000E+00
  0.00000000E+00  0.00000000E+00  0.00000000E+00
  0.00000000E+00  0.00000000E+00  0.00000000E+00
  0.00000000E+00  0.00000000E+00  0.00000000E+00
  0.00000000E+00  0.00000000E+00  0.00000000E+00
  0.00000000E+00  0.00000000E+00  0.00000000E+00
  0.00000000E+00  0.00000000E+00  0.00000000E+00
  0.00000000E+00  0.00000000E+00  0.00000000E+00
  0.00000000E+00  0.00000000E+00  0.00000000E+00
  0.00000000E+00  0.00000000E+00  0.00000000E+00
  0.00000000E+00  0.00000000E+00  0.00000000E+00
  0.00000000E+00  0.00000000E+00  0.00000000E+00
  0.00000000E+00  0.00000000E+00  0.00000000E+00
  0.00000000E+00  0.00000000E+00  0.00000000E+00
  0.00000000E+00  0.00000000E+00  0.00000000E+00
  0.00000000E+00  0.00000000E+00  0.00000000E+00
  0.00000000E+00  0.00000000E+00  0.00000000E+00
  0.00000000E+00  0.00000000E+00  0.00000000E+00
  0.00000000E+00  0.00000000E+00  0.00000000E+00
  0.00000000E+00  0.00000000E+00  0.00000000E+00
  0.00000000E+00  0.00000000E+00  0.00000000E+00
  0.00000000E+00  0.00000000E+00  0.00000000E+00
  0.00000000E+00  0.00000000E+00  0.00000000E+00
  0.00000000E+00  0.00000000E+00  0.00000000E+00
  0.00000000E+00  0.00000000E+00  0.00000000E+00
  0.00000000E+00  0.00000000E+00  0.00000000E+00
  0.00000000E+00  0.00000000E+00  0.00000000E+00
  0.00000000E+00  0.00000000E+00  0.00000000E+00
  0.00000000E+00  0.00000000E+00  0.00000000E+00
  0.00000000E+00  0.00000000E+00  0.00000000E+00
  0.00000000E+00  0.00000000E+00  0.00000000E+00
  0.00000000E+00  0.00000000E+00  0.00000000E+00
  0.00000000E+00  0.00000000E+00  0.00000000E+00
  0.00000000E+00  0.00000000E+00  0.00000000E+00
  0.00000000E+00  0.00000000E+00  0.00000000E+00
  0.00000000E+00  0.00000000E+00  0.00000000E+00
  0.00000000E+00  0.00000000E+00  0.00000000E+00
  0.00000000E+00  0.00000000E+00  0.00000000E+00
  0.00000000E+00  0.00000000E+00  0.00000000E+00
  0.00000000E+00  0.00000000E+00  0.00000000E+00
  0.00000000E+00  0.00000000E+00  0.00000000E+00
  0.00000000E+00  0.00000000E+00  0.00000000E+00
  0.00000000E+00  0.00000000E+00  0.00000000E+00
  0.00000000E+00  0.00000000E+00  0.00000000E+00
  0.00000000E+00  0.00000000E+00  0.00000000E+00
  0.00000000E+00  0.00000000E+00  0.00000000E+00
  0.00000000E+00  0.00000000E+00  0.00000000E+00
  0.00000000E+00  0.00000000E+00  0.00000000E+00
  0.00000000E+00  0.00000000E+00  0.00000000E+00
  0.00000000E+00  0.00000000E+00  0.00000000E+00
  0.00000000E+00  0.00000000E+00  0.00000000E+00
  0.00000000E+00  0.00000000E+00  0.00000000E+00
  0.00000000E+00  0.00000000E+00  0.00000000E+00
  0.00000000E+00  0.00000000E+00  0.00000000E+00
  0.00000000E+00  0.00000000E+00  0.00000000E+00
  0.00000000E+00  0.00000000E+00  0.00000000E+00
  0.00000000E+00  0.00000000E+00  0.00000000E+00
  0.00000000E+00  0.00000000E+00  0.00000000E+00
  0.00000000E+00  0.00000000E+00  0.00000000E+00
  0.00000000E+00  0.00000000E+00  0.00000000E+00
  0.00000000E+00  0.00000000E+00  0.00000000E+00
  0.00000000E+00  0.00000000E+00  0.00000000E+00
  0.00000000E+00  0.00000000E+00  0.00000000E+00
  0.00000000E+00  0.00000000E+00  0.00000000E+00
  0.00000000E+00  0.00000000E+00  0.00000000E+00
  0.00000000E+00  0.00000000E+00  0.00000000E+00
  0.00000000E+00  0.00000000E+00  0.00000000E+00
  0.00000000E+00  0.00000000E+00  0.00000000E+00
  0.00000000E+00  0.00000000E+00  0.00000000E+00
  0.00000000E+00  0.00000000E+00  0.00000000E+00
  0.00000000E+00  0.00000000E+00  0.00000000E+00
  0.00000000E+00  0.00000000E+00  0.00000000E+00
  0.00000000E+00  0.00000000E+00  0.00000000E+00
  0.00000000E+00  0.00000000E+00  0.00000000E+00
  0.00000000E+00  0.00000000E+00  0.00000000E+00
  0.00000000E+00  0.00000000E+00  0.00000000E+00
  0.00000000E+00  0.00000000E+00  0.00000000E+00
  0.00000000E+00  0.00000000E+00  0.00000000E+00
  0.00000000E+00  0.00000000E+00  0.00000000E+00
  0.00000000E+00  0.00000000E+00  0.00000000E+00
  0.00000000E+00  0.00000000E+00  0.00000000E+00
  0.00000000E+00  0.00000000E+00  0.00000000E+00
  0.00000000E+00  0.00000000E+00  0.00000000E+00
  0.00000000E+00  0.00000000E+00  0.00000000E+00
  0.00000000E+00  0.00000000E+00  0.00000000E+00
  0.00000000E+00  0.00000000E+00  0.00000000E+00
  0.00000000E+00  0.00000000E+00  0.00000000E+00
  0.00000000E+00  0.00000000E+00  0.00000000E+00
  0.00000000E+00  0.00000000E+00  0.00000000E+00
  0.00000000E+00  0.00000000E+00  0.00000000E+00
  0.00000000E+00  0.00000000E+00  0.00000000E+00
  0.00000000E+00  0.00000000E+00  0.00000000E+00
  0.00000000E+00  0.00000000E+00  0.00000000E+00
  0.00000000E+00  0.00000000E+00  0.00000000E+00
  0.00000000E+00  0.00000000E+00  0.00000000E+00
