Ti1 H1 C126 O2                          
   1.00000000000000     
    19.8178430732196880   -0.0007923355027309   -0.1618203293005092
    -9.9097338763173699   17.0668175081351343   -0.1115547308362691
    -0.2422623272257958   -0.3348231873519308   29.7568692273073978
   Ti   H    C    O 
     1     1   126     2
Direct
  0.4359514776035481  0.5015395517039910  0.4377891525775997
  0.5375501876247866  0.5587151659599282  0.5105260631244113
  0.0419544271674888  0.0838506539951212  0.3994180275087084
  0.0410020011865532  0.2081207178289183  0.3991050420686389
  0.0405660643484715  0.3329569201886368  0.3987901485631140
  0.0406744156019728  0.4584342363143783  0.3989365557322183
  0.0415096128446638  0.5838754810282561  0.3996789995721833
  0.0422054335034286  0.7091606773143135  0.4000998930596247
  0.0424801141072932  0.8344546043739643  0.3999548132084152
  0.0425112299984170  0.9594302031245699  0.3996183822057028
  0.1676713436434589  0.0850983909340661  0.3998710288042141
  0.1668800448077363  0.2094179785788013  0.4002824924544873
  0.1653377476176665  0.3331820100513444  0.3999239312857018
  0.1643451575440867  0.4584080572195089  0.3989524896041557
  0.1652869990224398  0.5837243076754863  0.3985042418922033
  0.1665964478074371  0.7091443110579057  0.3992946171388580
  0.1672272295671478  0.8344598476889687  0.3998430596673975
  0.1675247725830382  0.9597521041677445  0.3997386010843550
  0.2927592124158701  0.0850911691588282  0.3999621675736409
  0.2934751815289822  0.2114280304871716  0.4022558977999798
  0.2921151994535996  0.3364681400112095  0.4044857656857397
  0.2876138261679617  0.4577310745242616  0.4028759020802720
  0.2891813194334436  0.5840306026892539  0.3997946975792471
  0.2910529783458409  0.7090528611440682  0.3986447044097027
  0.2917024534313005  0.8340645245246169  0.3992584233298586
  0.2922290968809593  0.9594329844227186  0.3995570232920406
  0.4172162095816165  0.0839009804622839  0.3993273491688396
  0.4179183193729504  0.2095500071024863  0.4003558690755917
  0.4202405840077468  0.3366989522518387  0.4065078835365309
  0.4120668116773676  0.5819408435106822  0.4060355327311309
  0.4156055986326674  0.7075525761519001  0.4001027113249732
  0.4164372621339451  0.8331716651063628  0.3990983702594428
  0.4168894462811119  0.9585680418534356  0.3994269447337246
  0.5419478017091395  0.0829479820950082  0.3995056325192252
  0.5423699605702049  0.2081426396654287  0.3988762231009401
  0.5431692343036691  0.3332455891701314  0.3996773562211450
  0.5458238471094645  0.4579067310570172  0.4051015906811462
  0.5464617177979171  0.5823083369246947  0.4114690142728122
  0.5408299791567733  0.7059130012436845  0.4043214538016836
  0.5409595096512381  0.8318131378690370  0.3999584460067934
  0.5414872833406411  0.9575030634861648  0.3995603626886200
  0.6665409312541627  0.0825171348981116  0.3999633316023640
  0.6669191856526493  0.2077722052452093  0.3994848176661981
  0.6675916738256144  0.3329709720823337  0.3983177968958969
  0.6690481623413411  0.4583436887769925  0.3975756714889812
  0.6698183002859001  0.5838738991276264  0.3991465351889089
  0.6672667974513613  0.7074576675842781  0.4006719196775081
  0.6662154120423279  0.8318432412505542  0.4002094630805962
  0.6662566644602357  0.9571733891940645  0.3998159968514625
  0.7913164798758345  0.0825060762566827  0.3998517774213161
  0.7915150303312950  0.2077098853394184  0.3999815857025195
  0.7919818178459621  0.3330311951091310  0.3996735155202539
  0.7928521723809661  0.4584008665967537  0.3986159184878277
  0.7934528391950645  0.5836507340432435  0.3976327073737986
  0.7930988011906432  0.7089477718019771  0.3981532707622137
  0.7919578074599284  0.8330948918247040  0.3989518277239263
  0.7913380887113957  0.9575075269826493  0.3995493824767695
  0.9163191381750021  0.0829228308428265  0.3994704122227300
  0.9161206279381305  0.2077576399573612  0.3993948156790115
  0.9163056975773152  0.3330463407578244  0.3996186858297192
  0.9168015455316828  0.4584224477888690  0.3999247722623206
  0.9175041117872553  0.5838632861838582  0.3996737834641830
  0.9177298823550365  0.7091178183734927  0.3992276081750009
  0.9175959286602769  0.8340464834358173  0.3992351212757895
  0.9169467814114219  0.9585304705886126  0.3994417507065418
  0.0841787293777409  0.0428895149711127  0.3995314418448654
  0.0834348419290318  0.1671724607925680  0.3994448759941673
  0.0821734854933736  0.2912740998780463  0.3989970727648748
  0.0817237284697030  0.4165825728084624  0.3986107415852928
  0.0824180302822589  0.5419225118229434  0.3989522869685550
  0.0834533428523857  0.6673640717296923  0.3997789705748266
  0.0839988171528224  0.7927224834551007  0.4000674789608716
  0.0842071882762079  0.9178967503015185  0.3997949435967057
  0.2092907337941206  0.0432377232048547  0.3998383078984409
  0.2093938304394661  0.1686240951391355  0.4007139420234904
  0.2082473649919827  0.2928398469247286  0.4010685603264338
  0.2053227465880989  0.4163492729917830  0.4002273161704435
  0.2061029098378412  0.5419098454917280  0.3987967771149803
  0.2077585479448412  0.6673638406244166  0.3986840478624670
  0.2085470552282779  0.7926157569205796  0.3994968429906489
  0.2089899088580398  0.9178996573615482  0.3997314768133333
  0.3340254269872335  0.0428878003591106  0.3995362519802416
  0.3346405241114905  0.1686290830437070  0.4009425608117980
  0.3353540743461513  0.2948704745215749  0.4054202833800145
  0.3303998943706620  0.4188284540439844  0.4064922026142015
  0.3302129252240748  0.5428674783485733  0.4026136944926137
  0.3323167624494519  0.6671631984268026  0.3992471062756879
  0.3330500866322679  0.7922104839856258  0.3989054553141317
  0.3335805749904176  0.9174573235822407  0.3994418845275525
  0.4586206188565697  0.0418467598611682  0.3994058351994206
  0.4590587615125902  0.1672466474328858  0.3992558044008447
  0.4600800056481738  0.2930186631148340  0.4016390655663269
  0.4648609252435234  0.4190362777323153  0.4116326470523606
  0.4559846008338104  0.6641499291614017  0.4035142131742519
  0.4576460057577439  0.7909437392015828  0.3994901102009642
  0.4582924587881854  0.9165104630852423  0.3993491353054478
  0.5833121709034226  0.0409759037981863  0.3997524302658064
  0.5837516592129602  0.1663017355828173  0.3992113415309727
  0.5842965375755820  0.2913140786770502  0.3985421037533799
  0.5861289811318767  0.4164235100114621  0.3996148623120231
  0.5882916990578009  0.5428451655489703  0.4049114862585499
  0.5839277441930574  0.6641472544177840  0.4056566256767186
  0.5822783330558275  0.7891051642817160  0.4012311400799222
  0.5827664617921978  0.9153106103901070  0.3996676126235308
  0.7079993314310876  0.0406555231802220  0.3999255337494530
  0.7082628769773480  0.1659652174540058  0.3999490198351179
  0.7088102781080593  0.2912342691438244  0.3991513141248991
  0.7099235771428797  0.4165441672547285  0.3978020587411528
  0.7107615661913966  0.5417942065121180  0.3973848144611894
  0.7100531706762978  0.6670680593832999  0.3989520820360989
  0.7085314094936599  0.7908598980510579  0.3995855722088504
  0.7078748277204904  0.9153302573430866  0.3997496049354671
  0.8330101534115985  0.0409603500386244  0.3996544451066320
  0.8329920550775803  0.1659486892829794  0.3998225344408551
  0.8332785253155605  0.2912671464128456  0.3999217802154948
  0.8338492608040592  0.4165289016298440  0.3996047517474038
  0.8345871125705772  0.5418863693269232  0.3986067985369633
  0.8347274221415760  0.6672775130369692  0.3981627858847279
  0.8343572108328268  0.7921557494426462  0.3986842854253523
  0.8334882977373762  0.9164671211766109  0.3993266518817146
  0.9585076918361618  0.0418069195404669  0.3994456935486524
  0.9578115866032815  0.1662868015766766  0.3992278107047941
  0.9576460929768690  0.2912152507878306  0.3991886958741940
  0.9578500940080440  0.4165350570828663  0.3995783267815067
  0.9585982996186534  0.5420206026476901  0.3999854917087332
  0.9591322863569256  0.6673683867179913  0.3998195015378777
  0.9593032183004047  0.7925983623338703  0.3995691195862441
  0.9591724722672295  0.9174376790102999  0.3994879496172892
  0.5006640908844997  0.5041145643653896  0.5017106233113655
  0.4252731800194954  0.5027596160791787  0.5017414887499076
 
  0.00000000E+00  0.00000000E+00  0.00000000E+00
  0.00000000E+00  0.00000000E+00  0.00000000E+00
  0.00000000E+00  0.00000000E+00  0.00000000E+00
  0.00000000E+00  0.00000000E+00  0.00000000E+00
  0.00000000E+00  0.00000000E+00  0.00000000E+00
  0.00000000E+00  0.00000000E+00  0.00000000E+00
  0.00000000E+00  0.00000000E+00  0.00000000E+00
  0.00000000E+00  0.00000000E+00  0.00000000E+00
  0.00000000E+00  0.00000000E+00  0.00000000E+00
  0.00000000E+00  0.00000000E+00  0.00000000E+00
  0.00000000E+00  0.00000000E+00  0.00000000E+00
  0.00000000E+00  0.00000000E+00  0.00000000E+00
  0.00000000E+00  0.00000000E+00  0.00000000E+00
  0.00000000E+00  0.00000000E+00  0.00000000E+00
  0.00000000E+00  0.00000000E+00  0.00000000E+00
  0.00000000E+00  0.00000000E+00  0.00000000E+00
  0.00000000E+00  0.00000000E+00  0.00000000E+00
  0.00000000E+00  0.00000000E+00  0.00000000E+00
  0.00000000E+00  0.00000000E+00  0.00000000E+00
  0.00000000E+00  0.00000000E+00  0.00000000E+00
  0.00000000E+00  0.00000000E+00  0.00000000E+00
  0.00000000E+00  0.00000000E+00  0.00000000E+00
  0.00000000E+00  0.00000000E+00  0.00000000E+00
  0.00000000E+00  0.00000000E+00  0.00000000E+00
  0.00000000E+00  0.00000000E+00  0.00000000E+00
  0.00000000E+00  0.00000000E+00  0.00000000E+00
  0.00000000E+00  0.00000000E+00  0.00000000E+00
  0.00000000E+00  0.00000000E+00  0.00000000E+00
  0.00000000E+00  0.00000000E+00  0.00000000E+00
  0.00000000E+00  0.00000000E+00  0.00000000E+00
  0.00000000E+00  0.00000000E+00  0.00000000E+00
  0.00000000E+00  0.00000000E+00  0.00000000E+00
  0.00000000E+00  0.00000000E+00  0.00000000E+00
  0.00000000E+00  0.00000000E+00  0.00000000E+00
  0.00000000E+00  0.00000000E+00  0.00000000E+00
  0.00000000E+00  0.00000000E+00  0.00000000E+00
  0.00000000E+00  0.00000000E+00  0.00000000E+00
  0.00000000E+00  0.00000000E+00  0.00000000E+00
  0.00000000E+00  0.00000000E+00  0.00000000E+00
  0.00000000E+00  0.00000000E+00  0.00000000E+00
  0.00000000E+00  0.00000000E+00  0.00000000E+00
  0.00000000E+00  0.00000000E+00  0.00000000E+00
  0.00000000E+00  0.00000000E+00  0.00000000E+00
  0.00000000E+00  0.00000000E+00  0.00000000E+00
  0.00000000E+00  0.00000000E+00  0.00000000E+00
  0.00000000E+00  0.00000000E+00  0.00000000E+00
  0.00000000E+00  0.00000000E+00  0.00000000E+00
  0.00000000E+00  0.00000000E+00  0.00000000E+00
  0.00000000E+00  0.00000000E+00  0.00000000E+00
  0.00000000E+00  0.00000000E+00  0.00000000E+00
  0.00000000E+00  0.00000000E+00  0.00000000E+00
  0.00000000E+00  0.00000000E+00  0.00000000E+00
  0.00000000E+00  0.00000000E+00  0.00000000E+00
  0.00000000E+00  0.00000000E+00  0.00000000E+00
  0.00000000E+00  0.00000000E+00  0.00000000E+00
  0.00000000E+00  0.00000000E+00  0.00000000E+00
  0.00000000E+00  0.00000000E+00  0.00000000E+00
  0.00000000E+00  0.00000000E+00  0.00000000E+00
  0.00000000E+00  0.00000000E+00  0.00000000E+00
  0.00000000E+00  0.00000000E+00  0.00000000E+00
  0.00000000E+00  0.00000000E+00  0.00000000E+00
  0.00000000E+00  0.00000000E+00  0.00000000E+00
  0.00000000E+00  0.00000000E+00  0.00000000E+00
  0.00000000E+00  0.00000000E+00  0.00000000E+00
  0.00000000E+00  0.00000000E+00  0.00000000E+00
  0.00000000E+00  0.00000000E+00  0.00000000E+00
  0.00000000E+00  0.00000000E+00  0.00000000E+00
  0.00000000E+00  0.00000000E+00  0.00000000E+00
  0.00000000E+00  0.00000000E+00  0.00000000E+00
  0.00000000E+00  0.00000000E+00  0.00000000E+00
  0.00000000E+00  0.00000000E+00  0.00000000E+00
  0.00000000E+00  0.00000000E+00  0.00000000E+00
  0.00000000E+00  0.00000000E+00  0.00000000E+00
  0.00000000E+00  0.00000000E+00  0.00000000E+00
  0.00000000E+00  0.00000000E+00  0.00000000E+00
  0.00000000E+00  0.00000000E+00  0.00000000E+00
  0.00000000E+00  0.00000000E+00  0.00000000E+00
  0.00000000E+00  0.00000000E+00  0.00000000E+00
  0.00000000E+00  0.00000000E+00  0.00000000E+00
  0.00000000E+00  0.00000000E+00  0.00000000E+00
  0.00000000E+00  0.00000000E+00  0.00000000E+00
  0.00000000E+00  0.00000000E+00  0.00000000E+00
  0.00000000E+00  0.00000000E+00  0.00000000E+00
  0.00000000E+00  0.00000000E+00  0.00000000E+00
  0.00000000E+00  0.00000000E+00  0.00000000E+00
  0.00000000E+00  0.00000000E+00  0.00000000E+00
  0.00000000E+00  0.00000000E+00  0.00000000E+00
  0.00000000E+00  0.00000000E+00  0.00000000E+00
  0.00000000E+00  0.00000000E+00  0.00000000E+00
  0.00000000E+00  0.00000000E+00  0.00000000E+00
  0.00000000E+00  0.00000000E+00  0.00000000E+00
  0.00000000E+00  0.00000000E+00  0.00000000E+00
  0.00000000E+00  0.00000000E+00  0.00000000E+00
  0.00000000E+00  0.00000000E+00  0.00000000E+00
  0.00000000E+00  0.00000000E+00  0.00000000E+00
  0.00000000E+00  0.00000000E+00  0.00000000E+00
  0.00000000E+00  0.00000000E+00  0.00000000E+00
  0.00000000E+00  0.00000000E+00  0.00000000E+00
  0.00000000E+00  0.00000000E+00  0.00000000E+00
  0.00000000E+00  0.00000000E+00  0.00000000E+00
  0.00000000E+00  0.00000000E+00  0.00000000E+00
  0.00000000E+00  0.00000000E+00  0.00000000E+00
  0.00000000E+00  0.00000000E+00  0.00000000E+00
  0.00000000E+00  0.00000000E+00  0.00000000E+00
  0.00000000E+00  0.00000000E+00  0.00000000E+00
  0.00000000E+00  0.00000000E+00  0.00000000E+00
  0.00000000E+00  0.00000000E+00  0.00000000E+00
  0.00000000E+00  0.00000000E+00  0.00000000E+00
  0.00000000E+00  0.00000000E+00  0.00000000E+00
  0.00000000E+00  0.00000000E+00  0.00000000E+00
  0.00000000E+00  0.00000000E+00  0.00000000E+00
  0.00000000E+00  0.00000000E+00  0.00000000E+00
  0.00000000E+00  0.00000000E+00  0.00000000E+00
  0.00000000E+00  0.00000000E+00  0.00000000E+00
  0.00000000E+00  0.00000000E+00  0.00000000E+00
  0.00000000E+00  0.00000000E+00  0.00000000E+00
  0.00000000E+00  0.00000000E+00  0.00000000E+00
  0.00000000E+00  0.00000000E+00  0.00000000E+00
  0.00000000E+00  0.00000000E+00  0.00000000E+00
  0.00000000E+00  0.00000000E+00  0.00000000E+00
  0.00000000E+00  0.00000000E+00  0.00000000E+00
  0.00000000E+00  0.00000000E+00  0.00000000E+00
  0.00000000E+00  0.00000000E+00  0.00000000E+00
  0.00000000E+00  0.00000000E+00  0.00000000E+00
  0.00000000E+00  0.00000000E+00  0.00000000E+00
  0.00000000E+00  0.00000000E+00  0.00000000E+00
  0.00000000E+00  0.00000000E+00  0.00000000E+00
  0.00000000E+00  0.00000000E+00  0.00000000E+00
  0.00000000E+00  0.00000000E+00  0.00000000E+00
  0.00000000E+00  0.00000000E+00  0.00000000E+00
