Re1 H1 C125 N1 O2                       
   1.00000000000000     
    19.7578294026234040   -0.0258474885761123    0.5375745665644776
    -9.8691159458355813   17.0525095094661907   -0.9518781550479256
    -0.2106266208755332   -0.7339313953845419   29.9121038008071771
   Re   H    C    N    O 
     1     1   125     1     2
Direct
  0.4410152268660336  0.5060020697085810  0.4439515663799770
  0.4914151116063843  0.5082608682563838  0.5184313931635177
  0.0428315474564582  0.0849831575462217  0.3994441772541700
  0.0424685324543182  0.2093389587603731  0.3988343391887249
  0.0418963507696015  0.3336535482277092  0.3970657767163959
  0.0414948746717089  0.4585690779486088  0.3958455221492677
  0.0415532944619493  0.5837519187892036  0.3958303426323624
  0.0418037513228477  0.7089687261000394  0.3962889500054206
  0.0421326825752357  0.8343835071215276  0.3973789444378852
  0.0424820269001530  0.9597670215955248  0.3986901934166607
  0.1680051001142958  0.0857718646490848  0.4013874865393138
  0.1687326756253584  0.2114586217458908  0.4022464739456964
  0.1676063210729292  0.3352063832084874  0.4007057158270582
  0.1661131634275469  0.4591808706834262  0.3974734309529159
  0.1660860116677418  0.5839604643573671  0.3968531562482641
  0.1665498818305534  0.7091523958000001  0.3973137421186845
  0.1670182244644604  0.8344873158992565  0.3982860841726990
  0.1674464072319147  0.9600275718313912  0.3996213273481656
  0.2927438377101729  0.0854961173525902  0.4019314009671844
  0.2936391342243544  0.2121910415802921  0.4055845230630486
  0.2952226816271006  0.3396232741608877  0.4086918907476783
  0.2908897808418300  0.4609949602413901  0.4038807015424729
  0.2903679122636765  0.5849096719959670  0.3994574996497433
  0.2912741549691260  0.7094576061775679  0.3990514112551702
  0.2918716487196040  0.8343533354845509  0.3990829566241759
  0.2921954533599731  0.9596774256490292  0.3999566645219911
  0.4172841774792520  0.0841704359856462  0.4006028637240056
  0.4178293341974306  0.2098789195198534  0.4028005097413187
  0.4194531994547810  0.3367310516558932  0.4087169621017696
  0.4156152285640154  0.7076204088025033  0.4025040290819938
  0.4166556662579615  0.8333071778425994  0.4004231351593424
  0.4169666573060432  0.9586960115409741  0.3998678310526622
  0.5419874894124672  0.0831423991425432  0.3993422541685145
  0.5423625742495916  0.2083684798057617  0.3995713727418235
  0.5428616377253178  0.3335860356237901  0.4013789457163926
  0.5442114294420300  0.4584202043020556  0.4063633765825828
  0.5451027361492938  0.5837329394563963  0.4139368421297741
  0.5394600605108258  0.7058807287332014  0.4075391568484844
  0.5411027702676183  0.8323764522543103  0.4025320086121100
  0.5417363059471885  0.9578677472720337  0.4000623881363706
  0.6668009060934931  0.0828110589048148  0.3987229942903641
  0.6670385399889374  0.2078869964135567  0.3977733051362538
  0.6672561874578710  0.3329158573610620  0.3972327159158250
  0.6680258183521929  0.4582972276749664  0.3980861383200135
  0.6684436235168245  0.5838795057648873  0.4010764878554247
  0.6662534560822962  0.7077245206793065  0.4031372698076393
  0.6655818414593103  0.8321252315749296  0.4024899828980750
  0.6664200038936460  0.9576489852520813  0.4002311787325691
  0.7917470910622190  0.0829429631945760  0.3983439085436445
  0.7918955253988921  0.2079068196972672  0.3972832285345461
  0.7920154035338095  0.3329400082269082  0.3960279597185936
  0.7922538543055628  0.4581320507456199  0.3952298275765380
  0.7923813467592763  0.5833404981438983  0.3958035834847128
  0.7921726907339195  0.7087747325999957  0.3980413831701911
  0.7914505387326335  0.8332290133204140  0.3993549833520653
  0.7913058125008755  0.9578424437913551  0.3993962057840579
  0.9169928278903274  0.0835547446007213  0.3983504277665477
  0.9169677127967203  0.2082926392817217  0.3972733875986010
  0.9168632987275712  0.3332126706783123  0.3961424133222610
  0.9168045677771343  0.4582173702664459  0.3953448753637992
  0.9169881598827060  0.5834986050911964  0.3950326612748291
  0.9170212705633103  0.7088354357188442  0.3957461417157286
  0.9170982265352806  0.8340324415889089  0.3973590862739239
  0.9170505884312421  0.9589322355957710  0.3986239187954190
  0.0845123843933895  0.0434933529765555  0.3997848740256545
  0.0849003226175694  0.1686855500107146  0.3999843667148587
  0.0840271765683727  0.2927158173909355  0.3987191987564266
  0.0831029510306723  0.4171374580018448  0.3965309015853216
  0.0829750570637639  0.5420757455584650  0.3959966509539031
  0.0832617940518150  0.6672980597836539  0.3963980278539868
  0.0836751438221160  0.7926763444470920  0.3972519976464302
  0.0839915606729076  0.9180510538330943  0.3985539943775249
  0.2093199164190234  0.0436760215235474  0.4011063885844560
  0.2099811341947257  0.1696425845657846  0.4033443294531088
  0.2109055644437370  0.2956164684133800  0.4036255943164335
  0.2081034840045911  0.4184073707080045  0.3997716211591250
  0.2073575084542157  0.5424533375825060  0.3975822328019848
  0.2080247417513930  0.6675679341170342  0.3976003644895937
  0.2085140732502034  0.7927095501930628  0.3982275855097460
  0.2089025998436994  0.9180943890761660  0.3993712394434906
  0.3339904142975189  0.0431919243138843  0.4008503507620068
  0.3346546497606600  0.1691889301255991  0.4037321377485467
  0.3356619020216319  0.2959775347741934  0.4090161892138803
  0.3343601678023720  0.4239215319980237  0.4119807233595381
  0.3320493257780445  0.5448250193062434  0.4029413302058319
  0.3325992020568684  0.6678768265548952  0.4002647624518603
  0.3333845914676112  0.7926413171855373  0.3995341795983495
  0.3336930963534421  0.9177258662902860  0.3996454630378334
  0.4587485405753855  0.0420717500969765  0.3999293464982795
  0.4591014398997483  0.1675169659809682  0.4008976801576034
  0.4599101670052032  0.2933716877999627  0.4038745949705466
  0.4626425814357595  0.4190901321014204  0.4125124533943030
  0.4550871875323384  0.6636774563926372  0.4062380010380436
  0.4579972433417290  0.7911813422200275  0.4018493667225400
  0.4584395233531256  0.9166803619294083  0.4000932170706301
  0.5835200136681338  0.0412664569099676  0.3992817776579177
  0.5837976633454955  0.1664710169869492  0.3987981461129547
  0.5842072724921550  0.2915798666142654  0.3992089235920967
  0.5851154873620159  0.4167261919984067  0.4013071329587989
  0.5865726843239794  0.5430033681629797  0.4069077482129845
  0.5826222892949553  0.6652050497246356  0.4085386517768523
  0.5815839754978733  0.7894818327813398  0.4043471605367853
  0.5830552751100325  0.9158550292741431  0.4009193252774111
  0.7083039666726315  0.0410381231622748  0.3989739931630888
  0.7086162371926960  0.1662199631780786  0.3979010159569846
  0.7087221193843084  0.2912107233200731  0.3967911773712930
  0.7091870589268929  0.4164867628192551  0.3964062181220454
  0.7095994727431845  0.5417623439736144  0.3977862124867293
  0.7089350723605300  0.6670696542692368  0.4007298212140900
  0.7077951555006905  0.7910658015947810  0.4014474427858885
  0.7076747426736061  0.9156531704310764  0.4006614480554541
  0.8333426087956091  0.0413700579683863  0.3985712100368448
  0.8335558982407567  0.1663727148490228  0.3975715171161610
  0.8336103307974772  0.2914022252935867  0.3964302260933458
  0.8336886542040768  0.4164077760574994  0.3953605042879910
  0.8338100105109454  0.5415908073888541  0.3949882378267900
  0.8338107409140012  0.6670781997640789  0.3961703067487333
  0.8336598794611293  0.7921154009570315  0.3980976103844724
  0.8333675635863713  0.9166984701482278  0.3990836845191921
  0.9590910375733160  0.0425301530349660  0.3987411403346093
  0.9588745379315728  0.1670442411759308  0.3979757383063713
  0.9585955869948155  0.2917213579371354  0.3966689116873326
  0.9583230265394271  0.4166488015121202  0.3956884806682240
  0.9584303493407507  0.5418711983455113  0.3953027884005948
  0.9585806863497216  0.6671060421121767  0.3954823784859657
  0.9587611952355043  0.7924448369142090  0.3966539650951471
  0.9589292540481178  0.9176060168133410  0.3981348773846867
  0.4114952549335013  0.5829386349823865  0.4078985249551361
  0.4913106375853438  0.4798232280358796  0.4903108083509155
  0.3884078008028513  0.5259906399468811  0.4857423182368272
 
  0.00000000E+00  0.00000000E+00  0.00000000E+00
  0.00000000E+00  0.00000000E+00  0.00000000E+00
  0.00000000E+00  0.00000000E+00  0.00000000E+00
  0.00000000E+00  0.00000000E+00  0.00000000E+00
  0.00000000E+00  0.00000000E+00  0.00000000E+00
  0.00000000E+00  0.00000000E+00  0.00000000E+00
  0.00000000E+00  0.00000000E+00  0.00000000E+00
  0.00000000E+00  0.00000000E+00  0.00000000E+00
  0.00000000E+00  0.00000000E+00  0.00000000E+00
  0.00000000E+00  0.00000000E+00  0.00000000E+00
  0.00000000E+00  0.00000000E+00  0.00000000E+00
  0.00000000E+00  0.00000000E+00  0.00000000E+00
  0.00000000E+00  0.00000000E+00  0.00000000E+00
  0.00000000E+00  0.00000000E+00  0.00000000E+00
  0.00000000E+00  0.00000000E+00  0.00000000E+00
  0.00000000E+00  0.00000000E+00  0.00000000E+00
  0.00000000E+00  0.00000000E+00  0.00000000E+00
  0.00000000E+00  0.00000000E+00  0.00000000E+00
  0.00000000E+00  0.00000000E+00  0.00000000E+00
  0.00000000E+00  0.00000000E+00  0.00000000E+00
  0.00000000E+00  0.00000000E+00  0.00000000E+00
  0.00000000E+00  0.00000000E+00  0.00000000E+00
  0.00000000E+00  0.00000000E+00  0.00000000E+00
  0.00000000E+00  0.00000000E+00  0.00000000E+00
  0.00000000E+00  0.00000000E+00  0.00000000E+00
  0.00000000E+00  0.00000000E+00  0.00000000E+00
  0.00000000E+00  0.00000000E+00  0.00000000E+00
  0.00000000E+00  0.00000000E+00  0.00000000E+00
  0.00000000E+00  0.00000000E+00  0.00000000E+00
  0.00000000E+00  0.00000000E+00  0.00000000E+00
  0.00000000E+00  0.00000000E+00  0.00000000E+00
  0.00000000E+00  0.00000000E+00  0.00000000E+00
  0.00000000E+00  0.00000000E+00  0.00000000E+00
  0.00000000E+00  0.00000000E+00  0.00000000E+00
  0.00000000E+00  0.00000000E+00  0.00000000E+00
  0.00000000E+00  0.00000000E+00  0.00000000E+00
  0.00000000E+00  0.00000000E+00  0.00000000E+00
  0.00000000E+00  0.00000000E+00  0.00000000E+00
  0.00000000E+00  0.00000000E+00  0.00000000E+00
  0.00000000E+00  0.00000000E+00  0.00000000E+00
  0.00000000E+00  0.00000000E+00  0.00000000E+00
  0.00000000E+00  0.00000000E+00  0.00000000E+00
  0.00000000E+00  0.00000000E+00  0.00000000E+00
  0.00000000E+00  0.00000000E+00  0.00000000E+00
  0.00000000E+00  0.00000000E+00  0.00000000E+00
  0.00000000E+00  0.00000000E+00  0.00000000E+00
  0.00000000E+00  0.00000000E+00  0.00000000E+00
  0.00000000E+00  0.00000000E+00  0.00000000E+00
  0.00000000E+00  0.00000000E+00  0.00000000E+00
  0.00000000E+00  0.00000000E+00  0.00000000E+00
  0.00000000E+00  0.00000000E+00  0.00000000E+00
  0.00000000E+00  0.00000000E+00  0.00000000E+00
  0.00000000E+00  0.00000000E+00  0.00000000E+00
  0.00000000E+00  0.00000000E+00  0.00000000E+00
  0.00000000E+00  0.00000000E+00  0.00000000E+00
  0.00000000E+00  0.00000000E+00  0.00000000E+00
  0.00000000E+00  0.00000000E+00  0.00000000E+00
  0.00000000E+00  0.00000000E+00  0.00000000E+00
  0.00000000E+00  0.00000000E+00  0.00000000E+00
  0.00000000E+00  0.00000000E+00  0.00000000E+00
  0.00000000E+00  0.00000000E+00  0.00000000E+00
  0.00000000E+00  0.00000000E+00  0.00000000E+00
  0.00000000E+00  0.00000000E+00  0.00000000E+00
  0.00000000E+00  0.00000000E+00  0.00000000E+00
  0.00000000E+00  0.00000000E+00  0.00000000E+00
  0.00000000E+00  0.00000000E+00  0.00000000E+00
  0.00000000E+00  0.00000000E+00  0.00000000E+00
  0.00000000E+00  0.00000000E+00  0.00000000E+00
  0.00000000E+00  0.00000000E+00  0.00000000E+00
  0.00000000E+00  0.00000000E+00  0.00000000E+00
  0.00000000E+00  0.00000000E+00  0.00000000E+00
  0.00000000E+00  0.00000000E+00  0.00000000E+00
  0.00000000E+00  0.00000000E+00  0.00000000E+00
  0.00000000E+00  0.00000000E+00  0.00000000E+00
  0.00000000E+00  0.00000000E+00  0.00000000E+00
  0.00000000E+00  0.00000000E+00  0.00000000E+00
  0.00000000E+00  0.00000000E+00  0.00000000E+00
  0.00000000E+00  0.00000000E+00  0.00000000E+00
  0.00000000E+00  0.00000000E+00  0.00000000E+00
  0.00000000E+00  0.00000000E+00  0.00000000E+00
  0.00000000E+00  0.00000000E+00  0.00000000E+00
  0.00000000E+00  0.00000000E+00  0.00000000E+00
  0.00000000E+00  0.00000000E+00  0.00000000E+00
  0.00000000E+00  0.00000000E+00  0.00000000E+00
  0.00000000E+00  0.00000000E+00  0.00000000E+00
  0.00000000E+00  0.00000000E+00  0.00000000E+00
  0.00000000E+00  0.00000000E+00  0.00000000E+00
  0.00000000E+00  0.00000000E+00  0.00000000E+00
  0.00000000E+00  0.00000000E+00  0.00000000E+00
  0.00000000E+00  0.00000000E+00  0.00000000E+00
  0.00000000E+00  0.00000000E+00  0.00000000E+00
  0.00000000E+00  0.00000000E+00  0.00000000E+00
  0.00000000E+00  0.00000000E+00  0.00000000E+00
  0.00000000E+00  0.00000000E+00  0.00000000E+00
  0.00000000E+00  0.00000000E+00  0.00000000E+00
  0.00000000E+00  0.00000000E+00  0.00000000E+00
  0.00000000E+00  0.00000000E+00  0.00000000E+00
  0.00000000E+00  0.00000000E+00  0.00000000E+00
  0.00000000E+00  0.00000000E+00  0.00000000E+00
  0.00000000E+00  0.00000000E+00  0.00000000E+00
  0.00000000E+00  0.00000000E+00  0.00000000E+00
  0.00000000E+00  0.00000000E+00  0.00000000E+00
  0.00000000E+00  0.00000000E+00  0.00000000E+00
  0.00000000E+00  0.00000000E+00  0.00000000E+00
  0.00000000E+00  0.00000000E+00  0.00000000E+00
  0.00000000E+00  0.00000000E+00  0.00000000E+00
  0.00000000E+00  0.00000000E+00  0.00000000E+00
  0.00000000E+00  0.00000000E+00  0.00000000E+00
  0.00000000E+00  0.00000000E+00  0.00000000E+00
  0.00000000E+00  0.00000000E+00  0.00000000E+00
  0.00000000E+00  0.00000000E+00  0.00000000E+00
  0.00000000E+00  0.00000000E+00  0.00000000E+00
  0.00000000E+00  0.00000000E+00  0.00000000E+00
  0.00000000E+00  0.00000000E+00  0.00000000E+00
  0.00000000E+00  0.00000000E+00  0.00000000E+00
  0.00000000E+00  0.00000000E+00  0.00000000E+00
  0.00000000E+00  0.00000000E+00  0.00000000E+00
  0.00000000E+00  0.00000000E+00  0.00000000E+00
  0.00000000E+00  0.00000000E+00  0.00000000E+00
  0.00000000E+00  0.00000000E+00  0.00000000E+00
  0.00000000E+00  0.00000000E+00  0.00000000E+00
  0.00000000E+00  0.00000000E+00  0.00000000E+00
  0.00000000E+00  0.00000000E+00  0.00000000E+00
  0.00000000E+00  0.00000000E+00  0.00000000E+00
  0.00000000E+00  0.00000000E+00  0.00000000E+00
  0.00000000E+00  0.00000000E+00  0.00000000E+00
  0.00000000E+00  0.00000000E+00  0.00000000E+00
  0.00000000E+00  0.00000000E+00  0.00000000E+00
  0.00000000E+00  0.00000000E+00  0.00000000E+00
  0.00000000E+00  0.00000000E+00  0.00000000E+00
