Pd1 C125 N1                             
   1.00000000000000     
    19.8516078427303100   -0.0084065541718373    0.0086922410276586
    -9.9332808110406763   17.0600740596186924   -0.0165708426556531
     0.0131495569037471   -0.0211195116604987   29.7189100477147932
   Pd   C    N 
     1   125     1
Direct
  0.4372405202554403  0.4992993294034793  0.4171275182512568
  0.0417298388521126  0.0839140551022067  0.3995837925043889
  0.0408103043521275  0.2080629465259507  0.3993369785932961
  0.0402058057433376  0.3327623312139819  0.3991331896874589
  0.0402363359531752  0.4582970519849280  0.3991791887433462
  0.0412155276333317  0.5839107730700325  0.3995957508929615
  0.0420237176282860  0.7093381506785174  0.3999430611286412
  0.0423743322052513  0.8346713729886656  0.3999288650625829
  0.0423938382223108  0.9596154894704538  0.3997254942546885
  0.1676943994537147  0.0855249609752685  0.3999144488031261
  0.1667975291029949  0.2097397682080195  0.4001416535606990
  0.1651509875718727  0.3337082221908947  0.3999699175142781
  0.1635162935165802  0.4585814524478522  0.3991296264533490
  0.1645925940674801  0.5839362017076410  0.3987904027392555
  0.1660705854072558  0.7094290743177992  0.3994752258928823
  0.1669553373962102  0.8348036570855834  0.3999680336884396
  0.1674690252829175  0.9601947195043463  0.3999249908250737
  0.2927504392348472  0.0855452938473315  0.4000331553540390
  0.2936328914398416  0.2120828901512870  0.4016872134728889
  0.2916766100723129  0.3365985687117590  0.4040663973778757
  0.2867085783291758  0.4590181966268974  0.4034609618962353
  0.2876930179824064  0.5846332197560133  0.4001940801059694
  0.2900814431639394  0.7094197368903451  0.3992299501090323
  0.2913249945175175  0.8344072458164987  0.3995009817383946
  0.2920461965409349  0.9597678918694794  0.3997300849996360
  0.4171685763542165  0.0839380033551495  0.3995371284035019
  0.4181140849686967  0.2097757863607098  0.4005614741390177
  0.4204516736009813  0.3369306456145630  0.4058755731257725
  0.4140448215406081  0.7072079774470713  0.4012176398159554
  0.4157965364474420  0.8329247737649902  0.3995294534565906
  0.4165250943077583  0.9584294550121072  0.3995133041025469
  0.5416776167131443  0.0823678979357239  0.3994963549421140
  0.5424459994244630  0.2076430658164094  0.3993310761371232
  0.5438064659672704  0.3327284025262321  0.4006518003973506
  0.5481661405985466  0.4574358547134086  0.4055754411578106
  0.5474052728372885  0.5802797131614604  0.4081824464647038
  0.5382680381378349  0.7028122912549489  0.4038864284377446
  0.5399684016068720  0.8305957363916001  0.4005951670346382
  0.5409906899343162  0.9567517415722668  0.3997261839938812
  0.6661110809455496  0.0816366914878107  0.3999100919574392
  0.6668430697505598  0.2070274755372610  0.3995031350220173
  0.6679505502397419  0.3323491194631658  0.3989285176643485
  0.6703654651789948  0.4579058256244773  0.3992309542959476
  0.6716764024636604  0.5835740865479836  0.4007766576267927
  0.6666008387229228  0.7064302815924971  0.4009538319633876
  0.6647565328233295  0.8301532519908473  0.4005425075711674
  0.6655197282544071  0.9561011822696778  0.4000435513399887
  0.7907758074604616  0.0816520935536750  0.3999850851226431
  0.7912124064290880  0.2069300851611371  0.3999916564677343
  0.7920122338796334  0.3324019721217028  0.3995482227011221
  0.7934229825414841  0.4580487938383236  0.3989200520790699
  0.7944014756418634  0.5835645065767198  0.3988020616648263
  0.7932196189596932  0.7087111486177394  0.3991808888914301
  0.7914471865647887  0.8324742410369285  0.3996224964994977
  0.7904741186930178  0.9565455958477278  0.3998073589579653
  0.9158901886110268  0.0824126721167577  0.3996517808148937
  0.9157513490652633  0.2072426553829236  0.3997008738789939
  0.9160200683788657  0.3325417250176896  0.3997524172188813
  0.9167703672426469  0.4580881570808181  0.3996925168544601
  0.9177705355455102  0.5837781744512545  0.3995062783604884
  0.9178674732875065  0.7092058342170308  0.3994296519116197
  0.9174229411026609  0.8340232508089995  0.3994743126937271
  0.9165292114534153  0.9581684582610586  0.3996218523180475
  0.0841205590335572  0.0431819177131381  0.3996804613144653
  0.0832682978741762  0.1673358783902315  0.3995441550244377
  0.0820838706096869  0.2915116047600418  0.3992191282270341
  0.0811531964888386  0.4164782459604976  0.3989237063652787
  0.0818829328586224  0.5419149404818105  0.3991302847614547
  0.0830836552216740  0.6675359473315555  0.3997256552522280
  0.0838199111819311  0.7930324748441032  0.4000388157180746
  0.0841383383660625  0.9182722831218172  0.3998898299113852
  0.2093048047745696  0.0437832097369875  0.3999581686724612
  0.2095200042691790  0.1692792471369098  0.4004737067007301
  0.2080763598573733  0.2932905418073691  0.4009587247733434
  0.2047681261379161  0.4171782442850877  0.4003454089762283
  0.2050035377326332  0.5420330788345006  0.3989491938321953
  0.2070420894154128  0.6676251550667279  0.3990489152016202
  0.2081814411837010  0.7929587464342196  0.3996804436927062
  0.2088616876562270  0.9183412702228815  0.3999228281596883
  0.3339440746234009  0.0432426762559347  0.3997148260265238
  0.3347677470757734  0.1692054209793471  0.4007737237717520
  0.3355359437396315  0.2957656997269976  0.4044586055250554
  0.3282634036820378  0.4189865200780637  0.4073983002918926
  0.3286040186805588  0.5441525862496377  0.4039554179131473
  0.3309744029833413  0.6675494845343994  0.4000866162347276
  0.3325266237742932  0.7925384499699849  0.3993497577311561
  0.3333643769996016  0.9177706738662638  0.3995852621550982
  0.4584624777884252  0.0417466642249942  0.3994790155822474
  0.4591889731928132  0.1672911781138246  0.3996148420405579
  0.4604765613540742  0.2931979868108063  0.4020069521059220
  0.4664285869153122  0.4192940370188268  0.4104321195029280
  0.4527152040167876  0.6625742217376255  0.4046611207310019
  0.4568874721894660  0.7905821485340898  0.4002186371089501
  0.4577987882044401  0.9162134465662508  0.3995452702734304
  0.5829545755469592  0.0402891824561500  0.3997047676367818
  0.5836849318678801  0.1657340724801492  0.3993529853451573
  0.5847076730144687  0.2908464745040372  0.3993352168210685
  0.5876968453144992  0.4157533725063062  0.4010948071030407
  0.5904142638480012  0.5417176919415345  0.4045819852480503
  0.5827136724889651  0.6624781062931163  0.4038714410065061
  0.5803420181094414  0.7869235389696007  0.4015176668062013
  0.5820881727973561  0.9143354990632581  0.4000406521530339
  0.7074424245958542  0.0397158576810396  0.4000037694062742
  0.7080395119010082  0.1651914333746228  0.3998809562263559
  0.7089376192295085  0.2905542409431190  0.3992540446765345
  0.7107167213369325  0.4160315900117258  0.3987042851045868
  0.7121940652969103  0.5415147329179630  0.3992915930069549
  0.7103796659879342  0.6667021888152781  0.4000690583380973
  0.7077213955146726  0.7899199862710484  0.4002289923334607
  0.7067901334413863  0.9140758351123041  0.4000360089107348
  0.8323787112157469  0.0401926494555934  0.3998250638678012
  0.8325953780908388  0.1652686454537245  0.3999722522509156
  0.8330983645881769  0.2906201838607175  0.3998739035260735
  0.8340662967066436  0.4160659300581753  0.3994315396342273
  0.8351723614323248  0.5416688023538516  0.3989878538843770
  0.8350241228827875  0.6672577029249624  0.3990228430853854
  0.8342213424308557  0.7920509750354858  0.3993151973268326
  0.8329378445105473  0.9158750570986670  0.3996696549260746
  0.9581736412693689  0.0416377695445733  0.3996032955852182
  0.9575517711629622  0.1659669903858781  0.3995161408120161
  0.9573186959291717  0.2908084021466515  0.3995344909521317
  0.9575474970103489  0.4161770177452073  0.3996227536945094
  0.9585547770353723  0.5418753625509388  0.3997085909151830
  0.9591602066371729  0.6674584756197731  0.3996839372663649
  0.9592762215386531  0.7927356497744237  0.3996319320653383
  0.9589289746361697  0.9174651737226706  0.3996216568007142
  0.4073904451486443  0.5831732040564398  0.4082205805712339
 
  0.00000000E+00  0.00000000E+00  0.00000000E+00
  0.00000000E+00  0.00000000E+00  0.00000000E+00
  0.00000000E+00  0.00000000E+00  0.00000000E+00
  0.00000000E+00  0.00000000E+00  0.00000000E+00
  0.00000000E+00  0.00000000E+00  0.00000000E+00
  0.00000000E+00  0.00000000E+00  0.00000000E+00
  0.00000000E+00  0.00000000E+00  0.00000000E+00
  0.00000000E+00  0.00000000E+00  0.00000000E+00
  0.00000000E+00  0.00000000E+00  0.00000000E+00
  0.00000000E+00  0.00000000E+00  0.00000000E+00
  0.00000000E+00  0.00000000E+00  0.00000000E+00
  0.00000000E+00  0.00000000E+00  0.00000000E+00
  0.00000000E+00  0.00000000E+00  0.00000000E+00
  0.00000000E+00  0.00000000E+00  0.00000000E+00
  0.00000000E+00  0.00000000E+00  0.00000000E+00
  0.00000000E+00  0.00000000E+00  0.00000000E+00
  0.00000000E+00  0.00000000E+00  0.00000000E+00
  0.00000000E+00  0.00000000E+00  0.00000000E+00
  0.00000000E+00  0.00000000E+00  0.00000000E+00
  0.00000000E+00  0.00000000E+00  0.00000000E+00
  0.00000000E+00  0.00000000E+00  0.00000000E+00
  0.00000000E+00  0.00000000E+00  0.00000000E+00
  0.00000000E+00  0.00000000E+00  0.00000000E+00
  0.00000000E+00  0.00000000E+00  0.00000000E+00
  0.00000000E+00  0.00000000E+00  0.00000000E+00
  0.00000000E+00  0.00000000E+00  0.00000000E+00
  0.00000000E+00  0.00000000E+00  0.00000000E+00
  0.00000000E+00  0.00000000E+00  0.00000000E+00
  0.00000000E+00  0.00000000E+00  0.00000000E+00
  0.00000000E+00  0.00000000E+00  0.00000000E+00
  0.00000000E+00  0.00000000E+00  0.00000000E+00
  0.00000000E+00  0.00000000E+00  0.00000000E+00
  0.00000000E+00  0.00000000E+00  0.00000000E+00
  0.00000000E+00  0.00000000E+00  0.00000000E+00
  0.00000000E+00  0.00000000E+00  0.00000000E+00
  0.00000000E+00  0.00000000E+00  0.00000000E+00
  0.00000000E+00  0.00000000E+00  0.00000000E+00
  0.00000000E+00  0.00000000E+00  0.00000000E+00
  0.00000000E+00  0.00000000E+00  0.00000000E+00
  0.00000000E+00  0.00000000E+00  0.00000000E+00
  0.00000000E+00  0.00000000E+00  0.00000000E+00
  0.00000000E+00  0.00000000E+00  0.00000000E+00
  0.00000000E+00  0.00000000E+00  0.00000000E+00
  0.00000000E+00  0.00000000E+00  0.00000000E+00
  0.00000000E+00  0.00000000E+00  0.00000000E+00
  0.00000000E+00  0.00000000E+00  0.00000000E+00
  0.00000000E+00  0.00000000E+00  0.00000000E+00
  0.00000000E+00  0.00000000E+00  0.00000000E+00
  0.00000000E+00  0.00000000E+00  0.00000000E+00
  0.00000000E+00  0.00000000E+00  0.00000000E+00
  0.00000000E+00  0.00000000E+00  0.00000000E+00
  0.00000000E+00  0.00000000E+00  0.00000000E+00
  0.00000000E+00  0.00000000E+00  0.00000000E+00
  0.00000000E+00  0.00000000E+00  0.00000000E+00
  0.00000000E+00  0.00000000E+00  0.00000000E+00
  0.00000000E+00  0.00000000E+00  0.00000000E+00
  0.00000000E+00  0.00000000E+00  0.00000000E+00
  0.00000000E+00  0.00000000E+00  0.00000000E+00
  0.00000000E+00  0.00000000E+00  0.00000000E+00
  0.00000000E+00  0.00000000E+00  0.00000000E+00
  0.00000000E+00  0.00000000E+00  0.00000000E+00
  0.00000000E+00  0.00000000E+00  0.00000000E+00
  0.00000000E+00  0.00000000E+00  0.00000000E+00
  0.00000000E+00  0.00000000E+00  0.00000000E+00
  0.00000000E+00  0.00000000E+00  0.00000000E+00
  0.00000000E+00  0.00000000E+00  0.00000000E+00
  0.00000000E+00  0.00000000E+00  0.00000000E+00
  0.00000000E+00  0.00000000E+00  0.00000000E+00
  0.00000000E+00  0.00000000E+00  0.00000000E+00
  0.00000000E+00  0.00000000E+00  0.00000000E+00
  0.00000000E+00  0.00000000E+00  0.00000000E+00
  0.00000000E+00  0.00000000E+00  0.00000000E+00
  0.00000000E+00  0.00000000E+00  0.00000000E+00
  0.00000000E+00  0.00000000E+00  0.00000000E+00
  0.00000000E+00  0.00000000E+00  0.00000000E+00
  0.00000000E+00  0.00000000E+00  0.00000000E+00
  0.00000000E+00  0.00000000E+00  0.00000000E+00
  0.00000000E+00  0.00000000E+00  0.00000000E+00
  0.00000000E+00  0.00000000E+00  0.00000000E+00
  0.00000000E+00  0.00000000E+00  0.00000000E+00
  0.00000000E+00  0.00000000E+00  0.00000000E+00
  0.00000000E+00  0.00000000E+00  0.00000000E+00
  0.00000000E+00  0.00000000E+00  0.00000000E+00
  0.00000000E+00  0.00000000E+00  0.00000000E+00
  0.00000000E+00  0.00000000E+00  0.00000000E+00
  0.00000000E+00  0.00000000E+00  0.00000000E+00
  0.00000000E+00  0.00000000E+00  0.00000000E+00
  0.00000000E+00  0.00000000E+00  0.00000000E+00
  0.00000000E+00  0.00000000E+00  0.00000000E+00
  0.00000000E+00  0.00000000E+00  0.00000000E+00
  0.00000000E+00  0.00000000E+00  0.00000000E+00
  0.00000000E+00  0.00000000E+00  0.00000000E+00
  0.00000000E+00  0.00000000E+00  0.00000000E+00
  0.00000000E+00  0.00000000E+00  0.00000000E+00
  0.00000000E+00  0.00000000E+00  0.00000000E+00
  0.00000000E+00  0.00000000E+00  0.00000000E+00
  0.00000000E+00  0.00000000E+00  0.00000000E+00
  0.00000000E+00  0.00000000E+00  0.00000000E+00
  0.00000000E+00  0.00000000E+00  0.00000000E+00
  0.00000000E+00  0.00000000E+00  0.00000000E+00
  0.00000000E+00  0.00000000E+00  0.00000000E+00
  0.00000000E+00  0.00000000E+00  0.00000000E+00
  0.00000000E+00  0.00000000E+00  0.00000000E+00
  0.00000000E+00  0.00000000E+00  0.00000000E+00
  0.00000000E+00  0.00000000E+00  0.00000000E+00
  0.00000000E+00  0.00000000E+00  0.00000000E+00
  0.00000000E+00  0.00000000E+00  0.00000000E+00
  0.00000000E+00  0.00000000E+00  0.00000000E+00
  0.00000000E+00  0.00000000E+00  0.00000000E+00
  0.00000000E+00  0.00000000E+00  0.00000000E+00
  0.00000000E+00  0.00000000E+00  0.00000000E+00
  0.00000000E+00  0.00000000E+00  0.00000000E+00
  0.00000000E+00  0.00000000E+00  0.00000000E+00
  0.00000000E+00  0.00000000E+00  0.00000000E+00
  0.00000000E+00  0.00000000E+00  0.00000000E+00
  0.00000000E+00  0.00000000E+00  0.00000000E+00
  0.00000000E+00  0.00000000E+00  0.00000000E+00
  0.00000000E+00  0.00000000E+00  0.00000000E+00
  0.00000000E+00  0.00000000E+00  0.00000000E+00
  0.00000000E+00  0.00000000E+00  0.00000000E+00
  0.00000000E+00  0.00000000E+00  0.00000000E+00
  0.00000000E+00  0.00000000E+00  0.00000000E+00
  0.00000000E+00  0.00000000E+00  0.00000000E+00
  0.00000000E+00  0.00000000E+00  0.00000000E+00
  0.00000000E+00  0.00000000E+00  0.00000000E+00
  0.00000000E+00  0.00000000E+00  0.00000000E+00
  0.00000000E+00  0.00000000E+00  0.00000000E+00
