H1 Au1 C124 N2 O2                       
   1.00000000000000     
    19.8638646387644613   -0.0028146455930594    0.0940040866996098
    -9.9346903946873404   17.0504157687888025   -0.0533542095016103
     0.1405517885614551   -0.0110364702271941   29.7131712334177642
   H    Au   C    N    O 
     1     1   124     2     2
Direct
  0.5300455946233353  0.5476791839443951  0.5152218444425857
  0.4371987881160439  0.4999792565120617  0.4092562963060991
  0.0418298183240292  0.0840437113064295  0.3998080059072339
  0.0404172064636330  0.2079176075853807  0.3998283663427357
  0.0394695839121751  0.3325335484013529  0.3994956848875862
  0.0396040241547592  0.4582036809735331  0.3990257495273078
  0.0410511934539094  0.5839532893093325  0.3988510978325371
  0.0422293298101725  0.7095403024863619  0.3991415922871433
  0.0426937810046168  0.8348943684380303  0.3994317976495682
  0.0427335461836576  0.9599357402370506  0.3995852632214345
  0.1682079181101150  0.0860916674474590  0.4004443136193026
  0.1667298981637961  0.2098835092393487  0.4010815991235219
  0.1641486476142324  0.3334328315417330  0.4012591136187946
  0.1622684240806542  0.4583009093186156  0.4006602073373749
  0.1641871950746397  0.5838969605522103  0.3998198715416103
  0.1661099505357490  0.7094406302923965  0.3993611774114680
  0.1671241924365539  0.8349218128371101  0.3994492492701269
  0.1677474218026171  0.9604618967436339  0.3997931743934805
  0.2928623810041462  0.0858546918775849  0.4005234845701504
  0.2945099999607277  0.2131763903204314  0.4022448308620051
  0.2912148356219815  0.3370756865549268  0.4037819608956477
  0.2845476619095102  0.4585954652246951  0.4035903105088502
  0.2868752674852857  0.5843389104929704  0.4022757010379792
  0.2900288987918208  0.7092118807982357  0.4005341713940452
  0.2914455494897801  0.8343960396158498  0.3996295105739628
  0.2921643452767159  0.9598965458818489  0.3996498699692056
  0.4172102545082803  0.0840810341059543  0.3999937541393643
  0.4179990975529867  0.2099669806076078  0.4016110718999028
  0.4215055722779922  0.3379621807918347  0.4040553933823199
  0.4139840443153183  0.7065240667715539  0.4025593153214966
  0.4157300405577072  0.8326044558400970  0.4005946418224927
  0.4165317490590177  0.9583365892016129  0.3996665386420721
  0.5415321688176821  0.0822995227432183  0.3995796395502250
  0.5423388357395207  0.2076822136755313  0.4001849844752141
  0.5440775879702621  0.3327967506428262  0.4020287387858859
  0.5478112871305507  0.4569567911427143  0.4045599325992026
  0.5487268706805464  0.5812808090229237  0.4059647646096423
  0.5381662188964277  0.7025838464880437  0.4037157994852190
  0.5399347035981387  0.8303887728196646  0.4014749862326151
  0.5409270178285418  0.9566009517905993  0.4000454988113840
  0.6659088330990484  0.0815222735711147  0.3996446564179804
  0.6666541432958437  0.2070604587076563  0.3994156436821760
  0.6679483427548039  0.3325219188837801  0.3998428006229073
  0.6705737077628688  0.4582198196350881  0.4012000754382626
  0.6718772492836288  0.5833814405552561  0.4022929562981066
  0.6673597739399546  0.7067687193972241  0.4021264020454585
  0.6647686752420459  0.8300987279749830  0.4013131382091325
  0.6653664742220615  0.9559455593976897  0.4002721516170648
  0.7905387111904082  0.0815159813550821  0.3996039550089563
  0.7908617720242949  0.2068262450375305  0.3993925367045607
  0.7918082752592153  0.3324236393200236  0.3990501460452075
  0.7933659350276249  0.4581635780110028  0.3990799466617885
  0.7946971136607105  0.5838246974237170  0.3996345850145454
  0.7936307852655063  0.7087883615908322  0.4001413191500149
  0.7917504009930338  0.8326176120942835  0.4001823147897908
  0.7904312146936413  0.9564426936966873  0.3999204120241093
  0.9157401535561108  0.0823149958961406  0.3994616419593980
  0.9153195225541438  0.2070471681040318  0.3992867387652086
  0.9155449632518803  0.3324028935706766  0.3989838538552239
  0.9164841992698037  0.4581248164494524  0.3986880926706742
  0.9178610015890282  0.5839372292385668  0.3987836777392310
  0.9181778508487437  0.7094136649331805  0.3991689800106762
  0.9177376555158364  0.8342008929250495  0.3994448362570528
  0.9167300690871875  0.9583030941375689  0.3995515839631730
  0.0845230663630764  0.0435806036534719  0.3999024945301712
  0.0831787977941095  0.1674031132724524  0.4001762519509100
  0.0812404353201445  0.2912151790185600  0.4001001024997479
  0.0801516990103125  0.4161835160070408  0.3995753144271482
  0.0815081846659001  0.5418566077080897  0.3990907714186668
  0.0831186590323026  0.6676050288288251  0.3990757216303445
  0.0840670442322464  0.7931989916531221  0.3993995440556237
  0.0844422798261608  0.9185059443164966  0.3996086653991235
  0.2095800710650890  0.0440975094975716  0.4002542518571636
  0.2101166915944078  0.1699572218333175  0.4012987641294284
  0.2074850874755881  0.2932907772000624  0.4019468885859978
  0.2029088257501226  0.4166387877377153  0.4017628976839187
  0.2042170804574303  0.5417967067223504  0.4009097882073722
  0.2069280738772946  0.6675447489684787  0.3998370803742968
  0.2082885224891233  0.7930104653218768  0.3994312578019487
  0.2090785913551574  0.9185228040904212  0.3996121295035377
  0.3340249216728760  0.0434732552091695  0.4000219573549318
  0.3349394904204351  0.1696863320768189  0.4014884044721591
  0.3365856097251626  0.2974846964320441  0.4036892948699419
  0.3259184936857826  0.4187899270835869  0.4051482670929335
  0.3268270566497096  0.5430423025133498  0.4036187664316684
  0.3307415127912563  0.6672758692562636  0.4018344347714751
  0.3325778045619968  0.7924122492826534  0.4001976338755536
  0.3334620643161748  0.9177865529538116  0.3995785235867105
  0.4584614665920705  0.0417618869239388  0.3996527145191975
  0.4591873047478907  0.1674888769785733  0.4005663381992856
  0.4608141077803928  0.2935370773821132  0.4027187455929016
  0.4532394037100621  0.6620763741494433  0.4038504465154678
  0.4568658236052974  0.7901135638051279  0.4015863207913835
  0.4577499510621604  0.9160059501439995  0.4000221227814686
  0.5828223383659866  0.0401703944574985  0.3996677468870344
  0.5834986634643916  0.1656949270402668  0.3996160863524175
  0.5848493876356802  0.2908783427087710  0.4005627246820337
  0.5878850295073670  0.4157021429836187  0.4028050685075572
  0.5901691152932097  0.5414689200459397  0.4046044782097418
  0.5835394141870888  0.6629783464696385  0.4040934449341104
  0.5803446262606199  0.7868974882228371  0.4022267820966631
  0.5820693336971016  0.9142137269387214  0.4005467269432460
  0.7072323129958523  0.0395740722848527  0.3998134404004045
  0.7078210963582462  0.1651271810929233  0.3994562216437220
  0.7088102883043907  0.2906226094598908  0.3993279114931026
  0.7106643038469940  0.4161471059768425  0.3998801135748578
  0.7125502366106063  0.5417311362132881  0.4009349652026351
  0.7106820820193667  0.6665853871336361  0.4014842167251649
  0.7081526296744518  0.7901450995091228  0.4011238651438794
  0.7067183997673517  0.9139471925560324  0.4004533073143128
  0.8322505316143040  0.0400804553664976  0.3995973766679047
  0.8322382907533120  0.1651206212327391  0.3994158828451005
  0.8327077456055517  0.2904820845240662  0.3991310453607812
  0.8338432040734828  0.4160722221509043  0.3988179789359117
  0.8352743283846726  0.5418158062236579  0.3990235801403655
  0.8353954703837474  0.6674622298813250  0.3995283629337576
  0.8344883658095523  0.7920839691059938  0.3998286908420055
  0.8331376102453204  0.9159776622429631  0.3998204428963412
  0.9582598620432612  0.0417034733612358  0.3995471631668751
  0.9571922833585571  0.1657981653781501  0.3994251585324590
  0.9567242156131948  0.2905764862493452  0.3991574935119558
  0.9570288353787356  0.4160736356438823  0.3987987499875458
  0.9584213103673261  0.5418933818942239  0.3986909160226357
  0.9593805468506994  0.6676092816295716  0.3989872413773972
  0.9595945467661946  0.7929370570742249  0.3993191531948463
  0.9592424204199791  0.9176806090659249  0.3994670567244922
  0.4063945250013883  0.5814463774999897  0.4041269302011372
  0.4682958553712946  0.4185644343279805  0.4045396440840920
  0.4898585684278547  0.4921978511518393  0.5122510296623694
  0.4279893781880889  0.4960432373970891  0.4919283586511485
 
  0.00000000E+00  0.00000000E+00  0.00000000E+00
  0.00000000E+00  0.00000000E+00  0.00000000E+00
  0.00000000E+00  0.00000000E+00  0.00000000E+00
  0.00000000E+00  0.00000000E+00  0.00000000E+00
  0.00000000E+00  0.00000000E+00  0.00000000E+00
  0.00000000E+00  0.00000000E+00  0.00000000E+00
  0.00000000E+00  0.00000000E+00  0.00000000E+00
  0.00000000E+00  0.00000000E+00  0.00000000E+00
  0.00000000E+00  0.00000000E+00  0.00000000E+00
  0.00000000E+00  0.00000000E+00  0.00000000E+00
  0.00000000E+00  0.00000000E+00  0.00000000E+00
  0.00000000E+00  0.00000000E+00  0.00000000E+00
  0.00000000E+00  0.00000000E+00  0.00000000E+00
  0.00000000E+00  0.00000000E+00  0.00000000E+00
  0.00000000E+00  0.00000000E+00  0.00000000E+00
  0.00000000E+00  0.00000000E+00  0.00000000E+00
  0.00000000E+00  0.00000000E+00  0.00000000E+00
  0.00000000E+00  0.00000000E+00  0.00000000E+00
  0.00000000E+00  0.00000000E+00  0.00000000E+00
  0.00000000E+00  0.00000000E+00  0.00000000E+00
  0.00000000E+00  0.00000000E+00  0.00000000E+00
  0.00000000E+00  0.00000000E+00  0.00000000E+00
  0.00000000E+00  0.00000000E+00  0.00000000E+00
  0.00000000E+00  0.00000000E+00  0.00000000E+00
  0.00000000E+00  0.00000000E+00  0.00000000E+00
  0.00000000E+00  0.00000000E+00  0.00000000E+00
  0.00000000E+00  0.00000000E+00  0.00000000E+00
  0.00000000E+00  0.00000000E+00  0.00000000E+00
  0.00000000E+00  0.00000000E+00  0.00000000E+00
  0.00000000E+00  0.00000000E+00  0.00000000E+00
  0.00000000E+00  0.00000000E+00  0.00000000E+00
  0.00000000E+00  0.00000000E+00  0.00000000E+00
  0.00000000E+00  0.00000000E+00  0.00000000E+00
  0.00000000E+00  0.00000000E+00  0.00000000E+00
  0.00000000E+00  0.00000000E+00  0.00000000E+00
  0.00000000E+00  0.00000000E+00  0.00000000E+00
  0.00000000E+00  0.00000000E+00  0.00000000E+00
  0.00000000E+00  0.00000000E+00  0.00000000E+00
  0.00000000E+00  0.00000000E+00  0.00000000E+00
  0.00000000E+00  0.00000000E+00  0.00000000E+00
  0.00000000E+00  0.00000000E+00  0.00000000E+00
  0.00000000E+00  0.00000000E+00  0.00000000E+00
  0.00000000E+00  0.00000000E+00  0.00000000E+00
  0.00000000E+00  0.00000000E+00  0.00000000E+00
  0.00000000E+00  0.00000000E+00  0.00000000E+00
  0.00000000E+00  0.00000000E+00  0.00000000E+00
  0.00000000E+00  0.00000000E+00  0.00000000E+00
  0.00000000E+00  0.00000000E+00  0.00000000E+00
  0.00000000E+00  0.00000000E+00  0.00000000E+00
  0.00000000E+00  0.00000000E+00  0.00000000E+00
  0.00000000E+00  0.00000000E+00  0.00000000E+00
  0.00000000E+00  0.00000000E+00  0.00000000E+00
  0.00000000E+00  0.00000000E+00  0.00000000E+00
  0.00000000E+00  0.00000000E+00  0.00000000E+00
  0.00000000E+00  0.00000000E+00  0.00000000E+00
  0.00000000E+00  0.00000000E+00  0.00000000E+00
  0.00000000E+00  0.00000000E+00  0.00000000E+00
  0.00000000E+00  0.00000000E+00  0.00000000E+00
  0.00000000E+00  0.00000000E+00  0.00000000E+00
  0.00000000E+00  0.00000000E+00  0.00000000E+00
  0.00000000E+00  0.00000000E+00  0.00000000E+00
  0.00000000E+00  0.00000000E+00  0.00000000E+00
  0.00000000E+00  0.00000000E+00  0.00000000E+00
  0.00000000E+00  0.00000000E+00  0.00000000E+00
  0.00000000E+00  0.00000000E+00  0.00000000E+00
  0.00000000E+00  0.00000000E+00  0.00000000E+00
  0.00000000E+00  0.00000000E+00  0.00000000E+00
  0.00000000E+00  0.00000000E+00  0.00000000E+00
  0.00000000E+00  0.00000000E+00  0.00000000E+00
  0.00000000E+00  0.00000000E+00  0.00000000E+00
  0.00000000E+00  0.00000000E+00  0.00000000E+00
  0.00000000E+00  0.00000000E+00  0.00000000E+00
  0.00000000E+00  0.00000000E+00  0.00000000E+00
  0.00000000E+00  0.00000000E+00  0.00000000E+00
  0.00000000E+00  0.00000000E+00  0.00000000E+00
  0.00000000E+00  0.00000000E+00  0.00000000E+00
  0.00000000E+00  0.00000000E+00  0.00000000E+00
  0.00000000E+00  0.00000000E+00  0.00000000E+00
  0.00000000E+00  0.00000000E+00  0.00000000E+00
  0.00000000E+00  0.00000000E+00  0.00000000E+00
  0.00000000E+00  0.00000000E+00  0.00000000E+00
  0.00000000E+00  0.00000000E+00  0.00000000E+00
  0.00000000E+00  0.00000000E+00  0.00000000E+00
  0.00000000E+00  0.00000000E+00  0.00000000E+00
  0.00000000E+00  0.00000000E+00  0.00000000E+00
  0.00000000E+00  0.00000000E+00  0.00000000E+00
  0.00000000E+00  0.00000000E+00  0.00000000E+00
  0.00000000E+00  0.00000000E+00  0.00000000E+00
  0.00000000E+00  0.00000000E+00  0.00000000E+00
  0.00000000E+00  0.00000000E+00  0.00000000E+00
  0.00000000E+00  0.00000000E+00  0.00000000E+00
  0.00000000E+00  0.00000000E+00  0.00000000E+00
  0.00000000E+00  0.00000000E+00  0.00000000E+00
  0.00000000E+00  0.00000000E+00  0.00000000E+00
  0.00000000E+00  0.00000000E+00  0.00000000E+00
  0.00000000E+00  0.00000000E+00  0.00000000E+00
  0.00000000E+00  0.00000000E+00  0.00000000E+00
  0.00000000E+00  0.00000000E+00  0.00000000E+00
  0.00000000E+00  0.00000000E+00  0.00000000E+00
  0.00000000E+00  0.00000000E+00  0.00000000E+00
  0.00000000E+00  0.00000000E+00  0.00000000E+00
  0.00000000E+00  0.00000000E+00  0.00000000E+00
  0.00000000E+00  0.00000000E+00  0.00000000E+00
  0.00000000E+00  0.00000000E+00  0.00000000E+00
  0.00000000E+00  0.00000000E+00  0.00000000E+00
  0.00000000E+00  0.00000000E+00  0.00000000E+00
  0.00000000E+00  0.00000000E+00  0.00000000E+00
  0.00000000E+00  0.00000000E+00  0.00000000E+00
  0.00000000E+00  0.00000000E+00  0.00000000E+00
  0.00000000E+00  0.00000000E+00  0.00000000E+00
  0.00000000E+00  0.00000000E+00  0.00000000E+00
  0.00000000E+00  0.00000000E+00  0.00000000E+00
  0.00000000E+00  0.00000000E+00  0.00000000E+00
  0.00000000E+00  0.00000000E+00  0.00000000E+00
  0.00000000E+00  0.00000000E+00  0.00000000E+00
  0.00000000E+00  0.00000000E+00  0.00000000E+00
  0.00000000E+00  0.00000000E+00  0.00000000E+00
  0.00000000E+00  0.00000000E+00  0.00000000E+00
  0.00000000E+00  0.00000000E+00  0.00000000E+00
  0.00000000E+00  0.00000000E+00  0.00000000E+00
  0.00000000E+00  0.00000000E+00  0.00000000E+00
  0.00000000E+00  0.00000000E+00  0.00000000E+00
  0.00000000E+00  0.00000000E+00  0.00000000E+00
  0.00000000E+00  0.00000000E+00  0.00000000E+00
  0.00000000E+00  0.00000000E+00  0.00000000E+00
  0.00000000E+00  0.00000000E+00  0.00000000E+00
  0.00000000E+00  0.00000000E+00  0.00000000E+00
  0.00000000E+00  0.00000000E+00  0.00000000E+00
  0.00000000E+00  0.00000000E+00  0.00000000E+00
  0.00000000E+00  0.00000000E+00  0.00000000E+00
