Ag1 C124 N2                             
   1.00000000000000     
    19.7898716047092016   -0.0306917594936360   -0.0017277057273859
    -9.9215986535528806   17.0796429760943411   -0.0006818581943263
    -0.0025988510135280   -0.0026978472731629   29.7969467619276216
   Ag   C    N 
     1   124     2
Direct
  0.4377349146069855  0.5001983065298705  0.4436703431776840
  0.0421955591269538  0.0840744515589203  0.3996583097389582
  0.0420011394064327  0.2087296689547425  0.3993426575261952
  0.0415593812798591  0.3334280867193432  0.3985991132363660
  0.0412579025786951  0.4585119712932631  0.3989689655960349
  0.0412544128900187  0.5836806417697489  0.3998318351875216
  0.0414477675829304  0.7088444949418599  0.4001146606812325
  0.0416889110777356  0.8340055129562117  0.3998502607699052
  0.0420519857212959  0.9592000966720291  0.3997115402674418
  0.1677851988646687  0.0851301039782385  0.4003458701657314
  0.1678692199545676  0.2100261686710415  0.4005139347156666
  0.1670397679287385  0.3344896750536895  0.3996452533351921
  0.1657685961851769  0.4590456246500654  0.3971435637373103
  0.1656428091316656  0.5839692386669812  0.3986285527104161
  0.1660532231798419  0.7090693566087561  0.3998933617391957
  0.1665028057903940  0.8341917202047194  0.4001562317773353
  0.1670037023556176  0.9594898242356021  0.4000265193573391
  0.2923540902812357  0.0847531371172810  0.4000376871839478
  0.2939836625398208  0.2116611795024047  0.4012794525577620
  0.2937247326994665  0.3371735639919586  0.4061850972540048
  0.2909062919830188  0.4602602368008603  0.4020695719342790
  0.2898887127631738  0.5848798451483028  0.3985315701875662
  0.2905380337011966  0.7094050504066887  0.3991603342296661
  0.2912594193724669  0.8341608238012694  0.3999758329145449
  0.2917370372682495  0.9592136019851784  0.4000739445031304
  0.4169745831204702  0.0833988208028842  0.3998579066767234
  0.4176023554824568  0.2084868507841723  0.4002221704153977
  0.4210262061013555  0.3359016879206850  0.4003505697321689
  0.4148361295284544  0.7083981885283790  0.4001221655625803
  0.4160342436860355  0.8334269164032234  0.3999540458250910
  0.4165416862937925  0.9584109477375824  0.3998948001824445
  0.5417932795340292  0.0825521262917571  0.4000301308318741
  0.5422837581190630  0.2074755097896986  0.3996564707217854
  0.5431524980095345  0.3321026116345386  0.3988814014956933
  0.5420980942180735  0.4544552005925169  0.3992755839145958
  0.5464639890554172  0.5813851760282528  0.4131195486525642
  0.5385339616223309  0.7044801214847951  0.4029270029882359
  0.5405443906468513  0.8317124331212812  0.4003525173386073
  0.5413463144904060  0.9573821734142600  0.4000143071673127
  0.6665991593051038  0.0823212030210534  0.4001357588899888
  0.6670413569341141  0.2074644777438944  0.4000862639741470
  0.6676147015278079  0.3325227944357106  0.3992205106711320
  0.6681716001271305  0.4576036876517270  0.3978602110857720
  0.6672466189442969  0.5820336503617162  0.3979803175787135
  0.6654477262980434  0.7063467459252576  0.4016349026647771
  0.6650382164317239  0.8310997735366621  0.4009481680581238
  0.6660499039651385  0.9569647240155140  0.4001169410285091
  0.7914559476734108  0.0824285001082347  0.3998382849268347
  0.7917915981889455  0.2075982102845246  0.4001250126143098
  0.7921708299355749  0.3328130250027707  0.4000470738365274
  0.7924295765669314  0.4580239575316818  0.3990932306667995
  0.7922396373990085  0.5830777108581192  0.3980446179040882
  0.7914225063702204  0.7078029396596229  0.3989374881342719
  0.7908721494734526  0.8323455142201260  0.3995408616342894
  0.7908981651257680  0.9571407620228116  0.3998237295085491
  0.9165856893682747  0.0829884066224683  0.3994871304824418
  0.9166834555498369  0.2079323105974013  0.3995224612811835
  0.9167354122004800  0.3330254748891017  0.3997558066315912
  0.9168000130838833  0.4582224701031833  0.4000048574240671
  0.9168338377176188  0.5834594691426342  0.3997208537074682
  0.9166559330373958  0.7085440790385066  0.3992596302143449
  0.9165557743469285  0.8334573873472715  0.3993768919110821
  0.9165236399275072  0.9582238341039829  0.3995328437025314
  0.0841125905247286  0.0428530163562228  0.3999030237656440
  0.0841165749218825  0.1676474664865087  0.3995790888213663
  0.0835637020978847  0.2922108199832261  0.3989884724545038
  0.0827555297572256  0.4169274641203413  0.3980585932097313
  0.0825711244991564  0.5419873826797941  0.3990975015360192
  0.0828404950010121  0.6671743670341946  0.4000505921831123
  0.0832012388110066  0.7923813846965454  0.4000995165682263
  0.0835593438416183  0.9175524629238664  0.3998727431024240
  0.2089519192876329  0.0430298098232622  0.4001452461036125
  0.2099279802455345  0.1688997123930832  0.4010081923656230
  0.2095164983871908  0.2936631052964370  0.4017142006277478
  0.2077449926429381  0.4179651806892071  0.3979829876759739
  0.2068491170986357  0.5424058854251753  0.3978621520312414
  0.2073919407258004  0.6674761805953001  0.3992481322861978
  0.2079486615376297  0.7925130919500650  0.4000779032554867
  0.2084013897946045  0.9176554949156073  0.4001004903992853
  0.3336422576801419  0.0426070372827698  0.3999524061267324
  0.3344288310518668  0.1683067158358644  0.4002809459971546
  0.3364002103718515  0.2955816070589066  0.4029272922295899
  0.3285249063497679  0.4186687457114985  0.4137582075937629
  0.3328674692233196  0.5454535786282863  0.3995532434219712
  0.3318513162267500  0.6678961594805007  0.3989724146818172
  0.3327142052031155  0.7925274560474121  0.3997222211297309
  0.3332197080482946  0.9174276662843462  0.4000262355638812
  0.4584771564269855  0.0415828418075761  0.3998795097827114
  0.4589570501150521  0.1665686014942173  0.3998862687655126
  0.4601512366546245  0.2915967936632690  0.4000062599962397
  0.4539647370270109  0.6641271232746738  0.4005200432453493
  0.4573870890596778  0.7915085719909903  0.4003138614503512
  0.4580174108080401  0.9165814355191365  0.3999121152437906
  0.5832730550464255  0.0407677214440632  0.4001143242412837
  0.5837381125064289  0.1658324148804671  0.3999496241193937
  0.5844747838883574  0.2905986918938228  0.3990951754932842
  0.5851450612298670  0.4151051584525540  0.3984748163742665
  0.5840494292421655  0.5396608361328648  0.4017914723420865
  0.5812012795580014  0.6628692755662392  0.4060081295705628
  0.5809824720206607  0.7883768962519333  0.4012913781655534
  0.5826428985635485  0.9152608865845742  0.4000831695046526
  0.7080008067835879  0.0404862945277869  0.4000110268763156
  0.7084957253141390  0.1657878011109457  0.4002024764160714
  0.7089592981385611  0.2909200446622450  0.3998953882409018
  0.7093749731153265  0.4160438144640013  0.3986175836528966
  0.7092408336752629  0.5409535221367068  0.3971700621737955
  0.7079026199343622  0.6655169119470603  0.3995864201821607
  0.7071013378523657  0.7899763640163284  0.4004598739201423
  0.7072124261684899  0.9148583440217436  0.4002694413589523
  0.8329857945744025  0.0407981729715447  0.3996454804100415
  0.8333087554970124  0.1659740601512865  0.3998560421084101
  0.8335547216780913  0.2911341684431008  0.4001251086085296
  0.8337442716162652  0.4163143506263418  0.3998223518293120
  0.8337433138860667  0.5414907269651922  0.3989718824672977
  0.8334178223199780  0.6665871423272763  0.3985781425324336
  0.8330073459619662  0.7912775593083201  0.3993010428233146
  0.8328310003553888  0.9159251623190515  0.3996145531559201
  0.9585217994430438  0.0417848090355899  0.3995397033773706
  0.9584566190933708  0.1665412960993846  0.3993996249258191
  0.9583338569261129  0.2914547157806900  0.3992912406978860
  0.9581692262622684  0.4165308786638324  0.3997290660960152
  0.9582054133384110  0.5417622855281250  0.4000021135331870
  0.9582605463002059  0.6669564925986270  0.3997333251701580
  0.9583115299976626  0.7920542888155548  0.3995015891679273
  0.9584584874099634  0.9170291001329153  0.3995089662996575
  0.4118444624697089  0.5848898038084905  0.3985407687791038
  0.4631500187344333  0.4151005939060394  0.3981438392494329
 
  0.00000000E+00  0.00000000E+00  0.00000000E+00
  0.00000000E+00  0.00000000E+00  0.00000000E+00
  0.00000000E+00  0.00000000E+00  0.00000000E+00
  0.00000000E+00  0.00000000E+00  0.00000000E+00
  0.00000000E+00  0.00000000E+00  0.00000000E+00
  0.00000000E+00  0.00000000E+00  0.00000000E+00
  0.00000000E+00  0.00000000E+00  0.00000000E+00
  0.00000000E+00  0.00000000E+00  0.00000000E+00
  0.00000000E+00  0.00000000E+00  0.00000000E+00
  0.00000000E+00  0.00000000E+00  0.00000000E+00
  0.00000000E+00  0.00000000E+00  0.00000000E+00
  0.00000000E+00  0.00000000E+00  0.00000000E+00
  0.00000000E+00  0.00000000E+00  0.00000000E+00
  0.00000000E+00  0.00000000E+00  0.00000000E+00
  0.00000000E+00  0.00000000E+00  0.00000000E+00
  0.00000000E+00  0.00000000E+00  0.00000000E+00
  0.00000000E+00  0.00000000E+00  0.00000000E+00
  0.00000000E+00  0.00000000E+00  0.00000000E+00
  0.00000000E+00  0.00000000E+00  0.00000000E+00
  0.00000000E+00  0.00000000E+00  0.00000000E+00
  0.00000000E+00  0.00000000E+00  0.00000000E+00
  0.00000000E+00  0.00000000E+00  0.00000000E+00
  0.00000000E+00  0.00000000E+00  0.00000000E+00
  0.00000000E+00  0.00000000E+00  0.00000000E+00
  0.00000000E+00  0.00000000E+00  0.00000000E+00
  0.00000000E+00  0.00000000E+00  0.00000000E+00
  0.00000000E+00  0.00000000E+00  0.00000000E+00
  0.00000000E+00  0.00000000E+00  0.00000000E+00
  0.00000000E+00  0.00000000E+00  0.00000000E+00
  0.00000000E+00  0.00000000E+00  0.00000000E+00
  0.00000000E+00  0.00000000E+00  0.00000000E+00
  0.00000000E+00  0.00000000E+00  0.00000000E+00
  0.00000000E+00  0.00000000E+00  0.00000000E+00
  0.00000000E+00  0.00000000E+00  0.00000000E+00
  0.00000000E+00  0.00000000E+00  0.00000000E+00
  0.00000000E+00  0.00000000E+00  0.00000000E+00
  0.00000000E+00  0.00000000E+00  0.00000000E+00
  0.00000000E+00  0.00000000E+00  0.00000000E+00
  0.00000000E+00  0.00000000E+00  0.00000000E+00
  0.00000000E+00  0.00000000E+00  0.00000000E+00
  0.00000000E+00  0.00000000E+00  0.00000000E+00
  0.00000000E+00  0.00000000E+00  0.00000000E+00
  0.00000000E+00  0.00000000E+00  0.00000000E+00
  0.00000000E+00  0.00000000E+00  0.00000000E+00
  0.00000000E+00  0.00000000E+00  0.00000000E+00
  0.00000000E+00  0.00000000E+00  0.00000000E+00
  0.00000000E+00  0.00000000E+00  0.00000000E+00
  0.00000000E+00  0.00000000E+00  0.00000000E+00
  0.00000000E+00  0.00000000E+00  0.00000000E+00
  0.00000000E+00  0.00000000E+00  0.00000000E+00
  0.00000000E+00  0.00000000E+00  0.00000000E+00
  0.00000000E+00  0.00000000E+00  0.00000000E+00
  0.00000000E+00  0.00000000E+00  0.00000000E+00
  0.00000000E+00  0.00000000E+00  0.00000000E+00
  0.00000000E+00  0.00000000E+00  0.00000000E+00
  0.00000000E+00  0.00000000E+00  0.00000000E+00
  0.00000000E+00  0.00000000E+00  0.00000000E+00
  0.00000000E+00  0.00000000E+00  0.00000000E+00
  0.00000000E+00  0.00000000E+00  0.00000000E+00
  0.00000000E+00  0.00000000E+00  0.00000000E+00
  0.00000000E+00  0.00000000E+00  0.00000000E+00
  0.00000000E+00  0.00000000E+00  0.00000000E+00
  0.00000000E+00  0.00000000E+00  0.00000000E+00
  0.00000000E+00  0.00000000E+00  0.00000000E+00
  0.00000000E+00  0.00000000E+00  0.00000000E+00
  0.00000000E+00  0.00000000E+00  0.00000000E+00
  0.00000000E+00  0.00000000E+00  0.00000000E+00
  0.00000000E+00  0.00000000E+00  0.00000000E+00
  0.00000000E+00  0.00000000E+00  0.00000000E+00
  0.00000000E+00  0.00000000E+00  0.00000000E+00
  0.00000000E+00  0.00000000E+00  0.00000000E+00
  0.00000000E+00  0.00000000E+00  0.00000000E+00
  0.00000000E+00  0.00000000E+00  0.00000000E+00
  0.00000000E+00  0.00000000E+00  0.00000000E+00
  0.00000000E+00  0.00000000E+00  0.00000000E+00
  0.00000000E+00  0.00000000E+00  0.00000000E+00
  0.00000000E+00  0.00000000E+00  0.00000000E+00
  0.00000000E+00  0.00000000E+00  0.00000000E+00
  0.00000000E+00  0.00000000E+00  0.00000000E+00
  0.00000000E+00  0.00000000E+00  0.00000000E+00
  0.00000000E+00  0.00000000E+00  0.00000000E+00
  0.00000000E+00  0.00000000E+00  0.00000000E+00
  0.00000000E+00  0.00000000E+00  0.00000000E+00
  0.00000000E+00  0.00000000E+00  0.00000000E+00
  0.00000000E+00  0.00000000E+00  0.00000000E+00
  0.00000000E+00  0.00000000E+00  0.00000000E+00
  0.00000000E+00  0.00000000E+00  0.00000000E+00
  0.00000000E+00  0.00000000E+00  0.00000000E+00
  0.00000000E+00  0.00000000E+00  0.00000000E+00
  0.00000000E+00  0.00000000E+00  0.00000000E+00
  0.00000000E+00  0.00000000E+00  0.00000000E+00
  0.00000000E+00  0.00000000E+00  0.00000000E+00
  0.00000000E+00  0.00000000E+00  0.00000000E+00
  0.00000000E+00  0.00000000E+00  0.00000000E+00
  0.00000000E+00  0.00000000E+00  0.00000000E+00
  0.00000000E+00  0.00000000E+00  0.00000000E+00
  0.00000000E+00  0.00000000E+00  0.00000000E+00
  0.00000000E+00  0.00000000E+00  0.00000000E+00
  0.00000000E+00  0.00000000E+00  0.00000000E+00
  0.00000000E+00  0.00000000E+00  0.00000000E+00
  0.00000000E+00  0.00000000E+00  0.00000000E+00
  0.00000000E+00  0.00000000E+00  0.00000000E+00
  0.00000000E+00  0.00000000E+00  0.00000000E+00
  0.00000000E+00  0.00000000E+00  0.00000000E+00
  0.00000000E+00  0.00000000E+00  0.00000000E+00
  0.00000000E+00  0.00000000E+00  0.00000000E+00
  0.00000000E+00  0.00000000E+00  0.00000000E+00
  0.00000000E+00  0.00000000E+00  0.00000000E+00
  0.00000000E+00  0.00000000E+00  0.00000000E+00
  0.00000000E+00  0.00000000E+00  0.00000000E+00
  0.00000000E+00  0.00000000E+00  0.00000000E+00
  0.00000000E+00  0.00000000E+00  0.00000000E+00
  0.00000000E+00  0.00000000E+00  0.00000000E+00
  0.00000000E+00  0.00000000E+00  0.00000000E+00
  0.00000000E+00  0.00000000E+00  0.00000000E+00
  0.00000000E+00  0.00000000E+00  0.00000000E+00
  0.00000000E+00  0.00000000E+00  0.00000000E+00
  0.00000000E+00  0.00000000E+00  0.00000000E+00
  0.00000000E+00  0.00000000E+00  0.00000000E+00
  0.00000000E+00  0.00000000E+00  0.00000000E+00
  0.00000000E+00  0.00000000E+00  0.00000000E+00
  0.00000000E+00  0.00000000E+00  0.00000000E+00
  0.00000000E+00  0.00000000E+00  0.00000000E+00
  0.00000000E+00  0.00000000E+00  0.00000000E+00
  0.00000000E+00  0.00000000E+00  0.00000000E+00
  0.00000000E+00  0.00000000E+00  0.00000000E+00
  0.00000000E+00  0.00000000E+00  0.00000000E+00
