V1 C122 N4 O1                           
   1.00000000000000     
    19.8034484879607930   -0.0000839571584800   -0.0130744961362595
    -9.9017893103852828   17.0224067078144863   -0.0278853532011718
    -0.0197114076890898   -0.0603123778264676   29.8499284226665438
   V    C    N    O 
     1   122     4     1
Direct
  0.4381308126098640  0.5005933009637792  0.4270966600230661
  0.0421907274351934  0.0842494730660393  0.3997868606550131
  0.0412879499735655  0.2083640038819696  0.3997205862311606
  0.0404933310897931  0.3330433096606815  0.3995970853943464
  0.0405507683549487  0.4582327891923369  0.3995780216323828
  0.0413579713928432  0.5837373503892190  0.3998186716888882
  0.0421166268126946  0.7091963011600890  0.3999716089581248
  0.0424042838942166  0.8344527732683242  0.4000075524243150
  0.0425080705382988  0.9596667319092921  0.3998856356164976
  0.1682800220663592  0.0859507054216186  0.4000641637476572
  0.1678458845708148  0.2106406421890262  0.4002008782248527
  0.1654517442625716  0.3338836122829302  0.4000524351537828
  0.1643643447257916  0.4585316948317853  0.3993371306086653
  0.1652447872172549  0.5836512851919547  0.3994203157099355
  0.1664349833561837  0.7089420893676747  0.3997843991506286
  0.1670716475532060  0.8344396701462377  0.3999815597260670
  0.1675566931098830  0.9600862771094163  0.3999856265361298
  0.2926979248391380  0.0859455691368643  0.4000333321721337
  0.2942849030986704  0.2135297647220991  0.4012212635055240
  0.2931286945976245  0.3393723913810652  0.4026444131352787
  0.2879871854286293  0.4581184244784056  0.4014673133612545
  0.2887270212650786  0.5829487331555844  0.3997565436712102
  0.2907348395249989  0.7083631671345665  0.3996635355211369
  0.2916629082420124  0.8339023333480957  0.3997728523137877
  0.2921733740881232  0.9596536545922111  0.3998524671614426
  0.4170788306075654  0.0842341458030103  0.3997851479212955
  0.4178323811328050  0.2106246529890774  0.4001507704798662
  0.4212921983197525  0.3393515087402275  0.4024219746086097
  0.4147753686334606  0.7057978109696459  0.4004052371290320
  0.4161534513374765  0.8321603173696533  0.3998299973230095
  0.4166849679789488  0.9582496918078609  0.3997735792769144
  0.5415696278093550  0.0826363000960212  0.3998121870498917
  0.5421075738142609  0.2083553862368875  0.3997501997342221
  0.5434785410985707  0.3338765814276463  0.3999639940682153
  0.5451928559276371  0.4581127000748378  0.4010712302619347
  0.5382838638476084  0.7015168950012576  0.4022486305066949
  0.5404948796906285  0.8300879390487181  0.4004316708530399
  0.5411390444533307  0.9566425875476103  0.3999002134750226
  0.6661521816043607  0.0819887475810291  0.3999783317999286
  0.6665998267861175  0.2075116689927885  0.3998790745456273
  0.6675907228526080  0.3330384919152882  0.3996466630390462
  0.6692275629213865  0.4585365276821634  0.3993337510356147
  0.6692880021048850  0.5829581391165982  0.3995860885876733
  0.6660726498431355  0.7058171521162253  0.4002582332412239
  0.6646219399443100  0.8300999720266322  0.4003867078413057
  0.6656223204227972  0.9562278392872783  0.4000707128005717
  0.7908652746905269  0.0819995267782928  0.3999585395878278
  0.7911965002760861  0.2073627079626301  0.4000325504310744
  0.7917710664785457  0.3327681903094462  0.3998806105082898
  0.7927307599179981  0.4582359623599530  0.3996376884159379
  0.7934596155173109  0.5836636430411248  0.3994888817610715
  0.7926828729213857  0.7083901469514704  0.3996866291616841
  0.7910426046407041  0.8321914262580347  0.3998223470224559
  0.7905368699349169  0.9566656790513813  0.3998753298470358
  0.9160958709149768  0.0826529261742775  0.3997660249444334
  0.9159454239180511  0.2075217717207896  0.3998477452182463
  0.9160335748600440  0.3327708279658411  0.3998708951375083
  0.9166511473136473  0.4582620420063923  0.3998688880701489
  0.9174189183510422  0.5837382655703330  0.3998389051052073
  0.9175532858264901  0.7089609299887749  0.3998225878795693
  0.9172712010319634  0.8339253090498223  0.3998163694714832
  0.9165963566132568  0.9582756380301883  0.3997872880666640
  0.0845565349886307  0.0434310133478168  0.3998706494551714
  0.0840653885472655  0.1679198291122185  0.3998076357137280
  0.0824272655280674  0.2917037930295567  0.3997051426267479
  0.0816234022448526  0.4163881885407361  0.3994223698909500
  0.0823362850044047  0.5418043600596015  0.3995948066067840
  0.0832834663888662  0.6672702383875611  0.3998736621234673
  0.0838601558301945  0.7926886146896135  0.4000279451786593
  0.0841998631677192  0.9180798984418247  0.3999780885519064
  0.2094434839528837  0.0438497546114566  0.4000277064887832
  0.2104827269892902  0.1700094959353767  0.4004931886988747
  0.2090648163203524  0.2943202414918431  0.4006386870621366
  0.2058399114954203  0.4171287803416031  0.3998912310927611
  0.2058508562482518  0.5415171958474302  0.3993152979621226
  0.2074689083007971  0.6670133928774054  0.3996011293946396
  0.2084475793500834  0.7925405276345775  0.3998542673200810
  0.2088990429035042  0.9180701871162013  0.3999543823723776
  0.3338939786271028  0.0434151851833334  0.3998407069675844
  0.3345711941029547  0.1700092986094013  0.4004509044950164
  0.3368530992644362  0.2986472906472001  0.4026639447653940
  0.3299169609978304  0.5420023545533432  0.4012941727090377
  0.3315961822904620  0.6662024091661997  0.3998976326197435
  0.3329356470854277  0.7917121949943728  0.3997363715886718
  0.3334671286051839  0.9174232331789528  0.3997934901392570
  0.4583396914752738  0.0418014236655954  0.3997771985565328
  0.4588756417510266  0.1678910087610929  0.3998045857456446
  0.4602998324700846  0.2943076747131422  0.4004975444563231
  0.4538399280531495  0.6608064601125564  0.4022193789705786
  0.4572291885830597  0.7894636461918849  0.4001221834243325
  0.4579522997001745  0.9158272815869766  0.3998105358352683
  0.5828614693623365  0.0404006290662491  0.3998868585142190
  0.5833709060160337  0.1661477143583730  0.3997874526051390
  0.5843183139134145  0.2916897443256591  0.3997231467820633
  0.5863477623022412  0.4171161296932303  0.3997363689560942
  0.5871530473649154  0.5420124207351078  0.4008867312042735
  0.5820294302729495  0.6608254444565755  0.4020016927884944
  0.5808147285952031  0.7866015642636307  0.4010262746223562
  0.5823608554917039  0.9141385926341534  0.4000974949641822
  0.7075024512591725  0.0399818070069585  0.3999987643966547
  0.7079743091567020  0.1656036007405272  0.4000067126720196
  0.7086164099551232  0.2910945204872794  0.3998053985796680
  0.7098066923204049  0.4163886483444545  0.3994918368033377
  0.7107219467835013  0.5415263371716262  0.3993108037413422
  0.7096563133355883  0.6662145263508413  0.3997932088545433
  0.7072687039185158  0.7894868196188908  0.4000608435851895
  0.7068029861511775  0.9141459535605981  0.4000705935224901
  0.8325677469863090  0.0404186716938362  0.3998497096320783
  0.8326656471410971  0.1656127759311816  0.3999906682378075
  0.8329414041097806  0.2908454422939264  0.3999826897929283
  0.8336919282932835  0.4162972809606282  0.3998275626132548
  0.8345175074132516  0.5418129179183797  0.3996539509239455
  0.8345846267551088  0.6670232365910023  0.3996521202155879
  0.8338003088311183  0.7917242013452395  0.3997684770358715
  0.8329006790260767  0.9158448413835120  0.3998090461842125
  0.9584984522105312  0.0418322722746701  0.3997586624458561
  0.9578159965285065  0.1661684023111449  0.3997414591960734
  0.9575221629248376  0.2911010932753755  0.3997735583619692
  0.9576502595007020  0.4162996604757003  0.3998072583919705
  0.9584046169268927  0.5417690613129470  0.3998782699523364
  0.9590199983029426  0.6672738254388993  0.3998906152185193
  0.9591227025052202  0.7925545889038140  0.3998929827140758
  0.9589798567539670  0.9174418801848185  0.3998303692391707
  0.4100529475598089  0.5804055183161683  0.4039729256446997
  0.5454321885486635  0.5804224076357055  0.4035200826626255
  0.3297703065187711  0.4198061126142172  0.4044221026158870
  0.4651072188127441  0.4197902730062026  0.4039769085570742
  0.4400640234989947  0.5024460134591382  0.4811839684287397
 
  0.00000000E+00  0.00000000E+00  0.00000000E+00
  0.00000000E+00  0.00000000E+00  0.00000000E+00
  0.00000000E+00  0.00000000E+00  0.00000000E+00
  0.00000000E+00  0.00000000E+00  0.00000000E+00
  0.00000000E+00  0.00000000E+00  0.00000000E+00
  0.00000000E+00  0.00000000E+00  0.00000000E+00
  0.00000000E+00  0.00000000E+00  0.00000000E+00
  0.00000000E+00  0.00000000E+00  0.00000000E+00
  0.00000000E+00  0.00000000E+00  0.00000000E+00
  0.00000000E+00  0.00000000E+00  0.00000000E+00
  0.00000000E+00  0.00000000E+00  0.00000000E+00
  0.00000000E+00  0.00000000E+00  0.00000000E+00
  0.00000000E+00  0.00000000E+00  0.00000000E+00
  0.00000000E+00  0.00000000E+00  0.00000000E+00
  0.00000000E+00  0.00000000E+00  0.00000000E+00
  0.00000000E+00  0.00000000E+00  0.00000000E+00
  0.00000000E+00  0.00000000E+00  0.00000000E+00
  0.00000000E+00  0.00000000E+00  0.00000000E+00
  0.00000000E+00  0.00000000E+00  0.00000000E+00
  0.00000000E+00  0.00000000E+00  0.00000000E+00
  0.00000000E+00  0.00000000E+00  0.00000000E+00
  0.00000000E+00  0.00000000E+00  0.00000000E+00
  0.00000000E+00  0.00000000E+00  0.00000000E+00
  0.00000000E+00  0.00000000E+00  0.00000000E+00
  0.00000000E+00  0.00000000E+00  0.00000000E+00
  0.00000000E+00  0.00000000E+00  0.00000000E+00
  0.00000000E+00  0.00000000E+00  0.00000000E+00
  0.00000000E+00  0.00000000E+00  0.00000000E+00
  0.00000000E+00  0.00000000E+00  0.00000000E+00
  0.00000000E+00  0.00000000E+00  0.00000000E+00
  0.00000000E+00  0.00000000E+00  0.00000000E+00
  0.00000000E+00  0.00000000E+00  0.00000000E+00
  0.00000000E+00  0.00000000E+00  0.00000000E+00
  0.00000000E+00  0.00000000E+00  0.00000000E+00
  0.00000000E+00  0.00000000E+00  0.00000000E+00
  0.00000000E+00  0.00000000E+00  0.00000000E+00
  0.00000000E+00  0.00000000E+00  0.00000000E+00
  0.00000000E+00  0.00000000E+00  0.00000000E+00
  0.00000000E+00  0.00000000E+00  0.00000000E+00
  0.00000000E+00  0.00000000E+00  0.00000000E+00
  0.00000000E+00  0.00000000E+00  0.00000000E+00
  0.00000000E+00  0.00000000E+00  0.00000000E+00
  0.00000000E+00  0.00000000E+00  0.00000000E+00
  0.00000000E+00  0.00000000E+00  0.00000000E+00
  0.00000000E+00  0.00000000E+00  0.00000000E+00
  0.00000000E+00  0.00000000E+00  0.00000000E+00
  0.00000000E+00  0.00000000E+00  0.00000000E+00
  0.00000000E+00  0.00000000E+00  0.00000000E+00
  0.00000000E+00  0.00000000E+00  0.00000000E+00
  0.00000000E+00  0.00000000E+00  0.00000000E+00
  0.00000000E+00  0.00000000E+00  0.00000000E+00
  0.00000000E+00  0.00000000E+00  0.00000000E+00
  0.00000000E+00  0.00000000E+00  0.00000000E+00
  0.00000000E+00  0.00000000E+00  0.00000000E+00
  0.00000000E+00  0.00000000E+00  0.00000000E+00
  0.00000000E+00  0.00000000E+00  0.00000000E+00
  0.00000000E+00  0.00000000E+00  0.00000000E+00
  0.00000000E+00  0.00000000E+00  0.00000000E+00
  0.00000000E+00  0.00000000E+00  0.00000000E+00
  0.00000000E+00  0.00000000E+00  0.00000000E+00
  0.00000000E+00  0.00000000E+00  0.00000000E+00
  0.00000000E+00  0.00000000E+00  0.00000000E+00
  0.00000000E+00  0.00000000E+00  0.00000000E+00
  0.00000000E+00  0.00000000E+00  0.00000000E+00
  0.00000000E+00  0.00000000E+00  0.00000000E+00
  0.00000000E+00  0.00000000E+00  0.00000000E+00
  0.00000000E+00  0.00000000E+00  0.00000000E+00
  0.00000000E+00  0.00000000E+00  0.00000000E+00
  0.00000000E+00  0.00000000E+00  0.00000000E+00
  0.00000000E+00  0.00000000E+00  0.00000000E+00
  0.00000000E+00  0.00000000E+00  0.00000000E+00
  0.00000000E+00  0.00000000E+00  0.00000000E+00
  0.00000000E+00  0.00000000E+00  0.00000000E+00
  0.00000000E+00  0.00000000E+00  0.00000000E+00
  0.00000000E+00  0.00000000E+00  0.00000000E+00
  0.00000000E+00  0.00000000E+00  0.00000000E+00
  0.00000000E+00  0.00000000E+00  0.00000000E+00
  0.00000000E+00  0.00000000E+00  0.00000000E+00
  0.00000000E+00  0.00000000E+00  0.00000000E+00
  0.00000000E+00  0.00000000E+00  0.00000000E+00
  0.00000000E+00  0.00000000E+00  0.00000000E+00
  0.00000000E+00  0.00000000E+00  0.00000000E+00
  0.00000000E+00  0.00000000E+00  0.00000000E+00
  0.00000000E+00  0.00000000E+00  0.00000000E+00
  0.00000000E+00  0.00000000E+00  0.00000000E+00
  0.00000000E+00  0.00000000E+00  0.00000000E+00
  0.00000000E+00  0.00000000E+00  0.00000000E+00
  0.00000000E+00  0.00000000E+00  0.00000000E+00
  0.00000000E+00  0.00000000E+00  0.00000000E+00
  0.00000000E+00  0.00000000E+00  0.00000000E+00
  0.00000000E+00  0.00000000E+00  0.00000000E+00
  0.00000000E+00  0.00000000E+00  0.00000000E+00
  0.00000000E+00  0.00000000E+00  0.00000000E+00
  0.00000000E+00  0.00000000E+00  0.00000000E+00
  0.00000000E+00  0.00000000E+00  0.00000000E+00
  0.00000000E+00  0.00000000E+00  0.00000000E+00
  0.00000000E+00  0.00000000E+00  0.00000000E+00
  0.00000000E+00  0.00000000E+00  0.00000000E+00
  0.00000000E+00  0.00000000E+00  0.00000000E+00
  0.00000000E+00  0.00000000E+00  0.00000000E+00
  0.00000000E+00  0.00000000E+00  0.00000000E+00
  0.00000000E+00  0.00000000E+00  0.00000000E+00
  0.00000000E+00  0.00000000E+00  0.00000000E+00
  0.00000000E+00  0.00000000E+00  0.00000000E+00
  0.00000000E+00  0.00000000E+00  0.00000000E+00
  0.00000000E+00  0.00000000E+00  0.00000000E+00
  0.00000000E+00  0.00000000E+00  0.00000000E+00
  0.00000000E+00  0.00000000E+00  0.00000000E+00
  0.00000000E+00  0.00000000E+00  0.00000000E+00
  0.00000000E+00  0.00000000E+00  0.00000000E+00
  0.00000000E+00  0.00000000E+00  0.00000000E+00
  0.00000000E+00  0.00000000E+00  0.00000000E+00
  0.00000000E+00  0.00000000E+00  0.00000000E+00
  0.00000000E+00  0.00000000E+00  0.00000000E+00
  0.00000000E+00  0.00000000E+00  0.00000000E+00
  0.00000000E+00  0.00000000E+00  0.00000000E+00
  0.00000000E+00  0.00000000E+00  0.00000000E+00
  0.00000000E+00  0.00000000E+00  0.00000000E+00
  0.00000000E+00  0.00000000E+00  0.00000000E+00
  0.00000000E+00  0.00000000E+00  0.00000000E+00
  0.00000000E+00  0.00000000E+00  0.00000000E+00
  0.00000000E+00  0.00000000E+00  0.00000000E+00
  0.00000000E+00  0.00000000E+00  0.00000000E+00
  0.00000000E+00  0.00000000E+00  0.00000000E+00
  0.00000000E+00  0.00000000E+00  0.00000000E+00
  0.00000000E+00  0.00000000E+00  0.00000000E+00
  0.00000000E+00  0.00000000E+00  0.00000000E+00
  0.00000000E+00  0.00000000E+00  0.00000000E+00
