Os1 C124 N2                             
   1.00000000000000     
    19.8256175774622783   -0.0402514075771668   -0.0003228637593218
    -9.9478119942096175   17.0507279760977823   -0.0002055480450547
    -0.0004849890731841   -0.0006441771626072   29.8021196852231505
   Os   C    N 
     1   124     2
Direct
  0.4375161885431974  0.4999986674993568  0.4247085403597256
  0.0426200771758709  0.0847526473785769  0.3999945680804576
  0.0420927913887086  0.2089289147200376  0.3997071954424595
  0.0412218211811808  0.3333450615814664  0.3995999593128273
  0.0405844189304832  0.4585884957627174  0.3996779727970519
  0.0409673974061286  0.5840070189292980  0.3999492570804827
  0.0414880789288102  0.7093459885193276  0.4001477050816177
  0.0418601618806649  0.8345869959657695  0.4000464805119109
  0.0423406902542067  0.9598393997810137  0.3999990181597037
  0.1684453072339387  0.0863473156476479  0.3999485140815511
  0.1689857285803350  0.2116199143880522  0.3998859555099791
  0.1670641576984540  0.3351798132111214  0.3987947439294037
  0.1643489651222702  0.4593556536514727  0.3991308001220982
  0.1646621898252247  0.5843382930006564  0.3990082596536365
  0.1657634422609904  0.7095652751196936  0.3997082855035817
  0.1666031814567913  0.8348891330914530  0.4000513910812581
  0.1673724840111088  0.9604219350841030  0.3999800368490045
  0.2929308843531723  0.0858437594539578  0.4000132213979111
  0.2952286224207076  0.2134895284648646  0.4008566486445225
  0.2959697112853312  0.3401226119459255  0.3998609782735047
  0.2886130628124173  0.4613647438801976  0.4003717613186277
  0.2880481328510297  0.5853864137414129  0.3998826999057150
  0.2898800912161845  0.7096689853058893  0.3995218644045497
  0.2911418820176347  0.8345416858427228  0.3997330622321039
  0.2919298776886280  0.9598686819215742  0.3999062952700250
  0.4172772060557757  0.0838877541610746  0.3996931446673856
  0.4183136266608448  0.2096784987395331  0.3998237892266296
  0.4226311838776622  0.3375812301505376  0.4048336626549565
  0.4137293709652662  0.7068368193558427  0.4008692718612508
  0.4156155522946965  0.8327865998341137  0.3994617596552367
  0.4164884003845831  0.9583347295284459  0.3998382498175581
  0.5417965529475802  0.0821319929820633  0.3998724319930972
  0.5426622014136308  0.2072451065243504  0.3995305803397990
  0.5442826706972065  0.3318912258603252  0.4002590057281447
  0.5462245303189278  0.4548123606995022  0.4036825096346729
  0.5410613408643381  0.5753220917475355  0.4003070164974959
  0.5369595302314764  0.7020332862250054  0.4023807276459141
  0.5397666360284276  0.8303091546726086  0.4003069117899251
  0.5410407501920517  0.9565823276878496  0.3998648924473299
  0.6663728680484085  0.0815074537442202  0.4000192380489264
  0.6671829181944091  0.2068735962956574  0.3998958435375892
  0.6682204555248070  0.3320466194107147  0.3993069341818720
  0.6696920463860575  0.4572886315218044  0.3987673721949831
  0.6687549738442379  0.5815042569799067  0.3990005330686182
  0.6637982963713706  0.7041211361795077  0.3992199794684519
  0.6640693821858543  0.8294702314871096  0.4000333399494783
  0.6655184127595754  0.9558608288367179  0.3999878326228759
  0.7911600318738802  0.0816293262040891  0.3999800377697876
  0.7916993727730000  0.2069218346229637  0.4000876223465792
  0.7923352598372010  0.3323308826303218  0.3999496006142819
  0.7930865813608153  0.4578006336939621  0.3995125181213625
  0.7931483495696798  0.5829965076586372  0.3994178548442669
  0.7914804058012325  0.7075133001969661  0.3992614757109693
  0.7901963041137625  0.8314426527865257  0.3998775943925447
  0.7903623169869838  0.9562634579169047  0.3999322261546182
  0.9164747843532244  0.0826887356222440  0.3999921557644774
  0.9165189099877131  0.2075441263356742  0.3999734995325896
  0.9165286279576211  0.3326831336010990  0.4001174253944287
  0.9167688228653629  0.4580951092114584  0.4001215071506602
  0.9171659470456422  0.5836083435077232  0.4000530711725797
  0.9168994164930027  0.7088446223830593  0.3999666523871011
  0.9165496937569251  0.8335737274425098  0.3999642056485342
  0.9163833739997357  0.9580669182567197  0.4000300066425568
  0.0846401870808118  0.0437664075934975  0.3999538388801255
  0.0848316857755993  0.1685929744373501  0.3998800308544048
  0.0835140760579589  0.2925134992165194  0.3992824870521454
  0.0818299133747908  0.4170214698786575  0.3994358833941376
  0.0818813183549792  0.5421951143243319  0.3995164677528797
  0.0826473833515065  0.6676552713644646  0.3999627638336259
  0.0833001544236475  0.7930757088098951  0.4001084196486088
  0.0838459469291040  0.9183783965888787  0.3999995974085648
  0.2094646562360215  0.0441384261380562  0.3999979277387531
  0.2109231308341808  0.1705369689531094  0.4000960232753389
  0.2112055441485961  0.2958848612872227  0.3992744944680481
  0.2062365950423737  0.4184944363997491  0.3990269170562877
  0.2053054938569964  0.5426988857379949  0.3987635135668195
  0.2067780562490130  0.6679532233699993  0.3993093311282197
  0.2078110330445623  0.7931231324057815  0.3998876499713540
  0.2086276588566102  0.9184850482214419  0.4000032208990312
  0.3339308521148168  0.0433908538064209  0.3998348919846216
  0.3352139918911033  0.1696589435506529  0.4003431181902145
  0.3380324561768718  0.2979487458674073  0.4024439022768088
  0.3339375079838206  0.4246634794676836  0.4003513842521960
  0.3287830604594953  0.5451661773646359  0.4036707415878353
  0.3307168841634167  0.6680823567273774  0.4002270228184467
  0.3323460787968162  0.7927512914062418  0.3995162290202205
  0.3332179263545770  0.9178561715614819  0.3998415644765796
  0.4585202846636473  0.0416554851921738  0.3998483221781803
  0.4593828250618393  0.1671885862115344  0.3994758356419869
  0.4612594578041402  0.2931300312881066  0.4009003929936863
  0.4523830268202226  0.6624050905841673  0.4048090969415201
  0.4566775137061006  0.7903025216945085  0.3998048550941622
  0.4577089019205623  0.9160962220220185  0.3996911554439165
  0.5830797129729723  0.0401100933864894  0.3999492825085654
  0.5838649260853443  0.1654391522859149  0.3997496619149911
  0.5851303509362558  0.2903130550600139  0.3995358014613907
  0.5869521878546095  0.4146008831966916  0.3998935810375908
  0.5863919943410183  0.5386313838317305  0.4003514810519582
  0.5790354529791901  0.6598784258225067  0.3998013276196162
  0.5797653017024382  0.7864997633467743  0.4007809477092559
  0.5820424100202267  0.9141391921532381  0.4000136698623436
  0.7076280577851667  0.0395878546099024  0.3999805357730910
  0.7084003196745456  0.1651079263813822  0.4000668047503017
  0.7092559980292527  0.2904275593225727  0.3996981761380221
  0.7103474482954792  0.4156702173742409  0.3990124803929024
  0.7106597438717580  0.5406640418377510  0.3991200233756661
  0.7079298885310248  0.6648297594247776  0.3987511983802076
  0.7060382022984003  0.7884078547384542  0.3998428161579948
  0.7065488982200985  0.9136821416959569  0.3999110375351314
  0.8326723070834114  0.0401974298219993  0.3999677611723745
  0.8331532389841941  0.1654280728830486  0.4000272144599391
  0.8335145517577737  0.2906486302811700  0.4001290095095419
  0.8340142417758604  0.4159770129365944  0.3999345389444021
  0.8343943818431853  0.5414162784281761  0.3996722741138031
  0.8337673542320078  0.6666774717522411  0.3995803939252847
  0.8329328759621117  0.7910922703978859  0.3997193865845688
  0.8324039383947022  0.9152905519437528  0.3999943014558798
  0.9586450454244702  0.0419719536732516  0.4000164139982854
  0.9584774182561444  0.1664514392872627  0.3999160752871792
  0.9580967191285494  0.2911827096832406  0.3999633968555716
  0.9577987804193621  0.4163818953996550  0.4000519647342438
  0.9582001429690662  0.5418828895968986  0.4001222828643378
  0.9584546361190698  0.6673025904076081  0.4001212945300927
  0.9584924421748511  0.7924645240814212  0.3999965662949788
  0.9585482930221046  0.9173428480574973  0.4000397092700289
  0.4076337346064385  0.5822347583928653  0.4116705368523976
  0.4673739511683072  0.4177504084520897  0.4116852779661355
 
  0.00000000E+00  0.00000000E+00  0.00000000E+00
  0.00000000E+00  0.00000000E+00  0.00000000E+00
  0.00000000E+00  0.00000000E+00  0.00000000E+00
  0.00000000E+00  0.00000000E+00  0.00000000E+00
  0.00000000E+00  0.00000000E+00  0.00000000E+00
  0.00000000E+00  0.00000000E+00  0.00000000E+00
  0.00000000E+00  0.00000000E+00  0.00000000E+00
  0.00000000E+00  0.00000000E+00  0.00000000E+00
  0.00000000E+00  0.00000000E+00  0.00000000E+00
  0.00000000E+00  0.00000000E+00  0.00000000E+00
  0.00000000E+00  0.00000000E+00  0.00000000E+00
  0.00000000E+00  0.00000000E+00  0.00000000E+00
  0.00000000E+00  0.00000000E+00  0.00000000E+00
  0.00000000E+00  0.00000000E+00  0.00000000E+00
  0.00000000E+00  0.00000000E+00  0.00000000E+00
  0.00000000E+00  0.00000000E+00  0.00000000E+00
  0.00000000E+00  0.00000000E+00  0.00000000E+00
  0.00000000E+00  0.00000000E+00  0.00000000E+00
  0.00000000E+00  0.00000000E+00  0.00000000E+00
  0.00000000E+00  0.00000000E+00  0.00000000E+00
  0.00000000E+00  0.00000000E+00  0.00000000E+00
  0.00000000E+00  0.00000000E+00  0.00000000E+00
  0.00000000E+00  0.00000000E+00  0.00000000E+00
  0.00000000E+00  0.00000000E+00  0.00000000E+00
  0.00000000E+00  0.00000000E+00  0.00000000E+00
  0.00000000E+00  0.00000000E+00  0.00000000E+00
  0.00000000E+00  0.00000000E+00  0.00000000E+00
  0.00000000E+00  0.00000000E+00  0.00000000E+00
  0.00000000E+00  0.00000000E+00  0.00000000E+00
  0.00000000E+00  0.00000000E+00  0.00000000E+00
  0.00000000E+00  0.00000000E+00  0.00000000E+00
  0.00000000E+00  0.00000000E+00  0.00000000E+00
  0.00000000E+00  0.00000000E+00  0.00000000E+00
  0.00000000E+00  0.00000000E+00  0.00000000E+00
  0.00000000E+00  0.00000000E+00  0.00000000E+00
  0.00000000E+00  0.00000000E+00  0.00000000E+00
  0.00000000E+00  0.00000000E+00  0.00000000E+00
  0.00000000E+00  0.00000000E+00  0.00000000E+00
  0.00000000E+00  0.00000000E+00  0.00000000E+00
  0.00000000E+00  0.00000000E+00  0.00000000E+00
  0.00000000E+00  0.00000000E+00  0.00000000E+00
  0.00000000E+00  0.00000000E+00  0.00000000E+00
  0.00000000E+00  0.00000000E+00  0.00000000E+00
  0.00000000E+00  0.00000000E+00  0.00000000E+00
  0.00000000E+00  0.00000000E+00  0.00000000E+00
  0.00000000E+00  0.00000000E+00  0.00000000E+00
  0.00000000E+00  0.00000000E+00  0.00000000E+00
  0.00000000E+00  0.00000000E+00  0.00000000E+00
  0.00000000E+00  0.00000000E+00  0.00000000E+00
  0.00000000E+00  0.00000000E+00  0.00000000E+00
  0.00000000E+00  0.00000000E+00  0.00000000E+00
  0.00000000E+00  0.00000000E+00  0.00000000E+00
  0.00000000E+00  0.00000000E+00  0.00000000E+00
  0.00000000E+00  0.00000000E+00  0.00000000E+00
  0.00000000E+00  0.00000000E+00  0.00000000E+00
  0.00000000E+00  0.00000000E+00  0.00000000E+00
  0.00000000E+00  0.00000000E+00  0.00000000E+00
  0.00000000E+00  0.00000000E+00  0.00000000E+00
  0.00000000E+00  0.00000000E+00  0.00000000E+00
  0.00000000E+00  0.00000000E+00  0.00000000E+00
  0.00000000E+00  0.00000000E+00  0.00000000E+00
  0.00000000E+00  0.00000000E+00  0.00000000E+00
  0.00000000E+00  0.00000000E+00  0.00000000E+00
  0.00000000E+00  0.00000000E+00  0.00000000E+00
  0.00000000E+00  0.00000000E+00  0.00000000E+00
  0.00000000E+00  0.00000000E+00  0.00000000E+00
  0.00000000E+00  0.00000000E+00  0.00000000E+00
  0.00000000E+00  0.00000000E+00  0.00000000E+00
  0.00000000E+00  0.00000000E+00  0.00000000E+00
  0.00000000E+00  0.00000000E+00  0.00000000E+00
  0.00000000E+00  0.00000000E+00  0.00000000E+00
  0.00000000E+00  0.00000000E+00  0.00000000E+00
  0.00000000E+00  0.00000000E+00  0.00000000E+00
  0.00000000E+00  0.00000000E+00  0.00000000E+00
  0.00000000E+00  0.00000000E+00  0.00000000E+00
  0.00000000E+00  0.00000000E+00  0.00000000E+00
  0.00000000E+00  0.00000000E+00  0.00000000E+00
  0.00000000E+00  0.00000000E+00  0.00000000E+00
  0.00000000E+00  0.00000000E+00  0.00000000E+00
  0.00000000E+00  0.00000000E+00  0.00000000E+00
  0.00000000E+00  0.00000000E+00  0.00000000E+00
  0.00000000E+00  0.00000000E+00  0.00000000E+00
  0.00000000E+00  0.00000000E+00  0.00000000E+00
  0.00000000E+00  0.00000000E+00  0.00000000E+00
  0.00000000E+00  0.00000000E+00  0.00000000E+00
  0.00000000E+00  0.00000000E+00  0.00000000E+00
  0.00000000E+00  0.00000000E+00  0.00000000E+00
  0.00000000E+00  0.00000000E+00  0.00000000E+00
  0.00000000E+00  0.00000000E+00  0.00000000E+00
  0.00000000E+00  0.00000000E+00  0.00000000E+00
  0.00000000E+00  0.00000000E+00  0.00000000E+00
  0.00000000E+00  0.00000000E+00  0.00000000E+00
  0.00000000E+00  0.00000000E+00  0.00000000E+00
  0.00000000E+00  0.00000000E+00  0.00000000E+00
  0.00000000E+00  0.00000000E+00  0.00000000E+00
  0.00000000E+00  0.00000000E+00  0.00000000E+00
  0.00000000E+00  0.00000000E+00  0.00000000E+00
  0.00000000E+00  0.00000000E+00  0.00000000E+00
  0.00000000E+00  0.00000000E+00  0.00000000E+00
  0.00000000E+00  0.00000000E+00  0.00000000E+00
  0.00000000E+00  0.00000000E+00  0.00000000E+00
  0.00000000E+00  0.00000000E+00  0.00000000E+00
  0.00000000E+00  0.00000000E+00  0.00000000E+00
  0.00000000E+00  0.00000000E+00  0.00000000E+00
  0.00000000E+00  0.00000000E+00  0.00000000E+00
  0.00000000E+00  0.00000000E+00  0.00000000E+00
  0.00000000E+00  0.00000000E+00  0.00000000E+00
  0.00000000E+00  0.00000000E+00  0.00000000E+00
  0.00000000E+00  0.00000000E+00  0.00000000E+00
  0.00000000E+00  0.00000000E+00  0.00000000E+00
  0.00000000E+00  0.00000000E+00  0.00000000E+00
  0.00000000E+00  0.00000000E+00  0.00000000E+00
  0.00000000E+00  0.00000000E+00  0.00000000E+00
  0.00000000E+00  0.00000000E+00  0.00000000E+00
  0.00000000E+00  0.00000000E+00  0.00000000E+00
  0.00000000E+00  0.00000000E+00  0.00000000E+00
  0.00000000E+00  0.00000000E+00  0.00000000E+00
  0.00000000E+00  0.00000000E+00  0.00000000E+00
  0.00000000E+00  0.00000000E+00  0.00000000E+00
  0.00000000E+00  0.00000000E+00  0.00000000E+00
  0.00000000E+00  0.00000000E+00  0.00000000E+00
  0.00000000E+00  0.00000000E+00  0.00000000E+00
  0.00000000E+00  0.00000000E+00  0.00000000E+00
  0.00000000E+00  0.00000000E+00  0.00000000E+00
  0.00000000E+00  0.00000000E+00  0.00000000E+00
  0.00000000E+00  0.00000000E+00  0.00000000E+00
  0.00000000E+00  0.00000000E+00  0.00000000E+00
