Co1 C122 N4 O1                          
   1.00000000000000     
    19.8011744019147251   -0.0000248493800575    0.0128089375612113
    -9.9005754448336418   17.0148024748472437   -0.0048671358054962
     0.0192921160248577    0.0027060120903237   29.8665256661145264
   Co   C    N    O 
     1   122     4     1
Direct
  0.4374258429943987  0.4999794844862905  0.4272531271802681
  0.0421799611692969  0.0843341506550037  0.4003355543611433
  0.0411350618184408  0.2083081485772054  0.4005530329208166
  0.0404114933230954  0.3329429266485857  0.3999520156974021
  0.0405649879391171  0.4581939960297136  0.3990469483114009
  0.0413576029799188  0.5837077593938962  0.3987428443709701
  0.0420969850494902  0.7091821065107276  0.3989080787845699
  0.0424583503944249  0.8345294811994355  0.3992753233694301
  0.0425725215884735  0.9597583567179193  0.3997976212099643
  0.1683232490650329  0.0861436923493688  0.4014394248934972
  0.1677703475962751  0.2107227783148721  0.4026119607752136
  0.1652985261022299  0.3338160502277182  0.4023399252277655
  0.1643903448045061  0.4584377613016499  0.4006913077588841
  0.1652628433194513  0.5835804781418078  0.3998140902899854
  0.1663966727120975  0.7089790829659615  0.3993219785906002
  0.1670921953445885  0.8345262887348367  0.3992487816702205
  0.1676344453372006  0.9602417533668778  0.3999880167600212
  0.2928387676875049  0.0861526347642587  0.4014171995763727
  0.2944837044257997  0.2139706972730460  0.4039211850443796
  0.2930281993394410  0.3397473560766914  0.4057055317207478
  0.2879988430314308  0.4577703524866921  0.4042292690433002
  0.2887505540845218  0.5829960214087874  0.4021777046610325
  0.2906016153507297  0.7083701859121985  0.4009264358907065
  0.2916138792173022  0.8339290896177417  0.3997259857124777
  0.2922018644157059  0.9597601843040433  0.3997605134182192
  0.4171630260870627  0.0843322989680310  0.4003193766022458
  0.4179567319506619  0.2107272735131240  0.4026012203054499
  0.4217005330854405  0.3397453602976281  0.4057121120626913
  0.4145213890047504  0.7055799218726757  0.4036821682649532
  0.4160284903195887  0.8320297983127625  0.4011084418899452
  0.4166453914396161  0.9581993781022886  0.3997233242781845
  0.5415548022817696  0.0825311803439471  0.3996304413343041
  0.5421793776999162  0.2083062951759438  0.4005598238323902
  0.5435147527209425  0.3338229889291243  0.4023425981552701
  0.5447498093398380  0.4577750009981729  0.4042469417324911
  0.5379535631420059  0.7009238903299304  0.4055880489785775
  0.5402437198112522  0.8297554062753268  0.4028471901301627
  0.5410295595438102  0.9564481249546114  0.4004783794584615
  0.6660683936092054  0.0817963418069055  0.3996388123630980
  0.6665961790777420  0.2074191905638328  0.3994113541380498
  0.6675268228075273  0.3329432618557586  0.3999618083396478
  0.6690426694435191  0.4584444419476062  0.4007024855931183
  0.6692349149795850  0.5829963421646398  0.4021882626339772
  0.6660505441544313  0.7055804984639136  0.4036804955536836
  0.6645139515957713  0.8297449225261666  0.4028274737700744
  0.6654771850324700  0.9559364671838531  0.4009585690863352
  0.7907489942321567  0.0817966217539964  0.3996183236681549
  0.7911238173297348  0.2072209405205866  0.3991131212160013
  0.7917261847082153  0.3326984850847050  0.3989340117268785
  0.7926273744665111  0.4581966980411502  0.3990397775718659
  0.7933220004734723  0.5835880430790987  0.3998098842557668
  0.7927719283609803  0.7083740409152228  0.4009237889522140
  0.7910124007759416  0.8320311471023383  0.4010996725247072
  0.7904304974727707  0.9564487672271805  0.4004572866444899
  0.9159902178730084  0.0825354890427623  0.3996152534629178
  0.9158449847201443  0.2074273873005070  0.3993780942344005
  0.9159768379266608  0.3327024463535094  0.3989143144470552
  0.9165946300895942  0.4581927999624851  0.3985991887321522
  0.9173602188374440  0.5837134173386619  0.3987458322000216
  0.9175929071668626  0.7089895065540123  0.3993372611897834
  0.9173329034586474  0.8339347581569799  0.3997507887309349
  0.9165637378062420  0.9582010588112360  0.3997269738013700
  0.0845819306433226  0.0435517186495864  0.4004829100974825
  0.0839976163606544  0.1679686596169323  0.4010956327145582
  0.0822351812206129  0.2916297612430985  0.4009125206962029
  0.0816829655270429  0.4164206956139665  0.3998116066079347
  0.0823722649841102  0.5418085094747476  0.3990460732320892
  0.0832745779923569  0.6673019343057559  0.3989102862466810
  0.0839063087509841  0.7927835789904187  0.3991098693175232
  0.0842720925245509  0.9182037443425852  0.3996452856977818
  0.2095419010648397  0.0440635124052597  0.4009561777538426
  0.2104889788691015  0.1702439557878218  0.4028235726982253
  0.2089423968076267  0.2944145597293227  0.4036587444903963
  0.2057584022173620  0.4170052401143838  0.4021631266720812
  0.2059552772933949  0.5415626835795189  0.4006962584315820
  0.2074675698320423  0.6670602268464160  0.3999571072842730
  0.2084207854581741  0.7925763309984574  0.3993770370970522
  0.2089554832468005  0.9182048806843305  0.3996172776158841
  0.3339817897778001  0.0435511488121080  0.4004507180157786
  0.3347692644957684  0.1702540123879535  0.4028113041198856
  0.3370299633980351  0.2990748117878793  0.4055438144507212
  0.3302309875561277  0.5422292884557870  0.4042401786540622
  0.3314814733997790  0.6661843684758890  0.4023621902572300
  0.3328296700578224  0.7916949923159957  0.4005631306998374
  0.3334559449497047  0.9174662060764753  0.3996128876146907
  0.4583656628282362  0.0417992311826491  0.3997225621911052
  0.4589806151288347  0.1679699706174047  0.4010882847390194
  0.4604666905292567  0.2944182293258777  0.4036530022028789
  0.4532830410185651  0.6602502654827552  0.4057399350580815
  0.4570488715616859  0.7892764193729821  0.4026323915234601
  0.4578458134123341  0.9156657894974352  0.4003363384185121
  0.5828134763478580  0.0402423755246875  0.3997887236449846
  0.5833984319243295  0.1660676002033841  0.3997478482301089
  0.5843953858534927  0.2916289722499010  0.4009201767080711
  0.5862379862001557  0.4170066459098748  0.4021728463979404
  0.5869778278715596  0.5422296020756240  0.4042588386604200
  0.5819564041253279  0.6602554974169268  0.4057480565236678
  0.5805128017350784  0.7860294334683837  0.4039549490196854
  0.5821802295144061  0.9138583327602531  0.4014418547154250
  0.7073928000393821  0.0397608391090444  0.3999847205927740
  0.7079298479346325  0.1654747104867213  0.3992764722029788
  0.7086034338546044  0.2910150620137811  0.3993452070976499
  0.7097342212721411  0.4164162018486650  0.3998099057813959
  0.7106008458184675  0.5415596783041142  0.4007059798987924
  0.7096946137596644  0.6661796923211254  0.4023608528497097
  0.7072294985480423  0.7892735789706051  0.4026223559884118
  0.7066875619491023  0.9138514494267095  0.4014252109616179
  0.8324417474186584  0.0402417696117137  0.3997655139162892
  0.8325647619364844  0.1654759908934335  0.3992514436076026
  0.8329141362700814  0.2908227892173268  0.3989161775456461
  0.8336429779051141  0.4162903394751422  0.3987555014785169
  0.8344324197367731  0.5418074955111544  0.3990363538315452
  0.8345859242753156  0.6670586104325117  0.3999602008032184
  0.8338747630405554  0.7916956875642518  0.4005665938641214
  0.8328314948776632  0.9156696019874906  0.4003257897155030
  0.9584471103544134  0.0418029852021277  0.3997258258306018
  0.9576833178967135  0.1660723800610299  0.3997249536157851
  0.9574170642979694  0.2910216497621960  0.3993217726290055
  0.9576458719704427  0.4162938762840001  0.3987467792993633
  0.9583994362088852  0.5418114605274804  0.3985954335465347
  0.9590299517345698  0.6673066784692196  0.3989222727868212
  0.9591800886598510  0.7925850978927261  0.3994068697113687
  0.9590259108571020  0.9174717782761292  0.3996368404920692
  0.4095324937447778  0.5798379947558712  0.4068576051771788
  0.5452833051146520  0.5798465771702577  0.4068767792604268
  0.3296911937693672  0.4201565634736333  0.4068327350521141
  0.4654343693971743  0.4201518070555909  0.4068494333083504
  0.4372654709624665  0.4999286588170299  0.4825141415542514
 
  0.00000000E+00  0.00000000E+00  0.00000000E+00
  0.00000000E+00  0.00000000E+00  0.00000000E+00
  0.00000000E+00  0.00000000E+00  0.00000000E+00
  0.00000000E+00  0.00000000E+00  0.00000000E+00
  0.00000000E+00  0.00000000E+00  0.00000000E+00
  0.00000000E+00  0.00000000E+00  0.00000000E+00
  0.00000000E+00  0.00000000E+00  0.00000000E+00
  0.00000000E+00  0.00000000E+00  0.00000000E+00
  0.00000000E+00  0.00000000E+00  0.00000000E+00
  0.00000000E+00  0.00000000E+00  0.00000000E+00
  0.00000000E+00  0.00000000E+00  0.00000000E+00
  0.00000000E+00  0.00000000E+00  0.00000000E+00
  0.00000000E+00  0.00000000E+00  0.00000000E+00
  0.00000000E+00  0.00000000E+00  0.00000000E+00
  0.00000000E+00  0.00000000E+00  0.00000000E+00
  0.00000000E+00  0.00000000E+00  0.00000000E+00
  0.00000000E+00  0.00000000E+00  0.00000000E+00
  0.00000000E+00  0.00000000E+00  0.00000000E+00
  0.00000000E+00  0.00000000E+00  0.00000000E+00
  0.00000000E+00  0.00000000E+00  0.00000000E+00
  0.00000000E+00  0.00000000E+00  0.00000000E+00
  0.00000000E+00  0.00000000E+00  0.00000000E+00
  0.00000000E+00  0.00000000E+00  0.00000000E+00
  0.00000000E+00  0.00000000E+00  0.00000000E+00
  0.00000000E+00  0.00000000E+00  0.00000000E+00
  0.00000000E+00  0.00000000E+00  0.00000000E+00
  0.00000000E+00  0.00000000E+00  0.00000000E+00
  0.00000000E+00  0.00000000E+00  0.00000000E+00
  0.00000000E+00  0.00000000E+00  0.00000000E+00
  0.00000000E+00  0.00000000E+00  0.00000000E+00
  0.00000000E+00  0.00000000E+00  0.00000000E+00
  0.00000000E+00  0.00000000E+00  0.00000000E+00
  0.00000000E+00  0.00000000E+00  0.00000000E+00
  0.00000000E+00  0.00000000E+00  0.00000000E+00
  0.00000000E+00  0.00000000E+00  0.00000000E+00
  0.00000000E+00  0.00000000E+00  0.00000000E+00
  0.00000000E+00  0.00000000E+00  0.00000000E+00
  0.00000000E+00  0.00000000E+00  0.00000000E+00
  0.00000000E+00  0.00000000E+00  0.00000000E+00
  0.00000000E+00  0.00000000E+00  0.00000000E+00
  0.00000000E+00  0.00000000E+00  0.00000000E+00
  0.00000000E+00  0.00000000E+00  0.00000000E+00
  0.00000000E+00  0.00000000E+00  0.00000000E+00
  0.00000000E+00  0.00000000E+00  0.00000000E+00
  0.00000000E+00  0.00000000E+00  0.00000000E+00
  0.00000000E+00  0.00000000E+00  0.00000000E+00
  0.00000000E+00  0.00000000E+00  0.00000000E+00
  0.00000000E+00  0.00000000E+00  0.00000000E+00
  0.00000000E+00  0.00000000E+00  0.00000000E+00
  0.00000000E+00  0.00000000E+00  0.00000000E+00
  0.00000000E+00  0.00000000E+00  0.00000000E+00
  0.00000000E+00  0.00000000E+00  0.00000000E+00
  0.00000000E+00  0.00000000E+00  0.00000000E+00
  0.00000000E+00  0.00000000E+00  0.00000000E+00
  0.00000000E+00  0.00000000E+00  0.00000000E+00
  0.00000000E+00  0.00000000E+00  0.00000000E+00
  0.00000000E+00  0.00000000E+00  0.00000000E+00
  0.00000000E+00  0.00000000E+00  0.00000000E+00
  0.00000000E+00  0.00000000E+00  0.00000000E+00
  0.00000000E+00  0.00000000E+00  0.00000000E+00
  0.00000000E+00  0.00000000E+00  0.00000000E+00
  0.00000000E+00  0.00000000E+00  0.00000000E+00
  0.00000000E+00  0.00000000E+00  0.00000000E+00
  0.00000000E+00  0.00000000E+00  0.00000000E+00
  0.00000000E+00  0.00000000E+00  0.00000000E+00
  0.00000000E+00  0.00000000E+00  0.00000000E+00
  0.00000000E+00  0.00000000E+00  0.00000000E+00
  0.00000000E+00  0.00000000E+00  0.00000000E+00
  0.00000000E+00  0.00000000E+00  0.00000000E+00
  0.00000000E+00  0.00000000E+00  0.00000000E+00
  0.00000000E+00  0.00000000E+00  0.00000000E+00
  0.00000000E+00  0.00000000E+00  0.00000000E+00
  0.00000000E+00  0.00000000E+00  0.00000000E+00
  0.00000000E+00  0.00000000E+00  0.00000000E+00
  0.00000000E+00  0.00000000E+00  0.00000000E+00
  0.00000000E+00  0.00000000E+00  0.00000000E+00
  0.00000000E+00  0.00000000E+00  0.00000000E+00
  0.00000000E+00  0.00000000E+00  0.00000000E+00
  0.00000000E+00  0.00000000E+00  0.00000000E+00
  0.00000000E+00  0.00000000E+00  0.00000000E+00
  0.00000000E+00  0.00000000E+00  0.00000000E+00
  0.00000000E+00  0.00000000E+00  0.00000000E+00
  0.00000000E+00  0.00000000E+00  0.00000000E+00
  0.00000000E+00  0.00000000E+00  0.00000000E+00
  0.00000000E+00  0.00000000E+00  0.00000000E+00
  0.00000000E+00  0.00000000E+00  0.00000000E+00
  0.00000000E+00  0.00000000E+00  0.00000000E+00
  0.00000000E+00  0.00000000E+00  0.00000000E+00
  0.00000000E+00  0.00000000E+00  0.00000000E+00
  0.00000000E+00  0.00000000E+00  0.00000000E+00
  0.00000000E+00  0.00000000E+00  0.00000000E+00
  0.00000000E+00  0.00000000E+00  0.00000000E+00
  0.00000000E+00  0.00000000E+00  0.00000000E+00
  0.00000000E+00  0.00000000E+00  0.00000000E+00
  0.00000000E+00  0.00000000E+00  0.00000000E+00
  0.00000000E+00  0.00000000E+00  0.00000000E+00
  0.00000000E+00  0.00000000E+00  0.00000000E+00
  0.00000000E+00  0.00000000E+00  0.00000000E+00
  0.00000000E+00  0.00000000E+00  0.00000000E+00
  0.00000000E+00  0.00000000E+00  0.00000000E+00
  0.00000000E+00  0.00000000E+00  0.00000000E+00
  0.00000000E+00  0.00000000E+00  0.00000000E+00
  0.00000000E+00  0.00000000E+00  0.00000000E+00
  0.00000000E+00  0.00000000E+00  0.00000000E+00
  0.00000000E+00  0.00000000E+00  0.00000000E+00
  0.00000000E+00  0.00000000E+00  0.00000000E+00
  0.00000000E+00  0.00000000E+00  0.00000000E+00
  0.00000000E+00  0.00000000E+00  0.00000000E+00
  0.00000000E+00  0.00000000E+00  0.00000000E+00
  0.00000000E+00  0.00000000E+00  0.00000000E+00
  0.00000000E+00  0.00000000E+00  0.00000000E+00
  0.00000000E+00  0.00000000E+00  0.00000000E+00
  0.00000000E+00  0.00000000E+00  0.00000000E+00
  0.00000000E+00  0.00000000E+00  0.00000000E+00
  0.00000000E+00  0.00000000E+00  0.00000000E+00
  0.00000000E+00  0.00000000E+00  0.00000000E+00
  0.00000000E+00  0.00000000E+00  0.00000000E+00
  0.00000000E+00  0.00000000E+00  0.00000000E+00
  0.00000000E+00  0.00000000E+00  0.00000000E+00
  0.00000000E+00  0.00000000E+00  0.00000000E+00
  0.00000000E+00  0.00000000E+00  0.00000000E+00
  0.00000000E+00  0.00000000E+00  0.00000000E+00
  0.00000000E+00  0.00000000E+00  0.00000000E+00
  0.00000000E+00  0.00000000E+00  0.00000000E+00
  0.00000000E+00  0.00000000E+00  0.00000000E+00
  0.00000000E+00  0.00000000E+00  0.00000000E+00
  0.00000000E+00  0.00000000E+00  0.00000000E+00
  0.00000000E+00  0.00000000E+00  0.00000000E+00
