H1 Pd1 C124 N2 O2                       
   1.00000000000000     
    19.8519212772737532   -0.0059583757201483    0.0521645764925738
    -9.9312964643264845   17.0510315290647902   -0.0214249323037736
     0.0780976185619295    0.0081951358991846   29.7322527169885333
   H    Pd   C    N    O 
     1     1   124     2     2
Direct
  0.5298069375575534  0.5504821414543255  0.5160843826523672
  0.4373302004870787  0.4999488816444806  0.4135428675195897
  0.0418873018566243  0.0840957421474791  0.3996933102456666
  0.0405953518515634  0.2079983176765718  0.3995943215742577
  0.0397460622961141  0.3325909188897649  0.3992529240419174
  0.0398252931435948  0.4582405589122722  0.3990184968088654
  0.0410636336004005  0.5839055500465640  0.3991150493285571
  0.0421199563383473  0.7094568298549924  0.3993905134765557
  0.0425992400682909  0.8348478891550392  0.3995865514682746
  0.0427188399131557  0.9599384065651992  0.3996171929892463
  0.1682209599280680  0.0861138658256302  0.4003717595904636
  0.1668981990417617  0.2099548105497623  0.4009003801293759
  0.1645455632046190  0.3335741195350052  0.4008623362736145
  0.1627736124588745  0.4583516694136965  0.4000633990718971
  0.1643807285901134  0.5838779482037127  0.3994538129274877
  0.1660802519278380  0.7094390172180107  0.3993557409795565
  0.1670640278207693  0.8349154103892017  0.3995929185365504
  0.1677237729286127  0.9604816777247861  0.3998665685097635
  0.2929240665572668  0.0858960536163778  0.4004418506411922
  0.2946346396319084  0.2132861670978594  0.4024540494259939
  0.2915410153931441  0.3372766112123398  0.4046471260920476
  0.2854521929107279  0.4585606568338316  0.4043114859055558
  0.2873273138613224  0.5844666341424858  0.4018429232803849
  0.2900357457576422  0.7092683771634996  0.4001378013957907
  0.2913986388507794  0.8343934334959131  0.3995053666412530
  0.2921276051011087  0.9598921888855195  0.3996115797082543
  0.4172313762621851  0.0840289686515828  0.3998018175260689
  0.4180493843732956  0.2098362297204412  0.4014381351851666
  0.4219446204035050  0.3381232193609202  0.4051294257628467
  0.4140175953772822  0.7066291973339629  0.4025580999633421
  0.4157271846256534  0.8326510569317627  0.4002154137495287
  0.4164955382208608  0.9583079584850701  0.3994840512550751
  0.5415437490337415  0.0822367233358933  0.3994702175100253
  0.5423849641947655  0.2076049903568947  0.3999161722651075
  0.5440199926914292  0.3326809755686370  0.4016073691271009
  0.5469096925469422  0.4564352750592343  0.4049824997839332
  0.5477485318556780  0.5807997324424897  0.4084527052351655
  0.5382358236557233  0.7025647129627411  0.4047659941733652
  0.5398890513843492  0.8303559096753215  0.4014012039364593
  0.5409279271806472  0.9565645017875488  0.3998576382869169
  0.6659231716353667  0.0814713890137978  0.3996963101407545
  0.6667017654895422  0.2070156480781176  0.3994577271043836
  0.6678870526281093  0.3324185389944254  0.3995244388226658
  0.6702530892264070  0.4580609738257016  0.4003255514448760
  0.6712305286330544  0.5831518712861653  0.4016623499052681
  0.6670659248687755  0.7065700215976192  0.4021097689180327
  0.6647842415746482  0.8300211658021884  0.4013252625873552
  0.6653930312638695  0.9559105780823181  0.4002087734601765
  0.7905993064571660  0.0814899092183544  0.3996861046563762
  0.7909393776778972  0.2068015443328255  0.3995891317038119
  0.7918461569059029  0.3323932557502650  0.3992742230327955
  0.7932378715778772  0.4581060713600875  0.3990061000493256
  0.7943467645295297  0.5836729007213354  0.3991470912049762
  0.7933753595285092  0.7086429265290700  0.3997251367905568
  0.7916940911962604  0.8325745054410796  0.3999344022440116
  0.7904449644265387  0.9564318618870389  0.3998286401966556
  0.9158388006661868  0.0823611234783870  0.3994406797368177
  0.9154611438991095  0.2071062012373320  0.3993546926158758
  0.9156829572940655  0.3324114132020119  0.3992154122281562
  0.9164999943469540  0.4580682847195463  0.3990889888370938
  0.9177182555043577  0.5838570020571821  0.3990396058698067
  0.9180206977325510  0.7093478691533277  0.3991494686358872
  0.9176273365947940  0.8341274115455104  0.3993511638970133
  0.9167192740383302  0.9582789200057902  0.3994686782832477
  0.0845403087086186  0.0435957038592781  0.3998471919835413
  0.0832686870162317  0.1674383023483084  0.3999446497693865
  0.0815630683884913  0.2913608681709541  0.3997153153676681
  0.0805657469174660  0.4163281214605707  0.3992317092124144
  0.0816531916561032  0.5418733143330077  0.3990730346100925
  0.0830817825416463  0.6675911387634019  0.3992802471582457
  0.0839936046937615  0.7931899727375262  0.3995992978150830
  0.0843977104394603  0.9185191648495658  0.3997229608319970
  0.2095671280773199  0.0441127404905079  0.4002312663940849
  0.2101603285105589  0.1700164023383058  0.4012422141318482
  0.2078674766072492  0.2934507127290161  0.4018616554242583
  0.2036722599662157  0.4168465597367212  0.4013682680682537
  0.2046428255729902  0.5419363114789413  0.4002604813768997
  0.2070194313366863  0.6675912467822012  0.3995592297528632
  0.2082216817127015  0.7929876326575203  0.3994586497908821
  0.2090508256445125  0.9185357179124053  0.3996960096233124
  0.3340172514688883  0.0434598947854506  0.3998973851279735
  0.3350251699724501  0.1696746708506551  0.4014719843590496
  0.3366156711914483  0.2974519729526149  0.4045924869441638
  0.3271572611492000  0.4192370637527238  0.4071452596041629
  0.3279178350849669  0.5435339736131580  0.4044470306437524
  0.3308685970797279  0.6673325552687247  0.4014800343050807
  0.3325346827936456  0.7924250269299998  0.3998895461512083
  0.3334292084397958  0.9177931214315044  0.3994710980436686
  0.4584777303718603  0.0417266025428741  0.3994924815065737
  0.4592091938534617  0.1673853778707899  0.4002796655863144
  0.4608619349901492  0.2933898656657258  0.4027145354882354
  0.4528876341449732  0.6618747176895977  0.4050132376861453
  0.4568658329867690  0.7901953847652329  0.4013267470220844
  0.4577259940046235  0.9160007059969467  0.3997525984716498
  0.5828454212621617  0.0401318322745329  0.3995989881191728
  0.5835333726595954  0.1656313310832281  0.3995080188737544
  0.5848826124218769  0.2907686271001782  0.4001575479958104
  0.5875484047049568  0.4155492198616524  0.4020648125871187
  0.5894390929438319  0.5414224388091314  0.4051426247373668
  0.5833432245409159  0.6627385101294596  0.4052278524945169
  0.5802672788395832  0.7867422876538103  0.4024926023597829
  0.5820267889180355  0.9141378450578918  0.4003996644496474
  0.7072589876220468  0.0395348184432944  0.3998388851382247
  0.7078702071354699  0.1650884854806387  0.3995976962280562
  0.7088457356822352  0.2905693611681790  0.3993327364298146
  0.7105127924623443  0.4161242690663787  0.3994070028924738
  0.7121381272874346  0.5416400485605144  0.4000889152843868
  0.7103891100717304  0.6664377651314527  0.4010473752376920
  0.7080400366402124  0.7900603786811192  0.4009867357518321
  0.7067467116131431  0.9139157907612486  0.4003770715261665
  0.8322906600958064  0.0400810289926151  0.3995980055277145
  0.8323561850890562  0.1651606452259362  0.3995663899431970
  0.8328164925391134  0.2905259174860135  0.3993980840035433
  0.8338266666424079  0.4160679616839003  0.3990981929389046
  0.8350697802855248  0.5417429721001062  0.3989357671099076
  0.8351865802365184  0.6673988073354432  0.3992002579908220
  0.8343681542812506  0.7920170004979207  0.3995725681301172
  0.8331074192578375  0.9159354466343731  0.3996758857401502
  0.9582967797077665  0.0417365098288084  0.3994817164359600
  0.9573493570076579  0.1658789296742620  0.3993789401145563
  0.9569296290232573  0.2906391943500687  0.3991948270974087
  0.9571794777416881  0.4161226558320171  0.3990794638575384
  0.9584062110946794  0.5419099685196442  0.3990850147798380
  0.9592485098911965  0.6675648474652671  0.3991868825151544
  0.9594924550587574  0.7928792015835832  0.3993474818050532
  0.9591710098650902  0.9176443309885086  0.3994322220821583
  0.4069394545939311  0.5817007161649761  0.4065766626376611
  0.4678727257097487  0.4182604874589095  0.4068967950529550
  0.4909024588010908  0.4950323857799797  0.5108641640879474
  0.4307402923709023  0.4989444217244279  0.4888197204521700
 
  0.00000000E+00  0.00000000E+00  0.00000000E+00
  0.00000000E+00  0.00000000E+00  0.00000000E+00
  0.00000000E+00  0.00000000E+00  0.00000000E+00
  0.00000000E+00  0.00000000E+00  0.00000000E+00
  0.00000000E+00  0.00000000E+00  0.00000000E+00
  0.00000000E+00  0.00000000E+00  0.00000000E+00
  0.00000000E+00  0.00000000E+00  0.00000000E+00
  0.00000000E+00  0.00000000E+00  0.00000000E+00
  0.00000000E+00  0.00000000E+00  0.00000000E+00
  0.00000000E+00  0.00000000E+00  0.00000000E+00
  0.00000000E+00  0.00000000E+00  0.00000000E+00
  0.00000000E+00  0.00000000E+00  0.00000000E+00
  0.00000000E+00  0.00000000E+00  0.00000000E+00
  0.00000000E+00  0.00000000E+00  0.00000000E+00
  0.00000000E+00  0.00000000E+00  0.00000000E+00
  0.00000000E+00  0.00000000E+00  0.00000000E+00
  0.00000000E+00  0.00000000E+00  0.00000000E+00
  0.00000000E+00  0.00000000E+00  0.00000000E+00
  0.00000000E+00  0.00000000E+00  0.00000000E+00
  0.00000000E+00  0.00000000E+00  0.00000000E+00
  0.00000000E+00  0.00000000E+00  0.00000000E+00
  0.00000000E+00  0.00000000E+00  0.00000000E+00
  0.00000000E+00  0.00000000E+00  0.00000000E+00
  0.00000000E+00  0.00000000E+00  0.00000000E+00
  0.00000000E+00  0.00000000E+00  0.00000000E+00
  0.00000000E+00  0.00000000E+00  0.00000000E+00
  0.00000000E+00  0.00000000E+00  0.00000000E+00
  0.00000000E+00  0.00000000E+00  0.00000000E+00
  0.00000000E+00  0.00000000E+00  0.00000000E+00
  0.00000000E+00  0.00000000E+00  0.00000000E+00
  0.00000000E+00  0.00000000E+00  0.00000000E+00
  0.00000000E+00  0.00000000E+00  0.00000000E+00
  0.00000000E+00  0.00000000E+00  0.00000000E+00
  0.00000000E+00  0.00000000E+00  0.00000000E+00
  0.00000000E+00  0.00000000E+00  0.00000000E+00
  0.00000000E+00  0.00000000E+00  0.00000000E+00
  0.00000000E+00  0.00000000E+00  0.00000000E+00
  0.00000000E+00  0.00000000E+00  0.00000000E+00
  0.00000000E+00  0.00000000E+00  0.00000000E+00
  0.00000000E+00  0.00000000E+00  0.00000000E+00
  0.00000000E+00  0.00000000E+00  0.00000000E+00
  0.00000000E+00  0.00000000E+00  0.00000000E+00
  0.00000000E+00  0.00000000E+00  0.00000000E+00
  0.00000000E+00  0.00000000E+00  0.00000000E+00
  0.00000000E+00  0.00000000E+00  0.00000000E+00
  0.00000000E+00  0.00000000E+00  0.00000000E+00
  0.00000000E+00  0.00000000E+00  0.00000000E+00
  0.00000000E+00  0.00000000E+00  0.00000000E+00
  0.00000000E+00  0.00000000E+00  0.00000000E+00
  0.00000000E+00  0.00000000E+00  0.00000000E+00
  0.00000000E+00  0.00000000E+00  0.00000000E+00
  0.00000000E+00  0.00000000E+00  0.00000000E+00
  0.00000000E+00  0.00000000E+00  0.00000000E+00
  0.00000000E+00  0.00000000E+00  0.00000000E+00
  0.00000000E+00  0.00000000E+00  0.00000000E+00
  0.00000000E+00  0.00000000E+00  0.00000000E+00
  0.00000000E+00  0.00000000E+00  0.00000000E+00
  0.00000000E+00  0.00000000E+00  0.00000000E+00
  0.00000000E+00  0.00000000E+00  0.00000000E+00
  0.00000000E+00  0.00000000E+00  0.00000000E+00
  0.00000000E+00  0.00000000E+00  0.00000000E+00
  0.00000000E+00  0.00000000E+00  0.00000000E+00
  0.00000000E+00  0.00000000E+00  0.00000000E+00
  0.00000000E+00  0.00000000E+00  0.00000000E+00
  0.00000000E+00  0.00000000E+00  0.00000000E+00
  0.00000000E+00  0.00000000E+00  0.00000000E+00
  0.00000000E+00  0.00000000E+00  0.00000000E+00
  0.00000000E+00  0.00000000E+00  0.00000000E+00
  0.00000000E+00  0.00000000E+00  0.00000000E+00
  0.00000000E+00  0.00000000E+00  0.00000000E+00
  0.00000000E+00  0.00000000E+00  0.00000000E+00
  0.00000000E+00  0.00000000E+00  0.00000000E+00
  0.00000000E+00  0.00000000E+00  0.00000000E+00
  0.00000000E+00  0.00000000E+00  0.00000000E+00
  0.00000000E+00  0.00000000E+00  0.00000000E+00
  0.00000000E+00  0.00000000E+00  0.00000000E+00
  0.00000000E+00  0.00000000E+00  0.00000000E+00
  0.00000000E+00  0.00000000E+00  0.00000000E+00
  0.00000000E+00  0.00000000E+00  0.00000000E+00
  0.00000000E+00  0.00000000E+00  0.00000000E+00
  0.00000000E+00  0.00000000E+00  0.00000000E+00
  0.00000000E+00  0.00000000E+00  0.00000000E+00
  0.00000000E+00  0.00000000E+00  0.00000000E+00
  0.00000000E+00  0.00000000E+00  0.00000000E+00
  0.00000000E+00  0.00000000E+00  0.00000000E+00
  0.00000000E+00  0.00000000E+00  0.00000000E+00
  0.00000000E+00  0.00000000E+00  0.00000000E+00
  0.00000000E+00  0.00000000E+00  0.00000000E+00
  0.00000000E+00  0.00000000E+00  0.00000000E+00
  0.00000000E+00  0.00000000E+00  0.00000000E+00
  0.00000000E+00  0.00000000E+00  0.00000000E+00
  0.00000000E+00  0.00000000E+00  0.00000000E+00
  0.00000000E+00  0.00000000E+00  0.00000000E+00
  0.00000000E+00  0.00000000E+00  0.00000000E+00
  0.00000000E+00  0.00000000E+00  0.00000000E+00
  0.00000000E+00  0.00000000E+00  0.00000000E+00
  0.00000000E+00  0.00000000E+00  0.00000000E+00
  0.00000000E+00  0.00000000E+00  0.00000000E+00
  0.00000000E+00  0.00000000E+00  0.00000000E+00
  0.00000000E+00  0.00000000E+00  0.00000000E+00
  0.00000000E+00  0.00000000E+00  0.00000000E+00
  0.00000000E+00  0.00000000E+00  0.00000000E+00
  0.00000000E+00  0.00000000E+00  0.00000000E+00
  0.00000000E+00  0.00000000E+00  0.00000000E+00
  0.00000000E+00  0.00000000E+00  0.00000000E+00
  0.00000000E+00  0.00000000E+00  0.00000000E+00
  0.00000000E+00  0.00000000E+00  0.00000000E+00
  0.00000000E+00  0.00000000E+00  0.00000000E+00
  0.00000000E+00  0.00000000E+00  0.00000000E+00
  0.00000000E+00  0.00000000E+00  0.00000000E+00
  0.00000000E+00  0.00000000E+00  0.00000000E+00
  0.00000000E+00  0.00000000E+00  0.00000000E+00
  0.00000000E+00  0.00000000E+00  0.00000000E+00
  0.00000000E+00  0.00000000E+00  0.00000000E+00
  0.00000000E+00  0.00000000E+00  0.00000000E+00
  0.00000000E+00  0.00000000E+00  0.00000000E+00
  0.00000000E+00  0.00000000E+00  0.00000000E+00
  0.00000000E+00  0.00000000E+00  0.00000000E+00
  0.00000000E+00  0.00000000E+00  0.00000000E+00
  0.00000000E+00  0.00000000E+00  0.00000000E+00
  0.00000000E+00  0.00000000E+00  0.00000000E+00
  0.00000000E+00  0.00000000E+00  0.00000000E+00
  0.00000000E+00  0.00000000E+00  0.00000000E+00
  0.00000000E+00  0.00000000E+00  0.00000000E+00
  0.00000000E+00  0.00000000E+00  0.00000000E+00
  0.00000000E+00  0.00000000E+00  0.00000000E+00
  0.00000000E+00  0.00000000E+00  0.00000000E+00
  0.00000000E+00  0.00000000E+00  0.00000000E+00
  0.00000000E+00  0.00000000E+00  0.00000000E+00
  0.00000000E+00  0.00000000E+00  0.00000000E+00
