Zn1 C124 N2                             
   1.00000000000000     
    19.8293463681111284   -0.0198142826488685   -0.0022733789804653
    -9.9320180130485820   17.0575722349125485    0.0029630139170497
    -0.0034136968703870    0.0031869147247752   29.7666003320716044
   Zn   C    N 
     1   124     2
Direct
  0.4375011729588845  0.4999956741126176  0.4172566924315961
  0.0421590139589729  0.0842710076424736  0.3996670461343739
  0.0413141868628434  0.2084075284426998  0.3996088775000454
  0.0405858808564297  0.3329692738679171  0.3990307889120517
  0.0404460835550123  0.4583473837449905  0.3992058750033248
  0.0411372486860575  0.5838297257880398  0.3997192550813277
  0.0418567209121545  0.7092582604187014  0.3999688619818257
  0.0422485728555893  0.8345868338583483  0.3998949097407284
  0.0424952455412056  0.9597477859042896  0.3997376344655169
  0.1682140791010442  0.0859732326924067  0.4003410202076773
  0.1676695976027877  0.2104398522111551  0.4008976222561413
  0.1657614478415872  0.3341320325233036  0.4008081507213776
  0.1641017772083118  0.4586445277728404  0.3987004679833382
  0.1648434078577830  0.5839339272059948  0.3993165876853757
  0.1660712654364340  0.7093165417000099  0.3997933641832873
  0.1668569365859842  0.8347016087257647  0.4000108794810726
  0.1675042309163205  0.9602356276248178  0.3999568589113937
  0.2927742180832994  0.0856420415844872  0.4000502541639784
  0.2946213979978889  0.2130814992692052  0.4017635780564054
  0.2929918462596631  0.3382460080205693  0.4071054956657799
  0.2877709574989671  0.4592172984905235  0.4042850302302415
  0.2881948172990506  0.5846482399402327  0.4005353643452042
  0.2901987229868661  0.7093222944727479  0.3995998143960513
  0.2913364702197448  0.8343266479873162  0.3998140893390429
  0.2920091836506227  0.9597210483297927  0.3998874055434404
  0.4171728978059536  0.0838155913965233  0.3998815471953069
  0.4179493988536657  0.2093590640454797  0.4006297451922078
  0.4217866469167049  0.3374212282648695  0.4013034174146808
  0.4143338016802759  0.7073029322859934  0.4007994095099245
  0.4158091436577511  0.8329133859408117  0.4000894808186716
  0.4165173987083653  0.9583355548420129  0.3998189849538258
  0.5416758863998085  0.0823140102644192  0.3998751623453798
  0.5424048112607278  0.2075547977255145  0.3998176187433356
  0.5437612303209938  0.3324695079497969  0.3999803850413329
  0.5452424847659930  0.4556845269743763  0.4013713746426978
  0.5460507370179571  0.5795949132908533  0.4135338969214779
  0.5380881042801935  0.7026379707744683  0.4037684172718249
  0.5400815463957084  0.8305940326476797  0.4005494176623369
  0.5410591813930519  0.9567468241008439  0.3999051684202871
  0.6661828612578853  0.0816955857301211  0.3999528591471485
  0.6668890731759437  0.2071714970785822  0.3998699511390048
  0.6678429773573905  0.3324876452095018  0.3995598579560778
  0.6695323877892078  0.4578907912724114  0.3995003583633648
  0.6695378147630623  0.5826616813951963  0.4000059397932701
  0.6659618864659883  0.7059469222224422  0.4026469315396576
  0.6646718651750668  0.8301126689970370  0.4012438887464718
  0.6655760769571821  0.9561134191653906  0.4000806012183806
  0.7909057904897253  0.0817452286689180  0.3998882555801909
  0.7913071991338356  0.2070455382129118  0.4000547173592916
  0.7920254033969563  0.3325287414435346  0.3998696147803708
  0.7929859795944816  0.4580766984665429  0.3992895565219550
  0.7934337224134531  0.5834086508206274  0.3987766139745068
  0.7925139538388557  0.7082047462502532  0.3996566663782078
  0.7911303715951228  0.8322087567268778  0.3998029448175427
  0.7905138735135766  0.9565210535324630  0.3998594931225568
  0.9161576238003085  0.0826002630459550  0.3995256821490492
  0.9160276974270882  0.2074309497523379  0.3995478511664066
  0.9161676294490712  0.3326377847025934  0.3996278368372814
  0.9166726859094921  0.4581274188701405  0.3998539085997876
  0.9173568877034217  0.5837108309149450  0.3996487402264299
  0.9174418495157278  0.7090324519470534  0.3993213685373425
  0.9171493869480182  0.8338355490365501  0.3995033492324777
  0.9166009901255466  0.9582131417236938  0.3995390222906752
  0.0844949283063700  0.0434793137582702  0.3998967939791923
  0.0838902792257855  0.1677841212931653  0.3997750535436173
  0.0825118786271476  0.2918022769188595  0.3996194906483510
  0.0815495452033506  0.4165811322767939  0.3987505894066563
  0.0820007064913009  0.5419226956523046  0.3993081125198790
  0.0829718039235720  0.6674492505520031  0.3998847185074062
  0.0836815734961955  0.7929279524045370  0.4000537696457757
  0.0841125606785620  0.9182445823879877  0.3999017612166086
  0.2094257383448889  0.0438820787103065  0.4000915463937244
  0.2103316002693876  0.1698947791670176  0.4012097301626618
  0.2090334522911828  0.2940527162310079  0.4026103208700910
  0.2054754287113984  0.4173691053404023  0.3999913359720489
  0.2054604141111181  0.5421287452450826  0.3995030119722824
  0.2071397467002710  0.6675381691402064  0.3995726217442175
  0.2080972251644124  0.7928386262895666  0.3998693399297131
  0.2088163323339926  0.9182960212003832  0.3999486559771762
  0.3339195466385356  0.0432445888531767  0.3998891184105046
  0.3349056583392390  0.1693955148713442  0.4005630458403576
  0.3369069860174673  0.2973606965227667  0.4037765522639392
  0.3289387980133502  0.4204011661785000  0.4135087410115194
  0.3297516391939544  0.5443362919154391  0.4013479216907825
  0.3312251916365225  0.6675511598602768  0.3999751648537038
  0.3325806325917687  0.7924622205287385  0.3998109013164391
  0.3333344036643957  0.9176907608816767  0.3998547922903777
  0.4584916908750248  0.0416677884179884  0.3998261615025180
  0.4591827253060943  0.1670873489039066  0.4000987276677880
  0.4606564953072657  0.2927009846958236  0.4008309642476635
  0.4532117486580916  0.6625888953146668  0.4012629525145073
  0.4570411096234020  0.7906408358236264  0.4006088909918896
  0.4578127773716815  0.9161711239526237  0.3998808981769618
  0.5829915853064069  0.0402666035650858  0.3999020160854597
  0.5836527585108937  0.1656851310698720  0.3998266924235803
  0.5847867881704113  0.2907035951909534  0.3995961744933280
  0.5867967863585640  0.4153759806711783  0.4005314387666725
  0.5872309016999929  0.5408037959194567  0.4043101989083743
  0.5820026086772844  0.6617566264275260  0.4071214240007400
  0.5803741421066756  0.7869224672740360  0.4017657452829076
  0.5822123623663226  0.9143501144051731  0.4000557051576984
  0.7075090716994955  0.0397546039353252  0.3999472662232756
  0.7081251990806458  0.1652844787994952  0.4000230671291944
  0.7089220822999590  0.2906949931633326  0.3997833702704313
  0.7101491481200439  0.4160884117493239  0.3992993325001247
  0.7108973705787957  0.5413648536077665  0.3987219299109294
  0.7092633347471586  0.6658928980211463  0.4008373694678379
  0.7073340045638000  0.7895560180382241  0.4009417433615514
  0.7067963202397269  0.9140308956014838  0.4003270104064744
  0.8325337136116502  0.0402500451387211  0.3996983536326661
  0.8327572094533048  0.1653956064440359  0.3998918525356147
  0.8331401580341941  0.2907126790683016  0.3999515145106819
  0.8338357686195313  0.4161442237273958  0.3997066411794381
  0.8345309297663253  0.5416326491079825  0.3992038092731627
  0.8344225490163605  0.6670222553773185  0.3990574929429586
  0.8337129462136018  0.7915887482953965  0.3996389529252355
  0.8328742596214818  0.9157330513231242  0.3996580765139447
  0.9584437604306515  0.0417948855644553  0.3995341638557739
  0.9578876354020753  0.1661710469968820  0.3994827007534751
  0.9575613008894053  0.2909653994224203  0.3993024977863435
  0.9576228415240059  0.4162645651614889  0.3996385456298419
  0.9583089676844309  0.5418447925468997  0.3998623048210200
  0.9588349992518876  0.6673421264156805  0.3996423667442359
  0.9589836361745264  0.7925597249550216  0.3995619613670188
  0.9588727069957321  0.9174035431779700  0.3995498702158469
  0.4084539976827865  0.5827531640230349  0.3987306452474682
  0.4665377979990888  0.4172538245050457  0.3987651203769920
 
  0.00000000E+00  0.00000000E+00  0.00000000E+00
  0.00000000E+00  0.00000000E+00  0.00000000E+00
  0.00000000E+00  0.00000000E+00  0.00000000E+00
  0.00000000E+00  0.00000000E+00  0.00000000E+00
  0.00000000E+00  0.00000000E+00  0.00000000E+00
  0.00000000E+00  0.00000000E+00  0.00000000E+00
  0.00000000E+00  0.00000000E+00  0.00000000E+00
  0.00000000E+00  0.00000000E+00  0.00000000E+00
  0.00000000E+00  0.00000000E+00  0.00000000E+00
  0.00000000E+00  0.00000000E+00  0.00000000E+00
  0.00000000E+00  0.00000000E+00  0.00000000E+00
  0.00000000E+00  0.00000000E+00  0.00000000E+00
  0.00000000E+00  0.00000000E+00  0.00000000E+00
  0.00000000E+00  0.00000000E+00  0.00000000E+00
  0.00000000E+00  0.00000000E+00  0.00000000E+00
  0.00000000E+00  0.00000000E+00  0.00000000E+00
  0.00000000E+00  0.00000000E+00  0.00000000E+00
  0.00000000E+00  0.00000000E+00  0.00000000E+00
  0.00000000E+00  0.00000000E+00  0.00000000E+00
  0.00000000E+00  0.00000000E+00  0.00000000E+00
  0.00000000E+00  0.00000000E+00  0.00000000E+00
  0.00000000E+00  0.00000000E+00  0.00000000E+00
  0.00000000E+00  0.00000000E+00  0.00000000E+00
  0.00000000E+00  0.00000000E+00  0.00000000E+00
  0.00000000E+00  0.00000000E+00  0.00000000E+00
  0.00000000E+00  0.00000000E+00  0.00000000E+00
  0.00000000E+00  0.00000000E+00  0.00000000E+00
  0.00000000E+00  0.00000000E+00  0.00000000E+00
  0.00000000E+00  0.00000000E+00  0.00000000E+00
  0.00000000E+00  0.00000000E+00  0.00000000E+00
  0.00000000E+00  0.00000000E+00  0.00000000E+00
  0.00000000E+00  0.00000000E+00  0.00000000E+00
  0.00000000E+00  0.00000000E+00  0.00000000E+00
  0.00000000E+00  0.00000000E+00  0.00000000E+00
  0.00000000E+00  0.00000000E+00  0.00000000E+00
  0.00000000E+00  0.00000000E+00  0.00000000E+00
  0.00000000E+00  0.00000000E+00  0.00000000E+00
  0.00000000E+00  0.00000000E+00  0.00000000E+00
  0.00000000E+00  0.00000000E+00  0.00000000E+00
  0.00000000E+00  0.00000000E+00  0.00000000E+00
  0.00000000E+00  0.00000000E+00  0.00000000E+00
  0.00000000E+00  0.00000000E+00  0.00000000E+00
  0.00000000E+00  0.00000000E+00  0.00000000E+00
  0.00000000E+00  0.00000000E+00  0.00000000E+00
  0.00000000E+00  0.00000000E+00  0.00000000E+00
  0.00000000E+00  0.00000000E+00  0.00000000E+00
  0.00000000E+00  0.00000000E+00  0.00000000E+00
  0.00000000E+00  0.00000000E+00  0.00000000E+00
  0.00000000E+00  0.00000000E+00  0.00000000E+00
  0.00000000E+00  0.00000000E+00  0.00000000E+00
  0.00000000E+00  0.00000000E+00  0.00000000E+00
  0.00000000E+00  0.00000000E+00  0.00000000E+00
  0.00000000E+00  0.00000000E+00  0.00000000E+00
  0.00000000E+00  0.00000000E+00  0.00000000E+00
  0.00000000E+00  0.00000000E+00  0.00000000E+00
  0.00000000E+00  0.00000000E+00  0.00000000E+00
  0.00000000E+00  0.00000000E+00  0.00000000E+00
  0.00000000E+00  0.00000000E+00  0.00000000E+00
  0.00000000E+00  0.00000000E+00  0.00000000E+00
  0.00000000E+00  0.00000000E+00  0.00000000E+00
  0.00000000E+00  0.00000000E+00  0.00000000E+00
  0.00000000E+00  0.00000000E+00  0.00000000E+00
  0.00000000E+00  0.00000000E+00  0.00000000E+00
  0.00000000E+00  0.00000000E+00  0.00000000E+00
  0.00000000E+00  0.00000000E+00  0.00000000E+00
  0.00000000E+00  0.00000000E+00  0.00000000E+00
  0.00000000E+00  0.00000000E+00  0.00000000E+00
  0.00000000E+00  0.00000000E+00  0.00000000E+00
  0.00000000E+00  0.00000000E+00  0.00000000E+00
  0.00000000E+00  0.00000000E+00  0.00000000E+00
  0.00000000E+00  0.00000000E+00  0.00000000E+00
  0.00000000E+00  0.00000000E+00  0.00000000E+00
  0.00000000E+00  0.00000000E+00  0.00000000E+00
  0.00000000E+00  0.00000000E+00  0.00000000E+00
  0.00000000E+00  0.00000000E+00  0.00000000E+00
  0.00000000E+00  0.00000000E+00  0.00000000E+00
  0.00000000E+00  0.00000000E+00  0.00000000E+00
  0.00000000E+00  0.00000000E+00  0.00000000E+00
  0.00000000E+00  0.00000000E+00  0.00000000E+00
  0.00000000E+00  0.00000000E+00  0.00000000E+00
  0.00000000E+00  0.00000000E+00  0.00000000E+00
  0.00000000E+00  0.00000000E+00  0.00000000E+00
  0.00000000E+00  0.00000000E+00  0.00000000E+00
  0.00000000E+00  0.00000000E+00  0.00000000E+00
  0.00000000E+00  0.00000000E+00  0.00000000E+00
  0.00000000E+00  0.00000000E+00  0.00000000E+00
  0.00000000E+00  0.00000000E+00  0.00000000E+00
  0.00000000E+00  0.00000000E+00  0.00000000E+00
  0.00000000E+00  0.00000000E+00  0.00000000E+00
  0.00000000E+00  0.00000000E+00  0.00000000E+00
  0.00000000E+00  0.00000000E+00  0.00000000E+00
  0.00000000E+00  0.00000000E+00  0.00000000E+00
  0.00000000E+00  0.00000000E+00  0.00000000E+00
  0.00000000E+00  0.00000000E+00  0.00000000E+00
  0.00000000E+00  0.00000000E+00  0.00000000E+00
  0.00000000E+00  0.00000000E+00  0.00000000E+00
  0.00000000E+00  0.00000000E+00  0.00000000E+00
  0.00000000E+00  0.00000000E+00  0.00000000E+00
  0.00000000E+00  0.00000000E+00  0.00000000E+00
  0.00000000E+00  0.00000000E+00  0.00000000E+00
  0.00000000E+00  0.00000000E+00  0.00000000E+00
  0.00000000E+00  0.00000000E+00  0.00000000E+00
  0.00000000E+00  0.00000000E+00  0.00000000E+00
  0.00000000E+00  0.00000000E+00  0.00000000E+00
  0.00000000E+00  0.00000000E+00  0.00000000E+00
  0.00000000E+00  0.00000000E+00  0.00000000E+00
  0.00000000E+00  0.00000000E+00  0.00000000E+00
  0.00000000E+00  0.00000000E+00  0.00000000E+00
  0.00000000E+00  0.00000000E+00  0.00000000E+00
  0.00000000E+00  0.00000000E+00  0.00000000E+00
  0.00000000E+00  0.00000000E+00  0.00000000E+00
  0.00000000E+00  0.00000000E+00  0.00000000E+00
  0.00000000E+00  0.00000000E+00  0.00000000E+00
  0.00000000E+00  0.00000000E+00  0.00000000E+00
  0.00000000E+00  0.00000000E+00  0.00000000E+00
  0.00000000E+00  0.00000000E+00  0.00000000E+00
  0.00000000E+00  0.00000000E+00  0.00000000E+00
  0.00000000E+00  0.00000000E+00  0.00000000E+00
  0.00000000E+00  0.00000000E+00  0.00000000E+00
  0.00000000E+00  0.00000000E+00  0.00000000E+00
  0.00000000E+00  0.00000000E+00  0.00000000E+00
  0.00000000E+00  0.00000000E+00  0.00000000E+00
  0.00000000E+00  0.00000000E+00  0.00000000E+00
  0.00000000E+00  0.00000000E+00  0.00000000E+00
  0.00000000E+00  0.00000000E+00  0.00000000E+00
  0.00000000E+00  0.00000000E+00  0.00000000E+00
  0.00000000E+00  0.00000000E+00  0.00000000E+00
