Mn1 H1 C125 N1 O1                       
   1.00000000000000     
    19.7933851247911541   -0.0199484676069062   -0.0253127920036269
    -9.9141461910597073   17.0649280855771579    0.1319490014163527
    -0.0380117592175467    0.2084065193738967   29.8094403148866753
   Mn   H    C    N    O 
     1     1   125     1     1
Direct
  0.4374965343966861  0.4988738387551311  0.4274860826469852
  0.4761461369275516  0.5606820089020182  0.5008241857060024
  0.0420027715465577  0.0839502290461712  0.3998386165687620
  0.0416741186807822  0.2084909035595335  0.3996830807498387
  0.0413034669777335  0.3330669192921616  0.3994066542991579
  0.0411457990658491  0.4582234037830688  0.3992978774390725
  0.0413514526217858  0.5834937147311230  0.3992071630984388
  0.0416541737603242  0.7087073444202131  0.3991544448004259
  0.0418692467567054  0.8339397533182996  0.3993598060040078
  0.0419767371458332  0.9590316616224462  0.3996448024338043
  0.1674594837082136  0.0848609557629176  0.4003787596733508
  0.1677259359553529  0.2100476692720493  0.4005648991183104
  0.1669061869294104  0.3342723710939381  0.3999110819667118
  0.1655236015633871  0.4585498881497791  0.3996185473829742
  0.1655890949116364  0.5835440769460004  0.3995644136476449
  0.1661939286848666  0.7087961444251513  0.3994371993248632
  0.1666890851741162  0.8340463585831495  0.3994161829451744
  0.1670713133110739  0.9593975275955535  0.3998010992700918
  0.2923359880851695  0.0847187237570348  0.4005563966693170
  0.2932315295348588  0.2109979714903846  0.4020537239429039
  0.2941028279190587  0.3374393415680992  0.4025663955496533
  0.2907593462005287  0.4595885092165263  0.4010923687340784
  0.2895466411859853  0.5842898558923213  0.4006765979287787
  0.2906137627119338  0.7089515989354713  0.4002823489319575
  0.2913901018275870  0.8338601661064455  0.3996457888725694
  0.2917746557519391  0.9590932552002999  0.3996287205875881
  0.4169000290045864  0.0836352552193039  0.3998237459849560
  0.4174710831007044  0.2091851520278100  0.4012344455212780
  0.4191425213783792  0.3358095551306683  0.4059160550303956
  0.4147341467371446  0.7071362964817955  0.4020915496661190
  0.4160246227188342  0.8328081291242563  0.4003589386044496
  0.4164944363701898  0.9582062354205285  0.3995638666869973
  0.5415696059382461  0.0825733244168383  0.3994586022850765
  0.5420375666849101  0.2077449236527411  0.3998806787508099
  0.5428157428379404  0.3326446682159412  0.4014989543583541
  0.5445730832097466  0.4566650894961170  0.4054064574239024
  0.5435031951281775  0.5790197726943048  0.4073957921348014
  0.5382454643435368  0.7036283303606269  0.4046044916923320
  0.5403249436057739  0.8311164529751844  0.4016209620353823
  0.5411961578105333  0.9571238401673364  0.4000054033162326
  0.6663191129773993  0.0821642257264789  0.3995812815034671
  0.6667118880547591  0.2074419126143366  0.3993373301976067
  0.6672252452455727  0.3325131463762551  0.3994360774759579
  0.6684699777631250  0.4577307278396506  0.3998434395376497
  0.6688646836550373  0.5829398216059523  0.4010564228206356
  0.6650914623737602  0.7056704589661990  0.4022286317104565
  0.6647277026693523  0.8305656437637149  0.4016902759451954
  0.6657601995121604  0.9566161538809800  0.4004723337116556
  0.7911263914260466  0.0822027335916096  0.3997119782093652
  0.7914459866055105  0.2074246374979228  0.3993507251047793
  0.7918376259877740  0.3326885739701355  0.3991634399556444
  0.7924570901313692  0.4580295754207891  0.3989347698185775
  0.7927229858553757  0.5831940449123342  0.3990508249814413
  0.7919665185368711  0.7081401418679569  0.3997162542849050
  0.7906773394123424  0.8320517998902667  0.4001944713140973
  0.7905982132337386  0.9568374690646548  0.4001470182363290
  0.9162731093863249  0.0827538669770010  0.3996624034862146
  0.9163538230815423  0.2077341683690286  0.3994746699462430
  0.9164683284655047  0.3328533339950464  0.3993079413245217
  0.9167121833839441  0.4580679441006412  0.3991527171966895
  0.9170404941364398  0.5834116251520030  0.3989895906228939
  0.9169648892661433  0.7086228901088197  0.3990787080561602
  0.9167233104622894  0.8334381759113580  0.3994219188724483
  0.9163271487005999  0.9580015013918216  0.3996703521133246
  0.0839151147536444  0.0426505606721107  0.3999368234193661
  0.0839715183789359  0.1675686112735939  0.3999818964166618
  0.0832562922790617  0.2919094751053931  0.3995701365808947
  0.0826249484455975  0.4166415826146813  0.3993842834424664
  0.0825887051338733  0.5417087587888401  0.3993106349924494
  0.0830246659531479  0.6669919803709620  0.3992266107785377
  0.0834299860565363  0.7923025071470075  0.3993065824753869
  0.0836475796292720  0.9174949889361604  0.3995875135233538
  0.2089000100209633  0.0429339315092265  0.4003023671428227
  0.2094136904398319  0.1685905237193114  0.4009282436559791
  0.2097975727021497  0.2939527821294008  0.4007847945103747
  0.2074930107416805  0.4175799238965713  0.3999597323994633
  0.2066381218494709  0.5418996982781988  0.3997558516145236
  0.2075178397542261  0.6671192747747404  0.3997327418398771
  0.2081192194289172  0.7922602989345082  0.3994717166582645
  0.2085300062632914  0.9175541395367526  0.3996092278357990
  0.3336144254503837  0.0425656686789648  0.3999804694620502
  0.3342890192497517  0.1682779583763104  0.4014209355057295
  0.3352354913452461  0.2944209536615215  0.4040305660161628
  0.3339198494429597  0.4207564718242851  0.4027874403493381
  0.3317171151298883  0.5442900874808158  0.4021130103201890
  0.3317953354992436  0.6672292968272143  0.4010752862525659
  0.3328043190341949  0.7920999794783982  0.4001018865799166
  0.3332476540945918  0.9172031255537366  0.3995539289041023
  0.4583402814141498  0.0415938317328145  0.3995177589151117
  0.4587514056966261  0.1669772995821628  0.4001856951092538
  0.4596685093187677  0.2926166464815366  0.4026422391407025
  0.4631502970444391  0.4180799713451850  0.4101698946234713
  0.4539932844873883  0.6628240901190551  0.4044040528169605
  0.4572701059175596  0.7905733490596398  0.4013199618972068
  0.4579192272513520  0.9161582660301986  0.3999050165628348
  0.5830571707844947  0.0406426823405148  0.3996011064067435
  0.5834603326335768  0.1659528202402527  0.3994718555096508
  0.5840923777970737  0.2909289531700254  0.4001119513129394
  0.5855522997534003  0.4156053713709682  0.4016787730303795
  0.5865352556794418  0.5408116616659230  0.4043160467201259
  0.5804458050845399  0.6616152231642727  0.4048173142843682
  0.5806725346875179  0.7877513520458919  0.4026908721401816
  0.5824223685979973  0.9148587634147257  0.4006802730285875
  0.7077100385957061  0.0402457852757621  0.3998802429645004
  0.7081924840210091  0.1656997128729576  0.3993629872617533
  0.7085918496649616  0.2908817372867619  0.3992387808804661
  0.7094504584258944  0.4161286859486754  0.3991885670635886
  0.7100652702651120  0.5412546318186822  0.3997218254714881
  0.7085891269069372  0.6659737373913953  0.4008717478421141
  0.7067831249513735  0.7894404026687569  0.4013197713321007
  0.7069130624001879  0.9144543558709927  0.4007478994063786
  0.8326399997401878  0.0405444132445783  0.3998134980194191
  0.8329502175127326  0.1657768551157580  0.3994773242397288
  0.8332752893222433  0.2910337774432463  0.3992618895214943
  0.8336730176413565  0.4162406197441462  0.3990735713888106
  0.8340368923376910  0.5415137195343412  0.3989146434294314
  0.8338094319905144  0.6668034862308502  0.3991657144840666
  0.8332525587300948  0.7913956636713498  0.3996972211316911
  0.8325788862182945  0.9156480600311271  0.3999639482264966
  0.9582802639142626  0.0416146453678654  0.3996839371772283
  0.9581429469732496  0.1663398618476588  0.3995787974297654
  0.9580348110190910  0.2912362997005625  0.3993938820224959
  0.9580377773175133  0.4163724783643600  0.3992538755262132
  0.9583296160238871  0.5416861310732521  0.3991071060290969
  0.9585083343753368  0.6669435176251243  0.3990337911845710
  0.9585438456933382  0.7920630548881105  0.3992604057006347
  0.9584231460764221  0.9169157688212134  0.3995559448676776
  0.4107426616104367  0.5825590521214042  0.4055943271582090
  0.4534879105203616  0.5090898949054734  0.4872660498560059
 
  0.00000000E+00  0.00000000E+00  0.00000000E+00
  0.00000000E+00  0.00000000E+00  0.00000000E+00
  0.00000000E+00  0.00000000E+00  0.00000000E+00
  0.00000000E+00  0.00000000E+00  0.00000000E+00
  0.00000000E+00  0.00000000E+00  0.00000000E+00
  0.00000000E+00  0.00000000E+00  0.00000000E+00
  0.00000000E+00  0.00000000E+00  0.00000000E+00
  0.00000000E+00  0.00000000E+00  0.00000000E+00
  0.00000000E+00  0.00000000E+00  0.00000000E+00
  0.00000000E+00  0.00000000E+00  0.00000000E+00
  0.00000000E+00  0.00000000E+00  0.00000000E+00
  0.00000000E+00  0.00000000E+00  0.00000000E+00
  0.00000000E+00  0.00000000E+00  0.00000000E+00
  0.00000000E+00  0.00000000E+00  0.00000000E+00
  0.00000000E+00  0.00000000E+00  0.00000000E+00
  0.00000000E+00  0.00000000E+00  0.00000000E+00
  0.00000000E+00  0.00000000E+00  0.00000000E+00
  0.00000000E+00  0.00000000E+00  0.00000000E+00
  0.00000000E+00  0.00000000E+00  0.00000000E+00
  0.00000000E+00  0.00000000E+00  0.00000000E+00
  0.00000000E+00  0.00000000E+00  0.00000000E+00
  0.00000000E+00  0.00000000E+00  0.00000000E+00
  0.00000000E+00  0.00000000E+00  0.00000000E+00
  0.00000000E+00  0.00000000E+00  0.00000000E+00
  0.00000000E+00  0.00000000E+00  0.00000000E+00
  0.00000000E+00  0.00000000E+00  0.00000000E+00
  0.00000000E+00  0.00000000E+00  0.00000000E+00
  0.00000000E+00  0.00000000E+00  0.00000000E+00
  0.00000000E+00  0.00000000E+00  0.00000000E+00
  0.00000000E+00  0.00000000E+00  0.00000000E+00
  0.00000000E+00  0.00000000E+00  0.00000000E+00
  0.00000000E+00  0.00000000E+00  0.00000000E+00
  0.00000000E+00  0.00000000E+00  0.00000000E+00
  0.00000000E+00  0.00000000E+00  0.00000000E+00
  0.00000000E+00  0.00000000E+00  0.00000000E+00
  0.00000000E+00  0.00000000E+00  0.00000000E+00
  0.00000000E+00  0.00000000E+00  0.00000000E+00
  0.00000000E+00  0.00000000E+00  0.00000000E+00
  0.00000000E+00  0.00000000E+00  0.00000000E+00
  0.00000000E+00  0.00000000E+00  0.00000000E+00
  0.00000000E+00  0.00000000E+00  0.00000000E+00
  0.00000000E+00  0.00000000E+00  0.00000000E+00
  0.00000000E+00  0.00000000E+00  0.00000000E+00
  0.00000000E+00  0.00000000E+00  0.00000000E+00
  0.00000000E+00  0.00000000E+00  0.00000000E+00
  0.00000000E+00  0.00000000E+00  0.00000000E+00
  0.00000000E+00  0.00000000E+00  0.00000000E+00
  0.00000000E+00  0.00000000E+00  0.00000000E+00
  0.00000000E+00  0.00000000E+00  0.00000000E+00
  0.00000000E+00  0.00000000E+00  0.00000000E+00
  0.00000000E+00  0.00000000E+00  0.00000000E+00
  0.00000000E+00  0.00000000E+00  0.00000000E+00
  0.00000000E+00  0.00000000E+00  0.00000000E+00
  0.00000000E+00  0.00000000E+00  0.00000000E+00
  0.00000000E+00  0.00000000E+00  0.00000000E+00
  0.00000000E+00  0.00000000E+00  0.00000000E+00
  0.00000000E+00  0.00000000E+00  0.00000000E+00
  0.00000000E+00  0.00000000E+00  0.00000000E+00
  0.00000000E+00  0.00000000E+00  0.00000000E+00
  0.00000000E+00  0.00000000E+00  0.00000000E+00
  0.00000000E+00  0.00000000E+00  0.00000000E+00
  0.00000000E+00  0.00000000E+00  0.00000000E+00
  0.00000000E+00  0.00000000E+00  0.00000000E+00
  0.00000000E+00  0.00000000E+00  0.00000000E+00
  0.00000000E+00  0.00000000E+00  0.00000000E+00
  0.00000000E+00  0.00000000E+00  0.00000000E+00
  0.00000000E+00  0.00000000E+00  0.00000000E+00
  0.00000000E+00  0.00000000E+00  0.00000000E+00
  0.00000000E+00  0.00000000E+00  0.00000000E+00
  0.00000000E+00  0.00000000E+00  0.00000000E+00
  0.00000000E+00  0.00000000E+00  0.00000000E+00
  0.00000000E+00  0.00000000E+00  0.00000000E+00
  0.00000000E+00  0.00000000E+00  0.00000000E+00
  0.00000000E+00  0.00000000E+00  0.00000000E+00
  0.00000000E+00  0.00000000E+00  0.00000000E+00
  0.00000000E+00  0.00000000E+00  0.00000000E+00
  0.00000000E+00  0.00000000E+00  0.00000000E+00
  0.00000000E+00  0.00000000E+00  0.00000000E+00
  0.00000000E+00  0.00000000E+00  0.00000000E+00
  0.00000000E+00  0.00000000E+00  0.00000000E+00
  0.00000000E+00  0.00000000E+00  0.00000000E+00
  0.00000000E+00  0.00000000E+00  0.00000000E+00
  0.00000000E+00  0.00000000E+00  0.00000000E+00
  0.00000000E+00  0.00000000E+00  0.00000000E+00
  0.00000000E+00  0.00000000E+00  0.00000000E+00
  0.00000000E+00  0.00000000E+00  0.00000000E+00
  0.00000000E+00  0.00000000E+00  0.00000000E+00
  0.00000000E+00  0.00000000E+00  0.00000000E+00
  0.00000000E+00  0.00000000E+00  0.00000000E+00
  0.00000000E+00  0.00000000E+00  0.00000000E+00
  0.00000000E+00  0.00000000E+00  0.00000000E+00
  0.00000000E+00  0.00000000E+00  0.00000000E+00
  0.00000000E+00  0.00000000E+00  0.00000000E+00
  0.00000000E+00  0.00000000E+00  0.00000000E+00
  0.00000000E+00  0.00000000E+00  0.00000000E+00
  0.00000000E+00  0.00000000E+00  0.00000000E+00
  0.00000000E+00  0.00000000E+00  0.00000000E+00
  0.00000000E+00  0.00000000E+00  0.00000000E+00
  0.00000000E+00  0.00000000E+00  0.00000000E+00
  0.00000000E+00  0.00000000E+00  0.00000000E+00
  0.00000000E+00  0.00000000E+00  0.00000000E+00
  0.00000000E+00  0.00000000E+00  0.00000000E+00
  0.00000000E+00  0.00000000E+00  0.00000000E+00
  0.00000000E+00  0.00000000E+00  0.00000000E+00
  0.00000000E+00  0.00000000E+00  0.00000000E+00
  0.00000000E+00  0.00000000E+00  0.00000000E+00
  0.00000000E+00  0.00000000E+00  0.00000000E+00
  0.00000000E+00  0.00000000E+00  0.00000000E+00
  0.00000000E+00  0.00000000E+00  0.00000000E+00
  0.00000000E+00  0.00000000E+00  0.00000000E+00
  0.00000000E+00  0.00000000E+00  0.00000000E+00
  0.00000000E+00  0.00000000E+00  0.00000000E+00
  0.00000000E+00  0.00000000E+00  0.00000000E+00
  0.00000000E+00  0.00000000E+00  0.00000000E+00
  0.00000000E+00  0.00000000E+00  0.00000000E+00
  0.00000000E+00  0.00000000E+00  0.00000000E+00
  0.00000000E+00  0.00000000E+00  0.00000000E+00
  0.00000000E+00  0.00000000E+00  0.00000000E+00
  0.00000000E+00  0.00000000E+00  0.00000000E+00
  0.00000000E+00  0.00000000E+00  0.00000000E+00
  0.00000000E+00  0.00000000E+00  0.00000000E+00
  0.00000000E+00  0.00000000E+00  0.00000000E+00
  0.00000000E+00  0.00000000E+00  0.00000000E+00
  0.00000000E+00  0.00000000E+00  0.00000000E+00
  0.00000000E+00  0.00000000E+00  0.00000000E+00
  0.00000000E+00  0.00000000E+00  0.00000000E+00
  0.00000000E+00  0.00000000E+00  0.00000000E+00
  0.00000000E+00  0.00000000E+00  0.00000000E+00
  0.00000000E+00  0.00000000E+00  0.00000000E+00
