Sc1 H1 C123 N3 O2                       
   1.00000000000000     
    19.8078680184211002    0.0060477870095013   -0.2102013287503147
    -9.8988828873646764   17.0439099897001292   -0.0476202543318748
    -0.3156940876581320   -0.2666902365159737   29.8058661929441726
   Sc   H    C    N    O 
     1     1   123     3     2
Direct
  0.4376486789013674  0.5031640429494829  0.4399275264243787
  0.5398361024150817  0.5607868825635547  0.5153683941293650
  0.0420266719361548  0.0840709062818599  0.3996305092057032
  0.0410275601522571  0.2081518465414040  0.3995472164767825
  0.0404486409871772  0.3329258711845812  0.3992243879669565
  0.0407005275021704  0.4582326444353665  0.3991676156585235
  0.0416233391503019  0.5837924944300737  0.3996331172400333
  0.0424272087467499  0.7092493406106188  0.3999373114209153
  0.0427583617354225  0.8345948879937221  0.3999108688858659
  0.0427000747180291  0.9596525702655204  0.3996967540954910
  0.1679452771992567  0.0855031500212340  0.4000735529746540
  0.1671274970411759  0.2098230394015208  0.4004043019656628
  0.1651982657558510  0.3335112703079330  0.4001066571787540
  0.1645009152270578  0.4583679283373356  0.3988135990517281
  0.1654570555636101  0.5835769100428150  0.3988554287876734
  0.1666606601986707  0.7090149604041807  0.3996068859014782
  0.1673857467035506  0.8345366174862144  0.3998876700894435
  0.1677546904371058  0.9600905806314523  0.3999233202679637
  0.2928484311597364  0.0857129476870469  0.4000091463428756
  0.2935450457557451  0.2126408478475838  0.4019184046212568
  0.2919074286721793  0.3378097830201076  0.4042533662971435
  0.2882328999610475  0.4572864790488518  0.4022438973049779
  0.2890167006282293  0.5829919572601004  0.3991983891837983
  0.2908991775767126  0.7084782882913330  0.3990410750111021
  0.2918673319726552  0.8339764208671357  0.3994576343934615
  0.2923557291113112  0.9596320348931561  0.3996110485248250
  0.4172954425989617  0.0841080530453797  0.3993806532199765
  0.4179284952914810  0.2100009851336620  0.3998781503300750
  0.4205262063691989  0.3375497895978800  0.4049862151170517
  0.4151129999398345  0.7066420968957533  0.3998366818439210
  0.4163387495507551  0.8325357779418565  0.3993948256362562
  0.4168920692231449  0.9583447100399215  0.3994892268378228
  0.5417812958099708  0.0827129986249884  0.3995208916326048
  0.5423646213459430  0.2083873358847303  0.3989967868469181
  0.5434177556342329  0.3340272517095669  0.3993877255028465
  0.5456514681024947  0.4588991271702063  0.4037454466675781
  0.5392471161743071  0.7025812108797004  0.4028358525172016
  0.5408052187491840  0.8305580712176531  0.4002146133497642
  0.5413660939846113  0.9568656367549062  0.3997590237342339
  0.6663268586725126  0.0820940586727364  0.3999244936658816
  0.6667854023343811  0.2075851364654213  0.3995146465144083
  0.6675760494366813  0.3329940892109057  0.3986734393338204
  0.6692892681639038  0.4585359431887475  0.3982170382782769
  0.6703662857795532  0.5841494426223487  0.3994061740729271
  0.6675729334152197  0.7071705486827274  0.4002483881992847
  0.6653528962649208  0.8307311193803977  0.4003113898185341
  0.6659321074809356  0.9565195446933002  0.4000609005633019
  0.7910096382889533  0.0820698361524659  0.3999638758301865
  0.7912765687186126  0.2073783523353170  0.3999071087363626
  0.7918896573974050  0.3328153646408279  0.3995487173445903
  0.7929164333738401  0.4583402938651802  0.3989050862568008
  0.7936617331287134  0.5837343714048516  0.3985563748430896
  0.7936237500276858  0.7090639813879053  0.3989542384366470
  0.7918706632627439  0.8328718215435057  0.3993324962257216
  0.7908894617118079  0.9569770523142510  0.3997112183162326
  0.9161491025361596  0.0826885137051638  0.3995993556025506
  0.9159169963078601  0.2075193167969047  0.3997400485466001
  0.9161211542892619  0.3328004483698277  0.3996746257545071
  0.9168289551495442  0.4582789403397871  0.3995868183797627
  0.9176964130648028  0.5838377062687439  0.3995306283846276
  0.9180292275199047  0.7091806765008745  0.3994979984362431
  0.9178026386178213  0.8342060944364541  0.3994342113986849
  0.9169370033155461  0.9584702385347611  0.3994599791438270
  0.0844191639043151  0.0432075645580165  0.3997425728032902
  0.0835601986667405  0.1674923246046190  0.3997336623070638
  0.0821751624289992  0.2914902723392735  0.3994571153134709
  0.0817487238868953  0.4163904622578197  0.3988992311713979
  0.0825545883557005  0.5418277165131995  0.3992040136585546
  0.0835669149090359  0.6673489946950806  0.3998099316488449
  0.0842100292288891  0.7928235105033983  0.3999761845515071
  0.0844392226946037  0.9181455023075416  0.3998834029126180
  0.2094854531662359  0.0436646849502789  0.4000250174131670
  0.2096742502294406  0.1692290093917711  0.4007571855713136
  0.2082536069034339  0.2933530974222419  0.4011291747950649
  0.2057770069235388  0.4168568438186409  0.3998710890188459
  0.2061357640086092  0.5415381098004713  0.3986889748074529
  0.2076961215060532  0.6670928123391414  0.3991193134397382
  0.2086851157122412  0.7926003280929628  0.3996972756050054
  0.2091881083375242  0.9181230355192737  0.3998331751451682
  0.3340926812667107  0.0432928677013875  0.3995925910439623
  0.3346694314666758  0.1695249913822171  0.4006382215483975
  0.3356772790526720  0.2966603023759909  0.4046223973702007
  0.3309356108397799  0.5425848113939045  0.4013277712952218
  0.3318757398431806  0.6663975218506157  0.3991963498815077
  0.3331403733775112  0.7918475758610515  0.3992613893304812
  0.3336750706043223  0.9174395383685324  0.3994825491896852
  0.4586080913136296  0.0417958279039897  0.3994494397521713
  0.4590619254695045  0.1675419277724164  0.3992241803850781
  0.4601178786342663  0.2935558465310414  0.4006272398483931
  0.4649270449694721  0.4196121855238405  0.4098871573154985
  0.4543234620985180  0.6620243260107408  0.4021650248229044
  0.4575670245009081  0.7901065510423217  0.3996817241046791
  0.4581831664468152  0.9160454010729608  0.3995592097559671
  0.5831075331645289  0.0405229179031149  0.3997652627677981
  0.5836172990366717  0.1662635715765990  0.3993072951966401
  0.5844186974778850  0.2917658764793273  0.3987274578925815
  0.5865538567218507  0.4173997616438865  0.3994619587162724
  0.5886724738768465  0.5439473437299230  0.4032500133641013
  0.5841031700356190  0.6625048762756037  0.4034100527763849
  0.5813923837944049  0.7871528276286287  0.4010542406652399
  0.5826413856746432  0.9144407674473916  0.3999765247693663
  0.7077241578200759  0.0401532116583027  0.4000268830747337
  0.7081300504607640  0.1656756334694691  0.3998437182108677
  0.7087467534510733  0.2911129146619638  0.3992696708183406
  0.7100357466689642  0.4165879878679465  0.3983594181815182
  0.7111046752382711  0.5418883931359314  0.3983213989549670
  0.7107031832581109  0.6672204580960120  0.3993717514287753
  0.7083212960432145  0.7905409932156753  0.3997374945229069
  0.7072685448195579  0.9145696025687733  0.3999954709537619
  0.8327043243937525  0.0405839568170905  0.3997556575704594
  0.8327365776887810  0.1656528127522454  0.3999443408225915
  0.8330866473015445  0.2909403257309935  0.3997822390346694
  0.8339194853265729  0.4163954562097604  0.3994345981722068
  0.8348241062334494  0.5419174206934569  0.3989764582052535
  0.8351211441691753  0.6673792861985713  0.3989450420998381
  0.8345511603007953  0.7922766629512717  0.3991997226405435
  0.8334100579762711  0.9162782523987392  0.3994791183295863
  0.9585108076602652  0.0418575993314839  0.3995282469273174
  0.9577349651976064  0.1661212599853966  0.3995730879517168
  0.9574908891628012  0.2910793393351532  0.3995536841167507
  0.9578058193096063  0.4163409870268295  0.3995369667537189
  0.9587157688173105  0.5418967223350403  0.3996426697392773
  0.9594296140945239  0.6673990167322204  0.3997244646091976
  0.9595728975875094  0.7927540046775764  0.3996736595683035
  0.9593184016444495  0.9176435448346260  0.3994956994729275
  0.4107704796888003  0.5822393410582138  0.4041295071060663
  0.5486080972485587  0.5831244425976719  0.4072389036923833
  0.3283958516264054  0.4180909439424868  0.4065446276162601
  0.5016086519245392  0.5082555347499815  0.5043446990711081
  0.4272550841170729  0.5102373691640885  0.5068430036790348
 
  0.00000000E+00  0.00000000E+00  0.00000000E+00
  0.00000000E+00  0.00000000E+00  0.00000000E+00
  0.00000000E+00  0.00000000E+00  0.00000000E+00
  0.00000000E+00  0.00000000E+00  0.00000000E+00
  0.00000000E+00  0.00000000E+00  0.00000000E+00
  0.00000000E+00  0.00000000E+00  0.00000000E+00
  0.00000000E+00  0.00000000E+00  0.00000000E+00
  0.00000000E+00  0.00000000E+00  0.00000000E+00
  0.00000000E+00  0.00000000E+00  0.00000000E+00
  0.00000000E+00  0.00000000E+00  0.00000000E+00
  0.00000000E+00  0.00000000E+00  0.00000000E+00
  0.00000000E+00  0.00000000E+00  0.00000000E+00
  0.00000000E+00  0.00000000E+00  0.00000000E+00
  0.00000000E+00  0.00000000E+00  0.00000000E+00
  0.00000000E+00  0.00000000E+00  0.00000000E+00
  0.00000000E+00  0.00000000E+00  0.00000000E+00
  0.00000000E+00  0.00000000E+00  0.00000000E+00
  0.00000000E+00  0.00000000E+00  0.00000000E+00
  0.00000000E+00  0.00000000E+00  0.00000000E+00
  0.00000000E+00  0.00000000E+00  0.00000000E+00
  0.00000000E+00  0.00000000E+00  0.00000000E+00
  0.00000000E+00  0.00000000E+00  0.00000000E+00
  0.00000000E+00  0.00000000E+00  0.00000000E+00
  0.00000000E+00  0.00000000E+00  0.00000000E+00
  0.00000000E+00  0.00000000E+00  0.00000000E+00
  0.00000000E+00  0.00000000E+00  0.00000000E+00
  0.00000000E+00  0.00000000E+00  0.00000000E+00
  0.00000000E+00  0.00000000E+00  0.00000000E+00
  0.00000000E+00  0.00000000E+00  0.00000000E+00
  0.00000000E+00  0.00000000E+00  0.00000000E+00
  0.00000000E+00  0.00000000E+00  0.00000000E+00
  0.00000000E+00  0.00000000E+00  0.00000000E+00
  0.00000000E+00  0.00000000E+00  0.00000000E+00
  0.00000000E+00  0.00000000E+00  0.00000000E+00
  0.00000000E+00  0.00000000E+00  0.00000000E+00
  0.00000000E+00  0.00000000E+00  0.00000000E+00
  0.00000000E+00  0.00000000E+00  0.00000000E+00
  0.00000000E+00  0.00000000E+00  0.00000000E+00
  0.00000000E+00  0.00000000E+00  0.00000000E+00
  0.00000000E+00  0.00000000E+00  0.00000000E+00
  0.00000000E+00  0.00000000E+00  0.00000000E+00
  0.00000000E+00  0.00000000E+00  0.00000000E+00
  0.00000000E+00  0.00000000E+00  0.00000000E+00
  0.00000000E+00  0.00000000E+00  0.00000000E+00
  0.00000000E+00  0.00000000E+00  0.00000000E+00
  0.00000000E+00  0.00000000E+00  0.00000000E+00
  0.00000000E+00  0.00000000E+00  0.00000000E+00
  0.00000000E+00  0.00000000E+00  0.00000000E+00
  0.00000000E+00  0.00000000E+00  0.00000000E+00
  0.00000000E+00  0.00000000E+00  0.00000000E+00
  0.00000000E+00  0.00000000E+00  0.00000000E+00
  0.00000000E+00  0.00000000E+00  0.00000000E+00
  0.00000000E+00  0.00000000E+00  0.00000000E+00
  0.00000000E+00  0.00000000E+00  0.00000000E+00
  0.00000000E+00  0.00000000E+00  0.00000000E+00
  0.00000000E+00  0.00000000E+00  0.00000000E+00
  0.00000000E+00  0.00000000E+00  0.00000000E+00
  0.00000000E+00  0.00000000E+00  0.00000000E+00
  0.00000000E+00  0.00000000E+00  0.00000000E+00
  0.00000000E+00  0.00000000E+00  0.00000000E+00
  0.00000000E+00  0.00000000E+00  0.00000000E+00
  0.00000000E+00  0.00000000E+00  0.00000000E+00
  0.00000000E+00  0.00000000E+00  0.00000000E+00
  0.00000000E+00  0.00000000E+00  0.00000000E+00
  0.00000000E+00  0.00000000E+00  0.00000000E+00
  0.00000000E+00  0.00000000E+00  0.00000000E+00
  0.00000000E+00  0.00000000E+00  0.00000000E+00
  0.00000000E+00  0.00000000E+00  0.00000000E+00
  0.00000000E+00  0.00000000E+00  0.00000000E+00
  0.00000000E+00  0.00000000E+00  0.00000000E+00
  0.00000000E+00  0.00000000E+00  0.00000000E+00
  0.00000000E+00  0.00000000E+00  0.00000000E+00
  0.00000000E+00  0.00000000E+00  0.00000000E+00
  0.00000000E+00  0.00000000E+00  0.00000000E+00
  0.00000000E+00  0.00000000E+00  0.00000000E+00
  0.00000000E+00  0.00000000E+00  0.00000000E+00
  0.00000000E+00  0.00000000E+00  0.00000000E+00
  0.00000000E+00  0.00000000E+00  0.00000000E+00
  0.00000000E+00  0.00000000E+00  0.00000000E+00
  0.00000000E+00  0.00000000E+00  0.00000000E+00
  0.00000000E+00  0.00000000E+00  0.00000000E+00
  0.00000000E+00  0.00000000E+00  0.00000000E+00
  0.00000000E+00  0.00000000E+00  0.00000000E+00
  0.00000000E+00  0.00000000E+00  0.00000000E+00
  0.00000000E+00  0.00000000E+00  0.00000000E+00
  0.00000000E+00  0.00000000E+00  0.00000000E+00
  0.00000000E+00  0.00000000E+00  0.00000000E+00
  0.00000000E+00  0.00000000E+00  0.00000000E+00
  0.00000000E+00  0.00000000E+00  0.00000000E+00
  0.00000000E+00  0.00000000E+00  0.00000000E+00
  0.00000000E+00  0.00000000E+00  0.00000000E+00
  0.00000000E+00  0.00000000E+00  0.00000000E+00
  0.00000000E+00  0.00000000E+00  0.00000000E+00
  0.00000000E+00  0.00000000E+00  0.00000000E+00
  0.00000000E+00  0.00000000E+00  0.00000000E+00
  0.00000000E+00  0.00000000E+00  0.00000000E+00
  0.00000000E+00  0.00000000E+00  0.00000000E+00
  0.00000000E+00  0.00000000E+00  0.00000000E+00
  0.00000000E+00  0.00000000E+00  0.00000000E+00
  0.00000000E+00  0.00000000E+00  0.00000000E+00
  0.00000000E+00  0.00000000E+00  0.00000000E+00
  0.00000000E+00  0.00000000E+00  0.00000000E+00
  0.00000000E+00  0.00000000E+00  0.00000000E+00
  0.00000000E+00  0.00000000E+00  0.00000000E+00
  0.00000000E+00  0.00000000E+00  0.00000000E+00
  0.00000000E+00  0.00000000E+00  0.00000000E+00
  0.00000000E+00  0.00000000E+00  0.00000000E+00
  0.00000000E+00  0.00000000E+00  0.00000000E+00
  0.00000000E+00  0.00000000E+00  0.00000000E+00
  0.00000000E+00  0.00000000E+00  0.00000000E+00
  0.00000000E+00  0.00000000E+00  0.00000000E+00
  0.00000000E+00  0.00000000E+00  0.00000000E+00
  0.00000000E+00  0.00000000E+00  0.00000000E+00
  0.00000000E+00  0.00000000E+00  0.00000000E+00
  0.00000000E+00  0.00000000E+00  0.00000000E+00
  0.00000000E+00  0.00000000E+00  0.00000000E+00
  0.00000000E+00  0.00000000E+00  0.00000000E+00
  0.00000000E+00  0.00000000E+00  0.00000000E+00
  0.00000000E+00  0.00000000E+00  0.00000000E+00
  0.00000000E+00  0.00000000E+00  0.00000000E+00
  0.00000000E+00  0.00000000E+00  0.00000000E+00
  0.00000000E+00  0.00000000E+00  0.00000000E+00
  0.00000000E+00  0.00000000E+00  0.00000000E+00
  0.00000000E+00  0.00000000E+00  0.00000000E+00
  0.00000000E+00  0.00000000E+00  0.00000000E+00
  0.00000000E+00  0.00000000E+00  0.00000000E+00
  0.00000000E+00  0.00000000E+00  0.00000000E+00
  0.00000000E+00  0.00000000E+00  0.00000000E+00
  0.00000000E+00  0.00000000E+00  0.00000000E+00
  0.00000000E+00  0.00000000E+00  0.00000000E+00
