Y1 H1 C124 N2 O2                        
   1.00000000000000     
    19.8098128973124545   -0.0129515154427445   -0.1804246245802736
    -9.9178733344972141   17.0659508669351645   -0.0760304112460932
    -0.2705160439584677   -0.2899584776436531   29.7806023062150551
   Y    H    C    N    O 
     1     1   124     2     2
Direct
  0.4406616146788470  0.5047173670996025  0.4553083579842028
  0.5588308870552715  0.5724003523775727  0.5303552806877303
  0.0420927890711443  0.0840578707199805  0.3989183102522443
  0.0413566796846513  0.2083473696977649  0.3982070025659930
  0.0407804017586564  0.3329789037373781  0.3972881504806116
  0.0407323791978346  0.4583860882738028  0.3971510256710937
  0.0413353182926417  0.5837960809846436  0.3978533973804468
  0.0419510011693533  0.7091635959067825  0.3985801730572966
  0.0423220875238669  0.8344649386206719  0.3988970265564012
  0.0425548152675512  0.9596253034932740  0.3990057628026317
  0.1681318079046806  0.0856327412776010  0.3999537898455568
  0.1673002557531407  0.2097900518417340  0.4001675384453002
  0.1659925548869733  0.3340173293236077  0.3995013930681278
  0.1646035207386950  0.4585290263237513  0.3978260852483457
  0.1652945540153198  0.5838253335877469  0.3975132244873706
  0.1662698536452058  0.7092280337512417  0.3982719330526994
  0.1670037617741746  0.8345983288817573  0.3989469564979579
  0.1675544535467036  0.9600267090900390  0.3993551217910097
  0.2928194360540184  0.0853984542619033  0.4000617557220790
  0.2946041061474347  0.2126341558011062  0.4031567569218809
  0.2921734963803027  0.3370098629251230  0.4075007952843287
  0.2887923119901961  0.4586992177515115  0.4061645517621544
  0.2890223542962935  0.5845786557865248  0.4005801010341040
  0.2905863154422894  0.7093248365537423  0.3987217519912894
  0.2915634787342185  0.8343072941340265  0.3987193368910339
  0.2921031149636020  0.9596094231941547  0.3991198643841087
  0.4172565452188652  0.0838540680529272  0.3992096827249573
  0.4179539302381824  0.2093155688621426  0.4007605668206928
  0.4221593048148992  0.3373091968655430  0.4076129000251464
  0.4149950377988274  0.7078347582807103  0.4017151617265280
  0.4161541997735471  0.8331847894276427  0.3993324014578875
  0.4166924749163463  0.9584893022226466  0.3990202283003083
  0.5418031220665023  0.0825713279034200  0.3990873780864023
  0.5424060618278522  0.2077405852588795  0.3989443095028540
  0.5435970544904789  0.3327661470889721  0.4001344793704793
  0.5446026250692270  0.4559173381370911  0.4056126055860986
  0.5470888567168890  0.5823548086682763  0.4123585133342728
  0.5394352334283887  0.7043030555875485  0.4058102620828366
  0.5405740739566098  0.8313530947601555  0.4008356795705763
  0.5413429102497839  0.9571744597476746  0.3994612351788514
  0.6664093465870298  0.0820883562195565  0.3993347180485308
  0.6669637148428212  0.2074348241698022  0.3988257563762574
  0.6676898246715308  0.3326409381564893  0.3980399441445913
  0.6689351032745294  0.4579776182202034  0.3974870104576291
  0.6689520852743236  0.5827175616769226  0.3985276361456653
  0.6667904056109030  0.7070341587292224  0.4000299232957359
  0.6653364902254267  0.8309014932993257  0.4004205018857134
  0.6659891109346527  0.9566856887740961  0.3998101386598948
  0.7911967759110201  0.0821309470716860  0.3991042618414072
  0.7914764207574910  0.2073419605484245  0.3987947260762179
  0.7920648544235341  0.3327495963497337  0.3983294009636879
  0.7927780440774510  0.4581583076739609  0.3974769113125952
  0.7931487501549133  0.5833998165910197  0.3968027919336184
  0.7924992593088714  0.7083004714920362  0.3973922884468729
  0.7916615740216676  0.8327965585575443  0.3984697131733670
  0.7909256041649234  0.9570210272773744  0.3991646657861598
  0.9163624208816266  0.0827972814788093  0.3986394042748967
  0.9161835907989107  0.2076283745448488  0.3981655443227931
  0.9163283308242983  0.3328132160248885  0.3979167045081182
  0.9167417784490549  0.4582097328515746  0.3979534709605148
  0.9173396528734687  0.5837011488872228  0.3979677837389979
  0.9174735789699704  0.7090126411328289  0.3979367966463725
  0.9172603825575548  0.8338622716786629  0.3983539013184370
  0.9168198867393559  0.9583797388280505  0.3987768988816552
  0.0844457113623790  0.0432395528350251  0.3992227338099077
  0.0836413606696119  0.1673877052804712  0.3988647343794760
  0.0826822342202639  0.2917800721219677  0.3979466584946278
  0.0819018051988111  0.4166086636532425  0.3969996871427530
  0.0823223972599902  0.5419035426909397  0.3972990002364837
  0.0831366017760335  0.6673570930544670  0.3982703490978504
  0.0837892333334523  0.7928118345472103  0.3988773987627589
  0.0841366565444886  0.9180746403348901  0.3991224742629611
  0.2094027065879382  0.0435805608780724  0.3998578280800537
  0.2101566354900190  0.1694825618939643  0.4011153997361767
  0.2086652007321081  0.2932887539427436  0.4014593299134305
  0.2061956796291206  0.4174109904936248  0.3999803240472141
  0.2061462682039319  0.5420916868647643  0.3982269563743703
  0.2074688966893515  0.6674681324378421  0.3980624523350609
  0.2082914896293153  0.7927273577851235  0.3986575719601524
  0.2089107150233553  0.9181148011407051  0.3991667625627379
  0.3339770940136379  0.0430826335807020  0.3993889307178896
  0.3349133747013724  0.1690567609585511  0.4013310970157130
  0.3366020700918179  0.2964957231241357  0.4073790095949091
  0.3295831366471196  0.4189476221256857  0.4137936746040701
  0.3311587216913767  0.5447026086726271  0.4058228430786510
  0.3317647593870085  0.6675365702797664  0.4001920221957037
  0.3328688857972636  0.7924746900673347  0.3988463190911814
  0.3334944695760802  0.9176430799162468  0.3989248242175406
  0.4586155306420224  0.0417668399556070  0.3990533015405785
  0.4591715819992467  0.1671008286453518  0.3994223537611745
  0.4605658537296565  0.2926720992497359  0.4022265517854815
  0.4540213274872880  0.6636333603170913  0.4062640487533358
  0.4574820274979301  0.7910733694948560  0.4004076514890848
  0.4580541245507759  0.9164142062988221  0.3992157227648850
  0.5832147873230700  0.0406201625410579  0.3993077283178384
  0.5837093592472979  0.1658970396600484  0.3988840571490623
  0.5846511452623133  0.2908770910215750  0.3986982347898761
  0.5862394274203637  0.4156968810961738  0.3999405780415323
  0.5869103726609785  0.5418230426203835  0.4048468659051533
  0.5837644715427821  0.6637321722129536  0.4057647113579995
  0.5810596739858713  0.7879118409807052  0.4021601787134984
  0.5825758943886387  0.9149260486495343  0.3999508072724040
  0.7078047417045853  0.0402050025490824  0.3994403532213188
  0.7082845373863682  0.1655834585931874  0.3990644130772256
  0.7089505840727092  0.2909111160477450  0.3983902579360986
  0.7098039918804460  0.4162390785409045  0.3973509234967497
  0.7104579362988448  0.5414929746949241  0.3969272584186017
  0.7092473662747220  0.6661244128615477  0.3982155478422141
  0.7080745174770078  0.7904880175132641  0.3992998587527267
  0.7072969260984562  0.9146809042512287  0.3997437923677992
  0.8328086694311674  0.0406086782562467  0.3989785861170750
  0.8329665816044660  0.1657079804572556  0.3987272117790815
  0.8332963025264604  0.2909714411974212  0.3984382235065898
  0.8338336944945451  0.4162935943716984  0.3979953892157046
  0.8343849869284898  0.5416694813596586  0.3973625606702369
  0.8343673560020334  0.6670690866983848  0.3971834194319407
  0.8338884658225095  0.7917830667800454  0.3979606883313432
  0.8332457483438875  0.9161608842317450  0.3988227754873362
  0.9585081100401136  0.0418246376768163  0.3987555243971879
  0.9580066275214009  0.1662840343567355  0.3982147433812110
  0.9577164457601729  0.2910891841563135  0.3976738636923575
  0.9578287215698558  0.4164033781087722  0.3976736066465161
  0.9584452797445197  0.5418909404360870  0.3979970416374749
  0.9588892278264834  0.6672979700807191  0.3982269691462161
  0.9590617535315726  0.7925092349516346  0.3984291922693064
  0.9589582914185599  0.9174035099774421  0.3987275048328245
  0.4099494888137798  0.5842676046959234  0.4104147211099777
  0.4667428542689568  0.4169597804662044  0.4119953467348654
  0.5153933079044472  0.5196768649680011  0.5235067684734538
  0.4469640363845663  0.5322055038020500  0.5268845438393407
 
  0.00000000E+00  0.00000000E+00  0.00000000E+00
  0.00000000E+00  0.00000000E+00  0.00000000E+00
  0.00000000E+00  0.00000000E+00  0.00000000E+00
  0.00000000E+00  0.00000000E+00  0.00000000E+00
  0.00000000E+00  0.00000000E+00  0.00000000E+00
  0.00000000E+00  0.00000000E+00  0.00000000E+00
  0.00000000E+00  0.00000000E+00  0.00000000E+00
  0.00000000E+00  0.00000000E+00  0.00000000E+00
  0.00000000E+00  0.00000000E+00  0.00000000E+00
  0.00000000E+00  0.00000000E+00  0.00000000E+00
  0.00000000E+00  0.00000000E+00  0.00000000E+00
  0.00000000E+00  0.00000000E+00  0.00000000E+00
  0.00000000E+00  0.00000000E+00  0.00000000E+00
  0.00000000E+00  0.00000000E+00  0.00000000E+00
  0.00000000E+00  0.00000000E+00  0.00000000E+00
  0.00000000E+00  0.00000000E+00  0.00000000E+00
  0.00000000E+00  0.00000000E+00  0.00000000E+00
  0.00000000E+00  0.00000000E+00  0.00000000E+00
  0.00000000E+00  0.00000000E+00  0.00000000E+00
  0.00000000E+00  0.00000000E+00  0.00000000E+00
  0.00000000E+00  0.00000000E+00  0.00000000E+00
  0.00000000E+00  0.00000000E+00  0.00000000E+00
  0.00000000E+00  0.00000000E+00  0.00000000E+00
  0.00000000E+00  0.00000000E+00  0.00000000E+00
  0.00000000E+00  0.00000000E+00  0.00000000E+00
  0.00000000E+00  0.00000000E+00  0.00000000E+00
  0.00000000E+00  0.00000000E+00  0.00000000E+00
  0.00000000E+00  0.00000000E+00  0.00000000E+00
  0.00000000E+00  0.00000000E+00  0.00000000E+00
  0.00000000E+00  0.00000000E+00  0.00000000E+00
  0.00000000E+00  0.00000000E+00  0.00000000E+00
  0.00000000E+00  0.00000000E+00  0.00000000E+00
  0.00000000E+00  0.00000000E+00  0.00000000E+00
  0.00000000E+00  0.00000000E+00  0.00000000E+00
  0.00000000E+00  0.00000000E+00  0.00000000E+00
  0.00000000E+00  0.00000000E+00  0.00000000E+00
  0.00000000E+00  0.00000000E+00  0.00000000E+00
  0.00000000E+00  0.00000000E+00  0.00000000E+00
  0.00000000E+00  0.00000000E+00  0.00000000E+00
  0.00000000E+00  0.00000000E+00  0.00000000E+00
  0.00000000E+00  0.00000000E+00  0.00000000E+00
  0.00000000E+00  0.00000000E+00  0.00000000E+00
  0.00000000E+00  0.00000000E+00  0.00000000E+00
  0.00000000E+00  0.00000000E+00  0.00000000E+00
  0.00000000E+00  0.00000000E+00  0.00000000E+00
  0.00000000E+00  0.00000000E+00  0.00000000E+00
  0.00000000E+00  0.00000000E+00  0.00000000E+00
  0.00000000E+00  0.00000000E+00  0.00000000E+00
  0.00000000E+00  0.00000000E+00  0.00000000E+00
  0.00000000E+00  0.00000000E+00  0.00000000E+00
  0.00000000E+00  0.00000000E+00  0.00000000E+00
  0.00000000E+00  0.00000000E+00  0.00000000E+00
  0.00000000E+00  0.00000000E+00  0.00000000E+00
  0.00000000E+00  0.00000000E+00  0.00000000E+00
  0.00000000E+00  0.00000000E+00  0.00000000E+00
  0.00000000E+00  0.00000000E+00  0.00000000E+00
  0.00000000E+00  0.00000000E+00  0.00000000E+00
  0.00000000E+00  0.00000000E+00  0.00000000E+00
  0.00000000E+00  0.00000000E+00  0.00000000E+00
  0.00000000E+00  0.00000000E+00  0.00000000E+00
  0.00000000E+00  0.00000000E+00  0.00000000E+00
  0.00000000E+00  0.00000000E+00  0.00000000E+00
  0.00000000E+00  0.00000000E+00  0.00000000E+00
  0.00000000E+00  0.00000000E+00  0.00000000E+00
  0.00000000E+00  0.00000000E+00  0.00000000E+00
  0.00000000E+00  0.00000000E+00  0.00000000E+00
  0.00000000E+00  0.00000000E+00  0.00000000E+00
  0.00000000E+00  0.00000000E+00  0.00000000E+00
  0.00000000E+00  0.00000000E+00  0.00000000E+00
  0.00000000E+00  0.00000000E+00  0.00000000E+00
  0.00000000E+00  0.00000000E+00  0.00000000E+00
  0.00000000E+00  0.00000000E+00  0.00000000E+00
  0.00000000E+00  0.00000000E+00  0.00000000E+00
  0.00000000E+00  0.00000000E+00  0.00000000E+00
  0.00000000E+00  0.00000000E+00  0.00000000E+00
  0.00000000E+00  0.00000000E+00  0.00000000E+00
  0.00000000E+00  0.00000000E+00  0.00000000E+00
  0.00000000E+00  0.00000000E+00  0.00000000E+00
  0.00000000E+00  0.00000000E+00  0.00000000E+00
  0.00000000E+00  0.00000000E+00  0.00000000E+00
  0.00000000E+00  0.00000000E+00  0.00000000E+00
  0.00000000E+00  0.00000000E+00  0.00000000E+00
  0.00000000E+00  0.00000000E+00  0.00000000E+00
  0.00000000E+00  0.00000000E+00  0.00000000E+00
  0.00000000E+00  0.00000000E+00  0.00000000E+00
  0.00000000E+00  0.00000000E+00  0.00000000E+00
  0.00000000E+00  0.00000000E+00  0.00000000E+00
  0.00000000E+00  0.00000000E+00  0.00000000E+00
  0.00000000E+00  0.00000000E+00  0.00000000E+00
  0.00000000E+00  0.00000000E+00  0.00000000E+00
  0.00000000E+00  0.00000000E+00  0.00000000E+00
  0.00000000E+00  0.00000000E+00  0.00000000E+00
  0.00000000E+00  0.00000000E+00  0.00000000E+00
  0.00000000E+00  0.00000000E+00  0.00000000E+00
  0.00000000E+00  0.00000000E+00  0.00000000E+00
  0.00000000E+00  0.00000000E+00  0.00000000E+00
  0.00000000E+00  0.00000000E+00  0.00000000E+00
  0.00000000E+00  0.00000000E+00  0.00000000E+00
  0.00000000E+00  0.00000000E+00  0.00000000E+00
  0.00000000E+00  0.00000000E+00  0.00000000E+00
  0.00000000E+00  0.00000000E+00  0.00000000E+00
  0.00000000E+00  0.00000000E+00  0.00000000E+00
  0.00000000E+00  0.00000000E+00  0.00000000E+00
  0.00000000E+00  0.00000000E+00  0.00000000E+00
  0.00000000E+00  0.00000000E+00  0.00000000E+00
  0.00000000E+00  0.00000000E+00  0.00000000E+00
  0.00000000E+00  0.00000000E+00  0.00000000E+00
  0.00000000E+00  0.00000000E+00  0.00000000E+00
  0.00000000E+00  0.00000000E+00  0.00000000E+00
  0.00000000E+00  0.00000000E+00  0.00000000E+00
  0.00000000E+00  0.00000000E+00  0.00000000E+00
  0.00000000E+00  0.00000000E+00  0.00000000E+00
  0.00000000E+00  0.00000000E+00  0.00000000E+00
  0.00000000E+00  0.00000000E+00  0.00000000E+00
  0.00000000E+00  0.00000000E+00  0.00000000E+00
  0.00000000E+00  0.00000000E+00  0.00000000E+00
  0.00000000E+00  0.00000000E+00  0.00000000E+00
  0.00000000E+00  0.00000000E+00  0.00000000E+00
  0.00000000E+00  0.00000000E+00  0.00000000E+00
  0.00000000E+00  0.00000000E+00  0.00000000E+00
  0.00000000E+00  0.00000000E+00  0.00000000E+00
  0.00000000E+00  0.00000000E+00  0.00000000E+00
  0.00000000E+00  0.00000000E+00  0.00000000E+00
  0.00000000E+00  0.00000000E+00  0.00000000E+00
  0.00000000E+00  0.00000000E+00  0.00000000E+00
  0.00000000E+00  0.00000000E+00  0.00000000E+00
  0.00000000E+00  0.00000000E+00  0.00000000E+00
  0.00000000E+00  0.00000000E+00  0.00000000E+00
  0.00000000E+00  0.00000000E+00  0.00000000E+00
  0.00000000E+00  0.00000000E+00  0.00000000E+00
