Ag1 H1 C123 N3 O2                       
   1.00000000000000     
    19.8438633042021628    0.0052724244295614    0.0869727095572056
    -9.9173040730125361   17.0411541529411039   -0.0084064921288626
     0.1302616236689608    0.0612687722511823   29.7522538798482472
   Ag   H    C    N    O 
     1     1   123     3     2
Direct
  0.4369867714071129  0.4987904993027689  0.4075687792773291
  0.5297320655445730  0.5496866552921646  0.5188538212122208
  0.0415729894588094  0.0838327181101954  0.4001689216940719
  0.0404900274879591  0.2078699408433445  0.4002709178643123
  0.0397825139911605  0.3327268317766479  0.3998451035980132
  0.0400433509024699  0.4581373942332877  0.3991169134250885
  0.0411651269680265  0.5838264864282365  0.3986136635889017
  0.0422250911640455  0.7093852425305752  0.3987729707217731
  0.0425348542671154  0.8346089159982190  0.3991997528752785
  0.0423757336228140  0.9595722519231658  0.3996278002194463
  0.1675828203319224  0.0853528028088934  0.4007307317252523
  0.1666193777987486  0.2096362864648531  0.4015735892612267
  0.1642269434750539  0.3332620080350863  0.4014448012183948
  0.1633196302884803  0.4583880087467286  0.4006778965405095
  0.1644707412529302  0.5837762469570045  0.3996760864732469
  0.1661777787842516  0.7091777157449665  0.3990821737007406
  0.1670579337720252  0.8346500597307537  0.3991466302196758
  0.1674703662837793  0.9601119089207740  0.3997390814581052
  0.2925283820018604  0.0857822932655109  0.4007521500010970
  0.2929588167794032  0.2123820347673134  0.4022994282545695
  0.2910394366640915  0.3371525620124723  0.4029883102526745
  0.2861466807474211  0.4579270228979385  0.4025306566008304
  0.2871717393890129  0.5832145076578908  0.4014750365794779
  0.2901533453225099  0.7086521776567127  0.4002407185130319
  0.2914740539062844  0.8341309877647795  0.3994113583515837
  0.2921055946418655  0.9597341213179010  0.3995562405144328
  0.4170467814969898  0.0841367037925389  0.4001464743379094
  0.4177318864781909  0.2100827945127171  0.4017361740877636
  0.4194778534680700  0.3373267314693990  0.4037846513977096
  0.4141396883625099  0.7066245319505772  0.4019428698857925
  0.4158572212660256  0.8324732776857283  0.4003553306536392
  0.4165980115137477  0.9583423898209262  0.3995785950897859
  0.5415353355809768  0.0824850242798608  0.3995149226786185
  0.5422638929381486  0.2082066569315401  0.4004168002280801
  0.5436379043918009  0.3336948489157219  0.4022387006240512
  0.5484334463579029  0.4595283125856016  0.4043824161733900
  0.5380962051516612  0.7014625031322366  0.4034038722316026
  0.5402863972953276  0.8300940776688845  0.4014110783430239
  0.5409785163884671  0.9565650177452751  0.3999565384572913
  0.6660127431643805  0.0817438412902673  0.3994615973751677
  0.6665888881019160  0.2072435043415919  0.3993016441711544
  0.6677606704922232  0.3327425027903427  0.4000734335541489
  0.6704993965190518  0.4584861132298138  0.4016493935190338
  0.6720140378647533  0.5842135331743984  0.4030557576700304
  0.6671328075953831  0.7065016864717986  0.4027394723630551
  0.6646266711058895  0.8300927444807237  0.4015901385722666
  0.6654399538282850  0.9560656607730956  0.4003159792618136
  0.7905654409799618  0.0816793298569846  0.3995686697232793
  0.7909594088834253  0.2070520542777452  0.3991157549470532
  0.7917810223079231  0.3325455189701064  0.3988506948239284
  0.7932990358222006  0.4581859420756952  0.3992227913767920
  0.7944962173217940  0.5838470954575492  0.4001823758951524
  0.7937763810367817  0.7090538712566404  0.4007846174177396
  0.7913918877392083  0.8324376379289468  0.4006906304569604
  0.7903546582375665  0.9565025576952656  0.4001127791907234
  0.9156648247758139  0.0823368322022063  0.3996504645435168
  0.9154358994114739  0.2071810232303361  0.3993921443604687
  0.9157071959935460  0.3325269140612870  0.3989181249224284
  0.9166649843108974  0.4581675458220388  0.3984491700242411
  0.9178089862153094  0.5838584861198723  0.3986171864488961
  0.9180478114287413  0.7092208491812640  0.3992318244516909
  0.9176117327225094  0.8341570817914042  0.3995905785003340
  0.9164883119668338  0.9581644085144070  0.3997342525370252
  0.0840626648771458  0.0431166371166309  0.4001475543453333
  0.0830602771114190  0.1673075145464674  0.4007018842983655
  0.0815234211187414  0.2912714774550671  0.4005003218734697
  0.0808297522261727  0.4161443601951553  0.3998358976860862
  0.0817980070412997  0.5417768204098982  0.3990545438471234
  0.0831765450807928  0.6674112485456190  0.3987417769488735
  0.0839161702236409  0.7928880962023405  0.3990492873501457
  0.0841792727412952  0.9181578868639825  0.3994939409592756
  0.2091411311148960  0.0436684158292819  0.4004195405884693
  0.2092610693616050  0.1690919962048266  0.4016078463420779
  0.2073887674831143  0.2931479094406262  0.4021234491481784
  0.2043235640152045  0.4166578899767291  0.4016210820145799
  0.2046525766062464  0.5415226032041376  0.4005456835483369
  0.2069574498068309  0.6671895592986136  0.3995994392135828
  0.2082914315524360  0.7927608590166814  0.3991558941431015
  0.2088885383619775  0.9182059580014927  0.3994451849834588
  0.3338597633659056  0.0434153718421539  0.4001239039688748
  0.3342488915093074  0.1695229134349839  0.4017030330364562
  0.3346531317843816  0.2965681595755146  0.4032519671614904
  0.3277796599275626  0.5421015480289850  0.4027300049565933
  0.3308060225483850  0.6665371625560472  0.4012757371100916
  0.3326348919135328  0.7919662472025408  0.3999684349170979
  0.3333769973289833  0.9175753214106140  0.3994262790532706
  0.4583449688460582  0.0417787543187589  0.3996628834319767
  0.4589208070351199  0.1676448751318444  0.4007924780859323
  0.4601937463797103  0.2935655508816806  0.4026432287439962
  0.4668259689032287  0.4184727866399534  0.4050338983234579
  0.4531005068177503  0.6617785628393663  0.4033151970635631
  0.4569534647729800  0.7899688046421564  0.4012469245032138
  0.4578062860768333  0.9159911135934987  0.3999105180258336
  0.5827738041762321  0.0402465547046930  0.3995264752607067
  0.5834374453255009  0.1659966625896457  0.3996460989516728
  0.5845354744740074  0.2914199010205943  0.4009024169241449
  0.5878898956156250  0.4169095599485598  0.4028715892249517
  0.5908917896661132  0.5431940138145021  0.4044519745876692
  0.5830780768850206  0.6616346819114525  0.4038358872067287
  0.5806640118011753  0.7865331950039793  0.4022390486920268
  0.5821843588640847  0.9140408526465049  0.4005447098740456
  0.7073031771459789  0.0397623103857845  0.3997462156285848
  0.7078422693428419  0.1653108847809443  0.3992007827033656
  0.7086714267226673  0.2907837174088456  0.3992874068185739
  0.7106029793923335  0.4162377219193038  0.4002198362997128
  0.7122928594124583  0.5417217670866896  0.4016994324184388
  0.7111323315627616  0.6672214495553417  0.4022721937188648
  0.7077471697377260  0.7899709145712289  0.4016976104021790
  0.7066771220489548  0.9140588296807890  0.4006335403116689
  0.8322341765940090  0.0401906885052278  0.3996901707664104
  0.8323347118405627  0.1653056417366499  0.3992998238204493
  0.8327636801897836  0.2905716386632402  0.3988671903211836
  0.8339089365238906  0.4161015878074203  0.3986729383803473
  0.8351890092489341  0.5418235311297159  0.3991876307392958
  0.8353510342915920  0.6673761135008914  0.3999968997450107
  0.8344051646547530  0.7921946592407444  0.4002883216273572
  0.8329180038592849  0.9159089513714410  0.4001094754712644
  0.9580771156780105  0.0415879084024838  0.3997769460593721
  0.9572382373206806  0.1658059826080682  0.3996893511989457
  0.9569892803572878  0.2907760917427327  0.3993282312018986
  0.9573652832731862  0.4161126851090690  0.3987204107658310
  0.9584648372669232  0.5417571690424051  0.3984098587757331
  0.9593471519047323  0.6674248705210161  0.3987920117446007
  0.9594278414713413  0.7927835247491301  0.3992847093540356
  0.9590098312189956  0.9175339625389705  0.3995605607319247
  0.4076482154498182  0.5824590602202322  0.4041101160315941
  0.5496561803832632  0.5817903529292056  0.4046953715802183
  0.3260496163804731  0.4173975961817860  0.4028532558993261
  0.4915119313698262  0.4947278244883103  0.5121265078937940
  0.4306205478472039  0.4997574514037609  0.4923217487589228
 
  0.00000000E+00  0.00000000E+00  0.00000000E+00
  0.00000000E+00  0.00000000E+00  0.00000000E+00
  0.00000000E+00  0.00000000E+00  0.00000000E+00
  0.00000000E+00  0.00000000E+00  0.00000000E+00
  0.00000000E+00  0.00000000E+00  0.00000000E+00
  0.00000000E+00  0.00000000E+00  0.00000000E+00
  0.00000000E+00  0.00000000E+00  0.00000000E+00
  0.00000000E+00  0.00000000E+00  0.00000000E+00
  0.00000000E+00  0.00000000E+00  0.00000000E+00
  0.00000000E+00  0.00000000E+00  0.00000000E+00
  0.00000000E+00  0.00000000E+00  0.00000000E+00
  0.00000000E+00  0.00000000E+00  0.00000000E+00
  0.00000000E+00  0.00000000E+00  0.00000000E+00
  0.00000000E+00  0.00000000E+00  0.00000000E+00
  0.00000000E+00  0.00000000E+00  0.00000000E+00
  0.00000000E+00  0.00000000E+00  0.00000000E+00
  0.00000000E+00  0.00000000E+00  0.00000000E+00
  0.00000000E+00  0.00000000E+00  0.00000000E+00
  0.00000000E+00  0.00000000E+00  0.00000000E+00
  0.00000000E+00  0.00000000E+00  0.00000000E+00
  0.00000000E+00  0.00000000E+00  0.00000000E+00
  0.00000000E+00  0.00000000E+00  0.00000000E+00
  0.00000000E+00  0.00000000E+00  0.00000000E+00
  0.00000000E+00  0.00000000E+00  0.00000000E+00
  0.00000000E+00  0.00000000E+00  0.00000000E+00
  0.00000000E+00  0.00000000E+00  0.00000000E+00
  0.00000000E+00  0.00000000E+00  0.00000000E+00
  0.00000000E+00  0.00000000E+00  0.00000000E+00
  0.00000000E+00  0.00000000E+00  0.00000000E+00
  0.00000000E+00  0.00000000E+00  0.00000000E+00
  0.00000000E+00  0.00000000E+00  0.00000000E+00
  0.00000000E+00  0.00000000E+00  0.00000000E+00
  0.00000000E+00  0.00000000E+00  0.00000000E+00
  0.00000000E+00  0.00000000E+00  0.00000000E+00
  0.00000000E+00  0.00000000E+00  0.00000000E+00
  0.00000000E+00  0.00000000E+00  0.00000000E+00
  0.00000000E+00  0.00000000E+00  0.00000000E+00
  0.00000000E+00  0.00000000E+00  0.00000000E+00
  0.00000000E+00  0.00000000E+00  0.00000000E+00
  0.00000000E+00  0.00000000E+00  0.00000000E+00
  0.00000000E+00  0.00000000E+00  0.00000000E+00
  0.00000000E+00  0.00000000E+00  0.00000000E+00
  0.00000000E+00  0.00000000E+00  0.00000000E+00
  0.00000000E+00  0.00000000E+00  0.00000000E+00
  0.00000000E+00  0.00000000E+00  0.00000000E+00
  0.00000000E+00  0.00000000E+00  0.00000000E+00
  0.00000000E+00  0.00000000E+00  0.00000000E+00
  0.00000000E+00  0.00000000E+00  0.00000000E+00
  0.00000000E+00  0.00000000E+00  0.00000000E+00
  0.00000000E+00  0.00000000E+00  0.00000000E+00
  0.00000000E+00  0.00000000E+00  0.00000000E+00
  0.00000000E+00  0.00000000E+00  0.00000000E+00
  0.00000000E+00  0.00000000E+00  0.00000000E+00
  0.00000000E+00  0.00000000E+00  0.00000000E+00
  0.00000000E+00  0.00000000E+00  0.00000000E+00
  0.00000000E+00  0.00000000E+00  0.00000000E+00
  0.00000000E+00  0.00000000E+00  0.00000000E+00
  0.00000000E+00  0.00000000E+00  0.00000000E+00
  0.00000000E+00  0.00000000E+00  0.00000000E+00
  0.00000000E+00  0.00000000E+00  0.00000000E+00
  0.00000000E+00  0.00000000E+00  0.00000000E+00
  0.00000000E+00  0.00000000E+00  0.00000000E+00
  0.00000000E+00  0.00000000E+00  0.00000000E+00
  0.00000000E+00  0.00000000E+00  0.00000000E+00
  0.00000000E+00  0.00000000E+00  0.00000000E+00
  0.00000000E+00  0.00000000E+00  0.00000000E+00
  0.00000000E+00  0.00000000E+00  0.00000000E+00
  0.00000000E+00  0.00000000E+00  0.00000000E+00
  0.00000000E+00  0.00000000E+00  0.00000000E+00
  0.00000000E+00  0.00000000E+00  0.00000000E+00
  0.00000000E+00  0.00000000E+00  0.00000000E+00
  0.00000000E+00  0.00000000E+00  0.00000000E+00
  0.00000000E+00  0.00000000E+00  0.00000000E+00
  0.00000000E+00  0.00000000E+00  0.00000000E+00
  0.00000000E+00  0.00000000E+00  0.00000000E+00
  0.00000000E+00  0.00000000E+00  0.00000000E+00
  0.00000000E+00  0.00000000E+00  0.00000000E+00
  0.00000000E+00  0.00000000E+00  0.00000000E+00
  0.00000000E+00  0.00000000E+00  0.00000000E+00
  0.00000000E+00  0.00000000E+00  0.00000000E+00
  0.00000000E+00  0.00000000E+00  0.00000000E+00
  0.00000000E+00  0.00000000E+00  0.00000000E+00
  0.00000000E+00  0.00000000E+00  0.00000000E+00
  0.00000000E+00  0.00000000E+00  0.00000000E+00
  0.00000000E+00  0.00000000E+00  0.00000000E+00
  0.00000000E+00  0.00000000E+00  0.00000000E+00
  0.00000000E+00  0.00000000E+00  0.00000000E+00
  0.00000000E+00  0.00000000E+00  0.00000000E+00
  0.00000000E+00  0.00000000E+00  0.00000000E+00
  0.00000000E+00  0.00000000E+00  0.00000000E+00
  0.00000000E+00  0.00000000E+00  0.00000000E+00
  0.00000000E+00  0.00000000E+00  0.00000000E+00
  0.00000000E+00  0.00000000E+00  0.00000000E+00
  0.00000000E+00  0.00000000E+00  0.00000000E+00
  0.00000000E+00  0.00000000E+00  0.00000000E+00
  0.00000000E+00  0.00000000E+00  0.00000000E+00
  0.00000000E+00  0.00000000E+00  0.00000000E+00
  0.00000000E+00  0.00000000E+00  0.00000000E+00
  0.00000000E+00  0.00000000E+00  0.00000000E+00
  0.00000000E+00  0.00000000E+00  0.00000000E+00
  0.00000000E+00  0.00000000E+00  0.00000000E+00
  0.00000000E+00  0.00000000E+00  0.00000000E+00
  0.00000000E+00  0.00000000E+00  0.00000000E+00
  0.00000000E+00  0.00000000E+00  0.00000000E+00
  0.00000000E+00  0.00000000E+00  0.00000000E+00
  0.00000000E+00  0.00000000E+00  0.00000000E+00
  0.00000000E+00  0.00000000E+00  0.00000000E+00
  0.00000000E+00  0.00000000E+00  0.00000000E+00
  0.00000000E+00  0.00000000E+00  0.00000000E+00
  0.00000000E+00  0.00000000E+00  0.00000000E+00
  0.00000000E+00  0.00000000E+00  0.00000000E+00
  0.00000000E+00  0.00000000E+00  0.00000000E+00
  0.00000000E+00  0.00000000E+00  0.00000000E+00
  0.00000000E+00  0.00000000E+00  0.00000000E+00
  0.00000000E+00  0.00000000E+00  0.00000000E+00
  0.00000000E+00  0.00000000E+00  0.00000000E+00
  0.00000000E+00  0.00000000E+00  0.00000000E+00
  0.00000000E+00  0.00000000E+00  0.00000000E+00
  0.00000000E+00  0.00000000E+00  0.00000000E+00
  0.00000000E+00  0.00000000E+00  0.00000000E+00
  0.00000000E+00  0.00000000E+00  0.00000000E+00
  0.00000000E+00  0.00000000E+00  0.00000000E+00
  0.00000000E+00  0.00000000E+00  0.00000000E+00
  0.00000000E+00  0.00000000E+00  0.00000000E+00
  0.00000000E+00  0.00000000E+00  0.00000000E+00
  0.00000000E+00  0.00000000E+00  0.00000000E+00
  0.00000000E+00  0.00000000E+00  0.00000000E+00
  0.00000000E+00  0.00000000E+00  0.00000000E+00
  0.00000000E+00  0.00000000E+00  0.00000000E+00
  0.00000000E+00  0.00000000E+00  0.00000000E+00
