H1 Ir1 C123 N3                          
   1.00000000000000     
    19.8585561822662982    0.0024194176489358    0.0678683658125035
    -9.9269845027315888   17.0325249613061303   -0.1800014825229230
     0.1022074108128120   -0.2552831649812615   29.7496287431672997
   H    Ir   C    N 
     1     1   123     3
Direct
  0.4353829308775223  0.4778826387658715  0.4651879552317297
  0.4374024687399071  0.5000039725375378  0.4149232512184901
  0.0418610877797941  0.0843123152204760  0.3999981782240227
  0.0403939389927901  0.2080101888644580  0.4003492966842122
  0.0395140633929460  0.3326857296977899  0.3997940941705730
  0.0398386317452610  0.4581990889232352  0.3989164611865075
  0.0411751878917758  0.5840282335063363  0.3986298658419181
  0.0423700341009676  0.7096615159886337  0.3989201971217635
  0.0428089981414572  0.8351124813158997  0.3990987737602989
  0.0427082554970658  0.9601092185407821  0.3993331788274782
  0.1680576855807482  0.0862862766723066  0.4009016149162418
  0.1670000986432415  0.2104936403996946  0.4022587498504304
  0.1639628896230199  0.3335196248082580  0.4022801785503611
  0.1627804392439661  0.4584305527980353  0.4003541147228973
  0.1642842073622565  0.5839005617286539  0.3992709220828674
  0.1662545902394005  0.7094829150948651  0.3991070453878595
  0.1672702374963857  0.8350803694818835  0.3991813373215829
  0.1678007729421626  0.9607323454544847  0.3996842449110004
  0.2929710480598894  0.0864727771762752  0.4008774569019735
  0.2938081947953628  0.2137617775227757  0.4036880343372471
  0.2913059248551184  0.3387099457121177  0.4064413203371118
  0.2849505386792008  0.4580571719717482  0.4048231216266238
  0.2868000147915095  0.5835234292946758  0.4011651204039238
  0.2901570513513340  0.7089581713291522  0.3998115177711660
  0.2915683755600488  0.8344162927197517  0.3992154914805818
  0.2923030843194848  0.9601875571030912  0.3993802364256138
  0.4172851316245935  0.0844072503363463  0.3999135622481944
  0.4182162869447505  0.2105745250675137  0.4021631702760290
  0.4208215102432483  0.3380676036617519  0.4066218157250656
  0.4140363765985239  0.7066364579271042  0.4018713561064268
  0.4158324183319858  0.8325771034770184  0.4001149598482159
  0.4166659739552973  0.9584779174216017  0.3992372522336946
  0.5415885533532580  0.0824575839794167  0.3992261535226684
  0.5424591226112714  0.2081955746649774  0.4001554199310676
  0.5442869542467696  0.3338566554449760  0.4025641105104885
  0.5496771998025108  0.4593738929648535  0.4069175738176984
  0.5378264484596836  0.7009810835905707  0.4050722726622868
  0.5401066517376035  0.8298060967600983  0.4016506221185615
  0.5409557505474840  0.9564116229760472  0.3998592954659442
  0.6659533250688061  0.0815463470781358  0.3994837363298548
  0.6666600175392640  0.2071482013776435  0.3990639477971129
  0.6680448854511252  0.3327351044901269  0.3996246863636603
  0.6711039304371234  0.4585738705606039  0.4011543239899482
  0.6724427496535833  0.5844090334184385  0.4032247194713753
  0.6670664264835117  0.7062522670002217  0.4034031531552546
  0.6645079521514448  0.8297675956960425  0.4019823830701251
  0.6653322368628445  0.9558025039888419  0.4004912029720598
  0.7904605763422862  0.0815055799030431  0.3996185990043285
  0.7908650104957226  0.2068721225267605  0.3990702843987037
  0.7918357592074099  0.3324728661913960  0.3985845942671532
  0.7935891476511140  0.4582603099154444  0.3986617143440283
  0.7948120622718182  0.5840131264588466  0.3995679207135119
  0.7939666392972846  0.7092453140615815  0.4005315253610639
  0.7913985421036874  0.8323855917718872  0.4004736400664497
  0.7902416797860131  0.9563275748922988  0.3999977916912879
  0.9156198973090357  0.0823048496634333  0.3994382721222154
  0.9152638118325738  0.2070854620253181  0.3994065491599839
  0.9155734767557911  0.3324622109820272  0.3988676653987691
  0.9167022225554460  0.4582142429751200  0.3982697942394237
  0.9179920643592531  0.5840490186960352  0.3984429727210009
  0.9183138160369392  0.7095431157247053  0.3990754084645348
  0.9178251140891269  0.8344517611144464  0.3992794135847040
  0.9165949381421364  0.9583337662562393  0.3993513108696700
  0.0844975801861684  0.0437684897448926  0.4000022839589649
  0.0833759706180848  0.1678352006716440  0.4008017540538202
  0.0812508758217592  0.2913680398417972  0.4007161520426161
  0.0804998293461073  0.4162172040273344  0.3995700467873617
  0.0816707387658385  0.5418951196941928  0.3988493717853216
  0.0832794342993706  0.6676797343424415  0.3988954897588017
  0.0841631979517740  0.7933078163385725  0.3990974824237283
  0.0845171789751456  0.9187112825571599  0.3993252786183753
  0.2096274706218520  0.0444702750159809  0.4004966047809206
  0.2098801904130354  0.1702125993169318  0.4023699607333359
  0.2078381906855998  0.2942056149046183  0.4035821529371360
  0.2036099173851402  0.4167488953467282  0.4022159084398909
  0.2042641233290577  0.5416623839273393  0.4000871953232017
  0.2069670548722138  0.6674861359248568  0.3993110748704792
  0.2084206546304000  0.7931077937631023  0.3991537748612431
  0.2091589188265508  0.9187414736813606  0.3993945311024656
  0.3341113073538749  0.0439044994383491  0.3999799037068359
  0.3349331360741697  0.1705010305739509  0.4023120676952032
  0.3361056324830848  0.2982622238999290  0.4061912257796232
  0.3270275975599194  0.5426471945394156  0.4036843112271782
  0.3307496161788327  0.6668922462603013  0.4008364897224548
  0.3327083757116605  0.7923075505819320  0.3996581580955909
  0.3335171486858932  0.9179151809424838  0.3991559156270899
  0.4584898596947994  0.0419414654968831  0.3993303706857658
  0.4592357403402143  0.1679116979287739  0.4006855871547980
  0.4607388549390373  0.2942213480675916  0.4036367977511733
  0.4676132545386110  0.4211136588223212  0.4095735222609830
  0.4528810455418201  0.6620277388624733  0.4042684573561486
  0.4569071130085001  0.7900361662561446  0.4012038503486624
  0.4578377137487416  0.9160559092056751  0.3996575495922732
  0.5827928157584741  0.0401332370294094  0.3994058138056953
  0.5835519506350952  0.1659862233152971  0.3993358975908918
  0.5848554937923996  0.2916239308524277  0.4006511682563898
  0.5886977072133249  0.4171853952940224  0.4033774743190344
  0.5918503323794451  0.5433250609604992  0.4069608000432378
  0.5833233365517245  0.6613129538738971  0.4063320021635562
  0.5804556606292197  0.7860684545955247  0.4029696494411036
  0.5821141245166820  0.9138410876875849  0.4006511226574790
  0.7072110343057092  0.0395290223152321  0.3998738781336708
  0.7077942288085907  0.1651792575071069  0.3991220578549698
  0.7087977022978570  0.2907429163199548  0.3989526923654408
  0.7110501529619140  0.4163360080067704  0.3995798416498016
  0.7127424768753504  0.5419058446749645  0.4010831676489325
  0.7114436754988841  0.6673710390804701  0.4024229579804638
  0.7076893651542236  0.7897329152799463  0.4018460750472707
  0.7065595302753929  0.9137834071584496  0.4007788727348326
  0.8321699744028498  0.0400478421937382  0.3995645887520448
  0.8322070554999185  0.1651441231297338  0.3993331864850929
  0.8327246394523684  0.2905016769092594  0.3987644252025139
  0.8340470887794519  0.4161367477762797  0.3983453752570837
  0.8354261311222699  0.5419754188570362  0.3986888392716709
  0.8356392371379442  0.6676337404828406  0.3996274535365505
  0.8346218944766561  0.7923902635533006  0.4000177621830376
  0.8329523066204049  0.9158903639453559  0.3998339217986827
  0.9582008009240738  0.0418015363438946  0.3994608195239783
  0.9571457621502543  0.1657978024846999  0.3996136472704365
  0.9567846742982320  0.2906973132180030  0.3993131976411914
  0.9572433190366688  0.4161228166074323  0.3986232778454173
  0.9585720443049042  0.5419550360760711  0.3983120441082367
  0.9595456265609703  0.6677154547517204  0.3987841409859164
  0.9596885715427275  0.7931227823206439  0.3991152152272184
  0.9592695537718439  0.9178572458244495  0.3991739618467306
  0.4068012999956805  0.5819739997465673  0.4058966115960283
  0.5494539428111405  0.5811163239121303  0.4098937254631252
  0.3263413558271768  0.4196817902704038  0.4086191315137882
 
  0.00000000E+00  0.00000000E+00  0.00000000E+00
  0.00000000E+00  0.00000000E+00  0.00000000E+00
  0.00000000E+00  0.00000000E+00  0.00000000E+00
  0.00000000E+00  0.00000000E+00  0.00000000E+00
  0.00000000E+00  0.00000000E+00  0.00000000E+00
  0.00000000E+00  0.00000000E+00  0.00000000E+00
  0.00000000E+00  0.00000000E+00  0.00000000E+00
  0.00000000E+00  0.00000000E+00  0.00000000E+00
  0.00000000E+00  0.00000000E+00  0.00000000E+00
  0.00000000E+00  0.00000000E+00  0.00000000E+00
  0.00000000E+00  0.00000000E+00  0.00000000E+00
  0.00000000E+00  0.00000000E+00  0.00000000E+00
  0.00000000E+00  0.00000000E+00  0.00000000E+00
  0.00000000E+00  0.00000000E+00  0.00000000E+00
  0.00000000E+00  0.00000000E+00  0.00000000E+00
  0.00000000E+00  0.00000000E+00  0.00000000E+00
  0.00000000E+00  0.00000000E+00  0.00000000E+00
  0.00000000E+00  0.00000000E+00  0.00000000E+00
  0.00000000E+00  0.00000000E+00  0.00000000E+00
  0.00000000E+00  0.00000000E+00  0.00000000E+00
  0.00000000E+00  0.00000000E+00  0.00000000E+00
  0.00000000E+00  0.00000000E+00  0.00000000E+00
  0.00000000E+00  0.00000000E+00  0.00000000E+00
  0.00000000E+00  0.00000000E+00  0.00000000E+00
  0.00000000E+00  0.00000000E+00  0.00000000E+00
  0.00000000E+00  0.00000000E+00  0.00000000E+00
  0.00000000E+00  0.00000000E+00  0.00000000E+00
  0.00000000E+00  0.00000000E+00  0.00000000E+00
  0.00000000E+00  0.00000000E+00  0.00000000E+00
  0.00000000E+00  0.00000000E+00  0.00000000E+00
  0.00000000E+00  0.00000000E+00  0.00000000E+00
  0.00000000E+00  0.00000000E+00  0.00000000E+00
  0.00000000E+00  0.00000000E+00  0.00000000E+00
  0.00000000E+00  0.00000000E+00  0.00000000E+00
  0.00000000E+00  0.00000000E+00  0.00000000E+00
  0.00000000E+00  0.00000000E+00  0.00000000E+00
  0.00000000E+00  0.00000000E+00  0.00000000E+00
  0.00000000E+00  0.00000000E+00  0.00000000E+00
  0.00000000E+00  0.00000000E+00  0.00000000E+00
  0.00000000E+00  0.00000000E+00  0.00000000E+00
  0.00000000E+00  0.00000000E+00  0.00000000E+00
  0.00000000E+00  0.00000000E+00  0.00000000E+00
  0.00000000E+00  0.00000000E+00  0.00000000E+00
  0.00000000E+00  0.00000000E+00  0.00000000E+00
  0.00000000E+00  0.00000000E+00  0.00000000E+00
  0.00000000E+00  0.00000000E+00  0.00000000E+00
  0.00000000E+00  0.00000000E+00  0.00000000E+00
  0.00000000E+00  0.00000000E+00  0.00000000E+00
  0.00000000E+00  0.00000000E+00  0.00000000E+00
  0.00000000E+00  0.00000000E+00  0.00000000E+00
  0.00000000E+00  0.00000000E+00  0.00000000E+00
  0.00000000E+00  0.00000000E+00  0.00000000E+00
  0.00000000E+00  0.00000000E+00  0.00000000E+00
  0.00000000E+00  0.00000000E+00  0.00000000E+00
  0.00000000E+00  0.00000000E+00  0.00000000E+00
  0.00000000E+00  0.00000000E+00  0.00000000E+00
  0.00000000E+00  0.00000000E+00  0.00000000E+00
  0.00000000E+00  0.00000000E+00  0.00000000E+00
  0.00000000E+00  0.00000000E+00  0.00000000E+00
  0.00000000E+00  0.00000000E+00  0.00000000E+00
  0.00000000E+00  0.00000000E+00  0.00000000E+00
  0.00000000E+00  0.00000000E+00  0.00000000E+00
  0.00000000E+00  0.00000000E+00  0.00000000E+00
  0.00000000E+00  0.00000000E+00  0.00000000E+00
  0.00000000E+00  0.00000000E+00  0.00000000E+00
  0.00000000E+00  0.00000000E+00  0.00000000E+00
  0.00000000E+00  0.00000000E+00  0.00000000E+00
  0.00000000E+00  0.00000000E+00  0.00000000E+00
  0.00000000E+00  0.00000000E+00  0.00000000E+00
  0.00000000E+00  0.00000000E+00  0.00000000E+00
  0.00000000E+00  0.00000000E+00  0.00000000E+00
  0.00000000E+00  0.00000000E+00  0.00000000E+00
  0.00000000E+00  0.00000000E+00  0.00000000E+00
  0.00000000E+00  0.00000000E+00  0.00000000E+00
  0.00000000E+00  0.00000000E+00  0.00000000E+00
  0.00000000E+00  0.00000000E+00  0.00000000E+00
  0.00000000E+00  0.00000000E+00  0.00000000E+00
  0.00000000E+00  0.00000000E+00  0.00000000E+00
  0.00000000E+00  0.00000000E+00  0.00000000E+00
  0.00000000E+00  0.00000000E+00  0.00000000E+00
  0.00000000E+00  0.00000000E+00  0.00000000E+00
  0.00000000E+00  0.00000000E+00  0.00000000E+00
  0.00000000E+00  0.00000000E+00  0.00000000E+00
  0.00000000E+00  0.00000000E+00  0.00000000E+00
  0.00000000E+00  0.00000000E+00  0.00000000E+00
  0.00000000E+00  0.00000000E+00  0.00000000E+00
  0.00000000E+00  0.00000000E+00  0.00000000E+00
  0.00000000E+00  0.00000000E+00  0.00000000E+00
  0.00000000E+00  0.00000000E+00  0.00000000E+00
  0.00000000E+00  0.00000000E+00  0.00000000E+00
  0.00000000E+00  0.00000000E+00  0.00000000E+00
  0.00000000E+00  0.00000000E+00  0.00000000E+00
  0.00000000E+00  0.00000000E+00  0.00000000E+00
  0.00000000E+00  0.00000000E+00  0.00000000E+00
  0.00000000E+00  0.00000000E+00  0.00000000E+00
  0.00000000E+00  0.00000000E+00  0.00000000E+00
  0.00000000E+00  0.00000000E+00  0.00000000E+00
  0.00000000E+00  0.00000000E+00  0.00000000E+00
  0.00000000E+00  0.00000000E+00  0.00000000E+00
  0.00000000E+00  0.00000000E+00  0.00000000E+00
  0.00000000E+00  0.00000000E+00  0.00000000E+00
  0.00000000E+00  0.00000000E+00  0.00000000E+00
  0.00000000E+00  0.00000000E+00  0.00000000E+00
  0.00000000E+00  0.00000000E+00  0.00000000E+00
  0.00000000E+00  0.00000000E+00  0.00000000E+00
  0.00000000E+00  0.00000000E+00  0.00000000E+00
  0.00000000E+00  0.00000000E+00  0.00000000E+00
  0.00000000E+00  0.00000000E+00  0.00000000E+00
  0.00000000E+00  0.00000000E+00  0.00000000E+00
  0.00000000E+00  0.00000000E+00  0.00000000E+00
  0.00000000E+00  0.00000000E+00  0.00000000E+00
  0.00000000E+00  0.00000000E+00  0.00000000E+00
  0.00000000E+00  0.00000000E+00  0.00000000E+00
  0.00000000E+00  0.00000000E+00  0.00000000E+00
  0.00000000E+00  0.00000000E+00  0.00000000E+00
  0.00000000E+00  0.00000000E+00  0.00000000E+00
  0.00000000E+00  0.00000000E+00  0.00000000E+00
  0.00000000E+00  0.00000000E+00  0.00000000E+00
  0.00000000E+00  0.00000000E+00  0.00000000E+00
  0.00000000E+00  0.00000000E+00  0.00000000E+00
  0.00000000E+00  0.00000000E+00  0.00000000E+00
  0.00000000E+00  0.00000000E+00  0.00000000E+00
  0.00000000E+00  0.00000000E+00  0.00000000E+00
  0.00000000E+00  0.00000000E+00  0.00000000E+00
  0.00000000E+00  0.00000000E+00  0.00000000E+00
  0.00000000E+00  0.00000000E+00  0.00000000E+00
  0.00000000E+00  0.00000000E+00  0.00000000E+00
  0.00000000E+00  0.00000000E+00  0.00000000E+00
