Ag1 H1 C122 N4                          
   1.00000000000000     
    19.7994563506430907   -0.0010910302128953    0.0024804506698121
    -9.9007592570175191   17.0301369925545742   -0.0887293120269748
     0.0037625859185551   -0.1531245048471326   29.8439302844535312
   Ag   H    C    N 
     1     1   122     4
Direct
  0.4385881334490218  0.5013876880975249  0.4518300629105717
  0.4636304300306602  0.5205764041919361  0.5039887974699170
  0.0420707056241438  0.0842120338117052  0.3996500616656136
  0.0410509359179169  0.2082380779225437  0.3993057985997784
  0.0405166645393224  0.3329593260822293  0.3986720258438916
  0.0406931212773354  0.4583090019323648  0.3987649965817471
  0.0413844663243108  0.5837690875756032  0.3995070913262992
  0.0421098299439805  0.7092487004148397  0.3998440300205562
  0.0424999352618612  0.8346299491376723  0.3999086706132134
  0.0426787526490242  0.9598071483367911  0.3998252722494067
  0.1683281754224626  0.0861363655287424  0.4003434932452138
  0.1673634028241859  0.2102507077576076  0.4004765037490188
  0.1653925829996378  0.3337772510681336  0.3995860580808582
  0.1647415217754575  0.4584013970877314  0.3976945679587798
  0.1654388960848459  0.5835990711525240  0.3984358099452161
  0.1664430020334332  0.7091438478282113  0.3995883787389042
  0.1671448930422240  0.8346446241983575  0.3999191143524569
  0.1677024883202061  0.9603420557154667  0.3999606242662672
  0.2928846443542595  0.0861349501740361  0.4003339086969456
  0.2945470502540682  0.2140471359378276  0.4018702953388130
  0.2922316465235449  0.3391964190447854  0.4041843642330855
  0.2888289313714019  0.4570928587618217  0.4021605880864502
  0.2892088199090482  0.5832296566452959  0.3989185035910646
  0.2906168319415563  0.7086351769931704  0.3993123517661429
  0.2916419778237343  0.8340811033264055  0.3997998629474155
  0.2922492200037636  0.9598412390943007  0.3998479640219680
  0.4172557001344384  0.0842115176485052  0.3998273235209386
  0.4179602323857386  0.2101996336429807  0.4005212901457085
  0.4220164742385727  0.3391215137092770  0.4025718259228971
  0.4146233929132196  0.7064923033683822  0.4003261924294841
  0.4160605284902953  0.8325443474600069  0.3998259983515558
  0.4167272856223586  0.9583895242794502  0.3998204277669548
  0.5417050065256241  0.0826230301602506  0.3998273551550866
  0.5422899474127475  0.2082473116760386  0.3996963599056895
  0.5434188590938680  0.3337489320356813  0.3994486179026671
  0.5430064565529671  0.4569663287400478  0.3992930292041733
  0.5382692149429562  0.7015821138549942  0.4013257669099040
  0.5402371611533340  0.8300365373726654  0.4003603194149108
  0.5411620579392294  0.9566347126069391  0.4000487372320714
  0.6661889208661081  0.0819038862484960  0.4000418999485090
  0.6667099105339376  0.2075066285358063  0.3997703897331689
  0.6674991607416920  0.3329656098317184  0.3991989835566800
  0.6686539170653456  0.4583915861809499  0.3982112529964150
  0.6688611006286004  0.5831419785421640  0.3984245052216250
  0.6667815689810309  0.7064294358784957  0.4000187830302556
  0.6648059352741661  0.8300236905938594  0.4003500382301031
  0.6655956260883154  0.9560869791930210  0.4002076369056058
  0.7908365998129905  0.0818793349595113  0.4000982856141500
  0.7911849502040043  0.2072830167495895  0.4000459420178805
  0.7918171727062453  0.3328545050071675  0.3997645266846573
  0.7925871566060281  0.4583169600634125  0.3992881524949297
  0.7930645917883083  0.5835574280615019  0.3989864976609034
  0.7929297175599898  0.7085626898367262  0.3996258915123184
  0.7914653687210610  0.8324918000147938  0.4001190191933529
  0.7905500057170096  0.9566059638282153  0.4001300830391379
  0.9160446526541078  0.0826049448606561  0.3997253467106764
  0.9158983212308109  0.2075032134700205  0.3996552804129372
  0.9160811355275199  0.3328512419174832  0.3996361188569798
  0.9166225380676267  0.4582741617338700  0.3997422369849006
  0.9173117963260603  0.5837663345849375  0.3996809486167128
  0.9176409292284883  0.7091143363452602  0.3997465559435663
  0.9174356899727505  0.8340283661314816  0.3999816676818025
  0.9167505818133774  0.9583507836302054  0.3998893717516803
  0.0846057270148179  0.0435403151480419  0.3998721483787241
  0.0836727264974207  0.1676669388815314  0.3996175223563495
  0.0821534926668090  0.2915526325188479  0.3989674059941108
  0.0819565078081119  0.4165682278600999  0.3981457968917827
  0.0824471297972898  0.5418501906024786  0.3988552558469337
  0.0833043725137926  0.6673879678711336  0.3996786593358308
  0.0839525534181482  0.7929259040543388  0.3999043730910860
  0.0843300291502916  0.9182591939002708  0.3998912910861788
  0.2095646138929293  0.0440626435421256  0.4002339518316990
  0.2103273414894187  0.1701391795127144  0.4010374422575886
  0.2083642205975823  0.2937827624579263  0.4011090044178070
  0.2061511171351847  0.4169383452093816  0.3988036251725475
  0.2063470276721065  0.5417415681350199  0.3979010858121996
  0.2075795718523042  0.6672334981207378  0.3990954898973336
  0.2084517444781146  0.7926981170017492  0.3998337995762132
  0.2090134798642404  0.9182988774416232  0.3999115082114684
  0.3340300165948215  0.0435607412548275  0.3999324876939093
  0.3348684199553474  0.1701299455605673  0.4009429162301504
  0.3368674563266438  0.2986590281575492  0.4034581660037825
  0.3319301672502263  0.5432833817844837  0.4015861507677877
  0.3316291028326317  0.6664240238117320  0.3994692883717563
  0.3328499583963017  0.7919555323071438  0.3996854761361731
  0.3335398097189781  0.9175836761949404  0.3998129036672277
  0.4585299901678524  0.0418519465147300  0.3997787000421373
  0.4590851556925292  0.1676461503995906  0.3999173461935725
  0.4604554944544860  0.2936794948232630  0.4006425924948125
  0.4531504127464571  0.6611477236532698  0.4021060661719391
  0.4571423667222633  0.7899781388866787  0.4000632903621862
  0.4579476325445240  0.9159890375235024  0.3999007460863814
  0.5829853719611207  0.0403579215798982  0.3999778283533658
  0.5835421210852400  0.1661344244234632  0.3997305306065874
  0.5844654082889517  0.2915558827013652  0.3993784541787498
  0.5857725229583596  0.4169070760040423  0.3984521683195973
  0.5860287279823297  0.5431400311338748  0.3988227583830621
  0.5828412717619318  0.6609963074645827  0.4008477718747435
  0.5805707321630090  0.7861603475696619  0.4006141648882933
  0.5822575452722006  0.9140233464425848  0.4002163108235787
  0.7074735991450486  0.0398318994933211  0.4001312663462043
  0.7080066377478826  0.1655453865188813  0.3999876225637755
  0.7086689890572082  0.2910612280403621  0.3995906850809043
  0.7096040967748097  0.4165863748333963  0.3988403021162704
  0.7102844730342135  0.5416913681425656  0.3983047701846477
  0.7096858572709067  0.6663476011242717  0.3993328222255884
  0.7077809116262211  0.7899262842429831  0.4001969300674273
  0.7068300381396728  0.9140089741598347  0.4002409480137715
  0.8324923503250478  0.0403281880088690  0.4000067308553287
  0.8326266491317056  0.1655366740444330  0.4000112971336069
  0.8330163016758595  0.2909861368164469  0.3999305232241298
  0.8336843462397246  0.4164454042530374  0.3996898648590241
  0.8343127975370456  0.5418323765308127  0.3993236615863940
  0.8345658837450685  0.6671777894999977  0.3994484409698399
  0.8340496161407890  0.7918862393858201  0.4000112676334782
  0.8330966604968516  0.9159500171528178  0.4000800274312399
  0.9584284480221926  0.0418253846447629  0.3996861802853197
  0.9576903989164264  0.1661101537272758  0.3994943932372447
  0.9574443739806806  0.2910676604950148  0.3993272348887786
  0.9577277345855325  0.4164465481936203  0.3994783844642632
  0.9584369234247936  0.5419433328620561  0.3997269630313672
  0.9590260983179228  0.6673753797660102  0.3997547582318113
  0.9592258221088024  0.7926634532315027  0.3999086166841370
  0.9591084529095074  0.9175424908504124  0.3998885030749170
  0.4101538173331414  0.5816614649611858  0.4046402661330795
  0.5459565921640157  0.5813801955151628  0.4009439736274367
  0.3283925154453509  0.4187955856437445  0.4074391226654872
  0.4648875487564986  0.4187349268394210  0.4029251106162799
 
  0.00000000E+00  0.00000000E+00  0.00000000E+00
  0.00000000E+00  0.00000000E+00  0.00000000E+00
  0.00000000E+00  0.00000000E+00  0.00000000E+00
  0.00000000E+00  0.00000000E+00  0.00000000E+00
  0.00000000E+00  0.00000000E+00  0.00000000E+00
  0.00000000E+00  0.00000000E+00  0.00000000E+00
  0.00000000E+00  0.00000000E+00  0.00000000E+00
  0.00000000E+00  0.00000000E+00  0.00000000E+00
  0.00000000E+00  0.00000000E+00  0.00000000E+00
  0.00000000E+00  0.00000000E+00  0.00000000E+00
  0.00000000E+00  0.00000000E+00  0.00000000E+00
  0.00000000E+00  0.00000000E+00  0.00000000E+00
  0.00000000E+00  0.00000000E+00  0.00000000E+00
  0.00000000E+00  0.00000000E+00  0.00000000E+00
  0.00000000E+00  0.00000000E+00  0.00000000E+00
  0.00000000E+00  0.00000000E+00  0.00000000E+00
  0.00000000E+00  0.00000000E+00  0.00000000E+00
  0.00000000E+00  0.00000000E+00  0.00000000E+00
  0.00000000E+00  0.00000000E+00  0.00000000E+00
  0.00000000E+00  0.00000000E+00  0.00000000E+00
  0.00000000E+00  0.00000000E+00  0.00000000E+00
  0.00000000E+00  0.00000000E+00  0.00000000E+00
  0.00000000E+00  0.00000000E+00  0.00000000E+00
  0.00000000E+00  0.00000000E+00  0.00000000E+00
  0.00000000E+00  0.00000000E+00  0.00000000E+00
  0.00000000E+00  0.00000000E+00  0.00000000E+00
  0.00000000E+00  0.00000000E+00  0.00000000E+00
  0.00000000E+00  0.00000000E+00  0.00000000E+00
  0.00000000E+00  0.00000000E+00  0.00000000E+00
  0.00000000E+00  0.00000000E+00  0.00000000E+00
  0.00000000E+00  0.00000000E+00  0.00000000E+00
  0.00000000E+00  0.00000000E+00  0.00000000E+00
  0.00000000E+00  0.00000000E+00  0.00000000E+00
  0.00000000E+00  0.00000000E+00  0.00000000E+00
  0.00000000E+00  0.00000000E+00  0.00000000E+00
  0.00000000E+00  0.00000000E+00  0.00000000E+00
  0.00000000E+00  0.00000000E+00  0.00000000E+00
  0.00000000E+00  0.00000000E+00  0.00000000E+00
  0.00000000E+00  0.00000000E+00  0.00000000E+00
  0.00000000E+00  0.00000000E+00  0.00000000E+00
  0.00000000E+00  0.00000000E+00  0.00000000E+00
  0.00000000E+00  0.00000000E+00  0.00000000E+00
  0.00000000E+00  0.00000000E+00  0.00000000E+00
  0.00000000E+00  0.00000000E+00  0.00000000E+00
  0.00000000E+00  0.00000000E+00  0.00000000E+00
  0.00000000E+00  0.00000000E+00  0.00000000E+00
  0.00000000E+00  0.00000000E+00  0.00000000E+00
  0.00000000E+00  0.00000000E+00  0.00000000E+00
  0.00000000E+00  0.00000000E+00  0.00000000E+00
  0.00000000E+00  0.00000000E+00  0.00000000E+00
  0.00000000E+00  0.00000000E+00  0.00000000E+00
  0.00000000E+00  0.00000000E+00  0.00000000E+00
  0.00000000E+00  0.00000000E+00  0.00000000E+00
  0.00000000E+00  0.00000000E+00  0.00000000E+00
  0.00000000E+00  0.00000000E+00  0.00000000E+00
  0.00000000E+00  0.00000000E+00  0.00000000E+00
  0.00000000E+00  0.00000000E+00  0.00000000E+00
  0.00000000E+00  0.00000000E+00  0.00000000E+00
  0.00000000E+00  0.00000000E+00  0.00000000E+00
  0.00000000E+00  0.00000000E+00  0.00000000E+00
  0.00000000E+00  0.00000000E+00  0.00000000E+00
  0.00000000E+00  0.00000000E+00  0.00000000E+00
  0.00000000E+00  0.00000000E+00  0.00000000E+00
  0.00000000E+00  0.00000000E+00  0.00000000E+00
  0.00000000E+00  0.00000000E+00  0.00000000E+00
  0.00000000E+00  0.00000000E+00  0.00000000E+00
  0.00000000E+00  0.00000000E+00  0.00000000E+00
  0.00000000E+00  0.00000000E+00  0.00000000E+00
  0.00000000E+00  0.00000000E+00  0.00000000E+00
  0.00000000E+00  0.00000000E+00  0.00000000E+00
  0.00000000E+00  0.00000000E+00  0.00000000E+00
  0.00000000E+00  0.00000000E+00  0.00000000E+00
  0.00000000E+00  0.00000000E+00  0.00000000E+00
  0.00000000E+00  0.00000000E+00  0.00000000E+00
  0.00000000E+00  0.00000000E+00  0.00000000E+00
  0.00000000E+00  0.00000000E+00  0.00000000E+00
  0.00000000E+00  0.00000000E+00  0.00000000E+00
  0.00000000E+00  0.00000000E+00  0.00000000E+00
  0.00000000E+00  0.00000000E+00  0.00000000E+00
  0.00000000E+00  0.00000000E+00  0.00000000E+00
  0.00000000E+00  0.00000000E+00  0.00000000E+00
  0.00000000E+00  0.00000000E+00  0.00000000E+00
  0.00000000E+00  0.00000000E+00  0.00000000E+00
  0.00000000E+00  0.00000000E+00  0.00000000E+00
  0.00000000E+00  0.00000000E+00  0.00000000E+00
  0.00000000E+00  0.00000000E+00  0.00000000E+00
  0.00000000E+00  0.00000000E+00  0.00000000E+00
  0.00000000E+00  0.00000000E+00  0.00000000E+00
  0.00000000E+00  0.00000000E+00  0.00000000E+00
  0.00000000E+00  0.00000000E+00  0.00000000E+00
  0.00000000E+00  0.00000000E+00  0.00000000E+00
  0.00000000E+00  0.00000000E+00  0.00000000E+00
  0.00000000E+00  0.00000000E+00  0.00000000E+00
  0.00000000E+00  0.00000000E+00  0.00000000E+00
  0.00000000E+00  0.00000000E+00  0.00000000E+00
  0.00000000E+00  0.00000000E+00  0.00000000E+00
  0.00000000E+00  0.00000000E+00  0.00000000E+00
  0.00000000E+00  0.00000000E+00  0.00000000E+00
  0.00000000E+00  0.00000000E+00  0.00000000E+00
  0.00000000E+00  0.00000000E+00  0.00000000E+00
  0.00000000E+00  0.00000000E+00  0.00000000E+00
  0.00000000E+00  0.00000000E+00  0.00000000E+00
  0.00000000E+00  0.00000000E+00  0.00000000E+00
  0.00000000E+00  0.00000000E+00  0.00000000E+00
  0.00000000E+00  0.00000000E+00  0.00000000E+00
  0.00000000E+00  0.00000000E+00  0.00000000E+00
  0.00000000E+00  0.00000000E+00  0.00000000E+00
  0.00000000E+00  0.00000000E+00  0.00000000E+00
  0.00000000E+00  0.00000000E+00  0.00000000E+00
  0.00000000E+00  0.00000000E+00  0.00000000E+00
  0.00000000E+00  0.00000000E+00  0.00000000E+00
  0.00000000E+00  0.00000000E+00  0.00000000E+00
  0.00000000E+00  0.00000000E+00  0.00000000E+00
  0.00000000E+00  0.00000000E+00  0.00000000E+00
  0.00000000E+00  0.00000000E+00  0.00000000E+00
  0.00000000E+00  0.00000000E+00  0.00000000E+00
  0.00000000E+00  0.00000000E+00  0.00000000E+00
  0.00000000E+00  0.00000000E+00  0.00000000E+00
  0.00000000E+00  0.00000000E+00  0.00000000E+00
  0.00000000E+00  0.00000000E+00  0.00000000E+00
  0.00000000E+00  0.00000000E+00  0.00000000E+00
  0.00000000E+00  0.00000000E+00  0.00000000E+00
  0.00000000E+00  0.00000000E+00  0.00000000E+00
  0.00000000E+00  0.00000000E+00  0.00000000E+00
  0.00000000E+00  0.00000000E+00  0.00000000E+00
  0.00000000E+00  0.00000000E+00  0.00000000E+00
  0.00000000E+00  0.00000000E+00  0.00000000E+00
  0.00000000E+00  0.00000000E+00  0.00000000E+00
