Co1 C123 N3 O1                          
   1.00000000000000     
    19.7996807532588512    0.0052544774525820    0.0291993855509126
    -9.8951250912817912   17.0162752927058989   -0.0446668235105183
     0.0437445488604217   -0.0521328818789427   29.8617084691972678
   Co   C    N    O 
     1   123     3     1
Direct
  0.4365552035306237  0.4983165059714003  0.4164248397411539
  0.0420145391134287  0.0842372554416405  0.4000143794799115
  0.0411125372510151  0.2082812184312674  0.4002003589500965
  0.0404967465907763  0.3329731451595645  0.4001039098712719
  0.0407281459740901  0.4582112404496332  0.3998109198353130
  0.0414583580101497  0.5836966573418761  0.3995395495530082
  0.0421730358963020  0.7091554317380777  0.3994995735979488
  0.0424626766226636  0.8344824858937031  0.3996114165315321
  0.0424134395847535  0.9596139843780371  0.3997784496136145
  0.1678599633382025  0.0857141875078462  0.4003900883955289
  0.1677012684097541  0.2106937229964909  0.4008612128566849
  0.1654227609587364  0.3338443704573317  0.4006512574647113
  0.1647242253063569  0.4584382204542247  0.4002307625628344
  0.1653312525570616  0.5835848169327559  0.4000426412668955
  0.1664666115461831  0.7089734282534890  0.3997277968642818
  0.1671335541113828  0.8344942764905352  0.3996407713187881
  0.1675433117671701  0.9601404476154615  0.3998900441415533
  0.2926824455496611  0.0859955155036427  0.4003889976989196
  0.2934150896351135  0.2129418986394682  0.4015164419684016
  0.2932375088747201  0.3392588731251704  0.4019661036074943
  0.2886992106259456  0.4581930987402648  0.4004107478742502
  0.2887743884466736  0.5830034266216750  0.4000909374198702
  0.2906667752981555  0.7083267832344085  0.4001967738729131
  0.2916757978259113  0.8339067397108891  0.3997876141061349
  0.2921832482267917  0.9597165417192466  0.3997888736726908
  0.4170718487392883  0.0844001405616218  0.4000076455537696
  0.4177711698606081  0.2109435932507125  0.4005931353172485
  0.4195197105096026  0.3390517397312586  0.4025654514919464
  0.4146115809567187  0.7054008748888191  0.4007873880977372
  0.4160765984006692  0.8320086926771039  0.4001905936367849
  0.4166635293109410  0.9582369839872740  0.3998081335095914
  0.5415155694180029  0.0826378213092238  0.3998002257947020
  0.5420781908262106  0.2085182753821011  0.4000962430199778
  0.5431375123246134  0.3342424708765639  0.4004747684265406
  0.5463164108323399  0.4597390070916635  0.4013105424197259
  0.5379179944612114  0.7007998076704799  0.4021074085291023
  0.5402576822957099  0.8296925717771637  0.4008673795047261
  0.5410488662201461  0.9564785585579516  0.4000434876784433
  0.6660286629012837  0.0818328901393681  0.3997853838369706
  0.6665178891502509  0.2074744456138843  0.3997506371496119
  0.6673686740707002  0.3329991087474937  0.3999817463751638
  0.6692786091125166  0.4585932268324499  0.4001495488430374
  0.6702491172255859  0.5839454680131049  0.4006973523281079
  0.6657570927177058  0.7053976206375000  0.4010174071817254
  0.6644463814347348  0.8297352510174466  0.4009221680896175
  0.6654351083564229  0.9559503614284361  0.4002874500804278
  0.7906961711298357  0.0817925485595485  0.3997776932575824
  0.7910808447258675  0.2072381022816877  0.3995942089700517
  0.7916807308698511  0.3327174517194797  0.3995638151701935
  0.7927844108716281  0.4582629920460398  0.3997491970285006
  0.7936343488666098  0.5837321500427834  0.4000811871685863
  0.7931042592156408  0.7087268582841876  0.4003267802359263
  0.7909156285744018  0.8320435081027250  0.4003369404714865
  0.7903334428746013  0.9564562595643676  0.4000760272948941
  0.9159214573789699  0.0825287418415783  0.3997772497602923
  0.9158215313322877  0.2074291990822074  0.3997223838524690
  0.9160197250529085  0.3327125203957509  0.3995696539991351
  0.9167143264981316  0.4582079888314069  0.3994272062230353
  0.9175149054832211  0.5837418363496187  0.3995002741896779
  0.9177105526269687  0.7090565741972460  0.3997174220382712
  0.9173571701779890  0.8339916735762009  0.3997992238951706
  0.9164633844267155  0.9581619470588316  0.3997950882202659
  0.0842828170142833  0.0433030239778355  0.4000296701234883
  0.0838788543334418  0.1679302774670297  0.4003510871336548
  0.0823574238597356  0.2916765893019968  0.4003663516544355
  0.0818930779843167  0.4163958404966938  0.4001224928957045
  0.0824576994027704  0.5417723860116838  0.3998080588504566
  0.0833825187957508  0.6672889884192653  0.3995543925672734
  0.0839387774518097  0.7927629457292850  0.3995896783781813
  0.0841994162952157  0.9181404168383194  0.3997346858907275
  0.2093368888622924  0.0439077958089836  0.4002540145527663
  0.2098031087943395  0.1696876602614575  0.4009304553571049
  0.2091840694634710  0.2945996781347995  0.4011200633568187
  0.2062517694233498  0.4169981340747456  0.4003642456234202
  0.2060654008333426  0.5415384890910581  0.4001136581955800
  0.2075268156048530  0.6670134007528352  0.4000020026155143
  0.2084779524228970  0.7925633835477423  0.3996884965085448
  0.2089494322646720  0.9181592862526594  0.3997529428636935
  0.3339010301168762  0.0434934798675765  0.4000289538388613
  0.3344722359066499  0.1699993014397536  0.4008962588778107
  0.3354738586809902  0.2975161747816797  0.4024878384885654
  0.3301389080877651  0.5419562796969980  0.4004135050999572
  0.3315270111777824  0.6660808847804567  0.4003962296292881
  0.3329027528092545  0.7916748742816241  0.4000586501111509
  0.3334830877202463  0.9174511301403910  0.3997433019925317
  0.4583345729411747  0.0418689583529194  0.3998322395025545
  0.4588372021010713  0.1681051639728841  0.4001976008528306
  0.4598969529005106  0.2947864322316314  0.4008993772512183
  0.4645354300826181  0.4219107032390448  0.4039723941524860
  0.4534591861615593  0.6600835210206165  0.4018171078967335
  0.4571037456116678  0.7891557442966648  0.4006190702436785
  0.4578816168470141  0.9157001741297041  0.3999872573599736
  0.5827804515724936  0.0402885020143150  0.3998333790613919
  0.5833360073832489  0.1662415955191290  0.3998622195226328
  0.5841335023026363  0.2918708981957067  0.4001982510032724
  0.5864516700757153  0.4173933835585106  0.4003158646904107
  0.5883826036175671  0.5429508077615938  0.4011455873354485
  0.5813777854048592  0.6598791403400586  0.4019104660509863
  0.5805211840425462  0.7860160589736593  0.4014042244991263
  0.5821730144023926  0.9138531539457514  0.4004004700525618
  0.7073531273075451  0.0397901489568802  0.3999187167258719
  0.7078729174800946  0.1655168974212912  0.3996745023460029
  0.7084928108930963  0.2910528870612374  0.3997547313297067
  0.7098730719204477  0.4164842488933566  0.3999715203701676
  0.7110197264760061  0.5417930557137027  0.4003385561130093
  0.7101302194104543  0.6667358884716788  0.4006962641290304
  0.7070070530030812  0.7891947746579561  0.4007889755943156
  0.7066296050677553  0.9138731527266202  0.4004278085496951
  0.8323603099732398  0.0402586468782933  0.3998230003649282
  0.8325427230500727  0.1654996736198625  0.3996445873454724
  0.8329100792900153  0.2908465382832612  0.3995112987278967
  0.8337387403679718  0.4162982271319078  0.3995346808884486
  0.8346438504238870  0.5418309178051813  0.3997473365879159
  0.8347794853493268  0.6672120370540823  0.4000681482052449
  0.8339938724483364  0.7919124256216939  0.4001420358596134
  0.8327216201219821  0.9156840536454637  0.4000421205070056
  0.9583279720881710  0.0417754152091398  0.3998008164975254
  0.9576753297643973  0.1660813724430563  0.3998587815249087
  0.9574568956307532  0.2910273391393373  0.3997714676966027
  0.9577742294377685  0.4162979853643480  0.3995390810044382
  0.9585346679973136  0.5418158579369962  0.3994180895553459
  0.9591321935334943  0.6673236537843866  0.3995195119966203
  0.9592170980290684  0.7926252686731120  0.3996648741736407
  0.9589226953373043  0.9174613067777613  0.3997396149111425
  0.4096986551715250  0.5795815409264885  0.4021194400365776
  0.5448989114542928  0.5790997857301402  0.4019381972115961
  0.3315835614732776  0.4207421095239587  0.4013859665940550
  0.4377825604636382  0.4990985969082956  0.4723394201660614
 
  0.00000000E+00  0.00000000E+00  0.00000000E+00
  0.00000000E+00  0.00000000E+00  0.00000000E+00
  0.00000000E+00  0.00000000E+00  0.00000000E+00
  0.00000000E+00  0.00000000E+00  0.00000000E+00
  0.00000000E+00  0.00000000E+00  0.00000000E+00
  0.00000000E+00  0.00000000E+00  0.00000000E+00
  0.00000000E+00  0.00000000E+00  0.00000000E+00
  0.00000000E+00  0.00000000E+00  0.00000000E+00
  0.00000000E+00  0.00000000E+00  0.00000000E+00
  0.00000000E+00  0.00000000E+00  0.00000000E+00
  0.00000000E+00  0.00000000E+00  0.00000000E+00
  0.00000000E+00  0.00000000E+00  0.00000000E+00
  0.00000000E+00  0.00000000E+00  0.00000000E+00
  0.00000000E+00  0.00000000E+00  0.00000000E+00
  0.00000000E+00  0.00000000E+00  0.00000000E+00
  0.00000000E+00  0.00000000E+00  0.00000000E+00
  0.00000000E+00  0.00000000E+00  0.00000000E+00
  0.00000000E+00  0.00000000E+00  0.00000000E+00
  0.00000000E+00  0.00000000E+00  0.00000000E+00
  0.00000000E+00  0.00000000E+00  0.00000000E+00
  0.00000000E+00  0.00000000E+00  0.00000000E+00
  0.00000000E+00  0.00000000E+00  0.00000000E+00
  0.00000000E+00  0.00000000E+00  0.00000000E+00
  0.00000000E+00  0.00000000E+00  0.00000000E+00
  0.00000000E+00  0.00000000E+00  0.00000000E+00
  0.00000000E+00  0.00000000E+00  0.00000000E+00
  0.00000000E+00  0.00000000E+00  0.00000000E+00
  0.00000000E+00  0.00000000E+00  0.00000000E+00
  0.00000000E+00  0.00000000E+00  0.00000000E+00
  0.00000000E+00  0.00000000E+00  0.00000000E+00
  0.00000000E+00  0.00000000E+00  0.00000000E+00
  0.00000000E+00  0.00000000E+00  0.00000000E+00
  0.00000000E+00  0.00000000E+00  0.00000000E+00
  0.00000000E+00  0.00000000E+00  0.00000000E+00
  0.00000000E+00  0.00000000E+00  0.00000000E+00
  0.00000000E+00  0.00000000E+00  0.00000000E+00
  0.00000000E+00  0.00000000E+00  0.00000000E+00
  0.00000000E+00  0.00000000E+00  0.00000000E+00
  0.00000000E+00  0.00000000E+00  0.00000000E+00
  0.00000000E+00  0.00000000E+00  0.00000000E+00
  0.00000000E+00  0.00000000E+00  0.00000000E+00
  0.00000000E+00  0.00000000E+00  0.00000000E+00
  0.00000000E+00  0.00000000E+00  0.00000000E+00
  0.00000000E+00  0.00000000E+00  0.00000000E+00
  0.00000000E+00  0.00000000E+00  0.00000000E+00
  0.00000000E+00  0.00000000E+00  0.00000000E+00
  0.00000000E+00  0.00000000E+00  0.00000000E+00
  0.00000000E+00  0.00000000E+00  0.00000000E+00
  0.00000000E+00  0.00000000E+00  0.00000000E+00
  0.00000000E+00  0.00000000E+00  0.00000000E+00
  0.00000000E+00  0.00000000E+00  0.00000000E+00
  0.00000000E+00  0.00000000E+00  0.00000000E+00
  0.00000000E+00  0.00000000E+00  0.00000000E+00
  0.00000000E+00  0.00000000E+00  0.00000000E+00
  0.00000000E+00  0.00000000E+00  0.00000000E+00
  0.00000000E+00  0.00000000E+00  0.00000000E+00
  0.00000000E+00  0.00000000E+00  0.00000000E+00
  0.00000000E+00  0.00000000E+00  0.00000000E+00
  0.00000000E+00  0.00000000E+00  0.00000000E+00
  0.00000000E+00  0.00000000E+00  0.00000000E+00
  0.00000000E+00  0.00000000E+00  0.00000000E+00
  0.00000000E+00  0.00000000E+00  0.00000000E+00
  0.00000000E+00  0.00000000E+00  0.00000000E+00
  0.00000000E+00  0.00000000E+00  0.00000000E+00
  0.00000000E+00  0.00000000E+00  0.00000000E+00
  0.00000000E+00  0.00000000E+00  0.00000000E+00
  0.00000000E+00  0.00000000E+00  0.00000000E+00
  0.00000000E+00  0.00000000E+00  0.00000000E+00
  0.00000000E+00  0.00000000E+00  0.00000000E+00
  0.00000000E+00  0.00000000E+00  0.00000000E+00
  0.00000000E+00  0.00000000E+00  0.00000000E+00
  0.00000000E+00  0.00000000E+00  0.00000000E+00
  0.00000000E+00  0.00000000E+00  0.00000000E+00
  0.00000000E+00  0.00000000E+00  0.00000000E+00
  0.00000000E+00  0.00000000E+00  0.00000000E+00
  0.00000000E+00  0.00000000E+00  0.00000000E+00
  0.00000000E+00  0.00000000E+00  0.00000000E+00
  0.00000000E+00  0.00000000E+00  0.00000000E+00
  0.00000000E+00  0.00000000E+00  0.00000000E+00
  0.00000000E+00  0.00000000E+00  0.00000000E+00
  0.00000000E+00  0.00000000E+00  0.00000000E+00
  0.00000000E+00  0.00000000E+00  0.00000000E+00
  0.00000000E+00  0.00000000E+00  0.00000000E+00
  0.00000000E+00  0.00000000E+00  0.00000000E+00
  0.00000000E+00  0.00000000E+00  0.00000000E+00
  0.00000000E+00  0.00000000E+00  0.00000000E+00
  0.00000000E+00  0.00000000E+00  0.00000000E+00
  0.00000000E+00  0.00000000E+00  0.00000000E+00
  0.00000000E+00  0.00000000E+00  0.00000000E+00
  0.00000000E+00  0.00000000E+00  0.00000000E+00
  0.00000000E+00  0.00000000E+00  0.00000000E+00
  0.00000000E+00  0.00000000E+00  0.00000000E+00
  0.00000000E+00  0.00000000E+00  0.00000000E+00
  0.00000000E+00  0.00000000E+00  0.00000000E+00
  0.00000000E+00  0.00000000E+00  0.00000000E+00
  0.00000000E+00  0.00000000E+00  0.00000000E+00
  0.00000000E+00  0.00000000E+00  0.00000000E+00
  0.00000000E+00  0.00000000E+00  0.00000000E+00
  0.00000000E+00  0.00000000E+00  0.00000000E+00
  0.00000000E+00  0.00000000E+00  0.00000000E+00
  0.00000000E+00  0.00000000E+00  0.00000000E+00
  0.00000000E+00  0.00000000E+00  0.00000000E+00
  0.00000000E+00  0.00000000E+00  0.00000000E+00
  0.00000000E+00  0.00000000E+00  0.00000000E+00
  0.00000000E+00  0.00000000E+00  0.00000000E+00
  0.00000000E+00  0.00000000E+00  0.00000000E+00
  0.00000000E+00  0.00000000E+00  0.00000000E+00
  0.00000000E+00  0.00000000E+00  0.00000000E+00
  0.00000000E+00  0.00000000E+00  0.00000000E+00
  0.00000000E+00  0.00000000E+00  0.00000000E+00
  0.00000000E+00  0.00000000E+00  0.00000000E+00
  0.00000000E+00  0.00000000E+00  0.00000000E+00
  0.00000000E+00  0.00000000E+00  0.00000000E+00
  0.00000000E+00  0.00000000E+00  0.00000000E+00
  0.00000000E+00  0.00000000E+00  0.00000000E+00
  0.00000000E+00  0.00000000E+00  0.00000000E+00
  0.00000000E+00  0.00000000E+00  0.00000000E+00
  0.00000000E+00  0.00000000E+00  0.00000000E+00
  0.00000000E+00  0.00000000E+00  0.00000000E+00
  0.00000000E+00  0.00000000E+00  0.00000000E+00
  0.00000000E+00  0.00000000E+00  0.00000000E+00
  0.00000000E+00  0.00000000E+00  0.00000000E+00
  0.00000000E+00  0.00000000E+00  0.00000000E+00
  0.00000000E+00  0.00000000E+00  0.00000000E+00
  0.00000000E+00  0.00000000E+00  0.00000000E+00
  0.00000000E+00  0.00000000E+00  0.00000000E+00
  0.00000000E+00  0.00000000E+00  0.00000000E+00
  0.00000000E+00  0.00000000E+00  0.00000000E+00
