Re1 H1 C124 N2 O2                       
   1.00000000000000     
    19.6587741405010483   -0.0057986272751765   -2.1307162660440380
    -9.9056944931705928   17.0289538533722862    0.7717820092110088
    -0.3196847622261905    0.1256370757276908   30.0953544443798613
   Re   H    C    N    O 
     1     1   124     2     2
Direct
  0.4470977892512076  0.5016531005990179  0.4460214048349531
  0.5225724321647719  0.5012427818949313  0.5165054551318514
  0.0436428619012156  0.0846883090620515  0.3995115575274916
  0.0432604066863450  0.2090361704536805  0.3996223790195844
  0.0424666447451208  0.3335018803899715  0.3991032570744433
  0.0418649854199634  0.4585393911061274  0.3983998170241123
  0.0420241275412073  0.5837726365883328  0.3983249270535985
  0.0423660118987133  0.7090574875805410  0.3984862016297952
  0.0426893747456777  0.8343016126177722  0.3987153648241008
  0.0432031578319388  0.9596299507924921  0.3990579248712905
  0.1694522751219344  0.0858875852012947  0.4006338935844981
  0.1703682511511541  0.2113929668640844  0.4019739400692128
  0.1687885575928363  0.3349693638528021  0.4023268797475578
  0.1666291742278724  0.4590696168917756  0.4004253359125102
  0.1665678528240352  0.5839986520277743  0.3993200623531468
  0.1670713250161615  0.7091355644677720  0.3989611755333886
  0.1675941438063289  0.8344120274472668  0.3990506678553788
  0.1682433162948985  0.9599326097987319  0.3994166547232388
  0.2938382743105073  0.0853879913056023  0.4006428303317636
  0.2963829999478847  0.2125934961602717  0.4042490958118697
  0.2981662733798889  0.3392922698807316  0.4086891168424693
  0.2924051045571969  0.4606535891180545  0.4073234098447484
  0.2912486019413864  0.5846584123821187  0.4026697119364830
  0.2918993752847676  0.7091009497469984  0.4005752313474155
  0.2924444279598370  0.8341187181157911  0.3994551183438314
  0.2929347982988895  0.9595003039404433  0.3994303235156008
  0.4181834938531282  0.0839535262918490  0.3998770261612292
  0.4192377235682232  0.2098203557847590  0.4018817859387057
  0.4234880232842733  0.3377515561148822  0.4071262312893999
  0.4167096574128697  0.7066843339573969  0.4039146900251442
  0.4173407886300639  0.8326821028560437  0.4008357640677056
  0.4176369874809070  0.9583117577121694  0.3996220962400936
  0.5427106661288936  0.0826047072313628  0.3995288971151055
  0.5432975050721840  0.2078714957254854  0.3999331535912087
  0.5445130827859260  0.3328292893900494  0.4014251745625761
  0.5454158369125894  0.4561113086511208  0.4047110653582627
  0.5444931130007510  0.5784177301958642  0.4122088907448348
  0.5408500180391635  0.7037511689443272  0.4078115643930846
  0.5419717858229293  0.8311193145345660  0.4026431501577079
  0.5423679216864733  0.9570803145375013  0.4001299278213516
  0.6673983861741674  0.0821590119043594  0.3993943791851703
  0.6678097697233177  0.2075009368634385  0.3990951238924234
  0.6683774609316144  0.3327014168199561  0.3990962637854661
  0.6690537078924647  0.4578090793508618  0.3994972056964755
  0.6686125283569323  0.5820558675647270  0.4013785549958086
  0.6660642692336484  0.7053560297717091  0.4030245818144644
  0.6660781134486882  0.8305661385831772  0.4022213482562802
  0.6669625689042992  0.9566169860645620  0.4003551446090198
  0.7922296461653806  0.0822430292570809  0.3991545610323534
  0.7925062917720255  0.2075100432035727  0.3988802006952981
  0.7927926801523110  0.3327866913535367  0.3984655196829560
  0.7930395417633289  0.4580548391457799  0.3981572999590463
  0.7929985086373408  0.5831493514479613  0.3983131145931129
  0.7922353016887587  0.7077466872730048  0.3993936781910103
  0.7914688637858740  0.8319549342378605  0.3997651921735830
  0.7916841103277452  0.9568797276778119  0.3995278880536512
  0.9174928677624717  0.0830304324822848  0.3988959244872991
  0.9174876934391930  0.2079034221242804  0.3987862143515117
  0.9174010408724407  0.3329832098296600  0.3984419990182049
  0.9174086007892768  0.4582598424125136  0.3981428276680241
  0.9175512986284438  0.5835732941458667  0.3979636045953805
  0.9174440926793223  0.7086980087154766  0.3982454262087610
  0.9173924154848867  0.8335710897234601  0.3987106673439650
  0.9174276040694739  0.9582856603309484  0.3989653217735384
  0.0855596568245938  0.0434487733341337  0.3996553265537090
  0.0859845161748443  0.1684939250086369  0.4001496462773331
  0.0848823195670962  0.2925066089150565  0.4001248974627931
  0.0834582004701521  0.4169668865272149  0.3990307657079490
  0.0833386976072614  0.5420542014927351  0.3985248742431139
  0.0837607210911806  0.6673270405424134  0.3985612350124296
  0.0842235448491457  0.7926380059089626  0.3987884628965802
  0.0847073288119726  0.9179652266252243  0.3990235751907688
  0.2104047023812745  0.0436448014300620  0.4002387697643920
  0.2121855271971107  0.1699177109386902  0.4024094132172107
  0.2128348629061578  0.2954008518364180  0.4039586020723233
  0.2089600293145736  0.4181907418734542  0.4027581989084916
  0.2079280924912874  0.5423663120331721  0.4005729627823817
  0.2085013581977435  0.6674391944724068  0.3995050615138123
  0.2090357892183558  0.7926300976443013  0.3991253924110920
  0.2095907216561592  0.9180017398192218  0.3992932349763147
  0.3348786344495698  0.0430675004540355  0.3998626403105737
  0.3362094728707669  0.1691876586951434  0.4022894326307230
  0.3395432504140625  0.2969110363214760  0.4077527455142367
  0.3373646631655421  0.4228324506582127  0.4142035195272707
  0.3334325892034982  0.5441492452213642  0.4066272483611736
  0.3333590988881098  0.6673819836713027  0.4024044895192465
  0.3339658682199562  0.7922691471860510  0.4002258896951446
  0.3343256735160204  0.9174926907732259  0.3994224056888627
  0.4594737347757051  0.0417489213246254  0.3996005494707395
  0.4601433802785653  0.1673947174547900  0.4004240719077460
  0.4618913868457147  0.2933414278269624  0.4031601975923060
  0.4567897332346618  0.6624821181747846  0.4078160850298666
  0.4588260898456085  0.7902620560625485  0.4024327419701295
  0.4590668614217279  0.9161244868147357  0.4001319226481244
  0.5841231528957556  0.0406176876394651  0.3995917002558482
  0.5845711039104844  0.1659939222799436  0.3994462147052544
  0.5854040917913310  0.2910548553799333  0.4000060888350600
  0.5864583486293985  0.4156256211646175  0.4013416806542438
  0.5865932115497094  0.5399344023397251  0.4053353235826674
  0.5828006330076101  0.6616879224028182  0.4079169798343795
  0.5825669269113541  0.7878990717893930  0.4043477465342905
  0.5837039318639861  0.9148387863841924  0.4009049635481989
  0.7088153710516170  0.0402665813176132  0.3995399178364946
  0.7092443190294744  0.1657268226448763  0.3990878066682249
  0.7096537641432454  0.2909936261810340  0.3988122917631218
  0.7100745318623525  0.4161596457039500  0.3987143791945099
  0.7102201365727931  0.5410961155554975  0.3993259660970609
  0.7090345736156508  0.6653673377710795  0.4012022614643389
  0.7078220628310412  0.7892245062159047  0.4014530265137732
  0.7081372887353169  0.9144831489834293  0.4005792932253263
  0.8338041634608707  0.0406523674860293  0.3990646039565977
  0.8340868503688986  0.1658871998123897  0.3989003750749201
  0.8342007154673050  0.2910664323091101  0.3985680009041683
  0.8343435153294406  0.4163157761334246  0.3982114200105439
  0.8344412448535149  0.5415761123976852  0.3979685413881892
  0.8341864221825155  0.6666611916599489  0.3984892428032533
  0.8338204132467018  0.7912249232617821  0.3991907278224049
  0.8336155980807971  0.9157005826606740  0.3993169804558134
  0.9596634220480514  0.0420400903552313  0.3990157413941435
  0.9594644718475448  0.1666537550378066  0.3989435684884607
  0.9591082727829738  0.2914592109442187  0.3986404359865692
  0.9587702451815252  0.4165427805187751  0.3982487575806409
  0.9589105268315784  0.5418390151223805  0.3980937737406602
  0.9590681572118873  0.6671392744354288  0.3981391974036690
  0.9592182502035083  0.7922701709257666  0.3984896365702844
  0.9594631636146563  0.9172293247820116  0.3988487355524908
  0.4140066166544766  0.5816716972025456  0.4110035304151476
  0.4667523387787771  0.4183802095631557  0.4094512267613595
  0.5108227640478680  0.4730587038517615  0.4882023351494839
  0.4084230499207120  0.5231614382473430  0.4890699726980786
 
  0.00000000E+00  0.00000000E+00  0.00000000E+00
  0.00000000E+00  0.00000000E+00  0.00000000E+00
  0.00000000E+00  0.00000000E+00  0.00000000E+00
  0.00000000E+00  0.00000000E+00  0.00000000E+00
  0.00000000E+00  0.00000000E+00  0.00000000E+00
  0.00000000E+00  0.00000000E+00  0.00000000E+00
  0.00000000E+00  0.00000000E+00  0.00000000E+00
  0.00000000E+00  0.00000000E+00  0.00000000E+00
  0.00000000E+00  0.00000000E+00  0.00000000E+00
  0.00000000E+00  0.00000000E+00  0.00000000E+00
  0.00000000E+00  0.00000000E+00  0.00000000E+00
  0.00000000E+00  0.00000000E+00  0.00000000E+00
  0.00000000E+00  0.00000000E+00  0.00000000E+00
  0.00000000E+00  0.00000000E+00  0.00000000E+00
  0.00000000E+00  0.00000000E+00  0.00000000E+00
  0.00000000E+00  0.00000000E+00  0.00000000E+00
  0.00000000E+00  0.00000000E+00  0.00000000E+00
  0.00000000E+00  0.00000000E+00  0.00000000E+00
  0.00000000E+00  0.00000000E+00  0.00000000E+00
  0.00000000E+00  0.00000000E+00  0.00000000E+00
  0.00000000E+00  0.00000000E+00  0.00000000E+00
  0.00000000E+00  0.00000000E+00  0.00000000E+00
  0.00000000E+00  0.00000000E+00  0.00000000E+00
  0.00000000E+00  0.00000000E+00  0.00000000E+00
  0.00000000E+00  0.00000000E+00  0.00000000E+00
  0.00000000E+00  0.00000000E+00  0.00000000E+00
  0.00000000E+00  0.00000000E+00  0.00000000E+00
  0.00000000E+00  0.00000000E+00  0.00000000E+00
  0.00000000E+00  0.00000000E+00  0.00000000E+00
  0.00000000E+00  0.00000000E+00  0.00000000E+00
  0.00000000E+00  0.00000000E+00  0.00000000E+00
  0.00000000E+00  0.00000000E+00  0.00000000E+00
  0.00000000E+00  0.00000000E+00  0.00000000E+00
  0.00000000E+00  0.00000000E+00  0.00000000E+00
  0.00000000E+00  0.00000000E+00  0.00000000E+00
  0.00000000E+00  0.00000000E+00  0.00000000E+00
  0.00000000E+00  0.00000000E+00  0.00000000E+00
  0.00000000E+00  0.00000000E+00  0.00000000E+00
  0.00000000E+00  0.00000000E+00  0.00000000E+00
  0.00000000E+00  0.00000000E+00  0.00000000E+00
  0.00000000E+00  0.00000000E+00  0.00000000E+00
  0.00000000E+00  0.00000000E+00  0.00000000E+00
  0.00000000E+00  0.00000000E+00  0.00000000E+00
  0.00000000E+00  0.00000000E+00  0.00000000E+00
  0.00000000E+00  0.00000000E+00  0.00000000E+00
  0.00000000E+00  0.00000000E+00  0.00000000E+00
  0.00000000E+00  0.00000000E+00  0.00000000E+00
  0.00000000E+00  0.00000000E+00  0.00000000E+00
  0.00000000E+00  0.00000000E+00  0.00000000E+00
  0.00000000E+00  0.00000000E+00  0.00000000E+00
  0.00000000E+00  0.00000000E+00  0.00000000E+00
  0.00000000E+00  0.00000000E+00  0.00000000E+00
  0.00000000E+00  0.00000000E+00  0.00000000E+00
  0.00000000E+00  0.00000000E+00  0.00000000E+00
  0.00000000E+00  0.00000000E+00  0.00000000E+00
  0.00000000E+00  0.00000000E+00  0.00000000E+00
  0.00000000E+00  0.00000000E+00  0.00000000E+00
  0.00000000E+00  0.00000000E+00  0.00000000E+00
  0.00000000E+00  0.00000000E+00  0.00000000E+00
  0.00000000E+00  0.00000000E+00  0.00000000E+00
  0.00000000E+00  0.00000000E+00  0.00000000E+00
  0.00000000E+00  0.00000000E+00  0.00000000E+00
  0.00000000E+00  0.00000000E+00  0.00000000E+00
  0.00000000E+00  0.00000000E+00  0.00000000E+00
  0.00000000E+00  0.00000000E+00  0.00000000E+00
  0.00000000E+00  0.00000000E+00  0.00000000E+00
  0.00000000E+00  0.00000000E+00  0.00000000E+00
  0.00000000E+00  0.00000000E+00  0.00000000E+00
  0.00000000E+00  0.00000000E+00  0.00000000E+00
  0.00000000E+00  0.00000000E+00  0.00000000E+00
  0.00000000E+00  0.00000000E+00  0.00000000E+00
  0.00000000E+00  0.00000000E+00  0.00000000E+00
  0.00000000E+00  0.00000000E+00  0.00000000E+00
  0.00000000E+00  0.00000000E+00  0.00000000E+00
  0.00000000E+00  0.00000000E+00  0.00000000E+00
  0.00000000E+00  0.00000000E+00  0.00000000E+00
  0.00000000E+00  0.00000000E+00  0.00000000E+00
  0.00000000E+00  0.00000000E+00  0.00000000E+00
  0.00000000E+00  0.00000000E+00  0.00000000E+00
  0.00000000E+00  0.00000000E+00  0.00000000E+00
  0.00000000E+00  0.00000000E+00  0.00000000E+00
  0.00000000E+00  0.00000000E+00  0.00000000E+00
  0.00000000E+00  0.00000000E+00  0.00000000E+00
  0.00000000E+00  0.00000000E+00  0.00000000E+00
  0.00000000E+00  0.00000000E+00  0.00000000E+00
  0.00000000E+00  0.00000000E+00  0.00000000E+00
  0.00000000E+00  0.00000000E+00  0.00000000E+00
  0.00000000E+00  0.00000000E+00  0.00000000E+00
  0.00000000E+00  0.00000000E+00  0.00000000E+00
  0.00000000E+00  0.00000000E+00  0.00000000E+00
  0.00000000E+00  0.00000000E+00  0.00000000E+00
  0.00000000E+00  0.00000000E+00  0.00000000E+00
  0.00000000E+00  0.00000000E+00  0.00000000E+00
  0.00000000E+00  0.00000000E+00  0.00000000E+00
  0.00000000E+00  0.00000000E+00  0.00000000E+00
  0.00000000E+00  0.00000000E+00  0.00000000E+00
  0.00000000E+00  0.00000000E+00  0.00000000E+00
  0.00000000E+00  0.00000000E+00  0.00000000E+00
  0.00000000E+00  0.00000000E+00  0.00000000E+00
  0.00000000E+00  0.00000000E+00  0.00000000E+00
  0.00000000E+00  0.00000000E+00  0.00000000E+00
  0.00000000E+00  0.00000000E+00  0.00000000E+00
  0.00000000E+00  0.00000000E+00  0.00000000E+00
  0.00000000E+00  0.00000000E+00  0.00000000E+00
  0.00000000E+00  0.00000000E+00  0.00000000E+00
  0.00000000E+00  0.00000000E+00  0.00000000E+00
  0.00000000E+00  0.00000000E+00  0.00000000E+00
  0.00000000E+00  0.00000000E+00  0.00000000E+00
  0.00000000E+00  0.00000000E+00  0.00000000E+00
  0.00000000E+00  0.00000000E+00  0.00000000E+00
  0.00000000E+00  0.00000000E+00  0.00000000E+00
  0.00000000E+00  0.00000000E+00  0.00000000E+00
  0.00000000E+00  0.00000000E+00  0.00000000E+00
  0.00000000E+00  0.00000000E+00  0.00000000E+00
  0.00000000E+00  0.00000000E+00  0.00000000E+00
  0.00000000E+00  0.00000000E+00  0.00000000E+00
  0.00000000E+00  0.00000000E+00  0.00000000E+00
  0.00000000E+00  0.00000000E+00  0.00000000E+00
  0.00000000E+00  0.00000000E+00  0.00000000E+00
  0.00000000E+00  0.00000000E+00  0.00000000E+00
  0.00000000E+00  0.00000000E+00  0.00000000E+00
  0.00000000E+00  0.00000000E+00  0.00000000E+00
  0.00000000E+00  0.00000000E+00  0.00000000E+00
  0.00000000E+00  0.00000000E+00  0.00000000E+00
  0.00000000E+00  0.00000000E+00  0.00000000E+00
  0.00000000E+00  0.00000000E+00  0.00000000E+00
  0.00000000E+00  0.00000000E+00  0.00000000E+00
  0.00000000E+00  0.00000000E+00  0.00000000E+00
  0.00000000E+00  0.00000000E+00  0.00000000E+00
  0.00000000E+00  0.00000000E+00  0.00000000E+00
