Ti1 C126 O1                             
   1.00000000000000     
    19.7563984932886605   -0.0001381758171613   -0.0486552576463937
    -9.8783592683490884   17.1143590684728828   -0.0424102112318461
    -0.0729351059468935   -0.1159511862125784   29.7608026839572943
   Ti   C    O 
     1   126     1
Direct
  0.4396017853546966  0.5019188454591558  0.4383617758045111
  0.0416454649503128  0.0833522557427709  0.3996496702324754
  0.0414790341508261  0.2082009470190540  0.3995001718849959
  0.0415259825230410  0.3332015432722673  0.3994485025586763
  0.0416337232899669  0.4583988055067955  0.3996582762208317
  0.0416477893954605  0.5833778862963536  0.3998712395706970
  0.0417195418380279  0.7083773030244589  0.3999648438949962
  0.0418051699309465  0.8334378516934097  0.3999824897106853
  0.0418390012215011  0.9584503447753551  0.3998814615063430
  0.1667003928578508  0.0834042039589066  0.3998043207901741
  0.1663942958447646  0.2080080986132830  0.3999585885146315
  0.1663854940723554  0.3331748261211036  0.3999286468491972
  0.1664137273364565  0.4582778484181288  0.3992871646063520
  0.1665812028777441  0.5833722601589165  0.3992767719420064
  0.1666336796199402  0.7084627980511500  0.3996471745807753
  0.1667125458790630  0.8334531038361561  0.3999512549810273
  0.1667984446909541  0.9585192364682036  0.3998817296326275
  0.2918060927773192  0.0834013091267244  0.3997729614915206
  0.2918461554152317  0.2086161910137001  0.4008181974202901
  0.2913131686910695  0.3332365886420013  0.4028206543448556
  0.2914640426630790  0.4574458018402575  0.4014350669581253
  0.2914390788182221  0.5838237315775354  0.3997187653606645
  0.2915203505704859  0.7085979040704130  0.3992679315639336
  0.2916807900129215  0.8334837229238904  0.3996365569879161
  0.2917071596558998  0.9584383095507381  0.3998439366804984
  0.4168131205074528  0.0833315491191813  0.3996821184889362
  0.4166859386775024  0.2079744891643824  0.3999387655050616
  0.4169701086105829  0.3331621283291621  0.4023325982924217
  0.4157472038266970  0.5855819683978610  0.4048580890459851
  0.4166929288918881  0.7089505468672652  0.4003495524510400
  0.4166735815108719  0.8336695478739738  0.3994457562116266
  0.4166740905565593  0.9584271095643201  0.3996982986206926
  0.5417480110669878  0.0833221111112453  0.3998160538302252
  0.5418074516935412  0.2081889389773883  0.3995875709364994
  0.5418315650092038  0.3331515465878346  0.3997666022298139
  0.5410176538517110  0.4574099663956245  0.4004572487721268
  0.5449558639973431  0.5855780653444435  0.4035889181376011
  0.5421131101233416  0.7091656502028306  0.4019947889583035
  0.5416342757290766  0.8335938587484880  0.4000996110321398
  0.5417478352230397  0.9584272602234900  0.3997361047504461
  0.6666939686386348  0.0833070869815426  0.3999380931259196
  0.6667932292831157  0.2082946884066542  0.3998405883586357
  0.6667345993008920  0.3331790373674185  0.3995256857750517
  0.6668965037007704  0.4582495622879309  0.3992047075452309
  0.6674172929927282  0.5837978084224167  0.3993032205644637
  0.6673094794229797  0.7089468084130034  0.3999856414291101
  0.6670280603403989  0.8335747976753664  0.4000291140561819
  0.6667765480832210  0.9584591969125620  0.3998326642055262
  0.7917367020842910  0.0833130062286561  0.3999180873828741
  0.7916862260991874  0.2082612043926865  0.3999368397857680
  0.7917545371730710  0.3333011075232968  0.3998732914236873
  0.7918176210277008  0.4583708700679577  0.3997003301554335
  0.7918243422602601  0.5833633649488594  0.3993348487079217
  0.7921189070668548  0.7085960697962121  0.3992986360446751
  0.7920818946462680  0.8336711983305901  0.3995169649476338
  0.7917702275182695  0.9584135450926131  0.3997601628420741
  0.9166960447343168  0.0833235769584383  0.3997600151728835
  0.9166141141902762  0.2083142044079696  0.3997976726684572
  0.9166406055511837  0.3333189863045997  0.3998691478593352
  0.9166884571182896  0.4582916912810153  0.3999409006658695
  0.9167752675229560  0.5833558736349638  0.3998818846590607
  0.9168776205792433  0.7084507202943942  0.3997318044882974
  0.9168846944363095  0.8334925176910551  0.3997499160912927
  0.9168685749207942  0.9584364136695540  0.3997682858498116
  0.0834329042933991  0.0417441689516579  0.3997607774998871
  0.0831238272428786  0.1665028343788098  0.3995383180350607
  0.0830092307547332  0.2915065868370098  0.3994468955011446
  0.0832837599491446  0.4167248646560411  0.3993810557692485
  0.0832664884180220  0.5416932329800520  0.3996289536996354
  0.0833344002559509  0.6667581539353915  0.3998694354143696
  0.0834497908146423  0.7918268269941062  0.3999919664971720
  0.0834350561437878  0.9168028190413117  0.3999462847822675
  0.2084017411091224  0.0417053134419323  0.3997962702403834
  0.2081559499223412  0.1666187536146748  0.4001582271713677
  0.2079008512774300  0.2912920957309554  0.4005959434639720
  0.2077344354476292  0.4163364002989347  0.3998668169458482
  0.2081757497245672  0.5418427549441368  0.3992310710046172
  0.2083334670854934  0.6668885972557689  0.3993045336473063
  0.2083071652241134  0.7917791049619680  0.3997819887356965
  0.2084539359286776  0.9168139508244046  0.3999326157836726
  0.3334132190976788  0.0417323165112552  0.3997355552702688
  0.3335392696544195  0.1666167390338232  0.4001079003949941
  0.3330933963503862  0.2911068011831401  0.4024879369483772
  0.3304622368052876  0.4148538270078378  0.4055024558373285
  0.3340763835405458  0.5427766196179094  0.4012016175381772
  0.3332626785669831  0.6669865312083375  0.3997310031786577
  0.3333093757610955  0.7919190204045264  0.3993709397359971
  0.3334066261928463  0.9168047190186867  0.3997593761965776
  0.4584896317273393  0.0417379343893925  0.3997480464546673
  0.4584728854478685  0.1664855859944074  0.3996105881917457
  0.4584425169239121  0.2912423868715525  0.4003646738801236
  0.4595158983882631  0.4147809781124915  0.4043224600340686
  0.4582110481199636  0.6671113662604441  0.4022824806960895
  0.4584796076464426  0.7922168557694658  0.3998489448053718
  0.4583446289603643  0.9168278210761112  0.3995931705078277
  0.5834501010635595  0.0417032116688283  0.3998630396700900
  0.5834376268669699  0.1666171728690355  0.3997645117011527
  0.5835603153351095  0.2914937815398412  0.3994943247567668
  0.5836479953423342  0.4163100743656145  0.3995223472272220
  0.5837135775426042  0.5427386864435091  0.4001672617115042
  0.5839698029867737  0.6671325114670321  0.4016642189237403
  0.5833480741413950  0.7916192424682595  0.4006606791696345
  0.5833720694378903  0.9167860038394374  0.3998108329330017
  0.7083724285711666  0.0416300408490890  0.3998975300563421
  0.7084222113112368  0.1666532670781414  0.3999395932203942
  0.7084476883372245  0.2915972688044375  0.3997520983149345
  0.7084863928567071  0.4166964567162666  0.3994463776251567
  0.7086940704350388  0.5418277778602002  0.3991216712521087
  0.7087478515908452  0.6669628015840020  0.3994746952445283
  0.7088170075432016  0.7922114552766915  0.3997653230431683
  0.7085018385151154  0.9167733749180853  0.3998041351711560
  0.8333695816965797  0.0416950312756400  0.3998413021272605
  0.8333478041571153  0.1666593260002033  0.3999117373740106
  0.8333977694073461  0.2917012557076485  0.3999273206772357
  0.8334487722355752  0.4166848921904976  0.3998798758803827
  0.8334631260202834  0.5416705951678572  0.3996758315864640
  0.8335907186160207  0.6668842692868354  0.3994086583938156
  0.8336820336904046  0.7919229796498299  0.3994760657754857
  0.8335854997410165  0.9168241761330300  0.3996862927116636
  0.9583795102674620  0.0417473142606323  0.3997228916111262
  0.9582847963138760  0.1666227246911721  0.3996811657409167
  0.9582455350867110  0.2916150029791079  0.3997045340348389
  0.9583288189558418  0.4166999192892992  0.3998695403258312
  0.9584220420195199  0.5417723522977984  0.3999557551923800
  0.9584740815026079  0.6667409252534260  0.3998953225401335
  0.9585311641971892  0.7917686798160452  0.3998555238578717
  0.9585144171487259  0.9168174679085888  0.3998358452418861
  0.4443547478852948  0.5076472078793873  0.4941186578889841
 
  0.00000000E+00  0.00000000E+00  0.00000000E+00
  0.00000000E+00  0.00000000E+00  0.00000000E+00
  0.00000000E+00  0.00000000E+00  0.00000000E+00
  0.00000000E+00  0.00000000E+00  0.00000000E+00
  0.00000000E+00  0.00000000E+00  0.00000000E+00
  0.00000000E+00  0.00000000E+00  0.00000000E+00
  0.00000000E+00  0.00000000E+00  0.00000000E+00
  0.00000000E+00  0.00000000E+00  0.00000000E+00
  0.00000000E+00  0.00000000E+00  0.00000000E+00
  0.00000000E+00  0.00000000E+00  0.00000000E+00
  0.00000000E+00  0.00000000E+00  0.00000000E+00
  0.00000000E+00  0.00000000E+00  0.00000000E+00
  0.00000000E+00  0.00000000E+00  0.00000000E+00
  0.00000000E+00  0.00000000E+00  0.00000000E+00
  0.00000000E+00  0.00000000E+00  0.00000000E+00
  0.00000000E+00  0.00000000E+00  0.00000000E+00
  0.00000000E+00  0.00000000E+00  0.00000000E+00
  0.00000000E+00  0.00000000E+00  0.00000000E+00
  0.00000000E+00  0.00000000E+00  0.00000000E+00
  0.00000000E+00  0.00000000E+00  0.00000000E+00
  0.00000000E+00  0.00000000E+00  0.00000000E+00
  0.00000000E+00  0.00000000E+00  0.00000000E+00
  0.00000000E+00  0.00000000E+00  0.00000000E+00
  0.00000000E+00  0.00000000E+00  0.00000000E+00
  0.00000000E+00  0.00000000E+00  0.00000000E+00
  0.00000000E+00  0.00000000E+00  0.00000000E+00
  0.00000000E+00  0.00000000E+00  0.00000000E+00
  0.00000000E+00  0.00000000E+00  0.00000000E+00
  0.00000000E+00  0.00000000E+00  0.00000000E+00
  0.00000000E+00  0.00000000E+00  0.00000000E+00
  0.00000000E+00  0.00000000E+00  0.00000000E+00
  0.00000000E+00  0.00000000E+00  0.00000000E+00
  0.00000000E+00  0.00000000E+00  0.00000000E+00
  0.00000000E+00  0.00000000E+00  0.00000000E+00
  0.00000000E+00  0.00000000E+00  0.00000000E+00
  0.00000000E+00  0.00000000E+00  0.00000000E+00
  0.00000000E+00  0.00000000E+00  0.00000000E+00
  0.00000000E+00  0.00000000E+00  0.00000000E+00
  0.00000000E+00  0.00000000E+00  0.00000000E+00
  0.00000000E+00  0.00000000E+00  0.00000000E+00
  0.00000000E+00  0.00000000E+00  0.00000000E+00
  0.00000000E+00  0.00000000E+00  0.00000000E+00
  0.00000000E+00  0.00000000E+00  0.00000000E+00
  0.00000000E+00  0.00000000E+00  0.00000000E+00
  0.00000000E+00  0.00000000E+00  0.00000000E+00
  0.00000000E+00  0.00000000E+00  0.00000000E+00
  0.00000000E+00  0.00000000E+00  0.00000000E+00
  0.00000000E+00  0.00000000E+00  0.00000000E+00
  0.00000000E+00  0.00000000E+00  0.00000000E+00
  0.00000000E+00  0.00000000E+00  0.00000000E+00
  0.00000000E+00  0.00000000E+00  0.00000000E+00
  0.00000000E+00  0.00000000E+00  0.00000000E+00
  0.00000000E+00  0.00000000E+00  0.00000000E+00
  0.00000000E+00  0.00000000E+00  0.00000000E+00
  0.00000000E+00  0.00000000E+00  0.00000000E+00
  0.00000000E+00  0.00000000E+00  0.00000000E+00
  0.00000000E+00  0.00000000E+00  0.00000000E+00
  0.00000000E+00  0.00000000E+00  0.00000000E+00
  0.00000000E+00  0.00000000E+00  0.00000000E+00
  0.00000000E+00  0.00000000E+00  0.00000000E+00
  0.00000000E+00  0.00000000E+00  0.00000000E+00
  0.00000000E+00  0.00000000E+00  0.00000000E+00
  0.00000000E+00  0.00000000E+00  0.00000000E+00
  0.00000000E+00  0.00000000E+00  0.00000000E+00
  0.00000000E+00  0.00000000E+00  0.00000000E+00
  0.00000000E+00  0.00000000E+00  0.00000000E+00
  0.00000000E+00  0.00000000E+00  0.00000000E+00
  0.00000000E+00  0.00000000E+00  0.00000000E+00
  0.00000000E+00  0.00000000E+00  0.00000000E+00
  0.00000000E+00  0.00000000E+00  0.00000000E+00
  0.00000000E+00  0.00000000E+00  0.00000000E+00
  0.00000000E+00  0.00000000E+00  0.00000000E+00
  0.00000000E+00  0.00000000E+00  0.00000000E+00
  0.00000000E+00  0.00000000E+00  0.00000000E+00
  0.00000000E+00  0.00000000E+00  0.00000000E+00
  0.00000000E+00  0.00000000E+00  0.00000000E+00
  0.00000000E+00  0.00000000E+00  0.00000000E+00
  0.00000000E+00  0.00000000E+00  0.00000000E+00
  0.00000000E+00  0.00000000E+00  0.00000000E+00
  0.00000000E+00  0.00000000E+00  0.00000000E+00
  0.00000000E+00  0.00000000E+00  0.00000000E+00
  0.00000000E+00  0.00000000E+00  0.00000000E+00
  0.00000000E+00  0.00000000E+00  0.00000000E+00
  0.00000000E+00  0.00000000E+00  0.00000000E+00
  0.00000000E+00  0.00000000E+00  0.00000000E+00
  0.00000000E+00  0.00000000E+00  0.00000000E+00
  0.00000000E+00  0.00000000E+00  0.00000000E+00
  0.00000000E+00  0.00000000E+00  0.00000000E+00
  0.00000000E+00  0.00000000E+00  0.00000000E+00
  0.00000000E+00  0.00000000E+00  0.00000000E+00
  0.00000000E+00  0.00000000E+00  0.00000000E+00
  0.00000000E+00  0.00000000E+00  0.00000000E+00
  0.00000000E+00  0.00000000E+00  0.00000000E+00
  0.00000000E+00  0.00000000E+00  0.00000000E+00
  0.00000000E+00  0.00000000E+00  0.00000000E+00
  0.00000000E+00  0.00000000E+00  0.00000000E+00
  0.00000000E+00  0.00000000E+00  0.00000000E+00
  0.00000000E+00  0.00000000E+00  0.00000000E+00
  0.00000000E+00  0.00000000E+00  0.00000000E+00
  0.00000000E+00  0.00000000E+00  0.00000000E+00
  0.00000000E+00  0.00000000E+00  0.00000000E+00
  0.00000000E+00  0.00000000E+00  0.00000000E+00
  0.00000000E+00  0.00000000E+00  0.00000000E+00
  0.00000000E+00  0.00000000E+00  0.00000000E+00
  0.00000000E+00  0.00000000E+00  0.00000000E+00
  0.00000000E+00  0.00000000E+00  0.00000000E+00
  0.00000000E+00  0.00000000E+00  0.00000000E+00
  0.00000000E+00  0.00000000E+00  0.00000000E+00
  0.00000000E+00  0.00000000E+00  0.00000000E+00
  0.00000000E+00  0.00000000E+00  0.00000000E+00
  0.00000000E+00  0.00000000E+00  0.00000000E+00
  0.00000000E+00  0.00000000E+00  0.00000000E+00
  0.00000000E+00  0.00000000E+00  0.00000000E+00
  0.00000000E+00  0.00000000E+00  0.00000000E+00
  0.00000000E+00  0.00000000E+00  0.00000000E+00
  0.00000000E+00  0.00000000E+00  0.00000000E+00
  0.00000000E+00  0.00000000E+00  0.00000000E+00
  0.00000000E+00  0.00000000E+00  0.00000000E+00
  0.00000000E+00  0.00000000E+00  0.00000000E+00
  0.00000000E+00  0.00000000E+00  0.00000000E+00
  0.00000000E+00  0.00000000E+00  0.00000000E+00
  0.00000000E+00  0.00000000E+00  0.00000000E+00
  0.00000000E+00  0.00000000E+00  0.00000000E+00
  0.00000000E+00  0.00000000E+00  0.00000000E+00
  0.00000000E+00  0.00000000E+00  0.00000000E+00
  0.00000000E+00  0.00000000E+00  0.00000000E+00
  0.00000000E+00  0.00000000E+00  0.00000000E+00
  0.00000000E+00  0.00000000E+00  0.00000000E+00
