Ta1 C123 N3                             
   1.00000000000000     
    19.7976278633074543    0.0096525810598729   -0.0218250115375176
    -9.8904279744198131   17.0450649202012308    0.0058623267372250
    -0.0328678646049085   -0.0088870953990728   29.8104125165130078
   Ta   C    N 
     1   123     3
Direct
  0.4285362648677817  0.5000870436087150  0.4293923933934781
  0.0415964042993220  0.0835657560443675  0.3997027138203003
  0.0409763721016155  0.2079939236659185  0.3997346488603581
  0.0405818551678709  0.3329771021218828  0.4002258957952546
  0.0407843979303787  0.4582090506916444  0.4001910455016838
  0.0415691399797544  0.5835950905264664  0.4000302571493463
  0.0422106460258652  0.7089726015944610  0.3999969600193360
  0.0423067771604646  0.8340826577324559  0.4000395665117342
  0.0421875880524453  0.9590799957264941  0.3998722906172489
  0.1673857059023959  0.0846555959030240  0.3996760846444133
  0.1666639224677220  0.2090192383995832  0.3993951133419783
  0.1652014788933744  0.3334032847711777  0.4004416780686291
  0.1647395715040739  0.4582832618024282  0.4012729475617058
  0.1656146422195243  0.5835896007624487  0.4004380787939999
  0.1665940392131788  0.7088099178733537  0.3999681574416377
  0.1671032472791656  0.8341157285584623  0.4000163760260928
  0.1673267170232706  0.9594888168871195  0.3999777546058462
  0.2924102408389213  0.0851922768920567  0.3999092736232649
  0.2927949565756227  0.2113686409038843  0.4001794835195421
  0.2906676167478738  0.3347547916871834  0.4001125458817044
  0.2884583794593292  0.4577518417886856  0.4007284755839203
  0.2891957331803117  0.5830588151259346  0.4005253859137246
  0.2910133119150962  0.7082314196965078  0.3996784744613374
  0.2918368143698936  0.8337555771344748  0.3998222027427417
  0.2921570539026606  0.9593392619503585  0.3999332135165559
  0.4170796058895646  0.0842689890104337  0.3997715127135155
  0.4175367712354799  0.2103888945066477  0.3998933944139091
  0.4193550127083846  0.3382126668339253  0.4032642184451979
  0.4155810799475252  0.7069330664440548  0.3985076087541329
  0.4164281103001919  0.8326460891112072  0.3995873839574142
  0.4168072314511038  0.9584351891019272  0.3999254291228626
  0.5416756941906913  0.0829699407988384  0.3999472137711973
  0.5421061568556416  0.2086670722528396  0.3995967152087889
  0.5430636456748975  0.3342568489954104  0.3999567858168173
  0.5464059051618414  0.4597137391668953  0.4031837364906127
  0.5393795511747844  0.7029264135597293  0.4011772145679879
  0.5409432894284442  0.8309109100859678  0.3995822103175881
  0.5413832338922009  0.9571631433016932  0.3998482619085050
  0.6662930502217523  0.0823802629322040  0.4000397067175362
  0.6666687352604900  0.2077954662704758  0.3999029923331626
  0.6674514678510747  0.3332054352819340  0.3992657534356459
  0.6693332749405625  0.4587219492386116  0.3988194722152863
  0.6700441104307137  0.5839174119064194  0.4003145875698558
  0.6662893932278477  0.7062194442780567  0.4013913328965187
  0.6651695006012650  0.8308284805619990  0.4002726642048715
  0.6659199409827011  0.9567727681369717  0.3999649151547950
  0.7909667973343443  0.0822226683464710  0.3999789917575051
  0.7912751192076730  0.2075819341909918  0.4000466576359717
  0.7918127083294206  0.3329350235130228  0.3998132110052574
  0.7928341123421490  0.4583125854040633  0.3991756608650498
  0.7935598829317900  0.5836914372836731  0.3988747386654774
  0.7929521197030550  0.7086545156721968  0.3997532729488044
  0.7911375162088657  0.8323142883914719  0.3997653707435764
  0.7907001250476499  0.9569446942646639  0.3998661817323051
  0.9160217959954933  0.0826048018339499  0.3997940027975590
  0.9159149385238761  0.2075921216046916  0.3998880377179775
  0.9161468891574891  0.3328296045195958  0.3999934657142660
  0.9168202349083933  0.4582658032642331  0.3998999916224869
  0.9175513816348636  0.5836783195025527  0.3996583643837155
  0.9176133626636397  0.7088213816420487  0.3996804280846842
  0.9172462887487208  0.8337572705290175  0.3998232943497269
  0.9163998754655275  0.9579958656406048  0.3998079938855577
  0.0839244093606604  0.0425922360727067  0.3997170216011726
  0.0832024658155068  0.1669968205686667  0.3996020497472045
  0.0824159315401998  0.2915230690180134  0.4001239741146897
  0.0818609182959488  0.4162655688613156  0.4005153664682679
  0.0825985828678164  0.5417037564119521  0.4002111079032759
  0.0834696768349013  0.6671213488150021  0.4000250620173886
  0.0838900844686286  0.7924111667514694  0.4000578036296726
  0.0839836712502344  0.9175995169434470  0.3999848096072940
  0.2090076567065149  0.0430486079448373  0.3998732959348236
  0.2092016997980227  0.1684036869319062  0.3995886409777847
  0.2078477098498462  0.2924319849478759  0.3993897128869883
  0.2058202033204570  0.4166400877714799  0.4015616565979693
  0.2064412717429634  0.5415463000809324  0.4010866507982667
  0.2077363838862705  0.6668720864824832  0.4000366528328105
  0.2085187381916490  0.7923106493635625  0.3999146592076250
  0.2088828580736012  0.9176964653611768  0.4000107573986520
  0.3338238933558519  0.0430260915404227  0.3998597518631234
  0.3341036813680890  0.1689679737821235  0.4000744125284285
  0.3347176733036254  0.2955920617469862  0.4013657948287413
  0.3305947628685780  0.5417498751534088  0.3993730226479348
  0.3319382300204903  0.6662026930853379  0.3993776334500121
  0.3331509826147275  0.7917357574512531  0.3996260903510687
  0.3335729856049953  0.9172873295290604  0.3998986255367854
  0.4584472916806221  0.0419935678838242  0.3999027509718827
  0.4587713088584142  0.1679193631123356  0.3996245363634387
  0.4595836524424584  0.2942115183936348  0.4007112947034441
  0.4642050681015094  0.4214861611384648  0.4076260336671294
  0.4556134284873673  0.6637864139211478  0.3986932896531777
  0.4577744265573095  0.7904142500613125  0.3992102992208504
  0.4581613608138631  0.9162006637816115  0.3998229812288035
  0.5830588171681989  0.0408293840535345  0.3999834415179136
  0.5834168031925285  0.1664992950606971  0.3998217370659226
  0.5841067961473008  0.2920021531723396  0.3994161563898702
  0.5865074573587126  0.4175751114953237  0.3999705424596325
  0.5888241697693024  0.5430279511905652  0.4037238673902892
  0.5826033408852098  0.6617638806183616  0.4039633308386179
  0.5816218780301747  0.7877935269824002  0.4002522678082577
  0.5827059684969395  0.9148513608196007  0.3997791317402931
  0.7077122470888135  0.0404317011311761  0.4000119457459849
  0.7080535514117183  0.1659088751934172  0.4000577090965693
  0.7085981961772780  0.2912974831338496  0.3996709328488373
  0.7099430942791742  0.4165839346183048  0.3988688274072503
  0.7109656283970938  0.5417542060884063  0.3988316174651469
  0.7103019819811089  0.6669610000164353  0.4006309876531211
  0.7074645056501887  0.7899199815555668  0.4001852869831717
  0.7072044633066946  0.9147645265903519  0.4000108324496053
  0.8325993062650887  0.0406016365991906  0.3998697957451788
  0.8327651077123276  0.1658323964856294  0.3999814984253989
  0.8330473057401695  0.2910244816958705  0.3999893739942821
  0.8338247327157778  0.4163700256570846  0.3996760429074955
  0.8346594555875713  0.5418232146375961  0.3991537909558506
  0.8347631001610956  0.6670883259550253  0.3993574413164735
  0.8339877280191065  0.7918853960706126  0.3997720619139369
  0.8328777108255950  0.9158641090997059  0.3997615141489076
  0.9581359963005339  0.0414849720956178  0.3998013291932963
  0.9577566233925970  0.1661032947909740  0.3997678514361007
  0.9575406478662006  0.2910876518829164  0.3999842844775689
  0.9578812965301763  0.4163537281963953  0.4000056316699603
  0.9586157776064905  0.5417216742509818  0.3999019691629794
  0.9591299471447683  0.6671177988687349  0.3997941968550717
  0.9591483495337368  0.7923448273876874  0.3999043726069257
  0.9587816060815735  0.9171418707294433  0.3998506026674440
  0.4122792320166923  0.5828736884923154  0.3984818117874016
  0.5460228158491519  0.5806348787355148  0.4094321620344228
  0.3285455665217895  0.4160307945120473  0.4021771237801982
 
  0.00000000E+00  0.00000000E+00  0.00000000E+00
  0.00000000E+00  0.00000000E+00  0.00000000E+00
  0.00000000E+00  0.00000000E+00  0.00000000E+00
  0.00000000E+00  0.00000000E+00  0.00000000E+00
  0.00000000E+00  0.00000000E+00  0.00000000E+00
  0.00000000E+00  0.00000000E+00  0.00000000E+00
  0.00000000E+00  0.00000000E+00  0.00000000E+00
  0.00000000E+00  0.00000000E+00  0.00000000E+00
  0.00000000E+00  0.00000000E+00  0.00000000E+00
  0.00000000E+00  0.00000000E+00  0.00000000E+00
  0.00000000E+00  0.00000000E+00  0.00000000E+00
  0.00000000E+00  0.00000000E+00  0.00000000E+00
  0.00000000E+00  0.00000000E+00  0.00000000E+00
  0.00000000E+00  0.00000000E+00  0.00000000E+00
  0.00000000E+00  0.00000000E+00  0.00000000E+00
  0.00000000E+00  0.00000000E+00  0.00000000E+00
  0.00000000E+00  0.00000000E+00  0.00000000E+00
  0.00000000E+00  0.00000000E+00  0.00000000E+00
  0.00000000E+00  0.00000000E+00  0.00000000E+00
  0.00000000E+00  0.00000000E+00  0.00000000E+00
  0.00000000E+00  0.00000000E+00  0.00000000E+00
  0.00000000E+00  0.00000000E+00  0.00000000E+00
  0.00000000E+00  0.00000000E+00  0.00000000E+00
  0.00000000E+00  0.00000000E+00  0.00000000E+00
  0.00000000E+00  0.00000000E+00  0.00000000E+00
  0.00000000E+00  0.00000000E+00  0.00000000E+00
  0.00000000E+00  0.00000000E+00  0.00000000E+00
  0.00000000E+00  0.00000000E+00  0.00000000E+00
  0.00000000E+00  0.00000000E+00  0.00000000E+00
  0.00000000E+00  0.00000000E+00  0.00000000E+00
  0.00000000E+00  0.00000000E+00  0.00000000E+00
  0.00000000E+00  0.00000000E+00  0.00000000E+00
  0.00000000E+00  0.00000000E+00  0.00000000E+00
  0.00000000E+00  0.00000000E+00  0.00000000E+00
  0.00000000E+00  0.00000000E+00  0.00000000E+00
  0.00000000E+00  0.00000000E+00  0.00000000E+00
  0.00000000E+00  0.00000000E+00  0.00000000E+00
  0.00000000E+00  0.00000000E+00  0.00000000E+00
  0.00000000E+00  0.00000000E+00  0.00000000E+00
  0.00000000E+00  0.00000000E+00  0.00000000E+00
  0.00000000E+00  0.00000000E+00  0.00000000E+00
  0.00000000E+00  0.00000000E+00  0.00000000E+00
  0.00000000E+00  0.00000000E+00  0.00000000E+00
  0.00000000E+00  0.00000000E+00  0.00000000E+00
  0.00000000E+00  0.00000000E+00  0.00000000E+00
  0.00000000E+00  0.00000000E+00  0.00000000E+00
  0.00000000E+00  0.00000000E+00  0.00000000E+00
  0.00000000E+00  0.00000000E+00  0.00000000E+00
  0.00000000E+00  0.00000000E+00  0.00000000E+00
  0.00000000E+00  0.00000000E+00  0.00000000E+00
  0.00000000E+00  0.00000000E+00  0.00000000E+00
  0.00000000E+00  0.00000000E+00  0.00000000E+00
  0.00000000E+00  0.00000000E+00  0.00000000E+00
  0.00000000E+00  0.00000000E+00  0.00000000E+00
  0.00000000E+00  0.00000000E+00  0.00000000E+00
  0.00000000E+00  0.00000000E+00  0.00000000E+00
  0.00000000E+00  0.00000000E+00  0.00000000E+00
  0.00000000E+00  0.00000000E+00  0.00000000E+00
  0.00000000E+00  0.00000000E+00  0.00000000E+00
  0.00000000E+00  0.00000000E+00  0.00000000E+00
  0.00000000E+00  0.00000000E+00  0.00000000E+00
  0.00000000E+00  0.00000000E+00  0.00000000E+00
  0.00000000E+00  0.00000000E+00  0.00000000E+00
  0.00000000E+00  0.00000000E+00  0.00000000E+00
  0.00000000E+00  0.00000000E+00  0.00000000E+00
  0.00000000E+00  0.00000000E+00  0.00000000E+00
  0.00000000E+00  0.00000000E+00  0.00000000E+00
  0.00000000E+00  0.00000000E+00  0.00000000E+00
  0.00000000E+00  0.00000000E+00  0.00000000E+00
  0.00000000E+00  0.00000000E+00  0.00000000E+00
  0.00000000E+00  0.00000000E+00  0.00000000E+00
  0.00000000E+00  0.00000000E+00  0.00000000E+00
  0.00000000E+00  0.00000000E+00  0.00000000E+00
  0.00000000E+00  0.00000000E+00  0.00000000E+00
  0.00000000E+00  0.00000000E+00  0.00000000E+00
  0.00000000E+00  0.00000000E+00  0.00000000E+00
  0.00000000E+00  0.00000000E+00  0.00000000E+00
  0.00000000E+00  0.00000000E+00  0.00000000E+00
  0.00000000E+00  0.00000000E+00  0.00000000E+00
  0.00000000E+00  0.00000000E+00  0.00000000E+00
  0.00000000E+00  0.00000000E+00  0.00000000E+00
  0.00000000E+00  0.00000000E+00  0.00000000E+00
  0.00000000E+00  0.00000000E+00  0.00000000E+00
  0.00000000E+00  0.00000000E+00  0.00000000E+00
  0.00000000E+00  0.00000000E+00  0.00000000E+00
  0.00000000E+00  0.00000000E+00  0.00000000E+00
  0.00000000E+00  0.00000000E+00  0.00000000E+00
  0.00000000E+00  0.00000000E+00  0.00000000E+00
  0.00000000E+00  0.00000000E+00  0.00000000E+00
  0.00000000E+00  0.00000000E+00  0.00000000E+00
  0.00000000E+00  0.00000000E+00  0.00000000E+00
  0.00000000E+00  0.00000000E+00  0.00000000E+00
  0.00000000E+00  0.00000000E+00  0.00000000E+00
  0.00000000E+00  0.00000000E+00  0.00000000E+00
  0.00000000E+00  0.00000000E+00  0.00000000E+00
  0.00000000E+00  0.00000000E+00  0.00000000E+00
  0.00000000E+00  0.00000000E+00  0.00000000E+00
  0.00000000E+00  0.00000000E+00  0.00000000E+00
  0.00000000E+00  0.00000000E+00  0.00000000E+00
  0.00000000E+00  0.00000000E+00  0.00000000E+00
  0.00000000E+00  0.00000000E+00  0.00000000E+00
  0.00000000E+00  0.00000000E+00  0.00000000E+00
  0.00000000E+00  0.00000000E+00  0.00000000E+00
  0.00000000E+00  0.00000000E+00  0.00000000E+00
  0.00000000E+00  0.00000000E+00  0.00000000E+00
  0.00000000E+00  0.00000000E+00  0.00000000E+00
  0.00000000E+00  0.00000000E+00  0.00000000E+00
  0.00000000E+00  0.00000000E+00  0.00000000E+00
  0.00000000E+00  0.00000000E+00  0.00000000E+00
  0.00000000E+00  0.00000000E+00  0.00000000E+00
  0.00000000E+00  0.00000000E+00  0.00000000E+00
  0.00000000E+00  0.00000000E+00  0.00000000E+00
  0.00000000E+00  0.00000000E+00  0.00000000E+00
  0.00000000E+00  0.00000000E+00  0.00000000E+00
  0.00000000E+00  0.00000000E+00  0.00000000E+00
  0.00000000E+00  0.00000000E+00  0.00000000E+00
  0.00000000E+00  0.00000000E+00  0.00000000E+00
  0.00000000E+00  0.00000000E+00  0.00000000E+00
  0.00000000E+00  0.00000000E+00  0.00000000E+00
  0.00000000E+00  0.00000000E+00  0.00000000E+00
  0.00000000E+00  0.00000000E+00  0.00000000E+00
  0.00000000E+00  0.00000000E+00  0.00000000E+00
  0.00000000E+00  0.00000000E+00  0.00000000E+00
  0.00000000E+00  0.00000000E+00  0.00000000E+00
  0.00000000E+00  0.00000000E+00  0.00000000E+00
  0.00000000E+00  0.00000000E+00  0.00000000E+00
  0.00000000E+00  0.00000000E+00  0.00000000E+00
