H1 Pt1 C124 N2 O2                       
   1.00000000000000     
    19.8649832722391189   -0.0019747975706448    0.0713370930941688
    -9.9343894082308388   17.0471211976177415   -0.0168184429597733
     0.1067471331713570    0.0329165659611425   29.7162580247269617
   H    Pt   C    N    O 
     1     1   124     2     2
Direct
  0.5306728058114439  0.5524475472391127  0.5103191075907769
  0.4372069348622517  0.4998739442666559  0.4114726784783598
  0.0417946344604828  0.0840580360076360  0.3997711139663030
  0.0402886272522336  0.2078237880916949  0.3997962897389764
  0.0393786625312215  0.3324368372405133  0.3995402108563447
  0.0395855011575881  0.4581999552567383  0.3990711727228213
  0.0410520198667883  0.5839642827523506  0.3986658305981337
  0.0422565767501733  0.7095680594212619  0.3985787354171462
  0.0427600181804893  0.8349866521699447  0.3989811941170994
  0.0428051488407000  0.9600387852057047  0.3995093739483866
  0.1682456769210946  0.0862355133210180  0.4006596345006835
  0.1666742050531095  0.2098895541028940  0.4010136965974036
  0.1640055784674064  0.3333645857826957  0.4009268296448471
  0.1621802609577269  0.4582354660437855  0.4005176470884936
  0.1641384484117066  0.5838662537792814  0.4000372871705166
  0.1660998488643372  0.7095050863620468  0.3994237893319827
  0.1671624489483749  0.8350311469985009  0.3991514467648743
  0.1678192409604184  0.9606242965695039  0.3997760102306958
  0.2929873374669891  0.0860661828475768  0.4008526291524468
  0.2946906738627340  0.2135481349575421  0.4026588793058649
  0.2909910768657615  0.3371216857134592  0.4040068582323737
  0.2843284989102323  0.4582670067150347  0.4038744408231606
  0.2868057739343812  0.5843755564939475  0.4023677402980331
  0.2899249095751724  0.7092264957586603  0.4008816107467469
  0.2914334809685293  0.8344292227489294  0.3997208123321033
  0.2921774196827373  0.9599905994411437  0.3996554889800884
  0.4172500550041988  0.0841161790527262  0.4001082828086148
  0.4181082767076627  0.2100487765394225  0.4020425880813407
  0.4220395908114791  0.3384006534784320  0.4051718223714358
  0.4138349097076918  0.7063232936389001  0.4031300565142896
  0.4156617075560567  0.8324902788099113  0.4007858314347014
  0.4164892492948600  0.9582770304001269  0.3996153637219753
  0.5414940572605856  0.0821620030859714  0.3995330642870147
  0.5424006980941343  0.2076049625734328  0.4005249412756082
  0.5442026010178099  0.3327572076108390  0.4025793250518119
  0.5478984038979939  0.4567666772103740  0.4054529821724729
  0.5483331554671190  0.5807205621315514  0.4074520965390659
  0.5381897212683051  0.7022226106358497  0.4047524283851583
  0.5397703424581256  0.8300945034663576  0.4020397328836811
  0.5408523709942642  0.9564063801907082  0.4001044839695279
  0.6658167645115801  0.0813328626856469  0.3993892536444845
  0.6666602537177937  0.2069314488065311  0.3993601761567353
  0.6679864074634908  0.3323982672412003  0.4002053890749146
  0.6707113749666003  0.4581669053035834  0.4014152925556975
  0.6720485943000445  0.5833993919672626  0.4024579672813510
  0.6674772472461908  0.7066929004976337  0.4024435459453571
  0.6647645345580762  0.8298587149689018  0.4017765709002150
  0.6652757422530186  0.9557240924677326  0.4004790911445079
  0.7904336810927471  0.0813402300530559  0.3993861363505268
  0.7908050518229154  0.2066780599385716  0.3988395427343285
  0.7918385739295748  0.3323433091523911  0.3987876744060410
  0.7934397816731746  0.4581336525662519  0.3990797598081098
  0.7947920739149860  0.5837995527209244  0.3997663450634772
  0.7937583048897343  0.7088163253038572  0.4003299247309200
  0.7918610187475555  0.8326355588808836  0.4003119859917003
  0.7903723810693977  0.9563263577083527  0.4000025979978947
  0.9156795110172926  0.0822377089412366  0.3993893568097273
  0.9152198549739483  0.2069528664288715  0.3991626050389444
  0.9155108947400908  0.3323240983917183  0.3987133686264819
  0.9164937737311450  0.4580665079507532  0.3982883032184927
  0.9179302248509563  0.5839504642417842  0.3984293121962225
  0.9182700216443955  0.7094825758604104  0.3990042934606187
  0.9178188385104306  0.8342558364031963  0.3994145388309173
  0.9167365778855681  0.9582861846854132  0.3994623640581462
  0.0845787373046749  0.0436973879257388  0.3999495206429665
  0.0830824126418939  0.1673809404621204  0.4001127180858848
  0.0811690073671787  0.2911763049882786  0.3999976727078622
  0.0801207505736511  0.4161779168546973  0.3996130456945897
  0.0814886206367001  0.5418577069319622  0.3991894996385291
  0.0831363364206528  0.6676726801094819  0.3988262725876967
  0.0841374260752537  0.7933247611968965  0.3988147274447875
  0.0845174832857800  0.9186619832197384  0.3994067255196658
  0.2096384319234036  0.0442749340650956  0.4005045548587157
  0.2101398889096347  0.1701686622539627  0.4014826002380695
  0.2074449432807078  0.2933242344484919  0.4017172232669555
  0.2028193216212018  0.4165637004707420  0.4014607086768715
  0.2041675329688045  0.5418141018853887  0.4008903407468868
  0.2069099856944954  0.6676043069990998  0.4001233332304908
  0.2082815875859936  0.7930868684486472  0.3994078950957846
  0.2091309378549402  0.9186586769633204  0.3995201955963310
  0.3340587449730592  0.0435883544562395  0.4001534117179839
  0.3350978819630402  0.1699048900738444  0.4019534320014514
  0.3365973232617657  0.2977773443090934  0.4043493757594223
  0.3264430306037729  0.4192617575341876  0.4059576965140007
  0.3268870478894091  0.5431522569128271  0.4043467093393884
  0.3306394051209185  0.6672264548335470  0.4022136145828630
  0.3325068653675364  0.7924133739568424  0.4004300497272720
  0.3334593537655517  0.9178441226078347  0.3995589983848835
  0.4584659451967626  0.0417257045517286  0.3996311201226250
  0.4592334410841745  0.1675064155145123  0.4008568235686848
  0.4610007437909907  0.2936634847737977  0.4033078876250542
  0.4527628307503960  0.6615985767044501  0.4050521193676811
  0.4567647188168982  0.7899525863805684  0.4020205602829774
  0.4576779059214188  0.9158926383858450  0.4000605367658218
  0.5827732765973680  0.0400117736964631  0.3995594795884410
  0.5835036107411037  0.1655805788515481  0.3997252639345402
  0.5849709856245815  0.2907752642619724  0.4010646880182615
  0.5880564829300775  0.4156083461927975  0.4031114939344916
  0.5905394825649963  0.5417003988072683  0.4053007446867149
  0.5838546698014646  0.6628754747731375  0.4049223707819683
  0.5801833271650425  0.7864786287335619  0.4029502208624933
  0.5819237825087564  0.9139480904920664  0.4008476028925110
  0.7071174666819571  0.0393748953566874  0.3996841307893724
  0.7077766465819779  0.1649651904743919  0.3990596615251452
  0.7088466857145754  0.2905113815578535  0.3993819293389180
  0.7107700033750814  0.4161272512823510  0.4001418621395153
  0.7127262015145401  0.5417475745197777  0.4011014976375755
  0.7109027627736432  0.6666352621928450  0.4016738482237484
  0.7082515666450094  0.7901328546904112  0.4014169594076440
  0.7066765750778466  0.9137827055699240  0.4007463412862685
  0.8321601923933822  0.0399803413600846  0.3995286403510050
  0.8321788066148149  0.1650131687410933  0.3990344168704348
  0.8327152627563581  0.2904261726247603  0.3986522628151833
  0.8338978518355263  0.4160357059465888  0.3985551836447903
  0.8353520949966636  0.5418009009646459  0.3989661053914717
  0.8355346803933114  0.6675459061614052  0.3996420636061329
  0.8346340892595473  0.7921714413924626  0.3999508133464899
  0.8331577260577591  0.9159579307933274  0.3998495127288704
  0.9582431206318371  0.0417288740944956  0.3994478974176080
  0.9571278472299536  0.1657472378007649  0.3994112932134095
  0.9566716143474731  0.2904952140025993  0.3991068014923203
  0.9570327191336842  0.4160567207991248  0.3985903288258382
  0.9584817213108699  0.5419429530240786  0.3982740876370262
  0.9594560571130102  0.6676779706983864  0.3985572353718449
  0.9597078943037333  0.7930330607474504  0.3990928169569944
  0.9592892082785590  0.9177666006365109  0.3993785207424395
  0.4060777915993680  0.5809858608537111  0.4062390560290765
  0.4686819131757198  0.4189183669512933  0.4068366583485556
  0.4922543061243658  0.4961847029342093  0.5081703803925461
  0.4290345008803241  0.4958824025225840  0.4867195558209943
 
  0.00000000E+00  0.00000000E+00  0.00000000E+00
  0.00000000E+00  0.00000000E+00  0.00000000E+00
  0.00000000E+00  0.00000000E+00  0.00000000E+00
  0.00000000E+00  0.00000000E+00  0.00000000E+00
  0.00000000E+00  0.00000000E+00  0.00000000E+00
  0.00000000E+00  0.00000000E+00  0.00000000E+00
  0.00000000E+00  0.00000000E+00  0.00000000E+00
  0.00000000E+00  0.00000000E+00  0.00000000E+00
  0.00000000E+00  0.00000000E+00  0.00000000E+00
  0.00000000E+00  0.00000000E+00  0.00000000E+00
  0.00000000E+00  0.00000000E+00  0.00000000E+00
  0.00000000E+00  0.00000000E+00  0.00000000E+00
  0.00000000E+00  0.00000000E+00  0.00000000E+00
  0.00000000E+00  0.00000000E+00  0.00000000E+00
  0.00000000E+00  0.00000000E+00  0.00000000E+00
  0.00000000E+00  0.00000000E+00  0.00000000E+00
  0.00000000E+00  0.00000000E+00  0.00000000E+00
  0.00000000E+00  0.00000000E+00  0.00000000E+00
  0.00000000E+00  0.00000000E+00  0.00000000E+00
  0.00000000E+00  0.00000000E+00  0.00000000E+00
  0.00000000E+00  0.00000000E+00  0.00000000E+00
  0.00000000E+00  0.00000000E+00  0.00000000E+00
  0.00000000E+00  0.00000000E+00  0.00000000E+00
  0.00000000E+00  0.00000000E+00  0.00000000E+00
  0.00000000E+00  0.00000000E+00  0.00000000E+00
  0.00000000E+00  0.00000000E+00  0.00000000E+00
  0.00000000E+00  0.00000000E+00  0.00000000E+00
  0.00000000E+00  0.00000000E+00  0.00000000E+00
  0.00000000E+00  0.00000000E+00  0.00000000E+00
  0.00000000E+00  0.00000000E+00  0.00000000E+00
  0.00000000E+00  0.00000000E+00  0.00000000E+00
  0.00000000E+00  0.00000000E+00  0.00000000E+00
  0.00000000E+00  0.00000000E+00  0.00000000E+00
  0.00000000E+00  0.00000000E+00  0.00000000E+00
  0.00000000E+00  0.00000000E+00  0.00000000E+00
  0.00000000E+00  0.00000000E+00  0.00000000E+00
  0.00000000E+00  0.00000000E+00  0.00000000E+00
  0.00000000E+00  0.00000000E+00  0.00000000E+00
  0.00000000E+00  0.00000000E+00  0.00000000E+00
  0.00000000E+00  0.00000000E+00  0.00000000E+00
  0.00000000E+00  0.00000000E+00  0.00000000E+00
  0.00000000E+00  0.00000000E+00  0.00000000E+00
  0.00000000E+00  0.00000000E+00  0.00000000E+00
  0.00000000E+00  0.00000000E+00  0.00000000E+00
  0.00000000E+00  0.00000000E+00  0.00000000E+00
  0.00000000E+00  0.00000000E+00  0.00000000E+00
  0.00000000E+00  0.00000000E+00  0.00000000E+00
  0.00000000E+00  0.00000000E+00  0.00000000E+00
  0.00000000E+00  0.00000000E+00  0.00000000E+00
  0.00000000E+00  0.00000000E+00  0.00000000E+00
  0.00000000E+00  0.00000000E+00  0.00000000E+00
  0.00000000E+00  0.00000000E+00  0.00000000E+00
  0.00000000E+00  0.00000000E+00  0.00000000E+00
  0.00000000E+00  0.00000000E+00  0.00000000E+00
  0.00000000E+00  0.00000000E+00  0.00000000E+00
  0.00000000E+00  0.00000000E+00  0.00000000E+00
  0.00000000E+00  0.00000000E+00  0.00000000E+00
  0.00000000E+00  0.00000000E+00  0.00000000E+00
  0.00000000E+00  0.00000000E+00  0.00000000E+00
  0.00000000E+00  0.00000000E+00  0.00000000E+00
  0.00000000E+00  0.00000000E+00  0.00000000E+00
  0.00000000E+00  0.00000000E+00  0.00000000E+00
  0.00000000E+00  0.00000000E+00  0.00000000E+00
  0.00000000E+00  0.00000000E+00  0.00000000E+00
  0.00000000E+00  0.00000000E+00  0.00000000E+00
  0.00000000E+00  0.00000000E+00  0.00000000E+00
  0.00000000E+00  0.00000000E+00  0.00000000E+00
  0.00000000E+00  0.00000000E+00  0.00000000E+00
  0.00000000E+00  0.00000000E+00  0.00000000E+00
  0.00000000E+00  0.00000000E+00  0.00000000E+00
  0.00000000E+00  0.00000000E+00  0.00000000E+00
  0.00000000E+00  0.00000000E+00  0.00000000E+00
  0.00000000E+00  0.00000000E+00  0.00000000E+00
  0.00000000E+00  0.00000000E+00  0.00000000E+00
  0.00000000E+00  0.00000000E+00  0.00000000E+00
  0.00000000E+00  0.00000000E+00  0.00000000E+00
  0.00000000E+00  0.00000000E+00  0.00000000E+00
  0.00000000E+00  0.00000000E+00  0.00000000E+00
  0.00000000E+00  0.00000000E+00  0.00000000E+00
  0.00000000E+00  0.00000000E+00  0.00000000E+00
  0.00000000E+00  0.00000000E+00  0.00000000E+00
  0.00000000E+00  0.00000000E+00  0.00000000E+00
  0.00000000E+00  0.00000000E+00  0.00000000E+00
  0.00000000E+00  0.00000000E+00  0.00000000E+00
  0.00000000E+00  0.00000000E+00  0.00000000E+00
  0.00000000E+00  0.00000000E+00  0.00000000E+00
  0.00000000E+00  0.00000000E+00  0.00000000E+00
  0.00000000E+00  0.00000000E+00  0.00000000E+00
  0.00000000E+00  0.00000000E+00  0.00000000E+00
  0.00000000E+00  0.00000000E+00  0.00000000E+00
  0.00000000E+00  0.00000000E+00  0.00000000E+00
  0.00000000E+00  0.00000000E+00  0.00000000E+00
  0.00000000E+00  0.00000000E+00  0.00000000E+00
  0.00000000E+00  0.00000000E+00  0.00000000E+00
  0.00000000E+00  0.00000000E+00  0.00000000E+00
  0.00000000E+00  0.00000000E+00  0.00000000E+00
  0.00000000E+00  0.00000000E+00  0.00000000E+00
  0.00000000E+00  0.00000000E+00  0.00000000E+00
  0.00000000E+00  0.00000000E+00  0.00000000E+00
  0.00000000E+00  0.00000000E+00  0.00000000E+00
  0.00000000E+00  0.00000000E+00  0.00000000E+00
  0.00000000E+00  0.00000000E+00  0.00000000E+00
  0.00000000E+00  0.00000000E+00  0.00000000E+00
  0.00000000E+00  0.00000000E+00  0.00000000E+00
  0.00000000E+00  0.00000000E+00  0.00000000E+00
  0.00000000E+00  0.00000000E+00  0.00000000E+00
  0.00000000E+00  0.00000000E+00  0.00000000E+00
  0.00000000E+00  0.00000000E+00  0.00000000E+00
  0.00000000E+00  0.00000000E+00  0.00000000E+00
  0.00000000E+00  0.00000000E+00  0.00000000E+00
  0.00000000E+00  0.00000000E+00  0.00000000E+00
  0.00000000E+00  0.00000000E+00  0.00000000E+00
  0.00000000E+00  0.00000000E+00  0.00000000E+00
  0.00000000E+00  0.00000000E+00  0.00000000E+00
  0.00000000E+00  0.00000000E+00  0.00000000E+00
  0.00000000E+00  0.00000000E+00  0.00000000E+00
  0.00000000E+00  0.00000000E+00  0.00000000E+00
  0.00000000E+00  0.00000000E+00  0.00000000E+00
  0.00000000E+00  0.00000000E+00  0.00000000E+00
  0.00000000E+00  0.00000000E+00  0.00000000E+00
  0.00000000E+00  0.00000000E+00  0.00000000E+00
  0.00000000E+00  0.00000000E+00  0.00000000E+00
  0.00000000E+00  0.00000000E+00  0.00000000E+00
  0.00000000E+00  0.00000000E+00  0.00000000E+00
  0.00000000E+00  0.00000000E+00  0.00000000E+00
  0.00000000E+00  0.00000000E+00  0.00000000E+00
  0.00000000E+00  0.00000000E+00  0.00000000E+00
  0.00000000E+00  0.00000000E+00  0.00000000E+00
  0.00000000E+00  0.00000000E+00  0.00000000E+00
  0.00000000E+00  0.00000000E+00  0.00000000E+00
