Zn1 H1 C123 N3 O2                       
   1.00000000000000     
    19.8217297455549009    0.0160384920290919   -0.0910769368409676
    -9.8972356162212307   17.0281911525590495    0.2639692781372237
    -0.1372227411719754    0.3817093311397549   29.8035765691352168
   Zn   H    C    N    O 
     1     1   123     3     2
Direct
  0.4379941257757226  0.4963343762637425  0.4300181058727238
  0.5300665963865075  0.5536012855546827  0.5248740773993390
  0.0416040937417429  0.0837312746317205  0.3999251465114936
  0.0402115464479043  0.2075877779360031  0.3997708238502743
  0.0396550789189474  0.3323726863613937  0.3991749827588528
  0.0401411509188101  0.4579095581937486  0.3989761407104403
  0.0414107771802757  0.5835244627248543  0.3992894612648809
  0.0424263610557493  0.7090949653514690  0.3992691568146152
  0.0428329454631661  0.8345745486285016  0.3992875590514044
  0.0426972140070517  0.9596235199172136  0.3997227068605332
  0.1678556440930808  0.0855767531521631  0.4004174505714360
  0.1664104699417849  0.2094018576037786  0.4006826155907606
  0.1641466432320626  0.3328836958695999  0.3999491227212421
  0.1636098624708821  0.4578666826746399  0.3988872387134371
  0.1651451905204313  0.5832007862435509  0.3991298223727548
  0.1665325933806760  0.7087977560065795  0.3996743677751016
  0.1673420506518208  0.8344271143469114  0.3997060434650632
  0.1677541531259097  0.9600787251563243  0.3998974967005030
  0.2927562993756217  0.0857678422212343  0.4004654516367596
  0.2935011407888966  0.2129840442661188  0.4016543932947567
  0.2907356454290669  0.3377171929288111  0.4026579546447478
  0.2867308684909387  0.4560091852471393  0.4008113280793899
  0.2885741834238266  0.5826605189102628  0.3995747343826334
  0.2905954774156210  0.7081144272214044  0.3998565028465456
  0.2916933895761259  0.8336444011789950  0.4000802909203857
  0.2922396958077957  0.9595191789573430  0.4001286051708743
  0.4170839592013161  0.0839056905741084  0.4000285239931606
  0.4177528206848657  0.2101079831421297  0.4001713523364095
  0.4203090072632132  0.3378053154339197  0.4043727203563602
  0.4145737504746811  0.7053699066323528  0.4011241842500478
  0.4160149377210752  0.8318056518353560  0.4002767464723200
  0.4165959320727062  0.9578723340956758  0.4001843296294950
  0.5413959483633949  0.0822316611982612  0.4000418840643454
  0.5420523067147914  0.2081082091962218  0.3994931287228265
  0.5433275140624089  0.3338949459868635  0.3992277260767860
  0.5459257511007862  0.4586338196466525  0.4022862525920819
  0.5385087026439853  0.7008621775504579  0.4030674120541415
  0.5401319637152201  0.8293942052348576  0.4012219319361118
  0.5409071813333228  0.9560981048213574  0.4002271267751031
  0.6657521993389675  0.0814372759064218  0.3998470700447156
  0.6663602163080202  0.2071582796845870  0.3997853884876573
  0.6673540214728325  0.3327754129259375  0.3990419634702868
  0.6694628707188431  0.4584503596242867  0.3983404207033249
  0.6711942241261405  0.5843275386731288  0.4004991869201326
  0.6678396576891370  0.7068608350473307  0.4019916380177168
  0.6648632804740654  0.8297523847360389  0.4015285564686242
  0.6653309906977924  0.9556840534271782  0.4003755370883216
  0.7903627034259136  0.0814273275755878  0.3996333571276945
  0.7906764857009648  0.2068429643076459  0.3994541487893692
  0.7914528820192186  0.3324358938582506  0.3995375438193763
  0.7928772740253359  0.4582058310556886  0.3992623134436430
  0.7939874697096754  0.5837213607170176  0.3993547099727007
  0.7940502867767786  0.7090601239468474  0.4003044403903501
  0.7919073650453643  0.8326141740614704  0.4005920456982028
  0.7903754105391605  0.9563484908278337  0.4001772127801280
  0.9155281845422419  0.0821221706449006  0.3996605135700235
  0.9152081541362455  0.2069929460471963  0.3993508058090309
  0.9155047442511772  0.3323703377413932  0.3991814137202193
  0.9164849138566582  0.4579706083902698  0.3993182581270551
  0.9177103878624718  0.5836910246582345  0.3992784348802498
  0.9182713750827864  0.7091843903575563  0.3993840147496871
  0.9179443339281602  0.8341578595292974  0.3996652210821920
  0.9167112163301998  0.9581605803475245  0.3997419853936858
  0.0842961876648592  0.0431663655567557  0.4000351491525644
  0.0829384594388863  0.1670571419861339  0.4001116788556491
  0.0811145064639649  0.2908408184130555  0.3995689716936792
  0.0810971412684017  0.4160482549014368  0.3989152547670909
  0.0822400626507455  0.5415019555126769  0.3991154653810370
  0.0835041462064861  0.6671450286993745  0.3994208748071553
  0.0842677460888799  0.7927750680259693  0.3993347731391158
  0.0844878289837939  0.9181743344075080  0.3995950118544832
  0.2094722267866991  0.0437433530814684  0.4003219205459015
  0.2095010366671283  0.1693492208665638  0.4009173043394060
  0.2071149581665496  0.2927681531999349  0.4009231073170565
  0.2043749578197813  0.4160588821504484  0.3995522819907902
  0.2057560006901445  0.5412184192333876  0.3989338665280585
  0.2075948880159710  0.6668387168366462  0.3995530360257204
  0.2085768935265777  0.7923510505225831  0.3998986576436420
  0.2091477823410939  0.9180676710908434  0.3999098799934679
  0.3339415791147954  0.0432045195636003  0.4001958054641843
  0.3345804377471498  0.1697132519854331  0.4008940392937042
  0.3356371504265174  0.2971546221074516  0.4034594920123334
  0.3306888696309707  0.5422304220330805  0.4009032725285109
  0.3315510507599346  0.6658031654743233  0.4001351166416425
  0.3328704791864804  0.7914052179242738  0.4000812161898920
  0.3335254012230445  0.9171952488015801  0.4001655337434466
  0.4583200374595682  0.0414331631323886  0.4001127944301007
  0.4588785523859407  0.1674356862073463  0.3996769703993709
  0.4599754144769539  0.2936876435474930  0.4006525050904478
  0.4656761492558757  0.4200240531252826  0.4092871831512111
  0.4531722714038891  0.6597964119806305  0.4027743376165879
  0.4570906436429837  0.7890770841002801  0.4008337572771136
  0.4578001219197413  0.9153602656321010  0.4002143043332781
  0.5826263030875147  0.0398778244443935  0.4000496766044920
  0.5832400564895762  0.1658624516755444  0.3998285675928774
  0.5842566241161161  0.2916089912160371  0.3990590082954240
  0.5867876758157780  0.4172876579310405  0.3986051624266907
  0.5890632292680446  0.5440952975739735  0.4022195143918778
  0.5841659050018970  0.6615443881559947  0.4032261050596102
  0.5806305415652288  0.7856179095224619  0.4020592207147370
  0.5820309283033828  0.9134827862720970  0.4005745857819761
  0.7071085836815308  0.0394194618531971  0.3998654767121393
  0.7075605669025342  0.1651471994501666  0.3997330272518749
  0.7083610532796700  0.2907488005816022  0.3995261226701545
  0.7100212488193957  0.4164560759517210  0.3988082751366787
  0.7115295950228990  0.5419793117752534  0.3991960247047665
  0.7111875166598384  0.6671635455636924  0.4010181687931175
  0.7083301660840079  0.7901321690900196  0.4014686770107337
  0.7067070403288727  0.9137276851070505  0.4006872701412406
  0.8320921322347308  0.0399650350203592  0.3997681749216787
  0.8320431352513787  0.1650745856649444  0.3993913905719362
  0.8325398413346327  0.2905285502542641  0.3994081686138388
  0.8336446765216997  0.4161364346898078  0.3994462411316785
  0.8349112689701950  0.5417988289056268  0.3992435113029835
  0.8353630399108832  0.6673866066327184  0.3997056257399909
  0.8347519720162145  0.7922159926726343  0.4002162163407463
  0.8331901473621224  0.9159089944852625  0.4001026796185714
  0.9580984019204407  0.0415046177890186  0.3997030406356276
  0.9570002598611089  0.1655740939170765  0.3995739444299097
  0.9567386035416444  0.2905561979031340  0.3991796031391620
  0.9573164873421941  0.4160021485087350  0.3991373572530489
  0.9585785696155742  0.5416901286772539  0.3992865963060010
  0.9595099603005918  0.6673426814897175  0.3992257343687419
  0.9597098939455557  0.7927146136472316  0.3993624492624548
  0.9593141460517712  0.9175545645435110  0.3996620842477698
  0.4090060075385477  0.5797690548498965  0.4033392559480051
  0.5488461749126015  0.5822240822629298  0.4037052827680586
  0.3258714831751681  0.4172362555164214  0.4029131960875847
  0.4883644430432594  0.5026049921991025  0.5150802540914829
  0.4377167182792728  0.5260719471180187  0.4914816679311745
 
  0.00000000E+00  0.00000000E+00  0.00000000E+00
  0.00000000E+00  0.00000000E+00  0.00000000E+00
  0.00000000E+00  0.00000000E+00  0.00000000E+00
  0.00000000E+00  0.00000000E+00  0.00000000E+00
  0.00000000E+00  0.00000000E+00  0.00000000E+00
  0.00000000E+00  0.00000000E+00  0.00000000E+00
  0.00000000E+00  0.00000000E+00  0.00000000E+00
  0.00000000E+00  0.00000000E+00  0.00000000E+00
  0.00000000E+00  0.00000000E+00  0.00000000E+00
  0.00000000E+00  0.00000000E+00  0.00000000E+00
  0.00000000E+00  0.00000000E+00  0.00000000E+00
  0.00000000E+00  0.00000000E+00  0.00000000E+00
  0.00000000E+00  0.00000000E+00  0.00000000E+00
  0.00000000E+00  0.00000000E+00  0.00000000E+00
  0.00000000E+00  0.00000000E+00  0.00000000E+00
  0.00000000E+00  0.00000000E+00  0.00000000E+00
  0.00000000E+00  0.00000000E+00  0.00000000E+00
  0.00000000E+00  0.00000000E+00  0.00000000E+00
  0.00000000E+00  0.00000000E+00  0.00000000E+00
  0.00000000E+00  0.00000000E+00  0.00000000E+00
  0.00000000E+00  0.00000000E+00  0.00000000E+00
  0.00000000E+00  0.00000000E+00  0.00000000E+00
  0.00000000E+00  0.00000000E+00  0.00000000E+00
  0.00000000E+00  0.00000000E+00  0.00000000E+00
  0.00000000E+00  0.00000000E+00  0.00000000E+00
  0.00000000E+00  0.00000000E+00  0.00000000E+00
  0.00000000E+00  0.00000000E+00  0.00000000E+00
  0.00000000E+00  0.00000000E+00  0.00000000E+00
  0.00000000E+00  0.00000000E+00  0.00000000E+00
  0.00000000E+00  0.00000000E+00  0.00000000E+00
  0.00000000E+00  0.00000000E+00  0.00000000E+00
  0.00000000E+00  0.00000000E+00  0.00000000E+00
  0.00000000E+00  0.00000000E+00  0.00000000E+00
  0.00000000E+00  0.00000000E+00  0.00000000E+00
  0.00000000E+00  0.00000000E+00  0.00000000E+00
  0.00000000E+00  0.00000000E+00  0.00000000E+00
  0.00000000E+00  0.00000000E+00  0.00000000E+00
  0.00000000E+00  0.00000000E+00  0.00000000E+00
  0.00000000E+00  0.00000000E+00  0.00000000E+00
  0.00000000E+00  0.00000000E+00  0.00000000E+00
  0.00000000E+00  0.00000000E+00  0.00000000E+00
  0.00000000E+00  0.00000000E+00  0.00000000E+00
  0.00000000E+00  0.00000000E+00  0.00000000E+00
  0.00000000E+00  0.00000000E+00  0.00000000E+00
  0.00000000E+00  0.00000000E+00  0.00000000E+00
  0.00000000E+00  0.00000000E+00  0.00000000E+00
  0.00000000E+00  0.00000000E+00  0.00000000E+00
  0.00000000E+00  0.00000000E+00  0.00000000E+00
  0.00000000E+00  0.00000000E+00  0.00000000E+00
  0.00000000E+00  0.00000000E+00  0.00000000E+00
  0.00000000E+00  0.00000000E+00  0.00000000E+00
  0.00000000E+00  0.00000000E+00  0.00000000E+00
  0.00000000E+00  0.00000000E+00  0.00000000E+00
  0.00000000E+00  0.00000000E+00  0.00000000E+00
  0.00000000E+00  0.00000000E+00  0.00000000E+00
  0.00000000E+00  0.00000000E+00  0.00000000E+00
  0.00000000E+00  0.00000000E+00  0.00000000E+00
  0.00000000E+00  0.00000000E+00  0.00000000E+00
  0.00000000E+00  0.00000000E+00  0.00000000E+00
  0.00000000E+00  0.00000000E+00  0.00000000E+00
  0.00000000E+00  0.00000000E+00  0.00000000E+00
  0.00000000E+00  0.00000000E+00  0.00000000E+00
  0.00000000E+00  0.00000000E+00  0.00000000E+00
  0.00000000E+00  0.00000000E+00  0.00000000E+00
  0.00000000E+00  0.00000000E+00  0.00000000E+00
  0.00000000E+00  0.00000000E+00  0.00000000E+00
  0.00000000E+00  0.00000000E+00  0.00000000E+00
  0.00000000E+00  0.00000000E+00  0.00000000E+00
  0.00000000E+00  0.00000000E+00  0.00000000E+00
  0.00000000E+00  0.00000000E+00  0.00000000E+00
  0.00000000E+00  0.00000000E+00  0.00000000E+00
  0.00000000E+00  0.00000000E+00  0.00000000E+00
  0.00000000E+00  0.00000000E+00  0.00000000E+00
  0.00000000E+00  0.00000000E+00  0.00000000E+00
  0.00000000E+00  0.00000000E+00  0.00000000E+00
  0.00000000E+00  0.00000000E+00  0.00000000E+00
  0.00000000E+00  0.00000000E+00  0.00000000E+00
  0.00000000E+00  0.00000000E+00  0.00000000E+00
  0.00000000E+00  0.00000000E+00  0.00000000E+00
  0.00000000E+00  0.00000000E+00  0.00000000E+00
  0.00000000E+00  0.00000000E+00  0.00000000E+00
  0.00000000E+00  0.00000000E+00  0.00000000E+00
  0.00000000E+00  0.00000000E+00  0.00000000E+00
  0.00000000E+00  0.00000000E+00  0.00000000E+00
  0.00000000E+00  0.00000000E+00  0.00000000E+00
  0.00000000E+00  0.00000000E+00  0.00000000E+00
  0.00000000E+00  0.00000000E+00  0.00000000E+00
  0.00000000E+00  0.00000000E+00  0.00000000E+00
  0.00000000E+00  0.00000000E+00  0.00000000E+00
  0.00000000E+00  0.00000000E+00  0.00000000E+00
  0.00000000E+00  0.00000000E+00  0.00000000E+00
  0.00000000E+00  0.00000000E+00  0.00000000E+00
  0.00000000E+00  0.00000000E+00  0.00000000E+00
  0.00000000E+00  0.00000000E+00  0.00000000E+00
  0.00000000E+00  0.00000000E+00  0.00000000E+00
  0.00000000E+00  0.00000000E+00  0.00000000E+00
  0.00000000E+00  0.00000000E+00  0.00000000E+00
  0.00000000E+00  0.00000000E+00  0.00000000E+00
  0.00000000E+00  0.00000000E+00  0.00000000E+00
  0.00000000E+00  0.00000000E+00  0.00000000E+00
  0.00000000E+00  0.00000000E+00  0.00000000E+00
  0.00000000E+00  0.00000000E+00  0.00000000E+00
  0.00000000E+00  0.00000000E+00  0.00000000E+00
  0.00000000E+00  0.00000000E+00  0.00000000E+00
  0.00000000E+00  0.00000000E+00  0.00000000E+00
  0.00000000E+00  0.00000000E+00  0.00000000E+00
  0.00000000E+00  0.00000000E+00  0.00000000E+00
  0.00000000E+00  0.00000000E+00  0.00000000E+00
  0.00000000E+00  0.00000000E+00  0.00000000E+00
  0.00000000E+00  0.00000000E+00  0.00000000E+00
  0.00000000E+00  0.00000000E+00  0.00000000E+00
  0.00000000E+00  0.00000000E+00  0.00000000E+00
  0.00000000E+00  0.00000000E+00  0.00000000E+00
  0.00000000E+00  0.00000000E+00  0.00000000E+00
  0.00000000E+00  0.00000000E+00  0.00000000E+00
  0.00000000E+00  0.00000000E+00  0.00000000E+00
  0.00000000E+00  0.00000000E+00  0.00000000E+00
  0.00000000E+00  0.00000000E+00  0.00000000E+00
  0.00000000E+00  0.00000000E+00  0.00000000E+00
  0.00000000E+00  0.00000000E+00  0.00000000E+00
  0.00000000E+00  0.00000000E+00  0.00000000E+00
  0.00000000E+00  0.00000000E+00  0.00000000E+00
  0.00000000E+00  0.00000000E+00  0.00000000E+00
  0.00000000E+00  0.00000000E+00  0.00000000E+00
  0.00000000E+00  0.00000000E+00  0.00000000E+00
  0.00000000E+00  0.00000000E+00  0.00000000E+00
  0.00000000E+00  0.00000000E+00  0.00000000E+00
  0.00000000E+00  0.00000000E+00  0.00000000E+00
  0.00000000E+00  0.00000000E+00  0.00000000E+00
  0.00000000E+00  0.00000000E+00  0.00000000E+00
