W1 C126                                 
   1.00000000000000     
    19.8091203639275975   -0.0000344453760544   -0.0007871171496427
    -9.9045900602625032   17.0788593357498755    0.0001257292439636
    -0.0011834909069652   -0.0004682040999328   29.7425677014970091
   W    C 
     1   126
Direct
  0.4375256530091943  0.5000004740074256  0.4292282276887983
  0.0417035182898297  0.0835605108999122  0.3998835850809066
  0.0410609016038192  0.2079750136044422  0.3997065025843234
  0.0407219331683031  0.3328761545249972  0.3998717647355691
  0.0407468508437646  0.4582674633375428  0.3998551241149423
  0.0413645472010709  0.5835656157652580  0.3998844193956215
  0.0418853848697817  0.7087691413542481  0.3999943926923156
  0.0420759204855252  0.8339319496104665  0.4000002094683099
  0.0420641240542199  0.9589273070602660  0.3999859254283846
  0.1671434821060333  0.0842366915505472  0.3998500336240987
  0.1667838599969401  0.2089519660474922  0.3995490126464757
  0.1653951873801676  0.3330080273446855  0.4000620569981298
  0.1645049170448959  0.4581971830183900  0.4004259703745318
  0.1654436061165056  0.5835594662183992  0.3999370308718051
  0.1664722386862726  0.7087872071478369  0.3998847816867221
  0.1668482851825095  0.8339277989445555  0.3999930530471424
  0.1670537415385089  0.9591202363167326  0.3999815069078745
  0.2920892571097162  0.0842346978242010  0.3998397492061950
  0.2925858328998662  0.2101681171342188  0.3998651887693505
  0.2920944543339803  0.3353806696110194  0.4009374157707326
  0.2876451812999009  0.4576652926417171  0.4023925784725542
  0.2891706143557544  0.5838999535059665  0.4009140262072635
  0.2910216024617764  0.7087979116205867  0.3997862029577982
  0.2915801228460551  0.8337326112749602  0.3998564160914894
  0.2918486189868664  0.9589132250650343  0.3999679555302820
  0.4168481321978263  0.0835522225306348  0.3998737310080787
  0.4171691304421117  0.2089556318019833  0.3995432116548032
  0.4182903451176044  0.3353704522031146  0.4009286951597666
  0.4121087128495938  0.5817139531971471  0.4033787797360665
  0.4157812748573287  0.7075492155351644  0.3997985949044038
  0.4163497227724911  0.8330720910448425  0.3996499912460151
  0.4166021762461262  0.9583103573758041  0.3999810292868171
  0.5415860165300831  0.0828884370150695  0.3999627580767984
  0.5419130239169843  0.2079683591104139  0.3997132028871446
  0.5426093005787808  0.3329988805330966  0.4000725468835489
  0.5450348952319526  0.4576634366018977  0.4023998324868583
  0.5446249140246689  0.5817235799876951  0.4033685742329239
  0.5406837833942444  0.7063637503745086  0.4006727538868887
  0.5410945762348938  0.8322581295734730  0.3997335551347972
  0.5414011783888217  0.9576565121108719  0.3999193623621221
  0.6663619924979783  0.0826233477822293  0.3999974735099055
  0.6666330170389817  0.2077915345302411  0.3999212523748570
  0.6671475440350272  0.3328678809774807  0.3998695368101132
  0.6686950056591324  0.4581962787573334  0.4004405257868998
  0.6697401950163362  0.5839052775644445  0.4009359456718238
  0.6667793451562163  0.7075589541842388  0.3998093592323121
  0.6661587821969145  0.8322578844346191  0.3997301841321130
  0.6662292712256018  0.9574660105199931  0.3999113232232058
  0.7912504967562701  0.0826238526980319  0.3999865265638157
  0.7913485228416659  0.2077020303051617  0.4000168227400824
  0.7917155960844878  0.3329324602325606  0.3999301729233285
  0.7925238035481259  0.4582651059723034  0.3998434096996471
  0.7931199870164017  0.5835664950247436  0.3999311169725048
  0.7927780755374144  0.7088050209957903  0.3997999373052785
  0.7917315184262418  0.8330858862805620  0.3996499990196579
  0.7912535835564902  0.9576609111874951  0.3999015193343601
  0.9163035899211895  0.0829075131827386  0.3999471297863399
  0.9161580292549791  0.2077982442031381  0.3999171935850322
  0.9162188242424169  0.3329339546653130  0.3999336338151001
  0.9166045397940512  0.4582102068294703  0.3998869958195403
  0.9172063031279336  0.5835713384214714  0.3998798995664878
  0.9173158635977352  0.7087889637069652  0.3998781799601354
  0.9171574204345387  0.8337433464444530  0.3998691283764184
  0.9167098836681404  0.9583283446950799  0.3999796115022479
  0.0837449699175608  0.0423408891843814  0.3999184567567529
  0.0832745071428089  0.1669256340521217  0.3996493645531958
  0.0822209038048222  0.2912007135830030  0.3997903270727691
  0.0818836589085522  0.4164395414197104  0.3999377729432714
  0.0824763918163736  0.5417305283759719  0.3998569936146105
  0.0832817375728395  0.6670624671731460  0.3999341780527551
  0.0836464419471938  0.7923016067675513  0.4000168662181171
  0.0837382259744843  0.9173752402335272  0.3999968142568709
  0.2087589417205644  0.0425279906407376  0.3999133615252615
  0.2088440556927423  0.1677470807012434  0.3997272271791414
  0.2082363266755891  0.2924537371583241  0.3998061705043954
  0.2052719937937093  0.4160989317666144  0.4009230424051301
  0.2063084385007156  0.5418025920751643  0.4004232452335724
  0.2078461526733670  0.6671230753669001  0.3998708937459183
  0.2083614882857112  0.7922061267776508  0.3999169356664216
  0.2086277322119349  0.9173737315464950  0.3999864431001679
  0.3335898356489957  0.0423346009091524  0.3999035439027368
  0.3338995005355107  0.1677394201236285  0.3997223665384422
  0.3343265149545617  0.2936453120577514  0.4006712533935293
  0.3303978854321709  0.4182861895457205  0.4033913502134110
  0.3299806794754682  0.5423362538752775  0.4023872853922607
  0.3323907716225906  0.6669929769904565  0.4000527886209002
  0.3330846948423140  0.7920225520853120  0.3997057830743546
  0.3333949400830907  0.9170941010654687  0.3999479018167800
  0.4583827396236310  0.0416731526007629  0.3999819779545046
  0.4586434598292999  0.1669146941919174  0.3996455577797344
  0.4592202882818947  0.2924444196151978  0.3998026651283240
  0.4628997015675195  0.4182779244217935  0.4033767027419410
  0.4567139367301892  0.6646231036194455  0.4009252558506274
  0.4578317430753549  0.7910461870016582  0.3995493786074620
  0.4581416116384830  0.9164366490001081  0.3998831965270177
  0.5831347538261125  0.0410758568995323  0.3999858160653161
  0.5834129332018048  0.1662571001049975  0.3998701758838545
  0.5839699178883375  0.2911939627270546  0.3997967387308589
  0.5858306779899931  0.4160937630311180  0.4009370342507205
  0.5873701550058229  0.5423344364994094  0.4023962921873577
  0.5829180990628119  0.6646306357545657  0.4009235747913332
  0.5824189181227697  0.7898395589938478  0.3998711808685963
  0.5829043963352788  0.9157584539986214  0.3998511216141459
  0.7079285910354376  0.0408774351071747  0.3999788449775983
  0.7081440241647944  0.1660687749216569  0.4000026099313360
  0.7085221696097928  0.2912073584786146  0.3998789670642171
  0.7095532809215361  0.4164330894657474  0.3999329202059268
  0.7105004373265076  0.5418054742417401  0.4004389022783861
  0.7096102003977105  0.6670016165383359  0.4000714677816418
  0.7082149133257639  0.7910468533598790  0.3995511424850935
  0.7078516796748016  0.9157616449066615  0.3998413759665448
  0.8329380867941518  0.0410867689587881  0.3999684628965361
  0.8329202989277518  0.1660745953190451  0.3999935650576878
  0.8331139119569838  0.2912290403434801  0.3999936654704959
  0.8336360743672427  0.4164276608010170  0.3998794123375495
  0.8342562691965861  0.5417338887927426  0.3998442897023959
  0.8342781075078535  0.6671320363817914  0.3998691882087364
  0.8339454966405059  0.7920322448101313  0.3997155923581600
  0.8332970281376560  0.9164461015515927  0.3998738732759045
  0.9582923425416343  0.0416892484927874  0.3999790250002671
  0.9578480383647305  0.1662690450353093  0.3998567310409202
  0.9576847906517928  0.2912120947856468  0.3998838746357321
  0.9577946066445906  0.4164309944178088  0.3998850091042717
  0.9583953314191219  0.5417901167114297  0.3998869979716247
  0.9587839238654891  0.6670655480996236  0.3999300463260004
  0.9588428783308259  0.7922096861373071  0.3999199541977057
  0.9587011874947606  0.9171129523838595  0.3999624199529257
 
  0.00000000E+00  0.00000000E+00  0.00000000E+00
  0.00000000E+00  0.00000000E+00  0.00000000E+00
  0.00000000E+00  0.00000000E+00  0.00000000E+00
  0.00000000E+00  0.00000000E+00  0.00000000E+00
  0.00000000E+00  0.00000000E+00  0.00000000E+00
  0.00000000E+00  0.00000000E+00  0.00000000E+00
  0.00000000E+00  0.00000000E+00  0.00000000E+00
  0.00000000E+00  0.00000000E+00  0.00000000E+00
  0.00000000E+00  0.00000000E+00  0.00000000E+00
  0.00000000E+00  0.00000000E+00  0.00000000E+00
  0.00000000E+00  0.00000000E+00  0.00000000E+00
  0.00000000E+00  0.00000000E+00  0.00000000E+00
  0.00000000E+00  0.00000000E+00  0.00000000E+00
  0.00000000E+00  0.00000000E+00  0.00000000E+00
  0.00000000E+00  0.00000000E+00  0.00000000E+00
  0.00000000E+00  0.00000000E+00  0.00000000E+00
  0.00000000E+00  0.00000000E+00  0.00000000E+00
  0.00000000E+00  0.00000000E+00  0.00000000E+00
  0.00000000E+00  0.00000000E+00  0.00000000E+00
  0.00000000E+00  0.00000000E+00  0.00000000E+00
  0.00000000E+00  0.00000000E+00  0.00000000E+00
  0.00000000E+00  0.00000000E+00  0.00000000E+00
  0.00000000E+00  0.00000000E+00  0.00000000E+00
  0.00000000E+00  0.00000000E+00  0.00000000E+00
  0.00000000E+00  0.00000000E+00  0.00000000E+00
  0.00000000E+00  0.00000000E+00  0.00000000E+00
  0.00000000E+00  0.00000000E+00  0.00000000E+00
  0.00000000E+00  0.00000000E+00  0.00000000E+00
  0.00000000E+00  0.00000000E+00  0.00000000E+00
  0.00000000E+00  0.00000000E+00  0.00000000E+00
  0.00000000E+00  0.00000000E+00  0.00000000E+00
  0.00000000E+00  0.00000000E+00  0.00000000E+00
  0.00000000E+00  0.00000000E+00  0.00000000E+00
  0.00000000E+00  0.00000000E+00  0.00000000E+00
  0.00000000E+00  0.00000000E+00  0.00000000E+00
  0.00000000E+00  0.00000000E+00  0.00000000E+00
  0.00000000E+00  0.00000000E+00  0.00000000E+00
  0.00000000E+00  0.00000000E+00  0.00000000E+00
  0.00000000E+00  0.00000000E+00  0.00000000E+00
  0.00000000E+00  0.00000000E+00  0.00000000E+00
  0.00000000E+00  0.00000000E+00  0.00000000E+00
  0.00000000E+00  0.00000000E+00  0.00000000E+00
  0.00000000E+00  0.00000000E+00  0.00000000E+00
  0.00000000E+00  0.00000000E+00  0.00000000E+00
  0.00000000E+00  0.00000000E+00  0.00000000E+00
  0.00000000E+00  0.00000000E+00  0.00000000E+00
  0.00000000E+00  0.00000000E+00  0.00000000E+00
  0.00000000E+00  0.00000000E+00  0.00000000E+00
  0.00000000E+00  0.00000000E+00  0.00000000E+00
  0.00000000E+00  0.00000000E+00  0.00000000E+00
  0.00000000E+00  0.00000000E+00  0.00000000E+00
  0.00000000E+00  0.00000000E+00  0.00000000E+00
  0.00000000E+00  0.00000000E+00  0.00000000E+00
  0.00000000E+00  0.00000000E+00  0.00000000E+00
  0.00000000E+00  0.00000000E+00  0.00000000E+00
  0.00000000E+00  0.00000000E+00  0.00000000E+00
  0.00000000E+00  0.00000000E+00  0.00000000E+00
  0.00000000E+00  0.00000000E+00  0.00000000E+00
  0.00000000E+00  0.00000000E+00  0.00000000E+00
  0.00000000E+00  0.00000000E+00  0.00000000E+00
  0.00000000E+00  0.00000000E+00  0.00000000E+00
  0.00000000E+00  0.00000000E+00  0.00000000E+00
  0.00000000E+00  0.00000000E+00  0.00000000E+00
  0.00000000E+00  0.00000000E+00  0.00000000E+00
  0.00000000E+00  0.00000000E+00  0.00000000E+00
  0.00000000E+00  0.00000000E+00  0.00000000E+00
  0.00000000E+00  0.00000000E+00  0.00000000E+00
  0.00000000E+00  0.00000000E+00  0.00000000E+00
  0.00000000E+00  0.00000000E+00  0.00000000E+00
  0.00000000E+00  0.00000000E+00  0.00000000E+00
  0.00000000E+00  0.00000000E+00  0.00000000E+00
  0.00000000E+00  0.00000000E+00  0.00000000E+00
  0.00000000E+00  0.00000000E+00  0.00000000E+00
  0.00000000E+00  0.00000000E+00  0.00000000E+00
  0.00000000E+00  0.00000000E+00  0.00000000E+00
  0.00000000E+00  0.00000000E+00  0.00000000E+00
  0.00000000E+00  0.00000000E+00  0.00000000E+00
  0.00000000E+00  0.00000000E+00  0.00000000E+00
  0.00000000E+00  0.00000000E+00  0.00000000E+00
  0.00000000E+00  0.00000000E+00  0.00000000E+00
  0.00000000E+00  0.00000000E+00  0.00000000E+00
  0.00000000E+00  0.00000000E+00  0.00000000E+00
  0.00000000E+00  0.00000000E+00  0.00000000E+00
  0.00000000E+00  0.00000000E+00  0.00000000E+00
  0.00000000E+00  0.00000000E+00  0.00000000E+00
  0.00000000E+00  0.00000000E+00  0.00000000E+00
  0.00000000E+00  0.00000000E+00  0.00000000E+00
  0.00000000E+00  0.00000000E+00  0.00000000E+00
  0.00000000E+00  0.00000000E+00  0.00000000E+00
  0.00000000E+00  0.00000000E+00  0.00000000E+00
  0.00000000E+00  0.00000000E+00  0.00000000E+00
  0.00000000E+00  0.00000000E+00  0.00000000E+00
  0.00000000E+00  0.00000000E+00  0.00000000E+00
  0.00000000E+00  0.00000000E+00  0.00000000E+00
  0.00000000E+00  0.00000000E+00  0.00000000E+00
  0.00000000E+00  0.00000000E+00  0.00000000E+00
  0.00000000E+00  0.00000000E+00  0.00000000E+00
  0.00000000E+00  0.00000000E+00  0.00000000E+00
  0.00000000E+00  0.00000000E+00  0.00000000E+00
  0.00000000E+00  0.00000000E+00  0.00000000E+00
  0.00000000E+00  0.00000000E+00  0.00000000E+00
  0.00000000E+00  0.00000000E+00  0.00000000E+00
  0.00000000E+00  0.00000000E+00  0.00000000E+00
  0.00000000E+00  0.00000000E+00  0.00000000E+00
  0.00000000E+00  0.00000000E+00  0.00000000E+00
  0.00000000E+00  0.00000000E+00  0.00000000E+00
  0.00000000E+00  0.00000000E+00  0.00000000E+00
  0.00000000E+00  0.00000000E+00  0.00000000E+00
  0.00000000E+00  0.00000000E+00  0.00000000E+00
  0.00000000E+00  0.00000000E+00  0.00000000E+00
  0.00000000E+00  0.00000000E+00  0.00000000E+00
  0.00000000E+00  0.00000000E+00  0.00000000E+00
  0.00000000E+00  0.00000000E+00  0.00000000E+00
  0.00000000E+00  0.00000000E+00  0.00000000E+00
  0.00000000E+00  0.00000000E+00  0.00000000E+00
  0.00000000E+00  0.00000000E+00  0.00000000E+00
  0.00000000E+00  0.00000000E+00  0.00000000E+00
  0.00000000E+00  0.00000000E+00  0.00000000E+00
  0.00000000E+00  0.00000000E+00  0.00000000E+00
  0.00000000E+00  0.00000000E+00  0.00000000E+00
  0.00000000E+00  0.00000000E+00  0.00000000E+00
  0.00000000E+00  0.00000000E+00  0.00000000E+00
  0.00000000E+00  0.00000000E+00  0.00000000E+00
  0.00000000E+00  0.00000000E+00  0.00000000E+00
  0.00000000E+00  0.00000000E+00  0.00000000E+00
  0.00000000E+00  0.00000000E+00  0.00000000E+00
  0.00000000E+00  0.00000000E+00  0.00000000E+00
