Mo1 H1 C124 N2 O2                       
   1.00000000000000     
    19.8003881020645167   -0.0249882846744036   -0.1113506994718885
    -9.9230478651182743   17.0501501856940365   -0.0820879149269840
    -0.1678102062655884   -0.2411476285162307   29.8305624091986701
   Mo   H    C    N    O 
     1     1   124     2     2
Direct
  0.4411598900865978  0.5031734960461740  0.4356678739214593
  0.5377630097988074  0.5332588596466153  0.5089857759643742
  0.0426032535247337  0.0844669548132673  0.3996485182947598
  0.0421414053568745  0.2088822730423953  0.3993039017680253
  0.0413924651117098  0.3333563628895818  0.3987277958461666
  0.0410087973613534  0.4584031198991075  0.3983197325019663
  0.0413793552790382  0.5837162013906035  0.3984224802787094
  0.0418146221985606  0.7089896550693413  0.3986820095863307
  0.0420764729294365  0.8341816036766927  0.3990216424596552
  0.0423860938574966  0.9594550699825186  0.3994731812518140
  0.1682926220910602  0.0856716654455497  0.4005355387103035
  0.1687142625669032  0.2110642095301470  0.4008209369381056
  0.1670913937075656  0.3347599647102621  0.4005031025228047
  0.1651527625819186  0.4589606844031817  0.3995105988059888
  0.1655016029676150  0.5839380197738223  0.3989651767101438
  0.1663218780721990  0.7090228405275797  0.3989720207356783
  0.1668421447748772  0.8342524846254972  0.3992528107649331
  0.1673623416227848  0.9597236037908524  0.3998166605839815
  0.2926869900236510  0.0851909535093064  0.4006028249035382
  0.2945629202588952  0.2123540904888336  0.4025003386318907
  0.2954170537419328  0.3392471088961749  0.4044942327992167
  0.2897047027362083  0.4606193715345704  0.4037359252148779
  0.2893297204229379  0.5845682483310117  0.4013452071487183
  0.2908083182782262  0.7090974951812021  0.4000572583032447
  0.2916125177641532  0.8340634581956016  0.3994021115335021
  0.2920279577070234  0.9593351521050263  0.3996235735561092
  0.4171623065391468  0.0838973894233368  0.3998658537654844
  0.4179107477295824  0.2098155777383194  0.4011501285889941
  0.4211548642208853  0.3377109677269269  0.4046213062129789
  0.4149551067996771  0.7068204006230816  0.4023701315286837
  0.4162782854731024  0.8327541584866148  0.4002469888292308
  0.4167444242565828  0.9583446779058405  0.3995498997300428
  0.5418162719353676  0.0827061787483306  0.3995630894845869
  0.5422841990897298  0.2078561585199528  0.3999622408421200
  0.5435549903671172  0.3327975518428524  0.4011460655644548
  0.5449985882626942  0.4564238864724951  0.4026583652588406
  0.5421768168386781  0.5784595223764410  0.4045742558365899
  0.5383680479306283  0.7035886966129189  0.4042152427193089
  0.5406757283220380  0.8312554723025718  0.4016520051705499
  0.5414337965852773  0.9572779669842703  0.4001581473669549
  0.6665558291921275  0.0823466852267938  0.3996819814046552
  0.6669627899931720  0.2075911468737578  0.3992735627640834
  0.6677252355861604  0.3327750828744558  0.3995343657019688
  0.6689633563014831  0.4580337734144455  0.3996509593264210
  0.6685822128484521  0.5823485465170428  0.3994970380748198
  0.6650456109199188  0.7056761040864590  0.4003492363452090
  0.6648677609842213  0.8307405268975008  0.4011301976871937
  0.6660206110902800  0.9568343503627915  0.4005929202430957
  0.7913886250272069  0.0824447477428831  0.3995681672769660
  0.7916770609246138  0.2076317664080062  0.3990359029064196
  0.7920696645981591  0.3328258887253960  0.3987044540919811
  0.7927146223062574  0.4581362287940334  0.3988094218532201
  0.7930674820035375  0.5834079284653438  0.3987511833597113
  0.7918678262313343  0.7080292492887148  0.3988660206051678
  0.7908339082237636  0.8321953185349186  0.3995054534973153
  0.7909090505524417  0.9571001839215710  0.3998299175530919
  0.9166392481311754  0.0830896841053944  0.3992182640187608
  0.9165884177369829  0.2079349963730051  0.3988477401493182
  0.9165740076185002  0.3329839046542795  0.3984018788903443
  0.9167952558972706  0.4582331212168260  0.3983361345914326
  0.9171985629180492  0.5835750919801320  0.3984244156137893
  0.9170966853833545  0.7087213756298955  0.3985413794626958
  0.9168971270019567  0.8336254567976388  0.3988933761169586
  0.9166886664177474  0.9583337888761644  0.3992767525778481
  0.0845454244375283  0.0432590961049755  0.3998813546864918
  0.0847332481825298  0.1682490068468594  0.3998219883537091
  0.0835872695926820  0.2922802494648527  0.3993397693818005
  0.0823118529072631  0.4167612065207783  0.3986296668813403
  0.0825137931546223  0.5419397477704253  0.3984451975119142
  0.0831083770784550  0.6672272423322022  0.3986701064434791
  0.0835739413189868  0.7925051159701273  0.3990299718969841
  0.0839455898945583  0.9177835116751653  0.3994349922642177
  0.2093732507957468  0.0434461994781526  0.4004042313246889
  0.2106690750789401  0.1696968119678639  0.4013456029700356
  0.2107384981740563  0.2950318973857045  0.4016248744659535
  0.2070194231714835  0.4180363585849101  0.4008643220538070
  0.2063527060586244  0.5421772508392886  0.3996783158022020
  0.2075355730095835  0.6673606606528671  0.3992559291815572
  0.2082935447197378  0.7925307149462076  0.3991860906474302
  0.2087290259097075  0.9178215925700907  0.3995711974521043
  0.3338893524242529  0.0429059080673550  0.3999921667367939
  0.3347781546608452  0.1690538452189102  0.4014709887784357
  0.3372838805299841  0.2969772891051716  0.4045281854218874
  0.3342818161585009  0.4228711372735280  0.4074979622392742
  0.3302272506475326  0.5439350291939952  0.4042959765114396
  0.3318527258101346  0.6674716084194297  0.4013682169243958
  0.3330259678825470  0.7922718087193789  0.3998576992224548
  0.3334761951219871  0.9174340464438586  0.3994474790569881
  0.4585559018936523  0.0417980365867920  0.3995899551664830
  0.4590665456069286  0.1673902455773738  0.4002191872158906
  0.4604822721871963  0.2934310324854304  0.4020593059104903
  0.4545128196026756  0.6628119406575619  0.4053281442167750
  0.4575159769100424  0.7904012947196515  0.4012735918052075
  0.4581498934013448  0.9162314187736893  0.3999050979298154
  0.5832688492621281  0.0408163304003010  0.3997389893619823
  0.5836753995617872  0.1660544122212563  0.3995354586275968
  0.5845346875080673  0.2910655285278764  0.4001762358452602
  0.5860698370142307  0.4157183658950840  0.4009478231923627
  0.5859582684238798  0.5399034644024289  0.4013203349116551
  0.5806474322308701  0.6618333228839983  0.4028207043240213
  0.5810067871177433  0.7881055266931948  0.4023884751198363
  0.5826942048195020  0.9150600118282179  0.4008432474549345
  0.7079789767660287  0.0405031602933234  0.3999689136627086
  0.7084275549379779  0.1658914685937429  0.3992826718842497
  0.7089040750299640  0.2910587373469972  0.3991081509881949
  0.7097601592081849  0.4161803353436754  0.3993071617809114
  0.7102896482236436  0.5412765929241146  0.3991903783928982
  0.7084524750720304  0.6656690728457346  0.3993300088506788
  0.7069559163697358  0.7895242350980973  0.4002812613783872
  0.7071937167528670  0.9147187197852563  0.4005573440562470
  0.8330449357055034  0.0408583430498613  0.3994998926988120
  0.8332385938430765  0.1660134038898990  0.3991293946059146
  0.8334100085009912  0.2911100231683618  0.3986580719369277
  0.8338049035440402  0.4163289365554809  0.3985671855668785
  0.8342515732603729  0.5416666148395183  0.3986359464869251
  0.8339479016541104  0.6668162806355790  0.3986317556302281
  0.8333116028285302  0.7914410165411977  0.3990000267749623
  0.8329220013192953  0.9159471911670560  0.3994828344553089
  0.9587734938434738  0.0420172718307365  0.3993318045290579
  0.9585065489200505  0.1666511951536191  0.3990279529226549
  0.9582030239257260  0.2914330885351844  0.3985522961567393
  0.9580227366201485  0.4164662037651845  0.3982661392112236
  0.9583638504571621  0.5417576193439512  0.3983432415676957
  0.9586418767902870  0.6670930220518692  0.3984736996415129
  0.9587255339645179  0.7922491339635300  0.3987339110395062
  0.9587772405559335  0.9172149803463467  0.3991811503934386
  0.4104764679609929  0.5817736797288657  0.4093084641796245
  0.4649128782535623  0.4190004439200715  0.4067069423863378
  0.4819169927678832  0.4941999290760294  0.5045925509242677
  0.4470631536023592  0.5457025319654834  0.4962923358584231
 
  0.00000000E+00  0.00000000E+00  0.00000000E+00
  0.00000000E+00  0.00000000E+00  0.00000000E+00
  0.00000000E+00  0.00000000E+00  0.00000000E+00
  0.00000000E+00  0.00000000E+00  0.00000000E+00
  0.00000000E+00  0.00000000E+00  0.00000000E+00
  0.00000000E+00  0.00000000E+00  0.00000000E+00
  0.00000000E+00  0.00000000E+00  0.00000000E+00
  0.00000000E+00  0.00000000E+00  0.00000000E+00
  0.00000000E+00  0.00000000E+00  0.00000000E+00
  0.00000000E+00  0.00000000E+00  0.00000000E+00
  0.00000000E+00  0.00000000E+00  0.00000000E+00
  0.00000000E+00  0.00000000E+00  0.00000000E+00
  0.00000000E+00  0.00000000E+00  0.00000000E+00
  0.00000000E+00  0.00000000E+00  0.00000000E+00
  0.00000000E+00  0.00000000E+00  0.00000000E+00
  0.00000000E+00  0.00000000E+00  0.00000000E+00
  0.00000000E+00  0.00000000E+00  0.00000000E+00
  0.00000000E+00  0.00000000E+00  0.00000000E+00
  0.00000000E+00  0.00000000E+00  0.00000000E+00
  0.00000000E+00  0.00000000E+00  0.00000000E+00
  0.00000000E+00  0.00000000E+00  0.00000000E+00
  0.00000000E+00  0.00000000E+00  0.00000000E+00
  0.00000000E+00  0.00000000E+00  0.00000000E+00
  0.00000000E+00  0.00000000E+00  0.00000000E+00
  0.00000000E+00  0.00000000E+00  0.00000000E+00
  0.00000000E+00  0.00000000E+00  0.00000000E+00
  0.00000000E+00  0.00000000E+00  0.00000000E+00
  0.00000000E+00  0.00000000E+00  0.00000000E+00
  0.00000000E+00  0.00000000E+00  0.00000000E+00
  0.00000000E+00  0.00000000E+00  0.00000000E+00
  0.00000000E+00  0.00000000E+00  0.00000000E+00
  0.00000000E+00  0.00000000E+00  0.00000000E+00
  0.00000000E+00  0.00000000E+00  0.00000000E+00
  0.00000000E+00  0.00000000E+00  0.00000000E+00
  0.00000000E+00  0.00000000E+00  0.00000000E+00
  0.00000000E+00  0.00000000E+00  0.00000000E+00
  0.00000000E+00  0.00000000E+00  0.00000000E+00
  0.00000000E+00  0.00000000E+00  0.00000000E+00
  0.00000000E+00  0.00000000E+00  0.00000000E+00
  0.00000000E+00  0.00000000E+00  0.00000000E+00
  0.00000000E+00  0.00000000E+00  0.00000000E+00
  0.00000000E+00  0.00000000E+00  0.00000000E+00
  0.00000000E+00  0.00000000E+00  0.00000000E+00
  0.00000000E+00  0.00000000E+00  0.00000000E+00
  0.00000000E+00  0.00000000E+00  0.00000000E+00
  0.00000000E+00  0.00000000E+00  0.00000000E+00
  0.00000000E+00  0.00000000E+00  0.00000000E+00
  0.00000000E+00  0.00000000E+00  0.00000000E+00
  0.00000000E+00  0.00000000E+00  0.00000000E+00
  0.00000000E+00  0.00000000E+00  0.00000000E+00
  0.00000000E+00  0.00000000E+00  0.00000000E+00
  0.00000000E+00  0.00000000E+00  0.00000000E+00
  0.00000000E+00  0.00000000E+00  0.00000000E+00
  0.00000000E+00  0.00000000E+00  0.00000000E+00
  0.00000000E+00  0.00000000E+00  0.00000000E+00
  0.00000000E+00  0.00000000E+00  0.00000000E+00
  0.00000000E+00  0.00000000E+00  0.00000000E+00
  0.00000000E+00  0.00000000E+00  0.00000000E+00
  0.00000000E+00  0.00000000E+00  0.00000000E+00
  0.00000000E+00  0.00000000E+00  0.00000000E+00
  0.00000000E+00  0.00000000E+00  0.00000000E+00
  0.00000000E+00  0.00000000E+00  0.00000000E+00
  0.00000000E+00  0.00000000E+00  0.00000000E+00
  0.00000000E+00  0.00000000E+00  0.00000000E+00
  0.00000000E+00  0.00000000E+00  0.00000000E+00
  0.00000000E+00  0.00000000E+00  0.00000000E+00
  0.00000000E+00  0.00000000E+00  0.00000000E+00
  0.00000000E+00  0.00000000E+00  0.00000000E+00
  0.00000000E+00  0.00000000E+00  0.00000000E+00
  0.00000000E+00  0.00000000E+00  0.00000000E+00
  0.00000000E+00  0.00000000E+00  0.00000000E+00
  0.00000000E+00  0.00000000E+00  0.00000000E+00
  0.00000000E+00  0.00000000E+00  0.00000000E+00
  0.00000000E+00  0.00000000E+00  0.00000000E+00
  0.00000000E+00  0.00000000E+00  0.00000000E+00
  0.00000000E+00  0.00000000E+00  0.00000000E+00
  0.00000000E+00  0.00000000E+00  0.00000000E+00
  0.00000000E+00  0.00000000E+00  0.00000000E+00
  0.00000000E+00  0.00000000E+00  0.00000000E+00
  0.00000000E+00  0.00000000E+00  0.00000000E+00
  0.00000000E+00  0.00000000E+00  0.00000000E+00
  0.00000000E+00  0.00000000E+00  0.00000000E+00
  0.00000000E+00  0.00000000E+00  0.00000000E+00
  0.00000000E+00  0.00000000E+00  0.00000000E+00
  0.00000000E+00  0.00000000E+00  0.00000000E+00
  0.00000000E+00  0.00000000E+00  0.00000000E+00
  0.00000000E+00  0.00000000E+00  0.00000000E+00
  0.00000000E+00  0.00000000E+00  0.00000000E+00
  0.00000000E+00  0.00000000E+00  0.00000000E+00
  0.00000000E+00  0.00000000E+00  0.00000000E+00
  0.00000000E+00  0.00000000E+00  0.00000000E+00
  0.00000000E+00  0.00000000E+00  0.00000000E+00
  0.00000000E+00  0.00000000E+00  0.00000000E+00
  0.00000000E+00  0.00000000E+00  0.00000000E+00
  0.00000000E+00  0.00000000E+00  0.00000000E+00
  0.00000000E+00  0.00000000E+00  0.00000000E+00
  0.00000000E+00  0.00000000E+00  0.00000000E+00
  0.00000000E+00  0.00000000E+00  0.00000000E+00
  0.00000000E+00  0.00000000E+00  0.00000000E+00
  0.00000000E+00  0.00000000E+00  0.00000000E+00
  0.00000000E+00  0.00000000E+00  0.00000000E+00
  0.00000000E+00  0.00000000E+00  0.00000000E+00
  0.00000000E+00  0.00000000E+00  0.00000000E+00
  0.00000000E+00  0.00000000E+00  0.00000000E+00
  0.00000000E+00  0.00000000E+00  0.00000000E+00
  0.00000000E+00  0.00000000E+00  0.00000000E+00
  0.00000000E+00  0.00000000E+00  0.00000000E+00
  0.00000000E+00  0.00000000E+00  0.00000000E+00
  0.00000000E+00  0.00000000E+00  0.00000000E+00
  0.00000000E+00  0.00000000E+00  0.00000000E+00
  0.00000000E+00  0.00000000E+00  0.00000000E+00
  0.00000000E+00  0.00000000E+00  0.00000000E+00
  0.00000000E+00  0.00000000E+00  0.00000000E+00
  0.00000000E+00  0.00000000E+00  0.00000000E+00
  0.00000000E+00  0.00000000E+00  0.00000000E+00
  0.00000000E+00  0.00000000E+00  0.00000000E+00
  0.00000000E+00  0.00000000E+00  0.00000000E+00
  0.00000000E+00  0.00000000E+00  0.00000000E+00
  0.00000000E+00  0.00000000E+00  0.00000000E+00
  0.00000000E+00  0.00000000E+00  0.00000000E+00
  0.00000000E+00  0.00000000E+00  0.00000000E+00
  0.00000000E+00  0.00000000E+00  0.00000000E+00
  0.00000000E+00  0.00000000E+00  0.00000000E+00
  0.00000000E+00  0.00000000E+00  0.00000000E+00
  0.00000000E+00  0.00000000E+00  0.00000000E+00
  0.00000000E+00  0.00000000E+00  0.00000000E+00
  0.00000000E+00  0.00000000E+00  0.00000000E+00
  0.00000000E+00  0.00000000E+00  0.00000000E+00
  0.00000000E+00  0.00000000E+00  0.00000000E+00
  0.00000000E+00  0.00000000E+00  0.00000000E+00
