Y1 H1 C126 O2                           
   1.00000000000000     
    19.7480095262059017    0.0004472052876636   -0.1954021217049830
    -9.8750856018287330   17.1172169718046803   -0.0590272736878855
    -0.2944051635202466   -0.2730048306906043   29.7727439907876175
   Y    H    C    O 
     1     1   126     2
Direct
  0.4418827221417846  0.5048819884241696  0.4547245095637737
  0.5571507857246716  0.5743509942550041  0.5298585875390274
  0.0416984664045201  0.0832632188616871  0.3995494372892630
  0.0415913985542433  0.2082123623996072  0.3992406770693984
  0.0417253774581980  0.3332058578352811  0.3989543714359839
  0.0418608935051245  0.4583974300047851  0.3990963531181878
  0.0418083793347326  0.5833708750042402  0.3994659793295867
  0.0418039162281535  0.7083373387525115  0.3997283534753691
  0.0418833309841354  0.8333865465216133  0.3998238095980040
  0.0418712107997094  0.9583626218839665  0.3997665992123573
  0.1666913637963008  0.0831971987194511  0.4000122196838655
  0.1664057690436702  0.2077924080473166  0.4000251830211832
  0.1665982463180659  0.3330457169444935  0.3996059668992724
  0.1667953244762375  0.4582234161563617  0.3987197954475781
  0.1668711138619046  0.5833504517666964  0.3988637392189150
  0.1667795967248359  0.7084277150631418  0.3994288095754428
  0.1667925090865571  0.8333612842783634  0.3998640003951469
  0.1668242162836137  0.9583523130914999  0.3999667549641880
  0.2918061379497097  0.0831809172437337  0.3999478220120116
  0.2918426967109883  0.2083038481223558  0.4014713052353857
  0.2914068468346439  0.3330664649698718  0.4039121762813406
  0.2921927547411172  0.4572972747689401  0.4019634926510146
  0.2919504949559247  0.5838347679939946  0.3993277862214069
  0.2917144973815715  0.7086675238056953  0.3989737396427254
  0.2917333181305808  0.8334381289506625  0.3994530917663075
  0.2917516758511470  0.9583179115780635  0.3997260100317310
  0.4168136236853373  0.0831909407093286  0.3994946292648878
  0.4166760147486094  0.2077518455076590  0.4000494005506788
  0.4170944897097438  0.3330135057141420  0.4035474812336175
  0.4167651577885886  0.5859627550540736  0.4046756570915966
  0.4169328809216686  0.7092151811212607  0.4000996091983376
  0.4168195608323818  0.8338106543505300  0.3993622872767211
  0.4167425814236211  0.9584360996390209  0.3995088346671602
  0.5418392403833555  0.0833979083555364  0.3996264185518395
  0.5418337297700668  0.2081742856714634  0.3992164825494424
  0.5416884752916947  0.3330485797496218  0.3994538230427231
  0.5404914204643975  0.4573948216502369  0.4012701951430003
  0.5450852563027073  0.5861586533911195  0.4049241952008135
  0.5426136210110667  0.7097401522640873  0.4025221240945761
  0.5419073501969873  0.8339625069403094  0.4002011765245004
  0.5418864403783407  0.9586346332465493  0.3997443868870574
  0.6668535540208742  0.0835132236965464  0.3999406953697154
  0.6668804550633899  0.2084173266757418  0.3995965360445168
  0.6666643869415113  0.3331672602590721  0.3988342288535277
  0.6666167267844930  0.4582210973608344  0.3983894591578390
  0.6670872641950029  0.5838457621553405  0.3988198548814208
  0.6676883335333712  0.7093363684477929  0.4000594666069143
  0.6673790211243635  0.8340022008631898  0.4002355420883063
  0.6670061511117543  0.9587503642582110  0.3999813796656040
  0.7919276663484205  0.0835372116089056  0.3998848014747486
  0.7918530643958501  0.2084464256630809  0.3998824323475044
  0.7918189003330488  0.3333941626700154  0.3994928016446518
  0.7917346298795989  0.4583986958545047  0.3988517296349662
  0.7916710800684823  0.5833846734385465  0.3985182919704301
  0.7922097097864457  0.7087356211359954  0.3987864442413805
  0.7923311056305326  0.8339262095716266  0.3993110988884505
  0.7920344872268303  0.9586916319888148  0.3996918220365188
  0.9168527686214698  0.0834608345242382  0.3995907370489359
  0.9167988192401124  0.2084648795255555  0.3996109582929598
  0.9168067355059126  0.3334060105566581  0.3995356041220082
  0.9167793455471235  0.4583273880294335  0.3994203800283788
  0.9168028694708905  0.5833927247990006  0.3993113507738995
  0.9169133250926497  0.7084808695928502  0.3992758119141305
  0.9169951920403641  0.8335090141127802  0.3993729460282743
  0.9170163515571488  0.9585337179844888  0.3995059775635107
  0.0834049422634543  0.0415989210826913  0.3997593800535897
  0.0831299157805879  0.1663745141571069  0.3994208797354485
  0.0831421507921739  0.2914574728107296  0.3990242956633229
  0.0835916127807704  0.4167409723534241  0.3987709277327606
  0.0835013070045202  0.5416897457618998  0.3991480720975862
  0.0834698463644187  0.6667330701371672  0.3995839176078070
  0.0835248584614223  0.7917512479177558  0.3998652790017053
  0.0834792036665139  0.9166924793144341  0.3999058145953446
  0.2084005369692331  0.0414990137736040  0.4000083035310260
  0.2081276554911880  0.1663337711620486  0.4004922621060538
  0.2079208859394707  0.2910633858315047  0.4007335998174478
  0.2082286912636633  0.4162857160247077  0.3995175127435276
  0.2085836440169617  0.5418473961659556  0.3987663284605512
  0.2085546488317430  0.6668951407279575  0.3990203970091914
  0.2084099885349405  0.7916881972916802  0.3996133267452320
  0.2084904449395357  0.9166631884660797  0.3999033429806647
  0.3334559645442250  0.0415531371186257  0.3996822334003016
  0.3335240363669746  0.1663213178540493  0.4004512986379724
  0.3331182303282989  0.2907917808619367  0.4037333227252659
  0.3312385328424823  0.4147509519150604  0.4068521598212288
  0.3349405116099035  0.5428576800162374  0.4013776431754287
  0.3336025045163048  0.6670925122733923  0.3992959985549918
  0.3334343351664586  0.7919286291213962  0.3991985743189268
  0.3334501271612105  0.9167257395596923  0.3995646056485470
  0.4585491230101757  0.0416680396802115  0.3995283289347261
  0.4584836281738993  0.1663076414951788  0.3994137549501882
  0.4584721034139878  0.2910182811738081  0.4006462765172003
  0.4592892569800059  0.4146140551755829  0.4057870031845600
  0.4586194329813782  0.6674298990479649  0.4023746560470191
  0.4586973953616458  0.7924477442722526  0.3997628089321977
  0.4585017245397873  0.9169414794963573  0.3995151414795032
  0.5835785496244194  0.0418537925552570  0.3998076190938393
  0.5835492534693943  0.1666640104984381  0.3994716611878002
  0.5835081688525890  0.2914122199288789  0.3989409952898533
  0.5833034618173254  0.4163115765307207  0.3991816475513359
  0.5832960980375990  0.5429253554558465  0.4008086613608396
  0.5844166452355369  0.6675930899044733  0.4024706999651269
  0.5837339257848516  0.7921044024834464  0.4009218420870195
  0.5835874541054690  0.9170582915222862  0.3999331672371914
  0.7085748737433157  0.0418784896937983  0.3999572958312438
  0.7085782936492944  0.1668028122033890  0.3998751972014953
  0.7084848339503474  0.2916707705996271  0.3993166740833148
  0.7083240129577955  0.4167010207440334  0.3985384529680673
  0.7084507954632809  0.5418491012275611  0.3983251975293696
  0.7087850900047155  0.6671517167911465  0.3990765009955060
  0.7091195533280258  0.7925671909451899  0.3997708723503646
  0.7087614616742653  0.9170947566930356  0.3999297481121018
  0.8335671675507885  0.0419053569861453  0.3997354757288961
  0.8335185431170027  0.1668385263195044  0.3998578782702799
  0.8335407093292068  0.2918480798710573  0.3997268873039681
  0.8334737315037816  0.4167472533258928  0.3992954697349580
  0.8333966580245481  0.5417052649826050  0.3988600371516513
  0.8335888125248068  0.6669458837089086  0.3987700464863273
  0.8337736507039031  0.7920131153806663  0.3991051957755686
  0.8337607331506396  0.9170344586350130  0.3994755378387524
  0.9584523245591769  0.0417678510959916  0.3995417474612165
  0.9583944041924529  0.1667278360925514  0.3994779411359585
  0.9584338594199814  0.2917106205456184  0.3993751402630860
  0.9585052008619713  0.4167544367431877  0.3994023717129617
  0.9585203670989548  0.5418112897528390  0.3994492227675199
  0.9585255193084684  0.6667631875596015  0.3994863027460377
  0.9585761003694282  0.7917557982999486  0.3995190446323713
  0.9585797960803719  0.9168051556864203  0.3995507363229361
  0.5154267655103387  0.5218833270210986  0.5211867539674480
  0.4438211151882528  0.5289360645936825  0.5260669090122747
 
  0.00000000E+00  0.00000000E+00  0.00000000E+00
  0.00000000E+00  0.00000000E+00  0.00000000E+00
  0.00000000E+00  0.00000000E+00  0.00000000E+00
  0.00000000E+00  0.00000000E+00  0.00000000E+00
  0.00000000E+00  0.00000000E+00  0.00000000E+00
  0.00000000E+00  0.00000000E+00  0.00000000E+00
  0.00000000E+00  0.00000000E+00  0.00000000E+00
  0.00000000E+00  0.00000000E+00  0.00000000E+00
  0.00000000E+00  0.00000000E+00  0.00000000E+00
  0.00000000E+00  0.00000000E+00  0.00000000E+00
  0.00000000E+00  0.00000000E+00  0.00000000E+00
  0.00000000E+00  0.00000000E+00  0.00000000E+00
  0.00000000E+00  0.00000000E+00  0.00000000E+00
  0.00000000E+00  0.00000000E+00  0.00000000E+00
  0.00000000E+00  0.00000000E+00  0.00000000E+00
  0.00000000E+00  0.00000000E+00  0.00000000E+00
  0.00000000E+00  0.00000000E+00  0.00000000E+00
  0.00000000E+00  0.00000000E+00  0.00000000E+00
  0.00000000E+00  0.00000000E+00  0.00000000E+00
  0.00000000E+00  0.00000000E+00  0.00000000E+00
  0.00000000E+00  0.00000000E+00  0.00000000E+00
  0.00000000E+00  0.00000000E+00  0.00000000E+00
  0.00000000E+00  0.00000000E+00  0.00000000E+00
  0.00000000E+00  0.00000000E+00  0.00000000E+00
  0.00000000E+00  0.00000000E+00  0.00000000E+00
  0.00000000E+00  0.00000000E+00  0.00000000E+00
  0.00000000E+00  0.00000000E+00  0.00000000E+00
  0.00000000E+00  0.00000000E+00  0.00000000E+00
  0.00000000E+00  0.00000000E+00  0.00000000E+00
  0.00000000E+00  0.00000000E+00  0.00000000E+00
  0.00000000E+00  0.00000000E+00  0.00000000E+00
  0.00000000E+00  0.00000000E+00  0.00000000E+00
  0.00000000E+00  0.00000000E+00  0.00000000E+00
  0.00000000E+00  0.00000000E+00  0.00000000E+00
  0.00000000E+00  0.00000000E+00  0.00000000E+00
  0.00000000E+00  0.00000000E+00  0.00000000E+00
  0.00000000E+00  0.00000000E+00  0.00000000E+00
  0.00000000E+00  0.00000000E+00  0.00000000E+00
  0.00000000E+00  0.00000000E+00  0.00000000E+00
  0.00000000E+00  0.00000000E+00  0.00000000E+00
  0.00000000E+00  0.00000000E+00  0.00000000E+00
  0.00000000E+00  0.00000000E+00  0.00000000E+00
  0.00000000E+00  0.00000000E+00  0.00000000E+00
  0.00000000E+00  0.00000000E+00  0.00000000E+00
  0.00000000E+00  0.00000000E+00  0.00000000E+00
  0.00000000E+00  0.00000000E+00  0.00000000E+00
  0.00000000E+00  0.00000000E+00  0.00000000E+00
  0.00000000E+00  0.00000000E+00  0.00000000E+00
  0.00000000E+00  0.00000000E+00  0.00000000E+00
  0.00000000E+00  0.00000000E+00  0.00000000E+00
  0.00000000E+00  0.00000000E+00  0.00000000E+00
  0.00000000E+00  0.00000000E+00  0.00000000E+00
  0.00000000E+00  0.00000000E+00  0.00000000E+00
  0.00000000E+00  0.00000000E+00  0.00000000E+00
  0.00000000E+00  0.00000000E+00  0.00000000E+00
  0.00000000E+00  0.00000000E+00  0.00000000E+00
  0.00000000E+00  0.00000000E+00  0.00000000E+00
  0.00000000E+00  0.00000000E+00  0.00000000E+00
  0.00000000E+00  0.00000000E+00  0.00000000E+00
  0.00000000E+00  0.00000000E+00  0.00000000E+00
  0.00000000E+00  0.00000000E+00  0.00000000E+00
  0.00000000E+00  0.00000000E+00  0.00000000E+00
  0.00000000E+00  0.00000000E+00  0.00000000E+00
  0.00000000E+00  0.00000000E+00  0.00000000E+00
  0.00000000E+00  0.00000000E+00  0.00000000E+00
  0.00000000E+00  0.00000000E+00  0.00000000E+00
  0.00000000E+00  0.00000000E+00  0.00000000E+00
  0.00000000E+00  0.00000000E+00  0.00000000E+00
  0.00000000E+00  0.00000000E+00  0.00000000E+00
  0.00000000E+00  0.00000000E+00  0.00000000E+00
  0.00000000E+00  0.00000000E+00  0.00000000E+00
  0.00000000E+00  0.00000000E+00  0.00000000E+00
  0.00000000E+00  0.00000000E+00  0.00000000E+00
  0.00000000E+00  0.00000000E+00  0.00000000E+00
  0.00000000E+00  0.00000000E+00  0.00000000E+00
  0.00000000E+00  0.00000000E+00  0.00000000E+00
  0.00000000E+00  0.00000000E+00  0.00000000E+00
  0.00000000E+00  0.00000000E+00  0.00000000E+00
  0.00000000E+00  0.00000000E+00  0.00000000E+00
  0.00000000E+00  0.00000000E+00  0.00000000E+00
  0.00000000E+00  0.00000000E+00  0.00000000E+00
  0.00000000E+00  0.00000000E+00  0.00000000E+00
  0.00000000E+00  0.00000000E+00  0.00000000E+00
  0.00000000E+00  0.00000000E+00  0.00000000E+00
  0.00000000E+00  0.00000000E+00  0.00000000E+00
  0.00000000E+00  0.00000000E+00  0.00000000E+00
  0.00000000E+00  0.00000000E+00  0.00000000E+00
  0.00000000E+00  0.00000000E+00  0.00000000E+00
  0.00000000E+00  0.00000000E+00  0.00000000E+00
  0.00000000E+00  0.00000000E+00  0.00000000E+00
  0.00000000E+00  0.00000000E+00  0.00000000E+00
  0.00000000E+00  0.00000000E+00  0.00000000E+00
  0.00000000E+00  0.00000000E+00  0.00000000E+00
  0.00000000E+00  0.00000000E+00  0.00000000E+00
  0.00000000E+00  0.00000000E+00  0.00000000E+00
  0.00000000E+00  0.00000000E+00  0.00000000E+00
  0.00000000E+00  0.00000000E+00  0.00000000E+00
  0.00000000E+00  0.00000000E+00  0.00000000E+00
  0.00000000E+00  0.00000000E+00  0.00000000E+00
  0.00000000E+00  0.00000000E+00  0.00000000E+00
  0.00000000E+00  0.00000000E+00  0.00000000E+00
  0.00000000E+00  0.00000000E+00  0.00000000E+00
  0.00000000E+00  0.00000000E+00  0.00000000E+00
  0.00000000E+00  0.00000000E+00  0.00000000E+00
  0.00000000E+00  0.00000000E+00  0.00000000E+00
  0.00000000E+00  0.00000000E+00  0.00000000E+00
  0.00000000E+00  0.00000000E+00  0.00000000E+00
  0.00000000E+00  0.00000000E+00  0.00000000E+00
  0.00000000E+00  0.00000000E+00  0.00000000E+00
  0.00000000E+00  0.00000000E+00  0.00000000E+00
  0.00000000E+00  0.00000000E+00  0.00000000E+00
  0.00000000E+00  0.00000000E+00  0.00000000E+00
  0.00000000E+00  0.00000000E+00  0.00000000E+00
  0.00000000E+00  0.00000000E+00  0.00000000E+00
  0.00000000E+00  0.00000000E+00  0.00000000E+00
  0.00000000E+00  0.00000000E+00  0.00000000E+00
  0.00000000E+00  0.00000000E+00  0.00000000E+00
  0.00000000E+00  0.00000000E+00  0.00000000E+00
  0.00000000E+00  0.00000000E+00  0.00000000E+00
  0.00000000E+00  0.00000000E+00  0.00000000E+00
  0.00000000E+00  0.00000000E+00  0.00000000E+00
  0.00000000E+00  0.00000000E+00  0.00000000E+00
  0.00000000E+00  0.00000000E+00  0.00000000E+00
  0.00000000E+00  0.00000000E+00  0.00000000E+00
  0.00000000E+00  0.00000000E+00  0.00000000E+00
  0.00000000E+00  0.00000000E+00  0.00000000E+00
  0.00000000E+00  0.00000000E+00  0.00000000E+00
  0.00000000E+00  0.00000000E+00  0.00000000E+00
  0.00000000E+00  0.00000000E+00  0.00000000E+00
  0.00000000E+00  0.00000000E+00  0.00000000E+00
