Y1 H1 C122 N4 O2                        
   1.00000000000000     
    19.8042403260888555   -0.0001325488421968   -0.1232772065020122
    -9.9031160889785106   17.0410705864319709   -0.0702080441559456
    -0.1853186314948636   -0.2305790849490627   29.8188909112429421
   Y    H    C    N    O 
     1     1   122     4     2
Direct
  0.4390810049346250  0.5030011581471006  0.4469722602675805
  0.5511931722115760  0.5673157081185232  0.5249713514801970
  0.0421381237926709  0.0840905900032605  0.3995209542560712
  0.0413279011210729  0.2083380150555161  0.3992240466293241
  0.0406004834863202  0.3330907637289814  0.3989444476972394
  0.0406975210058071  0.4582823187776258  0.3990281534262369
  0.0414812291063536  0.5837764834600770  0.3996615276573894
  0.0422131737962755  0.7092063464030590  0.4000784332183393
  0.0424751514212122  0.8344193800694879  0.4000437639560297
  0.0425735597662544  0.9595885561665202  0.3997223093338108
  0.1681937000290089  0.0856184508488844  0.3998610794396520
  0.1674236467649555  0.2099668066336997  0.3998057309934793
  0.1654854550318921  0.3337363417565422  0.3996324149663505
  0.1646054882634829  0.4585352170385757  0.3985185748991398
  0.1654127365477512  0.5836959361276892  0.3985810442943726
  0.1665104738027319  0.7089650175035535  0.3995015440428978
  0.1671437884088878  0.8344009364349468  0.3999815672741003
  0.1675667198408783  0.9599115197698338  0.3999195193632750
  0.2926682861122023  0.0856108914175661  0.3998621130327989
  0.2941158175143614  0.2129118817064780  0.4013987537827284
  0.2921973093509755  0.3380603861577881  0.4035444832813186
  0.2884762172417660  0.4577743711233885  0.4024905006683584
  0.2890213160407273  0.5830224131848353  0.3992944365722575
  0.2908302310908683  0.7084623832857028  0.3988754110318979
  0.2917438586203365  0.8339409319777221  0.3994372713097503
  0.2922249931814158  0.9595512868969340  0.3996645843065366
  0.4171719320885757  0.0840842826455898  0.3994849015723850
  0.4177803737904990  0.2100143092311308  0.3997026730275854
  0.4213700363472405  0.3382698987679729  0.4034871222513597
  0.4150777758632088  0.7068702388957191  0.3996031376800256
  0.4162881785546524  0.8326014430073386  0.3992079832061236
  0.4168028916256251  0.9583794039698540  0.3995618257442390
  0.5417349795939654  0.0827403782590368  0.3996189648283385
  0.5422298140931947  0.2083315452491825  0.3991894050681485
  0.5434740599194974  0.3337315825965524  0.3993606026517768
  0.5445395788043202  0.4577448901459626  0.4021522730451991
  0.5390219675400340  0.7027496120914294  0.4023903730712490
  0.5408458924058192  0.8307590015588761  0.3998931483236728
  0.5413408926382707  0.9569630200740937  0.3996555482096648
  0.6663855467679237  0.0822505687593870  0.4000137991847252
  0.6667694681076124  0.2076232481136124  0.3997130368166418
  0.6676780242419629  0.3330762579383147  0.3989175405830810
  0.6690559920247255  0.4585216911485590  0.3981572259308307
  0.6690955139522231  0.5829866233004999  0.3988276955946681
  0.6669091501666417  0.7067952053145579  0.3994454134772584
  0.6651299921994372  0.8307876389220227  0.3998770096861487
  0.6659527368850341  0.9566844933253409  0.3998999278692606
  0.7911119852695337  0.0822535904955917  0.3999539334958331
  0.7914112020653484  0.2075651048694583  0.4000945473899366
  0.7919361528111608  0.3328961605619308  0.3997928920693474
  0.7927360732879207  0.4582743796479898  0.3990796896059386
  0.7933813198182851  0.5836711440883312  0.3984699371569115
  0.7928118082939591  0.7084797278229028  0.3987513071433646
  0.7914901640677421  0.8326100882312624  0.3992104421001759
  0.7908465472134085  0.9569957519093645  0.3996314890562709
  0.9162664556209825  0.0827901326762572  0.3995921568417545
  0.9160901533104642  0.2076493653697157  0.3996347371961381
  0.9162067220310169  0.3329130078488283  0.3997089159758102
  0.9167810721947246  0.4583678812258848  0.3998139292197684
  0.9174600027634917  0.5837695541580070  0.3997359837714681
  0.9176395270139717  0.7089677653940661  0.3995730922526906
  0.9174176209802609  0.8339803117502853  0.3994888229598087
  0.9168133608521494  0.9584113059258680  0.3995986435510673
  0.0845177709124813  0.0432549302785268  0.3996269135932709
  0.0838226645500915  0.1675995251096266  0.3993755611374702
  0.0824778823192558  0.2916932897421634  0.3990648291322231
  0.0817955686147400  0.4164251171235379  0.3986102403437853
  0.0824745712881165  0.5418596573352361  0.3990513186534780
  0.0833591637569538  0.6672671367413184  0.3998149046812911
  0.0839186699515929  0.7926316569084536  0.4001231558974326
  0.0842375465983107  0.9179654975137385  0.3999322768824531
  0.2093871272333183  0.0435390586133912  0.3999039146499139
  0.2102411118820100  0.1694864159814328  0.4003428405627997
  0.2083975131100798  0.2933840852156162  0.4003743535031919
  0.2060948895075303  0.4171431531905225  0.3996657723447182
  0.2061107550215568  0.5415883515782972  0.3984418554147139
  0.2075439610615306  0.6670475694757392  0.3989124358103848
  0.2085078920192679  0.7925345480198474  0.3996856906271702
  0.2089355257396615  0.9179493163830680  0.3998908034486550
  0.3339495367995996  0.0432283046577797  0.3996157781869984
  0.3344987052436419  0.1694820686337296  0.4003204770071053
  0.3365320042247198  0.2976551082523371  0.4035792970936661
  0.3308292683391922  0.5425133872899767  0.4020416329443148
  0.3317856408792015  0.6664288694238480  0.3991217837628477
  0.3330400699447443  0.7918299819961535  0.3991344680845615
  0.3335436544938269  0.9174211316684946  0.3995460873345724
  0.4584883257460096  0.0418178583036941  0.3995661028384535
  0.4589819327215235  0.1676125522745683  0.3993160076697230
  0.4602602109990473  0.2934559405604907  0.4001961222242778
  0.4542997691238810  0.6623702967730264  0.4023661131029419
  0.4575214146739032  0.7902516861058394  0.3993245670887482
  0.4581194829606099  0.9161325177184924  0.3995002659671858
  0.5830755728013446  0.0406261512108594  0.3997843104657165
  0.5835295843133944  0.1662083379570506  0.3994650161936925
  0.5844162456970579  0.2916566957993709  0.3989485223831705
  0.5861957506223769  0.4171181510359447  0.3992241411491087
  0.5868761858834063  0.5424768159602027  0.4016866817481905
  0.5832377421744755  0.6621610769626303  0.4023006573410701
  0.5813214047450347  0.7874003899756419  0.4006472837220714
  0.5826560604147615  0.9146132417825139  0.3997706690655962
  0.7077693868144881  0.0403107108065764  0.4000138941464192
  0.7081671830395745  0.1657887298753102  0.4000458431370833
  0.7087589686967367  0.2911944387420019  0.3995019555218534
  0.7097707515050453  0.4164322939665527  0.3985154407271076
  0.7105627546824471  0.5415584804360912  0.3980596842373622
  0.7097952183317905  0.6664179043187742  0.3988496499597825
  0.7078702501633475  0.7902235528808254  0.3992818800713418
  0.7071729983422065  0.9146380615126241  0.3997460164942230
  0.8328042693405998  0.0406641063542681  0.3997353665612280
  0.8328665159549118  0.1658048571888914  0.3999728102983865
  0.8331190952641756  0.2909837866471636  0.3999790842565216
  0.8337761531884774  0.4163852610027845  0.3996848167494259
  0.8345056073709889  0.5418374271071010  0.3990868633026909
  0.8346524062321160  0.6670493679645533  0.3988723936386694
  0.8339766346024756  0.7918482816125746  0.3991219241050567
  0.8332296231669519  0.9161539750631678  0.3995233065014174
  0.9585792350081049  0.0418499075510144  0.3995842422531035
  0.9579218501119056  0.1662455631706882  0.3994270404294155
  0.9576511294084754  0.2912063851528066  0.3994110728044781
  0.9577975147533754  0.4163950594136346  0.3995854444349954
  0.9584959751481087  0.5418075374357396  0.3998587651011836
  0.9591009091178196  0.6672710217840875  0.3998917090907121
  0.9592263661508077  0.7925510304568718  0.3997557825970271
  0.9591162784851532  0.9174674446374563  0.3996097561854320
  0.4110114328619311  0.5827983789576878  0.4056961694008651
  0.5470484102011316  0.5825701760189367  0.4056532878632874
  0.3285282011573770  0.4178373582026761  0.4069326911376251
  0.4648971664028406  0.4180214008965136  0.4068254514295685
  0.5109915730206546  0.5156291018226655  0.5139202372007835
  0.4382576414184393  0.5208738283817255  0.5190191635161563
 
  0.00000000E+00  0.00000000E+00  0.00000000E+00
  0.00000000E+00  0.00000000E+00  0.00000000E+00
  0.00000000E+00  0.00000000E+00  0.00000000E+00
  0.00000000E+00  0.00000000E+00  0.00000000E+00
  0.00000000E+00  0.00000000E+00  0.00000000E+00
  0.00000000E+00  0.00000000E+00  0.00000000E+00
  0.00000000E+00  0.00000000E+00  0.00000000E+00
  0.00000000E+00  0.00000000E+00  0.00000000E+00
  0.00000000E+00  0.00000000E+00  0.00000000E+00
  0.00000000E+00  0.00000000E+00  0.00000000E+00
  0.00000000E+00  0.00000000E+00  0.00000000E+00
  0.00000000E+00  0.00000000E+00  0.00000000E+00
  0.00000000E+00  0.00000000E+00  0.00000000E+00
  0.00000000E+00  0.00000000E+00  0.00000000E+00
  0.00000000E+00  0.00000000E+00  0.00000000E+00
  0.00000000E+00  0.00000000E+00  0.00000000E+00
  0.00000000E+00  0.00000000E+00  0.00000000E+00
  0.00000000E+00  0.00000000E+00  0.00000000E+00
  0.00000000E+00  0.00000000E+00  0.00000000E+00
  0.00000000E+00  0.00000000E+00  0.00000000E+00
  0.00000000E+00  0.00000000E+00  0.00000000E+00
  0.00000000E+00  0.00000000E+00  0.00000000E+00
  0.00000000E+00  0.00000000E+00  0.00000000E+00
  0.00000000E+00  0.00000000E+00  0.00000000E+00
  0.00000000E+00  0.00000000E+00  0.00000000E+00
  0.00000000E+00  0.00000000E+00  0.00000000E+00
  0.00000000E+00  0.00000000E+00  0.00000000E+00
  0.00000000E+00  0.00000000E+00  0.00000000E+00
  0.00000000E+00  0.00000000E+00  0.00000000E+00
  0.00000000E+00  0.00000000E+00  0.00000000E+00
  0.00000000E+00  0.00000000E+00  0.00000000E+00
  0.00000000E+00  0.00000000E+00  0.00000000E+00
  0.00000000E+00  0.00000000E+00  0.00000000E+00
  0.00000000E+00  0.00000000E+00  0.00000000E+00
  0.00000000E+00  0.00000000E+00  0.00000000E+00
  0.00000000E+00  0.00000000E+00  0.00000000E+00
  0.00000000E+00  0.00000000E+00  0.00000000E+00
  0.00000000E+00  0.00000000E+00  0.00000000E+00
  0.00000000E+00  0.00000000E+00  0.00000000E+00
  0.00000000E+00  0.00000000E+00  0.00000000E+00
  0.00000000E+00  0.00000000E+00  0.00000000E+00
  0.00000000E+00  0.00000000E+00  0.00000000E+00
  0.00000000E+00  0.00000000E+00  0.00000000E+00
  0.00000000E+00  0.00000000E+00  0.00000000E+00
  0.00000000E+00  0.00000000E+00  0.00000000E+00
  0.00000000E+00  0.00000000E+00  0.00000000E+00
  0.00000000E+00  0.00000000E+00  0.00000000E+00
  0.00000000E+00  0.00000000E+00  0.00000000E+00
  0.00000000E+00  0.00000000E+00  0.00000000E+00
  0.00000000E+00  0.00000000E+00  0.00000000E+00
  0.00000000E+00  0.00000000E+00  0.00000000E+00
  0.00000000E+00  0.00000000E+00  0.00000000E+00
  0.00000000E+00  0.00000000E+00  0.00000000E+00
  0.00000000E+00  0.00000000E+00  0.00000000E+00
  0.00000000E+00  0.00000000E+00  0.00000000E+00
  0.00000000E+00  0.00000000E+00  0.00000000E+00
  0.00000000E+00  0.00000000E+00  0.00000000E+00
  0.00000000E+00  0.00000000E+00  0.00000000E+00
  0.00000000E+00  0.00000000E+00  0.00000000E+00
  0.00000000E+00  0.00000000E+00  0.00000000E+00
  0.00000000E+00  0.00000000E+00  0.00000000E+00
  0.00000000E+00  0.00000000E+00  0.00000000E+00
  0.00000000E+00  0.00000000E+00  0.00000000E+00
  0.00000000E+00  0.00000000E+00  0.00000000E+00
  0.00000000E+00  0.00000000E+00  0.00000000E+00
  0.00000000E+00  0.00000000E+00  0.00000000E+00
  0.00000000E+00  0.00000000E+00  0.00000000E+00
  0.00000000E+00  0.00000000E+00  0.00000000E+00
  0.00000000E+00  0.00000000E+00  0.00000000E+00
  0.00000000E+00  0.00000000E+00  0.00000000E+00
  0.00000000E+00  0.00000000E+00  0.00000000E+00
  0.00000000E+00  0.00000000E+00  0.00000000E+00
  0.00000000E+00  0.00000000E+00  0.00000000E+00
  0.00000000E+00  0.00000000E+00  0.00000000E+00
  0.00000000E+00  0.00000000E+00  0.00000000E+00
  0.00000000E+00  0.00000000E+00  0.00000000E+00
  0.00000000E+00  0.00000000E+00  0.00000000E+00
  0.00000000E+00  0.00000000E+00  0.00000000E+00
  0.00000000E+00  0.00000000E+00  0.00000000E+00
  0.00000000E+00  0.00000000E+00  0.00000000E+00
  0.00000000E+00  0.00000000E+00  0.00000000E+00
  0.00000000E+00  0.00000000E+00  0.00000000E+00
  0.00000000E+00  0.00000000E+00  0.00000000E+00
  0.00000000E+00  0.00000000E+00  0.00000000E+00
  0.00000000E+00  0.00000000E+00  0.00000000E+00
  0.00000000E+00  0.00000000E+00  0.00000000E+00
  0.00000000E+00  0.00000000E+00  0.00000000E+00
  0.00000000E+00  0.00000000E+00  0.00000000E+00
  0.00000000E+00  0.00000000E+00  0.00000000E+00
  0.00000000E+00  0.00000000E+00  0.00000000E+00
  0.00000000E+00  0.00000000E+00  0.00000000E+00
  0.00000000E+00  0.00000000E+00  0.00000000E+00
  0.00000000E+00  0.00000000E+00  0.00000000E+00
  0.00000000E+00  0.00000000E+00  0.00000000E+00
  0.00000000E+00  0.00000000E+00  0.00000000E+00
  0.00000000E+00  0.00000000E+00  0.00000000E+00
  0.00000000E+00  0.00000000E+00  0.00000000E+00
  0.00000000E+00  0.00000000E+00  0.00000000E+00
  0.00000000E+00  0.00000000E+00  0.00000000E+00
  0.00000000E+00  0.00000000E+00  0.00000000E+00
  0.00000000E+00  0.00000000E+00  0.00000000E+00
  0.00000000E+00  0.00000000E+00  0.00000000E+00
  0.00000000E+00  0.00000000E+00  0.00000000E+00
  0.00000000E+00  0.00000000E+00  0.00000000E+00
  0.00000000E+00  0.00000000E+00  0.00000000E+00
  0.00000000E+00  0.00000000E+00  0.00000000E+00
  0.00000000E+00  0.00000000E+00  0.00000000E+00
  0.00000000E+00  0.00000000E+00  0.00000000E+00
  0.00000000E+00  0.00000000E+00  0.00000000E+00
  0.00000000E+00  0.00000000E+00  0.00000000E+00
  0.00000000E+00  0.00000000E+00  0.00000000E+00
  0.00000000E+00  0.00000000E+00  0.00000000E+00
  0.00000000E+00  0.00000000E+00  0.00000000E+00
  0.00000000E+00  0.00000000E+00  0.00000000E+00
  0.00000000E+00  0.00000000E+00  0.00000000E+00
  0.00000000E+00  0.00000000E+00  0.00000000E+00
  0.00000000E+00  0.00000000E+00  0.00000000E+00
  0.00000000E+00  0.00000000E+00  0.00000000E+00
  0.00000000E+00  0.00000000E+00  0.00000000E+00
  0.00000000E+00  0.00000000E+00  0.00000000E+00
  0.00000000E+00  0.00000000E+00  0.00000000E+00
  0.00000000E+00  0.00000000E+00  0.00000000E+00
  0.00000000E+00  0.00000000E+00  0.00000000E+00
  0.00000000E+00  0.00000000E+00  0.00000000E+00
  0.00000000E+00  0.00000000E+00  0.00000000E+00
  0.00000000E+00  0.00000000E+00  0.00000000E+00
  0.00000000E+00  0.00000000E+00  0.00000000E+00
  0.00000000E+00  0.00000000E+00  0.00000000E+00
  0.00000000E+00  0.00000000E+00  0.00000000E+00
  0.00000000E+00  0.00000000E+00  0.00000000E+00
