Mo1 H1 C122 N4 O1                       
   1.00000000000000     
    19.8019194911363705    0.0003479661438558    0.0083535317130345
    -9.9009965857297573   17.0115761629672981   -0.3223172434281497
     0.0126008753408298   -0.5577315244749455   29.8811618696848811
   Mo   H    C    N    O 
     1     1   122     4     1
Direct
  0.4380805451529968  0.5029350896070269  0.4348403934471023
  0.4783970043887007  0.5123210579681207  0.5184254611517567
  0.0423573000148477  0.0845630376994635  0.3998848535006347
  0.0414409612112889  0.2085952192671320  0.3993390856351298
  0.0405731564866364  0.3332108680000729  0.3979981237747584
  0.0404429516122902  0.4582891798588368  0.3968958695359097
  0.0412695930196519  0.5837272965268623  0.3968482159574744
  0.0420630234711502  0.7092243026052705  0.3976431208483147
  0.0423401940629817  0.8345151884113011  0.3987832427056967
  0.0425419176488888  0.9597966057454815  0.3995900059459259
  0.1683813294020313  0.0862603069946547  0.4008285447661731
  0.1682534405583493  0.2111494606115423  0.4009749105169842
  0.1655562753089263  0.3342799038898353  0.3999127757303106
  0.1642175046453093  0.4586666148236550  0.3979110027879728
  0.1651198973816067  0.5837379792638969  0.3972698884818061
  0.1664187226648299  0.7090089820379730  0.3978071966807484
  0.1671257838515534  0.8345039190605766  0.3988489595481706
  0.1676373480952005  0.9603024535566882  0.3999464759496804
  0.2928835244993115  0.0863076752428771  0.4010174308850941
  0.2946121737390024  0.2142540568754336  0.4030408463700064
  0.2934961193063670  0.3401008748853684  0.4046998100537871
  0.2875809032672766  0.4590541540307596  0.4022536416221960
  0.2885315426774874  0.5832251863559005  0.3991755079657053
  0.2908630561854202  0.7083788146928963  0.3986454401443674
  0.2918534952218814  0.8340417629067062  0.3989212479358945
  0.2922487706232609  0.9598987010955234  0.3997075907392870
  0.4172296970317826  0.0847063580135786  0.4000631591288035
  0.4179225924004033  0.2113544346662760  0.4015641765152323
  0.4216530807234151  0.3403624906140535  0.4059869925256358
  0.4150937181291348  0.7057159437463731  0.4009463937871053
  0.4163258162454238  0.8323103175648462  0.3996370377862139
  0.4167698043083620  0.9584382089108867  0.3994826064886436
  0.5416048326482682  0.0829427844398056  0.3993542216673645
  0.5421802711311234  0.2086792574800733  0.3996412638106838
  0.5437760240041580  0.3343727354135125  0.4006847950864761
  0.5466842576862687  0.4592561728379174  0.4037679567385331
  0.5383537377208163  0.7017279907456053  0.4049139987426104
  0.5405865439886760  0.8303238926379236  0.4012333708200607
  0.5412959993291131  0.9569527121101522  0.3998056392662890
  0.6661965278411247  0.0822083332460725  0.3993110657312945
  0.6667049290541186  0.2077340508196733  0.3985992550563535
  0.6676216031118486  0.3332141491839271  0.3979827864882690
  0.6693529381116823  0.4586233802514179  0.3977638655981496
  0.6696357101541840  0.5832452381147551  0.3997999246511951
  0.6654468979093424  0.7055493993701485  0.4020868153678789
  0.6646727158177120  0.8302777311431500  0.4015897105823381
  0.6657553742560530  0.9565324007223962  0.4003754007300836
  0.7909957263375289  0.0821941615825915  0.3993845264150163
  0.7912704009743721  0.2075583975525415  0.3984700129912361
  0.7917554273166412  0.3328772734048024  0.3974684957377270
  0.7927912934847167  0.4582708260598028  0.3966407384307520
  0.7935325418983145  0.5837054540293596  0.3969702776780651
  0.7924632992274696  0.7083349926912852  0.3989310858691346
  0.7908537534321277  0.8322071314006776  0.4000019537201768
  0.7905794903976310  0.9568777081880819  0.4000012200385267
  0.9162469301123174  0.0828726734995090  0.3993612900942521
  0.9160385124535217  0.2077324466889799  0.3985798536066046
  0.9160698548751421  0.3328745544364215  0.3975046586639659
  0.9165985466306318  0.4582747856683823  0.3967635689539614
  0.9173875004229216  0.5837336618592723  0.3967076101617781
  0.9175307590844853  0.7090004120913542  0.3976493220698287
  0.9171139170908132  0.8339590259039120  0.3988958485821807
  0.9165933837708833  0.9583691131739606  0.3994906803906977
  0.0846956281113342  0.0436839373027936  0.4001113530375340
  0.0843496392900746  0.1683121103288284  0.4000246065395580
  0.0827653893322643  0.2920808921716889  0.3989807124735646
  0.0815209679661327  0.4164639800487704  0.3974120685088776
  0.0822099967869495  0.5418291177798590  0.3968422800221685
  0.0832664553357927  0.6673205232411497  0.3973308712596816
  0.0838725459290711  0.7928153833697844  0.3984422593918990
  0.0842440342747627  0.9183161289106329  0.3994803133254272
  0.2095994115752989  0.0442137508655014  0.4007097632193718
  0.2107492022076487  0.1705879661314187  0.4016836191436647
  0.2098454505876159  0.2951475227992653  0.4013895591039763
  0.2056161686594848  0.4173459826071129  0.3994719823956582
  0.2056845294025062  0.5416478736941055  0.3978142799937659
  0.2074586104086397  0.6670635211483831  0.3977889272331343
  0.2084674356082962  0.7926426957828706  0.3985061561912753
  0.2090361982556999  0.9183288991959168  0.3995576944646516
  0.3339942847840969  0.0437851264113703  0.4002870326694645
  0.3348505677544781  0.1706655753927308  0.4020293346966867
  0.3373610089351015  0.2997236026495048  0.4053710118409097
  0.3290234108463934  0.5419584931331669  0.4020497461603508
  0.3315599602143882  0.6663503518057604  0.3994911091969052
  0.3330880353701288  0.7919182579996311  0.3990400782689157
  0.3336183934110156  0.9176713392505625  0.3993634541757917
  0.4584561894392347  0.0421928918438775  0.3995870140969278
  0.4589701696335857  0.1684721711329878  0.4003737156495679
  0.4603618937214273  0.2954305891101488  0.4024939770892901
  0.4540635119071834  0.6612513321774258  0.4042331733008195
  0.4574795662651754  0.7896480969433676  0.4005291842012327
  0.4580621225918262  0.9160413229125601  0.3995831262663229
  0.5830056373151107  0.0407499400994081  0.3994297001048360
  0.5833603632281551  0.1665005500736647  0.3991398677680709
  0.5843303140983501  0.2921578422011006  0.3993176492939390
  0.5866797757798364  0.4173691380751408  0.4000315873334717
  0.5880246787160481  0.5419010434709326  0.4036457102455177
  0.5820617904976596  0.6611666063948913  0.4055941450023726
  0.5809210147835865  0.7868992341710997  0.4025683948845082
  0.5824917770043746  0.9145129363418827  0.4004626712618542
  0.7076520519499122  0.0403122164383254  0.3996687626311286
  0.7080587851703827  0.1658991261255009  0.3987795741237878
  0.7086434774859000  0.2912479146232056  0.3979426890054796
  0.7098978790564421  0.4164496691253037  0.3971680793493090
  0.7108445651080547  0.5416260109103183  0.3976716699112131
  0.7097823771635343  0.6663474961735792  0.4003330080489767
  0.7070083330222395  0.7895077898025802  0.4011458669128160
  0.7069918327850400  0.9144924477043170  0.4006494242760466
  0.8326701077923856  0.0406792681522169  0.3995445106321441
  0.8328538537895505  0.1659032232606850  0.3987985900526791
  0.8329920751936892  0.2910247612462340  0.3977947267762260
  0.8337059567661302  0.4163767792513999  0.3968796776118569
  0.8345438634390163  0.5418003322173877  0.3965417036096385
  0.8345326542350695  0.6670362869256219  0.3976617154788335
  0.8337847215546943  0.7918828287239830  0.3992545671312044
  0.8328894490898591  0.9159552924590512  0.3997686709394770
  0.9586542584626754  0.0421281068502765  0.3995399756362338
  0.9580812561918832  0.1664285292437886  0.3990521879456588
  0.9575945578915670  0.2912585853660067  0.3979565247806928
  0.9576152097089179  0.4163765502877582  0.3969641144789255
  0.9583561567608045  0.5417933231833542  0.3966718225524434
  0.9589664053542287  0.6673084800759439  0.3972232355729679
  0.9591360379719576  0.7926147927409367  0.3984160707891479
  0.9589387032708931  0.9175740748959621  0.3992875706081255
  0.4095843901389273  0.5799841855613059  0.4077287716322398
  0.5452800780785283  0.5796816460011260  0.4104486312349907
  0.3305187725193385  0.4218392539103804  0.4080950201608789
  0.4666493400512833  0.4224781348764308  0.4106225842761790
  0.4391507763586047  0.5084798746203556  0.4972819013747473
 
  0.00000000E+00  0.00000000E+00  0.00000000E+00
  0.00000000E+00  0.00000000E+00  0.00000000E+00
  0.00000000E+00  0.00000000E+00  0.00000000E+00
  0.00000000E+00  0.00000000E+00  0.00000000E+00
  0.00000000E+00  0.00000000E+00  0.00000000E+00
  0.00000000E+00  0.00000000E+00  0.00000000E+00
  0.00000000E+00  0.00000000E+00  0.00000000E+00
  0.00000000E+00  0.00000000E+00  0.00000000E+00
  0.00000000E+00  0.00000000E+00  0.00000000E+00
  0.00000000E+00  0.00000000E+00  0.00000000E+00
  0.00000000E+00  0.00000000E+00  0.00000000E+00
  0.00000000E+00  0.00000000E+00  0.00000000E+00
  0.00000000E+00  0.00000000E+00  0.00000000E+00
  0.00000000E+00  0.00000000E+00  0.00000000E+00
  0.00000000E+00  0.00000000E+00  0.00000000E+00
  0.00000000E+00  0.00000000E+00  0.00000000E+00
  0.00000000E+00  0.00000000E+00  0.00000000E+00
  0.00000000E+00  0.00000000E+00  0.00000000E+00
  0.00000000E+00  0.00000000E+00  0.00000000E+00
  0.00000000E+00  0.00000000E+00  0.00000000E+00
  0.00000000E+00  0.00000000E+00  0.00000000E+00
  0.00000000E+00  0.00000000E+00  0.00000000E+00
  0.00000000E+00  0.00000000E+00  0.00000000E+00
  0.00000000E+00  0.00000000E+00  0.00000000E+00
  0.00000000E+00  0.00000000E+00  0.00000000E+00
  0.00000000E+00  0.00000000E+00  0.00000000E+00
  0.00000000E+00  0.00000000E+00  0.00000000E+00
  0.00000000E+00  0.00000000E+00  0.00000000E+00
  0.00000000E+00  0.00000000E+00  0.00000000E+00
  0.00000000E+00  0.00000000E+00  0.00000000E+00
  0.00000000E+00  0.00000000E+00  0.00000000E+00
  0.00000000E+00  0.00000000E+00  0.00000000E+00
  0.00000000E+00  0.00000000E+00  0.00000000E+00
  0.00000000E+00  0.00000000E+00  0.00000000E+00
  0.00000000E+00  0.00000000E+00  0.00000000E+00
  0.00000000E+00  0.00000000E+00  0.00000000E+00
  0.00000000E+00  0.00000000E+00  0.00000000E+00
  0.00000000E+00  0.00000000E+00  0.00000000E+00
  0.00000000E+00  0.00000000E+00  0.00000000E+00
  0.00000000E+00  0.00000000E+00  0.00000000E+00
  0.00000000E+00  0.00000000E+00  0.00000000E+00
  0.00000000E+00  0.00000000E+00  0.00000000E+00
  0.00000000E+00  0.00000000E+00  0.00000000E+00
  0.00000000E+00  0.00000000E+00  0.00000000E+00
  0.00000000E+00  0.00000000E+00  0.00000000E+00
  0.00000000E+00  0.00000000E+00  0.00000000E+00
  0.00000000E+00  0.00000000E+00  0.00000000E+00
  0.00000000E+00  0.00000000E+00  0.00000000E+00
  0.00000000E+00  0.00000000E+00  0.00000000E+00
  0.00000000E+00  0.00000000E+00  0.00000000E+00
  0.00000000E+00  0.00000000E+00  0.00000000E+00
  0.00000000E+00  0.00000000E+00  0.00000000E+00
  0.00000000E+00  0.00000000E+00  0.00000000E+00
  0.00000000E+00  0.00000000E+00  0.00000000E+00
  0.00000000E+00  0.00000000E+00  0.00000000E+00
  0.00000000E+00  0.00000000E+00  0.00000000E+00
  0.00000000E+00  0.00000000E+00  0.00000000E+00
  0.00000000E+00  0.00000000E+00  0.00000000E+00
  0.00000000E+00  0.00000000E+00  0.00000000E+00
  0.00000000E+00  0.00000000E+00  0.00000000E+00
  0.00000000E+00  0.00000000E+00  0.00000000E+00
  0.00000000E+00  0.00000000E+00  0.00000000E+00
  0.00000000E+00  0.00000000E+00  0.00000000E+00
  0.00000000E+00  0.00000000E+00  0.00000000E+00
  0.00000000E+00  0.00000000E+00  0.00000000E+00
  0.00000000E+00  0.00000000E+00  0.00000000E+00
  0.00000000E+00  0.00000000E+00  0.00000000E+00
  0.00000000E+00  0.00000000E+00  0.00000000E+00
  0.00000000E+00  0.00000000E+00  0.00000000E+00
  0.00000000E+00  0.00000000E+00  0.00000000E+00
  0.00000000E+00  0.00000000E+00  0.00000000E+00
  0.00000000E+00  0.00000000E+00  0.00000000E+00
  0.00000000E+00  0.00000000E+00  0.00000000E+00
  0.00000000E+00  0.00000000E+00  0.00000000E+00
  0.00000000E+00  0.00000000E+00  0.00000000E+00
  0.00000000E+00  0.00000000E+00  0.00000000E+00
  0.00000000E+00  0.00000000E+00  0.00000000E+00
  0.00000000E+00  0.00000000E+00  0.00000000E+00
  0.00000000E+00  0.00000000E+00  0.00000000E+00
  0.00000000E+00  0.00000000E+00  0.00000000E+00
  0.00000000E+00  0.00000000E+00  0.00000000E+00
  0.00000000E+00  0.00000000E+00  0.00000000E+00
  0.00000000E+00  0.00000000E+00  0.00000000E+00
  0.00000000E+00  0.00000000E+00  0.00000000E+00
  0.00000000E+00  0.00000000E+00  0.00000000E+00
  0.00000000E+00  0.00000000E+00  0.00000000E+00
  0.00000000E+00  0.00000000E+00  0.00000000E+00
  0.00000000E+00  0.00000000E+00  0.00000000E+00
  0.00000000E+00  0.00000000E+00  0.00000000E+00
  0.00000000E+00  0.00000000E+00  0.00000000E+00
  0.00000000E+00  0.00000000E+00  0.00000000E+00
  0.00000000E+00  0.00000000E+00  0.00000000E+00
  0.00000000E+00  0.00000000E+00  0.00000000E+00
  0.00000000E+00  0.00000000E+00  0.00000000E+00
  0.00000000E+00  0.00000000E+00  0.00000000E+00
  0.00000000E+00  0.00000000E+00  0.00000000E+00
  0.00000000E+00  0.00000000E+00  0.00000000E+00
  0.00000000E+00  0.00000000E+00  0.00000000E+00
  0.00000000E+00  0.00000000E+00  0.00000000E+00
  0.00000000E+00  0.00000000E+00  0.00000000E+00
  0.00000000E+00  0.00000000E+00  0.00000000E+00
  0.00000000E+00  0.00000000E+00  0.00000000E+00
  0.00000000E+00  0.00000000E+00  0.00000000E+00
  0.00000000E+00  0.00000000E+00  0.00000000E+00
  0.00000000E+00  0.00000000E+00  0.00000000E+00
  0.00000000E+00  0.00000000E+00  0.00000000E+00
  0.00000000E+00  0.00000000E+00  0.00000000E+00
  0.00000000E+00  0.00000000E+00  0.00000000E+00
  0.00000000E+00  0.00000000E+00  0.00000000E+00
  0.00000000E+00  0.00000000E+00  0.00000000E+00
  0.00000000E+00  0.00000000E+00  0.00000000E+00
  0.00000000E+00  0.00000000E+00  0.00000000E+00
  0.00000000E+00  0.00000000E+00  0.00000000E+00
  0.00000000E+00  0.00000000E+00  0.00000000E+00
  0.00000000E+00  0.00000000E+00  0.00000000E+00
  0.00000000E+00  0.00000000E+00  0.00000000E+00
  0.00000000E+00  0.00000000E+00  0.00000000E+00
  0.00000000E+00  0.00000000E+00  0.00000000E+00
  0.00000000E+00  0.00000000E+00  0.00000000E+00
  0.00000000E+00  0.00000000E+00  0.00000000E+00
  0.00000000E+00  0.00000000E+00  0.00000000E+00
  0.00000000E+00  0.00000000E+00  0.00000000E+00
  0.00000000E+00  0.00000000E+00  0.00000000E+00
  0.00000000E+00  0.00000000E+00  0.00000000E+00
  0.00000000E+00  0.00000000E+00  0.00000000E+00
  0.00000000E+00  0.00000000E+00  0.00000000E+00
  0.00000000E+00  0.00000000E+00  0.00000000E+00
  0.00000000E+00  0.00000000E+00  0.00000000E+00
  0.00000000E+00  0.00000000E+00  0.00000000E+00
