Hf1 H1 C126 O1                          
   1.00000000000000     
    19.8158494070962554   -0.0006439454730385   -0.0404407186088735
    -9.9088919931381749   17.0796084269915518   -0.1305122870900061
    -0.0605729336819990   -0.2618308381299381   29.7341289834790921
   Hf   H    C    O 
     1     1   126     1
Direct
  0.4438695182956389  0.5041322097811088  0.4420933358670200
  0.4859906679886931  0.5453397949315981  0.5337558101434393
  0.0417297763394373  0.0837610097321412  0.3994112510299770
  0.0408438968616827  0.2079687924050598  0.3990081434661695
  0.0404584383975462  0.3328335653090960  0.3984083271523860
  0.0405972090476801  0.4583169726937014  0.3983027333615503
  0.0413546036733876  0.5837108538906818  0.3990375836310847
  0.0420417545148131  0.7090221651809029  0.3996314050098408
  0.0423402890545763  0.8343036716063957  0.3998009054485594
  0.0423129995319728  0.9592450786276617  0.3996524320772438
  0.1673533152364442  0.0847589639231661  0.3999354722262523
  0.1666308040383338  0.2091001163565491  0.4000740127520629
  0.1651070824464173  0.3331441017408991  0.3998588952463659
  0.1642687707603490  0.4582572998525228  0.3979168584845999
  0.1651845073906185  0.5836226813203759  0.3976694586289085
  0.1663840299683741  0.7090209799250883  0.3987756430076980
  0.1669563263639595  0.8342759248595198  0.3995883122245959
  0.1673030919221034  0.9595927907742391  0.3998457823429783
  0.2924014321955398  0.0847731157118018  0.3997611752806450
  0.2929941070133477  0.2110589833792714  0.4013493637839460
  0.2913831488549799  0.3357879054890590  0.4055316176933711
  0.2873406461522887  0.4577617744446916  0.4050808947897569
  0.2888335244344167  0.5839789474515326  0.3992459094992151
  0.2907679813504713  0.7089274978554212  0.3981773952578641
  0.2915484365110813  0.8339868098577504  0.3989168848032219
  0.2919584692158216  0.9592415778782120  0.3995201786542267
  0.4170535658026260  0.0837224476089015  0.3994667640129135
  0.4174798990808369  0.2090140261281019  0.3996069432744833
  0.4192043450759587  0.3356367252604938  0.4023342409908121
  0.4110739983369474  0.5833740718890560  0.4105282709439796
  0.4154587823625530  0.7078715371667075  0.4001112712438137
  0.4162038435023543  0.8332564774469895  0.3987734027961955
  0.4166095776820112  0.9584115882316334  0.3992562598368792
  0.5416932488860200  0.0828256820797666  0.3995449088885623
  0.5421685638486232  0.2079204046584444  0.3991715962668775
  0.5430675663364546  0.3330102679192598  0.3987883575415095
  0.5453262328155651  0.4575459062101948  0.3996467131721863
  0.5460131175635188  0.5823018262391109  0.4029887967811046
  0.5404631424394132  0.7061516941352628  0.4029123454065666
  0.5407797249481127  0.8320159210735615  0.3999366258587173
  0.5413378455510272  0.9575273667997084  0.3994418251791129
  0.6663365948019951  0.0824346445736858  0.3997803895634086
  0.6667974727558625  0.2076839331042133  0.3995982478913608
  0.6674755374806043  0.3328095878764625  0.3988488851673275
  0.6692153477262650  0.4582264625661556  0.3978940120081108
  0.6703312902867599  0.5839439737695015  0.3977734799878956
  0.6672697176229484  0.7078003560066920  0.3987487734036714
  0.6661010477063785  0.8319496431695838  0.3996193718894762
  0.6660997386825481  0.9572152502173296  0.3997096117798626
  0.7911542360479040  0.0824339829116595  0.3996640998599504
  0.7913408868900580  0.2075875984617937  0.3997159468345501
  0.7918700978020312  0.3328763073502173  0.3995282623879986
  0.7928820038476030  0.4583192613563165  0.3989981862926910
  0.7935905292306140  0.5836472058856244  0.3983313689272202
  0.7931956612851760  0.7089707247306045  0.3983677312388222
  0.7920396881115823  0.8332546852450237  0.3989996789798194
  0.7911769802658495  0.9575131812485393  0.3994092752059404
  0.9162166870741966  0.0828484629098150  0.3993684621202684
  0.9159792502897985  0.2077024694045082  0.3992666507503820
  0.9161535939903970  0.3328812825411325  0.3991840582768914
  0.9167063979926261  0.4582449929051939  0.3993528489946898
  0.9174835662218838  0.5837391750205265  0.3994243378749122
  0.9177001820302439  0.7090610059657552  0.3993340750791677
  0.9174601514218319  0.8340229228932432  0.3993176549986169
  0.9168339320372306  0.9584319138082851  0.3993829392958942
  0.0839508642138036  0.0426866691016719  0.3996329790242590
  0.0831600415877599  0.1669824944942518  0.3993095087331556
  0.0820471232925111  0.2912668673275244  0.3987852821534283
  0.0817110803821841  0.4164667719939357  0.3978906151709851
  0.0822771584342589  0.5417808940558110  0.3982724129488077
  0.0832859593000734  0.6672547265384355  0.3992062720637985
  0.0838119160102329  0.7925930464091737  0.3997342755461579
  0.0840018569295779  0.9177820639313345  0.3998191827782921
  0.2090040144125863  0.0429958126483469  0.3998931514496205
  0.2089650710822511  0.1682545380928203  0.4005378592594061
  0.2079846648608923  0.2925726064503648  0.4012190272769414
  0.2051938572783688  0.4162902383637451  0.3998910987798730
  0.2059669020746327  0.5418626297563665  0.3976841836085395
  0.2075884717946259  0.6672885716054927  0.3980662092538707
  0.2082922432867694  0.7924575458150626  0.3991242312168637
  0.2087949892901728  0.9177705384278374  0.3996926615494990
  0.3337366921122953  0.0426903948887217  0.3995608169603754
  0.3342760663403248  0.1682857141262717  0.4001067876658200
  0.3346041069947680  0.2943031770971095  0.4038743991463383
  0.3285690327895658  0.4178452726606662  0.4117435858581121
  0.3297369575939194  0.5430468452238318  0.4045963196179848
  0.3319400835837321  0.6671166887396843  0.3989519933784320
  0.3328661913614466  0.7922106311856471  0.3985255164263159
  0.3334097441337086  0.9173603555342948  0.3992326088654988
  0.4584797162970261  0.0417802833900112  0.3994416665546104
  0.4588603489977939  0.1669357671735828  0.3993406801819380
  0.4595671991325638  0.2924218964577875  0.3996113270325978
  0.4639220983930332  0.4180287650752750  0.4042277350569030
  0.4557765708520863  0.6650376241966539  0.4043350034362218
  0.4575852698087983  0.7912376100938816  0.3992701293185834
  0.4580326773331304  0.9164918527797210  0.3991325043862390
  0.5831637377283421  0.0409613667253055  0.3996172737472852
  0.5835226111807977  0.1661573426076023  0.3994660785767791
  0.5842854265698257  0.2911689461576595  0.3987870585843601
  0.5863401854514985  0.4161440826774425  0.3983595541298229
  0.5880396963248137  0.5427212340422847  0.3991916467814860
  0.5837981466595666  0.6647495231259961  0.4012618711297620
  0.5820877827476448  0.7892859499314349  0.4006466364106694
  0.5826981039176982  0.9154816137671843  0.3996512745696093
  0.7078352105837344  0.0406046476996822  0.3997563905624205
  0.7081596888448759  0.1659008636154639  0.3997790981920241
  0.7087231921707288  0.2911015736537425  0.3993972460624768
  0.7099386254926021  0.4164393950829884  0.3984815535217643
  0.7110797338212848  0.5418558088823453  0.3977133999035739
  0.7101435396566028  0.6670985507964722  0.3980560581551333
  0.7086026295656797  0.7912040123916320  0.3990184357376345
  0.7077428902723937  0.9154439182003296  0.3995293396498524
  0.8328595135031801  0.0409576061295933  0.3994977108617684
  0.8328310274814864  0.1659156086571104  0.3996187520279515
  0.8331445751691918  0.2911502561802632  0.3995743130961478
  0.8338156196764683  0.4163894289563675  0.3994159930959265
  0.8346188853331219  0.5417726443130059  0.3989760733850426
  0.8347390058023467  0.6673043166206468  0.3986353032681983
  0.8343416602434024  0.7922269477523234  0.3988717480970490
  0.8334640086868198  0.9164969135105100  0.3993023122447764
  0.9583488665580467  0.0417996735595616  0.3993729100937862
  0.9577324758099525  0.1662009163697763  0.3991654525715242
  0.9575150286428935  0.2911259773868969  0.3989169525244367
  0.9577390874285041  0.4164139913577880  0.3990063297480442
  0.9585000391507827  0.5418798464396871  0.3993870221467800
  0.9590427784720325  0.6672643335512232  0.3995559930383486
  0.9591998948142177  0.7924826106989528  0.3995440671267044
  0.9589870252136686  0.9173743629985360  0.3994607552077158
  0.4539584636765506  0.5182882907773636  0.5076799181860765
 
  0.00000000E+00  0.00000000E+00  0.00000000E+00
  0.00000000E+00  0.00000000E+00  0.00000000E+00
  0.00000000E+00  0.00000000E+00  0.00000000E+00
  0.00000000E+00  0.00000000E+00  0.00000000E+00
  0.00000000E+00  0.00000000E+00  0.00000000E+00
  0.00000000E+00  0.00000000E+00  0.00000000E+00
  0.00000000E+00  0.00000000E+00  0.00000000E+00
  0.00000000E+00  0.00000000E+00  0.00000000E+00
  0.00000000E+00  0.00000000E+00  0.00000000E+00
  0.00000000E+00  0.00000000E+00  0.00000000E+00
  0.00000000E+00  0.00000000E+00  0.00000000E+00
  0.00000000E+00  0.00000000E+00  0.00000000E+00
  0.00000000E+00  0.00000000E+00  0.00000000E+00
  0.00000000E+00  0.00000000E+00  0.00000000E+00
  0.00000000E+00  0.00000000E+00  0.00000000E+00
  0.00000000E+00  0.00000000E+00  0.00000000E+00
  0.00000000E+00  0.00000000E+00  0.00000000E+00
  0.00000000E+00  0.00000000E+00  0.00000000E+00
  0.00000000E+00  0.00000000E+00  0.00000000E+00
  0.00000000E+00  0.00000000E+00  0.00000000E+00
  0.00000000E+00  0.00000000E+00  0.00000000E+00
  0.00000000E+00  0.00000000E+00  0.00000000E+00
  0.00000000E+00  0.00000000E+00  0.00000000E+00
  0.00000000E+00  0.00000000E+00  0.00000000E+00
  0.00000000E+00  0.00000000E+00  0.00000000E+00
  0.00000000E+00  0.00000000E+00  0.00000000E+00
  0.00000000E+00  0.00000000E+00  0.00000000E+00
  0.00000000E+00  0.00000000E+00  0.00000000E+00
  0.00000000E+00  0.00000000E+00  0.00000000E+00
  0.00000000E+00  0.00000000E+00  0.00000000E+00
  0.00000000E+00  0.00000000E+00  0.00000000E+00
  0.00000000E+00  0.00000000E+00  0.00000000E+00
  0.00000000E+00  0.00000000E+00  0.00000000E+00
  0.00000000E+00  0.00000000E+00  0.00000000E+00
  0.00000000E+00  0.00000000E+00  0.00000000E+00
  0.00000000E+00  0.00000000E+00  0.00000000E+00
  0.00000000E+00  0.00000000E+00  0.00000000E+00
  0.00000000E+00  0.00000000E+00  0.00000000E+00
  0.00000000E+00  0.00000000E+00  0.00000000E+00
  0.00000000E+00  0.00000000E+00  0.00000000E+00
  0.00000000E+00  0.00000000E+00  0.00000000E+00
  0.00000000E+00  0.00000000E+00  0.00000000E+00
  0.00000000E+00  0.00000000E+00  0.00000000E+00
  0.00000000E+00  0.00000000E+00  0.00000000E+00
  0.00000000E+00  0.00000000E+00  0.00000000E+00
  0.00000000E+00  0.00000000E+00  0.00000000E+00
  0.00000000E+00  0.00000000E+00  0.00000000E+00
  0.00000000E+00  0.00000000E+00  0.00000000E+00
  0.00000000E+00  0.00000000E+00  0.00000000E+00
  0.00000000E+00  0.00000000E+00  0.00000000E+00
  0.00000000E+00  0.00000000E+00  0.00000000E+00
  0.00000000E+00  0.00000000E+00  0.00000000E+00
  0.00000000E+00  0.00000000E+00  0.00000000E+00
  0.00000000E+00  0.00000000E+00  0.00000000E+00
  0.00000000E+00  0.00000000E+00  0.00000000E+00
  0.00000000E+00  0.00000000E+00  0.00000000E+00
  0.00000000E+00  0.00000000E+00  0.00000000E+00
  0.00000000E+00  0.00000000E+00  0.00000000E+00
  0.00000000E+00  0.00000000E+00  0.00000000E+00
  0.00000000E+00  0.00000000E+00  0.00000000E+00
  0.00000000E+00  0.00000000E+00  0.00000000E+00
  0.00000000E+00  0.00000000E+00  0.00000000E+00
  0.00000000E+00  0.00000000E+00  0.00000000E+00
  0.00000000E+00  0.00000000E+00  0.00000000E+00
  0.00000000E+00  0.00000000E+00  0.00000000E+00
  0.00000000E+00  0.00000000E+00  0.00000000E+00
  0.00000000E+00  0.00000000E+00  0.00000000E+00
  0.00000000E+00  0.00000000E+00  0.00000000E+00
  0.00000000E+00  0.00000000E+00  0.00000000E+00
  0.00000000E+00  0.00000000E+00  0.00000000E+00
  0.00000000E+00  0.00000000E+00  0.00000000E+00
  0.00000000E+00  0.00000000E+00  0.00000000E+00
  0.00000000E+00  0.00000000E+00  0.00000000E+00
  0.00000000E+00  0.00000000E+00  0.00000000E+00
  0.00000000E+00  0.00000000E+00  0.00000000E+00
  0.00000000E+00  0.00000000E+00  0.00000000E+00
  0.00000000E+00  0.00000000E+00  0.00000000E+00
  0.00000000E+00  0.00000000E+00  0.00000000E+00
  0.00000000E+00  0.00000000E+00  0.00000000E+00
  0.00000000E+00  0.00000000E+00  0.00000000E+00
  0.00000000E+00  0.00000000E+00  0.00000000E+00
  0.00000000E+00  0.00000000E+00  0.00000000E+00
  0.00000000E+00  0.00000000E+00  0.00000000E+00
  0.00000000E+00  0.00000000E+00  0.00000000E+00
  0.00000000E+00  0.00000000E+00  0.00000000E+00
  0.00000000E+00  0.00000000E+00  0.00000000E+00
  0.00000000E+00  0.00000000E+00  0.00000000E+00
  0.00000000E+00  0.00000000E+00  0.00000000E+00
  0.00000000E+00  0.00000000E+00  0.00000000E+00
  0.00000000E+00  0.00000000E+00  0.00000000E+00
  0.00000000E+00  0.00000000E+00  0.00000000E+00
  0.00000000E+00  0.00000000E+00  0.00000000E+00
  0.00000000E+00  0.00000000E+00  0.00000000E+00
  0.00000000E+00  0.00000000E+00  0.00000000E+00
  0.00000000E+00  0.00000000E+00  0.00000000E+00
  0.00000000E+00  0.00000000E+00  0.00000000E+00
  0.00000000E+00  0.00000000E+00  0.00000000E+00
  0.00000000E+00  0.00000000E+00  0.00000000E+00
  0.00000000E+00  0.00000000E+00  0.00000000E+00
  0.00000000E+00  0.00000000E+00  0.00000000E+00
  0.00000000E+00  0.00000000E+00  0.00000000E+00
  0.00000000E+00  0.00000000E+00  0.00000000E+00
  0.00000000E+00  0.00000000E+00  0.00000000E+00
  0.00000000E+00  0.00000000E+00  0.00000000E+00
  0.00000000E+00  0.00000000E+00  0.00000000E+00
  0.00000000E+00  0.00000000E+00  0.00000000E+00
  0.00000000E+00  0.00000000E+00  0.00000000E+00
  0.00000000E+00  0.00000000E+00  0.00000000E+00
  0.00000000E+00  0.00000000E+00  0.00000000E+00
  0.00000000E+00  0.00000000E+00  0.00000000E+00
  0.00000000E+00  0.00000000E+00  0.00000000E+00
  0.00000000E+00  0.00000000E+00  0.00000000E+00
  0.00000000E+00  0.00000000E+00  0.00000000E+00
  0.00000000E+00  0.00000000E+00  0.00000000E+00
  0.00000000E+00  0.00000000E+00  0.00000000E+00
  0.00000000E+00  0.00000000E+00  0.00000000E+00
  0.00000000E+00  0.00000000E+00  0.00000000E+00
  0.00000000E+00  0.00000000E+00  0.00000000E+00
  0.00000000E+00  0.00000000E+00  0.00000000E+00
  0.00000000E+00  0.00000000E+00  0.00000000E+00
  0.00000000E+00  0.00000000E+00  0.00000000E+00
  0.00000000E+00  0.00000000E+00  0.00000000E+00
  0.00000000E+00  0.00000000E+00  0.00000000E+00
  0.00000000E+00  0.00000000E+00  0.00000000E+00
  0.00000000E+00  0.00000000E+00  0.00000000E+00
  0.00000000E+00  0.00000000E+00  0.00000000E+00
  0.00000000E+00  0.00000000E+00  0.00000000E+00
  0.00000000E+00  0.00000000E+00  0.00000000E+00
  0.00000000E+00  0.00000000E+00  0.00000000E+00
