Y1 H1 C122 N4                           
   1.00000000000000     
    19.7993731167633662   -0.0005880744131240   -0.0706432621974185
    -9.9001217609458116   17.0373665514724593   -0.1202279477611668
    -0.1061879305118031   -0.2717317135789738   29.8330251415581955
   Y    H    C    N 
     1     1   122     4
Direct
  0.4404088914008469  0.5024900956762959  0.4459330649617358
  0.4460640816104458  0.5067269859516206  0.5147326519485983
  0.0420912173540978  0.0840952037996390  0.3993553312037985
  0.0412897606260728  0.2083627179926495  0.3990111303868609
  0.0405578038186059  0.3331242288968718  0.3986170896615190
  0.0406511220395140  0.4583176585830234  0.3986494817932472
  0.0414463772738602  0.5838201469259939  0.3995901920068857
  0.0421828136158247  0.7092392670606679  0.4001529979516925
  0.0424245974834742  0.8344155176201237  0.4000238681210120
  0.0425089082680725  0.9595734874139560  0.3997102519946520
  0.1681254487862287  0.0856016199439130  0.3997889576327370
  0.1673984075918541  0.2100144004900335  0.3999119694524381
  0.1654339851574227  0.3337725271719472  0.3997609411720795
  0.1645481669552380  0.4585542826760094  0.3982732580547992
  0.1653579850076406  0.5837159213598822  0.3981199094033009
  0.1664718590404890  0.7089913079838946  0.3992960679873963
  0.1671108441004074  0.8344164983656484  0.3999641381742640
  0.1675126335554855  0.9598972565392743  0.3997443652524492
  0.2926117846283078  0.0855938683913691  0.3998346184645504
  0.2940325016238358  0.2129130441807775  0.4016735064377374
  0.2921420050128788  0.3381740423671980  0.4041962063755157
  0.2883106131280526  0.4579192040157132  0.4032394699365694
  0.2889526659839908  0.5830589503731681  0.3993499472929626
  0.2907910047471460  0.7084991993401929  0.3985558747187704
  0.2917366066745470  0.8339749403241919  0.3993797521782742
  0.2922029213145769  0.9595625089657006  0.3997228533767566
  0.4171537790501825  0.0840842123263651  0.3994721367078575
  0.4177193037263518  0.2099891270239603  0.3998053928157481
  0.4211827922371190  0.3381205306936572  0.4034212067601284
  0.4150253884339274  0.7068468228952847  0.3996323500479648
  0.4162869391440616  0.8326279677847221  0.3989582253278176
  0.4168120237500188  0.9584153428774800  0.3996030339179448
  0.5417478987324543  0.0828196217841047  0.3996921325171172
  0.5421972653547175  0.2083606454051112  0.3991328422365054
  0.5434340578869314  0.3337159815626741  0.3992320574361252
  0.5446596431406403  0.4578217388848759  0.4015421742146198
  0.5389185858279786  0.7027418549849326  0.4022966895885375
  0.5408092831572054  0.8307882331300867  0.3996898773863461
  0.5413415057024343  0.9570304121833372  0.3996048069019147
  0.6663701850372794  0.0823335327195348  0.3999981223104532
  0.6667685389329239  0.2077302598850113  0.3996177891814771
  0.6676626984099412  0.3331398859652425  0.3987767459234656
  0.6690566344138331  0.4585293122371832  0.3978190135557478
  0.6691743612260367  0.5830348890071987  0.3983376295658653
  0.6668520363446307  0.7068352235865453  0.3990987221956436
  0.6650441869047113  0.8307996392494296  0.3996158108375016
  0.6659275857736580  0.9567428446023261  0.3997702126911275
  0.7910949382864577  0.0823241562610032  0.3999620401017485
  0.7913858537954730  0.2076466625938143  0.4000844546857467
  0.7919181918187970  0.3329786626943651  0.3998105048502940
  0.7927345332269266  0.4583273434133507  0.3989608736310651
  0.7933826743377723  0.5836946670963744  0.3981743502658677
  0.7927565595901043  0.7084881351148758  0.3984721507699711
  0.7914215512440517  0.8326222130732549  0.3990293010382688
  0.7908053616441320  0.9570307439251305  0.3996253543857896
  0.9162362679275907  0.0828240945419658  0.3996136490808460
  0.9160697499208704  0.2077169021477037  0.3994640526558910
  0.9161722827810665  0.3329738370160363  0.3996320131204604
  0.9167720601834650  0.4584422298789456  0.3999723935256825
  0.9174507910747323  0.5838224236895727  0.3998013117371788
  0.9175903240166342  0.7089820701203257  0.3994652303682422
  0.9173504906138057  0.8339821635653876  0.3995320288854410
  0.9167557098894971  0.9584240147062701  0.3996707535786958
  0.0844530385270855  0.0432486989482675  0.3995145346881222
  0.0838064363399170  0.1676291966414370  0.3992038772646968
  0.0824406194819311  0.2917330344609629  0.3988647305285354
  0.0817520710077782  0.4164747238533227  0.3981960402699157
  0.0824501890370998  0.5419085411094765  0.3986677781446669
  0.0833509781776761  0.6673269324833798  0.3997653458178965
  0.0838939370952958  0.7926718944043145  0.4001609504833006
  0.0841786869172918  0.9179652687893092  0.3998300024405969
  0.2093488656908932  0.0435442257569245  0.3997736636174736
  0.2102077948052276  0.1695124518650209  0.4004913665463752
  0.2083958954575223  0.2934747812979401  0.4007589932114637
  0.2060401789500313  0.4172035146115456  0.3998655809002251
  0.2060758797500305  0.5416211231196032  0.3981452372979432
  0.2075230723925020  0.6670918374678512  0.3985573955201635
  0.2085032258515856  0.7925693847560144  0.3996027207269466
  0.2089200637507732  0.9179687945620730  0.3998229596861306
  0.3339334707692685  0.0432367378100911  0.3996155157481727
  0.3344284836270998  0.1694977704384675  0.4004597779309148
  0.3364678935950489  0.2977361420139339  0.4039180619556700
  0.3306605139232757  0.5425881431240444  0.4027569684480918
  0.3317534322882482  0.6664743010450536  0.3990170405043509
  0.3330353594107459  0.7918688378022010  0.3988873606233824
  0.3335678927081077  0.9174572695935643  0.3996387065688414
  0.4585069511904640  0.0418644632666579  0.3996219213691782
  0.4589479976798366  0.1676086364635226  0.3992858856104241
  0.4601824731716179  0.2934112248514439  0.4002309651950035
  0.4542120131258445  0.6623793455219706  0.4027470043880959
  0.4574922428023517  0.7902645350883842  0.3991247976145451
  0.4581304722853505  0.9161707179702616  0.3993829727368741
  0.5830940333712633  0.0407113963610633  0.3998452695943333
  0.5835279957443461  0.1662789760696691  0.3994368346159098
  0.5843924719119498  0.2916879447355262  0.3988512783607966
  0.5862368326129331  0.4171071511387164  0.3988984783161096
  0.5869745420162642  0.5424915979200240  0.4010438020116698
  0.5832235642999277  0.6623281550884031  0.4019570841205992
  0.5812596870462959  0.7874423548356111  0.4004251027317067
  0.5826543544973519  0.9146816080048662  0.3996188466756137
  0.7077661139196593  0.0403925630410478  0.3999649636699447
  0.7081620543333963  0.1658817765756175  0.3999971100847302
  0.7087615236260258  0.2912808158334653  0.3994003940128527
  0.7097922050639973  0.4164739390113545  0.3983049071078106
  0.7105955153964038  0.5415995304098327  0.3976504462035877
  0.7097817946037027  0.6664772806914986  0.3984377986875938
  0.7078299777527957  0.7902718874256299  0.3990107252799704
  0.7071399622015374  0.9146879850370226  0.3995934531996820
  0.8327731049587227  0.0407142790625639  0.3998144887741392
  0.8328479859579576  0.1658793195487996  0.3999240469781886
  0.8330979205352175  0.2910591403094288  0.4000151503708571
  0.8337899578739439  0.4164753297015844  0.3997600948004041
  0.8345246734691198  0.5419148433452968  0.3989521320359479
  0.8346184264014180  0.6670897638797676  0.3986399344333325
  0.8339254512470023  0.7918749119238402  0.3989944581568286
  0.8331752042120520  0.9161789836086652  0.3994842774613359
  0.9585288339317177  0.0418714456661992  0.3995684910040641
  0.9578905115218497  0.1662882111688940  0.3992822110584578
  0.9576253286961262  0.2912699198825672  0.3991688381263491
  0.9577828430807293  0.4164729914951590  0.3995174018879238
  0.9585059181618512  0.5419009738220957  0.4000139328539378
  0.9590852007633336  0.6673454833991086  0.3999062829798770
  0.9591685830469617  0.7925709104160178  0.3997290951133112
  0.9590416017634200  0.9174708799134864  0.3997247379913538
  0.4108036046536046  0.5828061121615445  0.4067548248889090
  0.5470471119075351  0.5826210899924474  0.4050802654203589
  0.3283828597139948  0.4180428366616044  0.4079182625083881
  0.4648430795583314  0.4180418017073816  0.4062490919034115
 
  0.00000000E+00  0.00000000E+00  0.00000000E+00
  0.00000000E+00  0.00000000E+00  0.00000000E+00
  0.00000000E+00  0.00000000E+00  0.00000000E+00
  0.00000000E+00  0.00000000E+00  0.00000000E+00
  0.00000000E+00  0.00000000E+00  0.00000000E+00
  0.00000000E+00  0.00000000E+00  0.00000000E+00
  0.00000000E+00  0.00000000E+00  0.00000000E+00
  0.00000000E+00  0.00000000E+00  0.00000000E+00
  0.00000000E+00  0.00000000E+00  0.00000000E+00
  0.00000000E+00  0.00000000E+00  0.00000000E+00
  0.00000000E+00  0.00000000E+00  0.00000000E+00
  0.00000000E+00  0.00000000E+00  0.00000000E+00
  0.00000000E+00  0.00000000E+00  0.00000000E+00
  0.00000000E+00  0.00000000E+00  0.00000000E+00
  0.00000000E+00  0.00000000E+00  0.00000000E+00
  0.00000000E+00  0.00000000E+00  0.00000000E+00
  0.00000000E+00  0.00000000E+00  0.00000000E+00
  0.00000000E+00  0.00000000E+00  0.00000000E+00
  0.00000000E+00  0.00000000E+00  0.00000000E+00
  0.00000000E+00  0.00000000E+00  0.00000000E+00
  0.00000000E+00  0.00000000E+00  0.00000000E+00
  0.00000000E+00  0.00000000E+00  0.00000000E+00
  0.00000000E+00  0.00000000E+00  0.00000000E+00
  0.00000000E+00  0.00000000E+00  0.00000000E+00
  0.00000000E+00  0.00000000E+00  0.00000000E+00
  0.00000000E+00  0.00000000E+00  0.00000000E+00
  0.00000000E+00  0.00000000E+00  0.00000000E+00
  0.00000000E+00  0.00000000E+00  0.00000000E+00
  0.00000000E+00  0.00000000E+00  0.00000000E+00
  0.00000000E+00  0.00000000E+00  0.00000000E+00
  0.00000000E+00  0.00000000E+00  0.00000000E+00
  0.00000000E+00  0.00000000E+00  0.00000000E+00
  0.00000000E+00  0.00000000E+00  0.00000000E+00
  0.00000000E+00  0.00000000E+00  0.00000000E+00
  0.00000000E+00  0.00000000E+00  0.00000000E+00
  0.00000000E+00  0.00000000E+00  0.00000000E+00
  0.00000000E+00  0.00000000E+00  0.00000000E+00
  0.00000000E+00  0.00000000E+00  0.00000000E+00
  0.00000000E+00  0.00000000E+00  0.00000000E+00
  0.00000000E+00  0.00000000E+00  0.00000000E+00
  0.00000000E+00  0.00000000E+00  0.00000000E+00
  0.00000000E+00  0.00000000E+00  0.00000000E+00
  0.00000000E+00  0.00000000E+00  0.00000000E+00
  0.00000000E+00  0.00000000E+00  0.00000000E+00
  0.00000000E+00  0.00000000E+00  0.00000000E+00
  0.00000000E+00  0.00000000E+00  0.00000000E+00
  0.00000000E+00  0.00000000E+00  0.00000000E+00
  0.00000000E+00  0.00000000E+00  0.00000000E+00
  0.00000000E+00  0.00000000E+00  0.00000000E+00
  0.00000000E+00  0.00000000E+00  0.00000000E+00
  0.00000000E+00  0.00000000E+00  0.00000000E+00
  0.00000000E+00  0.00000000E+00  0.00000000E+00
  0.00000000E+00  0.00000000E+00  0.00000000E+00
  0.00000000E+00  0.00000000E+00  0.00000000E+00
  0.00000000E+00  0.00000000E+00  0.00000000E+00
  0.00000000E+00  0.00000000E+00  0.00000000E+00
  0.00000000E+00  0.00000000E+00  0.00000000E+00
  0.00000000E+00  0.00000000E+00  0.00000000E+00
  0.00000000E+00  0.00000000E+00  0.00000000E+00
  0.00000000E+00  0.00000000E+00  0.00000000E+00
  0.00000000E+00  0.00000000E+00  0.00000000E+00
  0.00000000E+00  0.00000000E+00  0.00000000E+00
  0.00000000E+00  0.00000000E+00  0.00000000E+00
  0.00000000E+00  0.00000000E+00  0.00000000E+00
  0.00000000E+00  0.00000000E+00  0.00000000E+00
  0.00000000E+00  0.00000000E+00  0.00000000E+00
  0.00000000E+00  0.00000000E+00  0.00000000E+00
  0.00000000E+00  0.00000000E+00  0.00000000E+00
  0.00000000E+00  0.00000000E+00  0.00000000E+00
  0.00000000E+00  0.00000000E+00  0.00000000E+00
  0.00000000E+00  0.00000000E+00  0.00000000E+00
  0.00000000E+00  0.00000000E+00  0.00000000E+00
  0.00000000E+00  0.00000000E+00  0.00000000E+00
  0.00000000E+00  0.00000000E+00  0.00000000E+00
  0.00000000E+00  0.00000000E+00  0.00000000E+00
  0.00000000E+00  0.00000000E+00  0.00000000E+00
  0.00000000E+00  0.00000000E+00  0.00000000E+00
  0.00000000E+00  0.00000000E+00  0.00000000E+00
  0.00000000E+00  0.00000000E+00  0.00000000E+00
  0.00000000E+00  0.00000000E+00  0.00000000E+00
  0.00000000E+00  0.00000000E+00  0.00000000E+00
  0.00000000E+00  0.00000000E+00  0.00000000E+00
  0.00000000E+00  0.00000000E+00  0.00000000E+00
  0.00000000E+00  0.00000000E+00  0.00000000E+00
  0.00000000E+00  0.00000000E+00  0.00000000E+00
  0.00000000E+00  0.00000000E+00  0.00000000E+00
  0.00000000E+00  0.00000000E+00  0.00000000E+00
  0.00000000E+00  0.00000000E+00  0.00000000E+00
  0.00000000E+00  0.00000000E+00  0.00000000E+00
  0.00000000E+00  0.00000000E+00  0.00000000E+00
  0.00000000E+00  0.00000000E+00  0.00000000E+00
  0.00000000E+00  0.00000000E+00  0.00000000E+00
  0.00000000E+00  0.00000000E+00  0.00000000E+00
  0.00000000E+00  0.00000000E+00  0.00000000E+00
  0.00000000E+00  0.00000000E+00  0.00000000E+00
  0.00000000E+00  0.00000000E+00  0.00000000E+00
  0.00000000E+00  0.00000000E+00  0.00000000E+00
  0.00000000E+00  0.00000000E+00  0.00000000E+00
  0.00000000E+00  0.00000000E+00  0.00000000E+00
  0.00000000E+00  0.00000000E+00  0.00000000E+00
  0.00000000E+00  0.00000000E+00  0.00000000E+00
  0.00000000E+00  0.00000000E+00  0.00000000E+00
  0.00000000E+00  0.00000000E+00  0.00000000E+00
  0.00000000E+00  0.00000000E+00  0.00000000E+00
  0.00000000E+00  0.00000000E+00  0.00000000E+00
  0.00000000E+00  0.00000000E+00  0.00000000E+00
  0.00000000E+00  0.00000000E+00  0.00000000E+00
  0.00000000E+00  0.00000000E+00  0.00000000E+00
  0.00000000E+00  0.00000000E+00  0.00000000E+00
  0.00000000E+00  0.00000000E+00  0.00000000E+00
  0.00000000E+00  0.00000000E+00  0.00000000E+00
  0.00000000E+00  0.00000000E+00  0.00000000E+00
  0.00000000E+00  0.00000000E+00  0.00000000E+00
  0.00000000E+00  0.00000000E+00  0.00000000E+00
  0.00000000E+00  0.00000000E+00  0.00000000E+00
  0.00000000E+00  0.00000000E+00  0.00000000E+00
  0.00000000E+00  0.00000000E+00  0.00000000E+00
  0.00000000E+00  0.00000000E+00  0.00000000E+00
  0.00000000E+00  0.00000000E+00  0.00000000E+00
  0.00000000E+00  0.00000000E+00  0.00000000E+00
  0.00000000E+00  0.00000000E+00  0.00000000E+00
  0.00000000E+00  0.00000000E+00  0.00000000E+00
  0.00000000E+00  0.00000000E+00  0.00000000E+00
  0.00000000E+00  0.00000000E+00  0.00000000E+00
  0.00000000E+00  0.00000000E+00  0.00000000E+00
  0.00000000E+00  0.00000000E+00  0.00000000E+00
  0.00000000E+00  0.00000000E+00  0.00000000E+00
  0.00000000E+00  0.00000000E+00  0.00000000E+00
