Re1 H1 C122 N4                          
   1.00000000000000     
    19.8319518684007861    0.0002923078421501   -0.0315794323877864
    -9.9157208775571313   17.0165679935061327   -0.0296328786433627
    -0.0474650286103729   -0.0795582932736269   29.8170780065299468
   Re   H    C    N 
     1     1   122     4
Direct
  0.4381304602859287  0.5006602822633122  0.4270630332812326
  0.4435855579395793  0.5054977507874496  0.4831584915892288
  0.0422418445518618  0.0844331597202870  0.3995080091096604
  0.0409087225496290  0.2081914392185336  0.3994592892811379
  0.0399132755273568  0.3328704643191793  0.3989260819861903
  0.0399375915998252  0.4581810064672710  0.3984206611859398
  0.0411557820393186  0.5838704335043412  0.3988434047919751
  0.0422855657434671  0.7094844870677460  0.3992091128537502
  0.0426435006576418  0.8347953832644371  0.3994792138431070
  0.0428087338004186  0.9599964588635695  0.3995886878147960
  0.1684604354122985  0.0863684573928956  0.4000879275518195
  0.1678600296568636  0.2109399377685722  0.4007054379792098
  0.1646501233681797  0.3337904602683078  0.4008250480955833
  0.1631721241517845  0.4585522535643962  0.3987525637144491
  0.1644927063088979  0.5838321316565577  0.3983897778343602
  0.1662862469245946  0.7092123875174225  0.3991539752665720
  0.1672208765686158  0.8347761121457145  0.3994527673549790
  0.1677962140321179  0.9604890209084250  0.3996900540368188
  0.2929670891565278  0.0863334347684217  0.4001738855360097
  0.2945453381056116  0.2140360316996689  0.4025623471451240
  0.2924320022734637  0.3391241845618430  0.4062366321544246
  0.2853878154546056  0.4587931608354220  0.4050407051643046
  0.2873714345298544  0.5831005482667343  0.4007473509055747
  0.2904595844963958  0.7084331654245106  0.3994598558910826
  0.2916312886391878  0.8340747861184852  0.3994415583435355
  0.2922837028767469  0.9599644321227576  0.3996007209061264
  0.4172639878515537  0.0844262624637733  0.3996271318365682
  0.4181125183137179  0.2109490342133575  0.4008023140818611
  0.4217271831730728  0.3391696734707792  0.4059537071456247
  0.4144615676260063  0.7053388986212180  0.4018377881824691
  0.4159395051218985  0.8319854914486172  0.3996997612442080
  0.4166507543424914  0.9582210057483336  0.3994936208998113
  0.5415567179361804  0.0824191670298483  0.3995295266557428
  0.5423227601114896  0.2082031303775598  0.3995766752335498
  0.5441514279899242  0.3338047995146738  0.4007805048740213
  0.5484565968645309  0.4588510556473980  0.4044066507958344
  0.5379374274978096  0.7008044246896523  0.4053395621851239
  0.5401778616209936  0.8295820152206471  0.4009902829259860
  0.5409973741055218  0.9563032631507662  0.3996956921347937
  0.6659681667203129  0.0815489383298837  0.3996276811148459
  0.6666676733477724  0.2072145353372986  0.3993945179129010
  0.6679867151617309  0.3329044648229151  0.3990678953606251
  0.6704123117790318  0.4585857127800051  0.3989154000329768
  0.6708231301337660  0.5831820634238707  0.4005476069151360
  0.6659573280441250  0.7053664454485964  0.4017182079624020
  0.6645111487135454  0.8296167656656092  0.4010570525605301
  0.6654313602257038  0.9557783400270027  0.4000128020704627
  0.7906458952415300  0.0815509575237252  0.3996259921971394
  0.7910084066616957  0.2070060413687105  0.3993534467394558
  0.7918167533733277  0.3325493096654613  0.3990891624591111
  0.7932599362083563  0.4581998910793544  0.3986019066603688
  0.7943787658269905  0.5838505637443100  0.3986027432731711
  0.7930747294882089  0.7084810541597566  0.3995199896474909
  0.7911465264945036  0.8320209820701766  0.3998040671297758
  0.7904014112214232  0.9563395811406767  0.3997478374809644
  0.9159499340272496  0.0824446690622377  0.3995185334352711
  0.9155594970328494  0.2072090538181817  0.3993949501399368
  0.9157657461030071  0.3325490171150653  0.3990519967081997
  0.9166084637265632  0.4582089433561324  0.3988694528905567
  0.9177480031207790  0.5838856199304953  0.3989017438073373
  0.9180082816614351  0.7092346274068514  0.3992127538861603
  0.9175559000195537  0.8341144814497763  0.3994801007407729
  0.9166821028227543  0.9582487750376719  0.3995279441307455
  0.0848047855937255  0.0438268253697442  0.3996365455704798
  0.0840325860288020  0.1681233210065023  0.3996858127672243
  0.0820593364202798  0.2916454496151996  0.3994969765977420
  0.0806784633582070  0.4162200699371738  0.3983724584946271
  0.0817826696660794  0.5418472010449686  0.3984290667486871
  0.0832403476223655  0.6674742368137685  0.3990788404372650
  0.0840647295148389  0.7930454620987883  0.3993516105705956
  0.0845158739605258  0.9185476798924535  0.3996119939581337
  0.2097153930017272  0.0443523176284269  0.3999912735736076
  0.2106952790032268  0.1705945113288227  0.4010986045323284
  0.2091865660193425  0.2948255355051000  0.4020838158707942
  0.2042917518871953  0.4170131959024131  0.4008924526470236
  0.2046746975356251  0.5415334026958041  0.3987572713194607
  0.2070786250382733  0.6671888222434456  0.3989286308087105
  0.2083827168409922  0.7928496413104265  0.3994043182178855
  0.2091395333110554  0.9185330965937228  0.3996003653490789
  0.3340842233003623  0.0437915043808992  0.3997307564336297
  0.3349407770699141  0.1705706734548434  0.4011822856381457
  0.3372577161763705  0.2994993828616460  0.4056951277395551
  0.3267037532469332  0.5413733234895359  0.4047964163603154
  0.3309396054851423  0.6663292166818253  0.4006724845729939
  0.3327482520736629  0.7918947321350189  0.3994740636466975
  0.3335178046264564  0.9176532657124755  0.3995146232065772
  0.4584246441486425  0.0418691409832074  0.3995228470822521
  0.4591410777344756  0.1681373888475218  0.3998371253265675
  0.4606567693882545  0.2948589776502127  0.4019842055016445
  0.4535151773602860  0.6611735530049052  0.4057663120193349
  0.4569882074152462  0.7892101523157942  0.4006066544083554
  0.4578203988914434  0.9156803595775127  0.3995511788246058
  0.5828098004952426  0.0401186257944833  0.3996206773235144
  0.5834230084169505  0.1659947079958765  0.3994434144526232
  0.5846152711204071  0.2916576275316570  0.3996141410407029
  0.5877374189558373  0.4170237334957097  0.4007091297451795
  0.5897447466548361  0.5414403753491985  0.4042278550482565
  0.5827558902214656  0.6611684486026195  0.4055770353727965
  0.5806397502939609  0.7861892225059680  0.4023534711497889
  0.5821454126504088  0.9137899126153047  0.4000971768564131
  0.7073426015154787  0.0396221994619721  0.3997249566120046
  0.7078355864897369  0.1652886500767314  0.3994571850770466
  0.7087670948607995  0.2908451090656047  0.3991834150430204
  0.7105636476963272  0.4162659876622849  0.3986129516008857
  0.7119162545454421  0.5415863827777562  0.3988910287471807
  0.7104755979175451  0.6663866125865844  0.4005721730408254
  0.7073101785717860  0.7892420476258774  0.4006653862562867
  0.7067393882569358  0.9138187777060458  0.4001496934444190
  0.8324047105561703  0.0401523998960059  0.3996281705608822
  0.8324682965871072  0.1652911861566253  0.3994722919978558
  0.8328017020322380  0.2905569471099036  0.3991885410222505
  0.8338621059923214  0.4161457682247526  0.3988800513507837
  0.8351009570303519  0.5418690832470903  0.3986099862974880
  0.8351802954539461  0.6672164834621523  0.3990403981006121
  0.8342502787548370  0.7919361660303184  0.3995523447013272
  0.8329647229265609  0.9157178071723345  0.3996459183155992
  0.9585391293024347  0.0418922300522643  0.3994835361970023
  0.9576165414361650  0.1660098914526065  0.3994123381268251
  0.9570970382792520  0.2908350203115377  0.3991283053012230
  0.9572936564369694  0.4161468242006304  0.3988215393790008
  0.9584165968670909  0.5417994438111355  0.3988814195341316
  0.9593204855910332  0.6674955343235616  0.3991254560659415
  0.9595612593456506  0.7928745500838614  0.3994442763141373
  0.9592642222422051  0.9176996891313179  0.3995360278576799
  0.4078567274225370  0.5793687386164141  0.4117205749133682
  0.5466652198066585  0.5793694171478684  0.4112289217798385
  0.3285279368484752  0.4209647542351064  0.4122065586502482
  0.4675647903432046  0.4210927785420205  0.4114839374296161
 
  0.00000000E+00  0.00000000E+00  0.00000000E+00
  0.00000000E+00  0.00000000E+00  0.00000000E+00
  0.00000000E+00  0.00000000E+00  0.00000000E+00
  0.00000000E+00  0.00000000E+00  0.00000000E+00
  0.00000000E+00  0.00000000E+00  0.00000000E+00
  0.00000000E+00  0.00000000E+00  0.00000000E+00
  0.00000000E+00  0.00000000E+00  0.00000000E+00
  0.00000000E+00  0.00000000E+00  0.00000000E+00
  0.00000000E+00  0.00000000E+00  0.00000000E+00
  0.00000000E+00  0.00000000E+00  0.00000000E+00
  0.00000000E+00  0.00000000E+00  0.00000000E+00
  0.00000000E+00  0.00000000E+00  0.00000000E+00
  0.00000000E+00  0.00000000E+00  0.00000000E+00
  0.00000000E+00  0.00000000E+00  0.00000000E+00
  0.00000000E+00  0.00000000E+00  0.00000000E+00
  0.00000000E+00  0.00000000E+00  0.00000000E+00
  0.00000000E+00  0.00000000E+00  0.00000000E+00
  0.00000000E+00  0.00000000E+00  0.00000000E+00
  0.00000000E+00  0.00000000E+00  0.00000000E+00
  0.00000000E+00  0.00000000E+00  0.00000000E+00
  0.00000000E+00  0.00000000E+00  0.00000000E+00
  0.00000000E+00  0.00000000E+00  0.00000000E+00
  0.00000000E+00  0.00000000E+00  0.00000000E+00
  0.00000000E+00  0.00000000E+00  0.00000000E+00
  0.00000000E+00  0.00000000E+00  0.00000000E+00
  0.00000000E+00  0.00000000E+00  0.00000000E+00
  0.00000000E+00  0.00000000E+00  0.00000000E+00
  0.00000000E+00  0.00000000E+00  0.00000000E+00
  0.00000000E+00  0.00000000E+00  0.00000000E+00
  0.00000000E+00  0.00000000E+00  0.00000000E+00
  0.00000000E+00  0.00000000E+00  0.00000000E+00
  0.00000000E+00  0.00000000E+00  0.00000000E+00
  0.00000000E+00  0.00000000E+00  0.00000000E+00
  0.00000000E+00  0.00000000E+00  0.00000000E+00
  0.00000000E+00  0.00000000E+00  0.00000000E+00
  0.00000000E+00  0.00000000E+00  0.00000000E+00
  0.00000000E+00  0.00000000E+00  0.00000000E+00
  0.00000000E+00  0.00000000E+00  0.00000000E+00
  0.00000000E+00  0.00000000E+00  0.00000000E+00
  0.00000000E+00  0.00000000E+00  0.00000000E+00
  0.00000000E+00  0.00000000E+00  0.00000000E+00
  0.00000000E+00  0.00000000E+00  0.00000000E+00
  0.00000000E+00  0.00000000E+00  0.00000000E+00
  0.00000000E+00  0.00000000E+00  0.00000000E+00
  0.00000000E+00  0.00000000E+00  0.00000000E+00
  0.00000000E+00  0.00000000E+00  0.00000000E+00
  0.00000000E+00  0.00000000E+00  0.00000000E+00
  0.00000000E+00  0.00000000E+00  0.00000000E+00
  0.00000000E+00  0.00000000E+00  0.00000000E+00
  0.00000000E+00  0.00000000E+00  0.00000000E+00
  0.00000000E+00  0.00000000E+00  0.00000000E+00
  0.00000000E+00  0.00000000E+00  0.00000000E+00
  0.00000000E+00  0.00000000E+00  0.00000000E+00
  0.00000000E+00  0.00000000E+00  0.00000000E+00
  0.00000000E+00  0.00000000E+00  0.00000000E+00
  0.00000000E+00  0.00000000E+00  0.00000000E+00
  0.00000000E+00  0.00000000E+00  0.00000000E+00
  0.00000000E+00  0.00000000E+00  0.00000000E+00
  0.00000000E+00  0.00000000E+00  0.00000000E+00
  0.00000000E+00  0.00000000E+00  0.00000000E+00
  0.00000000E+00  0.00000000E+00  0.00000000E+00
  0.00000000E+00  0.00000000E+00  0.00000000E+00
  0.00000000E+00  0.00000000E+00  0.00000000E+00
  0.00000000E+00  0.00000000E+00  0.00000000E+00
  0.00000000E+00  0.00000000E+00  0.00000000E+00
  0.00000000E+00  0.00000000E+00  0.00000000E+00
  0.00000000E+00  0.00000000E+00  0.00000000E+00
  0.00000000E+00  0.00000000E+00  0.00000000E+00
  0.00000000E+00  0.00000000E+00  0.00000000E+00
  0.00000000E+00  0.00000000E+00  0.00000000E+00
  0.00000000E+00  0.00000000E+00  0.00000000E+00
  0.00000000E+00  0.00000000E+00  0.00000000E+00
  0.00000000E+00  0.00000000E+00  0.00000000E+00
  0.00000000E+00  0.00000000E+00  0.00000000E+00
  0.00000000E+00  0.00000000E+00  0.00000000E+00
  0.00000000E+00  0.00000000E+00  0.00000000E+00
  0.00000000E+00  0.00000000E+00  0.00000000E+00
  0.00000000E+00  0.00000000E+00  0.00000000E+00
  0.00000000E+00  0.00000000E+00  0.00000000E+00
  0.00000000E+00  0.00000000E+00  0.00000000E+00
  0.00000000E+00  0.00000000E+00  0.00000000E+00
  0.00000000E+00  0.00000000E+00  0.00000000E+00
  0.00000000E+00  0.00000000E+00  0.00000000E+00
  0.00000000E+00  0.00000000E+00  0.00000000E+00
  0.00000000E+00  0.00000000E+00  0.00000000E+00
  0.00000000E+00  0.00000000E+00  0.00000000E+00
  0.00000000E+00  0.00000000E+00  0.00000000E+00
  0.00000000E+00  0.00000000E+00  0.00000000E+00
  0.00000000E+00  0.00000000E+00  0.00000000E+00
  0.00000000E+00  0.00000000E+00  0.00000000E+00
  0.00000000E+00  0.00000000E+00  0.00000000E+00
  0.00000000E+00  0.00000000E+00  0.00000000E+00
  0.00000000E+00  0.00000000E+00  0.00000000E+00
  0.00000000E+00  0.00000000E+00  0.00000000E+00
  0.00000000E+00  0.00000000E+00  0.00000000E+00
  0.00000000E+00  0.00000000E+00  0.00000000E+00
  0.00000000E+00  0.00000000E+00  0.00000000E+00
  0.00000000E+00  0.00000000E+00  0.00000000E+00
  0.00000000E+00  0.00000000E+00  0.00000000E+00
  0.00000000E+00  0.00000000E+00  0.00000000E+00
  0.00000000E+00  0.00000000E+00  0.00000000E+00
  0.00000000E+00  0.00000000E+00  0.00000000E+00
  0.00000000E+00  0.00000000E+00  0.00000000E+00
  0.00000000E+00  0.00000000E+00  0.00000000E+00
  0.00000000E+00  0.00000000E+00  0.00000000E+00
  0.00000000E+00  0.00000000E+00  0.00000000E+00
  0.00000000E+00  0.00000000E+00  0.00000000E+00
  0.00000000E+00  0.00000000E+00  0.00000000E+00
  0.00000000E+00  0.00000000E+00  0.00000000E+00
  0.00000000E+00  0.00000000E+00  0.00000000E+00
  0.00000000E+00  0.00000000E+00  0.00000000E+00
  0.00000000E+00  0.00000000E+00  0.00000000E+00
  0.00000000E+00  0.00000000E+00  0.00000000E+00
  0.00000000E+00  0.00000000E+00  0.00000000E+00
  0.00000000E+00  0.00000000E+00  0.00000000E+00
  0.00000000E+00  0.00000000E+00  0.00000000E+00
  0.00000000E+00  0.00000000E+00  0.00000000E+00
  0.00000000E+00  0.00000000E+00  0.00000000E+00
  0.00000000E+00  0.00000000E+00  0.00000000E+00
  0.00000000E+00  0.00000000E+00  0.00000000E+00
  0.00000000E+00  0.00000000E+00  0.00000000E+00
  0.00000000E+00  0.00000000E+00  0.00000000E+00
  0.00000000E+00  0.00000000E+00  0.00000000E+00
  0.00000000E+00  0.00000000E+00  0.00000000E+00
  0.00000000E+00  0.00000000E+00  0.00000000E+00
  0.00000000E+00  0.00000000E+00  0.00000000E+00
  0.00000000E+00  0.00000000E+00  0.00000000E+00
  0.00000000E+00  0.00000000E+00  0.00000000E+00
