H1 Ru1 C125 N1                          
   1.00000000000000     
    19.8024279523150035   -0.0246083742424850    0.1837757425098459
    -9.9205181808697098   17.0467282480250439   -0.4188077019624324
     0.2760036096186038   -0.5713029549858611   29.8437580760776378
   H    Ru   C    N 
     1     1   125     1
Direct
  0.4478219195103472  0.4589004505488065  0.4724848076547097
  0.4356043198804110  0.5024544066886698  0.4313656699380879
  0.0421958715619063  0.0846656850716444  0.3995935932984908
  0.0417338786189259  0.2090068269694583  0.3995126995657721
  0.0411824340350266  0.3335449581481104  0.3994757028535986
  0.0409488029683481  0.4587855307977117  0.3997008297907917
  0.0413664224172667  0.5842004196252851  0.3998823041388313
  0.0418423421123144  0.7095525579807043  0.3997554154435596
  0.0420907137252551  0.8347969408416429  0.3995240319736696
  0.0422198774698747  0.9598770304191340  0.3994849638739430
  0.1678745449047061  0.0859805515310429  0.3999723561855129
  0.1681575816695012  0.2111729313253863  0.4003215431496920
  0.1668693788165682  0.3349690988295284  0.3996430601357387
  0.1650676302713310  0.4592528030443962  0.3992547403199695
  0.1652821047486669  0.5843221536059442  0.3995202999103729
  0.1661911721058452  0.7096733524745918  0.4000174895098684
  0.1668521004796348  0.8350167122460718  0.3999333305722781
  0.1673524050178769  0.9604028006656913  0.3996960057919857
  0.2927006256523547  0.0858519932136146  0.4003486241850225
  0.2938507056335713  0.2124845300862978  0.4023827102970014
  0.2949127402178252  0.3390431558847182  0.4030959339151133
  0.2899345896449618  0.4607628345303411  0.4002355315418906
  0.2889784256215525  0.5850697172518468  0.3988942931259378
  0.2904584867871741  0.7097243314806934  0.3992311604840006
  0.2914397007584937  0.8347325422063638  0.3997198638182569
  0.2920221371762452  0.9600601319230970  0.3997577486256503
  0.4171730786324218  0.0844874515809446  0.3998624910003666
  0.4179986605490263  0.2105441252299766  0.4015869040628109
  0.4201044638199006  0.3382519427292635  0.4072118373669344
  0.4145188481881606  0.7076081402070733  0.3994036243623613
  0.4159512144543867  0.8333442840939705  0.3993126825458738
  0.4165957630915333  0.9588989075860292  0.3995765273219270
  0.5417320783270687  0.0829458494143886  0.3997020464701400
  0.5423710004621018  0.2082342080999914  0.4000815384547555
  0.5434812177899070  0.3332745096436183  0.4018806251748677
  0.5464646371437647  0.4578869641780816  0.4060065291039843
  0.5425060400440470  0.5776287977407912  0.4079095979237012
  0.5378357526190898  0.7034893700161843  0.4019309229861018
  0.5402335604154240  0.8312630637425732  0.3997776004201636
  0.5411415585323567  0.9573660777154825  0.3996095495897118
  0.6663210146871261  0.0822940244867844  0.3998014937859036
  0.6669176792228657  0.2076249414586335  0.3994977486784534
  0.6677323317393071  0.3328394919476215  0.3993512898450496
  0.6692736722936564  0.4580846642359098  0.3994419266765598
  0.6695388577258012  0.5831566254044368  0.4006548245920756
  0.6643840994042927  0.7052159820291366  0.4011308413066712
  0.6644325543774693  0.8305408791291362  0.4003534483289879
  0.6656564291651604  0.9567024173784185  0.3999164394117889
  0.7910420075057809  0.0822899964530954  0.3999920874488140
  0.7914917652782313  0.2075558508084052  0.3997062471709279
  0.7920971289463510  0.3329034160501241  0.3992146698601612
  0.7929662410473313  0.4583161046981042  0.3987104475540741
  0.7933557070638141  0.5836030565699394  0.3986732328987026
  0.7920798884613051  0.7084383741172884  0.3992460188770301
  0.7904104991184931  0.8320573449190549  0.3996804201605358
  0.7904698496387288  0.9569212894179373  0.3998865930938271
  0.9162481667760549  0.0830353999227781  0.3997024769091737
  0.9163129221278724  0.2079518297413684  0.3997636618035946
  0.9164716021951671  0.3331252775045182  0.3997336226280975
  0.9169020014125427  0.4585062306490280  0.3993985602405004
  0.9174012869500692  0.5839703890350204  0.3990777456124326
  0.9172462144963591  0.7092178506853992  0.3990906089392933
  0.9168585018917879  0.8340136574760749  0.3994214679209935
  0.9163183298160597  0.9583978034466043  0.3996313999360510
  0.0842212767776049  0.0435709186289923  0.3995814222673976
  0.0842488351025564  0.1683744426258368  0.3996821267977083
  0.0832303945463288  0.2924358216592163  0.3993957821652538
  0.0822637513479815  0.4171100641914889  0.3994689030850360
  0.0823779383129681  0.5423444577982033  0.3997923187480160
  0.0830671778541546  0.6678015406775830  0.4000234665861070
  0.0836122866975458  0.7931894911408303  0.3997676134203005
  0.0839171620525057  0.9184007989762298  0.3995210494342201
  0.2092886416697245  0.0440653523009636  0.3999712039771922
  0.2100084290052608  0.1698650683381220  0.4007585234746836
  0.2102463472336070  0.2951641392921852  0.4006416048701035
  0.2069222448145431  0.4182380343149116  0.3994058264797630
  0.2061498803446112  0.5425735444456242  0.3991445850866973
  0.2073480301797710  0.6678939449130482  0.3996151943139687
  0.2082034374591355  0.7932046698412242  0.3999745463800454
  0.2087539083592963  0.9185611136078226  0.3998162115662875
  0.3339111376866720  0.0435615582002481  0.3998772713034555
  0.3347396941004219  0.1695996306251763  0.4015701861696558
  0.3362904777057564  0.2965253438435347  0.4050114238387627
  0.3336500179847939  0.4227853143787295  0.4042903506791555
  0.3307987442518437  0.5449592821682504  0.3998007323626664
  0.3315471370828568  0.6679702151476812  0.3989859615222699
  0.3327469830188068  0.7928849439663297  0.3994033707297972
  0.3333743546216164  0.9180798488422738  0.3996675832813020
  0.4585003046467182  0.0422712672773803  0.3996699653705231
  0.4591247439777239  0.1679257048670341  0.4003406660802532
  0.4603741477908715  0.2942340368603295  0.4032948435297080
  0.4652993631061152  0.4217150706385470  0.4132322077146501
  0.4537525974325390  0.6633057178529017  0.4009869904783277
  0.4571499111799045  0.7910193004856680  0.3993674912286795
  0.4579108238339856  0.9167102769913728  0.3994767193891293
  0.5830518012527811  0.0408825636094461  0.3997135259231425
  0.5836854628760130  0.1662928596072662  0.3996897565285425
  0.5845207194413916  0.2914014640764704  0.4002817606112530
  0.5864762546573487  0.4161599375644017  0.4016777257400639
  0.5875657192266457  0.5408997907420309  0.4044627085746584
  0.5792599025599798  0.6607307675887643  0.4033399231376948
  0.5804662793117078  0.7877543385150176  0.4006019684426600
  0.5823298128689810  0.9150227065502148  0.3997122150044543
  0.7076465595409744  0.0403531591775563  0.3999498637312212
  0.7082391363683346  0.1658249632268655  0.3996351898693209
  0.7088869286693238  0.2910987645567649  0.3992395749661188
  0.7100498405086747  0.4163281896401101  0.3988940256043134
  0.7107333378847336  0.5414893885731606  0.3993033492242935
  0.7086751224944635  0.6661418649351099  0.4001585327272160
  0.7063104471445333  0.7891513180926024  0.4002464696832707
  0.7067396890791208  0.9144851504328040  0.4000033193804477
  0.8326088800087689  0.0406853074965446  0.3998938088933495
  0.8329259090539899  0.1659089264342613  0.3998936616194730
  0.8333339736772704  0.2911462626254272  0.3995551806162167
  0.8339598458092737  0.4164817550286215  0.3990569749668408
  0.8345237319819597  0.5418848712081059  0.3986766365721079
  0.8341027825866859  0.6671876470006590  0.3988788303980818
  0.8332942791702732  0.7917378238403623  0.3994056243455878
  0.8324824479898937  0.9157829984628513  0.3997255231325794
  0.9583745998465703  0.0420619096847614  0.3996020209322138
  0.9581523971210649  0.1666413123839798  0.3996200765619407
  0.9579707372729714  0.2915043357415424  0.3997115605366069
  0.9579909829819446  0.4167161364955838  0.3996976045921549
  0.9584822328780093  0.5421675308929120  0.3994738926950997
  0.9587590070263209  0.6675913967072734  0.3992716373143407
  0.9587626328414752  0.7927626280198241  0.3993527447879289
  0.9586083409412181  0.9175518830992564  0.3995261912592676
  0.4102694875322747  0.5828830961577427  0.4018215187332735
 
  0.00000000E+00  0.00000000E+00  0.00000000E+00
  0.00000000E+00  0.00000000E+00  0.00000000E+00
  0.00000000E+00  0.00000000E+00  0.00000000E+00
  0.00000000E+00  0.00000000E+00  0.00000000E+00
  0.00000000E+00  0.00000000E+00  0.00000000E+00
  0.00000000E+00  0.00000000E+00  0.00000000E+00
  0.00000000E+00  0.00000000E+00  0.00000000E+00
  0.00000000E+00  0.00000000E+00  0.00000000E+00
  0.00000000E+00  0.00000000E+00  0.00000000E+00
  0.00000000E+00  0.00000000E+00  0.00000000E+00
  0.00000000E+00  0.00000000E+00  0.00000000E+00
  0.00000000E+00  0.00000000E+00  0.00000000E+00
  0.00000000E+00  0.00000000E+00  0.00000000E+00
  0.00000000E+00  0.00000000E+00  0.00000000E+00
  0.00000000E+00  0.00000000E+00  0.00000000E+00
  0.00000000E+00  0.00000000E+00  0.00000000E+00
  0.00000000E+00  0.00000000E+00  0.00000000E+00
  0.00000000E+00  0.00000000E+00  0.00000000E+00
  0.00000000E+00  0.00000000E+00  0.00000000E+00
  0.00000000E+00  0.00000000E+00  0.00000000E+00
  0.00000000E+00  0.00000000E+00  0.00000000E+00
  0.00000000E+00  0.00000000E+00  0.00000000E+00
  0.00000000E+00  0.00000000E+00  0.00000000E+00
  0.00000000E+00  0.00000000E+00  0.00000000E+00
  0.00000000E+00  0.00000000E+00  0.00000000E+00
  0.00000000E+00  0.00000000E+00  0.00000000E+00
  0.00000000E+00  0.00000000E+00  0.00000000E+00
  0.00000000E+00  0.00000000E+00  0.00000000E+00
  0.00000000E+00  0.00000000E+00  0.00000000E+00
  0.00000000E+00  0.00000000E+00  0.00000000E+00
  0.00000000E+00  0.00000000E+00  0.00000000E+00
  0.00000000E+00  0.00000000E+00  0.00000000E+00
  0.00000000E+00  0.00000000E+00  0.00000000E+00
  0.00000000E+00  0.00000000E+00  0.00000000E+00
  0.00000000E+00  0.00000000E+00  0.00000000E+00
  0.00000000E+00  0.00000000E+00  0.00000000E+00
  0.00000000E+00  0.00000000E+00  0.00000000E+00
  0.00000000E+00  0.00000000E+00  0.00000000E+00
  0.00000000E+00  0.00000000E+00  0.00000000E+00
  0.00000000E+00  0.00000000E+00  0.00000000E+00
  0.00000000E+00  0.00000000E+00  0.00000000E+00
  0.00000000E+00  0.00000000E+00  0.00000000E+00
  0.00000000E+00  0.00000000E+00  0.00000000E+00
  0.00000000E+00  0.00000000E+00  0.00000000E+00
  0.00000000E+00  0.00000000E+00  0.00000000E+00
  0.00000000E+00  0.00000000E+00  0.00000000E+00
  0.00000000E+00  0.00000000E+00  0.00000000E+00
  0.00000000E+00  0.00000000E+00  0.00000000E+00
  0.00000000E+00  0.00000000E+00  0.00000000E+00
  0.00000000E+00  0.00000000E+00  0.00000000E+00
  0.00000000E+00  0.00000000E+00  0.00000000E+00
  0.00000000E+00  0.00000000E+00  0.00000000E+00
  0.00000000E+00  0.00000000E+00  0.00000000E+00
  0.00000000E+00  0.00000000E+00  0.00000000E+00
  0.00000000E+00  0.00000000E+00  0.00000000E+00
  0.00000000E+00  0.00000000E+00  0.00000000E+00
  0.00000000E+00  0.00000000E+00  0.00000000E+00
  0.00000000E+00  0.00000000E+00  0.00000000E+00
  0.00000000E+00  0.00000000E+00  0.00000000E+00
  0.00000000E+00  0.00000000E+00  0.00000000E+00
  0.00000000E+00  0.00000000E+00  0.00000000E+00
  0.00000000E+00  0.00000000E+00  0.00000000E+00
  0.00000000E+00  0.00000000E+00  0.00000000E+00
  0.00000000E+00  0.00000000E+00  0.00000000E+00
  0.00000000E+00  0.00000000E+00  0.00000000E+00
  0.00000000E+00  0.00000000E+00  0.00000000E+00
  0.00000000E+00  0.00000000E+00  0.00000000E+00
  0.00000000E+00  0.00000000E+00  0.00000000E+00
  0.00000000E+00  0.00000000E+00  0.00000000E+00
  0.00000000E+00  0.00000000E+00  0.00000000E+00
  0.00000000E+00  0.00000000E+00  0.00000000E+00
  0.00000000E+00  0.00000000E+00  0.00000000E+00
  0.00000000E+00  0.00000000E+00  0.00000000E+00
  0.00000000E+00  0.00000000E+00  0.00000000E+00
  0.00000000E+00  0.00000000E+00  0.00000000E+00
  0.00000000E+00  0.00000000E+00  0.00000000E+00
  0.00000000E+00  0.00000000E+00  0.00000000E+00
  0.00000000E+00  0.00000000E+00  0.00000000E+00
  0.00000000E+00  0.00000000E+00  0.00000000E+00
  0.00000000E+00  0.00000000E+00  0.00000000E+00
  0.00000000E+00  0.00000000E+00  0.00000000E+00
  0.00000000E+00  0.00000000E+00  0.00000000E+00
  0.00000000E+00  0.00000000E+00  0.00000000E+00
  0.00000000E+00  0.00000000E+00  0.00000000E+00
  0.00000000E+00  0.00000000E+00  0.00000000E+00
  0.00000000E+00  0.00000000E+00  0.00000000E+00
  0.00000000E+00  0.00000000E+00  0.00000000E+00
  0.00000000E+00  0.00000000E+00  0.00000000E+00
  0.00000000E+00  0.00000000E+00  0.00000000E+00
  0.00000000E+00  0.00000000E+00  0.00000000E+00
  0.00000000E+00  0.00000000E+00  0.00000000E+00
  0.00000000E+00  0.00000000E+00  0.00000000E+00
  0.00000000E+00  0.00000000E+00  0.00000000E+00
  0.00000000E+00  0.00000000E+00  0.00000000E+00
  0.00000000E+00  0.00000000E+00  0.00000000E+00
  0.00000000E+00  0.00000000E+00  0.00000000E+00
  0.00000000E+00  0.00000000E+00  0.00000000E+00
  0.00000000E+00  0.00000000E+00  0.00000000E+00
  0.00000000E+00  0.00000000E+00  0.00000000E+00
  0.00000000E+00  0.00000000E+00  0.00000000E+00
  0.00000000E+00  0.00000000E+00  0.00000000E+00
  0.00000000E+00  0.00000000E+00  0.00000000E+00
  0.00000000E+00  0.00000000E+00  0.00000000E+00
  0.00000000E+00  0.00000000E+00  0.00000000E+00
  0.00000000E+00  0.00000000E+00  0.00000000E+00
  0.00000000E+00  0.00000000E+00  0.00000000E+00
  0.00000000E+00  0.00000000E+00  0.00000000E+00
  0.00000000E+00  0.00000000E+00  0.00000000E+00
  0.00000000E+00  0.00000000E+00  0.00000000E+00
  0.00000000E+00  0.00000000E+00  0.00000000E+00
  0.00000000E+00  0.00000000E+00  0.00000000E+00
  0.00000000E+00  0.00000000E+00  0.00000000E+00
  0.00000000E+00  0.00000000E+00  0.00000000E+00
  0.00000000E+00  0.00000000E+00  0.00000000E+00
  0.00000000E+00  0.00000000E+00  0.00000000E+00
  0.00000000E+00  0.00000000E+00  0.00000000E+00
  0.00000000E+00  0.00000000E+00  0.00000000E+00
  0.00000000E+00  0.00000000E+00  0.00000000E+00
  0.00000000E+00  0.00000000E+00  0.00000000E+00
  0.00000000E+00  0.00000000E+00  0.00000000E+00
  0.00000000E+00  0.00000000E+00  0.00000000E+00
  0.00000000E+00  0.00000000E+00  0.00000000E+00
  0.00000000E+00  0.00000000E+00  0.00000000E+00
  0.00000000E+00  0.00000000E+00  0.00000000E+00
  0.00000000E+00  0.00000000E+00  0.00000000E+00
  0.00000000E+00  0.00000000E+00  0.00000000E+00
  0.00000000E+00  0.00000000E+00  0.00000000E+00
  0.00000000E+00  0.00000000E+00  0.00000000E+00
