Y1 H1 C123 N3 O1                        
   1.00000000000000     
    19.8124774058694477    0.0065362463334798    0.0039721687090747
    -9.9004996316500016   17.0485194251271679   -0.0206207444746674
     0.0059396596453174   -0.0326507814009709   29.7847505063409521
   Y    H    C    N    O 
     1     1   123     3     1
Direct
  0.4379762453084414  0.5057779607637543  0.4497095627733980
  0.4983835218585088  0.5610601329194277  0.5435416394098646
  0.0416783321753263  0.0838100502686658  0.3992942618266179
  0.0407146240728239  0.2079329017007977  0.3990402323876440
  0.0401958610979186  0.3327705311893426  0.3985369080571535
  0.0404766073174664  0.4580897682676628  0.3983979177287423
  0.0413637397563216  0.5836060944263970  0.3988807589514426
  0.0421482388107687  0.7090435384766550  0.3992526719923052
  0.0424603440904923  0.8343902863039309  0.3993793079287900
  0.0424018499173312  0.9594431914884842  0.3993507827582072
  0.1676306584978784  0.0852385376817433  0.3998190694831252
  0.1666877431014663  0.2094369672923521  0.4001152425115600
  0.1648383448234391  0.3332379847768099  0.3996105062858947
  0.1642814070850180  0.4581980745652229  0.3978884596240636
  0.1652458958094078  0.5834559438740120  0.3979733417796762
  0.1663963444572762  0.7088405372371773  0.3988865404961197
  0.1670784068027085  0.8343125331694705  0.3993633021034181
  0.1674567116117362  0.9598473371974803  0.3995420456308595
  0.2925368552541838  0.0854593024886409  0.3998053718957934
  0.2931784719728158  0.2123133225008818  0.4022086166788900
  0.2910931471682066  0.3372300613683046  0.4050026444189710
  0.2878609699667699  0.4568360457127853  0.4023157274201548
  0.2887712030768654  0.5828611994969234  0.3983756448035410
  0.2906553449641963  0.7083781410021722  0.3983878138046036
  0.2915972151487984  0.8338197605084468  0.3990943054676515
  0.2920804986939269  0.9594410713293779  0.3993222492128924
  0.4170253074660097  0.0839076808872812  0.3990889505140740
  0.4176333499384933  0.2097185063310162  0.3996731323446775
  0.4201416578291562  0.3370252172972793  0.4062341101672926
  0.4148729599377668  0.7068274601453031  0.3992029379498980
  0.4160970410592999  0.8325264836734393  0.3991036460526415
  0.4166186109914335  0.9582094256463993  0.3992646128040346
  0.5415329639336307  0.0825624815564321  0.3990679352502131
  0.5421474845268198  0.2082074964530033  0.3984502392202859
  0.5431998478676620  0.3337930718141218  0.3991071549668463
  0.5453202739624892  0.4584537502902062  0.4044889252778717
  0.5389141815103639  0.7024969933209341  0.4025037015982331
  0.5405732942604826  0.8305189797474658  0.3999553518375005
  0.5411245657868000  0.9567833095889006  0.3994951693390318
  0.6661109609635282  0.0819880895376023  0.3995053344274253
  0.6665674463582868  0.2074427129721012  0.3988685497019818
  0.6674053556159935  0.3328541388440151  0.3978894811731452
  0.6691500227206957  0.4583954117174968  0.3975092275117185
  0.6702203058315680  0.5840014299622545  0.3990095559603404
  0.6674233822200376  0.7071497974484592  0.3998387585255551
  0.6651047375072197  0.8306357132578063  0.4001042956628781
  0.6656913445450043  0.9564360465156246  0.3998652960716352
  0.7907656534857995  0.0819647439139535  0.3995622335086752
  0.7910363937411018  0.2072690524319332  0.3993206512677461
  0.7916737078026761  0.3326999935271025  0.3988120507942068
  0.7927509591750815  0.4582311336756399  0.3980989031158028
  0.7935305268188373  0.5836475408393069  0.3978737054557369
  0.7934125266571529  0.7089402266235001  0.3984729878314916
  0.7916551204181895  0.8327639661514433  0.3991275599164845
  0.7906242073795273  0.9568366582190211  0.3995379061045858
  0.9158591405801402  0.0825123633653789  0.3992589891468818
  0.9156470104323224  0.2073771216609644  0.3991576603367339
  0.9158804954588373  0.3326708014850924  0.3989970052735029
  0.9165906939980135  0.4581287833982397  0.3989083537015557
  0.9174667523322979  0.5836774489599509  0.3988379835736382
  0.9177879160855531  0.7090218370948419  0.3989193733143910
  0.9175326206185482  0.8340399618748882  0.3990835563148875
  0.9166470014074852  0.9582837743452016  0.3992825964482215
  0.0841022042736666  0.0429784120478698  0.3994206247846502
  0.0831868270334330  0.1672045288698882  0.3993125502737097
  0.0818694567812001  0.2912751160269721  0.3988508276310091
  0.0815379477770772  0.4162299995386445  0.3980661435431646
  0.0823288879553066  0.5416613954128219  0.3984002965025695
  0.0832961554533547  0.6671441139975165  0.3990466420691787
  0.0838895647405491  0.7926091197934280  0.3993707667563611
  0.0841279530993658  0.9179163795134054  0.3994465160548838
  0.2091555004680803  0.0433865830238538  0.3997770902415585
  0.2093162763378043  0.1689103567163987  0.4006553799915770
  0.2076835104208076  0.2928616719731276  0.4009574145261548
  0.2054859043230106  0.4166209725716368  0.3992737987777535
  0.2059402655641165  0.5414070584676576  0.3977243289931374
  0.2074569516744966  0.6669426558364848  0.3983654490693562
  0.2083895518222069  0.7923977544769686  0.3991460822180784
  0.2088742409758067  0.9178785984226610  0.3994357776436752
  0.3338127170049534  0.0430825414103891  0.3993382851946223
  0.3343483720504959  0.1692319099006295  0.4006108489511531
  0.3351575886941486  0.2961791400320612  0.4056363691413647
  0.3307209360951990  0.5424471041017589  0.4009667854055390
  0.3316383257593005  0.6663255429644963  0.3984461284665585
  0.3328956217660186  0.7917437887612601  0.3988465881208541
  0.3334082057442181  0.9172739309050914  0.3992351261136717
  0.4583538538411665  0.0416348737679375  0.3991289532788147
  0.4588359094629888  0.1673261454209405  0.3988350552682318
  0.4598217261061779  0.2932366963302144  0.4006659753565684
  0.4647205275646862  0.4188136558386316  0.4124149429020272
  0.4539456675509084  0.6622152372643183  0.4016812315269623
  0.4573486195177171  0.7901989168403379  0.3992896222698855
  0.4579308232529953  0.9159878650789393  0.3993373011188600
  0.5828761945523441  0.0404138022301989  0.3993749411243979
  0.5833810547565887  0.1660984024397174  0.3987277124552080
  0.5842267588830063  0.2915867766017778  0.3981475606859890
  0.5863964847462697  0.4171838258987597  0.3992010041217936
  0.5884105868711013  0.5437559584015347  0.4032053231167403
  0.5838950517985750  0.6624173957168851  0.4029481859776863
  0.5811094612021591  0.7870510698662726  0.4008055833704443
  0.5824035341273244  0.9143802079307217  0.3997666383761888
  0.7074936967878586  0.0400467791309718  0.3997082172185945
  0.7078871727602909  0.1655495686161094  0.3992955744315264
  0.7085090786253967  0.2909580510870063  0.3984951444610391
  0.7098518691911065  0.4164325941624747  0.3975107732208417
  0.7109653508154034  0.5417700455266663  0.3977109879617899
  0.7104815771228630  0.6670712898217416  0.3989097033402660
  0.7081400849961045  0.7904958008380265  0.3994674368624869
  0.7070088765620306  0.9144571431193080  0.3998253081357240
  0.8324361274701878  0.0404414941283099  0.3994608546797241
  0.8324747112133378  0.1655253309649560  0.3993973481740501
  0.8328454621933740  0.2908209043241253  0.3991271435303496
  0.8336818508887898  0.4162527853894403  0.3986911194623255
  0.8345974795719245  0.5417788506874475  0.3982332730056578
  0.8348844984673103  0.6672386452156889  0.3983761078401071
  0.8342960978193380  0.7921205642170065  0.3988542638946250
  0.8331411734373495  0.9161332673896526  0.3993410956343839
  0.9581894181949401  0.0416441349550299  0.3992566122305892
  0.9574392748112570  0.1659346674395548  0.3990998517951822
  0.9572403926534618  0.2909244542617267  0.3989010155004458
  0.9575757583128830  0.4162020612724479  0.3988545471791072
  0.9584574056567354  0.5417278611604351  0.3989418278345794
  0.9591529574256747  0.6672132613704489  0.3990676521397499
  0.9592785576383459  0.7925635057540262  0.3991671413024339
  0.9590224257130904  0.9174490666689654  0.3992427301753404
  0.4103481008866839  0.5825412454652938  0.4039831941575750
  0.5484376390357273  0.5830636257678133  0.4066650404653212
  0.3273080024180754  0.4172564735346625  0.4078689148056602
  0.4760753352174470  0.5388471427579120  0.5147364612469408
 
  0.00000000E+00  0.00000000E+00  0.00000000E+00
  0.00000000E+00  0.00000000E+00  0.00000000E+00
  0.00000000E+00  0.00000000E+00  0.00000000E+00
  0.00000000E+00  0.00000000E+00  0.00000000E+00
  0.00000000E+00  0.00000000E+00  0.00000000E+00
  0.00000000E+00  0.00000000E+00  0.00000000E+00
  0.00000000E+00  0.00000000E+00  0.00000000E+00
  0.00000000E+00  0.00000000E+00  0.00000000E+00
  0.00000000E+00  0.00000000E+00  0.00000000E+00
  0.00000000E+00  0.00000000E+00  0.00000000E+00
  0.00000000E+00  0.00000000E+00  0.00000000E+00
  0.00000000E+00  0.00000000E+00  0.00000000E+00
  0.00000000E+00  0.00000000E+00  0.00000000E+00
  0.00000000E+00  0.00000000E+00  0.00000000E+00
  0.00000000E+00  0.00000000E+00  0.00000000E+00
  0.00000000E+00  0.00000000E+00  0.00000000E+00
  0.00000000E+00  0.00000000E+00  0.00000000E+00
  0.00000000E+00  0.00000000E+00  0.00000000E+00
  0.00000000E+00  0.00000000E+00  0.00000000E+00
  0.00000000E+00  0.00000000E+00  0.00000000E+00
  0.00000000E+00  0.00000000E+00  0.00000000E+00
  0.00000000E+00  0.00000000E+00  0.00000000E+00
  0.00000000E+00  0.00000000E+00  0.00000000E+00
  0.00000000E+00  0.00000000E+00  0.00000000E+00
  0.00000000E+00  0.00000000E+00  0.00000000E+00
  0.00000000E+00  0.00000000E+00  0.00000000E+00
  0.00000000E+00  0.00000000E+00  0.00000000E+00
  0.00000000E+00  0.00000000E+00  0.00000000E+00
  0.00000000E+00  0.00000000E+00  0.00000000E+00
  0.00000000E+00  0.00000000E+00  0.00000000E+00
  0.00000000E+00  0.00000000E+00  0.00000000E+00
  0.00000000E+00  0.00000000E+00  0.00000000E+00
  0.00000000E+00  0.00000000E+00  0.00000000E+00
  0.00000000E+00  0.00000000E+00  0.00000000E+00
  0.00000000E+00  0.00000000E+00  0.00000000E+00
  0.00000000E+00  0.00000000E+00  0.00000000E+00
  0.00000000E+00  0.00000000E+00  0.00000000E+00
  0.00000000E+00  0.00000000E+00  0.00000000E+00
  0.00000000E+00  0.00000000E+00  0.00000000E+00
  0.00000000E+00  0.00000000E+00  0.00000000E+00
  0.00000000E+00  0.00000000E+00  0.00000000E+00
  0.00000000E+00  0.00000000E+00  0.00000000E+00
  0.00000000E+00  0.00000000E+00  0.00000000E+00
  0.00000000E+00  0.00000000E+00  0.00000000E+00
  0.00000000E+00  0.00000000E+00  0.00000000E+00
  0.00000000E+00  0.00000000E+00  0.00000000E+00
  0.00000000E+00  0.00000000E+00  0.00000000E+00
  0.00000000E+00  0.00000000E+00  0.00000000E+00
  0.00000000E+00  0.00000000E+00  0.00000000E+00
  0.00000000E+00  0.00000000E+00  0.00000000E+00
  0.00000000E+00  0.00000000E+00  0.00000000E+00
  0.00000000E+00  0.00000000E+00  0.00000000E+00
  0.00000000E+00  0.00000000E+00  0.00000000E+00
  0.00000000E+00  0.00000000E+00  0.00000000E+00
  0.00000000E+00  0.00000000E+00  0.00000000E+00
  0.00000000E+00  0.00000000E+00  0.00000000E+00
  0.00000000E+00  0.00000000E+00  0.00000000E+00
  0.00000000E+00  0.00000000E+00  0.00000000E+00
  0.00000000E+00  0.00000000E+00  0.00000000E+00
  0.00000000E+00  0.00000000E+00  0.00000000E+00
  0.00000000E+00  0.00000000E+00  0.00000000E+00
  0.00000000E+00  0.00000000E+00  0.00000000E+00
  0.00000000E+00  0.00000000E+00  0.00000000E+00
  0.00000000E+00  0.00000000E+00  0.00000000E+00
  0.00000000E+00  0.00000000E+00  0.00000000E+00
  0.00000000E+00  0.00000000E+00  0.00000000E+00
  0.00000000E+00  0.00000000E+00  0.00000000E+00
  0.00000000E+00  0.00000000E+00  0.00000000E+00
  0.00000000E+00  0.00000000E+00  0.00000000E+00
  0.00000000E+00  0.00000000E+00  0.00000000E+00
  0.00000000E+00  0.00000000E+00  0.00000000E+00
  0.00000000E+00  0.00000000E+00  0.00000000E+00
  0.00000000E+00  0.00000000E+00  0.00000000E+00
  0.00000000E+00  0.00000000E+00  0.00000000E+00
  0.00000000E+00  0.00000000E+00  0.00000000E+00
  0.00000000E+00  0.00000000E+00  0.00000000E+00
  0.00000000E+00  0.00000000E+00  0.00000000E+00
  0.00000000E+00  0.00000000E+00  0.00000000E+00
  0.00000000E+00  0.00000000E+00  0.00000000E+00
  0.00000000E+00  0.00000000E+00  0.00000000E+00
  0.00000000E+00  0.00000000E+00  0.00000000E+00
  0.00000000E+00  0.00000000E+00  0.00000000E+00
  0.00000000E+00  0.00000000E+00  0.00000000E+00
  0.00000000E+00  0.00000000E+00  0.00000000E+00
  0.00000000E+00  0.00000000E+00  0.00000000E+00
  0.00000000E+00  0.00000000E+00  0.00000000E+00
  0.00000000E+00  0.00000000E+00  0.00000000E+00
  0.00000000E+00  0.00000000E+00  0.00000000E+00
  0.00000000E+00  0.00000000E+00  0.00000000E+00
  0.00000000E+00  0.00000000E+00  0.00000000E+00
  0.00000000E+00  0.00000000E+00  0.00000000E+00
  0.00000000E+00  0.00000000E+00  0.00000000E+00
  0.00000000E+00  0.00000000E+00  0.00000000E+00
  0.00000000E+00  0.00000000E+00  0.00000000E+00
  0.00000000E+00  0.00000000E+00  0.00000000E+00
  0.00000000E+00  0.00000000E+00  0.00000000E+00
  0.00000000E+00  0.00000000E+00  0.00000000E+00
  0.00000000E+00  0.00000000E+00  0.00000000E+00
  0.00000000E+00  0.00000000E+00  0.00000000E+00
  0.00000000E+00  0.00000000E+00  0.00000000E+00
  0.00000000E+00  0.00000000E+00  0.00000000E+00
  0.00000000E+00  0.00000000E+00  0.00000000E+00
  0.00000000E+00  0.00000000E+00  0.00000000E+00
  0.00000000E+00  0.00000000E+00  0.00000000E+00
  0.00000000E+00  0.00000000E+00  0.00000000E+00
  0.00000000E+00  0.00000000E+00  0.00000000E+00
  0.00000000E+00  0.00000000E+00  0.00000000E+00
  0.00000000E+00  0.00000000E+00  0.00000000E+00
  0.00000000E+00  0.00000000E+00  0.00000000E+00
  0.00000000E+00  0.00000000E+00  0.00000000E+00
  0.00000000E+00  0.00000000E+00  0.00000000E+00
  0.00000000E+00  0.00000000E+00  0.00000000E+00
  0.00000000E+00  0.00000000E+00  0.00000000E+00
  0.00000000E+00  0.00000000E+00  0.00000000E+00
  0.00000000E+00  0.00000000E+00  0.00000000E+00
  0.00000000E+00  0.00000000E+00  0.00000000E+00
  0.00000000E+00  0.00000000E+00  0.00000000E+00
  0.00000000E+00  0.00000000E+00  0.00000000E+00
  0.00000000E+00  0.00000000E+00  0.00000000E+00
  0.00000000E+00  0.00000000E+00  0.00000000E+00
  0.00000000E+00  0.00000000E+00  0.00000000E+00
  0.00000000E+00  0.00000000E+00  0.00000000E+00
  0.00000000E+00  0.00000000E+00  0.00000000E+00
  0.00000000E+00  0.00000000E+00  0.00000000E+00
  0.00000000E+00  0.00000000E+00  0.00000000E+00
  0.00000000E+00  0.00000000E+00  0.00000000E+00
  0.00000000E+00  0.00000000E+00  0.00000000E+00
  0.00000000E+00  0.00000000E+00  0.00000000E+00
  0.00000000E+00  0.00000000E+00  0.00000000E+00
