Nb1 C122 N4 O1                          
   1.00000000000000     
    19.8061470859929933    0.0000013550512717    0.0503279628185443
    -9.9027059303111891   17.0342522140297490   -0.1199228989609904
     0.0757476359178400   -0.1657737056984129   29.8260144143787755
   Nb   C    N    O 
     1   122     4     1
Direct
  0.4416795365769675  0.5007328145912122  0.4362082876081538
  0.0420515779423877  0.0842889491582261  0.3998038540456380
  0.0411663358446744  0.2084293308947953  0.3997309571571228
  0.0403637430517948  0.3331217289948772  0.3991618944489915
  0.0404516698950194  0.4583136551965429  0.3988783047989511
  0.0413160984436426  0.5838345241422316  0.3994633498078920
  0.0420938392728040  0.7092897048790412  0.3998136349547226
  0.0423394699517737  0.8345025293042484  0.3998762700856747
  0.0424277219688718  0.9597118357644410  0.3998428979745484
  0.1680765097038834  0.0858350192671454  0.4001414486310855
  0.1675181797587853  0.2104332567793483  0.4006332013917866
  0.1652405592907376  0.3338733589065587  0.4006333035771630
  0.1642340352727905  0.4586079990914734  0.3989137780262604
  0.1651642210960966  0.5837291416791773  0.3986295187733305
  0.1663575222831555  0.7090086201265390  0.3992432582955728
  0.1669925612001619  0.8344708345407709  0.3994623655314810
  0.1674345111874335  0.9600278782959625  0.3996038403882856
  0.2925128624830559  0.0857475861455976  0.3998402179567931
  0.2939343916658517  0.2131592759568575  0.4015301268916686
  0.2924180120343178  0.3387220901144107  0.4044988354714004
  0.2875464115607856  0.4581953042804751  0.4036000768050033
  0.2885980584706562  0.5830326572595051  0.4001830931909285
  0.2906564183689507  0.7084261991004305  0.3994361781264945
  0.2915798532410935  0.8339280471621351  0.3994356146200809
  0.2920693136125626  0.9595786757574456  0.3994634668831977
  0.4169676847933835  0.0840740698521275  0.3995888266675700
  0.4176021285786712  0.2101041560024031  0.3997322625386141
  0.4208079509568964  0.3380517395981661  0.4016738840491845
  0.4147825573990747  0.7062498886163801  0.4010892395291208
  0.4160928913463747  0.8323177027497134  0.3996948210860377
  0.4166250553911776  0.9582582814675675  0.3996788450846077
  0.5415154179450347  0.0826431067853871  0.3998469019519814
  0.5420611840256229  0.2082977021300076  0.3995409984169594
  0.5434349829889399  0.3337522967641545  0.3991101239791746
  0.5451938783714706  0.4579683591071860  0.3996415051597259
  0.5384634624813166  0.7021659725729277  0.4027245993233891
  0.5405343266765716  0.8304240422829245  0.4004479839440339
  0.5411051216655223  0.9567942598616892  0.3998754669372360
  0.6661362026673014  0.0821160897890969  0.3998553109788925
  0.6665547948435739  0.2075751883428987  0.3998055691597111
  0.6675962795373023  0.3330787303696413  0.3994785166635792
  0.6693323996168440  0.4585663684749443  0.3988253424367086
  0.6695358759523217  0.5831294964173348  0.3985807814259223
  0.6665299356615062  0.7065353944128187  0.3991204901066468
  0.6647659674448446  0.8305149840608025  0.3998879383248432
  0.6656568860409403  0.9564797540183327  0.3998427857343688
  0.7908652835697157  0.0821794283377169  0.3995619996500676
  0.7911235979036247  0.2074745527167582  0.3996159015712472
  0.7917725648163322  0.3328671789551642  0.3997412003695279
  0.7928094649858266  0.4583566734940998  0.3995740556486095
  0.7935233551363908  0.5837431885195704  0.3992105702934720
  0.7927504460136613  0.7085276266170242  0.3991136083723297
  0.7912158385674983  0.8325491213307887  0.3992710420250699
  0.7905904587413133  0.9569054902876917  0.3995205246152257
  0.9160554940463957  0.0828150929717376  0.3995931511765748
  0.9158604420895965  0.2076407343763761  0.3993581824253715
  0.9159783519891354  0.3328852061134064  0.3993990113998347
  0.9166377202721551  0.4583953405352950  0.3997881701422070
  0.9174463533869659  0.5838606701279720  0.3998554395009532
  0.9175660154079933  0.7090742219792457  0.3998085224316359
  0.9172429281726520  0.8340367925389655  0.3997862944885912
  0.9166331300584292  0.9584687910881441  0.3997361670848504
  0.0843958978663429  0.0434236684216043  0.3998789365109621
  0.0838443787620010  0.1679020274300200  0.3999451594139754
  0.0823053129955698  0.2917912035298728  0.3997181260168771
  0.0815066348010412  0.4164551021071889  0.3987434234791576
  0.0822596388315501  0.5418973707808613  0.3988626235635825
  0.0832341060773302  0.6673509967774341  0.3995093804452022
  0.0837877012472951  0.7927599812065770  0.3997434675763220
  0.0841336587117896  0.9181089615025713  0.3997756552864964
  0.2092682273105247  0.0437427621145687  0.3998525931290026
  0.2101976465890637  0.1698184124658103  0.4008739496792186
  0.2086092498651481  0.2940071555511400  0.4015969499336048
  0.2056490287848380  0.4172032483566744  0.4004145231292058
  0.2057479992579374  0.5415906051024566  0.3988115785000818
  0.2073744204245133  0.6670904994306396  0.3990156160743778
  0.2083607389649524  0.7925880085853545  0.3993507906651082
  0.2088093647688110  0.9180463812997568  0.3994382393978997
  0.3337918516915693  0.0432995235623568  0.3995611782972194
  0.3343549850521139  0.1697024144159167  0.4003477584208612
  0.3364347092930383  0.2981417726737903  0.4032664484850701
  0.3295665350389280  0.5421672346383875  0.4034920268441647
  0.3315341217351261  0.6663734257409183  0.4002400574678682
  0.3328817802026419  0.7917854150501024  0.3995311571006765
  0.3333801248677259  0.9174119892796402  0.3995283997349895
  0.4582974198273723  0.0417578942100108  0.3997225081680909
  0.4587748784652300  0.1676469865386113  0.3995238255086311
  0.4600749785966277  0.2936272536278917  0.3995794716040784
  0.4539023399724360  0.6616173146823385  0.4040592291328832
  0.4572373528895644  0.7897808034203895  0.4001856197535673
  0.4579029432321314  0.9159302466638826  0.3997206935948419
  0.5828357969380797  0.0405016582041982  0.3999087670352957
  0.5833263881540717  0.1661835180962863  0.3997751313001986
  0.5843251758757427  0.2916710733398211  0.3993436397095011
  0.5864826706329339  0.4170222628063244  0.3987708017179348
  0.5873080102415069  0.5421997173922051  0.3995793455803395
  0.5828669706526722  0.6621710781208893  0.4012803623221383
  0.5809212078168010  0.7870849272760014  0.4009649921814992
  0.5823861282876409  0.9143918833233444  0.4000072913259233
  0.7075101905696922  0.0401906207219301  0.3997433662145280
  0.7079418436490975  0.1657208622103130  0.3997947191272939
  0.7086074887436814  0.2911537606749040  0.3997196258348190
  0.7098843628035612  0.4164690425491642  0.3992923899279710
  0.7108561569987605  0.5416140071371693  0.3987502929108948
  0.7097568333185588  0.6663985146131942  0.3987754386747530
  0.7075825860519614  0.7900739291192455  0.3992754998579885
  0.7068782100686875  0.9144649871272431  0.3996604896747802
  0.8325810476680924  0.0406341501951010  0.3995533183022850
  0.8326171622774341  0.1657613450867497  0.3994720581237259
  0.8329086697639300  0.2909542369490420  0.3996150773501817
  0.8336966078421829  0.4163940135465516  0.3997938456061217
  0.8345780274062925  0.5418976840329184  0.3995676780737915
  0.8346234424521011  0.6671369413430365  0.3993949316314386
  0.8338518624056520  0.7919005900959307  0.3993814677954871
  0.8329885999528442  0.9161320773280766  0.3995168320436249
  0.9584549355027641  0.0419698192861119  0.3997207988248003
  0.9577260972479917  0.1662934158658226  0.3995046424232563
  0.9574365015028234  0.2912117751517857  0.3992317440890520
  0.9575885146003154  0.4164086808188630  0.3994166372057706
  0.9583893402134348  0.5418763854127455  0.3998235862956366
  0.9590473194332465  0.6673917732269476  0.3998954555658776
  0.9590932282384060  0.7926479479184414  0.3999099032024960
  0.9589649001544205  0.9175716553460023  0.3998442695921343
  0.4097308962733343  0.5814945990391170  0.4080397710349483
  0.5467281673188991  0.5820175785092675  0.4027778212725198
  0.3284429481609747  0.4190162304103129  0.4082179334482203
  0.4648522439432946  0.4182703354132553  0.4028389910742687
  0.4511885969942534  0.5010485520890311  0.4948028865983803
 
  0.00000000E+00  0.00000000E+00  0.00000000E+00
  0.00000000E+00  0.00000000E+00  0.00000000E+00
  0.00000000E+00  0.00000000E+00  0.00000000E+00
  0.00000000E+00  0.00000000E+00  0.00000000E+00
  0.00000000E+00  0.00000000E+00  0.00000000E+00
  0.00000000E+00  0.00000000E+00  0.00000000E+00
  0.00000000E+00  0.00000000E+00  0.00000000E+00
  0.00000000E+00  0.00000000E+00  0.00000000E+00
  0.00000000E+00  0.00000000E+00  0.00000000E+00
  0.00000000E+00  0.00000000E+00  0.00000000E+00
  0.00000000E+00  0.00000000E+00  0.00000000E+00
  0.00000000E+00  0.00000000E+00  0.00000000E+00
  0.00000000E+00  0.00000000E+00  0.00000000E+00
  0.00000000E+00  0.00000000E+00  0.00000000E+00
  0.00000000E+00  0.00000000E+00  0.00000000E+00
  0.00000000E+00  0.00000000E+00  0.00000000E+00
  0.00000000E+00  0.00000000E+00  0.00000000E+00
  0.00000000E+00  0.00000000E+00  0.00000000E+00
  0.00000000E+00  0.00000000E+00  0.00000000E+00
  0.00000000E+00  0.00000000E+00  0.00000000E+00
  0.00000000E+00  0.00000000E+00  0.00000000E+00
  0.00000000E+00  0.00000000E+00  0.00000000E+00
  0.00000000E+00  0.00000000E+00  0.00000000E+00
  0.00000000E+00  0.00000000E+00  0.00000000E+00
  0.00000000E+00  0.00000000E+00  0.00000000E+00
  0.00000000E+00  0.00000000E+00  0.00000000E+00
  0.00000000E+00  0.00000000E+00  0.00000000E+00
  0.00000000E+00  0.00000000E+00  0.00000000E+00
  0.00000000E+00  0.00000000E+00  0.00000000E+00
  0.00000000E+00  0.00000000E+00  0.00000000E+00
  0.00000000E+00  0.00000000E+00  0.00000000E+00
  0.00000000E+00  0.00000000E+00  0.00000000E+00
  0.00000000E+00  0.00000000E+00  0.00000000E+00
  0.00000000E+00  0.00000000E+00  0.00000000E+00
  0.00000000E+00  0.00000000E+00  0.00000000E+00
  0.00000000E+00  0.00000000E+00  0.00000000E+00
  0.00000000E+00  0.00000000E+00  0.00000000E+00
  0.00000000E+00  0.00000000E+00  0.00000000E+00
  0.00000000E+00  0.00000000E+00  0.00000000E+00
  0.00000000E+00  0.00000000E+00  0.00000000E+00
  0.00000000E+00  0.00000000E+00  0.00000000E+00
  0.00000000E+00  0.00000000E+00  0.00000000E+00
  0.00000000E+00  0.00000000E+00  0.00000000E+00
  0.00000000E+00  0.00000000E+00  0.00000000E+00
  0.00000000E+00  0.00000000E+00  0.00000000E+00
  0.00000000E+00  0.00000000E+00  0.00000000E+00
  0.00000000E+00  0.00000000E+00  0.00000000E+00
  0.00000000E+00  0.00000000E+00  0.00000000E+00
  0.00000000E+00  0.00000000E+00  0.00000000E+00
  0.00000000E+00  0.00000000E+00  0.00000000E+00
  0.00000000E+00  0.00000000E+00  0.00000000E+00
  0.00000000E+00  0.00000000E+00  0.00000000E+00
  0.00000000E+00  0.00000000E+00  0.00000000E+00
  0.00000000E+00  0.00000000E+00  0.00000000E+00
  0.00000000E+00  0.00000000E+00  0.00000000E+00
  0.00000000E+00  0.00000000E+00  0.00000000E+00
  0.00000000E+00  0.00000000E+00  0.00000000E+00
  0.00000000E+00  0.00000000E+00  0.00000000E+00
  0.00000000E+00  0.00000000E+00  0.00000000E+00
  0.00000000E+00  0.00000000E+00  0.00000000E+00
  0.00000000E+00  0.00000000E+00  0.00000000E+00
  0.00000000E+00  0.00000000E+00  0.00000000E+00
  0.00000000E+00  0.00000000E+00  0.00000000E+00
  0.00000000E+00  0.00000000E+00  0.00000000E+00
  0.00000000E+00  0.00000000E+00  0.00000000E+00
  0.00000000E+00  0.00000000E+00  0.00000000E+00
  0.00000000E+00  0.00000000E+00  0.00000000E+00
  0.00000000E+00  0.00000000E+00  0.00000000E+00
  0.00000000E+00  0.00000000E+00  0.00000000E+00
  0.00000000E+00  0.00000000E+00  0.00000000E+00
  0.00000000E+00  0.00000000E+00  0.00000000E+00
  0.00000000E+00  0.00000000E+00  0.00000000E+00
  0.00000000E+00  0.00000000E+00  0.00000000E+00
  0.00000000E+00  0.00000000E+00  0.00000000E+00
  0.00000000E+00  0.00000000E+00  0.00000000E+00
  0.00000000E+00  0.00000000E+00  0.00000000E+00
  0.00000000E+00  0.00000000E+00  0.00000000E+00
  0.00000000E+00  0.00000000E+00  0.00000000E+00
  0.00000000E+00  0.00000000E+00  0.00000000E+00
  0.00000000E+00  0.00000000E+00  0.00000000E+00
  0.00000000E+00  0.00000000E+00  0.00000000E+00
  0.00000000E+00  0.00000000E+00  0.00000000E+00
  0.00000000E+00  0.00000000E+00  0.00000000E+00
  0.00000000E+00  0.00000000E+00  0.00000000E+00
  0.00000000E+00  0.00000000E+00  0.00000000E+00
  0.00000000E+00  0.00000000E+00  0.00000000E+00
  0.00000000E+00  0.00000000E+00  0.00000000E+00
  0.00000000E+00  0.00000000E+00  0.00000000E+00
  0.00000000E+00  0.00000000E+00  0.00000000E+00
  0.00000000E+00  0.00000000E+00  0.00000000E+00
  0.00000000E+00  0.00000000E+00  0.00000000E+00
  0.00000000E+00  0.00000000E+00  0.00000000E+00
  0.00000000E+00  0.00000000E+00  0.00000000E+00
  0.00000000E+00  0.00000000E+00  0.00000000E+00
  0.00000000E+00  0.00000000E+00  0.00000000E+00
  0.00000000E+00  0.00000000E+00  0.00000000E+00
  0.00000000E+00  0.00000000E+00  0.00000000E+00
  0.00000000E+00  0.00000000E+00  0.00000000E+00
  0.00000000E+00  0.00000000E+00  0.00000000E+00
  0.00000000E+00  0.00000000E+00  0.00000000E+00
  0.00000000E+00  0.00000000E+00  0.00000000E+00
  0.00000000E+00  0.00000000E+00  0.00000000E+00
  0.00000000E+00  0.00000000E+00  0.00000000E+00
  0.00000000E+00  0.00000000E+00  0.00000000E+00
  0.00000000E+00  0.00000000E+00  0.00000000E+00
  0.00000000E+00  0.00000000E+00  0.00000000E+00
  0.00000000E+00  0.00000000E+00  0.00000000E+00
  0.00000000E+00  0.00000000E+00  0.00000000E+00
  0.00000000E+00  0.00000000E+00  0.00000000E+00
  0.00000000E+00  0.00000000E+00  0.00000000E+00
  0.00000000E+00  0.00000000E+00  0.00000000E+00
  0.00000000E+00  0.00000000E+00  0.00000000E+00
  0.00000000E+00  0.00000000E+00  0.00000000E+00
  0.00000000E+00  0.00000000E+00  0.00000000E+00
  0.00000000E+00  0.00000000E+00  0.00000000E+00
  0.00000000E+00  0.00000000E+00  0.00000000E+00
  0.00000000E+00  0.00000000E+00  0.00000000E+00
  0.00000000E+00  0.00000000E+00  0.00000000E+00
  0.00000000E+00  0.00000000E+00  0.00000000E+00
  0.00000000E+00  0.00000000E+00  0.00000000E+00
  0.00000000E+00  0.00000000E+00  0.00000000E+00
  0.00000000E+00  0.00000000E+00  0.00000000E+00
  0.00000000E+00  0.00000000E+00  0.00000000E+00
  0.00000000E+00  0.00000000E+00  0.00000000E+00
  0.00000000E+00  0.00000000E+00  0.00000000E+00
  0.00000000E+00  0.00000000E+00  0.00000000E+00
  0.00000000E+00  0.00000000E+00  0.00000000E+00
  0.00000000E+00  0.00000000E+00  0.00000000E+00
