Pd1 C124 N2                             
   1.00000000000000     
    19.8574717895549391   -0.0047274307722236    0.0029336507779009
    -9.9330448222395606   17.0518322492436489   -0.0002416600562399
     0.0043919374199954    0.0021412667916574   29.7212648977490232
   Pd   C    N 
     1   124     2
Direct
  0.4374828408011361  0.5000057852538666  0.4111872114172464
  0.0419355999660739  0.0841301195444961  0.3996530509166052
  0.0406009964519132  0.2079838807273797  0.3994787873254300
  0.0397797901559830  0.3325696681349036  0.3991278698935510
  0.0398979661601188  0.4582621281480225  0.3989660028215385
  0.0411261326903193  0.5839294069785427  0.3992598418146703
  0.0421694549977425  0.7094796435697915  0.3995787557422222
  0.0426575783560428  0.8348956413081857  0.3996932611658559
  0.0427882834099893  0.9599834972787128  0.3996852228934353
  0.1683013908245019  0.0862018169282200  0.4002510846394167
  0.1669686063983124  0.2100046800227825  0.4008216312910945
  0.1645714804241944  0.3335643223410166  0.4008398394067878
  0.1628367230633027  0.4583268414444755  0.3997879601704167
  0.1644842337779308  0.5838510176274833  0.3991816203003100
  0.1661599496935628  0.7094499975200990  0.3993810981041754
  0.1671198217406349  0.8349675851647697  0.3997310834503892
  0.1678065301862730  0.9605597641164141  0.3998839160859379
  0.2930263643807114  0.0860015223544993  0.4002905380451510
  0.2947960252913223  0.2134973828025631  0.4023367895085662
  0.2914532108811732  0.3372857408220825  0.4052081691770018
  0.2853431449791405  0.4583886367211569  0.4051972521093633
  0.2874375324163072  0.5844340416409520  0.4017257027721114
  0.2901190278562648  0.7092409733814699  0.3998647115091465
  0.2914565392331376  0.8344034518771766  0.3995244113455125
  0.2921771483753741  0.9599420751677055  0.3996874781177035
  0.4172986429258903  0.0840961694482814  0.3997280399443533
  0.4181244562805558  0.2099569629016217  0.4011946040459523
  0.4221589155377351  0.3383360186313640  0.4053699150847139
  0.4140825297629887  0.7064846487761439  0.4025150572099665
  0.4157725350110192  0.8325565661079483  0.4000424233739343
  0.4165414874054704  0.9583018434612304  0.3995386169239185
  0.5415895200746406  0.0822154031452768  0.3995442605441747
  0.5424343442765068  0.2076260877028820  0.3997418055497400
  0.5440402577057361  0.3327484845024304  0.4013165470650268
  0.5470123108645272  0.4564723217506943  0.4051513684847123
  0.5475963211460196  0.5806454563882649  0.4080390579779842
  0.5383180549132236  0.7024260524795847  0.4047698189175091
  0.5398585705273081  0.8301951552894871  0.4011790970765736
  0.5409472455070814  0.9564915297774259  0.3998276887470121
  0.6659481835729048  0.0814451634509731  0.3997628007966928
  0.6667396589577077  0.2069993072201746  0.3995322836466276
  0.6678909711085104  0.3324315926056361  0.3993632143433634
  0.6702423769951792  0.4581013638934118  0.3999249765500100
  0.6712960384128268  0.5832164088888365  0.4015956107680125
  0.6670962325245300  0.7065369024005228  0.4021174811096128
  0.6647877556223412  0.8298928576043185  0.4011210256958290
  0.6653974543900354  0.9558272104000091  0.4001293674200205
  0.7906106399799985  0.0814589480942340  0.3997528910292945
  0.7909691683644315  0.2067871690096042  0.3997383792298305
  0.7918914467365622  0.3324090561733998  0.3994058755827384
  0.7932493123850555  0.4581374721965177  0.3990026881280898
  0.7943294832392357  0.5836736348598133  0.3989998583912502
  0.7933787282527088  0.7086362203382429  0.3995554271520432
  0.7917133155346228  0.8325488557429966  0.3998447343929636
  0.7904349591009788  0.9563771734599594  0.3998231798464881
  0.9158415960997401  0.0823384308463253  0.3995108413457315
  0.9154557823588523  0.2070857476257137  0.3994261910813005
  0.9157110916905438  0.3324286456712430  0.3993549086619378
  0.9165294435406317  0.4580778960140596  0.3993048524512401
  0.9177434899992426  0.5838832823606874  0.3992054897548877
  0.9180431948334482  0.7093740741143445  0.3992211452955056
  0.9176607997442205  0.8341477398936832  0.3994055856149884
  0.9167355075996085  0.9582720427773311  0.3995242142504830
  0.0845897362558510  0.0436330709823404  0.3998265452649384
  0.0833022370807756  0.1674491357560820  0.3998147428231990
  0.0815977254998168  0.2913330570685037  0.3995215016846661
  0.0806226603630120  0.4163081186224409  0.3990036640883377
  0.0817052775029076  0.5418559652386222  0.3990223517960965
  0.0831076830178336  0.6675805638211625  0.3994191906763354
  0.0840390279174639  0.7932082841267285  0.3997525044402361
  0.0844337101844164  0.9185430197394446  0.3997775700356207
  0.2096377399686195  0.0441789479871683  0.4001446604097250
  0.2102371775601658  0.1701239997545630  0.4010905111440316
  0.2078973781691603  0.2934621215460807  0.4020959746333367
  0.2036716645192174  0.4167723580390414  0.4015487768290013
  0.2047198445407918  0.5418945576037342  0.3999188083151122
  0.2070925077696112  0.6675797319844876  0.3993659549580182
  0.2082596030684642  0.7929998298360920  0.3995385545957447
  0.2090980346761047  0.9185537806893166  0.3997779689851370
  0.3340798578569367  0.0435046843214036  0.3998488400981374
  0.3351541636752192  0.1698109215191457  0.4012485779586943
  0.3366744209819679  0.2975863843254785  0.4048118671288493
  0.3273746701313896  0.4193605288879194  0.4080356693547860
  0.3279421746365470  0.5435128046812030  0.4051207617163380
  0.3309368668187251  0.6672497724049924  0.4012692634790459
  0.3325708131532728  0.7923952620874640  0.3997391413141797
  0.3334656848833736  0.9177892146481704  0.3995576282849003
  0.4585097142389845  0.0417049858213150  0.3995335948401054
  0.4592527450172679  0.1674449699717196  0.4000715993519973
  0.4609114908643148  0.2935224818288103  0.4025811065018865
  0.4528269167271020  0.6616652851094827  0.4053145289900959
  0.4568826039631863  0.7900462513239290  0.4011149169686993
  0.4577302475579862  0.9159132041830678  0.3997159311961012
  0.5828654400007498  0.0400621367087454  0.3996681822382319
  0.5835550221208544  0.1656089964204348  0.3995171102111426
  0.5848800352639690  0.2907798756192557  0.3998809360638166
  0.5875301892261121  0.4155653788594260  0.4017564691701612
  0.5896214686374607  0.5416079803197215  0.4052354137229737
  0.5835279703798869  0.6627252465580513  0.4051888537427331
  0.5802290347083634  0.7865187589646887  0.4023082940083753
  0.5819891515725855  0.9140027839955781  0.4002604218532110
  0.7072370241965958  0.0394450410198453  0.3998623234263017
  0.7078815126741953  0.1650355797211503  0.3997207991373570
  0.7088430032123695  0.2905602202015581  0.3993732132647218
  0.7104699900395332  0.4161471792305204  0.3991669201512902
  0.7121241173499744  0.5416657217865541  0.3998027973018010
  0.7104133494774418  0.6664359703484110  0.4008899617541148
  0.7080408495493486  0.7899865595839088  0.4008627629865588
  0.7067276998811984  0.9138076613328004  0.4002596063656875
  0.8322601902504836  0.0400187289493379  0.3996702297909024
  0.8323534816451674  0.1651081723517609  0.3996755379294263
  0.8328448821972909  0.2905212738360954  0.3995733691709022
  0.8338263051595056  0.4160606808159213  0.3992500986099791
  0.8350507719905416  0.5417282845616522  0.3989494797059266
  0.8351949538532210  0.6674103008522722  0.3991283259315056
  0.8344015685451748  0.7920088274437556  0.3995066613355160
  0.8330933586896989  0.9158642612290342  0.3996640018914760
  0.9583091663504958  0.0417278343290052  0.3995183059672571
  0.9573553318327410  0.1658490021713715  0.3993961124053711
  0.9569461459106641  0.2906154675106659  0.3992438708392300
  0.9572130346344421  0.4161157721260341  0.3992128111095643
  0.9584356076442826  0.5419191561599838  0.3993053046072672
  0.9592845886066035  0.6675661666819597  0.3993400083292057
  0.9595448289395858  0.7928962524969057  0.3994307382154136
  0.9592001605832751  0.9176563614743031  0.3995227441475829
  0.4069127034315621  0.5815187083773644  0.4076549393501262
  0.4680464873500175  0.4184778471705877  0.4076920738933400
 
  0.00000000E+00  0.00000000E+00  0.00000000E+00
  0.00000000E+00  0.00000000E+00  0.00000000E+00
  0.00000000E+00  0.00000000E+00  0.00000000E+00
  0.00000000E+00  0.00000000E+00  0.00000000E+00
  0.00000000E+00  0.00000000E+00  0.00000000E+00
  0.00000000E+00  0.00000000E+00  0.00000000E+00
  0.00000000E+00  0.00000000E+00  0.00000000E+00
  0.00000000E+00  0.00000000E+00  0.00000000E+00
  0.00000000E+00  0.00000000E+00  0.00000000E+00
  0.00000000E+00  0.00000000E+00  0.00000000E+00
  0.00000000E+00  0.00000000E+00  0.00000000E+00
  0.00000000E+00  0.00000000E+00  0.00000000E+00
  0.00000000E+00  0.00000000E+00  0.00000000E+00
  0.00000000E+00  0.00000000E+00  0.00000000E+00
  0.00000000E+00  0.00000000E+00  0.00000000E+00
  0.00000000E+00  0.00000000E+00  0.00000000E+00
  0.00000000E+00  0.00000000E+00  0.00000000E+00
  0.00000000E+00  0.00000000E+00  0.00000000E+00
  0.00000000E+00  0.00000000E+00  0.00000000E+00
  0.00000000E+00  0.00000000E+00  0.00000000E+00
  0.00000000E+00  0.00000000E+00  0.00000000E+00
  0.00000000E+00  0.00000000E+00  0.00000000E+00
  0.00000000E+00  0.00000000E+00  0.00000000E+00
  0.00000000E+00  0.00000000E+00  0.00000000E+00
  0.00000000E+00  0.00000000E+00  0.00000000E+00
  0.00000000E+00  0.00000000E+00  0.00000000E+00
  0.00000000E+00  0.00000000E+00  0.00000000E+00
  0.00000000E+00  0.00000000E+00  0.00000000E+00
  0.00000000E+00  0.00000000E+00  0.00000000E+00
  0.00000000E+00  0.00000000E+00  0.00000000E+00
  0.00000000E+00  0.00000000E+00  0.00000000E+00
  0.00000000E+00  0.00000000E+00  0.00000000E+00
  0.00000000E+00  0.00000000E+00  0.00000000E+00
  0.00000000E+00  0.00000000E+00  0.00000000E+00
  0.00000000E+00  0.00000000E+00  0.00000000E+00
  0.00000000E+00  0.00000000E+00  0.00000000E+00
  0.00000000E+00  0.00000000E+00  0.00000000E+00
  0.00000000E+00  0.00000000E+00  0.00000000E+00
  0.00000000E+00  0.00000000E+00  0.00000000E+00
  0.00000000E+00  0.00000000E+00  0.00000000E+00
  0.00000000E+00  0.00000000E+00  0.00000000E+00
  0.00000000E+00  0.00000000E+00  0.00000000E+00
  0.00000000E+00  0.00000000E+00  0.00000000E+00
  0.00000000E+00  0.00000000E+00  0.00000000E+00
  0.00000000E+00  0.00000000E+00  0.00000000E+00
  0.00000000E+00  0.00000000E+00  0.00000000E+00
  0.00000000E+00  0.00000000E+00  0.00000000E+00
  0.00000000E+00  0.00000000E+00  0.00000000E+00
  0.00000000E+00  0.00000000E+00  0.00000000E+00
  0.00000000E+00  0.00000000E+00  0.00000000E+00
  0.00000000E+00  0.00000000E+00  0.00000000E+00
  0.00000000E+00  0.00000000E+00  0.00000000E+00
  0.00000000E+00  0.00000000E+00  0.00000000E+00
  0.00000000E+00  0.00000000E+00  0.00000000E+00
  0.00000000E+00  0.00000000E+00  0.00000000E+00
  0.00000000E+00  0.00000000E+00  0.00000000E+00
  0.00000000E+00  0.00000000E+00  0.00000000E+00
  0.00000000E+00  0.00000000E+00  0.00000000E+00
  0.00000000E+00  0.00000000E+00  0.00000000E+00
  0.00000000E+00  0.00000000E+00  0.00000000E+00
  0.00000000E+00  0.00000000E+00  0.00000000E+00
  0.00000000E+00  0.00000000E+00  0.00000000E+00
  0.00000000E+00  0.00000000E+00  0.00000000E+00
  0.00000000E+00  0.00000000E+00  0.00000000E+00
  0.00000000E+00  0.00000000E+00  0.00000000E+00
  0.00000000E+00  0.00000000E+00  0.00000000E+00
  0.00000000E+00  0.00000000E+00  0.00000000E+00
  0.00000000E+00  0.00000000E+00  0.00000000E+00
  0.00000000E+00  0.00000000E+00  0.00000000E+00
  0.00000000E+00  0.00000000E+00  0.00000000E+00
  0.00000000E+00  0.00000000E+00  0.00000000E+00
  0.00000000E+00  0.00000000E+00  0.00000000E+00
  0.00000000E+00  0.00000000E+00  0.00000000E+00
  0.00000000E+00  0.00000000E+00  0.00000000E+00
  0.00000000E+00  0.00000000E+00  0.00000000E+00
  0.00000000E+00  0.00000000E+00  0.00000000E+00
  0.00000000E+00  0.00000000E+00  0.00000000E+00
  0.00000000E+00  0.00000000E+00  0.00000000E+00
  0.00000000E+00  0.00000000E+00  0.00000000E+00
  0.00000000E+00  0.00000000E+00  0.00000000E+00
  0.00000000E+00  0.00000000E+00  0.00000000E+00
  0.00000000E+00  0.00000000E+00  0.00000000E+00
  0.00000000E+00  0.00000000E+00  0.00000000E+00
  0.00000000E+00  0.00000000E+00  0.00000000E+00
  0.00000000E+00  0.00000000E+00  0.00000000E+00
  0.00000000E+00  0.00000000E+00  0.00000000E+00
  0.00000000E+00  0.00000000E+00  0.00000000E+00
  0.00000000E+00  0.00000000E+00  0.00000000E+00
  0.00000000E+00  0.00000000E+00  0.00000000E+00
  0.00000000E+00  0.00000000E+00  0.00000000E+00
  0.00000000E+00  0.00000000E+00  0.00000000E+00
  0.00000000E+00  0.00000000E+00  0.00000000E+00
  0.00000000E+00  0.00000000E+00  0.00000000E+00
  0.00000000E+00  0.00000000E+00  0.00000000E+00
  0.00000000E+00  0.00000000E+00  0.00000000E+00
  0.00000000E+00  0.00000000E+00  0.00000000E+00
  0.00000000E+00  0.00000000E+00  0.00000000E+00
  0.00000000E+00  0.00000000E+00  0.00000000E+00
  0.00000000E+00  0.00000000E+00  0.00000000E+00
  0.00000000E+00  0.00000000E+00  0.00000000E+00
  0.00000000E+00  0.00000000E+00  0.00000000E+00
  0.00000000E+00  0.00000000E+00  0.00000000E+00
  0.00000000E+00  0.00000000E+00  0.00000000E+00
  0.00000000E+00  0.00000000E+00  0.00000000E+00
  0.00000000E+00  0.00000000E+00  0.00000000E+00
  0.00000000E+00  0.00000000E+00  0.00000000E+00
  0.00000000E+00  0.00000000E+00  0.00000000E+00
  0.00000000E+00  0.00000000E+00  0.00000000E+00
  0.00000000E+00  0.00000000E+00  0.00000000E+00
  0.00000000E+00  0.00000000E+00  0.00000000E+00
  0.00000000E+00  0.00000000E+00  0.00000000E+00
  0.00000000E+00  0.00000000E+00  0.00000000E+00
  0.00000000E+00  0.00000000E+00  0.00000000E+00
  0.00000000E+00  0.00000000E+00  0.00000000E+00
  0.00000000E+00  0.00000000E+00  0.00000000E+00
  0.00000000E+00  0.00000000E+00  0.00000000E+00
  0.00000000E+00  0.00000000E+00  0.00000000E+00
  0.00000000E+00  0.00000000E+00  0.00000000E+00
  0.00000000E+00  0.00000000E+00  0.00000000E+00
  0.00000000E+00  0.00000000E+00  0.00000000E+00
  0.00000000E+00  0.00000000E+00  0.00000000E+00
  0.00000000E+00  0.00000000E+00  0.00000000E+00
  0.00000000E+00  0.00000000E+00  0.00000000E+00
  0.00000000E+00  0.00000000E+00  0.00000000E+00
  0.00000000E+00  0.00000000E+00  0.00000000E+00
  0.00000000E+00  0.00000000E+00  0.00000000E+00
  0.00000000E+00  0.00000000E+00  0.00000000E+00
