Re1 H1 C122 N4 O2                       
   1.00000000000000     
    19.7658871275568053    0.0161468025462666    0.9881254345732911
    -9.8847037824199617   16.9938547241158346   -0.6945169482116534
     2.0044831414760420   -0.0173235912407401   30.0429522691651592
   Re   H    C    N    O 
     1     1   122     4     2
Direct
  0.4268147875953699  0.5010007679659125  0.4357155003162810
  0.6122697586703199  0.5206547905621757  0.4856917164669931
  0.0415927278541527  0.0844593737869535  0.3999929618584564
  0.0408786446540424  0.2083744872977179  0.3985431009988640
  0.0405449898365144  0.3329582175102085  0.3953151191395254
  0.0409440853793762  0.4581057175393036  0.3930420198355964
  0.0418107975143803  0.5836663624177731  0.3933915970827794
  0.0423755382317492  0.7092432236531038  0.3952744505737484
  0.0423354327688820  0.8346122393625179  0.3975425110319754
  0.0420269403806394  0.9598491420310491  0.3994573843966638
  0.1674200729150732  0.0861761588680350  0.4016920088430355
  0.1673880616028090  0.2111436421638929  0.4011660429103535
  0.1651399557244480  0.3339135227619936  0.3976383228860137
  0.1646890828301644  0.4583502820283992  0.3934264794523443
  0.1656345125744745  0.5835865572974989  0.3936239603998015
  0.1665724383430935  0.7089177441575022  0.3958484276339929
  0.1668771458843832  0.8344961623166308  0.3980988673160555
  0.1669613017649229  0.9602266447089794  0.4000607792005214
  0.2917053779851457  0.0861662192873166  0.4027123752251653
  0.2928984027894361  0.2139257306032617  0.4049259901444246
  0.2919161782325682  0.3396647772409579  0.4048532645715331
  0.2867980462730490  0.4586462479289016  0.3986987759508179
  0.2885719927357385  0.5828579889167481  0.3960937364246762
  0.2906106470167214  0.7080195593063952  0.3976175298104027
  0.2912440503556646  0.8337498599465322  0.3992000840051134
  0.2914625508229264  0.9596897061346922  0.4007178988005139
  0.4162034834093631  0.0843332798320770  0.4015758981710169
  0.4165416521187335  0.2109169814383445  0.4040153240825281
  0.4192306963586450  0.3398918040804367  0.4092687808766403
  0.4140914712820734  0.7049002992698782  0.4015571382799518
  0.4154355419294238  0.8316681206172700  0.4004974180961818
  0.4159181997563297  0.9580164199354466  0.4006073023507423
  0.5408007799671400  0.0823949658727079  0.4000391543209642
  0.5412434565451466  0.2083414299675156  0.4009168881977137
  0.5421328673730431  0.3340183439427424  0.4044442875756331
  0.5436139862273203  0.4576101504562720  0.4143391051865908
  0.5361296660046400  0.7008211804054217  0.4080725346880436
  0.5392572382123023  0.8295061683344979  0.4030406797147991
  0.5403036773976904  0.9562704932023809  0.4007704115249139
  0.6653772637504940  0.0817149678431316  0.3997760003054671
  0.6660267127435051  0.2074027654496723  0.3987520576277221
  0.6669312710375499  0.3330422394190020  0.3996802673474460
  0.6686205514242828  0.4588554227099227  0.4043528104225558
  0.6695153651250185  0.5842600307685164  0.4102456630727733
  0.6634016565830034  0.7052664379179386  0.4089040902666143
  0.6631537859924597  0.8297380322947238  0.4047672207079425
  0.6645528194954553  0.9558976250108122  0.4017622813463097
  0.7901172631307354  0.0818219701998869  0.3998822422224079
  0.7907154321508483  0.2071835084654291  0.3980337952867101
  0.7916363800264083  0.3326669187088740  0.3965905418279266
  0.7927425104583141  0.4583112120586871  0.3968204101538481
  0.7932913316864824  0.5838284583294979  0.3988439715694428
  0.7919623613543716  0.7083333387212944  0.4013770573559325
  0.7896411790441219  0.8318859525912482  0.4025332995934884
  0.7894736778423779  0.9564794807715857  0.4015285604683271
  0.9154302119714482  0.0826546789287635  0.3996065266937238
  0.9155208992862131  0.2074638870223975  0.3978544942719303
  0.9160760373460080  0.3326356619421775  0.3953748616023098
  0.9169051049531236  0.4581452638436851  0.3939821128457405
  0.9177637239582376  0.5837933328724567  0.3944324885369669
  0.9177165217301936  0.7091622693479162  0.3966072361421972
  0.9167084418053283  0.8338396729337644  0.3989256142989497
  0.9158241466275355  0.9581702588403871  0.4000702555794514
  0.0839619422536262  0.0436259692148790  0.4003579360589761
  0.0836506381538548  0.1682251166156590  0.3997976500228912
  0.0824348877126652  0.2918036881360139  0.3970733753555305
  0.0818897451907258  0.4161829055488124  0.3935229127215940
  0.0827977961814166  0.5416957598326272  0.3929300602174945
  0.0836400222906855  0.6672805866496677  0.3945767117494516
  0.0838669757702184  0.7928192112991249  0.3968852285165528
  0.0838880279930166  0.9182570304464731  0.3989617440986868
  0.2085898258870284  0.0441154715032156  0.4016650938330195
  0.2095994503761850  0.1704720715284509  0.4028992547751751
  0.2089464690611492  0.2949747125917928  0.4008061006102355
  0.2056596890435728  0.4169275982587238  0.3954579932826678
  0.2062142067219647  0.5414076277202031  0.3936963791504382
  0.2076473417264313  0.6668690684119328  0.3954733932826902
  0.2082081037990680  0.7924731595455538  0.3977842415030887
  0.2084237922121991  0.9182019742535289  0.3997140402593723
  0.3330140667735157  0.0435576144223474  0.4018601982277107
  0.3333649923767221  0.1703955507707252  0.4042608521747478
  0.3351440531664976  0.2995129366991936  0.4070813439613410
  0.3280755685207629  0.5411094322295987  0.3990001700968629
  0.3312307919234819  0.6658781067202504  0.3983492347034856
  0.3324798675661166  0.7914893293840093  0.3992540830984819
  0.3327843883330899  0.9173336338871370  0.4003542406630166
  0.4575725603243141  0.0417141572246566  0.4006864775509113
  0.4578240722097258  0.1681102508227400  0.4021400693390221
  0.4588318045544598  0.2949821694752668  0.4058380540480533
  0.4526033401793443  0.6605071370588175  0.4055326503038120
  0.4563921961830060  0.7888363795685418  0.4016865198778251
  0.4571129798470807  0.9154241175308756  0.4006300950623021
  0.5821062009937015  0.0400999250890615  0.4000563978054456
  0.5826229733437664  0.1660476958002493  0.3997606580191331
  0.5834210297147522  0.2917351608560926  0.4014034407951451
  0.5849425547922227  0.4172844049655505  0.4072741144790922
  0.5858659271292505  0.5430676742584978  0.4280728391694295
  0.5794226233681676  0.6605048488058771  0.4122465220150868
  0.5792621970215395  0.7861669118965341  0.4052995807722003
  0.5813030592014052  0.9137641538849991  0.4018626218335219
  0.7066416007371729  0.0397602487636295  0.4004668187613857
  0.7074047135239813  0.1654350037896641  0.3987774090194001
  0.7081727390557441  0.2910807294331432  0.3981191837551906
  0.7092826968069802  0.4167622756716384  0.3999883878814527
  0.7101153677975389  0.5422412706556052  0.4042153176853655
  0.7080578318604200  0.6657055255731607  0.4068253975987297
  0.7053724594423175  0.7889094912041760  0.4054050219436939
  0.7057034249588936  0.9138877519625926  0.4026929258743048
  0.8317386922709280  0.0402687287350430  0.4002831235996020
  0.8322286976806897  0.1655341991935790  0.3985872368175834
  0.8327516700577507  0.2907625493724051  0.3965828604222278
  0.8337144821586351  0.4162229076713999  0.3954678075135707
  0.8345964249945339  0.5418325033912035  0.3961217317605387
  0.8343126276283279  0.6672000958181848  0.3986338033044135
  0.8330406869755216  0.7915571642807269  0.4007231608182757
  0.8317649796525480  0.9154810345530361  0.4012565820473808
  0.9579139710322738  0.0418677987079490  0.3998151826020697
  0.9573737127249815  0.1661558893624430  0.3986406711070223
  0.9574204375675798  0.2909855651883247  0.3961229747002171
  0.9579214584574226  0.4161825104608955  0.3938872310328779
  0.9588104553328529  0.5417442446216957  0.3935770551244210
  0.9593263973735685  0.6673723674217581  0.3950406659623661
  0.9590283524323224  0.7926183281810429  0.3974489381954496
  0.9584512916704940  0.9174988688468607  0.3993918224369497
  0.4069547449574301  0.5782491848292971  0.4069193278975315
  0.5412689729807886  0.5797238898339369  0.4186652278000474
  0.3283657036193113  0.4217261316345658  0.4069948914903955
  0.4638446444511750  0.4211985981118910  0.4150528672890898
  0.5830780014154027  0.5452559760827443  0.4777899145484014
  0.4023723783109000  0.4998374735984867  0.4918844936880137
 
  0.00000000E+00  0.00000000E+00  0.00000000E+00
  0.00000000E+00  0.00000000E+00  0.00000000E+00
  0.00000000E+00  0.00000000E+00  0.00000000E+00
  0.00000000E+00  0.00000000E+00  0.00000000E+00
  0.00000000E+00  0.00000000E+00  0.00000000E+00
  0.00000000E+00  0.00000000E+00  0.00000000E+00
  0.00000000E+00  0.00000000E+00  0.00000000E+00
  0.00000000E+00  0.00000000E+00  0.00000000E+00
  0.00000000E+00  0.00000000E+00  0.00000000E+00
  0.00000000E+00  0.00000000E+00  0.00000000E+00
  0.00000000E+00  0.00000000E+00  0.00000000E+00
  0.00000000E+00  0.00000000E+00  0.00000000E+00
  0.00000000E+00  0.00000000E+00  0.00000000E+00
  0.00000000E+00  0.00000000E+00  0.00000000E+00
  0.00000000E+00  0.00000000E+00  0.00000000E+00
  0.00000000E+00  0.00000000E+00  0.00000000E+00
  0.00000000E+00  0.00000000E+00  0.00000000E+00
  0.00000000E+00  0.00000000E+00  0.00000000E+00
  0.00000000E+00  0.00000000E+00  0.00000000E+00
  0.00000000E+00  0.00000000E+00  0.00000000E+00
  0.00000000E+00  0.00000000E+00  0.00000000E+00
  0.00000000E+00  0.00000000E+00  0.00000000E+00
  0.00000000E+00  0.00000000E+00  0.00000000E+00
  0.00000000E+00  0.00000000E+00  0.00000000E+00
  0.00000000E+00  0.00000000E+00  0.00000000E+00
  0.00000000E+00  0.00000000E+00  0.00000000E+00
  0.00000000E+00  0.00000000E+00  0.00000000E+00
  0.00000000E+00  0.00000000E+00  0.00000000E+00
  0.00000000E+00  0.00000000E+00  0.00000000E+00
  0.00000000E+00  0.00000000E+00  0.00000000E+00
  0.00000000E+00  0.00000000E+00  0.00000000E+00
  0.00000000E+00  0.00000000E+00  0.00000000E+00
  0.00000000E+00  0.00000000E+00  0.00000000E+00
  0.00000000E+00  0.00000000E+00  0.00000000E+00
  0.00000000E+00  0.00000000E+00  0.00000000E+00
  0.00000000E+00  0.00000000E+00  0.00000000E+00
  0.00000000E+00  0.00000000E+00  0.00000000E+00
  0.00000000E+00  0.00000000E+00  0.00000000E+00
  0.00000000E+00  0.00000000E+00  0.00000000E+00
  0.00000000E+00  0.00000000E+00  0.00000000E+00
  0.00000000E+00  0.00000000E+00  0.00000000E+00
  0.00000000E+00  0.00000000E+00  0.00000000E+00
  0.00000000E+00  0.00000000E+00  0.00000000E+00
  0.00000000E+00  0.00000000E+00  0.00000000E+00
  0.00000000E+00  0.00000000E+00  0.00000000E+00
  0.00000000E+00  0.00000000E+00  0.00000000E+00
  0.00000000E+00  0.00000000E+00  0.00000000E+00
  0.00000000E+00  0.00000000E+00  0.00000000E+00
  0.00000000E+00  0.00000000E+00  0.00000000E+00
  0.00000000E+00  0.00000000E+00  0.00000000E+00
  0.00000000E+00  0.00000000E+00  0.00000000E+00
  0.00000000E+00  0.00000000E+00  0.00000000E+00
  0.00000000E+00  0.00000000E+00  0.00000000E+00
  0.00000000E+00  0.00000000E+00  0.00000000E+00
  0.00000000E+00  0.00000000E+00  0.00000000E+00
  0.00000000E+00  0.00000000E+00  0.00000000E+00
  0.00000000E+00  0.00000000E+00  0.00000000E+00
  0.00000000E+00  0.00000000E+00  0.00000000E+00
  0.00000000E+00  0.00000000E+00  0.00000000E+00
  0.00000000E+00  0.00000000E+00  0.00000000E+00
  0.00000000E+00  0.00000000E+00  0.00000000E+00
  0.00000000E+00  0.00000000E+00  0.00000000E+00
  0.00000000E+00  0.00000000E+00  0.00000000E+00
  0.00000000E+00  0.00000000E+00  0.00000000E+00
  0.00000000E+00  0.00000000E+00  0.00000000E+00
  0.00000000E+00  0.00000000E+00  0.00000000E+00
  0.00000000E+00  0.00000000E+00  0.00000000E+00
  0.00000000E+00  0.00000000E+00  0.00000000E+00
  0.00000000E+00  0.00000000E+00  0.00000000E+00
  0.00000000E+00  0.00000000E+00  0.00000000E+00
  0.00000000E+00  0.00000000E+00  0.00000000E+00
  0.00000000E+00  0.00000000E+00  0.00000000E+00
  0.00000000E+00  0.00000000E+00  0.00000000E+00
  0.00000000E+00  0.00000000E+00  0.00000000E+00
  0.00000000E+00  0.00000000E+00  0.00000000E+00
  0.00000000E+00  0.00000000E+00  0.00000000E+00
  0.00000000E+00  0.00000000E+00  0.00000000E+00
  0.00000000E+00  0.00000000E+00  0.00000000E+00
  0.00000000E+00  0.00000000E+00  0.00000000E+00
  0.00000000E+00  0.00000000E+00  0.00000000E+00
  0.00000000E+00  0.00000000E+00  0.00000000E+00
  0.00000000E+00  0.00000000E+00  0.00000000E+00
  0.00000000E+00  0.00000000E+00  0.00000000E+00
  0.00000000E+00  0.00000000E+00  0.00000000E+00
  0.00000000E+00  0.00000000E+00  0.00000000E+00
  0.00000000E+00  0.00000000E+00  0.00000000E+00
  0.00000000E+00  0.00000000E+00  0.00000000E+00
  0.00000000E+00  0.00000000E+00  0.00000000E+00
  0.00000000E+00  0.00000000E+00  0.00000000E+00
  0.00000000E+00  0.00000000E+00  0.00000000E+00
  0.00000000E+00  0.00000000E+00  0.00000000E+00
  0.00000000E+00  0.00000000E+00  0.00000000E+00
  0.00000000E+00  0.00000000E+00  0.00000000E+00
  0.00000000E+00  0.00000000E+00  0.00000000E+00
  0.00000000E+00  0.00000000E+00  0.00000000E+00
  0.00000000E+00  0.00000000E+00  0.00000000E+00
  0.00000000E+00  0.00000000E+00  0.00000000E+00
  0.00000000E+00  0.00000000E+00  0.00000000E+00
  0.00000000E+00  0.00000000E+00  0.00000000E+00
  0.00000000E+00  0.00000000E+00  0.00000000E+00
  0.00000000E+00  0.00000000E+00  0.00000000E+00
  0.00000000E+00  0.00000000E+00  0.00000000E+00
  0.00000000E+00  0.00000000E+00  0.00000000E+00
  0.00000000E+00  0.00000000E+00  0.00000000E+00
  0.00000000E+00  0.00000000E+00  0.00000000E+00
  0.00000000E+00  0.00000000E+00  0.00000000E+00
  0.00000000E+00  0.00000000E+00  0.00000000E+00
  0.00000000E+00  0.00000000E+00  0.00000000E+00
  0.00000000E+00  0.00000000E+00  0.00000000E+00
  0.00000000E+00  0.00000000E+00  0.00000000E+00
  0.00000000E+00  0.00000000E+00  0.00000000E+00
  0.00000000E+00  0.00000000E+00  0.00000000E+00
  0.00000000E+00  0.00000000E+00  0.00000000E+00
  0.00000000E+00  0.00000000E+00  0.00000000E+00
  0.00000000E+00  0.00000000E+00  0.00000000E+00
  0.00000000E+00  0.00000000E+00  0.00000000E+00
  0.00000000E+00  0.00000000E+00  0.00000000E+00
  0.00000000E+00  0.00000000E+00  0.00000000E+00
  0.00000000E+00  0.00000000E+00  0.00000000E+00
  0.00000000E+00  0.00000000E+00  0.00000000E+00
  0.00000000E+00  0.00000000E+00  0.00000000E+00
  0.00000000E+00  0.00000000E+00  0.00000000E+00
  0.00000000E+00  0.00000000E+00  0.00000000E+00
  0.00000000E+00  0.00000000E+00  0.00000000E+00
  0.00000000E+00  0.00000000E+00  0.00000000E+00
  0.00000000E+00  0.00000000E+00  0.00000000E+00
  0.00000000E+00  0.00000000E+00  0.00000000E+00
  0.00000000E+00  0.00000000E+00  0.00000000E+00
  0.00000000E+00  0.00000000E+00  0.00000000E+00
  0.00000000E+00  0.00000000E+00  0.00000000E+00
