Hf1 C123 N3                             
   1.00000000000000     
    19.8052379041633273    0.0100348146722447   -0.0022261271819667
    -9.8939065285678236   17.0470755625557899   -0.0006717231589302
    -0.0033333898102816   -0.0031927283354784   29.7950720195417453
   Hf   C    N 
     1   123     3
Direct
  0.4362521823613830  0.5001173672062051  0.4332601451896727
  0.0417187046679925  0.0837265122423852  0.3998866220253715
  0.0410528990475829  0.2080889338152967  0.3997862473840613
  0.0405439439231314  0.3330258654760512  0.3997888468987489
  0.0406922618010606  0.4581989475860715  0.3998323065145379
  0.0414334623281446  0.5835747904565015  0.4000479421635968
  0.0420532451310476  0.7089160512327405  0.4000458828895214
  0.0421908518938956  0.8340311481343275  0.4000444805890823
  0.0421507602425637  0.9591078542409300  0.4000429256521474
  0.1673316389944896  0.0846138868021750  0.3998685191849485
  0.1668679374150680  0.2093519937692664  0.3996354447030675
  0.1651378310673611  0.3333640208550775  0.4000267857504357
  0.1646247151737020  0.4583228230051709  0.3996768520640631
  0.1655021511073520  0.5835704563912857  0.3997652713316125
  0.1664492152094426  0.7087182351423956  0.3999873380951546
  0.1669517603591379  0.8340127966194695  0.4000142385487258
  0.1671704616866859  0.9593714819497881  0.3999922736829116
  0.2922320246494696  0.0850104456411118  0.3998595914450276
  0.2925766511637207  0.2113243249857068  0.4002004439055508
  0.2913355836862812  0.3361804264631448  0.4015727807046604
  0.2880456031555534  0.4576901950258044  0.4014646954831460
  0.2890580597742177  0.5828863623991769  0.3999341544367223
  0.2909122785332857  0.7081927188790779  0.3997811829172365
  0.2916916990485095  0.8336465236303582  0.3999709101386068
  0.2920077182279008  0.9591525103576692  0.4000022110481504
  0.4169179420394409  0.0838529541886475  0.3999088603451215
  0.4173815864951407  0.2096762722724055  0.3995747626432758
  0.4189806238841109  0.3368397809257339  0.4011484832533505
  0.4153312451107057  0.7065280240608937  0.3996098973215532
  0.4163232282418466  0.8324379650926843  0.3997595458719212
  0.4167205602632722  0.9582061732381811  0.4000502990623505
  0.5416174865486135  0.0828311526434011  0.4000722901289527
  0.5420289923893197  0.2084427470944565  0.3997792954687545
  0.5428936410801921  0.3339691679637646  0.3996456882690703
  0.5454794288038639  0.4592960167101264  0.4011821548220047
  0.5392310552654758  0.7030787605486492  0.4010475068139768
  0.5409254435848541  0.8309848134618600  0.3998909110301406
  0.5413406772428493  0.9571425362375692  0.3999327632626394
  0.6663275888140870  0.0824435000156075  0.4000299072436274
  0.6666094802460625  0.2077352011142523  0.4000385852299519
  0.6673321903920306  0.3330783263855889  0.3997786131215094
  0.6690487611944715  0.4585598910242068  0.3996299847205957
  0.6700099009817104  0.5840192905848685  0.4000376562223590
  0.6670383213218910  0.7072227344925546  0.3999940855261635
  0.6652526994247127  0.8311575263726867  0.3999363571802906
  0.6659619695407595  0.9569461299174060  0.3999389127490447
  0.7910515108930696  0.0824104178826240  0.4000107646951319
  0.7912876475745866  0.2076543829712394  0.4000271806916877
  0.7917526961954445  0.3329210089309925  0.4000463768129105
  0.7926489752471847  0.4582579230356081  0.3998166853789866
  0.7933945009267989  0.5836835477104035  0.3996068712407616
  0.7930300406301937  0.7088406802375887  0.3997566819540742
  0.7915011498843556  0.8328309554759274  0.3996855826815785
  0.7908420393831861  0.9572257607823053  0.3998913392731409
  0.9161277365454941  0.0827990404844224  0.4000151589496202
  0.9159760194531585  0.2076938302939678  0.4000269661577284
  0.9161163897659854  0.3328882966029614  0.4000452191403354
  0.9166928622217385  0.4582790448094076  0.4001043832453099
  0.9173631768230016  0.5836321933632381  0.4000182298853885
  0.9175037373588396  0.7088155581738036  0.3999742082827308
  0.9172702646843692  0.8338871725701250  0.3999931192758580
  0.9166083070740775  0.9583007929964182  0.4000368993712603
  0.0838778731486094  0.0426022042551140  0.3999169152314037
  0.0833432897363099  0.1672154545264275  0.3996856895933843
  0.0823826373261784  0.2915412355629022  0.3998009068410582
  0.0817917298806048  0.4163013022971803  0.3996553476107073
  0.0825165184800605  0.5417293737397388  0.3998713231582169
  0.0833310881310125  0.6670707709922030  0.4000515909115032
  0.0837148296530816  0.7923140869789681  0.4000098827488766
  0.0838743823328298  0.9175260672805203  0.4000399929307554
  0.2088388364360087  0.0429039431841372  0.3999186315036701
  0.2091105737325454  0.1683633174159719  0.3998843136461393
  0.2080482681161950  0.2928598639482762  0.3999970355719583
  0.2058084963517670  0.4167538334595697  0.4001756001975636
  0.2062861211071055  0.5414872126608212  0.3997516194747980
  0.2076053695742992  0.6668304728058834  0.3998559047109953
  0.2083917365380000  0.7922194961962119  0.4000155901551181
  0.2087028591458245  0.9175244856763367  0.4000161091914326
  0.3336822476567387  0.0427878218482561  0.3998931627178874
  0.3338762560563142  0.1687159901168857  0.3998704216951454
  0.3344204804640437  0.2955906866671432  0.4012142427404785
  0.3301789854836488  0.5415974417124652  0.4006419128529256
  0.3318417858085003  0.6661783021234722  0.3997273631663915
  0.3330686090885712  0.7916353754792703  0.3998244296122710
  0.3334244668494563  0.9171007621118782  0.4000347305163831
  0.4583561776949318  0.0416716638425616  0.4000630252088846
  0.4586494642293924  0.1673962390608373  0.3997105593912441
  0.4594294511444727  0.2932194259857411  0.3996061636652798
  0.4631165328020134  0.4193701172304775  0.4032089616810113
  0.4549140965686411  0.6625775823894123  0.4007372181795720
  0.4576143385216399  0.7900887265454245  0.3996223643779825
  0.4580965772439215  0.9160205716491071  0.3999266822808550
  0.5830202311353135  0.0407842584281894  0.4000405035690802
  0.5833901750058180  0.1663519156976217  0.3999874857299339
  0.5840572946717402  0.2917471704277220  0.3996906838726963
  0.5862900947583934  0.4173863060641459  0.3999118466297731
  0.5884462801943771  0.5434942080538102  0.4015681252036390
  0.5835359078895346  0.6632143667319023  0.4016156517864742
  0.5815625629334191  0.7879981407506137  0.4002025155595592
  0.5827145812748056  0.9149110410073814  0.3998989823866119
  0.7077585808958158  0.0405721247710176  0.3999836040523909
  0.7080797455079285  0.1659265081647738  0.4000495655651667
  0.7085534897419333  0.2912296970766681  0.3999759931027518
  0.7097648844063855  0.4164998364565815  0.3996473623648858
  0.7107873869099451  0.5417745589375190  0.3995774215105337
  0.7103567727888599  0.6672154181183231  0.3999384005820117
  0.7079806600338285  0.7906581787323316  0.3996448435706367
  0.7072796835298770  0.9150352659742272  0.3998946289172612
  0.8327197521050340  0.0408243128934968  0.3999910621464736
  0.8328151544065119  0.1659461669483249  0.4000300738451430
  0.8330306492453201  0.2910723806830652  0.4000640542537263
  0.8337101459991458  0.4163733932643521  0.4000360559165263
  0.8345036443172218  0.5417964386155630  0.3997976081929363
  0.8346537704593555  0.6671140760861859  0.3997664424991046
  0.8340736013005080  0.7921203153110241  0.3997947488572449
  0.8331339184757522  0.9162898533686741  0.3998745744693377
  0.9583035307449697  0.0417218311316772  0.4000286633648700
  0.9577840955085740  0.1662228404612273  0.3999555516991599
  0.9575745704067125  0.2912005683556541  0.3999657504978937
  0.9578008550524818  0.4163817853250677  0.4000342032970294
  0.9584703425354760  0.5417027465768766  0.4001027302217674
  0.9589901423051732  0.6670908189147803  0.4000330303293479
  0.9590452884160363  0.7923588768205488  0.4000433409055127
  0.9588035928626352  0.9172605687052490  0.4000664014601320
  0.4113776189128068  0.5815314935990619  0.4023082164440360
  0.5470143920461316  0.5826511777383915  0.4045233711836553
  0.3289140057436056  0.4175792890910247  0.4047004943788832
 
  0.00000000E+00  0.00000000E+00  0.00000000E+00
  0.00000000E+00  0.00000000E+00  0.00000000E+00
  0.00000000E+00  0.00000000E+00  0.00000000E+00
  0.00000000E+00  0.00000000E+00  0.00000000E+00
  0.00000000E+00  0.00000000E+00  0.00000000E+00
  0.00000000E+00  0.00000000E+00  0.00000000E+00
  0.00000000E+00  0.00000000E+00  0.00000000E+00
  0.00000000E+00  0.00000000E+00  0.00000000E+00
  0.00000000E+00  0.00000000E+00  0.00000000E+00
  0.00000000E+00  0.00000000E+00  0.00000000E+00
  0.00000000E+00  0.00000000E+00  0.00000000E+00
  0.00000000E+00  0.00000000E+00  0.00000000E+00
  0.00000000E+00  0.00000000E+00  0.00000000E+00
  0.00000000E+00  0.00000000E+00  0.00000000E+00
  0.00000000E+00  0.00000000E+00  0.00000000E+00
  0.00000000E+00  0.00000000E+00  0.00000000E+00
  0.00000000E+00  0.00000000E+00  0.00000000E+00
  0.00000000E+00  0.00000000E+00  0.00000000E+00
  0.00000000E+00  0.00000000E+00  0.00000000E+00
  0.00000000E+00  0.00000000E+00  0.00000000E+00
  0.00000000E+00  0.00000000E+00  0.00000000E+00
  0.00000000E+00  0.00000000E+00  0.00000000E+00
  0.00000000E+00  0.00000000E+00  0.00000000E+00
  0.00000000E+00  0.00000000E+00  0.00000000E+00
  0.00000000E+00  0.00000000E+00  0.00000000E+00
  0.00000000E+00  0.00000000E+00  0.00000000E+00
  0.00000000E+00  0.00000000E+00  0.00000000E+00
  0.00000000E+00  0.00000000E+00  0.00000000E+00
  0.00000000E+00  0.00000000E+00  0.00000000E+00
  0.00000000E+00  0.00000000E+00  0.00000000E+00
  0.00000000E+00  0.00000000E+00  0.00000000E+00
  0.00000000E+00  0.00000000E+00  0.00000000E+00
  0.00000000E+00  0.00000000E+00  0.00000000E+00
  0.00000000E+00  0.00000000E+00  0.00000000E+00
  0.00000000E+00  0.00000000E+00  0.00000000E+00
  0.00000000E+00  0.00000000E+00  0.00000000E+00
  0.00000000E+00  0.00000000E+00  0.00000000E+00
  0.00000000E+00  0.00000000E+00  0.00000000E+00
  0.00000000E+00  0.00000000E+00  0.00000000E+00
  0.00000000E+00  0.00000000E+00  0.00000000E+00
  0.00000000E+00  0.00000000E+00  0.00000000E+00
  0.00000000E+00  0.00000000E+00  0.00000000E+00
  0.00000000E+00  0.00000000E+00  0.00000000E+00
  0.00000000E+00  0.00000000E+00  0.00000000E+00
  0.00000000E+00  0.00000000E+00  0.00000000E+00
  0.00000000E+00  0.00000000E+00  0.00000000E+00
  0.00000000E+00  0.00000000E+00  0.00000000E+00
  0.00000000E+00  0.00000000E+00  0.00000000E+00
  0.00000000E+00  0.00000000E+00  0.00000000E+00
  0.00000000E+00  0.00000000E+00  0.00000000E+00
  0.00000000E+00  0.00000000E+00  0.00000000E+00
  0.00000000E+00  0.00000000E+00  0.00000000E+00
  0.00000000E+00  0.00000000E+00  0.00000000E+00
  0.00000000E+00  0.00000000E+00  0.00000000E+00
  0.00000000E+00  0.00000000E+00  0.00000000E+00
  0.00000000E+00  0.00000000E+00  0.00000000E+00
  0.00000000E+00  0.00000000E+00  0.00000000E+00
  0.00000000E+00  0.00000000E+00  0.00000000E+00
  0.00000000E+00  0.00000000E+00  0.00000000E+00
  0.00000000E+00  0.00000000E+00  0.00000000E+00
  0.00000000E+00  0.00000000E+00  0.00000000E+00
  0.00000000E+00  0.00000000E+00  0.00000000E+00
  0.00000000E+00  0.00000000E+00  0.00000000E+00
  0.00000000E+00  0.00000000E+00  0.00000000E+00
  0.00000000E+00  0.00000000E+00  0.00000000E+00
  0.00000000E+00  0.00000000E+00  0.00000000E+00
  0.00000000E+00  0.00000000E+00  0.00000000E+00
  0.00000000E+00  0.00000000E+00  0.00000000E+00
  0.00000000E+00  0.00000000E+00  0.00000000E+00
  0.00000000E+00  0.00000000E+00  0.00000000E+00
  0.00000000E+00  0.00000000E+00  0.00000000E+00
  0.00000000E+00  0.00000000E+00  0.00000000E+00
  0.00000000E+00  0.00000000E+00  0.00000000E+00
  0.00000000E+00  0.00000000E+00  0.00000000E+00
  0.00000000E+00  0.00000000E+00  0.00000000E+00
  0.00000000E+00  0.00000000E+00  0.00000000E+00
  0.00000000E+00  0.00000000E+00  0.00000000E+00
  0.00000000E+00  0.00000000E+00  0.00000000E+00
  0.00000000E+00  0.00000000E+00  0.00000000E+00
  0.00000000E+00  0.00000000E+00  0.00000000E+00
  0.00000000E+00  0.00000000E+00  0.00000000E+00
  0.00000000E+00  0.00000000E+00  0.00000000E+00
  0.00000000E+00  0.00000000E+00  0.00000000E+00
  0.00000000E+00  0.00000000E+00  0.00000000E+00
  0.00000000E+00  0.00000000E+00  0.00000000E+00
  0.00000000E+00  0.00000000E+00  0.00000000E+00
  0.00000000E+00  0.00000000E+00  0.00000000E+00
  0.00000000E+00  0.00000000E+00  0.00000000E+00
  0.00000000E+00  0.00000000E+00  0.00000000E+00
  0.00000000E+00  0.00000000E+00  0.00000000E+00
  0.00000000E+00  0.00000000E+00  0.00000000E+00
  0.00000000E+00  0.00000000E+00  0.00000000E+00
  0.00000000E+00  0.00000000E+00  0.00000000E+00
  0.00000000E+00  0.00000000E+00  0.00000000E+00
  0.00000000E+00  0.00000000E+00  0.00000000E+00
  0.00000000E+00  0.00000000E+00  0.00000000E+00
  0.00000000E+00  0.00000000E+00  0.00000000E+00
  0.00000000E+00  0.00000000E+00  0.00000000E+00
  0.00000000E+00  0.00000000E+00  0.00000000E+00
  0.00000000E+00  0.00000000E+00  0.00000000E+00
  0.00000000E+00  0.00000000E+00  0.00000000E+00
  0.00000000E+00  0.00000000E+00  0.00000000E+00
  0.00000000E+00  0.00000000E+00  0.00000000E+00
  0.00000000E+00  0.00000000E+00  0.00000000E+00
  0.00000000E+00  0.00000000E+00  0.00000000E+00
  0.00000000E+00  0.00000000E+00  0.00000000E+00
  0.00000000E+00  0.00000000E+00  0.00000000E+00
  0.00000000E+00  0.00000000E+00  0.00000000E+00
  0.00000000E+00  0.00000000E+00  0.00000000E+00
  0.00000000E+00  0.00000000E+00  0.00000000E+00
  0.00000000E+00  0.00000000E+00  0.00000000E+00
  0.00000000E+00  0.00000000E+00  0.00000000E+00
  0.00000000E+00  0.00000000E+00  0.00000000E+00
  0.00000000E+00  0.00000000E+00  0.00000000E+00
  0.00000000E+00  0.00000000E+00  0.00000000E+00
  0.00000000E+00  0.00000000E+00  0.00000000E+00
  0.00000000E+00  0.00000000E+00  0.00000000E+00
  0.00000000E+00  0.00000000E+00  0.00000000E+00
  0.00000000E+00  0.00000000E+00  0.00000000E+00
  0.00000000E+00  0.00000000E+00  0.00000000E+00
  0.00000000E+00  0.00000000E+00  0.00000000E+00
  0.00000000E+00  0.00000000E+00  0.00000000E+00
  0.00000000E+00  0.00000000E+00  0.00000000E+00
  0.00000000E+00  0.00000000E+00  0.00000000E+00
  0.00000000E+00  0.00000000E+00  0.00000000E+00
  0.00000000E+00  0.00000000E+00  0.00000000E+00
  0.00000000E+00  0.00000000E+00  0.00000000E+00
