H1 Pt1 C125 N1 O1                       
   1.00000000000000     
    19.8130386536927361   -0.0379749297085146    0.1479014948829343
    -9.9417881640200392   17.0576086360583830    0.3655346873741020
     0.2230418514082665    0.7671388242580691   29.8284741515780212
   H    Pt   C    N    O 
     1     1   125     1     1
Direct
  0.4958730518968422  0.5877300580502727  0.4926436831092813
  0.4335578028717003  0.4940225366327795  0.4296114680794985
  0.0419209492182191  0.0839532206822112  0.3992758724248598
  0.0416128113379058  0.2083988505825247  0.3988288525757748
  0.0410852856574655  0.3329917775686461  0.3983092630213648
  0.0406928575135590  0.4582435919710174  0.3981197314075487
  0.0409013431147852  0.5836362798309412  0.3982585188266953
  0.0413313901421556  0.7088894649459938  0.3986368225581813
  0.0416020219280327  0.8340914152615587  0.3989916510153177
  0.0418404957938936  0.9591423504881761  0.3992283171857269
  0.1675228479168150  0.0851523037521059  0.3998265215828153
  0.1678785458095521  0.2103284454647111  0.4000114943653597
  0.1668561432425324  0.3344996570271253  0.3987938434884526
  0.1647228979599046  0.4587958245456291  0.3988529704075232
  0.1646647329571071  0.5838726583451689  0.3987271351966820
  0.1655944884610276  0.7091140119839776  0.3988857646076033
  0.1663585137924913  0.8343647657433879  0.3991062590261235
  0.1669321414228867  0.9596474470359676  0.3993699083151848
  0.2922791573396769  0.0848257469698534  0.4004036258941049
  0.2934214110744301  0.2112080039089238  0.4025709349446487
  0.2945419283842349  0.3378559130700514  0.4019533827272304
  0.2895113627371322  0.4603156815171926  0.4006688003866078
  0.2878076395188980  0.5847482153079433  0.4013625290833876
  0.2896298796904845  0.7092690077491450  0.4005607903135854
  0.2908877102219974  0.8341277558228923  0.3995472297834725
  0.2915860454606458  0.9592932074369322  0.3993212052658326
  0.4168658837071343  0.0834154369309795  0.3995117122536582
  0.4175206646842465  0.2086591203921486  0.4021053868548103
  0.4191882438889384  0.3342763250636056  0.4102199810432228
  0.4132819707146958  0.7072272433066282  0.4044127365917766
  0.4153218762840447  0.8327801050372660  0.4009453962618916
  0.4162182157009620  0.9581325245194762  0.3994146537713696
  0.5415330708326441  0.0820172541242660  0.3990205403317573
  0.5421785371280771  0.2070166327216306  0.3998870071279292
  0.5431030638205749  0.3313330621407037  0.4035898585146738
  0.5457911376170413  0.4545833137943716  0.4103797488826655
  0.5438585248563959  0.5764984055213294  0.4093356449922590
  0.5364481698440203  0.7018479798472219  0.4074690971808347
  0.5394490634271603  0.8302149146905295  0.4031023562234620
  0.5407965005379225  0.9564958200068192  0.4001430836961317
  0.6661195084831977  0.0813980476218310  0.3994114045069644
  0.6668021993151301  0.2066965807667139  0.3989395450013536
  0.6675562483738092  0.3317542669920373  0.3994168459972765
  0.6690376045537842  0.4568617249582583  0.4004328208858696
  0.6690706532566031  0.5818875448931230  0.4015531836739304
  0.6637998255655457  0.7039244882585993  0.4027475396000358
  0.6637186287091057  0.8292602923969737  0.4027600118016441
  0.6652328328073749  0.9557042472286895  0.4009466759458955
  0.7908289424341102  0.0814259902154633  0.3996461061378920
  0.7913919554638558  0.2067660504189192  0.3989322689591894
  0.7919587990273173  0.3321064952258162  0.3985845463060466
  0.7927657593464174  0.4575708402524808  0.3983834766931488
  0.7929577460309153  0.5828088324643242  0.3986237505967638
  0.7915916500593138  0.7075632988880534  0.3993300550636160
  0.7899031710730834  0.8311242151954989  0.4004150266853779
  0.7900198609772298  0.9559746369239943  0.4004365197049518
  0.9159836546839027  0.0822735421431844  0.3993499211847201
  0.9162094705739049  0.2072753017368143  0.3987811711739482
  0.9163186018222341  0.3324603921328068  0.3984039644486375
  0.9166336992392713  0.4578188425785562  0.3982367025226489
  0.9170016569994862  0.5833308482044894  0.3983091730094488
  0.9167767975748288  0.7085518741138002  0.3985666456518221
  0.9164000502467392  0.8332464289969778  0.3991789880615170
  0.9159284729023359  0.9575855947973054  0.3995699313172972
  0.0838811752888799  0.0428339851883236  0.3993558131148253
  0.0840039203789243  0.1676589917105978  0.3993065274103423
  0.0831925318989484  0.2919550225835428  0.3984776850967258
  0.0820450630744037  0.4166402101470794  0.3983015950144196
  0.0818837922017113  0.5418203217306984  0.3982063351282402
  0.0825228803343397  0.6671886242263676  0.3985212513418538
  0.0831045771055658  0.7925298746592888  0.3989236240147404
  0.0834670714911097  0.9176872793517789  0.3991821335754110
  0.2088479919676280  0.0431735159357732  0.3998658414440271
  0.2096318275606551  0.1689360441208254  0.4005706450589915
  0.2100784500346192  0.2943790913041631  0.3999787157697856
  0.2067564352530727  0.4179187390182575  0.3991416129715594
  0.2054211486958893  0.5421746159229492  0.3991941274633022
  0.2066898047708843  0.6674165300567074  0.3992554232147953
  0.2076440988756418  0.7925850177055307  0.3991859079140105
  0.2083166747186292  0.9178395581998685  0.3992821420483209
  0.3335424025667623  0.0426722171823511  0.3996628726940302
  0.3342592337436589  0.1682131488972299  0.4019782108164605
  0.3355890488131362  0.2946245019625392  0.4054979211111622
  0.3335474522043299  0.4219386043873210  0.4012173285314858
  0.3293073284358280  0.5445459232540982  0.4041781780590860
  0.3304535536222641  0.6674544175475717  0.4024164232972863
  0.3321031092019350  0.7923377996977025  0.4003622137960668
  0.3329595742275970  0.9174146848191054  0.3993829707622820
  0.4582645252243597  0.0414103166245513  0.3991508454516220
  0.4588494798513338  0.1665773353447216  0.4002560666595107
  0.4598458534855974  0.2916118937299019  0.4050424132499945
  0.4643996231527857  0.4151375570919154  0.4181863582159935
  0.4518175312037322  0.6626005862691304  0.4085050380088110
  0.4563678089173160  0.7904726589911868  0.4027533834611367
  0.4575219767535273  0.9160268262369898  0.4000601772148585
  0.5828582425875796  0.0400151404235774  0.3993543655144163
  0.5835581533487865  0.1653077492101115  0.3990694578815538
  0.5843306067806953  0.2900302700264178  0.4007239189464359
  0.5862303323379566  0.4141633425040078  0.4041280873918251
  0.5868947565965767  0.5386163691878447  0.4068541583758472
  0.5785226938174800  0.6593404649848238  0.4062938366401760
  0.5794330680608846  0.7862659602801499  0.4045980087659122
  0.5818182686819314  0.9140275641991553  0.4013351003409927
  0.7073663339867015  0.0394136462161822  0.3999608679368535
  0.7081193624269233  0.1649704419141932  0.3990329189237508
  0.7087568108704771  0.2901706230943820  0.3988445618888339
  0.7098704382588807  0.4153839738015586  0.3990633766025738
  0.7103362128590082  0.5404505626476209  0.3998868625318085
  0.7080171512567893  0.6649653837577842  0.4007824380247300
  0.7056738658523268  0.7880578378799281  0.4019593637757704
  0.7061933578977303  0.9133832099067821  0.4013697329221177
  0.8322775072708817  0.0398363540111588  0.3998090212228840
  0.8328023196274854  0.1651373682174851  0.3990900693486609
  0.8332365647923797  0.2904511629599558  0.3986290059012199
  0.8337568670477069  0.4157393179117796  0.3983659008316479
  0.8341705412153567  0.5411663501516144  0.3983188336449567
  0.8336421120731188  0.6664687226832203  0.3986411031445027
  0.8327999704048101  0.7908753196936310  0.3995422544364429
  0.8319879305211120  0.9148784972272158  0.4001632978759853
  0.9580553168777836  0.0413398475430735  0.3993487189564207
  0.9580001906372909  0.1659859004924748  0.3989212523957418
  0.9578518305195869  0.2908956441803914  0.3984594995010861
  0.9577724820142115  0.4160874130830229  0.3981911490348764
  0.9580857535598343  0.5415565540148105  0.3982393742908140
  0.9582928028111471  0.6669472619853880  0.3984741448619431
  0.9582756144687637  0.7920609188468959  0.3988783383306581
  0.9581778804126289  0.9168027987643180  0.3993280271642723
  0.4067231759084276  0.5828733188362875  0.4113980764381631
  0.4786913711339379  0.5321121082678492  0.4904410399956541
 
  0.00000000E+00  0.00000000E+00  0.00000000E+00
  0.00000000E+00  0.00000000E+00  0.00000000E+00
  0.00000000E+00  0.00000000E+00  0.00000000E+00
  0.00000000E+00  0.00000000E+00  0.00000000E+00
  0.00000000E+00  0.00000000E+00  0.00000000E+00
  0.00000000E+00  0.00000000E+00  0.00000000E+00
  0.00000000E+00  0.00000000E+00  0.00000000E+00
  0.00000000E+00  0.00000000E+00  0.00000000E+00
  0.00000000E+00  0.00000000E+00  0.00000000E+00
  0.00000000E+00  0.00000000E+00  0.00000000E+00
  0.00000000E+00  0.00000000E+00  0.00000000E+00
  0.00000000E+00  0.00000000E+00  0.00000000E+00
  0.00000000E+00  0.00000000E+00  0.00000000E+00
  0.00000000E+00  0.00000000E+00  0.00000000E+00
  0.00000000E+00  0.00000000E+00  0.00000000E+00
  0.00000000E+00  0.00000000E+00  0.00000000E+00
  0.00000000E+00  0.00000000E+00  0.00000000E+00
  0.00000000E+00  0.00000000E+00  0.00000000E+00
  0.00000000E+00  0.00000000E+00  0.00000000E+00
  0.00000000E+00  0.00000000E+00  0.00000000E+00
  0.00000000E+00  0.00000000E+00  0.00000000E+00
  0.00000000E+00  0.00000000E+00  0.00000000E+00
  0.00000000E+00  0.00000000E+00  0.00000000E+00
  0.00000000E+00  0.00000000E+00  0.00000000E+00
  0.00000000E+00  0.00000000E+00  0.00000000E+00
  0.00000000E+00  0.00000000E+00  0.00000000E+00
  0.00000000E+00  0.00000000E+00  0.00000000E+00
  0.00000000E+00  0.00000000E+00  0.00000000E+00
  0.00000000E+00  0.00000000E+00  0.00000000E+00
  0.00000000E+00  0.00000000E+00  0.00000000E+00
  0.00000000E+00  0.00000000E+00  0.00000000E+00
  0.00000000E+00  0.00000000E+00  0.00000000E+00
  0.00000000E+00  0.00000000E+00  0.00000000E+00
  0.00000000E+00  0.00000000E+00  0.00000000E+00
  0.00000000E+00  0.00000000E+00  0.00000000E+00
  0.00000000E+00  0.00000000E+00  0.00000000E+00
  0.00000000E+00  0.00000000E+00  0.00000000E+00
  0.00000000E+00  0.00000000E+00  0.00000000E+00
  0.00000000E+00  0.00000000E+00  0.00000000E+00
  0.00000000E+00  0.00000000E+00  0.00000000E+00
  0.00000000E+00  0.00000000E+00  0.00000000E+00
  0.00000000E+00  0.00000000E+00  0.00000000E+00
  0.00000000E+00  0.00000000E+00  0.00000000E+00
  0.00000000E+00  0.00000000E+00  0.00000000E+00
  0.00000000E+00  0.00000000E+00  0.00000000E+00
  0.00000000E+00  0.00000000E+00  0.00000000E+00
  0.00000000E+00  0.00000000E+00  0.00000000E+00
  0.00000000E+00  0.00000000E+00  0.00000000E+00
  0.00000000E+00  0.00000000E+00  0.00000000E+00
  0.00000000E+00  0.00000000E+00  0.00000000E+00
  0.00000000E+00  0.00000000E+00  0.00000000E+00
  0.00000000E+00  0.00000000E+00  0.00000000E+00
  0.00000000E+00  0.00000000E+00  0.00000000E+00
  0.00000000E+00  0.00000000E+00  0.00000000E+00
  0.00000000E+00  0.00000000E+00  0.00000000E+00
  0.00000000E+00  0.00000000E+00  0.00000000E+00
  0.00000000E+00  0.00000000E+00  0.00000000E+00
  0.00000000E+00  0.00000000E+00  0.00000000E+00
  0.00000000E+00  0.00000000E+00  0.00000000E+00
  0.00000000E+00  0.00000000E+00  0.00000000E+00
  0.00000000E+00  0.00000000E+00  0.00000000E+00
  0.00000000E+00  0.00000000E+00  0.00000000E+00
  0.00000000E+00  0.00000000E+00  0.00000000E+00
  0.00000000E+00  0.00000000E+00  0.00000000E+00
  0.00000000E+00  0.00000000E+00  0.00000000E+00
  0.00000000E+00  0.00000000E+00  0.00000000E+00
  0.00000000E+00  0.00000000E+00  0.00000000E+00
  0.00000000E+00  0.00000000E+00  0.00000000E+00
  0.00000000E+00  0.00000000E+00  0.00000000E+00
  0.00000000E+00  0.00000000E+00  0.00000000E+00
  0.00000000E+00  0.00000000E+00  0.00000000E+00
  0.00000000E+00  0.00000000E+00  0.00000000E+00
  0.00000000E+00  0.00000000E+00  0.00000000E+00
  0.00000000E+00  0.00000000E+00  0.00000000E+00
  0.00000000E+00  0.00000000E+00  0.00000000E+00
  0.00000000E+00  0.00000000E+00  0.00000000E+00
  0.00000000E+00  0.00000000E+00  0.00000000E+00
  0.00000000E+00  0.00000000E+00  0.00000000E+00
  0.00000000E+00  0.00000000E+00  0.00000000E+00
  0.00000000E+00  0.00000000E+00  0.00000000E+00
  0.00000000E+00  0.00000000E+00  0.00000000E+00
  0.00000000E+00  0.00000000E+00  0.00000000E+00
  0.00000000E+00  0.00000000E+00  0.00000000E+00
  0.00000000E+00  0.00000000E+00  0.00000000E+00
  0.00000000E+00  0.00000000E+00  0.00000000E+00
  0.00000000E+00  0.00000000E+00  0.00000000E+00
  0.00000000E+00  0.00000000E+00  0.00000000E+00
  0.00000000E+00  0.00000000E+00  0.00000000E+00
  0.00000000E+00  0.00000000E+00  0.00000000E+00
  0.00000000E+00  0.00000000E+00  0.00000000E+00
  0.00000000E+00  0.00000000E+00  0.00000000E+00
  0.00000000E+00  0.00000000E+00  0.00000000E+00
  0.00000000E+00  0.00000000E+00  0.00000000E+00
  0.00000000E+00  0.00000000E+00  0.00000000E+00
  0.00000000E+00  0.00000000E+00  0.00000000E+00
  0.00000000E+00  0.00000000E+00  0.00000000E+00
  0.00000000E+00  0.00000000E+00  0.00000000E+00
  0.00000000E+00  0.00000000E+00  0.00000000E+00
  0.00000000E+00  0.00000000E+00  0.00000000E+00
  0.00000000E+00  0.00000000E+00  0.00000000E+00
  0.00000000E+00  0.00000000E+00  0.00000000E+00
  0.00000000E+00  0.00000000E+00  0.00000000E+00
  0.00000000E+00  0.00000000E+00  0.00000000E+00
  0.00000000E+00  0.00000000E+00  0.00000000E+00
  0.00000000E+00  0.00000000E+00  0.00000000E+00
  0.00000000E+00  0.00000000E+00  0.00000000E+00
  0.00000000E+00  0.00000000E+00  0.00000000E+00
  0.00000000E+00  0.00000000E+00  0.00000000E+00
  0.00000000E+00  0.00000000E+00  0.00000000E+00
  0.00000000E+00  0.00000000E+00  0.00000000E+00
  0.00000000E+00  0.00000000E+00  0.00000000E+00
  0.00000000E+00  0.00000000E+00  0.00000000E+00
  0.00000000E+00  0.00000000E+00  0.00000000E+00
  0.00000000E+00  0.00000000E+00  0.00000000E+00
  0.00000000E+00  0.00000000E+00  0.00000000E+00
  0.00000000E+00  0.00000000E+00  0.00000000E+00
  0.00000000E+00  0.00000000E+00  0.00000000E+00
  0.00000000E+00  0.00000000E+00  0.00000000E+00
  0.00000000E+00  0.00000000E+00  0.00000000E+00
  0.00000000E+00  0.00000000E+00  0.00000000E+00
  0.00000000E+00  0.00000000E+00  0.00000000E+00
  0.00000000E+00  0.00000000E+00  0.00000000E+00
  0.00000000E+00  0.00000000E+00  0.00000000E+00
  0.00000000E+00  0.00000000E+00  0.00000000E+00
  0.00000000E+00  0.00000000E+00  0.00000000E+00
  0.00000000E+00  0.00000000E+00  0.00000000E+00
  0.00000000E+00  0.00000000E+00  0.00000000E+00
  0.00000000E+00  0.00000000E+00  0.00000000E+00
  0.00000000E+00  0.00000000E+00  0.00000000E+00
