Cr1 H1 C122 N4 O2                       
   1.00000000000000     
    19.8104689353206105    0.0001276900196500    0.0324581622811372
    -9.9051230097521490   17.0251773745945272   -0.0158668014503545
     0.0488117438043743    0.0006553149402986   29.8342543097850879
   Cr   H    C    N    O 
     1     1   122     4     2
Direct
  0.4372897580028436  0.5000032302613850  0.4204395450174173
  0.5239682764761563  0.5463159442214711  0.5156364885764206
  0.0420735034070398  0.0841059377092992  0.3999136879938086
  0.0412000488424528  0.2082736939750006  0.3999353470660236
  0.0404586570383532  0.3330093940841806  0.3996828503892929
  0.0405437823911118  0.4582187159511861  0.3993723662799595
  0.0413069411073047  0.5836444016000071  0.3992414460419663
  0.0420186131287887  0.7090323088204646  0.3993637595058104
  0.0422725835067729  0.8342591832852453  0.3996261244966576
  0.0424065538504808  0.9594895944803952  0.3997905909085494
  0.1681289936817414  0.0857523228716302  0.4005711518522732
  0.1675978558245758  0.2103491772757336  0.4011486234404097
  0.1652344818594125  0.3337043475028479  0.4011754764630081
  0.1642240184478067  0.4584909040223219  0.4003312864103810
  0.1651810743024522  0.5835960747269968  0.3996851791959692
  0.1663724916169309  0.7088335575919906  0.3994629514575548
  0.1669789092447207  0.8342687421290683  0.3996238603748665
  0.1674316507652654  0.9598831127401628  0.4000136630939257
  0.2925974585252957  0.0857567218569014  0.4005470603689316
  0.2941611185789999  0.2133661268376804  0.4024133288869993
  0.2926021902309771  0.3388841069087219  0.4043154125770481
  0.2873869785324170  0.4579569224616579  0.4036548559383408
  0.2885205360835380  0.5830317737593795  0.4015354072063147
  0.2906891315612729  0.7083735234789796  0.4001582383284614
  0.2916317690042921  0.8338273429864805  0.3996104703351144
  0.2920722742096526  0.9594865545761717  0.3997577666007508
  0.4170082033764446  0.0840909518082512  0.3998948690654366
  0.4177161728961510  0.2103556960251696  0.4011208059773705
  0.4212685881145833  0.3389342959918017  0.4044964138212824
  0.4147123550417436  0.7060178622741629  0.4020577977072478
  0.4161383262690575  0.8322479625630491  0.4002351623685830
  0.4166537054268448  0.9582308092960253  0.3996438768496157
  0.5415379705045612  0.0826495356541418  0.3996494561696287
  0.5420413498901011  0.2082468672814453  0.3999226457021935
  0.5434364250440249  0.3336914900931070  0.4012247480558886
  0.5455253804421938  0.4579730358364453  0.4040827027516312
  0.5382732010785553  0.7016072966656763  0.4044714068059401
  0.5404857522523271  0.8301678981351595  0.4013959238805987
  0.5411625121634025  0.9567569628061268  0.4000565552741401
  0.6661701786710915  0.0821120141095446  0.3998139217182722
  0.6665819617937184  0.2075526804283127  0.3995521207963872
  0.6675325750376860  0.3330107610232246  0.3996514758473672
  0.6692198405751697  0.4584952157973985  0.4002769012820322
  0.6694562971387636  0.5830182820847416  0.4016339534243211
  0.6662565899188292  0.7059976024664364  0.4020694002514268
  0.6646301277584739  0.8301631764557227  0.4013743643605657
  0.6656618277100518  0.9563395787937320  0.4004217783405407
  0.7909197312012243  0.0821056000226294  0.3998015382239634
  0.7912142419885174  0.2074466413143283  0.3995608656694687
  0.7917615348953971  0.3328079287196590  0.3993253375736646
  0.7926666508328173  0.4582086409446848  0.3992519598286072
  0.7934109074996590  0.5835981624987910  0.3995677215868008
  0.7926902917149388  0.7083977129531986  0.4001255751152279
  0.7910848242629412  0.8322598259334621  0.4002047781821668
  0.7905638281831353  0.9567508769718970  0.4000188684366062
  0.9160954876286184  0.0826550123639812  0.3996076845811853
  0.9159515811329731  0.2075513495114834  0.3995418032915741
  0.9160454709631138  0.3328241370308525  0.3993397202936534
  0.9166122281643776  0.4582398846980430  0.3991374753832642
  0.9173390882680587  0.5836593532119709  0.3991827668041215
  0.9174549702170460  0.7088302446967937  0.3994624308771634
  0.9172127374034497  0.8338455543678130  0.3996333675843972
  0.9165598576060942  0.9582376709640643  0.3996529660914578
  0.0844082923360524  0.0432543160272008  0.4000582381821328
  0.0838946237975716  0.1677497884917485  0.4002224447116821
  0.0823090744363651  0.2916120538878922  0.4001397303962754
  0.0815708405538522  0.4163805615388964  0.3996788784037967
  0.0823066157816186  0.5417668586583170  0.3993668479553300
  0.0832078846228657  0.6671625386547796  0.3993367144618434
  0.0837733189400945  0.7925467734017112  0.3995634101217207
  0.0840570301502454  0.9178799857631155  0.3998190784761568
  0.2093215270162950  0.0436596400585813  0.4004200877561949
  0.2103323095597106  0.1698480903371590  0.4013835899040874
  0.2087052375526375  0.2939801666596503  0.4020013801206637
  0.2054850249099744  0.4169475045537341  0.4014793321110982
  0.2057148980490749  0.5414786237571535  0.4003478004782953
  0.2074303900950159  0.6669812011574572  0.3997005307553089
  0.2083961535708365  0.7924391353467618  0.3995490929571732
  0.2088078735263539  0.9178918929823032  0.3998064758175099
  0.3338113123548150  0.0432454522514298  0.4000243133863401
  0.3344665207999916  0.1698280269939275  0.4013692448497693
  0.3366863296952634  0.2983873051487537  0.4043776115420367
  0.3293878684375415  0.5419866137957740  0.4036980169357224
  0.3315184302265131  0.6662817234353662  0.4012232419298785
  0.3329229518039092  0.7917250370469097  0.3999409112284666
  0.3334251450872815  0.9173403233011277  0.3996132409389905
  0.4583133833369075  0.0417615997426887  0.3996547004273125
  0.4588067399078151  0.1677376874725740  0.4002127065268781
  0.4602458087198074  0.2940016216472600  0.4020515961108722
  0.4536689664486708  0.6610929048159160  0.4044001375494667
  0.4572453780915665  0.7896576939498841  0.4011659604767923
  0.4579607477913101  0.9159030822272725  0.3999158804891683
  0.5829104220879050  0.0405144747612747  0.3997908992442320
  0.5833455300576198  0.1661539706988763  0.3996314142775443
  0.5842683529654059  0.2915946915975077  0.4001163237362532
  0.5863942867205001  0.4169552894534299  0.4016053715517775
  0.5875465072331483  0.5419505377956226  0.4041629223347056
  0.5823401406881402  0.6610811074348260  0.4045926028644002
  0.5807836831074096  0.7866349537766496  0.4024449534657617
  0.5823726676964244  0.9142553821600047  0.4005724779133470
  0.7075447757443081  0.0401179814439540  0.4000136577475272
  0.7079991670925975  0.1657283786192615  0.3996272528995742
  0.7086044455920038  0.2911567892942399  0.3994589379202787
  0.7097916235889798  0.4163863075261362  0.3995670523895575
  0.7107235096813064  0.5414841776675247  0.4002780418433977
  0.7097627675705375  0.6663026337609187  0.4012473343240577
  0.7073656571616614  0.7896479663214190  0.4011196850508731
  0.7068314207470234  0.9142471010759530  0.4005512937678237
  0.8325828736618529  0.0405111391035763  0.3997513809700428
  0.8327001105351411  0.1657270481098128  0.3996158130584294
  0.8329707923752984  0.2909502898651145  0.3993661533731468
  0.8336599450623220  0.4163249706896175  0.3991857159020696
  0.8344511124918180  0.5417677718415302  0.3992533361204886
  0.8345144786395550  0.6669719176284351  0.3996593775841447
  0.8338029162657092  0.7917440983763556  0.3999234124887940
  0.8329138015291795  0.9159033279121971  0.3998917029301937
  0.9584243084489992  0.0417721302883631  0.3996433315455881
  0.9577930889202944  0.1661640616791286  0.3996054168716327
  0.9575329384727724  0.2911584821925259  0.3994552285160373
  0.9576474438458986  0.4163340620858036  0.3992441293767489
  0.9583559879801028  0.5417352521627198  0.3991376292634837
  0.9589420045125610  0.6671711104128492  0.3993175877430047
  0.9590270402651433  0.7924302666956431  0.3995543991774319
  0.9588875389584105  0.9173455097754958  0.3996440638664892
  0.4095406036287759  0.5807083825802638  0.4061757530901750
  0.5460119402493819  0.5806676535587980  0.4069496046923445
  0.3288565089335778  0.4192656915960835  0.4061227753624557
  0.4653231112128965  0.4193183881664545  0.4066761996627988
  0.4918099539841966  0.4933523473427114  0.5034511282374308
  0.4293594414044306  0.5018568635349346  0.4822983650549915
 
  0.00000000E+00  0.00000000E+00  0.00000000E+00
  0.00000000E+00  0.00000000E+00  0.00000000E+00
  0.00000000E+00  0.00000000E+00  0.00000000E+00
  0.00000000E+00  0.00000000E+00  0.00000000E+00
  0.00000000E+00  0.00000000E+00  0.00000000E+00
  0.00000000E+00  0.00000000E+00  0.00000000E+00
  0.00000000E+00  0.00000000E+00  0.00000000E+00
  0.00000000E+00  0.00000000E+00  0.00000000E+00
  0.00000000E+00  0.00000000E+00  0.00000000E+00
  0.00000000E+00  0.00000000E+00  0.00000000E+00
  0.00000000E+00  0.00000000E+00  0.00000000E+00
  0.00000000E+00  0.00000000E+00  0.00000000E+00
  0.00000000E+00  0.00000000E+00  0.00000000E+00
  0.00000000E+00  0.00000000E+00  0.00000000E+00
  0.00000000E+00  0.00000000E+00  0.00000000E+00
  0.00000000E+00  0.00000000E+00  0.00000000E+00
  0.00000000E+00  0.00000000E+00  0.00000000E+00
  0.00000000E+00  0.00000000E+00  0.00000000E+00
  0.00000000E+00  0.00000000E+00  0.00000000E+00
  0.00000000E+00  0.00000000E+00  0.00000000E+00
  0.00000000E+00  0.00000000E+00  0.00000000E+00
  0.00000000E+00  0.00000000E+00  0.00000000E+00
  0.00000000E+00  0.00000000E+00  0.00000000E+00
  0.00000000E+00  0.00000000E+00  0.00000000E+00
  0.00000000E+00  0.00000000E+00  0.00000000E+00
  0.00000000E+00  0.00000000E+00  0.00000000E+00
  0.00000000E+00  0.00000000E+00  0.00000000E+00
  0.00000000E+00  0.00000000E+00  0.00000000E+00
  0.00000000E+00  0.00000000E+00  0.00000000E+00
  0.00000000E+00  0.00000000E+00  0.00000000E+00
  0.00000000E+00  0.00000000E+00  0.00000000E+00
  0.00000000E+00  0.00000000E+00  0.00000000E+00
  0.00000000E+00  0.00000000E+00  0.00000000E+00
  0.00000000E+00  0.00000000E+00  0.00000000E+00
  0.00000000E+00  0.00000000E+00  0.00000000E+00
  0.00000000E+00  0.00000000E+00  0.00000000E+00
  0.00000000E+00  0.00000000E+00  0.00000000E+00
  0.00000000E+00  0.00000000E+00  0.00000000E+00
  0.00000000E+00  0.00000000E+00  0.00000000E+00
  0.00000000E+00  0.00000000E+00  0.00000000E+00
  0.00000000E+00  0.00000000E+00  0.00000000E+00
  0.00000000E+00  0.00000000E+00  0.00000000E+00
  0.00000000E+00  0.00000000E+00  0.00000000E+00
  0.00000000E+00  0.00000000E+00  0.00000000E+00
  0.00000000E+00  0.00000000E+00  0.00000000E+00
  0.00000000E+00  0.00000000E+00  0.00000000E+00
  0.00000000E+00  0.00000000E+00  0.00000000E+00
  0.00000000E+00  0.00000000E+00  0.00000000E+00
  0.00000000E+00  0.00000000E+00  0.00000000E+00
  0.00000000E+00  0.00000000E+00  0.00000000E+00
  0.00000000E+00  0.00000000E+00  0.00000000E+00
  0.00000000E+00  0.00000000E+00  0.00000000E+00
  0.00000000E+00  0.00000000E+00  0.00000000E+00
  0.00000000E+00  0.00000000E+00  0.00000000E+00
  0.00000000E+00  0.00000000E+00  0.00000000E+00
  0.00000000E+00  0.00000000E+00  0.00000000E+00
  0.00000000E+00  0.00000000E+00  0.00000000E+00
  0.00000000E+00  0.00000000E+00  0.00000000E+00
  0.00000000E+00  0.00000000E+00  0.00000000E+00
  0.00000000E+00  0.00000000E+00  0.00000000E+00
  0.00000000E+00  0.00000000E+00  0.00000000E+00
  0.00000000E+00  0.00000000E+00  0.00000000E+00
  0.00000000E+00  0.00000000E+00  0.00000000E+00
  0.00000000E+00  0.00000000E+00  0.00000000E+00
  0.00000000E+00  0.00000000E+00  0.00000000E+00
  0.00000000E+00  0.00000000E+00  0.00000000E+00
  0.00000000E+00  0.00000000E+00  0.00000000E+00
  0.00000000E+00  0.00000000E+00  0.00000000E+00
  0.00000000E+00  0.00000000E+00  0.00000000E+00
  0.00000000E+00  0.00000000E+00  0.00000000E+00
  0.00000000E+00  0.00000000E+00  0.00000000E+00
  0.00000000E+00  0.00000000E+00  0.00000000E+00
  0.00000000E+00  0.00000000E+00  0.00000000E+00
  0.00000000E+00  0.00000000E+00  0.00000000E+00
  0.00000000E+00  0.00000000E+00  0.00000000E+00
  0.00000000E+00  0.00000000E+00  0.00000000E+00
  0.00000000E+00  0.00000000E+00  0.00000000E+00
  0.00000000E+00  0.00000000E+00  0.00000000E+00
  0.00000000E+00  0.00000000E+00  0.00000000E+00
  0.00000000E+00  0.00000000E+00  0.00000000E+00
  0.00000000E+00  0.00000000E+00  0.00000000E+00
  0.00000000E+00  0.00000000E+00  0.00000000E+00
  0.00000000E+00  0.00000000E+00  0.00000000E+00
  0.00000000E+00  0.00000000E+00  0.00000000E+00
  0.00000000E+00  0.00000000E+00  0.00000000E+00
  0.00000000E+00  0.00000000E+00  0.00000000E+00
  0.00000000E+00  0.00000000E+00  0.00000000E+00
  0.00000000E+00  0.00000000E+00  0.00000000E+00
  0.00000000E+00  0.00000000E+00  0.00000000E+00
  0.00000000E+00  0.00000000E+00  0.00000000E+00
  0.00000000E+00  0.00000000E+00  0.00000000E+00
  0.00000000E+00  0.00000000E+00  0.00000000E+00
  0.00000000E+00  0.00000000E+00  0.00000000E+00
  0.00000000E+00  0.00000000E+00  0.00000000E+00
  0.00000000E+00  0.00000000E+00  0.00000000E+00
  0.00000000E+00  0.00000000E+00  0.00000000E+00
  0.00000000E+00  0.00000000E+00  0.00000000E+00
  0.00000000E+00  0.00000000E+00  0.00000000E+00
  0.00000000E+00  0.00000000E+00  0.00000000E+00
  0.00000000E+00  0.00000000E+00  0.00000000E+00
  0.00000000E+00  0.00000000E+00  0.00000000E+00
  0.00000000E+00  0.00000000E+00  0.00000000E+00
  0.00000000E+00  0.00000000E+00  0.00000000E+00
  0.00000000E+00  0.00000000E+00  0.00000000E+00
  0.00000000E+00  0.00000000E+00  0.00000000E+00
  0.00000000E+00  0.00000000E+00  0.00000000E+00
  0.00000000E+00  0.00000000E+00  0.00000000E+00
  0.00000000E+00  0.00000000E+00  0.00000000E+00
  0.00000000E+00  0.00000000E+00  0.00000000E+00
  0.00000000E+00  0.00000000E+00  0.00000000E+00
  0.00000000E+00  0.00000000E+00  0.00000000E+00
  0.00000000E+00  0.00000000E+00  0.00000000E+00
  0.00000000E+00  0.00000000E+00  0.00000000E+00
  0.00000000E+00  0.00000000E+00  0.00000000E+00
  0.00000000E+00  0.00000000E+00  0.00000000E+00
  0.00000000E+00  0.00000000E+00  0.00000000E+00
  0.00000000E+00  0.00000000E+00  0.00000000E+00
  0.00000000E+00  0.00000000E+00  0.00000000E+00
  0.00000000E+00  0.00000000E+00  0.00000000E+00
  0.00000000E+00  0.00000000E+00  0.00000000E+00
  0.00000000E+00  0.00000000E+00  0.00000000E+00
  0.00000000E+00  0.00000000E+00  0.00000000E+00
  0.00000000E+00  0.00000000E+00  0.00000000E+00
  0.00000000E+00  0.00000000E+00  0.00000000E+00
  0.00000000E+00  0.00000000E+00  0.00000000E+00
  0.00000000E+00  0.00000000E+00  0.00000000E+00
  0.00000000E+00  0.00000000E+00  0.00000000E+00
  0.00000000E+00  0.00000000E+00  0.00000000E+00
  0.00000000E+00  0.00000000E+00  0.00000000E+00
  0.00000000E+00  0.00000000E+00  0.00000000E+00
