Co1 H1 C124 N2 O1                       
   1.00000000000000     
    19.7823195118957535   -0.0314881160287871   -0.0294826177118888
    -9.9190585788884746   17.0374110973678121    0.1796318170237867
    -0.0448034124155157    0.2886207158484582   29.8858417448044733
   Co   H    C    N    O 
     1     1   124     2     1
Direct
  0.4373776636235220  0.4991810809768538  0.4194914782400190
  0.4709191303012474  0.5636467746798601  0.4884856080589017
  0.0424932329349659  0.0843662468842723  0.3998327908502830
  0.0421300543282044  0.2087624226815095  0.3991908893353795
  0.0414903620513556  0.3331860793902734  0.3991535023434452
  0.0410384018166070  0.4582680969790118  0.3994984101243659
  0.0411642476536684  0.5835148713138167  0.3994197178248484
  0.0414815061213005  0.7087549019810382  0.3993658888994034
  0.0416998941621642  0.8339369264568788  0.3996138863090763
  0.0421009749489087  0.9592608121504540  0.3999927171382467
  0.1681430230801411  0.0856114343493957  0.4003025927891102
  0.1689347656988289  0.2112291375658373  0.3995003562787645
  0.1674557638323293  0.3348248935947566  0.3982137303634374
  0.1654350631869761  0.4587765052949706  0.3995542586765950
  0.1653762278027742  0.5836402124608924  0.4000922027305123
  0.1660195045933079  0.7088341279656376  0.3999325946030226
  0.1665588511906080  0.8341004550310203  0.3997024521980421
  0.1671652520029241  0.9596403737747750  0.4001029942948193
  0.2925587159395420  0.0851637516797439  0.4008039438569853
  0.2946191831386713  0.2125934550947193  0.4014545169892685
  0.2965005116829715  0.3401131121756933  0.3989090027980495
  0.2907547640649284  0.4606375061821240  0.3984605646634520
  0.2893497355431265  0.5843610942147706  0.4014467552047449
  0.2903609468649293  0.7088319102308773  0.4012129017753452
  0.2912802273738180  0.8338662278814724  0.4001109788528794
  0.2917913859367971  0.9592248235627920  0.3999420391060511
  0.4169789318114638  0.0837132520286019  0.4002010489763279
  0.4177608904055177  0.2096694350136019  0.4015918072460707
  0.4212362681523985  0.3379267220926963  0.4051872248858075
  0.4143566424043783  0.7061782372933578  0.4032081369483009
  0.4158614728102634  0.8323688074122160  0.4009834142953821
  0.4164145206640484  0.9580372649363369  0.3998838533463598
  0.5415668538115384  0.0823105858451001  0.3997915766824462
  0.5421237404012160  0.2075258760318448  0.4004963905588497
  0.5432524532821006  0.3323524123429280  0.4022465197861465
  0.5436390901268737  0.4553744504313286  0.4039994630090362
  0.5398142835138557  0.5759026967264376  0.4008180637151071
  0.5374746783383628  0.7023913749128567  0.4035015375181104
  0.5400382787670353  0.8304506059398733  0.4020137741981102
  0.5410648415205017  0.9567191378279460  0.4003341935853229
  0.6662732368593112  0.0818674502437204  0.3998850816278150
  0.6667878269639900  0.2072388443879589  0.3997662719331245
  0.6674768659357895  0.3324062746673633  0.4001118652806781
  0.6682668341307334  0.4575258939773974  0.4000545735092160
  0.6673423957161049  0.5816642641576451  0.3993075170006364
  0.6635433079657105  0.7041504049201492  0.4000143169070327
  0.6641731386484366  0.8297798115052402  0.4012118891746823
  0.6655888132432537  0.9561657815106912  0.4006808088484348
  0.7911403474995282  0.0819721924966643  0.4000006935149969
  0.7915448309699045  0.2072832510064728  0.3995661332932627
  0.7919407497560655  0.3325464648949747  0.3994401558748848
  0.7923588860000166  0.4578420756998867  0.3992498396989745
  0.7922747444823486  0.5829429807645354  0.3990281010285699
  0.7910814316399239  0.7074154820816432  0.3991578453026250
  0.7900274466973869  0.8314083160873196  0.4000564447268857
  0.7904198138219272  0.9565065641168786  0.4002653904713824
  0.9164319368692588  0.0827322449533128  0.3998140185671701
  0.9165541171415867  0.2076856013657675  0.3994982466842174
  0.9165541025470390  0.3327765604036941  0.3993942746886816
  0.9166603880232316  0.4580206970945611  0.3992283877639693
  0.9167994793713063  0.5833028574984240  0.3990883644214520
  0.9165920607146916  0.7084007457863848  0.3991688196233270
  0.9163614292834410  0.8332333359860868  0.3996134781167058
  0.9162459831028826  0.9579122171348828  0.3999540445473286
  0.0843816044538315  0.0431071410506476  0.4000638776573950
  0.0847916741450518  0.1682293748234613  0.3995151357891373
  0.0837098914993675  0.2922476259623110  0.3987254250490793
  0.0825467334318688  0.4167276553156256  0.3993819323782049
  0.0824047572328581  0.5417581935603479  0.3996238636873244
  0.0828468509973845  0.6670551274768926  0.3995248289499855
  0.0832563192807854  0.7923495317629019  0.3995401146336732
  0.0836598689141255  0.9176341095150988  0.3999260575368595
  0.2091720078198449  0.0433371022247968  0.4004916046722542
  0.2106105945519161  0.1697484873251440  0.4002624079247212
  0.2113475102929669  0.2954637380437006  0.3986199140506201
  0.2076326851507275  0.4180366548065493  0.3987413698234974
  0.2064470433160608  0.5420333240645334  0.4001497417405702
  0.2072899110854749  0.6671506304770389  0.4004113759107994
  0.2079944682242569  0.7923452303673173  0.3999082867731971
  0.2085031542892608  0.9177086506727363  0.3998984064463187
  0.3336669160620431  0.0427995435541320  0.4003204034118610
  0.3346717792803133  0.1689936643302090  0.4015056127832324
  0.3373133677576021  0.2970296356004027  0.4022899835441862
  0.3361423856143233  0.4241082802567817  0.3966069394834832
  0.3310361479728812  0.5439583347452839  0.4021659934345152
  0.3314373281799732  0.6670472606506976  0.4023402048814191
  0.3326000989170623  0.7919883321852055  0.4007946203877140
  0.3331651275280763  0.9172418690282100  0.3998797324839387
  0.4582925965206783  0.0415252628757727  0.3998484277647307
  0.4588653837867369  0.1671665818195649  0.4006909385670596
  0.4602947922534639  0.2932591969917127  0.4029510230003837
  0.4532900965659294  0.6612688987297517  0.4052096481501195
  0.4569450385455838  0.7898408795568912  0.4020401412560446
  0.4577503332811261  0.9158282184077748  0.4002890292261725
  0.5829660300386692  0.0403363060919943  0.3998994156831941
  0.5834738862149109  0.1656957856308381  0.3999260943324074
  0.5843461475651495  0.2906562202813063  0.4009247508152498
  0.5853226636969424  0.4150513192550136  0.4018369559756962
  0.5843586647614387  0.5387908682373990  0.4007165763431715
  0.5784345419493206  0.6596139984989620  0.4010010596282996
  0.5801350695342862  0.7868781191421732  0.4024085546704370
  0.5821721132436224  0.9143324621461133  0.4009954568203398
  0.7076409210109276  0.0399291885271467  0.4001909005627127
  0.7082295031816628  0.1654964343954504  0.3996929956336004
  0.7087555951136011  0.2907459350513264  0.3997180891490473
  0.7093552148917794  0.4159169822843722  0.3997402549052254
  0.7094091621076828  0.5408369278627063  0.3993913247375929
  0.7074388416689459  0.6648551604621105  0.3991525565771923
  0.7058612211328921  0.7883525036361618  0.4005257096411015
  0.7066449264122880  0.9139552175826822  0.4007121760833172
  0.8327123247063568  0.0403860023981579  0.4000578736097324
  0.8330997279889232  0.1656630698740500  0.3996781099568736
  0.8333322656230493  0.2908728219832568  0.3994309747395519
  0.8336213549396163  0.4161161080109395  0.3992596451191730
  0.8337553180162729  0.5413756043752684  0.3990871182550606
  0.8333351342967603  0.6664653129976230  0.3990220947365870
  0.8326710566190485  0.7909013816785020  0.3995703395748578
  0.8322978860454100  0.9152586967355845  0.4001234890184975
  0.9585427611048232  0.0417147026411939  0.3998702168089707
  0.9584428581933508  0.1664034364047211  0.3995210590651084
  0.9582010270505492  0.2912349625609707  0.3993850816383997
  0.9579953033851609  0.4163455772925602  0.3993536936224942
  0.9581270123783128  0.5416198420810119  0.3991856656674884
  0.9582539637674685  0.6668682902731291  0.3991618442396998
  0.9582619820056024  0.7919467983586799  0.3994418736839549
  0.9583704678126566  0.9169006913203290  0.3998705007782348
  0.4101153366134511  0.5804596186261435  0.4070213291201412
  0.4643482031967920  0.4185241756432987  0.4085531446897051
  0.4647555435126804  0.5144255353471436  0.4775186910559199
 
  0.00000000E+00  0.00000000E+00  0.00000000E+00
  0.00000000E+00  0.00000000E+00  0.00000000E+00
  0.00000000E+00  0.00000000E+00  0.00000000E+00
  0.00000000E+00  0.00000000E+00  0.00000000E+00
  0.00000000E+00  0.00000000E+00  0.00000000E+00
  0.00000000E+00  0.00000000E+00  0.00000000E+00
  0.00000000E+00  0.00000000E+00  0.00000000E+00
  0.00000000E+00  0.00000000E+00  0.00000000E+00
  0.00000000E+00  0.00000000E+00  0.00000000E+00
  0.00000000E+00  0.00000000E+00  0.00000000E+00
  0.00000000E+00  0.00000000E+00  0.00000000E+00
  0.00000000E+00  0.00000000E+00  0.00000000E+00
  0.00000000E+00  0.00000000E+00  0.00000000E+00
  0.00000000E+00  0.00000000E+00  0.00000000E+00
  0.00000000E+00  0.00000000E+00  0.00000000E+00
  0.00000000E+00  0.00000000E+00  0.00000000E+00
  0.00000000E+00  0.00000000E+00  0.00000000E+00
  0.00000000E+00  0.00000000E+00  0.00000000E+00
  0.00000000E+00  0.00000000E+00  0.00000000E+00
  0.00000000E+00  0.00000000E+00  0.00000000E+00
  0.00000000E+00  0.00000000E+00  0.00000000E+00
  0.00000000E+00  0.00000000E+00  0.00000000E+00
  0.00000000E+00  0.00000000E+00  0.00000000E+00
  0.00000000E+00  0.00000000E+00  0.00000000E+00
  0.00000000E+00  0.00000000E+00  0.00000000E+00
  0.00000000E+00  0.00000000E+00  0.00000000E+00
  0.00000000E+00  0.00000000E+00  0.00000000E+00
  0.00000000E+00  0.00000000E+00  0.00000000E+00
  0.00000000E+00  0.00000000E+00  0.00000000E+00
  0.00000000E+00  0.00000000E+00  0.00000000E+00
  0.00000000E+00  0.00000000E+00  0.00000000E+00
  0.00000000E+00  0.00000000E+00  0.00000000E+00
  0.00000000E+00  0.00000000E+00  0.00000000E+00
  0.00000000E+00  0.00000000E+00  0.00000000E+00
  0.00000000E+00  0.00000000E+00  0.00000000E+00
  0.00000000E+00  0.00000000E+00  0.00000000E+00
  0.00000000E+00  0.00000000E+00  0.00000000E+00
  0.00000000E+00  0.00000000E+00  0.00000000E+00
  0.00000000E+00  0.00000000E+00  0.00000000E+00
  0.00000000E+00  0.00000000E+00  0.00000000E+00
  0.00000000E+00  0.00000000E+00  0.00000000E+00
  0.00000000E+00  0.00000000E+00  0.00000000E+00
  0.00000000E+00  0.00000000E+00  0.00000000E+00
  0.00000000E+00  0.00000000E+00  0.00000000E+00
  0.00000000E+00  0.00000000E+00  0.00000000E+00
  0.00000000E+00  0.00000000E+00  0.00000000E+00
  0.00000000E+00  0.00000000E+00  0.00000000E+00
  0.00000000E+00  0.00000000E+00  0.00000000E+00
  0.00000000E+00  0.00000000E+00  0.00000000E+00
  0.00000000E+00  0.00000000E+00  0.00000000E+00
  0.00000000E+00  0.00000000E+00  0.00000000E+00
  0.00000000E+00  0.00000000E+00  0.00000000E+00
  0.00000000E+00  0.00000000E+00  0.00000000E+00
  0.00000000E+00  0.00000000E+00  0.00000000E+00
  0.00000000E+00  0.00000000E+00  0.00000000E+00
  0.00000000E+00  0.00000000E+00  0.00000000E+00
  0.00000000E+00  0.00000000E+00  0.00000000E+00
  0.00000000E+00  0.00000000E+00  0.00000000E+00
  0.00000000E+00  0.00000000E+00  0.00000000E+00
  0.00000000E+00  0.00000000E+00  0.00000000E+00
  0.00000000E+00  0.00000000E+00  0.00000000E+00
  0.00000000E+00  0.00000000E+00  0.00000000E+00
  0.00000000E+00  0.00000000E+00  0.00000000E+00
  0.00000000E+00  0.00000000E+00  0.00000000E+00
  0.00000000E+00  0.00000000E+00  0.00000000E+00
  0.00000000E+00  0.00000000E+00  0.00000000E+00
  0.00000000E+00  0.00000000E+00  0.00000000E+00
  0.00000000E+00  0.00000000E+00  0.00000000E+00
  0.00000000E+00  0.00000000E+00  0.00000000E+00
  0.00000000E+00  0.00000000E+00  0.00000000E+00
  0.00000000E+00  0.00000000E+00  0.00000000E+00
  0.00000000E+00  0.00000000E+00  0.00000000E+00
  0.00000000E+00  0.00000000E+00  0.00000000E+00
  0.00000000E+00  0.00000000E+00  0.00000000E+00
  0.00000000E+00  0.00000000E+00  0.00000000E+00
  0.00000000E+00  0.00000000E+00  0.00000000E+00
  0.00000000E+00  0.00000000E+00  0.00000000E+00
  0.00000000E+00  0.00000000E+00  0.00000000E+00
  0.00000000E+00  0.00000000E+00  0.00000000E+00
  0.00000000E+00  0.00000000E+00  0.00000000E+00
  0.00000000E+00  0.00000000E+00  0.00000000E+00
  0.00000000E+00  0.00000000E+00  0.00000000E+00
  0.00000000E+00  0.00000000E+00  0.00000000E+00
  0.00000000E+00  0.00000000E+00  0.00000000E+00
  0.00000000E+00  0.00000000E+00  0.00000000E+00
  0.00000000E+00  0.00000000E+00  0.00000000E+00
  0.00000000E+00  0.00000000E+00  0.00000000E+00
  0.00000000E+00  0.00000000E+00  0.00000000E+00
  0.00000000E+00  0.00000000E+00  0.00000000E+00
  0.00000000E+00  0.00000000E+00  0.00000000E+00
  0.00000000E+00  0.00000000E+00  0.00000000E+00
  0.00000000E+00  0.00000000E+00  0.00000000E+00
  0.00000000E+00  0.00000000E+00  0.00000000E+00
  0.00000000E+00  0.00000000E+00  0.00000000E+00
  0.00000000E+00  0.00000000E+00  0.00000000E+00
  0.00000000E+00  0.00000000E+00  0.00000000E+00
  0.00000000E+00  0.00000000E+00  0.00000000E+00
  0.00000000E+00  0.00000000E+00  0.00000000E+00
  0.00000000E+00  0.00000000E+00  0.00000000E+00
  0.00000000E+00  0.00000000E+00  0.00000000E+00
  0.00000000E+00  0.00000000E+00  0.00000000E+00
  0.00000000E+00  0.00000000E+00  0.00000000E+00
  0.00000000E+00  0.00000000E+00  0.00000000E+00
  0.00000000E+00  0.00000000E+00  0.00000000E+00
  0.00000000E+00  0.00000000E+00  0.00000000E+00
  0.00000000E+00  0.00000000E+00  0.00000000E+00
  0.00000000E+00  0.00000000E+00  0.00000000E+00
  0.00000000E+00  0.00000000E+00  0.00000000E+00
  0.00000000E+00  0.00000000E+00  0.00000000E+00
  0.00000000E+00  0.00000000E+00  0.00000000E+00
  0.00000000E+00  0.00000000E+00  0.00000000E+00
  0.00000000E+00  0.00000000E+00  0.00000000E+00
  0.00000000E+00  0.00000000E+00  0.00000000E+00
  0.00000000E+00  0.00000000E+00  0.00000000E+00
  0.00000000E+00  0.00000000E+00  0.00000000E+00
  0.00000000E+00  0.00000000E+00  0.00000000E+00
  0.00000000E+00  0.00000000E+00  0.00000000E+00
  0.00000000E+00  0.00000000E+00  0.00000000E+00
  0.00000000E+00  0.00000000E+00  0.00000000E+00
  0.00000000E+00  0.00000000E+00  0.00000000E+00
  0.00000000E+00  0.00000000E+00  0.00000000E+00
  0.00000000E+00  0.00000000E+00  0.00000000E+00
  0.00000000E+00  0.00000000E+00  0.00000000E+00
  0.00000000E+00  0.00000000E+00  0.00000000E+00
  0.00000000E+00  0.00000000E+00  0.00000000E+00
  0.00000000E+00  0.00000000E+00  0.00000000E+00
  0.00000000E+00  0.00000000E+00  0.00000000E+00
  0.00000000E+00  0.00000000E+00  0.00000000E+00
  0.00000000E+00  0.00000000E+00  0.00000000E+00
