Fe1 H1 C124 N2 O1                       
   1.00000000000000     
    19.8090042070900800   -0.0118473865640680   -0.0681455690736782
    -9.9154195996386054   17.0415142102070227    0.0692391026419513
    -0.1025946129949286    0.0623375169690596   29.8187480338872035
   Fe   H    C    N    O 
     1     1   124     2     1
Direct
  0.4378867506879686  0.4997926612993832  0.4208080980031619
  0.4754633690846133  0.5535064709102084  0.4941281123054653
  0.0422217156952469  0.0841524402577436  0.3998190596613851
  0.0415179132875949  0.2083848044602687  0.3994637703092485
  0.0408494095211874  0.3329565668389406  0.3991502473298160
  0.0406991861404108  0.4582694341630549  0.3990886107659929
  0.0413420582331384  0.5836284284835052  0.3992800972233483
  0.0418925831304055  0.7089570108332554  0.3994312991339626
  0.0422183747785877  0.8342555264354585  0.3995589061532905
  0.0424228681589109  0.9594565046500084  0.3997980078362880
  0.1681525570493214  0.0856724247125899  0.4005124509245822
  0.1679281046392793  0.2104272825885739  0.4005302714482659
  0.1661426206958853  0.3340728420289157  0.4002854270823011
  0.1644360154854476  0.4584822821062627  0.3999742683107727
  0.1653110665816322  0.5836442128078692  0.3997144863654856
  0.1663025276082687  0.7089673572843161  0.3997172424248748
  0.1669176838784425  0.8343109465091398  0.3997896762683756
  0.1674396974706793  0.9598438352834883  0.4000753081851015
  0.2927440109510068  0.0853770681172102  0.4006192898524286
  0.2945526340285607  0.2127309099067207  0.4018354274299986
  0.2939178434261727  0.3384105956684193  0.4028595300199909
  0.2884074270030991  0.4592182059274851  0.4028763686281990
  0.2889912602547896  0.5841133744132626  0.4016762531975336
  0.2906516541953377  0.7088598509528653  0.4005234638346041
  0.2915710469967568  0.8340023550129722  0.4000197749187298
  0.2920243940453839  0.9594035031173651  0.4000574180817316
  0.4171346060913068  0.0839731843938379  0.4001248724854242
  0.4178587781263269  0.2100190695584937  0.4010340131248794
  0.4213269283226435  0.3385392797679369  0.4035200905706466
  0.4147540021200531  0.7061480669223138  0.4021994587360202
  0.4160783844206666  0.8324404235026149  0.4006507543693105
  0.4166282887909205  0.9582122958486013  0.4000781856249742
  0.5415988215578359  0.0824948119831653  0.3999996785825072
  0.5421896605857147  0.2078320914899515  0.4001237272270195
  0.5434308546027711  0.3329084931785085  0.4012257714078573
  0.5449118973949888  0.4565149662531822  0.4031605776273126
  0.5432728420836168  0.5787000296990580  0.4048846420754439
  0.5382337973043257  0.7028062016998523  0.4032908276227548
  0.5402847345172646  0.8306738571601727  0.4015284101891485
  0.5411801953584248  0.9568869697894240  0.4004649716484278
  0.6662461778233523  0.0819979651979655  0.4000768778927667
  0.6667637559482527  0.2073993041245835  0.3998027611314685
  0.6675760252750689  0.3326958127302886  0.3998827107661678
  0.6690496157760598  0.4580590319566387  0.4002900322865741
  0.6692312096267535  0.5826464443862307  0.4006449045562875
  0.6655871630062418  0.7057613787858551  0.4007657416870032
  0.6647565521493995  0.8302915009235693  0.4011506939139208
  0.6656965760208041  0.9563849194470848  0.4006946444743925
  0.7910529886856197  0.0820547487162538  0.3998398382708127
  0.7913528409276898  0.2073352194620023  0.3994942756603406
  0.7919271744402842  0.3327426975927831  0.3994035346438992
  0.7927143887825931  0.4581521028142906  0.3993053163509660
  0.7932727962519374  0.5833876886939919  0.3992832313282447
  0.7923170720961928  0.7081965011619268  0.3995247965079682
  0.7910348842047843  0.8322276444302529  0.4000018724204256
  0.7906576350765107  0.9567609047863039  0.4001937319311204
  0.9162714753353288  0.0827092771731404  0.3995318097851086
  0.9161590628598295  0.2075826284955425  0.3992096523949403
  0.9162788268295824  0.3327934393905951  0.3991056599358533
  0.9166642571289663  0.4581445177553503  0.3991429987516414
  0.9173141445763539  0.5835893776518279  0.3991852849274640
  0.9173375190288061  0.7088420188204424  0.3992460111017927
  0.9170636105103740  0.8336970590280032  0.3994629736959026
  0.9166141569861972  0.9581942345768967  0.3997221804256877
  0.0844288549148387  0.0431845728139972  0.4000355773463655
  0.0840909592107458  0.1677406105510049  0.3998734005618303
  0.0828180612572343  0.2917801453022019  0.3994970515319606
  0.0818248359498593  0.4165215196911279  0.3992277163705177
  0.0823852549006688  0.5417701986124348  0.3992616173442554
  0.0831495887439427  0.6671874022649245  0.3994745249019662
  0.0837103190154539  0.7925831564957250  0.3995930001448883
  0.0840215308689982  0.9178746136089263  0.3998130062841547
  0.2093770265646480  0.0435481729183825  0.4004658811356991
  0.2103498513994807  0.1696456776375769  0.4009943243060583
  0.2095911881960531  0.2942003444813228  0.4009129202643460
  0.2059112777876382  0.4172708202652015  0.4007511213887903
  0.2060652119070540  0.5418369137547745  0.4003411137505985
  0.2075136376406152  0.6672009825955814  0.3999459643856221
  0.2083113113649172  0.7925088838441834  0.3998509976450887
  0.2088091857090473  0.9179000934563404  0.3999744798913225
  0.3338859177840526  0.0430320560448717  0.4002380015284283
  0.3348210752862867  0.1692580564240950  0.4011932647269295
  0.3368981374621587  0.2970940791891806  0.4031771605987038
  0.3319343482660357  0.4211934110014200  0.4054164669630765
  0.3301899369891868  0.5432999541166678  0.4033456610549371
  0.3316782717448654  0.6669809800950968  0.4015133782225032
  0.3328845160973156  0.7920735177789651  0.4003557121887455
  0.3334598654035631  0.9174144682519859  0.4000223443321257
  0.4584357348266512  0.0417070544230122  0.4000112652764389
  0.4589917387572668  0.1674731180834812  0.4003366852547863
  0.4603763529422897  0.2937439383403616  0.4018096560742638
  0.4538476065149220  0.6613348357190562  0.4037600396571093
  0.4572279487795410  0.7898830457152127  0.4014241350374015
  0.4579192249774928  0.9159396152163292  0.4003573921494328
  0.5830325297285179  0.0404998561307728  0.4001622704291363
  0.5834950936892944  0.1659116939905772  0.3999280375592857
  0.5844504337114792  0.2910351134681182  0.4003076867062350
  0.5861250847966630  0.4157618570813138  0.4014975395243192
  0.5867570281435563  0.5406594318488492  0.4026220732683954
  0.5812886115395638  0.6615166288326828  0.4026842726651945
  0.5805704292909859  0.7872119090222121  0.4020431980758620
  0.5823426611687597  0.9145504561644080  0.4009067727872265
  0.7076488157638785  0.0400919547438937  0.4002146015289214
  0.7081571390849618  0.1656021460776452  0.3997821111931376
  0.7087893163480206  0.2909459753181092  0.3996624135993631
  0.7097869987209107  0.4162641191923420  0.3997173837352461
  0.7106778524283287  0.5414219317212490  0.3999542553984621
  0.7089885032298934  0.6658719582578816  0.4001542129681731
  0.7072244737438820  0.7895297487868245  0.4005839022895872
  0.7069432691245272  0.9142702790894561  0.4007177800899859
  0.8326846582477350  0.0404985997763184  0.3998414081804336
  0.8328752884910551  0.1656891925289461  0.3994548753816689
  0.8331917320275123  0.2909664648772380  0.3992930078931674
  0.8337475668318016  0.4162958128062452  0.3992537732598461
  0.8344056322274738  0.5416624373102799  0.3991799129115770
  0.8342470486230597  0.6669807426192739  0.3992483192194092
  0.8335946585580201  0.7915652640851241  0.3995747837078615
  0.8328911648476366  0.9158116951648082  0.3999785048425855
  0.9584926663069079  0.0417736784556879  0.3996396562744328
  0.9580403092425778  0.1662660344579804  0.3992960427190249
  0.9577703946178622  0.2911191747143853  0.3990569985604488
  0.9577879292395748  0.4163544091352946  0.3990652041334208
  0.9584123560519682  0.5417772283563101  0.3991745822999601
  0.9588060028124346  0.6671562043405955  0.3992672223655849
  0.9589148375237974  0.7923680027738986  0.3993846783416283
  0.9588227408728911  0.9172535777876937  0.3996378408135106
  0.4098497918447002  0.5802374991028093  0.4052233803703131
  0.4653323003606905  0.4195370710174262  0.4050857326378932
  0.4401874358442925  0.5016085581517858  0.4818553221229722
 
  0.00000000E+00  0.00000000E+00  0.00000000E+00
  0.00000000E+00  0.00000000E+00  0.00000000E+00
  0.00000000E+00  0.00000000E+00  0.00000000E+00
  0.00000000E+00  0.00000000E+00  0.00000000E+00
  0.00000000E+00  0.00000000E+00  0.00000000E+00
  0.00000000E+00  0.00000000E+00  0.00000000E+00
  0.00000000E+00  0.00000000E+00  0.00000000E+00
  0.00000000E+00  0.00000000E+00  0.00000000E+00
  0.00000000E+00  0.00000000E+00  0.00000000E+00
  0.00000000E+00  0.00000000E+00  0.00000000E+00
  0.00000000E+00  0.00000000E+00  0.00000000E+00
  0.00000000E+00  0.00000000E+00  0.00000000E+00
  0.00000000E+00  0.00000000E+00  0.00000000E+00
  0.00000000E+00  0.00000000E+00  0.00000000E+00
  0.00000000E+00  0.00000000E+00  0.00000000E+00
  0.00000000E+00  0.00000000E+00  0.00000000E+00
  0.00000000E+00  0.00000000E+00  0.00000000E+00
  0.00000000E+00  0.00000000E+00  0.00000000E+00
  0.00000000E+00  0.00000000E+00  0.00000000E+00
  0.00000000E+00  0.00000000E+00  0.00000000E+00
  0.00000000E+00  0.00000000E+00  0.00000000E+00
  0.00000000E+00  0.00000000E+00  0.00000000E+00
  0.00000000E+00  0.00000000E+00  0.00000000E+00
  0.00000000E+00  0.00000000E+00  0.00000000E+00
  0.00000000E+00  0.00000000E+00  0.00000000E+00
  0.00000000E+00  0.00000000E+00  0.00000000E+00
  0.00000000E+00  0.00000000E+00  0.00000000E+00
  0.00000000E+00  0.00000000E+00  0.00000000E+00
  0.00000000E+00  0.00000000E+00  0.00000000E+00
  0.00000000E+00  0.00000000E+00  0.00000000E+00
  0.00000000E+00  0.00000000E+00  0.00000000E+00
  0.00000000E+00  0.00000000E+00  0.00000000E+00
  0.00000000E+00  0.00000000E+00  0.00000000E+00
  0.00000000E+00  0.00000000E+00  0.00000000E+00
  0.00000000E+00  0.00000000E+00  0.00000000E+00
  0.00000000E+00  0.00000000E+00  0.00000000E+00
  0.00000000E+00  0.00000000E+00  0.00000000E+00
  0.00000000E+00  0.00000000E+00  0.00000000E+00
  0.00000000E+00  0.00000000E+00  0.00000000E+00
  0.00000000E+00  0.00000000E+00  0.00000000E+00
  0.00000000E+00  0.00000000E+00  0.00000000E+00
  0.00000000E+00  0.00000000E+00  0.00000000E+00
  0.00000000E+00  0.00000000E+00  0.00000000E+00
  0.00000000E+00  0.00000000E+00  0.00000000E+00
  0.00000000E+00  0.00000000E+00  0.00000000E+00
  0.00000000E+00  0.00000000E+00  0.00000000E+00
  0.00000000E+00  0.00000000E+00  0.00000000E+00
  0.00000000E+00  0.00000000E+00  0.00000000E+00
  0.00000000E+00  0.00000000E+00  0.00000000E+00
  0.00000000E+00  0.00000000E+00  0.00000000E+00
  0.00000000E+00  0.00000000E+00  0.00000000E+00
  0.00000000E+00  0.00000000E+00  0.00000000E+00
  0.00000000E+00  0.00000000E+00  0.00000000E+00
  0.00000000E+00  0.00000000E+00  0.00000000E+00
  0.00000000E+00  0.00000000E+00  0.00000000E+00
  0.00000000E+00  0.00000000E+00  0.00000000E+00
  0.00000000E+00  0.00000000E+00  0.00000000E+00
  0.00000000E+00  0.00000000E+00  0.00000000E+00
  0.00000000E+00  0.00000000E+00  0.00000000E+00
  0.00000000E+00  0.00000000E+00  0.00000000E+00
  0.00000000E+00  0.00000000E+00  0.00000000E+00
  0.00000000E+00  0.00000000E+00  0.00000000E+00
  0.00000000E+00  0.00000000E+00  0.00000000E+00
  0.00000000E+00  0.00000000E+00  0.00000000E+00
  0.00000000E+00  0.00000000E+00  0.00000000E+00
  0.00000000E+00  0.00000000E+00  0.00000000E+00
  0.00000000E+00  0.00000000E+00  0.00000000E+00
  0.00000000E+00  0.00000000E+00  0.00000000E+00
  0.00000000E+00  0.00000000E+00  0.00000000E+00
  0.00000000E+00  0.00000000E+00  0.00000000E+00
  0.00000000E+00  0.00000000E+00  0.00000000E+00
  0.00000000E+00  0.00000000E+00  0.00000000E+00
  0.00000000E+00  0.00000000E+00  0.00000000E+00
  0.00000000E+00  0.00000000E+00  0.00000000E+00
  0.00000000E+00  0.00000000E+00  0.00000000E+00
  0.00000000E+00  0.00000000E+00  0.00000000E+00
  0.00000000E+00  0.00000000E+00  0.00000000E+00
  0.00000000E+00  0.00000000E+00  0.00000000E+00
  0.00000000E+00  0.00000000E+00  0.00000000E+00
  0.00000000E+00  0.00000000E+00  0.00000000E+00
  0.00000000E+00  0.00000000E+00  0.00000000E+00
  0.00000000E+00  0.00000000E+00  0.00000000E+00
  0.00000000E+00  0.00000000E+00  0.00000000E+00
  0.00000000E+00  0.00000000E+00  0.00000000E+00
  0.00000000E+00  0.00000000E+00  0.00000000E+00
  0.00000000E+00  0.00000000E+00  0.00000000E+00
  0.00000000E+00  0.00000000E+00  0.00000000E+00
  0.00000000E+00  0.00000000E+00  0.00000000E+00
  0.00000000E+00  0.00000000E+00  0.00000000E+00
  0.00000000E+00  0.00000000E+00  0.00000000E+00
  0.00000000E+00  0.00000000E+00  0.00000000E+00
  0.00000000E+00  0.00000000E+00  0.00000000E+00
  0.00000000E+00  0.00000000E+00  0.00000000E+00
  0.00000000E+00  0.00000000E+00  0.00000000E+00
  0.00000000E+00  0.00000000E+00  0.00000000E+00
  0.00000000E+00  0.00000000E+00  0.00000000E+00
  0.00000000E+00  0.00000000E+00  0.00000000E+00
  0.00000000E+00  0.00000000E+00  0.00000000E+00
  0.00000000E+00  0.00000000E+00  0.00000000E+00
  0.00000000E+00  0.00000000E+00  0.00000000E+00
  0.00000000E+00  0.00000000E+00  0.00000000E+00
  0.00000000E+00  0.00000000E+00  0.00000000E+00
  0.00000000E+00  0.00000000E+00  0.00000000E+00
  0.00000000E+00  0.00000000E+00  0.00000000E+00
  0.00000000E+00  0.00000000E+00  0.00000000E+00
  0.00000000E+00  0.00000000E+00  0.00000000E+00
  0.00000000E+00  0.00000000E+00  0.00000000E+00
  0.00000000E+00  0.00000000E+00  0.00000000E+00
  0.00000000E+00  0.00000000E+00  0.00000000E+00
  0.00000000E+00  0.00000000E+00  0.00000000E+00
  0.00000000E+00  0.00000000E+00  0.00000000E+00
  0.00000000E+00  0.00000000E+00  0.00000000E+00
  0.00000000E+00  0.00000000E+00  0.00000000E+00
  0.00000000E+00  0.00000000E+00  0.00000000E+00
  0.00000000E+00  0.00000000E+00  0.00000000E+00
  0.00000000E+00  0.00000000E+00  0.00000000E+00
  0.00000000E+00  0.00000000E+00  0.00000000E+00
  0.00000000E+00  0.00000000E+00  0.00000000E+00
  0.00000000E+00  0.00000000E+00  0.00000000E+00
  0.00000000E+00  0.00000000E+00  0.00000000E+00
  0.00000000E+00  0.00000000E+00  0.00000000E+00
  0.00000000E+00  0.00000000E+00  0.00000000E+00
  0.00000000E+00  0.00000000E+00  0.00000000E+00
  0.00000000E+00  0.00000000E+00  0.00000000E+00
  0.00000000E+00  0.00000000E+00  0.00000000E+00
  0.00000000E+00  0.00000000E+00  0.00000000E+00
  0.00000000E+00  0.00000000E+00  0.00000000E+00
  0.00000000E+00  0.00000000E+00  0.00000000E+00
  0.00000000E+00  0.00000000E+00  0.00000000E+00
