H1 Os1 C123 N3                          
   1.00000000000000     
    19.8328456937953135    0.0200705562326479    0.1149356642519068
    -9.8986634233722821   17.0139436642778890   -0.2849636885243722
     0.1733241530042839   -0.3983927677902273   29.8090876356404770
   H    Os   C    N 
     1     1   123     3
Direct
  0.4422935573956044  0.4700831153141203  0.4732299885395441
  0.4367303723091234  0.5003086318788951  0.4239059162210999
  0.0417676046201399  0.0843798773252722  0.3996265237607254
  0.0402192300694202  0.2080755914122573  0.3997032015014895
  0.0393693439730619  0.3327133712012587  0.3993724358188964
  0.0399635728721372  0.4582141179688544  0.3993343183058203
  0.0414750105649581  0.5839974679787132  0.3997049011791118
  0.0426974349408666  0.7096914896357787  0.3997906747980198
  0.0429734351884650  0.8351094951837716  0.3996405224879984
  0.0427479032836435  0.9601390506244059  0.3994914866643678
  0.1679291937457208  0.0862216356712430  0.4002034213046481
  0.1669401558582078  0.2105711887610293  0.4005388681975625
  0.1637871804067890  0.3333679800336552  0.4006107714705878
  0.1630588602993204  0.4581069615698113  0.3985891310650147
  0.1648235958208253  0.5836208538965181  0.3990016545788804
  0.1666554235532442  0.7092624916032705  0.3998298237596470
  0.1675002507394484  0.8349309514354306  0.3998843392952086
  0.1678561085103432  0.9606297894389767  0.3997721025258235
  0.2927758579804104  0.0863609284711222  0.4002177550550402
  0.2934530080125737  0.2135395362547738  0.4020823716313972
  0.2910447141986942  0.3387139799273344  0.4057610057920183
  0.2853121673186889  0.4574832865632450  0.4027236930658027
  0.2877400321338711  0.5826305855179418  0.3984620776782045
  0.2906865529632972  0.7083079581934327  0.3987633271678700
  0.2918432515478747  0.8341175644059698  0.3997219977771131
  0.2923498260250854  0.9600860803738126  0.3997886519518384
  0.4171252646437608  0.0846824845993837  0.3998569072674820
  0.4177709197136095  0.2112830107047958  0.4005892257367861
  0.4195630743267840  0.3390220140502828  0.4039754146650407
  0.4146890250194165  0.7054464337936708  0.3989306632232549
  0.4160565019557257  0.8321126642832684  0.3994765968504226
  0.4166611666116836  0.9584097861020858  0.3997885770379515
  0.5413778858068569  0.0828098173668372  0.3998056780178177
  0.5420378730297033  0.2087797060137958  0.3995703058657907
  0.5436282273543291  0.3348172342953045  0.4000525302989612
  0.5492647096862431  0.4612324557438713  0.4036498866815388
  0.5381953013015762  0.7009254386392773  0.4027563544038921
  0.5401971414226812  0.8297022263766305  0.3999506993385572
  0.5409337566218712  0.9565420726412416  0.3998663169610168
  0.6657105729836534  0.0818850607804596  0.4000474719674017
  0.6663664898115116  0.2076481535215877  0.3995810080870147
  0.6676429898876219  0.3334151305227019  0.3990805218631756
  0.6705901008439891  0.4592665648990139  0.3990596841224298
  0.6722947186307510  0.5849791385550613  0.4009187115915155
  0.6669785732608225  0.7063240784534323  0.4014736936833148
  0.6645383343253829  0.8299164992250786  0.4004793932459186
  0.6652721274587916  0.9560255210822777  0.4001249446903958
  0.7902928585865723  0.0817965685478238  0.4000220558005601
  0.7906146405206427  0.2072569873079869  0.3997294604781462
  0.7915650158521910  0.3329064968945899  0.3993711661674319
  0.7934021620845380  0.4586957226224745  0.3987892134308853
  0.7948642147731877  0.5844583637087657  0.3986211554672190
  0.7941486485030967  0.7095225418699912  0.3995961908429141
  0.7914395802821527  0.8325484660239324  0.3995322036742228
  0.7902185902312316  0.9565813708501248  0.3997937646809309
  0.9155018704777435  0.0825116748002709  0.3996250037502316
  0.9150680499299361  0.2072958236249240  0.3997047724505001
  0.9154113919166016  0.3327013282652666  0.3995692286914430
  0.9166753998116643  0.4584723733714541  0.3994169024293974
  0.9181289821989616  0.5842764608270126  0.3991369257633344
  0.9185815782605974  0.7097453692959597  0.3992462580201187
  0.9179592661691044  0.8346293794043683  0.3993833140580446
  0.9165781058190172  0.9585090131753881  0.3994479908751302
  0.0844140584822243  0.0437622917260669  0.3996802552266125
  0.0833122238280308  0.1679048516477405  0.3998090161044137
  0.0811769279638621  0.2913557331034575  0.3997890887953818
  0.0806414432081012  0.4161286627561299  0.3989597467462863
  0.0820565204682266  0.5418560614995238  0.3994117027486750
  0.0836464564216615  0.6676373349050005  0.3999139847026203
  0.0844641458514982  0.7933090950368578  0.3998198136859171
  0.0846104765176695  0.9187134032922272  0.3996143552946398
  0.2095652099926230  0.0443982382896968  0.4000881552582287
  0.2097584501300680  0.1701671419834458  0.4010183695389562
  0.2078842732385965  0.2942870573234043  0.4016048328805590
  0.2039338336762616  0.4163767487724227  0.3998571996627081
  0.2049877991946290  0.5412226109711450  0.3986461179048883
  0.2075017322196817  0.6671256865355274  0.3991941381926865
  0.2087063098696377  0.7928991354863314  0.3998926764552957
  0.2093030556454518  0.9186626791479758  0.3997870629073387
  0.3340303701994010  0.0438912213829258  0.3998799429830132
  0.3346347404746379  0.1706104332391135  0.4009386886942269
  0.3357766417579715  0.2984253067102747  0.4046913605900570
  0.3280201937411577  0.5410943269043992  0.3997168281820133
  0.3313804079647762  0.6659813814686578  0.3982639564590230
  0.3329794434427091  0.7918175135815663  0.3993061639257332
  0.3336448871540129  0.9177370537689313  0.3997894663770734
  0.4583653509175761  0.0421260232136276  0.3997953132540094
  0.4589150277043196  0.1684320627097112  0.3999183103316680
  0.4599150211547917  0.2953141258731638  0.4011421435156582
  0.4665076026094302  0.4240608784441444  0.4082981177305975
  0.4537946225574948  0.6606928471380291  0.4001915618959143
  0.4571692113633656  0.7893424615768037  0.3994506992821795
  0.4578639147867669  0.9158405730149234  0.3997536560361186
  0.5826588071487619  0.0404223862669027  0.3999584096390981
  0.5831925910285599  0.1664950981435246  0.3996088540259568
  0.5842710973455729  0.2924343916882137  0.3993614392009571
  0.5879695657323936  0.4183303062992790  0.4002823809474048
  0.5915051126405974  0.5441364112498438  0.4054752634351305
  0.5836027560395233  0.6615525606754044  0.4054832193467646
  0.5806380885174852  0.7861300956382051  0.4009626364826093
  0.5820963949785348  0.9139356067062566  0.3999163750313461
  0.7070736744516312  0.0398288339414391  0.4001452686963324
  0.7075594021328666  0.1656507846439783  0.3997983216329264
  0.7084348193367713  0.2913019487609166  0.3993228712976073
  0.7106388471408960  0.4168814298660838  0.3987805961063450
  0.7125291897176651  0.5424912156756446  0.3989665551041694
  0.7117027816258285  0.6677349428160573  0.4007947603155537
  0.7076959894516356  0.7897955570631243  0.4000996126011352
  0.7065802039523973  0.9139844667909378  0.4000816958419633
  0.8320633199994666  0.0402834017603592  0.3998191947017404
  0.8320198254559980  0.1654481418477602  0.3998543477934401
  0.8324890579940545  0.2908588119044436  0.3995600955753740
  0.8338938236497776  0.4165559015241688  0.3991863980283502
  0.8354721687646109  0.5423517558979618  0.3987048255542356
  0.8358533381506034  0.6679270269037977  0.3990752466420922
  0.8348087276157340  0.7926404707057157  0.3994316591082362
  0.8329660422195985  0.9160571900682813  0.3995453047838992
  0.9581729798999287  0.0419486144361784  0.3995199744402679
  0.9570172601950132  0.1659635300755617  0.3996229581405962
  0.9566457461070599  0.2908763859297089  0.3995632980782959
  0.9572635084293137  0.4163133852190968  0.3995510278020252
  0.9587355809335341  0.5421215651964666  0.3994531166040530
  0.9598199864685789  0.6679051190012026  0.3993499151873904
  0.9599465018883724  0.7932970852556858  0.3994645375577374
  0.9593622975876516  0.9179878567382271  0.3993973541976764
  0.4083970489454176  0.5791728293863180  0.3994746477488844
  0.5490139603397480  0.5818276996652262  0.4126196925079539
  0.3270363971319202  0.4198968378735370  0.4112932667060594
 
  0.00000000E+00  0.00000000E+00  0.00000000E+00
  0.00000000E+00  0.00000000E+00  0.00000000E+00
  0.00000000E+00  0.00000000E+00  0.00000000E+00
  0.00000000E+00  0.00000000E+00  0.00000000E+00
  0.00000000E+00  0.00000000E+00  0.00000000E+00
  0.00000000E+00  0.00000000E+00  0.00000000E+00
  0.00000000E+00  0.00000000E+00  0.00000000E+00
  0.00000000E+00  0.00000000E+00  0.00000000E+00
  0.00000000E+00  0.00000000E+00  0.00000000E+00
  0.00000000E+00  0.00000000E+00  0.00000000E+00
  0.00000000E+00  0.00000000E+00  0.00000000E+00
  0.00000000E+00  0.00000000E+00  0.00000000E+00
  0.00000000E+00  0.00000000E+00  0.00000000E+00
  0.00000000E+00  0.00000000E+00  0.00000000E+00
  0.00000000E+00  0.00000000E+00  0.00000000E+00
  0.00000000E+00  0.00000000E+00  0.00000000E+00
  0.00000000E+00  0.00000000E+00  0.00000000E+00
  0.00000000E+00  0.00000000E+00  0.00000000E+00
  0.00000000E+00  0.00000000E+00  0.00000000E+00
  0.00000000E+00  0.00000000E+00  0.00000000E+00
  0.00000000E+00  0.00000000E+00  0.00000000E+00
  0.00000000E+00  0.00000000E+00  0.00000000E+00
  0.00000000E+00  0.00000000E+00  0.00000000E+00
  0.00000000E+00  0.00000000E+00  0.00000000E+00
  0.00000000E+00  0.00000000E+00  0.00000000E+00
  0.00000000E+00  0.00000000E+00  0.00000000E+00
  0.00000000E+00  0.00000000E+00  0.00000000E+00
  0.00000000E+00  0.00000000E+00  0.00000000E+00
  0.00000000E+00  0.00000000E+00  0.00000000E+00
  0.00000000E+00  0.00000000E+00  0.00000000E+00
  0.00000000E+00  0.00000000E+00  0.00000000E+00
  0.00000000E+00  0.00000000E+00  0.00000000E+00
  0.00000000E+00  0.00000000E+00  0.00000000E+00
  0.00000000E+00  0.00000000E+00  0.00000000E+00
  0.00000000E+00  0.00000000E+00  0.00000000E+00
  0.00000000E+00  0.00000000E+00  0.00000000E+00
  0.00000000E+00  0.00000000E+00  0.00000000E+00
  0.00000000E+00  0.00000000E+00  0.00000000E+00
  0.00000000E+00  0.00000000E+00  0.00000000E+00
  0.00000000E+00  0.00000000E+00  0.00000000E+00
  0.00000000E+00  0.00000000E+00  0.00000000E+00
  0.00000000E+00  0.00000000E+00  0.00000000E+00
  0.00000000E+00  0.00000000E+00  0.00000000E+00
  0.00000000E+00  0.00000000E+00  0.00000000E+00
  0.00000000E+00  0.00000000E+00  0.00000000E+00
  0.00000000E+00  0.00000000E+00  0.00000000E+00
  0.00000000E+00  0.00000000E+00  0.00000000E+00
  0.00000000E+00  0.00000000E+00  0.00000000E+00
  0.00000000E+00  0.00000000E+00  0.00000000E+00
  0.00000000E+00  0.00000000E+00  0.00000000E+00
  0.00000000E+00  0.00000000E+00  0.00000000E+00
  0.00000000E+00  0.00000000E+00  0.00000000E+00
  0.00000000E+00  0.00000000E+00  0.00000000E+00
  0.00000000E+00  0.00000000E+00  0.00000000E+00
  0.00000000E+00  0.00000000E+00  0.00000000E+00
  0.00000000E+00  0.00000000E+00  0.00000000E+00
  0.00000000E+00  0.00000000E+00  0.00000000E+00
  0.00000000E+00  0.00000000E+00  0.00000000E+00
  0.00000000E+00  0.00000000E+00  0.00000000E+00
  0.00000000E+00  0.00000000E+00  0.00000000E+00
  0.00000000E+00  0.00000000E+00  0.00000000E+00
  0.00000000E+00  0.00000000E+00  0.00000000E+00
  0.00000000E+00  0.00000000E+00  0.00000000E+00
  0.00000000E+00  0.00000000E+00  0.00000000E+00
  0.00000000E+00  0.00000000E+00  0.00000000E+00
  0.00000000E+00  0.00000000E+00  0.00000000E+00
  0.00000000E+00  0.00000000E+00  0.00000000E+00
  0.00000000E+00  0.00000000E+00  0.00000000E+00
  0.00000000E+00  0.00000000E+00  0.00000000E+00
  0.00000000E+00  0.00000000E+00  0.00000000E+00
  0.00000000E+00  0.00000000E+00  0.00000000E+00
  0.00000000E+00  0.00000000E+00  0.00000000E+00
  0.00000000E+00  0.00000000E+00  0.00000000E+00
  0.00000000E+00  0.00000000E+00  0.00000000E+00
  0.00000000E+00  0.00000000E+00  0.00000000E+00
  0.00000000E+00  0.00000000E+00  0.00000000E+00
  0.00000000E+00  0.00000000E+00  0.00000000E+00
  0.00000000E+00  0.00000000E+00  0.00000000E+00
  0.00000000E+00  0.00000000E+00  0.00000000E+00
  0.00000000E+00  0.00000000E+00  0.00000000E+00
  0.00000000E+00  0.00000000E+00  0.00000000E+00
  0.00000000E+00  0.00000000E+00  0.00000000E+00
  0.00000000E+00  0.00000000E+00  0.00000000E+00
  0.00000000E+00  0.00000000E+00  0.00000000E+00
  0.00000000E+00  0.00000000E+00  0.00000000E+00
  0.00000000E+00  0.00000000E+00  0.00000000E+00
  0.00000000E+00  0.00000000E+00  0.00000000E+00
  0.00000000E+00  0.00000000E+00  0.00000000E+00
  0.00000000E+00  0.00000000E+00  0.00000000E+00
  0.00000000E+00  0.00000000E+00  0.00000000E+00
  0.00000000E+00  0.00000000E+00  0.00000000E+00
  0.00000000E+00  0.00000000E+00  0.00000000E+00
  0.00000000E+00  0.00000000E+00  0.00000000E+00
  0.00000000E+00  0.00000000E+00  0.00000000E+00
  0.00000000E+00  0.00000000E+00  0.00000000E+00
  0.00000000E+00  0.00000000E+00  0.00000000E+00
  0.00000000E+00  0.00000000E+00  0.00000000E+00
  0.00000000E+00  0.00000000E+00  0.00000000E+00
  0.00000000E+00  0.00000000E+00  0.00000000E+00
  0.00000000E+00  0.00000000E+00  0.00000000E+00
  0.00000000E+00  0.00000000E+00  0.00000000E+00
  0.00000000E+00  0.00000000E+00  0.00000000E+00
  0.00000000E+00  0.00000000E+00  0.00000000E+00
  0.00000000E+00  0.00000000E+00  0.00000000E+00
  0.00000000E+00  0.00000000E+00  0.00000000E+00
  0.00000000E+00  0.00000000E+00  0.00000000E+00
  0.00000000E+00  0.00000000E+00  0.00000000E+00
  0.00000000E+00  0.00000000E+00  0.00000000E+00
  0.00000000E+00  0.00000000E+00  0.00000000E+00
  0.00000000E+00  0.00000000E+00  0.00000000E+00
  0.00000000E+00  0.00000000E+00  0.00000000E+00
  0.00000000E+00  0.00000000E+00  0.00000000E+00
  0.00000000E+00  0.00000000E+00  0.00000000E+00
  0.00000000E+00  0.00000000E+00  0.00000000E+00
  0.00000000E+00  0.00000000E+00  0.00000000E+00
  0.00000000E+00  0.00000000E+00  0.00000000E+00
  0.00000000E+00  0.00000000E+00  0.00000000E+00
  0.00000000E+00  0.00000000E+00  0.00000000E+00
  0.00000000E+00  0.00000000E+00  0.00000000E+00
  0.00000000E+00  0.00000000E+00  0.00000000E+00
  0.00000000E+00  0.00000000E+00  0.00000000E+00
  0.00000000E+00  0.00000000E+00  0.00000000E+00
  0.00000000E+00  0.00000000E+00  0.00000000E+00
  0.00000000E+00  0.00000000E+00  0.00000000E+00
  0.00000000E+00  0.00000000E+00  0.00000000E+00
  0.00000000E+00  0.00000000E+00  0.00000000E+00
  0.00000000E+00  0.00000000E+00  0.00000000E+00
  0.00000000E+00  0.00000000E+00  0.00000000E+00
