V1 H1 C125 N1 O2                        
   1.00000000000000     
    19.7883912811463283   -0.0124556652238613   -0.2034235250241811
    -9.9034123779147283   17.0630962477590487    0.0213780945686341
    -0.3059420975046761   -0.1402851604119565   29.8158986362963248
   V    H    C    N    O 
     1     1   125     1     2
Direct
  0.4331420864431417  0.5014254274677559  0.4315443386641434
  0.5331220591201953  0.5592975265358018  0.5025163402580082
  0.0421196200001784  0.0839584795062245  0.3992901902518640
  0.0417625594891833  0.2085689523740950  0.3993127040827006
  0.0413733850652809  0.3332038370679884  0.3997270537414989
  0.0413535190876274  0.4584133512748268  0.3995811157863403
  0.0417282389450547  0.5836411511797740  0.3991543212732886
  0.0420931002158256  0.7088897538013557  0.3990132282263585
  0.0423201119613923  0.8341434690351309  0.3992180651417127
  0.0423383741442404  0.9591737014060280  0.3993466707480423
  0.1676464899445672  0.0848611932906507  0.3998694168329114
  0.1676081762437797  0.2098244737113972  0.3999258820407457
  0.1668795528867570  0.3342754167049798  0.4005490628844914
  0.1656660186798097  0.4586438141723548  0.4013577552367474
  0.1660105916564784  0.5837144542029965  0.4003917554393450
  0.1666490402768132  0.7089583983077825  0.3995196058827603
  0.1671038431693186  0.8342187786901102  0.3994504053124285
  0.1674307978145677  0.9595020317424597  0.3997247176107337
  0.2926948282994058  0.0848899181990483  0.4002396387023331
  0.2934869007904032  0.2111478849419116  0.4015234363735805
  0.2935908118974664  0.3366612863477797  0.4015695414555875
  0.2908829388244604  0.4593618883205337  0.4022158053532604
  0.2900759043694116  0.5843520165626851  0.4018722756061436
  0.2912003662768480  0.7090358111153781  0.4001548580135180
  0.2918307334792015  0.8340229700159677  0.3994852393483823
  0.2921801374449614  0.9592765225543487  0.3996268648416452
  0.4172827694176564  0.0839737111492217  0.3995904988710113
  0.4178319128520622  0.2097483652598050  0.4008553559921766
  0.4196272107352145  0.3370543756733360  0.4050364703539006
  0.4155641830641856  0.7073115214571482  0.4007846655449055
  0.4164772199942713  0.8330265655211901  0.3996269858328221
  0.4168720484516114  0.9584637434940781  0.3993894044238988
  0.5418767129514077  0.0829082308112174  0.3993283423256088
  0.5423831999015302  0.2081968443223096  0.3995941427897129
  0.5431326801544641  0.3332851590751268  0.4017324155942611
  0.5449552784590908  0.4575922625691571  0.4061197752099071
  0.5437400129611422  0.5798529536004186  0.4086075035190633
  0.5392931202678293  0.7043337392606350  0.4032496282707431
  0.5409374446204624  0.8316021862289559  0.4005052995657646
  0.5415718807424500  0.9575061844490768  0.3996246583020680
  0.6666280203081085  0.0825483013867368  0.3995465549997953
  0.6669724114888409  0.2077482675106226  0.3992279540329648
  0.6675548362585866  0.3328957653787758  0.3996569832900748
  0.6687958142438363  0.4581573632253239  0.4008364784246733
  0.6694195935036691  0.5834381532109181  0.4019911802733507
  0.6660052979865361  0.7063519943051122  0.4016566935208613
  0.6654512220160558  0.8311627299791893  0.4009088888586570
  0.6662222855620066  0.9571108922531396  0.4000777658352491
  0.7914215786127360  0.0825103125032875  0.3995926020831623
  0.7916407054699799  0.2076798522536872  0.3992068643041693
  0.7920742822969524  0.3329443932024722  0.3990363329243745
  0.7927609680241673  0.4583030474388539  0.3992194208401569
  0.7931793716143394  0.5834618313859166  0.3994800655120147
  0.7926302286070881  0.7085478929878414  0.3996015315253144
  0.7913279338412806  0.8325382976589584  0.3996113426269320
  0.7910831707687170  0.9572649169407645  0.3997277184341392
  0.9165355926663520  0.0829996632723283  0.3992085778807986
  0.9164777316594949  0.2079074331408104  0.3992059254164300
  0.9166061282005543  0.3330346077847710  0.3990910465795977
  0.9169506580556193  0.4582464805971514  0.3988508453710155
  0.9174536627870274  0.5836413407621899  0.3988411446705801
  0.9174714600987741  0.7088957803728414  0.3989893884694822
  0.9172300550508951  0.8337748435245838  0.3990893320766532
  0.9167362913635653  0.9583196140571510  0.3992407583941094
  0.0841230945062655  0.0427122161991448  0.3994531442122504
  0.0839179307237995  0.1674659699074658  0.3994224437807176
  0.0832859679442653  0.2919854590498248  0.3997747264420818
  0.0827366183382598  0.4167608263964717  0.4001807060317007
  0.0829555402837291  0.5418887286811390  0.3996768916453566
  0.0834697986496633  0.6671655736836070  0.3992112261437537
  0.0838341105742789  0.7924687753036518  0.3992108793996582
  0.0840215559176519  0.9176218612276192  0.3994590086115358
  0.2092078243211829  0.0430056745332666  0.3999849994591938
  0.2095394792105917  0.1685548041711243  0.4003180753711817
  0.2095118982142541  0.2935516701307212  0.4002802092191977
  0.2074273396300274  0.4175515038050265  0.4018035247937575
  0.2070807958780587  0.5420394129258429  0.4014057287641380
  0.2080076615135092  0.6672799721865230  0.4000184400819065
  0.2085495379607277  0.7924582989554848  0.3994710518173262
  0.2089464943662332  0.9176985214543508  0.3996466235178034
  0.3340054553616594  0.0427727371418402  0.3997978041424806
  0.3346294699738399  0.1684775236232547  0.4010191278136022
  0.3354381534436530  0.2945524392826285  0.4031122178630819
  0.3333602362345711  0.4195952004442485  0.4025757017971635
  0.3321225020049696  0.5441780362381788  0.4023405793627904
  0.3324717685468265  0.6673794470722501  0.4009390711070602
  0.3332799370794325  0.7922543239456101  0.3996293249838606
  0.3336577128928228  0.9173869876977682  0.3994420728839443
  0.4586813706630539  0.0418749863547158  0.3993860074655919
  0.4590817521566972  0.1673945135510961  0.3998532166424777
  0.4599916492300549  0.2933946705033477  0.4022766204006802
  0.4635178778616295  0.4198047602793138  0.4096211178446265
  0.4553901350749183  0.6634748775601250  0.4023746839520686
  0.4578478290082854  0.7907999178555474  0.4001463353472567
  0.4583027181498007  0.9164255099299812  0.3994815143470796
  0.5833780226558787  0.0409934870297544  0.3994763047201385
  0.5837327755657263  0.1662858755431305  0.3992788299862317
  0.5844286957521675  0.2914099458077201  0.4001350708962266
  0.5858767702373318  0.4162656500413220  0.4026122209829966
  0.5872742465150752  0.5419215949863131  0.4055543386142131
  0.5816766210826257  0.6622812650113467  0.4045233838661782
  0.5814411715656349  0.7883737602428106  0.4015699999606028
  0.5828963679723260  0.9153425038671209  0.4000204534386952
  0.7080741462026781  0.0406737352239003  0.3997677143563479
  0.7084322180024473  0.1659916610277564  0.3993128103515665
  0.7088621868371565  0.2911722341514172  0.3992236821537906
  0.7097763136746986  0.4164999267837829  0.3997521421748228
  0.7105602164429867  0.5416608142984789  0.4006309885682320
  0.7093502695480050  0.6665091972858693  0.4009863730586735
  0.7075661759329954  0.7900081220307162  0.4005438884451802
  0.7074957460886423  0.9149729714426946  0.4002371579261997
  0.8330192681934909  0.0408936444625738  0.3994950703406681
  0.8331553667370476  0.1660202837904206  0.3993136826426285
  0.8334462124249034  0.2912409918158888  0.3990390130698744
  0.8339278192348374  0.4164659107320557  0.3989778158323891
  0.8344507882129546  0.5417597588803654  0.3991091111193708
  0.8343613868924690  0.6671088056446521  0.3992567451650977
  0.8338574206065770  0.7917881492708428  0.3992574106871062
  0.8331189302809981  0.9160649497650991  0.3994616733357093
  0.9585206286189059  0.0418085503845850  0.3991938891097958
  0.9583095689233488  0.1665133980814788  0.3991570088891495
  0.9581212390254950  0.2913746830578897  0.3992784863243576
  0.9582537760520426  0.4165466140375168  0.3990505980882141
  0.9586927644916440  0.5418770708566202  0.3988685075469642
  0.9589722266295059  0.6671742461505894  0.3988700031550133
  0.9590255292667419  0.7923539245459975  0.3990543808351211
  0.9588489380798350  0.9171987653559160  0.3992037476596044
  0.4119962342871758  0.5827871904816320  0.4036339384979328
  0.4955785451456081  0.5037718181437609  0.4959510878851328
  0.4211830355203816  0.5032681731423699  0.4927015630215178
 
  0.00000000E+00  0.00000000E+00  0.00000000E+00
  0.00000000E+00  0.00000000E+00  0.00000000E+00
  0.00000000E+00  0.00000000E+00  0.00000000E+00
  0.00000000E+00  0.00000000E+00  0.00000000E+00
  0.00000000E+00  0.00000000E+00  0.00000000E+00
  0.00000000E+00  0.00000000E+00  0.00000000E+00
  0.00000000E+00  0.00000000E+00  0.00000000E+00
  0.00000000E+00  0.00000000E+00  0.00000000E+00
  0.00000000E+00  0.00000000E+00  0.00000000E+00
  0.00000000E+00  0.00000000E+00  0.00000000E+00
  0.00000000E+00  0.00000000E+00  0.00000000E+00
  0.00000000E+00  0.00000000E+00  0.00000000E+00
  0.00000000E+00  0.00000000E+00  0.00000000E+00
  0.00000000E+00  0.00000000E+00  0.00000000E+00
  0.00000000E+00  0.00000000E+00  0.00000000E+00
  0.00000000E+00  0.00000000E+00  0.00000000E+00
  0.00000000E+00  0.00000000E+00  0.00000000E+00
  0.00000000E+00  0.00000000E+00  0.00000000E+00
  0.00000000E+00  0.00000000E+00  0.00000000E+00
  0.00000000E+00  0.00000000E+00  0.00000000E+00
  0.00000000E+00  0.00000000E+00  0.00000000E+00
  0.00000000E+00  0.00000000E+00  0.00000000E+00
  0.00000000E+00  0.00000000E+00  0.00000000E+00
  0.00000000E+00  0.00000000E+00  0.00000000E+00
  0.00000000E+00  0.00000000E+00  0.00000000E+00
  0.00000000E+00  0.00000000E+00  0.00000000E+00
  0.00000000E+00  0.00000000E+00  0.00000000E+00
  0.00000000E+00  0.00000000E+00  0.00000000E+00
  0.00000000E+00  0.00000000E+00  0.00000000E+00
  0.00000000E+00  0.00000000E+00  0.00000000E+00
  0.00000000E+00  0.00000000E+00  0.00000000E+00
  0.00000000E+00  0.00000000E+00  0.00000000E+00
  0.00000000E+00  0.00000000E+00  0.00000000E+00
  0.00000000E+00  0.00000000E+00  0.00000000E+00
  0.00000000E+00  0.00000000E+00  0.00000000E+00
  0.00000000E+00  0.00000000E+00  0.00000000E+00
  0.00000000E+00  0.00000000E+00  0.00000000E+00
  0.00000000E+00  0.00000000E+00  0.00000000E+00
  0.00000000E+00  0.00000000E+00  0.00000000E+00
  0.00000000E+00  0.00000000E+00  0.00000000E+00
  0.00000000E+00  0.00000000E+00  0.00000000E+00
  0.00000000E+00  0.00000000E+00  0.00000000E+00
  0.00000000E+00  0.00000000E+00  0.00000000E+00
  0.00000000E+00  0.00000000E+00  0.00000000E+00
  0.00000000E+00  0.00000000E+00  0.00000000E+00
  0.00000000E+00  0.00000000E+00  0.00000000E+00
  0.00000000E+00  0.00000000E+00  0.00000000E+00
  0.00000000E+00  0.00000000E+00  0.00000000E+00
  0.00000000E+00  0.00000000E+00  0.00000000E+00
  0.00000000E+00  0.00000000E+00  0.00000000E+00
  0.00000000E+00  0.00000000E+00  0.00000000E+00
  0.00000000E+00  0.00000000E+00  0.00000000E+00
  0.00000000E+00  0.00000000E+00  0.00000000E+00
  0.00000000E+00  0.00000000E+00  0.00000000E+00
  0.00000000E+00  0.00000000E+00  0.00000000E+00
  0.00000000E+00  0.00000000E+00  0.00000000E+00
  0.00000000E+00  0.00000000E+00  0.00000000E+00
  0.00000000E+00  0.00000000E+00  0.00000000E+00
  0.00000000E+00  0.00000000E+00  0.00000000E+00
  0.00000000E+00  0.00000000E+00  0.00000000E+00
  0.00000000E+00  0.00000000E+00  0.00000000E+00
  0.00000000E+00  0.00000000E+00  0.00000000E+00
  0.00000000E+00  0.00000000E+00  0.00000000E+00
  0.00000000E+00  0.00000000E+00  0.00000000E+00
  0.00000000E+00  0.00000000E+00  0.00000000E+00
  0.00000000E+00  0.00000000E+00  0.00000000E+00
  0.00000000E+00  0.00000000E+00  0.00000000E+00
  0.00000000E+00  0.00000000E+00  0.00000000E+00
  0.00000000E+00  0.00000000E+00  0.00000000E+00
  0.00000000E+00  0.00000000E+00  0.00000000E+00
  0.00000000E+00  0.00000000E+00  0.00000000E+00
  0.00000000E+00  0.00000000E+00  0.00000000E+00
  0.00000000E+00  0.00000000E+00  0.00000000E+00
  0.00000000E+00  0.00000000E+00  0.00000000E+00
  0.00000000E+00  0.00000000E+00  0.00000000E+00
  0.00000000E+00  0.00000000E+00  0.00000000E+00
  0.00000000E+00  0.00000000E+00  0.00000000E+00
  0.00000000E+00  0.00000000E+00  0.00000000E+00
  0.00000000E+00  0.00000000E+00  0.00000000E+00
  0.00000000E+00  0.00000000E+00  0.00000000E+00
  0.00000000E+00  0.00000000E+00  0.00000000E+00
  0.00000000E+00  0.00000000E+00  0.00000000E+00
  0.00000000E+00  0.00000000E+00  0.00000000E+00
  0.00000000E+00  0.00000000E+00  0.00000000E+00
  0.00000000E+00  0.00000000E+00  0.00000000E+00
  0.00000000E+00  0.00000000E+00  0.00000000E+00
  0.00000000E+00  0.00000000E+00  0.00000000E+00
  0.00000000E+00  0.00000000E+00  0.00000000E+00
  0.00000000E+00  0.00000000E+00  0.00000000E+00
  0.00000000E+00  0.00000000E+00  0.00000000E+00
  0.00000000E+00  0.00000000E+00  0.00000000E+00
  0.00000000E+00  0.00000000E+00  0.00000000E+00
  0.00000000E+00  0.00000000E+00  0.00000000E+00
  0.00000000E+00  0.00000000E+00  0.00000000E+00
  0.00000000E+00  0.00000000E+00  0.00000000E+00
  0.00000000E+00  0.00000000E+00  0.00000000E+00
  0.00000000E+00  0.00000000E+00  0.00000000E+00
  0.00000000E+00  0.00000000E+00  0.00000000E+00
  0.00000000E+00  0.00000000E+00  0.00000000E+00
  0.00000000E+00  0.00000000E+00  0.00000000E+00
  0.00000000E+00  0.00000000E+00  0.00000000E+00
  0.00000000E+00  0.00000000E+00  0.00000000E+00
  0.00000000E+00  0.00000000E+00  0.00000000E+00
  0.00000000E+00  0.00000000E+00  0.00000000E+00
  0.00000000E+00  0.00000000E+00  0.00000000E+00
  0.00000000E+00  0.00000000E+00  0.00000000E+00
  0.00000000E+00  0.00000000E+00  0.00000000E+00
  0.00000000E+00  0.00000000E+00  0.00000000E+00
  0.00000000E+00  0.00000000E+00  0.00000000E+00
  0.00000000E+00  0.00000000E+00  0.00000000E+00
  0.00000000E+00  0.00000000E+00  0.00000000E+00
  0.00000000E+00  0.00000000E+00  0.00000000E+00
  0.00000000E+00  0.00000000E+00  0.00000000E+00
  0.00000000E+00  0.00000000E+00  0.00000000E+00
  0.00000000E+00  0.00000000E+00  0.00000000E+00
  0.00000000E+00  0.00000000E+00  0.00000000E+00
  0.00000000E+00  0.00000000E+00  0.00000000E+00
  0.00000000E+00  0.00000000E+00  0.00000000E+00
  0.00000000E+00  0.00000000E+00  0.00000000E+00
  0.00000000E+00  0.00000000E+00  0.00000000E+00
  0.00000000E+00  0.00000000E+00  0.00000000E+00
  0.00000000E+00  0.00000000E+00  0.00000000E+00
  0.00000000E+00  0.00000000E+00  0.00000000E+00
  0.00000000E+00  0.00000000E+00  0.00000000E+00
  0.00000000E+00  0.00000000E+00  0.00000000E+00
  0.00000000E+00  0.00000000E+00  0.00000000E+00
  0.00000000E+00  0.00000000E+00  0.00000000E+00
  0.00000000E+00  0.00000000E+00  0.00000000E+00
  0.00000000E+00  0.00000000E+00  0.00000000E+00
  0.00000000E+00  0.00000000E+00  0.00000000E+00
