H1 Pd1 C123 N3 O1                       
   1.00000000000000     
    19.8431387934907448    0.0040477640184335   -0.0523644360712160
    -9.9178314873074420   17.0340886380455174    0.0168278992235722
    -0.0786171002766677   -0.0160069747382549   29.7662666906314968
   H    Pd   C    N    O 
     1     1   123     3     1
Direct
  0.4815454789719130  0.5508886799048991  0.4932919288903413
  0.4370091910615764  0.4979616906472741  0.4135295089604930
  0.0417938451051110  0.0840255873992436  0.4002122726026908
  0.0405813147090917  0.2079179323568044  0.4006128845317344
  0.0398893508715091  0.3326537314496046  0.4001664799604784
  0.0401898109407851  0.4581252463184469  0.3992823018827063
  0.0413051801162962  0.5838393003583122  0.3987384289800139
  0.0423700208381216  0.7094405077237379  0.3988224355034750
  0.0427437142604084  0.8348037745219991  0.3991656268607735
  0.0426183309313680  0.9598000072045682  0.3995912408389620
  0.1679161659529140  0.0857900743075967  0.4010385332193633
  0.1669170320925741  0.2099803884415302  0.4023386063477503
  0.1644201968653336  0.3333662232204530  0.4022904468683737
  0.1635127527017708  0.4583291590764133  0.4013306701707758
  0.1646544014955893  0.5837281470785560  0.3999429090978439
  0.1663130060614430  0.7092573468966498  0.3990994187760946
  0.1672341902317793  0.8348059172923090  0.3990815282967731
  0.1677151067746471  0.9603756559445066  0.3997509730979157
  0.2928360011690959  0.0860713518555344  0.4009084117174975
  0.2935157713506166  0.2129444340088029  0.4031204734927819
  0.2914218266487985  0.3379012899781697  0.4044373617152637
  0.2864692423616669  0.4577291451912535  0.4035882169142433
  0.2874272375771770  0.5833474772924190  0.4022496910309819
  0.2902423777355638  0.7086945509328250  0.4005666516181330
  0.2915728734933966  0.8341721717783415  0.3993990856116940
  0.2922664718680024  0.9599140887288226  0.3995070231058768
  0.4172134851576771  0.0842332096224752  0.4000101515303774
  0.4180278031750959  0.2103316925800542  0.4017008318308888
  0.4201751121891454  0.3377245728031303  0.4049648502557980
  0.4141592148961671  0.7064278676286432  0.4027376857669410
  0.4159067633323643  0.8324226379406188  0.4006027249791361
  0.4166361011686052  0.9583186082039420  0.3995305720241170
  0.5415736726164478  0.0823946790717450  0.3994562707029354
  0.5423777430911827  0.2081660253985808  0.4002165045289204
  0.5438981175277318  0.3337471479925238  0.4020398686459998
  0.5485092693940007  0.4592954717818116  0.4050919001159469
  0.5380562184971418  0.7009576346371161  0.4048065986268067
  0.5401632788042284  0.8297171423832387  0.4020589059914778
  0.5409830211307524  0.9563656632796670  0.4000861293610851
  0.6659624241004386  0.0815216939915268  0.3994033975096851
  0.6666599450817404  0.2071440773794634  0.3992755235957636
  0.6678602047167936  0.3327034221270136  0.3998956115915507
  0.6705783201121467  0.4584327854890769  0.4015409763710619
  0.6721833313451665  0.5842651348630806  0.4035135579751712
  0.6671069842442530  0.7061654024553301  0.4033434129420854
  0.6646389776484214  0.8297223453749376  0.4021215540214748
  0.6654040045340265  0.9557743365091916  0.4004862339617754
  0.7905597443050330  0.0814766973022390  0.3994868730993446
  0.7909619564168894  0.2068659970014442  0.3991547720721114
  0.7918349434389805  0.3324583870855543  0.3989038579203351
  0.7933922985842419  0.4581921477540419  0.3991839327722316
  0.7945795422210834  0.5838593996343379  0.4002942906970303
  0.7939403912128545  0.7090366459065230  0.4010478444363835
  0.7914726572003189  0.8323181517659276  0.4007967715453279
  0.7903409215606737  0.9563114331136577  0.4000585104162340
  0.9157175302826119  0.0822595185767289  0.3995362753869214
  0.9154719036129996  0.2070960931875204  0.3993869568854388
  0.9157687737864189  0.3324578092675772  0.3989852945704510
  0.9167499210805189  0.4581114522932014  0.3985700322834402
  0.9179215814279684  0.5838855185037545  0.3987312396541713
  0.9182459872340243  0.7093297090407660  0.3992769393311278
  0.9177756620266082  0.8342222652216653  0.3995067423866573
  0.9166032135284993  0.9581762001420010  0.3995473096499471
  0.0843461068414256  0.0433933325739036  0.4002402000792524
  0.0833154105755856  0.1674994743217254  0.4010806828218080
  0.0815880840907555  0.2912777569046218  0.4010368883872201
  0.0810459545662482  0.4161796826432978  0.4002172369640642
  0.0819490121292195  0.5417721227003541  0.3991919912682771
  0.0833277975170946  0.6674791628339981  0.3988047905104675
  0.0841328400264217  0.7930784119356049  0.3990407327679520
  0.0844150818501439  0.9184179347680024  0.3994728606311398
  0.2094893499264496  0.0440517360554966  0.4005988874439562
  0.2096830257686371  0.1696114204970515  0.4022762099950585
  0.2077758953403630  0.2935688517240617  0.4031844191714787
  0.2045217815816052  0.4166140767160729  0.4025124450729571
  0.2049331091115655  0.5415813898911161  0.4011242575162365
  0.2071617385311812  0.6672607806216160  0.3997842948749873
  0.2084227542813270  0.7928369168862891  0.3990991357901869
  0.2091061650264384  0.9184403239878356  0.3993933399601248
  0.3340369424162960  0.0435943042588270  0.4000995510254786
  0.3347091523903837  0.1699669530756594  0.4020088679419968
  0.3355984465522209  0.2973199820990946  0.4046342597368316
  0.3284691730202225  0.5424949884092720  0.4037871937201115
  0.3309403911396090  0.6665270412681851  0.4018994735282867
  0.3327085487620238  0.7920046781474805  0.4001356610340511
  0.3335004148284601  0.9176577956044224  0.3993730780002482
  0.4584395581806812  0.0417976017534057  0.3995713089795617
  0.4591249181879725  0.1677282549630785  0.4005998440594534
  0.4604502185220159  0.2938955167211324  0.4026952666458669
  0.4667374016944101  0.4201559392555102  0.4068755644001831
  0.4528751386031497  0.6614351591902359  0.4046070558832490
  0.4569733029016617  0.7898441806000592  0.4018270875981605
  0.4578411906091741  0.9158922761103171  0.3999844208059769
  0.5827983862711669  0.0400768060403978  0.3995258162204759
  0.5835133137031461  0.1659320729302904  0.3995400621119977
  0.5846724161169177  0.2915113031579060  0.4006550734372754
  0.5880334715060870  0.4169937165500353  0.4028141458490118
  0.5908636786531335  0.5431680231292888  0.4052846183322698
  0.5831405826408890  0.6609914150030841  0.4051470235521503
  0.5805633574224556  0.7859543026518974  0.4031677775745624
  0.5821211249184238  0.9137434967004859  0.4008690598133497
  0.7072763846069445  0.0395227501821459  0.3997032526304010
  0.7078488207739888  0.1651661717536693  0.3991887845066678
  0.7087401086508843  0.2907257458521553  0.3992545383624851
  0.7106951958649566  0.4162608331026549  0.4000432359129778
  0.7123762239959568  0.5417989742768791  0.4018424938127842
  0.7112586192882677  0.6671018693705935  0.4027224302329996
  0.7077559793287446  0.7896819336358926  0.4020980193022424
  0.7066617762679077  0.9137524787802059  0.4008508248737052
  0.8322281020294920  0.0400160542937675  0.3995610070672598
  0.8323220821771063  0.1651393779011598  0.3992689310962521
  0.8328261851960962  0.2904994033278822  0.3989460528760380
  0.8339983106548323  0.4161007513516558  0.3987291150025766
  0.8352791764288445  0.5418503635704116  0.3992367394158373
  0.8354873940630138  0.6674351570186067  0.4001598076510489
  0.8345695623030214  0.7921893840294384  0.4003931246374811
  0.8329789977800826  0.9157836503243693  0.3999988483448375
  0.9582135462967222  0.0416463243226010  0.3996318265125446
  0.9573110277790484  0.1657662785212752  0.3997233302405853
  0.9570302883154833  0.2906969451028853  0.3994025127964234
  0.9574751811071869  0.4160915290909626  0.3988261039448533
  0.9586002123692783  0.5418104797727840  0.3985528927921615
  0.9594954586134403  0.6675174842773782  0.3988727092480162
  0.9596191844301104  0.7928893547625617  0.3992303574648849
  0.9591945233748822  0.9176411733772618  0.3994230083611537
  0.4076613848909278  0.5818524880584932  0.4053815259792896
  0.5490054976741977  0.5807981079526268  0.4061959605864376
  0.3272410782183623  0.4185011500482835  0.4039781638062279
  0.4347115484454199  0.5022107460410962  0.4844778035069088
 
  0.00000000E+00  0.00000000E+00  0.00000000E+00
  0.00000000E+00  0.00000000E+00  0.00000000E+00
  0.00000000E+00  0.00000000E+00  0.00000000E+00
  0.00000000E+00  0.00000000E+00  0.00000000E+00
  0.00000000E+00  0.00000000E+00  0.00000000E+00
  0.00000000E+00  0.00000000E+00  0.00000000E+00
  0.00000000E+00  0.00000000E+00  0.00000000E+00
  0.00000000E+00  0.00000000E+00  0.00000000E+00
  0.00000000E+00  0.00000000E+00  0.00000000E+00
  0.00000000E+00  0.00000000E+00  0.00000000E+00
  0.00000000E+00  0.00000000E+00  0.00000000E+00
  0.00000000E+00  0.00000000E+00  0.00000000E+00
  0.00000000E+00  0.00000000E+00  0.00000000E+00
  0.00000000E+00  0.00000000E+00  0.00000000E+00
  0.00000000E+00  0.00000000E+00  0.00000000E+00
  0.00000000E+00  0.00000000E+00  0.00000000E+00
  0.00000000E+00  0.00000000E+00  0.00000000E+00
  0.00000000E+00  0.00000000E+00  0.00000000E+00
  0.00000000E+00  0.00000000E+00  0.00000000E+00
  0.00000000E+00  0.00000000E+00  0.00000000E+00
  0.00000000E+00  0.00000000E+00  0.00000000E+00
  0.00000000E+00  0.00000000E+00  0.00000000E+00
  0.00000000E+00  0.00000000E+00  0.00000000E+00
  0.00000000E+00  0.00000000E+00  0.00000000E+00
  0.00000000E+00  0.00000000E+00  0.00000000E+00
  0.00000000E+00  0.00000000E+00  0.00000000E+00
  0.00000000E+00  0.00000000E+00  0.00000000E+00
  0.00000000E+00  0.00000000E+00  0.00000000E+00
  0.00000000E+00  0.00000000E+00  0.00000000E+00
  0.00000000E+00  0.00000000E+00  0.00000000E+00
  0.00000000E+00  0.00000000E+00  0.00000000E+00
  0.00000000E+00  0.00000000E+00  0.00000000E+00
  0.00000000E+00  0.00000000E+00  0.00000000E+00
  0.00000000E+00  0.00000000E+00  0.00000000E+00
  0.00000000E+00  0.00000000E+00  0.00000000E+00
  0.00000000E+00  0.00000000E+00  0.00000000E+00
  0.00000000E+00  0.00000000E+00  0.00000000E+00
  0.00000000E+00  0.00000000E+00  0.00000000E+00
  0.00000000E+00  0.00000000E+00  0.00000000E+00
  0.00000000E+00  0.00000000E+00  0.00000000E+00
  0.00000000E+00  0.00000000E+00  0.00000000E+00
  0.00000000E+00  0.00000000E+00  0.00000000E+00
  0.00000000E+00  0.00000000E+00  0.00000000E+00
  0.00000000E+00  0.00000000E+00  0.00000000E+00
  0.00000000E+00  0.00000000E+00  0.00000000E+00
  0.00000000E+00  0.00000000E+00  0.00000000E+00
  0.00000000E+00  0.00000000E+00  0.00000000E+00
  0.00000000E+00  0.00000000E+00  0.00000000E+00
  0.00000000E+00  0.00000000E+00  0.00000000E+00
  0.00000000E+00  0.00000000E+00  0.00000000E+00
  0.00000000E+00  0.00000000E+00  0.00000000E+00
  0.00000000E+00  0.00000000E+00  0.00000000E+00
  0.00000000E+00  0.00000000E+00  0.00000000E+00
  0.00000000E+00  0.00000000E+00  0.00000000E+00
  0.00000000E+00  0.00000000E+00  0.00000000E+00
  0.00000000E+00  0.00000000E+00  0.00000000E+00
  0.00000000E+00  0.00000000E+00  0.00000000E+00
  0.00000000E+00  0.00000000E+00  0.00000000E+00
  0.00000000E+00  0.00000000E+00  0.00000000E+00
  0.00000000E+00  0.00000000E+00  0.00000000E+00
  0.00000000E+00  0.00000000E+00  0.00000000E+00
  0.00000000E+00  0.00000000E+00  0.00000000E+00
  0.00000000E+00  0.00000000E+00  0.00000000E+00
  0.00000000E+00  0.00000000E+00  0.00000000E+00
  0.00000000E+00  0.00000000E+00  0.00000000E+00
  0.00000000E+00  0.00000000E+00  0.00000000E+00
  0.00000000E+00  0.00000000E+00  0.00000000E+00
  0.00000000E+00  0.00000000E+00  0.00000000E+00
  0.00000000E+00  0.00000000E+00  0.00000000E+00
  0.00000000E+00  0.00000000E+00  0.00000000E+00
  0.00000000E+00  0.00000000E+00  0.00000000E+00
  0.00000000E+00  0.00000000E+00  0.00000000E+00
  0.00000000E+00  0.00000000E+00  0.00000000E+00
  0.00000000E+00  0.00000000E+00  0.00000000E+00
  0.00000000E+00  0.00000000E+00  0.00000000E+00
  0.00000000E+00  0.00000000E+00  0.00000000E+00
  0.00000000E+00  0.00000000E+00  0.00000000E+00
  0.00000000E+00  0.00000000E+00  0.00000000E+00
  0.00000000E+00  0.00000000E+00  0.00000000E+00
  0.00000000E+00  0.00000000E+00  0.00000000E+00
  0.00000000E+00  0.00000000E+00  0.00000000E+00
  0.00000000E+00  0.00000000E+00  0.00000000E+00
  0.00000000E+00  0.00000000E+00  0.00000000E+00
  0.00000000E+00  0.00000000E+00  0.00000000E+00
  0.00000000E+00  0.00000000E+00  0.00000000E+00
  0.00000000E+00  0.00000000E+00  0.00000000E+00
  0.00000000E+00  0.00000000E+00  0.00000000E+00
  0.00000000E+00  0.00000000E+00  0.00000000E+00
  0.00000000E+00  0.00000000E+00  0.00000000E+00
  0.00000000E+00  0.00000000E+00  0.00000000E+00
  0.00000000E+00  0.00000000E+00  0.00000000E+00
  0.00000000E+00  0.00000000E+00  0.00000000E+00
  0.00000000E+00  0.00000000E+00  0.00000000E+00
  0.00000000E+00  0.00000000E+00  0.00000000E+00
  0.00000000E+00  0.00000000E+00  0.00000000E+00
  0.00000000E+00  0.00000000E+00  0.00000000E+00
  0.00000000E+00  0.00000000E+00  0.00000000E+00
  0.00000000E+00  0.00000000E+00  0.00000000E+00
  0.00000000E+00  0.00000000E+00  0.00000000E+00
  0.00000000E+00  0.00000000E+00  0.00000000E+00
  0.00000000E+00  0.00000000E+00  0.00000000E+00
  0.00000000E+00  0.00000000E+00  0.00000000E+00
  0.00000000E+00  0.00000000E+00  0.00000000E+00
  0.00000000E+00  0.00000000E+00  0.00000000E+00
  0.00000000E+00  0.00000000E+00  0.00000000E+00
  0.00000000E+00  0.00000000E+00  0.00000000E+00
  0.00000000E+00  0.00000000E+00  0.00000000E+00
  0.00000000E+00  0.00000000E+00  0.00000000E+00
  0.00000000E+00  0.00000000E+00  0.00000000E+00
  0.00000000E+00  0.00000000E+00  0.00000000E+00
  0.00000000E+00  0.00000000E+00  0.00000000E+00
  0.00000000E+00  0.00000000E+00  0.00000000E+00
  0.00000000E+00  0.00000000E+00  0.00000000E+00
  0.00000000E+00  0.00000000E+00  0.00000000E+00
  0.00000000E+00  0.00000000E+00  0.00000000E+00
  0.00000000E+00  0.00000000E+00  0.00000000E+00
  0.00000000E+00  0.00000000E+00  0.00000000E+00
  0.00000000E+00  0.00000000E+00  0.00000000E+00
  0.00000000E+00  0.00000000E+00  0.00000000E+00
  0.00000000E+00  0.00000000E+00  0.00000000E+00
  0.00000000E+00  0.00000000E+00  0.00000000E+00
  0.00000000E+00  0.00000000E+00  0.00000000E+00
  0.00000000E+00  0.00000000E+00  0.00000000E+00
  0.00000000E+00  0.00000000E+00  0.00000000E+00
  0.00000000E+00  0.00000000E+00  0.00000000E+00
  0.00000000E+00  0.00000000E+00  0.00000000E+00
  0.00000000E+00  0.00000000E+00  0.00000000E+00
  0.00000000E+00  0.00000000E+00  0.00000000E+00
  0.00000000E+00  0.00000000E+00  0.00000000E+00
