Y1 H1 C124 N2                           
   1.00000000000000     
    19.8199852470853166   -0.0186128015012402   -0.0596655387491248
    -9.9263716426305812   17.0751571593625258   -0.1068430582054835
    -0.0896106655090113   -0.2383390542797185   29.7510993619527291
   Y    H    C    N 
     1     1   124     2
Direct
  0.4424298014154531  0.5029721876666197  0.4469500261987608
  0.4582291584611007  0.5169043191152977  0.5288306286678580
  0.0420241980842562  0.0840195864928209  0.3988656992339789
  0.0413928999642191  0.2084576673274716  0.3981154663250671
  0.0407353495274537  0.3330630287177367  0.3971311379952366
  0.0406558391242294  0.4583677953625411  0.3968515135417885
  0.0413630208568616  0.5838066413147505  0.3978096384583348
  0.0419724370640333  0.7091540538350894  0.3986414807005693
  0.0422555143621546  0.8344052034734581  0.3989369624525144
  0.0423955412867849  0.9595219314533420  0.3990341218753903
  0.1680065802621830  0.0854764011974304  0.3998621165672185
  0.1671853776253904  0.2097473924258594  0.4004267463881084
  0.1659425851724612  0.3340964697157134  0.4002073525108910
  0.1644492152676366  0.4586688743620461  0.3980415426906190
  0.1652356842782566  0.5838432572892093  0.3971280710296654
  0.1662784092415379  0.7091426638688167  0.3981468893457376
  0.1669305299220018  0.8344554715450810  0.3989324832179499
  0.1674266427160712  0.9598741271232418  0.3992614175901750
  0.2925746796409923  0.0851335270909934  0.3999821875285799
  0.2941772495945661  0.2120946094447252  0.4030768327916515
  0.2922441942126554  0.3370379917121450  0.4074609250092187
  0.2883077757502699  0.4592613059052243  0.4072995108887621
  0.2888571890970855  0.5844785177102851  0.4009082812553938
  0.2906127198339674  0.7092467964588536  0.3984821571811111
  0.2915240783789571  0.8342273760514979  0.3987475885552094
  0.2920283732230661  0.9594850223936920  0.3991927418896217
  0.4171222428563907  0.0837493527127192  0.3993298994775304
  0.4177027571893932  0.2090468657721317  0.4006892734261800
  0.4211348847886707  0.3364928448927258  0.4060204717873824
  0.4148807191071122  0.7079597057215689  0.4016315140408045
  0.4161056262659559  0.8332298009991490  0.3991540928964947
  0.4166426386512767  0.9584883522942218  0.3991478609330548
  0.5417343536265062  0.0826785208767911  0.3991351723136294
  0.5422776040933698  0.2077516988541018  0.3990882018097893
  0.5434960020647985  0.3325652006707900  0.4001217251407764
  0.5448797683199780  0.4558732401658047  0.4033665022228254
  0.5451694934221996  0.5813824556874516  0.4055663595182991
  0.5388860779780595  0.7045559425945825  0.4047686179898374
  0.5405908335638189  0.8316405822825080  0.4006461138744541
  0.5413018396977142  0.9573396460609052  0.3994585043664220
  0.6663870420564064  0.0822509256717531  0.3993436688088869
  0.6668818689194292  0.2075174521617754  0.3988703669574838
  0.6677571709401187  0.3327330539710011  0.3984779353649546
  0.6692953788158876  0.4580892894832067  0.3980138632939261
  0.6692169223780889  0.5826585187944846  0.3986941649910088
  0.6665934554615743  0.7070341686019579  0.3996755589760954
  0.6651694887468098  0.8311097496813539  0.4001953110520089
  0.6659425548343894  0.9569206335810961  0.3998202519269837
  0.7911875312551476  0.0822951326309047  0.3991642691547234
  0.7914744049331540  0.2074832805664920  0.3987345145622838
  0.7920442397232835  0.3328087537072351  0.3984936070388351
  0.7928857324391825  0.4582039301553202  0.3981205715359363
  0.7934171613251061  0.5835002059293356  0.3974909349925569
  0.7925130404773550  0.7083525782772895  0.3977333638750567
  0.7914939468911195  0.8327601533308069  0.3987560579415370
  0.7908622723471486  0.9570994757056702  0.3993177130201045
  0.9163079876260966  0.0828576784255489  0.3987013494957372
  0.9162058221514526  0.2077004705481684  0.3980726745424252
  0.9163062464642209  0.3328812460186337  0.3977843243769347
  0.9167802330679452  0.4582787449384118  0.3981222797019589
  0.9174517787386516  0.5837502948560025  0.3983572464247831
  0.9174563398510723  0.7089821293633545  0.3983483330835660
  0.9171733727493679  0.8338355278767370  0.3986525422693289
  0.9167396524015898  0.9584128371257122  0.3989803271106492
  0.0843296484509651  0.0431375564891207  0.3991734687873017
  0.0836745749336010  0.1674285213026332  0.3988506259302037
  0.0826555775235503  0.2918108082936771  0.3979753457901125
  0.0817613688377493  0.4166002305269275  0.3967656551213938
  0.0822976155750061  0.5419152946934371  0.3970360568614435
  0.0831380383538257  0.6673397500085529  0.3982151393986177
  0.0837183234930174  0.7927120238572126  0.3988835980994629
  0.0840428662191373  0.9179445180208310  0.3990812879175377
  0.2092769045284830  0.0433844130471896  0.3997317287642408
  0.2099836956741832  0.1691932615982814  0.4011651668996052
  0.2084937777390287  0.2932517300256522  0.4021903079947994
  0.2059582652807675  0.4176081675424674  0.4012017400981140
  0.2059119913919288  0.5420468157830916  0.3980727766133794
  0.2073776482573277  0.6674251517496638  0.3977696896457613
  0.2082835195744168  0.7926874461394795  0.3986490141591928
  0.2088169717256179  0.9180049052937863  0.3991379476979701
  0.3338758555967311  0.0429794591660807  0.3994412925535509
  0.3345993735608498  0.1687746884671976  0.4012197357337948
  0.3363160435878830  0.2960057516273393  0.4067489215751766
  0.3293219991781577  0.4188821945371163  0.4127312894709975
  0.3302816609224666  0.5446969392419028  0.4069491667250549
  0.3316443912063641  0.6676768499308464  0.4001508960628079
  0.3328631810809918  0.7924801952542967  0.3987055997725251
  0.3334441092870029  0.9175897099249949  0.3990518343009719
  0.4585368577582324  0.0417999221536001  0.3991894131470142
  0.4590612191649195  0.1670482428315687  0.3995127329839896
  0.4602861578716636  0.2923995188592662  0.4018054974389389
  0.4541335530813886  0.6641791814786798  0.4062593099077350
  0.4574751022072858  0.7912723617775295  0.4001243922263071
  0.4580503323361486  0.9165402514965592  0.3992132321999073
  0.5831751546409312  0.0408101530355948  0.3993229436691675
  0.5836387198655674  0.1660160780614497  0.3989593805514932
  0.5845284792251886  0.2909678827725095  0.3989795393417808
  0.5863927781271182  0.4157464919116738  0.3998989967840207
  0.5865961847960063  0.5411653316236510  0.4020978684613370
  0.5827397501824504  0.6633578490323083  0.4032941698925492
  0.5810319133816463  0.7883569281293844  0.4017812035857569
  0.5826309227419552  0.9152366464270633  0.3998963895499174
  0.7078071328722666  0.0403990914522525  0.3995090317309199
  0.7082635897598815  0.1657700828252718  0.3990319390030542
  0.7088970460753323  0.2910407125515534  0.3986135726926949
  0.7099521189739884  0.4162750498110220  0.3980055207146257
  0.7107438887018770  0.5414749518685703  0.3976336328819813
  0.7091761513544466  0.6661268224370581  0.3982685325443882
  0.7079652166689294  0.7905039623476924  0.3993648434410946
  0.7071888645655037  0.9147991172324976  0.3997148771826666
  0.8328271253596108  0.0407040470003571  0.3991128989582236
  0.8329590779377056  0.1658054363189489  0.3986896820592313
  0.8332387886933821  0.2910097127018594  0.3983847083673678
  0.8338463524511848  0.4163331463411352  0.3983693788809640
  0.8345416368918255  0.5417537206363843  0.3979952780019335
  0.8344255919084851  0.6670543820486163  0.3977185745612937
  0.8337808639666440  0.7917073557063267  0.3982946005582370
  0.8331729217717286  0.9161951846719145  0.3990658285667655
  0.9584687336305509  0.0417922781681700  0.3988253108892190
  0.9580147953517260  0.1663323947980985  0.3981477405208030
  0.9577352354197139  0.2911735610843157  0.3975033787622940
  0.9577664086711930  0.4164009557031301  0.3975595466850993
  0.9584503516144373  0.5418790932774834  0.3981854802125602
  0.9588925731673130  0.6672815187963851  0.3985130928015884
  0.9589870201172278  0.7924684739616619  0.3986761690120745
  0.9588983104169309  0.9173449226601940  0.3989240479960618
  0.4097628478661895  0.5846928112576852  0.4120820294042500
  0.4657252978488963  0.4166143321871477  0.4088338876719925
 
  0.00000000E+00  0.00000000E+00  0.00000000E+00
  0.00000000E+00  0.00000000E+00  0.00000000E+00
  0.00000000E+00  0.00000000E+00  0.00000000E+00
  0.00000000E+00  0.00000000E+00  0.00000000E+00
  0.00000000E+00  0.00000000E+00  0.00000000E+00
  0.00000000E+00  0.00000000E+00  0.00000000E+00
  0.00000000E+00  0.00000000E+00  0.00000000E+00
  0.00000000E+00  0.00000000E+00  0.00000000E+00
  0.00000000E+00  0.00000000E+00  0.00000000E+00
  0.00000000E+00  0.00000000E+00  0.00000000E+00
  0.00000000E+00  0.00000000E+00  0.00000000E+00
  0.00000000E+00  0.00000000E+00  0.00000000E+00
  0.00000000E+00  0.00000000E+00  0.00000000E+00
  0.00000000E+00  0.00000000E+00  0.00000000E+00
  0.00000000E+00  0.00000000E+00  0.00000000E+00
  0.00000000E+00  0.00000000E+00  0.00000000E+00
  0.00000000E+00  0.00000000E+00  0.00000000E+00
  0.00000000E+00  0.00000000E+00  0.00000000E+00
  0.00000000E+00  0.00000000E+00  0.00000000E+00
  0.00000000E+00  0.00000000E+00  0.00000000E+00
  0.00000000E+00  0.00000000E+00  0.00000000E+00
  0.00000000E+00  0.00000000E+00  0.00000000E+00
  0.00000000E+00  0.00000000E+00  0.00000000E+00
  0.00000000E+00  0.00000000E+00  0.00000000E+00
  0.00000000E+00  0.00000000E+00  0.00000000E+00
  0.00000000E+00  0.00000000E+00  0.00000000E+00
  0.00000000E+00  0.00000000E+00  0.00000000E+00
  0.00000000E+00  0.00000000E+00  0.00000000E+00
  0.00000000E+00  0.00000000E+00  0.00000000E+00
  0.00000000E+00  0.00000000E+00  0.00000000E+00
  0.00000000E+00  0.00000000E+00  0.00000000E+00
  0.00000000E+00  0.00000000E+00  0.00000000E+00
  0.00000000E+00  0.00000000E+00  0.00000000E+00
  0.00000000E+00  0.00000000E+00  0.00000000E+00
  0.00000000E+00  0.00000000E+00  0.00000000E+00
  0.00000000E+00  0.00000000E+00  0.00000000E+00
  0.00000000E+00  0.00000000E+00  0.00000000E+00
  0.00000000E+00  0.00000000E+00  0.00000000E+00
  0.00000000E+00  0.00000000E+00  0.00000000E+00
  0.00000000E+00  0.00000000E+00  0.00000000E+00
  0.00000000E+00  0.00000000E+00  0.00000000E+00
  0.00000000E+00  0.00000000E+00  0.00000000E+00
  0.00000000E+00  0.00000000E+00  0.00000000E+00
  0.00000000E+00  0.00000000E+00  0.00000000E+00
  0.00000000E+00  0.00000000E+00  0.00000000E+00
  0.00000000E+00  0.00000000E+00  0.00000000E+00
  0.00000000E+00  0.00000000E+00  0.00000000E+00
  0.00000000E+00  0.00000000E+00  0.00000000E+00
  0.00000000E+00  0.00000000E+00  0.00000000E+00
  0.00000000E+00  0.00000000E+00  0.00000000E+00
  0.00000000E+00  0.00000000E+00  0.00000000E+00
  0.00000000E+00  0.00000000E+00  0.00000000E+00
  0.00000000E+00  0.00000000E+00  0.00000000E+00
  0.00000000E+00  0.00000000E+00  0.00000000E+00
  0.00000000E+00  0.00000000E+00  0.00000000E+00
  0.00000000E+00  0.00000000E+00  0.00000000E+00
  0.00000000E+00  0.00000000E+00  0.00000000E+00
  0.00000000E+00  0.00000000E+00  0.00000000E+00
  0.00000000E+00  0.00000000E+00  0.00000000E+00
  0.00000000E+00  0.00000000E+00  0.00000000E+00
  0.00000000E+00  0.00000000E+00  0.00000000E+00
  0.00000000E+00  0.00000000E+00  0.00000000E+00
  0.00000000E+00  0.00000000E+00  0.00000000E+00
  0.00000000E+00  0.00000000E+00  0.00000000E+00
  0.00000000E+00  0.00000000E+00  0.00000000E+00
  0.00000000E+00  0.00000000E+00  0.00000000E+00
  0.00000000E+00  0.00000000E+00  0.00000000E+00
  0.00000000E+00  0.00000000E+00  0.00000000E+00
  0.00000000E+00  0.00000000E+00  0.00000000E+00
  0.00000000E+00  0.00000000E+00  0.00000000E+00
  0.00000000E+00  0.00000000E+00  0.00000000E+00
  0.00000000E+00  0.00000000E+00  0.00000000E+00
  0.00000000E+00  0.00000000E+00  0.00000000E+00
  0.00000000E+00  0.00000000E+00  0.00000000E+00
  0.00000000E+00  0.00000000E+00  0.00000000E+00
  0.00000000E+00  0.00000000E+00  0.00000000E+00
  0.00000000E+00  0.00000000E+00  0.00000000E+00
  0.00000000E+00  0.00000000E+00  0.00000000E+00
  0.00000000E+00  0.00000000E+00  0.00000000E+00
  0.00000000E+00  0.00000000E+00  0.00000000E+00
  0.00000000E+00  0.00000000E+00  0.00000000E+00
  0.00000000E+00  0.00000000E+00  0.00000000E+00
  0.00000000E+00  0.00000000E+00  0.00000000E+00
  0.00000000E+00  0.00000000E+00  0.00000000E+00
  0.00000000E+00  0.00000000E+00  0.00000000E+00
  0.00000000E+00  0.00000000E+00  0.00000000E+00
  0.00000000E+00  0.00000000E+00  0.00000000E+00
  0.00000000E+00  0.00000000E+00  0.00000000E+00
  0.00000000E+00  0.00000000E+00  0.00000000E+00
  0.00000000E+00  0.00000000E+00  0.00000000E+00
  0.00000000E+00  0.00000000E+00  0.00000000E+00
  0.00000000E+00  0.00000000E+00  0.00000000E+00
  0.00000000E+00  0.00000000E+00  0.00000000E+00
  0.00000000E+00  0.00000000E+00  0.00000000E+00
  0.00000000E+00  0.00000000E+00  0.00000000E+00
  0.00000000E+00  0.00000000E+00  0.00000000E+00
  0.00000000E+00  0.00000000E+00  0.00000000E+00
  0.00000000E+00  0.00000000E+00  0.00000000E+00
  0.00000000E+00  0.00000000E+00  0.00000000E+00
  0.00000000E+00  0.00000000E+00  0.00000000E+00
  0.00000000E+00  0.00000000E+00  0.00000000E+00
  0.00000000E+00  0.00000000E+00  0.00000000E+00
  0.00000000E+00  0.00000000E+00  0.00000000E+00
  0.00000000E+00  0.00000000E+00  0.00000000E+00
  0.00000000E+00  0.00000000E+00  0.00000000E+00
  0.00000000E+00  0.00000000E+00  0.00000000E+00
  0.00000000E+00  0.00000000E+00  0.00000000E+00
  0.00000000E+00  0.00000000E+00  0.00000000E+00
  0.00000000E+00  0.00000000E+00  0.00000000E+00
  0.00000000E+00  0.00000000E+00  0.00000000E+00
  0.00000000E+00  0.00000000E+00  0.00000000E+00
  0.00000000E+00  0.00000000E+00  0.00000000E+00
  0.00000000E+00  0.00000000E+00  0.00000000E+00
  0.00000000E+00  0.00000000E+00  0.00000000E+00
  0.00000000E+00  0.00000000E+00  0.00000000E+00
  0.00000000E+00  0.00000000E+00  0.00000000E+00
  0.00000000E+00  0.00000000E+00  0.00000000E+00
  0.00000000E+00  0.00000000E+00  0.00000000E+00
  0.00000000E+00  0.00000000E+00  0.00000000E+00
  0.00000000E+00  0.00000000E+00  0.00000000E+00
  0.00000000E+00  0.00000000E+00  0.00000000E+00
  0.00000000E+00  0.00000000E+00  0.00000000E+00
  0.00000000E+00  0.00000000E+00  0.00000000E+00
  0.00000000E+00  0.00000000E+00  0.00000000E+00
  0.00000000E+00  0.00000000E+00  0.00000000E+00
  0.00000000E+00  0.00000000E+00  0.00000000E+00
  0.00000000E+00  0.00000000E+00  0.00000000E+00
  0.00000000E+00  0.00000000E+00  0.00000000E+00
