La1 C125 N1                             
   1.00000000000000     
    19.8214850814312840   -0.0127832972221033    0.0020349472239288
    -9.9218149305425385   17.0802693099368099    0.0003890276971430
     0.0030779813815656    0.0025369628580444   29.7326713850367312
   La   C    N 
     1   125     1
Direct
  0.4385821261764304  0.4994835080957813  0.4526391596291727
  0.0417498079557027  0.0838069086026927  0.3996275762161187
  0.0411225225440101  0.2082369683064764  0.3991639529208555
  0.0407144964930965  0.3329633047566030  0.3988207118849127
  0.0407340169352845  0.4583445005603191  0.3990752286793049
  0.0413184699076802  0.5837113876037450  0.3997997338501919
  0.0418359942536692  0.7089682062526785  0.4002038778844054
  0.0421507861471990  0.8342585194195505  0.4001330123881682
  0.0421911881544322  0.9592639149643847  0.3998981105185824
  0.1674000372893954  0.0848877924522617  0.4000705873625996
  0.1668169257137513  0.2093980612578566  0.3996717488610524
  0.1658507196828477  0.3338921136688346  0.3987295123033122
  0.1646076345599260  0.4585031747687224  0.3978486850020561
  0.1652485616054419  0.5837889319808184  0.3983811185009637
  0.1661648631869585  0.7091143297090289  0.3995118876720541
  0.1667949792379765  0.8343666546938121  0.4000843817114425
  0.1672207982483691  0.9596389543865950  0.4001282651240441
  0.2924148171082439  0.0848057794914300  0.4000477251876361
  0.2931518741741845  0.2110714569373047  0.4015059229590506
  0.2919804074188472  0.3363685226419298  0.4031317742189338
  0.2891600703702893  0.4587811529056127  0.4011026898131294
  0.2889436918323676  0.5845946509165327  0.3984776840849124
  0.2904479439653021  0.7093388756991651  0.3988354284393614
  0.2913732059863887  0.8341812968615496  0.3995691423667623
  0.2918613429655966  0.9593086220779727  0.3998886357397657
  0.4170318600109915  0.0835584945562722  0.3995646231312703
  0.4176119763912930  0.2087711034017014  0.3995838022181208
  0.4197256664108243  0.3353343717488971  0.4036192108540223
  0.4147182510625800  0.7079668727831706  0.4001185561694219
  0.4159770963115396  0.8332452517687921  0.3994680232866923
  0.4165535379643481  0.9583876721084792  0.3997144744511058
  0.5416982170487432  0.0825651611470428  0.3997556138561229
  0.5422897565179337  0.2076459539961872  0.3990975784746522
  0.5432024029011239  0.3326173093093781  0.3987164976252849
  0.5450633701237709  0.4568101095952574  0.4010213127774052
  0.5449504089947199  0.5809673469253663  0.4042607756844693
  0.5387940978985625  0.7041998944995599  0.4034952029024478
  0.5404162941062567  0.8314831121207596  0.4006037685472265
  0.5412150616247753  0.9572412868947426  0.3999267771420035
  0.6663284186044022  0.0821150763177428  0.4001328274468998
  0.6668714542893749  0.2073751781022563  0.3998469661243421
  0.6675647573862045  0.3325023413456849  0.3988924262918477
  0.6691322782479363  0.4578678553388431  0.3980381858910309
  0.6699253601352609  0.5835705467192165  0.3984967140686655
  0.6666629491652185  0.7071129060249349  0.3992657556721655
  0.6651638128914318  0.8310153440730713  0.4003199503881807
  0.6658379307217959  0.9567592390738769  0.4002404536477237
  0.7910695225753521  0.0821575163202933  0.4000602267208884
  0.7913838141354097  0.2073240109038719  0.4002239313102809
  0.7919653809056733  0.3326632703963358  0.4000345769510697
  0.7928779518275416  0.4581281184703384  0.3993484355831175
  0.7933818084178603  0.5834527625487103  0.3986886507083574
  0.7928716676562987  0.7086979617482764  0.3986664562424204
  0.7915430879037443  0.8327914538932575  0.3992949908821866
  0.7907816322939613  0.9570328376303230  0.3997922793259500
  0.9161369555793155  0.0827072369175736  0.3997254575597994
  0.9160643486643260  0.2076071414696250  0.3997276649825566
  0.9162648579870799  0.3327876982925840  0.3999193256702170
  0.9167489657365118  0.4581345750793337  0.4000821273520357
  0.9173455015025186  0.5836020937701385  0.3999877520219704
  0.9174696377934070  0.7089671655511258  0.3997177729968979
  0.9172306967054474  0.8338482373179872  0.3995594058686439
  0.9165983160298511  0.9582507758488938  0.3997116597583430
  0.0838880858413068  0.0427476847810845  0.3998114424566979
  0.0832960505901256  0.1671680511254527  0.3993711717969595
  0.0824851939037945  0.2916519615063303  0.3987185262946136
  0.0819164701787253  0.4165758104408525  0.3983767326289148
  0.0823123663443596  0.5418502171476041  0.3990736950587888
  0.0830822166708704  0.6672560520060655  0.3998990843208383
  0.0836157513816285  0.7925983721603216  0.4002131708201822
  0.0838605784917495  0.9177702796722513  0.4000867245195996
  0.2089802149525198  0.0430892393827885  0.4001607920508550
  0.2091162221679400  0.1684874361536289  0.4003983067581608
  0.2083443252381077  0.2929842197487843  0.3997621560380910
  0.2061499138934494  0.4172990318209875  0.3984893946892926
  0.2061262109551857  0.5420508610017415  0.3978200529193080
  0.2073933277299274  0.6674305431378141  0.3988245344051387
  0.2081532359117103  0.7925889341580281  0.3997500599939506
  0.2086721302933829  0.9178166727418446  0.4000797900808510
  0.3337410433701299  0.0426698012249465  0.3997765033071825
  0.3343699488971385  0.1682483531565984  0.4003865497867525
  0.3349555513714836  0.2943892226332188  0.4039735576849525
  0.3306654317107572  0.4190937772594430  0.4053394190254591
  0.3311469072915074  0.5446488157805993  0.4012904214229209
  0.3316227559203690  0.6676198207432221  0.3989862298719864
  0.3327360116892100  0.7924751333700200  0.3992508373087819
  0.3333280353743045  0.9174647299659930  0.3997475640428505
  0.4584809673429581  0.0416193292310646  0.3996856667065666
  0.4589680275655225  0.1667141630180906  0.3992586694377443
  0.4598458303203973  0.2920483289633419  0.3997945435793973
  0.4641085074817988  0.4176346945294343  0.4063160104595429
  0.4538079990753530  0.6637585558431969  0.4032973508210272
  0.4572984956639542  0.7911786909380965  0.3998778397158216
  0.4579236930204441  0.9164132008311934  0.3996949861666379
  0.5831045300558080  0.0406527520709371  0.3999582261010532
  0.5836439903313565  0.1658972749356955  0.3995577590476440
  0.5844441074523200  0.2908705118317523  0.3986818644413033
  0.5863336384313033  0.4157613558055474  0.3984873964220342
  0.5874536494175933  0.5422491173547999  0.4006198874722063
  0.5826347746915977  0.6631216430939435  0.4023412841890587
  0.5808798229750785  0.7880523519410138  0.4014718481806874
  0.5824827864159583  0.9150527375998063  0.4002340429366673
  0.7077188201122740  0.0402675814972961  0.4001567254283355
  0.7082031807172222  0.1656050863911868  0.4001646923116401
  0.7087879096169107  0.2908043405437859  0.3996528677118602
  0.7099555258589501  0.4161902085890447  0.3985830336587486
  0.7108362334890374  0.5416322028244747  0.3981388406967361
  0.7096612721922690  0.6667223279391805  0.3985032157278817
  0.7078912872279491  0.7904707819470966  0.3994452551274333
  0.7071187907122265  0.9147041926680033  0.4000745096700640
  0.8326360320750680  0.0405919942186228  0.3998699907652007
  0.8328077758827809  0.1656672815814387  0.4000618882666266
  0.8331993475322838  0.2909355159159253  0.4001995824482598
  0.8338402483886231  0.4162489591491026  0.3999694399479168
  0.8344804588473688  0.5416403101035333  0.3993764278272646
  0.8344616030884929  0.6671560818631334  0.3989955236947209
  0.8339743315859787  0.7919470455860194  0.3991127127756444
  0.8330538078714174  0.9161181869356860  0.3996139140342146
  0.9582231805736945  0.0416587820709491  0.3997156601536189
  0.9578154494065794  0.1661980808422076  0.3995226095193624
  0.9576311958635640  0.2910671027415060  0.3995287885209395
  0.9578088592995941  0.4163398183208512  0.3998148362869790
  0.9584424495105666  0.5418256638729156  0.4000837567008547
  0.9588394664761150  0.6671954881211476  0.4000715068170099
  0.9589589484237859  0.7924181845513434  0.3998446153963651
  0.9587537503373802  0.9172553615871164  0.3997413551146801
  0.4097248880619426  0.5839968180093390  0.4058303945324831
 
  0.00000000E+00  0.00000000E+00  0.00000000E+00
  0.00000000E+00  0.00000000E+00  0.00000000E+00
  0.00000000E+00  0.00000000E+00  0.00000000E+00
  0.00000000E+00  0.00000000E+00  0.00000000E+00
  0.00000000E+00  0.00000000E+00  0.00000000E+00
  0.00000000E+00  0.00000000E+00  0.00000000E+00
  0.00000000E+00  0.00000000E+00  0.00000000E+00
  0.00000000E+00  0.00000000E+00  0.00000000E+00
  0.00000000E+00  0.00000000E+00  0.00000000E+00
  0.00000000E+00  0.00000000E+00  0.00000000E+00
  0.00000000E+00  0.00000000E+00  0.00000000E+00
  0.00000000E+00  0.00000000E+00  0.00000000E+00
  0.00000000E+00  0.00000000E+00  0.00000000E+00
  0.00000000E+00  0.00000000E+00  0.00000000E+00
  0.00000000E+00  0.00000000E+00  0.00000000E+00
  0.00000000E+00  0.00000000E+00  0.00000000E+00
  0.00000000E+00  0.00000000E+00  0.00000000E+00
  0.00000000E+00  0.00000000E+00  0.00000000E+00
  0.00000000E+00  0.00000000E+00  0.00000000E+00
  0.00000000E+00  0.00000000E+00  0.00000000E+00
  0.00000000E+00  0.00000000E+00  0.00000000E+00
  0.00000000E+00  0.00000000E+00  0.00000000E+00
  0.00000000E+00  0.00000000E+00  0.00000000E+00
  0.00000000E+00  0.00000000E+00  0.00000000E+00
  0.00000000E+00  0.00000000E+00  0.00000000E+00
  0.00000000E+00  0.00000000E+00  0.00000000E+00
  0.00000000E+00  0.00000000E+00  0.00000000E+00
  0.00000000E+00  0.00000000E+00  0.00000000E+00
  0.00000000E+00  0.00000000E+00  0.00000000E+00
  0.00000000E+00  0.00000000E+00  0.00000000E+00
  0.00000000E+00  0.00000000E+00  0.00000000E+00
  0.00000000E+00  0.00000000E+00  0.00000000E+00
  0.00000000E+00  0.00000000E+00  0.00000000E+00
  0.00000000E+00  0.00000000E+00  0.00000000E+00
  0.00000000E+00  0.00000000E+00  0.00000000E+00
  0.00000000E+00  0.00000000E+00  0.00000000E+00
  0.00000000E+00  0.00000000E+00  0.00000000E+00
  0.00000000E+00  0.00000000E+00  0.00000000E+00
  0.00000000E+00  0.00000000E+00  0.00000000E+00
  0.00000000E+00  0.00000000E+00  0.00000000E+00
  0.00000000E+00  0.00000000E+00  0.00000000E+00
  0.00000000E+00  0.00000000E+00  0.00000000E+00
  0.00000000E+00  0.00000000E+00  0.00000000E+00
  0.00000000E+00  0.00000000E+00  0.00000000E+00
  0.00000000E+00  0.00000000E+00  0.00000000E+00
  0.00000000E+00  0.00000000E+00  0.00000000E+00
  0.00000000E+00  0.00000000E+00  0.00000000E+00
  0.00000000E+00  0.00000000E+00  0.00000000E+00
  0.00000000E+00  0.00000000E+00  0.00000000E+00
  0.00000000E+00  0.00000000E+00  0.00000000E+00
  0.00000000E+00  0.00000000E+00  0.00000000E+00
  0.00000000E+00  0.00000000E+00  0.00000000E+00
  0.00000000E+00  0.00000000E+00  0.00000000E+00
  0.00000000E+00  0.00000000E+00  0.00000000E+00
  0.00000000E+00  0.00000000E+00  0.00000000E+00
  0.00000000E+00  0.00000000E+00  0.00000000E+00
  0.00000000E+00  0.00000000E+00  0.00000000E+00
  0.00000000E+00  0.00000000E+00  0.00000000E+00
  0.00000000E+00  0.00000000E+00  0.00000000E+00
  0.00000000E+00  0.00000000E+00  0.00000000E+00
  0.00000000E+00  0.00000000E+00  0.00000000E+00
  0.00000000E+00  0.00000000E+00  0.00000000E+00
  0.00000000E+00  0.00000000E+00  0.00000000E+00
  0.00000000E+00  0.00000000E+00  0.00000000E+00
  0.00000000E+00  0.00000000E+00  0.00000000E+00
  0.00000000E+00  0.00000000E+00  0.00000000E+00
  0.00000000E+00  0.00000000E+00  0.00000000E+00
  0.00000000E+00  0.00000000E+00  0.00000000E+00
  0.00000000E+00  0.00000000E+00  0.00000000E+00
  0.00000000E+00  0.00000000E+00  0.00000000E+00
  0.00000000E+00  0.00000000E+00  0.00000000E+00
  0.00000000E+00  0.00000000E+00  0.00000000E+00
  0.00000000E+00  0.00000000E+00  0.00000000E+00
  0.00000000E+00  0.00000000E+00  0.00000000E+00
  0.00000000E+00  0.00000000E+00  0.00000000E+00
  0.00000000E+00  0.00000000E+00  0.00000000E+00
  0.00000000E+00  0.00000000E+00  0.00000000E+00
  0.00000000E+00  0.00000000E+00  0.00000000E+00
  0.00000000E+00  0.00000000E+00  0.00000000E+00
  0.00000000E+00  0.00000000E+00  0.00000000E+00
  0.00000000E+00  0.00000000E+00  0.00000000E+00
  0.00000000E+00  0.00000000E+00  0.00000000E+00
  0.00000000E+00  0.00000000E+00  0.00000000E+00
  0.00000000E+00  0.00000000E+00  0.00000000E+00
  0.00000000E+00  0.00000000E+00  0.00000000E+00
  0.00000000E+00  0.00000000E+00  0.00000000E+00
  0.00000000E+00  0.00000000E+00  0.00000000E+00
  0.00000000E+00  0.00000000E+00  0.00000000E+00
  0.00000000E+00  0.00000000E+00  0.00000000E+00
  0.00000000E+00  0.00000000E+00  0.00000000E+00
  0.00000000E+00  0.00000000E+00  0.00000000E+00
  0.00000000E+00  0.00000000E+00  0.00000000E+00
  0.00000000E+00  0.00000000E+00  0.00000000E+00
  0.00000000E+00  0.00000000E+00  0.00000000E+00
  0.00000000E+00  0.00000000E+00  0.00000000E+00
  0.00000000E+00  0.00000000E+00  0.00000000E+00
  0.00000000E+00  0.00000000E+00  0.00000000E+00
  0.00000000E+00  0.00000000E+00  0.00000000E+00
  0.00000000E+00  0.00000000E+00  0.00000000E+00
  0.00000000E+00  0.00000000E+00  0.00000000E+00
  0.00000000E+00  0.00000000E+00  0.00000000E+00
  0.00000000E+00  0.00000000E+00  0.00000000E+00
  0.00000000E+00  0.00000000E+00  0.00000000E+00
  0.00000000E+00  0.00000000E+00  0.00000000E+00
  0.00000000E+00  0.00000000E+00  0.00000000E+00
  0.00000000E+00  0.00000000E+00  0.00000000E+00
  0.00000000E+00  0.00000000E+00  0.00000000E+00
  0.00000000E+00  0.00000000E+00  0.00000000E+00
  0.00000000E+00  0.00000000E+00  0.00000000E+00
  0.00000000E+00  0.00000000E+00  0.00000000E+00
  0.00000000E+00  0.00000000E+00  0.00000000E+00
  0.00000000E+00  0.00000000E+00  0.00000000E+00
  0.00000000E+00  0.00000000E+00  0.00000000E+00
  0.00000000E+00  0.00000000E+00  0.00000000E+00
  0.00000000E+00  0.00000000E+00  0.00000000E+00
  0.00000000E+00  0.00000000E+00  0.00000000E+00
  0.00000000E+00  0.00000000E+00  0.00000000E+00
  0.00000000E+00  0.00000000E+00  0.00000000E+00
  0.00000000E+00  0.00000000E+00  0.00000000E+00
  0.00000000E+00  0.00000000E+00  0.00000000E+00
  0.00000000E+00  0.00000000E+00  0.00000000E+00
  0.00000000E+00  0.00000000E+00  0.00000000E+00
  0.00000000E+00  0.00000000E+00  0.00000000E+00
  0.00000000E+00  0.00000000E+00  0.00000000E+00
  0.00000000E+00  0.00000000E+00  0.00000000E+00
  0.00000000E+00  0.00000000E+00  0.00000000E+00
  0.00000000E+00  0.00000000E+00  0.00000000E+00
