Ru1 C123 N3 O1                          
   1.00000000000000     
    19.8096533582348968    0.0239174136923282    0.0374368395514249
    -9.8841229372714920   17.0101801534338506   -0.1102083414428841
     0.0566201471284322   -0.1602148939454145   29.8418544794890508
   Ru   C    N    O 
     1   123     3     1
Direct
  0.4369947138579425  0.5001723184842107  0.4269984128644413
  0.0417965496616971  0.0840876766721135  0.3995973566144713
  0.0404828394650366  0.2079521845330740  0.3997344459759785
  0.0397262869342723  0.3327247255686805  0.3994258307177326
  0.0401589942144962  0.4580773553252497  0.3993237715406935
  0.0414666253779184  0.5837427706277338  0.3996987689288932
  0.0425591335997268  0.7093424216569603  0.3997806717337082
  0.0428634131911366  0.8346684468455148  0.3997491060395832
  0.0426528457705456  0.9597433456513892  0.3995942867632757
  0.1678254293881348  0.0856558182101486  0.4001322538688519
  0.1669737165710609  0.2101526106992588  0.4005327244695645
  0.1641997780756032  0.3332121709774370  0.4004542271880682
  0.1636397003227439  0.4580365481693179  0.3984454218063921
  0.1651159954189183  0.5834221992954985  0.3989907806348783
  0.1666777828399075  0.7089046985249556  0.3997577670616978
  0.1674373610483353  0.8345141991999776  0.3998985421890327
  0.1677325764415562  0.9601718845926883  0.3998522597024925
  0.2926786354972691  0.0860618167074938  0.4000829027346444
  0.2931151630507870  0.2129070930096890  0.4019133099258279
  0.2914174456591850  0.3380704736511178  0.4050911755803170
  0.2864195805814557  0.4573913864240568  0.4018191030955577
  0.2883788595681007  0.5823340665077920  0.3983012317003136
  0.2908755817194153  0.7079299304132587  0.3991272356372899
  0.2919159091631400  0.8337811244378820  0.3998012374736296
  0.2923627585250073  0.9597376552304921  0.3998031913713673
  0.4170835751344097  0.0845798292868675  0.3997351485977665
  0.4176137893880302  0.2112723065653643  0.4002718739053674
  0.4191441032675549  0.3395407606249041  0.4029067496744750
  0.4149525230275092  0.7047618025392469  0.3995250610605616
  0.4162280227976200  0.8317260856152123  0.3997762223719643
  0.4167534236662299  0.9581950617197612  0.3998179134118020
  0.5413894324043816  0.0827626117553824  0.3997983531116325
  0.5419241800954129  0.2088464456323116  0.3994929291955854
  0.5430574435632043  0.3348173507690604  0.3994860604356997
  0.5473525725680667  0.4608976141013512  0.4018399440494494
  0.5385344681817542  0.7011899492304191  0.4027590540086818
  0.5404554588553235  0.8297362788619990  0.4003596041746890
  0.5410318985603830  0.9565148577480639  0.3999727591844502
  0.6658353456647041  0.0819394553539108  0.3999990817726303
  0.6662651297479163  0.2076419867776420  0.3996764651716054
  0.6672645719434953  0.3333274567532048  0.3991516068850626
  0.6697366425982717  0.4591285086623106  0.3989123113698982
  0.6715595766858380  0.5847561184034783  0.4002056317366618
  0.6671960014495387  0.7066037768502375  0.4011088730893581
  0.6648049264910739  0.8301550790234391  0.4006674055746507
  0.6654352953668466  0.9561188762163920  0.4001900796795796
  0.7904903459570861  0.0818599800228405  0.3999023071553357
  0.7907031494453333  0.2072801895136683  0.3998423548617684
  0.7914317325742396  0.3328396222637833  0.3995656452020104
  0.7929184228136047  0.4585093763858721  0.3991302679625515
  0.7943374119052393  0.5841744222479925  0.3989025098390084
  0.7939669602530335  0.7093039848541886  0.3996203408307376
  0.7915866876886686  0.8326292987879211  0.3996887758409680
  0.7904496876740225  0.9566746097409402  0.3998528493770342
  0.9156985317091837  0.0824939343266702  0.3995882752594112
  0.9153071895042764  0.2073135875371364  0.3997036089434137
  0.9155353615895478  0.3326554626975683  0.3996602332590487
  0.9165436177972472  0.4582993723429635  0.3996234305980532
  0.9178475240803620  0.5839707508767072  0.3994477469617579
  0.9182985474251669  0.7093532033735469  0.3994598317631532
  0.9178880426726888  0.8343277858527581  0.3995435665263717
  0.9166986227204332  0.9583708074616887  0.3995476843093649
  0.0843306893103978  0.0433340652667495  0.3996862303173447
  0.0833453015760439  0.1676005970176697  0.3997888263974507
  0.0815120479764459  0.2912748376793635  0.3997899177348218
  0.0809970964622950  0.4160602527592860  0.3989634649306957
  0.0822323049269937  0.5416674891348656  0.3993746543171020
  0.0836158905512334  0.6673227031469062  0.3998052936212064
  0.0843256768722308  0.7928922352006739  0.3998422122850829
  0.0844984421317745  0.9182722392843503  0.3997384389418446
  0.2094146895814601  0.0439110012002660  0.4000322832570913
  0.2095841175720164  0.1695471222097350  0.4009212744319797
  0.2079790087166674  0.2937877359189751  0.4015557137764229
  0.2046256737454668  0.4163038694032611  0.3994948397429679
  0.2055457893858145  0.5411133348227665  0.3984418014174227
  0.2076172614074329  0.6668004157154791  0.3993090283651483
  0.2087425285116568  0.7925193353825296  0.3998620541404940
  0.2092174640171088  0.9182094101234914  0.3998643669199087
  0.3339697759207161  0.0435803153468267  0.3997924934648718
  0.3343261057988214  0.1701423231357111  0.4007130815549997
  0.3350097125935054  0.2976016967319018  0.4041380496332174
  0.3286775906698139  0.5404958680294861  0.3992851004718567
  0.3316137711175691  0.6655826120777889  0.3986775495093536
  0.3331186621392508  0.7914276030631194  0.3996039591513770
  0.3336470285936935  0.9173841760842055  0.3998178596445434
  0.4583106700249578  0.0419327405146122  0.3997589333621481
  0.4587175649540218  0.1683913328817996  0.3997353068525112
  0.4596209847135115  0.2953236078555513  0.4005236060915701
  0.4650910321345682  0.4231570774623512  0.4046055253219280
  0.4542772442880966  0.6598401660423993  0.4008527065641994
  0.4573250137796017  0.7887980463749533  0.3998984905638279
  0.4579325307666738  0.9155501108320561  0.3998807654380646
  0.5826688203168894  0.0403793374003695  0.3999504024672829
  0.5831222701873370  0.1664400217546858  0.3996405987801585
  0.5839850502638931  0.2923221509225417  0.3992161143643165
  0.5869268136490010  0.4181836799623642  0.3995138245877777
  0.5902959982622578  0.5440710494728218  0.4035466289634955
  0.5835604939573950  0.6617813966070925  0.4045249106029811
  0.5809639157629705  0.7864483834551509  0.4012232303864765
  0.5822485584701788  0.9139741624759370  0.4001423862161971
  0.7072408907984845  0.0399316145642358  0.4000545448402524
  0.7076050454139464  0.1656395870010005  0.3998743455234112
  0.7082762867128805  0.2912530018969604  0.3994574778467836
  0.7100556391294386  0.4168049195163774  0.3989416505161482
  0.7118797183423929  0.5422928225315715  0.3988773188363410
  0.7113282555353547  0.6675487016255036  0.4003777448277369
  0.7079279874041479  0.7900649525965741  0.4001953491146668
  0.7068125193942091  0.9141653700852812  0.4002246818527323
  0.8322780575028610  0.0403601829885883  0.3997483605745911
  0.8321869631641002  0.1654964809427962  0.3998332489626238
  0.8325186401198009  0.2908327468129439  0.3997292775668156
  0.8336421190493695  0.4164094245824997  0.3994597479721162
  0.8350582704007882  0.5420870178504998  0.3991023868982267
  0.8354961191776011  0.6675978410593153  0.3992830953090772
  0.8346855785867902  0.7924286932535204  0.3995938788401582
  0.8331209768340845  0.9160996670058360  0.3996761675717892
  0.9582797222206390  0.0418078361720756  0.3995355769139040
  0.9572153186801872  0.1659288807597338  0.3996191525668315
  0.9568581468267457  0.2908720638490831  0.3996101102358796
  0.9573360749491189  0.4162192574951686  0.3996262814716358
  0.9586023615411179  0.5418530725516698  0.3996445217121397
  0.9595910405962248  0.6675141199761685  0.3995391714275822
  0.9597537321440744  0.7929037834821470  0.3996066846598199
  0.9593040564175439  0.9177221082186713  0.3995197234124870
  0.4094772637619142  0.5779684553696260  0.4003983665924871
  0.5487091161930845  0.5820269966813097  0.4094756835383015
  0.3278716303526737  0.4191611376220939  0.4092607633885312
  0.4457869844295578  0.4970022385659019  0.4843641896665204
 
  0.00000000E+00  0.00000000E+00  0.00000000E+00
  0.00000000E+00  0.00000000E+00  0.00000000E+00
  0.00000000E+00  0.00000000E+00  0.00000000E+00
  0.00000000E+00  0.00000000E+00  0.00000000E+00
  0.00000000E+00  0.00000000E+00  0.00000000E+00
  0.00000000E+00  0.00000000E+00  0.00000000E+00
  0.00000000E+00  0.00000000E+00  0.00000000E+00
  0.00000000E+00  0.00000000E+00  0.00000000E+00
  0.00000000E+00  0.00000000E+00  0.00000000E+00
  0.00000000E+00  0.00000000E+00  0.00000000E+00
  0.00000000E+00  0.00000000E+00  0.00000000E+00
  0.00000000E+00  0.00000000E+00  0.00000000E+00
  0.00000000E+00  0.00000000E+00  0.00000000E+00
  0.00000000E+00  0.00000000E+00  0.00000000E+00
  0.00000000E+00  0.00000000E+00  0.00000000E+00
  0.00000000E+00  0.00000000E+00  0.00000000E+00
  0.00000000E+00  0.00000000E+00  0.00000000E+00
  0.00000000E+00  0.00000000E+00  0.00000000E+00
  0.00000000E+00  0.00000000E+00  0.00000000E+00
  0.00000000E+00  0.00000000E+00  0.00000000E+00
  0.00000000E+00  0.00000000E+00  0.00000000E+00
  0.00000000E+00  0.00000000E+00  0.00000000E+00
  0.00000000E+00  0.00000000E+00  0.00000000E+00
  0.00000000E+00  0.00000000E+00  0.00000000E+00
  0.00000000E+00  0.00000000E+00  0.00000000E+00
  0.00000000E+00  0.00000000E+00  0.00000000E+00
  0.00000000E+00  0.00000000E+00  0.00000000E+00
  0.00000000E+00  0.00000000E+00  0.00000000E+00
  0.00000000E+00  0.00000000E+00  0.00000000E+00
  0.00000000E+00  0.00000000E+00  0.00000000E+00
  0.00000000E+00  0.00000000E+00  0.00000000E+00
  0.00000000E+00  0.00000000E+00  0.00000000E+00
  0.00000000E+00  0.00000000E+00  0.00000000E+00
  0.00000000E+00  0.00000000E+00  0.00000000E+00
  0.00000000E+00  0.00000000E+00  0.00000000E+00
  0.00000000E+00  0.00000000E+00  0.00000000E+00
  0.00000000E+00  0.00000000E+00  0.00000000E+00
  0.00000000E+00  0.00000000E+00  0.00000000E+00
  0.00000000E+00  0.00000000E+00  0.00000000E+00
  0.00000000E+00  0.00000000E+00  0.00000000E+00
  0.00000000E+00  0.00000000E+00  0.00000000E+00
  0.00000000E+00  0.00000000E+00  0.00000000E+00
  0.00000000E+00  0.00000000E+00  0.00000000E+00
  0.00000000E+00  0.00000000E+00  0.00000000E+00
  0.00000000E+00  0.00000000E+00  0.00000000E+00
  0.00000000E+00  0.00000000E+00  0.00000000E+00
  0.00000000E+00  0.00000000E+00  0.00000000E+00
  0.00000000E+00  0.00000000E+00  0.00000000E+00
  0.00000000E+00  0.00000000E+00  0.00000000E+00
  0.00000000E+00  0.00000000E+00  0.00000000E+00
  0.00000000E+00  0.00000000E+00  0.00000000E+00
  0.00000000E+00  0.00000000E+00  0.00000000E+00
  0.00000000E+00  0.00000000E+00  0.00000000E+00
  0.00000000E+00  0.00000000E+00  0.00000000E+00
  0.00000000E+00  0.00000000E+00  0.00000000E+00
  0.00000000E+00  0.00000000E+00  0.00000000E+00
  0.00000000E+00  0.00000000E+00  0.00000000E+00
  0.00000000E+00  0.00000000E+00  0.00000000E+00
  0.00000000E+00  0.00000000E+00  0.00000000E+00
  0.00000000E+00  0.00000000E+00  0.00000000E+00
  0.00000000E+00  0.00000000E+00  0.00000000E+00
  0.00000000E+00  0.00000000E+00  0.00000000E+00
  0.00000000E+00  0.00000000E+00  0.00000000E+00
  0.00000000E+00  0.00000000E+00  0.00000000E+00
  0.00000000E+00  0.00000000E+00  0.00000000E+00
  0.00000000E+00  0.00000000E+00  0.00000000E+00
  0.00000000E+00  0.00000000E+00  0.00000000E+00
  0.00000000E+00  0.00000000E+00  0.00000000E+00
  0.00000000E+00  0.00000000E+00  0.00000000E+00
  0.00000000E+00  0.00000000E+00  0.00000000E+00
  0.00000000E+00  0.00000000E+00  0.00000000E+00
  0.00000000E+00  0.00000000E+00  0.00000000E+00
  0.00000000E+00  0.00000000E+00  0.00000000E+00
  0.00000000E+00  0.00000000E+00  0.00000000E+00
  0.00000000E+00  0.00000000E+00  0.00000000E+00
  0.00000000E+00  0.00000000E+00  0.00000000E+00
  0.00000000E+00  0.00000000E+00  0.00000000E+00
  0.00000000E+00  0.00000000E+00  0.00000000E+00
  0.00000000E+00  0.00000000E+00  0.00000000E+00
  0.00000000E+00  0.00000000E+00  0.00000000E+00
  0.00000000E+00  0.00000000E+00  0.00000000E+00
  0.00000000E+00  0.00000000E+00  0.00000000E+00
  0.00000000E+00  0.00000000E+00  0.00000000E+00
  0.00000000E+00  0.00000000E+00  0.00000000E+00
  0.00000000E+00  0.00000000E+00  0.00000000E+00
  0.00000000E+00  0.00000000E+00  0.00000000E+00
  0.00000000E+00  0.00000000E+00  0.00000000E+00
  0.00000000E+00  0.00000000E+00  0.00000000E+00
  0.00000000E+00  0.00000000E+00  0.00000000E+00
  0.00000000E+00  0.00000000E+00  0.00000000E+00
  0.00000000E+00  0.00000000E+00  0.00000000E+00
  0.00000000E+00  0.00000000E+00  0.00000000E+00
  0.00000000E+00  0.00000000E+00  0.00000000E+00
  0.00000000E+00  0.00000000E+00  0.00000000E+00
  0.00000000E+00  0.00000000E+00  0.00000000E+00
  0.00000000E+00  0.00000000E+00  0.00000000E+00
  0.00000000E+00  0.00000000E+00  0.00000000E+00
  0.00000000E+00  0.00000000E+00  0.00000000E+00
  0.00000000E+00  0.00000000E+00  0.00000000E+00
  0.00000000E+00  0.00000000E+00  0.00000000E+00
  0.00000000E+00  0.00000000E+00  0.00000000E+00
  0.00000000E+00  0.00000000E+00  0.00000000E+00
  0.00000000E+00  0.00000000E+00  0.00000000E+00
  0.00000000E+00  0.00000000E+00  0.00000000E+00
  0.00000000E+00  0.00000000E+00  0.00000000E+00
  0.00000000E+00  0.00000000E+00  0.00000000E+00
  0.00000000E+00  0.00000000E+00  0.00000000E+00
  0.00000000E+00  0.00000000E+00  0.00000000E+00
  0.00000000E+00  0.00000000E+00  0.00000000E+00
  0.00000000E+00  0.00000000E+00  0.00000000E+00
  0.00000000E+00  0.00000000E+00  0.00000000E+00
  0.00000000E+00  0.00000000E+00  0.00000000E+00
  0.00000000E+00  0.00000000E+00  0.00000000E+00
  0.00000000E+00  0.00000000E+00  0.00000000E+00
  0.00000000E+00  0.00000000E+00  0.00000000E+00
  0.00000000E+00  0.00000000E+00  0.00000000E+00
  0.00000000E+00  0.00000000E+00  0.00000000E+00
  0.00000000E+00  0.00000000E+00  0.00000000E+00
  0.00000000E+00  0.00000000E+00  0.00000000E+00
  0.00000000E+00  0.00000000E+00  0.00000000E+00
  0.00000000E+00  0.00000000E+00  0.00000000E+00
  0.00000000E+00  0.00000000E+00  0.00000000E+00
  0.00000000E+00  0.00000000E+00  0.00000000E+00
  0.00000000E+00  0.00000000E+00  0.00000000E+00
  0.00000000E+00  0.00000000E+00  0.00000000E+00
  0.00000000E+00  0.00000000E+00  0.00000000E+00
  0.00000000E+00  0.00000000E+00  0.00000000E+00
  0.00000000E+00  0.00000000E+00  0.00000000E+00
