Ir1 C124 N2                             
   1.00000000000000     
    19.8276733834787677   -0.0407006412388596    0.0000808117622386
    -9.9492530925751161   17.0529520790028037   -0.0004047639061776
     0.0001190210413665   -0.0006386489234735   29.7955344684744361
   Ir   C    N 
     1   124     2
Direct
  0.4375190621726729  0.5000011154694559  0.4210131028177398
  0.0425838862040685  0.0846814712153645  0.4000251393235769
  0.0420910244865040  0.2089374859249633  0.3997705655676116
  0.0411548982887832  0.3333736317053725  0.3996555515773595
  0.0405353636246821  0.4585566762869325  0.3996829095654894
  0.0409831396790378  0.5840016135150827  0.3998637264140640
  0.0415312055945942  0.7093518006382654  0.4001700060899593
  0.0418855239699958  0.8345793254178702  0.4000450506309527
  0.0422967230915210  0.9597802430268713  0.3999369058829619
  0.1684573811823112  0.0862681797457430  0.3999359896301228
  0.1688774273699826  0.2114954937556940  0.3999480650828198
  0.1669812271198208  0.3351052370397291  0.3990749308743337
  0.1642731626206757  0.4594085503495814  0.3993934639456850
  0.1646512128939140  0.5843363704210194  0.3991231248865439
  0.1658047624587509  0.7095318566064039  0.3995834601257931
  0.1665969024409255  0.8348145229201991  0.4000709050667832
  0.1673215372866373  0.9602938545588586  0.3999916947125309
  0.2928244223017853  0.0856580809504955  0.4000424754945712
  0.2950940066893717  0.2131732825782172  0.4007706658898864
  0.2958704196310087  0.3397824922142467  0.3999099490075134
  0.2884283545709930  0.4615478415115877  0.4001428708969929
  0.2880540051739529  0.5853106124551228  0.4003079466775570
  0.2899929754684933  0.7096809311237161  0.3997152833226602
  0.2911516384826162  0.8345227526541830  0.3996403903418586
  0.2919186730327073  0.9597848472882331  0.3998987639578246
  0.4172267660239524  0.0838054136578348  0.3996989286778204
  0.4182631273972530  0.2095324556916096  0.4000664737775020
  0.4223073418013359  0.3373124338151565  0.4048850540974017
  0.4138025088947953  0.7070381487225176  0.4013066589402260
  0.4156673909651052  0.8328485521923261  0.3995912199815581
  0.4165054872149931  0.9583518208511820  0.3997591722900984
  0.5417690222057631  0.0821541812671480  0.3997967828367016
  0.5425916272780963  0.2072436570722679  0.3996064850754095
  0.5442125678820540  0.3318544448987529  0.4006600866725724
  0.5462949676140695  0.4548580618398913  0.4035255811514382
  0.5425439949958916  0.5765833846469586  0.3999081628449214
  0.5369754373705468  0.7023674412825334  0.4021936544175846
  0.5398834393311751  0.8305246383245268  0.4003422959396198
  0.5410270029731957  0.9566710095475857  0.3998660050149841
  0.6663673349474636  0.0815985096902541  0.4000777672662515
  0.6671050329145182  0.2069039573915439  0.3998001378128291
  0.6682078431321236  0.3320939450753150  0.3993322259902113
  0.6697709353750942  0.4573514237296445  0.3990423749081934
  0.6688904044127681  0.5814923410816611  0.3993559665234473
  0.6641110332358261  0.7044268342299023  0.3995176246361002
  0.6640571357249873  0.8296878451890040  0.4000238066751729
  0.6655267665830091  0.9560163422508997  0.3999928228130155
  0.7911481369660086  0.0817477734528576  0.3999160843737048
  0.7916898515480594  0.2070265050582505  0.4001743344400231
  0.7923254519123961  0.3323783594616742  0.3998580476391971
  0.7930890822361991  0.4577903799748186  0.3994879260263246
  0.7932577016821780  0.5830344912295231  0.3995048294870704
  0.7915659132493944  0.7076108469763996  0.3993918872630016
  0.7902115914906087  0.8315042764359084  0.3999688459456539
  0.7903821216816260  0.9563553465543834  0.3999323057902748
  0.9164166443462611  0.0827115652968655  0.3999512126830563
  0.9165080329552241  0.2075598080787505  0.3999662446193211
  0.9165170882479573  0.3327354204529581  0.4001370593346545
  0.9167881901424609  0.4581485229723847  0.4000724003161036
  0.9172163621221077  0.5836350938826029  0.4000352441590230
  0.9169370479286675  0.7088233521247159  0.3999955337376961
  0.9165986606903825  0.8336158059576433  0.3999702321704615
  0.9163891901648367  0.9581338266661448  0.4000214291320562
  0.0846202004640802  0.0436879500553377  0.3999555029303068
  0.0848303141826351  0.1685413364761235  0.3999428404045571
  0.0834374322076686  0.2924173416267140  0.3993928688161554
  0.0817317995552034  0.4169830008615385  0.3995147580516944
  0.0818962375818723  0.5422043536040844  0.3994986745512115
  0.0826819783138572  0.6676052372851721  0.3998687943769503
  0.0833040772702009  0.7929550913200948  0.4001719718358506
  0.0838488731608700  0.9182588632908254  0.3999404419119946
  0.2094525124614194  0.0439834899017853  0.4000033502368777
  0.2109461828103777  0.1703315400918009  0.4000578858352893
  0.2109159355190742  0.2956083725679709  0.3995267878330332
  0.2061131730419383  0.4185221597152674  0.3993667965353082
  0.2052320509129823  0.5426463309769186  0.3990654791365351
  0.2067981549558721  0.6679058414168688  0.3993469533205538
  0.2078781913193651  0.7930790685422329  0.3997810538301310
  0.2086185673756156  0.9183831452899828  0.4000477515022372
  0.3339316080746210  0.0433032631779571  0.3998540701915227
  0.3350866194549239  0.1694406912104491  0.4003847237497670
  0.3380347765858965  0.2976219133995310  0.4022254972772183
  0.3324902630613117  0.4234223608886479  0.3999353726651518
  0.3287163683421394  0.5451293794881119  0.4035298435261599
  0.3308107788280896  0.6681269017002345  0.4006524698228650
  0.3324038632975216  0.7927309503498827  0.3995911014387430
  0.3332322326703860  0.9178265352460279  0.3997632793280004
  0.4584906021568733  0.0416361689045867  0.3997740348415005
  0.4593206662736884  0.1671249683721839  0.3996111408030744
  0.4611838961642166  0.2929138366937246  0.4013306470337299
  0.4527202156827779  0.6626793446190223  0.4048769225480108
  0.4567284257660271  0.7904373256594274  0.4000307671563598
  0.4577455118179410  0.9161650290572585  0.3996849800494526
  0.5830690347087544  0.0401914067547798  0.3999347890148550
  0.5838590768874442  0.1654655111109428  0.3996695961612895
  0.5850326038746876  0.2903038669148771  0.3997137998062189
  0.5869368947583954  0.4146593128743052  0.4002844778090962
  0.5865853986410398  0.5384533261229272  0.4001355118099577
  0.5791600090117449  0.6602314676998254  0.3998920015442978
  0.5799014896467273  0.7868245515865814  0.4007154371557543
  0.5821297030484468  0.9143143739816068  0.4000360969854131
  0.7076504304027795  0.0397037135576831  0.3999923613071904
  0.7083855525030444  0.1651839088420656  0.4001132680503864
  0.7092151273623377  0.2904666871643997  0.3995791783067794
  0.7103401514954792  0.4156610899782877  0.3991017254332654
  0.7107292963149242  0.5406141650481604  0.3993798040739142
  0.7080149530623726  0.6649033935462421  0.3990641835661810
  0.7061552569538462  0.7885420038895821  0.3999397581250693
  0.7065263258817618  0.9137617307543936  0.3999094992937687
  0.8326982026596240  0.0402561524924167  0.3998974286904787
  0.8331167906852168  0.1654336067108103  0.4000305914806360
  0.8334645072637820  0.2906324981246283  0.4001603334210622
  0.8339858652793096  0.4159724733989676  0.3998488465133557
  0.8344351727269680  0.5414387581627734  0.3996841618371403
  0.8338335096177411  0.6666422376153337  0.3996421066702031
  0.8329416496745423  0.7910890520305778  0.3998084109315546
  0.8324378358284070  0.9153691180213183  0.4000337152463848
  0.9586393391015424  0.0419138716791775  0.4000041484689541
  0.9584283699491045  0.1664106906028842  0.3999104555131648
  0.9580642659965588  0.2911942751241807  0.3999856926910218
  0.9577527302146119  0.4163472601115595  0.4000270507016585
  0.9581920641946369  0.5418284337926705  0.4000762184995790
  0.9584649651131617  0.6672492978630596  0.4001436041613594
  0.9585019689270861  0.7924463759407349  0.3999931525532517
  0.9585995898202035  0.9173285400842426  0.4000067421916440
  0.4078542435465740  0.5826898691044272  0.4110583044495903
  0.4671599440635424  0.4172967011262206  0.4110559427514067
 
  0.00000000E+00  0.00000000E+00  0.00000000E+00
  0.00000000E+00  0.00000000E+00  0.00000000E+00
  0.00000000E+00  0.00000000E+00  0.00000000E+00
  0.00000000E+00  0.00000000E+00  0.00000000E+00
  0.00000000E+00  0.00000000E+00  0.00000000E+00
  0.00000000E+00  0.00000000E+00  0.00000000E+00
  0.00000000E+00  0.00000000E+00  0.00000000E+00
  0.00000000E+00  0.00000000E+00  0.00000000E+00
  0.00000000E+00  0.00000000E+00  0.00000000E+00
  0.00000000E+00  0.00000000E+00  0.00000000E+00
  0.00000000E+00  0.00000000E+00  0.00000000E+00
  0.00000000E+00  0.00000000E+00  0.00000000E+00
  0.00000000E+00  0.00000000E+00  0.00000000E+00
  0.00000000E+00  0.00000000E+00  0.00000000E+00
  0.00000000E+00  0.00000000E+00  0.00000000E+00
  0.00000000E+00  0.00000000E+00  0.00000000E+00
  0.00000000E+00  0.00000000E+00  0.00000000E+00
  0.00000000E+00  0.00000000E+00  0.00000000E+00
  0.00000000E+00  0.00000000E+00  0.00000000E+00
  0.00000000E+00  0.00000000E+00  0.00000000E+00
  0.00000000E+00  0.00000000E+00  0.00000000E+00
  0.00000000E+00  0.00000000E+00  0.00000000E+00
  0.00000000E+00  0.00000000E+00  0.00000000E+00
  0.00000000E+00  0.00000000E+00  0.00000000E+00
  0.00000000E+00  0.00000000E+00  0.00000000E+00
  0.00000000E+00  0.00000000E+00  0.00000000E+00
  0.00000000E+00  0.00000000E+00  0.00000000E+00
  0.00000000E+00  0.00000000E+00  0.00000000E+00
  0.00000000E+00  0.00000000E+00  0.00000000E+00
  0.00000000E+00  0.00000000E+00  0.00000000E+00
  0.00000000E+00  0.00000000E+00  0.00000000E+00
  0.00000000E+00  0.00000000E+00  0.00000000E+00
  0.00000000E+00  0.00000000E+00  0.00000000E+00
  0.00000000E+00  0.00000000E+00  0.00000000E+00
  0.00000000E+00  0.00000000E+00  0.00000000E+00
  0.00000000E+00  0.00000000E+00  0.00000000E+00
  0.00000000E+00  0.00000000E+00  0.00000000E+00
  0.00000000E+00  0.00000000E+00  0.00000000E+00
  0.00000000E+00  0.00000000E+00  0.00000000E+00
  0.00000000E+00  0.00000000E+00  0.00000000E+00
  0.00000000E+00  0.00000000E+00  0.00000000E+00
  0.00000000E+00  0.00000000E+00  0.00000000E+00
  0.00000000E+00  0.00000000E+00  0.00000000E+00
  0.00000000E+00  0.00000000E+00  0.00000000E+00
  0.00000000E+00  0.00000000E+00  0.00000000E+00
  0.00000000E+00  0.00000000E+00  0.00000000E+00
  0.00000000E+00  0.00000000E+00  0.00000000E+00
  0.00000000E+00  0.00000000E+00  0.00000000E+00
  0.00000000E+00  0.00000000E+00  0.00000000E+00
  0.00000000E+00  0.00000000E+00  0.00000000E+00
  0.00000000E+00  0.00000000E+00  0.00000000E+00
  0.00000000E+00  0.00000000E+00  0.00000000E+00
  0.00000000E+00  0.00000000E+00  0.00000000E+00
  0.00000000E+00  0.00000000E+00  0.00000000E+00
  0.00000000E+00  0.00000000E+00  0.00000000E+00
  0.00000000E+00  0.00000000E+00  0.00000000E+00
  0.00000000E+00  0.00000000E+00  0.00000000E+00
  0.00000000E+00  0.00000000E+00  0.00000000E+00
  0.00000000E+00  0.00000000E+00  0.00000000E+00
  0.00000000E+00  0.00000000E+00  0.00000000E+00
  0.00000000E+00  0.00000000E+00  0.00000000E+00
  0.00000000E+00  0.00000000E+00  0.00000000E+00
  0.00000000E+00  0.00000000E+00  0.00000000E+00
  0.00000000E+00  0.00000000E+00  0.00000000E+00
  0.00000000E+00  0.00000000E+00  0.00000000E+00
  0.00000000E+00  0.00000000E+00  0.00000000E+00
  0.00000000E+00  0.00000000E+00  0.00000000E+00
  0.00000000E+00  0.00000000E+00  0.00000000E+00
  0.00000000E+00  0.00000000E+00  0.00000000E+00
  0.00000000E+00  0.00000000E+00  0.00000000E+00
  0.00000000E+00  0.00000000E+00  0.00000000E+00
  0.00000000E+00  0.00000000E+00  0.00000000E+00
  0.00000000E+00  0.00000000E+00  0.00000000E+00
  0.00000000E+00  0.00000000E+00  0.00000000E+00
  0.00000000E+00  0.00000000E+00  0.00000000E+00
  0.00000000E+00  0.00000000E+00  0.00000000E+00
  0.00000000E+00  0.00000000E+00  0.00000000E+00
  0.00000000E+00  0.00000000E+00  0.00000000E+00
  0.00000000E+00  0.00000000E+00  0.00000000E+00
  0.00000000E+00  0.00000000E+00  0.00000000E+00
  0.00000000E+00  0.00000000E+00  0.00000000E+00
  0.00000000E+00  0.00000000E+00  0.00000000E+00
  0.00000000E+00  0.00000000E+00  0.00000000E+00
  0.00000000E+00  0.00000000E+00  0.00000000E+00
  0.00000000E+00  0.00000000E+00  0.00000000E+00
  0.00000000E+00  0.00000000E+00  0.00000000E+00
  0.00000000E+00  0.00000000E+00  0.00000000E+00
  0.00000000E+00  0.00000000E+00  0.00000000E+00
  0.00000000E+00  0.00000000E+00  0.00000000E+00
  0.00000000E+00  0.00000000E+00  0.00000000E+00
  0.00000000E+00  0.00000000E+00  0.00000000E+00
  0.00000000E+00  0.00000000E+00  0.00000000E+00
  0.00000000E+00  0.00000000E+00  0.00000000E+00
  0.00000000E+00  0.00000000E+00  0.00000000E+00
  0.00000000E+00  0.00000000E+00  0.00000000E+00
  0.00000000E+00  0.00000000E+00  0.00000000E+00
  0.00000000E+00  0.00000000E+00  0.00000000E+00
  0.00000000E+00  0.00000000E+00  0.00000000E+00
  0.00000000E+00  0.00000000E+00  0.00000000E+00
  0.00000000E+00  0.00000000E+00  0.00000000E+00
  0.00000000E+00  0.00000000E+00  0.00000000E+00
  0.00000000E+00  0.00000000E+00  0.00000000E+00
  0.00000000E+00  0.00000000E+00  0.00000000E+00
  0.00000000E+00  0.00000000E+00  0.00000000E+00
  0.00000000E+00  0.00000000E+00  0.00000000E+00
  0.00000000E+00  0.00000000E+00  0.00000000E+00
  0.00000000E+00  0.00000000E+00  0.00000000E+00
  0.00000000E+00  0.00000000E+00  0.00000000E+00
  0.00000000E+00  0.00000000E+00  0.00000000E+00
  0.00000000E+00  0.00000000E+00  0.00000000E+00
  0.00000000E+00  0.00000000E+00  0.00000000E+00
  0.00000000E+00  0.00000000E+00  0.00000000E+00
  0.00000000E+00  0.00000000E+00  0.00000000E+00
  0.00000000E+00  0.00000000E+00  0.00000000E+00
  0.00000000E+00  0.00000000E+00  0.00000000E+00
  0.00000000E+00  0.00000000E+00  0.00000000E+00
  0.00000000E+00  0.00000000E+00  0.00000000E+00
  0.00000000E+00  0.00000000E+00  0.00000000E+00
  0.00000000E+00  0.00000000E+00  0.00000000E+00
  0.00000000E+00  0.00000000E+00  0.00000000E+00
  0.00000000E+00  0.00000000E+00  0.00000000E+00
  0.00000000E+00  0.00000000E+00  0.00000000E+00
  0.00000000E+00  0.00000000E+00  0.00000000E+00
  0.00000000E+00  0.00000000E+00  0.00000000E+00
  0.00000000E+00  0.00000000E+00  0.00000000E+00
  0.00000000E+00  0.00000000E+00  0.00000000E+00
  0.00000000E+00  0.00000000E+00  0.00000000E+00
