H1 Pd1 C125 N1 O1                       
   1.00000000000000     
    19.8016517546008082   -0.0369148310475511    0.2384070387870649
    -9.9342538504083731   17.0683711109756082    0.2098887769432504
     0.3591567358850060    0.5748994401589929   29.8198239510377121
   H    Pd   C    N    O 
     1     1   125     1     1
Direct
  0.4956686949703206  0.5791828392523014  0.4963515513539289
  0.4338102840690168  0.4946715087396225  0.4295072699235596
  0.0417825437321345  0.0839323640814650  0.3995451911502115
  0.0416604543112611  0.2085167092454143  0.3991893333337249
  0.0412829093419672  0.3331007966393102  0.3989388967492162
  0.0409294440045441  0.4582725160756554  0.3990100859833149
  0.0409851827621748  0.5835725154398367  0.3991130353899889
  0.0412534036950626  0.7088062796031845  0.3992361111868416
  0.0414552252525600  0.8339844293530898  0.3994027288306921
  0.0416433748312241  0.9590504165137558  0.3995638996983316
  0.1672643148590031  0.0849584729831178  0.3998470944803931
  0.1677507424219797  0.2102156988570022  0.3997396349273085
  0.1670877350104507  0.3345917763955714  0.3984667720281561
  0.1653218579370851  0.4588777747917668  0.3984313719228423
  0.1650597522590922  0.5838560101623758  0.3987514211476765
  0.1656624724219954  0.7090396421503318  0.3992559373817232
  0.1662495378808875  0.8342405039503130  0.3995409057211036
  0.1667551291713365  0.9595199836678475  0.3997085309448266
  0.2920992482368271  0.0846880112086825  0.4002231100559212
  0.2931284613832799  0.2109525984767549  0.4017960792360605
  0.2944425918595402  0.3376633542742986  0.4011338888647232
  0.2906407406315233  0.4603681478583956  0.3994549895691500
  0.2886793505566237  0.5848951436211964  0.3997978003967495
  0.2898833223230403  0.7093216759038170  0.3997924869410955
  0.2908899098506232  0.8341071529588040  0.3995485888732018
  0.2914627578888528  0.9592173714292961  0.3995648127431748
  0.4167537688083933  0.0834551247223374  0.3994167425836549
  0.4173514104644180  0.2086610781367265  0.4012553028255076
  0.4187437491214570  0.3343233016920150  0.4084099095177142
  0.4137096652340079  0.7077423074243514  0.4028180806045160
  0.4154363953363727  0.8330645962244353  0.4002707469479116
  0.4161754812940593  0.9582593794325972  0.3993971324661116
  0.5414741800978066  0.0822683158886937  0.3990435825416953
  0.5420921282046738  0.2072746164524404  0.3994950316890377
  0.5428567525131881  0.3317427569409182  0.4024540525881150
  0.5447805997518211  0.4550865803305665  0.4089213263525140
  0.5440090592759080  0.5778071056489856  0.4092283628775451
  0.5367441069061692  0.7028489133799444  0.4065597349887263
  0.5396116074343356  0.8307810321929636  0.4021914201072846
  0.5408124416525292  0.9568367017160615  0.3998253382259839
  0.6661372878716475  0.0817052371080747  0.3993728285122861
  0.6667793332474317  0.2069902283918396  0.3989769529200803
  0.6674065880498959  0.3320242149569050  0.3991532796455215
  0.6685964804481090  0.4570705439696988  0.4000955300382907
  0.6686028165952616  0.5821447847286186  0.4014336533642129
  0.6638631034824378  0.7044248304716401  0.4027968253869384
  0.6638688515023248  0.8297921567007058  0.4022802689770460
  0.6653106079075879  0.9561054357242151  0.4005055101147516
  0.7908773021686618  0.0817241880370373  0.3997273833560120
  0.7913860361413617  0.2069928048069586  0.3994195238254828
  0.7919248935143456  0.3323240493480578  0.3989770854724063
  0.7925820763868928  0.4577078829921994  0.3986139430388232
  0.7926268869639379  0.5828559718409170  0.3988398308764844
  0.7914086015895624  0.7076363975147087  0.3996254616337740
  0.7898912154106270  0.8313526475696336  0.4003204317229530
  0.7900727377510403  0.9562790036051099  0.4001906395228181
  0.9160047480541883  0.0824552992945052  0.3996367590581367
  0.9162496076071759  0.2074624677042252  0.3995174198355728
  0.9164022616512979  0.3325965117994424  0.3994348202853606
  0.9166572497061153  0.4578871305804003  0.3991067023046723
  0.9168737670642207  0.5833022254285041  0.3988672409754369
  0.9165963321502772  0.7084872219175340  0.3989519127491361
  0.9162430114434720  0.8332307379199075  0.3993960194859499
  0.9158546762536419  0.9576789606256626  0.3996808723029584
  0.0836517132410415  0.0426969571151595  0.3996180588680127
  0.0838907928649123  0.1676200346938601  0.3994273307760146
  0.0833332922720490  0.2920462838750614  0.3987088145525437
  0.0824366738038931  0.4167272269664442  0.3987473373686658
  0.0821320164462331  0.5418063446272904  0.3989275939467288
  0.0825429159601639  0.6671200347513575  0.3991938157963213
  0.0829876144400063  0.7924209577028434  0.3994281111545159
  0.0832816115661887  0.9175563188632859  0.3995718592867826
  0.2086479704767642  0.0430237801797360  0.3999521119913398
  0.2093379397091267  0.1686871241774499  0.4002152226171609
  0.2099859856843301  0.2942188801320074  0.3994892768274724
  0.2074440249953524  0.4180171608399765  0.3983847850149105
  0.2060865711152975  0.5422900371832784  0.3984925891470440
  0.2069058835186901  0.6674017032739855  0.3991534057061276
  0.2076096756608110  0.7924931870832288  0.3994647220582480
  0.2081701492242699  0.9177113782512339  0.3996488185292275
  0.3334036447281220  0.0425860741180548  0.3996888196880313
  0.3340924651918761  0.1680815291501178  0.4012911186525394
  0.3351643882253950  0.2942315184183810  0.4043212256803560
  0.3337032597373870  0.4212516548667319  0.4002155133035967
  0.3307298660796956  0.5449656130915242  0.4021660640890903
  0.3309282628824744  0.6676432947002560  0.4008686388978651
  0.3322096718690842  0.7923950183519829  0.3998640571434284
  0.3328998125170010  0.9173869402825298  0.3994842639949741
  0.4581808146385412  0.0414984053517912  0.3991852847151641
  0.4587332521907183  0.1666197105832852  0.3998174896418445
  0.4596066326489282  0.2916912298048682  0.4037189557649734
  0.4634427608742626  0.4151363996512662  0.4155327700522837
  0.4523396686644650  0.6632983637630744  0.4066240529792002
  0.4565736603702368  0.7909092772502828  0.4016745728472592
  0.4575198730974413  0.9162528595204210  0.3997574710014425
  0.5828353390037659  0.0402979861735925  0.3992836582310129
  0.5834898981161789  0.1655564294198726  0.3990014028040492
  0.5842115286481728  0.2903262964707115  0.4000727305134720
  0.5857102325407842  0.4145299047087024  0.4031674594843741
  0.5861124193542064  0.5390944182352290  0.4063669786376508
  0.5785284666232284  0.6601332116820485  0.4062536230596891
  0.5796620617073427  0.7870014090205292  0.4038162387994242
  0.5819067493814470  0.9144774859439890  0.4007386375808164
  0.7074123948391848  0.0397446261675392  0.3997932748456771
  0.7081169795599523  0.1652350590804808  0.3991963482643922
  0.7086912469871764  0.2904214754344767  0.3988741227285867
  0.7096069687386546  0.4156098688318457  0.3989405829815494
  0.7099117420039582  0.5406305746098227  0.3997833459769471
  0.7078004097303304  0.6651527838734936  0.4009916088229165
  0.7057100808300328  0.7884427133664748  0.4017561472982273
  0.7062889916742353  0.9137920302335540  0.4009184953234898
  0.8323108048106399  0.0400748691502339  0.3998190767718559
  0.8328147771198785  0.1653583682434093  0.3995983088155912
  0.8332309371313170  0.2906343732914151  0.3993332747324407
  0.8336957389908515  0.4159209969848806  0.3988632619931262
  0.8339426550709486  0.5412257837927721  0.3986478318037152
  0.8334017919677446  0.6664686431328318  0.3989754008754269
  0.8326480715159909  0.7909249850991479  0.3997019083712011
  0.8319700544129812  0.9150661546665342  0.4000255912115952
  0.9579641015679220  0.0413746525397869  0.3996076886078226
  0.9580231026956247  0.1661231938078717  0.3994689534084576
  0.9579574238691154  0.2910290968299027  0.3993940823314646
  0.9578824005587662  0.4161751566777411  0.3992703476982269
  0.9580701470036209  0.5415647108349011  0.3990577592041616
  0.9581527864805283  0.6668826010124027  0.3989918976577456
  0.9580974710126130  0.7919619762593370  0.3992156239944935
  0.9580025120484004  0.9167561314554130  0.3995416636510549
  0.4083182042474758  0.5838026173940389  0.4085851594390773
  0.4823613843431184  0.5257286801014813  0.4898071734317287
 
  0.00000000E+00  0.00000000E+00  0.00000000E+00
  0.00000000E+00  0.00000000E+00  0.00000000E+00
  0.00000000E+00  0.00000000E+00  0.00000000E+00
  0.00000000E+00  0.00000000E+00  0.00000000E+00
  0.00000000E+00  0.00000000E+00  0.00000000E+00
  0.00000000E+00  0.00000000E+00  0.00000000E+00
  0.00000000E+00  0.00000000E+00  0.00000000E+00
  0.00000000E+00  0.00000000E+00  0.00000000E+00
  0.00000000E+00  0.00000000E+00  0.00000000E+00
  0.00000000E+00  0.00000000E+00  0.00000000E+00
  0.00000000E+00  0.00000000E+00  0.00000000E+00
  0.00000000E+00  0.00000000E+00  0.00000000E+00
  0.00000000E+00  0.00000000E+00  0.00000000E+00
  0.00000000E+00  0.00000000E+00  0.00000000E+00
  0.00000000E+00  0.00000000E+00  0.00000000E+00
  0.00000000E+00  0.00000000E+00  0.00000000E+00
  0.00000000E+00  0.00000000E+00  0.00000000E+00
  0.00000000E+00  0.00000000E+00  0.00000000E+00
  0.00000000E+00  0.00000000E+00  0.00000000E+00
  0.00000000E+00  0.00000000E+00  0.00000000E+00
  0.00000000E+00  0.00000000E+00  0.00000000E+00
  0.00000000E+00  0.00000000E+00  0.00000000E+00
  0.00000000E+00  0.00000000E+00  0.00000000E+00
  0.00000000E+00  0.00000000E+00  0.00000000E+00
  0.00000000E+00  0.00000000E+00  0.00000000E+00
  0.00000000E+00  0.00000000E+00  0.00000000E+00
  0.00000000E+00  0.00000000E+00  0.00000000E+00
  0.00000000E+00  0.00000000E+00  0.00000000E+00
  0.00000000E+00  0.00000000E+00  0.00000000E+00
  0.00000000E+00  0.00000000E+00  0.00000000E+00
  0.00000000E+00  0.00000000E+00  0.00000000E+00
  0.00000000E+00  0.00000000E+00  0.00000000E+00
  0.00000000E+00  0.00000000E+00  0.00000000E+00
  0.00000000E+00  0.00000000E+00  0.00000000E+00
  0.00000000E+00  0.00000000E+00  0.00000000E+00
  0.00000000E+00  0.00000000E+00  0.00000000E+00
  0.00000000E+00  0.00000000E+00  0.00000000E+00
  0.00000000E+00  0.00000000E+00  0.00000000E+00
  0.00000000E+00  0.00000000E+00  0.00000000E+00
  0.00000000E+00  0.00000000E+00  0.00000000E+00
  0.00000000E+00  0.00000000E+00  0.00000000E+00
  0.00000000E+00  0.00000000E+00  0.00000000E+00
  0.00000000E+00  0.00000000E+00  0.00000000E+00
  0.00000000E+00  0.00000000E+00  0.00000000E+00
  0.00000000E+00  0.00000000E+00  0.00000000E+00
  0.00000000E+00  0.00000000E+00  0.00000000E+00
  0.00000000E+00  0.00000000E+00  0.00000000E+00
  0.00000000E+00  0.00000000E+00  0.00000000E+00
  0.00000000E+00  0.00000000E+00  0.00000000E+00
  0.00000000E+00  0.00000000E+00  0.00000000E+00
  0.00000000E+00  0.00000000E+00  0.00000000E+00
  0.00000000E+00  0.00000000E+00  0.00000000E+00
  0.00000000E+00  0.00000000E+00  0.00000000E+00
  0.00000000E+00  0.00000000E+00  0.00000000E+00
  0.00000000E+00  0.00000000E+00  0.00000000E+00
  0.00000000E+00  0.00000000E+00  0.00000000E+00
  0.00000000E+00  0.00000000E+00  0.00000000E+00
  0.00000000E+00  0.00000000E+00  0.00000000E+00
  0.00000000E+00  0.00000000E+00  0.00000000E+00
  0.00000000E+00  0.00000000E+00  0.00000000E+00
  0.00000000E+00  0.00000000E+00  0.00000000E+00
  0.00000000E+00  0.00000000E+00  0.00000000E+00
  0.00000000E+00  0.00000000E+00  0.00000000E+00
  0.00000000E+00  0.00000000E+00  0.00000000E+00
  0.00000000E+00  0.00000000E+00  0.00000000E+00
  0.00000000E+00  0.00000000E+00  0.00000000E+00
  0.00000000E+00  0.00000000E+00  0.00000000E+00
  0.00000000E+00  0.00000000E+00  0.00000000E+00
  0.00000000E+00  0.00000000E+00  0.00000000E+00
  0.00000000E+00  0.00000000E+00  0.00000000E+00
  0.00000000E+00  0.00000000E+00  0.00000000E+00
  0.00000000E+00  0.00000000E+00  0.00000000E+00
  0.00000000E+00  0.00000000E+00  0.00000000E+00
  0.00000000E+00  0.00000000E+00  0.00000000E+00
  0.00000000E+00  0.00000000E+00  0.00000000E+00
  0.00000000E+00  0.00000000E+00  0.00000000E+00
  0.00000000E+00  0.00000000E+00  0.00000000E+00
  0.00000000E+00  0.00000000E+00  0.00000000E+00
  0.00000000E+00  0.00000000E+00  0.00000000E+00
  0.00000000E+00  0.00000000E+00  0.00000000E+00
  0.00000000E+00  0.00000000E+00  0.00000000E+00
  0.00000000E+00  0.00000000E+00  0.00000000E+00
  0.00000000E+00  0.00000000E+00  0.00000000E+00
  0.00000000E+00  0.00000000E+00  0.00000000E+00
  0.00000000E+00  0.00000000E+00  0.00000000E+00
  0.00000000E+00  0.00000000E+00  0.00000000E+00
  0.00000000E+00  0.00000000E+00  0.00000000E+00
  0.00000000E+00  0.00000000E+00  0.00000000E+00
  0.00000000E+00  0.00000000E+00  0.00000000E+00
  0.00000000E+00  0.00000000E+00  0.00000000E+00
  0.00000000E+00  0.00000000E+00  0.00000000E+00
  0.00000000E+00  0.00000000E+00  0.00000000E+00
  0.00000000E+00  0.00000000E+00  0.00000000E+00
  0.00000000E+00  0.00000000E+00  0.00000000E+00
  0.00000000E+00  0.00000000E+00  0.00000000E+00
  0.00000000E+00  0.00000000E+00  0.00000000E+00
  0.00000000E+00  0.00000000E+00  0.00000000E+00
  0.00000000E+00  0.00000000E+00  0.00000000E+00
  0.00000000E+00  0.00000000E+00  0.00000000E+00
  0.00000000E+00  0.00000000E+00  0.00000000E+00
  0.00000000E+00  0.00000000E+00  0.00000000E+00
  0.00000000E+00  0.00000000E+00  0.00000000E+00
  0.00000000E+00  0.00000000E+00  0.00000000E+00
  0.00000000E+00  0.00000000E+00  0.00000000E+00
  0.00000000E+00  0.00000000E+00  0.00000000E+00
  0.00000000E+00  0.00000000E+00  0.00000000E+00
  0.00000000E+00  0.00000000E+00  0.00000000E+00
  0.00000000E+00  0.00000000E+00  0.00000000E+00
  0.00000000E+00  0.00000000E+00  0.00000000E+00
  0.00000000E+00  0.00000000E+00  0.00000000E+00
  0.00000000E+00  0.00000000E+00  0.00000000E+00
  0.00000000E+00  0.00000000E+00  0.00000000E+00
  0.00000000E+00  0.00000000E+00  0.00000000E+00
  0.00000000E+00  0.00000000E+00  0.00000000E+00
  0.00000000E+00  0.00000000E+00  0.00000000E+00
  0.00000000E+00  0.00000000E+00  0.00000000E+00
  0.00000000E+00  0.00000000E+00  0.00000000E+00
  0.00000000E+00  0.00000000E+00  0.00000000E+00
  0.00000000E+00  0.00000000E+00  0.00000000E+00
  0.00000000E+00  0.00000000E+00  0.00000000E+00
  0.00000000E+00  0.00000000E+00  0.00000000E+00
  0.00000000E+00  0.00000000E+00  0.00000000E+00
  0.00000000E+00  0.00000000E+00  0.00000000E+00
  0.00000000E+00  0.00000000E+00  0.00000000E+00
  0.00000000E+00  0.00000000E+00  0.00000000E+00
  0.00000000E+00  0.00000000E+00  0.00000000E+00
  0.00000000E+00  0.00000000E+00  0.00000000E+00
  0.00000000E+00  0.00000000E+00  0.00000000E+00
  0.00000000E+00  0.00000000E+00  0.00000000E+00
