Cr1 C122 N4 O1                          
   1.00000000000000     
    19.7943033794608745   -0.0000595215467663    0.0084735679094028
    -9.8971957693720771   17.0073185779531926   -0.0107342616017471
     0.0126553467710248   -0.0113170616234442   29.8900665309327138
   Cr   C    N    O 
     1   122     4     1
Direct
  0.4376309703086785  0.5001118249854964  0.4271473053231771
  0.0422659647906143  0.0842996656164580  0.3998996440785831
  0.0413944384699705  0.2084150994826425  0.3999280775414429
  0.0405985747639933  0.3330664198266761  0.3996852506373848
  0.0406213086716418  0.4582172856192437  0.3993698616221318
  0.0413544923455637  0.5836438946199489  0.3992655813079007
  0.0420293333819853  0.7090583107285685  0.3994285336799780
  0.0422974244152673  0.8342976177682530  0.3996783584008349
  0.0424226820154340  0.9595590513737393  0.3998046002223634
  0.1682977135708656  0.0859913885156444  0.4005287954142820
  0.1681298792183989  0.2109355030568912  0.4011818582066703
  0.1656235869023844  0.3339838550229729  0.4011749060121901
  0.1644851714963789  0.4585403815920136  0.4003986574568797
  0.1653245264607008  0.5835584147170468  0.3997295476795216
  0.1664275655081871  0.7088217492724677  0.3994697528975131
  0.1670002990698063  0.8342969736376704  0.3996641132475343
  0.1674880774567342  0.9599783937588241  0.3999851414993465
  0.2926950544398337  0.0859846705583157  0.4005157491930607
  0.2944179171265426  0.2138468480486417  0.4024023788965289
  0.2937701085965087  0.3401575995613517  0.4043645924607594
  0.2880871086004883  0.4582485068675829  0.4033164731076414
  0.2888283632669816  0.5828490313367644  0.4013666210734267
  0.2908007372493070  0.7082277976359902  0.4001562501937231
  0.2916645477858466  0.8337736330309301  0.3996157759805128
  0.2921326043253947  0.9595432967167309  0.3997724597442117
  0.4170340901118825  0.0842853807435015  0.3999004890544498
  0.4178063966563020  0.2109236293130388  0.4011634899381469
  0.4213762662457031  0.3401308694203836  0.4042735000345939
  0.4147524748538758  0.7052111956322626  0.4020346697249342
  0.4161905437479938  0.8319086152056183  0.4002494920851155
  0.4166873328238601  0.9581720066875519  0.3996530460239279
  0.5415486725446215  0.0826485842160963  0.3996522747451908
  0.5420211119338709  0.2084072655237367  0.3999393181580357
  0.5433576154143965  0.3339804444600090  0.4010937007274455
  0.5451422065535401  0.4582424756780945  0.4031741288559886
  0.5379609706659237  0.7009299530536441  0.4043104668763456
  0.5404196104303622  0.8298184253631024  0.4013966354540136
  0.5411306838505087  0.9566036856028804  0.4000380050045917
  0.6661663947630744  0.0820447082767305  0.3998319287187461
  0.6665689420319896  0.2075735078873852  0.3995645722825819
  0.6674639593942563  0.3330548941699856  0.3996367808458863
  0.6690452472271003  0.4585386488795423  0.4003033218050664
  0.6690182148428027  0.5828579513421310  0.4012494941770283
  0.6654722604967698  0.7052273104447709  0.4019667748761912
  0.6644030420708580  0.8298228563612250  0.4013847546975836
  0.6655917937559641  0.9561790269552115  0.4003604581805091
  0.7908838900735199  0.0820483792327456  0.3998091855666842
  0.7912130242516261  0.2074245253463639  0.3996135290045831
  0.7917495144684068  0.3328138765524558  0.3993577853959860
  0.7925842648969870  0.4582177932827474  0.3992999541984399
  0.7932238372349696  0.5835514636626462  0.3996456179881183
  0.7924392966352828  0.7082391628923059  0.4001249450874308
  0.7907368390278582  0.8319263577841426  0.4002662159004013
  0.7904866544052301  0.9566121483175173  0.4000203902301726
  0.9161075032697144  0.0826588417789323  0.3996180577891656
  0.9160116028747546  0.2075747068660799  0.3995463655045046
  0.9160727498387059  0.3328178596480059  0.3993718342161178
  0.9166198853673631  0.4582503181290449  0.3991856269583272
  0.9172870192092210  0.5836491918669817  0.3992242248522725
  0.9173963569819211  0.7088273865896064  0.3994617078054276
  0.9171255117741846  0.8337916866643554  0.3996536655804865
  0.9165018313354223  0.9581913096557607  0.3996678471466503
  0.0845294612109199  0.0434059608387816  0.4000375063776138
  0.0842893223774761  0.1680989026548488  0.4002431105340999
  0.0825759982242321  0.2917758819528944  0.4001575867778876
  0.0817754553283813  0.4164511730468055  0.3997165301345192
  0.0824048149290982  0.5417846999902058  0.3993751513467665
  0.0832576697556698  0.6671751915589117  0.3993721618276260
  0.0837888750875225  0.7925684538576370  0.3996234730092435
  0.0841222379041761  0.9179561861786083  0.3998359242481507
  0.2094149565283223  0.0438307064098357  0.4003606917562016
  0.2106146072648516  0.1701996672965605  0.4013912799778676
  0.2095598638656583  0.2948141161420061  0.4020394710308497
  0.2059898247760257  0.4171623601601733  0.4013723171292652
  0.2059480992881230  0.5414704921139307  0.4004034656854667
  0.2075330521297599  0.6669365698025204  0.3996962706257389
  0.2084304864104279  0.7924262479447237  0.3995562880354009
  0.2088288912354712  0.9179498726369609  0.3998182904603514
  0.3338733430313909  0.0433902922118182  0.4000151705157084
  0.3345859294453427  0.1701916834803788  0.4013782391424545
  0.3370539697719369  0.2991056328272869  0.4043334999285096
  0.3298461039733799  0.5417752706027846  0.4033024933154851
  0.3316433360747083  0.6660298659176350  0.4011670185351586
  0.3329807233700391  0.7915917901664021  0.3999387838730241
  0.3334514890863682  0.9173427150529578  0.3996309394964052
  0.4583170198674439  0.0418169908744506  0.3996593135567443
  0.4588103790494210  0.1680816814258022  0.4002504205860362
  0.4602538241000560  0.2947993176453337  0.4019799645958075
  0.4536201807141902  0.6598736102583183  0.4043337097751685
  0.4572020928488639  0.7890801884045342  0.4011843092482377
  0.4579679413160725  0.9157001108705559  0.3998987284933399
  0.5828673203595932  0.0404478143896964  0.3997990574771262
  0.5833432758437614  0.1662201154588662  0.3996338929072996
  0.5842006947601454  0.2917696056931701  0.4001200829478402
  0.5861620315267341  0.4171533683839096  0.4012613002821188
  0.5869109568882290  0.5417753379285277  0.4031525709333451
  0.5812679193357615  0.6599034493175702  0.4042409624780832
  0.5805859241485719  0.7861762952323763  0.4024038762038015
  0.5823101435600199  0.9140198957791987  0.4005343080108336
  0.7075151543265378  0.0400266094059066  0.3999826742183513
  0.7080025924846354  0.1656986219876329  0.3996707701143875
  0.7085728757479930  0.2911753640999527  0.3994490600518875
  0.7096692342509715  0.4164459885719159  0.3996422675125549
  0.7105115778885633  0.5414661766956057  0.4003016977477405
  0.7093846285265967  0.6660312102822226  0.4010843883693730
  0.7068944814430881  0.7890975830677548  0.4011669646458810
  0.7067198466756299  0.9140240146832478  0.4005200963133640
  0.8325900332635244  0.0404564002415128  0.3997650536084854
  0.8327125901701721  0.1657042811696354  0.3996503246790326
  0.8329708475893968  0.2909436796426891  0.3994199990260230
  0.8336387502140844  0.4163452227547261  0.3992270519052515
  0.8343662096465886  0.5417765731363554  0.3992989059110524
  0.8344060858295940  0.6669423237230026  0.3996537170596129
  0.8336239915363625  0.7916022386082421  0.3999545422040574
  0.8327494880806418  0.9157145318107177  0.3999111960870120
  0.9585146162550146  0.0418320995319559  0.3996486594450896
  0.9578903472722511  0.1662288111729479  0.3996040840318228
  0.9576123310857610  0.2911822947208266  0.3994615325537285
  0.9577089764533080  0.4163531889510930  0.3992646710748251
  0.9583715686779110  0.5417468136452367  0.3991853152180116
  0.9589294224530136  0.6671864200228379  0.3993549367292106
  0.9590001086400386  0.7924368827925020  0.3995768789283470
  0.9589046327561516  0.9173576799875170  0.3996664152317468
  0.4098646375005196  0.5790391985160749  0.4062414768784445
  0.5441775574609632  0.5790736226479778  0.4060903680637737
  0.3308635455435938  0.4210085233812030  0.4062824357927862
  0.4651164617698896  0.4209731344893288  0.4061362905831623
  0.4379661287707385  0.5003593389149340  0.4797235233867034
 
  0.00000000E+00  0.00000000E+00  0.00000000E+00
  0.00000000E+00  0.00000000E+00  0.00000000E+00
  0.00000000E+00  0.00000000E+00  0.00000000E+00
  0.00000000E+00  0.00000000E+00  0.00000000E+00
  0.00000000E+00  0.00000000E+00  0.00000000E+00
  0.00000000E+00  0.00000000E+00  0.00000000E+00
  0.00000000E+00  0.00000000E+00  0.00000000E+00
  0.00000000E+00  0.00000000E+00  0.00000000E+00
  0.00000000E+00  0.00000000E+00  0.00000000E+00
  0.00000000E+00  0.00000000E+00  0.00000000E+00
  0.00000000E+00  0.00000000E+00  0.00000000E+00
  0.00000000E+00  0.00000000E+00  0.00000000E+00
  0.00000000E+00  0.00000000E+00  0.00000000E+00
  0.00000000E+00  0.00000000E+00  0.00000000E+00
  0.00000000E+00  0.00000000E+00  0.00000000E+00
  0.00000000E+00  0.00000000E+00  0.00000000E+00
  0.00000000E+00  0.00000000E+00  0.00000000E+00
  0.00000000E+00  0.00000000E+00  0.00000000E+00
  0.00000000E+00  0.00000000E+00  0.00000000E+00
  0.00000000E+00  0.00000000E+00  0.00000000E+00
  0.00000000E+00  0.00000000E+00  0.00000000E+00
  0.00000000E+00  0.00000000E+00  0.00000000E+00
  0.00000000E+00  0.00000000E+00  0.00000000E+00
  0.00000000E+00  0.00000000E+00  0.00000000E+00
  0.00000000E+00  0.00000000E+00  0.00000000E+00
  0.00000000E+00  0.00000000E+00  0.00000000E+00
  0.00000000E+00  0.00000000E+00  0.00000000E+00
  0.00000000E+00  0.00000000E+00  0.00000000E+00
  0.00000000E+00  0.00000000E+00  0.00000000E+00
  0.00000000E+00  0.00000000E+00  0.00000000E+00
  0.00000000E+00  0.00000000E+00  0.00000000E+00
  0.00000000E+00  0.00000000E+00  0.00000000E+00
  0.00000000E+00  0.00000000E+00  0.00000000E+00
  0.00000000E+00  0.00000000E+00  0.00000000E+00
  0.00000000E+00  0.00000000E+00  0.00000000E+00
  0.00000000E+00  0.00000000E+00  0.00000000E+00
  0.00000000E+00  0.00000000E+00  0.00000000E+00
  0.00000000E+00  0.00000000E+00  0.00000000E+00
  0.00000000E+00  0.00000000E+00  0.00000000E+00
  0.00000000E+00  0.00000000E+00  0.00000000E+00
  0.00000000E+00  0.00000000E+00  0.00000000E+00
  0.00000000E+00  0.00000000E+00  0.00000000E+00
  0.00000000E+00  0.00000000E+00  0.00000000E+00
  0.00000000E+00  0.00000000E+00  0.00000000E+00
  0.00000000E+00  0.00000000E+00  0.00000000E+00
  0.00000000E+00  0.00000000E+00  0.00000000E+00
  0.00000000E+00  0.00000000E+00  0.00000000E+00
  0.00000000E+00  0.00000000E+00  0.00000000E+00
  0.00000000E+00  0.00000000E+00  0.00000000E+00
  0.00000000E+00  0.00000000E+00  0.00000000E+00
  0.00000000E+00  0.00000000E+00  0.00000000E+00
  0.00000000E+00  0.00000000E+00  0.00000000E+00
  0.00000000E+00  0.00000000E+00  0.00000000E+00
  0.00000000E+00  0.00000000E+00  0.00000000E+00
  0.00000000E+00  0.00000000E+00  0.00000000E+00
  0.00000000E+00  0.00000000E+00  0.00000000E+00
  0.00000000E+00  0.00000000E+00  0.00000000E+00
  0.00000000E+00  0.00000000E+00  0.00000000E+00
  0.00000000E+00  0.00000000E+00  0.00000000E+00
  0.00000000E+00  0.00000000E+00  0.00000000E+00
  0.00000000E+00  0.00000000E+00  0.00000000E+00
  0.00000000E+00  0.00000000E+00  0.00000000E+00
  0.00000000E+00  0.00000000E+00  0.00000000E+00
  0.00000000E+00  0.00000000E+00  0.00000000E+00
  0.00000000E+00  0.00000000E+00  0.00000000E+00
  0.00000000E+00  0.00000000E+00  0.00000000E+00
  0.00000000E+00  0.00000000E+00  0.00000000E+00
  0.00000000E+00  0.00000000E+00  0.00000000E+00
  0.00000000E+00  0.00000000E+00  0.00000000E+00
  0.00000000E+00  0.00000000E+00  0.00000000E+00
  0.00000000E+00  0.00000000E+00  0.00000000E+00
  0.00000000E+00  0.00000000E+00  0.00000000E+00
  0.00000000E+00  0.00000000E+00  0.00000000E+00
  0.00000000E+00  0.00000000E+00  0.00000000E+00
  0.00000000E+00  0.00000000E+00  0.00000000E+00
  0.00000000E+00  0.00000000E+00  0.00000000E+00
  0.00000000E+00  0.00000000E+00  0.00000000E+00
  0.00000000E+00  0.00000000E+00  0.00000000E+00
  0.00000000E+00  0.00000000E+00  0.00000000E+00
  0.00000000E+00  0.00000000E+00  0.00000000E+00
  0.00000000E+00  0.00000000E+00  0.00000000E+00
  0.00000000E+00  0.00000000E+00  0.00000000E+00
  0.00000000E+00  0.00000000E+00  0.00000000E+00
  0.00000000E+00  0.00000000E+00  0.00000000E+00
  0.00000000E+00  0.00000000E+00  0.00000000E+00
  0.00000000E+00  0.00000000E+00  0.00000000E+00
  0.00000000E+00  0.00000000E+00  0.00000000E+00
  0.00000000E+00  0.00000000E+00  0.00000000E+00
  0.00000000E+00  0.00000000E+00  0.00000000E+00
  0.00000000E+00  0.00000000E+00  0.00000000E+00
  0.00000000E+00  0.00000000E+00  0.00000000E+00
  0.00000000E+00  0.00000000E+00  0.00000000E+00
  0.00000000E+00  0.00000000E+00  0.00000000E+00
  0.00000000E+00  0.00000000E+00  0.00000000E+00
  0.00000000E+00  0.00000000E+00  0.00000000E+00
  0.00000000E+00  0.00000000E+00  0.00000000E+00
  0.00000000E+00  0.00000000E+00  0.00000000E+00
  0.00000000E+00  0.00000000E+00  0.00000000E+00
  0.00000000E+00  0.00000000E+00  0.00000000E+00
  0.00000000E+00  0.00000000E+00  0.00000000E+00
  0.00000000E+00  0.00000000E+00  0.00000000E+00
  0.00000000E+00  0.00000000E+00  0.00000000E+00
  0.00000000E+00  0.00000000E+00  0.00000000E+00
  0.00000000E+00  0.00000000E+00  0.00000000E+00
  0.00000000E+00  0.00000000E+00  0.00000000E+00
  0.00000000E+00  0.00000000E+00  0.00000000E+00
  0.00000000E+00  0.00000000E+00  0.00000000E+00
  0.00000000E+00  0.00000000E+00  0.00000000E+00
  0.00000000E+00  0.00000000E+00  0.00000000E+00
  0.00000000E+00  0.00000000E+00  0.00000000E+00
  0.00000000E+00  0.00000000E+00  0.00000000E+00
  0.00000000E+00  0.00000000E+00  0.00000000E+00
  0.00000000E+00  0.00000000E+00  0.00000000E+00
  0.00000000E+00  0.00000000E+00  0.00000000E+00
  0.00000000E+00  0.00000000E+00  0.00000000E+00
  0.00000000E+00  0.00000000E+00  0.00000000E+00
  0.00000000E+00  0.00000000E+00  0.00000000E+00
  0.00000000E+00  0.00000000E+00  0.00000000E+00
  0.00000000E+00  0.00000000E+00  0.00000000E+00
  0.00000000E+00  0.00000000E+00  0.00000000E+00
  0.00000000E+00  0.00000000E+00  0.00000000E+00
  0.00000000E+00  0.00000000E+00  0.00000000E+00
  0.00000000E+00  0.00000000E+00  0.00000000E+00
  0.00000000E+00  0.00000000E+00  0.00000000E+00
  0.00000000E+00  0.00000000E+00  0.00000000E+00
  0.00000000E+00  0.00000000E+00  0.00000000E+00
  0.00000000E+00  0.00000000E+00  0.00000000E+00
  0.00000000E+00  0.00000000E+00  0.00000000E+00
