Zr1 H1 C125 N1                          
   1.00000000000000     
    19.8190134084496847   -0.0082049272636318   -0.0462684675057636
    -9.9166251356216026   17.0763510012978728   -0.1398958716676844
    -0.0692960659468708   -0.2834266319615399   29.7420764043589863
   Zr   H    C    N 
     1     1   125     1
Direct
  0.4397205546883896  0.5022763436839777  0.4412082617199913
  0.4457862597917038  0.5021246592043175  0.5051868995504522
  0.0418112967490228  0.0839526375461811  0.3994551004446642
  0.0410938943380627  0.2082884372675642  0.3991236139077911
  0.0406282311648632  0.3329638814096059  0.3986513447550390
  0.0407063481491318  0.4583976529756658  0.3985841601481458
  0.0414418711637025  0.5838671564536483  0.3993252825072360
  0.0420641985513717  0.7091837400673003  0.3998544219008480
  0.0423657447269658  0.8344981058341538  0.3997654836305793
  0.0423572391566481  0.9594845328032661  0.3995246129592480
  0.1675133866784050  0.0851049564711121  0.3999744417386835
  0.1668237179075371  0.2095078617582388  0.4001777163836526
  0.1657546547151497  0.3339047148060060  0.3998588956957658
  0.1644653812557021  0.4585055221645389  0.3986495509257301
  0.1653011311581777  0.5837846592621696  0.3983799515520287
  0.1663585101747133  0.7092239518075405  0.3992079291139806
  0.1670387558632819  0.8345722804134176  0.3996718484625787
  0.1674305138278530  0.9598647501519754  0.3997114944852133
  0.2925793401183270  0.0850560311102404  0.3999525125602852
  0.2933073301326337  0.2113834950515898  0.4018617335351320
  0.2918755189852191  0.3363029840200787  0.4046819398769990
  0.2886653002687731  0.4588424365685160  0.4038880965358524
  0.2889791643025469  0.5845092110374237  0.3997644556472699
  0.2906697401086312  0.7093301903266414  0.3988243861654853
  0.2915790509201337  0.8343003582185344  0.3991631006035533
  0.2920444762833927  0.9594914804819987  0.3994730520182288
  0.4171452394763611  0.0837450681776667  0.3993743630239786
  0.4177043354746304  0.2090687914363695  0.4000510724017556
  0.4197997958918274  0.3357380971120849  0.4046509328608242
  0.4149638476632329  0.7078067221843165  0.4003898731290864
  0.4161119422065191  0.8331805352195475  0.3990552010367789
  0.4166860850683350  0.9584876826657437  0.3992874484041913
  0.5417602702103275  0.0826920926695015  0.3994384353423527
  0.5423326505196233  0.2078133755905124  0.3991108401104855
  0.5433007198460797  0.3329125246543137  0.3996312381833489
  0.5456411400208812  0.4572475108580098  0.4033789087063586
  0.5465169577025866  0.5823839393477696  0.4066204461568626
  0.5392352707075319  0.7046115780016118  0.4031965448779096
  0.5405384906527810  0.8315681285310439  0.3999556601170018
  0.5412977065401516  0.9573339887635628  0.3994777560534203
  0.6663678193990307  0.0822405378789122  0.3998195364399417
  0.6668908163584641  0.2075188645739539  0.3995041428645035
  0.6676056622733622  0.3326521257034898  0.3988649156372283
  0.6693307272982160  0.4580730020818234  0.3984345054944623
  0.6702350943654006  0.5838284691348447  0.3988757958159801
  0.6670683866343852  0.7074356585413822  0.3994223983667748
  0.6653490355007153  0.8312119429292513  0.3997437466653592
  0.6659149906490993  0.9568808794619854  0.3997522656343886
  0.7910823705842271  0.0822507774048762  0.3997072629917094
  0.7913844888507677  0.2074209456442013  0.3997081332419760
  0.7920063164004851  0.3327936306414574  0.3994902744758468
  0.7929754636769475  0.4582698686508744  0.3989520537793774
  0.7935414073091971  0.5835869321493915  0.3983301940812540
  0.7930990003508142  0.7088885713624441  0.3982714584493229
  0.7917308806977893  0.8329942713395859  0.3987683380189682
  0.7908745858953377  0.9571845626032054  0.3993628984442542
  0.9161653310609406  0.0828188974351278  0.3993647945558869
  0.9160396963047589  0.2076679170772547  0.3992413460630958
  0.9162458324180281  0.3328740062692370  0.3991980125551471
  0.9167994008687128  0.4582634268134215  0.3994525176664659
  0.9175160419603804  0.5837853876516529  0.3995296569662177
  0.9176950543729262  0.7091864480458964  0.3992925795220913
  0.9174356029959628  0.8340667695598237  0.3991267221133953
  0.9167285143485175  0.9584501423322619  0.3992925305122892
  0.0840172210783397  0.0429533291004374  0.3995921120596867
  0.0833272579688173  0.1672837727719790  0.3994553039388783
  0.0823722645836424  0.2916705234118324  0.3989719163522078
  0.0818135869081055  0.4166232132637577  0.3983456896002461
  0.0823711824997566  0.5419470968824255  0.3986750397668462
  0.0832640095900036  0.6674203501278446  0.3995377542670505
  0.0838470614614935  0.7928382710998494  0.3998492771493188
  0.0840701371416012  0.9180167554932694  0.3996713223928315
  0.2091363047664447  0.0433157783801958  0.3999067083964647
  0.2092229619840436  0.1687093561835521  0.4006776835906958
  0.2082305850169157  0.2930460462528899  0.4009719100621142
  0.2058342707406617  0.4172712577190467  0.4001412458743832
  0.2060742980810664  0.5420202536311105  0.3985511651671826
  0.2075363518491669  0.6674846021299952  0.3987205305930877
  0.2083685232169197  0.7927473168275789  0.3993803565752721
  0.2088810813310464  0.9180301477627915  0.3996311059461833
  0.3338788428531125  0.0428851730974005  0.3995430171761022
  0.3345104125956294  0.1685455484659370  0.4006376461996474
  0.3350617418785253  0.2946626872042764  0.4046504587887691
  0.3297502154231526  0.4187323030511051  0.4083463268098654
  0.3308244174340714  0.5445804657944726  0.4035975072398021
  0.3318320099315047  0.6676194936874648  0.3995292926905803
  0.3329301272721118  0.7925277495815827  0.3989522394114031
  0.3335006674364696  0.9176171569003779  0.3992921214046818
  0.4586044494934829  0.0417693991159183  0.3993531022001569
  0.4590344073923557  0.1669617105074419  0.3993416227055664
  0.4599848608630059  0.2924063221209230  0.4007926562906662
  0.4646877325762356  0.4178988714436377  0.4081720134035284
  0.4544635669850753  0.6639912515076148  0.4037583578452108
  0.4574726994429377  0.7911174283280479  0.3995173846271241
  0.4580595464187566  0.9164667211218820  0.3992287511781050
  0.5831799565767034  0.0407745734847270  0.3996121268953900
  0.5836989455300933  0.1660426138666737  0.3993060664344936
  0.5845189256004037  0.2910465650915465  0.3989592189453622
  0.5866028451577696  0.4160019959296287  0.3997569938205704
  0.5881816362399855  0.5427373987559513  0.4026077686998061
  0.5833823402291656  0.6640298098793425  0.4029595978758417
  0.5811299259608883  0.7883437212174187  0.4007837551324437
  0.5825833424925861  0.9151813680834933  0.3996681995394408
  0.7077582594191265  0.0403771009997541  0.3998240077377271
  0.7082498785186081  0.1657397431640224  0.3997809259633842
  0.7088620106570005  0.2909691239868297  0.3993126195830683
  0.7100776488035097  0.4163774973352863  0.3985304531365068
  0.7110687437648697  0.5418101888079051  0.3981530279803660
  0.7099332858171258  0.6669555058154690  0.3985089520072173
  0.7081514184115369  0.7907542437940794  0.3990441493144178
  0.7072533173166676  0.9148868236226196  0.3995543804667141
  0.8326899266213340  0.0407237256181203  0.3994975086747192
  0.8328166104997438  0.1657720107701459  0.3996161407629975
  0.8332398428358316  0.2910646401604325  0.3995383662926837
  0.8339420409634457  0.4163928946199920  0.3994257171776854
  0.8346483436051920  0.5418005678760723  0.3989547398743352
  0.8346823598477235  0.6673662723433558  0.3985401413510237
  0.8341797737316345  0.7921621704403616  0.3986351163676680
  0.8331970795748724  0.9163119100409873  0.3991489298521677
  0.9583030618651310  0.0418327332394860  0.3993719374930201
  0.9577921764815417  0.1662814294995840  0.3991801582524773
  0.9575830772503618  0.2911332069652222  0.3989642425706173
  0.9578133346237323  0.4164465432906495  0.3991074299210563
  0.9585788224298584  0.5420032423177011  0.3995581837433724
  0.9590600492198704  0.6674195410908389  0.3996870933367771
  0.9591706644489442  0.7926488023042727  0.3994649370358792
  0.9589177140897376  0.9174724064921983  0.3993129756053234
  0.4100292614649062  0.5841231747350859  0.4076054308670767
 
  0.00000000E+00  0.00000000E+00  0.00000000E+00
  0.00000000E+00  0.00000000E+00  0.00000000E+00
  0.00000000E+00  0.00000000E+00  0.00000000E+00
  0.00000000E+00  0.00000000E+00  0.00000000E+00
  0.00000000E+00  0.00000000E+00  0.00000000E+00
  0.00000000E+00  0.00000000E+00  0.00000000E+00
  0.00000000E+00  0.00000000E+00  0.00000000E+00
  0.00000000E+00  0.00000000E+00  0.00000000E+00
  0.00000000E+00  0.00000000E+00  0.00000000E+00
  0.00000000E+00  0.00000000E+00  0.00000000E+00
  0.00000000E+00  0.00000000E+00  0.00000000E+00
  0.00000000E+00  0.00000000E+00  0.00000000E+00
  0.00000000E+00  0.00000000E+00  0.00000000E+00
  0.00000000E+00  0.00000000E+00  0.00000000E+00
  0.00000000E+00  0.00000000E+00  0.00000000E+00
  0.00000000E+00  0.00000000E+00  0.00000000E+00
  0.00000000E+00  0.00000000E+00  0.00000000E+00
  0.00000000E+00  0.00000000E+00  0.00000000E+00
  0.00000000E+00  0.00000000E+00  0.00000000E+00
  0.00000000E+00  0.00000000E+00  0.00000000E+00
  0.00000000E+00  0.00000000E+00  0.00000000E+00
  0.00000000E+00  0.00000000E+00  0.00000000E+00
  0.00000000E+00  0.00000000E+00  0.00000000E+00
  0.00000000E+00  0.00000000E+00  0.00000000E+00
  0.00000000E+00  0.00000000E+00  0.00000000E+00
  0.00000000E+00  0.00000000E+00  0.00000000E+00
  0.00000000E+00  0.00000000E+00  0.00000000E+00
  0.00000000E+00  0.00000000E+00  0.00000000E+00
  0.00000000E+00  0.00000000E+00  0.00000000E+00
  0.00000000E+00  0.00000000E+00  0.00000000E+00
  0.00000000E+00  0.00000000E+00  0.00000000E+00
  0.00000000E+00  0.00000000E+00  0.00000000E+00
  0.00000000E+00  0.00000000E+00  0.00000000E+00
  0.00000000E+00  0.00000000E+00  0.00000000E+00
  0.00000000E+00  0.00000000E+00  0.00000000E+00
  0.00000000E+00  0.00000000E+00  0.00000000E+00
  0.00000000E+00  0.00000000E+00  0.00000000E+00
  0.00000000E+00  0.00000000E+00  0.00000000E+00
  0.00000000E+00  0.00000000E+00  0.00000000E+00
  0.00000000E+00  0.00000000E+00  0.00000000E+00
  0.00000000E+00  0.00000000E+00  0.00000000E+00
  0.00000000E+00  0.00000000E+00  0.00000000E+00
  0.00000000E+00  0.00000000E+00  0.00000000E+00
  0.00000000E+00  0.00000000E+00  0.00000000E+00
  0.00000000E+00  0.00000000E+00  0.00000000E+00
  0.00000000E+00  0.00000000E+00  0.00000000E+00
  0.00000000E+00  0.00000000E+00  0.00000000E+00
  0.00000000E+00  0.00000000E+00  0.00000000E+00
  0.00000000E+00  0.00000000E+00  0.00000000E+00
  0.00000000E+00  0.00000000E+00  0.00000000E+00
  0.00000000E+00  0.00000000E+00  0.00000000E+00
  0.00000000E+00  0.00000000E+00  0.00000000E+00
  0.00000000E+00  0.00000000E+00  0.00000000E+00
  0.00000000E+00  0.00000000E+00  0.00000000E+00
  0.00000000E+00  0.00000000E+00  0.00000000E+00
  0.00000000E+00  0.00000000E+00  0.00000000E+00
  0.00000000E+00  0.00000000E+00  0.00000000E+00
  0.00000000E+00  0.00000000E+00  0.00000000E+00
  0.00000000E+00  0.00000000E+00  0.00000000E+00
  0.00000000E+00  0.00000000E+00  0.00000000E+00
  0.00000000E+00  0.00000000E+00  0.00000000E+00
  0.00000000E+00  0.00000000E+00  0.00000000E+00
  0.00000000E+00  0.00000000E+00  0.00000000E+00
  0.00000000E+00  0.00000000E+00  0.00000000E+00
  0.00000000E+00  0.00000000E+00  0.00000000E+00
  0.00000000E+00  0.00000000E+00  0.00000000E+00
  0.00000000E+00  0.00000000E+00  0.00000000E+00
  0.00000000E+00  0.00000000E+00  0.00000000E+00
  0.00000000E+00  0.00000000E+00  0.00000000E+00
  0.00000000E+00  0.00000000E+00  0.00000000E+00
  0.00000000E+00  0.00000000E+00  0.00000000E+00
  0.00000000E+00  0.00000000E+00  0.00000000E+00
  0.00000000E+00  0.00000000E+00  0.00000000E+00
  0.00000000E+00  0.00000000E+00  0.00000000E+00
  0.00000000E+00  0.00000000E+00  0.00000000E+00
  0.00000000E+00  0.00000000E+00  0.00000000E+00
  0.00000000E+00  0.00000000E+00  0.00000000E+00
  0.00000000E+00  0.00000000E+00  0.00000000E+00
  0.00000000E+00  0.00000000E+00  0.00000000E+00
  0.00000000E+00  0.00000000E+00  0.00000000E+00
  0.00000000E+00  0.00000000E+00  0.00000000E+00
  0.00000000E+00  0.00000000E+00  0.00000000E+00
  0.00000000E+00  0.00000000E+00  0.00000000E+00
  0.00000000E+00  0.00000000E+00  0.00000000E+00
  0.00000000E+00  0.00000000E+00  0.00000000E+00
  0.00000000E+00  0.00000000E+00  0.00000000E+00
  0.00000000E+00  0.00000000E+00  0.00000000E+00
  0.00000000E+00  0.00000000E+00  0.00000000E+00
  0.00000000E+00  0.00000000E+00  0.00000000E+00
  0.00000000E+00  0.00000000E+00  0.00000000E+00
  0.00000000E+00  0.00000000E+00  0.00000000E+00
  0.00000000E+00  0.00000000E+00  0.00000000E+00
  0.00000000E+00  0.00000000E+00  0.00000000E+00
  0.00000000E+00  0.00000000E+00  0.00000000E+00
  0.00000000E+00  0.00000000E+00  0.00000000E+00
  0.00000000E+00  0.00000000E+00  0.00000000E+00
  0.00000000E+00  0.00000000E+00  0.00000000E+00
  0.00000000E+00  0.00000000E+00  0.00000000E+00
  0.00000000E+00  0.00000000E+00  0.00000000E+00
  0.00000000E+00  0.00000000E+00  0.00000000E+00
  0.00000000E+00  0.00000000E+00  0.00000000E+00
  0.00000000E+00  0.00000000E+00  0.00000000E+00
  0.00000000E+00  0.00000000E+00  0.00000000E+00
  0.00000000E+00  0.00000000E+00  0.00000000E+00
  0.00000000E+00  0.00000000E+00  0.00000000E+00
  0.00000000E+00  0.00000000E+00  0.00000000E+00
  0.00000000E+00  0.00000000E+00  0.00000000E+00
  0.00000000E+00  0.00000000E+00  0.00000000E+00
  0.00000000E+00  0.00000000E+00  0.00000000E+00
  0.00000000E+00  0.00000000E+00  0.00000000E+00
  0.00000000E+00  0.00000000E+00  0.00000000E+00
  0.00000000E+00  0.00000000E+00  0.00000000E+00
  0.00000000E+00  0.00000000E+00  0.00000000E+00
  0.00000000E+00  0.00000000E+00  0.00000000E+00
  0.00000000E+00  0.00000000E+00  0.00000000E+00
  0.00000000E+00  0.00000000E+00  0.00000000E+00
  0.00000000E+00  0.00000000E+00  0.00000000E+00
  0.00000000E+00  0.00000000E+00  0.00000000E+00
  0.00000000E+00  0.00000000E+00  0.00000000E+00
  0.00000000E+00  0.00000000E+00  0.00000000E+00
  0.00000000E+00  0.00000000E+00  0.00000000E+00
  0.00000000E+00  0.00000000E+00  0.00000000E+00
  0.00000000E+00  0.00000000E+00  0.00000000E+00
  0.00000000E+00  0.00000000E+00  0.00000000E+00
  0.00000000E+00  0.00000000E+00  0.00000000E+00
  0.00000000E+00  0.00000000E+00  0.00000000E+00
  0.00000000E+00  0.00000000E+00  0.00000000E+00
  0.00000000E+00  0.00000000E+00  0.00000000E+00
