H1 Rh1 C123 N3 O1                       
   1.00000000000000     
    19.8308765233595636    0.0121110410227507    0.0808281845540377
    -9.9049467638278994   17.0244058883508558   -0.1245262458620743
     0.1217124046113475   -0.1470919550876932   29.7955726152429854
   H    Rh   C    N    O 
     1     1   123     3     1
Direct
  0.4888679529865381  0.5331749911727960  0.4979737250811725
  0.4367975043490769  0.4991822147373141  0.4203111789733376
  0.0417437540967795  0.0840818548749019  0.3999173199185267
  0.0404488282478371  0.2079613090340389  0.4002949856927627
  0.0397095861038885  0.3326732093013189  0.3997519710500846
  0.0401022202398595  0.4580969084692579  0.3990733166810116
  0.0413338060810263  0.5838259082744475  0.3988654079437179
  0.0424307161052197  0.7094492364704600  0.3989524885263985
  0.0427452315969842  0.8347858585138470  0.3990976510188793
  0.0425936598648869  0.9598097062075985  0.3993370064026217
  0.1678337885228222  0.0858178023607818  0.4007412822778678
  0.1669142995885052  0.2102325211167314  0.4019719257004868
  0.1642709051474746  0.3334063072950059  0.4019510436878992
  0.1634954687584332  0.4582305296438040  0.4000390403275373
  0.1647498815540537  0.5836380062363867  0.3993191894727022
  0.1664161575878245  0.7091634900936317  0.3991656381960559
  0.1672772081014371  0.8347437474588828  0.3992970978842417
  0.1676864321109734  0.9603408878099183  0.3997011589093083
  0.2927047211822955  0.0860979310299548  0.4006416404240846
  0.2933264072114671  0.2130479833035917  0.4033569382894932
  0.2912297706586586  0.3381405652509091  0.4065127787486723
  0.2863009099081786  0.4577012908239497  0.4038314973136545
  0.2877274547377352  0.5829848679008728  0.4003653080747000
  0.2904438901331498  0.7084854009781851  0.3995805113015239
  0.2916556735277714  0.8340954121243414  0.3994517102433746
  0.2922521190572323  0.9599010712377779  0.3996563310671508
  0.4171200103649814  0.0844205433604311  0.3998457637999623
  0.4178250931118926  0.2108359309869053  0.4014043235728509
  0.4195822742154557  0.3383161720845152  0.4057500106850514
  0.4144327223891515  0.7060101613000673  0.4010206801373533
  0.4159712022483530  0.8322759447115312  0.4000750124856394
  0.4166349278802638  0.9583540698914427  0.3996160772718833
  0.5414703193371589  0.0825766236066925  0.3995108876536632
  0.5421304673822831  0.2084570878888287  0.3996950165638909
  0.5435444908722492  0.3342666669815515  0.4015589400728953
  0.5484150617150800  0.4601725082717332  0.4061332947767460
  0.5380057101088802  0.7010200168680717  0.4048457422652064
  0.5401966724602247  0.8297777233436958  0.4014283315579903
  0.5409489810784907  0.9564638507682223  0.3999794630455067
  0.6658664027575516  0.0816750086296966  0.3995737976888650
  0.6664666436372119  0.2073334544741330  0.3992308726812235
  0.6676406357381126  0.3329836960636052  0.3993219189847740
  0.6702910985401972  0.4587773733467027  0.4008006244324517
  0.6719838954852810  0.5845051049045907  0.4033648637616616
  0.6669244780003164  0.7062246732018677  0.4035889919097808
  0.6645754608594283  0.8298704057197384  0.4020506757586836
  0.6653379163104142  0.9558948825307854  0.4003731768480576
  0.7904579402381671  0.0816004273299921  0.3994577541895559
  0.7908054489523274  0.2070135087549164  0.3992149343545263
  0.7916575297924200  0.3325838845981021  0.3989014446469891
  0.7932445929218069  0.4582997766957298  0.3988123618496981
  0.7945409656207892  0.5840098705450121  0.3995839721623339
  0.7939244085078587  0.7091577768228867  0.4007025583666027
  0.7913584390512074  0.8323453178572985  0.4005357635256050
  0.7902923624774281  0.9564026870879676  0.3999532243766281
  0.9156310519619991  0.0823248869339727  0.3994152181536519
  0.9153207221062652  0.2071444059312208  0.3993613539760192
  0.9156098666065815  0.3325002471267305  0.3990398712603279
  0.9166695724578736  0.4581807965327939  0.3987142314885019
  0.9179051113091763  0.5839189248952763  0.3987142148328595
  0.9182561107145322  0.7093470230732515  0.3991084453173170
  0.9177739592228060  0.8342682815334528  0.3993106714164540
  0.9165495595629491  0.9582239030899029  0.3993585743525517
  0.0842930648484765  0.0434206235086762  0.3999180649174816
  0.0833177890324673  0.1676268830553702  0.4006491799304508
  0.0814648845056116  0.2913135067054733  0.4006136902294167
  0.0809475419025774  0.4161381491993904  0.3995266148054435
  0.0820010788482397  0.5417579514418376  0.3990320026578488
  0.0834049321636366  0.6674642266613305  0.3989766073849087
  0.0841879786351217  0.7930456423165402  0.3991118170576015
  0.0844214247345449  0.9183922026534092  0.3993397889815005
  0.2094212291161298  0.0440610803860895  0.4003846692582716
  0.2096124645370685  0.1697012871731155  0.4021441071174931
  0.2078430113898606  0.2938349356163342  0.4032550495272406
  0.2045598057509182  0.4166074493258614  0.4015564232491808
  0.2050655429249597  0.5414052549442231  0.3998884641909050
  0.2072682046783544  0.6671340392001399  0.3992949956134421
  0.2084979533159710  0.7927694730296967  0.3992884489348345
  0.2091097870219011  0.9184090517005944  0.3995495449550228
  0.3339709496076338  0.0436432226652562  0.3999816723835020
  0.3345109219326515  0.1701387690529426  0.4018258069846767
  0.3354367353560528  0.2976475689512658  0.4059660077590533
  0.3284395037753621  0.5418565439950914  0.4018997375784873
  0.3311599990865263  0.6662747343664405  0.4001076605743146
  0.3328065380899938  0.7918764619221667  0.3996511448225871
  0.3335116213621072  0.9176313029124405  0.3995462827283811
  0.4583582162207584  0.0419345561540445  0.3995963032961492
  0.4589159223900434  0.1680731489792505  0.4001835296631829
  0.4599957937125499  0.2946012910130321  0.4025887431619669
  0.4661019447336068  0.4215991479646432  0.4089533433552215
  0.4533522056294920  0.6611916161887753  0.4029249572228081
  0.4570250700118716  0.7895786920038681  0.4008644698342156
  0.4578261633515019  0.9158716019639237  0.3998588661074038
  0.5827048325403529  0.0402296050720196  0.3996565380979848
  0.5833058382319155  0.1661620881117924  0.3993719338055213
  0.5843273826946773  0.2919187923424190  0.3999565649892606
  0.5876547103763615  0.4176650640321039  0.4025984209181320
  0.5908549299238848  0.5435846724821850  0.4071676660282704
  0.5831271119565887  0.6612361845944097  0.4068556549267207
  0.5805883321928714  0.7861569638016425  0.4028922552521310
  0.5821235416904502  0.9138794383715351  0.4005586509391619
  0.7071916618268252  0.0396490387782233  0.3997408020851498
  0.7076897725429758  0.1653495900886753  0.3993131452062564
  0.7085213673760932  0.2909353336553892  0.3990521550919588
  0.7104644672536243  0.4164933003024844  0.3993646922306502
  0.7122066934031150  0.5420474764796372  0.4009686979137804
  0.7112647560002657  0.6673201932698231  0.4026863024375304
  0.7076336495616318  0.7896731274343232  0.4019199837426648
  0.7066126768221929  0.9138742080896096  0.4007462140515752
  0.8321764029952309  0.0401042098915445  0.3994680427580640
  0.8321900465607138  0.1652445031974941  0.3992807871839773
  0.8326461922673718  0.2905893512320238  0.3990297193798993
  0.8338663379333513  0.4161930381437733  0.3987045410807588
  0.8352359579952748  0.5419494834606507  0.3988521393386493
  0.8355066725560665  0.6675106155765756  0.3997188198882345
  0.8345647975112409  0.7922756830458350  0.4001106068199095
  0.8329299872877615  0.9158411582512732  0.3998360556557409
  0.9581679740881546  0.0416799240364388  0.3994507369455162
  0.9571849518589456  0.1658091943279814  0.3995899480035148
  0.9568927248383965  0.2907375292871970  0.3993249149361488
  0.9573726145862615  0.4161246414411740  0.3989103667865606
  0.9586025746215820  0.5418317771123101  0.3987059598065727
  0.9595341105870199  0.6675362307404181  0.3988640503471670
  0.9596396035610504  0.7929116744457991  0.3991178410821853
  0.9592058663908881  0.9176652658966564  0.3992043856197257
  0.4082107055680075  0.5809697448295313  0.4028356728438646
  0.5489033068695273  0.5814041442041639  0.4110506043329656
  0.3271988409419707  0.4188165672200960  0.4089053508725071
  0.4355188744641099  0.5069721422375770  0.4864675808872532
 
  0.00000000E+00  0.00000000E+00  0.00000000E+00
  0.00000000E+00  0.00000000E+00  0.00000000E+00
  0.00000000E+00  0.00000000E+00  0.00000000E+00
  0.00000000E+00  0.00000000E+00  0.00000000E+00
  0.00000000E+00  0.00000000E+00  0.00000000E+00
  0.00000000E+00  0.00000000E+00  0.00000000E+00
  0.00000000E+00  0.00000000E+00  0.00000000E+00
  0.00000000E+00  0.00000000E+00  0.00000000E+00
  0.00000000E+00  0.00000000E+00  0.00000000E+00
  0.00000000E+00  0.00000000E+00  0.00000000E+00
  0.00000000E+00  0.00000000E+00  0.00000000E+00
  0.00000000E+00  0.00000000E+00  0.00000000E+00
  0.00000000E+00  0.00000000E+00  0.00000000E+00
  0.00000000E+00  0.00000000E+00  0.00000000E+00
  0.00000000E+00  0.00000000E+00  0.00000000E+00
  0.00000000E+00  0.00000000E+00  0.00000000E+00
  0.00000000E+00  0.00000000E+00  0.00000000E+00
  0.00000000E+00  0.00000000E+00  0.00000000E+00
  0.00000000E+00  0.00000000E+00  0.00000000E+00
  0.00000000E+00  0.00000000E+00  0.00000000E+00
  0.00000000E+00  0.00000000E+00  0.00000000E+00
  0.00000000E+00  0.00000000E+00  0.00000000E+00
  0.00000000E+00  0.00000000E+00  0.00000000E+00
  0.00000000E+00  0.00000000E+00  0.00000000E+00
  0.00000000E+00  0.00000000E+00  0.00000000E+00
  0.00000000E+00  0.00000000E+00  0.00000000E+00
  0.00000000E+00  0.00000000E+00  0.00000000E+00
  0.00000000E+00  0.00000000E+00  0.00000000E+00
  0.00000000E+00  0.00000000E+00  0.00000000E+00
  0.00000000E+00  0.00000000E+00  0.00000000E+00
  0.00000000E+00  0.00000000E+00  0.00000000E+00
  0.00000000E+00  0.00000000E+00  0.00000000E+00
  0.00000000E+00  0.00000000E+00  0.00000000E+00
  0.00000000E+00  0.00000000E+00  0.00000000E+00
  0.00000000E+00  0.00000000E+00  0.00000000E+00
  0.00000000E+00  0.00000000E+00  0.00000000E+00
  0.00000000E+00  0.00000000E+00  0.00000000E+00
  0.00000000E+00  0.00000000E+00  0.00000000E+00
  0.00000000E+00  0.00000000E+00  0.00000000E+00
  0.00000000E+00  0.00000000E+00  0.00000000E+00
  0.00000000E+00  0.00000000E+00  0.00000000E+00
  0.00000000E+00  0.00000000E+00  0.00000000E+00
  0.00000000E+00  0.00000000E+00  0.00000000E+00
  0.00000000E+00  0.00000000E+00  0.00000000E+00
  0.00000000E+00  0.00000000E+00  0.00000000E+00
  0.00000000E+00  0.00000000E+00  0.00000000E+00
  0.00000000E+00  0.00000000E+00  0.00000000E+00
  0.00000000E+00  0.00000000E+00  0.00000000E+00
  0.00000000E+00  0.00000000E+00  0.00000000E+00
  0.00000000E+00  0.00000000E+00  0.00000000E+00
  0.00000000E+00  0.00000000E+00  0.00000000E+00
  0.00000000E+00  0.00000000E+00  0.00000000E+00
  0.00000000E+00  0.00000000E+00  0.00000000E+00
  0.00000000E+00  0.00000000E+00  0.00000000E+00
  0.00000000E+00  0.00000000E+00  0.00000000E+00
  0.00000000E+00  0.00000000E+00  0.00000000E+00
  0.00000000E+00  0.00000000E+00  0.00000000E+00
  0.00000000E+00  0.00000000E+00  0.00000000E+00
  0.00000000E+00  0.00000000E+00  0.00000000E+00
  0.00000000E+00  0.00000000E+00  0.00000000E+00
  0.00000000E+00  0.00000000E+00  0.00000000E+00
  0.00000000E+00  0.00000000E+00  0.00000000E+00
  0.00000000E+00  0.00000000E+00  0.00000000E+00
  0.00000000E+00  0.00000000E+00  0.00000000E+00
  0.00000000E+00  0.00000000E+00  0.00000000E+00
  0.00000000E+00  0.00000000E+00  0.00000000E+00
  0.00000000E+00  0.00000000E+00  0.00000000E+00
  0.00000000E+00  0.00000000E+00  0.00000000E+00
  0.00000000E+00  0.00000000E+00  0.00000000E+00
  0.00000000E+00  0.00000000E+00  0.00000000E+00
  0.00000000E+00  0.00000000E+00  0.00000000E+00
  0.00000000E+00  0.00000000E+00  0.00000000E+00
  0.00000000E+00  0.00000000E+00  0.00000000E+00
  0.00000000E+00  0.00000000E+00  0.00000000E+00
  0.00000000E+00  0.00000000E+00  0.00000000E+00
  0.00000000E+00  0.00000000E+00  0.00000000E+00
  0.00000000E+00  0.00000000E+00  0.00000000E+00
  0.00000000E+00  0.00000000E+00  0.00000000E+00
  0.00000000E+00  0.00000000E+00  0.00000000E+00
  0.00000000E+00  0.00000000E+00  0.00000000E+00
  0.00000000E+00  0.00000000E+00  0.00000000E+00
  0.00000000E+00  0.00000000E+00  0.00000000E+00
  0.00000000E+00  0.00000000E+00  0.00000000E+00
  0.00000000E+00  0.00000000E+00  0.00000000E+00
  0.00000000E+00  0.00000000E+00  0.00000000E+00
  0.00000000E+00  0.00000000E+00  0.00000000E+00
  0.00000000E+00  0.00000000E+00  0.00000000E+00
  0.00000000E+00  0.00000000E+00  0.00000000E+00
  0.00000000E+00  0.00000000E+00  0.00000000E+00
  0.00000000E+00  0.00000000E+00  0.00000000E+00
  0.00000000E+00  0.00000000E+00  0.00000000E+00
  0.00000000E+00  0.00000000E+00  0.00000000E+00
  0.00000000E+00  0.00000000E+00  0.00000000E+00
  0.00000000E+00  0.00000000E+00  0.00000000E+00
  0.00000000E+00  0.00000000E+00  0.00000000E+00
  0.00000000E+00  0.00000000E+00  0.00000000E+00
  0.00000000E+00  0.00000000E+00  0.00000000E+00
  0.00000000E+00  0.00000000E+00  0.00000000E+00
  0.00000000E+00  0.00000000E+00  0.00000000E+00
  0.00000000E+00  0.00000000E+00  0.00000000E+00
  0.00000000E+00  0.00000000E+00  0.00000000E+00
  0.00000000E+00  0.00000000E+00  0.00000000E+00
  0.00000000E+00  0.00000000E+00  0.00000000E+00
  0.00000000E+00  0.00000000E+00  0.00000000E+00
  0.00000000E+00  0.00000000E+00  0.00000000E+00
  0.00000000E+00  0.00000000E+00  0.00000000E+00
  0.00000000E+00  0.00000000E+00  0.00000000E+00
  0.00000000E+00  0.00000000E+00  0.00000000E+00
  0.00000000E+00  0.00000000E+00  0.00000000E+00
  0.00000000E+00  0.00000000E+00  0.00000000E+00
  0.00000000E+00  0.00000000E+00  0.00000000E+00
  0.00000000E+00  0.00000000E+00  0.00000000E+00
  0.00000000E+00  0.00000000E+00  0.00000000E+00
  0.00000000E+00  0.00000000E+00  0.00000000E+00
  0.00000000E+00  0.00000000E+00  0.00000000E+00
  0.00000000E+00  0.00000000E+00  0.00000000E+00
  0.00000000E+00  0.00000000E+00  0.00000000E+00
  0.00000000E+00  0.00000000E+00  0.00000000E+00
  0.00000000E+00  0.00000000E+00  0.00000000E+00
  0.00000000E+00  0.00000000E+00  0.00000000E+00
  0.00000000E+00  0.00000000E+00  0.00000000E+00
  0.00000000E+00  0.00000000E+00  0.00000000E+00
  0.00000000E+00  0.00000000E+00  0.00000000E+00
  0.00000000E+00  0.00000000E+00  0.00000000E+00
  0.00000000E+00  0.00000000E+00  0.00000000E+00
  0.00000000E+00  0.00000000E+00  0.00000000E+00
  0.00000000E+00  0.00000000E+00  0.00000000E+00
  0.00000000E+00  0.00000000E+00  0.00000000E+00
  0.00000000E+00  0.00000000E+00  0.00000000E+00
