Y1 C126 O1                              
   1.00000000000000     
    19.4738909909224809   -0.0002914571884868    0.2133351912302925
    -9.7360144570718763   17.1743574436983515   -0.1630507741330756
     0.3216390813539699   -0.0994624000740656   30.0904082422033525
   Y    C    O 
     1   126     1
Direct
  0.4493426556298904  0.5074848945302790  0.4689659749242338
  0.0413394362953276  0.0821981917292810  0.3996041165705790
  0.0441852165456875  0.2095172392484122  0.3995538913349712
  0.0461205860936030  0.3349156367304546  0.3995175629305504
  0.0461905908514093  0.4586907081179820  0.3993909786514684
  0.0429332043213773  0.5820465272731065  0.3994134254077142
  0.0402352656206579  0.7058546601734189  0.3996492162742063
  0.0393765034012637  0.8303805286573106  0.3997248730331195
  0.0395964900793224  0.9555032666640586  0.3997081635162622
  0.1640563014389457  0.0789023149712536  0.4000174057764441
  0.1666274886056359  0.2057175192928367  0.4000083602427156
  0.1724673327142142  0.3340847962187461  0.3995661166678491
  0.1766282560084771  0.4585647026526921  0.3993412075991645
  0.1725301137639478  0.5820692061380262  0.3993810631817432
  0.1676702305479943  0.7061260017426938  0.3994763823024327
  0.1656058637539525  0.8303788964882024  0.3997808479186994
  0.1646351277020878  0.9546707150995443  0.3999568622073222
  0.2894595849989967  0.0789253552293352  0.4002740033157136
  0.2877279156591250  0.2009157305735779  0.4004809505717888
  0.2928823982128927  0.3277378718956503  0.4001692335796768
  0.3104680869547461  0.4574849119888456  0.3989650811603210
  0.3037604249037083  0.5825374329052174  0.3992245434711981
  0.2947511391241643  0.7069766425446335  0.3994342494382322
  0.2920272695516350  0.8314840756581471  0.3995259183082034
  0.2905341111256257  0.9555273816522860  0.3999659352484273
  0.4155052567383856  0.0822541052353704  0.3999742339823643
  0.4136838478239298  0.2057481970393175  0.4003705194072866
  0.4094211616620090  0.3276928476745674  0.4004739597353626
  0.4405553314515898  0.5908985284544633  0.3985982094949124
  0.4210349374639056  0.7108679735035505  0.3997069787505002
  0.4181586864990973  0.8345461080947764  0.3996402269105293
  0.4166669117168212  0.9583830154306389  0.3995708985946416
  0.5416111853040468  0.0853234762262038  0.3997177794551573
  0.5399703900464282  0.2095531288997379  0.3999802798944444
  0.5363006361735846  0.3340925492238981  0.3999912069389800
  0.5218795484126720  0.4575269792058852  0.3988446658282192
  0.5251057426214689  0.5910487475382813  0.3982737988880161
  0.5466209606186507  0.7186120958918203  0.3997283203424989
  0.5440195931691884  0.8388759435423090  0.4001803735476315
  0.5427476554007625  0.9616284674404815  0.3998065494106788
  0.6677572807957066  0.0867490718317131  0.3998515425704768
  0.6663867099672708  0.2109026802867552  0.3997403622027892
  0.6634767322287177  0.3349530808298276  0.3997641808508192
  0.6566581245212960  0.4585881227427429  0.3995274804992939
  0.6536458524870212  0.5825977785113103  0.3991875963288780
  0.6645212521386766  0.7109161438355782  0.3997866263962647
  0.6694305240148366  0.8388640029714058  0.4002578982093530
  0.6686643570321793  0.9627598296498573  0.4002491917440656
  0.7935797446693307  0.0867437942858744  0.3999871723706644
  0.7929338449861304  0.2112765037053076  0.3997367953512089
  0.7911211135624332  0.3352614574303722  0.3996658483536591
  0.7871851626708949  0.4587087886236006  0.3995951852511284
  0.7842676840961322  0.5821095729739812  0.3995184033837554
  0.7868972018326139  0.7069989221244224  0.3996350750312414
  0.7909964691613700  0.8345369822600504  0.4000170183406364
  0.7934582133577059  0.9616023748943954  0.4002146492031975
  0.9183071037096613  0.0852836279802854  0.3997154506142293
  0.9191131743905783  0.2108764390356419  0.3996310566204212
  0.9187680273327239  0.3352363851165396  0.3995856382066866
  0.9166710282038394  0.4586606322773035  0.3994966980433292
  0.9137823307570466  0.5820528846350191  0.3995727451603454
  0.9131050833947374  0.7061425506434155  0.3996870941475964
  0.9140618996429769  0.8314754564745962  0.3998105312501179
  0.9163281754918482  0.9583507796128350  0.3998222781527818
  0.0811620780592295  0.0384092703306166  0.3997239678877027
  0.0835939714328762  0.1654509316819696  0.3996682912501102
  0.0877061888223428  0.2929992414880885  0.3995383975575436
  0.0904091260052629  0.4179152522107432  0.3994293274104754
  0.0875212549193312  0.5413142874557157  0.3993583752784388
  0.0835575535060687  0.6647794483242602  0.3995130174544059
  0.0816856971605605  0.7887669579129174  0.3997274376296768
  0.0810217240560185  0.9132825861476837  0.3997654315352901
  0.2059395381520487  0.0372811193235227  0.4001072000388006
  0.2051731588410176  0.1612017182560628  0.4002293776796482
  0.2101446088098730  0.2891727378788279  0.3999733613743050
  0.2211447236939987  0.4174233111272970  0.3993798357295608
  0.2180746323832390  0.5414077818839612  0.3993142052568481
  0.2112467566403202  0.6650793804370452  0.3994148798908705
  0.2082764288801904  0.7891229011289345  0.3995800572104886
  0.2068719464906280  0.9132909234907283  0.3999745899751828
  0.3318806636704551  0.0384414279366543  0.4001206995510773
  0.3306183920355066  0.1612098883512188  0.4004382884567387
  0.3280222179117260  0.2814810286670266  0.4004411434769030
  0.3495865978203900  0.4091284784299216  0.3993388139307995
  0.3529321410199563  0.5424300112714417  0.3986883360087331
  0.3384500272431687  0.6659191568484762  0.3993867989909031
  0.3346920909091885  0.7904665512706101  0.3994892663257762
  0.3330238541070177  0.9147130077046540  0.3996630170275718
  0.4579756254420196  0.0416398507074683  0.3997131338192750
  0.4565003208339645  0.1655057358383029  0.4001081250372666
  0.4536508380364766  0.2891878135951165  0.4003756275289667
  0.4340266787319613  0.4090728066531225  0.3994739101415977
  0.4652604160148289  0.6723610910977166  0.3995758228504060
  0.4609645123626050  0.7943317704170304  0.3999026144921728
  0.4591333969207532  0.9177929646498234  0.3995938631226336
  0.5841097614617784  0.0445354070411053  0.3997656281512202
  0.5826266383479241  0.1685493340593319  0.3998075571626183
  0.5799637225193485  0.2930342698456144  0.3999360666631274
  0.5710823830666411  0.4174256803474865  0.3996468351062171
  0.5644257929892649  0.5424774260197102  0.3983163000356181
  0.5818369217986398  0.6724504265181203  0.3995228458912057
  0.5868623615968667  0.7991655834486330  0.4001690613499586
  0.5851752551716354  0.9211659728774768  0.4001427798039927
  0.7099722448273428  0.0453586377458134  0.4000616201599063
  0.7090285737830802  0.1696467877801724  0.3997583626634511
  0.7070189592981850  0.2939009888585671  0.3997197749027695
  0.7022097885861295  0.4179349439332979  0.3996509007315140
  0.6980782553324708  0.5414533980230384  0.3993806189525333
  0.7022021555014588  0.6659568440021405  0.3994682151666155
  0.7079664197109415  0.7943308947336485  0.4000824291976578
  0.7105626194026092  0.9211401476031226  0.4003318138156237
  0.8350141043882023  0.0445070446902403  0.4000187417468893
  0.8352100784798888  0.1696378142320662  0.3997807435182339
  0.8343877088798247  0.2941697411543820  0.3996708165824348
  0.8317568835228928  0.4179814545017627  0.3995926206295222
  0.8284818315797122  0.5413480023474700  0.3995653535136717
  0.8285058693848631  0.6650940104727275  0.3996026757753401
  0.8303922192930733  0.7904701499524522  0.3998499309930107
  0.8332587230671260  0.9177718997388835  0.4000617490178455
  0.9582707464170770  0.0415944354605723  0.3996474175044720
  0.9605113604715780  0.1685082030445229  0.3995744194418833
  0.9614986743796096  0.2938654047052531  0.3995789962965365
  0.9608690893182853  0.4179514892538200  0.3994639796613272
  0.9580220469178454  0.5413672022724024  0.3994799868930295
  0.9558646503228887  0.6647903825259135  0.3996522444564037
  0.9554672247874625  0.7891321725414020  0.3997314265330895
  0.9562960983767479  0.9146898290399125  0.3997675841414102
  0.4830751466526568  0.5265003544019023  0.5260694065234920
 
  0.00000000E+00  0.00000000E+00  0.00000000E+00
  0.00000000E+00  0.00000000E+00  0.00000000E+00
  0.00000000E+00  0.00000000E+00  0.00000000E+00
  0.00000000E+00  0.00000000E+00  0.00000000E+00
  0.00000000E+00  0.00000000E+00  0.00000000E+00
  0.00000000E+00  0.00000000E+00  0.00000000E+00
  0.00000000E+00  0.00000000E+00  0.00000000E+00
  0.00000000E+00  0.00000000E+00  0.00000000E+00
  0.00000000E+00  0.00000000E+00  0.00000000E+00
  0.00000000E+00  0.00000000E+00  0.00000000E+00
  0.00000000E+00  0.00000000E+00  0.00000000E+00
  0.00000000E+00  0.00000000E+00  0.00000000E+00
  0.00000000E+00  0.00000000E+00  0.00000000E+00
  0.00000000E+00  0.00000000E+00  0.00000000E+00
  0.00000000E+00  0.00000000E+00  0.00000000E+00
  0.00000000E+00  0.00000000E+00  0.00000000E+00
  0.00000000E+00  0.00000000E+00  0.00000000E+00
  0.00000000E+00  0.00000000E+00  0.00000000E+00
  0.00000000E+00  0.00000000E+00  0.00000000E+00
  0.00000000E+00  0.00000000E+00  0.00000000E+00
  0.00000000E+00  0.00000000E+00  0.00000000E+00
  0.00000000E+00  0.00000000E+00  0.00000000E+00
  0.00000000E+00  0.00000000E+00  0.00000000E+00
  0.00000000E+00  0.00000000E+00  0.00000000E+00
  0.00000000E+00  0.00000000E+00  0.00000000E+00
  0.00000000E+00  0.00000000E+00  0.00000000E+00
  0.00000000E+00  0.00000000E+00  0.00000000E+00
  0.00000000E+00  0.00000000E+00  0.00000000E+00
  0.00000000E+00  0.00000000E+00  0.00000000E+00
  0.00000000E+00  0.00000000E+00  0.00000000E+00
  0.00000000E+00  0.00000000E+00  0.00000000E+00
  0.00000000E+00  0.00000000E+00  0.00000000E+00
  0.00000000E+00  0.00000000E+00  0.00000000E+00
  0.00000000E+00  0.00000000E+00  0.00000000E+00
  0.00000000E+00  0.00000000E+00  0.00000000E+00
  0.00000000E+00  0.00000000E+00  0.00000000E+00
  0.00000000E+00  0.00000000E+00  0.00000000E+00
  0.00000000E+00  0.00000000E+00  0.00000000E+00
  0.00000000E+00  0.00000000E+00  0.00000000E+00
  0.00000000E+00  0.00000000E+00  0.00000000E+00
  0.00000000E+00  0.00000000E+00  0.00000000E+00
  0.00000000E+00  0.00000000E+00  0.00000000E+00
  0.00000000E+00  0.00000000E+00  0.00000000E+00
  0.00000000E+00  0.00000000E+00  0.00000000E+00
  0.00000000E+00  0.00000000E+00  0.00000000E+00
  0.00000000E+00  0.00000000E+00  0.00000000E+00
  0.00000000E+00  0.00000000E+00  0.00000000E+00
  0.00000000E+00  0.00000000E+00  0.00000000E+00
  0.00000000E+00  0.00000000E+00  0.00000000E+00
  0.00000000E+00  0.00000000E+00  0.00000000E+00
  0.00000000E+00  0.00000000E+00  0.00000000E+00
  0.00000000E+00  0.00000000E+00  0.00000000E+00
  0.00000000E+00  0.00000000E+00  0.00000000E+00
  0.00000000E+00  0.00000000E+00  0.00000000E+00
  0.00000000E+00  0.00000000E+00  0.00000000E+00
  0.00000000E+00  0.00000000E+00  0.00000000E+00
  0.00000000E+00  0.00000000E+00  0.00000000E+00
  0.00000000E+00  0.00000000E+00  0.00000000E+00
  0.00000000E+00  0.00000000E+00  0.00000000E+00
  0.00000000E+00  0.00000000E+00  0.00000000E+00
  0.00000000E+00  0.00000000E+00  0.00000000E+00
  0.00000000E+00  0.00000000E+00  0.00000000E+00
  0.00000000E+00  0.00000000E+00  0.00000000E+00
  0.00000000E+00  0.00000000E+00  0.00000000E+00
  0.00000000E+00  0.00000000E+00  0.00000000E+00
  0.00000000E+00  0.00000000E+00  0.00000000E+00
  0.00000000E+00  0.00000000E+00  0.00000000E+00
  0.00000000E+00  0.00000000E+00  0.00000000E+00
  0.00000000E+00  0.00000000E+00  0.00000000E+00
  0.00000000E+00  0.00000000E+00  0.00000000E+00
  0.00000000E+00  0.00000000E+00  0.00000000E+00
  0.00000000E+00  0.00000000E+00  0.00000000E+00
  0.00000000E+00  0.00000000E+00  0.00000000E+00
  0.00000000E+00  0.00000000E+00  0.00000000E+00
  0.00000000E+00  0.00000000E+00  0.00000000E+00
  0.00000000E+00  0.00000000E+00  0.00000000E+00
  0.00000000E+00  0.00000000E+00  0.00000000E+00
  0.00000000E+00  0.00000000E+00  0.00000000E+00
  0.00000000E+00  0.00000000E+00  0.00000000E+00
  0.00000000E+00  0.00000000E+00  0.00000000E+00
  0.00000000E+00  0.00000000E+00  0.00000000E+00
  0.00000000E+00  0.00000000E+00  0.00000000E+00
  0.00000000E+00  0.00000000E+00  0.00000000E+00
  0.00000000E+00  0.00000000E+00  0.00000000E+00
  0.00000000E+00  0.00000000E+00  0.00000000E+00
  0.00000000E+00  0.00000000E+00  0.00000000E+00
  0.00000000E+00  0.00000000E+00  0.00000000E+00
  0.00000000E+00  0.00000000E+00  0.00000000E+00
  0.00000000E+00  0.00000000E+00  0.00000000E+00
  0.00000000E+00  0.00000000E+00  0.00000000E+00
  0.00000000E+00  0.00000000E+00  0.00000000E+00
  0.00000000E+00  0.00000000E+00  0.00000000E+00
  0.00000000E+00  0.00000000E+00  0.00000000E+00
  0.00000000E+00  0.00000000E+00  0.00000000E+00
  0.00000000E+00  0.00000000E+00  0.00000000E+00
  0.00000000E+00  0.00000000E+00  0.00000000E+00
  0.00000000E+00  0.00000000E+00  0.00000000E+00
  0.00000000E+00  0.00000000E+00  0.00000000E+00
  0.00000000E+00  0.00000000E+00  0.00000000E+00
  0.00000000E+00  0.00000000E+00  0.00000000E+00
  0.00000000E+00  0.00000000E+00  0.00000000E+00
  0.00000000E+00  0.00000000E+00  0.00000000E+00
  0.00000000E+00  0.00000000E+00  0.00000000E+00
  0.00000000E+00  0.00000000E+00  0.00000000E+00
  0.00000000E+00  0.00000000E+00  0.00000000E+00
  0.00000000E+00  0.00000000E+00  0.00000000E+00
  0.00000000E+00  0.00000000E+00  0.00000000E+00
  0.00000000E+00  0.00000000E+00  0.00000000E+00
  0.00000000E+00  0.00000000E+00  0.00000000E+00
  0.00000000E+00  0.00000000E+00  0.00000000E+00
  0.00000000E+00  0.00000000E+00  0.00000000E+00
  0.00000000E+00  0.00000000E+00  0.00000000E+00
  0.00000000E+00  0.00000000E+00  0.00000000E+00
  0.00000000E+00  0.00000000E+00  0.00000000E+00
  0.00000000E+00  0.00000000E+00  0.00000000E+00
  0.00000000E+00  0.00000000E+00  0.00000000E+00
  0.00000000E+00  0.00000000E+00  0.00000000E+00
  0.00000000E+00  0.00000000E+00  0.00000000E+00
  0.00000000E+00  0.00000000E+00  0.00000000E+00
  0.00000000E+00  0.00000000E+00  0.00000000E+00
  0.00000000E+00  0.00000000E+00  0.00000000E+00
  0.00000000E+00  0.00000000E+00  0.00000000E+00
  0.00000000E+00  0.00000000E+00  0.00000000E+00
  0.00000000E+00  0.00000000E+00  0.00000000E+00
  0.00000000E+00  0.00000000E+00  0.00000000E+00
  0.00000000E+00  0.00000000E+00  0.00000000E+00
  0.00000000E+00  0.00000000E+00  0.00000000E+00
  0.00000000E+00  0.00000000E+00  0.00000000E+00
