La1 H1 C122 N4                          
   1.00000000000000     
    19.8013024068314643    0.0001548063734369    0.0088007594690474
    -9.9003941799601201   17.0449161537445093   -0.0628085180678211
     0.0132501197185585   -0.1021177837370580   29.8137534715587975
   La   H    C    N 
     1     1   122     4
Direct
  0.4404030392781087  0.5036341904427072  0.4524696843034257
  0.4673210222196227  0.5261502376611072  0.5246046196349614
  0.0419200344785310  0.0839323304458704  0.3996021313064469
  0.0411726036444280  0.2082553018478953  0.3992815491226606
  0.0405069574258580  0.3330319304699371  0.3991548049478647
  0.0406477055742527  0.4582180419012724  0.3993970972668169
  0.0413776703075808  0.5836877168490755  0.4000504097228056
  0.0420471759190920  0.7090836350735280  0.4001617467037520
  0.0422702142203330  0.8342591749637764  0.4000759381670959
  0.0423698984828993  0.9594211307665348  0.3999195885305593
  0.1679460485459626  0.0854118900113619  0.3997082090373298
  0.1671557862688754  0.2097399560266487  0.3992799634338296
  0.1653567333687075  0.3336183779564534  0.3989911939848537
  0.1646289915608768  0.4584576764196691  0.3981989624982730
  0.1653803998419507  0.5836182037207471  0.3987819841611828
  0.1663786844617147  0.7088544441755242  0.3998056405973338
  0.1669279008352703  0.8342385861101499  0.4000683726775600
  0.1673432312557099  0.9597281049369148  0.3999634566547938
  0.2924169673448264  0.0853934975662666  0.3997196518040633
  0.2937974314068689  0.2126210340703479  0.4007108376257014
  0.2918330791393481  0.3377663713678890  0.4022326084348185
  0.2886143776576974  0.4575717419738784  0.4010438974993878
  0.2890566890799382  0.5829392119912397  0.3985113271446777
  0.2907098000406741  0.7083985736882016  0.3989447843021404
  0.2915706466594560  0.8338441042044186  0.3998011218332385
  0.2920082418240977  0.9593986373390768  0.3999328089745637
  0.4169773429398830  0.0839439896008154  0.3995952080937003
  0.4175450858787181  0.2097823092516360  0.3992489577214204
  0.4209060079202877  0.3378558476343641  0.4021267166179516
  0.4149880731309395  0.7070179537865701  0.3989046576357123
  0.4161499917811357  0.8326388890019449  0.3992883117533632
  0.4166307619510645  0.9583318781237086  0.3999095934650794
  0.5415880216429521  0.0827204218182587  0.3999132596989222
  0.5420581069587979  0.2082503435984847  0.3992947049346235
  0.5432854635421411  0.3336044089502996  0.3989585123307173
  0.5441650692092291  0.4576191171707307  0.4007419162037093
  0.5389397404274984  0.7029250091759951  0.4012726408144410
  0.5407534499891535  0.8308823939187377  0.3997018696894542
  0.5412037183397215  0.9569901734277640  0.3998361253549118
  0.6662364878898233  0.0822531193807077  0.4000322363225923
  0.6666202737661400  0.2076020938873125  0.3998933338169720
  0.6675422609176073  0.3330443691691679  0.3991812948231584
  0.6689179921355156  0.4584799486459080  0.3981985097785982
  0.6690416043556944  0.5830021015160778  0.3983370059933163
  0.6669670899482942  0.7069822749726375  0.3987395935610704
  0.6650703753684962  0.8308908152356337  0.3996459415665686
  0.6658518234943893  0.9567481618721718  0.3999459514175178
  0.7909769493783766  0.0822554845720206  0.4000411600002019
  0.7912550366403860  0.2075414884294209  0.4000964563099770
  0.7917820206796585  0.3328503988641682  0.4000009603246161
  0.7926112376221437  0.4582387419700809  0.3993837332785091
  0.7932965584304691  0.5836470128327005  0.3987994049832189
  0.7927282254055869  0.7084481644894409  0.3989140080049447
  0.7914444261708784  0.8326326996218122  0.3992847332080632
  0.7907422070372361  0.9570045413515599  0.3998317243515266
  0.9161181333353555  0.0827481120860064  0.3999246715507155
  0.9159556680047809  0.2076174300277046  0.3999084489210638
  0.9160878593161231  0.3328557161986764  0.4000244580059396
  0.9166690505133663  0.4583089916266310  0.4002073768325651
  0.9173241127025451  0.5836944961478339  0.4000201317207846
  0.9174907492694773  0.7088751792000256  0.3998105516539573
  0.9172623512946887  0.8338735969320589  0.3998187808076689
  0.9166606469742380  0.9583335432683630  0.3999407998944507
  0.0842801740816746  0.0430858481048167  0.3996907758250244
  0.0835916867400375  0.1674299127327113  0.3992261416264031
  0.0823325855181152  0.2916105347461020  0.3989825263823880
  0.0817574624393120  0.4163702787657296  0.3987611406773774
  0.0824052853472853  0.5417771433129500  0.3994323524604280
  0.0832325556510743  0.6671546447138724  0.4000716781556110
  0.0837171159650489  0.7924783745640729  0.4001075391364355
  0.0840250446204424  0.9178116376050665  0.3999998111197960
  0.2091509426837575  0.0433451586824866  0.3998449088157295
  0.2099665570276825  0.1692458305076051  0.3998730298806111
  0.2080935223446199  0.2931084351162044  0.3994775227894518
  0.2061368396135233  0.4170657210531985  0.3988344057706194
  0.2061372140410010  0.5415323161939153  0.3981602610634700
  0.2074613845497654  0.6669717900536586  0.3991867957482663
  0.2083424100416659  0.7924145293506151  0.3999442017229187
  0.2087303348270983  0.9177909345426549  0.4000150514350542
  0.3337469261437903  0.0430692734654665  0.3997098582241362
  0.3342232366530332  0.1692274400686446  0.3998583701096504
  0.3361382662651333  0.2973025653895900  0.4024972855063773
  0.3310168544475488  0.5424603362117426  0.4005386821197381
  0.3317279231611085  0.6664250646891463  0.3986358901719230
  0.3329060680765718  0.7917816601666129  0.3993396892805428
  0.3333815121026277  0.9173229724510089  0.3999331628324333
  0.4583303371395078  0.0417568090962490  0.3998658745020096
  0.4588030042523575  0.1674539161601198  0.3992255172064346
  0.4599920049554119  0.2931841329236587  0.3994147068504065
  0.4542028600886341  0.6625474259746291  0.4010250776690738
  0.4574294278943822  0.7903817987773507  0.3990798128177725
  0.4579767438109892  0.9161428341863455  0.3997201724275762
  0.5829380964735282  0.0406273623622941  0.3999845580958161
  0.5833755207292575  0.1661769800851828  0.3997348853255258
  0.5842708467964234  0.2916024669074682  0.3990109491916226
  0.5860344033447241  0.4170492418736356  0.3987415570791970
  0.5866036022100448  0.5424551637782721  0.4001421946030209
  0.5832382799690603  0.6624717184676148  0.4007628103800101
  0.5812496913942248  0.7875680914171490  0.4001666259068742
  0.5825576862821508  0.9146905138032163  0.3998177822187131
  0.7076355076502905  0.0403250488544414  0.4000235788313046
  0.7080170079310039  0.1657844777345133  0.4000533991222476
  0.7086199980760987  0.2911729211487457  0.3997455360579018
  0.7096555352808863  0.4163980065912044  0.3987867229542800
  0.7104608433965633  0.5415462459008218  0.3981299249253728
  0.7097238544034082  0.6664559195333420  0.3985028546557035
  0.7078592333080245  0.7903571256688048  0.3990227516639650
  0.7070761178740901  0.9146984767329850  0.3997820314550492
  0.8326621226908574  0.0406535886626267  0.3999959018140706
  0.8327210382638466  0.1657915811380571  0.4000556308651400
  0.8329819844576468  0.2909584862001422  0.4001348684109756
  0.8336470034829465  0.4163452393795603  0.3999790462465563
  0.8343808830550211  0.5417797514277672  0.3994128309811837
  0.8345192970188892  0.6669825281577173  0.3991908668735347
  0.8338544119343678  0.7918129261538212  0.3993344815830414
  0.8331064266980900  0.9161492985312857  0.3997384421563234
  0.9583845700382460  0.0417659010362689  0.3998826525643724
  0.9577801669347107  0.1662053651269714  0.3997305665954760
  0.9575436468230459  0.2911792818815045  0.3997578723138350
  0.9576976866791090  0.4163411091665007  0.4000063765096724
  0.9583626458542934  0.5417110168191720  0.4002297601287623
  0.9589403336732810  0.6671601395801848  0.4000553460812005
  0.9590476998275731  0.7924347239409686  0.3999583948117919
  0.9589222940791563  0.9173596760942904  0.3999538895855290
  0.4111162491168499  0.5830034514890451  0.4038073752719507
  0.5468925534915514  0.5828681323504384  0.4032468919572798
  0.3282892595684848  0.4173190691218360  0.4052079873877522
  0.4642149155036051  0.4174903335379608  0.4049922812551502
 
  0.00000000E+00  0.00000000E+00  0.00000000E+00
  0.00000000E+00  0.00000000E+00  0.00000000E+00
  0.00000000E+00  0.00000000E+00  0.00000000E+00
  0.00000000E+00  0.00000000E+00  0.00000000E+00
  0.00000000E+00  0.00000000E+00  0.00000000E+00
  0.00000000E+00  0.00000000E+00  0.00000000E+00
  0.00000000E+00  0.00000000E+00  0.00000000E+00
  0.00000000E+00  0.00000000E+00  0.00000000E+00
  0.00000000E+00  0.00000000E+00  0.00000000E+00
  0.00000000E+00  0.00000000E+00  0.00000000E+00
  0.00000000E+00  0.00000000E+00  0.00000000E+00
  0.00000000E+00  0.00000000E+00  0.00000000E+00
  0.00000000E+00  0.00000000E+00  0.00000000E+00
  0.00000000E+00  0.00000000E+00  0.00000000E+00
  0.00000000E+00  0.00000000E+00  0.00000000E+00
  0.00000000E+00  0.00000000E+00  0.00000000E+00
  0.00000000E+00  0.00000000E+00  0.00000000E+00
  0.00000000E+00  0.00000000E+00  0.00000000E+00
  0.00000000E+00  0.00000000E+00  0.00000000E+00
  0.00000000E+00  0.00000000E+00  0.00000000E+00
  0.00000000E+00  0.00000000E+00  0.00000000E+00
  0.00000000E+00  0.00000000E+00  0.00000000E+00
  0.00000000E+00  0.00000000E+00  0.00000000E+00
  0.00000000E+00  0.00000000E+00  0.00000000E+00
  0.00000000E+00  0.00000000E+00  0.00000000E+00
  0.00000000E+00  0.00000000E+00  0.00000000E+00
  0.00000000E+00  0.00000000E+00  0.00000000E+00
  0.00000000E+00  0.00000000E+00  0.00000000E+00
  0.00000000E+00  0.00000000E+00  0.00000000E+00
  0.00000000E+00  0.00000000E+00  0.00000000E+00
  0.00000000E+00  0.00000000E+00  0.00000000E+00
  0.00000000E+00  0.00000000E+00  0.00000000E+00
  0.00000000E+00  0.00000000E+00  0.00000000E+00
  0.00000000E+00  0.00000000E+00  0.00000000E+00
  0.00000000E+00  0.00000000E+00  0.00000000E+00
  0.00000000E+00  0.00000000E+00  0.00000000E+00
  0.00000000E+00  0.00000000E+00  0.00000000E+00
  0.00000000E+00  0.00000000E+00  0.00000000E+00
  0.00000000E+00  0.00000000E+00  0.00000000E+00
  0.00000000E+00  0.00000000E+00  0.00000000E+00
  0.00000000E+00  0.00000000E+00  0.00000000E+00
  0.00000000E+00  0.00000000E+00  0.00000000E+00
  0.00000000E+00  0.00000000E+00  0.00000000E+00
  0.00000000E+00  0.00000000E+00  0.00000000E+00
  0.00000000E+00  0.00000000E+00  0.00000000E+00
  0.00000000E+00  0.00000000E+00  0.00000000E+00
  0.00000000E+00  0.00000000E+00  0.00000000E+00
  0.00000000E+00  0.00000000E+00  0.00000000E+00
  0.00000000E+00  0.00000000E+00  0.00000000E+00
  0.00000000E+00  0.00000000E+00  0.00000000E+00
  0.00000000E+00  0.00000000E+00  0.00000000E+00
  0.00000000E+00  0.00000000E+00  0.00000000E+00
  0.00000000E+00  0.00000000E+00  0.00000000E+00
  0.00000000E+00  0.00000000E+00  0.00000000E+00
  0.00000000E+00  0.00000000E+00  0.00000000E+00
  0.00000000E+00  0.00000000E+00  0.00000000E+00
  0.00000000E+00  0.00000000E+00  0.00000000E+00
  0.00000000E+00  0.00000000E+00  0.00000000E+00
  0.00000000E+00  0.00000000E+00  0.00000000E+00
  0.00000000E+00  0.00000000E+00  0.00000000E+00
  0.00000000E+00  0.00000000E+00  0.00000000E+00
  0.00000000E+00  0.00000000E+00  0.00000000E+00
  0.00000000E+00  0.00000000E+00  0.00000000E+00
  0.00000000E+00  0.00000000E+00  0.00000000E+00
  0.00000000E+00  0.00000000E+00  0.00000000E+00
  0.00000000E+00  0.00000000E+00  0.00000000E+00
  0.00000000E+00  0.00000000E+00  0.00000000E+00
  0.00000000E+00  0.00000000E+00  0.00000000E+00
  0.00000000E+00  0.00000000E+00  0.00000000E+00
  0.00000000E+00  0.00000000E+00  0.00000000E+00
  0.00000000E+00  0.00000000E+00  0.00000000E+00
  0.00000000E+00  0.00000000E+00  0.00000000E+00
  0.00000000E+00  0.00000000E+00  0.00000000E+00
  0.00000000E+00  0.00000000E+00  0.00000000E+00
  0.00000000E+00  0.00000000E+00  0.00000000E+00
  0.00000000E+00  0.00000000E+00  0.00000000E+00
  0.00000000E+00  0.00000000E+00  0.00000000E+00
  0.00000000E+00  0.00000000E+00  0.00000000E+00
  0.00000000E+00  0.00000000E+00  0.00000000E+00
  0.00000000E+00  0.00000000E+00  0.00000000E+00
  0.00000000E+00  0.00000000E+00  0.00000000E+00
  0.00000000E+00  0.00000000E+00  0.00000000E+00
  0.00000000E+00  0.00000000E+00  0.00000000E+00
  0.00000000E+00  0.00000000E+00  0.00000000E+00
  0.00000000E+00  0.00000000E+00  0.00000000E+00
  0.00000000E+00  0.00000000E+00  0.00000000E+00
  0.00000000E+00  0.00000000E+00  0.00000000E+00
  0.00000000E+00  0.00000000E+00  0.00000000E+00
  0.00000000E+00  0.00000000E+00  0.00000000E+00
  0.00000000E+00  0.00000000E+00  0.00000000E+00
  0.00000000E+00  0.00000000E+00  0.00000000E+00
  0.00000000E+00  0.00000000E+00  0.00000000E+00
  0.00000000E+00  0.00000000E+00  0.00000000E+00
  0.00000000E+00  0.00000000E+00  0.00000000E+00
  0.00000000E+00  0.00000000E+00  0.00000000E+00
  0.00000000E+00  0.00000000E+00  0.00000000E+00
  0.00000000E+00  0.00000000E+00  0.00000000E+00
  0.00000000E+00  0.00000000E+00  0.00000000E+00
  0.00000000E+00  0.00000000E+00  0.00000000E+00
  0.00000000E+00  0.00000000E+00  0.00000000E+00
  0.00000000E+00  0.00000000E+00  0.00000000E+00
  0.00000000E+00  0.00000000E+00  0.00000000E+00
  0.00000000E+00  0.00000000E+00  0.00000000E+00
  0.00000000E+00  0.00000000E+00  0.00000000E+00
  0.00000000E+00  0.00000000E+00  0.00000000E+00
  0.00000000E+00  0.00000000E+00  0.00000000E+00
  0.00000000E+00  0.00000000E+00  0.00000000E+00
  0.00000000E+00  0.00000000E+00  0.00000000E+00
  0.00000000E+00  0.00000000E+00  0.00000000E+00
  0.00000000E+00  0.00000000E+00  0.00000000E+00
  0.00000000E+00  0.00000000E+00  0.00000000E+00
  0.00000000E+00  0.00000000E+00  0.00000000E+00
  0.00000000E+00  0.00000000E+00  0.00000000E+00
  0.00000000E+00  0.00000000E+00  0.00000000E+00
  0.00000000E+00  0.00000000E+00  0.00000000E+00
  0.00000000E+00  0.00000000E+00  0.00000000E+00
  0.00000000E+00  0.00000000E+00  0.00000000E+00
  0.00000000E+00  0.00000000E+00  0.00000000E+00
  0.00000000E+00  0.00000000E+00  0.00000000E+00
  0.00000000E+00  0.00000000E+00  0.00000000E+00
  0.00000000E+00  0.00000000E+00  0.00000000E+00
  0.00000000E+00  0.00000000E+00  0.00000000E+00
  0.00000000E+00  0.00000000E+00  0.00000000E+00
  0.00000000E+00  0.00000000E+00  0.00000000E+00
  0.00000000E+00  0.00000000E+00  0.00000000E+00
  0.00000000E+00  0.00000000E+00  0.00000000E+00
  0.00000000E+00  0.00000000E+00  0.00000000E+00
  0.00000000E+00  0.00000000E+00  0.00000000E+00
