Re1 C125 N1 O1                          
   1.00000000000000     
    19.8218376516239374   -0.0073665253061784   -0.0523206895325394
    -9.9174377328853804   17.0549300538812112   -0.0676586369296847
    -0.0785705490887304   -0.1639068765711493   29.7727009999558909
   Re   C    N    O 
     1   125     1     1
Direct
  0.4376405018458670  0.5024396302896155  0.4319433849741073
  0.0420442582633974  0.0841694549783900  0.3995715109874869
  0.0411889734464331  0.2083206623142757  0.3993957519143634
  0.0405513661853035  0.3328970835881495  0.3995553900776287
  0.0405270905031833  0.4583172932366001  0.3996406147762012
  0.0414142206810521  0.5838419949706313  0.3998141428063843
  0.0421348055364804  0.7092273476334136  0.3999271734135628
  0.0424603782899960  0.8345958230356191  0.3999441814958485
  0.0424823658630332  0.9596331233505250  0.3997989425756245
  0.1678171886610252  0.0855164001874486  0.3997282647071678
  0.1674640489379612  0.2102118070920969  0.3995716985375337
  0.1658179632114621  0.3340054399271071  0.3996604163053540
  0.1641191644796905  0.4584952617078026  0.3998611949998613
  0.1651338033303921  0.5837709227049138  0.3996981579831520
  0.1664089877806730  0.7092301219258125  0.3998580841910030
  0.1671542309524856  0.8346634800861904  0.3999399235664329
  0.1675755532163595  0.9600933460728985  0.3998529976680117
  0.2927612008643503  0.0854705411750122  0.3998813959514463
  0.2936600365616444  0.2120420797916069  0.4010003950822999
  0.2932147829354813  0.3375335298916600  0.4018945994409274
  0.2879453970480414  0.4590472672964809  0.4021144691532940
  0.2886132124874011  0.5842784004608385  0.4003424149882185
  0.2906871447694733  0.7091243371300012  0.3996592138774121
  0.2916794108180524  0.8342624193566510  0.3997384724095523
  0.2921658368654498  0.9596683092221281  0.3997204786019086
  0.4172194552332403  0.0841101113666898  0.3996153592047346
  0.4178528869772378  0.2100215043721349  0.4001549807645800
  0.4197847317392361  0.3374373521408552  0.4037400861921613
  0.4148431153718473  0.7067717417590332  0.3998244888393708
  0.4160815666985023  0.8327415891514325  0.3995607996383450
  0.4167193772479768  0.9584259861303067  0.3997029131482662
  0.5416881043294224  0.0826100122329238  0.3996680436512823
  0.5423002098504132  0.2079840950960655  0.3995489590526984
  0.5433618175049822  0.3332027247816629  0.4006013068786631
  0.5467355974791557  0.4576926895237336  0.4042246809886479
  0.5451263459006804  0.5797843264360194  0.4050786546218796
  0.5385027545156071  0.7033885877480259  0.4012225168440408
  0.5403770987816017  0.8309341083347155  0.3998739322633212
  0.5412126761407611  0.9570124885291735  0.3998110931406949
  0.6662392727987801  0.0819615479883216  0.3999241589927977
  0.6667812463766549  0.2073628374943900  0.3996428444868574
  0.6675992673245125  0.3326307688414075  0.3994515214364440
  0.6696989360280122  0.4581467532081092  0.3996708936886182
  0.6706576104579514  0.5836568177049773  0.3999098189360313
  0.6661076519027572  0.7062333221455209  0.3993698492066888
  0.6649152406002662  0.8305678259498200  0.3997981423109165
  0.6656901332888790  0.9564396885948865  0.4000265031881244
  0.7909326404546999  0.0819521002554139  0.4001075055586235
  0.7912625718698272  0.2072020870046527  0.3999493837125607
  0.7919373398488307  0.3326476510092408  0.3996580459073237
  0.7930868061119742  0.4582004739026041  0.3992605239745342
  0.7938323954443468  0.5835674045164277  0.3990853371557321
  0.7930578034785166  0.7087724191637162  0.3990501022606446
  0.7912713575552537  0.8324403933700809  0.3993387011517927
  0.7906309535043073  0.9567944327418393  0.3998785247193301
  0.9161121151362561  0.0826539384233233  0.3998040139176973
  0.9159650102419239  0.2074814954837682  0.3998056056636486
  0.9161286903155991  0.3327142237580060  0.3998218195591570
  0.9167590853350960  0.4581653110100886  0.3996979306104202
  0.9176403670123683  0.5837776864573776  0.3995551187897107
  0.9177582417040093  0.7091758703756362  0.3995405618907436
  0.9174080912792876  0.8340258968523175  0.3996561250585919
  0.9166311265007338  0.9583039366826417  0.3998180427182353
  0.0842663836120740  0.0431964410200544  0.3996352010670548
  0.0837379794197336  0.1676558281745384  0.3993841698110143
  0.0824190072198290  0.2916701417548712  0.3994022684031227
  0.0815725776966334  0.4165406062518539  0.3995812174660491
  0.0822519796799090  0.5418936002142215  0.3997004228133197
  0.0833036326703563  0.6674254242167597  0.3999106882274587
  0.0839328636072227  0.7928966242787180  0.3999854024628277
  0.0841841476080519  0.9181457009587523  0.3998987522157982
  0.2093304349810811  0.0436134500125589  0.3998282459877417
  0.2096503111139652  0.1692185593158946  0.4000058906941003
  0.2091076742658232  0.2939505914694048  0.3998327818497192
  0.2054291218338003  0.4172097737798184  0.4002743899176465
  0.2057327774409839  0.5419149307447256  0.3999175933441324
  0.2075013608409183  0.6674280186090471  0.3997353414431204
  0.2084578356353427  0.7928032507931456  0.3998634787202234
  0.2090102610067224  0.9182010261755587  0.3998499588329053
  0.3339760088592140  0.0431896396588771  0.3996818095308223
  0.3346908397874915  0.1691124280887075  0.4003957487301689
  0.3355428820206331  0.2956044390664855  0.4027314539859811
  0.3312781954949329  0.4206306093622951  0.4045788353639638
  0.3296055616904853  0.5436578941284291  0.4019911960415725
  0.3316730551561234  0.6672945887599233  0.3998655107033059
  0.3329590896872174  0.7923508885786006  0.3996208663421097
  0.3335492234074290  0.9176325814885107  0.3997071431575831
  0.4585626166605240  0.0418497988501683  0.3996485684701198
  0.4590518661687309  0.1675116056698862  0.3996540906875965
  0.4601121884759491  0.2936891453257219  0.4010405826048868
  0.4653701197433781  0.4203462038652991  0.4082776745102289
  0.4545245128817821  0.6628161442917251  0.4013065260713088
  0.4573317106619674  0.7903457310468114  0.3995757595333434
  0.4579909541406015  0.9161644848299573  0.3997031229700507
  0.5830532356413877  0.0405374792168700  0.3998182275878056
  0.5835948354133845  0.1660216642755684  0.3995487714738681
  0.5844766101015805  0.2911765793768485  0.3997081434971053
  0.5869546734288574  0.4161818870892834  0.4010607436893643
  0.5890175638642133  0.5421479731071637  0.4028398534769410
  0.5817694457539312  0.6621441981967754  0.4013675278546126
  0.5807974668681168  0.7876093738578785  0.4001963418061612
  0.5824138232554071  0.9147215727824370  0.3998928799987576
  0.7075919436594098  0.0400249805278804  0.4000757438242566
  0.7081157795696347  0.1655059254561324  0.3998523239714245
  0.7087726059468380  0.2908554098539535  0.3995401149936044
  0.7102480060214710  0.4163513252160886  0.3992781363888832
  0.7114967692372798  0.5417166868113896  0.3994087628009259
  0.7098432185921225  0.6666768672501231  0.3991783993671481
  0.7074734649346471  0.7898292027263724  0.3992909632296442
  0.7069585278279467  0.9143622332372430  0.3999031705235455
  0.8325638412569963  0.0404287326827319  0.3999854472890242
  0.8327030709157840  0.1655125649316344  0.4000194909597986
  0.8331134413170119  0.2908519468866316  0.3998508527414418
  0.8339262157433034  0.4162476815058888  0.3995502802862262
  0.8348368159517477  0.5417567008098111  0.3992426236933450
  0.8347778843494998  0.6673204771336778  0.3991811589180252
  0.8340583728128214  0.7919642025902288  0.3992972678260878
  0.8329526125006185  0.9159263615276436  0.3997245429063244
  0.9583813198062212  0.0417925002929026  0.3997581279763934
  0.9578070167609808  0.1661639652352573  0.3996385624459888
  0.9575076227920083  0.2909976543171932  0.3997292238341187
  0.9576836446358061  0.4162994748578098  0.3997495073040364
  0.9585832290966885  0.5419086569380538  0.3997195433722556
  0.9591348251233160  0.6673980308043457  0.3997007156989706
  0.9592342395164414  0.7926864802794765  0.3997497551847928
  0.9589680629890149  0.9174718662129648  0.3998014498152651
  0.4096272297526075  0.5816503075937264  0.4039517534136204
  0.4410887952177876  0.5022466076735042  0.4895437392822558
 
  0.00000000E+00  0.00000000E+00  0.00000000E+00
  0.00000000E+00  0.00000000E+00  0.00000000E+00
  0.00000000E+00  0.00000000E+00  0.00000000E+00
  0.00000000E+00  0.00000000E+00  0.00000000E+00
  0.00000000E+00  0.00000000E+00  0.00000000E+00
  0.00000000E+00  0.00000000E+00  0.00000000E+00
  0.00000000E+00  0.00000000E+00  0.00000000E+00
  0.00000000E+00  0.00000000E+00  0.00000000E+00
  0.00000000E+00  0.00000000E+00  0.00000000E+00
  0.00000000E+00  0.00000000E+00  0.00000000E+00
  0.00000000E+00  0.00000000E+00  0.00000000E+00
  0.00000000E+00  0.00000000E+00  0.00000000E+00
  0.00000000E+00  0.00000000E+00  0.00000000E+00
  0.00000000E+00  0.00000000E+00  0.00000000E+00
  0.00000000E+00  0.00000000E+00  0.00000000E+00
  0.00000000E+00  0.00000000E+00  0.00000000E+00
  0.00000000E+00  0.00000000E+00  0.00000000E+00
  0.00000000E+00  0.00000000E+00  0.00000000E+00
  0.00000000E+00  0.00000000E+00  0.00000000E+00
  0.00000000E+00  0.00000000E+00  0.00000000E+00
  0.00000000E+00  0.00000000E+00  0.00000000E+00
  0.00000000E+00  0.00000000E+00  0.00000000E+00
  0.00000000E+00  0.00000000E+00  0.00000000E+00
  0.00000000E+00  0.00000000E+00  0.00000000E+00
  0.00000000E+00  0.00000000E+00  0.00000000E+00
  0.00000000E+00  0.00000000E+00  0.00000000E+00
  0.00000000E+00  0.00000000E+00  0.00000000E+00
  0.00000000E+00  0.00000000E+00  0.00000000E+00
  0.00000000E+00  0.00000000E+00  0.00000000E+00
  0.00000000E+00  0.00000000E+00  0.00000000E+00
  0.00000000E+00  0.00000000E+00  0.00000000E+00
  0.00000000E+00  0.00000000E+00  0.00000000E+00
  0.00000000E+00  0.00000000E+00  0.00000000E+00
  0.00000000E+00  0.00000000E+00  0.00000000E+00
  0.00000000E+00  0.00000000E+00  0.00000000E+00
  0.00000000E+00  0.00000000E+00  0.00000000E+00
  0.00000000E+00  0.00000000E+00  0.00000000E+00
  0.00000000E+00  0.00000000E+00  0.00000000E+00
  0.00000000E+00  0.00000000E+00  0.00000000E+00
  0.00000000E+00  0.00000000E+00  0.00000000E+00
  0.00000000E+00  0.00000000E+00  0.00000000E+00
  0.00000000E+00  0.00000000E+00  0.00000000E+00
  0.00000000E+00  0.00000000E+00  0.00000000E+00
  0.00000000E+00  0.00000000E+00  0.00000000E+00
  0.00000000E+00  0.00000000E+00  0.00000000E+00
  0.00000000E+00  0.00000000E+00  0.00000000E+00
  0.00000000E+00  0.00000000E+00  0.00000000E+00
  0.00000000E+00  0.00000000E+00  0.00000000E+00
  0.00000000E+00  0.00000000E+00  0.00000000E+00
  0.00000000E+00  0.00000000E+00  0.00000000E+00
  0.00000000E+00  0.00000000E+00  0.00000000E+00
  0.00000000E+00  0.00000000E+00  0.00000000E+00
  0.00000000E+00  0.00000000E+00  0.00000000E+00
  0.00000000E+00  0.00000000E+00  0.00000000E+00
  0.00000000E+00  0.00000000E+00  0.00000000E+00
  0.00000000E+00  0.00000000E+00  0.00000000E+00
  0.00000000E+00  0.00000000E+00  0.00000000E+00
  0.00000000E+00  0.00000000E+00  0.00000000E+00
  0.00000000E+00  0.00000000E+00  0.00000000E+00
  0.00000000E+00  0.00000000E+00  0.00000000E+00
  0.00000000E+00  0.00000000E+00  0.00000000E+00
  0.00000000E+00  0.00000000E+00  0.00000000E+00
  0.00000000E+00  0.00000000E+00  0.00000000E+00
  0.00000000E+00  0.00000000E+00  0.00000000E+00
  0.00000000E+00  0.00000000E+00  0.00000000E+00
  0.00000000E+00  0.00000000E+00  0.00000000E+00
  0.00000000E+00  0.00000000E+00  0.00000000E+00
  0.00000000E+00  0.00000000E+00  0.00000000E+00
  0.00000000E+00  0.00000000E+00  0.00000000E+00
  0.00000000E+00  0.00000000E+00  0.00000000E+00
  0.00000000E+00  0.00000000E+00  0.00000000E+00
  0.00000000E+00  0.00000000E+00  0.00000000E+00
  0.00000000E+00  0.00000000E+00  0.00000000E+00
  0.00000000E+00  0.00000000E+00  0.00000000E+00
  0.00000000E+00  0.00000000E+00  0.00000000E+00
  0.00000000E+00  0.00000000E+00  0.00000000E+00
  0.00000000E+00  0.00000000E+00  0.00000000E+00
  0.00000000E+00  0.00000000E+00  0.00000000E+00
  0.00000000E+00  0.00000000E+00  0.00000000E+00
  0.00000000E+00  0.00000000E+00  0.00000000E+00
  0.00000000E+00  0.00000000E+00  0.00000000E+00
  0.00000000E+00  0.00000000E+00  0.00000000E+00
  0.00000000E+00  0.00000000E+00  0.00000000E+00
  0.00000000E+00  0.00000000E+00  0.00000000E+00
  0.00000000E+00  0.00000000E+00  0.00000000E+00
  0.00000000E+00  0.00000000E+00  0.00000000E+00
  0.00000000E+00  0.00000000E+00  0.00000000E+00
  0.00000000E+00  0.00000000E+00  0.00000000E+00
  0.00000000E+00  0.00000000E+00  0.00000000E+00
  0.00000000E+00  0.00000000E+00  0.00000000E+00
  0.00000000E+00  0.00000000E+00  0.00000000E+00
  0.00000000E+00  0.00000000E+00  0.00000000E+00
  0.00000000E+00  0.00000000E+00  0.00000000E+00
  0.00000000E+00  0.00000000E+00  0.00000000E+00
  0.00000000E+00  0.00000000E+00  0.00000000E+00
  0.00000000E+00  0.00000000E+00  0.00000000E+00
  0.00000000E+00  0.00000000E+00  0.00000000E+00
  0.00000000E+00  0.00000000E+00  0.00000000E+00
  0.00000000E+00  0.00000000E+00  0.00000000E+00
  0.00000000E+00  0.00000000E+00  0.00000000E+00
  0.00000000E+00  0.00000000E+00  0.00000000E+00
  0.00000000E+00  0.00000000E+00  0.00000000E+00
  0.00000000E+00  0.00000000E+00  0.00000000E+00
  0.00000000E+00  0.00000000E+00  0.00000000E+00
  0.00000000E+00  0.00000000E+00  0.00000000E+00
  0.00000000E+00  0.00000000E+00  0.00000000E+00
  0.00000000E+00  0.00000000E+00  0.00000000E+00
  0.00000000E+00  0.00000000E+00  0.00000000E+00
  0.00000000E+00  0.00000000E+00  0.00000000E+00
  0.00000000E+00  0.00000000E+00  0.00000000E+00
  0.00000000E+00  0.00000000E+00  0.00000000E+00
  0.00000000E+00  0.00000000E+00  0.00000000E+00
  0.00000000E+00  0.00000000E+00  0.00000000E+00
  0.00000000E+00  0.00000000E+00  0.00000000E+00
  0.00000000E+00  0.00000000E+00  0.00000000E+00
  0.00000000E+00  0.00000000E+00  0.00000000E+00
  0.00000000E+00  0.00000000E+00  0.00000000E+00
  0.00000000E+00  0.00000000E+00  0.00000000E+00
  0.00000000E+00  0.00000000E+00  0.00000000E+00
  0.00000000E+00  0.00000000E+00  0.00000000E+00
  0.00000000E+00  0.00000000E+00  0.00000000E+00
  0.00000000E+00  0.00000000E+00  0.00000000E+00
  0.00000000E+00  0.00000000E+00  0.00000000E+00
  0.00000000E+00  0.00000000E+00  0.00000000E+00
  0.00000000E+00  0.00000000E+00  0.00000000E+00
  0.00000000E+00  0.00000000E+00  0.00000000E+00
  0.00000000E+00  0.00000000E+00  0.00000000E+00
  0.00000000E+00  0.00000000E+00  0.00000000E+00
