Ti1 H1 C126                             
   1.00000000000000     
    19.8297890455044268    0.0000715939888227   -0.0394341127753539
    -9.9148727106711654   17.0694158607744981   -0.0781776959004851
    -0.0590722800079177   -0.1703272887112823   29.7290074235485022
   Ti   H    C 
     1     1   126
Direct
  0.4391850081422812  0.5011641754415125  0.4336902110913564
  0.4427192102884100  0.5028903505615370  0.4930971311648797
  0.0417937960142566  0.0837743277877734  0.3994829069984639
  0.0407988229119006  0.2080072673564556  0.3993163117692292
  0.0403700439698751  0.3328737350043358  0.3991115907307318
  0.0405140371185681  0.4583877695708037  0.3991801792586370
  0.0414017702087222  0.5838562801120998  0.3997393138882892
  0.0421309881198025  0.7091482385464968  0.3999529319353754
  0.0423808721535183  0.8344425210107269  0.3998874631761345
  0.0423795214356136  0.9593831779324653  0.3996817131016527
  0.1674681064008525  0.0850125954353962  0.3998686228496235
  0.1666751072308532  0.2093349938041673  0.4001361604369269
  0.1650584228591399  0.3331038362719437  0.4000388308991072
  0.1640875581046654  0.4583506184223943  0.3991819205941193
  0.1651061275729754  0.5837085322884977  0.3988508753581851
  0.1664977026619480  0.7091719854500592  0.3995532150855618
  0.1671548833381924  0.8344738212614591  0.3999085114621532
  0.1674295416936367  0.9597427477501651  0.3997920841139165
  0.2926723912487953  0.0850599499861295  0.3998716847103241
  0.2931649001451956  0.2112765977224447  0.4013372352858389
  0.2917144174679848  0.3363568669067433  0.4037213370570177
  0.2871043254783713  0.4576081766400382  0.4033701333553771
  0.2888115217858415  0.5839591518740064  0.4000005088424775
  0.2908674675219567  0.7090428370057228  0.3990539247653917
  0.2916142800440354  0.8340852767259705  0.3996001313701131
  0.2921688406099157  0.9594492248861197  0.3997316539490038
  0.4171427055605641  0.0838151929550974  0.3995446564867558
  0.4177463273327135  0.2093388650360643  0.4000059666872356
  0.4196747455527849  0.3363308676559160  0.4029320730701762
  0.4113907239013206  0.5817746962802653  0.4061695124926041
  0.4152655348714186  0.7074598004199136  0.4000172365923017
  0.4162503264102023  0.8331055675698742  0.3993898736687583
  0.4168076352016346  0.9585054110709568  0.3996697077989252
  0.5418511497835007  0.0828208300434404  0.3996585537595455
  0.5423142281705884  0.2080244403956391  0.3994466037977283
  0.5431072819712722  0.3330863865060611  0.3997168677289668
  0.5454916107738468  0.4575586232359191  0.4017079103954399
  0.5452688612456831  0.5815951763036228  0.4042745340627301
  0.5403240654158468  0.7056367016291164  0.4022602173029831
  0.5406784199945556  0.8316568837307468  0.3999020272795740
  0.5413310203953630  0.9573777531317698  0.3997883952631289
  0.6663714486836612  0.0823191825661491  0.3998676788575730
  0.6668038042924617  0.2076164681956748  0.3996688389603163
  0.6675676058170841  0.3328571916701139  0.3994111341758864
  0.6693167635597812  0.4583095470828424  0.3991348702260179
  0.6701537620200733  0.5838976746107624  0.3993230513483594
  0.6671880689079430  0.7074206048733865  0.3995420325870418
  0.6659866428682757  0.8316397637843876  0.3998427903426222
  0.6660295233652863  0.9569595331069013  0.3999761234625658
  0.7910925670629418  0.0823043290456556  0.3999533535406874
  0.7913281908994417  0.2075481227685031  0.3999277061376713
  0.7918840852375204  0.3329275400477119  0.3998446134582538
  0.7929171888895007  0.4583537093329680  0.3995843464339614
  0.7936245095175394  0.5836618101813720  0.3992340757399257
  0.7931962118770919  0.7089820236421863  0.3992030662423147
  0.7919110239032855  0.8330658220750224  0.3995148570107082
  0.7911393473729151  0.9573483587304674  0.3999039055332549
  0.9161084185184667  0.0827811104575048  0.3996277467323208
  0.9159053787902989  0.2076094445875801  0.3995874714964138
  0.9161365159570483  0.3329504900080311  0.3997240075601697
  0.9167178530784064  0.4583597243577968  0.3999180118879512
  0.9175109775697303  0.5838447845506454  0.3998918527566231
  0.9177196301786811  0.7091353003185622  0.3997178467298163
  0.9175203513847456  0.8340260444246783  0.3997594046715421
  0.9168141717198240  0.9584532933931875  0.3997562147432654
  0.0840029402401024  0.0428142684795131  0.3995915110172688
  0.0832308531216985  0.1670965033604471  0.3994979364898079
  0.0819306176770001  0.2911643672411293  0.3992859779394940
  0.0815079314553877  0.4165027813335461  0.3989114564050643
  0.0822419632012929  0.5418848070717376  0.3991983126155796
  0.0833425660069094  0.6673795061433361  0.3998255638851516
  0.0839022884679921  0.7927438227444510  0.3999189551845638
  0.0841044785488706  0.9178907549892970  0.3997977015367686
  0.2091596757880993  0.0431999441861451  0.3998272726662855
  0.2091198848065731  0.1685180725173362  0.4004835592396960
  0.2079500364325023  0.2927638645973465  0.4008628452370461
  0.2049920392743373  0.4162760647560773  0.4003699847713948
  0.2058275220991569  0.5418553365178104  0.3990764876326232
  0.2076019530189527  0.6673674470584898  0.3990628532289189
  0.2084449646013665  0.7926539264283273  0.3997378770031025
  0.2089160510318921  0.9179259245395185  0.3998556772820811
  0.3339335258827000  0.0428644847719274  0.3996496312252075
  0.3344582469042588  0.1685454789095745  0.4003862905844956
  0.3348450827588035  0.2946631141842573  0.4033675776032691
  0.3298946815716207  0.4187718522862136  0.4068556246606627
  0.3296794919314923  0.5427703986360216  0.4030668258725511
  0.3320272245882163  0.6670977203334200  0.3994759202839500
  0.3329060517995738  0.7922049813830108  0.3993153973498224
  0.3334933471059709  0.9174533936309527  0.3996770285035752
  0.4585422633615269  0.0417779470159312  0.3996226122445080
  0.4589494904568983  0.1671075549408217  0.3995364074172256
  0.4598516207598144  0.2927475607318076  0.4004128679799945
  0.4639207516025821  0.4188147562980232  0.4050094935508493
  0.4555199426048330  0.6640089207834061  0.4027231471341621
  0.4574119968367067  0.7908583497941309  0.3995210269945265
  0.4581470939063882  0.9164210289171705  0.3996397587034956
  0.5831465458124435  0.0408097077966688  0.3997984840822161
  0.5836400799725355  0.1661828656505109  0.3995505555526686
  0.5842833270309600  0.2911797490520165  0.3993885947805540
  0.5863409480210591  0.4162597045996000  0.3997373439159753
  0.5880344973038856  0.5426844835046186  0.4013594330109055
  0.5834747153418852  0.6639681476394390  0.4018760903292146
  0.5819762501381431  0.7889308222157538  0.4004439162237182
  0.5825398499497075  0.9151534397346132  0.3998569059697259
  0.7077866918120935  0.0404395414728723  0.3999689200276070
  0.7081037420607614  0.1657985001340305  0.3998413257124952
  0.7087045611556697  0.2910910965221840  0.3996481537016830
  0.7100391989660441  0.4165201374317408  0.3992778428611380
  0.7110480995198499  0.5418096491802602  0.3990413321407825
  0.7100659871402407  0.6670323048408958  0.3991315387864946
  0.7084557906193698  0.7908141553131423  0.3994455114736438
  0.7076828332930928  0.9151297942807443  0.3999026329665954
  0.8327967472033486  0.0407809227901404  0.3998845092650893
  0.8327963629178319  0.1657869059291019  0.3998805918068835
  0.8331240824484100  0.2911603488803187  0.3999119507288396
  0.8337944740893088  0.4164566524420732  0.3998628031376888
  0.8346413516291286  0.5418684537056782  0.3995940942605983
  0.8347538782598505  0.6672880057893765  0.3993706845800593
  0.8343071492985337  0.7921217013937651  0.3995017420079322
  0.8333665929898963  0.9163794480115857  0.3997890830708001
  0.9583612307155429  0.0417318548906016  0.3995949182122203
  0.9576307357317226  0.1661639338321536  0.3994243240414044
  0.9574454855655512  0.2910919262731660  0.3994320451223118
  0.9576862071815497  0.4164627064108679  0.3996684224593072
  0.9585086188537527  0.5419921394533632  0.3999503469160235
  0.9590819022918264  0.6673615804972883  0.3998884435267928
  0.9592285242722248  0.7925952580839060  0.3998193320355459
  0.9590506179896362  0.9173920021343582  0.3997498247779676
 
  0.00000000E+00  0.00000000E+00  0.00000000E+00
  0.00000000E+00  0.00000000E+00  0.00000000E+00
  0.00000000E+00  0.00000000E+00  0.00000000E+00
  0.00000000E+00  0.00000000E+00  0.00000000E+00
  0.00000000E+00  0.00000000E+00  0.00000000E+00
  0.00000000E+00  0.00000000E+00  0.00000000E+00
  0.00000000E+00  0.00000000E+00  0.00000000E+00
  0.00000000E+00  0.00000000E+00  0.00000000E+00
  0.00000000E+00  0.00000000E+00  0.00000000E+00
  0.00000000E+00  0.00000000E+00  0.00000000E+00
  0.00000000E+00  0.00000000E+00  0.00000000E+00
  0.00000000E+00  0.00000000E+00  0.00000000E+00
  0.00000000E+00  0.00000000E+00  0.00000000E+00
  0.00000000E+00  0.00000000E+00  0.00000000E+00
  0.00000000E+00  0.00000000E+00  0.00000000E+00
  0.00000000E+00  0.00000000E+00  0.00000000E+00
  0.00000000E+00  0.00000000E+00  0.00000000E+00
  0.00000000E+00  0.00000000E+00  0.00000000E+00
  0.00000000E+00  0.00000000E+00  0.00000000E+00
  0.00000000E+00  0.00000000E+00  0.00000000E+00
  0.00000000E+00  0.00000000E+00  0.00000000E+00
  0.00000000E+00  0.00000000E+00  0.00000000E+00
  0.00000000E+00  0.00000000E+00  0.00000000E+00
  0.00000000E+00  0.00000000E+00  0.00000000E+00
  0.00000000E+00  0.00000000E+00  0.00000000E+00
  0.00000000E+00  0.00000000E+00  0.00000000E+00
  0.00000000E+00  0.00000000E+00  0.00000000E+00
  0.00000000E+00  0.00000000E+00  0.00000000E+00
  0.00000000E+00  0.00000000E+00  0.00000000E+00
  0.00000000E+00  0.00000000E+00  0.00000000E+00
  0.00000000E+00  0.00000000E+00  0.00000000E+00
  0.00000000E+00  0.00000000E+00  0.00000000E+00
  0.00000000E+00  0.00000000E+00  0.00000000E+00
  0.00000000E+00  0.00000000E+00  0.00000000E+00
  0.00000000E+00  0.00000000E+00  0.00000000E+00
  0.00000000E+00  0.00000000E+00  0.00000000E+00
  0.00000000E+00  0.00000000E+00  0.00000000E+00
  0.00000000E+00  0.00000000E+00  0.00000000E+00
  0.00000000E+00  0.00000000E+00  0.00000000E+00
  0.00000000E+00  0.00000000E+00  0.00000000E+00
  0.00000000E+00  0.00000000E+00  0.00000000E+00
  0.00000000E+00  0.00000000E+00  0.00000000E+00
  0.00000000E+00  0.00000000E+00  0.00000000E+00
  0.00000000E+00  0.00000000E+00  0.00000000E+00
  0.00000000E+00  0.00000000E+00  0.00000000E+00
  0.00000000E+00  0.00000000E+00  0.00000000E+00
  0.00000000E+00  0.00000000E+00  0.00000000E+00
  0.00000000E+00  0.00000000E+00  0.00000000E+00
  0.00000000E+00  0.00000000E+00  0.00000000E+00
  0.00000000E+00  0.00000000E+00  0.00000000E+00
  0.00000000E+00  0.00000000E+00  0.00000000E+00
  0.00000000E+00  0.00000000E+00  0.00000000E+00
  0.00000000E+00  0.00000000E+00  0.00000000E+00
  0.00000000E+00  0.00000000E+00  0.00000000E+00
  0.00000000E+00  0.00000000E+00  0.00000000E+00
  0.00000000E+00  0.00000000E+00  0.00000000E+00
  0.00000000E+00  0.00000000E+00  0.00000000E+00
  0.00000000E+00  0.00000000E+00  0.00000000E+00
  0.00000000E+00  0.00000000E+00  0.00000000E+00
  0.00000000E+00  0.00000000E+00  0.00000000E+00
  0.00000000E+00  0.00000000E+00  0.00000000E+00
  0.00000000E+00  0.00000000E+00  0.00000000E+00
  0.00000000E+00  0.00000000E+00  0.00000000E+00
  0.00000000E+00  0.00000000E+00  0.00000000E+00
  0.00000000E+00  0.00000000E+00  0.00000000E+00
  0.00000000E+00  0.00000000E+00  0.00000000E+00
  0.00000000E+00  0.00000000E+00  0.00000000E+00
  0.00000000E+00  0.00000000E+00  0.00000000E+00
  0.00000000E+00  0.00000000E+00  0.00000000E+00
  0.00000000E+00  0.00000000E+00  0.00000000E+00
  0.00000000E+00  0.00000000E+00  0.00000000E+00
  0.00000000E+00  0.00000000E+00  0.00000000E+00
  0.00000000E+00  0.00000000E+00  0.00000000E+00
  0.00000000E+00  0.00000000E+00  0.00000000E+00
  0.00000000E+00  0.00000000E+00  0.00000000E+00
  0.00000000E+00  0.00000000E+00  0.00000000E+00
  0.00000000E+00  0.00000000E+00  0.00000000E+00
  0.00000000E+00  0.00000000E+00  0.00000000E+00
  0.00000000E+00  0.00000000E+00  0.00000000E+00
  0.00000000E+00  0.00000000E+00  0.00000000E+00
  0.00000000E+00  0.00000000E+00  0.00000000E+00
  0.00000000E+00  0.00000000E+00  0.00000000E+00
  0.00000000E+00  0.00000000E+00  0.00000000E+00
  0.00000000E+00  0.00000000E+00  0.00000000E+00
  0.00000000E+00  0.00000000E+00  0.00000000E+00
  0.00000000E+00  0.00000000E+00  0.00000000E+00
  0.00000000E+00  0.00000000E+00  0.00000000E+00
  0.00000000E+00  0.00000000E+00  0.00000000E+00
  0.00000000E+00  0.00000000E+00  0.00000000E+00
  0.00000000E+00  0.00000000E+00  0.00000000E+00
  0.00000000E+00  0.00000000E+00  0.00000000E+00
  0.00000000E+00  0.00000000E+00  0.00000000E+00
  0.00000000E+00  0.00000000E+00  0.00000000E+00
  0.00000000E+00  0.00000000E+00  0.00000000E+00
  0.00000000E+00  0.00000000E+00  0.00000000E+00
  0.00000000E+00  0.00000000E+00  0.00000000E+00
  0.00000000E+00  0.00000000E+00  0.00000000E+00
  0.00000000E+00  0.00000000E+00  0.00000000E+00
  0.00000000E+00  0.00000000E+00  0.00000000E+00
  0.00000000E+00  0.00000000E+00  0.00000000E+00
  0.00000000E+00  0.00000000E+00  0.00000000E+00
  0.00000000E+00  0.00000000E+00  0.00000000E+00
  0.00000000E+00  0.00000000E+00  0.00000000E+00
  0.00000000E+00  0.00000000E+00  0.00000000E+00
  0.00000000E+00  0.00000000E+00  0.00000000E+00
  0.00000000E+00  0.00000000E+00  0.00000000E+00
  0.00000000E+00  0.00000000E+00  0.00000000E+00
  0.00000000E+00  0.00000000E+00  0.00000000E+00
  0.00000000E+00  0.00000000E+00  0.00000000E+00
  0.00000000E+00  0.00000000E+00  0.00000000E+00
  0.00000000E+00  0.00000000E+00  0.00000000E+00
  0.00000000E+00  0.00000000E+00  0.00000000E+00
  0.00000000E+00  0.00000000E+00  0.00000000E+00
  0.00000000E+00  0.00000000E+00  0.00000000E+00
  0.00000000E+00  0.00000000E+00  0.00000000E+00
  0.00000000E+00  0.00000000E+00  0.00000000E+00
  0.00000000E+00  0.00000000E+00  0.00000000E+00
  0.00000000E+00  0.00000000E+00  0.00000000E+00
  0.00000000E+00  0.00000000E+00  0.00000000E+00
  0.00000000E+00  0.00000000E+00  0.00000000E+00
  0.00000000E+00  0.00000000E+00  0.00000000E+00
  0.00000000E+00  0.00000000E+00  0.00000000E+00
  0.00000000E+00  0.00000000E+00  0.00000000E+00
  0.00000000E+00  0.00000000E+00  0.00000000E+00
  0.00000000E+00  0.00000000E+00  0.00000000E+00
  0.00000000E+00  0.00000000E+00  0.00000000E+00
  0.00000000E+00  0.00000000E+00  0.00000000E+00
  0.00000000E+00  0.00000000E+00  0.00000000E+00
