H1 Pt1 C125 N1 O2                       
   1.00000000000000     
    19.8137010578356723   -0.0389804073718845    0.4567017420088350
    -9.9416467127025516   17.0622547472421147    0.1625048683909712
     0.6853817737875971    0.6824045320244819   29.8302692469847202
   H    Pt   C    N    O 
     1     1   125     1     2
Direct
  0.5565172691312827  0.5593737828721738  0.5212972425483056
  0.4319582995088914  0.4956303758152633  0.4291553367192072
  0.0417349935853798  0.0839602720051851  0.3993089388908085
  0.0414533754334638  0.2083887032397326  0.3986040486670387
  0.0410127280824518  0.3330000932755632  0.3977209544967727
  0.0406182635304462  0.4582478009824137  0.3976541910595023
  0.0408521305403765  0.5836195605491470  0.3981012805938697
  0.0412969932997680  0.7089172668835075  0.3984815168186651
  0.0415551842109832  0.8341342972979423  0.3987557069757017
  0.0417307782502373  0.9592153057954764  0.3991501795156281
  0.1673503874280240  0.0852017241044771  0.3998600992702200
  0.1676345448869552  0.2103118362934221  0.3997988375854148
  0.1667122205944282  0.3344926189601868  0.3980170209914717
  0.1647028213160620  0.4588675561332876  0.3975782917553017
  0.1646328468427787  0.5839071148920291  0.3979847821467554
  0.1655143216413793  0.7091269492733968  0.3987503752967244
  0.1662448161062533  0.8343769755185935  0.3990258641217722
  0.1667862445396567  0.9597029222238717  0.3993724748424530
  0.2920592483491842  0.0849014169805836  0.4005961608661557
  0.2931258001795278  0.2113554170141894  0.4027551508166723
  0.2939927253469222  0.3376514347588268  0.4019245871737741
  0.2892387674308333  0.4602570604824601  0.3997632369857924
  0.2877750646939599  0.5849096054922877  0.3996646822600120
  0.2895473072006795  0.7093222682424973  0.3997446253766419
  0.2907734983705031  0.8341773713414219  0.3993738335731354
  0.2914093865135989  0.9593440575605615  0.3994404858555822
  0.4166209169232176  0.0834529035750287  0.3999609986874742
  0.4171923941321074  0.2087962198052773  0.4025964991550420
  0.4185905469780987  0.3346705830540542  0.4106577015298506
  0.4131417261488485  0.7073325640933861  0.4032183489738319
  0.4151574682200277  0.8328350442496226  0.4005853301293756
  0.4160164812911846  0.9581689993739037  0.3995835517136240
  0.5412994928583206  0.0820516976148733  0.3993657260978089
  0.5419133690614398  0.2070651397913045  0.4003460152266375
  0.5427043063390918  0.3314693348764153  0.4041348559310676
  0.5451980815671876  0.4547879188618512  0.4110188770095959
  0.5439073568291388  0.5770260384830862  0.4098639542425542
  0.5361282258847268  0.7019569224325856  0.4069799107097659
  0.5391803106693374  0.8302674643420249  0.4026943430637940
  0.5405629322972216  0.9565223302573589  0.4002189835330885
  0.6659154775884927  0.0814143947607942  0.3994623022982382
  0.6666271354809044  0.2067420365471490  0.3989746635037626
  0.6673456956157192  0.3317794130441637  0.3995607931786455
  0.6688362459230334  0.4568899416140774  0.4008560667502727
  0.6690970042107468  0.5819985139577313  0.4022057954154533
  0.6638211165000848  0.7042131759414542  0.4027490531839951
  0.6635232484261845  0.8293445501034700  0.4025315065614861
  0.6650172892872337  0.9557404382703912  0.4008723372554246
  0.7906435691651649  0.0814502835240288  0.3996178384049363
  0.7912326773509614  0.2067835771937333  0.3987569165978052
  0.7918512342693160  0.3321460216449960  0.3982570630000598
  0.7926857122561664  0.4575811953603612  0.3982102128543007
  0.7929698460747033  0.5828273407436626  0.3986210549180892
  0.7916335187544438  0.7076463559156805  0.3993399657261991
  0.7898711347991246  0.8312589707359362  0.4003280689898670
  0.7898416954019161  0.9560204739343673  0.4003723816059400
  0.9158213432263869  0.0822879216744081  0.3993773090237792
  0.9160593036565621  0.2072850785846236  0.3986325727015735
  0.9162476833405943  0.3324773927370476  0.3980359739238842
  0.9165895660380659  0.4578367108481946  0.3978629628636058
  0.9170014707369022  0.5833279791433316  0.3979635060148219
  0.9167935125388145  0.7085893358630391  0.3982793557411889
  0.9163700871306426  0.8333346212875308  0.3989053833660304
  0.9158185285145947  0.9576474818379510  0.3994829489663500
  0.0837383982861678  0.0428871304512011  0.3993913761211372
  0.0838018886810655  0.1676614751669336  0.3991793022310610
  0.0830812911512777  0.2919508010301151  0.3978745114781645
  0.0820231176917579  0.4166805309295244  0.3975038669349198
  0.0818496806695805  0.5418201352325811  0.3978484816311763
  0.0824807575665567  0.6672072515917243  0.3984527721809541
  0.0830371401709975  0.7925744961492626  0.3987698398756945
  0.0833656584384721  0.9177445664688521  0.3990678241559498
  0.2086702901113123  0.0432417652407876  0.3999446684133524
  0.2094230072971911  0.1690130714147853  0.4005398362800840
  0.2098089542038911  0.2943064564731470  0.3995599305305571
  0.2066400062671691  0.4179365778335115  0.3979744033893899
  0.2054581127189100  0.5423055935713443  0.3978167844725897
  0.2066485622078360  0.6674692915016771  0.3987258725328108
  0.2075414665964619  0.7926094301638729  0.3990590905225159
  0.2081651351284265  0.9178782052833262  0.3992766931737204
  0.3333160262576005  0.0427178845221130  0.3999472242246737
  0.3339695055012692  0.1683133642048244  0.4022643304563506
  0.3350936692307817  0.2947592788247143  0.4057867267477480
  0.3328936773610733  0.4216227803853937  0.4013243936216369
  0.3289495728361664  0.5446307433608176  0.4027876940166752
  0.3304068616065271  0.6675884583730196  0.4010212437051311
  0.3319762003906865  0.7923922813091663  0.3999294309491316
  0.3327951598476596  0.9174565757612285  0.3994188228259589
  0.4580321060713854  0.0414303944546345  0.3995284396995800
  0.4585556640049978  0.1666317522332960  0.4007976793289791
  0.4593702099727968  0.2918107209436087  0.4055860622081778
  0.4634672919327564  0.4157800334248478  0.4185393137760121
  0.4514726845007728  0.6627844088854077  0.4074397872812897
  0.4561569380976690  0.7905446507651632  0.4021098961834556
  0.4572982469835543  0.9160634036005001  0.4000684878018583
  0.5826268749970157  0.0400349125689662  0.3995449350210259
  0.5833314339400800  0.1653475760829864  0.3993885580750663
  0.5840518989485896  0.2900862055582389  0.4011335749176925
  0.5858667501115822  0.4142784557748011  0.4047286002945674
  0.5867709994213157  0.5388868421510430  0.4076544902288757
  0.5786258985754252  0.6598051329759660  0.4062353141100012
  0.5791272727550356  0.7863320312634332  0.4041606188244168
  0.5815797837064425  0.9140781964740541  0.4012323590116014
  0.7071688137739890  0.0394485697477571  0.3999473749525955
  0.7079531888712478  0.1650007978943632  0.3989786112737216
  0.7085984718983279  0.2902075109013157  0.3987452475542098
  0.7097198943871702  0.4154162799329137  0.3991935992519965
  0.7103342748615664  0.5404963424514485  0.4002802522641187
  0.7080438638703181  0.6650854652682264  0.4010406909596613
  0.7056426952234753  0.7882751270669552  0.4018626555815613
  0.7059994870727447  0.9134554839627159  0.4012371522034175
  0.8320987204802173  0.0398747485010850  0.3998041492462470
  0.8326246544827928  0.1651594515314204  0.3990032180504653
  0.8331244344579318  0.2904740141957006  0.3982986198684816
  0.8336840469422601  0.4157808047447558  0.3980182272384638
  0.8341601169910594  0.5411677348361238  0.3980993225219444
  0.8336728771068436  0.6665145182737386  0.3985459749240767
  0.8327921527298651  0.7909790933687905  0.3993931850588099
  0.8318994280732909  0.9149799056439603  0.4000635513303220
  0.9578962213798698  0.0413527737322096  0.3993654882380244
  0.9578436339399237  0.1659892599782528  0.3988631082107622
  0.9577648425691898  0.2908960027397404  0.3981161282594470
  0.9576951923546272  0.4161020258810837  0.3978119275675706
  0.9580566889538815  0.5415657417161542  0.3979364878028242
  0.9582859540098227  0.6669713405474950  0.3981727029028400
  0.9582514757194853  0.7921026530078741  0.3985620848034345
  0.9580931993094624  0.9168822296292896  0.3991430751650565
  0.4059386192994573  0.5830397376950931  0.4103304344545843
  0.5068482459417669  0.5123066185907430  0.5156143709720701
  0.4710628885604269  0.5461927516925307  0.4891720880567225
 
  0.00000000E+00  0.00000000E+00  0.00000000E+00
  0.00000000E+00  0.00000000E+00  0.00000000E+00
  0.00000000E+00  0.00000000E+00  0.00000000E+00
  0.00000000E+00  0.00000000E+00  0.00000000E+00
  0.00000000E+00  0.00000000E+00  0.00000000E+00
  0.00000000E+00  0.00000000E+00  0.00000000E+00
  0.00000000E+00  0.00000000E+00  0.00000000E+00
  0.00000000E+00  0.00000000E+00  0.00000000E+00
  0.00000000E+00  0.00000000E+00  0.00000000E+00
  0.00000000E+00  0.00000000E+00  0.00000000E+00
  0.00000000E+00  0.00000000E+00  0.00000000E+00
  0.00000000E+00  0.00000000E+00  0.00000000E+00
  0.00000000E+00  0.00000000E+00  0.00000000E+00
  0.00000000E+00  0.00000000E+00  0.00000000E+00
  0.00000000E+00  0.00000000E+00  0.00000000E+00
  0.00000000E+00  0.00000000E+00  0.00000000E+00
  0.00000000E+00  0.00000000E+00  0.00000000E+00
  0.00000000E+00  0.00000000E+00  0.00000000E+00
  0.00000000E+00  0.00000000E+00  0.00000000E+00
  0.00000000E+00  0.00000000E+00  0.00000000E+00
  0.00000000E+00  0.00000000E+00  0.00000000E+00
  0.00000000E+00  0.00000000E+00  0.00000000E+00
  0.00000000E+00  0.00000000E+00  0.00000000E+00
  0.00000000E+00  0.00000000E+00  0.00000000E+00
  0.00000000E+00  0.00000000E+00  0.00000000E+00
  0.00000000E+00  0.00000000E+00  0.00000000E+00
  0.00000000E+00  0.00000000E+00  0.00000000E+00
  0.00000000E+00  0.00000000E+00  0.00000000E+00
  0.00000000E+00  0.00000000E+00  0.00000000E+00
  0.00000000E+00  0.00000000E+00  0.00000000E+00
  0.00000000E+00  0.00000000E+00  0.00000000E+00
  0.00000000E+00  0.00000000E+00  0.00000000E+00
  0.00000000E+00  0.00000000E+00  0.00000000E+00
  0.00000000E+00  0.00000000E+00  0.00000000E+00
  0.00000000E+00  0.00000000E+00  0.00000000E+00
  0.00000000E+00  0.00000000E+00  0.00000000E+00
  0.00000000E+00  0.00000000E+00  0.00000000E+00
  0.00000000E+00  0.00000000E+00  0.00000000E+00
  0.00000000E+00  0.00000000E+00  0.00000000E+00
  0.00000000E+00  0.00000000E+00  0.00000000E+00
  0.00000000E+00  0.00000000E+00  0.00000000E+00
  0.00000000E+00  0.00000000E+00  0.00000000E+00
  0.00000000E+00  0.00000000E+00  0.00000000E+00
  0.00000000E+00  0.00000000E+00  0.00000000E+00
  0.00000000E+00  0.00000000E+00  0.00000000E+00
  0.00000000E+00  0.00000000E+00  0.00000000E+00
  0.00000000E+00  0.00000000E+00  0.00000000E+00
  0.00000000E+00  0.00000000E+00  0.00000000E+00
  0.00000000E+00  0.00000000E+00  0.00000000E+00
  0.00000000E+00  0.00000000E+00  0.00000000E+00
  0.00000000E+00  0.00000000E+00  0.00000000E+00
  0.00000000E+00  0.00000000E+00  0.00000000E+00
  0.00000000E+00  0.00000000E+00  0.00000000E+00
  0.00000000E+00  0.00000000E+00  0.00000000E+00
  0.00000000E+00  0.00000000E+00  0.00000000E+00
  0.00000000E+00  0.00000000E+00  0.00000000E+00
  0.00000000E+00  0.00000000E+00  0.00000000E+00
  0.00000000E+00  0.00000000E+00  0.00000000E+00
  0.00000000E+00  0.00000000E+00  0.00000000E+00
  0.00000000E+00  0.00000000E+00  0.00000000E+00
  0.00000000E+00  0.00000000E+00  0.00000000E+00
  0.00000000E+00  0.00000000E+00  0.00000000E+00
  0.00000000E+00  0.00000000E+00  0.00000000E+00
  0.00000000E+00  0.00000000E+00  0.00000000E+00
  0.00000000E+00  0.00000000E+00  0.00000000E+00
  0.00000000E+00  0.00000000E+00  0.00000000E+00
  0.00000000E+00  0.00000000E+00  0.00000000E+00
  0.00000000E+00  0.00000000E+00  0.00000000E+00
  0.00000000E+00  0.00000000E+00  0.00000000E+00
  0.00000000E+00  0.00000000E+00  0.00000000E+00
  0.00000000E+00  0.00000000E+00  0.00000000E+00
  0.00000000E+00  0.00000000E+00  0.00000000E+00
  0.00000000E+00  0.00000000E+00  0.00000000E+00
  0.00000000E+00  0.00000000E+00  0.00000000E+00
  0.00000000E+00  0.00000000E+00  0.00000000E+00
  0.00000000E+00  0.00000000E+00  0.00000000E+00
  0.00000000E+00  0.00000000E+00  0.00000000E+00
  0.00000000E+00  0.00000000E+00  0.00000000E+00
  0.00000000E+00  0.00000000E+00  0.00000000E+00
  0.00000000E+00  0.00000000E+00  0.00000000E+00
  0.00000000E+00  0.00000000E+00  0.00000000E+00
  0.00000000E+00  0.00000000E+00  0.00000000E+00
  0.00000000E+00  0.00000000E+00  0.00000000E+00
  0.00000000E+00  0.00000000E+00  0.00000000E+00
  0.00000000E+00  0.00000000E+00  0.00000000E+00
  0.00000000E+00  0.00000000E+00  0.00000000E+00
  0.00000000E+00  0.00000000E+00  0.00000000E+00
  0.00000000E+00  0.00000000E+00  0.00000000E+00
  0.00000000E+00  0.00000000E+00  0.00000000E+00
  0.00000000E+00  0.00000000E+00  0.00000000E+00
  0.00000000E+00  0.00000000E+00  0.00000000E+00
  0.00000000E+00  0.00000000E+00  0.00000000E+00
  0.00000000E+00  0.00000000E+00  0.00000000E+00
  0.00000000E+00  0.00000000E+00  0.00000000E+00
  0.00000000E+00  0.00000000E+00  0.00000000E+00
  0.00000000E+00  0.00000000E+00  0.00000000E+00
  0.00000000E+00  0.00000000E+00  0.00000000E+00
  0.00000000E+00  0.00000000E+00  0.00000000E+00
  0.00000000E+00  0.00000000E+00  0.00000000E+00
  0.00000000E+00  0.00000000E+00  0.00000000E+00
  0.00000000E+00  0.00000000E+00  0.00000000E+00
  0.00000000E+00  0.00000000E+00  0.00000000E+00
  0.00000000E+00  0.00000000E+00  0.00000000E+00
  0.00000000E+00  0.00000000E+00  0.00000000E+00
  0.00000000E+00  0.00000000E+00  0.00000000E+00
  0.00000000E+00  0.00000000E+00  0.00000000E+00
  0.00000000E+00  0.00000000E+00  0.00000000E+00
  0.00000000E+00  0.00000000E+00  0.00000000E+00
  0.00000000E+00  0.00000000E+00  0.00000000E+00
  0.00000000E+00  0.00000000E+00  0.00000000E+00
  0.00000000E+00  0.00000000E+00  0.00000000E+00
  0.00000000E+00  0.00000000E+00  0.00000000E+00
  0.00000000E+00  0.00000000E+00  0.00000000E+00
  0.00000000E+00  0.00000000E+00  0.00000000E+00
  0.00000000E+00  0.00000000E+00  0.00000000E+00
  0.00000000E+00  0.00000000E+00  0.00000000E+00
  0.00000000E+00  0.00000000E+00  0.00000000E+00
  0.00000000E+00  0.00000000E+00  0.00000000E+00
  0.00000000E+00  0.00000000E+00  0.00000000E+00
  0.00000000E+00  0.00000000E+00  0.00000000E+00
  0.00000000E+00  0.00000000E+00  0.00000000E+00
  0.00000000E+00  0.00000000E+00  0.00000000E+00
  0.00000000E+00  0.00000000E+00  0.00000000E+00
  0.00000000E+00  0.00000000E+00  0.00000000E+00
  0.00000000E+00  0.00000000E+00  0.00000000E+00
  0.00000000E+00  0.00000000E+00  0.00000000E+00
  0.00000000E+00  0.00000000E+00  0.00000000E+00
  0.00000000E+00  0.00000000E+00  0.00000000E+00
  0.00000000E+00  0.00000000E+00  0.00000000E+00
  0.00000000E+00  0.00000000E+00  0.00000000E+00
