Cr1 H1 C123 N3 O1                       
   1.00000000000000     
    19.7962604682843732    0.0218418176522063    0.1677341637156171
    -9.8792610149161639   17.0166431174443211   -0.2031985754294541
     0.2529055120564948   -0.2093544502637895   29.8551678571382695
   Cr   H    C    N    O 
     1     1   123     3     1
Direct
  0.4363345057596874  0.5007088832986634  0.4247161893212544
  0.4909227202822505  0.5314245378372615  0.4994755687413708
  0.0417962867712348  0.0841397804730479  0.3999961772203379
  0.0408019136340129  0.2082385597827705  0.4001353909283719
  0.0401974282486976  0.3329856521976274  0.3996360378674267
  0.0405952243998454  0.4582228428513268  0.3991923442265321
  0.0415329602986878  0.5836698812513423  0.3992874908464117
  0.0422652628110506  0.7091097972105436  0.3993857143923277
  0.0424734161800208  0.8343906989423585  0.3994704544286032
  0.0423400471644894  0.9595311423088745  0.3996687164855917
  0.1676105707137242  0.0854615479086769  0.4006035104721528
  0.1670613546814738  0.2101917591373062  0.4011584297124361
  0.1647473289442871  0.3334873504573519  0.4010323011564333
  0.1643920279892827  0.4582253597113789  0.3992240024898059
  0.1655846672670189  0.5834650632730543  0.3990750341691333
  0.1666692199928956  0.7087739894368529  0.3993653686804519
  0.1671750634818663  0.8342963757090949  0.3995814363818913
  0.1674311704161647  0.9599349825131662  0.3998818664705787
  0.2924354137054963  0.0858572041272305  0.4005718267185533
  0.2928583064463960  0.2126210411643779  0.4022795578692529
  0.2916864966469567  0.3381340970645276  0.4047114772386052
  0.2876693455879948  0.4574663753701446  0.4022225789329127
  0.2891220808215131  0.5824001218254684  0.3991073478035817
  0.2910963480739389  0.7079458723782093  0.3992020515382229
  0.2918165049912085  0.8336737497520090  0.3996052478118574
  0.2921377659680373  0.9595777829238010  0.3998996103024900
  0.4169192138533958  0.0845211848638792  0.4000932421170142
  0.4173766836000858  0.2110650673858234  0.4009261336709928
  0.4187776047260986  0.3392149613397022  0.4029752207866673
  0.4151543310729191  0.7049933989340254  0.3999321723477108
  0.4162753781938014  0.8318306982436814  0.3998365829388168
  0.4166697838690935  0.9582431155071047  0.3998686568651076
  0.5413865485835256  0.0829547454938279  0.3997984945766264
  0.5417811284084462  0.2088945582831825  0.3998316136183198
  0.5426631259760487  0.3347646477785033  0.4005142714054094
  0.5457118865344832  0.4605369612850184  0.4027217783625833
  0.5385976702062462  0.7017234653320961  0.4029637464628612
  0.5405245686612888  0.8300657082452488  0.4006770151577678
  0.5410741474310832  0.9567683240508384  0.4000359860619164
  0.6659474370407246  0.0822336080206113  0.3997927688108187
  0.6663112816131203  0.2078678592531070  0.3994486519133883
  0.6670069510630777  0.3333683060419215  0.3994474585828642
  0.6689265450370032  0.4590251087647303  0.4002290638411402
  0.6704299475324802  0.5845160900115616  0.4018497445122754
  0.6668537660148247  0.7067139813637636  0.4021457306742683
  0.6647583560357264  0.8304355714405971  0.4011643418237567
  0.6654845593595135  0.9564273698987165  0.4003225552034286
  0.7906434107877658  0.0821717769919034  0.3998184852116216
  0.7909066844975904  0.2075828139802717  0.3994513477645750
  0.7914461269024482  0.3330128834697044  0.3992347099286556
  0.7924939631474983  0.4584482714425969  0.3992668302245398
  0.7936126726921375  0.5839881561610906  0.3997085424203679
  0.7933926054326133  0.7091211436599182  0.4004997903809164
  0.7912900613756035  0.8326306294251988  0.4002526663554095
  0.7904510630859743  0.9568963100014259  0.4001051382157023
  0.9158340424796839  0.0827323069132184  0.3997751650328390
  0.9156227090953132  0.2076203905766186  0.3996617342425480
  0.9158220938789698  0.3328919667359930  0.3993288598279257
  0.9165632946046551  0.4583533167948168  0.3992373595175659
  0.9174680158614095  0.5838058997063614  0.3992954484921960
  0.9178085755014841  0.7091239651517172  0.3995203367876208
  0.9174587960891789  0.8341288233571584  0.3996280019854348
  0.9165359752278884  0.9583846731352538  0.3996807460980422
  0.0841166744056912  0.0431624853664129  0.4000436702767760
  0.0834730933001474  0.1677118269684378  0.4003329484206845
  0.0819812677860585  0.2915847933109587  0.4002314851051917
  0.0816122986926525  0.4163048260645970  0.3992619253287149
  0.0826009934199398  0.5417619198026387  0.3991744737621720
  0.0835277811977905  0.6671899807233127  0.3993657856252785
  0.0839733451351649  0.7926059103511113  0.3994547197788459
  0.0841356059485995  0.9179874628948546  0.3996260530606130
  0.2091202844538000  0.0436558867379364  0.4003758685716497
  0.2093813297951141  0.1693322986199758  0.4014629404092043
  0.2081918267836607  0.2938310774280654  0.4020035911620641
  0.2055749152877622  0.4166206208945669  0.4003809466777348
  0.2062233626981528  0.5412470634388130  0.3990250171823329
  0.2078082056388038  0.6667959523492071  0.3991847951317266
  0.2085893688528475  0.7923450347282758  0.3995208177955945
  0.2089094948041866  0.9179483597762870  0.3997782471874798
  0.3337486198661463  0.0434031815379815  0.4001635053148073
  0.3340699460866446  0.1698735387662645  0.4012588266451987
  0.3346833942501379  0.2971462662970111  0.4039530762583281
  0.3299173673427431  0.5408555492816323  0.4001463414103693
  0.3319284394162857  0.6656314758771674  0.3991416792900366
  0.3331296980254939  0.7913943121922205  0.3995410965612226
  0.3334718763122322  0.9172586880996705  0.3997901980448568
  0.4582151378162703  0.0419514400448992  0.3998991150587505
  0.4585377488056193  0.1682973143954450  0.4002456511829137
  0.4592910372388194  0.2950220664479735  0.4012566502870605
  0.4633286700593097  0.4226026011239683  0.4039037517633989
  0.4544450803112059  0.6600474767107470  0.4012517530917905
  0.4573880895806915  0.7889634645926367  0.4001362263281906
  0.4579026458538755  0.9156602884148579  0.3999366275400428
  0.5826928325652202  0.0406050273565164  0.3998693315438229
  0.5831105874221028  0.1665936708666196  0.3996474241123578
  0.5837237924748337  0.2923268518197927  0.3997918338789723
  0.5860014485177655  0.4181157058145797  0.4009950539807781
  0.5887866123757465  0.5440368601077026  0.4042930010191041
  0.5830616044799980  0.6619334775077450  0.4046896633452867
  0.5809758027885862  0.7868319375835549  0.4016322825446054
  0.5822920468067535  0.9142602079127757  0.4003301373429286
  0.7073297229929844  0.0402162909377595  0.3999606338012747
  0.7077174701386731  0.1658939981432505  0.3995148209022426
  0.7082274030949645  0.2914312730369784  0.3993108969260493
  0.7095120722892905  0.4168084092338937  0.3995124901787734
  0.7110122957435069  0.5421592775061131  0.4003400777173016
  0.7106351032909889  0.6673871756104305  0.4016745693966644
  0.7076903296646376  0.7901527018064917  0.4009945945132964
  0.7067931862980553  0.9144252041391111  0.4005266435789426
  0.8323622113491150  0.0405987516064309  0.3998555310455561
  0.8324095288577300  0.1658027644405628  0.3996093986951876
  0.8326964647055821  0.2910868820186304  0.3993004373502175
  0.8335390856494742  0.4165293655839750  0.3991994785403168
  0.8345462596150395  0.5419993508874560  0.3993308084992062
  0.8349331304472943  0.6674041488031016  0.3998925469168279
  0.8342054324707904  0.7922333340225334  0.4000875832890949
  0.8329349122979781  0.9161367979257611  0.3999448053460969
  0.9582567537471823  0.0418754671048883  0.3997604966223151
  0.9574738856858395  0.1661929129959453  0.3998123274917193
  0.9572342948865066  0.2911551331351800  0.3995211841968704
  0.9576381771226121  0.4164262155621310  0.3992640724372896
  0.9585326037023997  0.5418660581619786  0.3992663157040893
  0.9592065892033044  0.6673185349805638  0.3993619640715094
  0.9592849082127153  0.7926482754362880  0.3995001085519994
  0.9589629614071877  0.9175357448424369  0.3995624909293027
  0.4106263635951409  0.5785297580155241  0.4009084900138214
  0.5468386021173397  0.5820435163068465  0.4083830558182140
  0.3292882525157244  0.4191886592875662  0.4075642504994004
  0.4405352355496801  0.5010125883132835  0.4846662905192023
 
  0.00000000E+00  0.00000000E+00  0.00000000E+00
  0.00000000E+00  0.00000000E+00  0.00000000E+00
  0.00000000E+00  0.00000000E+00  0.00000000E+00
  0.00000000E+00  0.00000000E+00  0.00000000E+00
  0.00000000E+00  0.00000000E+00  0.00000000E+00
  0.00000000E+00  0.00000000E+00  0.00000000E+00
  0.00000000E+00  0.00000000E+00  0.00000000E+00
  0.00000000E+00  0.00000000E+00  0.00000000E+00
  0.00000000E+00  0.00000000E+00  0.00000000E+00
  0.00000000E+00  0.00000000E+00  0.00000000E+00
  0.00000000E+00  0.00000000E+00  0.00000000E+00
  0.00000000E+00  0.00000000E+00  0.00000000E+00
  0.00000000E+00  0.00000000E+00  0.00000000E+00
  0.00000000E+00  0.00000000E+00  0.00000000E+00
  0.00000000E+00  0.00000000E+00  0.00000000E+00
  0.00000000E+00  0.00000000E+00  0.00000000E+00
  0.00000000E+00  0.00000000E+00  0.00000000E+00
  0.00000000E+00  0.00000000E+00  0.00000000E+00
  0.00000000E+00  0.00000000E+00  0.00000000E+00
  0.00000000E+00  0.00000000E+00  0.00000000E+00
  0.00000000E+00  0.00000000E+00  0.00000000E+00
  0.00000000E+00  0.00000000E+00  0.00000000E+00
  0.00000000E+00  0.00000000E+00  0.00000000E+00
  0.00000000E+00  0.00000000E+00  0.00000000E+00
  0.00000000E+00  0.00000000E+00  0.00000000E+00
  0.00000000E+00  0.00000000E+00  0.00000000E+00
  0.00000000E+00  0.00000000E+00  0.00000000E+00
  0.00000000E+00  0.00000000E+00  0.00000000E+00
  0.00000000E+00  0.00000000E+00  0.00000000E+00
  0.00000000E+00  0.00000000E+00  0.00000000E+00
  0.00000000E+00  0.00000000E+00  0.00000000E+00
  0.00000000E+00  0.00000000E+00  0.00000000E+00
  0.00000000E+00  0.00000000E+00  0.00000000E+00
  0.00000000E+00  0.00000000E+00  0.00000000E+00
  0.00000000E+00  0.00000000E+00  0.00000000E+00
  0.00000000E+00  0.00000000E+00  0.00000000E+00
  0.00000000E+00  0.00000000E+00  0.00000000E+00
  0.00000000E+00  0.00000000E+00  0.00000000E+00
  0.00000000E+00  0.00000000E+00  0.00000000E+00
  0.00000000E+00  0.00000000E+00  0.00000000E+00
  0.00000000E+00  0.00000000E+00  0.00000000E+00
  0.00000000E+00  0.00000000E+00  0.00000000E+00
  0.00000000E+00  0.00000000E+00  0.00000000E+00
  0.00000000E+00  0.00000000E+00  0.00000000E+00
  0.00000000E+00  0.00000000E+00  0.00000000E+00
  0.00000000E+00  0.00000000E+00  0.00000000E+00
  0.00000000E+00  0.00000000E+00  0.00000000E+00
  0.00000000E+00  0.00000000E+00  0.00000000E+00
  0.00000000E+00  0.00000000E+00  0.00000000E+00
  0.00000000E+00  0.00000000E+00  0.00000000E+00
  0.00000000E+00  0.00000000E+00  0.00000000E+00
  0.00000000E+00  0.00000000E+00  0.00000000E+00
  0.00000000E+00  0.00000000E+00  0.00000000E+00
  0.00000000E+00  0.00000000E+00  0.00000000E+00
  0.00000000E+00  0.00000000E+00  0.00000000E+00
  0.00000000E+00  0.00000000E+00  0.00000000E+00
  0.00000000E+00  0.00000000E+00  0.00000000E+00
  0.00000000E+00  0.00000000E+00  0.00000000E+00
  0.00000000E+00  0.00000000E+00  0.00000000E+00
  0.00000000E+00  0.00000000E+00  0.00000000E+00
  0.00000000E+00  0.00000000E+00  0.00000000E+00
  0.00000000E+00  0.00000000E+00  0.00000000E+00
  0.00000000E+00  0.00000000E+00  0.00000000E+00
  0.00000000E+00  0.00000000E+00  0.00000000E+00
  0.00000000E+00  0.00000000E+00  0.00000000E+00
  0.00000000E+00  0.00000000E+00  0.00000000E+00
  0.00000000E+00  0.00000000E+00  0.00000000E+00
  0.00000000E+00  0.00000000E+00  0.00000000E+00
  0.00000000E+00  0.00000000E+00  0.00000000E+00
  0.00000000E+00  0.00000000E+00  0.00000000E+00
  0.00000000E+00  0.00000000E+00  0.00000000E+00
  0.00000000E+00  0.00000000E+00  0.00000000E+00
  0.00000000E+00  0.00000000E+00  0.00000000E+00
  0.00000000E+00  0.00000000E+00  0.00000000E+00
  0.00000000E+00  0.00000000E+00  0.00000000E+00
  0.00000000E+00  0.00000000E+00  0.00000000E+00
  0.00000000E+00  0.00000000E+00  0.00000000E+00
  0.00000000E+00  0.00000000E+00  0.00000000E+00
  0.00000000E+00  0.00000000E+00  0.00000000E+00
  0.00000000E+00  0.00000000E+00  0.00000000E+00
  0.00000000E+00  0.00000000E+00  0.00000000E+00
  0.00000000E+00  0.00000000E+00  0.00000000E+00
  0.00000000E+00  0.00000000E+00  0.00000000E+00
  0.00000000E+00  0.00000000E+00  0.00000000E+00
  0.00000000E+00  0.00000000E+00  0.00000000E+00
  0.00000000E+00  0.00000000E+00  0.00000000E+00
  0.00000000E+00  0.00000000E+00  0.00000000E+00
  0.00000000E+00  0.00000000E+00  0.00000000E+00
  0.00000000E+00  0.00000000E+00  0.00000000E+00
  0.00000000E+00  0.00000000E+00  0.00000000E+00
  0.00000000E+00  0.00000000E+00  0.00000000E+00
  0.00000000E+00  0.00000000E+00  0.00000000E+00
  0.00000000E+00  0.00000000E+00  0.00000000E+00
  0.00000000E+00  0.00000000E+00  0.00000000E+00
  0.00000000E+00  0.00000000E+00  0.00000000E+00
  0.00000000E+00  0.00000000E+00  0.00000000E+00
  0.00000000E+00  0.00000000E+00  0.00000000E+00
  0.00000000E+00  0.00000000E+00  0.00000000E+00
  0.00000000E+00  0.00000000E+00  0.00000000E+00
  0.00000000E+00  0.00000000E+00  0.00000000E+00
  0.00000000E+00  0.00000000E+00  0.00000000E+00
  0.00000000E+00  0.00000000E+00  0.00000000E+00
  0.00000000E+00  0.00000000E+00  0.00000000E+00
  0.00000000E+00  0.00000000E+00  0.00000000E+00
  0.00000000E+00  0.00000000E+00  0.00000000E+00
  0.00000000E+00  0.00000000E+00  0.00000000E+00
  0.00000000E+00  0.00000000E+00  0.00000000E+00
  0.00000000E+00  0.00000000E+00  0.00000000E+00
  0.00000000E+00  0.00000000E+00  0.00000000E+00
  0.00000000E+00  0.00000000E+00  0.00000000E+00
  0.00000000E+00  0.00000000E+00  0.00000000E+00
  0.00000000E+00  0.00000000E+00  0.00000000E+00
  0.00000000E+00  0.00000000E+00  0.00000000E+00
  0.00000000E+00  0.00000000E+00  0.00000000E+00
  0.00000000E+00  0.00000000E+00  0.00000000E+00
  0.00000000E+00  0.00000000E+00  0.00000000E+00
  0.00000000E+00  0.00000000E+00  0.00000000E+00
  0.00000000E+00  0.00000000E+00  0.00000000E+00
  0.00000000E+00  0.00000000E+00  0.00000000E+00
  0.00000000E+00  0.00000000E+00  0.00000000E+00
  0.00000000E+00  0.00000000E+00  0.00000000E+00
  0.00000000E+00  0.00000000E+00  0.00000000E+00
  0.00000000E+00  0.00000000E+00  0.00000000E+00
  0.00000000E+00  0.00000000E+00  0.00000000E+00
  0.00000000E+00  0.00000000E+00  0.00000000E+00
  0.00000000E+00  0.00000000E+00  0.00000000E+00
  0.00000000E+00  0.00000000E+00  0.00000000E+00
  0.00000000E+00  0.00000000E+00  0.00000000E+00
  0.00000000E+00  0.00000000E+00  0.00000000E+00
