V1 H1 C124 N2 O2                        
   1.00000000000000     
    19.8005821420729546   -0.0212500114632580   -0.0881281922219736
    -9.9188372339547612   17.0506426179041704   -0.0237749981619812
    -0.1324398523767067   -0.1186108866995063   29.8242870678871483
   V    H    C    N    O 
     1     1   124     2     2
Direct
  0.4391430066053773  0.5020199794029310  0.4324889606918307
  0.5370943400349213  0.5399225199188485  0.5005170087343256
  0.0424751611052380  0.0843480574435105  0.3997194730907476
  0.0419821929203170  0.2087339588739844  0.3992328782308874
  0.0413597718669458  0.3332526063010127  0.3986475412389174
  0.0410626688286837  0.4583859931028252  0.3983872968184491
  0.0414166281031710  0.5836513480659509  0.3984316029524148
  0.0418287938022767  0.7088896776397625  0.3987786882988832
  0.0421435435109183  0.8341835596461626  0.3992610419460652
  0.0424227516974960  0.9594599422124067  0.3996392819399809
  0.1682524809510487  0.0856126644578463  0.4006489686077169
  0.1683935190942433  0.2107113601898621  0.4006285628337161
  0.1669452944924744  0.3344843809918005  0.4000076051005627
  0.1651815381795987  0.4588037883611620  0.3992581023138408
  0.1655935293968161  0.5837808236218150  0.3990287982365193
  0.1663828748056075  0.7089457255665713  0.3990532349958711
  0.1669114893008199  0.8342355309938789  0.3994923495055665
  0.1674331052702776  0.9597461546053305  0.4001211541192665
  0.2927158791995725  0.0851583526055631  0.4007852323234597
  0.2946358844367388  0.2124982245433230  0.4024240443519670
  0.2948877140598878  0.3389260999478408  0.4039165462851133
  0.2897521517170810  0.4599301488664835  0.4029370714538987
  0.2895066784152415  0.5844217709659697  0.4009947463363768
  0.2908761907721701  0.7090486482044300  0.4001018374133117
  0.2916571960276725  0.8340139818176528  0.3995830449672402
  0.2920591176578361  0.9593194295705083  0.3998652831640666
  0.4171603138893963  0.0838346317170170  0.4000184859415145
  0.4178846411668022  0.2096790865537676  0.4012614402729704
  0.4213496346625455  0.3378807446822539  0.4048753303455891
  0.4150591377719046  0.7068308732687290  0.4023620272075533
  0.4162905218465805  0.8327634353793446  0.4004103048537300
  0.4167391794765325  0.9583028686543207  0.3997464471945547
  0.5417411797598113  0.0826414897418314  0.3997740680136901
  0.5422549385371002  0.2078528726292308  0.3999846485796389
  0.5434145527264959  0.3328025575994042  0.4013143772622684
  0.5443479855500218  0.4561491166291214  0.4037395920425013
  0.5426472398301990  0.5790017057575140  0.4060353121945531
  0.5385138508697446  0.7035726691576292  0.4047603505430195
  0.5406553085328328  0.8312334185291229  0.4018794099665591
  0.5414026707311104  0.9572156198690114  0.4003431948997826
  0.6665086995881843  0.0823302903853299  0.3999253751008496
  0.6669152961254853  0.2076123278421043  0.3994585768545162
  0.6676362640190243  0.3327914930274595  0.3994722115360346
  0.6688285634558658  0.4580797617102990  0.3999934995426538
  0.6685697738974823  0.5824682550308418  0.4006329796846355
  0.6654715812559763  0.7060011246157752  0.4012751007050332
  0.6650150775392923  0.8307968055355275  0.4015393851132475
  0.6660167951517808  0.9568383647551091  0.4007083339277283
  0.7913761457380206  0.0824272327751234  0.3995735456601086
  0.7916514222815391  0.2076488723877720  0.3991379796242103
  0.7920850777105136  0.3328884418513089  0.3987369262455968
  0.7926311764999351  0.4581839992765523  0.3986986804284103
  0.7930010467828890  0.5833869770431961  0.3989266341997569
  0.7920617780997802  0.7081683266442765  0.3992705783931125
  0.7910602309982696  0.8324080178743767  0.3997486712320863
  0.7909260001139738  0.9571279273693477  0.3998662394561809
  0.9166016304951252  0.0830451899214423  0.3992086161301453
  0.9165571497787790  0.2079389233432412  0.3988049212958300
  0.9165913326202877  0.3330289671330135  0.3984254298475746
  0.9167760088675739  0.4582144180860516  0.3982864527197511
  0.9171926184060029  0.5835561491570683  0.3983867389819993
  0.9171579821460500  0.7087489649429026  0.3986531930073390
  0.9169601171307958  0.8336764961905193  0.3989734702587997
  0.9167269866803830  0.9583938322855311  0.3992932753810792
  0.0845278899378295  0.0432259249515279  0.4000146884507335
  0.0845066645184115  0.1680242787743762  0.3997945207857850
  0.0834276922835590  0.2921073231330263  0.3991402823351354
  0.0824007041432902  0.4167776190963887  0.3986081342044673
  0.0826007152138183  0.5418905899532445  0.3985352947705473
  0.0831746850524402  0.6671863032489000  0.3987053340626617
  0.0836358053362469  0.7924989495323917  0.3992182434260829
  0.0839890247322554  0.9177990031389810  0.3997223065677257
  0.2093734136653047  0.0434052043614099  0.4006162892873194
  0.2105271455062624  0.1695897465920436  0.4012753670773882
  0.2103485355937647  0.2946036734866203  0.4011127788318516
  0.2070141836434411  0.4177928764817977  0.4002424523965143
  0.2064919294206902  0.5420776489168219  0.3995263628865586
  0.2076597407624639  0.6673149156910638  0.3993387142559273
  0.2083695907944363  0.7924920397951356  0.3993447801794024
  0.2087969057440706  0.9178051158891971  0.3998716937346947
  0.3339053622275015  0.0428876573211588  0.4001834991429439
  0.3348026120628864  0.1689853413241189  0.4015578343690934
  0.3370854593292923  0.2968082090982453  0.4043879870392004
  0.3336330385828279  0.4220380362382757  0.4065097636877629
  0.3308552585576891  0.5440337775662508  0.4035704394702862
  0.3319972730958208  0.6673818012963273  0.4012106129385158
  0.3330739297305460  0.7922246894485181  0.3999826225907978
  0.3335263131215328  0.9174011453058880  0.3996619332978435
  0.4585276839145511  0.0417308212192904  0.3997705879708355
  0.4590420942248004  0.1672979367724150  0.4003151707752360
  0.4603927719389816  0.2932961503473764  0.4022461553253949
  0.4542864945422045  0.6623994993786511  0.4051912970153549
  0.4575311224139023  0.7904278705271384  0.4014407491705013
  0.4581335140327681  0.9162303537275418  0.4000926758912840
  0.5832469745754000  0.0407781797781198  0.3999894580747086
  0.5836330726995468  0.1660416444219691  0.3996712805982539
  0.5844799355969743  0.2910566543861776  0.4001638529175590
  0.5858696879241218  0.4157732340142781  0.4014142714756916
  0.5858728405085215  0.5404232849902496  0.4030162717698439
  0.5811600291658046  0.6619094548639254  0.4039699689177594
  0.5809331086658258  0.7878588772320159  0.4028151754627662
  0.5826757135473629  0.9150318061308420  0.4009931379073561
  0.7079562921780213  0.0404895572592606  0.4000675015174490
  0.7084021852251234  0.1659086744687208  0.3995211831651466
  0.7089152817661148  0.2911284061669009  0.3991576200938892
  0.7096840460838463  0.4163139508454810  0.3992734938583618
  0.7102863151937223  0.5413838532800151  0.3997548249161676
  0.7086130223138517  0.6658298554458008  0.4002135457839605
  0.7073007519081554  0.7898087729923922  0.4007964238537992
  0.7072397560488677  0.9147345853696701  0.4007368741517212
  0.8330190802141981  0.0408636937685699  0.3994708474156350
  0.8331904880588598  0.1660041250596632  0.3991281570120666
  0.8334254245404875  0.2911874332120035  0.3987127897486336
  0.8337972353322753  0.4164032557776778  0.3984845373981119
  0.8342328488399371  0.5417010154293644  0.3985844341542354
  0.8340315893676283  0.6669393212111863  0.3988221132396337
  0.8334559405032661  0.7915616816941479  0.3991965648271618
  0.8330202106688878  0.9160558973528619  0.3995535286048038
  0.9587244063298557  0.0419973717410247  0.3993665592766524
  0.9584223099879179  0.1666041180907554  0.3989935142304376
  0.9581811681081124  0.2914255366046841  0.3985314817561791
  0.9580421215404480  0.4165220287679016  0.3982953558703399
  0.9584063369282493  0.5418085802400265  0.3982971210892549
  0.9586892956270650  0.6670953405354870  0.3985547862633544
  0.9587851600363538  0.7922947641642719  0.3988831676507248
  0.9588088658330350  0.9172730071719671  0.3992306127246376
  0.4104728185105226  0.5816183835838279  0.4078807848039314
  0.4648669712902466  0.4185877730364919  0.4072569318933038
  0.4841334280328699  0.4942891942592043  0.4968038870954283
  0.4362633197384372  0.5329532067689223  0.4909372079476247
 
  0.00000000E+00  0.00000000E+00  0.00000000E+00
  0.00000000E+00  0.00000000E+00  0.00000000E+00
  0.00000000E+00  0.00000000E+00  0.00000000E+00
  0.00000000E+00  0.00000000E+00  0.00000000E+00
  0.00000000E+00  0.00000000E+00  0.00000000E+00
  0.00000000E+00  0.00000000E+00  0.00000000E+00
  0.00000000E+00  0.00000000E+00  0.00000000E+00
  0.00000000E+00  0.00000000E+00  0.00000000E+00
  0.00000000E+00  0.00000000E+00  0.00000000E+00
  0.00000000E+00  0.00000000E+00  0.00000000E+00
  0.00000000E+00  0.00000000E+00  0.00000000E+00
  0.00000000E+00  0.00000000E+00  0.00000000E+00
  0.00000000E+00  0.00000000E+00  0.00000000E+00
  0.00000000E+00  0.00000000E+00  0.00000000E+00
  0.00000000E+00  0.00000000E+00  0.00000000E+00
  0.00000000E+00  0.00000000E+00  0.00000000E+00
  0.00000000E+00  0.00000000E+00  0.00000000E+00
  0.00000000E+00  0.00000000E+00  0.00000000E+00
  0.00000000E+00  0.00000000E+00  0.00000000E+00
  0.00000000E+00  0.00000000E+00  0.00000000E+00
  0.00000000E+00  0.00000000E+00  0.00000000E+00
  0.00000000E+00  0.00000000E+00  0.00000000E+00
  0.00000000E+00  0.00000000E+00  0.00000000E+00
  0.00000000E+00  0.00000000E+00  0.00000000E+00
  0.00000000E+00  0.00000000E+00  0.00000000E+00
  0.00000000E+00  0.00000000E+00  0.00000000E+00
  0.00000000E+00  0.00000000E+00  0.00000000E+00
  0.00000000E+00  0.00000000E+00  0.00000000E+00
  0.00000000E+00  0.00000000E+00  0.00000000E+00
  0.00000000E+00  0.00000000E+00  0.00000000E+00
  0.00000000E+00  0.00000000E+00  0.00000000E+00
  0.00000000E+00  0.00000000E+00  0.00000000E+00
  0.00000000E+00  0.00000000E+00  0.00000000E+00
  0.00000000E+00  0.00000000E+00  0.00000000E+00
  0.00000000E+00  0.00000000E+00  0.00000000E+00
  0.00000000E+00  0.00000000E+00  0.00000000E+00
  0.00000000E+00  0.00000000E+00  0.00000000E+00
  0.00000000E+00  0.00000000E+00  0.00000000E+00
  0.00000000E+00  0.00000000E+00  0.00000000E+00
  0.00000000E+00  0.00000000E+00  0.00000000E+00
  0.00000000E+00  0.00000000E+00  0.00000000E+00
  0.00000000E+00  0.00000000E+00  0.00000000E+00
  0.00000000E+00  0.00000000E+00  0.00000000E+00
  0.00000000E+00  0.00000000E+00  0.00000000E+00
  0.00000000E+00  0.00000000E+00  0.00000000E+00
  0.00000000E+00  0.00000000E+00  0.00000000E+00
  0.00000000E+00  0.00000000E+00  0.00000000E+00
  0.00000000E+00  0.00000000E+00  0.00000000E+00
  0.00000000E+00  0.00000000E+00  0.00000000E+00
  0.00000000E+00  0.00000000E+00  0.00000000E+00
  0.00000000E+00  0.00000000E+00  0.00000000E+00
  0.00000000E+00  0.00000000E+00  0.00000000E+00
  0.00000000E+00  0.00000000E+00  0.00000000E+00
  0.00000000E+00  0.00000000E+00  0.00000000E+00
  0.00000000E+00  0.00000000E+00  0.00000000E+00
  0.00000000E+00  0.00000000E+00  0.00000000E+00
  0.00000000E+00  0.00000000E+00  0.00000000E+00
  0.00000000E+00  0.00000000E+00  0.00000000E+00
  0.00000000E+00  0.00000000E+00  0.00000000E+00
  0.00000000E+00  0.00000000E+00  0.00000000E+00
  0.00000000E+00  0.00000000E+00  0.00000000E+00
  0.00000000E+00  0.00000000E+00  0.00000000E+00
  0.00000000E+00  0.00000000E+00  0.00000000E+00
  0.00000000E+00  0.00000000E+00  0.00000000E+00
  0.00000000E+00  0.00000000E+00  0.00000000E+00
  0.00000000E+00  0.00000000E+00  0.00000000E+00
  0.00000000E+00  0.00000000E+00  0.00000000E+00
  0.00000000E+00  0.00000000E+00  0.00000000E+00
  0.00000000E+00  0.00000000E+00  0.00000000E+00
  0.00000000E+00  0.00000000E+00  0.00000000E+00
  0.00000000E+00  0.00000000E+00  0.00000000E+00
  0.00000000E+00  0.00000000E+00  0.00000000E+00
  0.00000000E+00  0.00000000E+00  0.00000000E+00
  0.00000000E+00  0.00000000E+00  0.00000000E+00
  0.00000000E+00  0.00000000E+00  0.00000000E+00
  0.00000000E+00  0.00000000E+00  0.00000000E+00
  0.00000000E+00  0.00000000E+00  0.00000000E+00
  0.00000000E+00  0.00000000E+00  0.00000000E+00
  0.00000000E+00  0.00000000E+00  0.00000000E+00
  0.00000000E+00  0.00000000E+00  0.00000000E+00
  0.00000000E+00  0.00000000E+00  0.00000000E+00
  0.00000000E+00  0.00000000E+00  0.00000000E+00
  0.00000000E+00  0.00000000E+00  0.00000000E+00
  0.00000000E+00  0.00000000E+00  0.00000000E+00
  0.00000000E+00  0.00000000E+00  0.00000000E+00
  0.00000000E+00  0.00000000E+00  0.00000000E+00
  0.00000000E+00  0.00000000E+00  0.00000000E+00
  0.00000000E+00  0.00000000E+00  0.00000000E+00
  0.00000000E+00  0.00000000E+00  0.00000000E+00
  0.00000000E+00  0.00000000E+00  0.00000000E+00
  0.00000000E+00  0.00000000E+00  0.00000000E+00
  0.00000000E+00  0.00000000E+00  0.00000000E+00
  0.00000000E+00  0.00000000E+00  0.00000000E+00
  0.00000000E+00  0.00000000E+00  0.00000000E+00
  0.00000000E+00  0.00000000E+00  0.00000000E+00
  0.00000000E+00  0.00000000E+00  0.00000000E+00
  0.00000000E+00  0.00000000E+00  0.00000000E+00
  0.00000000E+00  0.00000000E+00  0.00000000E+00
  0.00000000E+00  0.00000000E+00  0.00000000E+00
  0.00000000E+00  0.00000000E+00  0.00000000E+00
  0.00000000E+00  0.00000000E+00  0.00000000E+00
  0.00000000E+00  0.00000000E+00  0.00000000E+00
  0.00000000E+00  0.00000000E+00  0.00000000E+00
  0.00000000E+00  0.00000000E+00  0.00000000E+00
  0.00000000E+00  0.00000000E+00  0.00000000E+00
  0.00000000E+00  0.00000000E+00  0.00000000E+00
  0.00000000E+00  0.00000000E+00  0.00000000E+00
  0.00000000E+00  0.00000000E+00  0.00000000E+00
  0.00000000E+00  0.00000000E+00  0.00000000E+00
  0.00000000E+00  0.00000000E+00  0.00000000E+00
  0.00000000E+00  0.00000000E+00  0.00000000E+00
  0.00000000E+00  0.00000000E+00  0.00000000E+00
  0.00000000E+00  0.00000000E+00  0.00000000E+00
  0.00000000E+00  0.00000000E+00  0.00000000E+00
  0.00000000E+00  0.00000000E+00  0.00000000E+00
  0.00000000E+00  0.00000000E+00  0.00000000E+00
  0.00000000E+00  0.00000000E+00  0.00000000E+00
  0.00000000E+00  0.00000000E+00  0.00000000E+00
  0.00000000E+00  0.00000000E+00  0.00000000E+00
  0.00000000E+00  0.00000000E+00  0.00000000E+00
  0.00000000E+00  0.00000000E+00  0.00000000E+00
  0.00000000E+00  0.00000000E+00  0.00000000E+00
  0.00000000E+00  0.00000000E+00  0.00000000E+00
  0.00000000E+00  0.00000000E+00  0.00000000E+00
  0.00000000E+00  0.00000000E+00  0.00000000E+00
  0.00000000E+00  0.00000000E+00  0.00000000E+00
  0.00000000E+00  0.00000000E+00  0.00000000E+00
  0.00000000E+00  0.00000000E+00  0.00000000E+00
  0.00000000E+00  0.00000000E+00  0.00000000E+00
  0.00000000E+00  0.00000000E+00  0.00000000E+00
