Co1 H1 C126 O2                          
   1.00000000000000     
    19.7737750600787798    0.0010754624384676    0.2180375542967488
    -9.8866171595076722   17.0528136299113058   -0.1330057539422149
     0.3288018843625772   -0.0416629929652789   29.8439553615385016
   Co   H    C    O 
     1     1   126     2
Direct
  0.4364586475790430  0.5003885558692263  0.4262512050741312
  0.5229688645705249  0.5320585384527745  0.5334114977547451
  0.0416488128694435  0.0839193639581135  0.3995398946528252
  0.0410951707171897  0.2083221122425937  0.3991410070407176
  0.0408007883701371  0.3330795381258866  0.3990441052709843
  0.0408032907608574  0.4583237586007589  0.3989022189230177
  0.0411843650546026  0.5835439315682438  0.3987329129346679
  0.0415181991522839  0.7087096422831642  0.3988508675667056
  0.0416449397603161  0.8339131892501987  0.3991469789063752
  0.0416933893956201  0.9590089308528371  0.3995275246685445
  0.1669745534349329  0.0847170880127495  0.4000527804184543
  0.1671852794585637  0.2099381985420114  0.4000625068304993
  0.1658213617296689  0.3334975384033915  0.3997855143886967
  0.1650330294902695  0.4583652793157480  0.3999015960133534
  0.1655691823856796  0.5834349448109700  0.3992474531363608
  0.1662900369433695  0.7087246385476655  0.3988386057556493
  0.1665690578185153  0.8339690594989112  0.3989575985191772
  0.1667637809064760  0.9592968046611050  0.3994817082754746
  0.2919152758061649  0.0847263329531209  0.4002687334905541
  0.2924140197071254  0.2108347931294309  0.4016805498166129
  0.2935546283788677  0.3375245272702104  0.4020275912475056
  0.2889949216901712  0.4581018747314747  0.4007590671981889
  0.2897650463290313  0.5835872084693281  0.4003118427823797
  0.2909464963081892  0.7085671535868333  0.3993248540994928
  0.2913545346061667  0.8336871737433972  0.3989526028100037
  0.2915828292460446  0.9590784906485761  0.3992773812153124
  0.4165507666637903  0.0839889984833435  0.3997062352444778
  0.4168577457577854  0.2099221433298328  0.4010251623929674
  0.4176795950660989  0.3370679117984876  0.4047205532903864
  0.4124862054392801  0.5793626282279862  0.4033004642988522
  0.4153446886402837  0.7063357530060568  0.4004504540783006
  0.4160486935688134  0.8326234085514771  0.3995786731683297
  0.4163345820999699  0.9583350337763707  0.3992587570353317
  0.5413065379490939  0.0830933445862306  0.3993229466627773
  0.5415151248540578  0.2084019171920633  0.3996666240090396
  0.5418695379245241  0.3335546215758428  0.4010179025122671
  0.5431546424809667  0.4582834677923636  0.4039240087663156
  0.5421313912860785  0.5804116138800292  0.4082183583087207
  0.5398245869925703  0.7056724810170515  0.4031867043449633
  0.5404245285169010  0.8316981757870543  0.4005720897296964
  0.5409967056713236  0.9575402319022353  0.3996022183877607
  0.6660211490822552  0.0826768120944042  0.3991453352890376
  0.6663036720248151  0.2080301269874936  0.3989614663503250
  0.6665774865615767  0.3331552640062211  0.3991169540637397
  0.6673884189902726  0.4583541665883782  0.3995330003462925
  0.6678928109203968  0.5836010330791062  0.4006692647034986
  0.6652654375152477  0.7064424721530008  0.4017761874799475
  0.6653493889407898  0.8317083265624174  0.4011033532702025
  0.6657045121995848  0.9572428536145222  0.3999645298630827
  0.7908903049347976  0.0826367382262420  0.3991759983124156
  0.7910724500073469  0.2078407813150157  0.3988110466278366
  0.7913519945547798  0.3331037548213496  0.3987191037479683
  0.7917779401222549  0.4583347356944604  0.3986803845259517
  0.7920686480394554  0.5834359858332605  0.3989190553678253
  0.7917989714527273  0.7084942072949241  0.3997856926203072
  0.7907979903480290  0.8325908530014063  0.4001079526816648
  0.7907224493893510  0.9574976697092771  0.3998167262002594
  0.9160205440172057  0.0829842378921538  0.3992169575376686
  0.9159848977016207  0.2079155284931078  0.3988287529353507
  0.9160535010064365  0.3330685968950828  0.3987584787849477
  0.9162792764612623  0.4582431960573535  0.3986960546707688
  0.9166415817850133  0.5835129728600438  0.3987263313955629
  0.9167127472721737  0.7086674836713361  0.3990070602438578
  0.9166145944901387  0.8336200409771705  0.3995040782370080
  0.9162112665385059  0.9582623489693162  0.3995870048530573
  0.0835282990818314  0.0425679652017107  0.3997061057424480
  0.0835148080970446  0.1674754452167853  0.3995400755736066
  0.0824664607051568  0.2915124370997118  0.3991950988944207
  0.0822097674302801  0.4166419791106468  0.3992212724488943
  0.0825025031966180  0.5417530954102220  0.3988916608181737
  0.0830266560007617  0.6670138779414072  0.3987703416673402
  0.0832899764232908  0.7922585658008789  0.3989660830310575
  0.0833893339328734  0.9174190090330230  0.3993666810541954
  0.2085169763568643  0.0428345021855652  0.3999973358981441
  0.2087750340752013  0.1683527219236962  0.4005347710958861
  0.2091092702474678  0.2937490601560911  0.4003255043211167
  0.2063192677838461  0.4165116792466149  0.4002177857054233
  0.2066762390181276  0.5417244923866306  0.3999323389658371
  0.2077408862798842  0.6670054658620364  0.3990760955633165
  0.2081076026082507  0.7921805693485178  0.3988418948157618
  0.2083035188090447  0.9174652750623680  0.3991996452353276
  0.3332861521808086  0.0426050481225111  0.3997582102605793
  0.3336512547230041  0.1683725703266819  0.4011390776161174
  0.3341435860691395  0.2943912600349048  0.4033594943432164
  0.3335730585734784  0.4208185533924415  0.4030700950673970
  0.3308003790439114  0.5419187110744245  0.4007934589868862
  0.3323150783040822  0.6665736671374739  0.3999560903331988
  0.3327851363877520  0.7917601718703325  0.3991929552913456
  0.3330898393797341  0.9171178521309129  0.3990913574483712
  0.4580140682499643  0.0418458829638104  0.3994103599352089
  0.4582447440951354  0.1675398174521819  0.4000498539059881
  0.4587740333994972  0.2936911781305159  0.4021533365546549
  0.4615244003906747  0.4199081012784855  0.4085452349968393
  0.4560743226371120  0.6625724643408069  0.4020321893646904
  0.4572751249378070  0.7901472925857865  0.4001669423388384
  0.4577719591616684  0.9161671800790452  0.3994624440043313
  0.5827411959980844  0.0410980610088152  0.3993309268114359
  0.5830483700617354  0.1665309169157941  0.3992443449348674
  0.5833102563082081  0.2916428088991136  0.3998004545128813
  0.5842488977733682  0.4165476472797602  0.4009749506532925
  0.5851314576074242  0.5419354155759247  0.4037284379403254
  0.5808233373155944  0.6630352149169714  0.4042961976294608
  0.5815945913763786  0.7891844354020322  0.4016194800483761
  0.5822623269972088  0.9153519917165512  0.4000407269544154
  0.7075073479297156  0.0407960448244828  0.3993805505904972
  0.7077696118329085  0.1661822115114215  0.3989165156374566
  0.7080933369852301  0.2914483409593686  0.3988495597292398
  0.7086442940710430  0.4166700182829627  0.3989395848424925
  0.7091414599484287  0.5417609197626040  0.3994437004271995
  0.7084532550587938  0.6665462530794979  0.4007188616599723
  0.7070334910072307  0.7901941275246639  0.4009101285220930
  0.7072294162532705  0.9153647204671144  0.4003044664415611
  0.8325567775128174  0.0410376494147158  0.3993598899044690
  0.8326585098319348  0.1661315481515604  0.3989001692952878
  0.8328624769765591  0.2913958501160284  0.3987415323821177
  0.8331582990675934  0.4165618333144115  0.3986720899752828
  0.8335268153232166  0.5417625239206935  0.3987015902572484
  0.8335156435803646  0.6669644934721843  0.3991486521036791
  0.8332257122645292  0.7917335022380643  0.3998022226184681
  0.8326162981946913  0.9161304018338597  0.3998177491594979
  0.9580553142205448  0.0417686906680642  0.3994217222941868
  0.9577382188289407  0.1664231179770896  0.3989844872131043
  0.9576234303558034  0.2913586452042065  0.3988355339969232
  0.9576937828779682  0.4165264403440969  0.3987398208824250
  0.9580601013632256  0.5418184086642257  0.3987013373228564
  0.9582965302196399  0.6669912646668850  0.3988330166509970
  0.9583500957514839  0.7920924894476116  0.3992155423194421
  0.9582744634866406  0.9170444204004110  0.3995530344821328
  0.5323820372923558  0.5208016073742889  0.5024949437422602
  0.4599402390099852  0.5068205075260824  0.4823324656561728
 
  0.00000000E+00  0.00000000E+00  0.00000000E+00
  0.00000000E+00  0.00000000E+00  0.00000000E+00
  0.00000000E+00  0.00000000E+00  0.00000000E+00
  0.00000000E+00  0.00000000E+00  0.00000000E+00
  0.00000000E+00  0.00000000E+00  0.00000000E+00
  0.00000000E+00  0.00000000E+00  0.00000000E+00
  0.00000000E+00  0.00000000E+00  0.00000000E+00
  0.00000000E+00  0.00000000E+00  0.00000000E+00
  0.00000000E+00  0.00000000E+00  0.00000000E+00
  0.00000000E+00  0.00000000E+00  0.00000000E+00
  0.00000000E+00  0.00000000E+00  0.00000000E+00
  0.00000000E+00  0.00000000E+00  0.00000000E+00
  0.00000000E+00  0.00000000E+00  0.00000000E+00
  0.00000000E+00  0.00000000E+00  0.00000000E+00
  0.00000000E+00  0.00000000E+00  0.00000000E+00
  0.00000000E+00  0.00000000E+00  0.00000000E+00
  0.00000000E+00  0.00000000E+00  0.00000000E+00
  0.00000000E+00  0.00000000E+00  0.00000000E+00
  0.00000000E+00  0.00000000E+00  0.00000000E+00
  0.00000000E+00  0.00000000E+00  0.00000000E+00
  0.00000000E+00  0.00000000E+00  0.00000000E+00
  0.00000000E+00  0.00000000E+00  0.00000000E+00
  0.00000000E+00  0.00000000E+00  0.00000000E+00
  0.00000000E+00  0.00000000E+00  0.00000000E+00
  0.00000000E+00  0.00000000E+00  0.00000000E+00
  0.00000000E+00  0.00000000E+00  0.00000000E+00
  0.00000000E+00  0.00000000E+00  0.00000000E+00
  0.00000000E+00  0.00000000E+00  0.00000000E+00
  0.00000000E+00  0.00000000E+00  0.00000000E+00
  0.00000000E+00  0.00000000E+00  0.00000000E+00
  0.00000000E+00  0.00000000E+00  0.00000000E+00
  0.00000000E+00  0.00000000E+00  0.00000000E+00
  0.00000000E+00  0.00000000E+00  0.00000000E+00
  0.00000000E+00  0.00000000E+00  0.00000000E+00
  0.00000000E+00  0.00000000E+00  0.00000000E+00
  0.00000000E+00  0.00000000E+00  0.00000000E+00
  0.00000000E+00  0.00000000E+00  0.00000000E+00
  0.00000000E+00  0.00000000E+00  0.00000000E+00
  0.00000000E+00  0.00000000E+00  0.00000000E+00
  0.00000000E+00  0.00000000E+00  0.00000000E+00
  0.00000000E+00  0.00000000E+00  0.00000000E+00
  0.00000000E+00  0.00000000E+00  0.00000000E+00
  0.00000000E+00  0.00000000E+00  0.00000000E+00
  0.00000000E+00  0.00000000E+00  0.00000000E+00
  0.00000000E+00  0.00000000E+00  0.00000000E+00
  0.00000000E+00  0.00000000E+00  0.00000000E+00
  0.00000000E+00  0.00000000E+00  0.00000000E+00
  0.00000000E+00  0.00000000E+00  0.00000000E+00
  0.00000000E+00  0.00000000E+00  0.00000000E+00
  0.00000000E+00  0.00000000E+00  0.00000000E+00
  0.00000000E+00  0.00000000E+00  0.00000000E+00
  0.00000000E+00  0.00000000E+00  0.00000000E+00
  0.00000000E+00  0.00000000E+00  0.00000000E+00
  0.00000000E+00  0.00000000E+00  0.00000000E+00
  0.00000000E+00  0.00000000E+00  0.00000000E+00
  0.00000000E+00  0.00000000E+00  0.00000000E+00
  0.00000000E+00  0.00000000E+00  0.00000000E+00
  0.00000000E+00  0.00000000E+00  0.00000000E+00
  0.00000000E+00  0.00000000E+00  0.00000000E+00
  0.00000000E+00  0.00000000E+00  0.00000000E+00
  0.00000000E+00  0.00000000E+00  0.00000000E+00
  0.00000000E+00  0.00000000E+00  0.00000000E+00
  0.00000000E+00  0.00000000E+00  0.00000000E+00
  0.00000000E+00  0.00000000E+00  0.00000000E+00
  0.00000000E+00  0.00000000E+00  0.00000000E+00
  0.00000000E+00  0.00000000E+00  0.00000000E+00
  0.00000000E+00  0.00000000E+00  0.00000000E+00
  0.00000000E+00  0.00000000E+00  0.00000000E+00
  0.00000000E+00  0.00000000E+00  0.00000000E+00
  0.00000000E+00  0.00000000E+00  0.00000000E+00
  0.00000000E+00  0.00000000E+00  0.00000000E+00
  0.00000000E+00  0.00000000E+00  0.00000000E+00
  0.00000000E+00  0.00000000E+00  0.00000000E+00
  0.00000000E+00  0.00000000E+00  0.00000000E+00
  0.00000000E+00  0.00000000E+00  0.00000000E+00
  0.00000000E+00  0.00000000E+00  0.00000000E+00
  0.00000000E+00  0.00000000E+00  0.00000000E+00
  0.00000000E+00  0.00000000E+00  0.00000000E+00
  0.00000000E+00  0.00000000E+00  0.00000000E+00
  0.00000000E+00  0.00000000E+00  0.00000000E+00
  0.00000000E+00  0.00000000E+00  0.00000000E+00
  0.00000000E+00  0.00000000E+00  0.00000000E+00
  0.00000000E+00  0.00000000E+00  0.00000000E+00
  0.00000000E+00  0.00000000E+00  0.00000000E+00
  0.00000000E+00  0.00000000E+00  0.00000000E+00
  0.00000000E+00  0.00000000E+00  0.00000000E+00
  0.00000000E+00  0.00000000E+00  0.00000000E+00
  0.00000000E+00  0.00000000E+00  0.00000000E+00
  0.00000000E+00  0.00000000E+00  0.00000000E+00
  0.00000000E+00  0.00000000E+00  0.00000000E+00
  0.00000000E+00  0.00000000E+00  0.00000000E+00
  0.00000000E+00  0.00000000E+00  0.00000000E+00
  0.00000000E+00  0.00000000E+00  0.00000000E+00
  0.00000000E+00  0.00000000E+00  0.00000000E+00
  0.00000000E+00  0.00000000E+00  0.00000000E+00
  0.00000000E+00  0.00000000E+00  0.00000000E+00
  0.00000000E+00  0.00000000E+00  0.00000000E+00
  0.00000000E+00  0.00000000E+00  0.00000000E+00
  0.00000000E+00  0.00000000E+00  0.00000000E+00
  0.00000000E+00  0.00000000E+00  0.00000000E+00
  0.00000000E+00  0.00000000E+00  0.00000000E+00
  0.00000000E+00  0.00000000E+00  0.00000000E+00
  0.00000000E+00  0.00000000E+00  0.00000000E+00
  0.00000000E+00  0.00000000E+00  0.00000000E+00
  0.00000000E+00  0.00000000E+00  0.00000000E+00
  0.00000000E+00  0.00000000E+00  0.00000000E+00
  0.00000000E+00  0.00000000E+00  0.00000000E+00
  0.00000000E+00  0.00000000E+00  0.00000000E+00
  0.00000000E+00  0.00000000E+00  0.00000000E+00
  0.00000000E+00  0.00000000E+00  0.00000000E+00
  0.00000000E+00  0.00000000E+00  0.00000000E+00
  0.00000000E+00  0.00000000E+00  0.00000000E+00
  0.00000000E+00  0.00000000E+00  0.00000000E+00
  0.00000000E+00  0.00000000E+00  0.00000000E+00
  0.00000000E+00  0.00000000E+00  0.00000000E+00
  0.00000000E+00  0.00000000E+00  0.00000000E+00
  0.00000000E+00  0.00000000E+00  0.00000000E+00
  0.00000000E+00  0.00000000E+00  0.00000000E+00
  0.00000000E+00  0.00000000E+00  0.00000000E+00
  0.00000000E+00  0.00000000E+00  0.00000000E+00
  0.00000000E+00  0.00000000E+00  0.00000000E+00
  0.00000000E+00  0.00000000E+00  0.00000000E+00
  0.00000000E+00  0.00000000E+00  0.00000000E+00
  0.00000000E+00  0.00000000E+00  0.00000000E+00
  0.00000000E+00  0.00000000E+00  0.00000000E+00
  0.00000000E+00  0.00000000E+00  0.00000000E+00
  0.00000000E+00  0.00000000E+00  0.00000000E+00
  0.00000000E+00  0.00000000E+00  0.00000000E+00
  0.00000000E+00  0.00000000E+00  0.00000000E+00
  0.00000000E+00  0.00000000E+00  0.00000000E+00
