ALGO = Fast
ENCUT = 520
IBRION = 2
ISIF = 4
ISMEAR = 0
ISPIN = 2
LASPH = .TRUE.
LCHARG = .TRUE.
LMAXMIX = 6
LORBIT = 11
LREAL = Auto
LVTOT = False
LWAVE = False
MAGMOM = 1*5.0 126*0.6
NELM = 100
NSW = 1000
SIGMA = 0.05
EDIFF = 1e-6
AMIX = 0.1
BMIX = 0.01
LVDW = .TRUE.
EDIFFG = -0.05
ISYM = 0
LDAU = .TRUE.
LDAUJ = 0 0 0
LDAUL = 2 0 0
LDAUPRINT = 1
LDAUTYPE = 2
LDAUU = 6.2 0 0
SYMPREC = 1e-8
