H1 Au1 C122 N4 O1                       
   1.00000000000000     
    19.7634931608913362   -0.0051056875382925    0.3126221240208027
    -9.8867417498722077   17.0316938595487137   -0.3493559129195462
     0.4712737964402919   -0.3378116760176668   29.9095237919673629
   H    Au   C    N    O 
     1     1   122     4     1
Direct
  0.4949962071523396  0.5636512519607718  0.5236378599850159
  0.4182704497502543  0.4747658437582407  0.4622145391581505
  0.0422700108754107  0.0845672850555735  0.3996995117101739
  0.0415815014685860  0.2087477611857443  0.3993190103121081
  0.0411841344712497  0.3333841502440587  0.3983905959494152
  0.0412783189661487  0.4585323873270739  0.3977138114269043
  0.0414267126747915  0.5838470318992022  0.3984560699720918
  0.0418473403654923  0.7092396685867837  0.3996443009479446
  0.0422327529361895  0.8346843793339070  0.4003210916098964
  0.0424732708179111  0.9599220763116536  0.4002147067823152
  0.1680944136460817  0.0861332206640720  0.4007124874555220
  0.1677810588610542  0.2106594948495816  0.4009227273915433
  0.1661514835834375  0.3344118612200003  0.4017031737398909
  0.1659811550466552  0.4588319881078585  0.3987495651353880
  0.1658615940743103  0.5837335797440040  0.3980971569223292
  0.1664122777436780  0.7092025038709109  0.3986779702119142
  0.1669494558752393  0.8347009174968153  0.3995291531321437
  0.1674736516856191  0.9603452932802723  0.4001500129542693
  0.2926919592537916  0.0860747054215577  0.4003855712455852
  0.2942141233353474  0.2137614157602596  0.4018639290603561
  0.2924319781489321  0.3388661243809544  0.4079909068981021
  0.2899928654888156  0.4582304497694307  0.4087744826663887
  0.2898619849424439  0.5836006496886161  0.4010608786328618
  0.2906935065776374  0.7088050826196064  0.3991233548015480
  0.2915548743230317  0.8342022474826976  0.3991966610775368
  0.2920623978554577  0.9599095219113750  0.3997935271564411
  0.4171113898099399  0.0843701978591794  0.4004430069274464
  0.4177046482223837  0.2101592028263876  0.4004622045710201
  0.4213432035445310  0.3384203943167527  0.3985113857699187
  0.4147803091825647  0.7071349946712016  0.4009657006511261
  0.4160724961210930  0.8329432616540936  0.3997600137102633
  0.4166185689678867  0.9586238943048659  0.3999646996520299
  0.5416022582816028  0.0829683012836500  0.4005148722505607
  0.5421364457011584  0.2085983085778401  0.4004086910518606
  0.5429872703984082  0.3340147998103538  0.3984263786093524
  0.5409632179045150  0.4564806021378401  0.3931756574074415
  0.5384459001041942  0.7022969552837237  0.3996317499970167
  0.5402534504220309  0.8305908598729157  0.4003601172073246
  0.5411290248404924  0.9570584933821163  0.4002943847622211
  0.6661871736458085  0.0822878865380815  0.4001923382241394
  0.6666800914492993  0.2079122830867943  0.4002722118649756
  0.6671710917329159  0.3332641844525348  0.3997047176185641
  0.6676169016167431  0.4584698093972629  0.3981139000058014
  0.6675396520588491  0.5829990496184729  0.3967797733718199
  0.6664139085059816  0.7066060065011893  0.3982742269866150
  0.6649036768368485  0.8304827059104619  0.3995611448781696
  0.6656874935372914  0.9565490524685411  0.4000185541049923
  0.7910284767334669  0.0822844823859295  0.3995320911075343
  0.7913318550170563  0.2076422573808362  0.3994882681516878
  0.7917331681511088  0.3330962530397006  0.3995630808289872
  0.7920883653210765  0.4585069928434896  0.3995895617074741
  0.7922158907273225  0.5835660947497804  0.3994176868746178
  0.7923503772262953  0.7084985896095061  0.3995059137336987
  0.7913134317287855  0.8327311590050477  0.3998264683343984
  0.7906778613539232  0.9570329121047275  0.3996316226807130
  0.9163269261893274  0.0830177605154812  0.3992323380817833
  0.9162751753107699  0.2079414922394100  0.3988149159911352
  0.9163874090359744  0.3331340061130434  0.3984480985212918
  0.9166315041423291  0.4584214064696198  0.3988529765229167
  0.9169255067936346  0.5838166404684313  0.3997000163146644
  0.9171907154453157  0.7091137617921555  0.4003082605609737
  0.9171184234988656  0.8341034159577040  0.4003395360887008
  0.9167452803953322  0.9586160107741498  0.3998344230172806
  0.0844775683102049  0.0436233429501512  0.4001693846141335
  0.0840597163307453  0.1680751097473186  0.3997152368613592
  0.0829217985314346  0.2921510495571450  0.3995796194641620
  0.0829283181486333  0.4169426336182460  0.3978672363789623
  0.0828004930558209  0.5420281010001319  0.3978360592288051
  0.0832164447700265  0.6674395939932245  0.3988652351679979
  0.0837030870879912  0.7929344969205252  0.3998889019411070
  0.0840666113368788  0.9183342567478491  0.4002992740565475
  0.2093364630725598  0.0440366138088584  0.4004432030868811
  0.2101241399536925  0.1700838749723091  0.4015243687901374
  0.2091191869867961  0.2944434808708101  0.4029873862096693
  0.2077913497022155  0.4176823014176805  0.4017055073789552
  0.2071207111047393  0.5421013706516363  0.3989400809814645
  0.2077318506994191  0.6673555580976051  0.3985101684218967
  0.2083171527303629  0.7927327328704142  0.3990648268279012
  0.2088300073760037  0.9183231414986921  0.3997752764809690
  0.3338542843885382  0.0435690765712692  0.4001783007335306
  0.3346773802437146  0.1699763613522307  0.4006875756282087
  0.3364939863390002  0.2982383537917717  0.4033074451627933
  0.3332825511879180  0.5444796709003018  0.4061544780930584
  0.3319080266465964  0.6667406458604518  0.4003042921931785
  0.3328406462784735  0.7921104226975776  0.3992669342047283
  0.3334074886919777  0.9177105558730563  0.3995989571274528
  0.4584073157502392  0.0420672449339532  0.4003581706838519
  0.4588946169737607  0.1677611546849624  0.4005589205055282
  0.4600132573358008  0.2935373472978947  0.3992384359423635
  0.4532950135451281  0.6617932414885773  0.4024215224972502
  0.4571811477882736  0.7904778075613542  0.4002503967154061
  0.4579014584685562  0.9163092510976701  0.3999840281982238
  0.5829149688904715  0.0407035012481633  0.4004005936078007
  0.5834234000490103  0.1664840664231610  0.4005332069035004
  0.5841823985723681  0.2919335923357622  0.3996495188064034
  0.5845807786077509  0.4170950385839262  0.3968510192586654
  0.5842203227261975  0.5432707378533700  0.3931409116921952
  0.5824861239104301  0.6611012672794419  0.3967639990817313
  0.5806166843804932  0.7866390199421428  0.3998917259927043
  0.5822495126548574  0.9144879860360576  0.4002824271872015
  0.7075701394482514  0.0402318246932401  0.3999305360830472
  0.7080630009841671  0.1659350024889889  0.4000372228160395
  0.7085207686164100  0.2914178339930376  0.4000077369475117
  0.7089188446552116  0.4168569349891456  0.3992827123555188
  0.7092377701631872  0.5418081696357989  0.3981501705866445
  0.7089074279789030  0.6661762342939154  0.3981090349352994
  0.7075999449616778  0.7901487254602494  0.3994276703447338
  0.7069548417415203  0.9144373991850636  0.3997501528410867
  0.8326817071550559  0.0407247616993278  0.3994260819951473
  0.8328775517339292  0.1659211953817159  0.3992495136657767
  0.8331589002806983  0.2913228479373078  0.3991662478179322
  0.8334965407710857  0.4166842013210102  0.3994185543150865
  0.8337486577558562  0.5419750661276330  0.3997071718134639
  0.8339611380540717  0.6671850501508259  0.3998446817712759
  0.8336646485334325  0.7918780083423989  0.4000148341645711
  0.8330599963652554  0.9161860178043805  0.3997804365311767
  0.9585827410165280  0.0421408738618718  0.3995271067709963
  0.9581309804913541  0.1665675221221963  0.3989746414752963
  0.9579598566692427  0.2914800557038553  0.3983451400747073
  0.9580650907438427  0.4166897985797953  0.3982233387014295
  0.9583284244885828  0.5420914385280137  0.3989924242416242
  0.9586669723169583  0.6674067847749438  0.4000021574317132
  0.9588718793020169  0.7926556508697548  0.4004468480219130
  0.9588971062087289  0.9176498437847320  0.4001543559773904
  0.4112488566402261  0.5832833739638118  0.4070387263957683
  0.5450008962016956  0.5819305365140427  0.3921456418329394
  0.3276318435502931  0.4185660404109205  0.4180293612829601
  0.4625409324651214  0.4173576300309329  0.3931589324930870
  0.5002662582046320  0.5222798034810867  0.5080458957327738
 
  0.00000000E+00  0.00000000E+00  0.00000000E+00
  0.00000000E+00  0.00000000E+00  0.00000000E+00
  0.00000000E+00  0.00000000E+00  0.00000000E+00
  0.00000000E+00  0.00000000E+00  0.00000000E+00
  0.00000000E+00  0.00000000E+00  0.00000000E+00
  0.00000000E+00  0.00000000E+00  0.00000000E+00
  0.00000000E+00  0.00000000E+00  0.00000000E+00
  0.00000000E+00  0.00000000E+00  0.00000000E+00
  0.00000000E+00  0.00000000E+00  0.00000000E+00
  0.00000000E+00  0.00000000E+00  0.00000000E+00
  0.00000000E+00  0.00000000E+00  0.00000000E+00
  0.00000000E+00  0.00000000E+00  0.00000000E+00
  0.00000000E+00  0.00000000E+00  0.00000000E+00
  0.00000000E+00  0.00000000E+00  0.00000000E+00
  0.00000000E+00  0.00000000E+00  0.00000000E+00
  0.00000000E+00  0.00000000E+00  0.00000000E+00
  0.00000000E+00  0.00000000E+00  0.00000000E+00
  0.00000000E+00  0.00000000E+00  0.00000000E+00
  0.00000000E+00  0.00000000E+00  0.00000000E+00
  0.00000000E+00  0.00000000E+00  0.00000000E+00
  0.00000000E+00  0.00000000E+00  0.00000000E+00
  0.00000000E+00  0.00000000E+00  0.00000000E+00
  0.00000000E+00  0.00000000E+00  0.00000000E+00
  0.00000000E+00  0.00000000E+00  0.00000000E+00
  0.00000000E+00  0.00000000E+00  0.00000000E+00
  0.00000000E+00  0.00000000E+00  0.00000000E+00
  0.00000000E+00  0.00000000E+00  0.00000000E+00
  0.00000000E+00  0.00000000E+00  0.00000000E+00
  0.00000000E+00  0.00000000E+00  0.00000000E+00
  0.00000000E+00  0.00000000E+00  0.00000000E+00
  0.00000000E+00  0.00000000E+00  0.00000000E+00
  0.00000000E+00  0.00000000E+00  0.00000000E+00
  0.00000000E+00  0.00000000E+00  0.00000000E+00
  0.00000000E+00  0.00000000E+00  0.00000000E+00
  0.00000000E+00  0.00000000E+00  0.00000000E+00
  0.00000000E+00  0.00000000E+00  0.00000000E+00
  0.00000000E+00  0.00000000E+00  0.00000000E+00
  0.00000000E+00  0.00000000E+00  0.00000000E+00
  0.00000000E+00  0.00000000E+00  0.00000000E+00
  0.00000000E+00  0.00000000E+00  0.00000000E+00
  0.00000000E+00  0.00000000E+00  0.00000000E+00
  0.00000000E+00  0.00000000E+00  0.00000000E+00
  0.00000000E+00  0.00000000E+00  0.00000000E+00
  0.00000000E+00  0.00000000E+00  0.00000000E+00
  0.00000000E+00  0.00000000E+00  0.00000000E+00
  0.00000000E+00  0.00000000E+00  0.00000000E+00
  0.00000000E+00  0.00000000E+00  0.00000000E+00
  0.00000000E+00  0.00000000E+00  0.00000000E+00
  0.00000000E+00  0.00000000E+00  0.00000000E+00
  0.00000000E+00  0.00000000E+00  0.00000000E+00
  0.00000000E+00  0.00000000E+00  0.00000000E+00
  0.00000000E+00  0.00000000E+00  0.00000000E+00
  0.00000000E+00  0.00000000E+00  0.00000000E+00
  0.00000000E+00  0.00000000E+00  0.00000000E+00
  0.00000000E+00  0.00000000E+00  0.00000000E+00
  0.00000000E+00  0.00000000E+00  0.00000000E+00
  0.00000000E+00  0.00000000E+00  0.00000000E+00
  0.00000000E+00  0.00000000E+00  0.00000000E+00
  0.00000000E+00  0.00000000E+00  0.00000000E+00
  0.00000000E+00  0.00000000E+00  0.00000000E+00
  0.00000000E+00  0.00000000E+00  0.00000000E+00
  0.00000000E+00  0.00000000E+00  0.00000000E+00
  0.00000000E+00  0.00000000E+00  0.00000000E+00
  0.00000000E+00  0.00000000E+00  0.00000000E+00
  0.00000000E+00  0.00000000E+00  0.00000000E+00
  0.00000000E+00  0.00000000E+00  0.00000000E+00
  0.00000000E+00  0.00000000E+00  0.00000000E+00
  0.00000000E+00  0.00000000E+00  0.00000000E+00
  0.00000000E+00  0.00000000E+00  0.00000000E+00
  0.00000000E+00  0.00000000E+00  0.00000000E+00
  0.00000000E+00  0.00000000E+00  0.00000000E+00
  0.00000000E+00  0.00000000E+00  0.00000000E+00
  0.00000000E+00  0.00000000E+00  0.00000000E+00
  0.00000000E+00  0.00000000E+00  0.00000000E+00
  0.00000000E+00  0.00000000E+00  0.00000000E+00
  0.00000000E+00  0.00000000E+00  0.00000000E+00
  0.00000000E+00  0.00000000E+00  0.00000000E+00
  0.00000000E+00  0.00000000E+00  0.00000000E+00
  0.00000000E+00  0.00000000E+00  0.00000000E+00
  0.00000000E+00  0.00000000E+00  0.00000000E+00
  0.00000000E+00  0.00000000E+00  0.00000000E+00
  0.00000000E+00  0.00000000E+00  0.00000000E+00
  0.00000000E+00  0.00000000E+00  0.00000000E+00
  0.00000000E+00  0.00000000E+00  0.00000000E+00
  0.00000000E+00  0.00000000E+00  0.00000000E+00
  0.00000000E+00  0.00000000E+00  0.00000000E+00
  0.00000000E+00  0.00000000E+00  0.00000000E+00
  0.00000000E+00  0.00000000E+00  0.00000000E+00
  0.00000000E+00  0.00000000E+00  0.00000000E+00
  0.00000000E+00  0.00000000E+00  0.00000000E+00
  0.00000000E+00  0.00000000E+00  0.00000000E+00
  0.00000000E+00  0.00000000E+00  0.00000000E+00
  0.00000000E+00  0.00000000E+00  0.00000000E+00
  0.00000000E+00  0.00000000E+00  0.00000000E+00
  0.00000000E+00  0.00000000E+00  0.00000000E+00
  0.00000000E+00  0.00000000E+00  0.00000000E+00
  0.00000000E+00  0.00000000E+00  0.00000000E+00
  0.00000000E+00  0.00000000E+00  0.00000000E+00
  0.00000000E+00  0.00000000E+00  0.00000000E+00
  0.00000000E+00  0.00000000E+00  0.00000000E+00
  0.00000000E+00  0.00000000E+00  0.00000000E+00
  0.00000000E+00  0.00000000E+00  0.00000000E+00
  0.00000000E+00  0.00000000E+00  0.00000000E+00
  0.00000000E+00  0.00000000E+00  0.00000000E+00
  0.00000000E+00  0.00000000E+00  0.00000000E+00
  0.00000000E+00  0.00000000E+00  0.00000000E+00
  0.00000000E+00  0.00000000E+00  0.00000000E+00
  0.00000000E+00  0.00000000E+00  0.00000000E+00
  0.00000000E+00  0.00000000E+00  0.00000000E+00
  0.00000000E+00  0.00000000E+00  0.00000000E+00
  0.00000000E+00  0.00000000E+00  0.00000000E+00
  0.00000000E+00  0.00000000E+00  0.00000000E+00
  0.00000000E+00  0.00000000E+00  0.00000000E+00
  0.00000000E+00  0.00000000E+00  0.00000000E+00
  0.00000000E+00  0.00000000E+00  0.00000000E+00
  0.00000000E+00  0.00000000E+00  0.00000000E+00
  0.00000000E+00  0.00000000E+00  0.00000000E+00
  0.00000000E+00  0.00000000E+00  0.00000000E+00
  0.00000000E+00  0.00000000E+00  0.00000000E+00
  0.00000000E+00  0.00000000E+00  0.00000000E+00
  0.00000000E+00  0.00000000E+00  0.00000000E+00
  0.00000000E+00  0.00000000E+00  0.00000000E+00
  0.00000000E+00  0.00000000E+00  0.00000000E+00
  0.00000000E+00  0.00000000E+00  0.00000000E+00
  0.00000000E+00  0.00000000E+00  0.00000000E+00
  0.00000000E+00  0.00000000E+00  0.00000000E+00
  0.00000000E+00  0.00000000E+00  0.00000000E+00
  0.00000000E+00  0.00000000E+00  0.00000000E+00
  0.00000000E+00  0.00000000E+00  0.00000000E+00
