Cu1 H1 C125 N1 O1                       
   1.00000000000000     
    19.8005727674738310   -0.0099607371774165    0.1799283634885482
    -9.9091884904112266   17.0575598978959313    0.1315220828802325
     0.2705865504490415    0.3870699215887997   29.8087305935129763
   Cu   H    C    N    O 
     1     1   125     1     1
Direct
  0.4361851473272688  0.4983711831523246  0.4172010868186473
  0.4947144610123568  0.5726726173549415  0.4873831164005392
  0.0416010761149193  0.0837431906459866  0.4001581595017591
  0.0410164711379107  0.2080985729001343  0.3997127140571596
  0.0406191108434463  0.3327368592408582  0.3990836074671062
  0.0406963457528003  0.4580707974736103  0.3989088230958021
  0.0412168646342807  0.5834847732564327  0.3990697340382878
  0.0417679582816007  0.7088318805926229  0.3991088282576651
  0.0420053513292453  0.8341450379189675  0.3993758695384286
  0.0419754431871418  0.9591364698734831  0.3999649132724347
  0.1672018029677446  0.0848386763197099  0.4006931292052653
  0.1669757288201664  0.2096059519430287  0.4009343770214137
  0.1659493794631896  0.3337657774141770  0.4000082533644085
  0.1648111139513279  0.4582454588326959  0.3990280267279749
  0.1652408844476488  0.5834428586572231  0.3990870061570552
  0.1661063320763985  0.7088220662743926  0.3994925957775886
  0.1667003439535529  0.8341807668840739  0.3996989816387855
  0.1670731274673793  0.9595556074019419  0.4000468944359590
  0.2921990368720059  0.0848043941119548  0.4009157208251551
  0.2928023317757498  0.2109832825111284  0.4025455271058846
  0.2926213938066254  0.3366091643614318  0.4035457508053586
  0.2894657791896278  0.4590000787622388  0.4017419381095789
  0.2889235186020185  0.5839835588484883  0.4005745172231165
  0.2903707919778342  0.7087776858098969  0.4001488827243744
  0.2912469503162793  0.8338264655346107  0.4000201265756308
  0.2917044169939968  0.9591742365036979  0.4001386570768382
  0.4167393614268475  0.0836773410827922  0.4004898359919826
  0.4171677991839313  0.2093401399290992  0.4020797637142057
  0.4184400264132430  0.3363095482626615  0.4052370000869090
  0.4143053175440038  0.7064534990982986  0.4028034039458360
  0.4157018382542674  0.8324456436172625  0.4009895627963914
  0.4163014000597051  0.9580849161354380  0.4002067235873148
  0.5412985298129109  0.0823607436973481  0.3999072055707271
  0.5418130318335246  0.2076846986520061  0.4005378460624136
  0.5424977849801830  0.3327164621929140  0.4025981495999721
  0.5446701120326261  0.4572017277335818  0.4058259983849327
  0.5455655081131828  0.5800455166311387  0.4082978843816158
  0.5377912906294204  0.7029730505001633  0.4058874234772432
  0.5398680558646930  0.8305994513289260  0.4025367625940793
  0.5408225661337078  0.9567309432211205  0.4005265376808053
  0.6659012061325448  0.0817489461505139  0.3996118857320512
  0.6664174642820140  0.2071691701290868  0.3993720486301640
  0.6670150741586909  0.3323457216990057  0.4000804574529981
  0.6684932546338717  0.4576644548530422  0.4014228016558672
  0.6697589864298032  0.5831609900777560  0.4028423475265300
  0.6657268781047716  0.7059512239996367  0.4038021020322435
  0.6644247601056660  0.8301824532244266  0.4028234216545797
  0.6653170309963263  0.9561611075570869  0.4009411111669008
  0.7906416927650629  0.0817366313591413  0.3999624701751183
  0.7909889153913688  0.2070125834955162  0.3992879654030783
  0.7915873861670265  0.3324293949250568  0.3990318477552473
  0.7924541421235687  0.4578995389601341  0.3993252881183650
  0.7931381332758376  0.5831957162935715  0.4000120897345689
  0.7924680176901157  0.7082977200335987  0.4010528416465859
  0.7908579951019907  0.8320977698374428  0.4013015633128396
  0.7902459298867938  0.9564962680340379  0.4007626478184500
  0.9158019415002772  0.0823882028140905  0.3999971728779383
  0.9157749629001838  0.2073186794821439  0.3995896788794188
  0.9159950062603039  0.3325332186688662  0.3992223562029371
  0.9165206042391220  0.4579001433312147  0.3989669153445377
  0.9171962124303576  0.5834318217733991  0.3989815286712340
  0.9172678658899162  0.7087604127249083  0.3993134351934389
  0.9169198341137237  0.8335811722521600  0.4000276052846494
  0.9161986006418832  0.9579147404455995  0.4003271157343974
  0.0837312251663434  0.0426541149560398  0.4002614987881453
  0.0833427132016613  0.1672169399785122  0.4001636117645369
  0.0824638833168319  0.2915158103427350  0.3994019467227052
  0.0820196497778212  0.4163717348970480  0.3988605192883624
  0.0823058941175797  0.5416235748369617  0.3989517539532754
  0.0830046291641557  0.6670460304612388  0.3992383434935928
  0.0835325765325805  0.7924822276968850  0.3993328532873057
  0.0837079329797099  0.9176667129715306  0.3997582227588580
  0.2088045825555163  0.0430294241709000  0.4005569259416322
  0.2089607288421652  0.1684519527462541  0.4014024880330498
  0.2086499016372916  0.2933084906142913  0.4013223281292010
  0.2064679610299661  0.4170123811414945  0.3997988111064782
  0.2061385432704808  0.5416773090626794  0.3992743184719591
  0.2073534061116555  0.6670731904520621  0.3994734302743481
  0.2080493878389724  0.7923237929799838  0.3997562090836956
  0.2085376692166196  0.9176941646865914  0.3999819752931417
  0.3334980882930236  0.0426360769108749  0.4004677823032719
  0.3340421801720990  0.1683152186536355  0.4019502490992977
  0.3343996788433207  0.2942310438622369  0.4042101597746889
  0.3312846056164916  0.4191391138644406  0.4047495110941121
  0.3306346376531411  0.5435620324925672  0.4022969417981039
  0.3314353779234013  0.6668780708211104  0.4011360392112269
  0.3325725144958461  0.7919543991636864  0.4003703039996441
  0.3331408121944295  0.9171947399622257  0.4001093022815328
  0.4581367875482196  0.0414972842197481  0.4001741895750794
  0.4585270989105499  0.1670357457839540  0.4009892014980665
  0.4593224328674723  0.2928921675971597  0.4033476088515555
  0.4630910432849023  0.4184706562673972  0.4072834574711057
  0.4533337569285069  0.6617657936873469  0.4050603152063967
  0.4568716182988912  0.7900486568878379  0.4021854150179375
  0.4576085820283968  0.9158602367163776  0.4005607450172360
  0.5826875622730149  0.0402911714857615  0.3998759495736606
  0.5831970359423428  0.1657806948974649  0.3998340208210905
  0.5838842692266893  0.2908784044833347  0.4009704696464009
  0.5854396275427390  0.4155723668522397  0.4032409189197045
  0.5875639777903121  0.5411827577843068  0.4060262744575089
  0.5811478866851897  0.6619480098212681  0.4065302459229917
  0.5801926619648445  0.7871318339685955  0.4039124005004156
  0.5819900954690582  0.9143921226412567  0.4012780802885701
  0.7072649872807621  0.0397985990502355  0.4000685385083760
  0.7078064956004883  0.1653303462559675  0.3992567206334491
  0.7083437281436801  0.2906386886401380  0.3993379496783069
  0.7094055923385345  0.4160056059811604  0.4001156823651912
  0.7105576205608465  0.5412561826021808  0.4012087618182770
  0.7091884315313619  0.6661916065398766  0.4025772425713934
  0.7070100384247402  0.7895105004280477  0.4026065322270586
  0.7065391521996968  0.9140449301444150  0.4014634138116774
  0.8322210497472075  0.0401613843630181  0.4002070339571037
  0.8324475869054033  0.1653374195514781  0.3996173552471645
  0.8328758664727383  0.2906782045290247  0.3991476840165911
  0.8335347576817846  0.4160287142555828  0.3989865156656300
  0.8342625446558021  0.5414347046103503  0.3993169598156406
  0.8342023088801582  0.6668924654269728  0.4000349027532822
  0.8335458978468273  0.7915199385010927  0.4007773252082732
  0.8325238175835480  0.9155577946146950  0.4007670820039202
  0.9579630083135054  0.0414238289152890  0.4001198586326392
  0.9575794104269449  0.1659476518848460  0.3997294830917851
  0.9574483417045375  0.2908399491940539  0.3993225010441076
  0.9576627402526353  0.4161044888267543  0.3990529035009052
  0.9583018807521536  0.5416164313446963  0.3989616716322471
  0.9587278652720196  0.6670441102849656  0.3989824068050133
  0.9587718528237326  0.7922448902663956  0.3994674596646859
  0.9584715198793232  0.9170047192443845  0.4000846982828219
  0.4093848719122773  0.5813704650036688  0.4052621783468195
  0.4666699362910872  0.5172397519364027  0.4801242868969561
 
  0.00000000E+00  0.00000000E+00  0.00000000E+00
  0.00000000E+00  0.00000000E+00  0.00000000E+00
  0.00000000E+00  0.00000000E+00  0.00000000E+00
  0.00000000E+00  0.00000000E+00  0.00000000E+00
  0.00000000E+00  0.00000000E+00  0.00000000E+00
  0.00000000E+00  0.00000000E+00  0.00000000E+00
  0.00000000E+00  0.00000000E+00  0.00000000E+00
  0.00000000E+00  0.00000000E+00  0.00000000E+00
  0.00000000E+00  0.00000000E+00  0.00000000E+00
  0.00000000E+00  0.00000000E+00  0.00000000E+00
  0.00000000E+00  0.00000000E+00  0.00000000E+00
  0.00000000E+00  0.00000000E+00  0.00000000E+00
  0.00000000E+00  0.00000000E+00  0.00000000E+00
  0.00000000E+00  0.00000000E+00  0.00000000E+00
  0.00000000E+00  0.00000000E+00  0.00000000E+00
  0.00000000E+00  0.00000000E+00  0.00000000E+00
  0.00000000E+00  0.00000000E+00  0.00000000E+00
  0.00000000E+00  0.00000000E+00  0.00000000E+00
  0.00000000E+00  0.00000000E+00  0.00000000E+00
  0.00000000E+00  0.00000000E+00  0.00000000E+00
  0.00000000E+00  0.00000000E+00  0.00000000E+00
  0.00000000E+00  0.00000000E+00  0.00000000E+00
  0.00000000E+00  0.00000000E+00  0.00000000E+00
  0.00000000E+00  0.00000000E+00  0.00000000E+00
  0.00000000E+00  0.00000000E+00  0.00000000E+00
  0.00000000E+00  0.00000000E+00  0.00000000E+00
  0.00000000E+00  0.00000000E+00  0.00000000E+00
  0.00000000E+00  0.00000000E+00  0.00000000E+00
  0.00000000E+00  0.00000000E+00  0.00000000E+00
  0.00000000E+00  0.00000000E+00  0.00000000E+00
  0.00000000E+00  0.00000000E+00  0.00000000E+00
  0.00000000E+00  0.00000000E+00  0.00000000E+00
  0.00000000E+00  0.00000000E+00  0.00000000E+00
  0.00000000E+00  0.00000000E+00  0.00000000E+00
  0.00000000E+00  0.00000000E+00  0.00000000E+00
  0.00000000E+00  0.00000000E+00  0.00000000E+00
  0.00000000E+00  0.00000000E+00  0.00000000E+00
  0.00000000E+00  0.00000000E+00  0.00000000E+00
  0.00000000E+00  0.00000000E+00  0.00000000E+00
  0.00000000E+00  0.00000000E+00  0.00000000E+00
  0.00000000E+00  0.00000000E+00  0.00000000E+00
  0.00000000E+00  0.00000000E+00  0.00000000E+00
  0.00000000E+00  0.00000000E+00  0.00000000E+00
  0.00000000E+00  0.00000000E+00  0.00000000E+00
  0.00000000E+00  0.00000000E+00  0.00000000E+00
  0.00000000E+00  0.00000000E+00  0.00000000E+00
  0.00000000E+00  0.00000000E+00  0.00000000E+00
  0.00000000E+00  0.00000000E+00  0.00000000E+00
  0.00000000E+00  0.00000000E+00  0.00000000E+00
  0.00000000E+00  0.00000000E+00  0.00000000E+00
  0.00000000E+00  0.00000000E+00  0.00000000E+00
  0.00000000E+00  0.00000000E+00  0.00000000E+00
  0.00000000E+00  0.00000000E+00  0.00000000E+00
  0.00000000E+00  0.00000000E+00  0.00000000E+00
  0.00000000E+00  0.00000000E+00  0.00000000E+00
  0.00000000E+00  0.00000000E+00  0.00000000E+00
  0.00000000E+00  0.00000000E+00  0.00000000E+00
  0.00000000E+00  0.00000000E+00  0.00000000E+00
  0.00000000E+00  0.00000000E+00  0.00000000E+00
  0.00000000E+00  0.00000000E+00  0.00000000E+00
  0.00000000E+00  0.00000000E+00  0.00000000E+00
  0.00000000E+00  0.00000000E+00  0.00000000E+00
  0.00000000E+00  0.00000000E+00  0.00000000E+00
  0.00000000E+00  0.00000000E+00  0.00000000E+00
  0.00000000E+00  0.00000000E+00  0.00000000E+00
  0.00000000E+00  0.00000000E+00  0.00000000E+00
  0.00000000E+00  0.00000000E+00  0.00000000E+00
  0.00000000E+00  0.00000000E+00  0.00000000E+00
  0.00000000E+00  0.00000000E+00  0.00000000E+00
  0.00000000E+00  0.00000000E+00  0.00000000E+00
  0.00000000E+00  0.00000000E+00  0.00000000E+00
  0.00000000E+00  0.00000000E+00  0.00000000E+00
  0.00000000E+00  0.00000000E+00  0.00000000E+00
  0.00000000E+00  0.00000000E+00  0.00000000E+00
  0.00000000E+00  0.00000000E+00  0.00000000E+00
  0.00000000E+00  0.00000000E+00  0.00000000E+00
  0.00000000E+00  0.00000000E+00  0.00000000E+00
  0.00000000E+00  0.00000000E+00  0.00000000E+00
  0.00000000E+00  0.00000000E+00  0.00000000E+00
  0.00000000E+00  0.00000000E+00  0.00000000E+00
  0.00000000E+00  0.00000000E+00  0.00000000E+00
  0.00000000E+00  0.00000000E+00  0.00000000E+00
  0.00000000E+00  0.00000000E+00  0.00000000E+00
  0.00000000E+00  0.00000000E+00  0.00000000E+00
  0.00000000E+00  0.00000000E+00  0.00000000E+00
  0.00000000E+00  0.00000000E+00  0.00000000E+00
  0.00000000E+00  0.00000000E+00  0.00000000E+00
  0.00000000E+00  0.00000000E+00  0.00000000E+00
  0.00000000E+00  0.00000000E+00  0.00000000E+00
  0.00000000E+00  0.00000000E+00  0.00000000E+00
  0.00000000E+00  0.00000000E+00  0.00000000E+00
  0.00000000E+00  0.00000000E+00  0.00000000E+00
  0.00000000E+00  0.00000000E+00  0.00000000E+00
  0.00000000E+00  0.00000000E+00  0.00000000E+00
  0.00000000E+00  0.00000000E+00  0.00000000E+00
  0.00000000E+00  0.00000000E+00  0.00000000E+00
  0.00000000E+00  0.00000000E+00  0.00000000E+00
  0.00000000E+00  0.00000000E+00  0.00000000E+00
  0.00000000E+00  0.00000000E+00  0.00000000E+00
  0.00000000E+00  0.00000000E+00  0.00000000E+00
  0.00000000E+00  0.00000000E+00  0.00000000E+00
  0.00000000E+00  0.00000000E+00  0.00000000E+00
  0.00000000E+00  0.00000000E+00  0.00000000E+00
  0.00000000E+00  0.00000000E+00  0.00000000E+00
  0.00000000E+00  0.00000000E+00  0.00000000E+00
  0.00000000E+00  0.00000000E+00  0.00000000E+00
  0.00000000E+00  0.00000000E+00  0.00000000E+00
  0.00000000E+00  0.00000000E+00  0.00000000E+00
  0.00000000E+00  0.00000000E+00  0.00000000E+00
  0.00000000E+00  0.00000000E+00  0.00000000E+00
  0.00000000E+00  0.00000000E+00  0.00000000E+00
  0.00000000E+00  0.00000000E+00  0.00000000E+00
  0.00000000E+00  0.00000000E+00  0.00000000E+00
  0.00000000E+00  0.00000000E+00  0.00000000E+00
  0.00000000E+00  0.00000000E+00  0.00000000E+00
  0.00000000E+00  0.00000000E+00  0.00000000E+00
  0.00000000E+00  0.00000000E+00  0.00000000E+00
  0.00000000E+00  0.00000000E+00  0.00000000E+00
  0.00000000E+00  0.00000000E+00  0.00000000E+00
  0.00000000E+00  0.00000000E+00  0.00000000E+00
  0.00000000E+00  0.00000000E+00  0.00000000E+00
  0.00000000E+00  0.00000000E+00  0.00000000E+00
  0.00000000E+00  0.00000000E+00  0.00000000E+00
  0.00000000E+00  0.00000000E+00  0.00000000E+00
  0.00000000E+00  0.00000000E+00  0.00000000E+00
  0.00000000E+00  0.00000000E+00  0.00000000E+00
  0.00000000E+00  0.00000000E+00  0.00000000E+00
  0.00000000E+00  0.00000000E+00  0.00000000E+00
  0.00000000E+00  0.00000000E+00  0.00000000E+00
