Re1 H1 C123 N3                          
   1.00000000000000     
    19.8183901247455623    0.0226334245569708    0.1271267312928770
    -9.8893774176493672   17.0198915246824392   -0.2413627223139324
     0.1918479857535318   -0.3115352947332247   29.8163298349864618
   Re   H    C    N 
     1     1   123     3
Direct
  0.4413649596836282  0.5013490784831446  0.4276461159437006
  0.4504550275683039  0.4843751378532790  0.4817811283691550
  0.0418741358012214  0.0843830655310531  0.3997517132380489
  0.0404907780657040  0.2081910162684086  0.3998945794079374
  0.0396715389229538  0.3328454728869312  0.3991159673204434
  0.0401363269534068  0.4581709902643403  0.3986313264824023
  0.0414419352659282  0.5838573564784295  0.3992630985678729
  0.0425165912762748  0.7094769945580406  0.3997606705404542
  0.0427667392164672  0.8348112249814998  0.3998506883207369
  0.0425779610428288  0.9598923062579697  0.3996821647541952
  0.1676983365842675  0.0857401069278914  0.4001256114222353
  0.1671428847987191  0.2105456693826890  0.4007514231350759
  0.1641363396552868  0.3334228816647651  0.4009918021732730
  0.1635400636340367  0.4580781036692624  0.3981338245910676
  0.1650022738179779  0.5834897723536372  0.3983671209912099
  0.1666073591418730  0.7089751907256958  0.3993930923462237
  0.1673552211731511  0.8345886540673845  0.3998260763358584
  0.1676162133942999  0.9602300582139331  0.3998108138831143
  0.2925011634379671  0.0859374655950832  0.3997956228932613
  0.2928968098143047  0.2127823811696094  0.4013450252513465
  0.2915693495071404  0.3386978067183153  0.4059593615226846
  0.2860018052662501  0.4576945060634676  0.4033810659057627
  0.2880665989248323  0.5823804470059325  0.3986254624802610
  0.2908176075303226  0.7079958988985687  0.3991378200213325
  0.2918052260813947  0.8338039365658427  0.3997796101049252
  0.2921968722042563  0.9597100453488833  0.3997121964467543
  0.4169465434936624  0.0843986477733414  0.3995737132000059
  0.4173806295041339  0.2107511596008070  0.3997809795205592
  0.4184265505278825  0.3378156683388688  0.4015194609312104
  0.4148236745151692  0.7049133237773815  0.4004402177678945
  0.4161016207632157  0.8317788090216286  0.3999394135231913
  0.4166248620331483  0.9581572210981073  0.3998456880795719
  0.5412901045784418  0.0827895186906200  0.3997449506060812
  0.5418364300899947  0.2087902601937050  0.3994289891452198
  0.5430718384745963  0.3347998536016912  0.3994951856414547
  0.5476383160625510  0.4611051588452262  0.4016176418375294
  0.5385460680977660  0.7016239413143613  0.4028236596452429
  0.5403409241484267  0.8299270703923702  0.4003917463089570
  0.5409414724502338  0.9566061653710386  0.4000735458319301
  0.6657538942118542  0.0820289899390585  0.3999921553862144
  0.6662443393961576  0.2077124614624684  0.3996628899072973
  0.6673002810576897  0.3334194426906129  0.3995503864572360
  0.6698936142007199  0.4592419127130271  0.3998898466709317
  0.6717830184433905  0.5848727674887008  0.4006319963003201
  0.6673764474411800  0.7070127725715458  0.4001250358001322
  0.6647937842402588  0.8303613091561595  0.3999360350866944
  0.6653585207429351  0.9562650870941440  0.4000389158711544
  0.7904503222152020  0.0820256619150742  0.3998993735693576
  0.7906781824387296  0.2074085017552103  0.3998579629476695
  0.7914291209715892  0.3329201772635644  0.3996583230802875
  0.7929852234171202  0.4585876971783760  0.3995871429913298
  0.7944706282154615  0.5843014053315029  0.3993886479278849
  0.7939184378844401  0.7094168950371217  0.3994664631092342
  0.7916729835888064  0.8328717271763914  0.3990907344664301
  0.7904097198808920  0.9568629033277811  0.3995380579724460
  0.9157034872312143  0.0827171742892598  0.3996913718205518
  0.9152811744717929  0.2074865738327834  0.3996907052949363
  0.9155249633920202  0.3327791321747489  0.3993679490263820
  0.9165687470826135  0.4584179117343006  0.3994813553539671
  0.9178746348538576  0.5841056624457149  0.3996066181069233
  0.9182805877540881  0.7095076436660143  0.3995678861988003
  0.9178175856239424  0.8344810143662804  0.3994227668575602
  0.9167178838737963  0.9586347426136336  0.3994866286979245
  0.0842712433693963  0.0434926233982319  0.3998118472972582
  0.0834915588722220  0.1679551356921692  0.3999861951814376
  0.0815595360304634  0.2914966403531847  0.3998843952535490
  0.0809349328003089  0.4161187956060766  0.3984019645140895
  0.0821664416477950  0.5417611164180526  0.3986758202362467
  0.0835599877302861  0.6674259522697294  0.3994901771385757
  0.0842618673106152  0.7930090747524370  0.3998840471930168
  0.0844171551800042  0.9184114912661653  0.3998108919323379
  0.2092946062478099  0.0439499480189953  0.3999085438718209
  0.2094838943198534  0.1696408308918246  0.4008358164766081
  0.2082804079128695  0.2943545463012069  0.4022360905230465
  0.2045539973281897  0.4164005543442060  0.3999530873728048
  0.2052903659258716  0.5410823885818883  0.3980535673867442
  0.2075330527245575  0.6668666308063207  0.3989087578979554
  0.2086277368716718  0.7925798051028787  0.3996898526090047
  0.2091127338875617  0.9182764727831810  0.3997855604329967
  0.3338200835004533  0.0435089862949133  0.3996097781069827
  0.3341864982030842  0.1700179764560424  0.4001710063359024
  0.3348724511308943  0.2975242209045124  0.4034547010668868
  0.3278850279776269  0.5404718778967491  0.4009045663754483
  0.3314874946300976  0.6656937805969063  0.3991652637889536
  0.3330145748288496  0.7915108757279375  0.3996920017828443
  0.3335299007544844  0.9173942538418723  0.3998131920228243
  0.4582402393334692  0.0418864321321963  0.3996984052081151
  0.4586101790206204  0.1681280571835284  0.3995390926447303
  0.4592757555781215  0.2946604620602121  0.3997036380842893
  0.4640363768702156  0.4219186340366624  0.4047149978391252
  0.4540697545398042  0.6602232212730713  0.4024774299354067
  0.4571995936006942  0.7889229296982634  0.4002136721584603
  0.4578195267362610  0.9155821064020845  0.3999874742294859
  0.5826053893374448  0.0404669278910127  0.3999633096813934
  0.5830445198719149  0.1664841889160065  0.3995756251838003
  0.5839003089852312  0.2923954636415726  0.3993719872499941
  0.5870712915485939  0.4182888510261386  0.4002022330106021
  0.5907352968831361  0.5441671866512722  0.4031523041509990
  0.5843065384252787  0.6632362571843927  0.4036503882956237
  0.5809103632828624  0.7867768847819109  0.4008791507200188
  0.5821739526273170  0.9141363174499059  0.4001492228935661
  0.7071761702734112  0.0400688707908533  0.4000040757839067
  0.7075766524941390  0.1657583444473766  0.3998704212611043
  0.7082645920378390  0.2913228404845928  0.3996158631846548
  0.7101295335229164  0.4168447088040534  0.3996199741852873
  0.7120651354339153  0.5423707872227731  0.3996891825770004
  0.7114926786158685  0.6677512740609800  0.4001607389766121
  0.7080974168200050  0.7904182273144643  0.3992951471579679
  0.7067824182294667  0.9143692810858925  0.3997705794219313
  0.8322569397912003  0.0405471719180255  0.3997141153611363
  0.8321917396030640  0.1656640721592811  0.3998619681751321
  0.8325161665718345  0.2909331205431148  0.3996665264078059
  0.8336850822470101  0.4164959510190298  0.3996192008531476
  0.8351439139499929  0.5421922149228424  0.3995158502100472
  0.8355510138706586  0.6677234872277445  0.3994362927849558
  0.8347205181884693  0.7926010447534219  0.3992118104469199
  0.8331551294057947  0.9163388401549303  0.3993114405438458
  0.9583464835498291  0.0420970112473871  0.3996441096698095
  0.9572415544910878  0.1661556112665568  0.3997309427431518
  0.9568668187030406  0.2910189124637234  0.3993551360071134
  0.9573397899430570  0.4163280816699491  0.3991856958485605
  0.9586184814840628  0.5419830126674113  0.3995204161771409
  0.9595732139536862  0.6676643857183236  0.3996635431124065
  0.9597312965484029  0.7930628971774113  0.3996503069500744
  0.9592485135614309  0.9178874853433510  0.3995036336763930
  0.4084904495224523  0.5779768956894433  0.4038960602726572
  0.5490701385113561  0.5833047718200169  0.4098486301461579
  0.3283587867183140  0.4205068662166344  0.4123414585922919
 
  0.00000000E+00  0.00000000E+00  0.00000000E+00
  0.00000000E+00  0.00000000E+00  0.00000000E+00
  0.00000000E+00  0.00000000E+00  0.00000000E+00
  0.00000000E+00  0.00000000E+00  0.00000000E+00
  0.00000000E+00  0.00000000E+00  0.00000000E+00
  0.00000000E+00  0.00000000E+00  0.00000000E+00
  0.00000000E+00  0.00000000E+00  0.00000000E+00
  0.00000000E+00  0.00000000E+00  0.00000000E+00
  0.00000000E+00  0.00000000E+00  0.00000000E+00
  0.00000000E+00  0.00000000E+00  0.00000000E+00
  0.00000000E+00  0.00000000E+00  0.00000000E+00
  0.00000000E+00  0.00000000E+00  0.00000000E+00
  0.00000000E+00  0.00000000E+00  0.00000000E+00
  0.00000000E+00  0.00000000E+00  0.00000000E+00
  0.00000000E+00  0.00000000E+00  0.00000000E+00
  0.00000000E+00  0.00000000E+00  0.00000000E+00
  0.00000000E+00  0.00000000E+00  0.00000000E+00
  0.00000000E+00  0.00000000E+00  0.00000000E+00
  0.00000000E+00  0.00000000E+00  0.00000000E+00
  0.00000000E+00  0.00000000E+00  0.00000000E+00
  0.00000000E+00  0.00000000E+00  0.00000000E+00
  0.00000000E+00  0.00000000E+00  0.00000000E+00
  0.00000000E+00  0.00000000E+00  0.00000000E+00
  0.00000000E+00  0.00000000E+00  0.00000000E+00
  0.00000000E+00  0.00000000E+00  0.00000000E+00
  0.00000000E+00  0.00000000E+00  0.00000000E+00
  0.00000000E+00  0.00000000E+00  0.00000000E+00
  0.00000000E+00  0.00000000E+00  0.00000000E+00
  0.00000000E+00  0.00000000E+00  0.00000000E+00
  0.00000000E+00  0.00000000E+00  0.00000000E+00
  0.00000000E+00  0.00000000E+00  0.00000000E+00
  0.00000000E+00  0.00000000E+00  0.00000000E+00
  0.00000000E+00  0.00000000E+00  0.00000000E+00
  0.00000000E+00  0.00000000E+00  0.00000000E+00
  0.00000000E+00  0.00000000E+00  0.00000000E+00
  0.00000000E+00  0.00000000E+00  0.00000000E+00
  0.00000000E+00  0.00000000E+00  0.00000000E+00
  0.00000000E+00  0.00000000E+00  0.00000000E+00
  0.00000000E+00  0.00000000E+00  0.00000000E+00
  0.00000000E+00  0.00000000E+00  0.00000000E+00
  0.00000000E+00  0.00000000E+00  0.00000000E+00
  0.00000000E+00  0.00000000E+00  0.00000000E+00
  0.00000000E+00  0.00000000E+00  0.00000000E+00
  0.00000000E+00  0.00000000E+00  0.00000000E+00
  0.00000000E+00  0.00000000E+00  0.00000000E+00
  0.00000000E+00  0.00000000E+00  0.00000000E+00
  0.00000000E+00  0.00000000E+00  0.00000000E+00
  0.00000000E+00  0.00000000E+00  0.00000000E+00
  0.00000000E+00  0.00000000E+00  0.00000000E+00
  0.00000000E+00  0.00000000E+00  0.00000000E+00
  0.00000000E+00  0.00000000E+00  0.00000000E+00
  0.00000000E+00  0.00000000E+00  0.00000000E+00
  0.00000000E+00  0.00000000E+00  0.00000000E+00
  0.00000000E+00  0.00000000E+00  0.00000000E+00
  0.00000000E+00  0.00000000E+00  0.00000000E+00
  0.00000000E+00  0.00000000E+00  0.00000000E+00
  0.00000000E+00  0.00000000E+00  0.00000000E+00
  0.00000000E+00  0.00000000E+00  0.00000000E+00
  0.00000000E+00  0.00000000E+00  0.00000000E+00
  0.00000000E+00  0.00000000E+00  0.00000000E+00
  0.00000000E+00  0.00000000E+00  0.00000000E+00
  0.00000000E+00  0.00000000E+00  0.00000000E+00
  0.00000000E+00  0.00000000E+00  0.00000000E+00
  0.00000000E+00  0.00000000E+00  0.00000000E+00
  0.00000000E+00  0.00000000E+00  0.00000000E+00
  0.00000000E+00  0.00000000E+00  0.00000000E+00
  0.00000000E+00  0.00000000E+00  0.00000000E+00
  0.00000000E+00  0.00000000E+00  0.00000000E+00
  0.00000000E+00  0.00000000E+00  0.00000000E+00
  0.00000000E+00  0.00000000E+00  0.00000000E+00
  0.00000000E+00  0.00000000E+00  0.00000000E+00
  0.00000000E+00  0.00000000E+00  0.00000000E+00
  0.00000000E+00  0.00000000E+00  0.00000000E+00
  0.00000000E+00  0.00000000E+00  0.00000000E+00
  0.00000000E+00  0.00000000E+00  0.00000000E+00
  0.00000000E+00  0.00000000E+00  0.00000000E+00
  0.00000000E+00  0.00000000E+00  0.00000000E+00
  0.00000000E+00  0.00000000E+00  0.00000000E+00
  0.00000000E+00  0.00000000E+00  0.00000000E+00
  0.00000000E+00  0.00000000E+00  0.00000000E+00
  0.00000000E+00  0.00000000E+00  0.00000000E+00
  0.00000000E+00  0.00000000E+00  0.00000000E+00
  0.00000000E+00  0.00000000E+00  0.00000000E+00
  0.00000000E+00  0.00000000E+00  0.00000000E+00
  0.00000000E+00  0.00000000E+00  0.00000000E+00
  0.00000000E+00  0.00000000E+00  0.00000000E+00
  0.00000000E+00  0.00000000E+00  0.00000000E+00
  0.00000000E+00  0.00000000E+00  0.00000000E+00
  0.00000000E+00  0.00000000E+00  0.00000000E+00
  0.00000000E+00  0.00000000E+00  0.00000000E+00
  0.00000000E+00  0.00000000E+00  0.00000000E+00
  0.00000000E+00  0.00000000E+00  0.00000000E+00
  0.00000000E+00  0.00000000E+00  0.00000000E+00
  0.00000000E+00  0.00000000E+00  0.00000000E+00
  0.00000000E+00  0.00000000E+00  0.00000000E+00
  0.00000000E+00  0.00000000E+00  0.00000000E+00
  0.00000000E+00  0.00000000E+00  0.00000000E+00
  0.00000000E+00  0.00000000E+00  0.00000000E+00
  0.00000000E+00  0.00000000E+00  0.00000000E+00
  0.00000000E+00  0.00000000E+00  0.00000000E+00
  0.00000000E+00  0.00000000E+00  0.00000000E+00
  0.00000000E+00  0.00000000E+00  0.00000000E+00
  0.00000000E+00  0.00000000E+00  0.00000000E+00
  0.00000000E+00  0.00000000E+00  0.00000000E+00
  0.00000000E+00  0.00000000E+00  0.00000000E+00
  0.00000000E+00  0.00000000E+00  0.00000000E+00
  0.00000000E+00  0.00000000E+00  0.00000000E+00
  0.00000000E+00  0.00000000E+00  0.00000000E+00
  0.00000000E+00  0.00000000E+00  0.00000000E+00
  0.00000000E+00  0.00000000E+00  0.00000000E+00
  0.00000000E+00  0.00000000E+00  0.00000000E+00
  0.00000000E+00  0.00000000E+00  0.00000000E+00
  0.00000000E+00  0.00000000E+00  0.00000000E+00
  0.00000000E+00  0.00000000E+00  0.00000000E+00
  0.00000000E+00  0.00000000E+00  0.00000000E+00
  0.00000000E+00  0.00000000E+00  0.00000000E+00
  0.00000000E+00  0.00000000E+00  0.00000000E+00
  0.00000000E+00  0.00000000E+00  0.00000000E+00
  0.00000000E+00  0.00000000E+00  0.00000000E+00
  0.00000000E+00  0.00000000E+00  0.00000000E+00
  0.00000000E+00  0.00000000E+00  0.00000000E+00
  0.00000000E+00  0.00000000E+00  0.00000000E+00
  0.00000000E+00  0.00000000E+00  0.00000000E+00
  0.00000000E+00  0.00000000E+00  0.00000000E+00
  0.00000000E+00  0.00000000E+00  0.00000000E+00
  0.00000000E+00  0.00000000E+00  0.00000000E+00
  0.00000000E+00  0.00000000E+00  0.00000000E+00
  0.00000000E+00  0.00000000E+00  0.00000000E+00
