Rh1 C126 O1                             
   1.00000000000000     
    19.7959205630062520   -0.0000637842140541   -0.0445302393000810
    -9.8980192714283373   17.0537442812298146    0.0138898520350223
    -0.0669382674001454   -0.0146121927573758   29.8064148468030119
   Rh   C    O 
     1   126     1
Direct
  0.4387846113713375  0.5013245512372467  0.4304942424720820
  0.0420202284066883  0.0840928363300236  0.3997951054579224
  0.0410478187947891  0.2081267988031172  0.3996862133530946
  0.0404963567659130  0.3327509868791269  0.3995660454487835
  0.0405699896374308  0.4581778191058119  0.3996625910563066
  0.0413712938212605  0.5837017567854147  0.3999474747423222
  0.0421025473726457  0.7090916565034263  0.4000296181045587
  0.0424322900563088  0.8344746283619955  0.4000135598780274
  0.0424280567070027  0.9594888629198197  0.3998832733566623
  0.1676467654941675  0.0852276602869275  0.3999517529378430
  0.1674715431181679  0.2100567257069833  0.4000794516590316
  0.1655397299814144  0.3333677909450615  0.3997999231529040
  0.1643570343591073  0.4582525288509539  0.3991243737347793
  0.1652383319603688  0.5835175669148110  0.3992631830047300
  0.1664954562113868  0.7090212170364311  0.3997863942193086
  0.1670999340767969  0.8344542844456568  0.3999833689741976
  0.1674731886509889  0.9598995050848406  0.3999172044168117
  0.2925946429634929  0.0852156559670536  0.3999325001782218
  0.2932480586244759  0.2114409442442720  0.4009639536789887
  0.2936700226864048  0.3374258136659125  0.4026200631246821
  0.2877417834408298  0.4581702990038530  0.4012755213005642
  0.2889452855544676  0.5835980969596123  0.3993424814832494
  0.2908738372929183  0.7086628701460008  0.3994179432467902
  0.2916125336994547  0.8338973530916759  0.3997889770172376
  0.2920989067981516  0.9594494712007633  0.3998696338387389
  0.4170830093248810  0.0840408786021240  0.3997707710191271
  0.4176172380369199  0.2100347095423902  0.4000263212033640
  0.4188593614582919  0.3373893879407411  0.4024459532434723
  0.4106043987910912  0.5799720463281999  0.4058850343996404
  0.4152737417969232  0.7062334737020874  0.4004626855191975
  0.4161280313830696  0.8324384912545377  0.3996513569450392
  0.4166235679322300  0.9582327781163041  0.3998377665269731
  0.5415458619338369  0.0826058810785490  0.3998625397861095
  0.5420993365339599  0.2080909711930047  0.3997050862970598
  0.5429315781769181  0.3333595294069562  0.3996518337942457
  0.5455906717756696  0.4581750794040963  0.4007452712064105
  0.5446739694562097  0.5800173314051340  0.4054065907299989
  0.5400451955678888  0.7049489491308889  0.4029382790836698
  0.5406126522661759  0.8311488422509145  0.4002977781731894
  0.5411368199464245  0.9569872102060636  0.3998095236404316
  0.6661042838161049  0.0819806376870057  0.3999571766096721
  0.6665638634723681  0.2074027573036617  0.3999180971882664
  0.6673177705851912  0.3327464739319943  0.3995802034815261
  0.6690332184198285  0.4582774872677849  0.3989282723238344
  0.6698187161665412  0.5836183903542280  0.3989165005502745
  0.6660860918039870  0.7062494677747865  0.4002087428010587
  0.6655987126973968  0.8311652530839836  0.4002494788544706
  0.6658023224538855  0.9565795479346905  0.3999376162866308
  0.7909041452086341  0.0819942251492213  0.3999470489472692
  0.7911015724384676  0.2071867486662463  0.4000153601413503
  0.7917125721508044  0.3326538894460843  0.3999424681825243
  0.7927045859293097  0.4582026356344472  0.3996682994342577
  0.7934052096919724  0.5835481669827829  0.3992193456557951
  0.7929150220371918  0.7087209789852071  0.3993450789972839
  0.7913932182452488  0.8324874735693637  0.3996064996768698
  0.7908877976188685  0.9570241596277699  0.3997866726208351
  0.9161201023741000  0.0826606012811937  0.3998424212887323
  0.9158778872557516  0.2074337334659124  0.3998681127541270
  0.9160080801790265  0.3326594775585760  0.3999288344771144
  0.9165877563895342  0.4580767424972667  0.4000170660256016
  0.9174413134167739  0.5837126628714733  0.3999617628186212
  0.9176423755855104  0.7090622470878705  0.3998417248191751
  0.9173788588406908  0.8339540883025028  0.3998363878198060
  0.9166975995389713  0.9582981571307370  0.3998452427818113
  0.0841585448000491  0.0430107317254187  0.3998314569570806
  0.0837002389328030  0.1675623561795624  0.3997549980162500
  0.0822264775104817  0.2913397707577667  0.3995665687012387
  0.0817255270057843  0.4164286332464276  0.3993806280516211
  0.0823389548767565  0.5417464789936564  0.3996499371930824
  0.0833250461179239  0.6672725500011477  0.3999494422009543
  0.0839190187666586  0.7927713447021891  0.4000236212561873
  0.0841305062015095  0.9180064055362401  0.3999463932951640
  0.2092218715163558  0.0434138107687031  0.3999312359044809
  0.2094408901172001  0.1688555778536502  0.4003132121710899
  0.2091332411728220  0.2938147506475827  0.4005228126074425
  0.2054634835513277  0.4164090462857957  0.3995699011758591
  0.2060105624444789  0.5417025880042284  0.3989757997327594
  0.2076960977010766  0.6672049790073384  0.3994487534175807
  0.2084384059148370  0.7925380586731410  0.3998805489017832
  0.2089220181121310  0.9179938758476489  0.3999372895338226
  0.3338578816561219  0.0429802614782765  0.3998110689594486
  0.3344513599351494  0.1688476851602979  0.4002850934020125
  0.3350669481322013  0.2950235089265024  0.4025205675718164
  0.3314837684026827  0.4203627046482233  0.4049184966605258
  0.3293067977680714  0.5418197665564752  0.4013623642337088
  0.3321365629627468  0.6666753080624058  0.3996254936770297
  0.3329191663779150  0.7918756115621646  0.3996075742711372
  0.3334560891471933  0.9173298928397690  0.3998534568202922
  0.4583989089457837  0.0417168637056720  0.3998386150817347
  0.4588899398093269  0.1675280828582680  0.3997295863505370
  0.4597752655326746  0.2938029515261915  0.4003809960883028
  0.4641130701208801  0.4203226100522950  0.4045696633926344
  0.4562698993938560  0.6627116006485567  0.4029796101485368
  0.4574092703291465  0.7899608739312414  0.3999850560100718
  0.4579285876848341  0.9159298325391808  0.3997599002599238
  0.5829147230899364  0.0405060500892962  0.3998738178791072
  0.5833922111665458  0.1660468414122981  0.3998315811123246
  0.5841803135015432  0.2913154344844446  0.3995493835957583
  0.5860930147886640  0.4164117926999895  0.3992502300575613
  0.5876881890294201  0.5418303155409248  0.4007560255253620
  0.5816126219144049  0.6627430403450751  0.4027118767284831
  0.5818382036444268  0.7886004220594232  0.4010534905706762
  0.5824349046301243  0.9147836874569595  0.3999303523499906
  0.7075672703553740  0.0401083002377026  0.3999398056410657
  0.7079266842054995  0.1655101147910595  0.4000032490262052
  0.7085356401246982  0.2909144465042602  0.3998532113586997
  0.7098068310453103  0.4164399933745501  0.3993401117353449
  0.7108292912498854  0.5417098538408489  0.3987497152142663
  0.7096756595318150  0.6666967247707660  0.3993501414805673
  0.7076262709226924  0.7899878835961938  0.3998837560438123
  0.7073807143590157  0.9147981408855195  0.3999061354361421
  0.8326465617053435  0.0405446477739010  0.3998607404790622
  0.8326143197132572  0.1655302858959832  0.3999705319682156
  0.8329628453093046  0.2908593219134347  0.3999936273799859
  0.8336887085404018  0.4162433323324286  0.3999307967814891
  0.8345137772918585  0.5417597999750166  0.3996615946790980
  0.8346232682118457  0.6672480778248920  0.3994467859074119
  0.8340478293053645  0.7919324405591028  0.3996014277415924
  0.8330802021684314  0.9159873211417954  0.3997402759016124
  0.9583970552538272  0.0417767453842876  0.3998405124160494
  0.9577114833644541  0.1660919726316845  0.3997867425729960
  0.9574504490122805  0.2909395404376683  0.3998094467782526
  0.9576303338694023  0.4162351264120318  0.3999265274254583
  0.9584842521312169  0.5418547223326775  0.4000393246376135
  0.9590639531489880  0.6672881054688217  0.3999781541415832
  0.9591901612716290  0.7925805692335661  0.3999336140135958
  0.9589637137752580  0.9173889469619080  0.3998842342462580
  0.4472993828843914  0.5146662452719116  0.4882015811875863
 
  0.00000000E+00  0.00000000E+00  0.00000000E+00
  0.00000000E+00  0.00000000E+00  0.00000000E+00
  0.00000000E+00  0.00000000E+00  0.00000000E+00
  0.00000000E+00  0.00000000E+00  0.00000000E+00
  0.00000000E+00  0.00000000E+00  0.00000000E+00
  0.00000000E+00  0.00000000E+00  0.00000000E+00
  0.00000000E+00  0.00000000E+00  0.00000000E+00
  0.00000000E+00  0.00000000E+00  0.00000000E+00
  0.00000000E+00  0.00000000E+00  0.00000000E+00
  0.00000000E+00  0.00000000E+00  0.00000000E+00
  0.00000000E+00  0.00000000E+00  0.00000000E+00
  0.00000000E+00  0.00000000E+00  0.00000000E+00
  0.00000000E+00  0.00000000E+00  0.00000000E+00
  0.00000000E+00  0.00000000E+00  0.00000000E+00
  0.00000000E+00  0.00000000E+00  0.00000000E+00
  0.00000000E+00  0.00000000E+00  0.00000000E+00
  0.00000000E+00  0.00000000E+00  0.00000000E+00
  0.00000000E+00  0.00000000E+00  0.00000000E+00
  0.00000000E+00  0.00000000E+00  0.00000000E+00
  0.00000000E+00  0.00000000E+00  0.00000000E+00
  0.00000000E+00  0.00000000E+00  0.00000000E+00
  0.00000000E+00  0.00000000E+00  0.00000000E+00
  0.00000000E+00  0.00000000E+00  0.00000000E+00
  0.00000000E+00  0.00000000E+00  0.00000000E+00
  0.00000000E+00  0.00000000E+00  0.00000000E+00
  0.00000000E+00  0.00000000E+00  0.00000000E+00
  0.00000000E+00  0.00000000E+00  0.00000000E+00
  0.00000000E+00  0.00000000E+00  0.00000000E+00
  0.00000000E+00  0.00000000E+00  0.00000000E+00
  0.00000000E+00  0.00000000E+00  0.00000000E+00
  0.00000000E+00  0.00000000E+00  0.00000000E+00
  0.00000000E+00  0.00000000E+00  0.00000000E+00
  0.00000000E+00  0.00000000E+00  0.00000000E+00
  0.00000000E+00  0.00000000E+00  0.00000000E+00
  0.00000000E+00  0.00000000E+00  0.00000000E+00
  0.00000000E+00  0.00000000E+00  0.00000000E+00
  0.00000000E+00  0.00000000E+00  0.00000000E+00
  0.00000000E+00  0.00000000E+00  0.00000000E+00
  0.00000000E+00  0.00000000E+00  0.00000000E+00
  0.00000000E+00  0.00000000E+00  0.00000000E+00
  0.00000000E+00  0.00000000E+00  0.00000000E+00
  0.00000000E+00  0.00000000E+00  0.00000000E+00
  0.00000000E+00  0.00000000E+00  0.00000000E+00
  0.00000000E+00  0.00000000E+00  0.00000000E+00
  0.00000000E+00  0.00000000E+00  0.00000000E+00
  0.00000000E+00  0.00000000E+00  0.00000000E+00
  0.00000000E+00  0.00000000E+00  0.00000000E+00
  0.00000000E+00  0.00000000E+00  0.00000000E+00
  0.00000000E+00  0.00000000E+00  0.00000000E+00
  0.00000000E+00  0.00000000E+00  0.00000000E+00
  0.00000000E+00  0.00000000E+00  0.00000000E+00
  0.00000000E+00  0.00000000E+00  0.00000000E+00
  0.00000000E+00  0.00000000E+00  0.00000000E+00
  0.00000000E+00  0.00000000E+00  0.00000000E+00
  0.00000000E+00  0.00000000E+00  0.00000000E+00
  0.00000000E+00  0.00000000E+00  0.00000000E+00
  0.00000000E+00  0.00000000E+00  0.00000000E+00
  0.00000000E+00  0.00000000E+00  0.00000000E+00
  0.00000000E+00  0.00000000E+00  0.00000000E+00
  0.00000000E+00  0.00000000E+00  0.00000000E+00
  0.00000000E+00  0.00000000E+00  0.00000000E+00
  0.00000000E+00  0.00000000E+00  0.00000000E+00
  0.00000000E+00  0.00000000E+00  0.00000000E+00
  0.00000000E+00  0.00000000E+00  0.00000000E+00
  0.00000000E+00  0.00000000E+00  0.00000000E+00
  0.00000000E+00  0.00000000E+00  0.00000000E+00
  0.00000000E+00  0.00000000E+00  0.00000000E+00
  0.00000000E+00  0.00000000E+00  0.00000000E+00
  0.00000000E+00  0.00000000E+00  0.00000000E+00
  0.00000000E+00  0.00000000E+00  0.00000000E+00
  0.00000000E+00  0.00000000E+00  0.00000000E+00
  0.00000000E+00  0.00000000E+00  0.00000000E+00
  0.00000000E+00  0.00000000E+00  0.00000000E+00
  0.00000000E+00  0.00000000E+00  0.00000000E+00
  0.00000000E+00  0.00000000E+00  0.00000000E+00
  0.00000000E+00  0.00000000E+00  0.00000000E+00
  0.00000000E+00  0.00000000E+00  0.00000000E+00
  0.00000000E+00  0.00000000E+00  0.00000000E+00
  0.00000000E+00  0.00000000E+00  0.00000000E+00
  0.00000000E+00  0.00000000E+00  0.00000000E+00
  0.00000000E+00  0.00000000E+00  0.00000000E+00
  0.00000000E+00  0.00000000E+00  0.00000000E+00
  0.00000000E+00  0.00000000E+00  0.00000000E+00
  0.00000000E+00  0.00000000E+00  0.00000000E+00
  0.00000000E+00  0.00000000E+00  0.00000000E+00
  0.00000000E+00  0.00000000E+00  0.00000000E+00
  0.00000000E+00  0.00000000E+00  0.00000000E+00
  0.00000000E+00  0.00000000E+00  0.00000000E+00
  0.00000000E+00  0.00000000E+00  0.00000000E+00
  0.00000000E+00  0.00000000E+00  0.00000000E+00
  0.00000000E+00  0.00000000E+00  0.00000000E+00
  0.00000000E+00  0.00000000E+00  0.00000000E+00
  0.00000000E+00  0.00000000E+00  0.00000000E+00
  0.00000000E+00  0.00000000E+00  0.00000000E+00
  0.00000000E+00  0.00000000E+00  0.00000000E+00
  0.00000000E+00  0.00000000E+00  0.00000000E+00
  0.00000000E+00  0.00000000E+00  0.00000000E+00
  0.00000000E+00  0.00000000E+00  0.00000000E+00
  0.00000000E+00  0.00000000E+00  0.00000000E+00
  0.00000000E+00  0.00000000E+00  0.00000000E+00
  0.00000000E+00  0.00000000E+00  0.00000000E+00
  0.00000000E+00  0.00000000E+00  0.00000000E+00
  0.00000000E+00  0.00000000E+00  0.00000000E+00
  0.00000000E+00  0.00000000E+00  0.00000000E+00
  0.00000000E+00  0.00000000E+00  0.00000000E+00
  0.00000000E+00  0.00000000E+00  0.00000000E+00
  0.00000000E+00  0.00000000E+00  0.00000000E+00
  0.00000000E+00  0.00000000E+00  0.00000000E+00
  0.00000000E+00  0.00000000E+00  0.00000000E+00
  0.00000000E+00  0.00000000E+00  0.00000000E+00
  0.00000000E+00  0.00000000E+00  0.00000000E+00
  0.00000000E+00  0.00000000E+00  0.00000000E+00
  0.00000000E+00  0.00000000E+00  0.00000000E+00
  0.00000000E+00  0.00000000E+00  0.00000000E+00
  0.00000000E+00  0.00000000E+00  0.00000000E+00
  0.00000000E+00  0.00000000E+00  0.00000000E+00
  0.00000000E+00  0.00000000E+00  0.00000000E+00
  0.00000000E+00  0.00000000E+00  0.00000000E+00
  0.00000000E+00  0.00000000E+00  0.00000000E+00
  0.00000000E+00  0.00000000E+00  0.00000000E+00
  0.00000000E+00  0.00000000E+00  0.00000000E+00
  0.00000000E+00  0.00000000E+00  0.00000000E+00
  0.00000000E+00  0.00000000E+00  0.00000000E+00
  0.00000000E+00  0.00000000E+00  0.00000000E+00
  0.00000000E+00  0.00000000E+00  0.00000000E+00
  0.00000000E+00  0.00000000E+00  0.00000000E+00
  0.00000000E+00  0.00000000E+00  0.00000000E+00
  0.00000000E+00  0.00000000E+00  0.00000000E+00
