Cu1 H1 C124 N2 O2                       
   1.00000000000000     
    19.8093229672032720   -0.0099394457575516    0.1508286054570876
    -9.9135409284452258   17.0384921702169905   -0.1048650697139471
     0.2269225482306383   -0.0514215852414480   29.8232194535281216
   Cu   H    C    N    O 
     1     1   124     2     2
Direct
  0.4370861140819299  0.5000321745190699  0.4110030588120006
  0.5316886249059093  0.5436744354542734  0.5062743089217897
  0.0421339531510556  0.0843134173556435  0.4003166518116064
  0.0411828646502986  0.2084286269391641  0.4005547324550475
  0.0404007274556823  0.3329104951469281  0.4001990302310205
  0.0403783917066350  0.4582979681529681  0.3996631710383102
  0.0412245626665831  0.5837846887557662  0.3992919109078448
  0.0419623911715419  0.7092200008251560  0.3990952947331980
  0.0423306055672914  0.8345636014469172  0.3992088592339100
  0.0424974574245744  0.9597429884480211  0.3997749833580225
  0.1681620651445809  0.0860115332327428  0.4008029184529882
  0.1676753659957622  0.2106111531691579  0.4016106848183485
  0.1656922458173727  0.3341449022031250  0.4016890384623584
  0.1640485046803383  0.4585138105705312  0.4008646162502332
  0.1650932224199250  0.5837612831819707  0.4003565716646043
  0.1662465463020633  0.7091752769929128  0.3996920716628984
  0.1669908897980149  0.8346306633884706  0.3994443978817444
  0.1675548292079194  0.9602203023737169  0.3997855994383370
  0.2927430272860404  0.0857167387492171  0.4007085041893422
  0.2944615981262095  0.2130857200160918  0.4023324395215398
  0.2934291917480735  0.3385004203524408  0.4041132728285395
  0.2879455729844338  0.4594030147979082  0.4028750892941577
  0.2887069226386874  0.5842139446470599  0.4018160818422590
  0.2904599099865289  0.7089484542783598  0.4007307901820758
  0.2915030297906758  0.8341502307798239  0.4000286308331240
  0.2920717925112289  0.9596945736771336  0.3999870498560681
  0.4171050699559600  0.0841771113124920  0.4003691897556278
  0.4177620139141436  0.2102933952625370  0.4017312270837850
  0.4211022028126875  0.3389059400431621  0.4029472717553630
  0.4144586141866247  0.7060577776693943  0.4020595615049788
  0.4159048940482564  0.8324261478094996  0.4007585856078899
  0.4165308797634897  0.9582909606655966  0.4001175461237989
  0.5415021743931185  0.0824835556199292  0.4000195219700252
  0.5421053136729772  0.2079387737023438  0.4006027935864089
  0.5433010041112495  0.3330854426197503  0.4021905377203718
  0.5447607122674715  0.4567341589506263  0.4036803916109575
  0.5439027942252658  0.5792974870299856  0.4066398236553798
  0.5379832392151958  0.7027566376379266  0.4035237523325605
  0.5400192716745971  0.8304990736942977  0.4015216056951695
  0.5409965367090518  0.9567540413048228  0.4002568245298984
  0.6660210631880752  0.0817984715830614  0.3996470369124171
  0.6665817573592825  0.2073227071364926  0.3996294691950438
  0.6674301853914834  0.3327247911735675  0.4004528768647866
  0.6689365816792682  0.4581460363283444  0.4021554817574674
  0.6693453073543428  0.5828529260069056  0.4030189827122646
  0.6656421305753967  0.7058275379262573  0.4031111370612763
  0.6645491458005115  0.8301446182316361  0.4018771590435041
  0.6654494198378985  0.9561500550817053  0.4003739588082935
  0.7907574141253437  0.0817877803980223  0.3995150447223333
  0.7910806250604261  0.2071249346602842  0.3991353254025762
  0.7917179008174459  0.3326209202507330  0.3993024215476825
  0.7926414163021175  0.4581716131422765  0.3998522445522801
  0.7933166500819033  0.5835135966929317  0.4006561147915150
  0.7924535963574652  0.7082898866275721  0.4012954605347187
  0.7909907493920725  0.8321823070228681  0.4009582990209669
  0.7904289065019308  0.9565687313351611  0.4002728555505135
  0.9160437749028379  0.0826081647978939  0.3998556019265715
  0.9158192114197647  0.2074197689761713  0.3995640030712219
  0.9159488550208076  0.3326598674419854  0.3992597317748615
  0.9164950444864308  0.4581495884742449  0.3991381714958580
  0.9173152848404537  0.5837200688460000  0.3993126237602171
  0.9174718072350950  0.7090632794888830  0.3995983685476153
  0.9171535867388497  0.8338672769613974  0.3999335721006000
  0.9165303385606609  0.9582235624668280  0.4000377016278606
  0.0844655966171444  0.0434837244906483  0.4002918192297645
  0.0838636841174671  0.1678645456792453  0.4007568299097758
  0.0823576008961747  0.2917571703299592  0.4008592072787252
  0.0814364795426975  0.4164987588641856  0.4001995014748801
  0.0821463304664608  0.5418605744406936  0.3996888602507915
  0.0831174872597069  0.6673762215212347  0.3993191105662343
  0.0838052193514149  0.7928690473260317  0.3991280580499220
  0.0841622232079891  0.9182139318036446  0.3995240092431087
  0.2094244606723547  0.0439048067336962  0.4004092193189724
  0.2102440173223118  0.1699683856112744  0.4017323921790936
  0.2091107804226242  0.2943102427616383  0.4024095742897705
  0.2053958637220263  0.4172300138234419  0.4015439808873209
  0.2057591028679939  0.5418816455999670  0.4011310177285256
  0.2073624927365304  0.6673399543336787  0.4002314709104693
  0.2082750181785746  0.7927157562318013  0.3997014981569686
  0.2089036009946959  0.9182461728239478  0.3997192339480273
  0.3338845391474674  0.0433145552067502  0.4003130755099252
  0.3347619366502686  0.1695863685714786  0.4015746523062499
  0.3366825008982973  0.2973633924867167  0.4033900895154757
  0.3305900700559497  0.4208463135961025  0.4056826981473369
  0.3298348088710833  0.5432960149933385  0.4021052325928747
  0.3314457543725247  0.6669986805820222  0.4015026029511702
  0.3327376663342314  0.7921323602530297  0.4004869887780776
  0.3333997620137444  0.9175715219101169  0.4000227626300748
  0.4583729559016927  0.0418025917666721  0.4001447601489208
  0.4589414100486633  0.1676852584317912  0.4008840036348369
  0.4602556821827237  0.2940240209192391  0.4025290959506285
  0.4536022287305981  0.6611770766645653  0.4026010574236062
  0.4570105354778186  0.7897956805470668  0.4015390101979702
  0.4577794595058694  0.9159120983101539  0.4003072387417531
  0.5828475048117479  0.0403672847832350  0.3999377546633538
  0.5833607175914868  0.1659170403455354  0.4000295884245598
  0.5843411633907505  0.2911416329415538  0.4010334578482052
  0.5859976640256402  0.4158330641656473  0.4031020865849234
  0.5866997419758053  0.5406972703230396  0.4046044581323089
  0.5811930292748073  0.6616222946416582  0.4047529525766933
  0.5802908417767967  0.7870213383212896  0.4024130758386900
  0.5821097381136298  0.9143458149671611  0.4006645017113839
  0.7073638383895307  0.0398156153014903  0.3997291773723857
  0.7078953151511749  0.1654113145135664  0.3993570216242791
  0.7085765493835450  0.2908619697117482  0.3996795580168243
  0.7096760430718202  0.4163016121169164  0.4007732245613093
  0.7106994660534697  0.5415348545659413  0.4019288268879507
  0.7090670805835171  0.6659556862788675  0.4026278353544598
  0.7071315642280862  0.7894927439680550  0.4019556051066492
  0.7067053502493824  0.9140630062488685  0.4008114897958232
  0.8324466039165462  0.0402793106469179  0.3997634440677485
  0.8325614443201347  0.1654253867780385  0.3992800137306113
  0.8328982113654306  0.2907768693876744  0.3991060689113708
  0.8335700045061131  0.4162255887109113  0.3992983172164050
  0.8343905245894013  0.5417018942146812  0.3998420055555326
  0.8343742484251352  0.6670886234186980  0.4004598086937666
  0.8336763331714687  0.7916174027757188  0.4007246969193914
  0.8327803844457312  0.9157309551099700  0.4003533617452066
  0.9584000702484481  0.0418129816313822  0.4000433181324718
  0.9577491175262355  0.1661608947039718  0.3999517458059769
  0.9573629611214809  0.2909333064484163  0.3996137386214851
  0.9574838357313792  0.4162740886136080  0.3993002689356965
  0.9583108118328142  0.5418402827291288  0.3991408746244771
  0.9588868881187452  0.6673330200990060  0.3992282510716625
  0.9590420446720633  0.7925747473989530  0.3994849347369579
  0.9588862960711598  0.9174293472222577  0.3998306221073668
  0.4093936028345517  0.5802909645900530  0.4013017762689681
  0.4653833865418804  0.4197709485590288  0.4018797677165666
  0.4892189048025167  0.4896890721810640  0.5013150107875511
  0.4316755679211667  0.5016824711436654  0.4805852735036909
 
  0.00000000E+00  0.00000000E+00  0.00000000E+00
  0.00000000E+00  0.00000000E+00  0.00000000E+00
  0.00000000E+00  0.00000000E+00  0.00000000E+00
  0.00000000E+00  0.00000000E+00  0.00000000E+00
  0.00000000E+00  0.00000000E+00  0.00000000E+00
  0.00000000E+00  0.00000000E+00  0.00000000E+00
  0.00000000E+00  0.00000000E+00  0.00000000E+00
  0.00000000E+00  0.00000000E+00  0.00000000E+00
  0.00000000E+00  0.00000000E+00  0.00000000E+00
  0.00000000E+00  0.00000000E+00  0.00000000E+00
  0.00000000E+00  0.00000000E+00  0.00000000E+00
  0.00000000E+00  0.00000000E+00  0.00000000E+00
  0.00000000E+00  0.00000000E+00  0.00000000E+00
  0.00000000E+00  0.00000000E+00  0.00000000E+00
  0.00000000E+00  0.00000000E+00  0.00000000E+00
  0.00000000E+00  0.00000000E+00  0.00000000E+00
  0.00000000E+00  0.00000000E+00  0.00000000E+00
  0.00000000E+00  0.00000000E+00  0.00000000E+00
  0.00000000E+00  0.00000000E+00  0.00000000E+00
  0.00000000E+00  0.00000000E+00  0.00000000E+00
  0.00000000E+00  0.00000000E+00  0.00000000E+00
  0.00000000E+00  0.00000000E+00  0.00000000E+00
  0.00000000E+00  0.00000000E+00  0.00000000E+00
  0.00000000E+00  0.00000000E+00  0.00000000E+00
  0.00000000E+00  0.00000000E+00  0.00000000E+00
  0.00000000E+00  0.00000000E+00  0.00000000E+00
  0.00000000E+00  0.00000000E+00  0.00000000E+00
  0.00000000E+00  0.00000000E+00  0.00000000E+00
  0.00000000E+00  0.00000000E+00  0.00000000E+00
  0.00000000E+00  0.00000000E+00  0.00000000E+00
  0.00000000E+00  0.00000000E+00  0.00000000E+00
  0.00000000E+00  0.00000000E+00  0.00000000E+00
  0.00000000E+00  0.00000000E+00  0.00000000E+00
  0.00000000E+00  0.00000000E+00  0.00000000E+00
  0.00000000E+00  0.00000000E+00  0.00000000E+00
  0.00000000E+00  0.00000000E+00  0.00000000E+00
  0.00000000E+00  0.00000000E+00  0.00000000E+00
  0.00000000E+00  0.00000000E+00  0.00000000E+00
  0.00000000E+00  0.00000000E+00  0.00000000E+00
  0.00000000E+00  0.00000000E+00  0.00000000E+00
  0.00000000E+00  0.00000000E+00  0.00000000E+00
  0.00000000E+00  0.00000000E+00  0.00000000E+00
  0.00000000E+00  0.00000000E+00  0.00000000E+00
  0.00000000E+00  0.00000000E+00  0.00000000E+00
  0.00000000E+00  0.00000000E+00  0.00000000E+00
  0.00000000E+00  0.00000000E+00  0.00000000E+00
  0.00000000E+00  0.00000000E+00  0.00000000E+00
  0.00000000E+00  0.00000000E+00  0.00000000E+00
  0.00000000E+00  0.00000000E+00  0.00000000E+00
  0.00000000E+00  0.00000000E+00  0.00000000E+00
  0.00000000E+00  0.00000000E+00  0.00000000E+00
  0.00000000E+00  0.00000000E+00  0.00000000E+00
  0.00000000E+00  0.00000000E+00  0.00000000E+00
  0.00000000E+00  0.00000000E+00  0.00000000E+00
  0.00000000E+00  0.00000000E+00  0.00000000E+00
  0.00000000E+00  0.00000000E+00  0.00000000E+00
  0.00000000E+00  0.00000000E+00  0.00000000E+00
  0.00000000E+00  0.00000000E+00  0.00000000E+00
  0.00000000E+00  0.00000000E+00  0.00000000E+00
  0.00000000E+00  0.00000000E+00  0.00000000E+00
  0.00000000E+00  0.00000000E+00  0.00000000E+00
  0.00000000E+00  0.00000000E+00  0.00000000E+00
  0.00000000E+00  0.00000000E+00  0.00000000E+00
  0.00000000E+00  0.00000000E+00  0.00000000E+00
  0.00000000E+00  0.00000000E+00  0.00000000E+00
  0.00000000E+00  0.00000000E+00  0.00000000E+00
  0.00000000E+00  0.00000000E+00  0.00000000E+00
  0.00000000E+00  0.00000000E+00  0.00000000E+00
  0.00000000E+00  0.00000000E+00  0.00000000E+00
  0.00000000E+00  0.00000000E+00  0.00000000E+00
  0.00000000E+00  0.00000000E+00  0.00000000E+00
  0.00000000E+00  0.00000000E+00  0.00000000E+00
  0.00000000E+00  0.00000000E+00  0.00000000E+00
  0.00000000E+00  0.00000000E+00  0.00000000E+00
  0.00000000E+00  0.00000000E+00  0.00000000E+00
  0.00000000E+00  0.00000000E+00  0.00000000E+00
  0.00000000E+00  0.00000000E+00  0.00000000E+00
  0.00000000E+00  0.00000000E+00  0.00000000E+00
  0.00000000E+00  0.00000000E+00  0.00000000E+00
  0.00000000E+00  0.00000000E+00  0.00000000E+00
  0.00000000E+00  0.00000000E+00  0.00000000E+00
  0.00000000E+00  0.00000000E+00  0.00000000E+00
  0.00000000E+00  0.00000000E+00  0.00000000E+00
  0.00000000E+00  0.00000000E+00  0.00000000E+00
  0.00000000E+00  0.00000000E+00  0.00000000E+00
  0.00000000E+00  0.00000000E+00  0.00000000E+00
  0.00000000E+00  0.00000000E+00  0.00000000E+00
  0.00000000E+00  0.00000000E+00  0.00000000E+00
  0.00000000E+00  0.00000000E+00  0.00000000E+00
  0.00000000E+00  0.00000000E+00  0.00000000E+00
  0.00000000E+00  0.00000000E+00  0.00000000E+00
  0.00000000E+00  0.00000000E+00  0.00000000E+00
  0.00000000E+00  0.00000000E+00  0.00000000E+00
  0.00000000E+00  0.00000000E+00  0.00000000E+00
  0.00000000E+00  0.00000000E+00  0.00000000E+00
  0.00000000E+00  0.00000000E+00  0.00000000E+00
  0.00000000E+00  0.00000000E+00  0.00000000E+00
  0.00000000E+00  0.00000000E+00  0.00000000E+00
  0.00000000E+00  0.00000000E+00  0.00000000E+00
  0.00000000E+00  0.00000000E+00  0.00000000E+00
  0.00000000E+00  0.00000000E+00  0.00000000E+00
  0.00000000E+00  0.00000000E+00  0.00000000E+00
  0.00000000E+00  0.00000000E+00  0.00000000E+00
  0.00000000E+00  0.00000000E+00  0.00000000E+00
  0.00000000E+00  0.00000000E+00  0.00000000E+00
  0.00000000E+00  0.00000000E+00  0.00000000E+00
  0.00000000E+00  0.00000000E+00  0.00000000E+00
  0.00000000E+00  0.00000000E+00  0.00000000E+00
  0.00000000E+00  0.00000000E+00  0.00000000E+00
  0.00000000E+00  0.00000000E+00  0.00000000E+00
  0.00000000E+00  0.00000000E+00  0.00000000E+00
  0.00000000E+00  0.00000000E+00  0.00000000E+00
  0.00000000E+00  0.00000000E+00  0.00000000E+00
  0.00000000E+00  0.00000000E+00  0.00000000E+00
  0.00000000E+00  0.00000000E+00  0.00000000E+00
  0.00000000E+00  0.00000000E+00  0.00000000E+00
  0.00000000E+00  0.00000000E+00  0.00000000E+00
  0.00000000E+00  0.00000000E+00  0.00000000E+00
  0.00000000E+00  0.00000000E+00  0.00000000E+00
  0.00000000E+00  0.00000000E+00  0.00000000E+00
  0.00000000E+00  0.00000000E+00  0.00000000E+00
  0.00000000E+00  0.00000000E+00  0.00000000E+00
  0.00000000E+00  0.00000000E+00  0.00000000E+00
  0.00000000E+00  0.00000000E+00  0.00000000E+00
  0.00000000E+00  0.00000000E+00  0.00000000E+00
  0.00000000E+00  0.00000000E+00  0.00000000E+00
  0.00000000E+00  0.00000000E+00  0.00000000E+00
  0.00000000E+00  0.00000000E+00  0.00000000E+00
  0.00000000E+00  0.00000000E+00  0.00000000E+00
  0.00000000E+00  0.00000000E+00  0.00000000E+00
