Ni1 H1 C125 N1 O2                       
   1.00000000000000     
    19.7811179378837458   -0.0222348518143090    0.2838329764503148
    -9.9080534116470016   17.0610371715244895   -0.1661165987212285
     0.4283426266203185   -0.0484446657092440   29.8414458079553420
   Ni   H    C    N    O 
     1     1   125     1     2
Direct
  0.4358020115537542  0.4992233653869391  0.4204200209281623
  0.5273912850595082  0.5275406634827320  0.5218691958001926
  0.0418951732658215  0.0840893742348783  0.4006239706356212
  0.0416197997069645  0.2086197465083686  0.4001731757866196
  0.0412801073295554  0.3331579237609574  0.3997292018447425
  0.0410679670836984  0.4582703917827757  0.3996451186077223
  0.0412111798053871  0.5834828474176632  0.3994351739269035
  0.0414850196406675  0.7087007465593373  0.3992460193808398
  0.0417264172887641  0.8340217021660834  0.3996099675265867
  0.0418435794504930  0.9591799031422354  0.4003542280671297
  0.1672901273230707  0.0849703096870087  0.4010120650682509
  0.1676689353647873  0.2102036232686402  0.4008336623227748
  0.1669998499915408  0.3344161410772628  0.3995057981480770
  0.1656699754070416  0.4586279789665397  0.3995780672901574
  0.1654899667687744  0.5835449899947065  0.3998225967012274
  0.1659943914645083  0.7087778480750941  0.3995671376635386
  0.1665685932014682  0.8340947474609024  0.3995211250878299
  0.1669456475042495  0.9595465013741347  0.4003084824941965
  0.2921697471687708  0.0848419018485131  0.4014045712702838
  0.2929525491007254  0.2110964710814898  0.4024104452087656
  0.2942993705927321  0.3377132510378615  0.4006528750439884
  0.2913302426852766  0.4598556126987958  0.3988494139417043
  0.2895766854193269  0.5844043633235430  0.4001356859314598
  0.2903946182394535  0.7089951322241106  0.4003842222432539
  0.2912110927508706  0.8339266200317752  0.3999216886258665
  0.2916498944565120  0.9591928925507318  0.4001461520286966
  0.4167472363347500  0.0837848805314536  0.4007092808367076
  0.4171977114485088  0.2095003966475488  0.4024062673803783
  0.4184991714555863  0.3364803020826770  0.4061238016313808
  0.4145205544101387  0.7071555257835413  0.4018057024128723
  0.4158171807433675  0.8328448332116238  0.4006679314648096
  0.4163545373384849  0.9583117979546287  0.4001400165341664
  0.5413764090004562  0.0826069642590710  0.4002812332190189
  0.5418360637222364  0.2078726353871190  0.4010193683374510
  0.5423613060921113  0.3328130352704832  0.4026584351072415
  0.5436014526065591  0.4569793709780399  0.4053426632523696
  0.5433780723310662  0.5791731748115154  0.4053741192129721
  0.5377955816845343  0.7037141719857445  0.4035755134027781
  0.5400577826063540  0.8311737917760524  0.4016009078222496
  0.5409427493287424  0.9571670157462862  0.4006049520938006
  0.6660866987034098  0.0821451288993771  0.4000969038148838
  0.6664950034204580  0.2074482355804079  0.3999077746575566
  0.6669562193484779  0.3325609470873445  0.4002928490399285
  0.6678762746347573  0.4577211318704713  0.4004042503631950
  0.6684941466147549  0.5829910688898465  0.4001417153025599
  0.6645449342906176  0.7054752536720272  0.4010077888259360
  0.6644247221378095  0.8305539927036278  0.4012896957111352
  0.6655247063130147  0.9566365768685685  0.4007543759630110
  0.7909794049195398  0.0821871262556328  0.3999455130809011
  0.7913112351998137  0.2074318672527440  0.3995218085714569
  0.7916645555148278  0.3326991742907524  0.3992569181421501
  0.7921734308760264  0.4580273009769158  0.3992516955956873
  0.7924237014379685  0.5831610152649276  0.3992027376829768
  0.7917042033821602  0.7081165304542338  0.3994266343670034
  0.7904179423713202  0.8320019186353065  0.3999875827720629
  0.7904333877273331  0.9568532476499101  0.4002958019975793
  0.9161670838893983  0.0828129269911599  0.4002328820276446
  0.9162649986884333  0.2077988723117556  0.3998968271910996
  0.9163593112928154  0.3328882883026978  0.3995475006188585
  0.9165935512430252  0.4580829060919669  0.3992308615988378
  0.9168484113002719  0.5833667143166892  0.3991321060828099
  0.9167846186447335  0.7086209593580222  0.3992301046011590
  0.9165383177759168  0.8334889913952352  0.3997444507462546
  0.9162108506168423  0.9580805236516809  0.4002217063862403
  0.0837466346326181  0.0427762601310064  0.4006842446242658
  0.0838756404006844  0.1676993260616015  0.4005638877258946
  0.0832809201175522  0.2920464670511009  0.3997706914320602
  0.0826769147528097  0.4167302958384198  0.3996693539758311
  0.0824592950927894  0.5417121227436184  0.3996555690048780
  0.0828564192106640  0.6669994838033446  0.3993703397467741
  0.0833060833848407  0.7923330664639963  0.3993639230861561
  0.0834830847551444  0.9176223798424914  0.4001055229129165
  0.2087515638987156  0.0430877421431575  0.4009521675503152
  0.2092311743591324  0.1686872277463252  0.4013277448686807
  0.2098916273215821  0.2941413428803585  0.4001951162182422
  0.2078245448975480  0.4177222176279756  0.3992297890975749
  0.2066825239861316  0.5420013493167559  0.3996957777044869
  0.2073459614237265  0.6671420522396971  0.3999207072545445
  0.2079459625502622  0.7922570589737461  0.3996023320521473
  0.2084042926980771  0.9176426550255385  0.3999482153048390
  0.3334623440286819  0.0426773182372173  0.4007554776651716
  0.3340706469271097  0.1684097673920348  0.4023549227651486
  0.3348527347338717  0.2945353853341430  0.4034207294665251
  0.3348172096418907  0.4210978149870428  0.3990094062142191
  0.3318816859337801  0.5443972059025484  0.4005684923174826
  0.3316404855663677  0.6673024488710126  0.4008688711010535
  0.3325802963916900  0.7921570277215295  0.4003505950936201
  0.3331240355506040  0.9173071629700260  0.3999942196114361
  0.4581758775536713  0.0417111103482242  0.4002787875628826
  0.4585253248006964  0.1671884067261047  0.4013303035806999
  0.4592342322596323  0.2930578475277770  0.4037343772033921
  0.4619538887850680  0.4190890371457741  0.4096995601125926
  0.4535844740506008  0.6626551625930972  0.4034904639578372
  0.4570378752972886  0.7906036495343116  0.4013706818600937
  0.4577049061575096  0.9162102034669388  0.4004176807966360
  0.5828147015740015  0.0406723458837561  0.4003024385676710
  0.5832245561047742  0.1659973610915912  0.4003843144813430
  0.5837892217328999  0.2910496065838402  0.4012675809307140
  0.5848010441616651  0.4156976809319701  0.4024198881434984
  0.5858192182699753  0.5407290834383858  0.4033305869365407
  0.5795512878760221  0.6613934692895498  0.4032842772601199
  0.5803043765419460  0.7877015873612478  0.4022052722017264
  0.5821632596949087  0.9149070761973377  0.4010237616221062
  0.7075232695906877  0.0402465179324381  0.4002165242993385
  0.7079939946052676  0.1657032310808688  0.3997387136447514
  0.7083579549077399  0.2909160584973591  0.3997051739985835
  0.7090604260382918  0.4162018098871485  0.3999052906122103
  0.7096252595415109  0.5412269497160906  0.3996584445646292
  0.7081831168009174  0.6659285975427949  0.3998901786300877
  0.7063652766853679  0.7893152721160916  0.4006553809433555
  0.7067065303640447  0.9144665452742160  0.4007741425707678
  0.8325448924336527  0.0405735031776970  0.4001146418705446
  0.8328345158924080  0.1657806585709807  0.3997239295266226
  0.8331538950550694  0.2910748493156134  0.3993484287706508
  0.8335214880746804  0.4163009485419238  0.3991487337178370
  0.8337876536499422  0.5415074604024142  0.3991418611236313
  0.8335576804076084  0.6667869464647964  0.3992087158531348
  0.8330422172224345  0.7913855029560608  0.3996449694402813
  0.8324403038427164  0.9156444463606945  0.4001240477896602
  0.9581886843038276  0.0417019704213999  0.4004145690669105
  0.9580705001772074  0.1664149761917102  0.4001475150692357
  0.9579544879938524  0.2912948712309529  0.3997891299160941
  0.9579464743642845  0.4164103133523938  0.3995049884626241
  0.9582082904981348  0.5417105193376699  0.3992250902600176
  0.9583523790105630  0.6669386577135796  0.3991724397027738
  0.9583698001130543  0.7921071652711760  0.3995104412617536
  0.9583141062109704  0.9170300900283195  0.4001211298066139
  0.4105660516108003  0.5825144839663636  0.4038596818016558
  0.4815365151559448  0.4869961847962330  0.5061955592488516
  0.4644331612617236  0.5338890180882743  0.4778724666116645
 
  0.00000000E+00  0.00000000E+00  0.00000000E+00
  0.00000000E+00  0.00000000E+00  0.00000000E+00
  0.00000000E+00  0.00000000E+00  0.00000000E+00
  0.00000000E+00  0.00000000E+00  0.00000000E+00
  0.00000000E+00  0.00000000E+00  0.00000000E+00
  0.00000000E+00  0.00000000E+00  0.00000000E+00
  0.00000000E+00  0.00000000E+00  0.00000000E+00
  0.00000000E+00  0.00000000E+00  0.00000000E+00
  0.00000000E+00  0.00000000E+00  0.00000000E+00
  0.00000000E+00  0.00000000E+00  0.00000000E+00
  0.00000000E+00  0.00000000E+00  0.00000000E+00
  0.00000000E+00  0.00000000E+00  0.00000000E+00
  0.00000000E+00  0.00000000E+00  0.00000000E+00
  0.00000000E+00  0.00000000E+00  0.00000000E+00
  0.00000000E+00  0.00000000E+00  0.00000000E+00
  0.00000000E+00  0.00000000E+00  0.00000000E+00
  0.00000000E+00  0.00000000E+00  0.00000000E+00
  0.00000000E+00  0.00000000E+00  0.00000000E+00
  0.00000000E+00  0.00000000E+00  0.00000000E+00
  0.00000000E+00  0.00000000E+00  0.00000000E+00
  0.00000000E+00  0.00000000E+00  0.00000000E+00
  0.00000000E+00  0.00000000E+00  0.00000000E+00
  0.00000000E+00  0.00000000E+00  0.00000000E+00
  0.00000000E+00  0.00000000E+00  0.00000000E+00
  0.00000000E+00  0.00000000E+00  0.00000000E+00
  0.00000000E+00  0.00000000E+00  0.00000000E+00
  0.00000000E+00  0.00000000E+00  0.00000000E+00
  0.00000000E+00  0.00000000E+00  0.00000000E+00
  0.00000000E+00  0.00000000E+00  0.00000000E+00
  0.00000000E+00  0.00000000E+00  0.00000000E+00
  0.00000000E+00  0.00000000E+00  0.00000000E+00
  0.00000000E+00  0.00000000E+00  0.00000000E+00
  0.00000000E+00  0.00000000E+00  0.00000000E+00
  0.00000000E+00  0.00000000E+00  0.00000000E+00
  0.00000000E+00  0.00000000E+00  0.00000000E+00
  0.00000000E+00  0.00000000E+00  0.00000000E+00
  0.00000000E+00  0.00000000E+00  0.00000000E+00
  0.00000000E+00  0.00000000E+00  0.00000000E+00
  0.00000000E+00  0.00000000E+00  0.00000000E+00
  0.00000000E+00  0.00000000E+00  0.00000000E+00
  0.00000000E+00  0.00000000E+00  0.00000000E+00
  0.00000000E+00  0.00000000E+00  0.00000000E+00
  0.00000000E+00  0.00000000E+00  0.00000000E+00
  0.00000000E+00  0.00000000E+00  0.00000000E+00
  0.00000000E+00  0.00000000E+00  0.00000000E+00
  0.00000000E+00  0.00000000E+00  0.00000000E+00
  0.00000000E+00  0.00000000E+00  0.00000000E+00
  0.00000000E+00  0.00000000E+00  0.00000000E+00
  0.00000000E+00  0.00000000E+00  0.00000000E+00
  0.00000000E+00  0.00000000E+00  0.00000000E+00
  0.00000000E+00  0.00000000E+00  0.00000000E+00
  0.00000000E+00  0.00000000E+00  0.00000000E+00
  0.00000000E+00  0.00000000E+00  0.00000000E+00
  0.00000000E+00  0.00000000E+00  0.00000000E+00
  0.00000000E+00  0.00000000E+00  0.00000000E+00
  0.00000000E+00  0.00000000E+00  0.00000000E+00
  0.00000000E+00  0.00000000E+00  0.00000000E+00
  0.00000000E+00  0.00000000E+00  0.00000000E+00
  0.00000000E+00  0.00000000E+00  0.00000000E+00
  0.00000000E+00  0.00000000E+00  0.00000000E+00
  0.00000000E+00  0.00000000E+00  0.00000000E+00
  0.00000000E+00  0.00000000E+00  0.00000000E+00
  0.00000000E+00  0.00000000E+00  0.00000000E+00
  0.00000000E+00  0.00000000E+00  0.00000000E+00
  0.00000000E+00  0.00000000E+00  0.00000000E+00
  0.00000000E+00  0.00000000E+00  0.00000000E+00
  0.00000000E+00  0.00000000E+00  0.00000000E+00
  0.00000000E+00  0.00000000E+00  0.00000000E+00
  0.00000000E+00  0.00000000E+00  0.00000000E+00
  0.00000000E+00  0.00000000E+00  0.00000000E+00
  0.00000000E+00  0.00000000E+00  0.00000000E+00
  0.00000000E+00  0.00000000E+00  0.00000000E+00
  0.00000000E+00  0.00000000E+00  0.00000000E+00
  0.00000000E+00  0.00000000E+00  0.00000000E+00
  0.00000000E+00  0.00000000E+00  0.00000000E+00
  0.00000000E+00  0.00000000E+00  0.00000000E+00
  0.00000000E+00  0.00000000E+00  0.00000000E+00
  0.00000000E+00  0.00000000E+00  0.00000000E+00
  0.00000000E+00  0.00000000E+00  0.00000000E+00
  0.00000000E+00  0.00000000E+00  0.00000000E+00
  0.00000000E+00  0.00000000E+00  0.00000000E+00
  0.00000000E+00  0.00000000E+00  0.00000000E+00
  0.00000000E+00  0.00000000E+00  0.00000000E+00
  0.00000000E+00  0.00000000E+00  0.00000000E+00
  0.00000000E+00  0.00000000E+00  0.00000000E+00
  0.00000000E+00  0.00000000E+00  0.00000000E+00
  0.00000000E+00  0.00000000E+00  0.00000000E+00
  0.00000000E+00  0.00000000E+00  0.00000000E+00
  0.00000000E+00  0.00000000E+00  0.00000000E+00
  0.00000000E+00  0.00000000E+00  0.00000000E+00
  0.00000000E+00  0.00000000E+00  0.00000000E+00
  0.00000000E+00  0.00000000E+00  0.00000000E+00
  0.00000000E+00  0.00000000E+00  0.00000000E+00
  0.00000000E+00  0.00000000E+00  0.00000000E+00
  0.00000000E+00  0.00000000E+00  0.00000000E+00
  0.00000000E+00  0.00000000E+00  0.00000000E+00
  0.00000000E+00  0.00000000E+00  0.00000000E+00
  0.00000000E+00  0.00000000E+00  0.00000000E+00
  0.00000000E+00  0.00000000E+00  0.00000000E+00
  0.00000000E+00  0.00000000E+00  0.00000000E+00
  0.00000000E+00  0.00000000E+00  0.00000000E+00
  0.00000000E+00  0.00000000E+00  0.00000000E+00
  0.00000000E+00  0.00000000E+00  0.00000000E+00
  0.00000000E+00  0.00000000E+00  0.00000000E+00
  0.00000000E+00  0.00000000E+00  0.00000000E+00
  0.00000000E+00  0.00000000E+00  0.00000000E+00
  0.00000000E+00  0.00000000E+00  0.00000000E+00
  0.00000000E+00  0.00000000E+00  0.00000000E+00
  0.00000000E+00  0.00000000E+00  0.00000000E+00
  0.00000000E+00  0.00000000E+00  0.00000000E+00
  0.00000000E+00  0.00000000E+00  0.00000000E+00
  0.00000000E+00  0.00000000E+00  0.00000000E+00
  0.00000000E+00  0.00000000E+00  0.00000000E+00
  0.00000000E+00  0.00000000E+00  0.00000000E+00
  0.00000000E+00  0.00000000E+00  0.00000000E+00
  0.00000000E+00  0.00000000E+00  0.00000000E+00
  0.00000000E+00  0.00000000E+00  0.00000000E+00
  0.00000000E+00  0.00000000E+00  0.00000000E+00
  0.00000000E+00  0.00000000E+00  0.00000000E+00
  0.00000000E+00  0.00000000E+00  0.00000000E+00
  0.00000000E+00  0.00000000E+00  0.00000000E+00
  0.00000000E+00  0.00000000E+00  0.00000000E+00
  0.00000000E+00  0.00000000E+00  0.00000000E+00
  0.00000000E+00  0.00000000E+00  0.00000000E+00
  0.00000000E+00  0.00000000E+00  0.00000000E+00
  0.00000000E+00  0.00000000E+00  0.00000000E+00
  0.00000000E+00  0.00000000E+00  0.00000000E+00
  0.00000000E+00  0.00000000E+00  0.00000000E+00
  0.00000000E+00  0.00000000E+00  0.00000000E+00
  0.00000000E+00  0.00000000E+00  0.00000000E+00
