Cd1 H1 C126 O2                          
   1.00000000000000     
    19.8797208173685007   -0.0003014645448372    0.1386547854490086
    -9.9400831763857180   17.0871310308174493    0.0182462020520434
     0.2066471423580676    0.1519306088936637   29.6250445181505739
   Cd   H    C    O 
     1     1   126     2
Direct
  0.4368275632204982  0.4995192515127966  0.4145041297400908
  0.5284573520076473  0.5462336469783486  0.5342481065213430
  0.0413969093811088  0.0835503081594521  0.3996968929424549
  0.0399708725868016  0.2074651733692103  0.3996351100864678
  0.0393088353816423  0.3322986745182174  0.3991554929009302
  0.0395683943378754  0.4581241906865061  0.3986000776248978
  0.0409405163421168  0.5838398448325517  0.3983919448387843
  0.0421032675771261  0.7093234483747810  0.3986097610967530
  0.0425379540803004  0.8346517297571623  0.3990508343674462
  0.0424215730398691  0.9594917610436156  0.3994587900032275
  0.1673770716599920  0.0850567123477155  0.4003892808547210
  0.1658425978801535  0.2087356921611946  0.4008866363177339
  0.1635103941599302  0.3324610556688111  0.4007139423709939
  0.1621601850679629  0.4580231808967388  0.3996917561505073
  0.1640171211557630  0.5837824245329101  0.3990005689584160
  0.1660789144595473  0.7093653076197611  0.3988639990477079
  0.1669737428566427  0.8346657492465926  0.3990894195581320
  0.1674106213320938  0.9599456426823120  0.3996450694624531
  0.2925002650630813  0.0850647972450317  0.4003823585019768
  0.2930156534767808  0.2112948434300060  0.4021287682825437
  0.2900052272230377  0.3350241216059657  0.4042873630119022
  0.2836343221574886  0.4573068765372286  0.4038633522174762
  0.2865730555677419  0.5841888648957698  0.4010746120508880
  0.2900571488390654  0.7092275862848463  0.3997313626097319
  0.2912637387339083  0.8342234099170404  0.3993039276129199
  0.2919478145877283  0.9594919126551840  0.3994965215371357
  0.4170001307911440  0.0835550908540721  0.3997166137854425
  0.4176837728339907  0.2087638681581331  0.4009189228126040
  0.4196394633581909  0.3350586270211353  0.4043126007054353
  0.4070150954699941  0.5834348971124675  0.4067688407278485
  0.4143617954767524  0.7078121615467501  0.4019951145998885
  0.4157422572777165  0.8331089385373224  0.4000378192047545
  0.4164426573058724  0.9583122444538337  0.3994504983591934
  0.5415259761835525  0.0823159313695252  0.3993369343045535
  0.5423131051443383  0.2074813266724748  0.3996266476231467
  0.5437177906257733  0.3324935851495891  0.4007796355557604
  0.5482647192905946  0.4573365354737874  0.4038550044511768
  0.5508945867496676  0.5834527181282482  0.4064355028871121
  0.5398653688301098  0.7051602296510083  0.4043222095265923
  0.5402618033815607  0.8312962212164465  0.4013328504162196
  0.5409635124187856  0.9569569364037555  0.3998038163184510
  0.6659802750462205  0.0817442769938484  0.3993518621336243
  0.6666442296918115  0.2070572325868410  0.3990615195534541
  0.6678135377522114  0.3323142754564967  0.3991095087173419
  0.6706407125812056  0.4580250916638074  0.3997177631812040
  0.6723199770610979  0.5841907483129433  0.4011421348301187
  0.6681911454645679  0.7078294971825876  0.4020109201899559
  0.6657860583019372  0.8312898494690788  0.4013329113449052
  0.6656541511782370  0.9564831051118422  0.4001606835819352
  0.7906364296487661  0.0817470796600905  0.3993691091287248
  0.7908746374421892  0.2069115062870438  0.3989124865705133
  0.7917493882244032  0.3323946930600387  0.3985889893034912
  0.7933829083726588  0.4581158057358781  0.3984964793254854
  0.7945831324444715  0.5837770017274914  0.3989717688700257
  0.7939792798200013  0.7092145947118580  0.3997199345185818
  0.7921861549002429  0.8331128647733014  0.4000229236167138
  0.7908149274159636  0.9569475506414121  0.3998209200965429
  0.9156576394177673  0.0823077043180223  0.3993751663260230
  0.9152393236767598  0.2070486083603319  0.3991021778249323
  0.9155009441835735  0.3323937378004347  0.3986293913496976
  0.9164466059612953  0.4580381908225473  0.3982607991291500
  0.9177478264124492  0.5838349640331312  0.3983433761450630
  0.9181288692557124  0.7093346988488223  0.3988083859926232
  0.9177995874057140  0.8342036417618200  0.3992315811333875
  0.9167399808794863  0.9583022248442243  0.3994136867820737
  0.0839174281735097  0.0428939227787602  0.3998245666074960
  0.0825048434334146  0.1667014129480704  0.3999815602920265
  0.0806744162668374  0.2905853844630249  0.3997002663384331
  0.0801191043176161  0.4160395418280237  0.3990143706342594
  0.0813881918829125  0.5417360252914074  0.3985736942582623
  0.0830666976659141  0.6674731014304793  0.3985662670606220
  0.0839179396609908  0.7929705517700874  0.3988961478746831
  0.0841556480090445  0.9181093010665523  0.3993894836719404
  0.2090913490044913  0.0433469317002185  0.4001973484324031
  0.2088427049764894  0.1684904793659817  0.4011873947156560
  0.2063587882331088  0.2918998853263087  0.4017285453180010
  0.2022028319325660  0.4155278502195583  0.4009784120041396
  0.2040425600692761  0.5417549341422332  0.3997057154864126
  0.2069575493026558  0.6675323218420771  0.3991342962488482
  0.2081469587529556  0.7928091396180236  0.3990626054103324
  0.2088358413272857  0.9181239830459706  0.3994115892475222
  0.3338068026968356  0.0428963746453401  0.3998358987443344
  0.3344253299442732  0.1685020587339699  0.4011967879949670
  0.3345501967650629  0.2944902852357532  0.4040430517022623
  0.3232261418735391  0.4160258813412020  0.4066281106129674
  0.3261327074025462  0.5422678018479516  0.4039504985316965
  0.3309625232528406  0.6672933637587259  0.4008631348362598
  0.3324585887444904  0.7923677553588749  0.3996473966450601
  0.3332919729856336  0.9175409130173333  0.3993808962919971
  0.4583803059968625  0.0415475835644378  0.3994441293353918
  0.4590123635783667  0.1667205371339518  0.3999963812028518
  0.4602745213534977  0.2919152028507887  0.4017945473784791
  0.4672875136790690  0.4160594591164979  0.4065335627417557
  0.4548256585437548  0.6645872581742658  0.4046217286641182
  0.4570035772531857  0.7910184234049454  0.4010414605227830
  0.4577883512045364  0.9162863946414850  0.3997118361227998
  0.5828664478938503  0.0403644896028073  0.3994311565389576
  0.5835322254063275  0.1656421771016322  0.3992956594453125
  0.5847171297943352  0.2906113641460690  0.3997075363499804
  0.5880437448567355  0.4155438757864039  0.4010547134538385
  0.5907097865402556  0.5422783488846857  0.4038644128787374
  0.5843404665543004  0.6645885933371395  0.4045189364882454
  0.5815903796553333  0.7884826353270322  0.4023526474053504
  0.5822487667802477  0.9147700320372620  0.4003930520652343
  0.7073870549895216  0.0399056226458212  0.3995833398810326
  0.7078280746760183  0.1652103937713810  0.3990595929387599
  0.7087210691962377  0.2905019064281036  0.3988604041027744
  0.7107353758035690  0.4160451194301890  0.3989525017660766
  0.7125069863464112  0.5417522829405144  0.3997500299887717
  0.7110927937756041  0.6672859970817052  0.4008944707131630
  0.7087965669180384  0.7910385209733473  0.4010756259919139
  0.7073298258100359  0.9147733852513478  0.4003879016993888
  0.8323598736607837  0.0403666564156409  0.3994722578463812
  0.8322216040886448  0.1652065612661065  0.3990896370520662
  0.8327015174322130  0.2905394065151225  0.3986643963835547
  0.8338365631940997  0.4160221153205783  0.3983597132139204
  0.8351841892753161  0.5417292992511202  0.3984939379482469
  0.8354025590620536  0.6675124577470283  0.3990909785475277
  0.8347297051429220  0.7923571645700425  0.3996026916674378
  0.8333507943596518  0.9162970433972598  0.3996858430200242
  0.9580246655808082  0.0415330075627742  0.3994410164480033
  0.9569326342196803  0.1656264128546477  0.3993323335063073
  0.9566081949180315  0.2904861789773177  0.3989192096690180
  0.9570295282664965  0.4160299733049611  0.3984444414841088
  0.9583456954595907  0.5418250741949787  0.3982438738699020
  0.9592888760654482  0.6674711027951867  0.3985397934581364
  0.9595004045179597  0.7927821193765383  0.3990011039079153
  0.9591252150715162  0.9175356926416265  0.3993205975541692
  0.5021921164940091  0.5036417117202008  0.5125343121607582
  0.4420798900576867  0.5139307548089362  0.4974896260348464
 
  0.00000000E+00  0.00000000E+00  0.00000000E+00
  0.00000000E+00  0.00000000E+00  0.00000000E+00
  0.00000000E+00  0.00000000E+00  0.00000000E+00
  0.00000000E+00  0.00000000E+00  0.00000000E+00
  0.00000000E+00  0.00000000E+00  0.00000000E+00
  0.00000000E+00  0.00000000E+00  0.00000000E+00
  0.00000000E+00  0.00000000E+00  0.00000000E+00
  0.00000000E+00  0.00000000E+00  0.00000000E+00
  0.00000000E+00  0.00000000E+00  0.00000000E+00
  0.00000000E+00  0.00000000E+00  0.00000000E+00
  0.00000000E+00  0.00000000E+00  0.00000000E+00
  0.00000000E+00  0.00000000E+00  0.00000000E+00
  0.00000000E+00  0.00000000E+00  0.00000000E+00
  0.00000000E+00  0.00000000E+00  0.00000000E+00
  0.00000000E+00  0.00000000E+00  0.00000000E+00
  0.00000000E+00  0.00000000E+00  0.00000000E+00
  0.00000000E+00  0.00000000E+00  0.00000000E+00
  0.00000000E+00  0.00000000E+00  0.00000000E+00
  0.00000000E+00  0.00000000E+00  0.00000000E+00
  0.00000000E+00  0.00000000E+00  0.00000000E+00
  0.00000000E+00  0.00000000E+00  0.00000000E+00
  0.00000000E+00  0.00000000E+00  0.00000000E+00
  0.00000000E+00  0.00000000E+00  0.00000000E+00
  0.00000000E+00  0.00000000E+00  0.00000000E+00
  0.00000000E+00  0.00000000E+00  0.00000000E+00
  0.00000000E+00  0.00000000E+00  0.00000000E+00
  0.00000000E+00  0.00000000E+00  0.00000000E+00
  0.00000000E+00  0.00000000E+00  0.00000000E+00
  0.00000000E+00  0.00000000E+00  0.00000000E+00
  0.00000000E+00  0.00000000E+00  0.00000000E+00
  0.00000000E+00  0.00000000E+00  0.00000000E+00
  0.00000000E+00  0.00000000E+00  0.00000000E+00
  0.00000000E+00  0.00000000E+00  0.00000000E+00
  0.00000000E+00  0.00000000E+00  0.00000000E+00
  0.00000000E+00  0.00000000E+00  0.00000000E+00
  0.00000000E+00  0.00000000E+00  0.00000000E+00
  0.00000000E+00  0.00000000E+00  0.00000000E+00
  0.00000000E+00  0.00000000E+00  0.00000000E+00
  0.00000000E+00  0.00000000E+00  0.00000000E+00
  0.00000000E+00  0.00000000E+00  0.00000000E+00
  0.00000000E+00  0.00000000E+00  0.00000000E+00
  0.00000000E+00  0.00000000E+00  0.00000000E+00
  0.00000000E+00  0.00000000E+00  0.00000000E+00
  0.00000000E+00  0.00000000E+00  0.00000000E+00
  0.00000000E+00  0.00000000E+00  0.00000000E+00
  0.00000000E+00  0.00000000E+00  0.00000000E+00
  0.00000000E+00  0.00000000E+00  0.00000000E+00
  0.00000000E+00  0.00000000E+00  0.00000000E+00
  0.00000000E+00  0.00000000E+00  0.00000000E+00
  0.00000000E+00  0.00000000E+00  0.00000000E+00
  0.00000000E+00  0.00000000E+00  0.00000000E+00
  0.00000000E+00  0.00000000E+00  0.00000000E+00
  0.00000000E+00  0.00000000E+00  0.00000000E+00
  0.00000000E+00  0.00000000E+00  0.00000000E+00
  0.00000000E+00  0.00000000E+00  0.00000000E+00
  0.00000000E+00  0.00000000E+00  0.00000000E+00
  0.00000000E+00  0.00000000E+00  0.00000000E+00
  0.00000000E+00  0.00000000E+00  0.00000000E+00
  0.00000000E+00  0.00000000E+00  0.00000000E+00
  0.00000000E+00  0.00000000E+00  0.00000000E+00
  0.00000000E+00  0.00000000E+00  0.00000000E+00
  0.00000000E+00  0.00000000E+00  0.00000000E+00
  0.00000000E+00  0.00000000E+00  0.00000000E+00
  0.00000000E+00  0.00000000E+00  0.00000000E+00
  0.00000000E+00  0.00000000E+00  0.00000000E+00
  0.00000000E+00  0.00000000E+00  0.00000000E+00
  0.00000000E+00  0.00000000E+00  0.00000000E+00
  0.00000000E+00  0.00000000E+00  0.00000000E+00
  0.00000000E+00  0.00000000E+00  0.00000000E+00
  0.00000000E+00  0.00000000E+00  0.00000000E+00
  0.00000000E+00  0.00000000E+00  0.00000000E+00
  0.00000000E+00  0.00000000E+00  0.00000000E+00
  0.00000000E+00  0.00000000E+00  0.00000000E+00
  0.00000000E+00  0.00000000E+00  0.00000000E+00
  0.00000000E+00  0.00000000E+00  0.00000000E+00
  0.00000000E+00  0.00000000E+00  0.00000000E+00
  0.00000000E+00  0.00000000E+00  0.00000000E+00
  0.00000000E+00  0.00000000E+00  0.00000000E+00
  0.00000000E+00  0.00000000E+00  0.00000000E+00
  0.00000000E+00  0.00000000E+00  0.00000000E+00
  0.00000000E+00  0.00000000E+00  0.00000000E+00
  0.00000000E+00  0.00000000E+00  0.00000000E+00
  0.00000000E+00  0.00000000E+00  0.00000000E+00
  0.00000000E+00  0.00000000E+00  0.00000000E+00
  0.00000000E+00  0.00000000E+00  0.00000000E+00
  0.00000000E+00  0.00000000E+00  0.00000000E+00
  0.00000000E+00  0.00000000E+00  0.00000000E+00
  0.00000000E+00  0.00000000E+00  0.00000000E+00
  0.00000000E+00  0.00000000E+00  0.00000000E+00
  0.00000000E+00  0.00000000E+00  0.00000000E+00
  0.00000000E+00  0.00000000E+00  0.00000000E+00
  0.00000000E+00  0.00000000E+00  0.00000000E+00
  0.00000000E+00  0.00000000E+00  0.00000000E+00
  0.00000000E+00  0.00000000E+00  0.00000000E+00
  0.00000000E+00  0.00000000E+00  0.00000000E+00
  0.00000000E+00  0.00000000E+00  0.00000000E+00
  0.00000000E+00  0.00000000E+00  0.00000000E+00
  0.00000000E+00  0.00000000E+00  0.00000000E+00
  0.00000000E+00  0.00000000E+00  0.00000000E+00
  0.00000000E+00  0.00000000E+00  0.00000000E+00
  0.00000000E+00  0.00000000E+00  0.00000000E+00
  0.00000000E+00  0.00000000E+00  0.00000000E+00
  0.00000000E+00  0.00000000E+00  0.00000000E+00
  0.00000000E+00  0.00000000E+00  0.00000000E+00
  0.00000000E+00  0.00000000E+00  0.00000000E+00
  0.00000000E+00  0.00000000E+00  0.00000000E+00
  0.00000000E+00  0.00000000E+00  0.00000000E+00
  0.00000000E+00  0.00000000E+00  0.00000000E+00
  0.00000000E+00  0.00000000E+00  0.00000000E+00
  0.00000000E+00  0.00000000E+00  0.00000000E+00
  0.00000000E+00  0.00000000E+00  0.00000000E+00
  0.00000000E+00  0.00000000E+00  0.00000000E+00
  0.00000000E+00  0.00000000E+00  0.00000000E+00
  0.00000000E+00  0.00000000E+00  0.00000000E+00
  0.00000000E+00  0.00000000E+00  0.00000000E+00
  0.00000000E+00  0.00000000E+00  0.00000000E+00
  0.00000000E+00  0.00000000E+00  0.00000000E+00
  0.00000000E+00  0.00000000E+00  0.00000000E+00
  0.00000000E+00  0.00000000E+00  0.00000000E+00
  0.00000000E+00  0.00000000E+00  0.00000000E+00
  0.00000000E+00  0.00000000E+00  0.00000000E+00
  0.00000000E+00  0.00000000E+00  0.00000000E+00
  0.00000000E+00  0.00000000E+00  0.00000000E+00
  0.00000000E+00  0.00000000E+00  0.00000000E+00
  0.00000000E+00  0.00000000E+00  0.00000000E+00
  0.00000000E+00  0.00000000E+00  0.00000000E+00
  0.00000000E+00  0.00000000E+00  0.00000000E+00
  0.00000000E+00  0.00000000E+00  0.00000000E+00
  0.00000000E+00  0.00000000E+00  0.00000000E+00
  0.00000000E+00  0.00000000E+00  0.00000000E+00
