Os1 C123 N3 O1                          
   1.00000000000000     
    19.8168033239238177    0.0182573456873873    0.0323301957652860
    -9.8925193244979770   17.0124576838601165   -0.0973142972231558
     0.0489426393328127   -0.1422718419594841   29.8318269137346874
   Os   C    N    O 
     1   123     3     1
Direct
  0.4375109912191678  0.5004717725901306  0.4277136083217040
  0.0419148804260152  0.0842163280774640  0.3996894398157906
  0.0405829564961961  0.2080207171960529  0.3997790304478090
  0.0397580312044104  0.3327417141797399  0.3994668576534421
  0.0401127663911613  0.4580848581196726  0.3993838526373713
  0.0414166821817564  0.5837678530680964  0.3998605139872423
  0.0425307391359348  0.7093815786078601  0.3999452995128177
  0.0427925344175484  0.8346652361279198  0.3999205156797438
  0.0426533144773129  0.9597589529756725  0.3997660215322316
  0.1678753836773709  0.0857177525207368  0.4000442073561047
  0.1672945278466193  0.2104475595901614  0.4003774640376022
  0.1643078102845994  0.3333810065492757  0.4003542379353081
  0.1635363332402588  0.4581184867234047  0.3982438872540012
  0.1649974116356400  0.5835185066949571  0.3989038109678094
  0.1666107512432484  0.7089644563525797  0.3998516493290526
  0.1673968197415670  0.8345472457411351  0.3999923505199818
  0.1677233617267636  0.9601996690823758  0.3999776696924003
  0.2926931048896889  0.0860745133746675  0.3999819282398994
  0.2932749025790998  0.2130213605995879  0.4015074051416007
  0.2918402085764582  0.3383234460227388  0.4047017796864302
  0.2861186602789070  0.4578315211491422  0.4016225707043817
  0.2880900572694647  0.5825205724191584  0.3979905154607449
  0.2907903810364187  0.7080004144504297  0.3990728754340248
  0.2918646998598382  0.8338057575188391  0.3998678732557738
  0.2923169672791517  0.9597446297464095  0.3998789078763724
  0.4170864519471668  0.0845379698448207  0.3997744052672449
  0.4176854883839108  0.2112119407178782  0.3999470330796765
  0.4194636481057908  0.3393966425082658  0.4023712732200992
  0.4148641145723120  0.7047695675252723  0.3993200068346969
  0.4161616043385172  0.8317323376487421  0.3997532957604630
  0.4167184770788948  0.9581789709857673  0.3998865457685019
  0.5414148470810994  0.0827064716359905  0.3998847074425613
  0.5419973299054627  0.2087296569510985  0.3994948458923766
  0.5432741361010482  0.3346735627982093  0.3990515958702039
  0.5479023107192806  0.4606670719195334  0.4011160356415839
  0.5383421769794072  0.7010170364639110  0.4026269318963827
  0.5403482219328449  0.8296693878810327  0.4001829921006816
  0.5410286528750486  0.9564752209292725  0.3999752390175069
  0.6658409733491877  0.0818656518924696  0.4000505653625235
  0.6663330240143192  0.2075517299067862  0.3998766548195384
  0.6674139471994061  0.3332356466997164  0.3992302518997902
  0.6699833329288803  0.4590054751224261  0.3985013888470874
  0.6714974865155015  0.5845304036585262  0.3997341010946575
  0.6666527799279304  0.7060772991437440  0.4006850605163095
  0.6646592015501428  0.8299709685549227  0.4003842915349404
  0.6654011515787278  0.9560456723038655  0.4001770470344924
  0.7904906542817470  0.0818142887597229  0.3999951928114537
  0.7907338986281377  0.2072274787108075  0.4000036405193788
  0.7915069877505619  0.3327813880188384  0.3998431062389810
  0.7930396724191314  0.4584610037955592  0.3993505522004500
  0.7943627637810763  0.5841318418380633  0.3988508869207872
  0.7937553041894890  0.7091336805000650  0.3994866607172260
  0.7913671054868994  0.8324182934059405  0.3996074447512875
  0.7903626001204466  0.9565909374385547  0.3998783128498869
  0.9157249168436137  0.0824986374443616  0.3997408538181084
  0.9153202381446023  0.2072836297387631  0.3998411328713999
  0.9155604051400473  0.3326104040154017  0.3998158821527656
  0.9165768609525481  0.4582915565166444  0.3998709366754255
  0.9178466693839218  0.5839882388541312  0.3997102585214285
  0.9182388611781807  0.7093426748470464  0.3996494569889810
  0.9177695132848075  0.8342640187509220  0.3996727991307456
  0.9166388339441432  0.9583296393968800  0.3996919249988897
  0.0843876728851200  0.0433902909299482  0.3997680368999641
  0.0835592310239929  0.1678015131499121  0.3998102769093129
  0.0816774957109585  0.2913905692949154  0.3997824247062737
  0.0809114982466566  0.4160476893262093  0.3989265226990858
  0.0821364345267850  0.5416889271393504  0.3994449900890545
  0.0835632088846809  0.6673670725755116  0.3999433792704001
  0.0842972169539345  0.7929311359376097  0.3999805510246943
  0.0844855911153633  0.9182934509576656  0.3998885124810835
  0.2094215209842835  0.0439495685450340  0.4000402499982101
  0.2097634761062271  0.1697234577861171  0.4006476921616989
  0.2084690535795997  0.2942191978565213  0.4013616029881968
  0.2044983469921327  0.4164135571895961  0.3993166245913389
  0.2053379864795897  0.5411841151576253  0.3981429936590454
  0.2075214259785432  0.6668679686048166  0.3993088670423606
  0.2086559747536166  0.7925572121341984  0.3999472048698919
  0.2092007540301187  0.9182521880049511  0.3999608138363470
  0.3339559914788852  0.0435862724877123  0.3998193619799498
  0.3344175162389655  0.1701918390620698  0.4004009499533028
  0.3353156041244834  0.2978634975369738  0.4036229979556103
  0.3280422730198024  0.5405284403756291  0.3993194655781329
  0.3314388658259034  0.6656789832285763  0.3984985839383332
  0.3330525556291186  0.7915166786541837  0.3996237083182834
  0.3336234623247206  0.9174182604966835  0.3998851341273487
  0.4583468114735403  0.0419416203778698  0.3998325961406287
  0.4587729881538588  0.1683413048080548  0.3996752512782787
  0.4597529718969015  0.2952397917116623  0.3999686866885345
  0.4656048835731468  0.4232381220564192  0.4044408795197848
  0.4541710111161964  0.6601692176559601  0.4010035843782838
  0.4572672034700164  0.7888319958395330  0.3997258776830168
  0.4579101752463803  0.9155506392588726  0.3999194472927650
  0.5827050215743690  0.0403459454341534  0.3999823378330464
  0.5831760770635503  0.1663752561954501  0.3997751326153673
  0.5841076561783974  0.2921927246292204  0.3990850432827854
  0.5872693508260650  0.4179483019425536  0.3988923559894016
  0.5904537793802047  0.5434986510892664  0.4028534226424492
  0.5831656822456205  0.6615307331417559  0.4041513392955262
  0.5808508547642114  0.7863742044539935  0.4009669653590084
  0.5822214898697322  0.9139528496895610  0.4000733010567649
  0.7072387931550261  0.0398765225797435  0.4001241750119808
  0.7076422474935098  0.1655791972036013  0.4000142885519396
  0.7083604238946045  0.2911523183530244  0.3997295246450330
  0.7102327744165413  0.4166804751227178  0.3989124528780795
  0.7119355303627916  0.5421465820214808  0.3984984801160811
  0.7112173365980653  0.6673438594698375  0.4000693992553264
  0.7075997901534540  0.7897312192146717  0.3999058040983767
  0.7067558242704302  0.9140838289905573  0.4001127851455818
  0.8322563088318521  0.0403247858352712  0.3998640210238761
  0.8322365214971964  0.1654773228597533  0.3999529024759523
  0.8325712831763162  0.2907862045436155  0.3999285529365959
  0.8337238951687209  0.4163692409823908  0.3997641149389898
  0.8350985921510237  0.5420775797668830  0.3992968688943974
  0.8354680756610776  0.6675524456494887  0.3992861271686253
  0.8345783230283758  0.7923363504177136  0.3995457089507742
  0.8329965001014439  0.9159705342909431  0.3997187975241632
  0.9583313262343849  0.0418655756230380  0.3996822158964281
  0.9573021615890439  0.1659654567657159  0.3997449303260460
  0.9569064614716268  0.2908478781077967  0.3997489211779268
  0.9573352599046477  0.4161945171141981  0.3997799373688625
  0.9585995648059638  0.5418851167726406  0.3998760907745581
  0.9595701140609577  0.6675513893605023  0.3997730733578410
  0.9597221711260209  0.7929017194571788  0.3997922396997081
  0.9592434630512470  0.9176971616228634  0.3997102679664382
  0.4089134032021219  0.5779347211626557  0.4016036404901897
  0.5478645455332634  0.5808819431953778  0.4094584819206545
  0.3284724044273831  0.4201700262126415  0.4092466065858270
  0.4443748711783744  0.4971884759853896  0.4856648411380223
 
  0.00000000E+00  0.00000000E+00  0.00000000E+00
  0.00000000E+00  0.00000000E+00  0.00000000E+00
  0.00000000E+00  0.00000000E+00  0.00000000E+00
  0.00000000E+00  0.00000000E+00  0.00000000E+00
  0.00000000E+00  0.00000000E+00  0.00000000E+00
  0.00000000E+00  0.00000000E+00  0.00000000E+00
  0.00000000E+00  0.00000000E+00  0.00000000E+00
  0.00000000E+00  0.00000000E+00  0.00000000E+00
  0.00000000E+00  0.00000000E+00  0.00000000E+00
  0.00000000E+00  0.00000000E+00  0.00000000E+00
  0.00000000E+00  0.00000000E+00  0.00000000E+00
  0.00000000E+00  0.00000000E+00  0.00000000E+00
  0.00000000E+00  0.00000000E+00  0.00000000E+00
  0.00000000E+00  0.00000000E+00  0.00000000E+00
  0.00000000E+00  0.00000000E+00  0.00000000E+00
  0.00000000E+00  0.00000000E+00  0.00000000E+00
  0.00000000E+00  0.00000000E+00  0.00000000E+00
  0.00000000E+00  0.00000000E+00  0.00000000E+00
  0.00000000E+00  0.00000000E+00  0.00000000E+00
  0.00000000E+00  0.00000000E+00  0.00000000E+00
  0.00000000E+00  0.00000000E+00  0.00000000E+00
  0.00000000E+00  0.00000000E+00  0.00000000E+00
  0.00000000E+00  0.00000000E+00  0.00000000E+00
  0.00000000E+00  0.00000000E+00  0.00000000E+00
  0.00000000E+00  0.00000000E+00  0.00000000E+00
  0.00000000E+00  0.00000000E+00  0.00000000E+00
  0.00000000E+00  0.00000000E+00  0.00000000E+00
  0.00000000E+00  0.00000000E+00  0.00000000E+00
  0.00000000E+00  0.00000000E+00  0.00000000E+00
  0.00000000E+00  0.00000000E+00  0.00000000E+00
  0.00000000E+00  0.00000000E+00  0.00000000E+00
  0.00000000E+00  0.00000000E+00  0.00000000E+00
  0.00000000E+00  0.00000000E+00  0.00000000E+00
  0.00000000E+00  0.00000000E+00  0.00000000E+00
  0.00000000E+00  0.00000000E+00  0.00000000E+00
  0.00000000E+00  0.00000000E+00  0.00000000E+00
  0.00000000E+00  0.00000000E+00  0.00000000E+00
  0.00000000E+00  0.00000000E+00  0.00000000E+00
  0.00000000E+00  0.00000000E+00  0.00000000E+00
  0.00000000E+00  0.00000000E+00  0.00000000E+00
  0.00000000E+00  0.00000000E+00  0.00000000E+00
  0.00000000E+00  0.00000000E+00  0.00000000E+00
  0.00000000E+00  0.00000000E+00  0.00000000E+00
  0.00000000E+00  0.00000000E+00  0.00000000E+00
  0.00000000E+00  0.00000000E+00  0.00000000E+00
  0.00000000E+00  0.00000000E+00  0.00000000E+00
  0.00000000E+00  0.00000000E+00  0.00000000E+00
  0.00000000E+00  0.00000000E+00  0.00000000E+00
  0.00000000E+00  0.00000000E+00  0.00000000E+00
  0.00000000E+00  0.00000000E+00  0.00000000E+00
  0.00000000E+00  0.00000000E+00  0.00000000E+00
  0.00000000E+00  0.00000000E+00  0.00000000E+00
  0.00000000E+00  0.00000000E+00  0.00000000E+00
  0.00000000E+00  0.00000000E+00  0.00000000E+00
  0.00000000E+00  0.00000000E+00  0.00000000E+00
  0.00000000E+00  0.00000000E+00  0.00000000E+00
  0.00000000E+00  0.00000000E+00  0.00000000E+00
  0.00000000E+00  0.00000000E+00  0.00000000E+00
  0.00000000E+00  0.00000000E+00  0.00000000E+00
  0.00000000E+00  0.00000000E+00  0.00000000E+00
  0.00000000E+00  0.00000000E+00  0.00000000E+00
  0.00000000E+00  0.00000000E+00  0.00000000E+00
  0.00000000E+00  0.00000000E+00  0.00000000E+00
  0.00000000E+00  0.00000000E+00  0.00000000E+00
  0.00000000E+00  0.00000000E+00  0.00000000E+00
  0.00000000E+00  0.00000000E+00  0.00000000E+00
  0.00000000E+00  0.00000000E+00  0.00000000E+00
  0.00000000E+00  0.00000000E+00  0.00000000E+00
  0.00000000E+00  0.00000000E+00  0.00000000E+00
  0.00000000E+00  0.00000000E+00  0.00000000E+00
  0.00000000E+00  0.00000000E+00  0.00000000E+00
  0.00000000E+00  0.00000000E+00  0.00000000E+00
  0.00000000E+00  0.00000000E+00  0.00000000E+00
  0.00000000E+00  0.00000000E+00  0.00000000E+00
  0.00000000E+00  0.00000000E+00  0.00000000E+00
  0.00000000E+00  0.00000000E+00  0.00000000E+00
  0.00000000E+00  0.00000000E+00  0.00000000E+00
  0.00000000E+00  0.00000000E+00  0.00000000E+00
  0.00000000E+00  0.00000000E+00  0.00000000E+00
  0.00000000E+00  0.00000000E+00  0.00000000E+00
  0.00000000E+00  0.00000000E+00  0.00000000E+00
  0.00000000E+00  0.00000000E+00  0.00000000E+00
  0.00000000E+00  0.00000000E+00  0.00000000E+00
  0.00000000E+00  0.00000000E+00  0.00000000E+00
  0.00000000E+00  0.00000000E+00  0.00000000E+00
  0.00000000E+00  0.00000000E+00  0.00000000E+00
  0.00000000E+00  0.00000000E+00  0.00000000E+00
  0.00000000E+00  0.00000000E+00  0.00000000E+00
  0.00000000E+00  0.00000000E+00  0.00000000E+00
  0.00000000E+00  0.00000000E+00  0.00000000E+00
  0.00000000E+00  0.00000000E+00  0.00000000E+00
  0.00000000E+00  0.00000000E+00  0.00000000E+00
  0.00000000E+00  0.00000000E+00  0.00000000E+00
  0.00000000E+00  0.00000000E+00  0.00000000E+00
  0.00000000E+00  0.00000000E+00  0.00000000E+00
  0.00000000E+00  0.00000000E+00  0.00000000E+00
  0.00000000E+00  0.00000000E+00  0.00000000E+00
  0.00000000E+00  0.00000000E+00  0.00000000E+00
  0.00000000E+00  0.00000000E+00  0.00000000E+00
  0.00000000E+00  0.00000000E+00  0.00000000E+00
  0.00000000E+00  0.00000000E+00  0.00000000E+00
  0.00000000E+00  0.00000000E+00  0.00000000E+00
  0.00000000E+00  0.00000000E+00  0.00000000E+00
  0.00000000E+00  0.00000000E+00  0.00000000E+00
  0.00000000E+00  0.00000000E+00  0.00000000E+00
  0.00000000E+00  0.00000000E+00  0.00000000E+00
  0.00000000E+00  0.00000000E+00  0.00000000E+00
  0.00000000E+00  0.00000000E+00  0.00000000E+00
  0.00000000E+00  0.00000000E+00  0.00000000E+00
  0.00000000E+00  0.00000000E+00  0.00000000E+00
  0.00000000E+00  0.00000000E+00  0.00000000E+00
  0.00000000E+00  0.00000000E+00  0.00000000E+00
  0.00000000E+00  0.00000000E+00  0.00000000E+00
  0.00000000E+00  0.00000000E+00  0.00000000E+00
  0.00000000E+00  0.00000000E+00  0.00000000E+00
  0.00000000E+00  0.00000000E+00  0.00000000E+00
  0.00000000E+00  0.00000000E+00  0.00000000E+00
  0.00000000E+00  0.00000000E+00  0.00000000E+00
  0.00000000E+00  0.00000000E+00  0.00000000E+00
  0.00000000E+00  0.00000000E+00  0.00000000E+00
  0.00000000E+00  0.00000000E+00  0.00000000E+00
  0.00000000E+00  0.00000000E+00  0.00000000E+00
  0.00000000E+00  0.00000000E+00  0.00000000E+00
  0.00000000E+00  0.00000000E+00  0.00000000E+00
  0.00000000E+00  0.00000000E+00  0.00000000E+00
  0.00000000E+00  0.00000000E+00  0.00000000E+00
  0.00000000E+00  0.00000000E+00  0.00000000E+00
  0.00000000E+00  0.00000000E+00  0.00000000E+00
