Re1 H1 C123 N3 O1                       
   1.00000000000000     
    19.8149851923308979    0.0205593833188088    0.1753738537718277
    -9.8895718519102793   17.0102454351170564   -0.1527415702440992
     0.2641704193522223   -0.1143699533556121   29.8384505833616593
   Re   H    C    N    O 
     1     1   123     3     1
Direct
  0.4365193957639177  0.5017087258838802  0.4304111301839072
  0.4997513208585765  0.5431037574806840  0.5074743831221737
  0.0417995470115834  0.0841316575138014  0.3997478936467057
  0.0404675169841966  0.2079386794815986  0.3997707900522673
  0.0396368037921309  0.3326725510549972  0.3992138509061595
  0.0400029159500743  0.4580279651449228  0.3990271810443500
  0.0413109347195696  0.5837168388731390  0.3995852660658712
  0.0424407542423469  0.7093517770994578  0.3998303608082495
  0.0427452003505426  0.8346636763132506  0.3998388648524167
  0.0425736539615024  0.9597379534970629  0.3997317693073014
  0.1678169901337664  0.0857437294301905  0.4001156651143868
  0.1671344476669625  0.2103611806867073  0.4003587638353525
  0.1641840386315520  0.3332841883089504  0.4001248729095045
  0.1634216058992674  0.4580477659054683  0.3979577089712411
  0.1648975639933678  0.5834267564267194  0.3984907364192730
  0.1665336109316861  0.7089067735608582  0.3994976216146543
  0.1673345149828892  0.8345370033695700  0.3998836093410431
  0.1676799230957028  0.9602352855574763  0.3999360248713462
  0.2926831929308642  0.0861504951415084  0.4000080164689950
  0.2931788634637348  0.2131037152605378  0.4013095028601471
  0.2916422878575210  0.3383309639234529  0.4041848491289415
  0.2859979809729026  0.4575862251927312  0.4010216482261186
  0.2880051253180717  0.5823669485005969  0.3974876817077322
  0.2907030093432950  0.7078740674145348  0.3988270418702554
  0.2917910578577384  0.8337430776914472  0.3997124245574142
  0.2922844093355160  0.9597566658332670  0.3998676167777486
  0.4170438262460434  0.0845766410027257  0.3997482925582052
  0.4176363220382417  0.2113386973062681  0.3998839228335581
  0.4193852367057223  0.3397777612209374  0.4024426210372164
  0.4147260464530581  0.7045140258156829  0.3993236863309377
  0.4160747185830360  0.8315785491900716  0.3997023873619488
  0.4166279108418208  0.9581087141765359  0.3998959245180544
  0.5413019301181928  0.0826472017852222  0.3998560330670991
  0.5419141147948081  0.2087687007609584  0.3993351998230868
  0.5431212743794235  0.3347800394872802  0.3989239209389122
  0.5473234248548400  0.4606789916464872  0.4014153297031152
  0.5381399122728844  0.7008117686335362  0.4028434692749903
  0.5401852566698351  0.8294695046065548  0.4003189055502483
  0.5408810415745879  0.9563423948442709  0.4000000875690059
  0.6656942714887657  0.0817332972094978  0.3999957961166903
  0.6662145304382409  0.2075019177323970  0.3996812409839944
  0.6672637961583670  0.3332228200281412  0.3989967073276477
  0.6697684967507095  0.4589977026666447  0.3984760746816214
  0.6713608863087394  0.5845246987974488  0.3997187552726625
  0.6666197059410293  0.7060449861194270  0.4007968032575512
  0.6645268699817310  0.8298105780399423  0.4004660452602671
  0.6652344236554887  0.9558636837516516  0.4001065849082373
  0.7903516323575439  0.0816584251920765  0.3998886501647090
  0.7906024132057673  0.2071183718582834  0.3998926098480522
  0.7913634276923982  0.3327197953580635  0.3996916105043016
  0.7928896362365049  0.4584094069549326  0.3991758546750696
  0.7942507149254147  0.5840672659697990  0.3987520047815302
  0.7937221528834196  0.7090876767064500  0.3994133942652058
  0.7913058562126599  0.8323554951076516  0.3994945383049013
  0.7902579315455530  0.9564619461923012  0.3997513352638095
  0.9156141527916002  0.0823941176262701  0.3996927661532962
  0.9152107895064815  0.2071951585847387  0.3997335402442942
  0.9154347761395190  0.3325451490234489  0.3996260503817122
  0.9164390877383007  0.4582154980032666  0.3997289555116380
  0.9177334771347131  0.5839158776669298  0.3996175881603047
  0.9181744132993832  0.7092991041302938  0.3994995997486299
  0.9177137850840096  0.8342228911955684  0.3995243873884702
  0.9165550101379908  0.9582478589439064  0.3996062748605265
  0.0843117422808732  0.0433665154395113  0.3998276352917419
  0.0834374548033157  0.1677135203238887  0.3998540920144616
  0.0815775973180351  0.2913154970154975  0.3996407230833651
  0.0808335661575520  0.4160086717551835  0.3986202483163201
  0.0820370467708097  0.5416332800064944  0.3990349846760005
  0.0834716071691349  0.6673211399361597  0.3996894431895505
  0.0842200704847404  0.7929150152351440  0.3998811807374969
  0.0844349984498575  0.9183040395895180  0.3998607709646087
  0.2093959341542304  0.0440114915585540  0.4000504917377691
  0.2096648469300489  0.1697300603990915  0.4006307612709322
  0.2083136749723430  0.2941252246656613  0.4011017899326108
  0.2044373027565840  0.4163469522782457  0.3989643770206329
  0.2052188860012848  0.5410790872586241  0.3977595858296396
  0.2074268547842793  0.6667877935618536  0.3989003408776119
  0.2085899874005814  0.7925200460587497  0.3997157245511974
  0.2091537318652376  0.9182664407006499  0.3999180714732691
  0.3339297377263449  0.0436240758459275  0.3998332840722723
  0.3343562319188755  0.1702731376473260  0.4003521887680873
  0.3351419469211045  0.2979393671492960  0.4032639777075037
  0.3279356914818691  0.5403993623655913  0.3987405369909493
  0.3313584359044433  0.6655166296934547  0.3982846633406034
  0.3329552628363187  0.7913845319870384  0.3994606006909562
  0.3335353330259782  0.9173666693040695  0.3998512838080150
  0.4582371733599466  0.0418858663390078  0.3998514647832379
  0.4586841470526796  0.1684027962008792  0.3995646944383552
  0.4596089778151446  0.2954394094852611  0.3999587313361975
  0.4648490686868186  0.4239656662080108  0.4051544112071799
  0.4539140881052452  0.6597132212050431  0.4009956237486964
  0.4571231981719913  0.7886059569260168  0.3998151257058686
  0.4577777749871406  0.9154208142502950  0.3999066337897088
  0.5825504373749862  0.0402278683448254  0.3999856078211072
  0.5830624461948041  0.1663410197901662  0.3996232676830311
  0.5839797316321708  0.2922430082245749  0.3988873585417227
  0.5869820623968707  0.4180573720768176  0.3988992115719052
  0.5902131186744747  0.5436086874966091  0.4031511322342105
  0.5831012729851801  0.6614572259925547  0.4044066109364777
  0.5806416544234924  0.7861218157971561  0.4011359369703021
  0.5820389365025322  0.9137515741587754  0.4001117138833237
  0.7070777565828108  0.0397027179763893  0.3999916899365974
  0.7075080598629936  0.1654658784757555  0.3999105145296294
  0.7082233080837862  0.2911111535647894  0.3994837614252262
  0.7100687142371414  0.4166874095915122  0.3987582744813192
  0.7118430713849568  0.5421458232746741  0.3984682563817555
  0.7111579889167712  0.6673168040185975  0.4000517556109123
  0.7075706712262204  0.7896957969786890  0.3999445585054958
  0.7066228257498123  0.9139096064019941  0.4000689724410749
  0.8321453889604122  0.0401945616068049  0.3997459300226350
  0.8321090752111533  0.1653459740437278  0.3998653123387443
  0.8324298210091189  0.2906981765522487  0.3997987256993055
  0.8335828865684405  0.4163092525106425  0.3996237325168951
  0.8349978702668900  0.5420137579588489  0.3991532646390124
  0.8354128257154925  0.6675088562044378  0.3991743557813905
  0.8345391698869811  0.7922883768108024  0.3994394703210774
  0.8329204974425548  0.9158798635211957  0.3995807577515783
  0.9582300217177516  0.0417597692673591  0.3996764631254988
  0.9571995822010932  0.1658684847664183  0.3997154826151464
  0.9567948381867911  0.2907794365515461  0.3995341175437346
  0.9572112150879670  0.4161346523788434  0.3995483328790490
  0.9584797441825418  0.5418097600163860  0.3997420443216283
  0.9594879041165149  0.6674901033804297  0.3996700236748251
  0.9596539294741885  0.7928609578591255  0.3996487846498498
  0.9591794963990733  0.9176530377709877  0.3995903842781881
  0.4086061586310725  0.5773815028710031  0.4018383547271988
  0.5473753287470238  0.5807917859829055  0.4104406831949452
  0.3284904462280632  0.4202654754973635  0.4089862979047951
  0.4489754542489546  0.5126970340125105  0.4932161944105370
 
  0.00000000E+00  0.00000000E+00  0.00000000E+00
  0.00000000E+00  0.00000000E+00  0.00000000E+00
  0.00000000E+00  0.00000000E+00  0.00000000E+00
  0.00000000E+00  0.00000000E+00  0.00000000E+00
  0.00000000E+00  0.00000000E+00  0.00000000E+00
  0.00000000E+00  0.00000000E+00  0.00000000E+00
  0.00000000E+00  0.00000000E+00  0.00000000E+00
  0.00000000E+00  0.00000000E+00  0.00000000E+00
  0.00000000E+00  0.00000000E+00  0.00000000E+00
  0.00000000E+00  0.00000000E+00  0.00000000E+00
  0.00000000E+00  0.00000000E+00  0.00000000E+00
  0.00000000E+00  0.00000000E+00  0.00000000E+00
  0.00000000E+00  0.00000000E+00  0.00000000E+00
  0.00000000E+00  0.00000000E+00  0.00000000E+00
  0.00000000E+00  0.00000000E+00  0.00000000E+00
  0.00000000E+00  0.00000000E+00  0.00000000E+00
  0.00000000E+00  0.00000000E+00  0.00000000E+00
  0.00000000E+00  0.00000000E+00  0.00000000E+00
  0.00000000E+00  0.00000000E+00  0.00000000E+00
  0.00000000E+00  0.00000000E+00  0.00000000E+00
  0.00000000E+00  0.00000000E+00  0.00000000E+00
  0.00000000E+00  0.00000000E+00  0.00000000E+00
  0.00000000E+00  0.00000000E+00  0.00000000E+00
  0.00000000E+00  0.00000000E+00  0.00000000E+00
  0.00000000E+00  0.00000000E+00  0.00000000E+00
  0.00000000E+00  0.00000000E+00  0.00000000E+00
  0.00000000E+00  0.00000000E+00  0.00000000E+00
  0.00000000E+00  0.00000000E+00  0.00000000E+00
  0.00000000E+00  0.00000000E+00  0.00000000E+00
  0.00000000E+00  0.00000000E+00  0.00000000E+00
  0.00000000E+00  0.00000000E+00  0.00000000E+00
  0.00000000E+00  0.00000000E+00  0.00000000E+00
  0.00000000E+00  0.00000000E+00  0.00000000E+00
  0.00000000E+00  0.00000000E+00  0.00000000E+00
  0.00000000E+00  0.00000000E+00  0.00000000E+00
  0.00000000E+00  0.00000000E+00  0.00000000E+00
  0.00000000E+00  0.00000000E+00  0.00000000E+00
  0.00000000E+00  0.00000000E+00  0.00000000E+00
  0.00000000E+00  0.00000000E+00  0.00000000E+00
  0.00000000E+00  0.00000000E+00  0.00000000E+00
  0.00000000E+00  0.00000000E+00  0.00000000E+00
  0.00000000E+00  0.00000000E+00  0.00000000E+00
  0.00000000E+00  0.00000000E+00  0.00000000E+00
  0.00000000E+00  0.00000000E+00  0.00000000E+00
  0.00000000E+00  0.00000000E+00  0.00000000E+00
  0.00000000E+00  0.00000000E+00  0.00000000E+00
  0.00000000E+00  0.00000000E+00  0.00000000E+00
  0.00000000E+00  0.00000000E+00  0.00000000E+00
  0.00000000E+00  0.00000000E+00  0.00000000E+00
  0.00000000E+00  0.00000000E+00  0.00000000E+00
  0.00000000E+00  0.00000000E+00  0.00000000E+00
  0.00000000E+00  0.00000000E+00  0.00000000E+00
  0.00000000E+00  0.00000000E+00  0.00000000E+00
  0.00000000E+00  0.00000000E+00  0.00000000E+00
  0.00000000E+00  0.00000000E+00  0.00000000E+00
  0.00000000E+00  0.00000000E+00  0.00000000E+00
  0.00000000E+00  0.00000000E+00  0.00000000E+00
  0.00000000E+00  0.00000000E+00  0.00000000E+00
  0.00000000E+00  0.00000000E+00  0.00000000E+00
  0.00000000E+00  0.00000000E+00  0.00000000E+00
  0.00000000E+00  0.00000000E+00  0.00000000E+00
  0.00000000E+00  0.00000000E+00  0.00000000E+00
  0.00000000E+00  0.00000000E+00  0.00000000E+00
  0.00000000E+00  0.00000000E+00  0.00000000E+00
  0.00000000E+00  0.00000000E+00  0.00000000E+00
  0.00000000E+00  0.00000000E+00  0.00000000E+00
  0.00000000E+00  0.00000000E+00  0.00000000E+00
  0.00000000E+00  0.00000000E+00  0.00000000E+00
  0.00000000E+00  0.00000000E+00  0.00000000E+00
  0.00000000E+00  0.00000000E+00  0.00000000E+00
  0.00000000E+00  0.00000000E+00  0.00000000E+00
  0.00000000E+00  0.00000000E+00  0.00000000E+00
  0.00000000E+00  0.00000000E+00  0.00000000E+00
  0.00000000E+00  0.00000000E+00  0.00000000E+00
  0.00000000E+00  0.00000000E+00  0.00000000E+00
  0.00000000E+00  0.00000000E+00  0.00000000E+00
  0.00000000E+00  0.00000000E+00  0.00000000E+00
  0.00000000E+00  0.00000000E+00  0.00000000E+00
  0.00000000E+00  0.00000000E+00  0.00000000E+00
  0.00000000E+00  0.00000000E+00  0.00000000E+00
  0.00000000E+00  0.00000000E+00  0.00000000E+00
  0.00000000E+00  0.00000000E+00  0.00000000E+00
  0.00000000E+00  0.00000000E+00  0.00000000E+00
  0.00000000E+00  0.00000000E+00  0.00000000E+00
  0.00000000E+00  0.00000000E+00  0.00000000E+00
  0.00000000E+00  0.00000000E+00  0.00000000E+00
  0.00000000E+00  0.00000000E+00  0.00000000E+00
  0.00000000E+00  0.00000000E+00  0.00000000E+00
  0.00000000E+00  0.00000000E+00  0.00000000E+00
  0.00000000E+00  0.00000000E+00  0.00000000E+00
  0.00000000E+00  0.00000000E+00  0.00000000E+00
  0.00000000E+00  0.00000000E+00  0.00000000E+00
  0.00000000E+00  0.00000000E+00  0.00000000E+00
  0.00000000E+00  0.00000000E+00  0.00000000E+00
  0.00000000E+00  0.00000000E+00  0.00000000E+00
  0.00000000E+00  0.00000000E+00  0.00000000E+00
  0.00000000E+00  0.00000000E+00  0.00000000E+00
  0.00000000E+00  0.00000000E+00  0.00000000E+00
  0.00000000E+00  0.00000000E+00  0.00000000E+00
  0.00000000E+00  0.00000000E+00  0.00000000E+00
  0.00000000E+00  0.00000000E+00  0.00000000E+00
  0.00000000E+00  0.00000000E+00  0.00000000E+00
  0.00000000E+00  0.00000000E+00  0.00000000E+00
  0.00000000E+00  0.00000000E+00  0.00000000E+00
  0.00000000E+00  0.00000000E+00  0.00000000E+00
  0.00000000E+00  0.00000000E+00  0.00000000E+00
  0.00000000E+00  0.00000000E+00  0.00000000E+00
  0.00000000E+00  0.00000000E+00  0.00000000E+00
  0.00000000E+00  0.00000000E+00  0.00000000E+00
  0.00000000E+00  0.00000000E+00  0.00000000E+00
  0.00000000E+00  0.00000000E+00  0.00000000E+00
  0.00000000E+00  0.00000000E+00  0.00000000E+00
  0.00000000E+00  0.00000000E+00  0.00000000E+00
  0.00000000E+00  0.00000000E+00  0.00000000E+00
  0.00000000E+00  0.00000000E+00  0.00000000E+00
  0.00000000E+00  0.00000000E+00  0.00000000E+00
  0.00000000E+00  0.00000000E+00  0.00000000E+00
  0.00000000E+00  0.00000000E+00  0.00000000E+00
  0.00000000E+00  0.00000000E+00  0.00000000E+00
  0.00000000E+00  0.00000000E+00  0.00000000E+00
  0.00000000E+00  0.00000000E+00  0.00000000E+00
  0.00000000E+00  0.00000000E+00  0.00000000E+00
  0.00000000E+00  0.00000000E+00  0.00000000E+00
  0.00000000E+00  0.00000000E+00  0.00000000E+00
  0.00000000E+00  0.00000000E+00  0.00000000E+00
  0.00000000E+00  0.00000000E+00  0.00000000E+00
  0.00000000E+00  0.00000000E+00  0.00000000E+00
  0.00000000E+00  0.00000000E+00  0.00000000E+00
  0.00000000E+00  0.00000000E+00  0.00000000E+00
