H1 Ir1 C123 N3 O2                       
   1.00000000000000     
    19.8395748564271059    0.0130011526096864    0.1935842203219134
    -9.9085026870344244   17.0222767571801228   -0.1572767351323267
     0.2904739189212213   -0.1058116344962663   29.7874446744745960
   H    Ir   C    N    O 
     1     1   123     3     2
Direct
  0.5267289397128467  0.5548761247651257  0.5129410872368433
  0.4361243109757880  0.4993001059195338  0.4217035005955930
  0.0416694589810674  0.0841018204642417  0.4000109822977005
  0.0402416648407549  0.2078778998462726  0.4001440097866580
  0.0394278211569032  0.3326254825181106  0.3994856284117954
  0.0398605551855285  0.4581263689423427  0.3988653194195749
  0.0412571338607789  0.5839151424714424  0.3988470555108964
  0.0424440526210295  0.7095321017755384  0.3987976523254878
  0.0427920901953347  0.8348555828899872  0.3990217964735507
  0.0425800196306542  0.9598578836004847  0.3995844505951626
  0.1678038021044752  0.0859138649740859  0.4007582948752118
  0.1667822061643065  0.2102431785298781  0.4015881408165618
  0.1638382158372458  0.3332890671978742  0.4013214680122236
  0.1629553558450532  0.4581867165694026  0.3991314865676455
  0.1645326008719759  0.5836830904842687  0.3988381387460512
  0.1663895749029097  0.7092084092312875  0.3991123185968856
  0.1673018717330878  0.8347889499926354  0.3991431476850057
  0.1676976160404202  0.9604245085377531  0.3996955281172448
  0.2927197964729992  0.0862361438387807  0.4006504560798901
  0.2932718301941020  0.2132733765474232  0.4031176847310862
  0.2908911947769474  0.3381517580127092  0.4062158504668151
  0.2851633622799987  0.4577283575264152  0.4034834210682030
  0.2872826615950259  0.5829223365593236  0.3994272705477707
  0.2903885204891275  0.7084268959221598  0.3992290259822205
  0.2916675661681099  0.8341192718133259  0.3995287856895690
  0.2922749884347750  0.9599659250869739  0.3997129549915419
  0.4171221285120599  0.0844701932958913  0.3999504647988101
  0.4178087086388647  0.2108181482496571  0.4011052858882204
  0.4198148921949891  0.3384630389771293  0.4047862165894393
  0.4143380324438229  0.7058345659094902  0.4005663235228469
  0.4159333643323717  0.8322162496291967  0.3998675144846656
  0.4166530460421841  0.9583728745819061  0.3997706916663549
  0.5414524168522317  0.0826186658732333  0.3996485162165149
  0.5421423954912717  0.2084744751106367  0.3997490053099444
  0.5436500989007508  0.3342374065727814  0.4009447140271268
  0.5487393367943028  0.4600207064977104  0.4053401424035155
  0.5377874387334151  0.7009508922187379  0.4049911355134485
  0.5401288271348813  0.8297158112624003  0.4012599320327927
  0.5409453934433294  0.9564672265881101  0.3999639637627998
  0.6658257382393005  0.0816985529707562  0.3994607544672357
  0.6664214592721942  0.2073724510708320  0.3992443062646789
  0.6676283931580359  0.3330091060874618  0.3993763959178948
  0.6704907213911317  0.4588265111516047  0.4004776143659374
  0.6720631306655218  0.5845602241283108  0.4030538937556665
  0.6669075676589092  0.7062547707147628  0.4033898476429441
  0.6644515302052869  0.8298294488883575  0.4018756575524615
  0.6652541204749596  0.9558616810771645  0.4003290083170919
  0.7903527575719567  0.0815883037398442  0.3995598395450103
  0.7906975898536839  0.2070208401758024  0.3990084956648982
  0.7915678051985384  0.3326420107475301  0.3989171646060439
  0.7932659733786858  0.4583938486804363  0.3989009244511094
  0.7945948399857482  0.5841021920378934  0.3995143826483630
  0.7939163744331638  0.7092238025481159  0.4006092206905731
  0.7913047242877490  0.8323695337709621  0.4004588891305320
  0.7902004233434189  0.9563870362574439  0.4000815427498250
  0.9154938837359392  0.0822911616093124  0.3997192291964730
  0.9151368399129262  0.2071093804173781  0.3994640033395960
  0.9154331690197387  0.3325168966722039  0.3989867362425888
  0.9165633444396283  0.4582771479365682  0.3987792951774969
  0.9179088895330437  0.5840365424959661  0.3987883956558831
  0.9182864806573596  0.7094539410713118  0.3991395576320527
  0.9177674009824910  0.8343315649313248  0.3995327360858166
  0.9165018681704594  0.9582472623135453  0.3997057898996487
  0.0842890450910382  0.0434862118160950  0.4000619438362601
  0.0831871040890688  0.1676451158063045  0.4004480033431484
  0.0811785388681173  0.2912313929396458  0.4002192900915836
  0.0804945194952485  0.4160231477390164  0.3990427502116558
  0.0817728618035944  0.5417485235440954  0.3988320088096735
  0.0833652398588850  0.6675192058488105  0.3989151828144190
  0.0842010475700170  0.7931114589250269  0.3988658368308134
  0.0844418026643138  0.9184649575728541  0.3993882740265798
  0.2094167131179757  0.0441704248155530  0.4004286690693076
  0.2095544302859151  0.1698293936788531  0.4019613895678253
  0.2076258627991355  0.2938991467301686  0.4027375457346583
  0.2037520683700799  0.4164205559978146  0.4006869371470999
  0.2046428561288632  0.5413346738645143  0.3989348157780022
  0.2071563627080551  0.6671442882187841  0.3990421842690027
  0.2085192954387424  0.7928512303477374  0.3992754709136466
  0.2091366165540040  0.9184890515286909  0.3994950928548297
  0.3339712993983858  0.0437418691662982  0.4000423567787930
  0.3344934152473751  0.1702857993000456  0.4016635196995865
  0.3353327717166000  0.2978810773200737  0.4055362308246395
  0.3272806914594399  0.5414462417802235  0.4016165090107142
  0.3309835659388858  0.6662458943956071  0.3994944272663423
  0.3328311986663607  0.7919180190104048  0.3995291960023094
  0.3335411859637462  0.9176864324038697  0.3996784817116750
  0.4583556002713435  0.0419542175391429  0.3997788103692401
  0.4588970152426615  0.1680968520698905  0.4001575269993591
  0.4600784775300418  0.2946112551368386  0.4018201764239218
  0.4665506486910667  0.4216269340301986  0.4079137514790596
  0.4533603667159652  0.6612684425243820  0.4030597743641438
  0.4569896387857663  0.7894996773931502  0.4005175909929333
  0.4578245703054017  0.9158662797193752  0.3998651752484465
  0.5826768219982869  0.0402497501362011  0.3996640670706997
  0.5832879965764387  0.1661996905468086  0.3995112907325729
  0.5843674989367788  0.2919218087489499  0.3998291752018654
  0.5879232946997651  0.4176040596576852  0.4018963355340117
  0.5910928238899503  0.5435194179158725  0.4069310240432267
  0.5831645254084626  0.6613653728291969  0.4069541037249768
  0.5804937247593140  0.7861842041308745  0.4027763334877249
  0.5820774927823574  0.9138801648236332  0.4004702623002995
  0.7071086587677368  0.0396616993932547  0.3997001850294810
  0.7076385336224886  0.1653752609789506  0.3991473785643677
  0.7085029823770884  0.2909951559449574  0.3991310017019523
  0.7105817217073142  0.4165511062922744  0.3993304915753228
  0.7123338942296877  0.5420954312410435  0.4006985822580761
  0.7112789520905450  0.6673599331133043  0.4025066340922229
  0.7075985453063067  0.7897136895231029  0.4016796433131335
  0.7065350703901554  0.9138473546759408  0.4006941755827730
  0.8320623937721929  0.0400932500425410  0.3997367958411982
  0.8320702188676062  0.1652446796277990  0.3992824844879976
  0.8325149872978373  0.2906305307604626  0.3988934628619120
  0.8338238509017883  0.4162885240751636  0.3988169548057998
  0.8352473740579709  0.5420520988883528  0.3989074023334251
  0.8355187568309931  0.6675963491079840  0.3996876713905195
  0.8345501626429034  0.7923175208223713  0.4001325815393386
  0.8328799370189499  0.9158556768830377  0.3999810002438874
  0.9580979222168403  0.0417004435069745  0.3997575496382867
  0.9570227774913922  0.1657760258081093  0.3997466944597361
  0.9566374001317570  0.2906973027429304  0.3993015600769553
  0.9571427539944747  0.4161281490356976  0.3988908856611965
  0.9584917781411777  0.5418991170407287  0.3987648186441127
  0.9595205785022128  0.6676234680286308  0.3988461511483767
  0.9596506203105685  0.7929794934616629  0.3991974930632272
  0.9591785940625016  0.9177144739302714  0.3995403824754347
  0.4075833173304785  0.5802350208606094  0.4042933111746453
  0.5489438006695323  0.5813324194065321  0.4117230540701369
  0.3262205416440505  0.4191457218580276  0.4094331637955077
  0.5032361581834572  0.4980561670850449  0.5086615369119671
  0.4303274114569405  0.4797788656323941  0.4864513958504448
 
  0.00000000E+00  0.00000000E+00  0.00000000E+00
  0.00000000E+00  0.00000000E+00  0.00000000E+00
  0.00000000E+00  0.00000000E+00  0.00000000E+00
  0.00000000E+00  0.00000000E+00  0.00000000E+00
  0.00000000E+00  0.00000000E+00  0.00000000E+00
  0.00000000E+00  0.00000000E+00  0.00000000E+00
  0.00000000E+00  0.00000000E+00  0.00000000E+00
  0.00000000E+00  0.00000000E+00  0.00000000E+00
  0.00000000E+00  0.00000000E+00  0.00000000E+00
  0.00000000E+00  0.00000000E+00  0.00000000E+00
  0.00000000E+00  0.00000000E+00  0.00000000E+00
  0.00000000E+00  0.00000000E+00  0.00000000E+00
  0.00000000E+00  0.00000000E+00  0.00000000E+00
  0.00000000E+00  0.00000000E+00  0.00000000E+00
  0.00000000E+00  0.00000000E+00  0.00000000E+00
  0.00000000E+00  0.00000000E+00  0.00000000E+00
  0.00000000E+00  0.00000000E+00  0.00000000E+00
  0.00000000E+00  0.00000000E+00  0.00000000E+00
  0.00000000E+00  0.00000000E+00  0.00000000E+00
  0.00000000E+00  0.00000000E+00  0.00000000E+00
  0.00000000E+00  0.00000000E+00  0.00000000E+00
  0.00000000E+00  0.00000000E+00  0.00000000E+00
  0.00000000E+00  0.00000000E+00  0.00000000E+00
  0.00000000E+00  0.00000000E+00  0.00000000E+00
  0.00000000E+00  0.00000000E+00  0.00000000E+00
  0.00000000E+00  0.00000000E+00  0.00000000E+00
  0.00000000E+00  0.00000000E+00  0.00000000E+00
  0.00000000E+00  0.00000000E+00  0.00000000E+00
  0.00000000E+00  0.00000000E+00  0.00000000E+00
  0.00000000E+00  0.00000000E+00  0.00000000E+00
  0.00000000E+00  0.00000000E+00  0.00000000E+00
  0.00000000E+00  0.00000000E+00  0.00000000E+00
  0.00000000E+00  0.00000000E+00  0.00000000E+00
  0.00000000E+00  0.00000000E+00  0.00000000E+00
  0.00000000E+00  0.00000000E+00  0.00000000E+00
  0.00000000E+00  0.00000000E+00  0.00000000E+00
  0.00000000E+00  0.00000000E+00  0.00000000E+00
  0.00000000E+00  0.00000000E+00  0.00000000E+00
  0.00000000E+00  0.00000000E+00  0.00000000E+00
  0.00000000E+00  0.00000000E+00  0.00000000E+00
  0.00000000E+00  0.00000000E+00  0.00000000E+00
  0.00000000E+00  0.00000000E+00  0.00000000E+00
  0.00000000E+00  0.00000000E+00  0.00000000E+00
  0.00000000E+00  0.00000000E+00  0.00000000E+00
  0.00000000E+00  0.00000000E+00  0.00000000E+00
  0.00000000E+00  0.00000000E+00  0.00000000E+00
  0.00000000E+00  0.00000000E+00  0.00000000E+00
  0.00000000E+00  0.00000000E+00  0.00000000E+00
  0.00000000E+00  0.00000000E+00  0.00000000E+00
  0.00000000E+00  0.00000000E+00  0.00000000E+00
  0.00000000E+00  0.00000000E+00  0.00000000E+00
  0.00000000E+00  0.00000000E+00  0.00000000E+00
  0.00000000E+00  0.00000000E+00  0.00000000E+00
  0.00000000E+00  0.00000000E+00  0.00000000E+00
  0.00000000E+00  0.00000000E+00  0.00000000E+00
  0.00000000E+00  0.00000000E+00  0.00000000E+00
  0.00000000E+00  0.00000000E+00  0.00000000E+00
  0.00000000E+00  0.00000000E+00  0.00000000E+00
  0.00000000E+00  0.00000000E+00  0.00000000E+00
  0.00000000E+00  0.00000000E+00  0.00000000E+00
  0.00000000E+00  0.00000000E+00  0.00000000E+00
  0.00000000E+00  0.00000000E+00  0.00000000E+00
  0.00000000E+00  0.00000000E+00  0.00000000E+00
  0.00000000E+00  0.00000000E+00  0.00000000E+00
  0.00000000E+00  0.00000000E+00  0.00000000E+00
  0.00000000E+00  0.00000000E+00  0.00000000E+00
  0.00000000E+00  0.00000000E+00  0.00000000E+00
  0.00000000E+00  0.00000000E+00  0.00000000E+00
  0.00000000E+00  0.00000000E+00  0.00000000E+00
  0.00000000E+00  0.00000000E+00  0.00000000E+00
  0.00000000E+00  0.00000000E+00  0.00000000E+00
  0.00000000E+00  0.00000000E+00  0.00000000E+00
  0.00000000E+00  0.00000000E+00  0.00000000E+00
  0.00000000E+00  0.00000000E+00  0.00000000E+00
  0.00000000E+00  0.00000000E+00  0.00000000E+00
  0.00000000E+00  0.00000000E+00  0.00000000E+00
  0.00000000E+00  0.00000000E+00  0.00000000E+00
  0.00000000E+00  0.00000000E+00  0.00000000E+00
  0.00000000E+00  0.00000000E+00  0.00000000E+00
  0.00000000E+00  0.00000000E+00  0.00000000E+00
  0.00000000E+00  0.00000000E+00  0.00000000E+00
  0.00000000E+00  0.00000000E+00  0.00000000E+00
  0.00000000E+00  0.00000000E+00  0.00000000E+00
  0.00000000E+00  0.00000000E+00  0.00000000E+00
  0.00000000E+00  0.00000000E+00  0.00000000E+00
  0.00000000E+00  0.00000000E+00  0.00000000E+00
  0.00000000E+00  0.00000000E+00  0.00000000E+00
  0.00000000E+00  0.00000000E+00  0.00000000E+00
  0.00000000E+00  0.00000000E+00  0.00000000E+00
  0.00000000E+00  0.00000000E+00  0.00000000E+00
  0.00000000E+00  0.00000000E+00  0.00000000E+00
  0.00000000E+00  0.00000000E+00  0.00000000E+00
  0.00000000E+00  0.00000000E+00  0.00000000E+00
  0.00000000E+00  0.00000000E+00  0.00000000E+00
  0.00000000E+00  0.00000000E+00  0.00000000E+00
  0.00000000E+00  0.00000000E+00  0.00000000E+00
  0.00000000E+00  0.00000000E+00  0.00000000E+00
  0.00000000E+00  0.00000000E+00  0.00000000E+00
  0.00000000E+00  0.00000000E+00  0.00000000E+00
  0.00000000E+00  0.00000000E+00  0.00000000E+00
  0.00000000E+00  0.00000000E+00  0.00000000E+00
  0.00000000E+00  0.00000000E+00  0.00000000E+00
  0.00000000E+00  0.00000000E+00  0.00000000E+00
  0.00000000E+00  0.00000000E+00  0.00000000E+00
  0.00000000E+00  0.00000000E+00  0.00000000E+00
  0.00000000E+00  0.00000000E+00  0.00000000E+00
  0.00000000E+00  0.00000000E+00  0.00000000E+00
  0.00000000E+00  0.00000000E+00  0.00000000E+00
  0.00000000E+00  0.00000000E+00  0.00000000E+00
  0.00000000E+00  0.00000000E+00  0.00000000E+00
  0.00000000E+00  0.00000000E+00  0.00000000E+00
  0.00000000E+00  0.00000000E+00  0.00000000E+00
  0.00000000E+00  0.00000000E+00  0.00000000E+00
  0.00000000E+00  0.00000000E+00  0.00000000E+00
  0.00000000E+00  0.00000000E+00  0.00000000E+00
  0.00000000E+00  0.00000000E+00  0.00000000E+00
  0.00000000E+00  0.00000000E+00  0.00000000E+00
  0.00000000E+00  0.00000000E+00  0.00000000E+00
  0.00000000E+00  0.00000000E+00  0.00000000E+00
  0.00000000E+00  0.00000000E+00  0.00000000E+00
  0.00000000E+00  0.00000000E+00  0.00000000E+00
  0.00000000E+00  0.00000000E+00  0.00000000E+00
  0.00000000E+00  0.00000000E+00  0.00000000E+00
  0.00000000E+00  0.00000000E+00  0.00000000E+00
  0.00000000E+00  0.00000000E+00  0.00000000E+00
  0.00000000E+00  0.00000000E+00  0.00000000E+00
  0.00000000E+00  0.00000000E+00  0.00000000E+00
  0.00000000E+00  0.00000000E+00  0.00000000E+00
  0.00000000E+00  0.00000000E+00  0.00000000E+00
  0.00000000E+00  0.00000000E+00  0.00000000E+00
