Re1 H1 C125 N1 O1                       
   1.00000000000000     
    19.8016672621070065   -0.0111720702496230    0.0360979452267648
    -9.9107552042976241   17.0471241152381126   -0.1665893170700851
     0.0542692596000205   -0.2597345346146965   29.8212647995405540
   Re   H    C    N    O 
     1     1   125     1     1
Direct
  0.4382599751127088  0.5036118414783316  0.4322431100503211
  0.4919040000283384  0.5371033045184834  0.5136193372681194
  0.0421833668936888  0.0843331350200885  0.3996120582936438
  0.0415682649551247  0.2086125819537804  0.3995633222899336
  0.0409317131990225  0.3331547645574501  0.3995889759918492
  0.0407783313781716  0.4583666052115306  0.3994779026363288
  0.0414013310668015  0.5837914468973070  0.3995815509711007
  0.0419910960160276  0.7091485350215521  0.3997075859752872
  0.0422243550803334  0.8344229525187185  0.3996497657895884
  0.0422898767107574  0.9595196668376230  0.3995621315594945
  0.1677429183952216  0.0853828908568115  0.3997171656708858
  0.1679925344292003  0.2106636709299960  0.3996931083919874
  0.1664337174341511  0.3343832504428516  0.3999231845088592
  0.1647784825440197  0.4586877733789478  0.4000504137216032
  0.1653384915667755  0.5838133952112120  0.3997192141549374
  0.1663442493168404  0.7091217434395404  0.3997100826750752
  0.1669569299091160  0.8344681283234535  0.3997967978903860
  0.1673718342726540  0.9598871779284383  0.3997844048102983
  0.2925674397081760  0.0853160231554674  0.3999241006528121
  0.2934261310791592  0.2117082181412813  0.4007083913911285
  0.2943725620596060  0.3382455461830237  0.4014592162517846
  0.2892114568768208  0.4597917813066096  0.4012157123147498
  0.2890314779725796  0.5842529861349297  0.4000767656993186
  0.2907227613900176  0.7089757219608186  0.3995902586368545
  0.2915861576967569  0.8341383104786984  0.3996497792884525
  0.2920549717965215  0.9595531697695018  0.3997754691493582
  0.4170959803953332  0.0842051408630657  0.3997898044927207
  0.4176747209463325  0.2103009039494001  0.4002439377628672
  0.4191078650384020  0.3377615900663758  0.4033680334414340
  0.4148547179100843  0.7064373759354452  0.3994940791805477
  0.4160805685384301  0.8326126866276866  0.3993555082743480
  0.4166545486189475  0.9584256984337247  0.3996499639025688
  0.5416088960876214  0.0827545395329429  0.3997371277916149
  0.5421368976198138  0.2082038075158083  0.3998464741677569
  0.5430407909374748  0.3334413423373381  0.4009482798457036
  0.5459836228355988  0.4581265330464410  0.4034252540245458
  0.5428244373064524  0.5786283130222812  0.4042914719894805
  0.5382919894648558  0.7034295309655159  0.4008075640332657
  0.5404143233773888  0.8310282463451566  0.3995316724158067
  0.5411818929230098  0.9571286041860486  0.3995707181348983
  0.6662499024369544  0.0821605173294549  0.3998313154649206
  0.6666974913161194  0.2075345165841187  0.3997504781611787
  0.6674350800640759  0.3328494947591737  0.3998767649481189
  0.6691894491587884  0.4582916876289183  0.4001577579344547
  0.6697377963818182  0.5833289904599225  0.3999132760277356
  0.6652641628907447  0.7057862902278476  0.3994532112272081
  0.6646887156491098  0.8306190786338379  0.3996146306947371
  0.6657008209936747  0.9566027559921688  0.3997756867379920
  0.7910131505999956  0.0821620020248507  0.3998170129027515
  0.7913311531810167  0.2074171499397998  0.3997478754070202
  0.7918723553228246  0.3327765104609220  0.3996000762262787
  0.7928179078489539  0.4582231494255363  0.3995508145136973
  0.7934503348561902  0.5835471639572998  0.3994359374457379
  0.7924659982591012  0.7084952670440129  0.3991814900290506
  0.7908234110488530  0.8322002727494826  0.3993058095862807
  0.7906058685866736  0.9568948820712752  0.3997010941405010
  0.9162417316219063  0.0828472129659874  0.3997322996213919
  0.9161664530584362  0.2076881371323654  0.3996138741098211
  0.9162795164469616  0.3328425447247262  0.3994319229712388
  0.9167639516666420  0.4582405786471628  0.3994716126334475
  0.9174440229904656  0.5837370664414964  0.3995170136894018
  0.9174368283045574  0.7089965449047163  0.3994467481149813
  0.9170825492192821  0.8338703564413976  0.3994065716067166
  0.9164935089885327  0.9582884959883321  0.3995934193538068
  0.0842062609960954  0.0431387973271593  0.3995702036783897
  0.0841507770850691  0.1679908514025762  0.3995709426419798
  0.0829970205806695  0.2920073467176785  0.3996360782063417
  0.0820238929854557  0.4166579039467316  0.3996374766261842
  0.0824079335804179  0.5419111401949480  0.3995852960171077
  0.0832209591410135  0.6673309885590530  0.3996773044735717
  0.0837377265684557  0.7927282951786796  0.3997758196464619
  0.0839916498723240  0.9179767007971293  0.3996487159346217
  0.2091934335390616  0.0434774995542775  0.3998387851647400
  0.2097673336775730  0.1691913930990921  0.3999555541152093
  0.2100116459533398  0.2945957941652718  0.3999690607470889
  0.2064156030418909  0.4175745796586846  0.4003903463035289
  0.2061425100412759  0.5419966002334670  0.3999926639062688
  0.2075123959535013  0.6673232584935482  0.3996940318357570
  0.2083467843773710  0.7926527641402452  0.3997317341441121
  0.2088248623806248  0.9180192021665672  0.3998049639799477
  0.3338384360892030  0.0431060380289835  0.3997991239839996
  0.3344439238656794  0.1690305418851491  0.4003102927805922
  0.3355176517933548  0.2956457810251879  0.4021246345763060
  0.3340922859902294  0.4223032382876057  0.4034063478110548
  0.3298544777011081  0.5433878637529597  0.4008761736177992
  0.3317193329617331  0.6671711420356365  0.3996823935539401
  0.3329300319230314  0.7922134228276155  0.3995040460669245
  0.3334400819350453  0.9175199700547526  0.3996956990679731
  0.4584328414715295  0.0419027936423448  0.3997217124814070
  0.4588843654976350  0.1677309419028985  0.3998810666803873
  0.4597519576889760  0.2941061137870691  0.4011664125028779
  0.4638134678660093  0.4215411615834519  0.4078935217731861
  0.4546206158690146  0.6624785897761741  0.4007836830028574
  0.4572888345980605  0.7901159703967933  0.3992598550604726
  0.4579564508595740  0.9161466265547694  0.3995094012278930
  0.5829977149354817  0.0406828419030654  0.3997309522085852
  0.5834698501249076  0.1661898663550682  0.3997431100213709
  0.5841883796147440  0.2914432505396935  0.4001131405162167
  0.5862928834493820  0.4164892083943614  0.4013457100347765
  0.5878709719058639  0.5414298141814157  0.4016669813412178
  0.5806265110843728  0.6617644552879071  0.4010121506637045
  0.5808151453034252  0.7879210238375520  0.3998829960323027
  0.5824313873039524  0.9148746538821350  0.3995980062558916
  0.7076551293736221  0.0402677429597180  0.3998504467103117
  0.7081204273884553  0.1657219976630497  0.3998062219619757
  0.7086520838557314  0.2910480675713423  0.3997200839065482
  0.7099151486438396  0.4164044946580681  0.3997738658918878
  0.7109272423834764  0.5416219056853149  0.3998008978964338
  0.7092377352634218  0.6663924071772477  0.3993354189579804
  0.7069201237605212  0.7895024168921738  0.3992977176242488
  0.7069198960699028  0.9145029091726699  0.3996864468985697
  0.8326604804759969  0.0405952961815741  0.3997851780903182
  0.8328409839167817  0.1657421498056608  0.3997387854992280
  0.8331547472579215  0.2909837468215684  0.3995786671844112
  0.8338199318436851  0.4163200829938963  0.3995322907368091
  0.8345606197264368  0.5417677639835423  0.3994936902611416
  0.8344039416225663  0.6671229600678158  0.3993190278189289
  0.8336190976402155  0.7917356495574207  0.3992461783243045
  0.8327597189950015  0.9158566961046439  0.3995679960734052
  0.9584605235693535  0.0418810152557866  0.3996785389483720
  0.9580640329795809  0.1663791564126087  0.3996212042153056
  0.9577803217055927  0.2911982071456088  0.3994967722599140
  0.9578452205234059  0.4163906945868056  0.3994020953754770
  0.9584898576581522  0.5418492287891564  0.3995354987043241
  0.9589102870081897  0.6672824012822993  0.3995633784194840
  0.9589561167408392  0.7925290307861714  0.3994871024655094
  0.9587602978101848  0.9173487266706901  0.3995126002426276
  0.4102939936154166  0.5807673697831467  0.4031000685511771
  0.4442368107852319  0.5114138554158320  0.4955410492580646
 
  0.00000000E+00  0.00000000E+00  0.00000000E+00
  0.00000000E+00  0.00000000E+00  0.00000000E+00
  0.00000000E+00  0.00000000E+00  0.00000000E+00
  0.00000000E+00  0.00000000E+00  0.00000000E+00
  0.00000000E+00  0.00000000E+00  0.00000000E+00
  0.00000000E+00  0.00000000E+00  0.00000000E+00
  0.00000000E+00  0.00000000E+00  0.00000000E+00
  0.00000000E+00  0.00000000E+00  0.00000000E+00
  0.00000000E+00  0.00000000E+00  0.00000000E+00
  0.00000000E+00  0.00000000E+00  0.00000000E+00
  0.00000000E+00  0.00000000E+00  0.00000000E+00
  0.00000000E+00  0.00000000E+00  0.00000000E+00
  0.00000000E+00  0.00000000E+00  0.00000000E+00
  0.00000000E+00  0.00000000E+00  0.00000000E+00
  0.00000000E+00  0.00000000E+00  0.00000000E+00
  0.00000000E+00  0.00000000E+00  0.00000000E+00
  0.00000000E+00  0.00000000E+00  0.00000000E+00
  0.00000000E+00  0.00000000E+00  0.00000000E+00
  0.00000000E+00  0.00000000E+00  0.00000000E+00
  0.00000000E+00  0.00000000E+00  0.00000000E+00
  0.00000000E+00  0.00000000E+00  0.00000000E+00
  0.00000000E+00  0.00000000E+00  0.00000000E+00
  0.00000000E+00  0.00000000E+00  0.00000000E+00
  0.00000000E+00  0.00000000E+00  0.00000000E+00
  0.00000000E+00  0.00000000E+00  0.00000000E+00
  0.00000000E+00  0.00000000E+00  0.00000000E+00
  0.00000000E+00  0.00000000E+00  0.00000000E+00
  0.00000000E+00  0.00000000E+00  0.00000000E+00
  0.00000000E+00  0.00000000E+00  0.00000000E+00
  0.00000000E+00  0.00000000E+00  0.00000000E+00
  0.00000000E+00  0.00000000E+00  0.00000000E+00
  0.00000000E+00  0.00000000E+00  0.00000000E+00
  0.00000000E+00  0.00000000E+00  0.00000000E+00
  0.00000000E+00  0.00000000E+00  0.00000000E+00
  0.00000000E+00  0.00000000E+00  0.00000000E+00
  0.00000000E+00  0.00000000E+00  0.00000000E+00
  0.00000000E+00  0.00000000E+00  0.00000000E+00
  0.00000000E+00  0.00000000E+00  0.00000000E+00
  0.00000000E+00  0.00000000E+00  0.00000000E+00
  0.00000000E+00  0.00000000E+00  0.00000000E+00
  0.00000000E+00  0.00000000E+00  0.00000000E+00
  0.00000000E+00  0.00000000E+00  0.00000000E+00
  0.00000000E+00  0.00000000E+00  0.00000000E+00
  0.00000000E+00  0.00000000E+00  0.00000000E+00
  0.00000000E+00  0.00000000E+00  0.00000000E+00
  0.00000000E+00  0.00000000E+00  0.00000000E+00
  0.00000000E+00  0.00000000E+00  0.00000000E+00
  0.00000000E+00  0.00000000E+00  0.00000000E+00
  0.00000000E+00  0.00000000E+00  0.00000000E+00
  0.00000000E+00  0.00000000E+00  0.00000000E+00
  0.00000000E+00  0.00000000E+00  0.00000000E+00
  0.00000000E+00  0.00000000E+00  0.00000000E+00
  0.00000000E+00  0.00000000E+00  0.00000000E+00
  0.00000000E+00  0.00000000E+00  0.00000000E+00
  0.00000000E+00  0.00000000E+00  0.00000000E+00
  0.00000000E+00  0.00000000E+00  0.00000000E+00
  0.00000000E+00  0.00000000E+00  0.00000000E+00
  0.00000000E+00  0.00000000E+00  0.00000000E+00
  0.00000000E+00  0.00000000E+00  0.00000000E+00
  0.00000000E+00  0.00000000E+00  0.00000000E+00
  0.00000000E+00  0.00000000E+00  0.00000000E+00
  0.00000000E+00  0.00000000E+00  0.00000000E+00
  0.00000000E+00  0.00000000E+00  0.00000000E+00
  0.00000000E+00  0.00000000E+00  0.00000000E+00
  0.00000000E+00  0.00000000E+00  0.00000000E+00
  0.00000000E+00  0.00000000E+00  0.00000000E+00
  0.00000000E+00  0.00000000E+00  0.00000000E+00
  0.00000000E+00  0.00000000E+00  0.00000000E+00
  0.00000000E+00  0.00000000E+00  0.00000000E+00
  0.00000000E+00  0.00000000E+00  0.00000000E+00
  0.00000000E+00  0.00000000E+00  0.00000000E+00
  0.00000000E+00  0.00000000E+00  0.00000000E+00
  0.00000000E+00  0.00000000E+00  0.00000000E+00
  0.00000000E+00  0.00000000E+00  0.00000000E+00
  0.00000000E+00  0.00000000E+00  0.00000000E+00
  0.00000000E+00  0.00000000E+00  0.00000000E+00
  0.00000000E+00  0.00000000E+00  0.00000000E+00
  0.00000000E+00  0.00000000E+00  0.00000000E+00
  0.00000000E+00  0.00000000E+00  0.00000000E+00
  0.00000000E+00  0.00000000E+00  0.00000000E+00
  0.00000000E+00  0.00000000E+00  0.00000000E+00
  0.00000000E+00  0.00000000E+00  0.00000000E+00
  0.00000000E+00  0.00000000E+00  0.00000000E+00
  0.00000000E+00  0.00000000E+00  0.00000000E+00
  0.00000000E+00  0.00000000E+00  0.00000000E+00
  0.00000000E+00  0.00000000E+00  0.00000000E+00
  0.00000000E+00  0.00000000E+00  0.00000000E+00
  0.00000000E+00  0.00000000E+00  0.00000000E+00
  0.00000000E+00  0.00000000E+00  0.00000000E+00
  0.00000000E+00  0.00000000E+00  0.00000000E+00
  0.00000000E+00  0.00000000E+00  0.00000000E+00
  0.00000000E+00  0.00000000E+00  0.00000000E+00
  0.00000000E+00  0.00000000E+00  0.00000000E+00
  0.00000000E+00  0.00000000E+00  0.00000000E+00
  0.00000000E+00  0.00000000E+00  0.00000000E+00
  0.00000000E+00  0.00000000E+00  0.00000000E+00
  0.00000000E+00  0.00000000E+00  0.00000000E+00
  0.00000000E+00  0.00000000E+00  0.00000000E+00
  0.00000000E+00  0.00000000E+00  0.00000000E+00
  0.00000000E+00  0.00000000E+00  0.00000000E+00
  0.00000000E+00  0.00000000E+00  0.00000000E+00
  0.00000000E+00  0.00000000E+00  0.00000000E+00
  0.00000000E+00  0.00000000E+00  0.00000000E+00
  0.00000000E+00  0.00000000E+00  0.00000000E+00
  0.00000000E+00  0.00000000E+00  0.00000000E+00
  0.00000000E+00  0.00000000E+00  0.00000000E+00
  0.00000000E+00  0.00000000E+00  0.00000000E+00
  0.00000000E+00  0.00000000E+00  0.00000000E+00
  0.00000000E+00  0.00000000E+00  0.00000000E+00
  0.00000000E+00  0.00000000E+00  0.00000000E+00
  0.00000000E+00  0.00000000E+00  0.00000000E+00
  0.00000000E+00  0.00000000E+00  0.00000000E+00
  0.00000000E+00  0.00000000E+00  0.00000000E+00
  0.00000000E+00  0.00000000E+00  0.00000000E+00
  0.00000000E+00  0.00000000E+00  0.00000000E+00
  0.00000000E+00  0.00000000E+00  0.00000000E+00
  0.00000000E+00  0.00000000E+00  0.00000000E+00
  0.00000000E+00  0.00000000E+00  0.00000000E+00
  0.00000000E+00  0.00000000E+00  0.00000000E+00
  0.00000000E+00  0.00000000E+00  0.00000000E+00
  0.00000000E+00  0.00000000E+00  0.00000000E+00
  0.00000000E+00  0.00000000E+00  0.00000000E+00
  0.00000000E+00  0.00000000E+00  0.00000000E+00
  0.00000000E+00  0.00000000E+00  0.00000000E+00
  0.00000000E+00  0.00000000E+00  0.00000000E+00
  0.00000000E+00  0.00000000E+00  0.00000000E+00
  0.00000000E+00  0.00000000E+00  0.00000000E+00
  0.00000000E+00  0.00000000E+00  0.00000000E+00
  0.00000000E+00  0.00000000E+00  0.00000000E+00
