Y1 C124 N2 O1                           
   1.00000000000000     
    19.8046994357888728   -0.0221596461832891   -0.0078635002166908
    -9.9214331019040909   17.0746604057889009   -0.0481281561517444
    -0.0119357705324937   -0.0907733791602148   29.7761349025505062
   Y    C    N    O 
     1   124     2     1
Direct
  0.4343003457522071  0.5004063183323308  0.4556596082938560
  0.0420082965931441  0.0840132109580267  0.3993854681219280
  0.0415131273509103  0.2084970640630034  0.3988764351535088
  0.0410262304828241  0.3331420109330318  0.3980206789058806
  0.0408297546295501  0.4584889324737765  0.3977585196375901
  0.0412187081271937  0.5838131348554548  0.3980691262906938
  0.0416979548536355  0.7090712985384866  0.3982874092779939
  0.0419942461941547  0.8342766021898722  0.3986348401460258
  0.0422633650578649  0.9594295826833864  0.3991353237648390
  0.1678860904283003  0.0853579719047937  0.3999905974458594
  0.1673276767413245  0.2096824683252965  0.4004268344498441
  0.1664445494357276  0.3342411896531156  0.3994136806923332
  0.1648876657783336  0.4588199551884518  0.3981506352329145
  0.1653023397290148  0.5839542675070635  0.3977279286129659
  0.1661240773052154  0.7092247389839077  0.3982369278551704
  0.1667434330362189  0.8344576932174332  0.3987905545631525
  0.1672720098374429  0.9597828722916457  0.3992622038214778
  0.2925382435480081  0.0849787375446185  0.3999617302551365
  0.2942917579599562  0.2119341219404590  0.4027365659297625
  0.2928366833058423  0.3365472774667697  0.4047244837690545
  0.2896780580415562  0.4596508336244615  0.4028477585621877
  0.2890824888382911  0.5849588678566363  0.3997204779209492
  0.2904738386697320  0.7094884530723284  0.3986855096596901
  0.2913917500337790  0.8342876654381078  0.3988029806955751
  0.2918860921636673  0.9594088594697799  0.3991619397782505
  0.4171005914530286  0.0835962769058972  0.3992476385096667
  0.4177292284981695  0.2087875749338480  0.4005125164089259
  0.4217657473963741  0.3361917811888926  0.4074325326840597
  0.4148665420133728  0.7081868111807320  0.4014618754441838
  0.4160390767260781  0.8333105859430792  0.3994341310979343
  0.4165644244061181  0.9584334981590509  0.3992817643837829
  0.5417367574212554  0.0825424615677958  0.3990974812096720
  0.5423093887806242  0.2076038004899932  0.3986657475347389
  0.5434700284310245  0.3324936001412861  0.4002322687751723
  0.5437873416896389  0.4553523603191288  0.4069675680762759
  0.5457939659764249  0.5814768001404484  0.4144237407751369
  0.5391521293869967  0.7042783146146503  0.4065268677616827
  0.5404480810713860  0.8313914811546876  0.4009674933945745
  0.5412644428603698  0.9572038661152660  0.3994675445354660
  0.6663643020489239  0.0821453356705592  0.3990098393516903
  0.6669068779522348  0.2074536827640243  0.3983924859277420
  0.6675986459334611  0.3326077933245880  0.3975671143094977
  0.6685664814528732  0.4578577396462871  0.3977762834864607
  0.6683740810910384  0.5824442796379348  0.4000293530179974
  0.6661976841618198  0.7066772116451762  0.4014187890451570
  0.6651369456929688  0.8308595847711854  0.4008300160386379
  0.6659092356530620  0.9567278697658163  0.3995996280874716
  0.7911657735525910  0.0822139657474624  0.3988911868907323
  0.7914883675730584  0.2074312800919479  0.3985248790246358
  0.7920115245430088  0.3327767482094061  0.3978945598424225
  0.7925684393388680  0.4581259668000019  0.3969983630858103
  0.7927765255532105  0.5833122991985797  0.3966751794297130
  0.7920208205679741  0.7080815449924858  0.3977128453173741
  0.7913001053653023  0.8325972534256906  0.3986685289131564
  0.7907903246266996  0.9570146335545355  0.3991064187973557
  0.9163364537745993  0.0828454178098328  0.3989824108244798
  0.9162792432506101  0.2077544830721492  0.3984920089187038
  0.9163906380484038  0.3329148866504343  0.3981511629769485
  0.9166591908095678  0.4582259454730605  0.3979815657147052
  0.9170783361128911  0.5836244689702409  0.3975662594480847
  0.9171141288723504  0.7088596462214074  0.3974477572109669
  0.9169062846831265  0.8336799789566782  0.3981837850935098
  0.9165953004201518  0.9582700728198736  0.3988917620748691
  0.0842070550896378  0.0430602467408273  0.3994875548871863
  0.0836753766582446  0.1674259493258464  0.3994582874917166
  0.0829120300442924  0.2919335310569081  0.3985251615015532
  0.0821353859350514  0.4168016938601848  0.3977400924351613
  0.0823199298183974  0.5420038505174474  0.3977710165730549
  0.0829607840082260  0.6673453523693522  0.3982215170080445
  0.0835194300782443  0.7926856583285145  0.3986109849346154
  0.0838303308903222  0.9178672638689807  0.3990558090619667
  0.2091484627020865  0.0432889327153128  0.3997602518054762
  0.2099520107975629  0.1691254982816934  0.4010202723080420
  0.2087686762421363  0.2932035673733498  0.4010021380282825
  0.2064937174760396  0.4176696972020859  0.3994701479912661
  0.2062586661331190  0.5423510585261303  0.3981093787565524
  0.2074082331922190  0.6675820234702439  0.3980843495731901
  0.2081162316985431  0.7926934799006244  0.3985768399190832
  0.2086626937602223  0.9179318618041119  0.3990642319676012
  0.3337796719758173  0.0428053724799440  0.3993945661918705
  0.3346565411242385  0.1685154791554445  0.4011697108722645
  0.3366171468577828  0.2956210187664501  0.4060656642330215
  0.3288644125614371  0.4182413328527830  0.4069657794673310
  0.3317708405111363  0.5455871562468938  0.4035670262084901
  0.3317481239125505  0.6678855651010883  0.3998314602199868
  0.3327605962142255  0.7925949283562820  0.3989312160488890
  0.3333596993453398  0.9175803251254600  0.3991076874932756
  0.4585244393335822  0.0416681016581042  0.3992383359858543
  0.4590523120995231  0.1667945599547028  0.3992341401846502
  0.4604148349025528  0.2920042100646200  0.4021467486744141
  0.4538279598678148  0.6640330562073492  0.4059746835761014
  0.4573893625463964  0.7913294392342038  0.4004517833972334
  0.4579796492738690  0.9164824676227724  0.3993919660854606
  0.5831574518732483  0.0406399521720985  0.3992154743204451
  0.5836581411252016  0.1658607785813772  0.3986468132760460
  0.5845755937521036  0.2907723760223067  0.3984202124804220
  0.5857920339663610  0.4154496078542885  0.4005108711654378
  0.5860530509421211  0.5413046547732266  0.4068067555944258
  0.5829211747545319  0.6631948558880778  0.4073471632650654
  0.5809050050012091  0.7879161610736314  0.4026490671867664
  0.5824849619294923  0.9149517922051096  0.3998867069866964
  0.7077600683560489  0.0402592434400743  0.3991011539193073
  0.7082512732880356  0.1656462684674269  0.3986664058591266
  0.7088825789938591  0.2909212953296473  0.3978205454292506
  0.7095671034858286  0.4162256560465990  0.3970109119241039
  0.7100231109544025  0.5414114051370148  0.3975302893423213
  0.7087445888806900  0.6658603951680118  0.3994459720786134
  0.7076267551818194  0.7902103148370829  0.3999573808203952
  0.7071535859442963  0.9146714160600469  0.3997030691665623
  0.8327323650519426  0.0406373559634321  0.3989743106909813
  0.8329716921795433  0.1657939505679485  0.3986394134820061
  0.8333042503518201  0.2910646867373623  0.3982564963109840
  0.8337083967977484  0.4163400026655267  0.3976462228412962
  0.8340926571255296  0.5416452550759830  0.3968981032834361
  0.8339710240266776  0.6669304139758211  0.3970037147550594
  0.8334988321279163  0.7915954989201660  0.3980161002581299
  0.8329799828371656  0.9160288029348372  0.3988456515240849
  0.9583763471147538  0.0417875103290331  0.3991129201095829
  0.9580789526599441  0.1663997131440163  0.3987655153630928
  0.9578556219352792  0.2912279532289954  0.3981696298869377
  0.9578568491057837  0.4164913574179948  0.3980220845574807
  0.9582762455356305  0.5419130976188032  0.3979865582291588
  0.9586020783227902  0.6672245679160475  0.3977476478634219
  0.9587274447182845  0.7923409712775481  0.3980774378799724
  0.9586625640911389  0.9172336565458121  0.3987685185613098
  0.4098751045746087  0.5847184055522269  0.4088643208335333
  0.4655126336982846  0.4153984911955615  0.4130288941917651
  0.4731966331817382  0.5291630271228197  0.5166712914251355
 
  0.00000000E+00  0.00000000E+00  0.00000000E+00
  0.00000000E+00  0.00000000E+00  0.00000000E+00
  0.00000000E+00  0.00000000E+00  0.00000000E+00
  0.00000000E+00  0.00000000E+00  0.00000000E+00
  0.00000000E+00  0.00000000E+00  0.00000000E+00
  0.00000000E+00  0.00000000E+00  0.00000000E+00
  0.00000000E+00  0.00000000E+00  0.00000000E+00
  0.00000000E+00  0.00000000E+00  0.00000000E+00
  0.00000000E+00  0.00000000E+00  0.00000000E+00
  0.00000000E+00  0.00000000E+00  0.00000000E+00
  0.00000000E+00  0.00000000E+00  0.00000000E+00
  0.00000000E+00  0.00000000E+00  0.00000000E+00
  0.00000000E+00  0.00000000E+00  0.00000000E+00
  0.00000000E+00  0.00000000E+00  0.00000000E+00
  0.00000000E+00  0.00000000E+00  0.00000000E+00
  0.00000000E+00  0.00000000E+00  0.00000000E+00
  0.00000000E+00  0.00000000E+00  0.00000000E+00
  0.00000000E+00  0.00000000E+00  0.00000000E+00
  0.00000000E+00  0.00000000E+00  0.00000000E+00
  0.00000000E+00  0.00000000E+00  0.00000000E+00
  0.00000000E+00  0.00000000E+00  0.00000000E+00
  0.00000000E+00  0.00000000E+00  0.00000000E+00
  0.00000000E+00  0.00000000E+00  0.00000000E+00
  0.00000000E+00  0.00000000E+00  0.00000000E+00
  0.00000000E+00  0.00000000E+00  0.00000000E+00
  0.00000000E+00  0.00000000E+00  0.00000000E+00
  0.00000000E+00  0.00000000E+00  0.00000000E+00
  0.00000000E+00  0.00000000E+00  0.00000000E+00
  0.00000000E+00  0.00000000E+00  0.00000000E+00
  0.00000000E+00  0.00000000E+00  0.00000000E+00
  0.00000000E+00  0.00000000E+00  0.00000000E+00
  0.00000000E+00  0.00000000E+00  0.00000000E+00
  0.00000000E+00  0.00000000E+00  0.00000000E+00
  0.00000000E+00  0.00000000E+00  0.00000000E+00
  0.00000000E+00  0.00000000E+00  0.00000000E+00
  0.00000000E+00  0.00000000E+00  0.00000000E+00
  0.00000000E+00  0.00000000E+00  0.00000000E+00
  0.00000000E+00  0.00000000E+00  0.00000000E+00
  0.00000000E+00  0.00000000E+00  0.00000000E+00
  0.00000000E+00  0.00000000E+00  0.00000000E+00
  0.00000000E+00  0.00000000E+00  0.00000000E+00
  0.00000000E+00  0.00000000E+00  0.00000000E+00
  0.00000000E+00  0.00000000E+00  0.00000000E+00
  0.00000000E+00  0.00000000E+00  0.00000000E+00
  0.00000000E+00  0.00000000E+00  0.00000000E+00
  0.00000000E+00  0.00000000E+00  0.00000000E+00
  0.00000000E+00  0.00000000E+00  0.00000000E+00
  0.00000000E+00  0.00000000E+00  0.00000000E+00
  0.00000000E+00  0.00000000E+00  0.00000000E+00
  0.00000000E+00  0.00000000E+00  0.00000000E+00
  0.00000000E+00  0.00000000E+00  0.00000000E+00
  0.00000000E+00  0.00000000E+00  0.00000000E+00
  0.00000000E+00  0.00000000E+00  0.00000000E+00
  0.00000000E+00  0.00000000E+00  0.00000000E+00
  0.00000000E+00  0.00000000E+00  0.00000000E+00
  0.00000000E+00  0.00000000E+00  0.00000000E+00
  0.00000000E+00  0.00000000E+00  0.00000000E+00
  0.00000000E+00  0.00000000E+00  0.00000000E+00
  0.00000000E+00  0.00000000E+00  0.00000000E+00
  0.00000000E+00  0.00000000E+00  0.00000000E+00
  0.00000000E+00  0.00000000E+00  0.00000000E+00
  0.00000000E+00  0.00000000E+00  0.00000000E+00
  0.00000000E+00  0.00000000E+00  0.00000000E+00
  0.00000000E+00  0.00000000E+00  0.00000000E+00
  0.00000000E+00  0.00000000E+00  0.00000000E+00
  0.00000000E+00  0.00000000E+00  0.00000000E+00
  0.00000000E+00  0.00000000E+00  0.00000000E+00
  0.00000000E+00  0.00000000E+00  0.00000000E+00
  0.00000000E+00  0.00000000E+00  0.00000000E+00
  0.00000000E+00  0.00000000E+00  0.00000000E+00
  0.00000000E+00  0.00000000E+00  0.00000000E+00
  0.00000000E+00  0.00000000E+00  0.00000000E+00
  0.00000000E+00  0.00000000E+00  0.00000000E+00
  0.00000000E+00  0.00000000E+00  0.00000000E+00
  0.00000000E+00  0.00000000E+00  0.00000000E+00
  0.00000000E+00  0.00000000E+00  0.00000000E+00
  0.00000000E+00  0.00000000E+00  0.00000000E+00
  0.00000000E+00  0.00000000E+00  0.00000000E+00
  0.00000000E+00  0.00000000E+00  0.00000000E+00
  0.00000000E+00  0.00000000E+00  0.00000000E+00
  0.00000000E+00  0.00000000E+00  0.00000000E+00
  0.00000000E+00  0.00000000E+00  0.00000000E+00
  0.00000000E+00  0.00000000E+00  0.00000000E+00
  0.00000000E+00  0.00000000E+00  0.00000000E+00
  0.00000000E+00  0.00000000E+00  0.00000000E+00
  0.00000000E+00  0.00000000E+00  0.00000000E+00
  0.00000000E+00  0.00000000E+00  0.00000000E+00
  0.00000000E+00  0.00000000E+00  0.00000000E+00
  0.00000000E+00  0.00000000E+00  0.00000000E+00
  0.00000000E+00  0.00000000E+00  0.00000000E+00
  0.00000000E+00  0.00000000E+00  0.00000000E+00
  0.00000000E+00  0.00000000E+00  0.00000000E+00
  0.00000000E+00  0.00000000E+00  0.00000000E+00
  0.00000000E+00  0.00000000E+00  0.00000000E+00
  0.00000000E+00  0.00000000E+00  0.00000000E+00
  0.00000000E+00  0.00000000E+00  0.00000000E+00
  0.00000000E+00  0.00000000E+00  0.00000000E+00
  0.00000000E+00  0.00000000E+00  0.00000000E+00
  0.00000000E+00  0.00000000E+00  0.00000000E+00
  0.00000000E+00  0.00000000E+00  0.00000000E+00
  0.00000000E+00  0.00000000E+00  0.00000000E+00
  0.00000000E+00  0.00000000E+00  0.00000000E+00
  0.00000000E+00  0.00000000E+00  0.00000000E+00
  0.00000000E+00  0.00000000E+00  0.00000000E+00
  0.00000000E+00  0.00000000E+00  0.00000000E+00
  0.00000000E+00  0.00000000E+00  0.00000000E+00
  0.00000000E+00  0.00000000E+00  0.00000000E+00
  0.00000000E+00  0.00000000E+00  0.00000000E+00
  0.00000000E+00  0.00000000E+00  0.00000000E+00
  0.00000000E+00  0.00000000E+00  0.00000000E+00
  0.00000000E+00  0.00000000E+00  0.00000000E+00
  0.00000000E+00  0.00000000E+00  0.00000000E+00
  0.00000000E+00  0.00000000E+00  0.00000000E+00
  0.00000000E+00  0.00000000E+00  0.00000000E+00
  0.00000000E+00  0.00000000E+00  0.00000000E+00
  0.00000000E+00  0.00000000E+00  0.00000000E+00
  0.00000000E+00  0.00000000E+00  0.00000000E+00
  0.00000000E+00  0.00000000E+00  0.00000000E+00
  0.00000000E+00  0.00000000E+00  0.00000000E+00
  0.00000000E+00  0.00000000E+00  0.00000000E+00
  0.00000000E+00  0.00000000E+00  0.00000000E+00
  0.00000000E+00  0.00000000E+00  0.00000000E+00
  0.00000000E+00  0.00000000E+00  0.00000000E+00
  0.00000000E+00  0.00000000E+00  0.00000000E+00
  0.00000000E+00  0.00000000E+00  0.00000000E+00
  0.00000000E+00  0.00000000E+00  0.00000000E+00
  0.00000000E+00  0.00000000E+00  0.00000000E+00
  0.00000000E+00  0.00000000E+00  0.00000000E+00
