Mn1 H1 C124 N2                          
   1.00000000000000     
    19.8184318843071168   -0.0095448515600202   -0.0032653430565823
    -9.9178214205451702   17.0509841851928492   -0.0136838215461759
    -0.0049296316544103   -0.0267653957095128   29.7855315582119076
   Mn   H    C    N 
     1     1   124     2
Direct
  0.4376624305023804  0.5001620205707094  0.4178449090621635
  0.4409174709112709  0.5025345036991921  0.4704528221253489
  0.0420671749178110  0.0841273196837529  0.3997269837514409
  0.0411870835054537  0.2083261041611068  0.3996569673910432
  0.0404533897413739  0.3329143501419823  0.3993265680047134
  0.0404132365743461  0.4583125778836788  0.3992283125264791
  0.0412744840899188  0.5838254096011612  0.3994974548911765
  0.0420297783517712  0.7092315083736827  0.3998321003260026
  0.0423653669884459  0.8345277154058275  0.3998464040878756
  0.0424870022822393  0.9596468989719544  0.3996932673157871
  0.1681276571009397  0.0857858010743478  0.4002880305577842
  0.1674503701982292  0.2101988580574303  0.4007487640524008
  0.1656865505685182  0.3339861960031340  0.4005943738043254
  0.1640173966662307  0.4585539997609339  0.3997933158802615
  0.1650784938682337  0.5837932044669281  0.3993752107351142
  0.1662859813995164  0.7091742286937719  0.3995474450314670
  0.1669993967490254  0.8345729437127800  0.3998860269087803
  0.1675354580285342  0.9600738872366851  0.3999491605315137
  0.2927294482423489  0.0854976703207400  0.4002934165355464
  0.2943840664017287  0.2126647757767960  0.4020081726697232
  0.2928864390322393  0.3376718553995377  0.4036596123643676
  0.2877121004067064  0.4591426872554325  0.4029451797175385
  0.2886491163598403  0.5841694468260624  0.4013438361679382
  0.2905544375732920  0.7089867319969343  0.4000382329786794
  0.2915338488143757  0.8341357359680946  0.3995793353877431
  0.2920763656013277  0.9596002189901927  0.3996727669536448
  0.4171450026254832  0.0840290371035606  0.3997878119895816
  0.4178292198170632  0.2099614811088665  0.4011332169740799
  0.4210628828473236  0.3380441324818623  0.4042687116719104
  0.4146796865680149  0.7064684310379922  0.4021328594693928
  0.4159855026903495  0.8325532071496130  0.4001581153994417
  0.4165783148766121  0.9582857221265787  0.3995380619622606
  0.5415924637666814  0.0824928010825439  0.3995574926136952
  0.5422066392748498  0.2078503660866131  0.3998730541728224
  0.5434986385553616  0.3329201517733248  0.4012561377484754
  0.5454976956533129  0.4566646801620022  0.4033516603858083
  0.5446003930179949  0.5799485405852450  0.4055018258541026
  0.5384082979842914  0.7031242221388854  0.4036870976518317
  0.5402487264354721  0.8307384723445846  0.4011193294665242
  0.5410904158745237  0.9568538460251120  0.3998319593303165
  0.6661262984445343  0.0818722116024610  0.3998476863118426
  0.6666995950912201  0.2073133092343461  0.3996566132573894
  0.6676457309615733  0.3327065314746551  0.3995788842048392
  0.6693402287768138  0.4581813605245059  0.3999712896862839
  0.6696277027479383  0.5827694988457507  0.4008018303538065
  0.6661923513698160  0.7062625284352628  0.4013704208220124
  0.6648097788127177  0.8303709565794081  0.4009824350810945
  0.6655942390954284  0.9563215105553570  0.4001711542838212
  0.7908568797860074  0.0818995026721162  0.3998559756064057
  0.7911714629616250  0.2071737927145617  0.3999991383155433
  0.7918477471764475  0.3326291488475447  0.3996391516214662
  0.7928395964092859  0.4581557892280986  0.3992815153783520
  0.7935642441506785  0.5835162403550631  0.3992674092319825
  0.7926241984523847  0.7083348445225784  0.3996855739893781
  0.7912650714544460  0.8323815459348496  0.3999553153526298
  0.7905674272099948  0.9566936220013508  0.3998318219627577
  0.9160849396358753  0.0826299728230019  0.3995470679888148
  0.9158796457847105  0.2074454250374704  0.3995599802115341
  0.9160293039592854  0.3326906793813742  0.3995676932809565
  0.9165969776509539  0.4581650105142799  0.3995914481980135
  0.9174467711766137  0.5837546475756231  0.3994677482863442
  0.9175847721862500  0.7090704021123688  0.3994364063617053
  0.9172579289812580  0.8338775514673759  0.3994918120380622
  0.9166197826727057  0.9582608565575415  0.3995082357522541
  0.0844353477801154  0.0433198553172806  0.3998522832127774
  0.0837560825551711  0.1676430061481837  0.3999715363432945
  0.0824277861117134  0.2917176585092113  0.3997034214038909
  0.0814508450670710  0.4165148464540748  0.3992535939325540
  0.0821719142464380  0.5418899173328595  0.3992530220399230
  0.0831667520020620  0.6673913078251237  0.3996275225689557
  0.0838422197337063  0.7928504282038196  0.3999971787499613
  0.0841817437214029  0.9181227087340593  0.3998378077068521
  0.2094270242230784  0.0437191879389168  0.4001732736522705
  0.2101974867139371  0.1696683165845981  0.4010152071266670
  0.2088606691700277  0.2937976418370952  0.4014587626572383
  0.2054165445516221  0.4172958215407823  0.4008153918014620
  0.2057064531236341  0.5418899684160412  0.3999452004803396
  0.2073862802210026  0.6673606990599144  0.3995400467606255
  0.2083215669567690  0.7927335694429879  0.3996529084825226
  0.2089142729747089  0.9181676880410764  0.3998454765580121
  0.3339168026877729  0.0431808799495742  0.3998418419601123
  0.3347618984137473  0.1693114722742141  0.4011658870903475
  0.3366181928513112  0.2969305695631370  0.4037800616761060
  0.3305307501636797  0.4202003104880898  0.4056400096405059
  0.3295467799263646  0.5434071543419432  0.4033088651366009
  0.3315493298648486  0.6671519453262538  0.4012068421450690
  0.3328226069118302  0.7922070855420696  0.3998605935023111
  0.3334420178932069  0.9175487642130258  0.3995564406864702
  0.4584504250967315  0.0417529730277903  0.3995472677691946
  0.4590482453754439  0.1674958617724217  0.4001845515128461
  0.4603648657975734  0.2935936985403572  0.4021967810252534
  0.4539675744995393  0.6620091959783572  0.4041748547492387
  0.4572042531499684  0.7901081306798388  0.4010723578416062
  0.4578708540397767  0.9160173735980059  0.3997631005594658
  0.5829468328095868  0.0404339753824108  0.3996682163867602
  0.5834921687720207  0.1658966312783830  0.3995835559882268
  0.5844827451162192  0.2910721202177249  0.4000676312406237
  0.5864015149686759  0.4158960797580161  0.4013814891356636
  0.5873382134729028  0.5409235718663863  0.4029149840733042
  0.5821841271951007  0.6624215033172229  0.4035497355611525
  0.5806219502836517  0.7873742586562691  0.4019531744333903
  0.5822817836675666  0.9145387968658815  0.4002904182626779
  0.7074950721577513  0.0399559068276210  0.3999580058427256
  0.7080159583513181  0.1654592257263519  0.3998932280800648
  0.7087317663538474  0.2908659185899644  0.3995660381685039
  0.7099542440431845  0.4162792516491828  0.3994108683596978
  0.7110152664238903  0.5414999772769478  0.3997973638618968
  0.7093622050562425  0.6660632406652846  0.4005556313033766
  0.7075603753983114  0.7898364668474398  0.4007064923575963
  0.7068681540756141  0.9142366946733635  0.4002630069574805
  0.8325384635271088  0.0403685208028339  0.3996969260241158
  0.8326566428810619  0.1655023141413052  0.3998502953602255
  0.8330104345606253  0.2907966336290186  0.3998267285935163
  0.8337222248242198  0.4161919008054372  0.3995157145456179
  0.8345968274804874  0.5417227148176105  0.3992480797263611
  0.8345700160996217  0.6671142593622035  0.3993296274017981
  0.8338414617449973  0.7916932503815339  0.3996390073332957
  0.8329452402952172  0.9158890925180372  0.3997156954590521
  0.9584046810301039  0.0417553323418776  0.3995141604276537
  0.9577725214869679  0.1661598713423933  0.3994984853919914
  0.9574462421975355  0.2909772155939159  0.3994116757733743
  0.9575534702648671  0.4162742901779053  0.3994574944431951
  0.9584046803127509  0.5418550189099650  0.3995917228308761
  0.9590051038580326  0.6673466292728220  0.3995856858404265
  0.9591492198184095  0.7925929788513995  0.3995742535681944
  0.9589499591911027  0.9173970440535959  0.3995347506420672
  0.4095042830059525  0.5810048221944584  0.4057578605831709
  0.4655524636387757  0.4190597742875405  0.4058492952430560
 
  0.00000000E+00  0.00000000E+00  0.00000000E+00
  0.00000000E+00  0.00000000E+00  0.00000000E+00
  0.00000000E+00  0.00000000E+00  0.00000000E+00
  0.00000000E+00  0.00000000E+00  0.00000000E+00
  0.00000000E+00  0.00000000E+00  0.00000000E+00
  0.00000000E+00  0.00000000E+00  0.00000000E+00
  0.00000000E+00  0.00000000E+00  0.00000000E+00
  0.00000000E+00  0.00000000E+00  0.00000000E+00
  0.00000000E+00  0.00000000E+00  0.00000000E+00
  0.00000000E+00  0.00000000E+00  0.00000000E+00
  0.00000000E+00  0.00000000E+00  0.00000000E+00
  0.00000000E+00  0.00000000E+00  0.00000000E+00
  0.00000000E+00  0.00000000E+00  0.00000000E+00
  0.00000000E+00  0.00000000E+00  0.00000000E+00
  0.00000000E+00  0.00000000E+00  0.00000000E+00
  0.00000000E+00  0.00000000E+00  0.00000000E+00
  0.00000000E+00  0.00000000E+00  0.00000000E+00
  0.00000000E+00  0.00000000E+00  0.00000000E+00
  0.00000000E+00  0.00000000E+00  0.00000000E+00
  0.00000000E+00  0.00000000E+00  0.00000000E+00
  0.00000000E+00  0.00000000E+00  0.00000000E+00
  0.00000000E+00  0.00000000E+00  0.00000000E+00
  0.00000000E+00  0.00000000E+00  0.00000000E+00
  0.00000000E+00  0.00000000E+00  0.00000000E+00
  0.00000000E+00  0.00000000E+00  0.00000000E+00
  0.00000000E+00  0.00000000E+00  0.00000000E+00
  0.00000000E+00  0.00000000E+00  0.00000000E+00
  0.00000000E+00  0.00000000E+00  0.00000000E+00
  0.00000000E+00  0.00000000E+00  0.00000000E+00
  0.00000000E+00  0.00000000E+00  0.00000000E+00
  0.00000000E+00  0.00000000E+00  0.00000000E+00
  0.00000000E+00  0.00000000E+00  0.00000000E+00
  0.00000000E+00  0.00000000E+00  0.00000000E+00
  0.00000000E+00  0.00000000E+00  0.00000000E+00
  0.00000000E+00  0.00000000E+00  0.00000000E+00
  0.00000000E+00  0.00000000E+00  0.00000000E+00
  0.00000000E+00  0.00000000E+00  0.00000000E+00
  0.00000000E+00  0.00000000E+00  0.00000000E+00
  0.00000000E+00  0.00000000E+00  0.00000000E+00
  0.00000000E+00  0.00000000E+00  0.00000000E+00
  0.00000000E+00  0.00000000E+00  0.00000000E+00
  0.00000000E+00  0.00000000E+00  0.00000000E+00
  0.00000000E+00  0.00000000E+00  0.00000000E+00
  0.00000000E+00  0.00000000E+00  0.00000000E+00
  0.00000000E+00  0.00000000E+00  0.00000000E+00
  0.00000000E+00  0.00000000E+00  0.00000000E+00
  0.00000000E+00  0.00000000E+00  0.00000000E+00
  0.00000000E+00  0.00000000E+00  0.00000000E+00
  0.00000000E+00  0.00000000E+00  0.00000000E+00
  0.00000000E+00  0.00000000E+00  0.00000000E+00
  0.00000000E+00  0.00000000E+00  0.00000000E+00
  0.00000000E+00  0.00000000E+00  0.00000000E+00
  0.00000000E+00  0.00000000E+00  0.00000000E+00
  0.00000000E+00  0.00000000E+00  0.00000000E+00
  0.00000000E+00  0.00000000E+00  0.00000000E+00
  0.00000000E+00  0.00000000E+00  0.00000000E+00
  0.00000000E+00  0.00000000E+00  0.00000000E+00
  0.00000000E+00  0.00000000E+00  0.00000000E+00
  0.00000000E+00  0.00000000E+00  0.00000000E+00
  0.00000000E+00  0.00000000E+00  0.00000000E+00
  0.00000000E+00  0.00000000E+00  0.00000000E+00
  0.00000000E+00  0.00000000E+00  0.00000000E+00
  0.00000000E+00  0.00000000E+00  0.00000000E+00
  0.00000000E+00  0.00000000E+00  0.00000000E+00
  0.00000000E+00  0.00000000E+00  0.00000000E+00
  0.00000000E+00  0.00000000E+00  0.00000000E+00
  0.00000000E+00  0.00000000E+00  0.00000000E+00
  0.00000000E+00  0.00000000E+00  0.00000000E+00
  0.00000000E+00  0.00000000E+00  0.00000000E+00
  0.00000000E+00  0.00000000E+00  0.00000000E+00
  0.00000000E+00  0.00000000E+00  0.00000000E+00
  0.00000000E+00  0.00000000E+00  0.00000000E+00
  0.00000000E+00  0.00000000E+00  0.00000000E+00
  0.00000000E+00  0.00000000E+00  0.00000000E+00
  0.00000000E+00  0.00000000E+00  0.00000000E+00
  0.00000000E+00  0.00000000E+00  0.00000000E+00
  0.00000000E+00  0.00000000E+00  0.00000000E+00
  0.00000000E+00  0.00000000E+00  0.00000000E+00
  0.00000000E+00  0.00000000E+00  0.00000000E+00
  0.00000000E+00  0.00000000E+00  0.00000000E+00
  0.00000000E+00  0.00000000E+00  0.00000000E+00
  0.00000000E+00  0.00000000E+00  0.00000000E+00
  0.00000000E+00  0.00000000E+00  0.00000000E+00
  0.00000000E+00  0.00000000E+00  0.00000000E+00
  0.00000000E+00  0.00000000E+00  0.00000000E+00
  0.00000000E+00  0.00000000E+00  0.00000000E+00
  0.00000000E+00  0.00000000E+00  0.00000000E+00
  0.00000000E+00  0.00000000E+00  0.00000000E+00
  0.00000000E+00  0.00000000E+00  0.00000000E+00
  0.00000000E+00  0.00000000E+00  0.00000000E+00
  0.00000000E+00  0.00000000E+00  0.00000000E+00
  0.00000000E+00  0.00000000E+00  0.00000000E+00
  0.00000000E+00  0.00000000E+00  0.00000000E+00
  0.00000000E+00  0.00000000E+00  0.00000000E+00
  0.00000000E+00  0.00000000E+00  0.00000000E+00
  0.00000000E+00  0.00000000E+00  0.00000000E+00
  0.00000000E+00  0.00000000E+00  0.00000000E+00
  0.00000000E+00  0.00000000E+00  0.00000000E+00
  0.00000000E+00  0.00000000E+00  0.00000000E+00
  0.00000000E+00  0.00000000E+00  0.00000000E+00
  0.00000000E+00  0.00000000E+00  0.00000000E+00
  0.00000000E+00  0.00000000E+00  0.00000000E+00
  0.00000000E+00  0.00000000E+00  0.00000000E+00
  0.00000000E+00  0.00000000E+00  0.00000000E+00
  0.00000000E+00  0.00000000E+00  0.00000000E+00
  0.00000000E+00  0.00000000E+00  0.00000000E+00
  0.00000000E+00  0.00000000E+00  0.00000000E+00
  0.00000000E+00  0.00000000E+00  0.00000000E+00
  0.00000000E+00  0.00000000E+00  0.00000000E+00
  0.00000000E+00  0.00000000E+00  0.00000000E+00
  0.00000000E+00  0.00000000E+00  0.00000000E+00
  0.00000000E+00  0.00000000E+00  0.00000000E+00
  0.00000000E+00  0.00000000E+00  0.00000000E+00
  0.00000000E+00  0.00000000E+00  0.00000000E+00
  0.00000000E+00  0.00000000E+00  0.00000000E+00
  0.00000000E+00  0.00000000E+00  0.00000000E+00
  0.00000000E+00  0.00000000E+00  0.00000000E+00
  0.00000000E+00  0.00000000E+00  0.00000000E+00
  0.00000000E+00  0.00000000E+00  0.00000000E+00
  0.00000000E+00  0.00000000E+00  0.00000000E+00
  0.00000000E+00  0.00000000E+00  0.00000000E+00
  0.00000000E+00  0.00000000E+00  0.00000000E+00
  0.00000000E+00  0.00000000E+00  0.00000000E+00
  0.00000000E+00  0.00000000E+00  0.00000000E+00
  0.00000000E+00  0.00000000E+00  0.00000000E+00
  0.00000000E+00  0.00000000E+00  0.00000000E+00
  0.00000000E+00  0.00000000E+00  0.00000000E+00
  0.00000000E+00  0.00000000E+00  0.00000000E+00
