Fe1 H1 C123 N3 O1                       
   1.00000000000000     
    19.8003175977669876    0.0048673856736324   -0.0410252636644327
    -9.8956568746302604   17.0169724277661523   -0.0147480750227290
    -0.0622292496680980   -0.0618781841901482   29.8599671767662720
   Fe   H    C    N    O 
     1     1   123     3     1
Direct
  0.4367387518347428  0.4985423729664786  0.4224255410607591
  0.4763314578134259  0.5473528040236353  0.4976804139940058
  0.0420974211886657  0.0841760670810444  0.4001401337528296
  0.0413224216980017  0.2083395447740481  0.4001881380244914
  0.0407958559765911  0.3330865811603811  0.3997358658039424
  0.0408965128608570  0.4582290244594340  0.3993270030942983
  0.0415028514505833  0.5835832294590042  0.3992529238491281
  0.0421048278593978  0.7089670183707774  0.3993124814696164
  0.0423592232611067  0.8342686690270844  0.3995533271282738
  0.0423524414173855  0.9594271027254294  0.3998894172166182
  0.1678417381977210  0.0855231963067521  0.4007404529115967
  0.1677881018814742  0.2105658034536879  0.4017470965840311
  0.1656619651091040  0.3338781799436976  0.4016276433384963
  0.1649529014500674  0.4584943334446550  0.4003327344451437
  0.1655163777435355  0.5835554626487275  0.3994801696896366
  0.1665167679154704  0.7088247617309412  0.3993344321189640
  0.1670505171456861  0.8342483598168413  0.3995140611548413
  0.1674373876400141  0.9598702118372583  0.3999494635774949
  0.2926458399709965  0.0857834893320538  0.4006644728877450
  0.2934876669604505  0.2128348956388701  0.4028688055849137
  0.2932621372926084  0.3391638260614540  0.4050532977135324
  0.2887992916276650  0.4581857535998257  0.4035766949672027
  0.2890164369819368  0.5830464336605420  0.4011097508463772
  0.2908760908281082  0.7083546978529124  0.3999567216006424
  0.2917247503053360  0.8338332778918894  0.3996436452374100
  0.2921221286310569  0.9595013827867656  0.3998728286227050
  0.4170497004545359  0.0842675538275150  0.3999873871116472
  0.4177399855813513  0.2107274575832947  0.4012009180140873
  0.4198013193808794  0.3388980906128775  0.4050478348838595
  0.4148441316626327  0.7056436873269697  0.4018508099567281
  0.4162476076698002  0.8321648599816064  0.4002571745896276
  0.4167139356737394  0.9582429204791328  0.3998384755657746
  0.5415623992164831  0.0826950796575266  0.3997400280347497
  0.5420420782806119  0.2084789645610681  0.3997866655319690
  0.5431002709391158  0.3341454370154894  0.4010418222041400
  0.5462938714463138  0.4595105358409708  0.4039901078695322
  0.5381561700615071  0.7011065434769618  0.4044804901633753
  0.5404707174423576  0.8299647431905848  0.4015082333613940
  0.5411796667591028  0.9567074797847661  0.4001969107638240
  0.6662247073031691  0.0821034161347812  0.3998734926428453
  0.6666135969292566  0.2076146984354137  0.3995016139111154
  0.6673684270821528  0.3330414449859621  0.3994678941875510
  0.6692257814649445  0.4585297504583999  0.4002788301688621
  0.6701837209272860  0.5838839109951433  0.4018167474184060
  0.6658761934996537  0.7055820455566874  0.4024784218838445
  0.6646127248685320  0.8299880727855868  0.4017036545440911
  0.6656423064455759  0.9562445666786248  0.4005458044177806
  0.7909532401658804  0.0820946196332283  0.3998451565444804
  0.7912714561334163  0.2074484932346353  0.3995025436641685
  0.7918193060847457  0.3328524719124330  0.3993393869019516
  0.7927703847125598  0.4582622420338427  0.3993753650705025
  0.7935081883666064  0.5836243755667923  0.3997924626607064
  0.7929908007824024  0.7086867692215985  0.4003717176289849
  0.7909606973831044  0.8321557576381405  0.4005527391109935
  0.7905527847279864  0.9566995066155082  0.4002702744670570
  0.9161324586426284  0.0826655975087398  0.3997951521849943
  0.9160576601639097  0.2076225540028016  0.3995608308777538
  0.9162178816176741  0.3328520820275593  0.3993369319989973
  0.9167877276970529  0.4582165386512680  0.3993323497308907
  0.9174672615288708  0.5836056299307054  0.3993815569890177
  0.9175936773148903  0.7088975515099085  0.3995538148093031
  0.9172704561198312  0.8339089378322978  0.3997979189197317
  0.9165285261902809  0.9581938554669565  0.3998910912798043
  0.0842708824491194  0.0431363597242731  0.4002019099999805
  0.0840179579118812  0.1678817319748993  0.4006004382828146
  0.0826447746931126  0.2917565368312237  0.4003952191315998
  0.0821519904841777  0.4164971351670759  0.3996794069061263
  0.0826171300585582  0.5417594287442015  0.3992818118300675
  0.0833735043504788  0.6671276308659024  0.3992716545401897
  0.0838403879344418  0.7925282326297690  0.3994218002877009
  0.0840751214467337  0.9178794358444045  0.3997739285651340
  0.2092723324443113  0.0436581747140111  0.4004479250746898
  0.2098602896264092  0.1695208871693361  0.4018295461898891
  0.2093272028121324  0.2945021659768119  0.4027713288598946
  0.2064722099758338  0.4170866517289555  0.4016475979416595
  0.2062772635295353  0.5415658564103120  0.4001357330037975
  0.2076975982730703  0.6669717769206583  0.3994902488082931
  0.2084855083290541  0.7924059517353323  0.3994622301689377
  0.2088495116992811  0.9178776908232484  0.3997676222388672
  0.3338577895393495  0.0432858225873461  0.4001338080723010
  0.3344450866122498  0.1698160755205181  0.4015982938677922
  0.3356552405548232  0.2973933850493767  0.4049930882792254
  0.3303609953950435  0.5421033823833982  0.4031897366716621
  0.3317499257933635  0.6661691838615409  0.4009065818699649
  0.3330553339818534  0.7917056765336653  0.3998904831128336
  0.3335148278227095  0.9173560779283635  0.3997651368021107
  0.4583524275352968  0.0418386264048449  0.3998183286235077
  0.4587729498372176  0.1679494797518594  0.4001764087055436
  0.4598475122557693  0.2945635594145642  0.4021417842301835
  0.4644712338124193  0.4220143647476389  0.4074670018344735
  0.4535877613506383  0.6603489685252033  0.4041765165748100
  0.4573067332230432  0.7894064916161111  0.4011436280455165
  0.4579980387509759  0.9158329941049166  0.4000508027735130
  0.5829463070925106  0.0405046647536547  0.3999204605956886
  0.5833655681061032  0.1662950577585303  0.3995789513349982
  0.5840912667885052  0.2918503227377111  0.3999025636989372
  0.5864566032854679  0.4173596142497052  0.4014258716619623
  0.5884583290796561  0.5428981552994787  0.4040770385987696
  0.5816918464791572  0.6601257771609347  0.4048393032234437
  0.5807226174625860  0.7862834683556411  0.4026015430570130
  0.5823511507886191  0.9141381088824844  0.4007024491419161
  0.7075930575007051  0.0400878726762998  0.4000568037727764
  0.7080563928729067  0.1657497342215539  0.3996112210643686
  0.7085916039128414  0.2911896506355041  0.3993622904563384
  0.7098710880280145  0.4165205056639996  0.3995277968240250
  0.7109326520581315  0.5417171921837698  0.4004588946402802
  0.7101135540835045  0.6667446769814426  0.4015234123055073
  0.7071432909779823  0.7893906539018665  0.4015363148301516
  0.7068513747991316  0.9141573201383190  0.4008044169461460
  0.8325984515816424  0.0405091192680261  0.3999261131278844
  0.8327827799490441  0.1657595640313393  0.3995894720180396
  0.8330983538441056  0.2910049463977484  0.3993573304352716
  0.8338295687535022  0.4163903691297142  0.3993384250968245
  0.8345958620337829  0.5417887664997330  0.3994565982108252
  0.8346492848554593  0.6671099577689547  0.3998518568998077
  0.8339267820565821  0.7918946156766162  0.4001743291601534
  0.8328419142914475  0.9158045329281098  0.4001704727227438
  0.9584405766625103  0.0417945550737935  0.3998729615947716
  0.9579007201738537  0.1662231412873286  0.3997414546105991
  0.9577332246650280  0.2912095888431208  0.3994455757658029
  0.9579485859304285  0.4163968892197997  0.3993000311638015
  0.9585643824334765  0.5417421241066636  0.3993236362252375
  0.9590521854322677  0.6671524995611027  0.3993927021131773
  0.9591043543138857  0.7924743565338128  0.3996044975243407
  0.9588789654609725  0.9173734158306895  0.3998347002477142
  0.4099895132559727  0.5798164469368510  0.4057698190298011
  0.5450727963432698  0.5792580841152012  0.4068014801717444
  0.3315880175614436  0.4207282940425937  0.4062685444068632
  0.4359987688397826  0.4995984992481066  0.4832025392900053
 
  0.00000000E+00  0.00000000E+00  0.00000000E+00
  0.00000000E+00  0.00000000E+00  0.00000000E+00
  0.00000000E+00  0.00000000E+00  0.00000000E+00
  0.00000000E+00  0.00000000E+00  0.00000000E+00
  0.00000000E+00  0.00000000E+00  0.00000000E+00
  0.00000000E+00  0.00000000E+00  0.00000000E+00
  0.00000000E+00  0.00000000E+00  0.00000000E+00
  0.00000000E+00  0.00000000E+00  0.00000000E+00
  0.00000000E+00  0.00000000E+00  0.00000000E+00
  0.00000000E+00  0.00000000E+00  0.00000000E+00
  0.00000000E+00  0.00000000E+00  0.00000000E+00
  0.00000000E+00  0.00000000E+00  0.00000000E+00
  0.00000000E+00  0.00000000E+00  0.00000000E+00
  0.00000000E+00  0.00000000E+00  0.00000000E+00
  0.00000000E+00  0.00000000E+00  0.00000000E+00
  0.00000000E+00  0.00000000E+00  0.00000000E+00
  0.00000000E+00  0.00000000E+00  0.00000000E+00
  0.00000000E+00  0.00000000E+00  0.00000000E+00
  0.00000000E+00  0.00000000E+00  0.00000000E+00
  0.00000000E+00  0.00000000E+00  0.00000000E+00
  0.00000000E+00  0.00000000E+00  0.00000000E+00
  0.00000000E+00  0.00000000E+00  0.00000000E+00
  0.00000000E+00  0.00000000E+00  0.00000000E+00
  0.00000000E+00  0.00000000E+00  0.00000000E+00
  0.00000000E+00  0.00000000E+00  0.00000000E+00
  0.00000000E+00  0.00000000E+00  0.00000000E+00
  0.00000000E+00  0.00000000E+00  0.00000000E+00
  0.00000000E+00  0.00000000E+00  0.00000000E+00
  0.00000000E+00  0.00000000E+00  0.00000000E+00
  0.00000000E+00  0.00000000E+00  0.00000000E+00
  0.00000000E+00  0.00000000E+00  0.00000000E+00
  0.00000000E+00  0.00000000E+00  0.00000000E+00
  0.00000000E+00  0.00000000E+00  0.00000000E+00
  0.00000000E+00  0.00000000E+00  0.00000000E+00
  0.00000000E+00  0.00000000E+00  0.00000000E+00
  0.00000000E+00  0.00000000E+00  0.00000000E+00
  0.00000000E+00  0.00000000E+00  0.00000000E+00
  0.00000000E+00  0.00000000E+00  0.00000000E+00
  0.00000000E+00  0.00000000E+00  0.00000000E+00
  0.00000000E+00  0.00000000E+00  0.00000000E+00
  0.00000000E+00  0.00000000E+00  0.00000000E+00
  0.00000000E+00  0.00000000E+00  0.00000000E+00
  0.00000000E+00  0.00000000E+00  0.00000000E+00
  0.00000000E+00  0.00000000E+00  0.00000000E+00
  0.00000000E+00  0.00000000E+00  0.00000000E+00
  0.00000000E+00  0.00000000E+00  0.00000000E+00
  0.00000000E+00  0.00000000E+00  0.00000000E+00
  0.00000000E+00  0.00000000E+00  0.00000000E+00
  0.00000000E+00  0.00000000E+00  0.00000000E+00
  0.00000000E+00  0.00000000E+00  0.00000000E+00
  0.00000000E+00  0.00000000E+00  0.00000000E+00
  0.00000000E+00  0.00000000E+00  0.00000000E+00
  0.00000000E+00  0.00000000E+00  0.00000000E+00
  0.00000000E+00  0.00000000E+00  0.00000000E+00
  0.00000000E+00  0.00000000E+00  0.00000000E+00
  0.00000000E+00  0.00000000E+00  0.00000000E+00
  0.00000000E+00  0.00000000E+00  0.00000000E+00
  0.00000000E+00  0.00000000E+00  0.00000000E+00
  0.00000000E+00  0.00000000E+00  0.00000000E+00
  0.00000000E+00  0.00000000E+00  0.00000000E+00
  0.00000000E+00  0.00000000E+00  0.00000000E+00
  0.00000000E+00  0.00000000E+00  0.00000000E+00
  0.00000000E+00  0.00000000E+00  0.00000000E+00
  0.00000000E+00  0.00000000E+00  0.00000000E+00
  0.00000000E+00  0.00000000E+00  0.00000000E+00
  0.00000000E+00  0.00000000E+00  0.00000000E+00
  0.00000000E+00  0.00000000E+00  0.00000000E+00
  0.00000000E+00  0.00000000E+00  0.00000000E+00
  0.00000000E+00  0.00000000E+00  0.00000000E+00
  0.00000000E+00  0.00000000E+00  0.00000000E+00
  0.00000000E+00  0.00000000E+00  0.00000000E+00
  0.00000000E+00  0.00000000E+00  0.00000000E+00
  0.00000000E+00  0.00000000E+00  0.00000000E+00
  0.00000000E+00  0.00000000E+00  0.00000000E+00
  0.00000000E+00  0.00000000E+00  0.00000000E+00
  0.00000000E+00  0.00000000E+00  0.00000000E+00
  0.00000000E+00  0.00000000E+00  0.00000000E+00
  0.00000000E+00  0.00000000E+00  0.00000000E+00
  0.00000000E+00  0.00000000E+00  0.00000000E+00
  0.00000000E+00  0.00000000E+00  0.00000000E+00
  0.00000000E+00  0.00000000E+00  0.00000000E+00
  0.00000000E+00  0.00000000E+00  0.00000000E+00
  0.00000000E+00  0.00000000E+00  0.00000000E+00
  0.00000000E+00  0.00000000E+00  0.00000000E+00
  0.00000000E+00  0.00000000E+00  0.00000000E+00
  0.00000000E+00  0.00000000E+00  0.00000000E+00
  0.00000000E+00  0.00000000E+00  0.00000000E+00
  0.00000000E+00  0.00000000E+00  0.00000000E+00
  0.00000000E+00  0.00000000E+00  0.00000000E+00
  0.00000000E+00  0.00000000E+00  0.00000000E+00
  0.00000000E+00  0.00000000E+00  0.00000000E+00
  0.00000000E+00  0.00000000E+00  0.00000000E+00
  0.00000000E+00  0.00000000E+00  0.00000000E+00
  0.00000000E+00  0.00000000E+00  0.00000000E+00
  0.00000000E+00  0.00000000E+00  0.00000000E+00
  0.00000000E+00  0.00000000E+00  0.00000000E+00
  0.00000000E+00  0.00000000E+00  0.00000000E+00
  0.00000000E+00  0.00000000E+00  0.00000000E+00
  0.00000000E+00  0.00000000E+00  0.00000000E+00
  0.00000000E+00  0.00000000E+00  0.00000000E+00
  0.00000000E+00  0.00000000E+00  0.00000000E+00
  0.00000000E+00  0.00000000E+00  0.00000000E+00
  0.00000000E+00  0.00000000E+00  0.00000000E+00
  0.00000000E+00  0.00000000E+00  0.00000000E+00
  0.00000000E+00  0.00000000E+00  0.00000000E+00
  0.00000000E+00  0.00000000E+00  0.00000000E+00
  0.00000000E+00  0.00000000E+00  0.00000000E+00
  0.00000000E+00  0.00000000E+00  0.00000000E+00
  0.00000000E+00  0.00000000E+00  0.00000000E+00
  0.00000000E+00  0.00000000E+00  0.00000000E+00
  0.00000000E+00  0.00000000E+00  0.00000000E+00
  0.00000000E+00  0.00000000E+00  0.00000000E+00
  0.00000000E+00  0.00000000E+00  0.00000000E+00
  0.00000000E+00  0.00000000E+00  0.00000000E+00
  0.00000000E+00  0.00000000E+00  0.00000000E+00
  0.00000000E+00  0.00000000E+00  0.00000000E+00
  0.00000000E+00  0.00000000E+00  0.00000000E+00
  0.00000000E+00  0.00000000E+00  0.00000000E+00
  0.00000000E+00  0.00000000E+00  0.00000000E+00
  0.00000000E+00  0.00000000E+00  0.00000000E+00
  0.00000000E+00  0.00000000E+00  0.00000000E+00
  0.00000000E+00  0.00000000E+00  0.00000000E+00
  0.00000000E+00  0.00000000E+00  0.00000000E+00
  0.00000000E+00  0.00000000E+00  0.00000000E+00
  0.00000000E+00  0.00000000E+00  0.00000000E+00
  0.00000000E+00  0.00000000E+00  0.00000000E+00
  0.00000000E+00  0.00000000E+00  0.00000000E+00
  0.00000000E+00  0.00000000E+00  0.00000000E+00
  0.00000000E+00  0.00000000E+00  0.00000000E+00
