Mo1 C126                                
   1.00000000000000     
    19.8198698991910014   -0.0000326937463969   -0.0003544678288621
    -9.9099642557125485   17.0726545834615067    0.0002064038862247
    -0.0005318358436927    0.0000500982604141   29.7372385129582177
   Mo   C 
     1   126
Direct
  0.4374849896192173  0.4999999551030934  0.4327782761024178
  0.0418304209503517  0.0838142248773791  0.3998814203287263
  0.0409491911367476  0.2079996720312061  0.3996699828936497
  0.0404892405643917  0.3327571175208675  0.3996716061885587
  0.0405523480654170  0.4582455477047237  0.3998387701671559
  0.0413153647276652  0.5836614777044654  0.4000100561247138
  0.0419853759109559  0.7089728987770124  0.4000616632467832
  0.0422955893686809  0.8342612975834400  0.4000558883251495
  0.0422582367272722  0.9592252731380612  0.4000104148930191
  0.1674444703975954  0.0848650107450637  0.3998937002696623
  0.1668938425578467  0.2093377390448456  0.3996375239389670
  0.1652129808233535  0.3331225526591434  0.3995538184662054
  0.1641170371785232  0.4582055335901117  0.3994439022945231
  0.1652231848941378  0.5835700868085699  0.3995915775941234
  0.1664487932331311  0.7089776370189109  0.3998998397880653
  0.1669641165374244  0.8342572236376512  0.4000443918846722
  0.1672998042145640  0.9595960554392694  0.4000136205733436
  0.2924204171153525  0.0848606029723901  0.3998804162356120
  0.2930239087548271  0.2110427346328931  0.4002643452729941
  0.2922760511558357  0.3362374456790315  0.4017210247581932
  0.2871134348530338  0.4576105306904849  0.4015488193401451
  0.2887104711183657  0.5838333738351158  0.3996852303926554
  0.2908479547192340  0.7087871367651096  0.3995322778987709
  0.2915635263951271  0.8338685225318312  0.3998797928866517
  0.2919664415432864  0.9592211564067551  0.3999790318575930
  0.4169836036499420  0.0838112523860626  0.3998733675881664
  0.4174419593090066  0.2093318807136180  0.3996238429711730
  0.4189591686740676  0.3362357586009035  0.4017266615020650
  0.4108894134575801  0.5810663370989531  0.4045401363395480
  0.4153449266976150  0.7070956784300130  0.3998519699143253
  0.4162063390700939  0.8328287121935146  0.3996560557770758
  0.4166047308725803  0.9582853849002395  0.3999815173396771
  0.5415744742707940  0.0827310823152539  0.3999957937205885
  0.5420460396511261  0.2079958102058710  0.3996803621177612
  0.5429047220113054  0.3331172358658688  0.3995541640367746
  0.5454945575957595  0.4576069682177152  0.4015779685127736
  0.5451827619691745  0.5810732674649088  0.4045706871303476
  0.5403124595347039  0.7056244482204317  0.4015765115879014
  0.5407146694880793  0.8315710769071049  0.3999003739749228
  0.5412504474196445  0.9572967639377067  0.3999111320792747
  0.6662232305288802  0.0822616827637958  0.4000345085164707
  0.6666335457626187  0.2075727097744570  0.3999737137952064
  0.6672630500726004  0.3327552954204031  0.3996651296647526
  0.6690868038832222  0.4582074696716429  0.3994350030939526
  0.6701244404500660  0.5838427577058342  0.3996896076214503
  0.6667499287022168  0.7071002058553634  0.3998515741131202
  0.6658600414034561  0.8315721593497111  0.3998867408749279
  0.6659744719842821  0.9569404502982696  0.3999606490771911
  0.7910426940367292  0.0822672087366032  0.4000098323340693
  0.7911976515669058  0.2073964208250441  0.4000661572764916
  0.7917119488985360  0.3327636124814521  0.4000055775566611
  0.7926928260440490  0.4582461802404200  0.3998039129317880
  0.7933473118383579  0.5835730147882239  0.3995683277660216
  0.7929390153290647  0.7087925667661027  0.3995339691688271
  0.7916285293106377  0.8328359498480599  0.3996523178162948
  0.7910473262717221  0.9572959090183145  0.3998988225133310
  0.9161572297006658  0.0827280559949318  0.3999647264184281
  0.9159420315379895  0.2075756792529110  0.3999594067184216
  0.9160480586645128  0.3327641055504154  0.4000104180079357
  0.9165690868617474  0.4581367613889813  0.4000635799863269
  0.9173464316216081  0.5836623154017749  0.3999926045941197
  0.9175288241759159  0.7089805807718739  0.3999004877193434
  0.9173056838813977  0.8338665026538905  0.3999043728101010
  0.9166823070631859  0.9582861798739802  0.3999891459306844
  0.0839557184245247  0.0427059794210186  0.3999116358912651
  0.0833776259658579  0.1671713837922343  0.3996559766492578
  0.0820607647006534  0.2912128410098769  0.3995327233958627
  0.0816528999857132  0.4164295332984954  0.3995919161192413
  0.0823068545749920  0.5417540731735484  0.3998385825197335
  0.0832842412134262  0.6672357231003246  0.4000103848431108
  0.0838017440167172  0.7926036815726217  0.4000657063026801
  0.0839615993437675  0.9177375627650695  0.4000343893014559
  0.2090333967699832  0.0430577274665751  0.3999606776655116
  0.2091437306289421  0.1684292175931821  0.3999004601286498
  0.2082493092794244  0.2929043997602031  0.3998519849409697
  0.2048770104355881  0.4161665838507904  0.3996854291053212
  0.2059113359512848  0.5417943302569884  0.3994437290626781
  0.2077321664275747  0.6672428009274760  0.3996710778237998
  0.2083665310280960  0.7924242761145750  0.3999588627282643
  0.2087759934649328  0.9177315874295537  0.4000091591864952
  0.3337513452373613  0.0427041003825370  0.3998987932174100
  0.3342878713154147  0.1684281409619624  0.3998872673452716
  0.3346882432186974  0.2943758168553343  0.4015768142409689
  0.3298232451954955  0.4189337565689990  0.4045399892252820
  0.3295028516750245  0.5423895593599656  0.4015489088407661
  0.3320905399613232  0.6668777640239648  0.3995537179325448
  0.3329495703116107  0.7920005439907801  0.3996697384592229
  0.3334290667867498  0.9172720580398435  0.3999644103995947
  0.4583959167165709  0.0417138438224863  0.3999893254148847
  0.4587923476161609  0.1671641455877003  0.3996528219006509
  0.4596492080720696  0.2928997277438667  0.3998518052987686
  0.4641094776669122  0.4189273093349821  0.4045707092926144
  0.4560385169200123  0.6637627682148444  0.4017210045128924
  0.4575562157911872  0.7906624623924748  0.3996374756840904
  0.4580160510318795  0.9161857591892563  0.3998814308920135
  0.5830327707872813  0.0407747497348847  0.4000104269399387
  0.5834389066220228  0.1661333741272517  0.3999043281392781
  0.5841464302501058  0.2912075052491548  0.3995338554778567
  0.5862809876541355  0.4161570524114521  0.3996913930303898
  0.5878884124477041  0.5423931558934911  0.4015777450363893
  0.5827236826728796  0.6637648876830801  0.4017264558290862
  0.5819813780448332  0.7889576813877524  0.4002640098076051
  0.5825791620539877  0.9151348667949002  0.3998937754735598
  0.7077030883274541  0.0404031479837370  0.4000126866322451
  0.7080343257224460  0.1657384412888400  0.4000560835445479
  0.7085480574659305  0.2910192991175626  0.3998999801123200
  0.7097740914937365  0.4164274702281592  0.3995680787123480
  0.7108800782428114  0.5417912015851812  0.3994348331080290
  0.7097874073836349  0.6668812738854935  0.3995539974304356
  0.7081105884001634  0.7906687111930613  0.3996233079010947
  0.7075602691789011  0.9151396048003659  0.3998802116678999
  0.8327455524827269  0.0407793989969485  0.3999795525349263
  0.8327065690938973  0.1657423661809097  0.4000452330532696
  0.8330124448785531  0.2910267883334031  0.4000615964393656
  0.8336842559817373  0.4163376045234295  0.3999921029666101
  0.8344470768150527  0.5417541555819909  0.3998041874904200
  0.8345083337948914  0.6672450805035293  0.3996655178598732
  0.8340507825199903  0.7920047375212254  0.3996802016948291
  0.8331727674788438  0.9161892020563370  0.3998730440542254
  0.9583196645282439  0.0417149387085906  0.3999815867533162
  0.9576950968080038  0.1661316108324953  0.3998801513654038
  0.9574711149278601  0.2910220861338403  0.3999002194270626
  0.9576539208708198  0.4163380808332218  0.4000100116236975
  0.9584327018045459  0.5418630326961829  0.4000636698669150
  0.9589515303097489  0.6672379965113309  0.4000056315757091
  0.9590614267125233  0.7924275698758569  0.3999739664532004
  0.9588437986923990  0.9172692305567914  0.3999957270562808
 
  0.00000000E+00  0.00000000E+00  0.00000000E+00
  0.00000000E+00  0.00000000E+00  0.00000000E+00
  0.00000000E+00  0.00000000E+00  0.00000000E+00
  0.00000000E+00  0.00000000E+00  0.00000000E+00
  0.00000000E+00  0.00000000E+00  0.00000000E+00
  0.00000000E+00  0.00000000E+00  0.00000000E+00
  0.00000000E+00  0.00000000E+00  0.00000000E+00
  0.00000000E+00  0.00000000E+00  0.00000000E+00
  0.00000000E+00  0.00000000E+00  0.00000000E+00
  0.00000000E+00  0.00000000E+00  0.00000000E+00
  0.00000000E+00  0.00000000E+00  0.00000000E+00
  0.00000000E+00  0.00000000E+00  0.00000000E+00
  0.00000000E+00  0.00000000E+00  0.00000000E+00
  0.00000000E+00  0.00000000E+00  0.00000000E+00
  0.00000000E+00  0.00000000E+00  0.00000000E+00
  0.00000000E+00  0.00000000E+00  0.00000000E+00
  0.00000000E+00  0.00000000E+00  0.00000000E+00
  0.00000000E+00  0.00000000E+00  0.00000000E+00
  0.00000000E+00  0.00000000E+00  0.00000000E+00
  0.00000000E+00  0.00000000E+00  0.00000000E+00
  0.00000000E+00  0.00000000E+00  0.00000000E+00
  0.00000000E+00  0.00000000E+00  0.00000000E+00
  0.00000000E+00  0.00000000E+00  0.00000000E+00
  0.00000000E+00  0.00000000E+00  0.00000000E+00
  0.00000000E+00  0.00000000E+00  0.00000000E+00
  0.00000000E+00  0.00000000E+00  0.00000000E+00
  0.00000000E+00  0.00000000E+00  0.00000000E+00
  0.00000000E+00  0.00000000E+00  0.00000000E+00
  0.00000000E+00  0.00000000E+00  0.00000000E+00
  0.00000000E+00  0.00000000E+00  0.00000000E+00
  0.00000000E+00  0.00000000E+00  0.00000000E+00
  0.00000000E+00  0.00000000E+00  0.00000000E+00
  0.00000000E+00  0.00000000E+00  0.00000000E+00
  0.00000000E+00  0.00000000E+00  0.00000000E+00
  0.00000000E+00  0.00000000E+00  0.00000000E+00
  0.00000000E+00  0.00000000E+00  0.00000000E+00
  0.00000000E+00  0.00000000E+00  0.00000000E+00
  0.00000000E+00  0.00000000E+00  0.00000000E+00
  0.00000000E+00  0.00000000E+00  0.00000000E+00
  0.00000000E+00  0.00000000E+00  0.00000000E+00
  0.00000000E+00  0.00000000E+00  0.00000000E+00
  0.00000000E+00  0.00000000E+00  0.00000000E+00
  0.00000000E+00  0.00000000E+00  0.00000000E+00
  0.00000000E+00  0.00000000E+00  0.00000000E+00
  0.00000000E+00  0.00000000E+00  0.00000000E+00
  0.00000000E+00  0.00000000E+00  0.00000000E+00
  0.00000000E+00  0.00000000E+00  0.00000000E+00
  0.00000000E+00  0.00000000E+00  0.00000000E+00
  0.00000000E+00  0.00000000E+00  0.00000000E+00
  0.00000000E+00  0.00000000E+00  0.00000000E+00
  0.00000000E+00  0.00000000E+00  0.00000000E+00
  0.00000000E+00  0.00000000E+00  0.00000000E+00
  0.00000000E+00  0.00000000E+00  0.00000000E+00
  0.00000000E+00  0.00000000E+00  0.00000000E+00
  0.00000000E+00  0.00000000E+00  0.00000000E+00
  0.00000000E+00  0.00000000E+00  0.00000000E+00
  0.00000000E+00  0.00000000E+00  0.00000000E+00
  0.00000000E+00  0.00000000E+00  0.00000000E+00
  0.00000000E+00  0.00000000E+00  0.00000000E+00
  0.00000000E+00  0.00000000E+00  0.00000000E+00
  0.00000000E+00  0.00000000E+00  0.00000000E+00
  0.00000000E+00  0.00000000E+00  0.00000000E+00
  0.00000000E+00  0.00000000E+00  0.00000000E+00
  0.00000000E+00  0.00000000E+00  0.00000000E+00
  0.00000000E+00  0.00000000E+00  0.00000000E+00
  0.00000000E+00  0.00000000E+00  0.00000000E+00
  0.00000000E+00  0.00000000E+00  0.00000000E+00
  0.00000000E+00  0.00000000E+00  0.00000000E+00
  0.00000000E+00  0.00000000E+00  0.00000000E+00
  0.00000000E+00  0.00000000E+00  0.00000000E+00
  0.00000000E+00  0.00000000E+00  0.00000000E+00
  0.00000000E+00  0.00000000E+00  0.00000000E+00
  0.00000000E+00  0.00000000E+00  0.00000000E+00
  0.00000000E+00  0.00000000E+00  0.00000000E+00
  0.00000000E+00  0.00000000E+00  0.00000000E+00
  0.00000000E+00  0.00000000E+00  0.00000000E+00
  0.00000000E+00  0.00000000E+00  0.00000000E+00
  0.00000000E+00  0.00000000E+00  0.00000000E+00
  0.00000000E+00  0.00000000E+00  0.00000000E+00
  0.00000000E+00  0.00000000E+00  0.00000000E+00
  0.00000000E+00  0.00000000E+00  0.00000000E+00
  0.00000000E+00  0.00000000E+00  0.00000000E+00
  0.00000000E+00  0.00000000E+00  0.00000000E+00
  0.00000000E+00  0.00000000E+00  0.00000000E+00
  0.00000000E+00  0.00000000E+00  0.00000000E+00
  0.00000000E+00  0.00000000E+00  0.00000000E+00
  0.00000000E+00  0.00000000E+00  0.00000000E+00
  0.00000000E+00  0.00000000E+00  0.00000000E+00
  0.00000000E+00  0.00000000E+00  0.00000000E+00
  0.00000000E+00  0.00000000E+00  0.00000000E+00
  0.00000000E+00  0.00000000E+00  0.00000000E+00
  0.00000000E+00  0.00000000E+00  0.00000000E+00
  0.00000000E+00  0.00000000E+00  0.00000000E+00
  0.00000000E+00  0.00000000E+00  0.00000000E+00
  0.00000000E+00  0.00000000E+00  0.00000000E+00
  0.00000000E+00  0.00000000E+00  0.00000000E+00
  0.00000000E+00  0.00000000E+00  0.00000000E+00
  0.00000000E+00  0.00000000E+00  0.00000000E+00
  0.00000000E+00  0.00000000E+00  0.00000000E+00
  0.00000000E+00  0.00000000E+00  0.00000000E+00
  0.00000000E+00  0.00000000E+00  0.00000000E+00
  0.00000000E+00  0.00000000E+00  0.00000000E+00
  0.00000000E+00  0.00000000E+00  0.00000000E+00
  0.00000000E+00  0.00000000E+00  0.00000000E+00
  0.00000000E+00  0.00000000E+00  0.00000000E+00
  0.00000000E+00  0.00000000E+00  0.00000000E+00
  0.00000000E+00  0.00000000E+00  0.00000000E+00
  0.00000000E+00  0.00000000E+00  0.00000000E+00
  0.00000000E+00  0.00000000E+00  0.00000000E+00
  0.00000000E+00  0.00000000E+00  0.00000000E+00
  0.00000000E+00  0.00000000E+00  0.00000000E+00
  0.00000000E+00  0.00000000E+00  0.00000000E+00
  0.00000000E+00  0.00000000E+00  0.00000000E+00
  0.00000000E+00  0.00000000E+00  0.00000000E+00
  0.00000000E+00  0.00000000E+00  0.00000000E+00
  0.00000000E+00  0.00000000E+00  0.00000000E+00
  0.00000000E+00  0.00000000E+00  0.00000000E+00
  0.00000000E+00  0.00000000E+00  0.00000000E+00
  0.00000000E+00  0.00000000E+00  0.00000000E+00
  0.00000000E+00  0.00000000E+00  0.00000000E+00
  0.00000000E+00  0.00000000E+00  0.00000000E+00
  0.00000000E+00  0.00000000E+00  0.00000000E+00
  0.00000000E+00  0.00000000E+00  0.00000000E+00
  0.00000000E+00  0.00000000E+00  0.00000000E+00
  0.00000000E+00  0.00000000E+00  0.00000000E+00
  0.00000000E+00  0.00000000E+00  0.00000000E+00
  0.00000000E+00  0.00000000E+00  0.00000000E+00
