Fe1 H1 C125 N1                          
   1.00000000000000     
    19.8041881621676410   -0.0066717209136757    0.0248112802762191
    -9.9079665165754971   17.0577487970627928   -0.0543438852926341
     0.0372601567764518   -0.0731262591807849   29.7928186277801608
   Fe   H    C    N 
     1     1   125     1
Direct
  0.4380387985226635  0.4998219038992719  0.4183364305696466
  0.4427633170581666  0.4984075358816392  0.4701204431682406
  0.0418996579955013  0.0840238053203437  0.3997559045328909
  0.0413046962057256  0.2084258661933760  0.3999333310981696
  0.0407984988826108  0.3330568372696207  0.3996588272024960
  0.0408104745348226  0.4583388193861727  0.3993683877261371
  0.0414163320667588  0.5837457487473798  0.3994281757633869
  0.0419835570044190  0.7090801919702963  0.3997247695375377
  0.0422528520858196  0.8343836690848014  0.3997059868066077
  0.0422401176101026  0.9594110872170976  0.3995173959267407
  0.1675124910125659  0.0851103028125631  0.4002719315549849
  0.1672470836254293  0.2099111926894757  0.4010139342886435
  0.1661330386632215  0.3340920485429225  0.4009313740069166
  0.1648494847730826  0.4586225833508319  0.3999855891857659
  0.1653752428565356  0.5837265395430834  0.3994425439235369
  0.1663317776865521  0.7090630529049583  0.3995452756689094
  0.1669431591133806  0.8344191565036888  0.3998011663737884
  0.1673175713127228  0.9597832738114621  0.3998494466781007
  0.2924598172136043  0.0850893709281557  0.4002987460002975
  0.2931261695009200  0.2112620339348077  0.4019820587472519
  0.2929453640051816  0.3369716815864144  0.4034926008459676
  0.2893431761965773  0.4594553824462785  0.4023253815917651
  0.2891369774270512  0.5842236281986425  0.4008553043267063
  0.2906772865401331  0.7090058703155154  0.3999750822282438
  0.2915471368428872  0.8340932572192201  0.3995569837879221
  0.2919765829461617  0.9594365663334077  0.3996097899788750
  0.4170042134026505  0.0839564450910925  0.3997556458321931
  0.4175503186729493  0.2097517583788481  0.4011779843638468
  0.4188709232113967  0.3367090216737619  0.4043502665854167
  0.4148081099971344  0.7067907295357759  0.4017565648374877
  0.4160597512914070  0.8327295020255996  0.4000778316371429
  0.4165716625020889  0.9583514838928654  0.3994857704643687
  0.5415419374030398  0.0826564112099465  0.3994508966674848
  0.5420587483621820  0.2080496153457486  0.3999137503500179
  0.5428942459582174  0.3332314997339338  0.4015752433862375
  0.5456378969313606  0.4580874807196629  0.4036090924204318
  0.5445528875266146  0.5802074804955872  0.4050020318124566
  0.5385196834332457  0.7036285151925780  0.4033995685107490
  0.5403487735767245  0.8310647419414379  0.4010865698236878
  0.5411169597833626  0.9570854033029346  0.3998119901596026
  0.6661476491147287  0.0820950065764788  0.3997790670076261
  0.6666235525005589  0.2074683075478974  0.3995947318612086
  0.6673639619196581  0.3327953070040941  0.3997219872370635
  0.6690759716287508  0.4582795478107619  0.4004254268677300
  0.6700757338214895  0.5836248352686535  0.4011390572106492
  0.6661447111285017  0.7065196304480945  0.4015864787253695
  0.6649047852513018  0.8307123963592629  0.4011016887946703
  0.6656787230296053  0.9565858725672299  0.4002132121279631
  0.7909298413484251  0.0821129757886354  0.3997996898244429
  0.7912346787839849  0.2073561588649120  0.3997949516474090
  0.7918161821093411  0.3327497808656880  0.3995562546917245
  0.7927789258819353  0.4582168704161846  0.3993851648538960
  0.7935324395360149  0.5835795652965364  0.3995648042259501
  0.7927914537570168  0.7087030035429085  0.3999446419860805
  0.7912342364426945  0.8325486667422425  0.4001486850250415
  0.7906365182218434  0.9569176515199375  0.3998855437545520
  0.9161101401417751  0.0827363934102619  0.3995271252938493
  0.9160364833703122  0.2076174121565725  0.3996325416277164
  0.9161999306408781  0.3328177950245884  0.3995397623489336
  0.9167355741431148  0.4581821461653173  0.3994144841625591
  0.9174638654651820  0.5836981593872307  0.3994210214245165
  0.9175471231339344  0.7090503115494581  0.3994976922874930
  0.9172233086363614  0.8339129913978698  0.3994732450374829
  0.9165346596869052  0.9582814329041084  0.3994403372600607
  0.0840122082085657  0.0429548712747562  0.3997561255559507
  0.0836411510780226  0.1675321244885768  0.4001898010726205
  0.0827433429758470  0.2918242744484494  0.4001042622393957
  0.0820605269496689  0.4166273718509751  0.3995657496582976
  0.0824453335667337  0.5418721751469980  0.3993344999531428
  0.0832032054903376  0.6672817241694403  0.3995726918056803
  0.0837413475990017  0.7926862556351643  0.3998341376483026
  0.0839491423064363  0.9179101724302592  0.3996990897229961
  0.2090741978092600  0.0433066944804759  0.4001117210916071
  0.2093233559909354  0.1687638222198146  0.4011048462608018
  0.2089496886509476  0.2936347531216665  0.4017728416063769
  0.2065761803216210  0.4174423337730828  0.4008969147377096
  0.2061990091999751  0.5419152461772202  0.3998847627095042
  0.2075035834503610  0.6673038412720478  0.3995447679192792
  0.2083117262868714  0.7925950161883115  0.3996389718625972
  0.2087622902870325  0.9179229047195610  0.3997760410813677
  0.3337549293443807  0.0429177342876470  0.3998041206950293
  0.3343110808940403  0.1686821399738201  0.4011890727603229
  0.3349277949843472  0.2948452747652479  0.4036292059870799
  0.3322198698624556  0.4200435496596455  0.4047933596225354
  0.3305071566627203  0.5437478035408779  0.4026129447607461
  0.3317555273019001  0.6672281141982178  0.4009114762125733
  0.3328755704431370  0.7922065410507978  0.3998171877622008
  0.3333792584466475  0.9174521427621525  0.3995011176263474
  0.4583486656946695  0.0417583748651669  0.3994643133967760
  0.4588118214138859  0.1673801633790964  0.4002007126249351
  0.4595953298701561  0.2933379123811554  0.4023421258850324
  0.4632193305526541  0.4197768101859105  0.4064928241752930
  0.4541243413543691  0.6623885657646390  0.4037749262140510
  0.4572893037312385  0.7903611392768520  0.4008853681414207
  0.4578954552032911  0.9161471460658982  0.3997438860122763
  0.5829289138237145  0.0406166762003804  0.3995917108644128
  0.5833880787316794  0.1660816142505236  0.3995232928857589
  0.5840874598124647  0.2913043566467082  0.4002718372019688
  0.5860459933765264  0.4163686463895551  0.4018354571617046
  0.5881115073139438  0.5419981197922473  0.4028437417914282
  0.5818166339214200  0.6626286883048106  0.4033375463501654
  0.5807618851778373  0.7877773376739116  0.4018804327918710
  0.5823459475434191  0.9148082419733552  0.4003391085549666
  0.7075466740867918  0.0401830318704524  0.3999277468883519
  0.7080007998154744  0.1656394139479405  0.3997412578221792
  0.7085708140517739  0.2909884988238184  0.3995608405818872
  0.7098119395293312  0.4164148568730446  0.3996701576699251
  0.7109964922331405  0.5417112195379138  0.4002490548401858
  0.7096213838883414  0.6667065124118291  0.4008425899539192
  0.7074930995251126  0.7900334504245990  0.4009353892530025
  0.7069594155213987  0.9145112451833211  0.4003703310468802
  0.8325653576720081  0.0405449475292822  0.3996611622192198
  0.8327385953631556  0.1656845064482011  0.3997652107742225
  0.8330896053477855  0.2909730099783110  0.3996677249203905
  0.8337598772424899  0.4162982268310191  0.3994279950626459
  0.8345661739848446  0.5417474638613121  0.3993760006414099
  0.8345486362977831  0.6672179075565322  0.3995468173842921
  0.8338687705944586  0.7919081534403837  0.3997926823865263
  0.8328901300418976  0.9159909521586137  0.3997956914086616
  0.9582941227297371  0.0417513326853275  0.3994652360041088
  0.9578766233306771  0.1662764507394488  0.3996011197042720
  0.9576835270714195  0.2911326873324861  0.3995570744613170
  0.9578203857595546  0.4163531579327244  0.3994223028245241
  0.9585106925419881  0.5418514582824749  0.3994311568284818
  0.9589530250511029  0.6672735009919095  0.3995465328423060
  0.9590362337368962  0.7925435724212374  0.3995351946997207
  0.9587763968448494  0.9173355111384240  0.3994126544032157
  0.4101628586761576  0.5816765435678539  0.4056054173192080
 
  0.00000000E+00  0.00000000E+00  0.00000000E+00
  0.00000000E+00  0.00000000E+00  0.00000000E+00
  0.00000000E+00  0.00000000E+00  0.00000000E+00
  0.00000000E+00  0.00000000E+00  0.00000000E+00
  0.00000000E+00  0.00000000E+00  0.00000000E+00
  0.00000000E+00  0.00000000E+00  0.00000000E+00
  0.00000000E+00  0.00000000E+00  0.00000000E+00
  0.00000000E+00  0.00000000E+00  0.00000000E+00
  0.00000000E+00  0.00000000E+00  0.00000000E+00
  0.00000000E+00  0.00000000E+00  0.00000000E+00
  0.00000000E+00  0.00000000E+00  0.00000000E+00
  0.00000000E+00  0.00000000E+00  0.00000000E+00
  0.00000000E+00  0.00000000E+00  0.00000000E+00
  0.00000000E+00  0.00000000E+00  0.00000000E+00
  0.00000000E+00  0.00000000E+00  0.00000000E+00
  0.00000000E+00  0.00000000E+00  0.00000000E+00
  0.00000000E+00  0.00000000E+00  0.00000000E+00
  0.00000000E+00  0.00000000E+00  0.00000000E+00
  0.00000000E+00  0.00000000E+00  0.00000000E+00
  0.00000000E+00  0.00000000E+00  0.00000000E+00
  0.00000000E+00  0.00000000E+00  0.00000000E+00
  0.00000000E+00  0.00000000E+00  0.00000000E+00
  0.00000000E+00  0.00000000E+00  0.00000000E+00
  0.00000000E+00  0.00000000E+00  0.00000000E+00
  0.00000000E+00  0.00000000E+00  0.00000000E+00
  0.00000000E+00  0.00000000E+00  0.00000000E+00
  0.00000000E+00  0.00000000E+00  0.00000000E+00
  0.00000000E+00  0.00000000E+00  0.00000000E+00
  0.00000000E+00  0.00000000E+00  0.00000000E+00
  0.00000000E+00  0.00000000E+00  0.00000000E+00
  0.00000000E+00  0.00000000E+00  0.00000000E+00
  0.00000000E+00  0.00000000E+00  0.00000000E+00
  0.00000000E+00  0.00000000E+00  0.00000000E+00
  0.00000000E+00  0.00000000E+00  0.00000000E+00
  0.00000000E+00  0.00000000E+00  0.00000000E+00
  0.00000000E+00  0.00000000E+00  0.00000000E+00
  0.00000000E+00  0.00000000E+00  0.00000000E+00
  0.00000000E+00  0.00000000E+00  0.00000000E+00
  0.00000000E+00  0.00000000E+00  0.00000000E+00
  0.00000000E+00  0.00000000E+00  0.00000000E+00
  0.00000000E+00  0.00000000E+00  0.00000000E+00
  0.00000000E+00  0.00000000E+00  0.00000000E+00
  0.00000000E+00  0.00000000E+00  0.00000000E+00
  0.00000000E+00  0.00000000E+00  0.00000000E+00
  0.00000000E+00  0.00000000E+00  0.00000000E+00
  0.00000000E+00  0.00000000E+00  0.00000000E+00
  0.00000000E+00  0.00000000E+00  0.00000000E+00
  0.00000000E+00  0.00000000E+00  0.00000000E+00
  0.00000000E+00  0.00000000E+00  0.00000000E+00
  0.00000000E+00  0.00000000E+00  0.00000000E+00
  0.00000000E+00  0.00000000E+00  0.00000000E+00
  0.00000000E+00  0.00000000E+00  0.00000000E+00
  0.00000000E+00  0.00000000E+00  0.00000000E+00
  0.00000000E+00  0.00000000E+00  0.00000000E+00
  0.00000000E+00  0.00000000E+00  0.00000000E+00
  0.00000000E+00  0.00000000E+00  0.00000000E+00
  0.00000000E+00  0.00000000E+00  0.00000000E+00
  0.00000000E+00  0.00000000E+00  0.00000000E+00
  0.00000000E+00  0.00000000E+00  0.00000000E+00
  0.00000000E+00  0.00000000E+00  0.00000000E+00
  0.00000000E+00  0.00000000E+00  0.00000000E+00
  0.00000000E+00  0.00000000E+00  0.00000000E+00
  0.00000000E+00  0.00000000E+00  0.00000000E+00
  0.00000000E+00  0.00000000E+00  0.00000000E+00
  0.00000000E+00  0.00000000E+00  0.00000000E+00
  0.00000000E+00  0.00000000E+00  0.00000000E+00
  0.00000000E+00  0.00000000E+00  0.00000000E+00
  0.00000000E+00  0.00000000E+00  0.00000000E+00
  0.00000000E+00  0.00000000E+00  0.00000000E+00
  0.00000000E+00  0.00000000E+00  0.00000000E+00
  0.00000000E+00  0.00000000E+00  0.00000000E+00
  0.00000000E+00  0.00000000E+00  0.00000000E+00
  0.00000000E+00  0.00000000E+00  0.00000000E+00
  0.00000000E+00  0.00000000E+00  0.00000000E+00
  0.00000000E+00  0.00000000E+00  0.00000000E+00
  0.00000000E+00  0.00000000E+00  0.00000000E+00
  0.00000000E+00  0.00000000E+00  0.00000000E+00
  0.00000000E+00  0.00000000E+00  0.00000000E+00
  0.00000000E+00  0.00000000E+00  0.00000000E+00
  0.00000000E+00  0.00000000E+00  0.00000000E+00
  0.00000000E+00  0.00000000E+00  0.00000000E+00
  0.00000000E+00  0.00000000E+00  0.00000000E+00
  0.00000000E+00  0.00000000E+00  0.00000000E+00
  0.00000000E+00  0.00000000E+00  0.00000000E+00
  0.00000000E+00  0.00000000E+00  0.00000000E+00
  0.00000000E+00  0.00000000E+00  0.00000000E+00
  0.00000000E+00  0.00000000E+00  0.00000000E+00
  0.00000000E+00  0.00000000E+00  0.00000000E+00
  0.00000000E+00  0.00000000E+00  0.00000000E+00
  0.00000000E+00  0.00000000E+00  0.00000000E+00
  0.00000000E+00  0.00000000E+00  0.00000000E+00
  0.00000000E+00  0.00000000E+00  0.00000000E+00
  0.00000000E+00  0.00000000E+00  0.00000000E+00
  0.00000000E+00  0.00000000E+00  0.00000000E+00
  0.00000000E+00  0.00000000E+00  0.00000000E+00
  0.00000000E+00  0.00000000E+00  0.00000000E+00
  0.00000000E+00  0.00000000E+00  0.00000000E+00
  0.00000000E+00  0.00000000E+00  0.00000000E+00
  0.00000000E+00  0.00000000E+00  0.00000000E+00
  0.00000000E+00  0.00000000E+00  0.00000000E+00
  0.00000000E+00  0.00000000E+00  0.00000000E+00
  0.00000000E+00  0.00000000E+00  0.00000000E+00
  0.00000000E+00  0.00000000E+00  0.00000000E+00
  0.00000000E+00  0.00000000E+00  0.00000000E+00
  0.00000000E+00  0.00000000E+00  0.00000000E+00
  0.00000000E+00  0.00000000E+00  0.00000000E+00
  0.00000000E+00  0.00000000E+00  0.00000000E+00
  0.00000000E+00  0.00000000E+00  0.00000000E+00
  0.00000000E+00  0.00000000E+00  0.00000000E+00
  0.00000000E+00  0.00000000E+00  0.00000000E+00
  0.00000000E+00  0.00000000E+00  0.00000000E+00
  0.00000000E+00  0.00000000E+00  0.00000000E+00
  0.00000000E+00  0.00000000E+00  0.00000000E+00
  0.00000000E+00  0.00000000E+00  0.00000000E+00
  0.00000000E+00  0.00000000E+00  0.00000000E+00
  0.00000000E+00  0.00000000E+00  0.00000000E+00
  0.00000000E+00  0.00000000E+00  0.00000000E+00
  0.00000000E+00  0.00000000E+00  0.00000000E+00
  0.00000000E+00  0.00000000E+00  0.00000000E+00
  0.00000000E+00  0.00000000E+00  0.00000000E+00
  0.00000000E+00  0.00000000E+00  0.00000000E+00
  0.00000000E+00  0.00000000E+00  0.00000000E+00
  0.00000000E+00  0.00000000E+00  0.00000000E+00
  0.00000000E+00  0.00000000E+00  0.00000000E+00
  0.00000000E+00  0.00000000E+00  0.00000000E+00
  0.00000000E+00  0.00000000E+00  0.00000000E+00
  0.00000000E+00  0.00000000E+00  0.00000000E+00
  0.00000000E+00  0.00000000E+00  0.00000000E+00
