H1 W1 C122 N4 O1                        
   1.00000000000000     
    19.8023328988531730    0.0016943551945110    0.1708091603402109
    -9.8996999428156442   17.0158706414069023   -0.4264830897087149
     0.2571514419804473   -0.5980526211838190   29.8755902785489837
   H    W    C    N    O 
     1     1   122     4     1
Direct
  0.4856703819879011  0.5085262070409514  0.5153984911777140
  0.4401335680165859  0.5028669365303201  0.4338580947307022
  0.0422921995738303  0.0847228383772367  0.3999932770305759
  0.0413311044262267  0.2086898004866850  0.3994511548787106
  0.0404404214141448  0.3332157730483677  0.3974457525518994
  0.0403805041613942  0.4582678749058490  0.3962649266241786
  0.0412401892617002  0.5837521686267115  0.3967922710869062
  0.0419734242263988  0.7092241746751530  0.3979163870765922
  0.0422321121792992  0.8345231759800357  0.3990632474994491
  0.0424696027935632  0.9598620989075995  0.3997932769719601
  0.1681469621371764  0.0861659223192578  0.4008488631409446
  0.1681665779735961  0.2113231897436092  0.4013310586278684
  0.1652798986162429  0.3343191651261311  0.4001213125745128
  0.1641057393007230  0.4585765292984414  0.3963747249835902
  0.1650533708054693  0.5837140127325251  0.3962312709543284
  0.1663399979956352  0.7090006071375932  0.3976406501234157
  0.1669987513719024  0.8344632737802059  0.3989927445758733
  0.1674519646681075  0.9602317666896804  0.4000291858356522
  0.2926525967105181  0.0861369582108781  0.4006463446802975
  0.2941331266704594  0.2139683062137715  0.4027541538070585
  0.2930634944705197  0.3401362958001487  0.4062837146921227
  0.2869634544174272  0.4593908581597139  0.4025957958393003
  0.2883643830202808  0.5831803206467049  0.3984428514174697
  0.2907561319112530  0.7083146994278502  0.3984439172983793
  0.2916948879221672  0.8339718110819183  0.3989008775468303
  0.2920440016789304  0.9597782383584560  0.3997345791890710
  0.4170507672652676  0.0845288650376426  0.3998533058940418
  0.4175978460942195  0.2108861358693005  0.4006700049728223
  0.4207551624969199  0.3389361820859859  0.4047252614164820
  0.4148722553951893  0.7056231385839288  0.4018365901289602
  0.4161596973519297  0.8322126733275556  0.3996480293412275
  0.4166473483875242  0.9583458227910754  0.3995068919866948
  0.5415050812704111  0.0829103795312457  0.3993813452561440
  0.5420557629320805  0.2085558397541693  0.3992878271672136
  0.5436211327296823  0.3342602250628183  0.4003144111606462
  0.5465922207400900  0.4592566457324695  0.4038307314975366
  0.5380903144394781  0.7020611737070837  0.4048641732505092
  0.5404336055672864  0.8304302244019991  0.4012169886628248
  0.5412247222334772  0.9569799390624913  0.3998097095984715
  0.6661337311565753  0.0822530629344637  0.3994018504900586
  0.6666587430951761  0.2077605650830516  0.3987550616070475
  0.6675259329754992  0.3331837658233195  0.3982971840180368
  0.6693656549583861  0.4586852663521559  0.3988103130144392
  0.6697678337756603  0.5834389472522126  0.4004903646644136
  0.6654636768294573  0.7059575194186439  0.4009337971091605
  0.6646170004080836  0.8304536845444395  0.4009035684603757
  0.6656968824075945  0.9566442488361417  0.4001232587308499
  0.7909667363436600  0.0823073417422832  0.3993864994596562
  0.7911982661888014  0.2076182586454232  0.3986865729565051
  0.7917073872886782  0.3329090727796492  0.3978198241799428
  0.7927619444704649  0.4583122713329714  0.3972249918798138
  0.7935600083034651  0.5838077408645636  0.3977150894896079
  0.7923844733428248  0.7084157719670038  0.3988924526007784
  0.7909114049174316  0.8324236589021008  0.3995138592843313
  0.7905436247654876  0.9570088904630826  0.3997050470249980
  0.9162058188970342  0.0830132726212543  0.3994203880729182
  0.9159345793889935  0.2078084005003970  0.3986278410192053
  0.9160039624548283  0.3329057362137645  0.3975094541474794
  0.9165634152246708  0.4583101842461191  0.3969890468966224
  0.9173460218165707  0.5837710998378497  0.3971634192150362
  0.9174917005718756  0.7090712565676585  0.3980439509767348
  0.9170291783505619  0.8339939413900629  0.3989923731909507
  0.9166141836907714  0.9585083021939290  0.3995205328480224
  0.0845577309617110  0.0437189776335564  0.4002274575199801
  0.0842709295526899  0.1684825107854957  0.4001850651602805
  0.0826605127939666  0.2921536906880622  0.3988404114945666
  0.0813902289797662  0.4163853639330059  0.3963365214760279
  0.0821619041332148  0.5418145788482583  0.3962092961171021
  0.0832018799400944  0.6673292243870846  0.3973889792696120
  0.0837339430664089  0.7927945735973218  0.3986944965935322
  0.0841363573990357  0.9183351691495591  0.3996955847321607
  0.2093782609323103  0.0441151044277969  0.4005969190849353
  0.2104482975743388  0.1705183137874411  0.4017837908133355
  0.2097387330800911  0.2953968429047112  0.4023831860058042
  0.2054116166285835  0.4173007954829445  0.3987347541664110
  0.2056004446018819  0.5415529468897474  0.3962554669044552
  0.2073526241700960  0.6670432588880922  0.3972422427083974
  0.2083233173924620  0.7926269812885823  0.3985345233567494
  0.2088790731555113  0.9182587961741232  0.3996604362917670
  0.3338058726865554  0.0436603896245026  0.4000868132332144
  0.3345791860282014  0.1704538553012862  0.4013682444593085
  0.3367523172923781  0.2994458870717256  0.4053358549266554
  0.3281162744428888  0.5416677373837273  0.4024360417144502
  0.3313245313381520  0.6663550082076389  0.3996582429378553
  0.3329437069540476  0.7918823815544563  0.3989986338859736
  0.3334541900572984  0.9175760711396244  0.3993892842251708
  0.4583638127819707  0.0420983589958013  0.3995834090079346
  0.4587730919284153  0.1682210023612025  0.3998775016081088
  0.4599173448419983  0.2949281070445971  0.4012737726000993
  0.4537728301430867  0.6615044750081189  0.4058335998044801
  0.4573055167174052  0.7895554543962168  0.4007497320074657
  0.4579402008493865  0.9159704688710745  0.3995997165354072
  0.5829441065889779  0.0407731923391613  0.3994951749430632
  0.5832808693378669  0.1665075430571058  0.3990935110284914
  0.5841919986549367  0.2920615297007813  0.3991568589865618
  0.5866740869996923  0.4172855123196451  0.4006313752091579
  0.5879492811543178  0.5419635600018559  0.4037329774669671
  0.5825281251841593  0.6624651818750973  0.4043635553425052
  0.5807754176002922  0.7871779550170331  0.4022653196705003
  0.5824240721349302  0.9146346439566450  0.4003436360586926
  0.7076015725298369  0.0404178242056086  0.3996275598923595
  0.7079851488263756  0.1659605063147153  0.3989771756188723
  0.7085878465851473  0.2912467209238349  0.3982038128037166
  0.7098673622643338  0.4164459043710054  0.3978413703073758
  0.7109048686284334  0.5417473696465479  0.3987477964122872
  0.7097067649634066  0.6664215742294228  0.4000697076851699
  0.7071314556139338  0.7898912057059483  0.4002692411411494
  0.7069548780177377  0.9146397872394311  0.4001805099105180
  0.8326287090124469  0.0408258475516339  0.3994875658275546
  0.8328202390843362  0.1660054136814267  0.3989180509180104
  0.8329315857586673  0.2910746479044119  0.3980418668805566
  0.8336634512488207  0.4164076093604355  0.3972933516756677
  0.8345277113841417  0.5418511412237065  0.3971729464369358
  0.8345058770736747  0.6671341680527725  0.3980864323001859
  0.8337666095062161  0.7919609790018084  0.3990421312606347
  0.8329076896076785  0.9161186005978903  0.3995376470595062
  0.9586265590301236  0.0422663044480116  0.3996200329495126
  0.9580099032843233  0.1665635731680059  0.3991203730990473
  0.9575021490568280  0.2912942952711181  0.3978014762854418
  0.9575598047824943  0.4163864482689287  0.3968897180315906
  0.9583255822465757  0.5418259437267859  0.3969324070701286
  0.9589138896609551  0.6673445311128943  0.3976432090682722
  0.9590833488582563  0.7926597456076386  0.3986922771202509
  0.9588945344200912  0.9176522357192890  0.3994256283772339
  0.4083896846911313  0.5796442787816006  0.4109220046731246
  0.5453720690713739  0.5808787241121578  0.4095305256174539
  0.3299168051930568  0.4227239836035601  0.4111750212406830
  0.4655501238262306  0.4212498942217911  0.4097467973491762
  0.4449461614566526  0.5074237890883989  0.4969990390544910
 
  0.00000000E+00  0.00000000E+00  0.00000000E+00
  0.00000000E+00  0.00000000E+00  0.00000000E+00
  0.00000000E+00  0.00000000E+00  0.00000000E+00
  0.00000000E+00  0.00000000E+00  0.00000000E+00
  0.00000000E+00  0.00000000E+00  0.00000000E+00
  0.00000000E+00  0.00000000E+00  0.00000000E+00
  0.00000000E+00  0.00000000E+00  0.00000000E+00
  0.00000000E+00  0.00000000E+00  0.00000000E+00
  0.00000000E+00  0.00000000E+00  0.00000000E+00
  0.00000000E+00  0.00000000E+00  0.00000000E+00
  0.00000000E+00  0.00000000E+00  0.00000000E+00
  0.00000000E+00  0.00000000E+00  0.00000000E+00
  0.00000000E+00  0.00000000E+00  0.00000000E+00
  0.00000000E+00  0.00000000E+00  0.00000000E+00
  0.00000000E+00  0.00000000E+00  0.00000000E+00
  0.00000000E+00  0.00000000E+00  0.00000000E+00
  0.00000000E+00  0.00000000E+00  0.00000000E+00
  0.00000000E+00  0.00000000E+00  0.00000000E+00
  0.00000000E+00  0.00000000E+00  0.00000000E+00
  0.00000000E+00  0.00000000E+00  0.00000000E+00
  0.00000000E+00  0.00000000E+00  0.00000000E+00
  0.00000000E+00  0.00000000E+00  0.00000000E+00
  0.00000000E+00  0.00000000E+00  0.00000000E+00
  0.00000000E+00  0.00000000E+00  0.00000000E+00
  0.00000000E+00  0.00000000E+00  0.00000000E+00
  0.00000000E+00  0.00000000E+00  0.00000000E+00
  0.00000000E+00  0.00000000E+00  0.00000000E+00
  0.00000000E+00  0.00000000E+00  0.00000000E+00
  0.00000000E+00  0.00000000E+00  0.00000000E+00
  0.00000000E+00  0.00000000E+00  0.00000000E+00
  0.00000000E+00  0.00000000E+00  0.00000000E+00
  0.00000000E+00  0.00000000E+00  0.00000000E+00
  0.00000000E+00  0.00000000E+00  0.00000000E+00
  0.00000000E+00  0.00000000E+00  0.00000000E+00
  0.00000000E+00  0.00000000E+00  0.00000000E+00
  0.00000000E+00  0.00000000E+00  0.00000000E+00
  0.00000000E+00  0.00000000E+00  0.00000000E+00
  0.00000000E+00  0.00000000E+00  0.00000000E+00
  0.00000000E+00  0.00000000E+00  0.00000000E+00
  0.00000000E+00  0.00000000E+00  0.00000000E+00
  0.00000000E+00  0.00000000E+00  0.00000000E+00
  0.00000000E+00  0.00000000E+00  0.00000000E+00
  0.00000000E+00  0.00000000E+00  0.00000000E+00
  0.00000000E+00  0.00000000E+00  0.00000000E+00
  0.00000000E+00  0.00000000E+00  0.00000000E+00
  0.00000000E+00  0.00000000E+00  0.00000000E+00
  0.00000000E+00  0.00000000E+00  0.00000000E+00
  0.00000000E+00  0.00000000E+00  0.00000000E+00
  0.00000000E+00  0.00000000E+00  0.00000000E+00
  0.00000000E+00  0.00000000E+00  0.00000000E+00
  0.00000000E+00  0.00000000E+00  0.00000000E+00
  0.00000000E+00  0.00000000E+00  0.00000000E+00
  0.00000000E+00  0.00000000E+00  0.00000000E+00
  0.00000000E+00  0.00000000E+00  0.00000000E+00
  0.00000000E+00  0.00000000E+00  0.00000000E+00
  0.00000000E+00  0.00000000E+00  0.00000000E+00
  0.00000000E+00  0.00000000E+00  0.00000000E+00
  0.00000000E+00  0.00000000E+00  0.00000000E+00
  0.00000000E+00  0.00000000E+00  0.00000000E+00
  0.00000000E+00  0.00000000E+00  0.00000000E+00
  0.00000000E+00  0.00000000E+00  0.00000000E+00
  0.00000000E+00  0.00000000E+00  0.00000000E+00
  0.00000000E+00  0.00000000E+00  0.00000000E+00
  0.00000000E+00  0.00000000E+00  0.00000000E+00
  0.00000000E+00  0.00000000E+00  0.00000000E+00
  0.00000000E+00  0.00000000E+00  0.00000000E+00
  0.00000000E+00  0.00000000E+00  0.00000000E+00
  0.00000000E+00  0.00000000E+00  0.00000000E+00
  0.00000000E+00  0.00000000E+00  0.00000000E+00
  0.00000000E+00  0.00000000E+00  0.00000000E+00
  0.00000000E+00  0.00000000E+00  0.00000000E+00
  0.00000000E+00  0.00000000E+00  0.00000000E+00
  0.00000000E+00  0.00000000E+00  0.00000000E+00
  0.00000000E+00  0.00000000E+00  0.00000000E+00
  0.00000000E+00  0.00000000E+00  0.00000000E+00
  0.00000000E+00  0.00000000E+00  0.00000000E+00
  0.00000000E+00  0.00000000E+00  0.00000000E+00
  0.00000000E+00  0.00000000E+00  0.00000000E+00
  0.00000000E+00  0.00000000E+00  0.00000000E+00
  0.00000000E+00  0.00000000E+00  0.00000000E+00
  0.00000000E+00  0.00000000E+00  0.00000000E+00
  0.00000000E+00  0.00000000E+00  0.00000000E+00
  0.00000000E+00  0.00000000E+00  0.00000000E+00
  0.00000000E+00  0.00000000E+00  0.00000000E+00
  0.00000000E+00  0.00000000E+00  0.00000000E+00
  0.00000000E+00  0.00000000E+00  0.00000000E+00
  0.00000000E+00  0.00000000E+00  0.00000000E+00
  0.00000000E+00  0.00000000E+00  0.00000000E+00
  0.00000000E+00  0.00000000E+00  0.00000000E+00
  0.00000000E+00  0.00000000E+00  0.00000000E+00
  0.00000000E+00  0.00000000E+00  0.00000000E+00
  0.00000000E+00  0.00000000E+00  0.00000000E+00
  0.00000000E+00  0.00000000E+00  0.00000000E+00
  0.00000000E+00  0.00000000E+00  0.00000000E+00
  0.00000000E+00  0.00000000E+00  0.00000000E+00
  0.00000000E+00  0.00000000E+00  0.00000000E+00
  0.00000000E+00  0.00000000E+00  0.00000000E+00
  0.00000000E+00  0.00000000E+00  0.00000000E+00
  0.00000000E+00  0.00000000E+00  0.00000000E+00
  0.00000000E+00  0.00000000E+00  0.00000000E+00
  0.00000000E+00  0.00000000E+00  0.00000000E+00
  0.00000000E+00  0.00000000E+00  0.00000000E+00
  0.00000000E+00  0.00000000E+00  0.00000000E+00
  0.00000000E+00  0.00000000E+00  0.00000000E+00
  0.00000000E+00  0.00000000E+00  0.00000000E+00
  0.00000000E+00  0.00000000E+00  0.00000000E+00
  0.00000000E+00  0.00000000E+00  0.00000000E+00
  0.00000000E+00  0.00000000E+00  0.00000000E+00
  0.00000000E+00  0.00000000E+00  0.00000000E+00
  0.00000000E+00  0.00000000E+00  0.00000000E+00
  0.00000000E+00  0.00000000E+00  0.00000000E+00
  0.00000000E+00  0.00000000E+00  0.00000000E+00
  0.00000000E+00  0.00000000E+00  0.00000000E+00
  0.00000000E+00  0.00000000E+00  0.00000000E+00
  0.00000000E+00  0.00000000E+00  0.00000000E+00
  0.00000000E+00  0.00000000E+00  0.00000000E+00
  0.00000000E+00  0.00000000E+00  0.00000000E+00
  0.00000000E+00  0.00000000E+00  0.00000000E+00
  0.00000000E+00  0.00000000E+00  0.00000000E+00
  0.00000000E+00  0.00000000E+00  0.00000000E+00
  0.00000000E+00  0.00000000E+00  0.00000000E+00
  0.00000000E+00  0.00000000E+00  0.00000000E+00
  0.00000000E+00  0.00000000E+00  0.00000000E+00
  0.00000000E+00  0.00000000E+00  0.00000000E+00
  0.00000000E+00  0.00000000E+00  0.00000000E+00
  0.00000000E+00  0.00000000E+00  0.00000000E+00
  0.00000000E+00  0.00000000E+00  0.00000000E+00
  0.00000000E+00  0.00000000E+00  0.00000000E+00
  0.00000000E+00  0.00000000E+00  0.00000000E+00
