Co1 H1 C122 N4 O1                       
   1.00000000000000     
    19.7939520436174483   -0.0000980226598168   -0.0633854331162451
    -9.8970625276085933   17.0009877515093208   -0.0150890610238076
    -0.0957916149716427   -0.0820125778008549   29.9022879962842936
   Co   H    C    N    O 
     1     1   122     4     1
Direct
  0.4376812678257633  0.5000048705559084  0.4134755606239306
  0.4731634122807389  0.5476093494501847  0.4874315009643864
  0.0424482604367318  0.0845723975424906  0.4009529859368198
  0.0413700625637586  0.2084956652998714  0.4011065268809814
  0.0405331867785169  0.3330197207247113  0.4006496553341421
  0.0406587850998149  0.4582570587782104  0.3996377754591873
  0.0414642849388026  0.5837651766816252  0.3987505381172243
  0.0421705577861399  0.7092203475117816  0.3985772244570539
  0.0425160259207616  0.8345704335993751  0.3991948327727580
  0.0426884776947627  0.9598559771255794  0.4001851279682606
  0.1685345514652928  0.0863163532388951  0.4018908319930752
  0.1683305403806028  0.2112133699860878  0.4031863645156905
  0.1655766378068686  0.3340281219037192  0.4035314195243210
  0.1644490046086366  0.4585241989717802  0.4028323192878346
  0.1653669530645069  0.5836557818348966  0.4009942961971857
  0.1665264674127286  0.7090077303545489  0.3994363081852592
  0.1672044132356261  0.8345804638388645  0.3991668441408256
  0.1677328647911060  0.9602907189988659  0.4002104967583233
  0.2929607572404640  0.0862971212348113  0.4018134001331602
  0.2947350323363958  0.2142311177436638  0.4043329809615855
  0.2941069096780304  0.3406112313078176  0.4061063135485208
  0.2880687684653651  0.4582935148392005  0.4062800791384025
  0.2888883478900962  0.5830343536033546  0.4046355005884576
  0.2907708974088092  0.7082849167394752  0.4018983180496660
  0.2917409600337018  0.8338896073568453  0.4001423016998079
  0.2923287512784081  0.9598346331475757  0.4001373240687581
  0.4172777044827947  0.0845409076805350  0.4008446251880866
  0.4180763238107186  0.2111983246827037  0.4030893270475756
  0.4217681667177501  0.3406332353964440  0.4060161550043113
  0.4147229264037823  0.7050164421142682  0.4046944028343586
  0.4161638202150857  0.8317806162783933  0.4019069922878152
  0.4167582111018765  0.9581832592349083  0.4003644619599334
  0.5416153760798891  0.0825711218578222  0.4000601854723114
  0.5422545659721926  0.2084561455095347  0.4009520087737771
  0.5436634911911412  0.3340001367044138  0.4032865909778121
  0.5455105002844501  0.4582697549701218  0.4062334199031276
  0.5379820656362408  0.7007089108802441  0.4065735601887302
  0.5403828355791123  0.8296505493575490  0.4034406238489652
  0.5411352680942878  0.9563880165381153  0.4010457017121287
  0.6661093737672822  0.0818171438368241  0.3997590112295878
  0.6666374785311162  0.2074362569044934  0.3993306376691458
  0.6676378056660422  0.3329941147694746  0.4003798333289427
  0.6692600596599532  0.4585094986968334  0.4026488592848969
  0.6694019729496091  0.5830302648412605  0.4046290902225689
  0.6655302384854306  0.7050157040029880  0.4047670972230045
  0.6644846982826569  0.8296654373509978  0.4034545987102255
  0.6655719946122511  0.9559788924957557  0.4014032784857301
  0.7908585331109133  0.0818196084468762  0.3997761632681435
  0.7911920824468061  0.2072354924790372  0.3988715897402385
  0.7917971224605780  0.3327118806092273  0.3986806965722345
  0.7927205664809525  0.4582396005007088  0.3994819757575661
  0.7934694168888420  0.5836446228090337  0.4008656005931968
  0.7927217838106152  0.7082971263463306  0.4018851708928346
  0.7908135460633183  0.8317886481320477  0.4019135397427680
  0.7904364301582376  0.9564009890345174  0.4010168905973537
  0.9161217355482709  0.0825848526897100  0.4001305782018149
  0.9159355496346419  0.2074542978053330  0.3994796373783281
  0.9160588742297539  0.3327383301943690  0.3987908072774168
  0.9166618379741526  0.4582102164005598  0.3984451699454034
  0.9174192168990286  0.5837381865866579  0.3986937167594890
  0.9176415007915704  0.7090065004255747  0.3994246784701764
  0.9173115364033978  0.8339112730566771  0.4001247681193453
  0.9166006823624280  0.9581985869508374  0.4003874713408014
  0.0848012324700526  0.0437260541476578  0.4009982368266113
  0.0844151979152813  0.1683493090567528  0.4017359831222077
  0.0825158629936310  0.2918385146781334  0.4017154589303955
  0.0817439024603840  0.4164641531634835  0.4009633842450281
  0.0824672386904494  0.5418619944912457  0.3996559187828262
  0.0833672801813838  0.6673429541102613  0.3987385502061671
  0.0839788309051016  0.7928298859875307  0.3988727857861350
  0.0843523607132781  0.9182806659747865  0.3998051339727756
  0.2096603742523021  0.0441634424645944  0.4013458995407578
  0.2108199958432517  0.1705239431830898  0.4032598020979115
  0.2097622699942669  0.2951411317359108  0.4043602747651018
  0.2059014388398636  0.4171052497618815  0.4043850382507634
  0.2059917944390820  0.5416036790105158  0.4028978217958762
  0.2075795953132334  0.6670905271573746  0.4006994129773026
  0.2085190464374174  0.7926251503676803  0.3994382846984454
  0.2090772837452336  0.9182736366490100  0.3997667427187955
  0.3340886730585951  0.0436967653489332  0.4008947844588553
  0.3349000537076055  0.1705076636128117  0.4032068491062025
  0.3374097279442304  0.2995251818063768  0.4060252617758671
  0.3298179767962569  0.5418143331664614  0.4065592880681946
  0.3316334814526488  0.6661129131011145  0.4038163174070016
  0.3329524111227141  0.7916133756514225  0.4012495552416344
  0.3335733251176041  0.9174803417465244  0.4001149394339826
  0.4584502596062183  0.0418937619852794  0.4002941583192390
  0.4590790173734887  0.1683103850324422  0.4016245462282070
  0.4605989748521268  0.2951259331840463  0.4042070441235083
  0.4535881506158626  0.6595678290370949  0.4066030390601550
  0.4572073904657896  0.7889230930742613  0.4034009307005933
  0.4579428586174644  0.9155505430801124  0.4010277461274079
  0.5828680588784633  0.0402305211378779  0.4001727601797673
  0.5834304485284537  0.1661629806099966  0.3999758968711526
  0.5844778258348359  0.2918028615188658  0.4014672149624815
  0.5864269796328577  0.4170641492480878  0.4042022953902212
  0.5872974288940485  0.5417499287733818  0.4066972798178415
  0.5812451405596213  0.6595993869231660  0.4068067560184475
  0.5806319914732122  0.7860022920180852  0.4046792706437513
  0.5822873846509004  0.9138312413970888  0.4019683259634339
  0.7074820651252988  0.0398177565973232  0.4001872856056600
  0.7079850625988705  0.1655082679817094  0.3991443516653406
  0.7086689627384904  0.2910500537929635  0.3992635234810770
  0.7098673322023313  0.4164419869906617  0.4007212997393714
  0.7107953088152936  0.5415860929833297  0.4027646142204298
  0.7097075317490324  0.6661116365541444  0.4038375729043237
  0.7069238540698145  0.7889257507638081  0.4034153732749263
  0.7067310329552864  0.9138496689329595  0.4019442783164991
  0.8325214375714199  0.0402363321904378  0.4001817950041824
  0.8326603350499443  0.1655106613134205  0.3992127269338162
  0.8329859067355782  0.2908333559171555  0.3985912544816276
  0.8337018197804039  0.4162899405786152  0.3986663329360665
  0.8345158178622383  0.5418322022799067  0.3995242089015265
  0.8346842713527695  0.6670844009881347  0.4006422029778756
  0.8338522486876413  0.7916401630781369  0.4012659506728995
  0.8327907400983965  0.9155673703796822  0.4010167955171698
  0.9586137988409852  0.0419073133815759  0.4003712949059791
  0.9578763977020748  0.1661801689532335  0.4001041395634403
  0.9575380669456808  0.2910759134530252  0.3994608706593171
  0.9577367071303318  0.4163172131306910  0.3987463446464649
  0.9584791900185051  0.5418289645082713  0.3984563098193059
  0.9590875601542233  0.6673326337148199  0.3987295564881994
  0.9592371309066152  0.7926249439372169  0.3994599068456017
  0.9590781896457549  0.9175043973779820  0.4001203168771853
  0.4098537524034448  0.5784278956567384  0.4073178273049040
  0.5438360913198694  0.5783747913565812  0.4077884956313982
  0.3313839333437995  0.4216442360075227  0.4066995311737820
  0.4655461523225690  0.4216925547196483  0.4066341561183133
  0.4344045662865506  0.4956463801456225  0.4762019514025616
 
  0.00000000E+00  0.00000000E+00  0.00000000E+00
  0.00000000E+00  0.00000000E+00  0.00000000E+00
  0.00000000E+00  0.00000000E+00  0.00000000E+00
  0.00000000E+00  0.00000000E+00  0.00000000E+00
  0.00000000E+00  0.00000000E+00  0.00000000E+00
  0.00000000E+00  0.00000000E+00  0.00000000E+00
  0.00000000E+00  0.00000000E+00  0.00000000E+00
  0.00000000E+00  0.00000000E+00  0.00000000E+00
  0.00000000E+00  0.00000000E+00  0.00000000E+00
  0.00000000E+00  0.00000000E+00  0.00000000E+00
  0.00000000E+00  0.00000000E+00  0.00000000E+00
  0.00000000E+00  0.00000000E+00  0.00000000E+00
  0.00000000E+00  0.00000000E+00  0.00000000E+00
  0.00000000E+00  0.00000000E+00  0.00000000E+00
  0.00000000E+00  0.00000000E+00  0.00000000E+00
  0.00000000E+00  0.00000000E+00  0.00000000E+00
  0.00000000E+00  0.00000000E+00  0.00000000E+00
  0.00000000E+00  0.00000000E+00  0.00000000E+00
  0.00000000E+00  0.00000000E+00  0.00000000E+00
  0.00000000E+00  0.00000000E+00  0.00000000E+00
  0.00000000E+00  0.00000000E+00  0.00000000E+00
  0.00000000E+00  0.00000000E+00  0.00000000E+00
  0.00000000E+00  0.00000000E+00  0.00000000E+00
  0.00000000E+00  0.00000000E+00  0.00000000E+00
  0.00000000E+00  0.00000000E+00  0.00000000E+00
  0.00000000E+00  0.00000000E+00  0.00000000E+00
  0.00000000E+00  0.00000000E+00  0.00000000E+00
  0.00000000E+00  0.00000000E+00  0.00000000E+00
  0.00000000E+00  0.00000000E+00  0.00000000E+00
  0.00000000E+00  0.00000000E+00  0.00000000E+00
  0.00000000E+00  0.00000000E+00  0.00000000E+00
  0.00000000E+00  0.00000000E+00  0.00000000E+00
  0.00000000E+00  0.00000000E+00  0.00000000E+00
  0.00000000E+00  0.00000000E+00  0.00000000E+00
  0.00000000E+00  0.00000000E+00  0.00000000E+00
  0.00000000E+00  0.00000000E+00  0.00000000E+00
  0.00000000E+00  0.00000000E+00  0.00000000E+00
  0.00000000E+00  0.00000000E+00  0.00000000E+00
  0.00000000E+00  0.00000000E+00  0.00000000E+00
  0.00000000E+00  0.00000000E+00  0.00000000E+00
  0.00000000E+00  0.00000000E+00  0.00000000E+00
  0.00000000E+00  0.00000000E+00  0.00000000E+00
  0.00000000E+00  0.00000000E+00  0.00000000E+00
  0.00000000E+00  0.00000000E+00  0.00000000E+00
  0.00000000E+00  0.00000000E+00  0.00000000E+00
  0.00000000E+00  0.00000000E+00  0.00000000E+00
  0.00000000E+00  0.00000000E+00  0.00000000E+00
  0.00000000E+00  0.00000000E+00  0.00000000E+00
  0.00000000E+00  0.00000000E+00  0.00000000E+00
  0.00000000E+00  0.00000000E+00  0.00000000E+00
  0.00000000E+00  0.00000000E+00  0.00000000E+00
  0.00000000E+00  0.00000000E+00  0.00000000E+00
  0.00000000E+00  0.00000000E+00  0.00000000E+00
  0.00000000E+00  0.00000000E+00  0.00000000E+00
  0.00000000E+00  0.00000000E+00  0.00000000E+00
  0.00000000E+00  0.00000000E+00  0.00000000E+00
  0.00000000E+00  0.00000000E+00  0.00000000E+00
  0.00000000E+00  0.00000000E+00  0.00000000E+00
  0.00000000E+00  0.00000000E+00  0.00000000E+00
  0.00000000E+00  0.00000000E+00  0.00000000E+00
  0.00000000E+00  0.00000000E+00  0.00000000E+00
  0.00000000E+00  0.00000000E+00  0.00000000E+00
  0.00000000E+00  0.00000000E+00  0.00000000E+00
  0.00000000E+00  0.00000000E+00  0.00000000E+00
  0.00000000E+00  0.00000000E+00  0.00000000E+00
  0.00000000E+00  0.00000000E+00  0.00000000E+00
  0.00000000E+00  0.00000000E+00  0.00000000E+00
  0.00000000E+00  0.00000000E+00  0.00000000E+00
  0.00000000E+00  0.00000000E+00  0.00000000E+00
  0.00000000E+00  0.00000000E+00  0.00000000E+00
  0.00000000E+00  0.00000000E+00  0.00000000E+00
  0.00000000E+00  0.00000000E+00  0.00000000E+00
  0.00000000E+00  0.00000000E+00  0.00000000E+00
  0.00000000E+00  0.00000000E+00  0.00000000E+00
  0.00000000E+00  0.00000000E+00  0.00000000E+00
  0.00000000E+00  0.00000000E+00  0.00000000E+00
  0.00000000E+00  0.00000000E+00  0.00000000E+00
  0.00000000E+00  0.00000000E+00  0.00000000E+00
  0.00000000E+00  0.00000000E+00  0.00000000E+00
  0.00000000E+00  0.00000000E+00  0.00000000E+00
  0.00000000E+00  0.00000000E+00  0.00000000E+00
  0.00000000E+00  0.00000000E+00  0.00000000E+00
  0.00000000E+00  0.00000000E+00  0.00000000E+00
  0.00000000E+00  0.00000000E+00  0.00000000E+00
  0.00000000E+00  0.00000000E+00  0.00000000E+00
  0.00000000E+00  0.00000000E+00  0.00000000E+00
  0.00000000E+00  0.00000000E+00  0.00000000E+00
  0.00000000E+00  0.00000000E+00  0.00000000E+00
  0.00000000E+00  0.00000000E+00  0.00000000E+00
  0.00000000E+00  0.00000000E+00  0.00000000E+00
  0.00000000E+00  0.00000000E+00  0.00000000E+00
  0.00000000E+00  0.00000000E+00  0.00000000E+00
  0.00000000E+00  0.00000000E+00  0.00000000E+00
  0.00000000E+00  0.00000000E+00  0.00000000E+00
  0.00000000E+00  0.00000000E+00  0.00000000E+00
  0.00000000E+00  0.00000000E+00  0.00000000E+00
  0.00000000E+00  0.00000000E+00  0.00000000E+00
  0.00000000E+00  0.00000000E+00  0.00000000E+00
  0.00000000E+00  0.00000000E+00  0.00000000E+00
  0.00000000E+00  0.00000000E+00  0.00000000E+00
  0.00000000E+00  0.00000000E+00  0.00000000E+00
  0.00000000E+00  0.00000000E+00  0.00000000E+00
  0.00000000E+00  0.00000000E+00  0.00000000E+00
  0.00000000E+00  0.00000000E+00  0.00000000E+00
  0.00000000E+00  0.00000000E+00  0.00000000E+00
  0.00000000E+00  0.00000000E+00  0.00000000E+00
  0.00000000E+00  0.00000000E+00  0.00000000E+00
  0.00000000E+00  0.00000000E+00  0.00000000E+00
  0.00000000E+00  0.00000000E+00  0.00000000E+00
  0.00000000E+00  0.00000000E+00  0.00000000E+00
  0.00000000E+00  0.00000000E+00  0.00000000E+00
  0.00000000E+00  0.00000000E+00  0.00000000E+00
  0.00000000E+00  0.00000000E+00  0.00000000E+00
  0.00000000E+00  0.00000000E+00  0.00000000E+00
  0.00000000E+00  0.00000000E+00  0.00000000E+00
  0.00000000E+00  0.00000000E+00  0.00000000E+00
  0.00000000E+00  0.00000000E+00  0.00000000E+00
  0.00000000E+00  0.00000000E+00  0.00000000E+00
  0.00000000E+00  0.00000000E+00  0.00000000E+00
  0.00000000E+00  0.00000000E+00  0.00000000E+00
  0.00000000E+00  0.00000000E+00  0.00000000E+00
  0.00000000E+00  0.00000000E+00  0.00000000E+00
  0.00000000E+00  0.00000000E+00  0.00000000E+00
  0.00000000E+00  0.00000000E+00  0.00000000E+00
  0.00000000E+00  0.00000000E+00  0.00000000E+00
  0.00000000E+00  0.00000000E+00  0.00000000E+00
  0.00000000E+00  0.00000000E+00  0.00000000E+00
  0.00000000E+00  0.00000000E+00  0.00000000E+00
  0.00000000E+00  0.00000000E+00  0.00000000E+00
