Co1 H1 C125 N1 O1                       
   1.00000000000000     
    19.8076442890663067   -0.0081668712488081   -0.0256474460958529
    -9.9109775527409205   17.0499538154257309    0.0138406463031313
    -0.0385878575906624    0.0018724650070972   29.8023759927292176
   Co   H    C    N    O 
     1     1   125     1     1
Direct
  0.4379357744328761  0.4996858825752789  0.4195149556295208
  0.4788989253379702  0.5499450376111533  0.4926640087896699
  0.0419671382674628  0.0840630098411663  0.3997902467220364
  0.0413396418943965  0.2083780176414497  0.3996679707923190
  0.0408915144964773  0.3329764285250243  0.3996009954079438
  0.0408984086300504  0.4582916779895669  0.3996826872917744
  0.0414749088801998  0.5836930128485850  0.3998072112214833
  0.0419782389578717  0.7090171534068440  0.3998777621825856
  0.0422462781493101  0.8343270984852327  0.3999028416279677
  0.0422549713276948  0.9593605775962087  0.3998732592736332
  0.1676152986762398  0.0852467323751187  0.4000783498006241
  0.1674762558963574  0.2101142349019962  0.4001704631177941
  0.1661908855482451  0.3340596309509656  0.3999977129846871
  0.1648652694468341  0.4585090237861614  0.3995809466473201
  0.1654229073281135  0.5836387346544146  0.3995587445518511
  0.1663613883064858  0.7090235602054550  0.3997823475121443
  0.1669679217773292  0.8343992334774241  0.3999336015566808
  0.1673587302618837  0.9598096083757566  0.4000017010149917
  0.2925913181913414  0.0852414686625204  0.4001241355968922
  0.2934251476064216  0.2116985885080043  0.4010938414479149
  0.2933751456095921  0.3375773928359131  0.4024354176789027
  0.2893609133005780  0.4592530341072928  0.4016592619084182
  0.2891511823935969  0.5841799297636511  0.4001632328619294
  0.2906722478718836  0.7089696505089930  0.3998078902590851
  0.2915577816908448  0.8340377061011958  0.3997682039079278
  0.2919888183876216  0.9594170622550038  0.3998761345036475
  0.4170692754289366  0.0840237915606928  0.3998525545191447
  0.4176906956152684  0.2099773231048045  0.4003828473122659
  0.4194418922210897  0.3375574033413954  0.4025597504864499
  0.4147150001729898  0.7065612903923674  0.4008847946936822
  0.4160737612767474  0.8326389233008304  0.3998559770802778
  0.4166099063129916  0.9583242460024557  0.3997312732687212
  0.5416068565056480  0.0826399157798270  0.3997689843035429
  0.5421366657872251  0.2080005132104194  0.3998441025049567
  0.5430239310992239  0.3331681251441539  0.4003848770588512
  0.5457172743205413  0.4578145781296056  0.4018510947703089
  0.5438725548673762  0.5788168321247886  0.4041781688905898
  0.5382998990812017  0.7030353706971210  0.4025564433534618
  0.5402787002597266  0.8308089887313946  0.4005689920825699
  0.5411769456484521  0.9570229236145168  0.3999033031322327
  0.6662190957921719  0.0820468444586187  0.3999489019060578
  0.6667128105991015  0.2074366222084288  0.3997862413493455
  0.6674101842553729  0.3326731380376278  0.3997396303424257
  0.6691252020900206  0.4580628804464071  0.3998248643975529
  0.6701382353009639  0.5834826170149593  0.4000890543734378
  0.6657527811571987  0.7059889612097721  0.4005432790174459
  0.6647595309817365  0.8303954537592437  0.4005002160608707
  0.6656692331996124  0.9564431162285170  0.4001209894588900
  0.7909658547535995  0.0820509627240825  0.3999895344115385
  0.7912934636465252  0.2072922805993179  0.3999399704921266
  0.7918710418580650  0.3326789804233893  0.3997711394891104
  0.7928288297804235  0.4581484159595896  0.3996245243466742
  0.7935140884398099  0.5834545065831181  0.3995339645517842
  0.7927017347053531  0.7085646240426960  0.3996233082967391
  0.7910779842183340  0.8323157009406099  0.3998327557311503
  0.7905895339121084  0.9567932906904654  0.3999462479887979
  0.9161289971213319  0.0826922975614868  0.3998149730889802
  0.9160918364800845  0.2075759523068184  0.3998481486716996
  0.9162784496121049  0.3327520354717168  0.3998577709383276
  0.9167788527448115  0.4581172291818914  0.3998077061105384
  0.9174649115166322  0.5836278547947217  0.3997427617568832
  0.9174963729626360  0.7089557599377714  0.3996905914652388
  0.9171748108149707  0.8338130795801658  0.3997404411493751
  0.9164966825251704  0.9581836095696761  0.3997941689387662
  0.0840742252674145  0.0429624434169843  0.3998918798935581
  0.0837768240099507  0.1676098468150732  0.3997825052049435
  0.0827901512511311  0.2917752986537263  0.3996360556921400
  0.0821523413865895  0.4166072972981985  0.3995439837582819
  0.0825134402472019  0.5418206126723575  0.3996688860892213
  0.0832510515387582  0.6672555716460119  0.3998442906084994
  0.0837732234524653  0.7926766083917796  0.3999242896312583
  0.0839836906055804  0.9179020600681572  0.3999457947781578
  0.2091548820458542  0.0434066533942354  0.4000778914055772
  0.2095175487400045  0.1690062473504658  0.4004370657363867
  0.2092279627380058  0.2939234792126951  0.4006231007315135
  0.2065198569214958  0.4173148044427427  0.4000267765203755
  0.2062572379966818  0.5418638911711544  0.3995834463561762
  0.2075858822871589  0.6672631324302271  0.3996779770049956
  0.2083477085564970  0.7925598138540508  0.3998359517591589
  0.2087980055118291  0.9179297001031967  0.3999606272471980
  0.3338137511817841  0.0429650219029566  0.3999210788666273
  0.3345058747092385  0.1689355270394524  0.4005315236776992
  0.3352802075346317  0.2953388796395962  0.4024760234803904
  0.3324526400619098  0.4206078299842594  0.4044348199079777
  0.3307569955845128  0.5436928381440640  0.4019278101313625
  0.3317509908286396  0.6671046766368037  0.4002516054014004
  0.3328932061340156  0.7921576860682338  0.3997754269334666
  0.3334246542240429  0.9174360703752620  0.3997779241459899
  0.4584280647562242  0.0418021207161008  0.3997495200580150
  0.4588746756468455  0.1674946963008269  0.3999630780678615
  0.4598411752159691  0.2936619176445199  0.4008636500497993
  0.4640125436284140  0.4205857990865943  0.4044132020100480
  0.4537673434757542  0.6617807522913837  0.4027623116703232
  0.4572453273284487  0.7902024489737043  0.4003413291990560
  0.4579382639547733  0.9161019231559723  0.3997827160793679
  0.5830151462081531  0.0406100038423264  0.3998598701219551
  0.5834876924302986  0.1660601250515709  0.3997643116621030
  0.5842240129722580  0.2912186843376320  0.3999268456457566
  0.5861846989256283  0.4161001496907957  0.4004333316903998
  0.5881094827618225  0.5417012638952123  0.4016131524009263
  0.5812160858786137  0.6616203822797931  0.4022901869047079
  0.5805785228972387  0.7873113368170195  0.4011860034971743
  0.5823247407949886  0.9146471098152553  0.4001417163096988
  0.7075806147248362  0.0401034316315845  0.4000252731352277
  0.7080902357577689  0.1656060834499479  0.3998976977971063
  0.7086688039084738  0.2909264310835183  0.3997370877135502
  0.7098920478934235  0.4163092044129654  0.3996568313032111
  0.7110252703243096  0.5415792698841526  0.3996992413609754
  0.7095202693301634  0.6665127541464948  0.3999769686271245
  0.7072460394014783  0.7896630333430696  0.4002076373296455
  0.7068944856561774  0.9143226898993696  0.4001398149510761
  0.8325620349453176  0.0404898956447727  0.3999196094330359
  0.8327877947393926  0.1656449011048091  0.3999609165054607
  0.8331645857817457  0.2909438215218730  0.3998738080018381
  0.8338400461250097  0.4162634465671956  0.3997363829638803
  0.8345937817614764  0.5416728992117900  0.3996113554475649
  0.8344693614553628  0.6671238988611553  0.3995564224767296
  0.8338221254264232  0.7918169670830255  0.3996832199707706
  0.8328173290051227  0.9158404398608255  0.3998417761110477
  0.9583233558568659  0.0417464142195922  0.3997823865134640
  0.9579088890193053  0.1662489868579311  0.3997556499893486
  0.9577415957193387  0.2910937325981934  0.3997744463632731
  0.9579058335858931  0.4163388285191744  0.3998182748224071
  0.9585702977274233  0.5418394987776467  0.3998093042266246
  0.9589466639622879  0.6672366815776263  0.3997783033456976
  0.9590020155485052  0.7924608578107549  0.3997797035894637
  0.9587612660353644  0.9172758067684467  0.3998053619053495
  0.4099020737080312  0.5812318234168730  0.4045321589478418
  0.4386621631764657  0.4997855702809659  0.4804031347581174
 
  0.00000000E+00  0.00000000E+00  0.00000000E+00
  0.00000000E+00  0.00000000E+00  0.00000000E+00
  0.00000000E+00  0.00000000E+00  0.00000000E+00
  0.00000000E+00  0.00000000E+00  0.00000000E+00
  0.00000000E+00  0.00000000E+00  0.00000000E+00
  0.00000000E+00  0.00000000E+00  0.00000000E+00
  0.00000000E+00  0.00000000E+00  0.00000000E+00
  0.00000000E+00  0.00000000E+00  0.00000000E+00
  0.00000000E+00  0.00000000E+00  0.00000000E+00
  0.00000000E+00  0.00000000E+00  0.00000000E+00
  0.00000000E+00  0.00000000E+00  0.00000000E+00
  0.00000000E+00  0.00000000E+00  0.00000000E+00
  0.00000000E+00  0.00000000E+00  0.00000000E+00
  0.00000000E+00  0.00000000E+00  0.00000000E+00
  0.00000000E+00  0.00000000E+00  0.00000000E+00
  0.00000000E+00  0.00000000E+00  0.00000000E+00
  0.00000000E+00  0.00000000E+00  0.00000000E+00
  0.00000000E+00  0.00000000E+00  0.00000000E+00
  0.00000000E+00  0.00000000E+00  0.00000000E+00
  0.00000000E+00  0.00000000E+00  0.00000000E+00
  0.00000000E+00  0.00000000E+00  0.00000000E+00
  0.00000000E+00  0.00000000E+00  0.00000000E+00
  0.00000000E+00  0.00000000E+00  0.00000000E+00
  0.00000000E+00  0.00000000E+00  0.00000000E+00
  0.00000000E+00  0.00000000E+00  0.00000000E+00
  0.00000000E+00  0.00000000E+00  0.00000000E+00
  0.00000000E+00  0.00000000E+00  0.00000000E+00
  0.00000000E+00  0.00000000E+00  0.00000000E+00
  0.00000000E+00  0.00000000E+00  0.00000000E+00
  0.00000000E+00  0.00000000E+00  0.00000000E+00
  0.00000000E+00  0.00000000E+00  0.00000000E+00
  0.00000000E+00  0.00000000E+00  0.00000000E+00
  0.00000000E+00  0.00000000E+00  0.00000000E+00
  0.00000000E+00  0.00000000E+00  0.00000000E+00
  0.00000000E+00  0.00000000E+00  0.00000000E+00
  0.00000000E+00  0.00000000E+00  0.00000000E+00
  0.00000000E+00  0.00000000E+00  0.00000000E+00
  0.00000000E+00  0.00000000E+00  0.00000000E+00
  0.00000000E+00  0.00000000E+00  0.00000000E+00
  0.00000000E+00  0.00000000E+00  0.00000000E+00
  0.00000000E+00  0.00000000E+00  0.00000000E+00
  0.00000000E+00  0.00000000E+00  0.00000000E+00
  0.00000000E+00  0.00000000E+00  0.00000000E+00
  0.00000000E+00  0.00000000E+00  0.00000000E+00
  0.00000000E+00  0.00000000E+00  0.00000000E+00
  0.00000000E+00  0.00000000E+00  0.00000000E+00
  0.00000000E+00  0.00000000E+00  0.00000000E+00
  0.00000000E+00  0.00000000E+00  0.00000000E+00
  0.00000000E+00  0.00000000E+00  0.00000000E+00
  0.00000000E+00  0.00000000E+00  0.00000000E+00
  0.00000000E+00  0.00000000E+00  0.00000000E+00
  0.00000000E+00  0.00000000E+00  0.00000000E+00
  0.00000000E+00  0.00000000E+00  0.00000000E+00
  0.00000000E+00  0.00000000E+00  0.00000000E+00
  0.00000000E+00  0.00000000E+00  0.00000000E+00
  0.00000000E+00  0.00000000E+00  0.00000000E+00
  0.00000000E+00  0.00000000E+00  0.00000000E+00
  0.00000000E+00  0.00000000E+00  0.00000000E+00
  0.00000000E+00  0.00000000E+00  0.00000000E+00
  0.00000000E+00  0.00000000E+00  0.00000000E+00
  0.00000000E+00  0.00000000E+00  0.00000000E+00
  0.00000000E+00  0.00000000E+00  0.00000000E+00
  0.00000000E+00  0.00000000E+00  0.00000000E+00
  0.00000000E+00  0.00000000E+00  0.00000000E+00
  0.00000000E+00  0.00000000E+00  0.00000000E+00
  0.00000000E+00  0.00000000E+00  0.00000000E+00
  0.00000000E+00  0.00000000E+00  0.00000000E+00
  0.00000000E+00  0.00000000E+00  0.00000000E+00
  0.00000000E+00  0.00000000E+00  0.00000000E+00
  0.00000000E+00  0.00000000E+00  0.00000000E+00
  0.00000000E+00  0.00000000E+00  0.00000000E+00
  0.00000000E+00  0.00000000E+00  0.00000000E+00
  0.00000000E+00  0.00000000E+00  0.00000000E+00
  0.00000000E+00  0.00000000E+00  0.00000000E+00
  0.00000000E+00  0.00000000E+00  0.00000000E+00
  0.00000000E+00  0.00000000E+00  0.00000000E+00
  0.00000000E+00  0.00000000E+00  0.00000000E+00
  0.00000000E+00  0.00000000E+00  0.00000000E+00
  0.00000000E+00  0.00000000E+00  0.00000000E+00
  0.00000000E+00  0.00000000E+00  0.00000000E+00
  0.00000000E+00  0.00000000E+00  0.00000000E+00
  0.00000000E+00  0.00000000E+00  0.00000000E+00
  0.00000000E+00  0.00000000E+00  0.00000000E+00
  0.00000000E+00  0.00000000E+00  0.00000000E+00
  0.00000000E+00  0.00000000E+00  0.00000000E+00
  0.00000000E+00  0.00000000E+00  0.00000000E+00
  0.00000000E+00  0.00000000E+00  0.00000000E+00
  0.00000000E+00  0.00000000E+00  0.00000000E+00
  0.00000000E+00  0.00000000E+00  0.00000000E+00
  0.00000000E+00  0.00000000E+00  0.00000000E+00
  0.00000000E+00  0.00000000E+00  0.00000000E+00
  0.00000000E+00  0.00000000E+00  0.00000000E+00
  0.00000000E+00  0.00000000E+00  0.00000000E+00
  0.00000000E+00  0.00000000E+00  0.00000000E+00
  0.00000000E+00  0.00000000E+00  0.00000000E+00
  0.00000000E+00  0.00000000E+00  0.00000000E+00
  0.00000000E+00  0.00000000E+00  0.00000000E+00
  0.00000000E+00  0.00000000E+00  0.00000000E+00
  0.00000000E+00  0.00000000E+00  0.00000000E+00
  0.00000000E+00  0.00000000E+00  0.00000000E+00
  0.00000000E+00  0.00000000E+00  0.00000000E+00
  0.00000000E+00  0.00000000E+00  0.00000000E+00
  0.00000000E+00  0.00000000E+00  0.00000000E+00
  0.00000000E+00  0.00000000E+00  0.00000000E+00
  0.00000000E+00  0.00000000E+00  0.00000000E+00
  0.00000000E+00  0.00000000E+00  0.00000000E+00
  0.00000000E+00  0.00000000E+00  0.00000000E+00
  0.00000000E+00  0.00000000E+00  0.00000000E+00
  0.00000000E+00  0.00000000E+00  0.00000000E+00
  0.00000000E+00  0.00000000E+00  0.00000000E+00
  0.00000000E+00  0.00000000E+00  0.00000000E+00
  0.00000000E+00  0.00000000E+00  0.00000000E+00
  0.00000000E+00  0.00000000E+00  0.00000000E+00
  0.00000000E+00  0.00000000E+00  0.00000000E+00
  0.00000000E+00  0.00000000E+00  0.00000000E+00
  0.00000000E+00  0.00000000E+00  0.00000000E+00
  0.00000000E+00  0.00000000E+00  0.00000000E+00
  0.00000000E+00  0.00000000E+00  0.00000000E+00
  0.00000000E+00  0.00000000E+00  0.00000000E+00
  0.00000000E+00  0.00000000E+00  0.00000000E+00
  0.00000000E+00  0.00000000E+00  0.00000000E+00
  0.00000000E+00  0.00000000E+00  0.00000000E+00
  0.00000000E+00  0.00000000E+00  0.00000000E+00
  0.00000000E+00  0.00000000E+00  0.00000000E+00
  0.00000000E+00  0.00000000E+00  0.00000000E+00
  0.00000000E+00  0.00000000E+00  0.00000000E+00
  0.00000000E+00  0.00000000E+00  0.00000000E+00
  0.00000000E+00  0.00000000E+00  0.00000000E+00
  0.00000000E+00  0.00000000E+00  0.00000000E+00
