H1 Pd1 C125 N1                          
   1.00000000000000     
    19.8269772494376930   -0.0119605633213904    0.2784878595953867
    -9.9264173583268498   17.0693870327345252    0.0713478704330622
     0.4185604277077674    0.3675055055940193   29.7530957898893718
   H    Pd   C    N 
     1     1   125     1
Direct
  0.5047545152829080  0.5598623531897008  0.4538701394540307
  0.4366197638428314  0.4960721561502926  0.4085813673823888
  0.0413577825821688  0.0836279947015541  0.3996706029084787
  0.0405443175921304  0.2078894664577454  0.3996649128066664
  0.0399907107630860  0.3325287561196177  0.3992908329284486
  0.0399459888882485  0.4579666735984522  0.3991670229759255
  0.0406628967621983  0.5834430456117616  0.3990020561910696
  0.0414072868352589  0.7087974097111609  0.3989431127313612
  0.0417663464113521  0.8340924078409003  0.3990763379240505
  0.0418629945964779  0.9591303112222496  0.3993173513304039
  0.1670888395430770  0.0848732632360224  0.4003599151968824
  0.1663593798210575  0.2092090147977824  0.4007404790063726
  0.1649883367701523  0.3334102589714055  0.3996527410157537
  0.1634984564431560  0.4581672872192785  0.3991288868039914
  0.1643836411640982  0.5834656680171912  0.3993575039920625
  0.1656353756432737  0.7088407403579328  0.3993808558036255
  0.1663990084640787  0.8341514993507638  0.3994379564394856
  0.1668664235329097  0.9595136157059913  0.3997493964694399
  0.2920696122312513  0.0847303209568217  0.4006584434086777
  0.2927685383611158  0.2109725790475155  0.4024333134995348
  0.2914789694411996  0.3359251166270495  0.4021898202164874
  0.2873102780953985  0.4587657187519323  0.3997296217914592
  0.2876731324560441  0.5841798715854580  0.4003966316229142
  0.2898751103674616  0.7088433084414993  0.4000381502893651
  0.2909309726339531  0.8337935475642331  0.3995117143960194
  0.2914954883937666  0.9590795608080027  0.3995708203575583
  0.4166291929815975  0.0833068371874438  0.3996824683508215
  0.4171849201599951  0.2085505341167790  0.4024103927123426
  0.4189236974822809  0.3347456284695562  0.4077422766281645
  0.4139493375469853  0.7069098808096830  0.4029251289371522
  0.4154446683103817  0.8324703384668467  0.4005012446658268
  0.4161107596265612  0.9578885829091213  0.3992558158950382
  0.5412082157426596  0.0820814416970437  0.3989758534789611
  0.5418556868486614  0.2073616354728223  0.3997915758990823
  0.5428937562528822  0.3321845711505888  0.4042713357009602
  0.5460211615005699  0.4559696394787535  0.4144657132661977
  0.5524879897027966  0.5849678675536638  0.4271227487824241
  0.5380884383684627  0.7030853128151848  0.4088864434607461
  0.5397628458241003  0.8305031062143811  0.4021430061159573
  0.5406728744306255  0.9565487113588989  0.3996613237474191
  0.6657599292402826  0.0815662443221970  0.3992403440708102
  0.6663744365705769  0.2068803170873238  0.3988258278804722
  0.6671735825343841  0.3320807059381770  0.3993041295539596
  0.6690285406396725  0.4573392487780906  0.4018376309076604
  0.6696830069455048  0.5829183137888997  0.4043475253220556
  0.6666354499039859  0.7070115962389526  0.4045715099602230
  0.6645115881566370  0.8304371141980730  0.4023777659066477
  0.6652296020176323  0.9561453543583593  0.4003195730795820
  0.7904629676169944  0.0816298652125661  0.3995520737981998
  0.7907897167381310  0.2068174523448696  0.3992310129930520
  0.7914788604128974  0.3322176816957925  0.3985701319854225
  0.7925348132501433  0.4577755511577200  0.3977388030892534
  0.7930027073417795  0.5831352619653488  0.3976222141301520
  0.7924531420968449  0.7083198866954840  0.3989663742716421
  0.7911528156126323  0.8325102391963051  0.3991358025004267
  0.7902408130428801  0.9565982110249406  0.3996709138422660
  0.9156172882274912  0.0823110897670841  0.3994099142310658
  0.9154110946921257  0.2071196247226368  0.3994652493938395
  0.9156040984654038  0.3323347470388250  0.3991853311722873
  0.9161795070408086  0.4577844347975686  0.3985295408648039
  0.9169172077441192  0.5833641847331802  0.3979561756780897
  0.9171149990054018  0.7087201632652900  0.3979590086937141
  0.9168461550445628  0.8336503354492628  0.3984655888708390
  0.9162260047812556  0.9580170763744585  0.3990159876387188
  0.0835800987335735  0.0426568216970411  0.3997548039358068
  0.0828467672854475  0.1669571627472057  0.3999839679461251
  0.0818255141346873  0.2912732739238722  0.3994742517222380
  0.0809985521851328  0.4161445734004324  0.3991890894858061
  0.0815478556891072  0.5415084442211414  0.3991679336128647
  0.0825488820388309  0.6669924958249852  0.3991524805943513
  0.0832066080133034  0.7924156344364823  0.3992131160426374
  0.0835013047558720  0.9176236928262301  0.3994136350258237
  0.2086433069351261  0.0430177239958966  0.4002596567366381
  0.2088116798194994  0.1684675816889161  0.4010992481894477
  0.2077141143281898  0.2928015052165569  0.4007936593554959
  0.2048655149661444  0.4167987908808135  0.3991870016165299
  0.2049853842681335  0.5416392346037456  0.3994551104805598
  0.2067873069224378  0.6670516884727311  0.3995029677775733
  0.2076919141253093  0.7923061728268112  0.3994324995472326
  0.2082931061233617  0.9176280514663435  0.3996074236887711
  0.3333545178737801  0.0425012710175244  0.3999509342245636
  0.3339684037633945  0.1681669798015185  0.4020069630912954
  0.3345769300736722  0.2944193657166412  0.4041466827649946
  0.3288994778241695  0.4185366273060691  0.4010915005209348
  0.3292273149019070  0.5438650307550968  0.4007465068766939
  0.3308777596610989  0.6670151803447298  0.4010210617664595
  0.3322105000703608  0.7919226512166779  0.3999880548527187
  0.3329044234422228  0.9171067869384009  0.3993933912385008
  0.4580178629690064  0.0412164018353779  0.3991324839292862
  0.4585208114715070  0.1664673934380439  0.4004857838731466
  0.4594446218812029  0.2916423919596335  0.4052004252840608
  0.4642541833136546  0.4162261227512122  0.4132926537901319
  0.4528001659485040  0.6622279949686529  0.4055655453094602
  0.4566215498092140  0.7902460385753080  0.4020945144952745
  0.4574237519562595  0.9157443207592035  0.3996871203283603
  0.5825791465167026  0.0400797760898867  0.3991582751529930
  0.5831629508060776  0.1654690157396800  0.3989694839466599
  0.5840351602202125  0.2905310906697418  0.4006559712112457
  0.5865071798294279  0.4150985098969764  0.4070705004131910
  0.5891788558583284  0.5413069249626528  0.4162662332926447
  0.5838019991003150  0.6646086026265664  0.4134651379881796
  0.5802028769088998  0.7871496908813804  0.4043994321071573
  0.5818548135919518  0.9142336662132974  0.4004995235201578
  0.7071057885061007  0.0396795501884086  0.3996364953984432
  0.7076543018964859  0.1650735298090558  0.3990329863982272
  0.7083264833644149  0.2903319512430770  0.3986608132497358
  0.7096548000583388  0.4156899275262786  0.3990311259082659
  0.7103967369103006  0.5409835514646673  0.4001505359246889
  0.7093970702468352  0.6662575149840804  0.4024898250091191
  0.7075320427555921  0.7903090744679355  0.4012091780366432
  0.7065214372006092  0.9141989311509825  0.4006865430425928
  0.8320896922284788  0.0401715286380210  0.3994960587600596
  0.8321853313536279  0.1651708454659189  0.3994533571099703
  0.8325962254972036  0.2904076032378798  0.3990364605751026
  0.8333832406147259  0.4158181574729578  0.3981266774107556
  0.8341225971960835  0.5413272013631781  0.3974385066295116
  0.8340910605117232  0.6667968527080840  0.3977980083220785
  0.8335608883942737  0.7916685202649371  0.3985848944118499
  0.8326651574202688  0.9158264124075222  0.3991181846049144
  0.9578239231862308  0.0414310301418109  0.3993424741536605
  0.9572234778859104  0.1657892730173738  0.3995143543170307
  0.9569709514397777  0.2905993542632216  0.3993701767895533
  0.9571113237391685  0.4159015459777911  0.3990266117101675
  0.9578630091027014  0.5414821603859603  0.3985160173338648
  0.9584471794611891  0.6669574478276832  0.3982540993881631
  0.9585704854110718  0.7921895032393027  0.3985189562725562
  0.9584066603678462  0.9170680582581491  0.3988716846563389
  0.4080809283156617  0.5827380579077662  0.4031432044319559
 
  0.00000000E+00  0.00000000E+00  0.00000000E+00
  0.00000000E+00  0.00000000E+00  0.00000000E+00
  0.00000000E+00  0.00000000E+00  0.00000000E+00
  0.00000000E+00  0.00000000E+00  0.00000000E+00
  0.00000000E+00  0.00000000E+00  0.00000000E+00
  0.00000000E+00  0.00000000E+00  0.00000000E+00
  0.00000000E+00  0.00000000E+00  0.00000000E+00
  0.00000000E+00  0.00000000E+00  0.00000000E+00
  0.00000000E+00  0.00000000E+00  0.00000000E+00
  0.00000000E+00  0.00000000E+00  0.00000000E+00
  0.00000000E+00  0.00000000E+00  0.00000000E+00
  0.00000000E+00  0.00000000E+00  0.00000000E+00
  0.00000000E+00  0.00000000E+00  0.00000000E+00
  0.00000000E+00  0.00000000E+00  0.00000000E+00
  0.00000000E+00  0.00000000E+00  0.00000000E+00
  0.00000000E+00  0.00000000E+00  0.00000000E+00
  0.00000000E+00  0.00000000E+00  0.00000000E+00
  0.00000000E+00  0.00000000E+00  0.00000000E+00
  0.00000000E+00  0.00000000E+00  0.00000000E+00
  0.00000000E+00  0.00000000E+00  0.00000000E+00
  0.00000000E+00  0.00000000E+00  0.00000000E+00
  0.00000000E+00  0.00000000E+00  0.00000000E+00
  0.00000000E+00  0.00000000E+00  0.00000000E+00
  0.00000000E+00  0.00000000E+00  0.00000000E+00
  0.00000000E+00  0.00000000E+00  0.00000000E+00
  0.00000000E+00  0.00000000E+00  0.00000000E+00
  0.00000000E+00  0.00000000E+00  0.00000000E+00
  0.00000000E+00  0.00000000E+00  0.00000000E+00
  0.00000000E+00  0.00000000E+00  0.00000000E+00
  0.00000000E+00  0.00000000E+00  0.00000000E+00
  0.00000000E+00  0.00000000E+00  0.00000000E+00
  0.00000000E+00  0.00000000E+00  0.00000000E+00
  0.00000000E+00  0.00000000E+00  0.00000000E+00
  0.00000000E+00  0.00000000E+00  0.00000000E+00
  0.00000000E+00  0.00000000E+00  0.00000000E+00
  0.00000000E+00  0.00000000E+00  0.00000000E+00
  0.00000000E+00  0.00000000E+00  0.00000000E+00
  0.00000000E+00  0.00000000E+00  0.00000000E+00
  0.00000000E+00  0.00000000E+00  0.00000000E+00
  0.00000000E+00  0.00000000E+00  0.00000000E+00
  0.00000000E+00  0.00000000E+00  0.00000000E+00
  0.00000000E+00  0.00000000E+00  0.00000000E+00
  0.00000000E+00  0.00000000E+00  0.00000000E+00
  0.00000000E+00  0.00000000E+00  0.00000000E+00
  0.00000000E+00  0.00000000E+00  0.00000000E+00
  0.00000000E+00  0.00000000E+00  0.00000000E+00
  0.00000000E+00  0.00000000E+00  0.00000000E+00
  0.00000000E+00  0.00000000E+00  0.00000000E+00
  0.00000000E+00  0.00000000E+00  0.00000000E+00
  0.00000000E+00  0.00000000E+00  0.00000000E+00
  0.00000000E+00  0.00000000E+00  0.00000000E+00
  0.00000000E+00  0.00000000E+00  0.00000000E+00
  0.00000000E+00  0.00000000E+00  0.00000000E+00
  0.00000000E+00  0.00000000E+00  0.00000000E+00
  0.00000000E+00  0.00000000E+00  0.00000000E+00
  0.00000000E+00  0.00000000E+00  0.00000000E+00
  0.00000000E+00  0.00000000E+00  0.00000000E+00
  0.00000000E+00  0.00000000E+00  0.00000000E+00
  0.00000000E+00  0.00000000E+00  0.00000000E+00
  0.00000000E+00  0.00000000E+00  0.00000000E+00
  0.00000000E+00  0.00000000E+00  0.00000000E+00
  0.00000000E+00  0.00000000E+00  0.00000000E+00
  0.00000000E+00  0.00000000E+00  0.00000000E+00
  0.00000000E+00  0.00000000E+00  0.00000000E+00
  0.00000000E+00  0.00000000E+00  0.00000000E+00
  0.00000000E+00  0.00000000E+00  0.00000000E+00
  0.00000000E+00  0.00000000E+00  0.00000000E+00
  0.00000000E+00  0.00000000E+00  0.00000000E+00
  0.00000000E+00  0.00000000E+00  0.00000000E+00
  0.00000000E+00  0.00000000E+00  0.00000000E+00
  0.00000000E+00  0.00000000E+00  0.00000000E+00
  0.00000000E+00  0.00000000E+00  0.00000000E+00
  0.00000000E+00  0.00000000E+00  0.00000000E+00
  0.00000000E+00  0.00000000E+00  0.00000000E+00
  0.00000000E+00  0.00000000E+00  0.00000000E+00
  0.00000000E+00  0.00000000E+00  0.00000000E+00
  0.00000000E+00  0.00000000E+00  0.00000000E+00
  0.00000000E+00  0.00000000E+00  0.00000000E+00
  0.00000000E+00  0.00000000E+00  0.00000000E+00
  0.00000000E+00  0.00000000E+00  0.00000000E+00
  0.00000000E+00  0.00000000E+00  0.00000000E+00
  0.00000000E+00  0.00000000E+00  0.00000000E+00
  0.00000000E+00  0.00000000E+00  0.00000000E+00
  0.00000000E+00  0.00000000E+00  0.00000000E+00
  0.00000000E+00  0.00000000E+00  0.00000000E+00
  0.00000000E+00  0.00000000E+00  0.00000000E+00
  0.00000000E+00  0.00000000E+00  0.00000000E+00
  0.00000000E+00  0.00000000E+00  0.00000000E+00
  0.00000000E+00  0.00000000E+00  0.00000000E+00
  0.00000000E+00  0.00000000E+00  0.00000000E+00
  0.00000000E+00  0.00000000E+00  0.00000000E+00
  0.00000000E+00  0.00000000E+00  0.00000000E+00
  0.00000000E+00  0.00000000E+00  0.00000000E+00
  0.00000000E+00  0.00000000E+00  0.00000000E+00
  0.00000000E+00  0.00000000E+00  0.00000000E+00
  0.00000000E+00  0.00000000E+00  0.00000000E+00
  0.00000000E+00  0.00000000E+00  0.00000000E+00
  0.00000000E+00  0.00000000E+00  0.00000000E+00
  0.00000000E+00  0.00000000E+00  0.00000000E+00
  0.00000000E+00  0.00000000E+00  0.00000000E+00
  0.00000000E+00  0.00000000E+00  0.00000000E+00
  0.00000000E+00  0.00000000E+00  0.00000000E+00
  0.00000000E+00  0.00000000E+00  0.00000000E+00
  0.00000000E+00  0.00000000E+00  0.00000000E+00
  0.00000000E+00  0.00000000E+00  0.00000000E+00
  0.00000000E+00  0.00000000E+00  0.00000000E+00
  0.00000000E+00  0.00000000E+00  0.00000000E+00
  0.00000000E+00  0.00000000E+00  0.00000000E+00
  0.00000000E+00  0.00000000E+00  0.00000000E+00
  0.00000000E+00  0.00000000E+00  0.00000000E+00
  0.00000000E+00  0.00000000E+00  0.00000000E+00
  0.00000000E+00  0.00000000E+00  0.00000000E+00
  0.00000000E+00  0.00000000E+00  0.00000000E+00
  0.00000000E+00  0.00000000E+00  0.00000000E+00
  0.00000000E+00  0.00000000E+00  0.00000000E+00
  0.00000000E+00  0.00000000E+00  0.00000000E+00
  0.00000000E+00  0.00000000E+00  0.00000000E+00
  0.00000000E+00  0.00000000E+00  0.00000000E+00
  0.00000000E+00  0.00000000E+00  0.00000000E+00
  0.00000000E+00  0.00000000E+00  0.00000000E+00
  0.00000000E+00  0.00000000E+00  0.00000000E+00
  0.00000000E+00  0.00000000E+00  0.00000000E+00
  0.00000000E+00  0.00000000E+00  0.00000000E+00
  0.00000000E+00  0.00000000E+00  0.00000000E+00
  0.00000000E+00  0.00000000E+00  0.00000000E+00
  0.00000000E+00  0.00000000E+00  0.00000000E+00
  0.00000000E+00  0.00000000E+00  0.00000000E+00
  0.00000000E+00  0.00000000E+00  0.00000000E+00
