Hf1 H1 C125 N1 O1                       
   1.00000000000000     
    19.8232653898256110   -0.0088890858047133   -0.1449462453068037
    -9.9200064689797305   17.0690076170557532   -0.2314487887912553
    -0.2169254867740293   -0.5283776887011545   29.7572217154224461
   Hf   H    C    N    O 
     1     1   125     1     1
Direct
  0.4411641907629905  0.5060814185223657  0.4415894057777486
  0.4800735921132910  0.5371615174285760  0.5332600488225715
  0.0420077265194842  0.0841345805077170  0.3991925400231034
  0.0411197435525461  0.2083210669139961  0.3989334629346463
  0.0405199510793847  0.3329069563752842  0.3982065588279689
  0.0405649418827734  0.4583653540567373  0.3979673752710695
  0.0414479663342752  0.5838984337152042  0.3986080064294220
  0.0421806341854888  0.7092653359694473  0.3990422433819574
  0.0425453629499555  0.8346281123925826  0.3990683098891958
  0.0425872678092646  0.9596902465822557  0.3990862680658029
  0.1678391825576813  0.0854943375702639  0.4000838234750616
  0.1670751115396163  0.2098401512299971  0.4005949742609421
  0.1656771152632039  0.3339689316040422  0.3999776691331079
  0.1641469614384367  0.4584779719220402  0.3981039260812340
  0.1651544947831804  0.5838101613308544  0.3979254673653625
  0.1663894913849281  0.7092952624240173  0.3986746511107531
  0.1671775037898370  0.8347095263601018  0.3991219105784538
  0.1676234851424095  0.9601002102267049  0.3994277581489984
  0.2927993663478311  0.0854001479263318  0.4001446273163167
  0.2938043467948946  0.2120814622854273  0.4031150979436009
  0.2921145724695488  0.3369800237924984  0.4066992813877284
  0.2880903020391176  0.4589744546400102  0.4043123263042953
  0.2887057569279670  0.5845548112095226  0.3993559752093363
  0.2906495791313956  0.7093802646943494  0.3985119626790086
  0.2916447754270154  0.8343780035784003  0.3987791847549891
  0.2921716218143139  0.9596724293306601  0.3991851135591199
  0.4172603837088765  0.0838981722177911  0.3992536397982674
  0.4179521958190738  0.2093647370469263  0.4007021641722299
  0.4207205714827720  0.3363602326456053  0.4076984202690418
  0.4149839747242539  0.7078454060637555  0.4002363392988220
  0.4161662285702806  0.8332163643142610  0.3989225919923483
  0.4167542151931871  0.9585467920608106  0.3990393342252500
  0.5417894061207412  0.0826907989874737  0.3991060764971902
  0.5424342281185000  0.2078725915882745  0.3989584894003584
  0.5435582661442935  0.3329938294916022  0.4001867379669355
  0.5466190454549389  0.4574622959773062  0.4053065676327854
  0.5473607824772618  0.5826466952558617  0.4074161551075475
  0.5393212363205127  0.7044603377758741  0.4031157137183983
  0.5406263872426406  0.8315112850153442  0.3999391273850268
  0.5413523555468623  0.9573162537486714  0.3993149063988345
  0.6663844227215105  0.0821918415645840  0.3993659457711234
  0.6669048065135148  0.2074579052003543  0.3988204971304873
  0.6676876960852811  0.3326189015017925  0.3981909040346771
  0.6695528293050722  0.4580548301512881  0.3979433174391403
  0.6705756693261155  0.5838510687467597  0.3987210279782210
  0.6672804817827629  0.7074786182652120  0.3991191260018742
  0.6653887271296933  0.8311405762136765  0.3995800221995639
  0.6659551630392354  0.9568252582996002  0.3995150135876211
  0.7911078898448841  0.0822007751301114  0.3992652411258906
  0.7913680084959069  0.2073513523910811  0.3990235768902259
  0.7920019127099511  0.3327183601840100  0.3985190562384364
  0.7930773857285152  0.4582365556216237  0.3979665504906859
  0.7937345585060582  0.5836085612460493  0.3975522357449174
  0.7932582612543160  0.7089153265040773  0.3976465150983611
  0.7918488266069555  0.8330152996155613  0.3983123496414429
  0.7909253013153853  0.9571346281405928  0.3990422982746030
  0.9162169305532299  0.0827961371092292  0.3989637612613138
  0.9160119560414092  0.2076100430277067  0.3987827310115942
  0.9161918119201798  0.3327996920091869  0.3985110787320611
  0.9168031759168084  0.4582270227931743  0.3985686515717272
  0.9176374771656655  0.5838232230990883  0.3985558275384743
  0.9178684906765698  0.7092580186038382  0.3984005616095139
  0.9176088100036827  0.8341445149132846  0.3984780566175871
  0.9168722376347559  0.9585078875814304  0.3988169251716377
  0.0842794378379522  0.0432127095226279  0.3993689627330523
  0.0834953709220586  0.1674754884815435  0.3993869147613203
  0.0823049619289235  0.2916573643967781  0.3987883493968997
  0.0815930658424912  0.4165455542463875  0.3977742151931331
  0.0822824824526050  0.5419267504758362  0.3980957365346716
  0.0833103860870612  0.6674563160219050  0.3988513404514225
  0.0839868723317944  0.7929367703858818  0.3991374446213251
  0.0842537469913367  0.9181847685675023  0.3992024715373784
  0.2093634303925088  0.0436062130463726  0.3999489072844086
  0.2096122892384031  0.1691941224633945  0.4012525962152265
  0.2084658166214372  0.2934115621913679  0.4017787587518846
  0.2054523241995297  0.4172871549940919  0.3999387556961630
  0.2058343063348157  0.5420087130849401  0.3980689815574757
  0.2075199995023765  0.6675056355612887  0.3983092726931845
  0.2084454482096353  0.7928237815387517  0.3988710387945291
  0.2090234268945064  0.9182139022145379  0.3992424103363920
  0.3340208070077432  0.0431146203242447  0.3994551395725777
  0.3348008052885134  0.1689834067679513  0.4013609687820737
  0.3357732857487238  0.2955806703558528  0.4071131892541132
  0.3294729689702582  0.4196033624447608  0.4104384035267643
  0.3303529320049302  0.5446363730132865  0.4034373207024710
  0.3317864124922594  0.6676600062074494  0.3992154445703604
  0.3329730368225204  0.7925509475598700  0.3986838426727048
  0.3335678053420673  0.9177103431774656  0.3989647108223020
  0.4586562869957916  0.0418461616870062  0.3991079553439558
  0.4591728598812845  0.1671163800430460  0.3994058089875795
  0.4603505396906989  0.2927369771441633  0.4021627522654358
  0.4665194087221799  0.4186662609134387  0.4127368554748119
  0.4544876552973519  0.6641055693619193  0.4035834509892451
  0.4575200335425594  0.7911123759453654  0.3994695008462118
  0.4581173261787617  0.9164774554297019  0.3990657009866878
  0.5832175626483972  0.0407563691031259  0.3992915193669297
  0.5837393330953905  0.1660397026085967  0.3988918860889438
  0.5846604149367496  0.2910790931431536  0.3988113759915046
  0.5869947263176899  0.4160676930847416  0.4000975545003979
  0.5889949055221246  0.5429338600424880  0.4035443796605777
  0.5838470707233304  0.6641278123794895  0.4029636044936312
  0.5811706814922832  0.7882116412829253  0.4007116793341360
  0.5826418138154700  0.9151183600955125  0.3995620981288140
  0.7077970495638451  0.0403234230915391  0.3994280608953325
  0.7082555762186780  0.1656792289556955  0.3991268688179019
  0.7088883209274920  0.2908993482956812  0.3984384201573043
  0.7102393940619945  0.4163324466842022  0.3977353965751701
  0.7113485697708475  0.5418079844849782  0.3976668219839556
  0.7101349008419796  0.6669677201734322  0.3980883221948420
  0.7082906872358992  0.7907687622634211  0.3987133244467658
  0.7072874460654017  0.9148161316111770  0.3993416043939741
  0.8327446193814022  0.0406918262102748  0.3991076607654145
  0.8328177325122603  0.1657093244074953  0.3990932615137772
  0.8332106348028623  0.2909809248885431  0.3987336327672086
  0.8339798679815702  0.4163386556236955  0.3984101932106846
  0.8348042001281853  0.5418060223360940  0.3980035814747977
  0.8348551294939177  0.6673900253991085  0.3977688664089005
  0.8343250246147129  0.7921859207146968  0.3980457872190479
  0.8333208136329464  0.9163380411421732  0.3987300089571220
  0.9584544205432191  0.0419140035601525  0.3989645881849700
  0.9578009567975034  0.1662510463335238  0.3988263783614675
  0.9575127636619081  0.2910520330109135  0.3984378196605156
  0.9577361977055109  0.4163707149032688  0.3983894700844305
  0.9586105977532943  0.5419968124444424  0.3986698022516337
  0.9591876219152558  0.6674637419558044  0.3987404683674761
  0.9593461919408497  0.7927304241573502  0.3986770643513559
  0.9591151627524483  0.9175806733160348  0.3987800260526806
  0.4097055874660731  0.5841711005034055  0.4073678148538187
  0.4460763426629225  0.5112420515318730  0.5073359533727287
 
  0.00000000E+00  0.00000000E+00  0.00000000E+00
  0.00000000E+00  0.00000000E+00  0.00000000E+00
  0.00000000E+00  0.00000000E+00  0.00000000E+00
  0.00000000E+00  0.00000000E+00  0.00000000E+00
  0.00000000E+00  0.00000000E+00  0.00000000E+00
  0.00000000E+00  0.00000000E+00  0.00000000E+00
  0.00000000E+00  0.00000000E+00  0.00000000E+00
  0.00000000E+00  0.00000000E+00  0.00000000E+00
  0.00000000E+00  0.00000000E+00  0.00000000E+00
  0.00000000E+00  0.00000000E+00  0.00000000E+00
  0.00000000E+00  0.00000000E+00  0.00000000E+00
  0.00000000E+00  0.00000000E+00  0.00000000E+00
  0.00000000E+00  0.00000000E+00  0.00000000E+00
  0.00000000E+00  0.00000000E+00  0.00000000E+00
  0.00000000E+00  0.00000000E+00  0.00000000E+00
  0.00000000E+00  0.00000000E+00  0.00000000E+00
  0.00000000E+00  0.00000000E+00  0.00000000E+00
  0.00000000E+00  0.00000000E+00  0.00000000E+00
  0.00000000E+00  0.00000000E+00  0.00000000E+00
  0.00000000E+00  0.00000000E+00  0.00000000E+00
  0.00000000E+00  0.00000000E+00  0.00000000E+00
  0.00000000E+00  0.00000000E+00  0.00000000E+00
  0.00000000E+00  0.00000000E+00  0.00000000E+00
  0.00000000E+00  0.00000000E+00  0.00000000E+00
  0.00000000E+00  0.00000000E+00  0.00000000E+00
  0.00000000E+00  0.00000000E+00  0.00000000E+00
  0.00000000E+00  0.00000000E+00  0.00000000E+00
  0.00000000E+00  0.00000000E+00  0.00000000E+00
  0.00000000E+00  0.00000000E+00  0.00000000E+00
  0.00000000E+00  0.00000000E+00  0.00000000E+00
  0.00000000E+00  0.00000000E+00  0.00000000E+00
  0.00000000E+00  0.00000000E+00  0.00000000E+00
  0.00000000E+00  0.00000000E+00  0.00000000E+00
  0.00000000E+00  0.00000000E+00  0.00000000E+00
  0.00000000E+00  0.00000000E+00  0.00000000E+00
  0.00000000E+00  0.00000000E+00  0.00000000E+00
  0.00000000E+00  0.00000000E+00  0.00000000E+00
  0.00000000E+00  0.00000000E+00  0.00000000E+00
  0.00000000E+00  0.00000000E+00  0.00000000E+00
  0.00000000E+00  0.00000000E+00  0.00000000E+00
  0.00000000E+00  0.00000000E+00  0.00000000E+00
  0.00000000E+00  0.00000000E+00  0.00000000E+00
  0.00000000E+00  0.00000000E+00  0.00000000E+00
  0.00000000E+00  0.00000000E+00  0.00000000E+00
  0.00000000E+00  0.00000000E+00  0.00000000E+00
  0.00000000E+00  0.00000000E+00  0.00000000E+00
  0.00000000E+00  0.00000000E+00  0.00000000E+00
  0.00000000E+00  0.00000000E+00  0.00000000E+00
  0.00000000E+00  0.00000000E+00  0.00000000E+00
  0.00000000E+00  0.00000000E+00  0.00000000E+00
  0.00000000E+00  0.00000000E+00  0.00000000E+00
  0.00000000E+00  0.00000000E+00  0.00000000E+00
  0.00000000E+00  0.00000000E+00  0.00000000E+00
  0.00000000E+00  0.00000000E+00  0.00000000E+00
  0.00000000E+00  0.00000000E+00  0.00000000E+00
  0.00000000E+00  0.00000000E+00  0.00000000E+00
  0.00000000E+00  0.00000000E+00  0.00000000E+00
  0.00000000E+00  0.00000000E+00  0.00000000E+00
  0.00000000E+00  0.00000000E+00  0.00000000E+00
  0.00000000E+00  0.00000000E+00  0.00000000E+00
  0.00000000E+00  0.00000000E+00  0.00000000E+00
  0.00000000E+00  0.00000000E+00  0.00000000E+00
  0.00000000E+00  0.00000000E+00  0.00000000E+00
  0.00000000E+00  0.00000000E+00  0.00000000E+00
  0.00000000E+00  0.00000000E+00  0.00000000E+00
  0.00000000E+00  0.00000000E+00  0.00000000E+00
  0.00000000E+00  0.00000000E+00  0.00000000E+00
  0.00000000E+00  0.00000000E+00  0.00000000E+00
  0.00000000E+00  0.00000000E+00  0.00000000E+00
  0.00000000E+00  0.00000000E+00  0.00000000E+00
  0.00000000E+00  0.00000000E+00  0.00000000E+00
  0.00000000E+00  0.00000000E+00  0.00000000E+00
  0.00000000E+00  0.00000000E+00  0.00000000E+00
  0.00000000E+00  0.00000000E+00  0.00000000E+00
  0.00000000E+00  0.00000000E+00  0.00000000E+00
  0.00000000E+00  0.00000000E+00  0.00000000E+00
  0.00000000E+00  0.00000000E+00  0.00000000E+00
  0.00000000E+00  0.00000000E+00  0.00000000E+00
  0.00000000E+00  0.00000000E+00  0.00000000E+00
  0.00000000E+00  0.00000000E+00  0.00000000E+00
  0.00000000E+00  0.00000000E+00  0.00000000E+00
  0.00000000E+00  0.00000000E+00  0.00000000E+00
  0.00000000E+00  0.00000000E+00  0.00000000E+00
  0.00000000E+00  0.00000000E+00  0.00000000E+00
  0.00000000E+00  0.00000000E+00  0.00000000E+00
  0.00000000E+00  0.00000000E+00  0.00000000E+00
  0.00000000E+00  0.00000000E+00  0.00000000E+00
  0.00000000E+00  0.00000000E+00  0.00000000E+00
  0.00000000E+00  0.00000000E+00  0.00000000E+00
  0.00000000E+00  0.00000000E+00  0.00000000E+00
  0.00000000E+00  0.00000000E+00  0.00000000E+00
  0.00000000E+00  0.00000000E+00  0.00000000E+00
  0.00000000E+00  0.00000000E+00  0.00000000E+00
  0.00000000E+00  0.00000000E+00  0.00000000E+00
  0.00000000E+00  0.00000000E+00  0.00000000E+00
  0.00000000E+00  0.00000000E+00  0.00000000E+00
  0.00000000E+00  0.00000000E+00  0.00000000E+00
  0.00000000E+00  0.00000000E+00  0.00000000E+00
  0.00000000E+00  0.00000000E+00  0.00000000E+00
  0.00000000E+00  0.00000000E+00  0.00000000E+00
  0.00000000E+00  0.00000000E+00  0.00000000E+00
  0.00000000E+00  0.00000000E+00  0.00000000E+00
  0.00000000E+00  0.00000000E+00  0.00000000E+00
  0.00000000E+00  0.00000000E+00  0.00000000E+00
  0.00000000E+00  0.00000000E+00  0.00000000E+00
  0.00000000E+00  0.00000000E+00  0.00000000E+00
  0.00000000E+00  0.00000000E+00  0.00000000E+00
  0.00000000E+00  0.00000000E+00  0.00000000E+00
  0.00000000E+00  0.00000000E+00  0.00000000E+00
  0.00000000E+00  0.00000000E+00  0.00000000E+00
  0.00000000E+00  0.00000000E+00  0.00000000E+00
  0.00000000E+00  0.00000000E+00  0.00000000E+00
  0.00000000E+00  0.00000000E+00  0.00000000E+00
  0.00000000E+00  0.00000000E+00  0.00000000E+00
  0.00000000E+00  0.00000000E+00  0.00000000E+00
  0.00000000E+00  0.00000000E+00  0.00000000E+00
  0.00000000E+00  0.00000000E+00  0.00000000E+00
  0.00000000E+00  0.00000000E+00  0.00000000E+00
  0.00000000E+00  0.00000000E+00  0.00000000E+00
  0.00000000E+00  0.00000000E+00  0.00000000E+00
  0.00000000E+00  0.00000000E+00  0.00000000E+00
  0.00000000E+00  0.00000000E+00  0.00000000E+00
  0.00000000E+00  0.00000000E+00  0.00000000E+00
  0.00000000E+00  0.00000000E+00  0.00000000E+00
  0.00000000E+00  0.00000000E+00  0.00000000E+00
  0.00000000E+00  0.00000000E+00  0.00000000E+00
  0.00000000E+00  0.00000000E+00  0.00000000E+00
  0.00000000E+00  0.00000000E+00  0.00000000E+00
  0.00000000E+00  0.00000000E+00  0.00000000E+00
