Mo1 C126 O1                             
   1.00000000000000     
    19.7849511110641885    0.0001295978394099   -0.0672481788538467
    -9.8924950627549464   17.1014673471713081   -0.0655489569396678
    -0.1007108588857847   -0.1723772422857369   29.7407322203781526
   Mo   C    O 
     1   126     1
Direct
  0.4267348243484054  0.5012060638161435  0.4315034624185703
  0.0412722605253237  0.0829777613095287  0.3994411250006516
  0.0410614769885109  0.2078205779598264  0.3992991581543096
  0.0411943028850705  0.3329593385645724  0.3993573523534845
  0.0415591235039278  0.4583948081042062  0.3992961052899903
  0.0418735703005599  0.5836072561155523  0.3995926126220157
  0.0420921917611739  0.7087570725900120  0.3998473859680461
  0.0421712993692220  0.8338907395583675  0.3998961745804460
  0.0419991963581144  0.9586849465518578  0.3996833236472351
  0.1670094238244421  0.0838487348605911  0.3998538586240829
  0.1657197463442251  0.2074315109454127  0.3998243074580614
  0.1657576803968554  0.3327631466523646  0.4002629367074446
  0.1659281413867497  0.4582753696588656  0.3999835424966217
  0.1664403468436911  0.5835655056890721  0.3992789373469526
  0.1667550413515644  0.7088496488878252  0.3995595623833172
  0.1669947197395052  0.8339871062105176  0.3998872317088457
  0.1671537741147356  0.9590613129982023  0.3999085720604901
  0.2923020968709821  0.0842242601894351  0.3999799448566245
  0.2926139041062287  0.2095681581668534  0.4013531765622360
  0.2895804079900641  0.3312710731171806  0.4034244756271804
  0.2900912790057855  0.4566055489539592  0.4041728040640081
  0.2907779097524928  0.5841249211820131  0.4009669012098191
  0.2913969540489090  0.7090623580949493  0.3992864012393081
  0.2917386547829082  0.8339557852579939  0.3994725163762023
  0.2919674976621510  0.9590349705100916  0.3997427755525436
  0.4170617276627197  0.0840954417098628  0.3996250212603277
  0.4173892905338737  0.2095533226362617  0.4001662291081307
  0.4186890043829262  0.3367704444395358  0.4039337819866636
  0.4153605159797942  0.5887260591533858  0.4060914765749791
  0.4164370909520391  0.7099399499488528  0.3997977475360395
  0.4166314372231895  0.8341749178606661  0.3992249091452068
  0.4167639214027988  0.9589232407545777  0.3995620463369591
  0.5418054350855888  0.0833529833592435  0.3996588688663820
  0.5421302398934289  0.2084244069316430  0.3994890155251793
  0.5425627299989711  0.3334474416396563  0.3998836329746160
  0.5442757004709485  0.4578387480893634  0.4023246820397327
  0.5433320220240845  0.5805586303175629  0.4058779489996983
  0.5419831451250537  0.7079967815323452  0.4028151091692509
  0.5415885377935586  0.8331635271542361  0.3998576677302089
  0.5416971657289108  0.9582810285921768  0.3996088013370609
  0.6666430032690083  0.0829806841497702  0.3998994623578292
  0.6668653003549507  0.2080825589934394  0.3997084593276161
  0.6671970823140655  0.3331027906719676  0.3992490163750185
  0.6684267696516698  0.4583496986800239  0.3989701940149186
  0.6690917580423480  0.5838494790300717  0.3995559591335648
  0.6662419911983851  0.7070601364845748  0.4004052522200737
  0.6667403555935496  0.8327389965126504  0.4001311859316312
  0.6666232404016755  0.9579104384389787  0.3998987426478556
  0.7915161863234100  0.0828753442617527  0.3998632859815327
  0.7916164755021038  0.2079277499569834  0.3998683560214630
  0.7919869010276963  0.3331444454641789  0.3996564022036349
  0.7926076458904275  0.4584224482135239  0.3992684177914427
  0.7928923433887843  0.5835009927973535  0.3990266606621480
  0.7925875446777295  0.7086611123852093  0.3992624246154738
  0.7915446764478917  0.8328273877906441  0.3995203089257403
  0.7914907145270458  0.9578448989547043  0.3997093652590982
  0.9163540357348505  0.0828851139639167  0.3995449643434224
  0.9163859796504717  0.2079688724411892  0.3995772091168018
  0.9166162925935621  0.3331429924586419  0.3996114972997672
  0.9170061477179745  0.4583010547514874  0.3996379501585488
  0.9174016036266758  0.5835969908546413  0.3996081523983900
  0.9173641314695288  0.7087824285057877  0.3995653572095949
  0.9170974668559153  0.8335861713282007  0.3995860641604964
  0.9165062774993817  0.9580068357254682  0.3995919988935684
  0.0835511310323977  0.0419503629043244  0.3995825177589313
  0.0825614883958481  0.1660238620385654  0.3993783333283984
  0.0824540870090515  0.2911332504851986  0.3994600944863222
  0.0829926927446909  0.4166379763204224  0.3993086422533277
  0.0832577674652866  0.5417989066100668  0.3993132188152048
  0.0835628401643604  0.6670646405522480  0.3997024209462635
  0.0837877630784185  0.7922964487638211  0.3999335163913098
  0.0837750246997232  0.9172450804719774  0.3998586377222539
  0.2088387554661359  0.0423417403963951  0.3999487836850861
  0.2085651408891611  0.1671010219256368  0.4002839185743377
  0.2066288297234365  0.2903146654394438  0.4004874655372528
  0.2067996781738048  0.4161798519495538  0.4012563066847500
  0.2077701656723739  0.5419656746323533  0.3999252524811506
  0.2083105267652359  0.6672382514668771  0.3993331819076238
  0.2084999589011190  0.7922421573917884  0.3996625507137600
  0.2087511423612682  0.9173646906069903  0.3998799949955285
  0.3337561678699462  0.0424098337494016  0.3997367014342978
  0.3341570848385767  0.1675622723128615  0.4004635147421262
  0.3341695174514479  0.2924164206066569  0.4037147260763965
  0.3268481334902422  0.4118201906501163  0.4070473668456698
  0.3337161860741297  0.5438188304918324  0.4038210355423281
  0.3331123657035664  0.6674782410883398  0.3998198080018049
  0.3333189223902358  0.7923704113763195  0.3992321532155672
  0.3335447380746221  0.9173229682192294  0.3995875719578115
  0.4585810893942842  0.0422140005054976  0.3996028539013889
  0.4588270424132207  0.1674394325569507  0.3996199894878085
  0.4593385853085035  0.2932969864330383  0.4008959743511741
  0.4630777515631078  0.4200626833390304  0.4064454371222189
  0.4585162401212482  0.6690976081536790  0.4024056341447185
  0.4583954161136681  0.7927973744713560  0.3993756854233768
  0.4583877363462976  0.9172360841314096  0.3994474009265198
  0.5834151371865578  0.0415438402305444  0.3997551124718070
  0.5836081274977628  0.1666305491163114  0.3995985191798220
  0.5840373835759091  0.2915692820194110  0.3993741017254390
  0.5853679354551592  0.4164042657378831  0.3997966938273627
  0.5866218463791435  0.5425300829330264  0.4020860484811022
  0.5821659140234456  0.6636994518325630  0.4031697315898502
  0.5832173716964550  0.7907696282869788  0.4007521278882373
  0.5832727395943850  0.9163923714919954  0.3997295765252707
  0.7082121286189829  0.0411737100512945  0.3999261910399604
  0.7083982073449229  0.1663287666868084  0.3998894586774953
  0.7086872970856345  0.2914256269539743  0.3995441588783347
  0.7094988075411235  0.4167112543800716  0.3990189417742611
  0.7101966182004235  0.5418760806907174  0.3989191881811311
  0.7092618679104205  0.6668237832449758  0.3995848484458155
  0.7080064722107168  0.7907676887695861  0.3998375198069579
  0.7082213909815810  0.9160546093249725  0.3998651783755036
  0.8330660248256309  0.0411974353283541  0.3997161468853617
  0.8331368885961952  0.1662372708343113  0.3998113612381499
  0.8334586466042772  0.2914663107129048  0.3997647963420383
  0.8339046024671031  0.4166103999748538  0.3995798473729326
  0.8342927913789208  0.5417973261332270  0.3992856170524007
  0.8342109052898745  0.6671210962138501  0.3992355418030791
  0.8338231686768771  0.7917974771399888  0.3994336974975647
  0.8331011899525087  0.9161465010463689  0.3995960810815514
  0.9579733903416056  0.0412732536914762  0.3995191873646182
  0.9579010047730231  0.1662328395193599  0.3994168577680507
  0.9580304672086627  0.2913513904544506  0.3994770465142047
  0.9583857801531985  0.4165965468495363  0.3995302463578944
  0.9587917431349938  0.5418918985993926  0.3996699926588074
  0.9589460113511047  0.6670662911713032  0.3997121663968534
  0.9588878125065250  0.7921217641536388  0.3997071097084285
  0.9585837493649655  0.9168634142645709  0.3996256296369826
  0.4457328960979747  0.5036223492400972  0.4870983180494974
 
  0.00000000E+00  0.00000000E+00  0.00000000E+00
  0.00000000E+00  0.00000000E+00  0.00000000E+00
  0.00000000E+00  0.00000000E+00  0.00000000E+00
  0.00000000E+00  0.00000000E+00  0.00000000E+00
  0.00000000E+00  0.00000000E+00  0.00000000E+00
  0.00000000E+00  0.00000000E+00  0.00000000E+00
  0.00000000E+00  0.00000000E+00  0.00000000E+00
  0.00000000E+00  0.00000000E+00  0.00000000E+00
  0.00000000E+00  0.00000000E+00  0.00000000E+00
  0.00000000E+00  0.00000000E+00  0.00000000E+00
  0.00000000E+00  0.00000000E+00  0.00000000E+00
  0.00000000E+00  0.00000000E+00  0.00000000E+00
  0.00000000E+00  0.00000000E+00  0.00000000E+00
  0.00000000E+00  0.00000000E+00  0.00000000E+00
  0.00000000E+00  0.00000000E+00  0.00000000E+00
  0.00000000E+00  0.00000000E+00  0.00000000E+00
  0.00000000E+00  0.00000000E+00  0.00000000E+00
  0.00000000E+00  0.00000000E+00  0.00000000E+00
  0.00000000E+00  0.00000000E+00  0.00000000E+00
  0.00000000E+00  0.00000000E+00  0.00000000E+00
  0.00000000E+00  0.00000000E+00  0.00000000E+00
  0.00000000E+00  0.00000000E+00  0.00000000E+00
  0.00000000E+00  0.00000000E+00  0.00000000E+00
  0.00000000E+00  0.00000000E+00  0.00000000E+00
  0.00000000E+00  0.00000000E+00  0.00000000E+00
  0.00000000E+00  0.00000000E+00  0.00000000E+00
  0.00000000E+00  0.00000000E+00  0.00000000E+00
  0.00000000E+00  0.00000000E+00  0.00000000E+00
  0.00000000E+00  0.00000000E+00  0.00000000E+00
  0.00000000E+00  0.00000000E+00  0.00000000E+00
  0.00000000E+00  0.00000000E+00  0.00000000E+00
  0.00000000E+00  0.00000000E+00  0.00000000E+00
  0.00000000E+00  0.00000000E+00  0.00000000E+00
  0.00000000E+00  0.00000000E+00  0.00000000E+00
  0.00000000E+00  0.00000000E+00  0.00000000E+00
  0.00000000E+00  0.00000000E+00  0.00000000E+00
  0.00000000E+00  0.00000000E+00  0.00000000E+00
  0.00000000E+00  0.00000000E+00  0.00000000E+00
  0.00000000E+00  0.00000000E+00  0.00000000E+00
  0.00000000E+00  0.00000000E+00  0.00000000E+00
  0.00000000E+00  0.00000000E+00  0.00000000E+00
  0.00000000E+00  0.00000000E+00  0.00000000E+00
  0.00000000E+00  0.00000000E+00  0.00000000E+00
  0.00000000E+00  0.00000000E+00  0.00000000E+00
  0.00000000E+00  0.00000000E+00  0.00000000E+00
  0.00000000E+00  0.00000000E+00  0.00000000E+00
  0.00000000E+00  0.00000000E+00  0.00000000E+00
  0.00000000E+00  0.00000000E+00  0.00000000E+00
  0.00000000E+00  0.00000000E+00  0.00000000E+00
  0.00000000E+00  0.00000000E+00  0.00000000E+00
  0.00000000E+00  0.00000000E+00  0.00000000E+00
  0.00000000E+00  0.00000000E+00  0.00000000E+00
  0.00000000E+00  0.00000000E+00  0.00000000E+00
  0.00000000E+00  0.00000000E+00  0.00000000E+00
  0.00000000E+00  0.00000000E+00  0.00000000E+00
  0.00000000E+00  0.00000000E+00  0.00000000E+00
  0.00000000E+00  0.00000000E+00  0.00000000E+00
  0.00000000E+00  0.00000000E+00  0.00000000E+00
  0.00000000E+00  0.00000000E+00  0.00000000E+00
  0.00000000E+00  0.00000000E+00  0.00000000E+00
  0.00000000E+00  0.00000000E+00  0.00000000E+00
  0.00000000E+00  0.00000000E+00  0.00000000E+00
  0.00000000E+00  0.00000000E+00  0.00000000E+00
  0.00000000E+00  0.00000000E+00  0.00000000E+00
  0.00000000E+00  0.00000000E+00  0.00000000E+00
  0.00000000E+00  0.00000000E+00  0.00000000E+00
  0.00000000E+00  0.00000000E+00  0.00000000E+00
  0.00000000E+00  0.00000000E+00  0.00000000E+00
  0.00000000E+00  0.00000000E+00  0.00000000E+00
  0.00000000E+00  0.00000000E+00  0.00000000E+00
  0.00000000E+00  0.00000000E+00  0.00000000E+00
  0.00000000E+00  0.00000000E+00  0.00000000E+00
  0.00000000E+00  0.00000000E+00  0.00000000E+00
  0.00000000E+00  0.00000000E+00  0.00000000E+00
  0.00000000E+00  0.00000000E+00  0.00000000E+00
  0.00000000E+00  0.00000000E+00  0.00000000E+00
  0.00000000E+00  0.00000000E+00  0.00000000E+00
  0.00000000E+00  0.00000000E+00  0.00000000E+00
  0.00000000E+00  0.00000000E+00  0.00000000E+00
  0.00000000E+00  0.00000000E+00  0.00000000E+00
  0.00000000E+00  0.00000000E+00  0.00000000E+00
  0.00000000E+00  0.00000000E+00  0.00000000E+00
  0.00000000E+00  0.00000000E+00  0.00000000E+00
  0.00000000E+00  0.00000000E+00  0.00000000E+00
  0.00000000E+00  0.00000000E+00  0.00000000E+00
  0.00000000E+00  0.00000000E+00  0.00000000E+00
  0.00000000E+00  0.00000000E+00  0.00000000E+00
  0.00000000E+00  0.00000000E+00  0.00000000E+00
  0.00000000E+00  0.00000000E+00  0.00000000E+00
  0.00000000E+00  0.00000000E+00  0.00000000E+00
  0.00000000E+00  0.00000000E+00  0.00000000E+00
  0.00000000E+00  0.00000000E+00  0.00000000E+00
  0.00000000E+00  0.00000000E+00  0.00000000E+00
  0.00000000E+00  0.00000000E+00  0.00000000E+00
  0.00000000E+00  0.00000000E+00  0.00000000E+00
  0.00000000E+00  0.00000000E+00  0.00000000E+00
  0.00000000E+00  0.00000000E+00  0.00000000E+00
  0.00000000E+00  0.00000000E+00  0.00000000E+00
  0.00000000E+00  0.00000000E+00  0.00000000E+00
  0.00000000E+00  0.00000000E+00  0.00000000E+00
  0.00000000E+00  0.00000000E+00  0.00000000E+00
  0.00000000E+00  0.00000000E+00  0.00000000E+00
  0.00000000E+00  0.00000000E+00  0.00000000E+00
  0.00000000E+00  0.00000000E+00  0.00000000E+00
  0.00000000E+00  0.00000000E+00  0.00000000E+00
  0.00000000E+00  0.00000000E+00  0.00000000E+00
  0.00000000E+00  0.00000000E+00  0.00000000E+00
  0.00000000E+00  0.00000000E+00  0.00000000E+00
  0.00000000E+00  0.00000000E+00  0.00000000E+00
  0.00000000E+00  0.00000000E+00  0.00000000E+00
  0.00000000E+00  0.00000000E+00  0.00000000E+00
  0.00000000E+00  0.00000000E+00  0.00000000E+00
  0.00000000E+00  0.00000000E+00  0.00000000E+00
  0.00000000E+00  0.00000000E+00  0.00000000E+00
  0.00000000E+00  0.00000000E+00  0.00000000E+00
  0.00000000E+00  0.00000000E+00  0.00000000E+00
  0.00000000E+00  0.00000000E+00  0.00000000E+00
  0.00000000E+00  0.00000000E+00  0.00000000E+00
  0.00000000E+00  0.00000000E+00  0.00000000E+00
  0.00000000E+00  0.00000000E+00  0.00000000E+00
  0.00000000E+00  0.00000000E+00  0.00000000E+00
  0.00000000E+00  0.00000000E+00  0.00000000E+00
  0.00000000E+00  0.00000000E+00  0.00000000E+00
  0.00000000E+00  0.00000000E+00  0.00000000E+00
  0.00000000E+00  0.00000000E+00  0.00000000E+00
  0.00000000E+00  0.00000000E+00  0.00000000E+00
  0.00000000E+00  0.00000000E+00  0.00000000E+00
  0.00000000E+00  0.00000000E+00  0.00000000E+00
