Ti1 H1 C122 N4 O1                       
   1.00000000000000     
    19.7939724885306205   -0.0004612558232868   -0.2027550122236192
    -9.8979703719181327   17.0273197383746187    0.0532061670711635
    -0.3053467023341591   -0.0844197151505032   29.8591669484200182
   Ti   H    C    N    O 
     1     1   122     4     1
Direct
  0.4355491392192422  0.5017493359909531  0.4294598015656460
  0.4700572749580777  0.5409047737413646  0.5150287524956003
  0.0422752790121844  0.0840912635667027  0.3995999067596597
  0.0414423379511200  0.2083197077687144  0.3995444367425297
  0.0407515575363940  0.3330598617037502  0.3996750884202019
  0.0407891717416434  0.4582412883472979  0.3997848272263059
  0.0415432334460364  0.5836772118125262  0.3997640164376665
  0.0422482759895884  0.7091034776009576  0.3996974607179815
  0.0424658230292563  0.8343010543821658  0.3996868460175245
  0.0425986033389471  0.9594774675707685  0.3996098920946454
  0.1682892693737290  0.0856984512683504  0.3998212872281210
  0.1678131695993077  0.2102479510100368  0.3997895929362879
  0.1657398021606540  0.3338841075629388  0.3998714852881650
  0.1647576476916889  0.4584852973489609  0.3999825256307278
  0.1655344941591444  0.5836162452294495  0.3997277220993244
  0.1665949821035964  0.7089244152662378  0.3996784309449883
  0.1672034670860145  0.8343343320083105  0.3996985109778293
  0.1676660323996931  0.9599073935346992  0.3997090799973952
  0.2928074283664194  0.0857572743010507  0.4000612618164620
  0.2943678075369626  0.2131574210051154  0.4010939064669207
  0.2928756287930134  0.3383197367218777  0.4015131065140963
  0.2887330729662742  0.4580768172158352  0.4006790943030158
  0.2891460083399348  0.5830227324843962  0.3997086100789631
  0.2909427179882463  0.7082881860537582  0.3994061411275425
  0.2918811233438720  0.8338607728010078  0.3995939754670080
  0.2923506398492827  0.9596101373189113  0.3997123249550468
  0.4173146335072939  0.0843442172650469  0.3997955479116989
  0.4179340074722928  0.2107015614499029  0.4003883599768894
  0.4214741225766957  0.3394631310294823  0.4035149783505508
  0.4152162586961764  0.7062665344025657  0.3991897279570931
  0.4164279621898211  0.8323887357975496  0.3994918273168571
  0.4168881493988069  0.9583511557621016  0.3997009025083369
  0.5418076759115871  0.0827765590943172  0.3996621009888503
  0.5422569909775726  0.2084577052175483  0.3997048472521412
  0.5435966661870311  0.3339461020163915  0.4001581649611912
  0.5453439612952325  0.4582635951532981  0.4020633748757065
  0.5388065024284607  0.7019881990409063  0.4016054655384950
  0.5407600684850168  0.8303955579777059  0.3998781630249821
  0.5413936834379435  0.9568524705864402  0.3996726768720352
  0.6663581476175817  0.0821258807390784  0.3996850235615777
  0.6668123775335009  0.2076076331908308  0.3996318179685041
  0.6677161620055164  0.3330990867784149  0.3992167402690660
  0.6691693300963952  0.4585290133574441  0.3986696718888749
  0.6691708755930792  0.5828667377515645  0.3994350142945315
  0.6660209976602626  0.7057138199581141  0.4006422008320116
  0.6648832964225256  0.8302629747965505  0.4003706807198888
  0.6658940247181393  0.9564026451714303  0.3998740684438778
  0.7910742673018668  0.0820369917448413  0.3997297218067489
  0.7914099551378666  0.2074262339665697  0.3996654990446264
  0.7919392836642879  0.3328124131100659  0.3995763007200694
  0.7927970232781196  0.4582240888220911  0.3991203119063973
  0.7934502865155395  0.5835903257221546  0.3988256350330583
  0.7926134587114622  0.7082057077216999  0.3994631238344126
  0.7911002252956553  0.8320585154528569  0.3998183427622750
  0.7907395327802125  0.9567078001632744  0.3998668988088096
  0.9162878281207131  0.0826102693887355  0.3996348810028831
  0.9161207738096210  0.2075496334560115  0.3996368366936869
  0.9162353040639186  0.3327995761780623  0.3997354617041313
  0.9168251700812513  0.4582540947854234  0.3996775227448860
  0.9175109040940489  0.5836742491514055  0.3995134454268114
  0.9176332799717366  0.7088378965742465  0.3995051746010978
  0.9173331503569000  0.8337816912091601  0.3996334670802931
  0.9166665863598622  0.9581112267217684  0.3997071736751447
  0.0846143200224719  0.0432248135867501  0.3996120131138418
  0.0841186899292359  0.1676931242092373  0.3995756868905709
  0.0827281327498132  0.2917648734235638  0.3996295752784349
  0.0819488729146559  0.4164058107334607  0.3997939410751390
  0.0825407124186071  0.5417636380347474  0.3997801819492797
  0.0834291326293348  0.6672129242288000  0.3997498751418040
  0.0839972902263091  0.7925922259581558  0.3996802265383765
  0.0842690957218135  0.9179139820796836  0.3996518200042652
  0.2095366535204463  0.0436622094405412  0.3998677154445376
  0.2104758030696166  0.1697209718169120  0.4001810702571867
  0.2091109107191510  0.2938521245884858  0.3999240449827634
  0.2061997848066325  0.4170505068740158  0.4002054721396814
  0.2062749896299405  0.5415617138109230  0.3998815796517895
  0.2076732418258710  0.6669697030496134  0.3995851023291082
  0.2085762056454723  0.7924836093581213  0.3996758290542025
  0.2090489096134912  0.9180021384545669  0.3997068345156152
  0.3340532542885656  0.0433559052909584  0.3998330423652487
  0.3346866511598450  0.1698434682524416  0.4006044648845033
  0.3369668819824450  0.2981837802758878  0.4025462297970105
  0.3306618927339686  0.5420303368305763  0.4000448066138917
  0.3318277509597856  0.6661846498821843  0.3992964481042213
  0.3331163881743212  0.7917330472612838  0.3994615114883527
  0.3336871995598882  0.9174436200600475  0.3996624034102480
  0.4585631760542676  0.0419614350285033  0.3997163517004282
  0.4590593727255808  0.1680326210895810  0.3998796207367500
  0.4603706806956814  0.2944422553488236  0.4011079802452404
  0.4545398340311267  0.6618504226786833  0.4002841864737473
  0.4575689812639849  0.7898731422907213  0.3994379952929060
  0.4581962559976233  0.9159904509209865  0.3996582405381337
  0.5831318130087559  0.0405918107823389  0.3996672350086284
  0.5835488861541475  0.1662700784782478  0.3996283632003851
  0.5844153822717467  0.2918414944009565  0.3995626392878957
  0.5863081493703124  0.4171768213034568  0.3997139249750998
  0.5871909492095334  0.5418105854585280  0.4017556028520328
  0.5821358608952496  0.6608482580626944  0.4027488694636830
  0.5812492032847328  0.7869990876716935  0.4005783316471782
  0.5826068038977003  0.9143913460551649  0.3997787907977545
  0.7077793284795296  0.0401427200228253  0.3997521150636333
  0.7081679391223102  0.1657302178717686  0.3996778791069031
  0.7087864757851983  0.2911748921624195  0.3994787246226411
  0.7098455893231200  0.4164147022209021  0.3988413055496108
  0.7106687241065783  0.5414810889203597  0.3986072555907139
  0.7097212069462806  0.6661439249103258  0.3998525196819233
  0.7073086386651631  0.7894278453176319  0.4001403707189479
  0.7070949226413510  0.9143325284404431  0.4000358638850782
  0.8327802600938211  0.0404347509461670  0.3997313081958290
  0.8328968477029444  0.1656950901093298  0.3996737677882709
  0.8331493374236245  0.2909030041442616  0.3996826408568436
  0.8338247514125987  0.4163151358407720  0.3995057051055161
  0.8345709847074034  0.5417628867352157  0.3991281199680624
  0.8346459437773799  0.6669138040360287  0.3992071463845487
  0.8338557654694601  0.7916070698285456  0.3996551611633777
  0.8330363074716273  0.9157414591608148  0.3998199168105012
  0.9586040756564927  0.0417180202897910  0.3996484610462795
  0.9580607825593374  0.1661777705627237  0.3995664421526340
  0.9577059297799847  0.2911039064885538  0.3996724109581846
  0.9578712789693684  0.4163202859310238  0.3997605004150223
  0.9585676745976107  0.5417310273074710  0.3996782208755024
  0.9591315775919566  0.6671818849345910  0.3995843572047854
  0.9592446669684904  0.7924205866067994  0.3996560838108519
  0.9590842249505875  0.9172795966295297  0.3996466937048471
  0.4113232640528462  0.5814781700422980  0.4010827227571772
  0.5452213490204506  0.5800349787722308  0.4057089235216731
  0.3300642148405817  0.4187615005003152  0.4027642192213571
  0.4653036329705096  0.4203021907300745  0.4062678998607073
  0.4362052800169547  0.5121622291442508  0.4898910200605125
 
  0.00000000E+00  0.00000000E+00  0.00000000E+00
  0.00000000E+00  0.00000000E+00  0.00000000E+00
  0.00000000E+00  0.00000000E+00  0.00000000E+00
  0.00000000E+00  0.00000000E+00  0.00000000E+00
  0.00000000E+00  0.00000000E+00  0.00000000E+00
  0.00000000E+00  0.00000000E+00  0.00000000E+00
  0.00000000E+00  0.00000000E+00  0.00000000E+00
  0.00000000E+00  0.00000000E+00  0.00000000E+00
  0.00000000E+00  0.00000000E+00  0.00000000E+00
  0.00000000E+00  0.00000000E+00  0.00000000E+00
  0.00000000E+00  0.00000000E+00  0.00000000E+00
  0.00000000E+00  0.00000000E+00  0.00000000E+00
  0.00000000E+00  0.00000000E+00  0.00000000E+00
  0.00000000E+00  0.00000000E+00  0.00000000E+00
  0.00000000E+00  0.00000000E+00  0.00000000E+00
  0.00000000E+00  0.00000000E+00  0.00000000E+00
  0.00000000E+00  0.00000000E+00  0.00000000E+00
  0.00000000E+00  0.00000000E+00  0.00000000E+00
  0.00000000E+00  0.00000000E+00  0.00000000E+00
  0.00000000E+00  0.00000000E+00  0.00000000E+00
  0.00000000E+00  0.00000000E+00  0.00000000E+00
  0.00000000E+00  0.00000000E+00  0.00000000E+00
  0.00000000E+00  0.00000000E+00  0.00000000E+00
  0.00000000E+00  0.00000000E+00  0.00000000E+00
  0.00000000E+00  0.00000000E+00  0.00000000E+00
  0.00000000E+00  0.00000000E+00  0.00000000E+00
  0.00000000E+00  0.00000000E+00  0.00000000E+00
  0.00000000E+00  0.00000000E+00  0.00000000E+00
  0.00000000E+00  0.00000000E+00  0.00000000E+00
  0.00000000E+00  0.00000000E+00  0.00000000E+00
  0.00000000E+00  0.00000000E+00  0.00000000E+00
  0.00000000E+00  0.00000000E+00  0.00000000E+00
  0.00000000E+00  0.00000000E+00  0.00000000E+00
  0.00000000E+00  0.00000000E+00  0.00000000E+00
  0.00000000E+00  0.00000000E+00  0.00000000E+00
  0.00000000E+00  0.00000000E+00  0.00000000E+00
  0.00000000E+00  0.00000000E+00  0.00000000E+00
  0.00000000E+00  0.00000000E+00  0.00000000E+00
  0.00000000E+00  0.00000000E+00  0.00000000E+00
  0.00000000E+00  0.00000000E+00  0.00000000E+00
  0.00000000E+00  0.00000000E+00  0.00000000E+00
  0.00000000E+00  0.00000000E+00  0.00000000E+00
  0.00000000E+00  0.00000000E+00  0.00000000E+00
  0.00000000E+00  0.00000000E+00  0.00000000E+00
  0.00000000E+00  0.00000000E+00  0.00000000E+00
  0.00000000E+00  0.00000000E+00  0.00000000E+00
  0.00000000E+00  0.00000000E+00  0.00000000E+00
  0.00000000E+00  0.00000000E+00  0.00000000E+00
  0.00000000E+00  0.00000000E+00  0.00000000E+00
  0.00000000E+00  0.00000000E+00  0.00000000E+00
  0.00000000E+00  0.00000000E+00  0.00000000E+00
  0.00000000E+00  0.00000000E+00  0.00000000E+00
  0.00000000E+00  0.00000000E+00  0.00000000E+00
  0.00000000E+00  0.00000000E+00  0.00000000E+00
  0.00000000E+00  0.00000000E+00  0.00000000E+00
  0.00000000E+00  0.00000000E+00  0.00000000E+00
  0.00000000E+00  0.00000000E+00  0.00000000E+00
  0.00000000E+00  0.00000000E+00  0.00000000E+00
  0.00000000E+00  0.00000000E+00  0.00000000E+00
  0.00000000E+00  0.00000000E+00  0.00000000E+00
  0.00000000E+00  0.00000000E+00  0.00000000E+00
  0.00000000E+00  0.00000000E+00  0.00000000E+00
  0.00000000E+00  0.00000000E+00  0.00000000E+00
  0.00000000E+00  0.00000000E+00  0.00000000E+00
  0.00000000E+00  0.00000000E+00  0.00000000E+00
  0.00000000E+00  0.00000000E+00  0.00000000E+00
  0.00000000E+00  0.00000000E+00  0.00000000E+00
  0.00000000E+00  0.00000000E+00  0.00000000E+00
  0.00000000E+00  0.00000000E+00  0.00000000E+00
  0.00000000E+00  0.00000000E+00  0.00000000E+00
  0.00000000E+00  0.00000000E+00  0.00000000E+00
  0.00000000E+00  0.00000000E+00  0.00000000E+00
  0.00000000E+00  0.00000000E+00  0.00000000E+00
  0.00000000E+00  0.00000000E+00  0.00000000E+00
  0.00000000E+00  0.00000000E+00  0.00000000E+00
  0.00000000E+00  0.00000000E+00  0.00000000E+00
  0.00000000E+00  0.00000000E+00  0.00000000E+00
  0.00000000E+00  0.00000000E+00  0.00000000E+00
  0.00000000E+00  0.00000000E+00  0.00000000E+00
  0.00000000E+00  0.00000000E+00  0.00000000E+00
  0.00000000E+00  0.00000000E+00  0.00000000E+00
  0.00000000E+00  0.00000000E+00  0.00000000E+00
  0.00000000E+00  0.00000000E+00  0.00000000E+00
  0.00000000E+00  0.00000000E+00  0.00000000E+00
  0.00000000E+00  0.00000000E+00  0.00000000E+00
  0.00000000E+00  0.00000000E+00  0.00000000E+00
  0.00000000E+00  0.00000000E+00  0.00000000E+00
  0.00000000E+00  0.00000000E+00  0.00000000E+00
  0.00000000E+00  0.00000000E+00  0.00000000E+00
  0.00000000E+00  0.00000000E+00  0.00000000E+00
  0.00000000E+00  0.00000000E+00  0.00000000E+00
  0.00000000E+00  0.00000000E+00  0.00000000E+00
  0.00000000E+00  0.00000000E+00  0.00000000E+00
  0.00000000E+00  0.00000000E+00  0.00000000E+00
  0.00000000E+00  0.00000000E+00  0.00000000E+00
  0.00000000E+00  0.00000000E+00  0.00000000E+00
  0.00000000E+00  0.00000000E+00  0.00000000E+00
  0.00000000E+00  0.00000000E+00  0.00000000E+00
  0.00000000E+00  0.00000000E+00  0.00000000E+00
  0.00000000E+00  0.00000000E+00  0.00000000E+00
  0.00000000E+00  0.00000000E+00  0.00000000E+00
  0.00000000E+00  0.00000000E+00  0.00000000E+00
  0.00000000E+00  0.00000000E+00  0.00000000E+00
  0.00000000E+00  0.00000000E+00  0.00000000E+00
  0.00000000E+00  0.00000000E+00  0.00000000E+00
  0.00000000E+00  0.00000000E+00  0.00000000E+00
  0.00000000E+00  0.00000000E+00  0.00000000E+00
  0.00000000E+00  0.00000000E+00  0.00000000E+00
  0.00000000E+00  0.00000000E+00  0.00000000E+00
  0.00000000E+00  0.00000000E+00  0.00000000E+00
  0.00000000E+00  0.00000000E+00  0.00000000E+00
  0.00000000E+00  0.00000000E+00  0.00000000E+00
  0.00000000E+00  0.00000000E+00  0.00000000E+00
  0.00000000E+00  0.00000000E+00  0.00000000E+00
  0.00000000E+00  0.00000000E+00  0.00000000E+00
  0.00000000E+00  0.00000000E+00  0.00000000E+00
  0.00000000E+00  0.00000000E+00  0.00000000E+00
  0.00000000E+00  0.00000000E+00  0.00000000E+00
  0.00000000E+00  0.00000000E+00  0.00000000E+00
  0.00000000E+00  0.00000000E+00  0.00000000E+00
  0.00000000E+00  0.00000000E+00  0.00000000E+00
  0.00000000E+00  0.00000000E+00  0.00000000E+00
  0.00000000E+00  0.00000000E+00  0.00000000E+00
  0.00000000E+00  0.00000000E+00  0.00000000E+00
  0.00000000E+00  0.00000000E+00  0.00000000E+00
  0.00000000E+00  0.00000000E+00  0.00000000E+00
  0.00000000E+00  0.00000000E+00  0.00000000E+00
  0.00000000E+00  0.00000000E+00  0.00000000E+00
  0.00000000E+00  0.00000000E+00  0.00000000E+00
