Ti1 C126                                
   1.00000000000000     
    19.8110938000725909    0.0000099206209694   -0.0005691053781309
    -9.9055378744044074   17.0829875318147835    0.0003641123819440
    -0.0008524786757047    0.0001401919973069   29.7323803897532635
   Ti   C 
     1   126
Direct
  0.4374807255952946  0.5000011112428836  0.4300503088892019
  0.0416879061928481  0.0836548046474038  0.3998741774349960
  0.0408773088467887  0.2079458130918848  0.3996830173070296
  0.0405540016814238  0.3327744058728713  0.3996474641628007
  0.0406902016429945  0.4582609941455375  0.3997664808385839
  0.0413658984337628  0.5836474626318919  0.4000067984420616
  0.0419632224895316  0.7089038763818433  0.4000809453381389
  0.0422446005306990  0.8341911208011913  0.4000656138258121
  0.0422108188276644  0.9591413316221356  0.4000177242896025
  0.1672484024017777  0.0845721152594435  0.3998132379961672
  0.1666356324959317  0.2089961635582966  0.3996883280318347
  0.1653000472922254  0.3330210532813718  0.3998084535748017
  0.1644928389186796  0.4581689089182567  0.3997124586181740
  0.1654157952872807  0.5835179736654823  0.3995898974250793
  0.1664612621557235  0.7089651531782436  0.3998558039548818
  0.1669172595279464  0.8341860993823673  0.4000470052919158
  0.1672118258384822  0.9594507379866354  0.3999322373221590
  0.2923013303545945  0.0845833592801566  0.3998055467822741
  0.2927973559065324  0.2106077013651299  0.4002459842565571
  0.2918563176345724  0.3355546498665771  0.4016724120934471
  0.2878892719672790  0.4573399779436850  0.4017978775226891
  0.2892396083015373  0.5838418926883039  0.4001598279381074
  0.2908934221352939  0.7088674481196502  0.3996011815899582
  0.2915295383729520  0.8338641013018921  0.3998803998864626
  0.2919093673112375  0.9591254947258639  0.3999790096733055
  0.4169367146336413  0.0836433427091418  0.3998693364205700
  0.4173459966105253  0.2090217036952315  0.3996961689005577
  0.4187054553841981  0.3355958098183631  0.4016785031361539
  0.4121045448114634  0.5818902492425159  0.4040857711235784
  0.4155510668868878  0.7075661682799409  0.3999927170406120
  0.4161987553365492  0.8330571046709727  0.3996753048504876
  0.4165657843586713  0.9583251478911183  0.4000289566024802
  0.5415849003763904  0.0827509138578841  0.4000424611899611
  0.5420490578911449  0.2079308167402750  0.3996916705544419
  0.5427480025961512  0.3330304539139183  0.3998055960238510
  0.5445198189447442  0.4573429242087294  0.4018039440770222
  0.5447955366775886  0.5818440889940657  0.4040895707581708
  0.5406073542973904  0.7062182730034882  0.4015305356568485
  0.5408173660658068  0.8319707941048315  0.3998794806307437
  0.5412734271521121  0.9574555942455779  0.3998905504453429
  0.6662612941297814  0.0823703730546822  0.4000172275104132
  0.6666557009738479  0.2076157365725143  0.3999616754151841
  0.6672307761572825  0.3327642339052876  0.3996340596526131
  0.6687488387921023  0.4581749276402619  0.3996934182650732
  0.6696594178850009  0.5838341914691481  0.4001475999357436
  0.6669833268792373  0.7075317169678311  0.3999813491413729
  0.6661221811109516  0.8319567756302804  0.3998731569789437
  0.6660717034739998  0.9571647827484476  0.3998322141807386
  0.7910888948702349  0.0823775667668904  0.4000037321572382
  0.7912300844508705  0.2074778928697887  0.4000788280135435
  0.7917536410621947  0.3328378118519387  0.3999980249103348
  0.7926030484338591  0.4582674364931298  0.3997288086230514
  0.7931396854663652  0.5835232272752841  0.3995532651531902
  0.7929732633538596  0.7088705957398115  0.3995943639743008
  0.7918287810302232  0.8330474421828487  0.3996762331944921
  0.7911558684648031  0.9574636166295167  0.3998592905726981
  0.9161654663601859  0.0827711969011826  0.3999998705234042
  0.9159532426411197  0.2076348473668526  0.3999451259335328
  0.9161135615088228  0.3328460274522557  0.4000137237117167
  0.9165850644380749  0.4581402823442098  0.4000998355746376
  0.9172943689206989  0.5836448265338254  0.3999825970781735
  0.9175098811364193  0.7089746692463845  0.3998589687415768
  0.9173174223466495  0.8338797557681694  0.3999079844343295
  0.9167429172359627  0.9583289615448516  0.4000419512656644
  0.0838169581092187  0.0425450638389752  0.3998888921818793
  0.0831428279833213  0.1669439860201269  0.3996712373043719
  0.0820256397035916  0.2911339552108023  0.3995978606948153
  0.0818995830106716  0.4164827719431510  0.3995889196568611
  0.0824285832791568  0.5417386008817071  0.3997656194272551
  0.0832676086846502  0.6671540449757865  0.4000124050802487
  0.0837500373524914  0.7925209280742548  0.4000791011912674
  0.0838873210038600  0.9176293731763133  0.4000183025656615
  0.2089054871300502  0.0428351931878499  0.3998322544891770
  0.2088482686680197  0.1680307984758482  0.3998752917794434
  0.2079859484826660  0.2924342533511096  0.3999857110820795
  0.2053998572957873  0.4161597979473072  0.4001539450362020
  0.2063219459101937  0.5418319720804486  0.3997145464820859
  0.2077768941335321  0.6672247367099784  0.3996484237548286
  0.2083156121409505  0.7923641245155701  0.3999440981009988
  0.2087098937055059  0.9176224430910025  0.4000043837881079
  0.3336910192364806  0.0425346698662532  0.3998594417174251
  0.3341655881005776  0.1680442787178358  0.3998752248483367
  0.3343916880017888  0.2937832423397812  0.4015286112731715
  0.3302179879306591  0.4181128941038572  0.4040818201331491
  0.3305476908554151  0.5426628980583991  0.4018006338745436
  0.3322767372346993  0.6669825552513378  0.3998158227847228
  0.3329293632488619  0.7920564221175111  0.3996851876742653
  0.3333925228883644  0.9172281913591991  0.3999989957416701
  0.4584141821908663  0.0416705658163255  0.4000410661413388
  0.4587812527022651  0.1669513562310812  0.3996792058376423
  0.4594518067158279  0.2924681694362956  0.3999854608303362
  0.4629511760435705  0.4181536941120894  0.4040952195534445
  0.4563025053626742  0.6644512434843023  0.4016791513916773
  0.4576397727936038  0.7910065238559615  0.3996948515362470
  0.4580324434515380  0.9163457314386089  0.3998753725124260
  0.5830698612952061  0.0408586559809114  0.4000169558547989
  0.5834373598151847  0.1661182247586589  0.3999068801041649
  0.5841003206357215  0.2911268544291728  0.3995964448193782
  0.5858242720674711  0.4161633507295947  0.4001524409762695
  0.5871721681139761  0.5426561431878248  0.4018007631817613
  0.5831069540977641  0.6644029320848206  0.4016746147067553
  0.5821888541389441  0.7893929555112413  0.4002472246230816
  0.5826756359144026  0.9154283776337151  0.3998153662202301
  0.7077630542278336  0.0405501734721858  0.3999312890030937
  0.7080549080012795  0.1658081385018562  0.4000644626810138
  0.7085366458144576  0.2910245335339335  0.3998576854677580
  0.7096164640062494  0.4164752184273103  0.3995539227994928
  0.7105713411666016  0.5418239176628762  0.3996914940665300
  0.7097138993678890  0.6669679549560259  0.3998003386222012
  0.7083231970794494  0.7909773888195926  0.3996925701511854
  0.7077178986369853  0.9154157255067022  0.3998045494534213
  0.8327856069028898  0.0408744894445691  0.3999791363320540
  0.8327341358221920  0.1658146338719940  0.4000463451857595
  0.8330618667973798  0.2910960265935577  0.4000809687912874
  0.8336493494363291  0.4163540270506046  0.3999823794464653
  0.8343342946086065  0.5417319436209638  0.3997289841223102
  0.8344640565795750  0.6672348452862794  0.3996331322182378
  0.8341150725872931  0.7920669787113250  0.3996902288331353
  0.8332928726279293  0.9163562329385844  0.3998690266331164
  0.9582418667836378  0.0416756770468780  0.4000292611328812
  0.9576661170864691  0.1661366217388598  0.3998812681544244
  0.9574987235228701  0.2910352197238173  0.3998574700127636
  0.9577195747585582  0.4163515403215445  0.4000086223638004
  0.9584443083090460  0.5418596846830158  0.4000991502726189
  0.9589147929408322  0.6671621612822333  0.3999991664958136
  0.9590365102511250  0.7923837711997216  0.3999636546229378
  0.9588316399661295  0.9172490903301159  0.4000430793466948
 
  0.00000000E+00  0.00000000E+00  0.00000000E+00
  0.00000000E+00  0.00000000E+00  0.00000000E+00
  0.00000000E+00  0.00000000E+00  0.00000000E+00
  0.00000000E+00  0.00000000E+00  0.00000000E+00
  0.00000000E+00  0.00000000E+00  0.00000000E+00
  0.00000000E+00  0.00000000E+00  0.00000000E+00
  0.00000000E+00  0.00000000E+00  0.00000000E+00
  0.00000000E+00  0.00000000E+00  0.00000000E+00
  0.00000000E+00  0.00000000E+00  0.00000000E+00
  0.00000000E+00  0.00000000E+00  0.00000000E+00
  0.00000000E+00  0.00000000E+00  0.00000000E+00
  0.00000000E+00  0.00000000E+00  0.00000000E+00
  0.00000000E+00  0.00000000E+00  0.00000000E+00
  0.00000000E+00  0.00000000E+00  0.00000000E+00
  0.00000000E+00  0.00000000E+00  0.00000000E+00
  0.00000000E+00  0.00000000E+00  0.00000000E+00
  0.00000000E+00  0.00000000E+00  0.00000000E+00
  0.00000000E+00  0.00000000E+00  0.00000000E+00
  0.00000000E+00  0.00000000E+00  0.00000000E+00
  0.00000000E+00  0.00000000E+00  0.00000000E+00
  0.00000000E+00  0.00000000E+00  0.00000000E+00
  0.00000000E+00  0.00000000E+00  0.00000000E+00
  0.00000000E+00  0.00000000E+00  0.00000000E+00
  0.00000000E+00  0.00000000E+00  0.00000000E+00
  0.00000000E+00  0.00000000E+00  0.00000000E+00
  0.00000000E+00  0.00000000E+00  0.00000000E+00
  0.00000000E+00  0.00000000E+00  0.00000000E+00
  0.00000000E+00  0.00000000E+00  0.00000000E+00
  0.00000000E+00  0.00000000E+00  0.00000000E+00
  0.00000000E+00  0.00000000E+00  0.00000000E+00
  0.00000000E+00  0.00000000E+00  0.00000000E+00
  0.00000000E+00  0.00000000E+00  0.00000000E+00
  0.00000000E+00  0.00000000E+00  0.00000000E+00
  0.00000000E+00  0.00000000E+00  0.00000000E+00
  0.00000000E+00  0.00000000E+00  0.00000000E+00
  0.00000000E+00  0.00000000E+00  0.00000000E+00
  0.00000000E+00  0.00000000E+00  0.00000000E+00
  0.00000000E+00  0.00000000E+00  0.00000000E+00
  0.00000000E+00  0.00000000E+00  0.00000000E+00
  0.00000000E+00  0.00000000E+00  0.00000000E+00
  0.00000000E+00  0.00000000E+00  0.00000000E+00
  0.00000000E+00  0.00000000E+00  0.00000000E+00
  0.00000000E+00  0.00000000E+00  0.00000000E+00
  0.00000000E+00  0.00000000E+00  0.00000000E+00
  0.00000000E+00  0.00000000E+00  0.00000000E+00
  0.00000000E+00  0.00000000E+00  0.00000000E+00
  0.00000000E+00  0.00000000E+00  0.00000000E+00
  0.00000000E+00  0.00000000E+00  0.00000000E+00
  0.00000000E+00  0.00000000E+00  0.00000000E+00
  0.00000000E+00  0.00000000E+00  0.00000000E+00
  0.00000000E+00  0.00000000E+00  0.00000000E+00
  0.00000000E+00  0.00000000E+00  0.00000000E+00
  0.00000000E+00  0.00000000E+00  0.00000000E+00
  0.00000000E+00  0.00000000E+00  0.00000000E+00
  0.00000000E+00  0.00000000E+00  0.00000000E+00
  0.00000000E+00  0.00000000E+00  0.00000000E+00
  0.00000000E+00  0.00000000E+00  0.00000000E+00
  0.00000000E+00  0.00000000E+00  0.00000000E+00
  0.00000000E+00  0.00000000E+00  0.00000000E+00
  0.00000000E+00  0.00000000E+00  0.00000000E+00
  0.00000000E+00  0.00000000E+00  0.00000000E+00
  0.00000000E+00  0.00000000E+00  0.00000000E+00
  0.00000000E+00  0.00000000E+00  0.00000000E+00
  0.00000000E+00  0.00000000E+00  0.00000000E+00
  0.00000000E+00  0.00000000E+00  0.00000000E+00
  0.00000000E+00  0.00000000E+00  0.00000000E+00
  0.00000000E+00  0.00000000E+00  0.00000000E+00
  0.00000000E+00  0.00000000E+00  0.00000000E+00
  0.00000000E+00  0.00000000E+00  0.00000000E+00
  0.00000000E+00  0.00000000E+00  0.00000000E+00
  0.00000000E+00  0.00000000E+00  0.00000000E+00
  0.00000000E+00  0.00000000E+00  0.00000000E+00
  0.00000000E+00  0.00000000E+00  0.00000000E+00
  0.00000000E+00  0.00000000E+00  0.00000000E+00
  0.00000000E+00  0.00000000E+00  0.00000000E+00
  0.00000000E+00  0.00000000E+00  0.00000000E+00
  0.00000000E+00  0.00000000E+00  0.00000000E+00
  0.00000000E+00  0.00000000E+00  0.00000000E+00
  0.00000000E+00  0.00000000E+00  0.00000000E+00
  0.00000000E+00  0.00000000E+00  0.00000000E+00
  0.00000000E+00  0.00000000E+00  0.00000000E+00
  0.00000000E+00  0.00000000E+00  0.00000000E+00
  0.00000000E+00  0.00000000E+00  0.00000000E+00
  0.00000000E+00  0.00000000E+00  0.00000000E+00
  0.00000000E+00  0.00000000E+00  0.00000000E+00
  0.00000000E+00  0.00000000E+00  0.00000000E+00
  0.00000000E+00  0.00000000E+00  0.00000000E+00
  0.00000000E+00  0.00000000E+00  0.00000000E+00
  0.00000000E+00  0.00000000E+00  0.00000000E+00
  0.00000000E+00  0.00000000E+00  0.00000000E+00
  0.00000000E+00  0.00000000E+00  0.00000000E+00
  0.00000000E+00  0.00000000E+00  0.00000000E+00
  0.00000000E+00  0.00000000E+00  0.00000000E+00
  0.00000000E+00  0.00000000E+00  0.00000000E+00
  0.00000000E+00  0.00000000E+00  0.00000000E+00
  0.00000000E+00  0.00000000E+00  0.00000000E+00
  0.00000000E+00  0.00000000E+00  0.00000000E+00
  0.00000000E+00  0.00000000E+00  0.00000000E+00
  0.00000000E+00  0.00000000E+00  0.00000000E+00
  0.00000000E+00  0.00000000E+00  0.00000000E+00
  0.00000000E+00  0.00000000E+00  0.00000000E+00
  0.00000000E+00  0.00000000E+00  0.00000000E+00
  0.00000000E+00  0.00000000E+00  0.00000000E+00
  0.00000000E+00  0.00000000E+00  0.00000000E+00
  0.00000000E+00  0.00000000E+00  0.00000000E+00
  0.00000000E+00  0.00000000E+00  0.00000000E+00
  0.00000000E+00  0.00000000E+00  0.00000000E+00
  0.00000000E+00  0.00000000E+00  0.00000000E+00
  0.00000000E+00  0.00000000E+00  0.00000000E+00
  0.00000000E+00  0.00000000E+00  0.00000000E+00
  0.00000000E+00  0.00000000E+00  0.00000000E+00
  0.00000000E+00  0.00000000E+00  0.00000000E+00
  0.00000000E+00  0.00000000E+00  0.00000000E+00
  0.00000000E+00  0.00000000E+00  0.00000000E+00
  0.00000000E+00  0.00000000E+00  0.00000000E+00
  0.00000000E+00  0.00000000E+00  0.00000000E+00
  0.00000000E+00  0.00000000E+00  0.00000000E+00
  0.00000000E+00  0.00000000E+00  0.00000000E+00
  0.00000000E+00  0.00000000E+00  0.00000000E+00
  0.00000000E+00  0.00000000E+00  0.00000000E+00
  0.00000000E+00  0.00000000E+00  0.00000000E+00
  0.00000000E+00  0.00000000E+00  0.00000000E+00
  0.00000000E+00  0.00000000E+00  0.00000000E+00
  0.00000000E+00  0.00000000E+00  0.00000000E+00
  0.00000000E+00  0.00000000E+00  0.00000000E+00
  0.00000000E+00  0.00000000E+00  0.00000000E+00
  0.00000000E+00  0.00000000E+00  0.00000000E+00
