Re1 H1 C126 O1                          
   1.00000000000000     
    19.8105448509271653   -0.0013647869528337   -0.0439859595190961
    -9.9064629309969980   17.0600786586597515    0.0001927518330418
    -0.0660942177779692   -0.0380344110412132   29.7745268273255128
   Re   H    C    O 
     1     1   126     1
Direct
  0.4402592433171008  0.5017946688734435  0.4313733437039046
  0.4889753648242808  0.5576686874995336  0.5088842085959603
  0.0420472814778605  0.0841365646816467  0.3997367658474569
  0.0410268064753822  0.2081168415171874  0.3995527453762815
  0.0404218150718682  0.3327222595711924  0.3996990715233916
  0.0404508038315986  0.4581906752802994  0.3997214542215181
  0.0413012278460583  0.5836983601066100  0.3998111614725719
  0.0420536869306938  0.7090631249333594  0.3999323392025521
  0.0423865575925812  0.8344596409332383  0.3999988773976557
  0.0424238885993258  0.9594961494458039  0.3999186197731675
  0.1676601485931329  0.0852661570040665  0.3998318598184902
  0.1674945289925405  0.2101110390375034  0.3995580801658449
  0.1654439338173033  0.3333724702343763  0.3999645474680800
  0.1640695667155665  0.4582388871429951  0.4000137254696893
  0.1651131585042485  0.5834993604875848  0.3997039438204612
  0.1664656731885591  0.7090164980958544  0.3998374962585531
  0.1670649819964353  0.8344266337361488  0.3999954131239321
  0.1674500159146805  0.9598803952532845  0.4000113904166035
  0.2925936278516749  0.0852138208496307  0.3997938138592180
  0.2933294430472940  0.2116205600336459  0.4000654787535439
  0.2935118608057417  0.3375032048686766  0.4016659485336261
  0.2870525295310556  0.4579338364082522  0.4027236605084198
  0.2887207320149736  0.5835845516420799  0.4004386906480955
  0.2908945458220544  0.7087217564261838  0.3995780257337612
  0.2916168760389726  0.8339129245751848  0.3997886576624399
  0.2920645983888504  0.9594229928750174  0.3999149168093613
  0.4170749158215936  0.0839792234099486  0.3997755320338817
  0.4176195201532201  0.2099224462338724  0.3994230161454628
  0.4190525066747192  0.3371278827587454  0.4007991001225800
  0.4111974106653907  0.5795795378778006  0.4048591279293764
  0.4153415501939642  0.7063446602319231  0.3996977796541389
  0.4161597733450455  0.8325051871264827  0.3995429540936503
  0.4166323669521685  0.9582333852088134  0.3998808461639329
  0.5415542154869515  0.0825953275183498  0.3998848878651301
  0.5420999523007310  0.2079791436289522  0.3996502439370676
  0.5430380973358152  0.3332326253341144  0.3997427402775253
  0.5459237145353716  0.4577245058954808  0.4013832664876413
  0.5436191814478386  0.5797860824308628  0.4034786469851528
  0.5399752693888041  0.7049881742591624  0.4006330586363736
  0.5406615232413177  0.8312799238180331  0.3997179465425604
  0.5411860193341413  0.9570657451290252  0.3998482343028275
  0.6661581606969835  0.0820561665780641  0.3999969442890806
  0.6666036576971698  0.2073834053300247  0.3998834892392869
  0.6673586586580924  0.3326444980356600  0.3998077614205430
  0.6692727193253083  0.4581646333519185  0.4001500525931201
  0.6699629436059181  0.5835681943673713  0.4002891948349733
  0.6660701249382678  0.7064587117202206  0.3993316809779663
  0.6656222074583629  0.8313274671992524  0.3996091621394066
  0.6658703560335900  0.9567273822062714  0.3999350194039971
  0.7909543998799644  0.0820987556963669  0.4000003743036201
  0.7911358400489895  0.2072279786237941  0.4000189476952141
  0.7917376510233707  0.3326299576444321  0.3998502693551999
  0.7928107298985034  0.4581829629370836  0.3997826975155645
  0.7934589508026594  0.5835112354129107  0.3998836575266416
  0.7928729723461636  0.7087693095634151  0.3996831530840627
  0.7914330024694378  0.8326170785948138  0.3995782608735309
  0.7909223302717389  0.9571461892643496  0.3998375783038398
  0.9161506901605223  0.0827088360103453  0.3998564898292824
  0.9158701128699989  0.2074537773843982  0.3998665018436944
  0.9159812665873037  0.3326620330168773  0.3998601951464519
  0.9165645436688640  0.4580704167921411  0.3997965425616546
  0.9174358125577723  0.5837084054612595  0.3997918974399114
  0.9176100525143946  0.7090591515596951  0.3998612817356735
  0.9173560388898160  0.8339916406107648  0.3998255329978548
  0.9167211677208875  0.9583767483308453  0.3998936767488608
  0.0841611011789157  0.0430160115742390  0.3998288280253465
  0.0837139915199440  0.1675825037243250  0.3995216940581883
  0.0821393549949446  0.2913095041990019  0.3995947092098627
  0.0815607725276035  0.4164238192315439  0.3996891652125421
  0.0822227600731084  0.5417384939245717  0.3997360223377944
  0.0832858292323479  0.6672729209086956  0.3998793855981798
  0.0838724087585445  0.7927328531789591  0.4000127433302595
  0.0840900377179712  0.9179776383779661  0.3999970810549216
  0.2091962360791017  0.0433765334487966  0.3999315570002537
  0.2094472322069422  0.1689045935841362  0.3998101589533242
  0.2091492672324907  0.2938531734812971  0.3999669893142171
  0.2050573168507764  0.4163795827718328  0.4006744874703380
  0.2057975693681640  0.5416834484791917  0.3999804367521854
  0.2076831195798949  0.6672301889760017  0.3997114616645460
  0.2084218523687773  0.7925349382523071  0.3998853478844419
  0.2088811573385960  0.9179399827778187  0.3999933483171059
  0.3338254335225367  0.0429349769594801  0.3998221121971470
  0.3344503154382207  0.1688415619586776  0.3996904591575379
  0.3351720468847864  0.2951994164823013  0.4010498897740252
  0.3316969754689441  0.4207611566324128  0.4052220259360597
  0.3290806370564790  0.5420895249700387  0.4024163031409872
  0.3321076969253332  0.6667082569247061  0.3997794955780761
  0.3329438985649544  0.7919273366338634  0.3995899022474169
  0.3334460942699972  0.9173197432670059  0.3998715676603442
  0.4584013981352498  0.0416796905475210  0.3998930443507865
  0.4588739809184716  0.1674090012552353  0.3995696188829213
  0.4597708948100643  0.2936151343018478  0.3994893433203425
  0.4640683805811587  0.4203291965368698  0.4036018170225392
  0.4561404322077115  0.6628607923123816  0.4011938629577976
  0.4574117976989183  0.7900342609047664  0.3994651011326265
  0.4579506916481873  0.9159665566071641  0.3997629445208830
  0.5829613620897064  0.0405534384313248  0.3999272033325110
  0.5834159069340404  0.1659999009092042  0.3998112206933414
  0.5842291815835396  0.2911864511200907  0.3996849846675871
  0.5864611972093360  0.4162384366014159  0.4002975885894261
  0.5880382354246841  0.5419353959707686  0.4012115954948874
  0.5818293203212227  0.6631692057525120  0.4004026946814762
  0.5818517970813246  0.7887161845845895  0.3998435919276030
  0.5824988782772675  0.9148976736954120  0.3998364401919101
  0.7076263643294357  0.0402168201408947  0.4000125830936525
  0.7079753150827930  0.1655384696929913  0.3999974391909861
  0.7085782258640116  0.2908669297143924  0.3998431144659493
  0.7099484771344777  0.4163718281849413  0.3998564171876099
  0.7109704486223284  0.5416591632123043  0.4001790404651244
  0.7096655994809918  0.6667352904889895  0.3996834820184103
  0.7076819680297154  0.7901481606129078  0.3993668181981988
  0.7074204029628457  0.9149471548712897  0.3997872940854439
  0.8326761492289755  0.0406337842030953  0.3999235247832896
  0.8326285093065912  0.1655837647543696  0.3999982902190096
  0.8329763392923556  0.2908711369216113  0.3999261410598580
  0.8337256886473072  0.4162208851743593  0.3997934111404095
  0.8345672516082595  0.5417352599433983  0.3997941472614809
  0.8345990468461442  0.6672578122665390  0.3998293638649382
  0.8340381436656813  0.7920077332215040  0.3996575458998259
  0.8331208287713829  0.9160929886272776  0.3997933142093437
  0.9584160329242667  0.0418334131470334  0.3998616113632389
  0.9577087310311454  0.1661115509576647  0.3997490785475971
  0.9574129213984807  0.2909420994040570  0.3998123667451256
  0.9575649550425444  0.4162361716079941  0.3997977794954604
  0.9584497403631158  0.5418564515715094  0.3997919150876355
  0.9590411070796162  0.6672944010413894  0.3998603821641862
  0.9591579155045445  0.7925850136997606  0.3998930121185157
  0.9589489460943007  0.9174156476304286  0.3998870716094163
  0.4474700274174587  0.5100557405923831  0.4948676528822564
 
  0.00000000E+00  0.00000000E+00  0.00000000E+00
  0.00000000E+00  0.00000000E+00  0.00000000E+00
  0.00000000E+00  0.00000000E+00  0.00000000E+00
  0.00000000E+00  0.00000000E+00  0.00000000E+00
  0.00000000E+00  0.00000000E+00  0.00000000E+00
  0.00000000E+00  0.00000000E+00  0.00000000E+00
  0.00000000E+00  0.00000000E+00  0.00000000E+00
  0.00000000E+00  0.00000000E+00  0.00000000E+00
  0.00000000E+00  0.00000000E+00  0.00000000E+00
  0.00000000E+00  0.00000000E+00  0.00000000E+00
  0.00000000E+00  0.00000000E+00  0.00000000E+00
  0.00000000E+00  0.00000000E+00  0.00000000E+00
  0.00000000E+00  0.00000000E+00  0.00000000E+00
  0.00000000E+00  0.00000000E+00  0.00000000E+00
  0.00000000E+00  0.00000000E+00  0.00000000E+00
  0.00000000E+00  0.00000000E+00  0.00000000E+00
  0.00000000E+00  0.00000000E+00  0.00000000E+00
  0.00000000E+00  0.00000000E+00  0.00000000E+00
  0.00000000E+00  0.00000000E+00  0.00000000E+00
  0.00000000E+00  0.00000000E+00  0.00000000E+00
  0.00000000E+00  0.00000000E+00  0.00000000E+00
  0.00000000E+00  0.00000000E+00  0.00000000E+00
  0.00000000E+00  0.00000000E+00  0.00000000E+00
  0.00000000E+00  0.00000000E+00  0.00000000E+00
  0.00000000E+00  0.00000000E+00  0.00000000E+00
  0.00000000E+00  0.00000000E+00  0.00000000E+00
  0.00000000E+00  0.00000000E+00  0.00000000E+00
  0.00000000E+00  0.00000000E+00  0.00000000E+00
  0.00000000E+00  0.00000000E+00  0.00000000E+00
  0.00000000E+00  0.00000000E+00  0.00000000E+00
  0.00000000E+00  0.00000000E+00  0.00000000E+00
  0.00000000E+00  0.00000000E+00  0.00000000E+00
  0.00000000E+00  0.00000000E+00  0.00000000E+00
  0.00000000E+00  0.00000000E+00  0.00000000E+00
  0.00000000E+00  0.00000000E+00  0.00000000E+00
  0.00000000E+00  0.00000000E+00  0.00000000E+00
  0.00000000E+00  0.00000000E+00  0.00000000E+00
  0.00000000E+00  0.00000000E+00  0.00000000E+00
  0.00000000E+00  0.00000000E+00  0.00000000E+00
  0.00000000E+00  0.00000000E+00  0.00000000E+00
  0.00000000E+00  0.00000000E+00  0.00000000E+00
  0.00000000E+00  0.00000000E+00  0.00000000E+00
  0.00000000E+00  0.00000000E+00  0.00000000E+00
  0.00000000E+00  0.00000000E+00  0.00000000E+00
  0.00000000E+00  0.00000000E+00  0.00000000E+00
  0.00000000E+00  0.00000000E+00  0.00000000E+00
  0.00000000E+00  0.00000000E+00  0.00000000E+00
  0.00000000E+00  0.00000000E+00  0.00000000E+00
  0.00000000E+00  0.00000000E+00  0.00000000E+00
  0.00000000E+00  0.00000000E+00  0.00000000E+00
  0.00000000E+00  0.00000000E+00  0.00000000E+00
  0.00000000E+00  0.00000000E+00  0.00000000E+00
  0.00000000E+00  0.00000000E+00  0.00000000E+00
  0.00000000E+00  0.00000000E+00  0.00000000E+00
  0.00000000E+00  0.00000000E+00  0.00000000E+00
  0.00000000E+00  0.00000000E+00  0.00000000E+00
  0.00000000E+00  0.00000000E+00  0.00000000E+00
  0.00000000E+00  0.00000000E+00  0.00000000E+00
  0.00000000E+00  0.00000000E+00  0.00000000E+00
  0.00000000E+00  0.00000000E+00  0.00000000E+00
  0.00000000E+00  0.00000000E+00  0.00000000E+00
  0.00000000E+00  0.00000000E+00  0.00000000E+00
  0.00000000E+00  0.00000000E+00  0.00000000E+00
  0.00000000E+00  0.00000000E+00  0.00000000E+00
  0.00000000E+00  0.00000000E+00  0.00000000E+00
  0.00000000E+00  0.00000000E+00  0.00000000E+00
  0.00000000E+00  0.00000000E+00  0.00000000E+00
  0.00000000E+00  0.00000000E+00  0.00000000E+00
  0.00000000E+00  0.00000000E+00  0.00000000E+00
  0.00000000E+00  0.00000000E+00  0.00000000E+00
  0.00000000E+00  0.00000000E+00  0.00000000E+00
  0.00000000E+00  0.00000000E+00  0.00000000E+00
  0.00000000E+00  0.00000000E+00  0.00000000E+00
  0.00000000E+00  0.00000000E+00  0.00000000E+00
  0.00000000E+00  0.00000000E+00  0.00000000E+00
  0.00000000E+00  0.00000000E+00  0.00000000E+00
  0.00000000E+00  0.00000000E+00  0.00000000E+00
  0.00000000E+00  0.00000000E+00  0.00000000E+00
  0.00000000E+00  0.00000000E+00  0.00000000E+00
  0.00000000E+00  0.00000000E+00  0.00000000E+00
  0.00000000E+00  0.00000000E+00  0.00000000E+00
  0.00000000E+00  0.00000000E+00  0.00000000E+00
  0.00000000E+00  0.00000000E+00  0.00000000E+00
  0.00000000E+00  0.00000000E+00  0.00000000E+00
  0.00000000E+00  0.00000000E+00  0.00000000E+00
  0.00000000E+00  0.00000000E+00  0.00000000E+00
  0.00000000E+00  0.00000000E+00  0.00000000E+00
  0.00000000E+00  0.00000000E+00  0.00000000E+00
  0.00000000E+00  0.00000000E+00  0.00000000E+00
  0.00000000E+00  0.00000000E+00  0.00000000E+00
  0.00000000E+00  0.00000000E+00  0.00000000E+00
  0.00000000E+00  0.00000000E+00  0.00000000E+00
  0.00000000E+00  0.00000000E+00  0.00000000E+00
  0.00000000E+00  0.00000000E+00  0.00000000E+00
  0.00000000E+00  0.00000000E+00  0.00000000E+00
  0.00000000E+00  0.00000000E+00  0.00000000E+00
  0.00000000E+00  0.00000000E+00  0.00000000E+00
  0.00000000E+00  0.00000000E+00  0.00000000E+00
  0.00000000E+00  0.00000000E+00  0.00000000E+00
  0.00000000E+00  0.00000000E+00  0.00000000E+00
  0.00000000E+00  0.00000000E+00  0.00000000E+00
  0.00000000E+00  0.00000000E+00  0.00000000E+00
  0.00000000E+00  0.00000000E+00  0.00000000E+00
  0.00000000E+00  0.00000000E+00  0.00000000E+00
  0.00000000E+00  0.00000000E+00  0.00000000E+00
  0.00000000E+00  0.00000000E+00  0.00000000E+00
  0.00000000E+00  0.00000000E+00  0.00000000E+00
  0.00000000E+00  0.00000000E+00  0.00000000E+00
  0.00000000E+00  0.00000000E+00  0.00000000E+00
  0.00000000E+00  0.00000000E+00  0.00000000E+00
  0.00000000E+00  0.00000000E+00  0.00000000E+00
  0.00000000E+00  0.00000000E+00  0.00000000E+00
  0.00000000E+00  0.00000000E+00  0.00000000E+00
  0.00000000E+00  0.00000000E+00  0.00000000E+00
  0.00000000E+00  0.00000000E+00  0.00000000E+00
  0.00000000E+00  0.00000000E+00  0.00000000E+00
  0.00000000E+00  0.00000000E+00  0.00000000E+00
  0.00000000E+00  0.00000000E+00  0.00000000E+00
  0.00000000E+00  0.00000000E+00  0.00000000E+00
  0.00000000E+00  0.00000000E+00  0.00000000E+00
  0.00000000E+00  0.00000000E+00  0.00000000E+00
  0.00000000E+00  0.00000000E+00  0.00000000E+00
  0.00000000E+00  0.00000000E+00  0.00000000E+00
  0.00000000E+00  0.00000000E+00  0.00000000E+00
  0.00000000E+00  0.00000000E+00  0.00000000E+00
  0.00000000E+00  0.00000000E+00  0.00000000E+00
  0.00000000E+00  0.00000000E+00  0.00000000E+00
  0.00000000E+00  0.00000000E+00  0.00000000E+00
  0.00000000E+00  0.00000000E+00  0.00000000E+00
