Fe1 H1 C122 N4 O2                       
   1.00000000000000     
    19.8057958507062324   -0.0001319907506083    0.1255846856859077
    -9.9030594341879326   17.0228197298374084   -0.0429347266530655
     0.1893365920247964    0.0347551424042861   29.8468158916721258
   Fe   H    C    N    O 
     1     1   122     4     2
Direct
  0.4372264639551304  0.4994991279305057  0.4272827232520027
  0.5280371680851403  0.5477992809893111  0.5164209128443509
  0.0420559169311139  0.0841495847631431  0.4004160964520939
  0.0411281120841660  0.2082791803805302  0.4001925730622470
  0.0404077071149195  0.3329922723138838  0.3997067211362090
  0.0405226805760296  0.4582083130088069  0.3994046814342799
  0.0412512852976657  0.5836512417755886  0.3993519096051250
  0.0419206340472133  0.7090085860293063  0.3993267810164449
  0.0422352704890759  0.8342732140366199  0.3996422470340676
  0.0423745486160601  0.9595252017340757  0.4002089940776474
  0.1680954786047564  0.0857724043782945  0.4008838626086795
  0.1675545272166915  0.2103837640834336  0.4010681584003160
  0.1652351894679585  0.3336925445303999  0.4005422453100038
  0.1643340180617509  0.4584550279593220  0.3996258752908682
  0.1651989461032777  0.5835643532509682  0.3995750149166346
  0.1662972155905801  0.7088403361258210  0.3995580009293324
  0.1669080704211262  0.8342698572114707  0.3996822082414935
  0.1673684365306368  0.9598823799478501  0.4002297779689535
  0.2925375133621422  0.0857628938012744  0.4009054795778313
  0.2941642587459783  0.2135236733341059  0.4019097069124061
  0.2927115113250908  0.3392915778546212  0.4026483995129307
  0.2878695311320413  0.4576787694698051  0.4015394548580966
  0.2887165173223445  0.5830195066386853  0.4003171339368087
  0.2906078354940505  0.7083989852732938  0.4001719106546791
  0.2915300812379427  0.8338307723146029  0.3999901517058631
  0.2919914359101862  0.9595024940081238  0.4002137018682338
  0.4169510161137987  0.0840921571084452  0.4004771050709164
  0.4176717602490011  0.2103011658719407  0.4012011869789862
  0.4212981547640280  0.3390773933424712  0.4025590190658174
  0.4145750686320618  0.7059185386493685  0.4015008640822397
  0.4160701614900563  0.8322141433489189  0.4005386203782947
  0.4165858856057709  0.9582011290088644  0.4002398458622502
  0.5414807640045564  0.0826102911257521  0.4001257756358603
  0.5420236518476937  0.2082532401842579  0.4004126566819546
  0.5432957874912092  0.3336930688746830  0.4008845893479829
  0.5444342250311015  0.4576036358814572  0.4016377675409544
  0.5380463963338232  0.7014211358564455  0.4028880024882495
  0.5403756810147160  0.8301473568716459  0.4014370810773796
  0.5410937544664690  0.9566991486014206  0.4004960459355763
  0.6661327534279549  0.0821151636214742  0.4000059964609741
  0.6665329693416940  0.2075425671220035  0.3997086698579798
  0.6674189357765895  0.3329595553098677  0.3999696512830873
  0.6689309380420516  0.4584315643182709  0.4001103864122104
  0.6690711946315124  0.5829863702109518  0.4006651331553844
  0.6662049896156443  0.7060316777121125  0.4015268613883756
  0.6645948012936096  0.8301712230861311  0.4014360245696550
  0.6656036723831703  0.9563542737301473  0.4007190045958832
  0.7908613172087778  0.0821231620378931  0.4000129190547888
  0.7911849112327122  0.2074727933897510  0.3994980178174373
  0.7916719837426189  0.3328205395878489  0.3993834354783567
  0.7925097459105738  0.4581957055490010  0.3995772673966399
  0.7931891421955725  0.5835649056734821  0.3998579295288926
  0.7926148142127156  0.7083997493558317  0.4004434679256318
  0.7910471829181746  0.8322767843618940  0.4006652151517364
  0.7904768373417059  0.9567275630555921  0.4005428641038314
  0.9160171310025526  0.0826671089136503  0.4001174583104143
  0.9158996841213791  0.2075758907389151  0.3996929857107528
  0.9160080870151757  0.3328427630950751  0.3993711702815422
  0.9165317065012866  0.4582379797584979  0.3993867167853356
  0.9172184964929035  0.5836547623603153  0.3993949861439099
  0.9173893472883040  0.7088628039177371  0.3995747253397246
  0.9171727741164624  0.8338483817796609  0.4000386622690986
  0.9165172689344309  0.9582643834673670  0.4002710994494330
  0.0843928103315001  0.0432925335154196  0.4005137660893531
  0.0838533630723024  0.1677720676560389  0.4005181875822527
  0.0822221834808738  0.2915965233810791  0.4001074062471653
  0.0816249369539341  0.4164224848931212  0.3995558934606842
  0.0823063626317620  0.5417912952265866  0.3994023681296045
  0.0831619674309391  0.6671669806104639  0.3993711503221472
  0.0837116050195485  0.7925364571074187  0.3994952317888490
  0.0840187513135266  0.9178938141896912  0.4000062316524522
  0.2092534666399649  0.0436469636863203  0.4007200563573547
  0.2102284393268898  0.1698402942236082  0.4013828984257853
  0.2086605408161808  0.2940363216084148  0.4013233487997053
  0.2056791033652518  0.4169596841087592  0.4002026299574643
  0.2058604835439728  0.5415301076493504  0.3996557514704680
  0.2073936288527026  0.6670149433380811  0.3997358088650445
  0.2083249493869177  0.7924377809439463  0.3997208544861725
  0.2087372088408419  0.9178869476796588  0.4000272021161972
  0.3337592457398048  0.0432806246277804  0.4005432664200135
  0.3344405213652576  0.1698323886484377  0.4014062378959058
  0.3366276397782801  0.2985290205247130  0.4026602797882182
  0.3301567805928018  0.5422692326754354  0.4016789683215781
  0.3315045372089245  0.6662816946811354  0.4006799303465635
  0.3328312881953125  0.7917074474882025  0.4002235421015375
  0.3333514820155282  0.9173514276636864  0.4001243124334510
  0.4582521447197629  0.0417247786618229  0.4002533586585671
  0.4587731154891550  0.1677027594619500  0.4006682848744232
  0.4601843081356072  0.2939272827946713  0.4014741114889968
  0.4533478947542028  0.6606257140137145  0.4029468171956588
  0.4571502858970427  0.7895961179840066  0.4011467678862911
  0.4578958198383402  0.9158432289849845  0.4004097356602116
  0.5828527181340903  0.0404792598300212  0.4001821477009084
  0.5833170411435090  0.1661392928136446  0.4000491093721188
  0.5842122875719908  0.2915707393222481  0.4004463007865017
  0.5860728732127324  0.4169468499923404  0.4006301087601530
  0.5867608777389356  0.5422684929667257  0.4017289858765554
  0.5821251697614703  0.6608462771148343  0.4027482048874772
  0.5806137767823391  0.7864720426677209  0.4020016365951991
  0.5823149299197328  0.9142276027938989  0.4008892512340446
  0.7074890911393336  0.0401312814627963  0.4002217194742296
  0.7079708015618417  0.1657303054280948  0.3996633063292152
  0.7085246404119555  0.2911287045041170  0.3996147539462606
  0.7096133532372473  0.4164088263854542  0.3998821862290441
  0.7104763468625397  0.5415307591007866  0.4001007552993264
  0.7095585355101952  0.6662731730676206  0.4009137831037707
  0.7073332198235158  0.7896832149367069  0.4012148332866518
  0.7067583845365413  0.9142360448769821  0.4009154138940941
  0.8324996005361095  0.0405093775401573  0.4002030915310162
  0.8326527101940354  0.1657352098497225  0.3996628308156589
  0.8329184012585841  0.2909929166975297  0.3993458157034342
  0.8335687518953764  0.4163453089582370  0.3994157098822296
  0.8343080291069873  0.5417990746041140  0.3995537078627777
  0.8344402924688409  0.6670178354277992  0.3999454017336693
  0.8337490992548098  0.7917361784745915  0.4004002952909140
  0.8328517620125490  0.9159031143368302  0.4004812255973029
  0.9583867505711053  0.0417917636519461  0.4002435207688773
  0.9577110301556281  0.1661760487185740  0.3999784549494289
  0.9574665815910254  0.2911668041958039  0.3995307042941703
  0.9576057324274289  0.4163476085154571  0.3993651563144942
  0.9583083923482471  0.5417738459748851  0.3993807995145753
  0.9588498074614613  0.6671856981709615  0.3993419706799233
  0.9589889348404063  0.7924618089432763  0.3996755621001642
  0.9588662741478543  0.9173837297662893  0.4001476216385031
  0.4096107141507300  0.5803548496987971  0.4041542468554272
  0.5455021601391563  0.5806172234236449  0.4037375704275091
  0.3291984373805401  0.4195418215558664  0.4037503126005718
  0.4648889091189914  0.4192297680924874  0.4034286247934154
  0.4963082280402648  0.4944782231350648  0.5046605577528829
  0.4274411432997748  0.4977005849524743  0.4894759920702124
 
  0.00000000E+00  0.00000000E+00  0.00000000E+00
  0.00000000E+00  0.00000000E+00  0.00000000E+00
  0.00000000E+00  0.00000000E+00  0.00000000E+00
  0.00000000E+00  0.00000000E+00  0.00000000E+00
  0.00000000E+00  0.00000000E+00  0.00000000E+00
  0.00000000E+00  0.00000000E+00  0.00000000E+00
  0.00000000E+00  0.00000000E+00  0.00000000E+00
  0.00000000E+00  0.00000000E+00  0.00000000E+00
  0.00000000E+00  0.00000000E+00  0.00000000E+00
  0.00000000E+00  0.00000000E+00  0.00000000E+00
  0.00000000E+00  0.00000000E+00  0.00000000E+00
  0.00000000E+00  0.00000000E+00  0.00000000E+00
  0.00000000E+00  0.00000000E+00  0.00000000E+00
  0.00000000E+00  0.00000000E+00  0.00000000E+00
  0.00000000E+00  0.00000000E+00  0.00000000E+00
  0.00000000E+00  0.00000000E+00  0.00000000E+00
  0.00000000E+00  0.00000000E+00  0.00000000E+00
  0.00000000E+00  0.00000000E+00  0.00000000E+00
  0.00000000E+00  0.00000000E+00  0.00000000E+00
  0.00000000E+00  0.00000000E+00  0.00000000E+00
  0.00000000E+00  0.00000000E+00  0.00000000E+00
  0.00000000E+00  0.00000000E+00  0.00000000E+00
  0.00000000E+00  0.00000000E+00  0.00000000E+00
  0.00000000E+00  0.00000000E+00  0.00000000E+00
  0.00000000E+00  0.00000000E+00  0.00000000E+00
  0.00000000E+00  0.00000000E+00  0.00000000E+00
  0.00000000E+00  0.00000000E+00  0.00000000E+00
  0.00000000E+00  0.00000000E+00  0.00000000E+00
  0.00000000E+00  0.00000000E+00  0.00000000E+00
  0.00000000E+00  0.00000000E+00  0.00000000E+00
  0.00000000E+00  0.00000000E+00  0.00000000E+00
  0.00000000E+00  0.00000000E+00  0.00000000E+00
  0.00000000E+00  0.00000000E+00  0.00000000E+00
  0.00000000E+00  0.00000000E+00  0.00000000E+00
  0.00000000E+00  0.00000000E+00  0.00000000E+00
  0.00000000E+00  0.00000000E+00  0.00000000E+00
  0.00000000E+00  0.00000000E+00  0.00000000E+00
  0.00000000E+00  0.00000000E+00  0.00000000E+00
  0.00000000E+00  0.00000000E+00  0.00000000E+00
  0.00000000E+00  0.00000000E+00  0.00000000E+00
  0.00000000E+00  0.00000000E+00  0.00000000E+00
  0.00000000E+00  0.00000000E+00  0.00000000E+00
  0.00000000E+00  0.00000000E+00  0.00000000E+00
  0.00000000E+00  0.00000000E+00  0.00000000E+00
  0.00000000E+00  0.00000000E+00  0.00000000E+00
  0.00000000E+00  0.00000000E+00  0.00000000E+00
  0.00000000E+00  0.00000000E+00  0.00000000E+00
  0.00000000E+00  0.00000000E+00  0.00000000E+00
  0.00000000E+00  0.00000000E+00  0.00000000E+00
  0.00000000E+00  0.00000000E+00  0.00000000E+00
  0.00000000E+00  0.00000000E+00  0.00000000E+00
  0.00000000E+00  0.00000000E+00  0.00000000E+00
  0.00000000E+00  0.00000000E+00  0.00000000E+00
  0.00000000E+00  0.00000000E+00  0.00000000E+00
  0.00000000E+00  0.00000000E+00  0.00000000E+00
  0.00000000E+00  0.00000000E+00  0.00000000E+00
  0.00000000E+00  0.00000000E+00  0.00000000E+00
  0.00000000E+00  0.00000000E+00  0.00000000E+00
  0.00000000E+00  0.00000000E+00  0.00000000E+00
  0.00000000E+00  0.00000000E+00  0.00000000E+00
  0.00000000E+00  0.00000000E+00  0.00000000E+00
  0.00000000E+00  0.00000000E+00  0.00000000E+00
  0.00000000E+00  0.00000000E+00  0.00000000E+00
  0.00000000E+00  0.00000000E+00  0.00000000E+00
  0.00000000E+00  0.00000000E+00  0.00000000E+00
  0.00000000E+00  0.00000000E+00  0.00000000E+00
  0.00000000E+00  0.00000000E+00  0.00000000E+00
  0.00000000E+00  0.00000000E+00  0.00000000E+00
  0.00000000E+00  0.00000000E+00  0.00000000E+00
  0.00000000E+00  0.00000000E+00  0.00000000E+00
  0.00000000E+00  0.00000000E+00  0.00000000E+00
  0.00000000E+00  0.00000000E+00  0.00000000E+00
  0.00000000E+00  0.00000000E+00  0.00000000E+00
  0.00000000E+00  0.00000000E+00  0.00000000E+00
  0.00000000E+00  0.00000000E+00  0.00000000E+00
  0.00000000E+00  0.00000000E+00  0.00000000E+00
  0.00000000E+00  0.00000000E+00  0.00000000E+00
  0.00000000E+00  0.00000000E+00  0.00000000E+00
  0.00000000E+00  0.00000000E+00  0.00000000E+00
  0.00000000E+00  0.00000000E+00  0.00000000E+00
  0.00000000E+00  0.00000000E+00  0.00000000E+00
  0.00000000E+00  0.00000000E+00  0.00000000E+00
  0.00000000E+00  0.00000000E+00  0.00000000E+00
  0.00000000E+00  0.00000000E+00  0.00000000E+00
  0.00000000E+00  0.00000000E+00  0.00000000E+00
  0.00000000E+00  0.00000000E+00  0.00000000E+00
  0.00000000E+00  0.00000000E+00  0.00000000E+00
  0.00000000E+00  0.00000000E+00  0.00000000E+00
  0.00000000E+00  0.00000000E+00  0.00000000E+00
  0.00000000E+00  0.00000000E+00  0.00000000E+00
  0.00000000E+00  0.00000000E+00  0.00000000E+00
  0.00000000E+00  0.00000000E+00  0.00000000E+00
  0.00000000E+00  0.00000000E+00  0.00000000E+00
  0.00000000E+00  0.00000000E+00  0.00000000E+00
  0.00000000E+00  0.00000000E+00  0.00000000E+00
  0.00000000E+00  0.00000000E+00  0.00000000E+00
  0.00000000E+00  0.00000000E+00  0.00000000E+00
  0.00000000E+00  0.00000000E+00  0.00000000E+00
  0.00000000E+00  0.00000000E+00  0.00000000E+00
  0.00000000E+00  0.00000000E+00  0.00000000E+00
  0.00000000E+00  0.00000000E+00  0.00000000E+00
  0.00000000E+00  0.00000000E+00  0.00000000E+00
  0.00000000E+00  0.00000000E+00  0.00000000E+00
  0.00000000E+00  0.00000000E+00  0.00000000E+00
  0.00000000E+00  0.00000000E+00  0.00000000E+00
  0.00000000E+00  0.00000000E+00  0.00000000E+00
  0.00000000E+00  0.00000000E+00  0.00000000E+00
  0.00000000E+00  0.00000000E+00  0.00000000E+00
  0.00000000E+00  0.00000000E+00  0.00000000E+00
  0.00000000E+00  0.00000000E+00  0.00000000E+00
  0.00000000E+00  0.00000000E+00  0.00000000E+00
  0.00000000E+00  0.00000000E+00  0.00000000E+00
  0.00000000E+00  0.00000000E+00  0.00000000E+00
  0.00000000E+00  0.00000000E+00  0.00000000E+00
  0.00000000E+00  0.00000000E+00  0.00000000E+00
  0.00000000E+00  0.00000000E+00  0.00000000E+00
  0.00000000E+00  0.00000000E+00  0.00000000E+00
  0.00000000E+00  0.00000000E+00  0.00000000E+00
  0.00000000E+00  0.00000000E+00  0.00000000E+00
  0.00000000E+00  0.00000000E+00  0.00000000E+00
  0.00000000E+00  0.00000000E+00  0.00000000E+00
  0.00000000E+00  0.00000000E+00  0.00000000E+00
  0.00000000E+00  0.00000000E+00  0.00000000E+00
  0.00000000E+00  0.00000000E+00  0.00000000E+00
  0.00000000E+00  0.00000000E+00  0.00000000E+00
  0.00000000E+00  0.00000000E+00  0.00000000E+00
  0.00000000E+00  0.00000000E+00  0.00000000E+00
  0.00000000E+00  0.00000000E+00  0.00000000E+00
  0.00000000E+00  0.00000000E+00  0.00000000E+00
  0.00000000E+00  0.00000000E+00  0.00000000E+00
