H1 Os1 C122 N4                          
   1.00000000000000     
    19.8538394792719046   -0.0000564535411520   -0.0159171348180611
    -9.9269682968783428   17.0218206306272251   -0.0016466519801951
    -0.0239218556584082   -0.0168114091320293   29.7750624204825876
   H    Os   C    N 
     1     1   122     4
Direct
  0.4407734811900221  0.5054461583083508  0.4707263855308808
  0.4375922950983870  0.5000708333807035  0.4169151917175874
  0.0421204996408855  0.0843125475527427  0.3997930412757276
  0.0406981274490431  0.2080368618354262  0.3998555496722226
  0.0396496860483618  0.3327269505080461  0.3992935072850918
  0.0397578351452327  0.4581708125949577  0.3985198668845693
  0.0411137871948167  0.5839700821833842  0.3984856176388325
  0.0423370890531787  0.7096114381026658  0.3989750578343412
  0.0427212789271530  0.8349117106548929  0.3993434029463800
  0.0428126826377689  0.9600524016441973  0.3994632472826989
  0.1685128419538363  0.0864484227370806  0.4007987081929288
  0.1675045036731441  0.2106968587267012  0.4017423653672169
  0.1641924760730566  0.3335178698098187  0.4018879723155827
  0.1626871146098827  0.4585162350108168  0.4002971802052170
  0.1642364611243314  0.5838909654185969  0.3991237887624435
  0.1662415650609054  0.7093404447649759  0.3989939797810828
  0.1672311707269887  0.8349149790981458  0.3993128702421518
  0.1678412051389929  0.9606022223079735  0.3998618557177044
  0.2930110445010272  0.0864470969210403  0.4007802560715161
  0.2946130649118276  0.2141753878787439  0.4033598516306457
  0.2918506566228478  0.3389278017025284  0.4061649746561619
  0.2844968090298001  0.4582963745572774  0.4057596280341306
  0.2868056318235099  0.5832676880092530  0.4023603160421994
  0.2902110484786342  0.7086332151577773  0.4001966878873362
  0.2915961596837160  0.8342244493429106  0.3992755608427562
  0.2923343594579059  0.9600687309214598  0.3994594665332933
  0.4172875373906149  0.0843356377759932  0.3998329221241715
  0.4182391229390880  0.2107121873779320  0.4017596668726847
  0.4221203879122509  0.3389490510474423  0.4061130833848617
  0.4140377989909247  0.7057114523800435  0.4030182400634506
  0.4158521680488218  0.8320907533474630  0.4004050699767234
  0.4166759972250995  0.9582521166642415  0.3993314408216031
  0.5415820703865198  0.0823047688810621  0.3992529106904043
  0.5423917117901176  0.2080597844430252  0.3999255421537332
  0.5443611709184627  0.3335229794906198  0.4018649723786274
  0.5488200008908849  0.4583032143316355  0.4055725552374234
  0.5377791317036258  0.7005148847460113  0.4057640605545506
  0.5400793308408515  0.8294295744764678  0.4020717905095543
  0.5409495157234785  0.9561780489761708  0.3999872551840292
  0.6659386601240987  0.0814062874110806  0.3995841356178942
  0.6666651644645193  0.2070737150779594  0.3992222473745079
  0.6681005696683384  0.3327348108566786  0.3993594114195156
  0.6708265599469574  0.4585059502206558  0.4002785592437958
  0.6714644418568612  0.5832589970159847  0.4022391953608179
  0.6666807790483369  0.7056882222436178  0.4029880129643856
  0.6643968890887513  0.8294300267213566  0.4020330037010251
  0.6653309235936264  0.9555793260856847  0.4005354851978807
  0.7905467325213517  0.0813859871932695  0.3995774270145464
  0.7909560427186275  0.2068565183330084  0.3992711257592444
  0.7918485717924012  0.3324477796626948  0.3988246360722802
  0.7934130872317495  0.4581657208479165  0.3985631166416272
  0.7946495062991210  0.5838780326484098  0.3991753910598533
  0.7934351640766598  0.7086099112805551  0.4002202006651038
  0.7912682295799045  0.8320630362178602  0.4004471942650961
  0.7902926834490767  0.9561661262967504  0.3999905262548010
  0.9157876965260773  0.0822705696563952  0.3992279722812772
  0.9154410756557666  0.2070380286350492  0.3991537432019678
  0.9156486793351153  0.3324400683390829  0.3987934964166445
  0.9166159830825786  0.4582095261114743  0.3983377614997333
  0.9178682251429787  0.5839694522908109  0.3984886974671172
  0.9181225551058707  0.7093127586680364  0.3990659358189851
  0.9176651895258228  0.8341920885846756  0.3993351034029197
  0.9166500436895395  0.9582193855219023  0.3993477221805773
  0.0847893031707317  0.0438497386316308  0.3999553409591950
  0.0837798066823230  0.1679317744228977  0.4003751433219357
  0.0816054090387193  0.2913882701245638  0.4001768620670256
  0.0803730849484390  0.4161443714266684  0.3991071827821525
  0.0815992268581168  0.5418588582397421  0.3985258426795372
  0.0832197482398539  0.6675907643648303  0.3987933968860624
  0.0841074456706072  0.7931669740602002  0.3992619498825741
  0.0845382464003998  0.9186122872543397  0.3995763290588950
  0.2097598694618541  0.0444385318373096  0.4005097555540623
  0.2106702424135062  0.1705907293060116  0.4020512204484733
  0.2083487552847338  0.2943161465612554  0.4030417264666012
  0.2035718376417063  0.4167923301413391  0.4023677451207606
  0.2042154813237524  0.5415370936000774  0.4003097759949465
  0.2069300806299299  0.6673080444997347  0.3993129873045819
  0.2084090105072806  0.7929867908126669  0.3991567540575758
  0.2091621462683045  0.9186255278601114  0.3995636718981532
  0.3341328978062735  0.0438516184981279  0.3999641641348114
  0.3349721116587180  0.1705883893017907  0.4020291990030141
  0.3372856783912759  0.2995211473973620  0.4058388663416875
  0.3262666742384672  0.5417700886120720  0.4056832202945105
  0.3306864573266880  0.6665184626348527  0.4018789398794917
  0.3326661814232850  0.7919908906949825  0.3998851063910961
  0.3335223612276993  0.9177434025133530  0.3992339803601041
  0.4584303985792105  0.0417881027574781  0.3993396440218707
  0.4592095186419785  0.1679583911137406  0.4004342986288172
  0.4610005087195926  0.2943329617130837  0.4030339030238893
  0.4529362998096952  0.6611074064665193  0.4060769051902677
  0.4568171366370901  0.7893306338102952  0.4017620327049696
  0.4578159062759095  0.9157040293850222  0.3998253214575339
  0.5827671656667072  0.0399631201586433  0.3994764403031358
  0.5834752302801437  0.1658233600215110  0.3993254460451565
  0.5848205151659438  0.2914128094618906  0.4002186979124593
  0.5882388156730154  0.4167942539518480  0.4022505513920420
  0.5905229068240646  0.5417585157005929  0.4054925843065760
  0.5831964722778401  0.6610843197733145  0.4060141737733442
  0.5804450140942524  0.7858409162822032  0.4033428685482207
  0.5820689257293401  0.9135720514746990  0.4008333831493705
  0.7072475837269272  0.0394095501288563  0.3998788734207692
  0.7078225876485518  0.1651043136478877  0.3993464551858671
  0.7088186047791210  0.2907065671872237  0.3990606525328849
  0.7107830949536866  0.4161492343243653  0.3991597456854544
  0.7123362274655148  0.5415379165992992  0.4002938576777343
  0.7108598478904973  0.6665066851811533  0.4018405868201935
  0.7075397542594505  0.7893117400043279  0.4017490928366840
  0.7065744909624995  0.9135681478857723  0.4008082394164240
  0.8322786257575728  0.0399459350252479  0.3994732948697255
  0.8323358643198292  0.1650965793711300  0.3993219801275347
  0.8327424340126733  0.2904115882474866  0.3989810011732486
  0.8339107767771602  0.4160546501155228  0.3984821176456474
  0.8352612102782465  0.5418634350757722  0.3985712020200285
  0.8353848664345223  0.6672952220297435  0.3993725425835699
  0.8343530850309790  0.7919663126910160  0.3999351173514156
  0.8329604598889355  0.9156747065334722  0.3998575696471884
  0.9584377869737414  0.0417565593800604  0.3993173069405108
  0.9573881498732407  0.1657852734308562  0.3992582369844713
  0.9569197530807410  0.2906715041204448  0.3989845231324572
  0.9571562630857662  0.4160512625061032  0.3984804720371642
  0.9584141767983574  0.5418121263143741  0.3983407375839817
  0.9594167563151570  0.6675811854909232  0.3988282404718852
  0.9596078699314743  0.7929492158134123  0.3992241474811417
  0.9592926764504675  0.9177139161482942  0.3992543331876441
  0.4070448788834142  0.5800656875401874  0.4093688311622584
  0.5480546193391362  0.5800438728312903  0.4092196996355438
  0.3269420685768654  0.4199782717906104  0.4095800475413242
  0.4680923419778815  0.4199981167289569  0.4094367423182010
 
  0.00000000E+00  0.00000000E+00  0.00000000E+00
  0.00000000E+00  0.00000000E+00  0.00000000E+00
  0.00000000E+00  0.00000000E+00  0.00000000E+00
  0.00000000E+00  0.00000000E+00  0.00000000E+00
  0.00000000E+00  0.00000000E+00  0.00000000E+00
  0.00000000E+00  0.00000000E+00  0.00000000E+00
  0.00000000E+00  0.00000000E+00  0.00000000E+00
  0.00000000E+00  0.00000000E+00  0.00000000E+00
  0.00000000E+00  0.00000000E+00  0.00000000E+00
  0.00000000E+00  0.00000000E+00  0.00000000E+00
  0.00000000E+00  0.00000000E+00  0.00000000E+00
  0.00000000E+00  0.00000000E+00  0.00000000E+00
  0.00000000E+00  0.00000000E+00  0.00000000E+00
  0.00000000E+00  0.00000000E+00  0.00000000E+00
  0.00000000E+00  0.00000000E+00  0.00000000E+00
  0.00000000E+00  0.00000000E+00  0.00000000E+00
  0.00000000E+00  0.00000000E+00  0.00000000E+00
  0.00000000E+00  0.00000000E+00  0.00000000E+00
  0.00000000E+00  0.00000000E+00  0.00000000E+00
  0.00000000E+00  0.00000000E+00  0.00000000E+00
  0.00000000E+00  0.00000000E+00  0.00000000E+00
  0.00000000E+00  0.00000000E+00  0.00000000E+00
  0.00000000E+00  0.00000000E+00  0.00000000E+00
  0.00000000E+00  0.00000000E+00  0.00000000E+00
  0.00000000E+00  0.00000000E+00  0.00000000E+00
  0.00000000E+00  0.00000000E+00  0.00000000E+00
  0.00000000E+00  0.00000000E+00  0.00000000E+00
  0.00000000E+00  0.00000000E+00  0.00000000E+00
  0.00000000E+00  0.00000000E+00  0.00000000E+00
  0.00000000E+00  0.00000000E+00  0.00000000E+00
  0.00000000E+00  0.00000000E+00  0.00000000E+00
  0.00000000E+00  0.00000000E+00  0.00000000E+00
  0.00000000E+00  0.00000000E+00  0.00000000E+00
  0.00000000E+00  0.00000000E+00  0.00000000E+00
  0.00000000E+00  0.00000000E+00  0.00000000E+00
  0.00000000E+00  0.00000000E+00  0.00000000E+00
  0.00000000E+00  0.00000000E+00  0.00000000E+00
  0.00000000E+00  0.00000000E+00  0.00000000E+00
  0.00000000E+00  0.00000000E+00  0.00000000E+00
  0.00000000E+00  0.00000000E+00  0.00000000E+00
  0.00000000E+00  0.00000000E+00  0.00000000E+00
  0.00000000E+00  0.00000000E+00  0.00000000E+00
  0.00000000E+00  0.00000000E+00  0.00000000E+00
  0.00000000E+00  0.00000000E+00  0.00000000E+00
  0.00000000E+00  0.00000000E+00  0.00000000E+00
  0.00000000E+00  0.00000000E+00  0.00000000E+00
  0.00000000E+00  0.00000000E+00  0.00000000E+00
  0.00000000E+00  0.00000000E+00  0.00000000E+00
  0.00000000E+00  0.00000000E+00  0.00000000E+00
  0.00000000E+00  0.00000000E+00  0.00000000E+00
  0.00000000E+00  0.00000000E+00  0.00000000E+00
  0.00000000E+00  0.00000000E+00  0.00000000E+00
  0.00000000E+00  0.00000000E+00  0.00000000E+00
  0.00000000E+00  0.00000000E+00  0.00000000E+00
  0.00000000E+00  0.00000000E+00  0.00000000E+00
  0.00000000E+00  0.00000000E+00  0.00000000E+00
  0.00000000E+00  0.00000000E+00  0.00000000E+00
  0.00000000E+00  0.00000000E+00  0.00000000E+00
  0.00000000E+00  0.00000000E+00  0.00000000E+00
  0.00000000E+00  0.00000000E+00  0.00000000E+00
  0.00000000E+00  0.00000000E+00  0.00000000E+00
  0.00000000E+00  0.00000000E+00  0.00000000E+00
  0.00000000E+00  0.00000000E+00  0.00000000E+00
  0.00000000E+00  0.00000000E+00  0.00000000E+00
  0.00000000E+00  0.00000000E+00  0.00000000E+00
  0.00000000E+00  0.00000000E+00  0.00000000E+00
  0.00000000E+00  0.00000000E+00  0.00000000E+00
  0.00000000E+00  0.00000000E+00  0.00000000E+00
  0.00000000E+00  0.00000000E+00  0.00000000E+00
  0.00000000E+00  0.00000000E+00  0.00000000E+00
  0.00000000E+00  0.00000000E+00  0.00000000E+00
  0.00000000E+00  0.00000000E+00  0.00000000E+00
  0.00000000E+00  0.00000000E+00  0.00000000E+00
  0.00000000E+00  0.00000000E+00  0.00000000E+00
  0.00000000E+00  0.00000000E+00  0.00000000E+00
  0.00000000E+00  0.00000000E+00  0.00000000E+00
  0.00000000E+00  0.00000000E+00  0.00000000E+00
  0.00000000E+00  0.00000000E+00  0.00000000E+00
  0.00000000E+00  0.00000000E+00  0.00000000E+00
  0.00000000E+00  0.00000000E+00  0.00000000E+00
  0.00000000E+00  0.00000000E+00  0.00000000E+00
  0.00000000E+00  0.00000000E+00  0.00000000E+00
  0.00000000E+00  0.00000000E+00  0.00000000E+00
  0.00000000E+00  0.00000000E+00  0.00000000E+00
  0.00000000E+00  0.00000000E+00  0.00000000E+00
  0.00000000E+00  0.00000000E+00  0.00000000E+00
  0.00000000E+00  0.00000000E+00  0.00000000E+00
  0.00000000E+00  0.00000000E+00  0.00000000E+00
  0.00000000E+00  0.00000000E+00  0.00000000E+00
  0.00000000E+00  0.00000000E+00  0.00000000E+00
  0.00000000E+00  0.00000000E+00  0.00000000E+00
  0.00000000E+00  0.00000000E+00  0.00000000E+00
  0.00000000E+00  0.00000000E+00  0.00000000E+00
  0.00000000E+00  0.00000000E+00  0.00000000E+00
  0.00000000E+00  0.00000000E+00  0.00000000E+00
  0.00000000E+00  0.00000000E+00  0.00000000E+00
  0.00000000E+00  0.00000000E+00  0.00000000E+00
  0.00000000E+00  0.00000000E+00  0.00000000E+00
  0.00000000E+00  0.00000000E+00  0.00000000E+00
  0.00000000E+00  0.00000000E+00  0.00000000E+00
  0.00000000E+00  0.00000000E+00  0.00000000E+00
  0.00000000E+00  0.00000000E+00  0.00000000E+00
  0.00000000E+00  0.00000000E+00  0.00000000E+00
  0.00000000E+00  0.00000000E+00  0.00000000E+00
  0.00000000E+00  0.00000000E+00  0.00000000E+00
  0.00000000E+00  0.00000000E+00  0.00000000E+00
  0.00000000E+00  0.00000000E+00  0.00000000E+00
  0.00000000E+00  0.00000000E+00  0.00000000E+00
  0.00000000E+00  0.00000000E+00  0.00000000E+00
  0.00000000E+00  0.00000000E+00  0.00000000E+00
  0.00000000E+00  0.00000000E+00  0.00000000E+00
  0.00000000E+00  0.00000000E+00  0.00000000E+00
  0.00000000E+00  0.00000000E+00  0.00000000E+00
  0.00000000E+00  0.00000000E+00  0.00000000E+00
  0.00000000E+00  0.00000000E+00  0.00000000E+00
  0.00000000E+00  0.00000000E+00  0.00000000E+00
  0.00000000E+00  0.00000000E+00  0.00000000E+00
  0.00000000E+00  0.00000000E+00  0.00000000E+00
  0.00000000E+00  0.00000000E+00  0.00000000E+00
  0.00000000E+00  0.00000000E+00  0.00000000E+00
  0.00000000E+00  0.00000000E+00  0.00000000E+00
  0.00000000E+00  0.00000000E+00  0.00000000E+00
  0.00000000E+00  0.00000000E+00  0.00000000E+00
  0.00000000E+00  0.00000000E+00  0.00000000E+00
  0.00000000E+00  0.00000000E+00  0.00000000E+00
  0.00000000E+00  0.00000000E+00  0.00000000E+00
  0.00000000E+00  0.00000000E+00  0.00000000E+00
  0.00000000E+00  0.00000000E+00  0.00000000E+00
