Ni1 C124 N2 O1                          
   1.00000000000000     
    19.7977805885068499   -0.0121312804957422    0.0095358402149634
    -9.9095970101190876   17.0361082696477659   -0.0059838472034578
     0.0142936182493997   -0.0020801405739487   29.8448976139731137
   Ni   C    N    O 
     1   124     2     1
Direct
  0.4374775574555718  0.5000095742740890  0.4209620918394535
  0.0422662815307818  0.0842789342339553  0.3999643463147390
  0.0415691498037650  0.2085243634814001  0.3999616373588817
  0.0409116632378027  0.3330641498484792  0.3996300068836376
  0.0407549735447028  0.4583157950628752  0.3994595163830751
  0.0413613462109585  0.5836848919416782  0.3994145300593896
  0.0418483312893589  0.7089989360409855  0.3993882036645221
  0.0421343765552240  0.8342702918852629  0.3996038290920476
  0.0423644901803217  0.9595054598464922  0.3998307498572836
  0.1681483820951222  0.0857798567463307  0.4006545333384464
  0.1680690492837673  0.2106963251058084  0.4013587550937394
  0.1662338287411705  0.3342604263496429  0.4014264724321971
  0.1646535213156957  0.4585912138535154  0.4002931682124706
  0.1654463636369366  0.5837260361135835  0.4001052570795410
  0.1663178646955658  0.7090134195807386  0.3997111473128148
  0.1668819242846215  0.8343658071102690  0.3995162522946061
  0.1674114273553561  0.9599274230734043  0.3999002845978357
  0.2927092648693147  0.0855170238593877  0.4006362928670003
  0.2944848467470272  0.2128476888651734  0.4024555542971195
  0.2940464735430091  0.3385774018585738  0.4053321962873903
  0.2888065820641795  0.4596327361633321  0.4033547633601685
  0.2892903301464426  0.5841322809768497  0.4012098064411536
  0.2906619899725564  0.7088176245155965  0.4005904400829500
  0.2915487040223731  0.8339861604080850  0.3998383621997858
  0.2920020784857092  0.9594788169764228  0.3997483524786372
  0.4171017256343756  0.0841174297980567  0.4001454688994958
  0.4177966938760961  0.2103146539391888  0.4014367191719815
  0.4210795027552119  0.3389710996926327  0.4033721092716767
  0.4147346305322377  0.7059101720389196  0.4019255240127886
  0.4160459092033281  0.8323100202714585  0.4006456752581921
  0.4165965776843703  0.9582196833833060  0.3997696783900045
  0.5415853849252046  0.0825711745940379  0.3997353163186653
  0.5421406726742801  0.2079771266336037  0.4004079132727683
  0.5432402671923972  0.3331028481111684  0.4011284316204610
  0.5444303739555130  0.4567785757317044  0.4022857364791982
  0.5435228531300127  0.5788582707409645  0.4078276164064881
  0.5381691018158296  0.7027768733419957  0.4043014792027074
  0.5402392213398447  0.8305710196813120  0.4014673626673085
  0.5411541261483147  0.9568657782821953  0.4001126271259542
  0.6662335010991152  0.0820269027844106  0.3996690899770469
  0.6667130744431087  0.2074577567551023  0.3996180496969478
  0.6674508558306269  0.3327651376307678  0.4001358790999032
  0.6686793525531968  0.4580915412630465  0.4004480540234803
  0.6688737555589140  0.5826393308303932  0.4012173073332588
  0.6653407296757461  0.7055335976821080  0.4025436485330165
  0.6646119097528783  0.8301937293339648  0.4015687578598767
  0.6656382046335050  0.9563296597274417  0.4003805096044563
  0.7910258057356730  0.0820839500588891  0.3997196052948833
  0.7913498658971849  0.2073898356831838  0.3994486567013301
  0.7918558398829283  0.3327653937208402  0.3994063932975820
  0.7925458703407280  0.4581515192224497  0.3995617574187160
  0.7930540697571411  0.5834089319520307  0.3996347237992739
  0.7921299412074777  0.7081057109545008  0.4001888813704043
  0.7908232958208373  0.8320745851447113  0.4002795288416549
  0.7905735884814380  0.9567255358388344  0.4000784545779144
  0.9162637814824782  0.0827594367623941  0.3996894071265534
  0.9161843031226193  0.2076464108273962  0.3995469837876195
  0.9162804416404877  0.3328209951060374  0.3993453080475421
  0.9166229773030632  0.4581855713121409  0.3992752316411707
  0.9172108167818838  0.5836087254134067  0.3993170947201220
  0.9172184749176528  0.7088325098310272  0.3994626497802898
  0.9169478659411857  0.8336615658918195  0.3996830746484208
  0.9165143369265231  0.9581777432234651  0.3997517357201692
  0.0844319347037299  0.0432781443275584  0.4001136862748179
  0.0841893775318515  0.1679262902306099  0.4002652637619295
  0.0828730176145847  0.2918867578314490  0.4001943760419783
  0.0819416223564232  0.4165841260507364  0.3996736982658861
  0.0824488553473484  0.5418409659872304  0.3996113917399581
  0.0831488868580554  0.6672394569732464  0.3994536804577356
  0.0836638059195170  0.7926145799100758  0.3994938079547246
  0.0839841463595936  0.9179136138925863  0.3997704667423044
  0.2093665647598795  0.0436704367230417  0.4004079193692365
  0.2103868333844207  0.1697988161722845  0.4015771465912455
  0.2096606568858438  0.2944655510395464  0.4025411249792254
  0.2061197781321058  0.4173533695504144  0.4012844423303581
  0.2063145969019995  0.5419061677029050  0.4005316540453585
  0.2075451446642712  0.6672405933536878  0.4001648407472395
  0.2082877261724617  0.7925388746208406  0.3996268252027656
  0.2087732223021437  0.9179712044025664  0.3996731619095973
  0.3338462956824796  0.0431311940597083  0.4001222610323311
  0.3347619905283106  0.1694284118749458  0.4014839405836036
  0.3368252564221639  0.2972240811528462  0.4042777747370482
  0.3314578640946821  0.4211433271611919  0.4078640334470694
  0.3305661843346346  0.5432220814152867  0.4023639950425119
  0.3317570350033315  0.6669004574550550  0.4011595311753764
  0.3328627685616932  0.7920180654075910  0.4003870887221750
  0.3334109223601354  0.9174175960727172  0.3997134028116270
  0.4583940341056264  0.0417641222564572  0.3997864585934514
  0.4589517629915499  0.1676853437024780  0.4006715926323698
  0.4602575892595507  0.2940853420045654  0.4019058685419468
  0.4539135962532045  0.6610251949952793  0.4034007446579999
  0.4572021182301793  0.7896796787758450  0.4014257141526452
  0.4578974786994489  0.9158774531815516  0.4001202172243486
  0.5830012645032796  0.0405144537799249  0.3997551659991987
  0.5834504755808084  0.1660026513312412  0.3998589293379880
  0.5843271297236884  0.2911751374032005  0.4005868320353078
  0.5857023843681722  0.4158645483751334  0.4011296677414043
  0.5861818977992337  0.5403674999838872  0.4032785392903540
  0.5809499471567425  0.6614259807486647  0.4053347003497990
  0.5805107640011187  0.7871497111797715  0.4024586084966760
  0.5822896971456648  0.9144790860848323  0.4006182258796675
  0.7075950184114435  0.0400696652203247  0.3998687631487371
  0.7081291717467435  0.1656351138399593  0.3994972101594378
  0.7086812225685846  0.2909864376652124  0.3996743368626757
  0.7095469252812416  0.4162716714654481  0.4000454027008455
  0.7103445361910190  0.5414089644771607  0.4002200556339245
  0.7087648938419693  0.6657346600533561  0.4014017489611546
  0.7069424470802377  0.7893062004329892  0.4013649208248573
  0.7068539458863853  0.9142150951486759  0.4006240257810626
  0.8326485045265223  0.0404942271226470  0.3997818039912333
  0.8328774788354271  0.1657321989978481  0.3995490348139487
  0.8331583985025477  0.2910034928883026  0.3993485563423812
  0.8336363599936076  0.4163178906229729  0.3993715737003873
  0.8342430232781205  0.5416810685369103  0.3994260220857129
  0.8340910533631763  0.6669311374121859  0.3996240046632916
  0.8334410386127868  0.7914693722989041  0.3999803695207935
  0.8327409424736376  0.9157180760623500  0.3999579387143119
  0.9584945962615306  0.0418208743136128  0.3997437153949401
  0.9580646030157526  0.1663353734410732  0.3996517153943548
  0.9577879524214477  0.2911634462813925  0.3994346242275796
  0.9577910428357090  0.4163888358707549  0.3993161149788657
  0.9583803328578302  0.5418191449385424  0.3992894320860583
  0.9587254872020832  0.6671839563993698  0.3993714878493586
  0.9588274616903654  0.7923533333214339  0.3995910460323651
  0.9587450020576621  0.9172400860452651  0.3997258959251882
  0.4102294244461220  0.5799063822324592  0.4031540757730495
  0.4647614816456644  0.4200935237252870  0.4031154247261810
  0.4373775275517823  0.5001349626517760  0.4789189299798176
 
  0.00000000E+00  0.00000000E+00  0.00000000E+00
  0.00000000E+00  0.00000000E+00  0.00000000E+00
  0.00000000E+00  0.00000000E+00  0.00000000E+00
  0.00000000E+00  0.00000000E+00  0.00000000E+00
  0.00000000E+00  0.00000000E+00  0.00000000E+00
  0.00000000E+00  0.00000000E+00  0.00000000E+00
  0.00000000E+00  0.00000000E+00  0.00000000E+00
  0.00000000E+00  0.00000000E+00  0.00000000E+00
  0.00000000E+00  0.00000000E+00  0.00000000E+00
  0.00000000E+00  0.00000000E+00  0.00000000E+00
  0.00000000E+00  0.00000000E+00  0.00000000E+00
  0.00000000E+00  0.00000000E+00  0.00000000E+00
  0.00000000E+00  0.00000000E+00  0.00000000E+00
  0.00000000E+00  0.00000000E+00  0.00000000E+00
  0.00000000E+00  0.00000000E+00  0.00000000E+00
  0.00000000E+00  0.00000000E+00  0.00000000E+00
  0.00000000E+00  0.00000000E+00  0.00000000E+00
  0.00000000E+00  0.00000000E+00  0.00000000E+00
  0.00000000E+00  0.00000000E+00  0.00000000E+00
  0.00000000E+00  0.00000000E+00  0.00000000E+00
  0.00000000E+00  0.00000000E+00  0.00000000E+00
  0.00000000E+00  0.00000000E+00  0.00000000E+00
  0.00000000E+00  0.00000000E+00  0.00000000E+00
  0.00000000E+00  0.00000000E+00  0.00000000E+00
  0.00000000E+00  0.00000000E+00  0.00000000E+00
  0.00000000E+00  0.00000000E+00  0.00000000E+00
  0.00000000E+00  0.00000000E+00  0.00000000E+00
  0.00000000E+00  0.00000000E+00  0.00000000E+00
  0.00000000E+00  0.00000000E+00  0.00000000E+00
  0.00000000E+00  0.00000000E+00  0.00000000E+00
  0.00000000E+00  0.00000000E+00  0.00000000E+00
  0.00000000E+00  0.00000000E+00  0.00000000E+00
  0.00000000E+00  0.00000000E+00  0.00000000E+00
  0.00000000E+00  0.00000000E+00  0.00000000E+00
  0.00000000E+00  0.00000000E+00  0.00000000E+00
  0.00000000E+00  0.00000000E+00  0.00000000E+00
  0.00000000E+00  0.00000000E+00  0.00000000E+00
  0.00000000E+00  0.00000000E+00  0.00000000E+00
  0.00000000E+00  0.00000000E+00  0.00000000E+00
  0.00000000E+00  0.00000000E+00  0.00000000E+00
  0.00000000E+00  0.00000000E+00  0.00000000E+00
  0.00000000E+00  0.00000000E+00  0.00000000E+00
  0.00000000E+00  0.00000000E+00  0.00000000E+00
  0.00000000E+00  0.00000000E+00  0.00000000E+00
  0.00000000E+00  0.00000000E+00  0.00000000E+00
  0.00000000E+00  0.00000000E+00  0.00000000E+00
  0.00000000E+00  0.00000000E+00  0.00000000E+00
  0.00000000E+00  0.00000000E+00  0.00000000E+00
  0.00000000E+00  0.00000000E+00  0.00000000E+00
  0.00000000E+00  0.00000000E+00  0.00000000E+00
  0.00000000E+00  0.00000000E+00  0.00000000E+00
  0.00000000E+00  0.00000000E+00  0.00000000E+00
  0.00000000E+00  0.00000000E+00  0.00000000E+00
  0.00000000E+00  0.00000000E+00  0.00000000E+00
  0.00000000E+00  0.00000000E+00  0.00000000E+00
  0.00000000E+00  0.00000000E+00  0.00000000E+00
  0.00000000E+00  0.00000000E+00  0.00000000E+00
  0.00000000E+00  0.00000000E+00  0.00000000E+00
  0.00000000E+00  0.00000000E+00  0.00000000E+00
  0.00000000E+00  0.00000000E+00  0.00000000E+00
  0.00000000E+00  0.00000000E+00  0.00000000E+00
  0.00000000E+00  0.00000000E+00  0.00000000E+00
  0.00000000E+00  0.00000000E+00  0.00000000E+00
  0.00000000E+00  0.00000000E+00  0.00000000E+00
  0.00000000E+00  0.00000000E+00  0.00000000E+00
  0.00000000E+00  0.00000000E+00  0.00000000E+00
  0.00000000E+00  0.00000000E+00  0.00000000E+00
  0.00000000E+00  0.00000000E+00  0.00000000E+00
  0.00000000E+00  0.00000000E+00  0.00000000E+00
  0.00000000E+00  0.00000000E+00  0.00000000E+00
  0.00000000E+00  0.00000000E+00  0.00000000E+00
  0.00000000E+00  0.00000000E+00  0.00000000E+00
  0.00000000E+00  0.00000000E+00  0.00000000E+00
  0.00000000E+00  0.00000000E+00  0.00000000E+00
  0.00000000E+00  0.00000000E+00  0.00000000E+00
  0.00000000E+00  0.00000000E+00  0.00000000E+00
  0.00000000E+00  0.00000000E+00  0.00000000E+00
  0.00000000E+00  0.00000000E+00  0.00000000E+00
  0.00000000E+00  0.00000000E+00  0.00000000E+00
  0.00000000E+00  0.00000000E+00  0.00000000E+00
  0.00000000E+00  0.00000000E+00  0.00000000E+00
  0.00000000E+00  0.00000000E+00  0.00000000E+00
  0.00000000E+00  0.00000000E+00  0.00000000E+00
  0.00000000E+00  0.00000000E+00  0.00000000E+00
  0.00000000E+00  0.00000000E+00  0.00000000E+00
  0.00000000E+00  0.00000000E+00  0.00000000E+00
  0.00000000E+00  0.00000000E+00  0.00000000E+00
  0.00000000E+00  0.00000000E+00  0.00000000E+00
  0.00000000E+00  0.00000000E+00  0.00000000E+00
  0.00000000E+00  0.00000000E+00  0.00000000E+00
  0.00000000E+00  0.00000000E+00  0.00000000E+00
  0.00000000E+00  0.00000000E+00  0.00000000E+00
  0.00000000E+00  0.00000000E+00  0.00000000E+00
  0.00000000E+00  0.00000000E+00  0.00000000E+00
  0.00000000E+00  0.00000000E+00  0.00000000E+00
  0.00000000E+00  0.00000000E+00  0.00000000E+00
  0.00000000E+00  0.00000000E+00  0.00000000E+00
  0.00000000E+00  0.00000000E+00  0.00000000E+00
  0.00000000E+00  0.00000000E+00  0.00000000E+00
  0.00000000E+00  0.00000000E+00  0.00000000E+00
  0.00000000E+00  0.00000000E+00  0.00000000E+00
  0.00000000E+00  0.00000000E+00  0.00000000E+00
  0.00000000E+00  0.00000000E+00  0.00000000E+00
  0.00000000E+00  0.00000000E+00  0.00000000E+00
  0.00000000E+00  0.00000000E+00  0.00000000E+00
  0.00000000E+00  0.00000000E+00  0.00000000E+00
  0.00000000E+00  0.00000000E+00  0.00000000E+00
  0.00000000E+00  0.00000000E+00  0.00000000E+00
  0.00000000E+00  0.00000000E+00  0.00000000E+00
  0.00000000E+00  0.00000000E+00  0.00000000E+00
  0.00000000E+00  0.00000000E+00  0.00000000E+00
  0.00000000E+00  0.00000000E+00  0.00000000E+00
  0.00000000E+00  0.00000000E+00  0.00000000E+00
  0.00000000E+00  0.00000000E+00  0.00000000E+00
  0.00000000E+00  0.00000000E+00  0.00000000E+00
  0.00000000E+00  0.00000000E+00  0.00000000E+00
  0.00000000E+00  0.00000000E+00  0.00000000E+00
  0.00000000E+00  0.00000000E+00  0.00000000E+00
  0.00000000E+00  0.00000000E+00  0.00000000E+00
  0.00000000E+00  0.00000000E+00  0.00000000E+00
  0.00000000E+00  0.00000000E+00  0.00000000E+00
  0.00000000E+00  0.00000000E+00  0.00000000E+00
  0.00000000E+00  0.00000000E+00  0.00000000E+00
  0.00000000E+00  0.00000000E+00  0.00000000E+00
  0.00000000E+00  0.00000000E+00  0.00000000E+00
  0.00000000E+00  0.00000000E+00  0.00000000E+00
  0.00000000E+00  0.00000000E+00  0.00000000E+00
  0.00000000E+00  0.00000000E+00  0.00000000E+00
