Cu1 H1 C124 N2                          
   1.00000000000000     
    19.8096004546101803   -0.0162488724145973    0.0119390552338133
    -9.9191609596532082   17.0408074736160451   -0.0072255167669031
     0.0179554946583560   -0.0022000447738005   29.8224775475624391
   Cu   H    C    N 
     1     1   124     2
Direct
  0.4374854362298440  0.5000031020848144  0.4139814289022453
  0.4374469397764667  0.4999668826502440  0.4653656527987905
  0.0422952363392384  0.0843836512949974  0.4000416405189351
  0.0414714240758671  0.2085213774888496  0.4003748894335606
  0.0407158480240133  0.3330421376161258  0.3997961690899261
  0.0405686974513619  0.4583548832054151  0.3993300109881581
  0.0412252172410312  0.5838141622597925  0.3993061789765810
  0.0418975569781370  0.7092285017298047  0.3993619020693189
  0.0422357449653226  0.8345451497491155  0.3994520062309847
  0.0424696259092549  0.9597374977490162  0.3996452654696865
  0.1682725697622550  0.0860198037947667  0.4008862745149708
  0.1680264937236652  0.2107861100054361  0.4022592795410023
  0.1660275154558638  0.3342806385445202  0.4028065635094454
  0.1643481132349081  0.4586442001083715  0.4006981607488311
  0.1651283753853350  0.5838605222061337  0.4000144774346110
  0.1662014237097655  0.7092192594758540  0.3996964209305603
  0.1668923546709326  0.8346146907098400  0.3995761721695414
  0.1675202919139895  0.9602012308072727  0.3997928195945377
  0.2928228477570590  0.0857067472723632  0.4005592568265434
  0.2946149998072780  0.2130678466211330  0.4029209365213478
  0.2938991626663946  0.3386924772523198  0.4072086606865436
  0.2883291299243236  0.4597807532238182  0.4048872841343819
  0.2887487091442603  0.5843657049893645  0.4017745945080631
  0.2904158249029530  0.7090251362433624  0.4003637321930306
  0.2914440870280104  0.8341732318703582  0.3998161782956755
  0.2920772142368999  0.9596938670032186  0.3997049117526805
  0.4171746971963388  0.0840572161489005  0.4001953054864733
  0.4179307694715251  0.2100607898130636  0.4015511826307525
  0.4214330522166388  0.3385594370424167  0.4025669071246007
  0.4144783713679021  0.7063316693171078  0.4019583372426663
  0.4159272906987801  0.8325117758309701  0.4006955538693920
  0.4165700440473555  0.9582765478296025  0.3998723295747160
  0.5416191432758901  0.0824070899443001  0.3997905592358014
  0.5422836617190053  0.2077979655460946  0.4003184217030925
  0.5435548048018795  0.3328679124954340  0.4011153002729611
  0.5450241150390799  0.4564867476402973  0.4021418865103166
  0.5439289861853946  0.5786017177696727  0.4108468473886207
  0.5379736897859135  0.7025346418447651  0.4047000919093275
  0.5401103802321729  0.8304359125764039  0.4015807335778427
  0.5410578977083255  0.9566903789923907  0.4000560931537944
  0.6661571586675580  0.0817348695711932  0.3996307692484807
  0.6667848571179600  0.2072387975391901  0.3996526593835040
  0.6676575916129972  0.3326089990888914  0.3999997132816944
  0.6691166086992815  0.4579792128795182  0.4008571446444127
  0.6691819446231484  0.5825553602732847  0.4022934020328220
  0.6654092669264858  0.7054677893802667  0.4040210714738327
  0.6645480465624449  0.8299932281502711  0.4022599264729939
  0.6655355703306750  0.9560745994490195  0.4003390625609330
  0.7909147152129797  0.0817726480837636  0.3995566929388353
  0.7912770288329007  0.2070873407175786  0.3994871049574353
  0.7918945295823843  0.3325560393592070  0.3994257840439295
  0.7927590288660085  0.4580673188296726  0.3993984544587596
  0.7932549305531387  0.5833965572590850  0.3997463610682582
  0.7922665966818523  0.7080740310585693  0.4009592298116343
  0.7908687392318829  0.8319842334005914  0.4007952103799601
  0.7904739920144787  0.9564968743620250  0.4000721004253446
  0.9161919144788815  0.0826352325332891  0.3994759378822129
  0.9160573370285114  0.2074691550384776  0.3993452720620697
  0.9161622117785644  0.3326728447698730  0.3991279232619088
  0.9166294440076254  0.4581442312033353  0.3991329979809191
  0.9172723567624966  0.5836695126790759  0.3991028557961690
  0.9173588024480971  0.7089677348740205  0.3992466169838113
  0.9170412115166042  0.8337711212818903  0.3996073762906306
  0.9165376693220246  0.9581797003114150  0.3995309857115952
  0.0845564296726075  0.0435024829439226  0.4001367355428893
  0.0841659044241672  0.1680113343676499  0.4007757792491689
  0.0827283312211941  0.2919201232623025  0.4009616099008671
  0.0817210403880472  0.4166052009118092  0.3997954941933234
  0.0822068069430489  0.5419340326529360  0.3994512935324395
  0.0830914413071157  0.6674148256850556  0.3994463260640672
  0.0837167990168848  0.7928807143060098  0.3995147812754746
  0.0841207552285202  0.9182187278723725  0.3996134904015328
  0.2094961167167788  0.0439234562576843  0.4003681077210166
  0.2104646708614793  0.1700147123262971  0.4022797128291910
  0.2095696276530437  0.2945299179401434  0.4040387937083409
  0.2057978773614875  0.4174450744026531  0.4023871140979529
  0.2058722891713529  0.5420255440538423  0.4009411304496730
  0.2073283969641130  0.6673964630981400  0.3999999661950341
  0.2082113295488846  0.7927528944263152  0.3996517600709011
  0.2088698351375996  0.9182551123954971  0.3996383688731251
  0.3339448725910931  0.0433046231144896  0.4000485136795919
  0.3348856302056445  0.1695701012743758  0.4015714846075649
  0.3370051462988916  0.2974759762130416  0.4046581719334570
  0.3310369002591606  0.4214033599509262  0.4108974482132899
  0.3299632135645585  0.5435340742233695  0.4022915126766107
  0.3314327066205039  0.6671515685869468  0.4011745970055627
  0.3327210026393526  0.7922153257158726  0.4002596352143798
  0.3334068973360464  0.9175961446744028  0.3997629974146255
  0.4584603272163630  0.0417497859377665  0.3998952942228008
  0.4590830821057308  0.1675199727373240  0.4007298374969036
  0.4605024742149985  0.2936931765817054  0.4019040261137068
  0.4535505677108058  0.6614682267273030  0.4026557594330094
  0.4570677273504558  0.7899672679199401  0.4015497913391745
  0.4578362980451594  0.9159610561315645  0.4001664033282780
  0.5829464093843646  0.0402982579521624  0.3997154136981402
  0.5835598440615303  0.1658310214583830  0.3998563170449821
  0.5845735051431401  0.2909925054496135  0.4003816481066027
  0.5862422270988850  0.4156506693176946  0.4016605296215391
  0.5866479305727741  0.5402346961472604  0.4047777935554780
  0.5810637913430384  0.6613112685689703  0.4072107871404830
  0.5803814793301862  0.7869403915123915  0.4029487882172358
  0.5821925893147532  0.9142919327614935  0.4005703978681372
  0.7075114919024835  0.0397878424829541  0.3997571363424295
  0.7080961302423364  0.1653638788040926  0.3995630283875826
  0.7087831368331268  0.2907743608890095  0.3996889635408125
  0.7098485217238123  0.4161452105361994  0.3999576198571612
  0.7106260544842542  0.5413487799391574  0.4006125883437729
  0.7089537428994329  0.6657147130113756  0.4027563513358492
  0.7069844925096950  0.7892160833523028  0.4022670224487642
  0.7067483819900923  0.9139791603420853  0.4008276702216105
  0.8325729008000782  0.0402593339214848  0.3995826576711258
  0.8327787724954724  0.1654388662114126  0.3994118234836293
  0.8331008192137430  0.2907411837394741  0.3993401373651539
  0.8337276358679940  0.4161710580014955  0.3992751023380391
  0.8343806012448377  0.5416325461976558  0.3992853463461956
  0.8342715098898705  0.6669544050093470  0.3997828482847126
  0.8335518520092452  0.7914664071287878  0.4004135501739751
  0.8327538027091340  0.9156211721213188  0.4000096430184716
  0.9585153231963551  0.0418269932761348  0.3995284142293517
  0.9579918998924740  0.1662277201887123  0.3995671710039625
  0.9576496491800069  0.2910328224345489  0.3992376780990741
  0.9576853352347173  0.4163069629459712  0.3991004231563099
  0.9583292324769949  0.5418311918796416  0.3991471167719455
  0.9588276568246545  0.6672971666121511  0.3991502177603289
  0.9589611889290151  0.7925323827208285  0.3993741706755374
  0.9588513086692717  0.9173724816796961  0.3995153489860621
  0.4094824815351281  0.5807184920796726  0.4006124600647559
  0.4655045063024051  0.4193049637936035  0.4004918273843631
 
  0.00000000E+00  0.00000000E+00  0.00000000E+00
  0.00000000E+00  0.00000000E+00  0.00000000E+00
  0.00000000E+00  0.00000000E+00  0.00000000E+00
  0.00000000E+00  0.00000000E+00  0.00000000E+00
  0.00000000E+00  0.00000000E+00  0.00000000E+00
  0.00000000E+00  0.00000000E+00  0.00000000E+00
  0.00000000E+00  0.00000000E+00  0.00000000E+00
  0.00000000E+00  0.00000000E+00  0.00000000E+00
  0.00000000E+00  0.00000000E+00  0.00000000E+00
  0.00000000E+00  0.00000000E+00  0.00000000E+00
  0.00000000E+00  0.00000000E+00  0.00000000E+00
  0.00000000E+00  0.00000000E+00  0.00000000E+00
  0.00000000E+00  0.00000000E+00  0.00000000E+00
  0.00000000E+00  0.00000000E+00  0.00000000E+00
  0.00000000E+00  0.00000000E+00  0.00000000E+00
  0.00000000E+00  0.00000000E+00  0.00000000E+00
  0.00000000E+00  0.00000000E+00  0.00000000E+00
  0.00000000E+00  0.00000000E+00  0.00000000E+00
  0.00000000E+00  0.00000000E+00  0.00000000E+00
  0.00000000E+00  0.00000000E+00  0.00000000E+00
  0.00000000E+00  0.00000000E+00  0.00000000E+00
  0.00000000E+00  0.00000000E+00  0.00000000E+00
  0.00000000E+00  0.00000000E+00  0.00000000E+00
  0.00000000E+00  0.00000000E+00  0.00000000E+00
  0.00000000E+00  0.00000000E+00  0.00000000E+00
  0.00000000E+00  0.00000000E+00  0.00000000E+00
  0.00000000E+00  0.00000000E+00  0.00000000E+00
  0.00000000E+00  0.00000000E+00  0.00000000E+00
  0.00000000E+00  0.00000000E+00  0.00000000E+00
  0.00000000E+00  0.00000000E+00  0.00000000E+00
  0.00000000E+00  0.00000000E+00  0.00000000E+00
  0.00000000E+00  0.00000000E+00  0.00000000E+00
  0.00000000E+00  0.00000000E+00  0.00000000E+00
  0.00000000E+00  0.00000000E+00  0.00000000E+00
  0.00000000E+00  0.00000000E+00  0.00000000E+00
  0.00000000E+00  0.00000000E+00  0.00000000E+00
  0.00000000E+00  0.00000000E+00  0.00000000E+00
  0.00000000E+00  0.00000000E+00  0.00000000E+00
  0.00000000E+00  0.00000000E+00  0.00000000E+00
  0.00000000E+00  0.00000000E+00  0.00000000E+00
  0.00000000E+00  0.00000000E+00  0.00000000E+00
  0.00000000E+00  0.00000000E+00  0.00000000E+00
  0.00000000E+00  0.00000000E+00  0.00000000E+00
  0.00000000E+00  0.00000000E+00  0.00000000E+00
  0.00000000E+00  0.00000000E+00  0.00000000E+00
  0.00000000E+00  0.00000000E+00  0.00000000E+00
  0.00000000E+00  0.00000000E+00  0.00000000E+00
  0.00000000E+00  0.00000000E+00  0.00000000E+00
  0.00000000E+00  0.00000000E+00  0.00000000E+00
  0.00000000E+00  0.00000000E+00  0.00000000E+00
  0.00000000E+00  0.00000000E+00  0.00000000E+00
  0.00000000E+00  0.00000000E+00  0.00000000E+00
  0.00000000E+00  0.00000000E+00  0.00000000E+00
  0.00000000E+00  0.00000000E+00  0.00000000E+00
  0.00000000E+00  0.00000000E+00  0.00000000E+00
  0.00000000E+00  0.00000000E+00  0.00000000E+00
  0.00000000E+00  0.00000000E+00  0.00000000E+00
  0.00000000E+00  0.00000000E+00  0.00000000E+00
  0.00000000E+00  0.00000000E+00  0.00000000E+00
  0.00000000E+00  0.00000000E+00  0.00000000E+00
  0.00000000E+00  0.00000000E+00  0.00000000E+00
  0.00000000E+00  0.00000000E+00  0.00000000E+00
  0.00000000E+00  0.00000000E+00  0.00000000E+00
  0.00000000E+00  0.00000000E+00  0.00000000E+00
  0.00000000E+00  0.00000000E+00  0.00000000E+00
  0.00000000E+00  0.00000000E+00  0.00000000E+00
  0.00000000E+00  0.00000000E+00  0.00000000E+00
  0.00000000E+00  0.00000000E+00  0.00000000E+00
  0.00000000E+00  0.00000000E+00  0.00000000E+00
  0.00000000E+00  0.00000000E+00  0.00000000E+00
  0.00000000E+00  0.00000000E+00  0.00000000E+00
  0.00000000E+00  0.00000000E+00  0.00000000E+00
  0.00000000E+00  0.00000000E+00  0.00000000E+00
  0.00000000E+00  0.00000000E+00  0.00000000E+00
  0.00000000E+00  0.00000000E+00  0.00000000E+00
  0.00000000E+00  0.00000000E+00  0.00000000E+00
  0.00000000E+00  0.00000000E+00  0.00000000E+00
  0.00000000E+00  0.00000000E+00  0.00000000E+00
  0.00000000E+00  0.00000000E+00  0.00000000E+00
  0.00000000E+00  0.00000000E+00  0.00000000E+00
  0.00000000E+00  0.00000000E+00  0.00000000E+00
  0.00000000E+00  0.00000000E+00  0.00000000E+00
  0.00000000E+00  0.00000000E+00  0.00000000E+00
  0.00000000E+00  0.00000000E+00  0.00000000E+00
  0.00000000E+00  0.00000000E+00  0.00000000E+00
  0.00000000E+00  0.00000000E+00  0.00000000E+00
  0.00000000E+00  0.00000000E+00  0.00000000E+00
  0.00000000E+00  0.00000000E+00  0.00000000E+00
  0.00000000E+00  0.00000000E+00  0.00000000E+00
  0.00000000E+00  0.00000000E+00  0.00000000E+00
  0.00000000E+00  0.00000000E+00  0.00000000E+00
  0.00000000E+00  0.00000000E+00  0.00000000E+00
  0.00000000E+00  0.00000000E+00  0.00000000E+00
  0.00000000E+00  0.00000000E+00  0.00000000E+00
  0.00000000E+00  0.00000000E+00  0.00000000E+00
  0.00000000E+00  0.00000000E+00  0.00000000E+00
  0.00000000E+00  0.00000000E+00  0.00000000E+00
  0.00000000E+00  0.00000000E+00  0.00000000E+00
  0.00000000E+00  0.00000000E+00  0.00000000E+00
  0.00000000E+00  0.00000000E+00  0.00000000E+00
  0.00000000E+00  0.00000000E+00  0.00000000E+00
  0.00000000E+00  0.00000000E+00  0.00000000E+00
  0.00000000E+00  0.00000000E+00  0.00000000E+00
  0.00000000E+00  0.00000000E+00  0.00000000E+00
  0.00000000E+00  0.00000000E+00  0.00000000E+00
  0.00000000E+00  0.00000000E+00  0.00000000E+00
  0.00000000E+00  0.00000000E+00  0.00000000E+00
  0.00000000E+00  0.00000000E+00  0.00000000E+00
  0.00000000E+00  0.00000000E+00  0.00000000E+00
  0.00000000E+00  0.00000000E+00  0.00000000E+00
  0.00000000E+00  0.00000000E+00  0.00000000E+00
  0.00000000E+00  0.00000000E+00  0.00000000E+00
  0.00000000E+00  0.00000000E+00  0.00000000E+00
  0.00000000E+00  0.00000000E+00  0.00000000E+00
  0.00000000E+00  0.00000000E+00  0.00000000E+00
  0.00000000E+00  0.00000000E+00  0.00000000E+00
  0.00000000E+00  0.00000000E+00  0.00000000E+00
  0.00000000E+00  0.00000000E+00  0.00000000E+00
  0.00000000E+00  0.00000000E+00  0.00000000E+00
  0.00000000E+00  0.00000000E+00  0.00000000E+00
  0.00000000E+00  0.00000000E+00  0.00000000E+00
  0.00000000E+00  0.00000000E+00  0.00000000E+00
  0.00000000E+00  0.00000000E+00  0.00000000E+00
  0.00000000E+00  0.00000000E+00  0.00000000E+00
  0.00000000E+00  0.00000000E+00  0.00000000E+00
  0.00000000E+00  0.00000000E+00  0.00000000E+00
  0.00000000E+00  0.00000000E+00  0.00000000E+00
  0.00000000E+00  0.00000000E+00  0.00000000E+00
