Zr1 H1 C123 N3                          
   1.00000000000000     
    19.8001587997645210    0.0092688184563167   -0.0380214518476303
    -9.8918775940576911   17.0433383978138053   -0.1417262568104531
    -0.0569766299416216   -0.2805307227649975   29.8126701246060328
   Zr   H    C    N 
     1     1   123     3
Direct
  0.4383453521805205  0.5017878582216831  0.4370193290747154
  0.4438292423515684  0.4994485540448059  0.5007499396718510
  0.0418324681046810  0.0839694722357920  0.3995305366491986
  0.0410730869026173  0.2082546682660299  0.3995927571428856
  0.0405495775845567  0.3331438138120953  0.3995994541978718
  0.0407449075708434  0.4583552722996657  0.3994714672302253
  0.0415589019040223  0.5838240121106703  0.3998053122458288
  0.0422709097316908  0.7092225459194457  0.4000296257705501
  0.0424580580199496  0.8343621363594782  0.3999887080262617
  0.0423484689255282  0.9594031427847997  0.3997260532430294
  0.1675171178335015  0.0849666907964642  0.3997616100331680
  0.1670660524207641  0.2097276694265340  0.3999939605686740
  0.1652637421785073  0.3336160535062059  0.4005498849875929
  0.1647129253135395  0.4585046029157369  0.3995868009054695
  0.1655285692438834  0.5837446939910016  0.3992617332356396
  0.1665709895194738  0.7089501630606837  0.3997446669494524
  0.1671608805817972  0.8343178613284187  0.3999666472529143
  0.1673907932107729  0.9597184096988314  0.3998093080341713
  0.2924261458249091  0.0853234966245565  0.3997807817161029
  0.2928167661615730  0.2117603023443233  0.4010091367299383
  0.2916913726694955  0.3368163258631819  0.4033025034745521
  0.2884038166926474  0.4579559670265008  0.4025665607471821
  0.2891168340748364  0.5829812737314617  0.3997406324336322
  0.2909348924405669  0.7083420177056592  0.3992243388888722
  0.2918016810278432  0.8338707491125161  0.3996959948123261
  0.2921666812736288  0.9594273510015630  0.3997786989049425
  0.4170782785701933  0.0841027455119315  0.3995604804357455
  0.4175690690899463  0.2100351297351573  0.3997460231568673
  0.4191780172152714  0.3371863156433497  0.4026548135924647
  0.4153129508997112  0.7065474197403760  0.3992120720640505
  0.4163484653029368  0.8325100169652412  0.3992297006591813
  0.4168166524590060  0.9583730158322082  0.3997119227150125
  0.5416986171347842  0.0829203831014903  0.3997522778611196
  0.5421720561461291  0.2085840449217153  0.3993837254947870
  0.5430731587331531  0.3341958834176545  0.3998352931061651
  0.5455660280020584  0.4595393786790659  0.4021532692889451
  0.5391635937969027  0.7030196020270655  0.4010519489590664
  0.5409368369140054  0.8309564738515830  0.3994292002493140
  0.5413647696038335  0.9571608585497139  0.3997142846102991
  0.6663398366491881  0.0824509662010704  0.4000009908600137
  0.6666883194790394  0.2078230311312076  0.3997106419837065
  0.6674761334057566  0.3332247099771165  0.3993528185117500
  0.6692020979500186  0.4587620084366172  0.3993717075510322
  0.6702526495945902  0.5842078396561173  0.3998242120368122
  0.6671196912498488  0.7072272506888446  0.3995706795260706
  0.6652614996913487  0.8311392721244493  0.3995570949236760
  0.6659463006059171  0.9569276444664228  0.3998523270288658
  0.7910287335965753  0.0824142895032733  0.3999436241265041
  0.7912917096096296  0.2077025444036508  0.3999244849672911
  0.7918353882306495  0.3330300788851340  0.3997165774552469
  0.7928311871387119  0.4584413643204321  0.3994303661762661
  0.7936535193681326  0.5838906591214932  0.3992391005864592
  0.7933086288222236  0.7090439646977158  0.3993631383156337
  0.7915861085572882  0.8329083859143245  0.3993613586040568
  0.7908646253732431  0.9572497938826920  0.3997083543183457
  0.9161336739995902  0.0828870064389230  0.3996954956532620
  0.9159496251809919  0.2077598207751613  0.3997252810324771
  0.9161455840771739  0.3329969683006884  0.3997341507047713
  0.9168160672700693  0.4584594057007391  0.3998117864501124
  0.9176068793488228  0.5838939394399801  0.3997924654054365
  0.9177746814755460  0.7090922803335313  0.3997850614317625
  0.9174908496109538  0.8341206584420340  0.3997467759790227
  0.9167378316473140  0.9584697534325010  0.3996990789567749
  0.0840589939246096  0.0429070547590247  0.3995978825749250
  0.0834682000376822  0.1674803199919066  0.3995618724418146
  0.0824145934900101  0.2917048492825778  0.3998000385556648
  0.0818373118485057  0.4164296865809223  0.3994173843570863
  0.0825648073821209  0.5418924360417555  0.3994893655076311
  0.0834640088664913  0.6673085777624569  0.3999012062132593
  0.0839214577500525  0.7926164737771512  0.4000525548506230
  0.0840870613680691  0.9178491280934482  0.3998428821319853
  0.2090470053535391  0.0432401086162743  0.3997934448865220
  0.2092789104247788  0.1687171161650645  0.4002265224676818
  0.2083165781884160  0.2932636063423142  0.4008877686011877
  0.2060557945185996  0.4170068097483881  0.4007149799376931
  0.2063052764048637  0.5416052409692415  0.3993615307052120
  0.2076320210224857  0.6670032762021046  0.3993995719380140
  0.2085431255652270  0.7924676209511705  0.3998432143199024
  0.2089008979343545  0.9178311995654097  0.3998645951116613
  0.3338473184652176  0.0430870667109634  0.3996613476128147
  0.3340921260956603  0.1690707992903200  0.4001404583231869
  0.3346602213387571  0.2959787464397137  0.4028389892858150
  0.3304259348137746  0.5418528121524776  0.4013555489383364
  0.3318652167924692  0.6662617764112263  0.3992537752397601
  0.3331347389530723  0.7917582432552339  0.3993505118197192
  0.3335514138570169  0.9173261369411920  0.3997622892338930
  0.4584699145989196  0.0418553804761543  0.3996905469763609
  0.4588122272295268  0.1676520279006826  0.3994382701500893
  0.4595878966076369  0.2935580020076831  0.4002241545804268
  0.4633742441856591  0.4195274278208705  0.4050120654381476
  0.4548406901243648  0.6624023641196378  0.4009974454603197
  0.4576043541137014  0.7900292662768909  0.3990405651858052
  0.4581337510814428  0.9161219501315715  0.3995670469158774
  0.5830486859453036  0.0407992746559931  0.3998948985387911
  0.5834685940448952  0.1664374407157780  0.3995875493347272
  0.5841938392097282  0.2918931499946659  0.3993692817296627
  0.5864009945086673  0.4175940534852748  0.4002055835630473
  0.5885987136775565  0.5437412549425465  0.4017919871320251
  0.5835222922180289  0.6630539784434855  0.4015671786849463
  0.5815205791271307  0.7878932863759046  0.3998740289977432
  0.5827064771331899  0.9148799150515302  0.3996477132311336
  0.7077369393932333  0.0405513619818046  0.4000005537500264
  0.7080784102969676  0.1659471897624111  0.3999305354665436
  0.7086222893690203  0.2913196696860211  0.3995757191345901
  0.7098832510007439  0.4166474298773113  0.3992256198503111
  0.7110189862412559  0.5419577429491385  0.3992752352658098
  0.7104771458304159  0.6673085326207678  0.3994981370807288
  0.7079971628708694  0.7906182159969463  0.3992419607869752
  0.7072690733991556  0.9149828108613115  0.3996807540231162
  0.8327047077666534  0.0408494595577341  0.3998210441054892
  0.8327753744058982  0.1659498511016574  0.3998871391317275
  0.8330465067490792  0.2911209507578275  0.3998260979301446
  0.8338128426581521  0.4164912172663597  0.3997061890579936
  0.8347041389636159  0.5419911947478909  0.3994625988565494
  0.8348878294241345  0.6673299914164567  0.3994537302505261
  0.8342348232007756  0.7922548050447444  0.3994671798811678
  0.8332132972175750  0.9163737413241376  0.3996135079830693
  0.9583748040225356  0.0418817727231693  0.3996419050175103
  0.9577748436548132  0.1663088035961363  0.3996140967541364
  0.9575679076688576  0.2912668468828873  0.3996507821919620
  0.9578396268964722  0.4164908156613644  0.3997025433464184
  0.9586069945681028  0.5419049992763668  0.3998753992016271
  0.9592137424240929  0.6673474655810399  0.3999040596855716
  0.9592512283618699  0.7926107258715461  0.3998910190606274
  0.9589829332658961  0.9174929519663918  0.3997527203623685
  0.4114630480982513  0.5820235607917497  0.4035604848935926
  0.5474371759028563  0.5830285927485672  0.4045523431849124
  0.3291492986028986  0.4179714330604913  0.4066945650676184
 
  0.00000000E+00  0.00000000E+00  0.00000000E+00
  0.00000000E+00  0.00000000E+00  0.00000000E+00
  0.00000000E+00  0.00000000E+00  0.00000000E+00
  0.00000000E+00  0.00000000E+00  0.00000000E+00
  0.00000000E+00  0.00000000E+00  0.00000000E+00
  0.00000000E+00  0.00000000E+00  0.00000000E+00
  0.00000000E+00  0.00000000E+00  0.00000000E+00
  0.00000000E+00  0.00000000E+00  0.00000000E+00
  0.00000000E+00  0.00000000E+00  0.00000000E+00
  0.00000000E+00  0.00000000E+00  0.00000000E+00
  0.00000000E+00  0.00000000E+00  0.00000000E+00
  0.00000000E+00  0.00000000E+00  0.00000000E+00
  0.00000000E+00  0.00000000E+00  0.00000000E+00
  0.00000000E+00  0.00000000E+00  0.00000000E+00
  0.00000000E+00  0.00000000E+00  0.00000000E+00
  0.00000000E+00  0.00000000E+00  0.00000000E+00
  0.00000000E+00  0.00000000E+00  0.00000000E+00
  0.00000000E+00  0.00000000E+00  0.00000000E+00
  0.00000000E+00  0.00000000E+00  0.00000000E+00
  0.00000000E+00  0.00000000E+00  0.00000000E+00
  0.00000000E+00  0.00000000E+00  0.00000000E+00
  0.00000000E+00  0.00000000E+00  0.00000000E+00
  0.00000000E+00  0.00000000E+00  0.00000000E+00
  0.00000000E+00  0.00000000E+00  0.00000000E+00
  0.00000000E+00  0.00000000E+00  0.00000000E+00
  0.00000000E+00  0.00000000E+00  0.00000000E+00
  0.00000000E+00  0.00000000E+00  0.00000000E+00
  0.00000000E+00  0.00000000E+00  0.00000000E+00
  0.00000000E+00  0.00000000E+00  0.00000000E+00
  0.00000000E+00  0.00000000E+00  0.00000000E+00
  0.00000000E+00  0.00000000E+00  0.00000000E+00
  0.00000000E+00  0.00000000E+00  0.00000000E+00
  0.00000000E+00  0.00000000E+00  0.00000000E+00
  0.00000000E+00  0.00000000E+00  0.00000000E+00
  0.00000000E+00  0.00000000E+00  0.00000000E+00
  0.00000000E+00  0.00000000E+00  0.00000000E+00
  0.00000000E+00  0.00000000E+00  0.00000000E+00
  0.00000000E+00  0.00000000E+00  0.00000000E+00
  0.00000000E+00  0.00000000E+00  0.00000000E+00
  0.00000000E+00  0.00000000E+00  0.00000000E+00
  0.00000000E+00  0.00000000E+00  0.00000000E+00
  0.00000000E+00  0.00000000E+00  0.00000000E+00
  0.00000000E+00  0.00000000E+00  0.00000000E+00
  0.00000000E+00  0.00000000E+00  0.00000000E+00
  0.00000000E+00  0.00000000E+00  0.00000000E+00
  0.00000000E+00  0.00000000E+00  0.00000000E+00
  0.00000000E+00  0.00000000E+00  0.00000000E+00
  0.00000000E+00  0.00000000E+00  0.00000000E+00
  0.00000000E+00  0.00000000E+00  0.00000000E+00
  0.00000000E+00  0.00000000E+00  0.00000000E+00
  0.00000000E+00  0.00000000E+00  0.00000000E+00
  0.00000000E+00  0.00000000E+00  0.00000000E+00
  0.00000000E+00  0.00000000E+00  0.00000000E+00
  0.00000000E+00  0.00000000E+00  0.00000000E+00
  0.00000000E+00  0.00000000E+00  0.00000000E+00
  0.00000000E+00  0.00000000E+00  0.00000000E+00
  0.00000000E+00  0.00000000E+00  0.00000000E+00
  0.00000000E+00  0.00000000E+00  0.00000000E+00
  0.00000000E+00  0.00000000E+00  0.00000000E+00
  0.00000000E+00  0.00000000E+00  0.00000000E+00
  0.00000000E+00  0.00000000E+00  0.00000000E+00
  0.00000000E+00  0.00000000E+00  0.00000000E+00
  0.00000000E+00  0.00000000E+00  0.00000000E+00
  0.00000000E+00  0.00000000E+00  0.00000000E+00
  0.00000000E+00  0.00000000E+00  0.00000000E+00
  0.00000000E+00  0.00000000E+00  0.00000000E+00
  0.00000000E+00  0.00000000E+00  0.00000000E+00
  0.00000000E+00  0.00000000E+00  0.00000000E+00
  0.00000000E+00  0.00000000E+00  0.00000000E+00
  0.00000000E+00  0.00000000E+00  0.00000000E+00
  0.00000000E+00  0.00000000E+00  0.00000000E+00
  0.00000000E+00  0.00000000E+00  0.00000000E+00
  0.00000000E+00  0.00000000E+00  0.00000000E+00
  0.00000000E+00  0.00000000E+00  0.00000000E+00
  0.00000000E+00  0.00000000E+00  0.00000000E+00
  0.00000000E+00  0.00000000E+00  0.00000000E+00
  0.00000000E+00  0.00000000E+00  0.00000000E+00
  0.00000000E+00  0.00000000E+00  0.00000000E+00
  0.00000000E+00  0.00000000E+00  0.00000000E+00
  0.00000000E+00  0.00000000E+00  0.00000000E+00
  0.00000000E+00  0.00000000E+00  0.00000000E+00
  0.00000000E+00  0.00000000E+00  0.00000000E+00
  0.00000000E+00  0.00000000E+00  0.00000000E+00
  0.00000000E+00  0.00000000E+00  0.00000000E+00
  0.00000000E+00  0.00000000E+00  0.00000000E+00
  0.00000000E+00  0.00000000E+00  0.00000000E+00
  0.00000000E+00  0.00000000E+00  0.00000000E+00
  0.00000000E+00  0.00000000E+00  0.00000000E+00
  0.00000000E+00  0.00000000E+00  0.00000000E+00
  0.00000000E+00  0.00000000E+00  0.00000000E+00
  0.00000000E+00  0.00000000E+00  0.00000000E+00
  0.00000000E+00  0.00000000E+00  0.00000000E+00
  0.00000000E+00  0.00000000E+00  0.00000000E+00
  0.00000000E+00  0.00000000E+00  0.00000000E+00
  0.00000000E+00  0.00000000E+00  0.00000000E+00
  0.00000000E+00  0.00000000E+00  0.00000000E+00
  0.00000000E+00  0.00000000E+00  0.00000000E+00
  0.00000000E+00  0.00000000E+00  0.00000000E+00
  0.00000000E+00  0.00000000E+00  0.00000000E+00
  0.00000000E+00  0.00000000E+00  0.00000000E+00
  0.00000000E+00  0.00000000E+00  0.00000000E+00
  0.00000000E+00  0.00000000E+00  0.00000000E+00
  0.00000000E+00  0.00000000E+00  0.00000000E+00
  0.00000000E+00  0.00000000E+00  0.00000000E+00
  0.00000000E+00  0.00000000E+00  0.00000000E+00
  0.00000000E+00  0.00000000E+00  0.00000000E+00
  0.00000000E+00  0.00000000E+00  0.00000000E+00
  0.00000000E+00  0.00000000E+00  0.00000000E+00
  0.00000000E+00  0.00000000E+00  0.00000000E+00
  0.00000000E+00  0.00000000E+00  0.00000000E+00
  0.00000000E+00  0.00000000E+00  0.00000000E+00
  0.00000000E+00  0.00000000E+00  0.00000000E+00
  0.00000000E+00  0.00000000E+00  0.00000000E+00
  0.00000000E+00  0.00000000E+00  0.00000000E+00
  0.00000000E+00  0.00000000E+00  0.00000000E+00
  0.00000000E+00  0.00000000E+00  0.00000000E+00
  0.00000000E+00  0.00000000E+00  0.00000000E+00
  0.00000000E+00  0.00000000E+00  0.00000000E+00
  0.00000000E+00  0.00000000E+00  0.00000000E+00
  0.00000000E+00  0.00000000E+00  0.00000000E+00
  0.00000000E+00  0.00000000E+00  0.00000000E+00
  0.00000000E+00  0.00000000E+00  0.00000000E+00
  0.00000000E+00  0.00000000E+00  0.00000000E+00
  0.00000000E+00  0.00000000E+00  0.00000000E+00
  0.00000000E+00  0.00000000E+00  0.00000000E+00
  0.00000000E+00  0.00000000E+00  0.00000000E+00
  0.00000000E+00  0.00000000E+00  0.00000000E+00
  0.00000000E+00  0.00000000E+00  0.00000000E+00
