Ru1 C126                                
   1.00000000000000     
    19.8025027959465412   -0.0000003794195167   -0.0006287393675192
    -9.9012515301618613   17.0489227024299268    0.0003378496747606
    -0.0009447423520172    0.0000410593645673   29.8047210220609315
   Ru   C 
     1   126
Direct
  0.4375164511626284  0.4999999323053343  0.4296552938529606
  0.0420145487395811  0.0840217649181925  0.3999356847869290
  0.0411407946171903  0.2081562254606625  0.3997521133718996
  0.0406237462485434  0.3328687020102912  0.3997309679237085
  0.0406008233720745  0.4582444652052002  0.3998880740639778
  0.0413408993820877  0.5836531473356920  0.4000545607793174
  0.0419926301250064  0.7089713326884945  0.4000745773771611
  0.0422604791794332  0.8342637597332448  0.4000622760380896
  0.0422831172095774  0.9593166168355118  0.4000411829839435
  0.1675736104188373  0.0850759011529365  0.3998809377925164
  0.1675219857757362  0.2100711810530757  0.3997128175407501
  0.1655809093059122  0.3333887770954065  0.3996535466865436
  0.1643738412392631  0.4582744606792847  0.3996237231890974
  0.1653085539510383  0.5835579872816602  0.3996784139772903
  0.1664842409349969  0.7089290232212542  0.3999384665730330
  0.1669840472759640  0.8342508158688722  0.4000387875712864
  0.1673293686061748  0.9596590804379904  0.3999795343929701
  0.2924814956573919  0.0850719858814843  0.3998540796426618
  0.2931906503669556  0.2114131701529710  0.4001285330366767
  0.2937460640284456  0.3376272802449842  0.4013575969757131
  0.2875997762051375  0.4581490478710056  0.4013818208981505
  0.2889818562943955  0.5836410619061932  0.3998261615208251
  0.2909480765046098  0.7086198886577754  0.3996035378124216
  0.2916022490660812  0.8338070180639121  0.3999452665872481
  0.2920297294675812  0.9592947887808523  0.4000028016140886
  0.4170005617428219  0.0839984736157227  0.3999163847273776
  0.4175158790988994  0.2100631535116698  0.3997100618562224
  0.4188680019558867  0.3376224051166538  0.4013622271850504
  0.4110969114133217  0.5790058998897215  0.4047359601677547
  0.4153523581168085  0.7061287088031107  0.3998964557640667
  0.4162086884296440  0.8324506402789225  0.3997441059515471
  0.4166221065121040  0.9582257628784050  0.4000426159065197
  0.5415593290947924  0.0827192673486806  0.4000685262005064
  0.5419989097075902  0.2081313647843540  0.3997683633031580
  0.5428283268541729  0.3333813021490973  0.3996543520391696
  0.5455622445209940  0.4581392296255863  0.4013805736168492
  0.5429277895675039  0.5790158905485975  0.4047308901412085
  0.5399268967380634  0.7048685305013318  0.4012072132806748
  0.5406379152880127  0.8312165197180286  0.3998719742553701
  0.5411894649405257  0.9571249176930205  0.3999547108513593
  0.6661910614029797  0.0822000649441996  0.4000320259598578
  0.6665836992130516  0.2075820668009379  0.4000207824009572
  0.6672416243956735  0.3328592579316543  0.3997305573939701
  0.6689318626606368  0.4582800535099224  0.3996123504003307
  0.6696921395368246  0.5836429110292568  0.3998241259134253
  0.6657789141534235  0.7061288068340060  0.3999046804953814
  0.6655527559523895  0.8312268736650650  0.3998618447169672
  0.6658722687350651  0.9567510486492319  0.3999076827340479
  0.7910132456589055  0.0822143848864451  0.4000196852986358
  0.7912075170771118  0.2074243095527953  0.4000565281317889
  0.7917066080564849  0.3328007972363787  0.4000383271129578
  0.7926403195054794  0.4582496242846191  0.3998549594616248
  0.7932539797737312  0.5835548134675382  0.3996607227414161
  0.7926945840457369  0.7086446241472349  0.3996114832124323
  0.7912377674531571  0.8324604122284052  0.3997412180067764
  0.7909308045219049  0.9571393533015695  0.3999132185789829
  0.9161875732884659  0.0827536662390584  0.4000218383112966
  0.9160035504184457  0.2076058101623954  0.3999917981419838
  0.9161029207094801  0.3328040220632218  0.4000475735659060
  0.9165881023231627  0.4581748388217156  0.4001102529288073
  0.9172982739682781  0.5836467666789499  0.4000350146353968
  0.9174480603323195  0.7089423293852940  0.3999504334553643
  0.9172167422487543  0.8338388222973321  0.3999825873502471
  0.9166309260644808  0.9582544866614098  0.4000519565342606
  0.0840647438352160  0.0428749088254683  0.3999544979612741
  0.0837572097233371  0.1675492816963477  0.3997441102159175
  0.0823276067433525  0.2913800519800934  0.3996037800952578
  0.0817503799752336  0.4164417572121056  0.3996786709519078
  0.0823565621261219  0.5417561715941506  0.3998880456741898
  0.0832991225299241  0.6671968964171533  0.4000476083989905
  0.0837825174935212  0.7925758702730800  0.4000560610150811
  0.0839914576407524  0.9177999195388101  0.4000317879077292
  0.2091213966051852  0.0432484074072476  0.3999076895845208
  0.2094209587068767  0.1687830894615332  0.3998720310360708
  0.2092230821463409  0.2938707871177347  0.3998964692142927
  0.2053405363665221  0.4163588995780165  0.3998266706971929
  0.2060997703784113  0.5417255484082354  0.3996234696707243
  0.2077556202975695  0.6671319338686243  0.3997304815524200
  0.2083980147572114  0.7923947977230424  0.3999910341880349
  0.2087991137026067  0.9177856955572823  0.4000192358597542
  0.3337916288055222  0.0428605484339865  0.3999134510850517
  0.3343257902589166  0.1687728595795475  0.3998618600582565
  0.3350575127388612  0.2951312574373199  0.4012072232155102
  0.3320909042201768  0.4209939749612590  0.4047359918142212
  0.3294504071816270  0.5418508939338443  0.4013815785460811
  0.3321918926042248  0.6666110231213109  0.3996533194832119
  0.3329843643895941  0.7918443425964554  0.3997517764355722
  0.3334334986625829  0.9172462711512435  0.4000218085295612
  0.4583762003074339  0.0417459131719126  0.4000516691622247
  0.4587771927610167  0.1675396025666669  0.3997412092574645
  0.4596492325764259  0.2938700900130203  0.3999045700609712
  0.4639115081130859  0.4209838448219589  0.4047308362691310
  0.4561195462392817  0.6623727734355412  0.4013575591303066
  0.4574499928926809  0.7899282442780861  0.3997123985390108
  0.4579921401405913  0.9159783803256666  0.3999359135611939
  0.5829665190108760  0.0406836698116358  0.4000416725750602
  0.5833780612902425  0.1661618359919480  0.3999825337499303
  0.5840504635738230  0.2913557309063061  0.3996111979342034
  0.5860500804997948  0.4163565318977929  0.3998238612402296
  0.5874231265700188  0.5418607132875275  0.4013808040803190
  0.5812464386520757  0.6623776584233348  0.4013624102456687
  0.5817779123668126  0.7885869988863812  0.4001285506751480
  0.5824976149996736  0.9149241053584456  0.3998809206948016
  0.7076700890921190  0.0403407091676308  0.3999795292710552
  0.7079970149583642  0.1657365767040212  0.4000624735716740
  0.7085059626724581  0.2910582225813847  0.3999509208157624
  0.7097009582683393  0.4164442787284001  0.3996611547285236
  0.7106538113975917  0.5417197143453987  0.3996122089399224
  0.7094474989632591  0.6666187412514845  0.3996550136697735
  0.7074525944274355  0.7899366086636177  0.3997102494452414
  0.7074092323430655  0.9149280409878024  0.3998539878714495
  0.8327342634774839  0.0407054183693642  0.4000028373027786
  0.8327324710978383  0.1657486891220075  0.4000397120598435
  0.8330205105942220  0.2910281588637894  0.4000749981973344
  0.8336508681786164  0.4163538008696062  0.4000344974760857
  0.8343905812757323  0.5417504851257768  0.3998551202577954
  0.8343827686756933  0.6671404399463107  0.3997302819684642
  0.8338677333696370  0.7918686697853194  0.3997686220868579
  0.8330013130276817  0.9160019468950249  0.3999165454677288
  0.9583959346267603  0.0417742822256483  0.4000424630754211
  0.9577945187379071  0.1661927654804354  0.3999454712713147
  0.9575546515006412  0.2910705254556815  0.3999389346139271
  0.9576873130803156  0.4163471233422440  0.4000542883391621
  0.9584128783809923  0.5418256997651336  0.4001107409665289
  0.9589054539207960  0.6671996542541406  0.4000380879432712
  0.9590016689115165  0.7924179046118666  0.4000207684290205
  0.9588401565262600  0.9172806363239783  0.4000685121456773
 
  0.00000000E+00  0.00000000E+00  0.00000000E+00
  0.00000000E+00  0.00000000E+00  0.00000000E+00
  0.00000000E+00  0.00000000E+00  0.00000000E+00
  0.00000000E+00  0.00000000E+00  0.00000000E+00
  0.00000000E+00  0.00000000E+00  0.00000000E+00
  0.00000000E+00  0.00000000E+00  0.00000000E+00
  0.00000000E+00  0.00000000E+00  0.00000000E+00
  0.00000000E+00  0.00000000E+00  0.00000000E+00
  0.00000000E+00  0.00000000E+00  0.00000000E+00
  0.00000000E+00  0.00000000E+00  0.00000000E+00
  0.00000000E+00  0.00000000E+00  0.00000000E+00
  0.00000000E+00  0.00000000E+00  0.00000000E+00
  0.00000000E+00  0.00000000E+00  0.00000000E+00
  0.00000000E+00  0.00000000E+00  0.00000000E+00
  0.00000000E+00  0.00000000E+00  0.00000000E+00
  0.00000000E+00  0.00000000E+00  0.00000000E+00
  0.00000000E+00  0.00000000E+00  0.00000000E+00
  0.00000000E+00  0.00000000E+00  0.00000000E+00
  0.00000000E+00  0.00000000E+00  0.00000000E+00
  0.00000000E+00  0.00000000E+00  0.00000000E+00
  0.00000000E+00  0.00000000E+00  0.00000000E+00
  0.00000000E+00  0.00000000E+00  0.00000000E+00
  0.00000000E+00  0.00000000E+00  0.00000000E+00
  0.00000000E+00  0.00000000E+00  0.00000000E+00
  0.00000000E+00  0.00000000E+00  0.00000000E+00
  0.00000000E+00  0.00000000E+00  0.00000000E+00
  0.00000000E+00  0.00000000E+00  0.00000000E+00
  0.00000000E+00  0.00000000E+00  0.00000000E+00
  0.00000000E+00  0.00000000E+00  0.00000000E+00
  0.00000000E+00  0.00000000E+00  0.00000000E+00
  0.00000000E+00  0.00000000E+00  0.00000000E+00
  0.00000000E+00  0.00000000E+00  0.00000000E+00
  0.00000000E+00  0.00000000E+00  0.00000000E+00
  0.00000000E+00  0.00000000E+00  0.00000000E+00
  0.00000000E+00  0.00000000E+00  0.00000000E+00
  0.00000000E+00  0.00000000E+00  0.00000000E+00
  0.00000000E+00  0.00000000E+00  0.00000000E+00
  0.00000000E+00  0.00000000E+00  0.00000000E+00
  0.00000000E+00  0.00000000E+00  0.00000000E+00
  0.00000000E+00  0.00000000E+00  0.00000000E+00
  0.00000000E+00  0.00000000E+00  0.00000000E+00
  0.00000000E+00  0.00000000E+00  0.00000000E+00
  0.00000000E+00  0.00000000E+00  0.00000000E+00
  0.00000000E+00  0.00000000E+00  0.00000000E+00
  0.00000000E+00  0.00000000E+00  0.00000000E+00
  0.00000000E+00  0.00000000E+00  0.00000000E+00
  0.00000000E+00  0.00000000E+00  0.00000000E+00
  0.00000000E+00  0.00000000E+00  0.00000000E+00
  0.00000000E+00  0.00000000E+00  0.00000000E+00
  0.00000000E+00  0.00000000E+00  0.00000000E+00
  0.00000000E+00  0.00000000E+00  0.00000000E+00
  0.00000000E+00  0.00000000E+00  0.00000000E+00
  0.00000000E+00  0.00000000E+00  0.00000000E+00
  0.00000000E+00  0.00000000E+00  0.00000000E+00
  0.00000000E+00  0.00000000E+00  0.00000000E+00
  0.00000000E+00  0.00000000E+00  0.00000000E+00
  0.00000000E+00  0.00000000E+00  0.00000000E+00
  0.00000000E+00  0.00000000E+00  0.00000000E+00
  0.00000000E+00  0.00000000E+00  0.00000000E+00
  0.00000000E+00  0.00000000E+00  0.00000000E+00
  0.00000000E+00  0.00000000E+00  0.00000000E+00
  0.00000000E+00  0.00000000E+00  0.00000000E+00
  0.00000000E+00  0.00000000E+00  0.00000000E+00
  0.00000000E+00  0.00000000E+00  0.00000000E+00
  0.00000000E+00  0.00000000E+00  0.00000000E+00
  0.00000000E+00  0.00000000E+00  0.00000000E+00
  0.00000000E+00  0.00000000E+00  0.00000000E+00
  0.00000000E+00  0.00000000E+00  0.00000000E+00
  0.00000000E+00  0.00000000E+00  0.00000000E+00
  0.00000000E+00  0.00000000E+00  0.00000000E+00
  0.00000000E+00  0.00000000E+00  0.00000000E+00
  0.00000000E+00  0.00000000E+00  0.00000000E+00
  0.00000000E+00  0.00000000E+00  0.00000000E+00
  0.00000000E+00  0.00000000E+00  0.00000000E+00
  0.00000000E+00  0.00000000E+00  0.00000000E+00
  0.00000000E+00  0.00000000E+00  0.00000000E+00
  0.00000000E+00  0.00000000E+00  0.00000000E+00
  0.00000000E+00  0.00000000E+00  0.00000000E+00
  0.00000000E+00  0.00000000E+00  0.00000000E+00
  0.00000000E+00  0.00000000E+00  0.00000000E+00
  0.00000000E+00  0.00000000E+00  0.00000000E+00
  0.00000000E+00  0.00000000E+00  0.00000000E+00
  0.00000000E+00  0.00000000E+00  0.00000000E+00
  0.00000000E+00  0.00000000E+00  0.00000000E+00
  0.00000000E+00  0.00000000E+00  0.00000000E+00
  0.00000000E+00  0.00000000E+00  0.00000000E+00
  0.00000000E+00  0.00000000E+00  0.00000000E+00
  0.00000000E+00  0.00000000E+00  0.00000000E+00
  0.00000000E+00  0.00000000E+00  0.00000000E+00
  0.00000000E+00  0.00000000E+00  0.00000000E+00
  0.00000000E+00  0.00000000E+00  0.00000000E+00
  0.00000000E+00  0.00000000E+00  0.00000000E+00
  0.00000000E+00  0.00000000E+00  0.00000000E+00
  0.00000000E+00  0.00000000E+00  0.00000000E+00
  0.00000000E+00  0.00000000E+00  0.00000000E+00
  0.00000000E+00  0.00000000E+00  0.00000000E+00
  0.00000000E+00  0.00000000E+00  0.00000000E+00
  0.00000000E+00  0.00000000E+00  0.00000000E+00
  0.00000000E+00  0.00000000E+00  0.00000000E+00
  0.00000000E+00  0.00000000E+00  0.00000000E+00
  0.00000000E+00  0.00000000E+00  0.00000000E+00
  0.00000000E+00  0.00000000E+00  0.00000000E+00
  0.00000000E+00  0.00000000E+00  0.00000000E+00
  0.00000000E+00  0.00000000E+00  0.00000000E+00
  0.00000000E+00  0.00000000E+00  0.00000000E+00
  0.00000000E+00  0.00000000E+00  0.00000000E+00
  0.00000000E+00  0.00000000E+00  0.00000000E+00
  0.00000000E+00  0.00000000E+00  0.00000000E+00
  0.00000000E+00  0.00000000E+00  0.00000000E+00
  0.00000000E+00  0.00000000E+00  0.00000000E+00
  0.00000000E+00  0.00000000E+00  0.00000000E+00
  0.00000000E+00  0.00000000E+00  0.00000000E+00
  0.00000000E+00  0.00000000E+00  0.00000000E+00
  0.00000000E+00  0.00000000E+00  0.00000000E+00
  0.00000000E+00  0.00000000E+00  0.00000000E+00
  0.00000000E+00  0.00000000E+00  0.00000000E+00
  0.00000000E+00  0.00000000E+00  0.00000000E+00
  0.00000000E+00  0.00000000E+00  0.00000000E+00
  0.00000000E+00  0.00000000E+00  0.00000000E+00
  0.00000000E+00  0.00000000E+00  0.00000000E+00
  0.00000000E+00  0.00000000E+00  0.00000000E+00
  0.00000000E+00  0.00000000E+00  0.00000000E+00
  0.00000000E+00  0.00000000E+00  0.00000000E+00
  0.00000000E+00  0.00000000E+00  0.00000000E+00
  0.00000000E+00  0.00000000E+00  0.00000000E+00
  0.00000000E+00  0.00000000E+00  0.00000000E+00
  0.00000000E+00  0.00000000E+00  0.00000000E+00
