Nb1 H1 C123 N3 O1                       
   1.00000000000000     
    19.8079119778202575    0.0100370686915132   -0.0835018807930303
    -9.8946901732913162   17.0255012309522726   -0.2208148026317392
    -0.1254068864030475   -0.4590752960458629   29.8363904730509510
   Nb   H    C    N    O 
     1     1   123     3     1
Direct
  0.4412877923571358  0.5036854309906965  0.4364148737087644
  0.4683797526470421  0.5395215990669207  0.5266466432891671
  0.0420569841846932  0.0843205185050383  0.3999773781158869
  0.0410929672393002  0.2083518732033434  0.3998693657035489
  0.0403886064157836  0.3330896375706486  0.3991484559687775
  0.0405632584420175  0.4583051459448180  0.3985935788129030
  0.0415157455790376  0.5838789336390263  0.3990238341406834
  0.0423564718627942  0.7094003787690368  0.3995103626980284
  0.0426206794820059  0.8346640991582289  0.3996924932756892
  0.0425204233933861  0.9597209767348143  0.3998039646017905
  0.1678703061968695  0.0856408116127077  0.4004768807267411
  0.1674687105984331  0.2104348739477996  0.4007937255156469
  0.1651712893840094  0.3338051561510569  0.4005305428187154
  0.1643276458538988  0.4584872261942484  0.3986618825926943
  0.1652831652102585  0.5837254850363726  0.3984411065293186
  0.1665840753559285  0.7090842269371269  0.3991814352922239
  0.1672692786008240  0.8346061483300785  0.3996678642334109
  0.1676375843708301  0.9601939310908548  0.3999918595553899
  0.2927193003525702  0.0859935802542309  0.4002795940985635
  0.2932823802652217  0.2127775680578141  0.4020043802755970
  0.2925471762311747  0.3384767969109446  0.4045122674888951
  0.2878318110952162  0.4582320004896110  0.4024118101079643
  0.2886470280743679  0.5828452971767368  0.3988979275073885
  0.2908572362255822  0.7083024628107766  0.3988851097145406
  0.2918293020461932  0.8340058574667422  0.3993503540331536
  0.2923330610502469  0.9597995283037122  0.3997040507386387
  0.4172131124311804  0.0844285329253875  0.3996834260115142
  0.4178011850212104  0.2106192515414564  0.4001578830311792
  0.4197139867041026  0.3384585137065385  0.4029660286655178
  0.4149752001934205  0.7057782440306823  0.3997198704843142
  0.4162684408146087  0.8321875926224541  0.3992593274204981
  0.4168297104010071  0.9583634638814637  0.3995042363777390
  0.5416739649662962  0.0828413847585057  0.3995839369352686
  0.5422458782017399  0.2087223079361432  0.3994245609869060
  0.5432235948717433  0.3343257278326765  0.3990769937805265
  0.5463468733909274  0.4596954009968611  0.4005819738570947
  0.5387620585934522  0.7021238623760818  0.4022159701484118
  0.5406301886667324  0.8303132704601305  0.4000220974902929
  0.5412095181773326  0.9568284876361931  0.3996351043999705
  0.6662090048333470  0.0821491389054147  0.3997140249248169
  0.6666413665323119  0.2076710279476736  0.3994681915102812
  0.6675506055152254  0.3332111071777077  0.3990882902382339
  0.6695744866037473  0.4587759406170487  0.3981206292903891
  0.6705933610899141  0.5841477647615886  0.3985250891183834
  0.6669589485392406  0.7067379300561761  0.3997561069042163
  0.6649227102025619  0.8305403383265831  0.4000503135443591
  0.6656934385383453  0.9564436608920986  0.3998395961790523
  0.7908660246945000  0.0821054213236585  0.3997647834015074
  0.7911645697276566  0.2074701851676550  0.3995617950252908
  0.7918143378404534  0.3329224897434830  0.3993104999224756
  0.7929695929196919  0.4584478366012514  0.3991120359660062
  0.7938900711849098  0.5839075272206324  0.3986565017769500
  0.7933932105571074  0.7090141250567450  0.3989567202732489
  0.7914392859259567  0.8326630112161327  0.3992584548047158
  0.7906539976801232  0.9568918833895605  0.3995455748604939
  0.9160471201907328  0.0827559621960224  0.3997086291712730
  0.9158362660488569  0.2076085076051083  0.3995928775956077
  0.9160072410248207  0.3328764558462053  0.3991529266804078
  0.9167910686809096  0.4584078464004532  0.3991307610423935
  0.9177189291223334  0.5839843589503441  0.3992926512313698
  0.9179265799514752  0.7092453951013220  0.3993170587788294
  0.9175886562994240  0.8342225231195829  0.3993655852358152
  0.9167232270499989  0.9584669360384134  0.3994882811274380
  0.0843338680794912  0.0433616373695403  0.4000669447526385
  0.0837649312661533  0.1678996734644842  0.4001373034184256
  0.0823449424826213  0.2917734940359987  0.3997505216102338
  0.0815729106578113  0.4163841555275760  0.3986337199264116
  0.0824049946707330  0.5418921882143971  0.3986052322809857
  0.0834736073005853  0.6674449905425728  0.3992776156872435
  0.0840661938227238  0.7929073002262995  0.3996654834986943
  0.0843095344466941  0.9182358260853776  0.3998455226542706
  0.2093529557494647  0.0438607594680863  0.4003092052925689
  0.2097272907475120  0.1695462841066852  0.4011453866181081
  0.2088153600124533  0.2941984350876802  0.4015975281113328
  0.2056982343877719  0.4170451279919090  0.3999853493888033
  0.2058355848658076  0.5415078652644579  0.3984075163841320
  0.2075474132171148  0.6670604137711724  0.3987842391766809
  0.2085943615026197  0.7926775780595011  0.3994279614143740
  0.2090862407562905  0.9182370069819201  0.3998135167767071
  0.3340271281676671  0.0435519306790334  0.3998331180102042
  0.3344186672376998  0.1698902669809804  0.4008433373268129
  0.3352851929083601  0.2972831100484581  0.4039629721220029
  0.3294390237864987  0.5415766683191545  0.4011078069975660
  0.3316382534041836  0.6661232244691416  0.3990423680223991
  0.3330690014176897  0.7917269750595244  0.3991468578827360
  0.3336030762934079  0.9175336345665280  0.3994975939068872
  0.4584799768671614  0.0419513209254145  0.3995867543447720
  0.4589220548266636  0.1680428895876629  0.3996734493953001
  0.4598857590982098  0.2943041649604039  0.4001589673347264
  0.4645853308405458  0.4211556244088097  0.4050334079465263
  0.4543243969701894  0.6612075429625546  0.4021014327683045
  0.4573697788457024  0.7894902446143784  0.3994823475783935
  0.4580348749408074  0.9158782153220040  0.3994570216447010
  0.5829322273262882  0.0405821847064331  0.3996533276542378
  0.5834732983314163  0.1664283050144726  0.3994893711370177
  0.5842837914107197  0.2920138868818643  0.3990879941001038
  0.5867641595345082  0.4176062753893723  0.3985746425773463
  0.5891371433484851  0.5434848647948538  0.4004794802929443
  0.5832680452720173  0.6622954881494717  0.4020873304134314
  0.5811558174559452  0.7871479676197557  0.4007335855833736
  0.5824457837386894  0.9143749209171997  0.3998107509171021
  0.7075592373655198  0.0401887107045450  0.3997902372156271
  0.7079878155671016  0.1657324939959886  0.3995910788971872
  0.7086228025630760  0.2912467794540645  0.3993486998099266
  0.7101137726608417  0.4166694799806074  0.3987397084383565
  0.7113566638518006  0.5418941040932641  0.3980660560445515
  0.7106085863197693  0.6672070915521413  0.3989924163076505
  0.7078541656297677  0.7902634140107551  0.3995728713373852
  0.7069879539168111  0.9144882685646624  0.3997585544599691
  0.8325739108674292  0.0405908236425793  0.3996714604269421
  0.8326437955256013  0.1657372438815029  0.3996841393330917
  0.8329569377246205  0.2909866950958827  0.3993441831125696
  0.8338606693146535  0.4164415950875556  0.3992728463620232
  0.8348731939714934  0.5420358888894551  0.3990864025665886
  0.8350675000404568  0.6673984662533760  0.3989724032356263
  0.8342759655815638  0.7922091478936220  0.3991793077278169
  0.8331333900335327  0.9162049885196522  0.3993752926117458
  0.9584816920272715  0.0419810276347519  0.3997205266230591
  0.9577106864664329  0.1662342561791025  0.3997026851868424
  0.9574294499914018  0.2911692767924485  0.3992688680275056
  0.9577219301410260  0.4164246381364458  0.3989390734688879
  0.9586295202182087  0.5419439931360670  0.3991758884211449
  0.9593629588050185  0.6675015970552753  0.3993888143337979
  0.9594347882687566  0.7928446687300610  0.3994789961665681
  0.9591252957411481  0.9176645646624347  0.3995208669730597
  0.4102314155624942  0.5804193087294537  0.4050116517471481
  0.5474510390248789  0.5820396209136647  0.4045355484806900
  0.3300222404636544  0.4201410237407627  0.4079937353187986
  0.4597805706647299  0.5064534313759291  0.5002651926800791
 
  0.00000000E+00  0.00000000E+00  0.00000000E+00
  0.00000000E+00  0.00000000E+00  0.00000000E+00
  0.00000000E+00  0.00000000E+00  0.00000000E+00
  0.00000000E+00  0.00000000E+00  0.00000000E+00
  0.00000000E+00  0.00000000E+00  0.00000000E+00
  0.00000000E+00  0.00000000E+00  0.00000000E+00
  0.00000000E+00  0.00000000E+00  0.00000000E+00
  0.00000000E+00  0.00000000E+00  0.00000000E+00
  0.00000000E+00  0.00000000E+00  0.00000000E+00
  0.00000000E+00  0.00000000E+00  0.00000000E+00
  0.00000000E+00  0.00000000E+00  0.00000000E+00
  0.00000000E+00  0.00000000E+00  0.00000000E+00
  0.00000000E+00  0.00000000E+00  0.00000000E+00
  0.00000000E+00  0.00000000E+00  0.00000000E+00
  0.00000000E+00  0.00000000E+00  0.00000000E+00
  0.00000000E+00  0.00000000E+00  0.00000000E+00
  0.00000000E+00  0.00000000E+00  0.00000000E+00
  0.00000000E+00  0.00000000E+00  0.00000000E+00
  0.00000000E+00  0.00000000E+00  0.00000000E+00
  0.00000000E+00  0.00000000E+00  0.00000000E+00
  0.00000000E+00  0.00000000E+00  0.00000000E+00
  0.00000000E+00  0.00000000E+00  0.00000000E+00
  0.00000000E+00  0.00000000E+00  0.00000000E+00
  0.00000000E+00  0.00000000E+00  0.00000000E+00
  0.00000000E+00  0.00000000E+00  0.00000000E+00
  0.00000000E+00  0.00000000E+00  0.00000000E+00
  0.00000000E+00  0.00000000E+00  0.00000000E+00
  0.00000000E+00  0.00000000E+00  0.00000000E+00
  0.00000000E+00  0.00000000E+00  0.00000000E+00
  0.00000000E+00  0.00000000E+00  0.00000000E+00
  0.00000000E+00  0.00000000E+00  0.00000000E+00
  0.00000000E+00  0.00000000E+00  0.00000000E+00
  0.00000000E+00  0.00000000E+00  0.00000000E+00
  0.00000000E+00  0.00000000E+00  0.00000000E+00
  0.00000000E+00  0.00000000E+00  0.00000000E+00
  0.00000000E+00  0.00000000E+00  0.00000000E+00
  0.00000000E+00  0.00000000E+00  0.00000000E+00
  0.00000000E+00  0.00000000E+00  0.00000000E+00
  0.00000000E+00  0.00000000E+00  0.00000000E+00
  0.00000000E+00  0.00000000E+00  0.00000000E+00
  0.00000000E+00  0.00000000E+00  0.00000000E+00
  0.00000000E+00  0.00000000E+00  0.00000000E+00
  0.00000000E+00  0.00000000E+00  0.00000000E+00
  0.00000000E+00  0.00000000E+00  0.00000000E+00
  0.00000000E+00  0.00000000E+00  0.00000000E+00
  0.00000000E+00  0.00000000E+00  0.00000000E+00
  0.00000000E+00  0.00000000E+00  0.00000000E+00
  0.00000000E+00  0.00000000E+00  0.00000000E+00
  0.00000000E+00  0.00000000E+00  0.00000000E+00
  0.00000000E+00  0.00000000E+00  0.00000000E+00
  0.00000000E+00  0.00000000E+00  0.00000000E+00
  0.00000000E+00  0.00000000E+00  0.00000000E+00
  0.00000000E+00  0.00000000E+00  0.00000000E+00
  0.00000000E+00  0.00000000E+00  0.00000000E+00
  0.00000000E+00  0.00000000E+00  0.00000000E+00
  0.00000000E+00  0.00000000E+00  0.00000000E+00
  0.00000000E+00  0.00000000E+00  0.00000000E+00
  0.00000000E+00  0.00000000E+00  0.00000000E+00
  0.00000000E+00  0.00000000E+00  0.00000000E+00
  0.00000000E+00  0.00000000E+00  0.00000000E+00
  0.00000000E+00  0.00000000E+00  0.00000000E+00
  0.00000000E+00  0.00000000E+00  0.00000000E+00
  0.00000000E+00  0.00000000E+00  0.00000000E+00
  0.00000000E+00  0.00000000E+00  0.00000000E+00
  0.00000000E+00  0.00000000E+00  0.00000000E+00
  0.00000000E+00  0.00000000E+00  0.00000000E+00
  0.00000000E+00  0.00000000E+00  0.00000000E+00
  0.00000000E+00  0.00000000E+00  0.00000000E+00
  0.00000000E+00  0.00000000E+00  0.00000000E+00
  0.00000000E+00  0.00000000E+00  0.00000000E+00
  0.00000000E+00  0.00000000E+00  0.00000000E+00
  0.00000000E+00  0.00000000E+00  0.00000000E+00
  0.00000000E+00  0.00000000E+00  0.00000000E+00
  0.00000000E+00  0.00000000E+00  0.00000000E+00
  0.00000000E+00  0.00000000E+00  0.00000000E+00
  0.00000000E+00  0.00000000E+00  0.00000000E+00
  0.00000000E+00  0.00000000E+00  0.00000000E+00
  0.00000000E+00  0.00000000E+00  0.00000000E+00
  0.00000000E+00  0.00000000E+00  0.00000000E+00
  0.00000000E+00  0.00000000E+00  0.00000000E+00
  0.00000000E+00  0.00000000E+00  0.00000000E+00
  0.00000000E+00  0.00000000E+00  0.00000000E+00
  0.00000000E+00  0.00000000E+00  0.00000000E+00
  0.00000000E+00  0.00000000E+00  0.00000000E+00
  0.00000000E+00  0.00000000E+00  0.00000000E+00
  0.00000000E+00  0.00000000E+00  0.00000000E+00
  0.00000000E+00  0.00000000E+00  0.00000000E+00
  0.00000000E+00  0.00000000E+00  0.00000000E+00
  0.00000000E+00  0.00000000E+00  0.00000000E+00
  0.00000000E+00  0.00000000E+00  0.00000000E+00
  0.00000000E+00  0.00000000E+00  0.00000000E+00
  0.00000000E+00  0.00000000E+00  0.00000000E+00
  0.00000000E+00  0.00000000E+00  0.00000000E+00
  0.00000000E+00  0.00000000E+00  0.00000000E+00
  0.00000000E+00  0.00000000E+00  0.00000000E+00
  0.00000000E+00  0.00000000E+00  0.00000000E+00
  0.00000000E+00  0.00000000E+00  0.00000000E+00
  0.00000000E+00  0.00000000E+00  0.00000000E+00
  0.00000000E+00  0.00000000E+00  0.00000000E+00
  0.00000000E+00  0.00000000E+00  0.00000000E+00
  0.00000000E+00  0.00000000E+00  0.00000000E+00
  0.00000000E+00  0.00000000E+00  0.00000000E+00
  0.00000000E+00  0.00000000E+00  0.00000000E+00
  0.00000000E+00  0.00000000E+00  0.00000000E+00
  0.00000000E+00  0.00000000E+00  0.00000000E+00
  0.00000000E+00  0.00000000E+00  0.00000000E+00
  0.00000000E+00  0.00000000E+00  0.00000000E+00
  0.00000000E+00  0.00000000E+00  0.00000000E+00
  0.00000000E+00  0.00000000E+00  0.00000000E+00
  0.00000000E+00  0.00000000E+00  0.00000000E+00
  0.00000000E+00  0.00000000E+00  0.00000000E+00
  0.00000000E+00  0.00000000E+00  0.00000000E+00
  0.00000000E+00  0.00000000E+00  0.00000000E+00
  0.00000000E+00  0.00000000E+00  0.00000000E+00
  0.00000000E+00  0.00000000E+00  0.00000000E+00
  0.00000000E+00  0.00000000E+00  0.00000000E+00
  0.00000000E+00  0.00000000E+00  0.00000000E+00
  0.00000000E+00  0.00000000E+00  0.00000000E+00
  0.00000000E+00  0.00000000E+00  0.00000000E+00
  0.00000000E+00  0.00000000E+00  0.00000000E+00
  0.00000000E+00  0.00000000E+00  0.00000000E+00
  0.00000000E+00  0.00000000E+00  0.00000000E+00
  0.00000000E+00  0.00000000E+00  0.00000000E+00
  0.00000000E+00  0.00000000E+00  0.00000000E+00
  0.00000000E+00  0.00000000E+00  0.00000000E+00
  0.00000000E+00  0.00000000E+00  0.00000000E+00
  0.00000000E+00  0.00000000E+00  0.00000000E+00
  0.00000000E+00  0.00000000E+00  0.00000000E+00
  0.00000000E+00  0.00000000E+00  0.00000000E+00
