Ni1 C125 N1 O1                          
   1.00000000000000     
    19.8042112921057374   -0.0057710020267383    0.0166877866494284
    -9.9072688625789169   17.0519292498094615   -0.0115312294076404
     0.0247898278884189   -0.0050476340259311   29.8019619215265621
   Ni   C    N    O 
     1   125     1     1
Direct
  0.4371230484166698  0.4994704244786498  0.4207586335254030
  0.0419330069805064  0.0839989722275193  0.3998402598702429
  0.0412875605244596  0.2083297475557685  0.3998941754885716
  0.0408532613965484  0.3329397019786998  0.3996941508943875
  0.0408962458316646  0.4582683490021154  0.3994280219336660
  0.0414531469681922  0.5836398473960863  0.3993202959354877
  0.0419267183011702  0.7088923670956065  0.3993640049254377
  0.0421884507268785  0.8341905512011472  0.3995722645363633
  0.0422213739429968  0.9592811184589161  0.3997191608346709
  0.1675445798042378  0.0851233908721413  0.4003694256027054
  0.1673792694400194  0.2099995120747215  0.4010888088922831
  0.1660898347255372  0.3339627311944130  0.4010717806023523
  0.1648739511132292  0.4584483705786299  0.4002497948080853
  0.1654520954355931  0.5835834403323993  0.3997391034864955
  0.1663573238152528  0.7089401582596320  0.3995017337107542
  0.1669122763787598  0.8342665757567385  0.3995705295665696
  0.1673001885793913  0.9596948498566820  0.3998221087252951
  0.2925059290508694  0.0851339290013386  0.4004365644852582
  0.2933032667900445  0.2115324192643093  0.4024077658473403
  0.2930683359652794  0.3371367366295335  0.4046392152206969
  0.2893293086840319  0.4591666947670067  0.4033737039734356
  0.2891493193052261  0.5841337186804496  0.4013050714582435
  0.2906871342712192  0.7089406480272955  0.4002192311991205
  0.2915579148949032  0.8339857609699963  0.3996430845828256
  0.2919264752471133  0.9593277859713207  0.3997112709846674
  0.4169997653213405  0.0840216206009903  0.3999176397976659
  0.4175823266426176  0.2100016062833542  0.4013100157109169
  0.4191453130914560  0.3374018410078452  0.4049634096670063
  0.4147405033303094  0.7065336711532875  0.4021454863382481
  0.4160825013012960  0.8326337243413355  0.4002035358237456
  0.4165823359677998  0.9583222085915842  0.3996536582103984
  0.5415714163226392  0.0827009408998708  0.3996737737435153
  0.5420594986126939  0.2080461069357800  0.4000763602800751
  0.5428890667678384  0.3332080080504549  0.4015205835685360
  0.5456199282389154  0.4580033603255032  0.4042800064482034
  0.5450926037926518  0.5796996227475996  0.4071279244342034
  0.5383876439629152  0.7031894243477933  0.4044655366508921
  0.5402820957946223  0.8308624417505537  0.4012692337004495
  0.5411928009190518  0.9570737571112816  0.3999610610706532
  0.6662257059800869  0.0821586986047581  0.3997270587492294
  0.6666599612049299  0.2075192306512379  0.3995852865007458
  0.6672658312018961  0.3327002165230467  0.3998668108787032
  0.6689676866865913  0.4581286326190588  0.4005548023713595
  0.6702174390828154  0.5836673282514993  0.4016102965471771
  0.6659044856703243  0.7060911409561069  0.4021512878668828
  0.6648301557004113  0.8305002576207389  0.4012835903265267
  0.6656916338902193  0.9565297034584368  0.4002398780712844
  0.7909822161126854  0.0821565679685355  0.3997389821291032
  0.7913016052008259  0.2074181869489497  0.3995382773084535
  0.7918043409054311  0.3327642022568751  0.3993745338206396
  0.7926897973110145  0.4581805176246542  0.3994548806548077
  0.7934278426898784  0.5834853588395729  0.3997177264938547
  0.7928027202303060  0.7086485464028490  0.4001271193014209
  0.7911171750046421  0.8323834998302702  0.4001771428608639
  0.7905938020436369  0.9568630015639213  0.3999866170281610
  0.9161222707320621  0.0827146142352001  0.3996507721971351
  0.9160844399084715  0.2076384715523606  0.3995813296313220
  0.9162638577179247  0.3328297277919782  0.3993865112834008
  0.9167190023323669  0.4581247181179998  0.3992731691509325
  0.9173916503879695  0.5835886972400306  0.3993032847200026
  0.9174669432009117  0.7089266900094319  0.3994772068602298
  0.9171629376986999  0.8337849770512920  0.3996411767713117
  0.9164975977443642  0.9581789117809751  0.3996705504999882
  0.0840234278499098  0.0428679672073604  0.3999201335433173
  0.0836814740316940  0.1675250466132779  0.4001290866619919
  0.0826603509711159  0.2916882603096690  0.4000869383384089
  0.0821531635563759  0.4165754020082759  0.3997020351551105
  0.0825312524695112  0.5417849878502156  0.3994358162667034
  0.0832365942886513  0.6671803921029626  0.3993639569878069
  0.0837170328200088  0.7925447166970079  0.3995110505964871
  0.0839099354878278  0.9177658764820410  0.3997085854005140
  0.2090839124449318  0.0432785648813155  0.4001980683819725
  0.2093906996803142  0.1688543773535762  0.4012702661636938
  0.2089907035305251  0.2937314776282621  0.4020790847414706
  0.2064372097696377  0.4171919205058338  0.4011938724378450
  0.2062941746764870  0.5418181894705115  0.4002859218587352
  0.2076207106844387  0.6672141727496252  0.3997639715598095
  0.2083254684709876  0.7924543868467079  0.3995596163375822
  0.2087452248936777  0.9177952363968750  0.3996954487514574
  0.3337377986429537  0.0428842212837983  0.3999724484761923
  0.3344184116416258  0.1688073342768511  0.4013782626469177
  0.3350547244838518  0.2950536264230446  0.4046007835030925
  0.3314757032859644  0.4198017482867373  0.4063991670137541
  0.3307923947689693  0.5436513930601337  0.4034352232835272
  0.3317766322255356  0.6670521340507438  0.4012204396107680
  0.3329167403111697  0.7921238184777037  0.3999636791157682
  0.3334125160763015  0.9173865635606020  0.3996244381020507
  0.4584005112487158  0.0418240700481989  0.3996845906092914
  0.4588065509292479  0.1675059928860537  0.4003089522154544
  0.4597507822875657  0.2936857908029714  0.4024654458558563
  0.4641218505350044  0.4201213901042653  0.4068057355403391
  0.4539254987432050  0.6619018890037377  0.4044897175644157
  0.4572767663143242  0.7901661039632846  0.4011391749444842
  0.4579383949363012  0.9161000704460674  0.3998709284254363
  0.5830258646223246  0.0406709201623964  0.3997385516523355
  0.5834373905533909  0.1661276180321209  0.3997153435173987
  0.5841292998795103  0.2912396474172138  0.4003780681034416
  0.5859953911626788  0.4161387762640242  0.4018146119072154
  0.5881855041372982  0.5419172801035610  0.4042660873023525
  0.5814289789859510  0.6618690847427444  0.4047882050008693
  0.5806023525393416  0.7873564196054709  0.4023227031433859
  0.5823410005401530  0.9146987759206630  0.4004113835885700
  0.7075953099547413  0.0401929416316333  0.3998681719890563
  0.7081078435898007  0.1657284709495536  0.3995898191857052
  0.7085826945423570  0.2910083514099867  0.3995363548841053
  0.7097455793660954  0.4163816531123286  0.3998429842954242
  0.7109571480905885  0.5416700887734585  0.4004470165496958
  0.7096033415256207  0.6666027932538495  0.4012214394480653
  0.7072709410143574  0.7897394449846925  0.4011144751494533
  0.7069125681582957  0.9143837052864088  0.4004239303442728
  0.8325486091079601  0.0405546642598530  0.3997542623600100
  0.8327852013006225  0.1657467013464667  0.3996054690071711
  0.8331718598036560  0.2910880163322596  0.3993902967662065
  0.8337656212102896  0.4163462392129860  0.3993298903428247
  0.8344969445870286  0.5417032070474161  0.3994156157963093
  0.8344586332028445  0.6671795066657268  0.3997022642921306
  0.8338364980471389  0.7918404429115099  0.3999115070024751
  0.8328092236378838  0.9158785797650585  0.3998890956472656
  0.9582884086014534  0.0417285387534916  0.3996560369299497
  0.9578807985706852  0.1662608704055011  0.3996448652640264
  0.9577322111430981  0.2911403211575375  0.3995018109347829
  0.9579044530772342  0.4163818401566161  0.3993249476792847
  0.9585383508083515  0.5418519399249763  0.3992677271172428
  0.9589019699962557  0.6671824464754629  0.3993556685636319
  0.9589598985883729  0.7923838662384044  0.3995485375181081
  0.9587123747068147  0.9172247574887668  0.3996481579498519
  0.4097122189176357  0.5814159340455881  0.4059133060585402
  0.4371449886789475  0.5009580007064749  0.4779818760601840
 
  0.00000000E+00  0.00000000E+00  0.00000000E+00
  0.00000000E+00  0.00000000E+00  0.00000000E+00
  0.00000000E+00  0.00000000E+00  0.00000000E+00
  0.00000000E+00  0.00000000E+00  0.00000000E+00
  0.00000000E+00  0.00000000E+00  0.00000000E+00
  0.00000000E+00  0.00000000E+00  0.00000000E+00
  0.00000000E+00  0.00000000E+00  0.00000000E+00
  0.00000000E+00  0.00000000E+00  0.00000000E+00
  0.00000000E+00  0.00000000E+00  0.00000000E+00
  0.00000000E+00  0.00000000E+00  0.00000000E+00
  0.00000000E+00  0.00000000E+00  0.00000000E+00
  0.00000000E+00  0.00000000E+00  0.00000000E+00
  0.00000000E+00  0.00000000E+00  0.00000000E+00
  0.00000000E+00  0.00000000E+00  0.00000000E+00
  0.00000000E+00  0.00000000E+00  0.00000000E+00
  0.00000000E+00  0.00000000E+00  0.00000000E+00
  0.00000000E+00  0.00000000E+00  0.00000000E+00
  0.00000000E+00  0.00000000E+00  0.00000000E+00
  0.00000000E+00  0.00000000E+00  0.00000000E+00
  0.00000000E+00  0.00000000E+00  0.00000000E+00
  0.00000000E+00  0.00000000E+00  0.00000000E+00
  0.00000000E+00  0.00000000E+00  0.00000000E+00
  0.00000000E+00  0.00000000E+00  0.00000000E+00
  0.00000000E+00  0.00000000E+00  0.00000000E+00
  0.00000000E+00  0.00000000E+00  0.00000000E+00
  0.00000000E+00  0.00000000E+00  0.00000000E+00
  0.00000000E+00  0.00000000E+00  0.00000000E+00
  0.00000000E+00  0.00000000E+00  0.00000000E+00
  0.00000000E+00  0.00000000E+00  0.00000000E+00
  0.00000000E+00  0.00000000E+00  0.00000000E+00
  0.00000000E+00  0.00000000E+00  0.00000000E+00
  0.00000000E+00  0.00000000E+00  0.00000000E+00
  0.00000000E+00  0.00000000E+00  0.00000000E+00
  0.00000000E+00  0.00000000E+00  0.00000000E+00
  0.00000000E+00  0.00000000E+00  0.00000000E+00
  0.00000000E+00  0.00000000E+00  0.00000000E+00
  0.00000000E+00  0.00000000E+00  0.00000000E+00
  0.00000000E+00  0.00000000E+00  0.00000000E+00
  0.00000000E+00  0.00000000E+00  0.00000000E+00
  0.00000000E+00  0.00000000E+00  0.00000000E+00
  0.00000000E+00  0.00000000E+00  0.00000000E+00
  0.00000000E+00  0.00000000E+00  0.00000000E+00
  0.00000000E+00  0.00000000E+00  0.00000000E+00
  0.00000000E+00  0.00000000E+00  0.00000000E+00
  0.00000000E+00  0.00000000E+00  0.00000000E+00
  0.00000000E+00  0.00000000E+00  0.00000000E+00
  0.00000000E+00  0.00000000E+00  0.00000000E+00
  0.00000000E+00  0.00000000E+00  0.00000000E+00
  0.00000000E+00  0.00000000E+00  0.00000000E+00
  0.00000000E+00  0.00000000E+00  0.00000000E+00
  0.00000000E+00  0.00000000E+00  0.00000000E+00
  0.00000000E+00  0.00000000E+00  0.00000000E+00
  0.00000000E+00  0.00000000E+00  0.00000000E+00
  0.00000000E+00  0.00000000E+00  0.00000000E+00
  0.00000000E+00  0.00000000E+00  0.00000000E+00
  0.00000000E+00  0.00000000E+00  0.00000000E+00
  0.00000000E+00  0.00000000E+00  0.00000000E+00
  0.00000000E+00  0.00000000E+00  0.00000000E+00
  0.00000000E+00  0.00000000E+00  0.00000000E+00
  0.00000000E+00  0.00000000E+00  0.00000000E+00
  0.00000000E+00  0.00000000E+00  0.00000000E+00
  0.00000000E+00  0.00000000E+00  0.00000000E+00
  0.00000000E+00  0.00000000E+00  0.00000000E+00
  0.00000000E+00  0.00000000E+00  0.00000000E+00
  0.00000000E+00  0.00000000E+00  0.00000000E+00
  0.00000000E+00  0.00000000E+00  0.00000000E+00
  0.00000000E+00  0.00000000E+00  0.00000000E+00
  0.00000000E+00  0.00000000E+00  0.00000000E+00
  0.00000000E+00  0.00000000E+00  0.00000000E+00
  0.00000000E+00  0.00000000E+00  0.00000000E+00
  0.00000000E+00  0.00000000E+00  0.00000000E+00
  0.00000000E+00  0.00000000E+00  0.00000000E+00
  0.00000000E+00  0.00000000E+00  0.00000000E+00
  0.00000000E+00  0.00000000E+00  0.00000000E+00
  0.00000000E+00  0.00000000E+00  0.00000000E+00
  0.00000000E+00  0.00000000E+00  0.00000000E+00
  0.00000000E+00  0.00000000E+00  0.00000000E+00
  0.00000000E+00  0.00000000E+00  0.00000000E+00
  0.00000000E+00  0.00000000E+00  0.00000000E+00
  0.00000000E+00  0.00000000E+00  0.00000000E+00
  0.00000000E+00  0.00000000E+00  0.00000000E+00
  0.00000000E+00  0.00000000E+00  0.00000000E+00
  0.00000000E+00  0.00000000E+00  0.00000000E+00
  0.00000000E+00  0.00000000E+00  0.00000000E+00
  0.00000000E+00  0.00000000E+00  0.00000000E+00
  0.00000000E+00  0.00000000E+00  0.00000000E+00
  0.00000000E+00  0.00000000E+00  0.00000000E+00
  0.00000000E+00  0.00000000E+00  0.00000000E+00
  0.00000000E+00  0.00000000E+00  0.00000000E+00
  0.00000000E+00  0.00000000E+00  0.00000000E+00
  0.00000000E+00  0.00000000E+00  0.00000000E+00
  0.00000000E+00  0.00000000E+00  0.00000000E+00
  0.00000000E+00  0.00000000E+00  0.00000000E+00
  0.00000000E+00  0.00000000E+00  0.00000000E+00
  0.00000000E+00  0.00000000E+00  0.00000000E+00
  0.00000000E+00  0.00000000E+00  0.00000000E+00
  0.00000000E+00  0.00000000E+00  0.00000000E+00
  0.00000000E+00  0.00000000E+00  0.00000000E+00
  0.00000000E+00  0.00000000E+00  0.00000000E+00
  0.00000000E+00  0.00000000E+00  0.00000000E+00
  0.00000000E+00  0.00000000E+00  0.00000000E+00
  0.00000000E+00  0.00000000E+00  0.00000000E+00
  0.00000000E+00  0.00000000E+00  0.00000000E+00
  0.00000000E+00  0.00000000E+00  0.00000000E+00
  0.00000000E+00  0.00000000E+00  0.00000000E+00
  0.00000000E+00  0.00000000E+00  0.00000000E+00
  0.00000000E+00  0.00000000E+00  0.00000000E+00
  0.00000000E+00  0.00000000E+00  0.00000000E+00
  0.00000000E+00  0.00000000E+00  0.00000000E+00
  0.00000000E+00  0.00000000E+00  0.00000000E+00
  0.00000000E+00  0.00000000E+00  0.00000000E+00
  0.00000000E+00  0.00000000E+00  0.00000000E+00
  0.00000000E+00  0.00000000E+00  0.00000000E+00
  0.00000000E+00  0.00000000E+00  0.00000000E+00
  0.00000000E+00  0.00000000E+00  0.00000000E+00
  0.00000000E+00  0.00000000E+00  0.00000000E+00
  0.00000000E+00  0.00000000E+00  0.00000000E+00
  0.00000000E+00  0.00000000E+00  0.00000000E+00
  0.00000000E+00  0.00000000E+00  0.00000000E+00
  0.00000000E+00  0.00000000E+00  0.00000000E+00
  0.00000000E+00  0.00000000E+00  0.00000000E+00
  0.00000000E+00  0.00000000E+00  0.00000000E+00
  0.00000000E+00  0.00000000E+00  0.00000000E+00
  0.00000000E+00  0.00000000E+00  0.00000000E+00
  0.00000000E+00  0.00000000E+00  0.00000000E+00
  0.00000000E+00  0.00000000E+00  0.00000000E+00
  0.00000000E+00  0.00000000E+00  0.00000000E+00
  0.00000000E+00  0.00000000E+00  0.00000000E+00
