Sc1 C126 O1                             
   1.00000000000000     
    19.4730580123321708    0.0001294756881259    0.0342324523547937
    -9.7362685720947724   17.1728411582106482   -0.0556698652079243
     0.0496045532548098   -0.0677610395681519   30.0903730065529196
   Sc   C    O 
     1   126     1
Direct
  0.4436717421155069  0.5056266472360398  0.4612057170388227
  0.0415061870248538  0.0822072905786759  0.3999466979358372
  0.0443236100384738  0.2095165132850404  0.3998632233539122
  0.0462144069466835  0.3348993176417038  0.3996633753669532
  0.0462765501140805  0.4586987065620101  0.3996198573915984
  0.0430693529714142  0.5821097890070316  0.3997076519834731
  0.0403869164142204  0.7058675116134835  0.3997130079415919
  0.0395279529639034  0.8303378213114613  0.3997529819255544
  0.0397401981899166  0.9554609833427377  0.3998825500517257
  0.1642144961984324  0.0788460394770834  0.4002219560662559
  0.1667961015645058  0.2056890793019721  0.4001154638672611
  0.1725726380184583  0.3340700296873676  0.3996727402640767
  0.1766439122306212  0.4585368680451911  0.3993758352762097
  0.1725722303131454  0.5820624750175714  0.3995111287226176
  0.1677862730096453  0.7061470485201666  0.3997701889263369
  0.1657619338188550  0.8303569035413809  0.3998611133732523
  0.1647744224567348  0.9546011294377489  0.4001193649538675
  0.2896104232240690  0.0788640548838522  0.4001439643334092
  0.2879174916515204  0.2008942181049706  0.4002226044561487
  0.2930327599177042  0.3277292356085139  0.4001809715802161
  0.3104027158419781  0.4575275610319977  0.3989873554795610
  0.3037159875083769  0.5825543337118113  0.3993049061547261
  0.2948353204605083  0.7069708238752214  0.3994428893570438
  0.2921851363113401  0.8314775336832911  0.3997079388046833
  0.2906948606635849  0.9554855990740106  0.3998755606387379
  0.4156547137961514  0.0822520057722104  0.3999396443647099
  0.4138223155291650  0.2057307374232064  0.4001265490488237
  0.4096008350159803  0.3277377834175436  0.4002832183284564
  0.4405678940557714  0.5909969332871112  0.3990814337158061
  0.4211234961569357  0.7108467232821046  0.4000332215290394
  0.4183107713928915  0.8345459852743861  0.3996850414162665
  0.4168505590622396  0.9584133920895732  0.3997260403519992
  0.5417869388914950  0.0853455560504196  0.3997935370297204
  0.5400950434136834  0.2095531247876547  0.3998465690147133
  0.5364158737223482  0.3341164008776148  0.3997259609955717
  0.5220191588897459  0.4575944773277905  0.3989684677950455
  0.5253343491933409  0.5910956223108389  0.3990910826995533
  0.5467300018321793  0.7185612289685499  0.4007588988536863
  0.5441646387328217  0.8388341017516856  0.4003337106853320
  0.5429471049053706  0.9616276352475296  0.3998027695755067
  0.6679311835731579  0.0867760643648881  0.3998003509254309
  0.6665273868989321  0.2109099948300988  0.3998236224238552
  0.6635916218982340  0.3349313876919771  0.3996003384384897
  0.6567776140805569  0.4585509964142566  0.3993455160082598
  0.6537632049348103  0.5825571026660282  0.3994763728377305
  0.6646511288336747  0.7108605376382304  0.4004960535561957
  0.6696138858970060  0.8388277416636640  0.4007301296124098
  0.6688686542663184  0.9627676005427179  0.4000341183480797
  0.7937316972779185  0.0867594022188275  0.3997973875586213
  0.7930777843400079  0.2113067043887831  0.3998950287116611
  0.7912494299605601  0.3352823142483896  0.3997314875019990
  0.7873174874615984  0.4587018251708061  0.3994587372682059
  0.7844056156130121  0.5820515756646688  0.3994012922484866
  0.7870349217405229  0.7069362294762316  0.3996539953710426
  0.7911771596600220  0.8345131287122903  0.4000708067695251
  0.7936346483366502  0.9615967900095851  0.3999154290911196
  0.9184660212455091  0.0853057133929780  0.3997484735032635
  0.9192374545615303  0.2108905346838942  0.3998186962987579
  0.9188959162602650  0.3352752901597686  0.3998126530304356
  0.9168108139564669  0.4587089359730153  0.3996439191441227
  0.9139557082879859  0.5820789773787254  0.3995099955521904
  0.9132586543968567  0.7061161073683021  0.3994604492930001
  0.9142148934833382  0.8314333514566815  0.3995218519167938
  0.9165038265554157  0.9583644822949308  0.3996025947442484
  0.0813019557751525  0.0383757777671392  0.4000547781402501
  0.0837519972389141  0.1654589008224894  0.3999963803801116
  0.0878276800252511  0.2929928719986059  0.3997227493255873
  0.0904690404562264  0.4179003323939491  0.3995326644760580
  0.0875982160793157  0.5413305472424988  0.3996183182623516
  0.0836928793290803  0.6648087895618241  0.3997973715294159
  0.0818479981347035  0.7887595348883761  0.3997812593456705
  0.0811557327096524  0.9132307600814561  0.4000015559468835
  0.2060842624886608  0.0372082801983760  0.4002011224043981
  0.2053415941535475  0.1611764691364654  0.4002399937298955
  0.2102980846360525  0.2891647675844333  0.4000298323394746
  0.2211338861713716  0.4174071161717982  0.3994432354237011
  0.2180752275883796  0.5413932974938372  0.3993503426692221
  0.2113210558573985  0.6650729337879078  0.3995458077901426
  0.2084272133603300  0.7891312339600799  0.3998116059442816
  0.2070253337195588  0.9132469002431234  0.3999392951936732
  0.3320384133697689  0.0383880559470897  0.3999935176581692
  0.3307653152239156  0.1611852451553919  0.4001929892456382
  0.3282126263948651  0.2815509075514457  0.4001550287877069
  0.3496431571763177  0.4091600959538222  0.3995571886096715
  0.3528568839972857  0.5424855076917192  0.3987557918544657
  0.3384965452372085  0.6659102932657708  0.3994687949786631
  0.3348345759328777  0.7904688416940189  0.3995760338179948
  0.3332226187729184  0.9147036521495389  0.3997518668832939
  0.4581528731319228  0.0416457913086921  0.3998128634348970
  0.4566363342275054  0.1654890788936939  0.3999660371550841
  0.4537694924048742  0.2891999927251599  0.4001419119634080
  0.4342773921707503  0.4091557346453024  0.3995924348617331
  0.4653840448931472  0.6724214423379855  0.4003226402955933
  0.4611032177125342  0.7943248110265670  0.4000391741831703
  0.4593209844997838  0.9178097932425995  0.3997023236304677
  0.5842759148555826  0.0445414220490048  0.3997735350639007
  0.5827660330421128  0.1685590249242931  0.3998251842088523
  0.5800705723355709  0.2930377299669364  0.3996929414540356
  0.5711867101215027  0.4174503936340246  0.3994751824483179
  0.5645465594170075  0.5425166664400217  0.3987746591605459
  0.5819651708882639  0.6724679519095276  0.4005423870842512
  0.5870492580926228  0.7991913439781290  0.4008124875004153
  0.5853549561762706  0.9211478004456863  0.4000428957700800
  0.7101420164823343  0.0453812189797064  0.3998214475791557
  0.7091800342355824  0.1696835596398629  0.3998564637583623
  0.7071430404327290  0.2938961059882949  0.3997276918073023
  0.7023388836468025  0.4179201374105096  0.3994491430349121
  0.6982160099761260  0.5414043450301889  0.3993590621782741
  0.7023279999161071  0.6658924598844624  0.3998069685337647
  0.7081427971727728  0.7943094995643294  0.4006180881282341
  0.7107439597808581  0.9211238477706707  0.4002565440557073
  0.8351748851679147  0.0445177474274408  0.3997577738597435
  0.8353591806145685  0.1696730924260213  0.3998561542018559
  0.8345368432646579  0.2942181149763650  0.3998560360494005
  0.8319069330879308  0.4180038907527362  0.3995879982963757
  0.8286465945432204  0.5413293119043348  0.3994137828847218
  0.8286607101019988  0.6650416589646921  0.3994572210041513
  0.8305546614933100  0.7904296696268248  0.3997381906648401
  0.8334255504305361  0.9177617971837131  0.3998165963145083
  0.9584234713363188  0.0416137773190759  0.3997392536553948
  0.9606579997815872  0.1685296826917856  0.3998041174712575
  0.9616096096470761  0.2938795233899833  0.3997795850704937
  0.9609795592022542  0.4179846708498743  0.3997188022193818
  0.9581785396802518  0.5414138058988212  0.3996229409844901
  0.9560268310980691  0.6647891318437067  0.3995332296843430
  0.9556320342469365  0.7890994337771049  0.3995172783396832
  0.9564380685998606  0.9146660267155943  0.3995877039145607
  0.4642089501830268  0.5210463898568053  0.5162462525555793
 
  0.00000000E+00  0.00000000E+00  0.00000000E+00
  0.00000000E+00  0.00000000E+00  0.00000000E+00
  0.00000000E+00  0.00000000E+00  0.00000000E+00
  0.00000000E+00  0.00000000E+00  0.00000000E+00
  0.00000000E+00  0.00000000E+00  0.00000000E+00
  0.00000000E+00  0.00000000E+00  0.00000000E+00
  0.00000000E+00  0.00000000E+00  0.00000000E+00
  0.00000000E+00  0.00000000E+00  0.00000000E+00
  0.00000000E+00  0.00000000E+00  0.00000000E+00
  0.00000000E+00  0.00000000E+00  0.00000000E+00
  0.00000000E+00  0.00000000E+00  0.00000000E+00
  0.00000000E+00  0.00000000E+00  0.00000000E+00
  0.00000000E+00  0.00000000E+00  0.00000000E+00
  0.00000000E+00  0.00000000E+00  0.00000000E+00
  0.00000000E+00  0.00000000E+00  0.00000000E+00
  0.00000000E+00  0.00000000E+00  0.00000000E+00
  0.00000000E+00  0.00000000E+00  0.00000000E+00
  0.00000000E+00  0.00000000E+00  0.00000000E+00
  0.00000000E+00  0.00000000E+00  0.00000000E+00
  0.00000000E+00  0.00000000E+00  0.00000000E+00
  0.00000000E+00  0.00000000E+00  0.00000000E+00
  0.00000000E+00  0.00000000E+00  0.00000000E+00
  0.00000000E+00  0.00000000E+00  0.00000000E+00
  0.00000000E+00  0.00000000E+00  0.00000000E+00
  0.00000000E+00  0.00000000E+00  0.00000000E+00
  0.00000000E+00  0.00000000E+00  0.00000000E+00
  0.00000000E+00  0.00000000E+00  0.00000000E+00
  0.00000000E+00  0.00000000E+00  0.00000000E+00
  0.00000000E+00  0.00000000E+00  0.00000000E+00
  0.00000000E+00  0.00000000E+00  0.00000000E+00
  0.00000000E+00  0.00000000E+00  0.00000000E+00
  0.00000000E+00  0.00000000E+00  0.00000000E+00
  0.00000000E+00  0.00000000E+00  0.00000000E+00
  0.00000000E+00  0.00000000E+00  0.00000000E+00
  0.00000000E+00  0.00000000E+00  0.00000000E+00
  0.00000000E+00  0.00000000E+00  0.00000000E+00
  0.00000000E+00  0.00000000E+00  0.00000000E+00
  0.00000000E+00  0.00000000E+00  0.00000000E+00
  0.00000000E+00  0.00000000E+00  0.00000000E+00
  0.00000000E+00  0.00000000E+00  0.00000000E+00
  0.00000000E+00  0.00000000E+00  0.00000000E+00
  0.00000000E+00  0.00000000E+00  0.00000000E+00
  0.00000000E+00  0.00000000E+00  0.00000000E+00
  0.00000000E+00  0.00000000E+00  0.00000000E+00
  0.00000000E+00  0.00000000E+00  0.00000000E+00
  0.00000000E+00  0.00000000E+00  0.00000000E+00
  0.00000000E+00  0.00000000E+00  0.00000000E+00
  0.00000000E+00  0.00000000E+00  0.00000000E+00
  0.00000000E+00  0.00000000E+00  0.00000000E+00
  0.00000000E+00  0.00000000E+00  0.00000000E+00
  0.00000000E+00  0.00000000E+00  0.00000000E+00
  0.00000000E+00  0.00000000E+00  0.00000000E+00
  0.00000000E+00  0.00000000E+00  0.00000000E+00
  0.00000000E+00  0.00000000E+00  0.00000000E+00
  0.00000000E+00  0.00000000E+00  0.00000000E+00
  0.00000000E+00  0.00000000E+00  0.00000000E+00
  0.00000000E+00  0.00000000E+00  0.00000000E+00
  0.00000000E+00  0.00000000E+00  0.00000000E+00
  0.00000000E+00  0.00000000E+00  0.00000000E+00
  0.00000000E+00  0.00000000E+00  0.00000000E+00
  0.00000000E+00  0.00000000E+00  0.00000000E+00
  0.00000000E+00  0.00000000E+00  0.00000000E+00
  0.00000000E+00  0.00000000E+00  0.00000000E+00
  0.00000000E+00  0.00000000E+00  0.00000000E+00
  0.00000000E+00  0.00000000E+00  0.00000000E+00
  0.00000000E+00  0.00000000E+00  0.00000000E+00
  0.00000000E+00  0.00000000E+00  0.00000000E+00
  0.00000000E+00  0.00000000E+00  0.00000000E+00
  0.00000000E+00  0.00000000E+00  0.00000000E+00
  0.00000000E+00  0.00000000E+00  0.00000000E+00
  0.00000000E+00  0.00000000E+00  0.00000000E+00
  0.00000000E+00  0.00000000E+00  0.00000000E+00
  0.00000000E+00  0.00000000E+00  0.00000000E+00
  0.00000000E+00  0.00000000E+00  0.00000000E+00
  0.00000000E+00  0.00000000E+00  0.00000000E+00
  0.00000000E+00  0.00000000E+00  0.00000000E+00
  0.00000000E+00  0.00000000E+00  0.00000000E+00
  0.00000000E+00  0.00000000E+00  0.00000000E+00
  0.00000000E+00  0.00000000E+00  0.00000000E+00
  0.00000000E+00  0.00000000E+00  0.00000000E+00
  0.00000000E+00  0.00000000E+00  0.00000000E+00
  0.00000000E+00  0.00000000E+00  0.00000000E+00
  0.00000000E+00  0.00000000E+00  0.00000000E+00
  0.00000000E+00  0.00000000E+00  0.00000000E+00
  0.00000000E+00  0.00000000E+00  0.00000000E+00
  0.00000000E+00  0.00000000E+00  0.00000000E+00
  0.00000000E+00  0.00000000E+00  0.00000000E+00
  0.00000000E+00  0.00000000E+00  0.00000000E+00
  0.00000000E+00  0.00000000E+00  0.00000000E+00
  0.00000000E+00  0.00000000E+00  0.00000000E+00
  0.00000000E+00  0.00000000E+00  0.00000000E+00
  0.00000000E+00  0.00000000E+00  0.00000000E+00
  0.00000000E+00  0.00000000E+00  0.00000000E+00
  0.00000000E+00  0.00000000E+00  0.00000000E+00
  0.00000000E+00  0.00000000E+00  0.00000000E+00
  0.00000000E+00  0.00000000E+00  0.00000000E+00
  0.00000000E+00  0.00000000E+00  0.00000000E+00
  0.00000000E+00  0.00000000E+00  0.00000000E+00
  0.00000000E+00  0.00000000E+00  0.00000000E+00
  0.00000000E+00  0.00000000E+00  0.00000000E+00
  0.00000000E+00  0.00000000E+00  0.00000000E+00
  0.00000000E+00  0.00000000E+00  0.00000000E+00
  0.00000000E+00  0.00000000E+00  0.00000000E+00
  0.00000000E+00  0.00000000E+00  0.00000000E+00
  0.00000000E+00  0.00000000E+00  0.00000000E+00
  0.00000000E+00  0.00000000E+00  0.00000000E+00
  0.00000000E+00  0.00000000E+00  0.00000000E+00
  0.00000000E+00  0.00000000E+00  0.00000000E+00
  0.00000000E+00  0.00000000E+00  0.00000000E+00
  0.00000000E+00  0.00000000E+00  0.00000000E+00
  0.00000000E+00  0.00000000E+00  0.00000000E+00
  0.00000000E+00  0.00000000E+00  0.00000000E+00
  0.00000000E+00  0.00000000E+00  0.00000000E+00
  0.00000000E+00  0.00000000E+00  0.00000000E+00
  0.00000000E+00  0.00000000E+00  0.00000000E+00
  0.00000000E+00  0.00000000E+00  0.00000000E+00
  0.00000000E+00  0.00000000E+00  0.00000000E+00
  0.00000000E+00  0.00000000E+00  0.00000000E+00
  0.00000000E+00  0.00000000E+00  0.00000000E+00
  0.00000000E+00  0.00000000E+00  0.00000000E+00
  0.00000000E+00  0.00000000E+00  0.00000000E+00
  0.00000000E+00  0.00000000E+00  0.00000000E+00
  0.00000000E+00  0.00000000E+00  0.00000000E+00
  0.00000000E+00  0.00000000E+00  0.00000000E+00
  0.00000000E+00  0.00000000E+00  0.00000000E+00
  0.00000000E+00  0.00000000E+00  0.00000000E+00
  0.00000000E+00  0.00000000E+00  0.00000000E+00
  0.00000000E+00  0.00000000E+00  0.00000000E+00
