V1 H1 C122 N4                           
   1.00000000000000     
    19.8069655612440734   -0.0002413838348018    0.0010698165166083
    -9.9036888721836380   17.0243645002635873   -0.0094389770060946
     0.0016029958432850   -0.0155613384902687   29.8412081515166285
   V    H    C    N 
     1     1   122     4
Direct
  0.4379512348111829  0.5005343309048712  0.4224044821653161
  0.4446536670917803  0.5071904360945303  0.4781962614565564
  0.0421012450866316  0.0841689254401753  0.3998334307044895
  0.0411484294708857  0.2082572104831490  0.3997008008827361
  0.0403215970284620  0.3329726461512312  0.3995774108311615
  0.0403840341675758  0.4582048665056425  0.3996447216941915
  0.0412732338629511  0.5837373627469371  0.3999950077764973
  0.0420967625239304  0.7091799989518246  0.4001108152485854
  0.0423554146748207  0.8343926494637804  0.4000925487670052
  0.0424782608730052  0.9595793172245966  0.3999719194276659
  0.1681307539844807  0.0857653408658777  0.3998755159361768
  0.1676835645527701  0.2104469628446308  0.3998502994425906
  0.1652241021734981  0.3337423946303129  0.3999281864542747
  0.1641319106471258  0.4585146507948567  0.3992844754426007
  0.1650724827831085  0.5836850895654767  0.3993637960416911
  0.1663534056064647  0.7089572095328340  0.3998616646159681
  0.1670301414259392  0.8343864923089469  0.4000575760007227
  0.1674851199183650  0.9599550924866631  0.3999655510278559
  0.2926163590606019  0.0857596575036295  0.3998488411090338
  0.2941110221754218  0.2132633726933308  0.4006617376179877
  0.2927444837334546  0.3388618172365399  0.4024983449542625
  0.2874726014514372  0.4582436816719997  0.4019712692567096
  0.2884732698344646  0.5829313555248046  0.3999539949762814
  0.2906758225117732  0.7083301797548388  0.3996042664181993
  0.2916310557037258  0.8338778288995208  0.3998634956255624
  0.2921106094860371  0.9595650074143768  0.3999397271273649
  0.4170695819635784  0.0841599527071192  0.3998143633122965
  0.4177287872182652  0.2104439023625811  0.3998474355990203
  0.4211075693470498  0.3388589974302444  0.4024597444902840
  0.4147899267662147  0.7058466221789952  0.4002669754735584
  0.4161149315544996  0.8321956934825371  0.3997043223036836
  0.4166585554587746  0.9582116997513560  0.3999489027175523
  0.5415650072777822  0.0825909401785073  0.3999731449545654
  0.5421041134495745  0.2082521970974035  0.3997050092288629
  0.5435134024382167  0.3337328465205381  0.3999307332256667
  0.5457890239798170  0.4582404041769045  0.4018882296093944
  0.5383054555101174  0.7016235299305055  0.4021955228523296
  0.5404630932301986  0.8301637195022190  0.4000663717760632
  0.5411335824015823  0.9566721036378757  0.3998711342538707
  0.6661362647133752  0.0819756021856233  0.4000262644711756
  0.6666219162735031  0.2074588094605476  0.3999890678644722
  0.6676477640714132  0.3329831424126635  0.3995833735882096
  0.6693875120869033  0.4585266683045045  0.3992802547387164
  0.6694974993851687  0.5829640367968267  0.3999402129742682
  0.6660543500633204  0.7058534306610575  0.4002685037714399
  0.6646611881843902  0.8301655607189137  0.4000582091691184
  0.6656379201087169  0.9562778700586985  0.3998968291452956
  0.7908496879569471  0.0819769339174138  0.4000029074218802
  0.7911713205626154  0.2073452620621743  0.4001085042136189
  0.7917798354830674  0.3327416439760605  0.4000234023167144
  0.7928019641095491  0.4582178121342326  0.3996409809264421
  0.7935920797283316  0.5836731725462208  0.3993550939905585
  0.7926709596371323  0.7083475765509656  0.3996154815335153
  0.7910762002384333  0.8321958928088861  0.3996958238056310
  0.7905333844874879  0.9566754258078615  0.3998318928142619
  0.9160547375445046  0.0826157332566458  0.3999411444040654
  0.9158335781125896  0.2074684724191962  0.3999514230008282
  0.9159655883379816  0.3327424136899602  0.4000155533577539
  0.9166196998168294  0.4582565562913147  0.4001204557764870
  0.9174314675796662  0.5837304288477614  0.3999942411947350
  0.9175901639404378  0.7089493113651824  0.3998853693433685
  0.9172562781790452  0.8338918585349980  0.3999005384511019
  0.9165742191911428  0.9582202351250761  0.3999538488696713
  0.0844644344273276  0.0433218878282788  0.3998730958905277
  0.0839306161959867  0.1678071377497889  0.3997042313607767
  0.0823442099502058  0.2916612423729636  0.3996048880155109
  0.0813991302130835  0.4163165548644321  0.3993605431149808
  0.0821929423275981  0.5417948798115414  0.3996472459759138
  0.0832327198219542  0.6672572928932773  0.4000171395967107
  0.0838332235341172  0.7926557610542946  0.4001087267645363
  0.0841669720485696  0.9180209894860660  0.4000231248518164
  0.2093625219073089  0.0437132703432068  0.3998999407041568
  0.2103109219859959  0.1698439277451071  0.4000776765246934
  0.2089699378313735  0.2941753077553915  0.4002977012545760
  0.2055535832544455  0.4170695425751438  0.3999844761333589
  0.2056154547478590  0.5414809384336129  0.3992843072243471
  0.2073565762409493  0.6670237612705743  0.3995756167947114
  0.2083743246005923  0.7925307932656505  0.3999536272999945
  0.2088799680058862  0.9180189994524732  0.4000024444554767
  0.3338617014208118  0.0433203309275758  0.3998306308568677
  0.3344990590451284  0.1698445538910436  0.4000715949107048
  0.3367013916058028  0.2984162649699794  0.4022571717112681
  0.3292212546132000  0.5417693581184940  0.4018950425240552
  0.3314824919985671  0.6662599339405897  0.3999099283958292
  0.3328959434868679  0.7917355667357013  0.3997009635572741
  0.3334530140227612  0.9173870866438538  0.3999413922990034
  0.4583611281971314  0.0417760479201882  0.3999508493252653
  0.4588840769561172  0.1678114304348835  0.3996944905017202
  0.4602017092121293  0.2941712106783491  0.4002967517865587
  0.4539200708915560  0.6612180187824189  0.4024034978720500
  0.4572435778372788  0.7895671233104821  0.3998427927029520
  0.4579353920823033  0.9158277040758143  0.3998350239778643
  0.5829026262136333  0.0404156886101776  0.3999731671799517
  0.5833729412241698  0.1661071541479513  0.3998916832069764
  0.5843355443268305  0.2916490228865962  0.3996107987277819
  0.5865414301279286  0.4170387053875308  0.3999695633009477
  0.5875844476537588  0.5417832312355869  0.4018102904673753
  0.5823009224276635  0.6612287946347145  0.4023699996183363
  0.5808647720152290  0.7867592295806534  0.4006355728116728
  0.5823670730735643  0.9142320085774167  0.3998708769091697
  0.7075314069561085  0.0400377504473342  0.3999670192716318
  0.7079698135497633  0.1656091594308062  0.4000919267468880
  0.7086508171877539  0.2910469037013923  0.3998848650536201
  0.7099377215905476  0.4163264300135191  0.3993516195464227
  0.7108860657167292  0.5414768287218326  0.3992807354204519
  0.7098057393287905  0.6662826832121066  0.3999175919204430
  0.7073040626088897  0.7895725952847470  0.3998401774242462
  0.7068619932821933  0.9142372664705829  0.3998456965022600
  0.8325491071898904  0.0404273403552863  0.3999410067226062
  0.8326493851972535  0.1656105331412193  0.4000541180816641
  0.8329288655600309  0.2908268151551490  0.4001077261619073
  0.8337121159198894  0.4162711465200685  0.3999942486785910
  0.8346013790295331  0.5417884558840692  0.3996403018198867
  0.8346773183641640  0.6670237868588573  0.3995830992134174
  0.8338600828600702  0.7917480854169708  0.3997098915169917
  0.8329179091488323  0.9158421919175195  0.3998152256001054
  0.9584462377727793  0.0417824458772697  0.3999471104430514
  0.9577547497972577  0.1661188112455061  0.3998617283315962
  0.9574041590136813  0.2910489717666174  0.3998601619630193
  0.9575521475643968  0.4162664508206560  0.3999952527655967
  0.9583766824113261  0.5417469537898179  0.4001189433693580
  0.9590460718188585  0.6672583113197964  0.4000251832809723
  0.9591693534358561  0.7925348922049468  0.3999961919293881
  0.9589760827323344  0.9174059808828910  0.3999782693396972
  0.4098702602202307  0.5803940605703622  0.4053662313863239
  0.5455529592853415  0.5803868998387691  0.4052079758928717
  0.3295143180267328  0.4196804860970671  0.4055058638278171
  0.4652008938769684  0.4197006740781031  0.4053475612414803
 
  0.00000000E+00  0.00000000E+00  0.00000000E+00
  0.00000000E+00  0.00000000E+00  0.00000000E+00
  0.00000000E+00  0.00000000E+00  0.00000000E+00
  0.00000000E+00  0.00000000E+00  0.00000000E+00
  0.00000000E+00  0.00000000E+00  0.00000000E+00
  0.00000000E+00  0.00000000E+00  0.00000000E+00
  0.00000000E+00  0.00000000E+00  0.00000000E+00
  0.00000000E+00  0.00000000E+00  0.00000000E+00
  0.00000000E+00  0.00000000E+00  0.00000000E+00
  0.00000000E+00  0.00000000E+00  0.00000000E+00
  0.00000000E+00  0.00000000E+00  0.00000000E+00
  0.00000000E+00  0.00000000E+00  0.00000000E+00
  0.00000000E+00  0.00000000E+00  0.00000000E+00
  0.00000000E+00  0.00000000E+00  0.00000000E+00
  0.00000000E+00  0.00000000E+00  0.00000000E+00
  0.00000000E+00  0.00000000E+00  0.00000000E+00
  0.00000000E+00  0.00000000E+00  0.00000000E+00
  0.00000000E+00  0.00000000E+00  0.00000000E+00
  0.00000000E+00  0.00000000E+00  0.00000000E+00
  0.00000000E+00  0.00000000E+00  0.00000000E+00
  0.00000000E+00  0.00000000E+00  0.00000000E+00
  0.00000000E+00  0.00000000E+00  0.00000000E+00
  0.00000000E+00  0.00000000E+00  0.00000000E+00
  0.00000000E+00  0.00000000E+00  0.00000000E+00
  0.00000000E+00  0.00000000E+00  0.00000000E+00
  0.00000000E+00  0.00000000E+00  0.00000000E+00
  0.00000000E+00  0.00000000E+00  0.00000000E+00
  0.00000000E+00  0.00000000E+00  0.00000000E+00
  0.00000000E+00  0.00000000E+00  0.00000000E+00
  0.00000000E+00  0.00000000E+00  0.00000000E+00
  0.00000000E+00  0.00000000E+00  0.00000000E+00
  0.00000000E+00  0.00000000E+00  0.00000000E+00
  0.00000000E+00  0.00000000E+00  0.00000000E+00
  0.00000000E+00  0.00000000E+00  0.00000000E+00
  0.00000000E+00  0.00000000E+00  0.00000000E+00
  0.00000000E+00  0.00000000E+00  0.00000000E+00
  0.00000000E+00  0.00000000E+00  0.00000000E+00
  0.00000000E+00  0.00000000E+00  0.00000000E+00
  0.00000000E+00  0.00000000E+00  0.00000000E+00
  0.00000000E+00  0.00000000E+00  0.00000000E+00
  0.00000000E+00  0.00000000E+00  0.00000000E+00
  0.00000000E+00  0.00000000E+00  0.00000000E+00
  0.00000000E+00  0.00000000E+00  0.00000000E+00
  0.00000000E+00  0.00000000E+00  0.00000000E+00
  0.00000000E+00  0.00000000E+00  0.00000000E+00
  0.00000000E+00  0.00000000E+00  0.00000000E+00
  0.00000000E+00  0.00000000E+00  0.00000000E+00
  0.00000000E+00  0.00000000E+00  0.00000000E+00
  0.00000000E+00  0.00000000E+00  0.00000000E+00
  0.00000000E+00  0.00000000E+00  0.00000000E+00
  0.00000000E+00  0.00000000E+00  0.00000000E+00
  0.00000000E+00  0.00000000E+00  0.00000000E+00
  0.00000000E+00  0.00000000E+00  0.00000000E+00
  0.00000000E+00  0.00000000E+00  0.00000000E+00
  0.00000000E+00  0.00000000E+00  0.00000000E+00
  0.00000000E+00  0.00000000E+00  0.00000000E+00
  0.00000000E+00  0.00000000E+00  0.00000000E+00
  0.00000000E+00  0.00000000E+00  0.00000000E+00
  0.00000000E+00  0.00000000E+00  0.00000000E+00
  0.00000000E+00  0.00000000E+00  0.00000000E+00
  0.00000000E+00  0.00000000E+00  0.00000000E+00
  0.00000000E+00  0.00000000E+00  0.00000000E+00
  0.00000000E+00  0.00000000E+00  0.00000000E+00
  0.00000000E+00  0.00000000E+00  0.00000000E+00
  0.00000000E+00  0.00000000E+00  0.00000000E+00
  0.00000000E+00  0.00000000E+00  0.00000000E+00
  0.00000000E+00  0.00000000E+00  0.00000000E+00
  0.00000000E+00  0.00000000E+00  0.00000000E+00
  0.00000000E+00  0.00000000E+00  0.00000000E+00
  0.00000000E+00  0.00000000E+00  0.00000000E+00
  0.00000000E+00  0.00000000E+00  0.00000000E+00
  0.00000000E+00  0.00000000E+00  0.00000000E+00
  0.00000000E+00  0.00000000E+00  0.00000000E+00
  0.00000000E+00  0.00000000E+00  0.00000000E+00
  0.00000000E+00  0.00000000E+00  0.00000000E+00
  0.00000000E+00  0.00000000E+00  0.00000000E+00
  0.00000000E+00  0.00000000E+00  0.00000000E+00
  0.00000000E+00  0.00000000E+00  0.00000000E+00
  0.00000000E+00  0.00000000E+00  0.00000000E+00
  0.00000000E+00  0.00000000E+00  0.00000000E+00
  0.00000000E+00  0.00000000E+00  0.00000000E+00
  0.00000000E+00  0.00000000E+00  0.00000000E+00
  0.00000000E+00  0.00000000E+00  0.00000000E+00
  0.00000000E+00  0.00000000E+00  0.00000000E+00
  0.00000000E+00  0.00000000E+00  0.00000000E+00
  0.00000000E+00  0.00000000E+00  0.00000000E+00
  0.00000000E+00  0.00000000E+00  0.00000000E+00
  0.00000000E+00  0.00000000E+00  0.00000000E+00
  0.00000000E+00  0.00000000E+00  0.00000000E+00
  0.00000000E+00  0.00000000E+00  0.00000000E+00
  0.00000000E+00  0.00000000E+00  0.00000000E+00
  0.00000000E+00  0.00000000E+00  0.00000000E+00
  0.00000000E+00  0.00000000E+00  0.00000000E+00
  0.00000000E+00  0.00000000E+00  0.00000000E+00
  0.00000000E+00  0.00000000E+00  0.00000000E+00
  0.00000000E+00  0.00000000E+00  0.00000000E+00
  0.00000000E+00  0.00000000E+00  0.00000000E+00
  0.00000000E+00  0.00000000E+00  0.00000000E+00
  0.00000000E+00  0.00000000E+00  0.00000000E+00
  0.00000000E+00  0.00000000E+00  0.00000000E+00
  0.00000000E+00  0.00000000E+00  0.00000000E+00
  0.00000000E+00  0.00000000E+00  0.00000000E+00
  0.00000000E+00  0.00000000E+00  0.00000000E+00
  0.00000000E+00  0.00000000E+00  0.00000000E+00
  0.00000000E+00  0.00000000E+00  0.00000000E+00
  0.00000000E+00  0.00000000E+00  0.00000000E+00
  0.00000000E+00  0.00000000E+00  0.00000000E+00
  0.00000000E+00  0.00000000E+00  0.00000000E+00
  0.00000000E+00  0.00000000E+00  0.00000000E+00
  0.00000000E+00  0.00000000E+00  0.00000000E+00
  0.00000000E+00  0.00000000E+00  0.00000000E+00
  0.00000000E+00  0.00000000E+00  0.00000000E+00
  0.00000000E+00  0.00000000E+00  0.00000000E+00
  0.00000000E+00  0.00000000E+00  0.00000000E+00
  0.00000000E+00  0.00000000E+00  0.00000000E+00
  0.00000000E+00  0.00000000E+00  0.00000000E+00
  0.00000000E+00  0.00000000E+00  0.00000000E+00
  0.00000000E+00  0.00000000E+00  0.00000000E+00
  0.00000000E+00  0.00000000E+00  0.00000000E+00
  0.00000000E+00  0.00000000E+00  0.00000000E+00
  0.00000000E+00  0.00000000E+00  0.00000000E+00
  0.00000000E+00  0.00000000E+00  0.00000000E+00
  0.00000000E+00  0.00000000E+00  0.00000000E+00
  0.00000000E+00  0.00000000E+00  0.00000000E+00
  0.00000000E+00  0.00000000E+00  0.00000000E+00
  0.00000000E+00  0.00000000E+00  0.00000000E+00
  0.00000000E+00  0.00000000E+00  0.00000000E+00
  0.00000000E+00  0.00000000E+00  0.00000000E+00
