Fe1 H1 C124 N2                          
   1.00000000000000     
    19.8182523178644843   -0.0065854588263826   -0.0018104237579973
    -9.9149879015855387   17.0423232457611142   -0.0089660616233379
    -0.0027541032261894   -0.0172847204972724   29.7983376729969045
   Fe   H    C    N 
     1     1   124     2
Direct
  0.4373216558353827  0.5004234149385846  0.4093570725424339
  0.4417047641500640  0.5033942685008721  0.4594294264000857
  0.0420466628163114  0.0841066222342552  0.3997626515169010
  0.0411196962888914  0.2082573766897333  0.3998064301049612
  0.0404300363169909  0.3329155729045771  0.3996795932742539
  0.0403849749227861  0.4583031141915968  0.3994450126574052
  0.0412591429633181  0.5837916977351054  0.3993952266145325
  0.0419972083399956  0.7092002567319028  0.3994859490299398
  0.0423496705690581  0.8345095910790151  0.3995962231717997
  0.0424974902621450  0.9596280410855904  0.3997187375891819
  0.1681180827179965  0.0857969474147200  0.4004062723411869
  0.1673734705378283  0.2101492088378025  0.4010535797017931
  0.1655398779000557  0.3338755750387514  0.4013154488244046
  0.1639593695494075  0.4585662489220524  0.4004924410446090
  0.1650367005070138  0.5837783540305591  0.3998703002382384
  0.1662680513903749  0.7091566690219751  0.3996184831001259
  0.1669901423049188  0.8345675890386809  0.3995860677235401
  0.1675382432760710  0.9600930347562218  0.3998892489727095
  0.2927554576464993  0.0855871538606210  0.4005151189895590
  0.2944231472803969  0.2128419832834989  0.4022078181486699
  0.2927413082469456  0.3376662409861544  0.4041882158275051
  0.2875028628031751  0.4590869075332512  0.4037962668955413
  0.2886146999683518  0.5841288713523471  0.4018472599917837
  0.2905784648642920  0.7089455466401779  0.4003836308332898
  0.2915100649771456  0.8341111724213459  0.3996512595516585
  0.2920994530743634  0.9596534096125129  0.3997292577556494
  0.4171520633504370  0.0841264382945694  0.3999654860911525
  0.4179014665257341  0.2103126920051230  0.4014460924023484
  0.4212230742983546  0.3388249893176808  0.4041371695493800
  0.4146079762684182  0.7061704503140038  0.4023142098412024
  0.4159876251370474  0.8324337790503525  0.4003497452686759
  0.4166056725197084  0.9582933997027502  0.3995806942154301
  0.5415887457795769  0.0824975288214789  0.3996302099133902
  0.5422071811035019  0.2079015165914360  0.4001955657207260
  0.5435326776099596  0.3329854606645847  0.4015852434610694
  0.5458419331385114  0.4569684718916333  0.4036847878950449
  0.5439687176579506  0.5791908225838558  0.4061174465925146
  0.5384629136193636  0.7028545576335862  0.4039409535272825
  0.5402429433658729  0.8305917346964435  0.4013472878549376
  0.5410881477823350  0.9567699076023567  0.3999665564063059
  0.6661258275912125  0.0818546365853337  0.3996767366003158
  0.6666677199698281  0.2072774111612098  0.3996032423153073
  0.6676715022693951  0.3326973337300121  0.3998821452300756
  0.6694469466377058  0.4582016305632735  0.4004642088998381
  0.6697352971989531  0.5827414034239502  0.4016094547805464
  0.6660937964346740  0.7060954518122835  0.4022719874055145
  0.6647867538570879  0.8302628731177620  0.4013370636163602
  0.6656123459562222  0.9562489458440903  0.4002586315674689
  0.7908731744162569  0.0818557934928215  0.3997303565276235
  0.7911879280149281  0.2071752300032109  0.3995626196186367
  0.7918441414846750  0.3326094122735240  0.3994191303541187
  0.7928883210534849  0.4581429573558761  0.3993118589402024
  0.7936509699227878  0.5835180382557388  0.3995628369441466
  0.7925822191614106  0.7083066052609670  0.4001173752707101
  0.7912230081372807  0.8323160507674713  0.4001786052072082
  0.7905547051689041  0.9566596054325329  0.3999227814329706
  0.9160774139913175  0.0826052384336156  0.3995612708277446
  0.9158982251684383  0.2074246548085319  0.3995360739042356
  0.9160353703708476  0.3326826590753219  0.3994646110944477
  0.9165896488835350  0.4581467500246952  0.3992479221178561
  0.9174736638672546  0.5837296738664407  0.3992348427758628
  0.9175743115670156  0.7090322924000563  0.3994345864123329
  0.9172238865431297  0.8338563680276989  0.3995683111509916
  0.9166047915929180  0.9582264764544942  0.3995891600161643
  0.0844318995967977  0.0433316615109439  0.3999137875675230
  0.0837338247148535  0.1676225111958150  0.4000803122403155
  0.0824342761607414  0.2916862113099986  0.4001140433377525
  0.0813910357831111  0.4164784765281697  0.3997166792577009
  0.0821359831503302  0.5418513987174760  0.3994912146480941
  0.0831374949319650  0.6673584065326369  0.3994950510606945
  0.0838038750221385  0.7928209359007640  0.3995773576578083
  0.0841364547151697  0.9181326273035062  0.3997348451358561
  0.2094233308150115  0.0437586126898029  0.4002801544260266
  0.2102044339398052  0.1697120960027753  0.4012215313062731
  0.2087945970564929  0.2937513485230466  0.4021122045540211
  0.2053897813015135  0.4172565566476268  0.4017273265120692
  0.2056034435138412  0.5418255863035724  0.4005987252296082
  0.2073264867464269  0.6673195784031005  0.3999052365158240
  0.2083203459797871  0.7927346677052287  0.3995856985468026
  0.2089054450310361  0.9181710424683472  0.3997253268264044
  0.3339238385281089  0.0432562977068988  0.4000411100420486
  0.3347875971774844  0.1694677268248951  0.4014064791480917
  0.3366199513736392  0.2971872107292105  0.4038690752726712
  0.3309852494771184  0.4204203233041507  0.4059964437408778
  0.3292398108152131  0.5431110898446198  0.4035890799702140
  0.3314986709917360  0.6670962743088895  0.4015073432316294
  0.3327850905643716  0.7921601262362918  0.4000720071003283
  0.3334417218301506  0.9175568815544276  0.3995902610761199
  0.4584234003381496  0.0417814875195959  0.3996241794031959
  0.4590122171760939  0.1676661901331853  0.4004757506145515
  0.4604159124322713  0.2940917051087171  0.4024548723077986
  0.4538508760165573  0.6615447720406616  0.4040173156649811
  0.4571273891176669  0.7898749457074731  0.4013281703721714
  0.4578863148176008  0.9159688835531696  0.3998718885415409
  0.5829471757046131  0.0403974251262163  0.3996936246447563
  0.5834724852578594  0.1659181229314951  0.3997385289438309
  0.5844334523401286  0.2911259700230206  0.4004665339340144
  0.5864395245361955  0.4159540372991986  0.4018273395985913
  0.5877127104631749  0.5409119252809647  0.4037848865981864
  0.5821120377602795  0.6621428797523183  0.4043678681423253
  0.5806033485948625  0.7871832884650226  0.4022609999091564
  0.5822546483586488  0.9144430827918110  0.4004662812297252
  0.7074963644567293  0.0399208777648500  0.3998567892771184
  0.7079980489236770  0.1654440202450539  0.3995592812684560
  0.7087291429584470  0.2908584174327637  0.3995835484509517
  0.7099849683745506  0.4162390800097849  0.3997420798435333
  0.7111275163440152  0.5414286785479239  0.4003251833473864
  0.7094873493688096  0.6661126458908797  0.4013285384367283
  0.7075425236490225  0.7897400461976573  0.4012110131943266
  0.7068757209960603  0.9141895627745044  0.4004280669412813
  0.8325220084174249  0.0403503542991438  0.3997022379383838
  0.8326519630884247  0.1654922432172143  0.3995985129445842
  0.8330186773839627  0.2907926828416081  0.3994897302732864
  0.8337392523521765  0.4161815112346121  0.3992774081071462
  0.8346477455285367  0.5416889969492222  0.3992644229839314
  0.8345831977094909  0.6670636935002150  0.3995975058630155
  0.8338695533142435  0.7917128490634550  0.3998587529872490
  0.8329432313094407  0.9158384332785250  0.3998067996167855
  0.9583833763888689  0.0417527885730403  0.3995664941869204
  0.9577824173919139  0.1661496204863425  0.3995374269423372
  0.9574607162361489  0.2910009639157120  0.3995113960860888
  0.9575416229232053  0.4162668169994942  0.3993630057073080
  0.9584075557534227  0.5418433904171470  0.3992453586739454
  0.9589958243376369  0.6673373045827118  0.3993677743150822
  0.9591062747848035  0.7925934597406977  0.3995185125103956
  0.9589218116044469  0.9174112033063500  0.3995936398080511
  0.4094892656709337  0.5803384886727396  0.4049052539123421
  0.4656259316768526  0.4202103958905807  0.4051594774818902
 
  0.00000000E+00  0.00000000E+00  0.00000000E+00
  0.00000000E+00  0.00000000E+00  0.00000000E+00
  0.00000000E+00  0.00000000E+00  0.00000000E+00
  0.00000000E+00  0.00000000E+00  0.00000000E+00
  0.00000000E+00  0.00000000E+00  0.00000000E+00
  0.00000000E+00  0.00000000E+00  0.00000000E+00
  0.00000000E+00  0.00000000E+00  0.00000000E+00
  0.00000000E+00  0.00000000E+00  0.00000000E+00
  0.00000000E+00  0.00000000E+00  0.00000000E+00
  0.00000000E+00  0.00000000E+00  0.00000000E+00
  0.00000000E+00  0.00000000E+00  0.00000000E+00
  0.00000000E+00  0.00000000E+00  0.00000000E+00
  0.00000000E+00  0.00000000E+00  0.00000000E+00
  0.00000000E+00  0.00000000E+00  0.00000000E+00
  0.00000000E+00  0.00000000E+00  0.00000000E+00
  0.00000000E+00  0.00000000E+00  0.00000000E+00
  0.00000000E+00  0.00000000E+00  0.00000000E+00
  0.00000000E+00  0.00000000E+00  0.00000000E+00
  0.00000000E+00  0.00000000E+00  0.00000000E+00
  0.00000000E+00  0.00000000E+00  0.00000000E+00
  0.00000000E+00  0.00000000E+00  0.00000000E+00
  0.00000000E+00  0.00000000E+00  0.00000000E+00
  0.00000000E+00  0.00000000E+00  0.00000000E+00
  0.00000000E+00  0.00000000E+00  0.00000000E+00
  0.00000000E+00  0.00000000E+00  0.00000000E+00
  0.00000000E+00  0.00000000E+00  0.00000000E+00
  0.00000000E+00  0.00000000E+00  0.00000000E+00
  0.00000000E+00  0.00000000E+00  0.00000000E+00
  0.00000000E+00  0.00000000E+00  0.00000000E+00
  0.00000000E+00  0.00000000E+00  0.00000000E+00
  0.00000000E+00  0.00000000E+00  0.00000000E+00
  0.00000000E+00  0.00000000E+00  0.00000000E+00
  0.00000000E+00  0.00000000E+00  0.00000000E+00
  0.00000000E+00  0.00000000E+00  0.00000000E+00
  0.00000000E+00  0.00000000E+00  0.00000000E+00
  0.00000000E+00  0.00000000E+00  0.00000000E+00
  0.00000000E+00  0.00000000E+00  0.00000000E+00
  0.00000000E+00  0.00000000E+00  0.00000000E+00
  0.00000000E+00  0.00000000E+00  0.00000000E+00
  0.00000000E+00  0.00000000E+00  0.00000000E+00
  0.00000000E+00  0.00000000E+00  0.00000000E+00
  0.00000000E+00  0.00000000E+00  0.00000000E+00
  0.00000000E+00  0.00000000E+00  0.00000000E+00
  0.00000000E+00  0.00000000E+00  0.00000000E+00
  0.00000000E+00  0.00000000E+00  0.00000000E+00
  0.00000000E+00  0.00000000E+00  0.00000000E+00
  0.00000000E+00  0.00000000E+00  0.00000000E+00
  0.00000000E+00  0.00000000E+00  0.00000000E+00
  0.00000000E+00  0.00000000E+00  0.00000000E+00
  0.00000000E+00  0.00000000E+00  0.00000000E+00
  0.00000000E+00  0.00000000E+00  0.00000000E+00
  0.00000000E+00  0.00000000E+00  0.00000000E+00
  0.00000000E+00  0.00000000E+00  0.00000000E+00
  0.00000000E+00  0.00000000E+00  0.00000000E+00
  0.00000000E+00  0.00000000E+00  0.00000000E+00
  0.00000000E+00  0.00000000E+00  0.00000000E+00
  0.00000000E+00  0.00000000E+00  0.00000000E+00
  0.00000000E+00  0.00000000E+00  0.00000000E+00
  0.00000000E+00  0.00000000E+00  0.00000000E+00
  0.00000000E+00  0.00000000E+00  0.00000000E+00
  0.00000000E+00  0.00000000E+00  0.00000000E+00
  0.00000000E+00  0.00000000E+00  0.00000000E+00
  0.00000000E+00  0.00000000E+00  0.00000000E+00
  0.00000000E+00  0.00000000E+00  0.00000000E+00
  0.00000000E+00  0.00000000E+00  0.00000000E+00
  0.00000000E+00  0.00000000E+00  0.00000000E+00
  0.00000000E+00  0.00000000E+00  0.00000000E+00
  0.00000000E+00  0.00000000E+00  0.00000000E+00
  0.00000000E+00  0.00000000E+00  0.00000000E+00
  0.00000000E+00  0.00000000E+00  0.00000000E+00
  0.00000000E+00  0.00000000E+00  0.00000000E+00
  0.00000000E+00  0.00000000E+00  0.00000000E+00
  0.00000000E+00  0.00000000E+00  0.00000000E+00
  0.00000000E+00  0.00000000E+00  0.00000000E+00
  0.00000000E+00  0.00000000E+00  0.00000000E+00
  0.00000000E+00  0.00000000E+00  0.00000000E+00
  0.00000000E+00  0.00000000E+00  0.00000000E+00
  0.00000000E+00  0.00000000E+00  0.00000000E+00
  0.00000000E+00  0.00000000E+00  0.00000000E+00
  0.00000000E+00  0.00000000E+00  0.00000000E+00
  0.00000000E+00  0.00000000E+00  0.00000000E+00
  0.00000000E+00  0.00000000E+00  0.00000000E+00
  0.00000000E+00  0.00000000E+00  0.00000000E+00
  0.00000000E+00  0.00000000E+00  0.00000000E+00
  0.00000000E+00  0.00000000E+00  0.00000000E+00
  0.00000000E+00  0.00000000E+00  0.00000000E+00
  0.00000000E+00  0.00000000E+00  0.00000000E+00
  0.00000000E+00  0.00000000E+00  0.00000000E+00
  0.00000000E+00  0.00000000E+00  0.00000000E+00
  0.00000000E+00  0.00000000E+00  0.00000000E+00
  0.00000000E+00  0.00000000E+00  0.00000000E+00
  0.00000000E+00  0.00000000E+00  0.00000000E+00
  0.00000000E+00  0.00000000E+00  0.00000000E+00
  0.00000000E+00  0.00000000E+00  0.00000000E+00
  0.00000000E+00  0.00000000E+00  0.00000000E+00
  0.00000000E+00  0.00000000E+00  0.00000000E+00
  0.00000000E+00  0.00000000E+00  0.00000000E+00
  0.00000000E+00  0.00000000E+00  0.00000000E+00
  0.00000000E+00  0.00000000E+00  0.00000000E+00
  0.00000000E+00  0.00000000E+00  0.00000000E+00
  0.00000000E+00  0.00000000E+00  0.00000000E+00
  0.00000000E+00  0.00000000E+00  0.00000000E+00
  0.00000000E+00  0.00000000E+00  0.00000000E+00
  0.00000000E+00  0.00000000E+00  0.00000000E+00
  0.00000000E+00  0.00000000E+00  0.00000000E+00
  0.00000000E+00  0.00000000E+00  0.00000000E+00
  0.00000000E+00  0.00000000E+00  0.00000000E+00
  0.00000000E+00  0.00000000E+00  0.00000000E+00
  0.00000000E+00  0.00000000E+00  0.00000000E+00
  0.00000000E+00  0.00000000E+00  0.00000000E+00
  0.00000000E+00  0.00000000E+00  0.00000000E+00
  0.00000000E+00  0.00000000E+00  0.00000000E+00
  0.00000000E+00  0.00000000E+00  0.00000000E+00
  0.00000000E+00  0.00000000E+00  0.00000000E+00
  0.00000000E+00  0.00000000E+00  0.00000000E+00
  0.00000000E+00  0.00000000E+00  0.00000000E+00
  0.00000000E+00  0.00000000E+00  0.00000000E+00
  0.00000000E+00  0.00000000E+00  0.00000000E+00
  0.00000000E+00  0.00000000E+00  0.00000000E+00
  0.00000000E+00  0.00000000E+00  0.00000000E+00
  0.00000000E+00  0.00000000E+00  0.00000000E+00
  0.00000000E+00  0.00000000E+00  0.00000000E+00
  0.00000000E+00  0.00000000E+00  0.00000000E+00
  0.00000000E+00  0.00000000E+00  0.00000000E+00
  0.00000000E+00  0.00000000E+00  0.00000000E+00
  0.00000000E+00  0.00000000E+00  0.00000000E+00
  0.00000000E+00  0.00000000E+00  0.00000000E+00
  0.00000000E+00  0.00000000E+00  0.00000000E+00
