Zr1 C125 N1 O1                          
   1.00000000000000     
    19.7888363009706829   -0.0074546796662465   -0.0847709413831035
    -9.9008533183992036   17.0937349959220413   -0.0412690070840610
    -0.1271793942988686   -0.1454257429495487   29.7548643395243566
   Zr   C    N    O 
     1   125     1     1
Direct
  0.4390065710783048  0.5049373600092503  0.4455624214222511
  0.0417098086604772  0.0836174501068568  0.3995801659396886
  0.0414045621013299  0.2083391486434742  0.3992485111200976
  0.0411779158598521  0.3331422138596551  0.3989069260972040
  0.0412225666858767  0.4583909195897726  0.3990176292995527
  0.0415177068393718  0.5836377225906699  0.3996398230606399
  0.0419035495090839  0.7088107005906972  0.3999883310485084
  0.0421019286033586  0.8339912444155678  0.3998923700945807
  0.0420990166985344  0.9589877996550845  0.3997137145532513
  0.1670676664533617  0.0841571678355521  0.3997819139964675
  0.1666069320532121  0.2086795804216111  0.3998701131688761
  0.1664449794333374  0.3338611736547225  0.3994226024587772
  0.1656766472029837  0.4585378956465410  0.3984230305374810
  0.1657581926291309  0.5836610229092413  0.3983587934358426
  0.1663994428578006  0.7088804539461451  0.3993440408497318
  0.1668654149324875  0.8340406424068760  0.3998692044670109
  0.1671072327260293  0.9591567572558511  0.3998209878302796
  0.2921559581292609  0.0840556118059818  0.3997092753940774
  0.2925516215471898  0.2096860371185459  0.4008841849623979
  0.2916472362152664  0.3344184202671167  0.4027113851754803
  0.2912184195224924  0.4590256004280672  0.4019168757785512
  0.2897694036435152  0.5844794846690617  0.3990695239742706
  0.2909070519046671  0.7092182636188801  0.3987460461859042
  0.2915866188146639  0.8339660117526604  0.3992678571100824
  0.2918498950668449  0.9589161735131435  0.3995754129031955
  0.4169643804059942  0.0833655028637469  0.3994276574179284
  0.4171944628965730  0.2082722058407871  0.3998469043421032
  0.4183134480005348  0.3339466213371908  0.4037728247171847
  0.4154824872168607  0.7084530404515632  0.4004313805236229
  0.4163153716238623  0.8334142002563969  0.3991422603150868
  0.4166744162997061  0.9583964755302540  0.3993745422515652
  0.5417519704355540  0.0828468910633530  0.3995498873726442
  0.5421023671461613  0.2078770943303224  0.3992005526872621
  0.5426147787715017  0.3329687652135392  0.3996249404201798
  0.5434837941095509  0.4576301399599609  0.4030335439337618
  0.5476136589378967  0.5841316729505565  0.4102345996229191
  0.5400700109930249  0.7056475388201798  0.4045434748531341
  0.5409600976220650  0.8322001926507199  0.4002378633218224
  0.5414775171016089  0.9576685229171050  0.3995013790353671
  0.6665102156834914  0.0826075644939223  0.3997812420623725
  0.6668419180605998  0.2077791361414545  0.3996380730679864
  0.6672167446741544  0.3328554757296934  0.3989414918292639
  0.6681048147384487  0.4581277921381506  0.3980931527480235
  0.6692918365634274  0.5838124880813466  0.3979084337192394
  0.6673473057379187  0.7080933218071178  0.3993343159266003
  0.6658134324476237  0.8318954707512461  0.3999696077296783
  0.6662347670402383  0.9573925408711579  0.3997685069594170
  0.7913592009504988  0.0826497018382103  0.3997508646712360
  0.7915362550341267  0.2077487209697062  0.3999062040623813
  0.7918972810250849  0.3329728199860225  0.3997633053841478
  0.7924352964274926  0.4582848920418860  0.3989812517973558
  0.7929484905690944  0.5835026801564236  0.3977521874450988
  0.7927924412860061  0.7087938005894678  0.3976766124377522
  0.7919294439873593  0.8332880429969090  0.3984799688192743
  0.7911778543596060  0.9575916295161678  0.3993678470807822
  0.9164120840029487  0.0830178571631523  0.3995657735978511
  0.9163477873541046  0.2079475782805989  0.3995457512058001
  0.9164896797805873  0.3330562426647471  0.3996698660631398
  0.9167795483771898  0.4582374532970034  0.3998445351031288
  0.9172238973632066  0.5835686782747909  0.3995972250940041
  0.9173811239997092  0.7088809613807885  0.3990627242176682
  0.9172222403090514  0.8338097157181938  0.3990242785814403
  0.9167724767863921  0.9584251847191877  0.3993804402454723
  0.0837001884016883  0.0423485286841231  0.3996940023551674
  0.0832402312187830  0.1668893291250579  0.3994502953792063
  0.0828893581290366  0.2917362974814308  0.3989747992817224
  0.0826546958761675  0.4166672185300184  0.3986130667246078
  0.0827098539622662  0.5418156569738637  0.3989595797574182
  0.0832384861829409  0.6670854787557661  0.3997541265122556
  0.0836627330504597  0.7923591495593868  0.4000144837738820
  0.0837637831591900  0.9174267480011317  0.3998565279783600
  0.2087579902439736  0.0424388042226148  0.3997644803855388
  0.2086766590756985  0.1675279641015319  0.4001167415805339
  0.2080284703475057  0.2920587554324017  0.4003026733986850
  0.2074528390701709  0.4172842829167528  0.3993921744141384
  0.2068689345389907  0.5419993192719221  0.3981556542901396
  0.2077550280105062  0.6672487354550068  0.3987042672608941
  0.2083174323237267  0.7923245544457318  0.3995375701401780
  0.2086602416109745  0.9174067978632476  0.3997810358245835
  0.3336461303606413  0.0421984619902045  0.3995381739047790
  0.3340096521150343  0.1673376650399518  0.4001323745830402
  0.3340735795743179  0.2924637381351123  0.4029697155149075
  0.3299796801892868  0.4160815700279151  0.4055264340625185
  0.3325081858634498  0.5449998599028799  0.4024368108216943
  0.3322971501745212  0.6676387002515931  0.3992658369166944
  0.3330712417689863  0.7923768707622098  0.3989963286242093
  0.3334398377326517  0.9172325868318223  0.3994043298354470
  0.4585342472359766  0.0416237357452187  0.3994591870920408
  0.4587784493520239  0.1665409822131969  0.3993322604018839
  0.4592386654971882  0.2914709064111439  0.4006503657584877
  0.4621959474568902  0.4153811689521223  0.4081020891578109
  0.4552137115799118  0.6650584665907093  0.4043381114412631
  0.4578363557033618  0.7916046619060684  0.3997065745253350
  0.4581805899627405  0.9166116016030259  0.3993035024671560
  0.5832762390081562  0.0410409692898562  0.3996274452945538
  0.5835719156240136  0.1661846795327887  0.3994581573835247
  0.5840610219281761  0.2911496935930991  0.3989671068879105
  0.5850153967494514  0.4161258619381635  0.3995835769239710
  0.5870935510771388  0.5432272836846189  0.4029711295229513
  0.5842912602517767  0.6652975559741280  0.4046122202358922
  0.5816788594914113  0.7891196231899126  0.4013970550962489
  0.5828865003227611  0.9156735430213434  0.3997286086446917
  0.7079987154842879  0.0407962469698193  0.3997691929115767
  0.7083180296588915  0.1660515862545173  0.3998449051214666
  0.7086441940689918  0.2911760693447163  0.3994783101045544
  0.7092708224143732  0.4164298120644986  0.3984937355294485
  0.7101964880440543  0.5418034629157207  0.3972921543691962
  0.7096548849695177  0.6670220758770784  0.3978796089814776
  0.7084697400720223  0.7913114593055053  0.3988638053699782
  0.7076275067725839  0.9154638463148779  0.3996146833434870
  0.8329497259370469  0.0410502471585034  0.3995871828868992
  0.8330613794261867  0.1661022640138405  0.3997947713235381
  0.8333338593025521  0.2913029105090323  0.3998981648509545
  0.8337020195411980  0.4164772360867882  0.3996671693336000
  0.8342026191564164  0.5417028722015541  0.3988133982964893
  0.8343186656290796  0.6671517004443893  0.3980024665541805
  0.8340348356252869  0.7920784052624603  0.3982852926372908
  0.8333687346005814  0.9165383013979005  0.3990875005052621
  0.9583163412030968  0.0417541267949328  0.3995583940526518
  0.9580891842996390  0.1664654951082096  0.3994492858465585
  0.9579790490324862  0.2913533420636908  0.3993538688900234
  0.9581060665654385  0.4165103658916798  0.3996043882674415
  0.9585132501485872  0.5418461700003170  0.3998729641706912
  0.9588178483879820  0.6671044083517320  0.3996620737534860
  0.9589279399416227  0.7922755283774165  0.3994000195440729
  0.9587307107149152  0.9171686744585807  0.3994231059259828
  0.4112602201842611  0.5854947020038510  0.4074492209687794
  0.4477308373092788  0.5125494129172788  0.5060418507786961
 
  0.00000000E+00  0.00000000E+00  0.00000000E+00
  0.00000000E+00  0.00000000E+00  0.00000000E+00
  0.00000000E+00  0.00000000E+00  0.00000000E+00
  0.00000000E+00  0.00000000E+00  0.00000000E+00
  0.00000000E+00  0.00000000E+00  0.00000000E+00
  0.00000000E+00  0.00000000E+00  0.00000000E+00
  0.00000000E+00  0.00000000E+00  0.00000000E+00
  0.00000000E+00  0.00000000E+00  0.00000000E+00
  0.00000000E+00  0.00000000E+00  0.00000000E+00
  0.00000000E+00  0.00000000E+00  0.00000000E+00
  0.00000000E+00  0.00000000E+00  0.00000000E+00
  0.00000000E+00  0.00000000E+00  0.00000000E+00
  0.00000000E+00  0.00000000E+00  0.00000000E+00
  0.00000000E+00  0.00000000E+00  0.00000000E+00
  0.00000000E+00  0.00000000E+00  0.00000000E+00
  0.00000000E+00  0.00000000E+00  0.00000000E+00
  0.00000000E+00  0.00000000E+00  0.00000000E+00
  0.00000000E+00  0.00000000E+00  0.00000000E+00
  0.00000000E+00  0.00000000E+00  0.00000000E+00
  0.00000000E+00  0.00000000E+00  0.00000000E+00
  0.00000000E+00  0.00000000E+00  0.00000000E+00
  0.00000000E+00  0.00000000E+00  0.00000000E+00
  0.00000000E+00  0.00000000E+00  0.00000000E+00
  0.00000000E+00  0.00000000E+00  0.00000000E+00
  0.00000000E+00  0.00000000E+00  0.00000000E+00
  0.00000000E+00  0.00000000E+00  0.00000000E+00
  0.00000000E+00  0.00000000E+00  0.00000000E+00
  0.00000000E+00  0.00000000E+00  0.00000000E+00
  0.00000000E+00  0.00000000E+00  0.00000000E+00
  0.00000000E+00  0.00000000E+00  0.00000000E+00
  0.00000000E+00  0.00000000E+00  0.00000000E+00
  0.00000000E+00  0.00000000E+00  0.00000000E+00
  0.00000000E+00  0.00000000E+00  0.00000000E+00
  0.00000000E+00  0.00000000E+00  0.00000000E+00
  0.00000000E+00  0.00000000E+00  0.00000000E+00
  0.00000000E+00  0.00000000E+00  0.00000000E+00
  0.00000000E+00  0.00000000E+00  0.00000000E+00
  0.00000000E+00  0.00000000E+00  0.00000000E+00
  0.00000000E+00  0.00000000E+00  0.00000000E+00
  0.00000000E+00  0.00000000E+00  0.00000000E+00
  0.00000000E+00  0.00000000E+00  0.00000000E+00
  0.00000000E+00  0.00000000E+00  0.00000000E+00
  0.00000000E+00  0.00000000E+00  0.00000000E+00
  0.00000000E+00  0.00000000E+00  0.00000000E+00
  0.00000000E+00  0.00000000E+00  0.00000000E+00
  0.00000000E+00  0.00000000E+00  0.00000000E+00
  0.00000000E+00  0.00000000E+00  0.00000000E+00
  0.00000000E+00  0.00000000E+00  0.00000000E+00
  0.00000000E+00  0.00000000E+00  0.00000000E+00
  0.00000000E+00  0.00000000E+00  0.00000000E+00
  0.00000000E+00  0.00000000E+00  0.00000000E+00
  0.00000000E+00  0.00000000E+00  0.00000000E+00
  0.00000000E+00  0.00000000E+00  0.00000000E+00
  0.00000000E+00  0.00000000E+00  0.00000000E+00
  0.00000000E+00  0.00000000E+00  0.00000000E+00
  0.00000000E+00  0.00000000E+00  0.00000000E+00
  0.00000000E+00  0.00000000E+00  0.00000000E+00
  0.00000000E+00  0.00000000E+00  0.00000000E+00
  0.00000000E+00  0.00000000E+00  0.00000000E+00
  0.00000000E+00  0.00000000E+00  0.00000000E+00
  0.00000000E+00  0.00000000E+00  0.00000000E+00
  0.00000000E+00  0.00000000E+00  0.00000000E+00
  0.00000000E+00  0.00000000E+00  0.00000000E+00
  0.00000000E+00  0.00000000E+00  0.00000000E+00
  0.00000000E+00  0.00000000E+00  0.00000000E+00
  0.00000000E+00  0.00000000E+00  0.00000000E+00
  0.00000000E+00  0.00000000E+00  0.00000000E+00
  0.00000000E+00  0.00000000E+00  0.00000000E+00
  0.00000000E+00  0.00000000E+00  0.00000000E+00
  0.00000000E+00  0.00000000E+00  0.00000000E+00
  0.00000000E+00  0.00000000E+00  0.00000000E+00
  0.00000000E+00  0.00000000E+00  0.00000000E+00
  0.00000000E+00  0.00000000E+00  0.00000000E+00
  0.00000000E+00  0.00000000E+00  0.00000000E+00
  0.00000000E+00  0.00000000E+00  0.00000000E+00
  0.00000000E+00  0.00000000E+00  0.00000000E+00
  0.00000000E+00  0.00000000E+00  0.00000000E+00
  0.00000000E+00  0.00000000E+00  0.00000000E+00
  0.00000000E+00  0.00000000E+00  0.00000000E+00
  0.00000000E+00  0.00000000E+00  0.00000000E+00
  0.00000000E+00  0.00000000E+00  0.00000000E+00
  0.00000000E+00  0.00000000E+00  0.00000000E+00
  0.00000000E+00  0.00000000E+00  0.00000000E+00
  0.00000000E+00  0.00000000E+00  0.00000000E+00
  0.00000000E+00  0.00000000E+00  0.00000000E+00
  0.00000000E+00  0.00000000E+00  0.00000000E+00
  0.00000000E+00  0.00000000E+00  0.00000000E+00
  0.00000000E+00  0.00000000E+00  0.00000000E+00
  0.00000000E+00  0.00000000E+00  0.00000000E+00
  0.00000000E+00  0.00000000E+00  0.00000000E+00
  0.00000000E+00  0.00000000E+00  0.00000000E+00
  0.00000000E+00  0.00000000E+00  0.00000000E+00
  0.00000000E+00  0.00000000E+00  0.00000000E+00
  0.00000000E+00  0.00000000E+00  0.00000000E+00
  0.00000000E+00  0.00000000E+00  0.00000000E+00
  0.00000000E+00  0.00000000E+00  0.00000000E+00
  0.00000000E+00  0.00000000E+00  0.00000000E+00
  0.00000000E+00  0.00000000E+00  0.00000000E+00
  0.00000000E+00  0.00000000E+00  0.00000000E+00
  0.00000000E+00  0.00000000E+00  0.00000000E+00
  0.00000000E+00  0.00000000E+00  0.00000000E+00
  0.00000000E+00  0.00000000E+00  0.00000000E+00
  0.00000000E+00  0.00000000E+00  0.00000000E+00
  0.00000000E+00  0.00000000E+00  0.00000000E+00
  0.00000000E+00  0.00000000E+00  0.00000000E+00
  0.00000000E+00  0.00000000E+00  0.00000000E+00
  0.00000000E+00  0.00000000E+00  0.00000000E+00
  0.00000000E+00  0.00000000E+00  0.00000000E+00
  0.00000000E+00  0.00000000E+00  0.00000000E+00
  0.00000000E+00  0.00000000E+00  0.00000000E+00
  0.00000000E+00  0.00000000E+00  0.00000000E+00
  0.00000000E+00  0.00000000E+00  0.00000000E+00
  0.00000000E+00  0.00000000E+00  0.00000000E+00
  0.00000000E+00  0.00000000E+00  0.00000000E+00
  0.00000000E+00  0.00000000E+00  0.00000000E+00
  0.00000000E+00  0.00000000E+00  0.00000000E+00
  0.00000000E+00  0.00000000E+00  0.00000000E+00
  0.00000000E+00  0.00000000E+00  0.00000000E+00
  0.00000000E+00  0.00000000E+00  0.00000000E+00
  0.00000000E+00  0.00000000E+00  0.00000000E+00
  0.00000000E+00  0.00000000E+00  0.00000000E+00
  0.00000000E+00  0.00000000E+00  0.00000000E+00
  0.00000000E+00  0.00000000E+00  0.00000000E+00
  0.00000000E+00  0.00000000E+00  0.00000000E+00
  0.00000000E+00  0.00000000E+00  0.00000000E+00
  0.00000000E+00  0.00000000E+00  0.00000000E+00
  0.00000000E+00  0.00000000E+00  0.00000000E+00
  0.00000000E+00  0.00000000E+00  0.00000000E+00
