Ag1 C124 N2 O1                          
   1.00000000000000     
    19.8354615441239162   -0.0110045358136755   -0.1255337012969072
    -9.9275713484299786   17.0559792426275791    0.0303553161099772
    -0.1885856500737784   -0.0565769401504312   29.7537967687740128
   Ag   C    N    O 
     1   124     2     1
Direct
  0.4384880458077582  0.5001897907243905  0.4198665124956849
  0.0420616857901690  0.0840973005055556  0.3995403288872499
  0.0410687910687321  0.2082043548371298  0.3992915904459695
  0.0403011367681137  0.3328184138296875  0.3985301973768161
  0.0402881025430715  0.4583266706713051  0.3982362996606352
  0.0412373205317104  0.5838854793618427  0.3987477189069508
  0.0420998270013097  0.7093383339831887  0.3993391487757364
  0.0424895173844066  0.8346441335420424  0.3995875115484058
  0.0426249322011408  0.9597516393988531  0.3995751984942943
  0.1682122703946851  0.0858542114243144  0.4005416414460337
  0.1673053092822262  0.2100213773055171  0.4011008958366780
  0.1653150316800324  0.3338506858858006  0.4007523516739394
  0.1636052486048295  0.4585417698715159  0.3985806660344097
  0.1647844847909727  0.5839583311044096  0.3983734280769122
  0.1661892168979832  0.7093657959621298  0.3990224750442249
  0.1670377545166485  0.8347404647328537  0.3996412270145840
  0.1676300737932133  0.9602145822384957  0.3999601277968900
  0.2928502248035783  0.0855727889608629  0.4004141915031991
  0.2945922657145789  0.2128104976979474  0.4028716694325344
  0.2921884256814598  0.3371471643189125  0.4072356627027714
  0.2867882734023134  0.4592074240529901  0.4050719038211771
  0.2879876955890148  0.5845646646818479  0.4005679864240827
  0.2903029860198531  0.7093127232505083  0.3992975015669168
  0.2914893750532687  0.8343557708145671  0.3993976375468745
  0.2921304012513189  0.9597219664180591  0.3997400793897386
  0.4172473577343116  0.0838746299706408  0.3996864341003393
  0.4180481062007410  0.2095457739532734  0.4008871896444252
  0.4216832116290609  0.3373837386164827  0.4044987709527121
  0.4144499317016330  0.7071633917544741  0.4018773060702323
  0.4159498249189748  0.8328894619516165  0.4001114885336122
  0.4166211861309908  0.9583644952775848  0.3995930064258449
  0.5417069394408796  0.0823529475547216  0.3995837760776926
  0.5424347174386108  0.2075767861582458  0.3992648135760364
  0.5439344766339093  0.3325828175939819  0.3999351198577450
  0.5465655693293399  0.4563648203301361  0.4028448209209346
  0.5488921289478023  0.5815798870967714  0.4097874592346298
  0.5385543661201548  0.7031935592491737  0.4049523490892560
  0.5402572041341784  0.8307804864004740  0.4015139585149022
  0.5411610853830029  0.9568296861451900  0.4001066939968700
  0.6662157516893958  0.0817402822669751  0.3999307024290173
  0.6669001072644264  0.2071630911833378  0.3993381228836673
  0.6679528158691120  0.3324718661443912  0.3985225133539413
  0.6699609970869260  0.4580105944696110  0.3984753270497185
  0.6706974999106433  0.5829986669667193  0.4000228685867352
  0.6668656636884208  0.7065494145824565  0.4018821150039274
  0.6649893138976329  0.8303451593168136  0.4015349564282637
  0.6656873528870871  0.9562228514043071  0.4004760882684666
  0.7909086154292605  0.0817590250737100  0.3997772721166167
  0.7912862033336263  0.2070444781908770  0.3995870584709351
  0.7920592607842599  0.3325211758307003  0.3990472378803763
  0.7932026950560953  0.4580998635453099  0.3982428620031527
  0.7940398977635689  0.5835849778541655  0.3980370322028782
  0.7930496032275275  0.7084711893885594  0.3990740795465226
  0.7915590050351637  0.8324996911951523  0.3997006128743364
  0.7906620450500625  0.9566261647094847  0.3998680029959525
  0.9161027467494810  0.0825396980144277  0.3992961895160714
  0.9158742640512427  0.2073339195793195  0.3991680545421991
  0.9160862880164725  0.3326108896660975  0.3989330417312106
  0.9167268918337107  0.4581602422719814  0.3987787794000541
  0.9176581874669080  0.5838019947641020  0.3987329881236744
  0.9178248729537073  0.7091768510604436  0.3989139674417142
  0.9174602031449604  0.8339763117766498  0.3991768200580273
  0.9167473143253371  0.9582818364560959  0.3993002536895949
  0.0845196365766566  0.0434146904599328  0.3998305481557483
  0.0836269105765044  0.1675363756017398  0.3997523396301705
  0.0821760857287102  0.2915843602804693  0.3992466744147034
  0.0811594490596857  0.4164373655024025  0.3981151502582155
  0.0819726840641747  0.5419363677662450  0.3982973963112177
  0.0831456480603232  0.6675019738720214  0.3990696931527040
  0.0839236008715213  0.7929957255445786  0.3995919573281022
  0.0842859414665963  0.9182706279344757  0.3997441543474898
  0.2095199849116978  0.0438411398644554  0.4003351387232025
  0.2102594133133616  0.1697297690378228  0.4016621367937723
  0.2083813998668591  0.2935113902364009  0.4026243675384273
  0.2047074337253605  0.4171173880273945  0.4005729581571961
  0.2052380114136759  0.5420476851456727  0.3989101543597695
  0.2072177633343818  0.6675802567279546  0.3987683512956567
  0.2082845663359828  0.7928998097273036  0.3993547691651707
  0.2089882033542367  0.9183260334956381  0.3998182648558036
  0.3340300762298903  0.0432581127291392  0.3998942001668879
  0.3349921882791794  0.1693467167012006  0.4013313152933610
  0.3368082928283796  0.2969630170392636  0.4056443486795579
  0.3269082671494447  0.4186351385619093  0.4121793332181525
  0.3288640929486637  0.5437421992952316  0.4034091029634425
  0.3312627466593363  0.6674818587573972  0.4003689148234066
  0.3327393715642059  0.7925027142160340  0.3995269152568221
  0.3334919989185194  0.9177270838187960  0.3995668369310880
  0.4585819727562972  0.0417300476614571  0.3995564789431904
  0.4592530005432513  0.1672172790301004  0.3998080998102583
  0.4608245190557719  0.2929964853136721  0.4016382515294634
  0.4536386310754770  0.6627577440880930  0.4041803520384163
  0.4571972144567340  0.7905958007804463  0.4011772081133300
  0.4579439917484470  0.9162129679149191  0.3998774439461393
  0.5830706576916115  0.0403575884608984  0.3998743144287573
  0.5836907031925102  0.1657211257013375  0.3993157325056678
  0.5848652308558757  0.2907585469102478  0.3989284394702433
  0.5872363334848132  0.4154902175354716  0.4000085366949088
  0.5887313855956791  0.5408615799822387  0.4039243504142708
  0.5831723936653355  0.6629860154927246  0.4059640169032103
  0.5806881782938985  0.7872928627593579  0.4027288215584433
  0.5823582452968609  0.9145226326997689  0.4006353950030688
  0.7075587596835076  0.0398327860816821  0.4000641886407945
  0.7081620714084964  0.1653228579296457  0.3996929649071733
  0.7089948698592864  0.2906891283343969  0.3989480832691025
  0.7103811866029937  0.4160942129431953  0.3981378927311494
  0.7116437528860308  0.5415055861124795  0.3982832086379740
  0.7099365343085874  0.6662280939388009  0.4002033216086433
  0.7079130328017889  0.7900311409782097  0.4008236832377651
  0.7069992094194097  0.9142095852993821  0.4005860417795153
  0.8325662295246213  0.0402905300638084  0.3995960822613225
  0.8327082387815693  0.1653845754846416  0.3995520326909893
  0.8331376779525275  0.2907048226140377  0.3992918243758320
  0.8339550159193038  0.4161463236525013  0.3987218448571160
  0.8349109450165219  0.5417062163753933  0.3982314079259423
  0.8348878149333798  0.6672106798745271  0.3985271341990974
  0.8341328179505824  0.7918453110435751  0.3992477201539404
  0.8331281745088616  0.9159444670959085  0.3995542896179234
  0.9584397657242968  0.0417658174892431  0.3992941697354417
  0.9577287836882785  0.1660643647155617  0.3991470718103821
  0.9573810555705415  0.2908643679441942  0.3988029467754621
  0.9575561082347839  0.4162584190815239  0.3986833979157446
  0.9584795849520480  0.5418861428399773  0.3987966932961772
  0.9591442599321777  0.6674391221564528  0.3990361345305330
  0.9593119815319164  0.7926975231437456  0.3992521999736704
  0.9590821567789398  0.9175058507205470  0.3992987259642117
  0.4081764525250016  0.5827207913875595  0.4044385340034993
  0.4672696556588711  0.4175206984661675  0.4049502343950875
  0.4536955400647741  0.5274818362194411  0.4920676220310820
 
  0.00000000E+00  0.00000000E+00  0.00000000E+00
  0.00000000E+00  0.00000000E+00  0.00000000E+00
  0.00000000E+00  0.00000000E+00  0.00000000E+00
  0.00000000E+00  0.00000000E+00  0.00000000E+00
  0.00000000E+00  0.00000000E+00  0.00000000E+00
  0.00000000E+00  0.00000000E+00  0.00000000E+00
  0.00000000E+00  0.00000000E+00  0.00000000E+00
  0.00000000E+00  0.00000000E+00  0.00000000E+00
  0.00000000E+00  0.00000000E+00  0.00000000E+00
  0.00000000E+00  0.00000000E+00  0.00000000E+00
  0.00000000E+00  0.00000000E+00  0.00000000E+00
  0.00000000E+00  0.00000000E+00  0.00000000E+00
  0.00000000E+00  0.00000000E+00  0.00000000E+00
  0.00000000E+00  0.00000000E+00  0.00000000E+00
  0.00000000E+00  0.00000000E+00  0.00000000E+00
  0.00000000E+00  0.00000000E+00  0.00000000E+00
  0.00000000E+00  0.00000000E+00  0.00000000E+00
  0.00000000E+00  0.00000000E+00  0.00000000E+00
  0.00000000E+00  0.00000000E+00  0.00000000E+00
  0.00000000E+00  0.00000000E+00  0.00000000E+00
  0.00000000E+00  0.00000000E+00  0.00000000E+00
  0.00000000E+00  0.00000000E+00  0.00000000E+00
  0.00000000E+00  0.00000000E+00  0.00000000E+00
  0.00000000E+00  0.00000000E+00  0.00000000E+00
  0.00000000E+00  0.00000000E+00  0.00000000E+00
  0.00000000E+00  0.00000000E+00  0.00000000E+00
  0.00000000E+00  0.00000000E+00  0.00000000E+00
  0.00000000E+00  0.00000000E+00  0.00000000E+00
  0.00000000E+00  0.00000000E+00  0.00000000E+00
  0.00000000E+00  0.00000000E+00  0.00000000E+00
  0.00000000E+00  0.00000000E+00  0.00000000E+00
  0.00000000E+00  0.00000000E+00  0.00000000E+00
  0.00000000E+00  0.00000000E+00  0.00000000E+00
  0.00000000E+00  0.00000000E+00  0.00000000E+00
  0.00000000E+00  0.00000000E+00  0.00000000E+00
  0.00000000E+00  0.00000000E+00  0.00000000E+00
  0.00000000E+00  0.00000000E+00  0.00000000E+00
  0.00000000E+00  0.00000000E+00  0.00000000E+00
  0.00000000E+00  0.00000000E+00  0.00000000E+00
  0.00000000E+00  0.00000000E+00  0.00000000E+00
  0.00000000E+00  0.00000000E+00  0.00000000E+00
  0.00000000E+00  0.00000000E+00  0.00000000E+00
  0.00000000E+00  0.00000000E+00  0.00000000E+00
  0.00000000E+00  0.00000000E+00  0.00000000E+00
  0.00000000E+00  0.00000000E+00  0.00000000E+00
  0.00000000E+00  0.00000000E+00  0.00000000E+00
  0.00000000E+00  0.00000000E+00  0.00000000E+00
  0.00000000E+00  0.00000000E+00  0.00000000E+00
  0.00000000E+00  0.00000000E+00  0.00000000E+00
  0.00000000E+00  0.00000000E+00  0.00000000E+00
  0.00000000E+00  0.00000000E+00  0.00000000E+00
  0.00000000E+00  0.00000000E+00  0.00000000E+00
  0.00000000E+00  0.00000000E+00  0.00000000E+00
  0.00000000E+00  0.00000000E+00  0.00000000E+00
  0.00000000E+00  0.00000000E+00  0.00000000E+00
  0.00000000E+00  0.00000000E+00  0.00000000E+00
  0.00000000E+00  0.00000000E+00  0.00000000E+00
  0.00000000E+00  0.00000000E+00  0.00000000E+00
  0.00000000E+00  0.00000000E+00  0.00000000E+00
  0.00000000E+00  0.00000000E+00  0.00000000E+00
  0.00000000E+00  0.00000000E+00  0.00000000E+00
  0.00000000E+00  0.00000000E+00  0.00000000E+00
  0.00000000E+00  0.00000000E+00  0.00000000E+00
  0.00000000E+00  0.00000000E+00  0.00000000E+00
  0.00000000E+00  0.00000000E+00  0.00000000E+00
  0.00000000E+00  0.00000000E+00  0.00000000E+00
  0.00000000E+00  0.00000000E+00  0.00000000E+00
  0.00000000E+00  0.00000000E+00  0.00000000E+00
  0.00000000E+00  0.00000000E+00  0.00000000E+00
  0.00000000E+00  0.00000000E+00  0.00000000E+00
  0.00000000E+00  0.00000000E+00  0.00000000E+00
  0.00000000E+00  0.00000000E+00  0.00000000E+00
  0.00000000E+00  0.00000000E+00  0.00000000E+00
  0.00000000E+00  0.00000000E+00  0.00000000E+00
  0.00000000E+00  0.00000000E+00  0.00000000E+00
  0.00000000E+00  0.00000000E+00  0.00000000E+00
  0.00000000E+00  0.00000000E+00  0.00000000E+00
  0.00000000E+00  0.00000000E+00  0.00000000E+00
  0.00000000E+00  0.00000000E+00  0.00000000E+00
  0.00000000E+00  0.00000000E+00  0.00000000E+00
  0.00000000E+00  0.00000000E+00  0.00000000E+00
  0.00000000E+00  0.00000000E+00  0.00000000E+00
  0.00000000E+00  0.00000000E+00  0.00000000E+00
  0.00000000E+00  0.00000000E+00  0.00000000E+00
  0.00000000E+00  0.00000000E+00  0.00000000E+00
  0.00000000E+00  0.00000000E+00  0.00000000E+00
  0.00000000E+00  0.00000000E+00  0.00000000E+00
  0.00000000E+00  0.00000000E+00  0.00000000E+00
  0.00000000E+00  0.00000000E+00  0.00000000E+00
  0.00000000E+00  0.00000000E+00  0.00000000E+00
  0.00000000E+00  0.00000000E+00  0.00000000E+00
  0.00000000E+00  0.00000000E+00  0.00000000E+00
  0.00000000E+00  0.00000000E+00  0.00000000E+00
  0.00000000E+00  0.00000000E+00  0.00000000E+00
  0.00000000E+00  0.00000000E+00  0.00000000E+00
  0.00000000E+00  0.00000000E+00  0.00000000E+00
  0.00000000E+00  0.00000000E+00  0.00000000E+00
  0.00000000E+00  0.00000000E+00  0.00000000E+00
  0.00000000E+00  0.00000000E+00  0.00000000E+00
  0.00000000E+00  0.00000000E+00  0.00000000E+00
  0.00000000E+00  0.00000000E+00  0.00000000E+00
  0.00000000E+00  0.00000000E+00  0.00000000E+00
  0.00000000E+00  0.00000000E+00  0.00000000E+00
  0.00000000E+00  0.00000000E+00  0.00000000E+00
  0.00000000E+00  0.00000000E+00  0.00000000E+00
  0.00000000E+00  0.00000000E+00  0.00000000E+00
  0.00000000E+00  0.00000000E+00  0.00000000E+00
  0.00000000E+00  0.00000000E+00  0.00000000E+00
  0.00000000E+00  0.00000000E+00  0.00000000E+00
  0.00000000E+00  0.00000000E+00  0.00000000E+00
  0.00000000E+00  0.00000000E+00  0.00000000E+00
  0.00000000E+00  0.00000000E+00  0.00000000E+00
  0.00000000E+00  0.00000000E+00  0.00000000E+00
  0.00000000E+00  0.00000000E+00  0.00000000E+00
  0.00000000E+00  0.00000000E+00  0.00000000E+00
  0.00000000E+00  0.00000000E+00  0.00000000E+00
  0.00000000E+00  0.00000000E+00  0.00000000E+00
  0.00000000E+00  0.00000000E+00  0.00000000E+00
  0.00000000E+00  0.00000000E+00  0.00000000E+00
  0.00000000E+00  0.00000000E+00  0.00000000E+00
  0.00000000E+00  0.00000000E+00  0.00000000E+00
  0.00000000E+00  0.00000000E+00  0.00000000E+00
  0.00000000E+00  0.00000000E+00  0.00000000E+00
  0.00000000E+00  0.00000000E+00  0.00000000E+00
  0.00000000E+00  0.00000000E+00  0.00000000E+00
  0.00000000E+00  0.00000000E+00  0.00000000E+00
  0.00000000E+00  0.00000000E+00  0.00000000E+00
  0.00000000E+00  0.00000000E+00  0.00000000E+00
