Mo1 C125 N1                             
   1.00000000000000     
    19.8081597329391990   -0.0123340624039015    0.0112444020719673
    -9.9147941219940812   17.0640505209364832   -0.0053181017657426
     0.0169977021220964    0.0005010887152076   29.7805779233171499
   Mo   C    N 
     1   125     1
Direct
  0.4406887734566703  0.5000091986765212  0.4318970760844354
  0.0418924437082015  0.0839393009540021  0.3997307557993704
  0.0414409036596352  0.2084467309101407  0.3994786399785870
  0.0409269128213620  0.3331032431189319  0.3994670949832559
  0.0407823939547743  0.4582916084478528  0.3994976792333484
  0.0413354417017538  0.5836633471103824  0.3997380930488618
  0.0418356144930441  0.7089352086534607  0.3999414748227271
  0.0420289790829424  0.8340898105960689  0.4000006900496423
  0.0420153774091126  0.9591016926766630  0.3999616853741620
  0.1673177070681177  0.0847003312348016  0.3998626495407058
  0.1674491583468879  0.2099033629712423  0.3996215046948102
  0.1662909525991112  0.3340960311816381  0.3997909592579368
  0.1647941390172218  0.4586160956735867  0.3995457006815412
  0.1653173911162618  0.5837201604153208  0.3993058100808768
  0.1662370687493956  0.7089127956474881  0.3996996361282748
  0.1667982354128282  0.8341150628197942  0.3999784451718648
  0.1670605587055261  0.9593481499026739  0.4000399969331329
  0.2921779629840543  0.0845174426921378  0.3998107863242960
  0.2929223121305879  0.2107525961106964  0.4000991622988584
  0.2935160740015313  0.3371979444310549  0.4018144786129293
  0.2892423780134910  0.4596285504947413  0.4027400215071064
  0.2890313246477175  0.5842647068931028  0.4004254234424110
  0.2906578656137883  0.7089763093326259  0.3995580690574203
  0.2914713448070086  0.8339415826522368  0.3996937034933725
  0.2918224875654019  0.9590335736358676  0.3998976207031456
  0.4168902410394818  0.0836159648688444  0.3996994227318204
  0.4173219364955499  0.2090993716570108  0.3996340094348148
  0.4186041153153972  0.3357197818662210  0.4014743347027838
  0.4148959091430428  0.7070931748461086  0.4005638559875005
  0.4160974808925488  0.8328696983610190  0.3995433240961805
  0.4165541785290936  0.9582523821048221  0.3997355291477370
  0.5415798718104607  0.0826818234491764  0.3998160475707085
  0.5420021869288553  0.2078245902933498  0.3997062737139892
  0.5428889279764468  0.3328833603364428  0.4003363870300617
  0.5456073595777815  0.4575535347369891  0.4018550400579153
  0.5442854044168357  0.5800026219220789  0.4021132594575069
  0.5384991994579156  0.7040843520386458  0.4015873446637291
  0.5405797327631807  0.8314958299889480  0.4001555495086740
  0.5412630467812191  0.9573777911080152  0.3998569915984080
  0.6663055213436915  0.0823565810110745  0.3999903972941867
  0.6666897623835764  0.2075656897799977  0.3998690303280398
  0.6674138536895090  0.3327034947977479  0.3999827717757261
  0.6691750095183592  0.4581121863146542  0.4003811057242549
  0.6699570418042172  0.5834590844847241  0.3998211678041165
  0.6658682316062295  0.7064755086046323  0.3994028911339561
  0.6649899794876489  0.8310612623902495  0.3999205640318109
  0.6658815579331734  0.9569861617855937  0.4000621851911850
  0.7911075437203352  0.0823722053322828  0.4000152246096355
  0.7913643378600143  0.2075279155064482  0.3999866752531692
  0.7918742425660527  0.3328050128208809  0.3998934040443224
  0.7928224929527384  0.4581853338622471  0.3998984878702030
  0.7934404384950821  0.5835408429148288  0.3998418544077924
  0.7925638876008644  0.7086209001311049  0.3994134825671360
  0.7910926316968664  0.8325789106832663  0.3995516244040127
  0.7908128510698283  0.9572064537344506  0.3998840968339502
  0.9162239439282158  0.0828863860974855  0.3998365273296040
  0.9161719469868894  0.2077417607193459  0.3998356200073146
  0.9162650192542031  0.3328522830088145  0.3998349402654444
  0.9167304378125176  0.4581928806133922  0.3998163384373395
  0.9173932560240903  0.5836449725180749  0.3998696194479141
  0.9173464471531358  0.7088851303944700  0.3997917758519871
  0.9170531531149170  0.8337941570316957  0.3997640215476427
  0.9164992383110971  0.9582778781993665  0.3998378822422732
  0.0838029430648546  0.0426207355729802  0.3998605443843776
  0.0837443519144431  0.1675194871563530  0.3995366013228155
  0.0829006674688180  0.2918531292660297  0.3994082755317204
  0.0820049296870249  0.4165787352535578  0.3993507136130531
  0.0823577129075453  0.5417981497625988  0.3994815302094002
  0.0830825717236603  0.6671326494368082  0.3998192269597440
  0.0835713958717715  0.7924165817043833  0.3999992745679082
  0.0837082809381248  0.9175635739485882  0.4000303762425445
  0.2087731668891313  0.0427825062450578  0.3999546159756283
  0.2092033938754459  0.1683680899951182  0.3998202052964740
  0.2093031019867593  0.2937829209860725  0.4000476499921221
  0.2064788348661306  0.4174687898032502  0.4003055943269212
  0.2061147129288332  0.5418958384877163  0.3994911885800954
  0.2073946705010647  0.6671749583976616  0.3994738823944918
  0.2081995550198475  0.7923680240833902  0.3998142144693750
  0.2086008562274667  0.9175822627629014  0.3999997146640398
  0.3336009531840183  0.0424683689233877  0.3998133900185630
  0.3340534181694691  0.1681060435318219  0.3997458716640717
  0.3347777992055162  0.2943198402700395  0.4012934546743649
  0.3325052385829079  0.4205615508507582  0.4051990651713390
  0.3301574729570768  0.5436875865499602  0.4031373963873865
  0.3317353774398364  0.6673117750178343  0.4001537280925018
  0.3328879920055361  0.7921795239574214  0.3995325425547070
  0.3332999958878266  0.9172394847679780  0.3997799161690229
  0.4583548304751376  0.0416454673299037  0.3997707502281603
  0.4586736849739891  0.1669812193671290  0.3995894316331297
  0.4595130882059123  0.2926813428705832  0.4000847466296323
  0.4632868518447017  0.4185535225890294  0.4041614588766568
  0.4543930462908123  0.6629796110828866  0.4027716474182276
  0.4574387826667233  0.7906451102109924  0.3998423251575080
  0.4579798745290855  0.9162863924201017  0.3996742259030546
  0.5830605741394362  0.0408575308318641  0.3999060675908818
  0.5834397500897087  0.1660365637702627  0.3997756299513368
  0.5841250994538500  0.2910592807004011  0.3999463156814030
  0.5862478440600277  0.4160066913852186  0.4009090329640961
  0.5878480496454547  0.5416492108801109  0.4007065732709154
  0.5813694068338949  0.6626684265715459  0.4006850988799283
  0.5809510109948297  0.7883086348943883  0.4004492387077954
  0.5825911966386716  0.9152475565549331  0.4000183188076968
  0.7077491899676425  0.0405452136408824  0.4000461942825043
  0.7081312037017661  0.1658376244020703  0.3999662657035383
  0.7086683740731693  0.2910087911854415  0.3998951378628855
  0.7098745062859979  0.4162659362006443  0.4000380363396555
  0.7108890356054387  0.5415509405314486  0.4000927847094908
  0.7093085439043828  0.6665718303776567  0.3993259831014901
  0.7073596191223430  0.7901185552284063  0.3995177568857020
  0.7071283241034473  0.9148884380271578  0.3999504734708021
  0.8327466898163234  0.0408269540702945  0.3999438417595126
  0.8328772761963686  0.1658913907450334  0.3999785423616097
  0.8331453016901319  0.2910459383487782  0.3999302801171819
  0.8338073461571195  0.4163077314804614  0.3998583788401177
  0.8345182984216530  0.5417034237566154  0.3998864582064448
  0.8343400029661866  0.6670965840888262  0.3996454181414452
  0.8336732439293680  0.7918585466184697  0.3995195810478881
  0.8328795877006792  0.9160995775469404  0.3997817498043229
  0.9583098483738373  0.0417801049276028  0.3998112129913586
  0.9579711071361359  0.1663706147905186  0.3997044062730928
  0.9577651654073800  0.2912233938405606  0.3997200275594580
  0.9578260494678649  0.4163746657828151  0.3997442271751441
  0.9584339418931603  0.5417755709217614  0.3998308544419668
  0.9588069816227027  0.6671526854064458  0.3998947842068758
  0.9587945768565582  0.7923381139044363  0.3998640801318994
  0.9586297497244971  0.9172011346352236  0.3998746507178225
  0.4101693332229577  0.5820869638029628  0.4066658234967597
 
  0.00000000E+00  0.00000000E+00  0.00000000E+00
  0.00000000E+00  0.00000000E+00  0.00000000E+00
  0.00000000E+00  0.00000000E+00  0.00000000E+00
  0.00000000E+00  0.00000000E+00  0.00000000E+00
  0.00000000E+00  0.00000000E+00  0.00000000E+00
  0.00000000E+00  0.00000000E+00  0.00000000E+00
  0.00000000E+00  0.00000000E+00  0.00000000E+00
  0.00000000E+00  0.00000000E+00  0.00000000E+00
  0.00000000E+00  0.00000000E+00  0.00000000E+00
  0.00000000E+00  0.00000000E+00  0.00000000E+00
  0.00000000E+00  0.00000000E+00  0.00000000E+00
  0.00000000E+00  0.00000000E+00  0.00000000E+00
  0.00000000E+00  0.00000000E+00  0.00000000E+00
  0.00000000E+00  0.00000000E+00  0.00000000E+00
  0.00000000E+00  0.00000000E+00  0.00000000E+00
  0.00000000E+00  0.00000000E+00  0.00000000E+00
  0.00000000E+00  0.00000000E+00  0.00000000E+00
  0.00000000E+00  0.00000000E+00  0.00000000E+00
  0.00000000E+00  0.00000000E+00  0.00000000E+00
  0.00000000E+00  0.00000000E+00  0.00000000E+00
  0.00000000E+00  0.00000000E+00  0.00000000E+00
  0.00000000E+00  0.00000000E+00  0.00000000E+00
  0.00000000E+00  0.00000000E+00  0.00000000E+00
  0.00000000E+00  0.00000000E+00  0.00000000E+00
  0.00000000E+00  0.00000000E+00  0.00000000E+00
  0.00000000E+00  0.00000000E+00  0.00000000E+00
  0.00000000E+00  0.00000000E+00  0.00000000E+00
  0.00000000E+00  0.00000000E+00  0.00000000E+00
  0.00000000E+00  0.00000000E+00  0.00000000E+00
  0.00000000E+00  0.00000000E+00  0.00000000E+00
  0.00000000E+00  0.00000000E+00  0.00000000E+00
  0.00000000E+00  0.00000000E+00  0.00000000E+00
  0.00000000E+00  0.00000000E+00  0.00000000E+00
  0.00000000E+00  0.00000000E+00  0.00000000E+00
  0.00000000E+00  0.00000000E+00  0.00000000E+00
  0.00000000E+00  0.00000000E+00  0.00000000E+00
  0.00000000E+00  0.00000000E+00  0.00000000E+00
  0.00000000E+00  0.00000000E+00  0.00000000E+00
  0.00000000E+00  0.00000000E+00  0.00000000E+00
  0.00000000E+00  0.00000000E+00  0.00000000E+00
  0.00000000E+00  0.00000000E+00  0.00000000E+00
  0.00000000E+00  0.00000000E+00  0.00000000E+00
  0.00000000E+00  0.00000000E+00  0.00000000E+00
  0.00000000E+00  0.00000000E+00  0.00000000E+00
  0.00000000E+00  0.00000000E+00  0.00000000E+00
  0.00000000E+00  0.00000000E+00  0.00000000E+00
  0.00000000E+00  0.00000000E+00  0.00000000E+00
  0.00000000E+00  0.00000000E+00  0.00000000E+00
  0.00000000E+00  0.00000000E+00  0.00000000E+00
  0.00000000E+00  0.00000000E+00  0.00000000E+00
  0.00000000E+00  0.00000000E+00  0.00000000E+00
  0.00000000E+00  0.00000000E+00  0.00000000E+00
  0.00000000E+00  0.00000000E+00  0.00000000E+00
  0.00000000E+00  0.00000000E+00  0.00000000E+00
  0.00000000E+00  0.00000000E+00  0.00000000E+00
  0.00000000E+00  0.00000000E+00  0.00000000E+00
  0.00000000E+00  0.00000000E+00  0.00000000E+00
  0.00000000E+00  0.00000000E+00  0.00000000E+00
  0.00000000E+00  0.00000000E+00  0.00000000E+00
  0.00000000E+00  0.00000000E+00  0.00000000E+00
  0.00000000E+00  0.00000000E+00  0.00000000E+00
  0.00000000E+00  0.00000000E+00  0.00000000E+00
  0.00000000E+00  0.00000000E+00  0.00000000E+00
  0.00000000E+00  0.00000000E+00  0.00000000E+00
  0.00000000E+00  0.00000000E+00  0.00000000E+00
  0.00000000E+00  0.00000000E+00  0.00000000E+00
  0.00000000E+00  0.00000000E+00  0.00000000E+00
  0.00000000E+00  0.00000000E+00  0.00000000E+00
  0.00000000E+00  0.00000000E+00  0.00000000E+00
  0.00000000E+00  0.00000000E+00  0.00000000E+00
  0.00000000E+00  0.00000000E+00  0.00000000E+00
  0.00000000E+00  0.00000000E+00  0.00000000E+00
  0.00000000E+00  0.00000000E+00  0.00000000E+00
  0.00000000E+00  0.00000000E+00  0.00000000E+00
  0.00000000E+00  0.00000000E+00  0.00000000E+00
  0.00000000E+00  0.00000000E+00  0.00000000E+00
  0.00000000E+00  0.00000000E+00  0.00000000E+00
  0.00000000E+00  0.00000000E+00  0.00000000E+00
  0.00000000E+00  0.00000000E+00  0.00000000E+00
  0.00000000E+00  0.00000000E+00  0.00000000E+00
  0.00000000E+00  0.00000000E+00  0.00000000E+00
  0.00000000E+00  0.00000000E+00  0.00000000E+00
  0.00000000E+00  0.00000000E+00  0.00000000E+00
  0.00000000E+00  0.00000000E+00  0.00000000E+00
  0.00000000E+00  0.00000000E+00  0.00000000E+00
  0.00000000E+00  0.00000000E+00  0.00000000E+00
  0.00000000E+00  0.00000000E+00  0.00000000E+00
  0.00000000E+00  0.00000000E+00  0.00000000E+00
  0.00000000E+00  0.00000000E+00  0.00000000E+00
  0.00000000E+00  0.00000000E+00  0.00000000E+00
  0.00000000E+00  0.00000000E+00  0.00000000E+00
  0.00000000E+00  0.00000000E+00  0.00000000E+00
  0.00000000E+00  0.00000000E+00  0.00000000E+00
  0.00000000E+00  0.00000000E+00  0.00000000E+00
  0.00000000E+00  0.00000000E+00  0.00000000E+00
  0.00000000E+00  0.00000000E+00  0.00000000E+00
  0.00000000E+00  0.00000000E+00  0.00000000E+00
  0.00000000E+00  0.00000000E+00  0.00000000E+00
  0.00000000E+00  0.00000000E+00  0.00000000E+00
  0.00000000E+00  0.00000000E+00  0.00000000E+00
  0.00000000E+00  0.00000000E+00  0.00000000E+00
  0.00000000E+00  0.00000000E+00  0.00000000E+00
  0.00000000E+00  0.00000000E+00  0.00000000E+00
  0.00000000E+00  0.00000000E+00  0.00000000E+00
  0.00000000E+00  0.00000000E+00  0.00000000E+00
  0.00000000E+00  0.00000000E+00  0.00000000E+00
  0.00000000E+00  0.00000000E+00  0.00000000E+00
  0.00000000E+00  0.00000000E+00  0.00000000E+00
  0.00000000E+00  0.00000000E+00  0.00000000E+00
  0.00000000E+00  0.00000000E+00  0.00000000E+00
  0.00000000E+00  0.00000000E+00  0.00000000E+00
  0.00000000E+00  0.00000000E+00  0.00000000E+00
  0.00000000E+00  0.00000000E+00  0.00000000E+00
  0.00000000E+00  0.00000000E+00  0.00000000E+00
  0.00000000E+00  0.00000000E+00  0.00000000E+00
  0.00000000E+00  0.00000000E+00  0.00000000E+00
  0.00000000E+00  0.00000000E+00  0.00000000E+00
  0.00000000E+00  0.00000000E+00  0.00000000E+00
  0.00000000E+00  0.00000000E+00  0.00000000E+00
  0.00000000E+00  0.00000000E+00  0.00000000E+00
  0.00000000E+00  0.00000000E+00  0.00000000E+00
  0.00000000E+00  0.00000000E+00  0.00000000E+00
  0.00000000E+00  0.00000000E+00  0.00000000E+00
  0.00000000E+00  0.00000000E+00  0.00000000E+00
  0.00000000E+00  0.00000000E+00  0.00000000E+00
  0.00000000E+00  0.00000000E+00  0.00000000E+00
  0.00000000E+00  0.00000000E+00  0.00000000E+00
