Cd1 H1 C125 N1                          
   1.00000000000000     
    19.7922529014402677   -0.0010008203485223   -0.2414059312453360
    -9.8969905313020341   17.0695998169423397    0.1763048574953925
    -0.3614534636901800    0.0967226349952589   29.7896338546714894
   Cd   H    C    N 
     1     1   125     1
Direct
  0.4396527999140526  0.4974943297111114  0.4456276790010618
  0.4254404229844926  0.5194994640400530  0.4988192530059101
  0.0416808118167238  0.0835479600378087  0.3994295884176600
  0.0411938782272545  0.2081239710941212  0.3993671271946662
  0.0409938982483351  0.3329298733345667  0.3981096311382424
  0.0411751439416059  0.4582392283187580  0.3971027360792740
  0.0416354195079781  0.5835711686841608  0.3973413761374463
  0.0421267137290484  0.7089049126009028  0.3979895692671742
  0.0423428550444870  0.8341356067804530  0.3985347566703907
  0.0421993762437938  0.9590694219489911  0.3990489402176627
  0.1673077601092568  0.0844446404299269  0.4007161816670043
  0.1666524534946098  0.2087792664289524  0.4017510794076768
  0.1661358181131759  0.3335600528440105  0.4010059078832016
  0.1655694992455683  0.4583453043556003  0.3982403088869816
  0.1658291873283688  0.5835277832526682  0.3976830130379280
  0.1665296850795737  0.7088664878584574  0.3979884457954349
  0.1670578110953156  0.8341709023452369  0.3985030192490014
  0.1673099525223928  0.9593941234789320  0.3994155159739302
  0.2923908191560651  0.0845857633403303  0.4007281172826073
  0.2928361538225655  0.2103002819161341  0.4038140962640979
  0.2914073487216254  0.3344679923826363  0.4086384964430984
  0.2906051137618482  0.4590201918549843  0.4051762894106293
  0.2897982318746227  0.5841124486599987  0.4003208214988208
  0.2909408481059936  0.7089287487315833  0.3991757982565568
  0.2916806528227450  0.8339275684487574  0.3990029780437511
  0.2920247629643226  0.9591553708458349  0.3994782959360096
  0.4170373379371309  0.0838299012175652  0.3998694671014747
  0.4173661014977449  0.2093087223817245  0.4013359619089629
  0.4184427637122312  0.3357731648731549  0.4064250625502616
  0.4153202602977956  0.7075957724638566  0.4024134774205252
  0.4163137991999274  0.8330451363623846  0.4001226320080113
  0.4166833146482848  0.9583996042175839  0.3994813289625942
  0.5416471972732149  0.0827708295221924  0.3994889643538001
  0.5420451584697176  0.2080956962876488  0.3995262356862172
  0.5426169346848390  0.3332890952809724  0.3999931889554622
  0.5454390070155483  0.4585872935448692  0.4042548737691903
  0.5502657009600146  0.5827931961155919  0.4164670848325693
  0.5395229150948022  0.7042025394991572  0.4076603085900903
  0.5407506479593661  0.8313548592593450  0.4021238868580275
  0.5413390159598147  0.9572560374021029  0.3999138443999448
  0.6662795850730322  0.0822724085713309  0.3991820172204331
  0.6666750982664431  0.2076270437827293  0.3990934655643022
  0.6671727199342148  0.3328443328413453  0.3986476109456694
  0.6686002195949470  0.4582791701495789  0.3979763444160676
  0.6703320836299047  0.5840355643622825  0.3998362696601833
  0.6670852087412921  0.7071535046749504  0.4031428022840761
  0.6654655797402621  0.8310760887872373  0.4025548449303601
  0.6659801741376654  0.9568409191597848  0.4004706439619435
  0.7910697624221543  0.0822497253644755  0.3989811115217172
  0.7912828347320588  0.2074450332277310  0.3984328266949480
  0.7917968225834139  0.3327775105363226  0.3984916121637697
  0.7926433646131236  0.4582232207690818  0.3981438771790324
  0.7934102615125911  0.5835724919481987  0.3977883631808131
  0.7930526691159293  0.7087594813790004  0.3991870888204188
  0.7916339206894388  0.8327400927530866  0.3999690560206408
  0.7908603373445653  0.9570503212788666  0.3998579708048413
  0.9161521075109815  0.0826845345575023  0.3989346600497456
  0.9160861016325068  0.2076591990413201  0.3983517153118605
  0.9163034524165929  0.3328206428980108  0.3976592156201073
  0.9168380536013512  0.4581436634893005  0.3977961471784346
  0.9175157553621202  0.5835897771794081  0.3981430301038537
  0.9176482891153923  0.7089107861326763  0.3984767697055878
  0.9173634193670223  0.8337838385160445  0.3989434817184630
  0.9165954306422781  0.9581371526834065  0.3990264911224849
  0.0838303121187640  0.0424414684033206  0.3996689803893440
  0.0831806447794953  0.1668387522028604  0.3999740700470525
  0.0827085674106091  0.2915272668116191  0.3992954554065076
  0.0825919206931905  0.4164893440711916  0.3975657158088762
  0.0827903094543032  0.5417070651514491  0.3971145137412128
  0.0834123571841307  0.6670912819899343  0.3976645719748367
  0.0838770839000740  0.7924518982530712  0.3982479376696834
  0.0839475288869971  0.9175640604808937  0.3989480562087886
  0.2089845871339402  0.0427535248408335  0.4003976514280893
  0.2089267123875088  0.1678301209890847  0.4022733433933584
  0.2078547546135426  0.2920774317588775  0.4034022014124341
  0.2072489846357129  0.4169345154282932  0.4003655084957833
  0.2069001923903338  0.5417977435520874  0.3984368823419355
  0.2078634491198894  0.6671079534230965  0.3982124909386521
  0.2084449823813829  0.7923011557604572  0.3984616337112384
  0.2088387892874120  0.9175863933472833  0.3991149046552997
  0.3337816234277521  0.0425730966565557  0.4000075132853283
  0.3342041283621891  0.1680022087393073  0.4019552919548456
  0.3342484797781408  0.2932221819629623  0.4072791426283741
  0.3278159210769382  0.4154500169063126  0.4135656619296211
  0.3323863883145242  0.5441806901805469  0.4037873759688537
  0.3322311048474089  0.6671241448256204  0.4004226935303450
  0.3330863987198031  0.7921127244471635  0.3994171103001805
  0.3334994790312726  0.9172680219325495  0.3993237466864651
  0.4584843717018422  0.0417597437915584  0.3995778929116633
  0.4588069014982211  0.1671781250999465  0.4000623250486456
  0.4594486353400119  0.2927928146025343  0.4022631770056915
  0.4640730242916154  0.4175291771965591  0.4088883517873468
  0.4545083857760815  0.6631665937046126  0.4059350706843926
  0.4576893778856158  0.7908967580769204  0.4015710021555486
  0.4581045426710588  0.9163310530300809  0.3997540323259124
  0.5830830722708416  0.0407303035994598  0.3994854480875005
  0.5834711571571470  0.1661574748043418  0.3993868055367297
  0.5840192866400969  0.2913342951299120  0.3990898445857145
  0.5855320073627434  0.4162604463388889  0.3996813525728289
  0.5887966460039804  0.5424722553807159  0.4061110040092520
  0.5836623984333759  0.6636981436127266  0.4095070935889129
  0.5813542344593827  0.7879918518352154  0.4041461041972408
  0.5826645050062335  0.9150001523249109  0.4007510171266931
  0.7077213789418814  0.0403418136958606  0.3994250736467128
  0.7081006832077157  0.1657577817056183  0.3988727453406711
  0.7085865721370830  0.2910569559541643  0.3988540895230604
  0.7095089316052512  0.4164280642755774  0.3980675545530428
  0.7107867343550083  0.5418500256564115  0.3976869919364985
  0.7100459916215053  0.6669609180340961  0.4005780719467077
  0.7080486253058066  0.7904815390479532  0.4016566097608070
  0.7073049225725280  0.9147623839899686  0.4009570766685558
  0.8326545332291346  0.0405941141267359  0.3991585788157707
  0.8327948336976176  0.1657436776888991  0.3984591078309475
  0.8331789727826709  0.2910398726546160  0.3981666278772948
  0.8337962789178905  0.4163229692746008  0.3982663890671313
  0.8345486258155779  0.5417101440594624  0.3980328498153439
  0.8346180006256760  0.6671858399071574  0.3984136350627936
  0.8341299448980606  0.7919512443248420  0.3993880651064494
  0.8330820987239620  0.9160466133284066  0.3995554385310295
  0.9581760163330286  0.0415102754369928  0.3990052030521407
  0.9578266360216140  0.1661557987323593  0.3988207209803228
  0.9577892555662620  0.2911142357108515  0.3978797110191499
  0.9580829419495613  0.4163545653863004  0.3973920566721414
  0.9586953546299860  0.5417686754749345  0.3977489740407608
  0.9590838471909517  0.6671618175695251  0.3982097416011694
  0.9591328054182640  0.7923162114694904  0.3986554845958035
  0.9587728524571870  0.9171094590178444  0.3988908269350774
  0.4111310911966741  0.5836455365967678  0.4067676443463581
 
  0.00000000E+00  0.00000000E+00  0.00000000E+00
  0.00000000E+00  0.00000000E+00  0.00000000E+00
  0.00000000E+00  0.00000000E+00  0.00000000E+00
  0.00000000E+00  0.00000000E+00  0.00000000E+00
  0.00000000E+00  0.00000000E+00  0.00000000E+00
  0.00000000E+00  0.00000000E+00  0.00000000E+00
  0.00000000E+00  0.00000000E+00  0.00000000E+00
  0.00000000E+00  0.00000000E+00  0.00000000E+00
  0.00000000E+00  0.00000000E+00  0.00000000E+00
  0.00000000E+00  0.00000000E+00  0.00000000E+00
  0.00000000E+00  0.00000000E+00  0.00000000E+00
  0.00000000E+00  0.00000000E+00  0.00000000E+00
  0.00000000E+00  0.00000000E+00  0.00000000E+00
  0.00000000E+00  0.00000000E+00  0.00000000E+00
  0.00000000E+00  0.00000000E+00  0.00000000E+00
  0.00000000E+00  0.00000000E+00  0.00000000E+00
  0.00000000E+00  0.00000000E+00  0.00000000E+00
  0.00000000E+00  0.00000000E+00  0.00000000E+00
  0.00000000E+00  0.00000000E+00  0.00000000E+00
  0.00000000E+00  0.00000000E+00  0.00000000E+00
  0.00000000E+00  0.00000000E+00  0.00000000E+00
  0.00000000E+00  0.00000000E+00  0.00000000E+00
  0.00000000E+00  0.00000000E+00  0.00000000E+00
  0.00000000E+00  0.00000000E+00  0.00000000E+00
  0.00000000E+00  0.00000000E+00  0.00000000E+00
  0.00000000E+00  0.00000000E+00  0.00000000E+00
  0.00000000E+00  0.00000000E+00  0.00000000E+00
  0.00000000E+00  0.00000000E+00  0.00000000E+00
  0.00000000E+00  0.00000000E+00  0.00000000E+00
  0.00000000E+00  0.00000000E+00  0.00000000E+00
  0.00000000E+00  0.00000000E+00  0.00000000E+00
  0.00000000E+00  0.00000000E+00  0.00000000E+00
  0.00000000E+00  0.00000000E+00  0.00000000E+00
  0.00000000E+00  0.00000000E+00  0.00000000E+00
  0.00000000E+00  0.00000000E+00  0.00000000E+00
  0.00000000E+00  0.00000000E+00  0.00000000E+00
  0.00000000E+00  0.00000000E+00  0.00000000E+00
  0.00000000E+00  0.00000000E+00  0.00000000E+00
  0.00000000E+00  0.00000000E+00  0.00000000E+00
  0.00000000E+00  0.00000000E+00  0.00000000E+00
  0.00000000E+00  0.00000000E+00  0.00000000E+00
  0.00000000E+00  0.00000000E+00  0.00000000E+00
  0.00000000E+00  0.00000000E+00  0.00000000E+00
  0.00000000E+00  0.00000000E+00  0.00000000E+00
  0.00000000E+00  0.00000000E+00  0.00000000E+00
  0.00000000E+00  0.00000000E+00  0.00000000E+00
  0.00000000E+00  0.00000000E+00  0.00000000E+00
  0.00000000E+00  0.00000000E+00  0.00000000E+00
  0.00000000E+00  0.00000000E+00  0.00000000E+00
  0.00000000E+00  0.00000000E+00  0.00000000E+00
  0.00000000E+00  0.00000000E+00  0.00000000E+00
  0.00000000E+00  0.00000000E+00  0.00000000E+00
  0.00000000E+00  0.00000000E+00  0.00000000E+00
  0.00000000E+00  0.00000000E+00  0.00000000E+00
  0.00000000E+00  0.00000000E+00  0.00000000E+00
  0.00000000E+00  0.00000000E+00  0.00000000E+00
  0.00000000E+00  0.00000000E+00  0.00000000E+00
  0.00000000E+00  0.00000000E+00  0.00000000E+00
  0.00000000E+00  0.00000000E+00  0.00000000E+00
  0.00000000E+00  0.00000000E+00  0.00000000E+00
  0.00000000E+00  0.00000000E+00  0.00000000E+00
  0.00000000E+00  0.00000000E+00  0.00000000E+00
  0.00000000E+00  0.00000000E+00  0.00000000E+00
  0.00000000E+00  0.00000000E+00  0.00000000E+00
  0.00000000E+00  0.00000000E+00  0.00000000E+00
  0.00000000E+00  0.00000000E+00  0.00000000E+00
  0.00000000E+00  0.00000000E+00  0.00000000E+00
  0.00000000E+00  0.00000000E+00  0.00000000E+00
  0.00000000E+00  0.00000000E+00  0.00000000E+00
  0.00000000E+00  0.00000000E+00  0.00000000E+00
  0.00000000E+00  0.00000000E+00  0.00000000E+00
  0.00000000E+00  0.00000000E+00  0.00000000E+00
  0.00000000E+00  0.00000000E+00  0.00000000E+00
  0.00000000E+00  0.00000000E+00  0.00000000E+00
  0.00000000E+00  0.00000000E+00  0.00000000E+00
  0.00000000E+00  0.00000000E+00  0.00000000E+00
  0.00000000E+00  0.00000000E+00  0.00000000E+00
  0.00000000E+00  0.00000000E+00  0.00000000E+00
  0.00000000E+00  0.00000000E+00  0.00000000E+00
  0.00000000E+00  0.00000000E+00  0.00000000E+00
  0.00000000E+00  0.00000000E+00  0.00000000E+00
  0.00000000E+00  0.00000000E+00  0.00000000E+00
  0.00000000E+00  0.00000000E+00  0.00000000E+00
  0.00000000E+00  0.00000000E+00  0.00000000E+00
  0.00000000E+00  0.00000000E+00  0.00000000E+00
  0.00000000E+00  0.00000000E+00  0.00000000E+00
  0.00000000E+00  0.00000000E+00  0.00000000E+00
  0.00000000E+00  0.00000000E+00  0.00000000E+00
  0.00000000E+00  0.00000000E+00  0.00000000E+00
  0.00000000E+00  0.00000000E+00  0.00000000E+00
  0.00000000E+00  0.00000000E+00  0.00000000E+00
  0.00000000E+00  0.00000000E+00  0.00000000E+00
  0.00000000E+00  0.00000000E+00  0.00000000E+00
  0.00000000E+00  0.00000000E+00  0.00000000E+00
  0.00000000E+00  0.00000000E+00  0.00000000E+00
  0.00000000E+00  0.00000000E+00  0.00000000E+00
  0.00000000E+00  0.00000000E+00  0.00000000E+00
  0.00000000E+00  0.00000000E+00  0.00000000E+00
  0.00000000E+00  0.00000000E+00  0.00000000E+00
  0.00000000E+00  0.00000000E+00  0.00000000E+00
  0.00000000E+00  0.00000000E+00  0.00000000E+00
  0.00000000E+00  0.00000000E+00  0.00000000E+00
  0.00000000E+00  0.00000000E+00  0.00000000E+00
  0.00000000E+00  0.00000000E+00  0.00000000E+00
  0.00000000E+00  0.00000000E+00  0.00000000E+00
  0.00000000E+00  0.00000000E+00  0.00000000E+00
  0.00000000E+00  0.00000000E+00  0.00000000E+00
  0.00000000E+00  0.00000000E+00  0.00000000E+00
  0.00000000E+00  0.00000000E+00  0.00000000E+00
  0.00000000E+00  0.00000000E+00  0.00000000E+00
  0.00000000E+00  0.00000000E+00  0.00000000E+00
  0.00000000E+00  0.00000000E+00  0.00000000E+00
  0.00000000E+00  0.00000000E+00  0.00000000E+00
  0.00000000E+00  0.00000000E+00  0.00000000E+00
  0.00000000E+00  0.00000000E+00  0.00000000E+00
  0.00000000E+00  0.00000000E+00  0.00000000E+00
  0.00000000E+00  0.00000000E+00  0.00000000E+00
  0.00000000E+00  0.00000000E+00  0.00000000E+00
  0.00000000E+00  0.00000000E+00  0.00000000E+00
  0.00000000E+00  0.00000000E+00  0.00000000E+00
  0.00000000E+00  0.00000000E+00  0.00000000E+00
  0.00000000E+00  0.00000000E+00  0.00000000E+00
  0.00000000E+00  0.00000000E+00  0.00000000E+00
  0.00000000E+00  0.00000000E+00  0.00000000E+00
  0.00000000E+00  0.00000000E+00  0.00000000E+00
  0.00000000E+00  0.00000000E+00  0.00000000E+00
  0.00000000E+00  0.00000000E+00  0.00000000E+00
  0.00000000E+00  0.00000000E+00  0.00000000E+00
