Mn1 H1 C126 O2                          
   1.00000000000000     
    19.7808371665705707   -0.0036948397053589   -0.1562999268700623
    -9.8958234660581308   17.0653982735531855    0.0006889430860558
    -0.2354597830354112   -0.1352299170439241   29.8142619472034021
   Mn   H    C    O 
     1     1   126     2
Direct
  0.4389492405796501  0.5031854174829422  0.4295601727522684
  0.5296266914159445  0.5268796790636926  0.5016392133875693
  0.0421634825346405  0.0838708827219522  0.3998296535401261
  0.0416019410571762  0.2082550397403725  0.3999114374545243
  0.0413070728341077  0.3330115565377922  0.3995597013196388
  0.0412961276668563  0.4582812831526318  0.3991133299199119
  0.0416134462760801  0.5835130646873088  0.3991508339482647
  0.0419077388550335  0.7086150137764544  0.3993226950884179
  0.0421431198789396  0.8338973715768808  0.3994737762569672
  0.0422477042373645  0.9589932641563423  0.3996078922471978
  0.1675424492889876  0.0846135172285608  0.4003536513934486
  0.1676813339505970  0.2096794295355987  0.4011814855170172
  0.1664184647226649  0.3334558231019158  0.4011965785672117
  0.1655909499266229  0.4583271761750853  0.3998797828849256
  0.1659742711464849  0.5834311315570031  0.3990839191265214
  0.1666837289675854  0.7086956964053023  0.3992290473193616
  0.1669951208043536  0.8339010806183476  0.3994824846385784
  0.1672718020915607  0.9592646795165192  0.3997669948319332
  0.2924409501068098  0.0845738929792245  0.4001888584117032
  0.2931553046528127  0.2107454139309508  0.4019841043853570
  0.2939752755876492  0.3368346007603608  0.4044030994582495
  0.2897017369687112  0.4581391064293532  0.4029863381162869
  0.2900914436468030  0.5837142819549010  0.4000773361263144
  0.2913178103687556  0.7086315554564329  0.3994068957165754
  0.2917243494307432  0.8336337407560410  0.3994259152902653
  0.2920142646190761  0.9589718263874503  0.3995935456914481
  0.4170302244463652  0.0837953135018320  0.3996122664916152
  0.4174608923417791  0.2095268065558439  0.4004570045946536
  0.4188644843863473  0.3367807842968503  0.4037216940107807
  0.4126953857487837  0.5810710208278027  0.4058028560531914
  0.4159020156216920  0.7069686245144358  0.4010430863048853
  0.4165187629770011  0.8328048868991100  0.3998365259609543
  0.4167495970937118  0.9582648690954458  0.3995728006498104
  0.5417701646117008  0.0829385619731660  0.3995790870707572
  0.5420579902502267  0.2081565581093474  0.3994169452895955
  0.5425053176268919  0.3332439623245342  0.4001474166012924
  0.5436224638922722  0.4575165105911587  0.4025647437604283
  0.5434375915758966  0.5805797327977094  0.4062628340671374
  0.5406466456361673  0.7059377208063202  0.4037949428155709
  0.5411212114695327  0.8318860838129295  0.4010382286391829
  0.5415519655231231  0.9575570104685412  0.4000005249182724
  0.6665367870333316  0.0825874749735849  0.3998057919757152
  0.6667804752778322  0.2078565800500040  0.3994111293055255
  0.6670654682237304  0.3328842986352059  0.3991291883579082
  0.6680256047780028  0.4581295037852164  0.3995237271107154
  0.6687196584884175  0.5835202041468864  0.4007024522401844
  0.6661038378295822  0.7066999150419899  0.4014499179180234
  0.6660913800237418  0.8318508095023147  0.4010988940917423
  0.6663230957926992  0.9572872555837754  0.4003455805565546
  0.7914330448745448  0.0826026748494362  0.3997794102911220
  0.7915687832150183  0.2077628741125866  0.3995506783519208
  0.7918279019177409  0.3329755204322311  0.3992516964373001
  0.7922889120535100  0.4582343593736423  0.3990939392113179
  0.7926223061426937  0.5833798306931788  0.3992744963303718
  0.7924562293317802  0.7085383664191616  0.3996873630665292
  0.7914760970491195  0.8327006103186253  0.3999234190236237
  0.7913009013499294  0.9575339897719365  0.3999059801457747
  0.9165508317316059  0.0829889189032659  0.3995479341177979
  0.9165025731731127  0.2079221214024042  0.3995021215277302
  0.9165467006831557  0.3330218448584448  0.3993042135437862
  0.9167270471945491  0.4581596811537765  0.3991672779275055
  0.9171274763300861  0.5834933255405387  0.3991984723070902
  0.9172225393715367  0.7086960801098047  0.3993012229793227
  0.9171252364227886  0.8336352745110346  0.3994107256710987
  0.9167579985452416  0.9582659505867828  0.3994789081742204
  0.0840504985425453  0.0425012410575705  0.3998987482736722
  0.0839489915014319  0.1673506999627132  0.4002278024704968
  0.0829675851908766  0.2915010319043349  0.4000885600479433
  0.0827558395450291  0.4166296753046734  0.3994077425633528
  0.0829379583138304  0.5417317770360651  0.3990632665847768
  0.0834156740489845  0.6669721928333127  0.3992342686701943
  0.0837007049134254  0.7922009990073330  0.3994450992890812
  0.0838715334804567  0.9173899403669298  0.3996283135731530
  0.2090273693999996  0.0427162761671798  0.4001178419702406
  0.2093465799668695  0.1682076685484808  0.4012218555891395
  0.2095486703397023  0.2934415564759384  0.4022157058311417
  0.2068884089822557  0.4165131266317473  0.4011432606687778
  0.2071082979920638  0.5417878525861842  0.3994648587337165
  0.2081590407910577  0.6670647182997996  0.3991461365187942
  0.2084836826227679  0.7921092721346654  0.3993737005027511
  0.2087755121213664  0.9173955519226276  0.3996106160614855
  0.3337587310669966  0.0424579906120092  0.3997474424062574
  0.3343174050851589  0.1681483237874376  0.4008649008802873
  0.3349508278885891  0.2940800253694305  0.4039026295466978
  0.3332448278307097  0.4199122704352226  0.4067309235179095
  0.3312217488271785  0.5423349780956538  0.4023384868990348
  0.3327714796999718  0.6667787493383678  0.4000181743807958
  0.3332415470689290  0.7918525536831981  0.3995059224017517
  0.3334894798152562  0.9170351345488328  0.3995000988342590
  0.4585111626342239  0.0417299959476309  0.3995535482456583
  0.4587777318958707  0.1672273075545078  0.3996969364381437
  0.4594622160827820  0.2932412054723956  0.4011733433052038
  0.4622126009442257  0.4196153197529069  0.4057152312553933
  0.4567836615806020  0.6637142961649786  0.4036094304105989
  0.4578883386750528  0.7905742146156599  0.4005452486749742
  0.4582619818887348  0.9162362376330671  0.3997934460445015
  0.5832852400851984  0.0410233203570434  0.3997810363500900
  0.5835397852772966  0.1663323114796911  0.3994108611911031
  0.5839529729742158  0.2913427550302661  0.3993838532557831
  0.5849847942620053  0.4162216544818807  0.4003300301063719
  0.5860418458628068  0.5418410874492073  0.4027014722799178
  0.5819200681044162  0.6634262507382853  0.4038459837908412
  0.5823505258137894  0.7893280686207372  0.4019588885630381
  0.5829194122981439  0.9154568458867846  0.4004551821681768
  0.7080594719923448  0.0407469555596813  0.3999707567080367
  0.7082876584792613  0.1660669406876939  0.3995821756372217
  0.7085708444106010  0.2912435079319136  0.3992237508474784
  0.7091927241089212  0.4165088197425352  0.3990979302448236
  0.7098467627538010  0.5416491621364018  0.3996937066095508
  0.7091050547643818  0.6665857726642265  0.4005505963604325
  0.7078231618571253  0.7904180561917383  0.4007520355230917
  0.7078465255887740  0.9154453375199045  0.4004233989304848
  0.8330894964569622  0.0410310947671067  0.3996925271779448
  0.8331648641307495  0.1661017717393282  0.3995948305685875
  0.8333673462525782  0.2913490866456673  0.3993771243757593
  0.8336342796956776  0.4164429988604541  0.3991654403045351
  0.8340097528288589  0.5416825879282914  0.3991432580496450
  0.8340733739695203  0.6670106367530999  0.3993547956364826
  0.8337990356515026  0.7917801304119607  0.3996105172337608
  0.8331964022067541  0.9161697575461945  0.3997020992830725
  0.9585501592279261  0.0417772336136482  0.3995450919947232
  0.9582346296104942  0.1664116677437351  0.3995807235866368
  0.9581215544314100  0.2913382335638963  0.3993970909070166
  0.9581615329649632  0.4164810453213391  0.3991665120055535
  0.9585177543372508  0.5418066975598093  0.3991647255330417
  0.9587378569827417  0.6669729332104247  0.3992689754217578
  0.9588195766112425  0.7921043623799570  0.3993870237247055
  0.9587751209697157  0.9170459806092214  0.3994583247371141
  0.4725957156416057  0.4920402885054823  0.4991257879036770
  0.4475401890088566  0.5476770260912593  0.4839857111183062
 
  0.00000000E+00  0.00000000E+00  0.00000000E+00
  0.00000000E+00  0.00000000E+00  0.00000000E+00
  0.00000000E+00  0.00000000E+00  0.00000000E+00
  0.00000000E+00  0.00000000E+00  0.00000000E+00
  0.00000000E+00  0.00000000E+00  0.00000000E+00
  0.00000000E+00  0.00000000E+00  0.00000000E+00
  0.00000000E+00  0.00000000E+00  0.00000000E+00
  0.00000000E+00  0.00000000E+00  0.00000000E+00
  0.00000000E+00  0.00000000E+00  0.00000000E+00
  0.00000000E+00  0.00000000E+00  0.00000000E+00
  0.00000000E+00  0.00000000E+00  0.00000000E+00
  0.00000000E+00  0.00000000E+00  0.00000000E+00
  0.00000000E+00  0.00000000E+00  0.00000000E+00
  0.00000000E+00  0.00000000E+00  0.00000000E+00
  0.00000000E+00  0.00000000E+00  0.00000000E+00
  0.00000000E+00  0.00000000E+00  0.00000000E+00
  0.00000000E+00  0.00000000E+00  0.00000000E+00
  0.00000000E+00  0.00000000E+00  0.00000000E+00
  0.00000000E+00  0.00000000E+00  0.00000000E+00
  0.00000000E+00  0.00000000E+00  0.00000000E+00
  0.00000000E+00  0.00000000E+00  0.00000000E+00
  0.00000000E+00  0.00000000E+00  0.00000000E+00
  0.00000000E+00  0.00000000E+00  0.00000000E+00
  0.00000000E+00  0.00000000E+00  0.00000000E+00
  0.00000000E+00  0.00000000E+00  0.00000000E+00
  0.00000000E+00  0.00000000E+00  0.00000000E+00
  0.00000000E+00  0.00000000E+00  0.00000000E+00
  0.00000000E+00  0.00000000E+00  0.00000000E+00
  0.00000000E+00  0.00000000E+00  0.00000000E+00
  0.00000000E+00  0.00000000E+00  0.00000000E+00
  0.00000000E+00  0.00000000E+00  0.00000000E+00
  0.00000000E+00  0.00000000E+00  0.00000000E+00
  0.00000000E+00  0.00000000E+00  0.00000000E+00
  0.00000000E+00  0.00000000E+00  0.00000000E+00
  0.00000000E+00  0.00000000E+00  0.00000000E+00
  0.00000000E+00  0.00000000E+00  0.00000000E+00
  0.00000000E+00  0.00000000E+00  0.00000000E+00
  0.00000000E+00  0.00000000E+00  0.00000000E+00
  0.00000000E+00  0.00000000E+00  0.00000000E+00
  0.00000000E+00  0.00000000E+00  0.00000000E+00
  0.00000000E+00  0.00000000E+00  0.00000000E+00
  0.00000000E+00  0.00000000E+00  0.00000000E+00
  0.00000000E+00  0.00000000E+00  0.00000000E+00
  0.00000000E+00  0.00000000E+00  0.00000000E+00
  0.00000000E+00  0.00000000E+00  0.00000000E+00
  0.00000000E+00  0.00000000E+00  0.00000000E+00
  0.00000000E+00  0.00000000E+00  0.00000000E+00
  0.00000000E+00  0.00000000E+00  0.00000000E+00
  0.00000000E+00  0.00000000E+00  0.00000000E+00
  0.00000000E+00  0.00000000E+00  0.00000000E+00
  0.00000000E+00  0.00000000E+00  0.00000000E+00
  0.00000000E+00  0.00000000E+00  0.00000000E+00
  0.00000000E+00  0.00000000E+00  0.00000000E+00
  0.00000000E+00  0.00000000E+00  0.00000000E+00
  0.00000000E+00  0.00000000E+00  0.00000000E+00
  0.00000000E+00  0.00000000E+00  0.00000000E+00
  0.00000000E+00  0.00000000E+00  0.00000000E+00
  0.00000000E+00  0.00000000E+00  0.00000000E+00
  0.00000000E+00  0.00000000E+00  0.00000000E+00
  0.00000000E+00  0.00000000E+00  0.00000000E+00
  0.00000000E+00  0.00000000E+00  0.00000000E+00
  0.00000000E+00  0.00000000E+00  0.00000000E+00
  0.00000000E+00  0.00000000E+00  0.00000000E+00
  0.00000000E+00  0.00000000E+00  0.00000000E+00
  0.00000000E+00  0.00000000E+00  0.00000000E+00
  0.00000000E+00  0.00000000E+00  0.00000000E+00
  0.00000000E+00  0.00000000E+00  0.00000000E+00
  0.00000000E+00  0.00000000E+00  0.00000000E+00
  0.00000000E+00  0.00000000E+00  0.00000000E+00
  0.00000000E+00  0.00000000E+00  0.00000000E+00
  0.00000000E+00  0.00000000E+00  0.00000000E+00
  0.00000000E+00  0.00000000E+00  0.00000000E+00
  0.00000000E+00  0.00000000E+00  0.00000000E+00
  0.00000000E+00  0.00000000E+00  0.00000000E+00
  0.00000000E+00  0.00000000E+00  0.00000000E+00
  0.00000000E+00  0.00000000E+00  0.00000000E+00
  0.00000000E+00  0.00000000E+00  0.00000000E+00
  0.00000000E+00  0.00000000E+00  0.00000000E+00
  0.00000000E+00  0.00000000E+00  0.00000000E+00
  0.00000000E+00  0.00000000E+00  0.00000000E+00
  0.00000000E+00  0.00000000E+00  0.00000000E+00
  0.00000000E+00  0.00000000E+00  0.00000000E+00
  0.00000000E+00  0.00000000E+00  0.00000000E+00
  0.00000000E+00  0.00000000E+00  0.00000000E+00
  0.00000000E+00  0.00000000E+00  0.00000000E+00
  0.00000000E+00  0.00000000E+00  0.00000000E+00
  0.00000000E+00  0.00000000E+00  0.00000000E+00
  0.00000000E+00  0.00000000E+00  0.00000000E+00
  0.00000000E+00  0.00000000E+00  0.00000000E+00
  0.00000000E+00  0.00000000E+00  0.00000000E+00
  0.00000000E+00  0.00000000E+00  0.00000000E+00
  0.00000000E+00  0.00000000E+00  0.00000000E+00
  0.00000000E+00  0.00000000E+00  0.00000000E+00
  0.00000000E+00  0.00000000E+00  0.00000000E+00
  0.00000000E+00  0.00000000E+00  0.00000000E+00
  0.00000000E+00  0.00000000E+00  0.00000000E+00
  0.00000000E+00  0.00000000E+00  0.00000000E+00
  0.00000000E+00  0.00000000E+00  0.00000000E+00
  0.00000000E+00  0.00000000E+00  0.00000000E+00
  0.00000000E+00  0.00000000E+00  0.00000000E+00
  0.00000000E+00  0.00000000E+00  0.00000000E+00
  0.00000000E+00  0.00000000E+00  0.00000000E+00
  0.00000000E+00  0.00000000E+00  0.00000000E+00
  0.00000000E+00  0.00000000E+00  0.00000000E+00
  0.00000000E+00  0.00000000E+00  0.00000000E+00
  0.00000000E+00  0.00000000E+00  0.00000000E+00
  0.00000000E+00  0.00000000E+00  0.00000000E+00
  0.00000000E+00  0.00000000E+00  0.00000000E+00
  0.00000000E+00  0.00000000E+00  0.00000000E+00
  0.00000000E+00  0.00000000E+00  0.00000000E+00
  0.00000000E+00  0.00000000E+00  0.00000000E+00
  0.00000000E+00  0.00000000E+00  0.00000000E+00
  0.00000000E+00  0.00000000E+00  0.00000000E+00
  0.00000000E+00  0.00000000E+00  0.00000000E+00
  0.00000000E+00  0.00000000E+00  0.00000000E+00
  0.00000000E+00  0.00000000E+00  0.00000000E+00
  0.00000000E+00  0.00000000E+00  0.00000000E+00
  0.00000000E+00  0.00000000E+00  0.00000000E+00
  0.00000000E+00  0.00000000E+00  0.00000000E+00
  0.00000000E+00  0.00000000E+00  0.00000000E+00
  0.00000000E+00  0.00000000E+00  0.00000000E+00
  0.00000000E+00  0.00000000E+00  0.00000000E+00
  0.00000000E+00  0.00000000E+00  0.00000000E+00
  0.00000000E+00  0.00000000E+00  0.00000000E+00
  0.00000000E+00  0.00000000E+00  0.00000000E+00
  0.00000000E+00  0.00000000E+00  0.00000000E+00
  0.00000000E+00  0.00000000E+00  0.00000000E+00
  0.00000000E+00  0.00000000E+00  0.00000000E+00
  0.00000000E+00  0.00000000E+00  0.00000000E+00
  0.00000000E+00  0.00000000E+00  0.00000000E+00
