Mo1 H1 C124 N2 O1                       
   1.00000000000000     
    19.7988587229626916   -0.0208988003124482   -0.1064046155372139
    -9.9180144547566567   17.0490020475444055   -0.0558070815862044
    -0.1602866438826663   -0.1908613578804536   29.8304668946644931
   Mo   H    C    N    O 
     1     1   124     2     1
Direct
  0.4390978254837204  0.5018242500685904  0.4329835075534649
  0.4833536795894364  0.5448380097282163  0.5166256397306710
  0.0424764989279281  0.0843630954953857  0.3996717591241484
  0.0419637523840228  0.2087648699620646  0.3994059042770879
  0.0412431972989534  0.3332930815594484  0.3991688255195203
  0.0409482824657677  0.4584139162794894  0.3992041884737225
  0.0414402690460003  0.5837579718307936  0.3994517190621333
  0.0418561956957410  0.7090492603606411  0.3996387949078160
  0.0420928507474592  0.8342137592924204  0.3996613506886210
  0.0423210102158753  0.9594119780906648  0.3996691295407093
  0.1682146039701745  0.0856180839750786  0.4001046607063045
  0.1684431397507725  0.2108559927553074  0.4001340222386642
  0.1668164175238577  0.3345394115974522  0.3997576377224952
  0.1649825192143261  0.4588487094101310  0.3994662334095885
  0.1655282257598838  0.5839234845084116  0.3993876470494847
  0.1663648302427119  0.7090613824001614  0.3996133520927511
  0.1668652898530203  0.8343051009867843  0.3997163973175663
  0.1673680954300233  0.9597499112724278  0.3998340996170065
  0.2926487518819429  0.0851908307965386  0.4001340469759421
  0.2943960899882110  0.2122022619566568  0.4014478341987058
  0.2949627445426425  0.3387817113712183  0.4022410045607990
  0.2894646615952306  0.4602180799157060  0.4013323881335287
  0.2893662425278516  0.5843194800838669  0.4005112990836009
  0.2908455994146204  0.7089991065525086  0.3998518293851199
  0.2916417415457571  0.8340829270921711  0.3995999446016775
  0.2920498697660239  0.9593912713012260  0.3996516710231828
  0.4171564005881205  0.0840063803887690  0.3996537308589040
  0.4178403967700702  0.2099950809075800  0.4004460838577986
  0.4207236625672885  0.3377512909370154  0.4035703468723659
  0.4150258873648284  0.7066599215151559  0.4007856581194180
  0.4162556388672105  0.8327132667904731  0.3996933632400105
  0.4167544619496982  0.9583855092566359  0.3995352395119368
  0.5417829968284443  0.0827826181915437  0.3996626321143390
  0.5422468243406022  0.2079959111707176  0.3997283663376929
  0.5434248996182540  0.3329493558255442  0.4004561569585042
  0.5452134695122270  0.4567976406537742  0.4019612331551228
  0.5420238997929598  0.5784684916209248  0.4037108338857069
  0.5383958416584498  0.7036580929900526  0.4020999960817185
  0.5406497387399535  0.8312754005680659  0.4002924764359689
  0.5413961161841995  0.9572809010286165  0.3997777444098440
  0.6665110366403547  0.0823507056227917  0.3998524306155773
  0.6669397085379458  0.2076217675436732  0.3997272080139287
  0.6676855891897000  0.3328462348103596  0.3993854391595933
  0.6688904343020667  0.4580860024099510  0.3988036188790192
  0.6685208293099311  0.5823315225282775  0.3987113811814190
  0.6649729826499402  0.7056073257274399  0.3994411526508883
  0.6647958876170271  0.8307381016237430  0.4000429628605262
  0.6659516685622041  0.9568188692439854  0.3999715766970494
  0.7913174667783254  0.0824245515101377  0.3997057200026980
  0.7916325040361230  0.2076512069663028  0.3996554379384394
  0.7920798690032461  0.3328975325347464  0.3995147455444029
  0.7926814633901071  0.4581846097914788  0.3990245033179243
  0.7930571777330154  0.5834405420798893  0.3985527079160238
  0.7918211559811726  0.7079928985058361  0.3986571666547414
  0.7907292106104281  0.8321263402305812  0.3992169021730717
  0.7908134867716018  0.9570500310253276  0.3996332082472978
  0.9165339883246358  0.0830106648352231  0.3995089492121615
  0.9164946471421034  0.2078780209493698  0.3993859359586487
  0.9165441699684560  0.3330073006477194  0.3993727621330327
  0.9168287791434984  0.4583447994285466  0.3994054548873027
  0.9172540537173141  0.5836585071685958  0.3993113734894685
  0.9171169762456799  0.7087674529539280  0.3992305337309052
  0.9168422256987269  0.8336216545115126  0.3993113755867012
  0.9166079444538923  0.9583030245332380  0.3994918159286675
  0.0844779986080718  0.0431849552533946  0.3997833555073398
  0.0845578341559081  0.1680914753181146  0.3996914640786692
  0.0833578037544461  0.2921159592896569  0.3993363946787547
  0.0821712321934838  0.4166926599689491  0.3991445028947517
  0.0825554504742348  0.5419606461251415  0.3992923955571318
  0.0831634039734875  0.6672806608001784  0.3995754097411495
  0.0836165687032987  0.7925309219854934  0.3997086746216138
  0.0839523438529107  0.9177866767395035  0.3997305726363342
  0.2093687606863537  0.0434530005876734  0.4000503393174007
  0.2105343189029411  0.1695657694730794  0.4005722807855897
  0.2103460934021677  0.2946713886065120  0.4003525991347616
  0.2067120198559436  0.4178076027141976  0.3999368547269796
  0.2063369186205507  0.5420512869642865  0.3996017594947466
  0.2075658522424221  0.6673360411319939  0.3996115415148691
  0.2083407187164562  0.7925839678639953  0.3996505310500517
  0.2087597805407857  0.9178576447594117  0.3997362673211003
  0.3338867008558907  0.0429701371883892  0.3997519276300228
  0.3347092631062827  0.1690658226023240  0.4007345935547780
  0.3371257177059973  0.2968040862529593  0.4029442421529064
  0.3336642720450590  0.4220286792470254  0.4037213787878131
  0.3302494811071403  0.5435467982378898  0.4021157875482748
  0.3318828373020136  0.6672965529772888  0.4004565458714885
  0.3330337469233581  0.7922232117076786  0.3996738626575531
  0.3335057293916758  0.9174600653242897  0.3995533746564368
  0.4585375848649123  0.0418770018902240  0.3995733911349870
  0.4590309931715729  0.1675526937832720  0.3998302301108794
  0.4603235483820451  0.2936934548137961  0.4012420444935137
  0.4548101835389998  0.6627607132498102  0.4027838299113930
  0.4574924913041848  0.7903236861065996  0.4000757200555630
  0.4581323933122706  0.9162459219106524  0.3996189162862382
  0.5832401629145831  0.0408528825053597  0.3997598884911830
  0.5836362455697053  0.1661480368207150  0.3996792110384799
  0.5844148612958053  0.2912177407990272  0.3997551934435237
  0.5859440965838898  0.4159211890306801  0.4001209909005103
  0.5859597301426754  0.5399304972148753  0.4005476175192501
  0.5805122115351685  0.6617171516990252  0.4014711773270729
  0.5810199160261644  0.7881996766424880  0.4007498649647688
  0.5826767284727484  0.9151016691053298  0.3999949667976380
  0.7079270827274518  0.0404944119210526  0.3998697890813595
  0.7083874457051793  0.1658977886489690  0.3997756983292002
  0.7088840160612264  0.2911218889780793  0.3995588743166268
  0.7096970812123508  0.4162097910659729  0.3989170381666237
  0.7102406713124881  0.5412611403583902  0.3984279001601186
  0.7084159416591050  0.6656240329347225  0.3987018090297981
  0.7068622865468468  0.7894199475154036  0.3994523625036639
  0.7071111880046816  0.9146656436935209  0.3998702674152003
  0.8329523768005492  0.0407965754006704  0.3996057855664739
  0.8331500530165394  0.1659729506921603  0.3995694796289888
  0.8333764515874023  0.2911148350820649  0.3995358960732159
  0.8338050408584979  0.4163947784497888  0.3993716211934013
  0.8342700241124731  0.5417173517657775  0.3989256158381121
  0.8339649446998402  0.6668305196064849  0.3987472918612094
  0.8332508903432788  0.7913926911699812  0.3990231543222194
  0.8328347092755505  0.9158780474079419  0.3994422101845288
  0.9586884911461873  0.0419366017874529  0.3995619272312436
  0.9583646719512252  0.1665439665083542  0.3993861980657593
  0.9580958035584191  0.2913878333717687  0.3992606381205393
  0.9579878760543553  0.4165076863611473  0.3993401243005574
  0.9584151937334872  0.5418442594025190  0.3994128332855522
  0.9586694208420650  0.6671689141330982  0.3994410791065414
  0.9587259817307895  0.7923047948202112  0.3994277745982531
  0.9587206682574727  0.9171985118775157  0.3995074246513411
  0.4109320384161022  0.5813397373857597  0.4059558125880714
  0.4648202197559584  0.4194545441730812  0.4065969370655484
  0.4408275609430565  0.5102379611259712  0.4962776473072555
 
  0.00000000E+00  0.00000000E+00  0.00000000E+00
  0.00000000E+00  0.00000000E+00  0.00000000E+00
  0.00000000E+00  0.00000000E+00  0.00000000E+00
  0.00000000E+00  0.00000000E+00  0.00000000E+00
  0.00000000E+00  0.00000000E+00  0.00000000E+00
  0.00000000E+00  0.00000000E+00  0.00000000E+00
  0.00000000E+00  0.00000000E+00  0.00000000E+00
  0.00000000E+00  0.00000000E+00  0.00000000E+00
  0.00000000E+00  0.00000000E+00  0.00000000E+00
  0.00000000E+00  0.00000000E+00  0.00000000E+00
  0.00000000E+00  0.00000000E+00  0.00000000E+00
  0.00000000E+00  0.00000000E+00  0.00000000E+00
  0.00000000E+00  0.00000000E+00  0.00000000E+00
  0.00000000E+00  0.00000000E+00  0.00000000E+00
  0.00000000E+00  0.00000000E+00  0.00000000E+00
  0.00000000E+00  0.00000000E+00  0.00000000E+00
  0.00000000E+00  0.00000000E+00  0.00000000E+00
  0.00000000E+00  0.00000000E+00  0.00000000E+00
  0.00000000E+00  0.00000000E+00  0.00000000E+00
  0.00000000E+00  0.00000000E+00  0.00000000E+00
  0.00000000E+00  0.00000000E+00  0.00000000E+00
  0.00000000E+00  0.00000000E+00  0.00000000E+00
  0.00000000E+00  0.00000000E+00  0.00000000E+00
  0.00000000E+00  0.00000000E+00  0.00000000E+00
  0.00000000E+00  0.00000000E+00  0.00000000E+00
  0.00000000E+00  0.00000000E+00  0.00000000E+00
  0.00000000E+00  0.00000000E+00  0.00000000E+00
  0.00000000E+00  0.00000000E+00  0.00000000E+00
  0.00000000E+00  0.00000000E+00  0.00000000E+00
  0.00000000E+00  0.00000000E+00  0.00000000E+00
  0.00000000E+00  0.00000000E+00  0.00000000E+00
  0.00000000E+00  0.00000000E+00  0.00000000E+00
  0.00000000E+00  0.00000000E+00  0.00000000E+00
  0.00000000E+00  0.00000000E+00  0.00000000E+00
  0.00000000E+00  0.00000000E+00  0.00000000E+00
  0.00000000E+00  0.00000000E+00  0.00000000E+00
  0.00000000E+00  0.00000000E+00  0.00000000E+00
  0.00000000E+00  0.00000000E+00  0.00000000E+00
  0.00000000E+00  0.00000000E+00  0.00000000E+00
  0.00000000E+00  0.00000000E+00  0.00000000E+00
  0.00000000E+00  0.00000000E+00  0.00000000E+00
  0.00000000E+00  0.00000000E+00  0.00000000E+00
  0.00000000E+00  0.00000000E+00  0.00000000E+00
  0.00000000E+00  0.00000000E+00  0.00000000E+00
  0.00000000E+00  0.00000000E+00  0.00000000E+00
  0.00000000E+00  0.00000000E+00  0.00000000E+00
  0.00000000E+00  0.00000000E+00  0.00000000E+00
  0.00000000E+00  0.00000000E+00  0.00000000E+00
  0.00000000E+00  0.00000000E+00  0.00000000E+00
  0.00000000E+00  0.00000000E+00  0.00000000E+00
  0.00000000E+00  0.00000000E+00  0.00000000E+00
  0.00000000E+00  0.00000000E+00  0.00000000E+00
  0.00000000E+00  0.00000000E+00  0.00000000E+00
  0.00000000E+00  0.00000000E+00  0.00000000E+00
  0.00000000E+00  0.00000000E+00  0.00000000E+00
  0.00000000E+00  0.00000000E+00  0.00000000E+00
  0.00000000E+00  0.00000000E+00  0.00000000E+00
  0.00000000E+00  0.00000000E+00  0.00000000E+00
  0.00000000E+00  0.00000000E+00  0.00000000E+00
  0.00000000E+00  0.00000000E+00  0.00000000E+00
  0.00000000E+00  0.00000000E+00  0.00000000E+00
  0.00000000E+00  0.00000000E+00  0.00000000E+00
  0.00000000E+00  0.00000000E+00  0.00000000E+00
  0.00000000E+00  0.00000000E+00  0.00000000E+00
  0.00000000E+00  0.00000000E+00  0.00000000E+00
  0.00000000E+00  0.00000000E+00  0.00000000E+00
  0.00000000E+00  0.00000000E+00  0.00000000E+00
  0.00000000E+00  0.00000000E+00  0.00000000E+00
  0.00000000E+00  0.00000000E+00  0.00000000E+00
  0.00000000E+00  0.00000000E+00  0.00000000E+00
  0.00000000E+00  0.00000000E+00  0.00000000E+00
  0.00000000E+00  0.00000000E+00  0.00000000E+00
  0.00000000E+00  0.00000000E+00  0.00000000E+00
  0.00000000E+00  0.00000000E+00  0.00000000E+00
  0.00000000E+00  0.00000000E+00  0.00000000E+00
  0.00000000E+00  0.00000000E+00  0.00000000E+00
  0.00000000E+00  0.00000000E+00  0.00000000E+00
  0.00000000E+00  0.00000000E+00  0.00000000E+00
  0.00000000E+00  0.00000000E+00  0.00000000E+00
  0.00000000E+00  0.00000000E+00  0.00000000E+00
  0.00000000E+00  0.00000000E+00  0.00000000E+00
  0.00000000E+00  0.00000000E+00  0.00000000E+00
  0.00000000E+00  0.00000000E+00  0.00000000E+00
  0.00000000E+00  0.00000000E+00  0.00000000E+00
  0.00000000E+00  0.00000000E+00  0.00000000E+00
  0.00000000E+00  0.00000000E+00  0.00000000E+00
  0.00000000E+00  0.00000000E+00  0.00000000E+00
  0.00000000E+00  0.00000000E+00  0.00000000E+00
  0.00000000E+00  0.00000000E+00  0.00000000E+00
  0.00000000E+00  0.00000000E+00  0.00000000E+00
  0.00000000E+00  0.00000000E+00  0.00000000E+00
  0.00000000E+00  0.00000000E+00  0.00000000E+00
  0.00000000E+00  0.00000000E+00  0.00000000E+00
  0.00000000E+00  0.00000000E+00  0.00000000E+00
  0.00000000E+00  0.00000000E+00  0.00000000E+00
  0.00000000E+00  0.00000000E+00  0.00000000E+00
  0.00000000E+00  0.00000000E+00  0.00000000E+00
  0.00000000E+00  0.00000000E+00  0.00000000E+00
  0.00000000E+00  0.00000000E+00  0.00000000E+00
  0.00000000E+00  0.00000000E+00  0.00000000E+00
  0.00000000E+00  0.00000000E+00  0.00000000E+00
  0.00000000E+00  0.00000000E+00  0.00000000E+00
  0.00000000E+00  0.00000000E+00  0.00000000E+00
  0.00000000E+00  0.00000000E+00  0.00000000E+00
  0.00000000E+00  0.00000000E+00  0.00000000E+00
  0.00000000E+00  0.00000000E+00  0.00000000E+00
  0.00000000E+00  0.00000000E+00  0.00000000E+00
  0.00000000E+00  0.00000000E+00  0.00000000E+00
  0.00000000E+00  0.00000000E+00  0.00000000E+00
  0.00000000E+00  0.00000000E+00  0.00000000E+00
  0.00000000E+00  0.00000000E+00  0.00000000E+00
  0.00000000E+00  0.00000000E+00  0.00000000E+00
  0.00000000E+00  0.00000000E+00  0.00000000E+00
  0.00000000E+00  0.00000000E+00  0.00000000E+00
  0.00000000E+00  0.00000000E+00  0.00000000E+00
  0.00000000E+00  0.00000000E+00  0.00000000E+00
  0.00000000E+00  0.00000000E+00  0.00000000E+00
  0.00000000E+00  0.00000000E+00  0.00000000E+00
  0.00000000E+00  0.00000000E+00  0.00000000E+00
  0.00000000E+00  0.00000000E+00  0.00000000E+00
  0.00000000E+00  0.00000000E+00  0.00000000E+00
  0.00000000E+00  0.00000000E+00  0.00000000E+00
  0.00000000E+00  0.00000000E+00  0.00000000E+00
  0.00000000E+00  0.00000000E+00  0.00000000E+00
  0.00000000E+00  0.00000000E+00  0.00000000E+00
  0.00000000E+00  0.00000000E+00  0.00000000E+00
  0.00000000E+00  0.00000000E+00  0.00000000E+00
  0.00000000E+00  0.00000000E+00  0.00000000E+00
  0.00000000E+00  0.00000000E+00  0.00000000E+00
