Cr1 H1 C126                             
   1.00000000000000     
    19.7961485755842972   -0.0000234368432707   -0.0334021107540481
    -9.8981162910331850   17.0681285509644560   -0.0452644691767240
    -0.0502176443189563   -0.1080621135524581   29.7812366598180489
   Cr   H    C 
     1     1   126
Direct
  0.4391142085449394  0.5008258194192209  0.4255472548701973
  0.4421763090802961  0.5035660828909625  0.4794723061575733
  0.0419770468691166  0.0839786029291528  0.3996958588628188
  0.0411333654077985  0.2081610398851466  0.3996517116934304
  0.0407278755983436  0.3328908939646306  0.3996385842931597
  0.0407763480083362  0.4583292382821991  0.3995505099474214
  0.0414077916663104  0.5836978492714613  0.3997137594256096
  0.0420009715403691  0.7089570668378100  0.3999179918159586
  0.0422990611378139  0.8343119004957255  0.3999816475647665
  0.0423323795400813  0.9593331212282109  0.3998204721209715
  0.1674801249587252  0.0849133832465202  0.3998347046274727
  0.1671990247241359  0.2096565886038989  0.4001715275829353
  0.1656985876365361  0.3333475372195442  0.4006823783677957
  0.1646729317744811  0.4583075956934787  0.4004705559509079
  0.1654881600480809  0.5835047981664652  0.3997189500746560
  0.1665449478761555  0.7089484146016816  0.3996617854994433
  0.1670170463556856  0.8342722421727453  0.3999737783738296
  0.1673529678114153  0.9596482655574960  0.3998883564934097
  0.2924667199667615  0.0848887245816042  0.3997996837465800
  0.2930482026831681  0.2110738402691514  0.4005646362898723
  0.2930424780704214  0.3367724849589465  0.4023890752942739
  0.2882284939370942  0.4577951849119951  0.4030782190070655
  0.2894370868720539  0.5837355911989877  0.4011496900579447
  0.2910394120775859  0.7087510139081289  0.3997987984621114
  0.2916492126437301  0.8338674434425863  0.3996893986215996
  0.2920402751705825  0.9592729900016751  0.3998350478452999
  0.4170241155829924  0.0838599439756997  0.3996960635416827
  0.4174474085546925  0.2095053154644820  0.3999961456883687
  0.4186988060057809  0.3364680452451075  0.4018856473959636
  0.4122782471251194  0.5806739509465693  0.4045694061472335
  0.4156171919095720  0.7068870693850687  0.4005364459765396
  0.4162862800326560  0.8327925152818921  0.3997256980712784
  0.4166523816832199  0.9583153797767193  0.3997593936572256
  0.5416086891460090  0.0827764213869170  0.3997607606390858
  0.5420311134260470  0.2080778295586928  0.3996796570707346
  0.5426940495912832  0.3332797577025346  0.4005594400018248
  0.5445729331990775  0.4577253246594196  0.4024893466214514
  0.5437749271466238  0.5810266326147439  0.4037004147400076
  0.5404185718428811  0.7057922468154975  0.4011336729392017
  0.5407807585266075  0.8316937056189704  0.4000429017804647
  0.5412941622305307  0.9573515549635973  0.3997878628749191
  0.6662676754026008  0.0823373339865868  0.3999084363215217
  0.6666189587384307  0.2076552703843650  0.3997494154821444
  0.6671685726564286  0.3328577554042109  0.3997554071178155
  0.6686656191214640  0.4582981639829061  0.4006295847428830
  0.6694015870387184  0.5837664043117101  0.4010485723672543
  0.6664631777100704  0.7070478054265737  0.4002286553623590
  0.6659442644644357  0.8317320107066036  0.3999249871730405
  0.6660265103618032  0.9570323277260990  0.3998134288218929
  0.7911211345096841  0.0823719032683516  0.3999167518807891
  0.7912734131973689  0.2075312741043456  0.3999993346103910
  0.7917465259758819  0.3329060020382066  0.3997718338367441
  0.7925498863155082  0.4583285288559126  0.3996618479980865
  0.7930559164357994  0.5835325365317151  0.3998604962621508
  0.7928006276043160  0.7088159993174412  0.3998590280524885
  0.7916302074212300  0.8329145883993595  0.3997404826376177
  0.7911250139443139  0.9574236309132066  0.3997918640571356
  0.9162936103353714  0.0828881765270656  0.3997644527699975
  0.9160768286141869  0.2077088065927127  0.3997425788120160
  0.9161836336514327  0.3329207962996290  0.3997686868558183
  0.9166073499463244  0.4582193530240722  0.3997677679472910
  0.9172908228416504  0.5837077909154337  0.3997143909072565
  0.9174639762836442  0.7090009916037695  0.3997056607387896
  0.9172989669511883  0.8339485597339601  0.3997643360289801
  0.9167982737591717  0.9584376736633802  0.3998082929239805
  0.0840262463773620  0.0427958002788040  0.3997391131148876
  0.0835745805144349  0.1673493909905538  0.3997383583944396
  0.0823782139985934  0.2913947113101630  0.3998504166888721
  0.0820590510020459  0.4166210542516711  0.3997172102462910
  0.0825216383260315  0.5418073923628087  0.3995810463864672
  0.0833454713339134  0.6672437287365357  0.3997893731333813
  0.0838290726225195  0.7926344647927750  0.4000090483437230
  0.0840018966248202  0.9178081509823971  0.3999362885823775
  0.2090766811220348  0.0431034437779330  0.3997943572861616
  0.2091889636633315  0.1684848133391298  0.4001848465550676
  0.2088423963657065  0.2933136917419509  0.4009214270101626
  0.2057910114147480  0.4164506560151027  0.4013640820312922
  0.2064634094259003  0.5418417547772607  0.4004317902026207
  0.2079038174460999  0.6672331496975170  0.3996446238777950
  0.2084515622345070  0.7924275407499972  0.3997663854507261
  0.2088356308299647  0.9177662168955941  0.3999549851878106
  0.3337879387394805  0.0427305879008074  0.3997554916304950
  0.3343051504548991  0.1684417287245858  0.4000557306562659
  0.3347453111858971  0.2944359815503090  0.4017955288718065
  0.3317394742372379  0.4196711399856672  0.4051161974146923
  0.3305846612192655  0.5424741915816821  0.4028482729389329
  0.3324342737262299  0.6668269207765654  0.4004352104730445
  0.3330420182631951  0.7919836776314684  0.3996693721290552
  0.3334906283191865  0.9172783248405716  0.3997664424008115
  0.4584506468894853  0.0417352662979667  0.3997527503311527
  0.4587893789272109  0.1672308662144446  0.3996967491206773
  0.4594916433862929  0.2931329304156374  0.4005847691912673
  0.4629149974308972  0.4192782265760566  0.4042779216171212
  0.4564187782283947  0.6635043788194093  0.4017338230554645
  0.4576181795242629  0.7905170432762904  0.3999926908908837
  0.4580647817081913  0.9161881538702130  0.3997317021096924
  0.5830664127954313  0.0408094115247035  0.3998226578004644
  0.5834192253656059  0.1661896458577866  0.3996920823696062
  0.5840253547915665  0.2913045019605287  0.3998940264285198
  0.5857048860027594  0.4163884248483949  0.4012619285429704
  0.5869454734741055  0.5424900220743522  0.4022539499995163
  0.5823467475651743  0.6637799291263364  0.4012366411279567
  0.5820679315503033  0.7891231463998644  0.4002295803936233
  0.5826210551083978  0.9152364560667146  0.3998547637100300
  0.7077627389691341  0.0404915156067263  0.3998699577341658
  0.7080551102869161  0.1658286109345742  0.3999375944778111
  0.7085056767183363  0.2911121519344396  0.3996662606827522
  0.7095692796128679  0.4165810344749639  0.3998946667664453
  0.7104261653947073  0.5418358690863430  0.4005739881783216
  0.7095017804891355  0.6668850522533921  0.4003267616833247
  0.7080273311315862  0.7906624393537298  0.3998648766535685
  0.7076508623874004  0.9152714256720275  0.3998129492601288
  0.8328460282392868  0.0408810855911562  0.3998362348066712
  0.8327992780857795  0.1658622439761787  0.3999505575444396
  0.8331085501908851  0.2912017413688878  0.3999088857949665
  0.8336477986070377  0.4164413172666463  0.3997155335475809
  0.8342859220105064  0.5418022856513645  0.3996568648743118
  0.8343867919108533  0.6672751311858698  0.3997464833744880
  0.8340213836073856  0.7920676769859382  0.3997277188953220
  0.8332523897069882  0.9163116807545628  0.3997783076469932
  0.9584331133671339  0.0418505442274268  0.3997603413034192
  0.9578546303571825  0.1662772454661376  0.3996499555242507
  0.9576477726861653  0.2911658402280381  0.3996320732421104
  0.9577831093760062  0.4164510149603508  0.3996820520783192
  0.9584825636157572  0.5419607173370266  0.3997723855893307
  0.9589352876971562  0.6672583300258131  0.3997872674788729
  0.9590368161882167  0.7924868915015173  0.3998083172967598
  0.9588998078838907  0.9173641462833908  0.3998114959680077
 
  0.00000000E+00  0.00000000E+00  0.00000000E+00
  0.00000000E+00  0.00000000E+00  0.00000000E+00
  0.00000000E+00  0.00000000E+00  0.00000000E+00
  0.00000000E+00  0.00000000E+00  0.00000000E+00
  0.00000000E+00  0.00000000E+00  0.00000000E+00
  0.00000000E+00  0.00000000E+00  0.00000000E+00
  0.00000000E+00  0.00000000E+00  0.00000000E+00
  0.00000000E+00  0.00000000E+00  0.00000000E+00
  0.00000000E+00  0.00000000E+00  0.00000000E+00
  0.00000000E+00  0.00000000E+00  0.00000000E+00
  0.00000000E+00  0.00000000E+00  0.00000000E+00
  0.00000000E+00  0.00000000E+00  0.00000000E+00
  0.00000000E+00  0.00000000E+00  0.00000000E+00
  0.00000000E+00  0.00000000E+00  0.00000000E+00
  0.00000000E+00  0.00000000E+00  0.00000000E+00
  0.00000000E+00  0.00000000E+00  0.00000000E+00
  0.00000000E+00  0.00000000E+00  0.00000000E+00
  0.00000000E+00  0.00000000E+00  0.00000000E+00
  0.00000000E+00  0.00000000E+00  0.00000000E+00
  0.00000000E+00  0.00000000E+00  0.00000000E+00
  0.00000000E+00  0.00000000E+00  0.00000000E+00
  0.00000000E+00  0.00000000E+00  0.00000000E+00
  0.00000000E+00  0.00000000E+00  0.00000000E+00
  0.00000000E+00  0.00000000E+00  0.00000000E+00
  0.00000000E+00  0.00000000E+00  0.00000000E+00
  0.00000000E+00  0.00000000E+00  0.00000000E+00
  0.00000000E+00  0.00000000E+00  0.00000000E+00
  0.00000000E+00  0.00000000E+00  0.00000000E+00
  0.00000000E+00  0.00000000E+00  0.00000000E+00
  0.00000000E+00  0.00000000E+00  0.00000000E+00
  0.00000000E+00  0.00000000E+00  0.00000000E+00
  0.00000000E+00  0.00000000E+00  0.00000000E+00
  0.00000000E+00  0.00000000E+00  0.00000000E+00
  0.00000000E+00  0.00000000E+00  0.00000000E+00
  0.00000000E+00  0.00000000E+00  0.00000000E+00
  0.00000000E+00  0.00000000E+00  0.00000000E+00
  0.00000000E+00  0.00000000E+00  0.00000000E+00
  0.00000000E+00  0.00000000E+00  0.00000000E+00
  0.00000000E+00  0.00000000E+00  0.00000000E+00
  0.00000000E+00  0.00000000E+00  0.00000000E+00
  0.00000000E+00  0.00000000E+00  0.00000000E+00
  0.00000000E+00  0.00000000E+00  0.00000000E+00
  0.00000000E+00  0.00000000E+00  0.00000000E+00
  0.00000000E+00  0.00000000E+00  0.00000000E+00
  0.00000000E+00  0.00000000E+00  0.00000000E+00
  0.00000000E+00  0.00000000E+00  0.00000000E+00
  0.00000000E+00  0.00000000E+00  0.00000000E+00
  0.00000000E+00  0.00000000E+00  0.00000000E+00
  0.00000000E+00  0.00000000E+00  0.00000000E+00
  0.00000000E+00  0.00000000E+00  0.00000000E+00
  0.00000000E+00  0.00000000E+00  0.00000000E+00
  0.00000000E+00  0.00000000E+00  0.00000000E+00
  0.00000000E+00  0.00000000E+00  0.00000000E+00
  0.00000000E+00  0.00000000E+00  0.00000000E+00
  0.00000000E+00  0.00000000E+00  0.00000000E+00
  0.00000000E+00  0.00000000E+00  0.00000000E+00
  0.00000000E+00  0.00000000E+00  0.00000000E+00
  0.00000000E+00  0.00000000E+00  0.00000000E+00
  0.00000000E+00  0.00000000E+00  0.00000000E+00
  0.00000000E+00  0.00000000E+00  0.00000000E+00
  0.00000000E+00  0.00000000E+00  0.00000000E+00
  0.00000000E+00  0.00000000E+00  0.00000000E+00
  0.00000000E+00  0.00000000E+00  0.00000000E+00
  0.00000000E+00  0.00000000E+00  0.00000000E+00
  0.00000000E+00  0.00000000E+00  0.00000000E+00
  0.00000000E+00  0.00000000E+00  0.00000000E+00
  0.00000000E+00  0.00000000E+00  0.00000000E+00
  0.00000000E+00  0.00000000E+00  0.00000000E+00
  0.00000000E+00  0.00000000E+00  0.00000000E+00
  0.00000000E+00  0.00000000E+00  0.00000000E+00
  0.00000000E+00  0.00000000E+00  0.00000000E+00
  0.00000000E+00  0.00000000E+00  0.00000000E+00
  0.00000000E+00  0.00000000E+00  0.00000000E+00
  0.00000000E+00  0.00000000E+00  0.00000000E+00
  0.00000000E+00  0.00000000E+00  0.00000000E+00
  0.00000000E+00  0.00000000E+00  0.00000000E+00
  0.00000000E+00  0.00000000E+00  0.00000000E+00
  0.00000000E+00  0.00000000E+00  0.00000000E+00
  0.00000000E+00  0.00000000E+00  0.00000000E+00
  0.00000000E+00  0.00000000E+00  0.00000000E+00
  0.00000000E+00  0.00000000E+00  0.00000000E+00
  0.00000000E+00  0.00000000E+00  0.00000000E+00
  0.00000000E+00  0.00000000E+00  0.00000000E+00
  0.00000000E+00  0.00000000E+00  0.00000000E+00
  0.00000000E+00  0.00000000E+00  0.00000000E+00
  0.00000000E+00  0.00000000E+00  0.00000000E+00
  0.00000000E+00  0.00000000E+00  0.00000000E+00
  0.00000000E+00  0.00000000E+00  0.00000000E+00
  0.00000000E+00  0.00000000E+00  0.00000000E+00
  0.00000000E+00  0.00000000E+00  0.00000000E+00
  0.00000000E+00  0.00000000E+00  0.00000000E+00
  0.00000000E+00  0.00000000E+00  0.00000000E+00
  0.00000000E+00  0.00000000E+00  0.00000000E+00
  0.00000000E+00  0.00000000E+00  0.00000000E+00
  0.00000000E+00  0.00000000E+00  0.00000000E+00
  0.00000000E+00  0.00000000E+00  0.00000000E+00
  0.00000000E+00  0.00000000E+00  0.00000000E+00
  0.00000000E+00  0.00000000E+00  0.00000000E+00
  0.00000000E+00  0.00000000E+00  0.00000000E+00
  0.00000000E+00  0.00000000E+00  0.00000000E+00
  0.00000000E+00  0.00000000E+00  0.00000000E+00
  0.00000000E+00  0.00000000E+00  0.00000000E+00
  0.00000000E+00  0.00000000E+00  0.00000000E+00
  0.00000000E+00  0.00000000E+00  0.00000000E+00
  0.00000000E+00  0.00000000E+00  0.00000000E+00
  0.00000000E+00  0.00000000E+00  0.00000000E+00
  0.00000000E+00  0.00000000E+00  0.00000000E+00
  0.00000000E+00  0.00000000E+00  0.00000000E+00
  0.00000000E+00  0.00000000E+00  0.00000000E+00
  0.00000000E+00  0.00000000E+00  0.00000000E+00
  0.00000000E+00  0.00000000E+00  0.00000000E+00
  0.00000000E+00  0.00000000E+00  0.00000000E+00
  0.00000000E+00  0.00000000E+00  0.00000000E+00
  0.00000000E+00  0.00000000E+00  0.00000000E+00
  0.00000000E+00  0.00000000E+00  0.00000000E+00
  0.00000000E+00  0.00000000E+00  0.00000000E+00
  0.00000000E+00  0.00000000E+00  0.00000000E+00
  0.00000000E+00  0.00000000E+00  0.00000000E+00
  0.00000000E+00  0.00000000E+00  0.00000000E+00
  0.00000000E+00  0.00000000E+00  0.00000000E+00
  0.00000000E+00  0.00000000E+00  0.00000000E+00
  0.00000000E+00  0.00000000E+00  0.00000000E+00
  0.00000000E+00  0.00000000E+00  0.00000000E+00
  0.00000000E+00  0.00000000E+00  0.00000000E+00
  0.00000000E+00  0.00000000E+00  0.00000000E+00
  0.00000000E+00  0.00000000E+00  0.00000000E+00
  0.00000000E+00  0.00000000E+00  0.00000000E+00
  0.00000000E+00  0.00000000E+00  0.00000000E+00
