H1 Rh1 C124 N2                          
   1.00000000000000     
    19.8263164460699350   -0.0270496100988791    0.1411409411989940
    -9.9370006247718283   17.0509335948908927    0.1199894442768653
     0.2128654065225894    0.3335225762551742   29.7943500456393089
   H    Rh   C    N 
     1     1   124     2
Direct
  0.4853158612073308  0.5459221922612357  0.4632404069694234
  0.4356236520635367  0.5000184137928383  0.4208332335605818
  0.0419502098805387  0.0841049722674691  0.3999468715555044
  0.0412152911838255  0.2082834114204734  0.3996028717118826
  0.0404961816961842  0.3327742039343774  0.3997340878218737
  0.0401959061609240  0.4581445397926506  0.3999962369884542
  0.0407911322929854  0.5836453484880488  0.3998256904766066
  0.0414989707994798  0.7090704420684983  0.3996194725756096
  0.0418403252183671  0.8343223438866114  0.3998010133681266
  0.0421506332902019  0.9595198571598611  0.3999791108329951
  0.1680149136403070  0.0858579531297861  0.4001375786846766
  0.1677045088158115  0.2104424757312526  0.3994748146163776
  0.1660259926582817  0.3342490238532390  0.3982925962340532
  0.1638577336472185  0.4586091595148835  0.3995969980674720
  0.1644297378553855  0.5838109729472463  0.3998077220105933
  0.1656607902255085  0.7091887897563978  0.3997256265938116
  0.1664724978068435  0.8345365417202373  0.3997927092518663
  0.1671848739709773  0.9600386587701223  0.4001616447379104
  0.2925145516439158  0.0854190869953108  0.4004869244857865
  0.2945779628321771  0.2128964422857610  0.4012924793423800
  0.2939511541808442  0.3385673340923609  0.3985490316564169
  0.2881647492146825  0.4596852629383312  0.3979591829829738
  0.2877090961200616  0.5847038361009392  0.4002439360982185
  0.2897140610491362  0.7092267293216242  0.4001711129332884
  0.2909952891623420  0.8342122403260879  0.3995279939280093
  0.2917024148769793  0.9595565001129152  0.3997558510082627
  0.4169410495215021  0.0837111122610407  0.3997527875351755
  0.4177768685851960  0.2094420989692597  0.4009702257013373
  0.4214957879544125  0.3372973645503805  0.4061575561299228
  0.4136611127707561  0.7068030702103867  0.4020066712915716
  0.4154513487844716  0.8326127493598982  0.4000062182296417
  0.4162154560399174  0.9581503721058588  0.3994139478180559
  0.5414134021652918  0.0820240978487179  0.3994358132996867
  0.5421746432591708  0.2072247247696005  0.3997504186067385
  0.5436582875674152  0.3320334367344149  0.4016211683123366
  0.5455911845831445  0.4551313261341522  0.4069244218100196
  0.5437907772395341  0.5772729412813288  0.4101700275261655
  0.5374399093999587  0.7021040520296731  0.4052170897396029
  0.5396133339424848  0.8301974798295333  0.4013351232051941
  0.5407376069183560  0.9564320596816448  0.3996823697019792
  0.6659230143253178  0.0813546807872133  0.3995944859238507
  0.6666713779117551  0.2067693383615531  0.3994426012362912
  0.6677013778368256  0.3320470242840262  0.3991396426440348
  0.6693320702547740  0.4573786788660646  0.3994595411761149
  0.6692310830862502  0.5817988810748461  0.4012006335540508
  0.6647995548416914  0.7047928206969138  0.4017897524835672
  0.6641097915839802  0.8295230446582292  0.4012482065716013
  0.6652362944087288  0.9557276536614591  0.4000955198865167
  0.7906449092127449  0.0814142866646318  0.3997478719418841
  0.7911244590122465  0.2067006584161964  0.3998360030402366
  0.7918476076252365  0.3321426127631649  0.3992626085866202
  0.7928094287953615  0.4576891604971404  0.3984952498817665
  0.7933241268259769  0.5830660373210942  0.3985277989652578
  0.7918598127457731  0.7076192398703847  0.3992955130284773
  0.7905235379940185  0.8316324567313627  0.3997250052001028
  0.7901482379333755  0.9561704139836216  0.3997589922780809
  0.9158945456602552  0.0823109451512151  0.3998508168665622
  0.9158357150618116  0.2071525188818851  0.4000086440444768
  0.9159952840390740  0.3323613635212966  0.4000632175693036
  0.9164471742140402  0.4578329787445577  0.3995344651815150
  0.9171151414580460  0.5834321785200692  0.3990199945130278
  0.9170534078143951  0.7087222890858822  0.3990466598799454
  0.9166913576704004  0.8334971087899947  0.3993827672438912
  0.9161786455542209  0.9578663757711834  0.3996788284961618
  0.0842442400314962  0.0433124386645225  0.4000273231852936
  0.0838319845328862  0.1677060624748593  0.3997374775647794
  0.0824952140652979  0.2917093906166337  0.3991524135125326
  0.0813328823184339  0.4164408810493972  0.3998239345586599
  0.0816110235176138  0.5417244679477546  0.3999215004422961
  0.0825696496521669  0.6672666896444971  0.3997450059797130
  0.0833091052677905  0.7927303384641903  0.3997879378703542
  0.0837201066986070  0.9180150765985536  0.4000470297915727
  0.2091612230453061  0.0436897250069843  0.4003232934575663
  0.2102689136943364  0.1698514264968486  0.4000708369960969
  0.2094545093516263  0.2942831165562014  0.3983730653265291
  0.2054586292678321  0.4174848624602591  0.3986655328925096
  0.2049916624149592  0.5420711047789046  0.3996105112052111
  0.2066828130788167  0.6674547972465698  0.3998416706401469
  0.2077414997979034  0.7927286766637107  0.3996389644154054
  0.2084768455956235  0.9181168344885227  0.3999458832082698
  0.3336305813767086  0.0430688339648296  0.3999915676445372
  0.3346863642336448  0.1691780474819788  0.4011695738733015
  0.3370744175985425  0.2971305989582543  0.4025024306119692
  0.3315740571461146  0.4214760909593075  0.3956811342689298
  0.3288599407536094  0.5442659055115058  0.4012750674872708
  0.3306424681170489  0.6674407273233798  0.4009886301017355
  0.3321795863872133  0.7923285866910467  0.3998508394818052
  0.3330453818312125  0.9175644904781806  0.3994718483136727
  0.4581947020480525  0.0414781813599585  0.3994702007197720
  0.4589467953938334  0.1670327209737993  0.4000012804774811
  0.4604825792909052  0.2928397187867183  0.4026826576462701
  0.4523258620350294  0.6620779427364046  0.4051931159199003
  0.4565316305377667  0.7902120701362300  0.4010092605551140
  0.4574760291549038  0.9159182447222267  0.3995909171261331
  0.5827101331012503  0.0399688654352963  0.3994778384800693
  0.5833961863583558  0.1653499484478410  0.3994816353140517
  0.5845807427434311  0.2903400405843473  0.3999531264208796
  0.5865401946978491  0.4147362095130022  0.4019086271272653
  0.5872545851637372  0.5389742828343985  0.4058279070464718
  0.5806031097558795  0.6610337849837240  0.4052281063067448
  0.5798411732360914  0.7865363937378729  0.4026191726904904
  0.5817840258881307  0.9139783306374614  0.4002807369506693
  0.7072306577857820  0.0394256183196186  0.3997228566307957
  0.7078861468199981  0.1649232801467687  0.3996263747783559
  0.7087571012293502  0.2902873668393523  0.3991526989454063
  0.7099661527553212  0.4156016242758491  0.3986829586401355
  0.7107993467152102  0.5407799026985070  0.3992799671902904
  0.7086755441031165  0.6651539804378007  0.4005733747119823
  0.7065095017363141  0.7887885356711388  0.4007539942259082
  0.7064057321691507  0.9136568568522510  0.4002569113498994
  0.8322359144086883  0.0399315439097894  0.3997317198740881
  0.8325236149078058  0.1650875788851673  0.3999127509802914
  0.8329764305711674  0.2903796073373308  0.3997969257301422
  0.8336456984623911  0.4157773892293681  0.3990168582176775
  0.8343499865714196  0.5412815125374789  0.3985019603688676
  0.8340740420853773  0.6666351308154604  0.3988047943740997
  0.8332082848151671  0.7911767672835436  0.3993421113606046
  0.8323879082371041  0.9152827868047121  0.3996409468116782
  0.9581338341189619  0.0415216636825743  0.3998570647897230
  0.9577096866651774  0.1659358405224507  0.3999002354314248
  0.9573946037360902  0.2907047786700899  0.4000809644438124
  0.9573789226486659  0.4159987752844058  0.3999731152690568
  0.9580141647111784  0.5415605642475921  0.3994972489789126
  0.9584947066257451  0.6670754202450577  0.3992260766596988
  0.9586140082211978  0.7922940451617246  0.3994177561036515
  0.9584711671884316  0.9171138058572725  0.3996866652136016
  0.4072809496569897  0.5819740784707268  0.4070797272155554
  0.4661368277824324  0.4171562748593482  0.4121880284989645
 
  0.00000000E+00  0.00000000E+00  0.00000000E+00
  0.00000000E+00  0.00000000E+00  0.00000000E+00
  0.00000000E+00  0.00000000E+00  0.00000000E+00
  0.00000000E+00  0.00000000E+00  0.00000000E+00
  0.00000000E+00  0.00000000E+00  0.00000000E+00
  0.00000000E+00  0.00000000E+00  0.00000000E+00
  0.00000000E+00  0.00000000E+00  0.00000000E+00
  0.00000000E+00  0.00000000E+00  0.00000000E+00
  0.00000000E+00  0.00000000E+00  0.00000000E+00
  0.00000000E+00  0.00000000E+00  0.00000000E+00
  0.00000000E+00  0.00000000E+00  0.00000000E+00
  0.00000000E+00  0.00000000E+00  0.00000000E+00
  0.00000000E+00  0.00000000E+00  0.00000000E+00
  0.00000000E+00  0.00000000E+00  0.00000000E+00
  0.00000000E+00  0.00000000E+00  0.00000000E+00
  0.00000000E+00  0.00000000E+00  0.00000000E+00
  0.00000000E+00  0.00000000E+00  0.00000000E+00
  0.00000000E+00  0.00000000E+00  0.00000000E+00
  0.00000000E+00  0.00000000E+00  0.00000000E+00
  0.00000000E+00  0.00000000E+00  0.00000000E+00
  0.00000000E+00  0.00000000E+00  0.00000000E+00
  0.00000000E+00  0.00000000E+00  0.00000000E+00
  0.00000000E+00  0.00000000E+00  0.00000000E+00
  0.00000000E+00  0.00000000E+00  0.00000000E+00
  0.00000000E+00  0.00000000E+00  0.00000000E+00
  0.00000000E+00  0.00000000E+00  0.00000000E+00
  0.00000000E+00  0.00000000E+00  0.00000000E+00
  0.00000000E+00  0.00000000E+00  0.00000000E+00
  0.00000000E+00  0.00000000E+00  0.00000000E+00
  0.00000000E+00  0.00000000E+00  0.00000000E+00
  0.00000000E+00  0.00000000E+00  0.00000000E+00
  0.00000000E+00  0.00000000E+00  0.00000000E+00
  0.00000000E+00  0.00000000E+00  0.00000000E+00
  0.00000000E+00  0.00000000E+00  0.00000000E+00
  0.00000000E+00  0.00000000E+00  0.00000000E+00
  0.00000000E+00  0.00000000E+00  0.00000000E+00
  0.00000000E+00  0.00000000E+00  0.00000000E+00
  0.00000000E+00  0.00000000E+00  0.00000000E+00
  0.00000000E+00  0.00000000E+00  0.00000000E+00
  0.00000000E+00  0.00000000E+00  0.00000000E+00
  0.00000000E+00  0.00000000E+00  0.00000000E+00
  0.00000000E+00  0.00000000E+00  0.00000000E+00
  0.00000000E+00  0.00000000E+00  0.00000000E+00
  0.00000000E+00  0.00000000E+00  0.00000000E+00
  0.00000000E+00  0.00000000E+00  0.00000000E+00
  0.00000000E+00  0.00000000E+00  0.00000000E+00
  0.00000000E+00  0.00000000E+00  0.00000000E+00
  0.00000000E+00  0.00000000E+00  0.00000000E+00
  0.00000000E+00  0.00000000E+00  0.00000000E+00
  0.00000000E+00  0.00000000E+00  0.00000000E+00
  0.00000000E+00  0.00000000E+00  0.00000000E+00
  0.00000000E+00  0.00000000E+00  0.00000000E+00
  0.00000000E+00  0.00000000E+00  0.00000000E+00
  0.00000000E+00  0.00000000E+00  0.00000000E+00
  0.00000000E+00  0.00000000E+00  0.00000000E+00
  0.00000000E+00  0.00000000E+00  0.00000000E+00
  0.00000000E+00  0.00000000E+00  0.00000000E+00
  0.00000000E+00  0.00000000E+00  0.00000000E+00
  0.00000000E+00  0.00000000E+00  0.00000000E+00
  0.00000000E+00  0.00000000E+00  0.00000000E+00
  0.00000000E+00  0.00000000E+00  0.00000000E+00
  0.00000000E+00  0.00000000E+00  0.00000000E+00
  0.00000000E+00  0.00000000E+00  0.00000000E+00
  0.00000000E+00  0.00000000E+00  0.00000000E+00
  0.00000000E+00  0.00000000E+00  0.00000000E+00
  0.00000000E+00  0.00000000E+00  0.00000000E+00
  0.00000000E+00  0.00000000E+00  0.00000000E+00
  0.00000000E+00  0.00000000E+00  0.00000000E+00
  0.00000000E+00  0.00000000E+00  0.00000000E+00
  0.00000000E+00  0.00000000E+00  0.00000000E+00
  0.00000000E+00  0.00000000E+00  0.00000000E+00
  0.00000000E+00  0.00000000E+00  0.00000000E+00
  0.00000000E+00  0.00000000E+00  0.00000000E+00
  0.00000000E+00  0.00000000E+00  0.00000000E+00
  0.00000000E+00  0.00000000E+00  0.00000000E+00
  0.00000000E+00  0.00000000E+00  0.00000000E+00
  0.00000000E+00  0.00000000E+00  0.00000000E+00
  0.00000000E+00  0.00000000E+00  0.00000000E+00
  0.00000000E+00  0.00000000E+00  0.00000000E+00
  0.00000000E+00  0.00000000E+00  0.00000000E+00
  0.00000000E+00  0.00000000E+00  0.00000000E+00
  0.00000000E+00  0.00000000E+00  0.00000000E+00
  0.00000000E+00  0.00000000E+00  0.00000000E+00
  0.00000000E+00  0.00000000E+00  0.00000000E+00
  0.00000000E+00  0.00000000E+00  0.00000000E+00
  0.00000000E+00  0.00000000E+00  0.00000000E+00
  0.00000000E+00  0.00000000E+00  0.00000000E+00
  0.00000000E+00  0.00000000E+00  0.00000000E+00
  0.00000000E+00  0.00000000E+00  0.00000000E+00
  0.00000000E+00  0.00000000E+00  0.00000000E+00
  0.00000000E+00  0.00000000E+00  0.00000000E+00
  0.00000000E+00  0.00000000E+00  0.00000000E+00
  0.00000000E+00  0.00000000E+00  0.00000000E+00
  0.00000000E+00  0.00000000E+00  0.00000000E+00
  0.00000000E+00  0.00000000E+00  0.00000000E+00
  0.00000000E+00  0.00000000E+00  0.00000000E+00
  0.00000000E+00  0.00000000E+00  0.00000000E+00
  0.00000000E+00  0.00000000E+00  0.00000000E+00
  0.00000000E+00  0.00000000E+00  0.00000000E+00
  0.00000000E+00  0.00000000E+00  0.00000000E+00
  0.00000000E+00  0.00000000E+00  0.00000000E+00
  0.00000000E+00  0.00000000E+00  0.00000000E+00
  0.00000000E+00  0.00000000E+00  0.00000000E+00
  0.00000000E+00  0.00000000E+00  0.00000000E+00
  0.00000000E+00  0.00000000E+00  0.00000000E+00
  0.00000000E+00  0.00000000E+00  0.00000000E+00
  0.00000000E+00  0.00000000E+00  0.00000000E+00
  0.00000000E+00  0.00000000E+00  0.00000000E+00
  0.00000000E+00  0.00000000E+00  0.00000000E+00
  0.00000000E+00  0.00000000E+00  0.00000000E+00
  0.00000000E+00  0.00000000E+00  0.00000000E+00
  0.00000000E+00  0.00000000E+00  0.00000000E+00
  0.00000000E+00  0.00000000E+00  0.00000000E+00
  0.00000000E+00  0.00000000E+00  0.00000000E+00
  0.00000000E+00  0.00000000E+00  0.00000000E+00
  0.00000000E+00  0.00000000E+00  0.00000000E+00
  0.00000000E+00  0.00000000E+00  0.00000000E+00
  0.00000000E+00  0.00000000E+00  0.00000000E+00
  0.00000000E+00  0.00000000E+00  0.00000000E+00
  0.00000000E+00  0.00000000E+00  0.00000000E+00
  0.00000000E+00  0.00000000E+00  0.00000000E+00
  0.00000000E+00  0.00000000E+00  0.00000000E+00
  0.00000000E+00  0.00000000E+00  0.00000000E+00
  0.00000000E+00  0.00000000E+00  0.00000000E+00
  0.00000000E+00  0.00000000E+00  0.00000000E+00
  0.00000000E+00  0.00000000E+00  0.00000000E+00
  0.00000000E+00  0.00000000E+00  0.00000000E+00
  0.00000000E+00  0.00000000E+00  0.00000000E+00
