Ti1 H1 C123 N3 O2                       
   1.00000000000000     
    19.7882510389474078    0.0104101935980275   -0.3136541632325404
    -9.8837040407336936   17.0289692484933752   -0.0585370643720799
    -0.4720698098601515   -0.3762529549814412   29.8642520843185970
   Ti   H    C    N    O 
     1     1   123     3     2
Direct
  0.4395966101589746  0.5007177608950825  0.4319097267449279
  0.5233219985250711  0.5642898122176175  0.5083859381125478
  0.0421751686085210  0.0841853690276737  0.3998193432446903
  0.0413752193009872  0.2084203727397722  0.3999850161235547
  0.0407770111764496  0.3332047319174245  0.3997716484918587
  0.0409762651600231  0.4583607248522973  0.3992762539387514
  0.0417585097906455  0.5837891595617041  0.3989931841545407
  0.0424676458996789  0.7092364973954911  0.3988971784621978
  0.0427000604716560  0.8344489158435376  0.3991348295701344
  0.0426467616462693  0.9595822155069411  0.3994947626980213
  0.1679312315314151  0.0853193104686820  0.4004999621730290
  0.1675980578497914  0.2101852657018994  0.4009918497624042
  0.1656396225569804  0.3337831762378762  0.4011596432110603
  0.1650377735422834  0.4585470679968904  0.4000422249870031
  0.1658067610911653  0.5836796950442682  0.3993681324939521
  0.1668314654250561  0.7089209071183048  0.3990877390436979
  0.1674034127647281  0.8343842532719785  0.3991238119407005
  0.1677036631260398  0.9599234148158203  0.3996722422542907
  0.2927842635456018  0.0856529036521015  0.4004212777405391
  0.2932927843400276  0.2122449716010729  0.4021973637654641
  0.2927597208329790  0.3379736217503774  0.4042860664294721
  0.2889802254614782  0.4581419910842008  0.4030919857612363
  0.2895580912276555  0.5828970534271712  0.4006346720209098
  0.2912386851271209  0.7082607076233508  0.3996056474076567
  0.2920402922716870  0.8338319549215435  0.3992103778944772
  0.2924443916249510  0.9595660958406077  0.3994816928359409
  0.4173238292224206  0.0842825685136993  0.3997629632381379
  0.4178770031781392  0.2104460337753787  0.4007749987232360
  0.4195739746642536  0.3379646812176176  0.4034791585725337
  0.4155746487042257  0.7060074829072333  0.4010228218357740
  0.4165795964176797  0.8322694452352019  0.3996531498240994
  0.4170232562725248  0.9583165078823331  0.3993643567905623
  0.5418185598930997  0.0829268368076899  0.3994037502313748
  0.5423245808098534  0.2087702402027555  0.3997453898039672
  0.5432164061955076  0.3344525676507980  0.4007652202911383
  0.5456552332935966  0.4599111671374383  0.4029303043707653
  0.5393865254988993  0.7026582980663877  0.4036724697776455
  0.5411160348733389  0.8306863386810199  0.4008272928433720
  0.5415143813412586  0.9569761290255375  0.3996180834145354
  0.6664160226770546  0.0823340020167964  0.3993623232339089
  0.6667587168627497  0.2078381694708702  0.3992393053667844
  0.6675293873959489  0.3333282529636210  0.3994648686329597
  0.6692484580524162  0.4589092049364142  0.4003438162895662
  0.6704822304579346  0.5843502657952817  0.4017753119351463
  0.6673403488269667  0.7070563833368220  0.4019815302200677
  0.6654367797292449  0.8309282924690665  0.4011088295916915
  0.6660569334351727  0.9567333509940372  0.3999454129405046
  0.7911505277091148  0.0823365095493728  0.3993957058533230
  0.7913861678133302  0.2076684900431620  0.3991907525932709
  0.7918744275472460  0.3330385739812093  0.3990311120436534
  0.7928648079480375  0.4585008944964705  0.3990855663196152
  0.7937723301580129  0.5839391686313150  0.3996318654135678
  0.7935628394180333  0.7090984545779796  0.4003133111788267
  0.7917728664656393  0.8328474528271700  0.4001105998406591
  0.7909657528876112  0.9571298301137039  0.3996903971541992
  0.9163015139214472  0.0828945131357594  0.3994445010136579
  0.9161243922137783  0.2077860381536132  0.3994440800916584
  0.9162717093173410  0.3330061387370306  0.3992046149956764
  0.9169117475061707  0.4584516577042645  0.3989422195591595
  0.9177200551498264  0.5838970574345383  0.3988784049510231
  0.9179733005955391  0.7091499137916367  0.3991415234197809
  0.9176984947316043  0.8341788904912776  0.3993535690052729
  0.9169387405372549  0.9585197610826108  0.3994070744565169
  0.0844331950637264  0.0431589071942536  0.3999043248021518
  0.0838923645314059  0.1677736265409144  0.4001908762384511
  0.0826878567783302  0.2918330131038466  0.4002626256815540
  0.0821080499582052  0.4164945783355060  0.3996250873361077
  0.0828157803826555  0.5418933755742796  0.3991907434760519
  0.0836944348005635  0.6673040200355128  0.3989604945847668
  0.0841514069702909  0.7926906470585769  0.3990175605509295
  0.0843783515805394  0.9180145034560721  0.3994216048303325
  0.2094205764981334  0.0435402490090634  0.4002700823501616
  0.2097564525844754  0.1691350279781471  0.4013160419709160
  0.2090112051751765  0.2938980979081856  0.4018283430579932
  0.2065580884057624  0.4171305544325738  0.4011801022990817
  0.2066125144776872  0.5415703854631586  0.3998657920148158
  0.2079252598064503  0.6669869310381348  0.3993179457466360
  0.2087853764574165  0.7924705786088007  0.3991107472873937
  0.2091751339076477  0.9179694107729607  0.3994009293979268
  0.3341045828410448  0.0432921807468953  0.3998625212665772
  0.3344720448846506  0.1694902883850787  0.4011781332852006
  0.3352726458634128  0.2966465231816324  0.4039658831405544
  0.3308143828821934  0.5417262416378468  0.4024766728663396
  0.3321883023194543  0.6661619373494850  0.4003540097745352
  0.3333625596249466  0.7916473073455990  0.3994265992564860
  0.3337620209825279  0.9173340275287880  0.3992941204219341
  0.4586248135618937  0.0418864073605695  0.3994604167050985
  0.4590212475104512  0.1679159433953721  0.4000575882337730
  0.4598655688738951  0.2940753022520782  0.4013035728301643
  0.4635073456689952  0.4205186153552988  0.4051087356901221
  0.4550735604144904  0.6614617493381789  0.4032744967604782
  0.4578360452732623  0.7896762291414262  0.4003882615709626
  0.4583078100075326  0.9159492037048681  0.3995047159293785
  0.5831529421082664  0.0406997575959182  0.3994188717404262
  0.5835705883675142  0.1665212275619186  0.3994076124790061
  0.5843138005547807  0.2921304998409532  0.3999140939862402
  0.5863982549458963  0.4178585590013612  0.4012585683146008
  0.5887711841749129  0.5438814395689308  0.4034222201592559
  0.5836231746176221  0.6625097948615331  0.4040147650107284
  0.5817158820186873  0.7876110642489657  0.4019377051745326
  0.5828365433858625  0.9146431655213463  0.4000896049993817
  0.7078295299306149  0.0404164262664796  0.3995096364033009
  0.7081741882755561  0.1659232157485330  0.3992131477442622
  0.7086808269652559  0.2913815807386538  0.3991771580386326
  0.7099313854219407  0.4167794628377030  0.3994816736267332
  0.7111868099903658  0.5420792382715482  0.4005007131545485
  0.7107937907937131  0.6673655664059643  0.4014653234162713
  0.7082012255759382  0.7904916084675061  0.4009906353284129
  0.7073788649642341  0.9147742109489538  0.4001895182155873
  0.8328595397523265  0.0407756322409563  0.3994341656313155
  0.8328976035457781  0.1659324566923177  0.3993055725305668
  0.8331426774606364  0.2911361558097328  0.3991022627971418
  0.8338915107812362  0.4165404414196167  0.3989554920046809
  0.8348075939442391  0.5420336570456281  0.3990774818202579
  0.8351022613079266  0.6673960340803716  0.3996609122823664
  0.8344714701704463  0.7922783283200534  0.3998808069610770
  0.8333855519014192  0.9163274300574640  0.3996565747029169
  0.9586429291634389  0.0419701131982414  0.3994830262674949
  0.9580180981071760  0.1663848190444484  0.3995671486708077
  0.9577438087414563  0.2913036038684545  0.3994523948068686
  0.9580143966420501  0.4165340149996394  0.3991233075010163
  0.9587530532666957  0.5419112949953996  0.3988876806989209
  0.9594006005916711  0.6673953289909930  0.3989022520564585
  0.9594706160506822  0.7926773917813668  0.3991727234409383
  0.9592318930526526  0.9176027930633950  0.3993392394422690
  0.4118097545207250  0.5806500311994458  0.4053513509675082
  0.5472404126099855  0.5824470951679280  0.4059344935457189
  0.3308822113974218  0.4193321003600149  0.4070199683656967
  0.5016590959090517  0.5121052341770252  0.4942679549888264
  0.4153476761251115  0.4803838480173176  0.4936106862876404
 
  0.00000000E+00  0.00000000E+00  0.00000000E+00
  0.00000000E+00  0.00000000E+00  0.00000000E+00
  0.00000000E+00  0.00000000E+00  0.00000000E+00
  0.00000000E+00  0.00000000E+00  0.00000000E+00
  0.00000000E+00  0.00000000E+00  0.00000000E+00
  0.00000000E+00  0.00000000E+00  0.00000000E+00
  0.00000000E+00  0.00000000E+00  0.00000000E+00
  0.00000000E+00  0.00000000E+00  0.00000000E+00
  0.00000000E+00  0.00000000E+00  0.00000000E+00
  0.00000000E+00  0.00000000E+00  0.00000000E+00
  0.00000000E+00  0.00000000E+00  0.00000000E+00
  0.00000000E+00  0.00000000E+00  0.00000000E+00
  0.00000000E+00  0.00000000E+00  0.00000000E+00
  0.00000000E+00  0.00000000E+00  0.00000000E+00
  0.00000000E+00  0.00000000E+00  0.00000000E+00
  0.00000000E+00  0.00000000E+00  0.00000000E+00
  0.00000000E+00  0.00000000E+00  0.00000000E+00
  0.00000000E+00  0.00000000E+00  0.00000000E+00
  0.00000000E+00  0.00000000E+00  0.00000000E+00
  0.00000000E+00  0.00000000E+00  0.00000000E+00
  0.00000000E+00  0.00000000E+00  0.00000000E+00
  0.00000000E+00  0.00000000E+00  0.00000000E+00
  0.00000000E+00  0.00000000E+00  0.00000000E+00
  0.00000000E+00  0.00000000E+00  0.00000000E+00
  0.00000000E+00  0.00000000E+00  0.00000000E+00
  0.00000000E+00  0.00000000E+00  0.00000000E+00
  0.00000000E+00  0.00000000E+00  0.00000000E+00
  0.00000000E+00  0.00000000E+00  0.00000000E+00
  0.00000000E+00  0.00000000E+00  0.00000000E+00
  0.00000000E+00  0.00000000E+00  0.00000000E+00
  0.00000000E+00  0.00000000E+00  0.00000000E+00
  0.00000000E+00  0.00000000E+00  0.00000000E+00
  0.00000000E+00  0.00000000E+00  0.00000000E+00
  0.00000000E+00  0.00000000E+00  0.00000000E+00
  0.00000000E+00  0.00000000E+00  0.00000000E+00
  0.00000000E+00  0.00000000E+00  0.00000000E+00
  0.00000000E+00  0.00000000E+00  0.00000000E+00
  0.00000000E+00  0.00000000E+00  0.00000000E+00
  0.00000000E+00  0.00000000E+00  0.00000000E+00
  0.00000000E+00  0.00000000E+00  0.00000000E+00
  0.00000000E+00  0.00000000E+00  0.00000000E+00
  0.00000000E+00  0.00000000E+00  0.00000000E+00
  0.00000000E+00  0.00000000E+00  0.00000000E+00
  0.00000000E+00  0.00000000E+00  0.00000000E+00
  0.00000000E+00  0.00000000E+00  0.00000000E+00
  0.00000000E+00  0.00000000E+00  0.00000000E+00
  0.00000000E+00  0.00000000E+00  0.00000000E+00
  0.00000000E+00  0.00000000E+00  0.00000000E+00
  0.00000000E+00  0.00000000E+00  0.00000000E+00
  0.00000000E+00  0.00000000E+00  0.00000000E+00
  0.00000000E+00  0.00000000E+00  0.00000000E+00
  0.00000000E+00  0.00000000E+00  0.00000000E+00
  0.00000000E+00  0.00000000E+00  0.00000000E+00
  0.00000000E+00  0.00000000E+00  0.00000000E+00
  0.00000000E+00  0.00000000E+00  0.00000000E+00
  0.00000000E+00  0.00000000E+00  0.00000000E+00
  0.00000000E+00  0.00000000E+00  0.00000000E+00
  0.00000000E+00  0.00000000E+00  0.00000000E+00
  0.00000000E+00  0.00000000E+00  0.00000000E+00
  0.00000000E+00  0.00000000E+00  0.00000000E+00
  0.00000000E+00  0.00000000E+00  0.00000000E+00
  0.00000000E+00  0.00000000E+00  0.00000000E+00
  0.00000000E+00  0.00000000E+00  0.00000000E+00
  0.00000000E+00  0.00000000E+00  0.00000000E+00
  0.00000000E+00  0.00000000E+00  0.00000000E+00
  0.00000000E+00  0.00000000E+00  0.00000000E+00
  0.00000000E+00  0.00000000E+00  0.00000000E+00
  0.00000000E+00  0.00000000E+00  0.00000000E+00
  0.00000000E+00  0.00000000E+00  0.00000000E+00
  0.00000000E+00  0.00000000E+00  0.00000000E+00
  0.00000000E+00  0.00000000E+00  0.00000000E+00
  0.00000000E+00  0.00000000E+00  0.00000000E+00
  0.00000000E+00  0.00000000E+00  0.00000000E+00
  0.00000000E+00  0.00000000E+00  0.00000000E+00
  0.00000000E+00  0.00000000E+00  0.00000000E+00
  0.00000000E+00  0.00000000E+00  0.00000000E+00
  0.00000000E+00  0.00000000E+00  0.00000000E+00
  0.00000000E+00  0.00000000E+00  0.00000000E+00
  0.00000000E+00  0.00000000E+00  0.00000000E+00
  0.00000000E+00  0.00000000E+00  0.00000000E+00
  0.00000000E+00  0.00000000E+00  0.00000000E+00
  0.00000000E+00  0.00000000E+00  0.00000000E+00
  0.00000000E+00  0.00000000E+00  0.00000000E+00
  0.00000000E+00  0.00000000E+00  0.00000000E+00
  0.00000000E+00  0.00000000E+00  0.00000000E+00
  0.00000000E+00  0.00000000E+00  0.00000000E+00
  0.00000000E+00  0.00000000E+00  0.00000000E+00
  0.00000000E+00  0.00000000E+00  0.00000000E+00
  0.00000000E+00  0.00000000E+00  0.00000000E+00
  0.00000000E+00  0.00000000E+00  0.00000000E+00
  0.00000000E+00  0.00000000E+00  0.00000000E+00
  0.00000000E+00  0.00000000E+00  0.00000000E+00
  0.00000000E+00  0.00000000E+00  0.00000000E+00
  0.00000000E+00  0.00000000E+00  0.00000000E+00
  0.00000000E+00  0.00000000E+00  0.00000000E+00
  0.00000000E+00  0.00000000E+00  0.00000000E+00
  0.00000000E+00  0.00000000E+00  0.00000000E+00
  0.00000000E+00  0.00000000E+00  0.00000000E+00
  0.00000000E+00  0.00000000E+00  0.00000000E+00
  0.00000000E+00  0.00000000E+00  0.00000000E+00
  0.00000000E+00  0.00000000E+00  0.00000000E+00
  0.00000000E+00  0.00000000E+00  0.00000000E+00
  0.00000000E+00  0.00000000E+00  0.00000000E+00
  0.00000000E+00  0.00000000E+00  0.00000000E+00
  0.00000000E+00  0.00000000E+00  0.00000000E+00
  0.00000000E+00  0.00000000E+00  0.00000000E+00
  0.00000000E+00  0.00000000E+00  0.00000000E+00
  0.00000000E+00  0.00000000E+00  0.00000000E+00
  0.00000000E+00  0.00000000E+00  0.00000000E+00
  0.00000000E+00  0.00000000E+00  0.00000000E+00
  0.00000000E+00  0.00000000E+00  0.00000000E+00
  0.00000000E+00  0.00000000E+00  0.00000000E+00
  0.00000000E+00  0.00000000E+00  0.00000000E+00
  0.00000000E+00  0.00000000E+00  0.00000000E+00
  0.00000000E+00  0.00000000E+00  0.00000000E+00
  0.00000000E+00  0.00000000E+00  0.00000000E+00
  0.00000000E+00  0.00000000E+00  0.00000000E+00
  0.00000000E+00  0.00000000E+00  0.00000000E+00
  0.00000000E+00  0.00000000E+00  0.00000000E+00
  0.00000000E+00  0.00000000E+00  0.00000000E+00
  0.00000000E+00  0.00000000E+00  0.00000000E+00
  0.00000000E+00  0.00000000E+00  0.00000000E+00
  0.00000000E+00  0.00000000E+00  0.00000000E+00
  0.00000000E+00  0.00000000E+00  0.00000000E+00
  0.00000000E+00  0.00000000E+00  0.00000000E+00
  0.00000000E+00  0.00000000E+00  0.00000000E+00
  0.00000000E+00  0.00000000E+00  0.00000000E+00
  0.00000000E+00  0.00000000E+00  0.00000000E+00
  0.00000000E+00  0.00000000E+00  0.00000000E+00
  0.00000000E+00  0.00000000E+00  0.00000000E+00
