H1 Rh1 C125 N1 O1                       
   1.00000000000000     
    19.7948361525489744   -0.0287203835757612    0.1599958212732037
    -9.9227930674079552   17.0504611710660683    0.3917013601772318
     0.2419450617090408    0.8242919907592789   29.8635660058945973
   H    Rh   C    N    O 
     1     1   125     1     1
Direct
  0.5139416894666499  0.5913172450437933  0.4925837700189019
  0.4348231718386242  0.4954985674577503  0.4324678617307932
  0.0418441143203345  0.0838567545283431  0.3990933703194830
  0.0415771718608652  0.2083654854412346  0.3987535322905313
  0.0411412755557945  0.3329312195357285  0.3985721124977059
  0.0408665766528112  0.4581217008467738  0.3986456217291292
  0.0410549723996818  0.5834590603557042  0.3987248799359614
  0.0414336477293997  0.7087456798705551  0.3989164089516929
  0.0416154327950627  0.8339159577212939  0.3992304529868196
  0.0417598864023200  0.9589795186499943  0.3993177735722888
  0.1673468506988505  0.0849012392404905  0.3995141280450555
  0.1677840879769382  0.2101927463682797  0.3995630240666090
  0.1668585391820427  0.3343295824706191  0.3986804806033395
  0.1651941483310664  0.4585709350254727  0.3985876911266195
  0.1650692628985261  0.5836202699698033  0.3987225628647156
  0.1657884489580099  0.7088562161727655  0.3990876599517457
  0.1663929362571054  0.8341142409768091  0.3993320911686314
  0.1668806867907862  0.9594262526359386  0.3993988290007580
  0.2921388822349140  0.0846364388055251  0.4000264319396475
  0.2930883103178761  0.2108653098332409  0.4017027907211447
  0.2944297641107225  0.3378626737080618  0.4019546780578307
  0.2904582992784669  0.4598065852462225  0.4000299756614507
  0.2886722708522483  0.5843724661576412  0.3999566234777513
  0.2899718390892229  0.7088996529540694  0.4000550792287376
  0.2909961461759467  0.8338628790790524  0.3998076102746650
  0.2915733319439578  0.9591025220485485  0.3995722598975913
  0.4167878077874579  0.0834901932216166  0.3995093247770499
  0.4172934133061900  0.2089852654998134  0.4012144849212685
  0.4184992497292214  0.3351192236329860  0.4072961697530970
  0.4137978468945049  0.7067378384799403  0.4027268788248995
  0.4154643209317863  0.8325103474292463  0.4008560686800678
  0.4162173186188732  0.9580296428706874  0.3998320474526051
  0.5414215782956148  0.0821625782608808  0.3992976827937177
  0.5419653154029362  0.2073491831212084  0.3994112356194792
  0.5426907794423256  0.3319818828508408  0.4019818855947604
  0.5448414144448068  0.4558175227746589  0.4064886606974846
  0.5423924303869581  0.5762188434788925  0.4091035519618840
  0.5368720681815279  0.7020381774479065  0.4062010637461734
  0.5395953433275673  0.8302198922872607  0.4026011480112192
  0.5407668092967050  0.9565103467605073  0.4004685837643988
  0.6660285336518689  0.0815095273257065  0.3997670833527306
  0.6666563996956566  0.2069447269151921  0.3989995504309564
  0.6673172478493322  0.3321213594428825  0.3990178080412422
  0.6686056896804822  0.4572630921826630  0.3995838604052902
  0.6688133821380343  0.5822414765660653  0.4004107495192581
  0.6638977637270992  0.7041084785098608  0.4025554641628889
  0.6638563690088517  0.8294228629980092  0.4026922730748071
  0.6652249432011800  0.9557776006495710  0.4011806118405460
  0.7907841664600450  0.0815277997291017  0.3999617831619351
  0.7912755633268035  0.2068682623115010  0.3993730108608167
  0.7918216537341575  0.3322555096104908  0.3989059358466757
  0.7925685157916856  0.4576807089761680  0.3985301829397711
  0.7928498246069328  0.5829154690910685  0.3985774298196417
  0.7916326696190180  0.7076290233792253  0.3995916812907799
  0.7899749981448829  0.8311961219455761  0.4006884820336770
  0.7900625215786296  0.9560620336432297  0.4006599060926681
  0.9159627160247706  0.0823088404150269  0.3994134868719562
  0.9161549024899380  0.2073113223377936  0.3991178807957008
  0.9163080952960813  0.3324635869147595  0.3990423505139771
  0.9166344321609688  0.4578038508115706  0.3988034123125299
  0.9169959636598182  0.5832667064287045  0.3986688656478773
  0.9167819006827906  0.7084467433799428  0.3989259168563756
  0.9163993361350840  0.8331715191398181  0.3996042620537548
  0.9159221560684532  0.9575830516544969  0.3997260569894666
  0.0837611911022115  0.0426569651601383  0.3992085758088734
  0.0839587463580399  0.1675738686073385  0.3990091325011531
  0.0831943953216976  0.2918696326116292  0.3984841816230515
  0.0823438890989399  0.4165362080585162  0.3985367850172655
  0.0821855973653206  0.5416777965775055  0.3986211450263341
  0.0827124426245748  0.6670242627408460  0.3988379736115685
  0.0831740936165780  0.7923449391088169  0.3991470547878318
  0.0834430007094075  0.9175004132446954  0.3993085069266546
  0.2087537820721613  0.0429787906616473  0.3996425862109633
  0.2093979186733193  0.1686336465456125  0.4000664304794715
  0.2100244699522414  0.2942620174503814  0.3997476806899742
  0.2073088742502822  0.4176536715550004  0.3987456035223307
  0.2060404746539203  0.5419551445479600  0.3987475357483807
  0.2070032737715672  0.6671411734422448  0.3991744167916283
  0.2077564662287672  0.7923212533292294  0.3994208135069279
  0.2083097074070115  0.9176199544948019  0.3994495842546151
  0.3334576529348338  0.0425412431724587  0.3996471128785974
  0.3340624258158710  0.1681227919809429  0.4011410766897954
  0.3351029687103599  0.2943136919147570  0.4042474825290259
  0.3345865367387562  0.4216514396951611  0.4019873135531400
  0.3304504483715560  0.5440132323400250  0.4018259180862261
  0.3309943911353452  0.6670886630143466  0.4009892720367206
  0.3322679523884703  0.7920144668423607  0.4002753064379975
  0.3329805574446286  0.9171977317580001  0.3997669518119584
  0.4581661186990930  0.0414027981702365  0.3994457027812853
  0.4586656112777072  0.1668044766207229  0.3998376812636830
  0.4593359432932816  0.2922587460511222  0.4033299945702809
  0.4628593572685984  0.4171862963549087  0.4133425807993275
  0.4525798923464601  0.6620073740015411  0.4057718442100762
  0.4565634538676963  0.7901266771390290  0.4020426065235993
  0.4574928609835361  0.9158423598782062  0.4003845679381502
  0.5827542844043668  0.0400907891873035  0.3997565141665610
  0.5833617070533488  0.1655421263379569  0.3990273032498165
  0.5840247494855283  0.2905102558373190  0.3998550070910478
  0.5856081086503404  0.4149355723221547  0.4021923069052702
  0.5864426217515325  0.5393599804371954  0.4046186212783013
  0.5786244834772374  0.6594058837483405  0.4059142312037924
  0.5796740879288287  0.7864910851664590  0.4039476120969145
  0.5818357245978967  0.9140607473113861  0.4014064123566789
  0.7073102667847434  0.0395188672081288  0.4003073643144471
  0.7079901593427641  0.1651148908524270  0.3993433183366960
  0.7085889278400193  0.2904506878957355  0.3988365959750888
  0.7095760836022280  0.4156911793347872  0.3987901076127638
  0.7101339782680295  0.5407780552488584  0.3991361447700466
  0.7081368036161408  0.6652139043884301  0.4005564164644481
  0.7058083100162268  0.7881828382719031  0.4019869531201987
  0.7062654579776706  0.9135045090487606  0.4015582631870765
  0.8322898817303056  0.0399095694003845  0.4000093590107219
  0.8327339363560282  0.1652144631520980  0.3994978231358375
  0.8331430106827328  0.2905378669816426  0.3991590494674269
  0.8336584518649407  0.4158602213480568  0.3987375463766338
  0.8340847232113711  0.5412481643034047  0.3985075204874875
  0.8336500783212559  0.6664649497024209  0.3988814238630450
  0.8328339833526439  0.7908806887455513  0.3999654931846101
  0.8320348526648510  0.9149290120324982  0.4003880888024974
  0.9580329956076356  0.0413028319211232  0.3993342093515639
  0.9579648332155650  0.1659993440835964  0.3990198819304770
  0.9578627608063891  0.2908895024259640  0.3989095744155286
  0.9578513279738494  0.4160761327214516  0.3988607354853147
  0.9581549973199981  0.5414892072791786  0.3987341808536855
  0.9583410252464218  0.6668548363147440  0.3987990684053381
  0.9582813216611840  0.7919328914942091  0.3992500612082073
  0.9581471842489787  0.9167092647881426  0.3995683843336449
  0.4084279824534097  0.5820093079272368  0.4072037126384720
  0.4698012191060210  0.5379348330924096  0.4910687646704586
 
  0.00000000E+00  0.00000000E+00  0.00000000E+00
  0.00000000E+00  0.00000000E+00  0.00000000E+00
  0.00000000E+00  0.00000000E+00  0.00000000E+00
  0.00000000E+00  0.00000000E+00  0.00000000E+00
  0.00000000E+00  0.00000000E+00  0.00000000E+00
  0.00000000E+00  0.00000000E+00  0.00000000E+00
  0.00000000E+00  0.00000000E+00  0.00000000E+00
  0.00000000E+00  0.00000000E+00  0.00000000E+00
  0.00000000E+00  0.00000000E+00  0.00000000E+00
  0.00000000E+00  0.00000000E+00  0.00000000E+00
  0.00000000E+00  0.00000000E+00  0.00000000E+00
  0.00000000E+00  0.00000000E+00  0.00000000E+00
  0.00000000E+00  0.00000000E+00  0.00000000E+00
  0.00000000E+00  0.00000000E+00  0.00000000E+00
  0.00000000E+00  0.00000000E+00  0.00000000E+00
  0.00000000E+00  0.00000000E+00  0.00000000E+00
  0.00000000E+00  0.00000000E+00  0.00000000E+00
  0.00000000E+00  0.00000000E+00  0.00000000E+00
  0.00000000E+00  0.00000000E+00  0.00000000E+00
  0.00000000E+00  0.00000000E+00  0.00000000E+00
  0.00000000E+00  0.00000000E+00  0.00000000E+00
  0.00000000E+00  0.00000000E+00  0.00000000E+00
  0.00000000E+00  0.00000000E+00  0.00000000E+00
  0.00000000E+00  0.00000000E+00  0.00000000E+00
  0.00000000E+00  0.00000000E+00  0.00000000E+00
  0.00000000E+00  0.00000000E+00  0.00000000E+00
  0.00000000E+00  0.00000000E+00  0.00000000E+00
  0.00000000E+00  0.00000000E+00  0.00000000E+00
  0.00000000E+00  0.00000000E+00  0.00000000E+00
  0.00000000E+00  0.00000000E+00  0.00000000E+00
  0.00000000E+00  0.00000000E+00  0.00000000E+00
  0.00000000E+00  0.00000000E+00  0.00000000E+00
  0.00000000E+00  0.00000000E+00  0.00000000E+00
  0.00000000E+00  0.00000000E+00  0.00000000E+00
  0.00000000E+00  0.00000000E+00  0.00000000E+00
  0.00000000E+00  0.00000000E+00  0.00000000E+00
  0.00000000E+00  0.00000000E+00  0.00000000E+00
  0.00000000E+00  0.00000000E+00  0.00000000E+00
  0.00000000E+00  0.00000000E+00  0.00000000E+00
  0.00000000E+00  0.00000000E+00  0.00000000E+00
  0.00000000E+00  0.00000000E+00  0.00000000E+00
  0.00000000E+00  0.00000000E+00  0.00000000E+00
  0.00000000E+00  0.00000000E+00  0.00000000E+00
  0.00000000E+00  0.00000000E+00  0.00000000E+00
  0.00000000E+00  0.00000000E+00  0.00000000E+00
  0.00000000E+00  0.00000000E+00  0.00000000E+00
  0.00000000E+00  0.00000000E+00  0.00000000E+00
  0.00000000E+00  0.00000000E+00  0.00000000E+00
  0.00000000E+00  0.00000000E+00  0.00000000E+00
  0.00000000E+00  0.00000000E+00  0.00000000E+00
  0.00000000E+00  0.00000000E+00  0.00000000E+00
  0.00000000E+00  0.00000000E+00  0.00000000E+00
  0.00000000E+00  0.00000000E+00  0.00000000E+00
  0.00000000E+00  0.00000000E+00  0.00000000E+00
  0.00000000E+00  0.00000000E+00  0.00000000E+00
  0.00000000E+00  0.00000000E+00  0.00000000E+00
  0.00000000E+00  0.00000000E+00  0.00000000E+00
  0.00000000E+00  0.00000000E+00  0.00000000E+00
  0.00000000E+00  0.00000000E+00  0.00000000E+00
  0.00000000E+00  0.00000000E+00  0.00000000E+00
  0.00000000E+00  0.00000000E+00  0.00000000E+00
  0.00000000E+00  0.00000000E+00  0.00000000E+00
  0.00000000E+00  0.00000000E+00  0.00000000E+00
  0.00000000E+00  0.00000000E+00  0.00000000E+00
  0.00000000E+00  0.00000000E+00  0.00000000E+00
  0.00000000E+00  0.00000000E+00  0.00000000E+00
  0.00000000E+00  0.00000000E+00  0.00000000E+00
  0.00000000E+00  0.00000000E+00  0.00000000E+00
  0.00000000E+00  0.00000000E+00  0.00000000E+00
  0.00000000E+00  0.00000000E+00  0.00000000E+00
  0.00000000E+00  0.00000000E+00  0.00000000E+00
  0.00000000E+00  0.00000000E+00  0.00000000E+00
  0.00000000E+00  0.00000000E+00  0.00000000E+00
  0.00000000E+00  0.00000000E+00  0.00000000E+00
  0.00000000E+00  0.00000000E+00  0.00000000E+00
  0.00000000E+00  0.00000000E+00  0.00000000E+00
  0.00000000E+00  0.00000000E+00  0.00000000E+00
  0.00000000E+00  0.00000000E+00  0.00000000E+00
  0.00000000E+00  0.00000000E+00  0.00000000E+00
  0.00000000E+00  0.00000000E+00  0.00000000E+00
  0.00000000E+00  0.00000000E+00  0.00000000E+00
  0.00000000E+00  0.00000000E+00  0.00000000E+00
  0.00000000E+00  0.00000000E+00  0.00000000E+00
  0.00000000E+00  0.00000000E+00  0.00000000E+00
  0.00000000E+00  0.00000000E+00  0.00000000E+00
  0.00000000E+00  0.00000000E+00  0.00000000E+00
  0.00000000E+00  0.00000000E+00  0.00000000E+00
  0.00000000E+00  0.00000000E+00  0.00000000E+00
  0.00000000E+00  0.00000000E+00  0.00000000E+00
  0.00000000E+00  0.00000000E+00  0.00000000E+00
  0.00000000E+00  0.00000000E+00  0.00000000E+00
  0.00000000E+00  0.00000000E+00  0.00000000E+00
  0.00000000E+00  0.00000000E+00  0.00000000E+00
  0.00000000E+00  0.00000000E+00  0.00000000E+00
  0.00000000E+00  0.00000000E+00  0.00000000E+00
  0.00000000E+00  0.00000000E+00  0.00000000E+00
  0.00000000E+00  0.00000000E+00  0.00000000E+00
  0.00000000E+00  0.00000000E+00  0.00000000E+00
  0.00000000E+00  0.00000000E+00  0.00000000E+00
  0.00000000E+00  0.00000000E+00  0.00000000E+00
  0.00000000E+00  0.00000000E+00  0.00000000E+00
  0.00000000E+00  0.00000000E+00  0.00000000E+00
  0.00000000E+00  0.00000000E+00  0.00000000E+00
  0.00000000E+00  0.00000000E+00  0.00000000E+00
  0.00000000E+00  0.00000000E+00  0.00000000E+00
  0.00000000E+00  0.00000000E+00  0.00000000E+00
  0.00000000E+00  0.00000000E+00  0.00000000E+00
  0.00000000E+00  0.00000000E+00  0.00000000E+00
  0.00000000E+00  0.00000000E+00  0.00000000E+00
  0.00000000E+00  0.00000000E+00  0.00000000E+00
  0.00000000E+00  0.00000000E+00  0.00000000E+00
  0.00000000E+00  0.00000000E+00  0.00000000E+00
  0.00000000E+00  0.00000000E+00  0.00000000E+00
  0.00000000E+00  0.00000000E+00  0.00000000E+00
  0.00000000E+00  0.00000000E+00  0.00000000E+00
  0.00000000E+00  0.00000000E+00  0.00000000E+00
  0.00000000E+00  0.00000000E+00  0.00000000E+00
  0.00000000E+00  0.00000000E+00  0.00000000E+00
  0.00000000E+00  0.00000000E+00  0.00000000E+00
  0.00000000E+00  0.00000000E+00  0.00000000E+00
  0.00000000E+00  0.00000000E+00  0.00000000E+00
  0.00000000E+00  0.00000000E+00  0.00000000E+00
  0.00000000E+00  0.00000000E+00  0.00000000E+00
  0.00000000E+00  0.00000000E+00  0.00000000E+00
  0.00000000E+00  0.00000000E+00  0.00000000E+00
  0.00000000E+00  0.00000000E+00  0.00000000E+00
  0.00000000E+00  0.00000000E+00  0.00000000E+00
  0.00000000E+00  0.00000000E+00  0.00000000E+00
  0.00000000E+00  0.00000000E+00  0.00000000E+00
