Zr1 H1 C126 O1                          
   1.00000000000000     
    19.8049580384148136   -0.0026193381203916   -0.0614766788997974
    -9.9049941967072002   17.0880250495477561   -0.0505766175900837
    -0.0922674416682397   -0.1413879845805822   29.7360698621578408
   Zr   H    C    O 
     1     1   126     1
Direct
  0.4445868745465233  0.5052124988071300  0.4448817507193996
  0.4958711893461559  0.5591445114134945  0.5322641679661435
  0.0416862950562050  0.0836120359967818  0.3992521796921596
  0.0409939304110570  0.2079641929230538  0.3990194020250466
  0.0407378000788541  0.3329022884059402  0.3985542121223477
  0.0408065228861016  0.4582932074121418  0.3983373081178561
  0.0413645768316320  0.5835697512071936  0.3987561058749358
  0.0419571005980385  0.7088428453504688  0.3991866052110914
  0.0422424383461786  0.8340707650532485  0.3993647353126447
  0.0422080589429914  0.9590321635544551  0.3993535661549112
  0.1671311385828720  0.0843395519702167  0.3997690222529416
  0.1665937369553496  0.2087725171320239  0.4002098624613779
  0.1654552905701402  0.3331556179273407  0.4002255652442696
  0.1648001539475916  0.4582686734609864  0.3984761728603308
  0.1654270950742427  0.5835671715173809  0.3978888947701000
  0.1663942105012487  0.7088905625649439  0.3986100336773498
  0.1668303713131072  0.8340572165494374  0.3992522787233284
  0.1671353642439120  0.9592692450759727  0.3995193580722173
  0.2922242360068650  0.0843459832058823  0.3996901483316597
  0.2926499992487784  0.2102792157620873  0.4014279599763919
  0.2915175859335047  0.3351074996439918  0.4052864917337266
  0.2884683362564340  0.4577664381439162  0.4048353879980189
  0.2892604302200603  0.5839694721927493  0.3997304862072342
  0.2908969408130563  0.7088730034418989  0.3984129100138630
  0.2915500542613713  0.8338702711749074  0.3988267975259470
  0.2918345385548545  0.9589970682159112  0.3993280780565399
  0.4169564369528539  0.0835600559749973  0.3993368254019492
  0.4172256685506182  0.2086540686498387  0.3999636385277538
  0.4185618916531301  0.3349272941502257  0.4027204435353927
  0.4119172028689829  0.5834359220752565  0.4104051434512865
  0.4156795363073726  0.7080632162565087  0.4006440399157705
  0.4162684882842129  0.8333021884010665  0.3988944930649733
  0.4165732134918079  0.9583647874365493  0.3990646725305044
  0.5416051175083714  0.0828310834191730  0.3992651445402237
  0.5420350609281603  0.2078762947656144  0.3991920846783547
  0.5427894171167181  0.3330170015801682  0.3995337018066332
  0.5443346747037799  0.4575818866802676  0.4007177171685046
  0.5455972980296534  0.5826577999050804  0.4040640766200102
  0.5407330584813106  0.7066668407836479  0.4037649548402488
  0.5409193636835476  0.8322334846543028  0.4002352163880689
  0.5413874282054489  0.9576647907011443  0.3993056452844668
  0.6663628156627400  0.0825707686679330  0.3994489253659717
  0.6667443678180451  0.2077133721609359  0.3992734284781447
  0.6672756625203435  0.3328398208802890  0.3989374838056858
  0.6687099812355973  0.4582194810684659  0.3986015810512982
  0.6699050359862183  0.5839272572157096  0.3987936975227599
  0.6672715292869871  0.7079765807791563  0.3996210469948562
  0.6662503651858109  0.8321782828732840  0.4000092123629067
  0.6662138918132429  0.9574034359283424  0.3996501670634945
  0.7912914696402785  0.0825905326462886  0.3994016928557127
  0.7913655465491308  0.2076291915412996  0.3993246342286272
  0.7918440880841695  0.3328821094060738  0.3991940673306810
  0.7926572746446778  0.4582774283828930  0.3988941033676366
  0.7932507964499335  0.5835512471816606  0.3984652572087075
  0.7930084601562343  0.7088771801506113  0.3986222005026476
  0.7920198127727287  0.8332750792254031  0.3991089868333481
  0.7912958117042589  0.9576652645761105  0.3993258666657628
  0.9163241994445067  0.0828883501360216  0.3991828413878664
  0.9160774099072237  0.2077433257190597  0.3990731642753143
  0.9162054392819988  0.3329127304769258  0.3989212487546276
  0.9166587380817095  0.4581585880648749  0.3989890240744047
  0.9173203883105786  0.5835837464345112  0.3990676260411475
  0.9175461326221160  0.7088979700913406  0.3990481185842932
  0.9173459312733695  0.8338938534987632  0.3990834320371623
  0.9168408253328783  0.9584050317328981  0.3991342097221298
  0.0837866722793132  0.0424016821065629  0.3994281409669277
  0.0831780714127872  0.1668626371806431  0.3993118277817355
  0.0823206089249501  0.2913037419242051  0.3989556920655767
  0.0820888247911940  0.4165239399445064  0.3981883170011642
  0.0824265112885997  0.5417147827121077  0.3982717226220673
  0.0832105985894913  0.6670948898944659  0.3988646524212187
  0.0837095521882224  0.7924173446535802  0.3993144474930318
  0.0838277039942291  0.9175058886627111  0.3994325718114190
  0.2088128249488984  0.0426222999750961  0.3996883268941081
  0.2087436629660946  0.1678061684196576  0.4005177837220527
  0.2080085178485445  0.2922313148288117  0.4014612232748628
  0.2058109493902020  0.4162919638476444  0.4004366429532023
  0.2063753774074631  0.5418720217671186  0.3981774622481120
  0.2077040773810855  0.6671936377257471  0.3981653020628719
  0.2082351059698565  0.7923270135079232  0.3989205695487495
  0.2086729932281035  0.9174946554776019  0.3994044761668173
  0.3336126957456569  0.0423882332279091  0.3994370607791234
  0.3340682275795915  0.1678081343829330  0.4002392559616432
  0.3341427612772764  0.2933079630213234  0.4038299227025077
  0.3294281413758685  0.4171308590700495  0.4108188593809308
  0.3305318590156796  0.5429868789335610  0.4046029014226997
  0.3321510983911654  0.6670880520729615  0.3994095447687823
  0.3329412148341700  0.7921678612743893  0.3986130262914108
  0.3333826200242654  0.9172160197294621  0.3990793278339347
  0.4584188831519975  0.0416798969328612  0.3991991362688225
  0.4587035081985312  0.1667582532827115  0.3994188656343837
  0.4592943818776959  0.2920921862029200  0.4002818470653843
  0.4626744899311578  0.4171155077042166  0.4046376194537900
  0.4561524154455793  0.6653816496333746  0.4048977647576382
  0.4577605953605364  0.7914268544750346  0.3996299307124529
  0.4580272827593421  0.9164916411063091  0.3990430834101569
  0.5831634042898343  0.0410439366463084  0.3993437990302290
  0.5834412673075500  0.1661678021553911  0.3992383021600208
  0.5840923328618451  0.2911754658026629  0.3990512164793823
  0.5857227284115910  0.4161148978251005  0.3994562677969989
  0.5872893166524444  0.5427747687785964  0.4004564895065331
  0.5838065775991831  0.6651074825709774  0.4023841943733902
  0.5823095101490188  0.7896804894641963  0.4012351196081804
  0.5827820151755156  0.9156922800330636  0.3996568300756754
  0.7079149981351271  0.0407830273054989  0.3995185031176761
  0.7081990738038809  0.1660115158919488  0.3993819194388827
  0.7086278014595817  0.2911311471941945  0.3991644514216567
  0.7095928336927476  0.4164716058508969  0.3986945655576125
  0.7106356223972909  0.5418244211734743  0.3983567142204476
  0.7098796871797323  0.6670371387536969  0.3988222216590177
  0.7086106100638189  0.7913638305412564  0.3995030052665827
  0.7078756054062824  0.9156419473443074  0.3995856335104378
  0.8329474904543329  0.0410717551033890  0.3993151060567465
  0.8329005292309394  0.1660216679074660  0.3992939695872110
  0.8331532231141170  0.2911750247901183  0.3992019869530496
  0.8337085441855782  0.4163903563070092  0.3990919434152826
  0.8343813508427633  0.5417105190591818  0.3988364717946882
  0.8345006440477609  0.6671919543104313  0.3986602283967564
  0.8342169869238627  0.7921688613649287  0.3988944663706944
  0.8334756981003925  0.9165177379919671  0.3991869154243735
  0.9583316508968862  0.0417306852660051  0.3991443579127452
  0.9578518009560727  0.1662397317282070  0.3990530635623002
  0.9576408139331838  0.2911748921842423  0.3988168048900601
  0.9578321539591320  0.4164183065977923  0.3987664774212927
  0.9584520531452452  0.5418061066565127  0.3990029932152719
  0.9589432908786522  0.6671024304406772  0.3991591143695692
  0.9590847856827672  0.7923542562606652  0.3991930554865392
  0.9588565365919456  0.9172458136869297  0.3991858457440522
  0.4566997348355017  0.5228760569582590  0.5112333653278833
 
  0.00000000E+00  0.00000000E+00  0.00000000E+00
  0.00000000E+00  0.00000000E+00  0.00000000E+00
  0.00000000E+00  0.00000000E+00  0.00000000E+00
  0.00000000E+00  0.00000000E+00  0.00000000E+00
  0.00000000E+00  0.00000000E+00  0.00000000E+00
  0.00000000E+00  0.00000000E+00  0.00000000E+00
  0.00000000E+00  0.00000000E+00  0.00000000E+00
  0.00000000E+00  0.00000000E+00  0.00000000E+00
  0.00000000E+00  0.00000000E+00  0.00000000E+00
  0.00000000E+00  0.00000000E+00  0.00000000E+00
  0.00000000E+00  0.00000000E+00  0.00000000E+00
  0.00000000E+00  0.00000000E+00  0.00000000E+00
  0.00000000E+00  0.00000000E+00  0.00000000E+00
  0.00000000E+00  0.00000000E+00  0.00000000E+00
  0.00000000E+00  0.00000000E+00  0.00000000E+00
  0.00000000E+00  0.00000000E+00  0.00000000E+00
  0.00000000E+00  0.00000000E+00  0.00000000E+00
  0.00000000E+00  0.00000000E+00  0.00000000E+00
  0.00000000E+00  0.00000000E+00  0.00000000E+00
  0.00000000E+00  0.00000000E+00  0.00000000E+00
  0.00000000E+00  0.00000000E+00  0.00000000E+00
  0.00000000E+00  0.00000000E+00  0.00000000E+00
  0.00000000E+00  0.00000000E+00  0.00000000E+00
  0.00000000E+00  0.00000000E+00  0.00000000E+00
  0.00000000E+00  0.00000000E+00  0.00000000E+00
  0.00000000E+00  0.00000000E+00  0.00000000E+00
  0.00000000E+00  0.00000000E+00  0.00000000E+00
  0.00000000E+00  0.00000000E+00  0.00000000E+00
  0.00000000E+00  0.00000000E+00  0.00000000E+00
  0.00000000E+00  0.00000000E+00  0.00000000E+00
  0.00000000E+00  0.00000000E+00  0.00000000E+00
  0.00000000E+00  0.00000000E+00  0.00000000E+00
  0.00000000E+00  0.00000000E+00  0.00000000E+00
  0.00000000E+00  0.00000000E+00  0.00000000E+00
  0.00000000E+00  0.00000000E+00  0.00000000E+00
  0.00000000E+00  0.00000000E+00  0.00000000E+00
  0.00000000E+00  0.00000000E+00  0.00000000E+00
  0.00000000E+00  0.00000000E+00  0.00000000E+00
  0.00000000E+00  0.00000000E+00  0.00000000E+00
  0.00000000E+00  0.00000000E+00  0.00000000E+00
  0.00000000E+00  0.00000000E+00  0.00000000E+00
  0.00000000E+00  0.00000000E+00  0.00000000E+00
  0.00000000E+00  0.00000000E+00  0.00000000E+00
  0.00000000E+00  0.00000000E+00  0.00000000E+00
  0.00000000E+00  0.00000000E+00  0.00000000E+00
  0.00000000E+00  0.00000000E+00  0.00000000E+00
  0.00000000E+00  0.00000000E+00  0.00000000E+00
  0.00000000E+00  0.00000000E+00  0.00000000E+00
  0.00000000E+00  0.00000000E+00  0.00000000E+00
  0.00000000E+00  0.00000000E+00  0.00000000E+00
  0.00000000E+00  0.00000000E+00  0.00000000E+00
  0.00000000E+00  0.00000000E+00  0.00000000E+00
  0.00000000E+00  0.00000000E+00  0.00000000E+00
  0.00000000E+00  0.00000000E+00  0.00000000E+00
  0.00000000E+00  0.00000000E+00  0.00000000E+00
  0.00000000E+00  0.00000000E+00  0.00000000E+00
  0.00000000E+00  0.00000000E+00  0.00000000E+00
  0.00000000E+00  0.00000000E+00  0.00000000E+00
  0.00000000E+00  0.00000000E+00  0.00000000E+00
  0.00000000E+00  0.00000000E+00  0.00000000E+00
  0.00000000E+00  0.00000000E+00  0.00000000E+00
  0.00000000E+00  0.00000000E+00  0.00000000E+00
  0.00000000E+00  0.00000000E+00  0.00000000E+00
  0.00000000E+00  0.00000000E+00  0.00000000E+00
  0.00000000E+00  0.00000000E+00  0.00000000E+00
  0.00000000E+00  0.00000000E+00  0.00000000E+00
  0.00000000E+00  0.00000000E+00  0.00000000E+00
  0.00000000E+00  0.00000000E+00  0.00000000E+00
  0.00000000E+00  0.00000000E+00  0.00000000E+00
  0.00000000E+00  0.00000000E+00  0.00000000E+00
  0.00000000E+00  0.00000000E+00  0.00000000E+00
  0.00000000E+00  0.00000000E+00  0.00000000E+00
  0.00000000E+00  0.00000000E+00  0.00000000E+00
  0.00000000E+00  0.00000000E+00  0.00000000E+00
  0.00000000E+00  0.00000000E+00  0.00000000E+00
  0.00000000E+00  0.00000000E+00  0.00000000E+00
  0.00000000E+00  0.00000000E+00  0.00000000E+00
  0.00000000E+00  0.00000000E+00  0.00000000E+00
  0.00000000E+00  0.00000000E+00  0.00000000E+00
  0.00000000E+00  0.00000000E+00  0.00000000E+00
  0.00000000E+00  0.00000000E+00  0.00000000E+00
  0.00000000E+00  0.00000000E+00  0.00000000E+00
  0.00000000E+00  0.00000000E+00  0.00000000E+00
  0.00000000E+00  0.00000000E+00  0.00000000E+00
  0.00000000E+00  0.00000000E+00  0.00000000E+00
  0.00000000E+00  0.00000000E+00  0.00000000E+00
  0.00000000E+00  0.00000000E+00  0.00000000E+00
  0.00000000E+00  0.00000000E+00  0.00000000E+00
  0.00000000E+00  0.00000000E+00  0.00000000E+00
  0.00000000E+00  0.00000000E+00  0.00000000E+00
  0.00000000E+00  0.00000000E+00  0.00000000E+00
  0.00000000E+00  0.00000000E+00  0.00000000E+00
  0.00000000E+00  0.00000000E+00  0.00000000E+00
  0.00000000E+00  0.00000000E+00  0.00000000E+00
  0.00000000E+00  0.00000000E+00  0.00000000E+00
  0.00000000E+00  0.00000000E+00  0.00000000E+00
  0.00000000E+00  0.00000000E+00  0.00000000E+00
  0.00000000E+00  0.00000000E+00  0.00000000E+00
  0.00000000E+00  0.00000000E+00  0.00000000E+00
  0.00000000E+00  0.00000000E+00  0.00000000E+00
  0.00000000E+00  0.00000000E+00  0.00000000E+00
  0.00000000E+00  0.00000000E+00  0.00000000E+00
  0.00000000E+00  0.00000000E+00  0.00000000E+00
  0.00000000E+00  0.00000000E+00  0.00000000E+00
  0.00000000E+00  0.00000000E+00  0.00000000E+00
  0.00000000E+00  0.00000000E+00  0.00000000E+00
  0.00000000E+00  0.00000000E+00  0.00000000E+00
  0.00000000E+00  0.00000000E+00  0.00000000E+00
  0.00000000E+00  0.00000000E+00  0.00000000E+00
  0.00000000E+00  0.00000000E+00  0.00000000E+00
  0.00000000E+00  0.00000000E+00  0.00000000E+00
  0.00000000E+00  0.00000000E+00  0.00000000E+00
  0.00000000E+00  0.00000000E+00  0.00000000E+00
  0.00000000E+00  0.00000000E+00  0.00000000E+00
  0.00000000E+00  0.00000000E+00  0.00000000E+00
  0.00000000E+00  0.00000000E+00  0.00000000E+00
  0.00000000E+00  0.00000000E+00  0.00000000E+00
  0.00000000E+00  0.00000000E+00  0.00000000E+00
  0.00000000E+00  0.00000000E+00  0.00000000E+00
  0.00000000E+00  0.00000000E+00  0.00000000E+00
  0.00000000E+00  0.00000000E+00  0.00000000E+00
  0.00000000E+00  0.00000000E+00  0.00000000E+00
  0.00000000E+00  0.00000000E+00  0.00000000E+00
  0.00000000E+00  0.00000000E+00  0.00000000E+00
  0.00000000E+00  0.00000000E+00  0.00000000E+00
  0.00000000E+00  0.00000000E+00  0.00000000E+00
  0.00000000E+00  0.00000000E+00  0.00000000E+00
  0.00000000E+00  0.00000000E+00  0.00000000E+00
  0.00000000E+00  0.00000000E+00  0.00000000E+00
