Pt1 C124 N2 O1                          
   1.00000000000000     
    19.8193681528864936   -0.0375627763215469    0.0049830946579708
    -9.9421397774725531   17.0508120858240382   -0.0015942484176327
     0.0074319845038518    0.0015469952261556   29.8090019709770040
   Pt   C    N    O 
     1   124     2     1
Direct
  0.4374996164188558  0.5000674725621046  0.4254730613921567
  0.0425719669056345  0.0846167295189272  0.3998765311538172
  0.0421501979326364  0.2089410377125898  0.3997167516144801
  0.0412626269876261  0.3334172867293770  0.3994035935190932
  0.0406480652503250  0.4585524097005164  0.3991851575159695
  0.0409924563669174  0.5839304314904019  0.3991299820628846
  0.0414967821450198  0.7092525886296185  0.3994001830893603
  0.0418024300815021  0.8344053161077262  0.3995614789508703
  0.0422375100925251  0.9596688786174610  0.3996697618664836
  0.1683502338549714  0.0860343733557997  0.4003853361453314
  0.1688575152133474  0.2113772729347209  0.4007066945563539
  0.1670172317638942  0.3350636621267134  0.3996222820666552
  0.1645054577605282  0.4593127546378404  0.3996408222705255
  0.1647832853106985  0.5843180019846884  0.3992044671428516
  0.1658097003596415  0.7094211762568459  0.3993197332479387
  0.1665306129143764  0.8346370510618303  0.3996175948252180
  0.1672440747528445  0.9600952244210725  0.3998595289995875
  0.2927179524302168  0.0854971226182410  0.4005552949120252
  0.2948577949900810  0.2128469468355268  0.4027569099693499
  0.2956718627256708  0.3394600282711142  0.4021160947024014
  0.2887158730591188  0.4614608796606780  0.4014237006659149
  0.2880892790966493  0.5851981811344290  0.4019901152976318
  0.2900476318584237  0.7095276487379456  0.4003029042241812
  0.2911791194045745  0.8343933394013969  0.3994935301933968
  0.2918727773976889  0.9596504426704031  0.3996688018129718
  0.4171658185343297  0.0837966138171763  0.3996856555425014
  0.4180982614467876  0.2095512462766351  0.4015766909431636
  0.4218569333879887  0.3371658844919831  0.4078129305322271
  0.4140122731883553  0.7070928026756870  0.4036048441921153
  0.4157601616186385  0.8328111219111055  0.4000923213063676
  0.4165104065434106  0.9583159577099187  0.3994500673243602
  0.5417778396879057  0.0822661722941966  0.3994837163177394
  0.5425008979956377  0.2073708861826505  0.3998818732884786
  0.5440522561351799  0.3320839701958529  0.4023262514873078
  0.5463262075961625  0.4555181750923676  0.4054322794347943
  0.5425036567027488  0.5768919501565792  0.4019853593109423
  0.5373142143109135  0.7025887609514244  0.4049713300572435
  0.5400665329591603  0.8306906287807909  0.4017770494262751
  0.5411260469120548  0.9567862139202812  0.3998866725877843
  0.6664427366842620  0.0817642745812781  0.3997429545880111
  0.6671050238454418  0.2070569636076295  0.3995047147530401
  0.6680849859319484  0.3322401223291768  0.3994683917342369
  0.6695154886859438  0.4574255095537554  0.3997498881714488
  0.6687165634285734  0.5816194417926593  0.3999311777587754
  0.6641154061519259  0.7045609745930789  0.4005950500312669
  0.6641587156889922  0.8298537119245237  0.4012036423844687
  0.6656578349011205  0.9561596549013629  0.4002650647830414
  0.7912330781424320  0.0818886640228585  0.3996520347113092
  0.7917094778513258  0.2071279128116882  0.3995014956148140
  0.7922894435345880  0.3324443025036533  0.3992402505431293
  0.7929996202020164  0.4578366691843661  0.3990365978446396
  0.7931247015437976  0.5830966977629990  0.3992834863543181
  0.7914422049392436  0.7075482338834802  0.3994854197548736
  0.7902357124037637  0.8315696931146206  0.4000780877146002
  0.7904660140868733  0.9564806277802469  0.3998852160828926
  0.9165175891483878  0.0828056896715807  0.3995991301157524
  0.9165682105028529  0.2076494025592477  0.3995442701285887
  0.9165672187239147  0.3327709079883404  0.3993882372029277
  0.9167898793462990  0.4581655691630599  0.3991381917001602
  0.9171276588290085  0.5835856327017012  0.3992437761988687
  0.9168567502017306  0.7087570279472571  0.3995038211919568
  0.9165347523132674  0.8335509545957606  0.3996252540416356
  0.9163790650048573  0.9581200713722099  0.3996415368786294
  0.0845580413577330  0.0435458814688935  0.3999098175639539
  0.0848062533834817  0.1684584213284407  0.4000833680888679
  0.0835616031214843  0.2924662178530062  0.3994796850996352
  0.0818720706283229  0.4169124813179816  0.3993115394197209
  0.0819623029513302  0.5421383195877130  0.3990609236940150
  0.0826832145604787  0.6675102062285996  0.3992496029928841
  0.0832710541598544  0.7928294496273284  0.3995239201455173
  0.0837732286079873  0.9180973224564088  0.3996720435050924
  0.2093490903927853  0.0438248495861893  0.4002701408454326
  0.2108642460550736  0.1701734351194309  0.4011974858904921
  0.2109022545594845  0.2954515790170053  0.4005571788182977
  0.2063194724439662  0.4184014169921372  0.3999009414227098
  0.2054730084471122  0.5425772665419447  0.3997537672823436
  0.2068876617861397  0.6677528173378073  0.3994632263147521
  0.2078628294425680  0.7929158590276413  0.3995053067225849
  0.2085428224551926  0.9182001609207487  0.3997652900962863
  0.3338467182571485  0.0431743614761253  0.3998909372639156
  0.3349157074962332  0.1692952630458832  0.4018066356147820
  0.3376822414360594  0.2974407742282670  0.4049564937226950
  0.3326724791469505  0.4231765892325633  0.4016321640461492
  0.3286765421653227  0.5444989104569685  0.4052517940012618
  0.3309278870373663  0.6679112351579818  0.4022645157613916
  0.3324787425767398  0.7926053433914244  0.3998547223774179
  0.3332260974574183  0.9177008896136234  0.3994811919332771
  0.4584898890330169  0.0416485081276516  0.3994540868999260
  0.4592222159888462  0.1671624416106297  0.4001305404169251
  0.4609543954312426  0.2929178199281003  0.4036833065365106
  0.4531158319193102  0.6628575972013117  0.4077237120033914
  0.4568867014103716  0.7904409768317745  0.4015165169735838
  0.4578139104041321  0.9161594787140863  0.3996645102005953
  0.5831186262681788  0.0403082617786941  0.3996646398812326
  0.5838004173223791  0.1655783714833054  0.3995001024690092
  0.5849237579884786  0.2904678023246478  0.4003386214879630
  0.5868887665212718  0.4148114825892434  0.4020620984042020
  0.5863327920013096  0.5385330388481639  0.4016037727755351
  0.5793337023877845  0.6605740769142003  0.4022348438909513
  0.5801512145354553  0.7871712379364828  0.4027622441750907
  0.5822744354970780  0.9144766122354782  0.4005543524406794
  0.7077524209093690  0.0398783578764446  0.3998435450958799
  0.7084451449107755  0.1653314119616917  0.3995927614048953
  0.7091689143613897  0.2905593689225907  0.3993202069121398
  0.7101820949584781  0.4156768937704808  0.3991850714525358
  0.7105072746839471  0.5406964695073687  0.3996261597453986
  0.7079831220462484  0.6649380698400879  0.3996490305116809
  0.7061703274788548  0.7886524518752092  0.4007003758513865
  0.7066683382878950  0.9139765136587035  0.4003679019363841
  0.8327931908954792  0.0403622489447364  0.3996452256997456
  0.8331945514967973  0.1655691288931225  0.3995399919162884
  0.8334733950762619  0.2906969638131213  0.3993764663079148
  0.8339495777592869  0.4160225933711772  0.3991251390357620
  0.8343088088624753  0.5414236498067098  0.3991634957958107
  0.8337302643384654  0.6665944119930299  0.3994101075821386
  0.8328876699761237  0.7910795581467400  0.3997219255216017
  0.8324754456515934  0.9154203936926416  0.3998674245372540
  0.9586719689117782  0.0419199327940781  0.3996391016774260
  0.9585018615716839  0.1664774640789743  0.3996068592288083
  0.9581366754526509  0.2912464762984923  0.3994885347469445
  0.9578234584366830  0.4163677940980798  0.3992389524513958
  0.9581591235311817  0.5417811311234725  0.3991431621649266
  0.9584079586247354  0.6671959074781610  0.3994115597632326
  0.9584400951351474  0.7923534766271823  0.3995633719333554
  0.9585310944824902  0.9172398268104772  0.3996141693762514
  0.4076924105279512  0.5826772379330956  0.4124598810679062
  0.4672818323188569  0.4173729696523878  0.4126703988930243
  0.4396940584926956  0.5023471875126823  0.4881090939787134
 
  0.00000000E+00  0.00000000E+00  0.00000000E+00
  0.00000000E+00  0.00000000E+00  0.00000000E+00
  0.00000000E+00  0.00000000E+00  0.00000000E+00
  0.00000000E+00  0.00000000E+00  0.00000000E+00
  0.00000000E+00  0.00000000E+00  0.00000000E+00
  0.00000000E+00  0.00000000E+00  0.00000000E+00
  0.00000000E+00  0.00000000E+00  0.00000000E+00
  0.00000000E+00  0.00000000E+00  0.00000000E+00
  0.00000000E+00  0.00000000E+00  0.00000000E+00
  0.00000000E+00  0.00000000E+00  0.00000000E+00
  0.00000000E+00  0.00000000E+00  0.00000000E+00
  0.00000000E+00  0.00000000E+00  0.00000000E+00
  0.00000000E+00  0.00000000E+00  0.00000000E+00
  0.00000000E+00  0.00000000E+00  0.00000000E+00
  0.00000000E+00  0.00000000E+00  0.00000000E+00
  0.00000000E+00  0.00000000E+00  0.00000000E+00
  0.00000000E+00  0.00000000E+00  0.00000000E+00
  0.00000000E+00  0.00000000E+00  0.00000000E+00
  0.00000000E+00  0.00000000E+00  0.00000000E+00
  0.00000000E+00  0.00000000E+00  0.00000000E+00
  0.00000000E+00  0.00000000E+00  0.00000000E+00
  0.00000000E+00  0.00000000E+00  0.00000000E+00
  0.00000000E+00  0.00000000E+00  0.00000000E+00
  0.00000000E+00  0.00000000E+00  0.00000000E+00
  0.00000000E+00  0.00000000E+00  0.00000000E+00
  0.00000000E+00  0.00000000E+00  0.00000000E+00
  0.00000000E+00  0.00000000E+00  0.00000000E+00
  0.00000000E+00  0.00000000E+00  0.00000000E+00
  0.00000000E+00  0.00000000E+00  0.00000000E+00
  0.00000000E+00  0.00000000E+00  0.00000000E+00
  0.00000000E+00  0.00000000E+00  0.00000000E+00
  0.00000000E+00  0.00000000E+00  0.00000000E+00
  0.00000000E+00  0.00000000E+00  0.00000000E+00
  0.00000000E+00  0.00000000E+00  0.00000000E+00
  0.00000000E+00  0.00000000E+00  0.00000000E+00
  0.00000000E+00  0.00000000E+00  0.00000000E+00
  0.00000000E+00  0.00000000E+00  0.00000000E+00
  0.00000000E+00  0.00000000E+00  0.00000000E+00
  0.00000000E+00  0.00000000E+00  0.00000000E+00
  0.00000000E+00  0.00000000E+00  0.00000000E+00
  0.00000000E+00  0.00000000E+00  0.00000000E+00
  0.00000000E+00  0.00000000E+00  0.00000000E+00
  0.00000000E+00  0.00000000E+00  0.00000000E+00
  0.00000000E+00  0.00000000E+00  0.00000000E+00
  0.00000000E+00  0.00000000E+00  0.00000000E+00
  0.00000000E+00  0.00000000E+00  0.00000000E+00
  0.00000000E+00  0.00000000E+00  0.00000000E+00
  0.00000000E+00  0.00000000E+00  0.00000000E+00
  0.00000000E+00  0.00000000E+00  0.00000000E+00
  0.00000000E+00  0.00000000E+00  0.00000000E+00
  0.00000000E+00  0.00000000E+00  0.00000000E+00
  0.00000000E+00  0.00000000E+00  0.00000000E+00
  0.00000000E+00  0.00000000E+00  0.00000000E+00
  0.00000000E+00  0.00000000E+00  0.00000000E+00
  0.00000000E+00  0.00000000E+00  0.00000000E+00
  0.00000000E+00  0.00000000E+00  0.00000000E+00
  0.00000000E+00  0.00000000E+00  0.00000000E+00
  0.00000000E+00  0.00000000E+00  0.00000000E+00
  0.00000000E+00  0.00000000E+00  0.00000000E+00
  0.00000000E+00  0.00000000E+00  0.00000000E+00
  0.00000000E+00  0.00000000E+00  0.00000000E+00
  0.00000000E+00  0.00000000E+00  0.00000000E+00
  0.00000000E+00  0.00000000E+00  0.00000000E+00
  0.00000000E+00  0.00000000E+00  0.00000000E+00
  0.00000000E+00  0.00000000E+00  0.00000000E+00
  0.00000000E+00  0.00000000E+00  0.00000000E+00
  0.00000000E+00  0.00000000E+00  0.00000000E+00
  0.00000000E+00  0.00000000E+00  0.00000000E+00
  0.00000000E+00  0.00000000E+00  0.00000000E+00
  0.00000000E+00  0.00000000E+00  0.00000000E+00
  0.00000000E+00  0.00000000E+00  0.00000000E+00
  0.00000000E+00  0.00000000E+00  0.00000000E+00
  0.00000000E+00  0.00000000E+00  0.00000000E+00
  0.00000000E+00  0.00000000E+00  0.00000000E+00
  0.00000000E+00  0.00000000E+00  0.00000000E+00
  0.00000000E+00  0.00000000E+00  0.00000000E+00
  0.00000000E+00  0.00000000E+00  0.00000000E+00
  0.00000000E+00  0.00000000E+00  0.00000000E+00
  0.00000000E+00  0.00000000E+00  0.00000000E+00
  0.00000000E+00  0.00000000E+00  0.00000000E+00
  0.00000000E+00  0.00000000E+00  0.00000000E+00
  0.00000000E+00  0.00000000E+00  0.00000000E+00
  0.00000000E+00  0.00000000E+00  0.00000000E+00
  0.00000000E+00  0.00000000E+00  0.00000000E+00
  0.00000000E+00  0.00000000E+00  0.00000000E+00
  0.00000000E+00  0.00000000E+00  0.00000000E+00
  0.00000000E+00  0.00000000E+00  0.00000000E+00
  0.00000000E+00  0.00000000E+00  0.00000000E+00
  0.00000000E+00  0.00000000E+00  0.00000000E+00
  0.00000000E+00  0.00000000E+00  0.00000000E+00
  0.00000000E+00  0.00000000E+00  0.00000000E+00
  0.00000000E+00  0.00000000E+00  0.00000000E+00
  0.00000000E+00  0.00000000E+00  0.00000000E+00
  0.00000000E+00  0.00000000E+00  0.00000000E+00
  0.00000000E+00  0.00000000E+00  0.00000000E+00
  0.00000000E+00  0.00000000E+00  0.00000000E+00
  0.00000000E+00  0.00000000E+00  0.00000000E+00
  0.00000000E+00  0.00000000E+00  0.00000000E+00
  0.00000000E+00  0.00000000E+00  0.00000000E+00
  0.00000000E+00  0.00000000E+00  0.00000000E+00
  0.00000000E+00  0.00000000E+00  0.00000000E+00
  0.00000000E+00  0.00000000E+00  0.00000000E+00
  0.00000000E+00  0.00000000E+00  0.00000000E+00
  0.00000000E+00  0.00000000E+00  0.00000000E+00
  0.00000000E+00  0.00000000E+00  0.00000000E+00
  0.00000000E+00  0.00000000E+00  0.00000000E+00
  0.00000000E+00  0.00000000E+00  0.00000000E+00
  0.00000000E+00  0.00000000E+00  0.00000000E+00
  0.00000000E+00  0.00000000E+00  0.00000000E+00
  0.00000000E+00  0.00000000E+00  0.00000000E+00
  0.00000000E+00  0.00000000E+00  0.00000000E+00
  0.00000000E+00  0.00000000E+00  0.00000000E+00
  0.00000000E+00  0.00000000E+00  0.00000000E+00
  0.00000000E+00  0.00000000E+00  0.00000000E+00
  0.00000000E+00  0.00000000E+00  0.00000000E+00
  0.00000000E+00  0.00000000E+00  0.00000000E+00
  0.00000000E+00  0.00000000E+00  0.00000000E+00
  0.00000000E+00  0.00000000E+00  0.00000000E+00
  0.00000000E+00  0.00000000E+00  0.00000000E+00
  0.00000000E+00  0.00000000E+00  0.00000000E+00
  0.00000000E+00  0.00000000E+00  0.00000000E+00
  0.00000000E+00  0.00000000E+00  0.00000000E+00
  0.00000000E+00  0.00000000E+00  0.00000000E+00
  0.00000000E+00  0.00000000E+00  0.00000000E+00
  0.00000000E+00  0.00000000E+00  0.00000000E+00
  0.00000000E+00  0.00000000E+00  0.00000000E+00
  0.00000000E+00  0.00000000E+00  0.00000000E+00
  0.00000000E+00  0.00000000E+00  0.00000000E+00
