W1 C124 N2                              
   1.00000000000000     
    19.8233606690989745   -0.0214793227874033    0.0012951601236854
    -9.9303835170774200   17.0579397489427649   -0.0003065256250807
     0.0019498707334726    0.0005966128897762   29.7764058304037356
   W    C    N 
     1   124     2
Direct
  0.4374899745044467  0.4999994468345528  0.4306525670670762
  0.0421604214083904  0.0840967462452167  0.3998492651752610
  0.0415216549872824  0.2084941893465093  0.3996635929467859
  0.0406738807720110  0.3330878906556993  0.3996167613351845
  0.0403832987152060  0.4582870099144081  0.3997719971050265
  0.0411908421224119  0.5837436384021043  0.3999082363723792
  0.0418723382924290  0.7090725720409891  0.3999711701851556
  0.0421115916527272  0.8341784053461320  0.3999987147651207
  0.0422105471261121  0.9592810708243115  0.3999709901433174
  0.1679690412728168  0.0853322758894051  0.3999492374221073
  0.1678665587786503  0.2103641269374446  0.3996737406328960
  0.1660864012185851  0.3341719818662282  0.3992249879055894
  0.1640087998409050  0.4587487440532510  0.3993201749577623
  0.1649117506017426  0.5838883827727782  0.3995369622167378
  0.1661534205143541  0.7090195592614124  0.3998711708815096
  0.1667781384175805  0.8341902335895544  0.3999742236923096
  0.1671833169559968  0.9594731308378591  0.4000147043185506
  0.2923477684692483  0.0847802147861374  0.3999442695314073
  0.2940903729360697  0.2118003697843212  0.4004603602211148
  0.2939973463588896  0.3381288700682634  0.4010707225920393
  0.2878200478454325  0.4600640366838265  0.4002777522041874
  0.2883492285988071  0.5843455759757513  0.4002739170381557
  0.2905889530839530  0.7090962991612161  0.3999372497294670
  0.2914876911838332  0.8340654842357967  0.3998267763532595
  0.2918756351753492  0.9591657495492495  0.3999045693817552
  0.4169481485132423  0.0836574844096411  0.3997183742038234
  0.4175840556273553  0.2093297542490116  0.3998988471925757
  0.4204961814645603  0.3365878539590201  0.4029811896143201
  0.4147746836000945  0.7071120479860250  0.4007984888639420
  0.4161355393067286  0.8328802340086194  0.3996644281771449
  0.4166038656618036  0.9582915929717448  0.3998044315750328
  0.5416286909159298  0.0826107232352712  0.3998533379079688
  0.5420965165272593  0.2076480621460122  0.3997942044427689
  0.5435176418021043  0.3324460584315014  0.4005213318301779
  0.5463674017872909  0.4565003458547929  0.4019823009286818
  0.5437544129364639  0.5789562517337993  0.4023894803334495
  0.5381080307874844  0.7036178938651436  0.4016984332946951
  0.5406167246869336  0.8313840053071170  0.4000979051100282
  0.5412798011381953  0.9573121384699139  0.3998630116277666
  0.6663516407239983  0.0822993879894895  0.4000043158433714
  0.6667870707785537  0.2074394222276923  0.3999388068471563
  0.6678163108137810  0.3326943444853449  0.3997781250962549
  0.6696042997784483  0.4580858128630838  0.3993902554118496
  0.6695172459094569  0.5824469396384979  0.3992299883899507
  0.6655049827638685  0.7059096235125009  0.3995965359739418
  0.6647730222825807  0.8307805623563376  0.3999790824373734
  0.6658720079875285  0.9568768414087248  0.4000090167578393
  0.7911503534283351  0.0823428096914111  0.3999895646602558
  0.7913932635549683  0.2075028387406495  0.3999892111582361
  0.7919973013712779  0.3327572183480343  0.3999226645761643
  0.7929536437397758  0.4581404556202107  0.3997162858341232
  0.7936515205264043  0.5835232788557636  0.3995325712146999
  0.7922432877212574  0.7081843147143283  0.3994456452718408
  0.7908638067627068  0.8322092643104425  0.3996930541442326
  0.7907618181062795  0.9570042075205600  0.3998916831017785
  0.9162442492638936  0.0827979475153137  0.3999260112588043
  0.9161445312698899  0.2076422590216188  0.3999225058032485
  0.9161642954605455  0.3328103725641531  0.3999562538546197
  0.9166857636359153  0.4582498001498217  0.3999619874865653
  0.9174220696811036  0.5836939015421617  0.3999331756714685
  0.9173484756681903  0.7088309009355837  0.3998748710030263
  0.9170055407499210  0.8336972396146339  0.3998889464093474
  0.9165253731179422  0.9582286565887210  0.3999027421200662
  0.0842381963981998  0.0429983792445901  0.3999167809502337
  0.0841412328237415  0.1677940256019302  0.3996939939583605
  0.0827541014442892  0.2918144041739348  0.3994356292153206
  0.0813426876165805  0.4164767992186192  0.3995399846593095
  0.0820442372108949  0.5418658960139539  0.3997243000467511
  0.0830027800397468  0.6672451482562105  0.3999119933750639
  0.0836050007187358  0.7924881782161017  0.3999890381065336
  0.0838447906810351  0.9176530597279043  0.4000045121173494
  0.2091252833787674  0.0431244082318747  0.4000118135482738
  0.2102353897771222  0.1692258179203027  0.3999869586166231
  0.2094951988532407  0.2940912365652728  0.3995950894128292
  0.2054771905186287  0.4175469778230986  0.3992283128501385
  0.2053960926955171  0.5419110068222884  0.3993919350767642
  0.2071872338482055  0.6673055139471129  0.3997679962053916
  0.2082153787645855  0.7925612065239596  0.3999143560938243
  0.2086338091878484  0.9176900010780408  0.3999802736932028
  0.3337182812955626  0.0426853243314610  0.3998478778033002
  0.3343876997610025  0.1686192767536168  0.4000881742323552
  0.3368955858305678  0.2963895819508557  0.4017001691341786
  0.3312459211204120  0.4210457041043992  0.4023743616358775
  0.3286365777008947  0.5434979075258952  0.4019751624334759
  0.3314872477833861  0.6675548782119642  0.4005124669106356
  0.3329156371235599  0.7923549911905878  0.3997868673874167
  0.3333764360215127  0.9173911331591070  0.3998330407087050
  0.4583965362559219  0.0417052075062597  0.3998031836719348
  0.4588683766032397  0.1671191122114954  0.3996619795048645
  0.4602265952749637  0.2928901861789436  0.4008031437570769
  0.4545014322572226  0.6634123845042077  0.4029731777711297
  0.4574167760744141  0.7906700360868497  0.3999063893846417
  0.4580461065725047  0.9163383914448658  0.3997327461047098
  0.5831288487110615  0.0408344458021672  0.3999339749129770
  0.5835158693530891  0.1659344829650441  0.3998422914927603
  0.5844141905595637  0.2909041549821408  0.3999460410863454
  0.5866518626595750  0.4156510123454731  0.4002808436386687
  0.5871808635097266  0.5399347306051140  0.4002876899728102
  0.5810060639422684  0.6618757684135389  0.4010713880814168
  0.5809123826091805  0.7882040870169171  0.4004585687326270
  0.5826456816131179  0.9152200314437723  0.3999557540475644
  0.7078171776936407  0.0405277299146445  0.4000141837466161
  0.7082192737045715  0.1658080977174781  0.3999960943185960
  0.7088514089742018  0.2909817106852875  0.3998880620391932
  0.7100921222639877  0.4161140243154468  0.3995338797403787
  0.7109907133561297  0.5412491236863275  0.3993158199271090
  0.7089160193473563  0.6658218702631757  0.3992295121352956
  0.7071395606069718  0.7896361510710581  0.3996690569503271
  0.7070363195425262  0.9146716086191303  0.3999320985961915
  0.8327889442279425  0.0407208899768025  0.3999445222354899
  0.8328840933777076  0.1658262496653506  0.3999824992410539
  0.8331275601891152  0.2909281280337883  0.3999754771967299
  0.8338088642287959  0.4162615727149935  0.3999094563640875
  0.8346110569885037  0.5417144472805540  0.3997622725309415
  0.8343220700530626  0.6669065784992105  0.3996203568571745
  0.8334790117139272  0.7914985194471817  0.3996759850900333
  0.8328421214394989  0.9159067511932040  0.3998385256136728
  0.9584761194266129  0.0417720707634825  0.3999020900726036
  0.9579952622522605  0.1663040669767983  0.3998693735899694
  0.9576463102524593  0.2911652421604687  0.3998667473463963
  0.9575753084138264  0.4163098491813310  0.3999401950444094
  0.9583096134623972  0.5417551182777727  0.3999606063022452
  0.9588310030183065  0.6671869627362755  0.3999548169996797
  0.9588536285235620  0.7923516857857712  0.3999389084645175
  0.9587544825244371  0.9172029918063396  0.3999356483666388
  0.4094143488604339  0.5819097804149518  0.4071282872831283
  0.4655854382826669  0.4180870388082161  0.4071430840133243
 
  0.00000000E+00  0.00000000E+00  0.00000000E+00
  0.00000000E+00  0.00000000E+00  0.00000000E+00
  0.00000000E+00  0.00000000E+00  0.00000000E+00
  0.00000000E+00  0.00000000E+00  0.00000000E+00
  0.00000000E+00  0.00000000E+00  0.00000000E+00
  0.00000000E+00  0.00000000E+00  0.00000000E+00
  0.00000000E+00  0.00000000E+00  0.00000000E+00
  0.00000000E+00  0.00000000E+00  0.00000000E+00
  0.00000000E+00  0.00000000E+00  0.00000000E+00
  0.00000000E+00  0.00000000E+00  0.00000000E+00
  0.00000000E+00  0.00000000E+00  0.00000000E+00
  0.00000000E+00  0.00000000E+00  0.00000000E+00
  0.00000000E+00  0.00000000E+00  0.00000000E+00
  0.00000000E+00  0.00000000E+00  0.00000000E+00
  0.00000000E+00  0.00000000E+00  0.00000000E+00
  0.00000000E+00  0.00000000E+00  0.00000000E+00
  0.00000000E+00  0.00000000E+00  0.00000000E+00
  0.00000000E+00  0.00000000E+00  0.00000000E+00
  0.00000000E+00  0.00000000E+00  0.00000000E+00
  0.00000000E+00  0.00000000E+00  0.00000000E+00
  0.00000000E+00  0.00000000E+00  0.00000000E+00
  0.00000000E+00  0.00000000E+00  0.00000000E+00
  0.00000000E+00  0.00000000E+00  0.00000000E+00
  0.00000000E+00  0.00000000E+00  0.00000000E+00
  0.00000000E+00  0.00000000E+00  0.00000000E+00
  0.00000000E+00  0.00000000E+00  0.00000000E+00
  0.00000000E+00  0.00000000E+00  0.00000000E+00
  0.00000000E+00  0.00000000E+00  0.00000000E+00
  0.00000000E+00  0.00000000E+00  0.00000000E+00
  0.00000000E+00  0.00000000E+00  0.00000000E+00
  0.00000000E+00  0.00000000E+00  0.00000000E+00
  0.00000000E+00  0.00000000E+00  0.00000000E+00
  0.00000000E+00  0.00000000E+00  0.00000000E+00
  0.00000000E+00  0.00000000E+00  0.00000000E+00
  0.00000000E+00  0.00000000E+00  0.00000000E+00
  0.00000000E+00  0.00000000E+00  0.00000000E+00
  0.00000000E+00  0.00000000E+00  0.00000000E+00
  0.00000000E+00  0.00000000E+00  0.00000000E+00
  0.00000000E+00  0.00000000E+00  0.00000000E+00
  0.00000000E+00  0.00000000E+00  0.00000000E+00
  0.00000000E+00  0.00000000E+00  0.00000000E+00
  0.00000000E+00  0.00000000E+00  0.00000000E+00
  0.00000000E+00  0.00000000E+00  0.00000000E+00
  0.00000000E+00  0.00000000E+00  0.00000000E+00
  0.00000000E+00  0.00000000E+00  0.00000000E+00
  0.00000000E+00  0.00000000E+00  0.00000000E+00
  0.00000000E+00  0.00000000E+00  0.00000000E+00
  0.00000000E+00  0.00000000E+00  0.00000000E+00
  0.00000000E+00  0.00000000E+00  0.00000000E+00
  0.00000000E+00  0.00000000E+00  0.00000000E+00
  0.00000000E+00  0.00000000E+00  0.00000000E+00
  0.00000000E+00  0.00000000E+00  0.00000000E+00
  0.00000000E+00  0.00000000E+00  0.00000000E+00
  0.00000000E+00  0.00000000E+00  0.00000000E+00
  0.00000000E+00  0.00000000E+00  0.00000000E+00
  0.00000000E+00  0.00000000E+00  0.00000000E+00
  0.00000000E+00  0.00000000E+00  0.00000000E+00
  0.00000000E+00  0.00000000E+00  0.00000000E+00
  0.00000000E+00  0.00000000E+00  0.00000000E+00
  0.00000000E+00  0.00000000E+00  0.00000000E+00
  0.00000000E+00  0.00000000E+00  0.00000000E+00
  0.00000000E+00  0.00000000E+00  0.00000000E+00
  0.00000000E+00  0.00000000E+00  0.00000000E+00
  0.00000000E+00  0.00000000E+00  0.00000000E+00
  0.00000000E+00  0.00000000E+00  0.00000000E+00
  0.00000000E+00  0.00000000E+00  0.00000000E+00
  0.00000000E+00  0.00000000E+00  0.00000000E+00
  0.00000000E+00  0.00000000E+00  0.00000000E+00
  0.00000000E+00  0.00000000E+00  0.00000000E+00
  0.00000000E+00  0.00000000E+00  0.00000000E+00
  0.00000000E+00  0.00000000E+00  0.00000000E+00
  0.00000000E+00  0.00000000E+00  0.00000000E+00
  0.00000000E+00  0.00000000E+00  0.00000000E+00
  0.00000000E+00  0.00000000E+00  0.00000000E+00
  0.00000000E+00  0.00000000E+00  0.00000000E+00
  0.00000000E+00  0.00000000E+00  0.00000000E+00
  0.00000000E+00  0.00000000E+00  0.00000000E+00
  0.00000000E+00  0.00000000E+00  0.00000000E+00
  0.00000000E+00  0.00000000E+00  0.00000000E+00
  0.00000000E+00  0.00000000E+00  0.00000000E+00
  0.00000000E+00  0.00000000E+00  0.00000000E+00
  0.00000000E+00  0.00000000E+00  0.00000000E+00
  0.00000000E+00  0.00000000E+00  0.00000000E+00
  0.00000000E+00  0.00000000E+00  0.00000000E+00
  0.00000000E+00  0.00000000E+00  0.00000000E+00
  0.00000000E+00  0.00000000E+00  0.00000000E+00
  0.00000000E+00  0.00000000E+00  0.00000000E+00
  0.00000000E+00  0.00000000E+00  0.00000000E+00
  0.00000000E+00  0.00000000E+00  0.00000000E+00
  0.00000000E+00  0.00000000E+00  0.00000000E+00
  0.00000000E+00  0.00000000E+00  0.00000000E+00
  0.00000000E+00  0.00000000E+00  0.00000000E+00
  0.00000000E+00  0.00000000E+00  0.00000000E+00
  0.00000000E+00  0.00000000E+00  0.00000000E+00
  0.00000000E+00  0.00000000E+00  0.00000000E+00
  0.00000000E+00  0.00000000E+00  0.00000000E+00
  0.00000000E+00  0.00000000E+00  0.00000000E+00
  0.00000000E+00  0.00000000E+00  0.00000000E+00
  0.00000000E+00  0.00000000E+00  0.00000000E+00
  0.00000000E+00  0.00000000E+00  0.00000000E+00
  0.00000000E+00  0.00000000E+00  0.00000000E+00
  0.00000000E+00  0.00000000E+00  0.00000000E+00
  0.00000000E+00  0.00000000E+00  0.00000000E+00
  0.00000000E+00  0.00000000E+00  0.00000000E+00
  0.00000000E+00  0.00000000E+00  0.00000000E+00
  0.00000000E+00  0.00000000E+00  0.00000000E+00
  0.00000000E+00  0.00000000E+00  0.00000000E+00
  0.00000000E+00  0.00000000E+00  0.00000000E+00
  0.00000000E+00  0.00000000E+00  0.00000000E+00
  0.00000000E+00  0.00000000E+00  0.00000000E+00
  0.00000000E+00  0.00000000E+00  0.00000000E+00
  0.00000000E+00  0.00000000E+00  0.00000000E+00
  0.00000000E+00  0.00000000E+00  0.00000000E+00
  0.00000000E+00  0.00000000E+00  0.00000000E+00
  0.00000000E+00  0.00000000E+00  0.00000000E+00
  0.00000000E+00  0.00000000E+00  0.00000000E+00
  0.00000000E+00  0.00000000E+00  0.00000000E+00
  0.00000000E+00  0.00000000E+00  0.00000000E+00
  0.00000000E+00  0.00000000E+00  0.00000000E+00
  0.00000000E+00  0.00000000E+00  0.00000000E+00
  0.00000000E+00  0.00000000E+00  0.00000000E+00
  0.00000000E+00  0.00000000E+00  0.00000000E+00
  0.00000000E+00  0.00000000E+00  0.00000000E+00
  0.00000000E+00  0.00000000E+00  0.00000000E+00
  0.00000000E+00  0.00000000E+00  0.00000000E+00
  0.00000000E+00  0.00000000E+00  0.00000000E+00
  0.00000000E+00  0.00000000E+00  0.00000000E+00
