H1 Rh1 C122 N4                          
   1.00000000000000     
    19.8439559123008635    0.0000328810611951    0.0019640561452872
    -9.9219487286945096   17.0219134381749413   -0.0062399340152614
     0.0029430738299808   -0.0092045410071896   29.7896290721018140
   H    Rh   C    N 
     1     1   122     4
Direct
  0.4376200987058677  0.5001957483870331  0.4621010562783622
  0.4374860474892541  0.5000261565265628  0.4107540520884740
  0.0421022824610113  0.0842865502987151  0.3998391929067509
  0.0407297242025330  0.2080741333190890  0.4000286963717855
  0.0397052143171114  0.3327341273448386  0.3996916892873085
  0.0398655836141249  0.4581601591365495  0.3990752058521445
  0.0411091479953082  0.5839043724524898  0.3989061470286702
  0.0422790139832820  0.7095367021767671  0.3992275661556663
  0.0427013872007782  0.8348417696635279  0.3994463373905922
  0.0427800467011136  0.9599954407140859  0.3995109970103178
  0.1684885867784244  0.0863750627312838  0.4007028772944857
  0.1674679046985004  0.2106185894524661  0.4018724466960384
  0.1642936621870482  0.3335336450562948  0.4022449418160292
  0.1629292465150685  0.4584462479836062  0.4010805928687589
  0.1643961744211580  0.5838315840894671  0.3997164205347782
  0.1662178958572020  0.7092800389078383  0.3992932888371121
  0.1671766912202661  0.8348467068227953  0.3994380270399322
  0.1678010914266372  0.9605201553691949  0.3998119780691770
  0.2929400063163741  0.0863679904577612  0.4006737349272055
  0.2945707133304454  0.2141248121491803  0.4031970906121045
  0.2921145005248927  0.3391920101992988  0.4054704768832179
  0.2852547169904740  0.4580440509158555  0.4054530281240195
  0.2870786612341618  0.5832503346041281  0.4029350678862266
  0.2901709700041801  0.7086221727838500  0.4004797040962885
  0.2915564506277665  0.8341850398801558  0.3994292643487649
  0.2923054742813930  0.9600015947789983  0.3995087006589349
  0.4172524565807439  0.0842920195171689  0.3998653706590183
  0.4181609898607007  0.2106228428271195  0.4019068796522197
  0.4220489826244238  0.3392027763595598  0.4054866308402456
  0.4140290631628545  0.7058406641140508  0.4031838478811678
  0.4158661740249447  0.8321289462974920  0.4004992640425224
  0.4166613118065305  0.9582500233128851  0.3993895008755532
  0.5415875127477484  0.0823249661461901  0.3993548846376956
  0.5423613247990867  0.2080826840266236  0.4000536453630353
  0.5442017051659945  0.3335277149713439  0.4022558814536419
  0.5477384626728505  0.4580460259359321  0.4054161898539806
  0.5378306488611868  0.7006785842334657  0.4051768889520685
  0.5401549938774386  0.8295554645388067  0.4019803813567818
  0.5409705202891744  0.9562354543891350  0.3999463133230218
  0.6659910775553853  0.0815042909973308  0.3995947668516335
  0.6666627979671965  0.2071203601480891  0.3993669950027133
  0.6680006440957624  0.3327291163809321  0.3996766055653052
  0.6704699861513910  0.4584419151312771  0.4010317061228900
  0.6711255669165155  0.5832600573714375  0.4029001503190076
  0.6667748998757769  0.7058319100978888  0.4032192799228436
  0.6644368422678238  0.8295646636629500  0.4019697207857645
  0.6653881566529474  0.9557071375226004  0.4003871112682844
  0.7905932917719760  0.0814972310185628  0.3995906529322664
  0.7909769297744131  0.2069190919048792  0.3994313708293241
  0.7918308694045446  0.3324814886102223  0.3991053456353936
  0.7932475806160656  0.4581588625500261  0.3990493329182651
  0.7943855762835085  0.5838340387086871  0.3996864823999182
  0.7934238775274516  0.7086227064990264  0.4004850659295234
  0.7912800817683256  0.8321170505760407  0.4005361248269377
  0.7903264225986795  0.9562410136139765  0.3999443112984064
  0.9158117761844385  0.0823102940868949  0.3993496402492902
  0.9154774969478641  0.2071022536518252  0.3993578425198656
  0.9156623328077147  0.3324829784481968  0.3991132223647851
  0.9165843494573090  0.4581966925793522  0.3987801690842041
  0.9177554008166879  0.5839092796557295  0.3988831304248965
  0.9180515195561968  0.7092647155371599  0.3992892072516713
  0.9176553546555113  0.8341665938152047  0.3994434381403617
  0.9166625363633880  0.9582318926313174  0.3993986219124712
  0.0847443723036304  0.0437794888498600  0.3999405711129474
  0.0837473834031171  0.1678877412257076  0.4005006358275052
  0.0815599022471725  0.2913928640863208  0.4004834632031941
  0.0805759798145926  0.4161846932661745  0.3997169512236811
  0.0817102929239003  0.5418526708859025  0.3990763088241197
  0.0831822600208202  0.6675295025113267  0.3991186149696240
  0.0840647464671659  0.7930950001299191  0.3994307101316990
  0.0844946625151715  0.9185098499386020  0.3995870463866799
  0.2096886782196881  0.0443102159269793  0.4003827785756527
  0.2106098868243105  0.1704646698557846  0.4019909694901696
  0.2082020732810997  0.2941845207927392  0.4032038677166289
  0.2038430607960241  0.4167756953710258  0.4029437432278567
  0.2044921206173895  0.5415744141051155  0.4010783787758557
  0.2069763210782667  0.6672822554079565  0.3996913633588210
  0.2083799129825953  0.7929116365464597  0.3993553711521460
  0.2091027278289121  0.9185189967081043  0.3995828234389481
  0.3340901330947408  0.0437734174060705  0.3999407400697748
  0.3348812572211639  0.1704560125881665  0.4019843254468345
  0.3371629808460069  0.2993500583230466  0.4052061388661873
  0.3272267887462799  0.5419896031300124  0.4054428421546164
  0.3307710783083630  0.6664909536925486  0.4022313027858413
  0.3326617758504428  0.7919422718856816  0.4000277674978343
  0.3335055199054484  0.9177034334762122  0.3993476314277530
  0.4584357199699065  0.0417811314948882  0.3993996560823038
  0.4591712406862924  0.1678990256898521  0.4005425835874644
  0.4609520672864726  0.2941917387918391  0.4032423480368348
  0.4529389062424012  0.6608405754092405  0.4054421245738084
  0.4568594514848272  0.7894031645210446  0.4018627411756013
  0.4578195552128365  0.9157283465252124  0.3998427441706484
  0.5827889122722955  0.0400162888853051  0.3995180081266440
  0.5834969096081484  0.1658470654423539  0.3994399721732773
  0.5848088745501105  0.2913943813550542  0.4004884158982904
  0.5878744678995720  0.4167625388361657  0.4029095552417578
  0.5897047983035579  0.5419800136107242  0.4054044620517616
  0.5828626390692700  0.6608250394670353  0.4054556962823819
  0.5804575631812218  0.7858976418637073  0.4031755180074992
  0.5821212106438162  0.9136433928013857  0.4007047407330641
  0.7072887352867819  0.0394956993545661  0.3998226533653225
  0.7078661735962891  0.1651712634564467  0.3994491248028118
  0.7087938651453358  0.2907475855062364  0.3992849963300150
  0.7105579836660590  0.4161806894179922  0.3996851740818577
  0.7120366783291781  0.5415746427936756  0.4010312588787731
  0.7106850960330418  0.6664924337554572  0.4022424740182718
  0.7075485660577615  0.7893983090028772  0.4018919510896483
  0.7065812822001583  0.9136508955138697  0.4006727620579889
  0.8323146680062433  0.0400152939944092  0.3995157550190736
  0.8323385156259365  0.1651681388652719  0.3994430501936417
  0.8327498525621154  0.2904755933127133  0.3992244239783423
  0.8338525490928370  0.4161036499676747  0.3988796080628669
  0.8350943157020567  0.5418538248277458  0.3990522723747421
  0.8352781652025499  0.6672845131094550  0.3996780832786069
  0.8342876567590035  0.7919346029579729  0.4000523717307009
  0.8329697824674349  0.9157226197468872  0.3998652977705885
  0.9584227028999376  0.0417656379925470  0.3993861287639227
  0.9573811091764738  0.1658287260897880  0.3994298249296387
  0.9569480993968532  0.2907336849135920  0.3992915142747399
  0.9572130309398496  0.4161084782103983  0.3989036047881925
  0.9583921063054912  0.5418158558281675  0.3987819231056329
  0.9593549144108907  0.6675321048542422  0.3991101544507205
  0.9595491972249287  0.7928936926864416  0.3993703435591647
  0.9592720510137326  0.9176913253353574  0.3993538319915891
  0.4073473769430044  0.5805411166079265  0.4070614155112383
  0.5481412255165361  0.5805306356260521  0.4070413756843341
  0.3268250395278751  0.4194961616781815  0.4070882164018836
  0.4676242216296536  0.4195025157193541  0.4070689431898718
 
  0.00000000E+00  0.00000000E+00  0.00000000E+00
  0.00000000E+00  0.00000000E+00  0.00000000E+00
  0.00000000E+00  0.00000000E+00  0.00000000E+00
  0.00000000E+00  0.00000000E+00  0.00000000E+00
  0.00000000E+00  0.00000000E+00  0.00000000E+00
  0.00000000E+00  0.00000000E+00  0.00000000E+00
  0.00000000E+00  0.00000000E+00  0.00000000E+00
  0.00000000E+00  0.00000000E+00  0.00000000E+00
  0.00000000E+00  0.00000000E+00  0.00000000E+00
  0.00000000E+00  0.00000000E+00  0.00000000E+00
  0.00000000E+00  0.00000000E+00  0.00000000E+00
  0.00000000E+00  0.00000000E+00  0.00000000E+00
  0.00000000E+00  0.00000000E+00  0.00000000E+00
  0.00000000E+00  0.00000000E+00  0.00000000E+00
  0.00000000E+00  0.00000000E+00  0.00000000E+00
  0.00000000E+00  0.00000000E+00  0.00000000E+00
  0.00000000E+00  0.00000000E+00  0.00000000E+00
  0.00000000E+00  0.00000000E+00  0.00000000E+00
  0.00000000E+00  0.00000000E+00  0.00000000E+00
  0.00000000E+00  0.00000000E+00  0.00000000E+00
  0.00000000E+00  0.00000000E+00  0.00000000E+00
  0.00000000E+00  0.00000000E+00  0.00000000E+00
  0.00000000E+00  0.00000000E+00  0.00000000E+00
  0.00000000E+00  0.00000000E+00  0.00000000E+00
  0.00000000E+00  0.00000000E+00  0.00000000E+00
  0.00000000E+00  0.00000000E+00  0.00000000E+00
  0.00000000E+00  0.00000000E+00  0.00000000E+00
  0.00000000E+00  0.00000000E+00  0.00000000E+00
  0.00000000E+00  0.00000000E+00  0.00000000E+00
  0.00000000E+00  0.00000000E+00  0.00000000E+00
  0.00000000E+00  0.00000000E+00  0.00000000E+00
  0.00000000E+00  0.00000000E+00  0.00000000E+00
  0.00000000E+00  0.00000000E+00  0.00000000E+00
  0.00000000E+00  0.00000000E+00  0.00000000E+00
  0.00000000E+00  0.00000000E+00  0.00000000E+00
  0.00000000E+00  0.00000000E+00  0.00000000E+00
  0.00000000E+00  0.00000000E+00  0.00000000E+00
  0.00000000E+00  0.00000000E+00  0.00000000E+00
  0.00000000E+00  0.00000000E+00  0.00000000E+00
  0.00000000E+00  0.00000000E+00  0.00000000E+00
  0.00000000E+00  0.00000000E+00  0.00000000E+00
  0.00000000E+00  0.00000000E+00  0.00000000E+00
  0.00000000E+00  0.00000000E+00  0.00000000E+00
  0.00000000E+00  0.00000000E+00  0.00000000E+00
  0.00000000E+00  0.00000000E+00  0.00000000E+00
  0.00000000E+00  0.00000000E+00  0.00000000E+00
  0.00000000E+00  0.00000000E+00  0.00000000E+00
  0.00000000E+00  0.00000000E+00  0.00000000E+00
  0.00000000E+00  0.00000000E+00  0.00000000E+00
  0.00000000E+00  0.00000000E+00  0.00000000E+00
  0.00000000E+00  0.00000000E+00  0.00000000E+00
  0.00000000E+00  0.00000000E+00  0.00000000E+00
  0.00000000E+00  0.00000000E+00  0.00000000E+00
  0.00000000E+00  0.00000000E+00  0.00000000E+00
  0.00000000E+00  0.00000000E+00  0.00000000E+00
  0.00000000E+00  0.00000000E+00  0.00000000E+00
  0.00000000E+00  0.00000000E+00  0.00000000E+00
  0.00000000E+00  0.00000000E+00  0.00000000E+00
  0.00000000E+00  0.00000000E+00  0.00000000E+00
  0.00000000E+00  0.00000000E+00  0.00000000E+00
  0.00000000E+00  0.00000000E+00  0.00000000E+00
  0.00000000E+00  0.00000000E+00  0.00000000E+00
  0.00000000E+00  0.00000000E+00  0.00000000E+00
  0.00000000E+00  0.00000000E+00  0.00000000E+00
  0.00000000E+00  0.00000000E+00  0.00000000E+00
  0.00000000E+00  0.00000000E+00  0.00000000E+00
  0.00000000E+00  0.00000000E+00  0.00000000E+00
  0.00000000E+00  0.00000000E+00  0.00000000E+00
  0.00000000E+00  0.00000000E+00  0.00000000E+00
  0.00000000E+00  0.00000000E+00  0.00000000E+00
  0.00000000E+00  0.00000000E+00  0.00000000E+00
  0.00000000E+00  0.00000000E+00  0.00000000E+00
  0.00000000E+00  0.00000000E+00  0.00000000E+00
  0.00000000E+00  0.00000000E+00  0.00000000E+00
  0.00000000E+00  0.00000000E+00  0.00000000E+00
  0.00000000E+00  0.00000000E+00  0.00000000E+00
  0.00000000E+00  0.00000000E+00  0.00000000E+00
  0.00000000E+00  0.00000000E+00  0.00000000E+00
  0.00000000E+00  0.00000000E+00  0.00000000E+00
  0.00000000E+00  0.00000000E+00  0.00000000E+00
  0.00000000E+00  0.00000000E+00  0.00000000E+00
  0.00000000E+00  0.00000000E+00  0.00000000E+00
  0.00000000E+00  0.00000000E+00  0.00000000E+00
  0.00000000E+00  0.00000000E+00  0.00000000E+00
  0.00000000E+00  0.00000000E+00  0.00000000E+00
  0.00000000E+00  0.00000000E+00  0.00000000E+00
  0.00000000E+00  0.00000000E+00  0.00000000E+00
  0.00000000E+00  0.00000000E+00  0.00000000E+00
  0.00000000E+00  0.00000000E+00  0.00000000E+00
  0.00000000E+00  0.00000000E+00  0.00000000E+00
  0.00000000E+00  0.00000000E+00  0.00000000E+00
  0.00000000E+00  0.00000000E+00  0.00000000E+00
  0.00000000E+00  0.00000000E+00  0.00000000E+00
  0.00000000E+00  0.00000000E+00  0.00000000E+00
  0.00000000E+00  0.00000000E+00  0.00000000E+00
  0.00000000E+00  0.00000000E+00  0.00000000E+00
  0.00000000E+00  0.00000000E+00  0.00000000E+00
  0.00000000E+00  0.00000000E+00  0.00000000E+00
  0.00000000E+00  0.00000000E+00  0.00000000E+00
  0.00000000E+00  0.00000000E+00  0.00000000E+00
  0.00000000E+00  0.00000000E+00  0.00000000E+00
  0.00000000E+00  0.00000000E+00  0.00000000E+00
  0.00000000E+00  0.00000000E+00  0.00000000E+00
  0.00000000E+00  0.00000000E+00  0.00000000E+00
  0.00000000E+00  0.00000000E+00  0.00000000E+00
  0.00000000E+00  0.00000000E+00  0.00000000E+00
  0.00000000E+00  0.00000000E+00  0.00000000E+00
  0.00000000E+00  0.00000000E+00  0.00000000E+00
  0.00000000E+00  0.00000000E+00  0.00000000E+00
  0.00000000E+00  0.00000000E+00  0.00000000E+00
  0.00000000E+00  0.00000000E+00  0.00000000E+00
  0.00000000E+00  0.00000000E+00  0.00000000E+00
  0.00000000E+00  0.00000000E+00  0.00000000E+00
  0.00000000E+00  0.00000000E+00  0.00000000E+00
  0.00000000E+00  0.00000000E+00  0.00000000E+00
  0.00000000E+00  0.00000000E+00  0.00000000E+00
  0.00000000E+00  0.00000000E+00  0.00000000E+00
  0.00000000E+00  0.00000000E+00  0.00000000E+00
  0.00000000E+00  0.00000000E+00  0.00000000E+00
  0.00000000E+00  0.00000000E+00  0.00000000E+00
  0.00000000E+00  0.00000000E+00  0.00000000E+00
  0.00000000E+00  0.00000000E+00  0.00000000E+00
  0.00000000E+00  0.00000000E+00  0.00000000E+00
  0.00000000E+00  0.00000000E+00  0.00000000E+00
  0.00000000E+00  0.00000000E+00  0.00000000E+00
  0.00000000E+00  0.00000000E+00  0.00000000E+00
  0.00000000E+00  0.00000000E+00  0.00000000E+00
  0.00000000E+00  0.00000000E+00  0.00000000E+00
