La1 H1 C125 N1                          
   1.00000000000000     
    19.7815970999559489   -0.0166577154116460    0.1454123181025733
    -9.9044815556907491   17.0919245204602142   -0.1075325573263581
     0.2184877870982045   -0.0604085599900039   29.7774121078627907
   La   H    C    N 
     1     1   125     1
Direct
  0.4368917124185803  0.5079419399127032  0.4590763198376756
  0.4893659960070779  0.5328358555000097  0.5270682953639789
  0.0417407133608736  0.0837345604498908  0.3999396771068743
  0.0416813252509955  0.2085505940976556  0.3996281577829054
  0.0414882079835356  0.3332415978818896  0.3991218778280227
  0.0413813005148582  0.4583485730453925  0.3988121456218200
  0.0413724898654275  0.5835232656106497  0.3991023537400397
  0.0415508526698635  0.7086585879183704  0.3994416617535499
  0.0417179608704659  0.8338516498406849  0.3996720697433662
  0.0418295593854046  0.9589043203665897  0.3998014639692283
  0.1670334960027969  0.0843134241418823  0.4001153634048888
  0.1670322619902196  0.2091712248027417  0.4002125677493233
  0.1670342364218643  0.3341956036362700  0.3991580481791612
  0.1662121604798570  0.4586564196762269  0.3980855075908870
  0.1658304121435383  0.5836638693862908  0.3979116378613595
  0.1662004435671818  0.7088495881301550  0.3989342179938160
  0.1665585771572911  0.8339945161918557  0.3997169374687962
  0.1668470940816310  0.9591352890843775  0.3999876700501674
  0.2920343306735134  0.0841213005483888  0.4001144263866251
  0.2926033019302785  0.2098261270975512  0.4012033673545507
  0.2928377962084787  0.3355258792621512  0.4012832967587805
  0.2925652564555122  0.4595649411885394  0.3991684398577477
  0.2900357715890157  0.5846149449986060  0.3976005147796467
  0.2907675287205615  0.7092292545406161  0.3983784105208811
  0.2913350046376151  0.8339614594639529  0.3992563379380182
  0.2916321598637569  0.9589383373469211  0.3997442207247872
  0.4168061577478305  0.0834437550397801  0.3996812216516878
  0.4171254105249078  0.2084505126344313  0.4001429641694856
  0.4182617850776585  0.3344493084483803  0.4040436521981290
  0.4152308432977883  0.7085911506614874  0.3997956872936248
  0.4160905583582123  0.8334831318405019  0.3993476764339872
  0.4164390490022710  0.9584326142729106  0.3996546716241716
  0.5415995318535025  0.0828114113061952  0.3995433595471721
  0.5419758899709084  0.2078625079725139  0.3992411120650438
  0.5423536352461980  0.3328487004369142  0.3997057560118065
  0.5424304258444567  0.4572740388214425  0.4023641421750829
  0.5437683773192212  0.5814039207624007  0.4072020469586042
  0.5391954310300712  0.7052395629596417  0.4043429220928765
  0.5406437974542688  0.8320574648161468  0.4006880192024131
  0.5412618551387077  0.9576054020692095  0.3998056926382972
  0.6663957892485980  0.0825171895800215  0.3997779963225401
  0.6667447435975751  0.2077038816754584  0.3992615811629910
  0.6670176045371649  0.3327383297699060  0.3986555408180862
  0.6675583301340625  0.4578800576571695  0.3982991831465073
  0.6685097084148446  0.5833226528957444  0.3988366443403585
  0.6661458326677364  0.7071816751124910  0.3997357965845331
  0.6653301004263642  0.8315464733853191  0.4005734916660500
  0.6660147635797357  0.9572483454054329  0.4001914062745265
  0.7912818003850158  0.0825605420142116  0.3998413303507486
  0.7914959178252267  0.2076670225405708  0.3996300641799371
  0.7918002616960871  0.3328591119357731  0.3991979594576860
  0.7921104302951913  0.4580997942295354  0.3986444633797327
  0.7924467557833234  0.5832200370938830  0.3979530500492821
  0.7921408662638534  0.7084121515419707  0.3982176013430360
  0.7912892809659484  0.8328212291216792  0.3991795934710859
  0.7909082287514480  0.9573906474109843  0.3997732281207974
  0.9163869101152545  0.0830000091216470  0.3997283613694934
  0.9164513806092863  0.2079605913472126  0.3995824885440838
  0.9165406195955553  0.3330037739477872  0.3994158258816066
  0.9166601012038030  0.4581041344728496  0.3992410514442614
  0.9168838668943569  0.5833447670971879  0.3990644036335371
  0.9169040373563141  0.7086124787875027  0.3988747609613774
  0.9167683223854000  0.8335668468193126  0.3991571114573610
  0.9164662606237385  0.9582334452138396  0.3996742583791719
  0.0835933767077009  0.0423570974541099  0.3999593802563364
  0.0835206123014184  0.1671485337872637  0.3999380048276081
  0.0833182667725469  0.2919929692773470  0.3992077624775908
  0.0830671830863336  0.4168015943630252  0.3986476458211716
  0.0827416860537804  0.5418050326459271  0.3986284839336799
  0.0829901684859564  0.6670016247612671  0.3991907571349266
  0.0832816518543752  0.7922262667331541  0.3996898224942693
  0.0834439292010470  0.9173238812636202  0.3998481161470968
  0.2086119789662185  0.0424960707071655  0.4001239085839662
  0.2087773790606572  0.1677140137114119  0.4004026998739803
  0.2088034645167808  0.2927550076208779  0.4000480563910172
  0.2083424005524430  0.4176462109300457  0.3986834574077629
  0.2071391802518281  0.5421264813558719  0.3973608322842570
  0.2076514063236171  0.6672714507583019  0.3982694391667027
  0.2080449103265148  0.7922944952490529  0.3993115757088065
  0.2083734976529284  0.9173964284453899  0.3998711708351114
  0.3334806833887092  0.0422337216555052  0.3998282502879122
  0.3339628442591963  0.1674348045012689  0.4005535637711901
  0.3342937379288199  0.2926997849080575  0.4028515818516454
  0.3326579013960409  0.4176025037324374  0.4005110672381408
  0.3330395659867873  0.5452209936232865  0.3997260340588595
  0.3321433275556089  0.6677245159753814  0.3984203262733507
  0.3328565259147220  0.7924062348122402  0.3989781355294785
  0.3331920224127158  0.9172324558084085  0.3995518982019995
  0.4583605006450186  0.0416546819893811  0.3996527739230651
  0.4586748088229814  0.1666297837032006  0.3995674738153004
  0.4591099185725098  0.2917398236689666  0.4008937455571516
  0.4606150667083988  0.4163599866177545  0.4077368771037839
  0.4545464936165470  0.6649982428031196  0.4032883922922911
  0.4575863536117574  0.7917377291779767  0.3998042238864908
  0.4579650973159134  0.9166444538574881  0.3996458215826458
  0.5831107693040137  0.0409683011874968  0.3996895974196212
  0.5834708155861610  0.1661663821734682  0.3993061194256431
  0.5838845277731886  0.2911341245776524  0.3989754694295761
  0.5843120341024506  0.4159262651025534  0.3994902369750572
  0.5857121098915764  0.5422398905017548  0.4022426511389151
  0.5823137626127365  0.6636037718429307  0.4037778497690080
  0.5812126756195594  0.7888642254305122  0.4019172455015124
  0.5826349797089372  0.9155597971102616  0.4001735848798864
  0.7078573656678074  0.0406767528665918  0.3999726416117659
  0.7082519108294242  0.1659926575465063  0.3995715192790061
  0.7085306120204837  0.2911179119022255  0.3989907326828906
  0.7089082751553177  0.4163101322120212  0.3983505962740215
  0.7096201964240746  0.5415259144207282  0.3979565643681695
  0.7088374387951336  0.6664879852835336  0.3986119756345189
  0.7076593340307982  0.7906138409515354  0.3995848855018805
  0.7072934460452560  0.9151799051229351  0.4001156453864727
  0.8328428144874286  0.0409338335589194  0.3997627488930597
  0.8330653620389901  0.1660462778220341  0.3997146451739061
  0.8333100567276646  0.2912332783019141  0.3994568414025184
  0.8335076591452250  0.4163733963822858  0.3991047924519016
  0.8337996002016618  0.5415278532300386  0.3985440798038044
  0.8337467308662641  0.6668651796970888  0.3982168584425246
  0.8334730295247335  0.7917012196340906  0.3987412213982288
  0.8329243482558943  0.9161719688432473  0.3995728147684223
  0.9582306973975565  0.0416670894868101  0.3998097668170406
  0.9582064364864388  0.1664959182817392  0.3996505980713590
  0.9581360940239049  0.2914031401846532  0.3994380633397606
  0.9581457003475393  0.4164768764489311  0.3992259176491247
  0.9582873116657471  0.5417105434301759  0.3992345148212856
  0.9584013561523695  0.6669092944263609  0.3991749909654587
  0.9584549030152421  0.7920339447644742  0.3992496041328850
  0.9583942375736407  0.9169728233252264  0.3995728278190814
  0.4113488568008184  0.5852998337111653  0.4051920162859994
 
  0.00000000E+00  0.00000000E+00  0.00000000E+00
  0.00000000E+00  0.00000000E+00  0.00000000E+00
  0.00000000E+00  0.00000000E+00  0.00000000E+00
  0.00000000E+00  0.00000000E+00  0.00000000E+00
  0.00000000E+00  0.00000000E+00  0.00000000E+00
  0.00000000E+00  0.00000000E+00  0.00000000E+00
  0.00000000E+00  0.00000000E+00  0.00000000E+00
  0.00000000E+00  0.00000000E+00  0.00000000E+00
  0.00000000E+00  0.00000000E+00  0.00000000E+00
  0.00000000E+00  0.00000000E+00  0.00000000E+00
  0.00000000E+00  0.00000000E+00  0.00000000E+00
  0.00000000E+00  0.00000000E+00  0.00000000E+00
  0.00000000E+00  0.00000000E+00  0.00000000E+00
  0.00000000E+00  0.00000000E+00  0.00000000E+00
  0.00000000E+00  0.00000000E+00  0.00000000E+00
  0.00000000E+00  0.00000000E+00  0.00000000E+00
  0.00000000E+00  0.00000000E+00  0.00000000E+00
  0.00000000E+00  0.00000000E+00  0.00000000E+00
  0.00000000E+00  0.00000000E+00  0.00000000E+00
  0.00000000E+00  0.00000000E+00  0.00000000E+00
  0.00000000E+00  0.00000000E+00  0.00000000E+00
  0.00000000E+00  0.00000000E+00  0.00000000E+00
  0.00000000E+00  0.00000000E+00  0.00000000E+00
  0.00000000E+00  0.00000000E+00  0.00000000E+00
  0.00000000E+00  0.00000000E+00  0.00000000E+00
  0.00000000E+00  0.00000000E+00  0.00000000E+00
  0.00000000E+00  0.00000000E+00  0.00000000E+00
  0.00000000E+00  0.00000000E+00  0.00000000E+00
  0.00000000E+00  0.00000000E+00  0.00000000E+00
  0.00000000E+00  0.00000000E+00  0.00000000E+00
  0.00000000E+00  0.00000000E+00  0.00000000E+00
  0.00000000E+00  0.00000000E+00  0.00000000E+00
  0.00000000E+00  0.00000000E+00  0.00000000E+00
  0.00000000E+00  0.00000000E+00  0.00000000E+00
  0.00000000E+00  0.00000000E+00  0.00000000E+00
  0.00000000E+00  0.00000000E+00  0.00000000E+00
  0.00000000E+00  0.00000000E+00  0.00000000E+00
  0.00000000E+00  0.00000000E+00  0.00000000E+00
  0.00000000E+00  0.00000000E+00  0.00000000E+00
  0.00000000E+00  0.00000000E+00  0.00000000E+00
  0.00000000E+00  0.00000000E+00  0.00000000E+00
  0.00000000E+00  0.00000000E+00  0.00000000E+00
  0.00000000E+00  0.00000000E+00  0.00000000E+00
  0.00000000E+00  0.00000000E+00  0.00000000E+00
  0.00000000E+00  0.00000000E+00  0.00000000E+00
  0.00000000E+00  0.00000000E+00  0.00000000E+00
  0.00000000E+00  0.00000000E+00  0.00000000E+00
  0.00000000E+00  0.00000000E+00  0.00000000E+00
  0.00000000E+00  0.00000000E+00  0.00000000E+00
  0.00000000E+00  0.00000000E+00  0.00000000E+00
  0.00000000E+00  0.00000000E+00  0.00000000E+00
  0.00000000E+00  0.00000000E+00  0.00000000E+00
  0.00000000E+00  0.00000000E+00  0.00000000E+00
  0.00000000E+00  0.00000000E+00  0.00000000E+00
  0.00000000E+00  0.00000000E+00  0.00000000E+00
  0.00000000E+00  0.00000000E+00  0.00000000E+00
  0.00000000E+00  0.00000000E+00  0.00000000E+00
  0.00000000E+00  0.00000000E+00  0.00000000E+00
  0.00000000E+00  0.00000000E+00  0.00000000E+00
  0.00000000E+00  0.00000000E+00  0.00000000E+00
  0.00000000E+00  0.00000000E+00  0.00000000E+00
  0.00000000E+00  0.00000000E+00  0.00000000E+00
  0.00000000E+00  0.00000000E+00  0.00000000E+00
  0.00000000E+00  0.00000000E+00  0.00000000E+00
  0.00000000E+00  0.00000000E+00  0.00000000E+00
  0.00000000E+00  0.00000000E+00  0.00000000E+00
  0.00000000E+00  0.00000000E+00  0.00000000E+00
  0.00000000E+00  0.00000000E+00  0.00000000E+00
  0.00000000E+00  0.00000000E+00  0.00000000E+00
  0.00000000E+00  0.00000000E+00  0.00000000E+00
  0.00000000E+00  0.00000000E+00  0.00000000E+00
  0.00000000E+00  0.00000000E+00  0.00000000E+00
  0.00000000E+00  0.00000000E+00  0.00000000E+00
  0.00000000E+00  0.00000000E+00  0.00000000E+00
  0.00000000E+00  0.00000000E+00  0.00000000E+00
  0.00000000E+00  0.00000000E+00  0.00000000E+00
  0.00000000E+00  0.00000000E+00  0.00000000E+00
  0.00000000E+00  0.00000000E+00  0.00000000E+00
  0.00000000E+00  0.00000000E+00  0.00000000E+00
  0.00000000E+00  0.00000000E+00  0.00000000E+00
  0.00000000E+00  0.00000000E+00  0.00000000E+00
  0.00000000E+00  0.00000000E+00  0.00000000E+00
  0.00000000E+00  0.00000000E+00  0.00000000E+00
  0.00000000E+00  0.00000000E+00  0.00000000E+00
  0.00000000E+00  0.00000000E+00  0.00000000E+00
  0.00000000E+00  0.00000000E+00  0.00000000E+00
  0.00000000E+00  0.00000000E+00  0.00000000E+00
  0.00000000E+00  0.00000000E+00  0.00000000E+00
  0.00000000E+00  0.00000000E+00  0.00000000E+00
  0.00000000E+00  0.00000000E+00  0.00000000E+00
  0.00000000E+00  0.00000000E+00  0.00000000E+00
  0.00000000E+00  0.00000000E+00  0.00000000E+00
  0.00000000E+00  0.00000000E+00  0.00000000E+00
  0.00000000E+00  0.00000000E+00  0.00000000E+00
  0.00000000E+00  0.00000000E+00  0.00000000E+00
  0.00000000E+00  0.00000000E+00  0.00000000E+00
  0.00000000E+00  0.00000000E+00  0.00000000E+00
  0.00000000E+00  0.00000000E+00  0.00000000E+00
  0.00000000E+00  0.00000000E+00  0.00000000E+00
  0.00000000E+00  0.00000000E+00  0.00000000E+00
  0.00000000E+00  0.00000000E+00  0.00000000E+00
  0.00000000E+00  0.00000000E+00  0.00000000E+00
  0.00000000E+00  0.00000000E+00  0.00000000E+00
  0.00000000E+00  0.00000000E+00  0.00000000E+00
  0.00000000E+00  0.00000000E+00  0.00000000E+00
  0.00000000E+00  0.00000000E+00  0.00000000E+00
  0.00000000E+00  0.00000000E+00  0.00000000E+00
  0.00000000E+00  0.00000000E+00  0.00000000E+00
  0.00000000E+00  0.00000000E+00  0.00000000E+00
  0.00000000E+00  0.00000000E+00  0.00000000E+00
  0.00000000E+00  0.00000000E+00  0.00000000E+00
  0.00000000E+00  0.00000000E+00  0.00000000E+00
  0.00000000E+00  0.00000000E+00  0.00000000E+00
  0.00000000E+00  0.00000000E+00  0.00000000E+00
  0.00000000E+00  0.00000000E+00  0.00000000E+00
  0.00000000E+00  0.00000000E+00  0.00000000E+00
  0.00000000E+00  0.00000000E+00  0.00000000E+00
  0.00000000E+00  0.00000000E+00  0.00000000E+00
  0.00000000E+00  0.00000000E+00  0.00000000E+00
  0.00000000E+00  0.00000000E+00  0.00000000E+00
  0.00000000E+00  0.00000000E+00  0.00000000E+00
  0.00000000E+00  0.00000000E+00  0.00000000E+00
  0.00000000E+00  0.00000000E+00  0.00000000E+00
  0.00000000E+00  0.00000000E+00  0.00000000E+00
  0.00000000E+00  0.00000000E+00  0.00000000E+00
  0.00000000E+00  0.00000000E+00  0.00000000E+00
  0.00000000E+00  0.00000000E+00  0.00000000E+00
  0.00000000E+00  0.00000000E+00  0.00000000E+00
