H1 Ir1 C125 N1 O2                       
   1.00000000000000     
    19.8070853055548497   -0.0269496398122487    0.5546807533378139
    -9.9204190411268431   17.0462372206343531   -0.7455768862639301
     0.8310573924421052   -0.8162965308826000   29.8717965374409502
   H    Ir   C    N    O 
     1     1   125     1     2
Direct
  0.5189438540775430  0.5106301972112481  0.5419766244578419
  0.4371588321796179  0.5037763191623829  0.4321436022925195
  0.0421014665052167  0.0847459135140069  0.3994999147226249
  0.0416632240243704  0.2089828075830115  0.3988750512898962
  0.0410718405707636  0.3333288262828299  0.3974726427705946
  0.0407662097628352  0.4584362358303740  0.3963186995925199
  0.0411433623828808  0.5838887266286961  0.3963844532227132
  0.0415811683302516  0.7093202493330125  0.3974544534530771
  0.0417942694137210  0.8346621729975264  0.3986298135937689
  0.0419763698823090  0.9598493800295927  0.3992993238096104
  0.1676335530160628  0.0860963589622528  0.4005659612196016
  0.1681366439364910  0.2114968088909554  0.4007401734295414
  0.1667136761378785  0.3351200963656822  0.3992640316637574
  0.1646817179709455  0.4591878607214427  0.3975190296588063
  0.1649859993036057  0.5841496338911438  0.3963460169287196
  0.1659295111900163  0.7094500669561692  0.3968775759228759
  0.1665842166815266  0.8348751760093169  0.3982943868538245
  0.1670482111137880  0.9603938357167655  0.3996375864279563
  0.2923616283124862  0.0859257355067062  0.4013502235275193
  0.2935609408865350  0.2128668154211629  0.4035075242788390
  0.2947649633938522  0.3398439127405599  0.4039524900944091
  0.2889333269464549  0.4613898610477440  0.4020702485519797
  0.2883540264388655  0.5852617275293496  0.3993356188533321
  0.2901373105325699  0.7096907209241584  0.3981538656110540
  0.2911701602107806  0.8346441483952542  0.3984024605225200
  0.2917042051468939  0.9600194051765382  0.3996478415307033
  0.4168795317131673  0.0843382673204390  0.4008747336033024
  0.4176580854674212  0.2102936974758834  0.4029769847475185
  0.4197233632412949  0.3378033214080938  0.4090083446440623
  0.4139485525150134  0.7076947195092301  0.4015156281787158
  0.4156639969853196  0.8331985601260491  0.3992486959699399
  0.4163533651228841  0.9587439741454188  0.3996164328566917
  0.5415182146833579  0.0828101033324298  0.4002839924340912
  0.5421786505131370  0.2080766931041825  0.4013291084630558
  0.5433575834643799  0.3331786239907877  0.4033481647502729
  0.5466131502856370  0.4578268730662572  0.4071968834657916
  0.5426430083153718  0.5782545988996509  0.4072742406870844
  0.5370374794520029  0.7036028041821533  0.4049511595144292
  0.5398735155427510  0.8312243140604448  0.4009693517049459
  0.5409167612042362  0.9572418295621337  0.3997839365563640
  0.6661642001659379  0.0821452422358195  0.3996382769556255
  0.6668076221254517  0.2074985691474066  0.3998911002879698
  0.6676607893491147  0.3327083669117387  0.4002427891310586
  0.6693885530588503  0.4579928190755350  0.4004327452870178
  0.6692921605078459  0.5829853754527773  0.4005506424985906
  0.6640900919030798  0.7052561245445916  0.4012922329323371
  0.6640105459813911  0.8304222578073815  0.4008837233515843
  0.6654010174954675  0.9565563547768895  0.3997533795555382
  0.7909062422837365  0.0820968632626727  0.3988578556869078
  0.7914082208229835  0.2073661009133845  0.3987899982164028
  0.7920272589486763  0.3326959923599970  0.3986034121227396
  0.7929462725372780  0.4581587777140108  0.3986380264177963
  0.7931698299378505  0.5834857759491701  0.3989475622526729
  0.7917515479413910  0.7082928116599906  0.3991988541304895
  0.7901349774621985  0.8319779125384043  0.3995186153418289
  0.7902272853308859  0.9567638720724683  0.3991559014529554
  0.9161253412277685  0.0829072769135375  0.3987880230832835
  0.9162264865168089  0.2077315269454861  0.3982305141191992
  0.9163982850628155  0.3328364875634252  0.3975413132601556
  0.9168055061974135  0.4582145976890550  0.3971601717821285
  0.9172065527616319  0.5837711531962684  0.3976663516479471
  0.9169584344201510  0.7090597216792989  0.3983613643174564
  0.9165727478702872  0.8339015373231536  0.3989166096023404
  0.9161235424889278  0.9583282994005344  0.3990085210762767
  0.0840262670645274  0.0436231118836711  0.3997384305786101
  0.0842202677710323  0.1685325674983135  0.3996970913909733
  0.0831930750782129  0.2924250641813281  0.3983398401836247
  0.0820151264787422  0.4168484771534545  0.3968037291411723
  0.0821499099912761  0.5420258543822152  0.3960883000307682
  0.0828050926413204  0.6675041570892043  0.3967238895512996
  0.0832923035633671  0.7930068906284098  0.3981036927695342
  0.0835877303529983  0.9183347416230353  0.3991963381966978
  0.2089462237287741  0.0441018521270847  0.4005847671525057
  0.2097747039424716  0.1701055808543689  0.4015198311430838
  0.2103492977529198  0.2956799192611375  0.4010532920272488
  0.2064836278420118  0.4184636953839506  0.3992377276205373
  0.2056967936733530  0.5424974865461178  0.3971837544152369
  0.2070407390462967  0.6677393377137628  0.3968682712752821
  0.2079192916753905  0.7930556378365531  0.3977878542187163
  0.2084380772898856  0.9184894840789568  0.3992011442425784
  0.3335764159456179  0.0435927645666459  0.4006374853987066
  0.3343793770321901  0.1697406634570781  0.4028559847063320
  0.3357917451825448  0.2969693246545795  0.4062972175599971
  0.3334994009775318  0.4242124894980173  0.4050120396021462
  0.3290117458902049  0.5453022511329588  0.4035103206459442
  0.3309994693372581  0.6681810592968823  0.3997669342525683
  0.3324705647350963  0.7928229310898854  0.3985254602860399
  0.3331117635376676  0.9180264497654324  0.3992191144233566
  0.4582445106641324  0.0421271601799866  0.4002800963539434
  0.4588299862961807  0.1677523138540404  0.4016896522604331
  0.4600480668522804  0.2939202218245625  0.4047629712423274
  0.4655660695414383  0.4206879577981172  0.4152452625498657
  0.4528019540869817  0.6638878718513520  0.4058913958007708
  0.4567612494095630  0.7909279943172464  0.4003147368396935
  0.4576476128133998  0.9165521355696187  0.3994893765779257
  0.5828501880997493  0.0407494904279406  0.3999113003382871
  0.5835024270222502  0.1661740744818786  0.4005315148795923
  0.5843934272665152  0.2912534189746889  0.4015701074077663
  0.5867044423561711  0.4160131940183362  0.4030395801156021
  0.5873648665081069  0.5406989346294429  0.4041011754075471
  0.5791397564311583  0.6613854661615316  0.4041598134893774
  0.5799626232189488  0.7878425667716624  0.4022374132613629
  0.5820406807542302  0.9149269781525909  0.4000891979194860
  0.7074660257952111  0.0402032271527530  0.3993339444054173
  0.7081239793103394  0.1656794184314148  0.3994438870675051
  0.7088105987620581  0.2909536974258807  0.3995581035428737
  0.7100676152995153  0.4161922464186212  0.3996530230476011
  0.7106212834549441  0.5413890279631938  0.3998597150049395
  0.7083674067847310  0.6660222921369688  0.4000701951629026
  0.7060348752917938  0.7891728153484744  0.4005565459898604
  0.7064476069283363  0.9143633473665794  0.3997962887352280
  0.8324470746031134  0.0405254684266284  0.3988210479138107
  0.8328426983939530  0.1657077661447837  0.3985622407567193
  0.8332555610558680  0.2909352933991586  0.3983127153954287
  0.8338841403897693  0.4162512723255676  0.3980739356036952
  0.8343506802157600  0.5417247928659273  0.3984140100581309
  0.8338505917148751  0.6670601295194877  0.3987879588403979
  0.8329965005890312  0.7916244372626008  0.3991662364866028
  0.8322443122252433  0.9156945717736522  0.3991390316447836
  0.9582535583802242  0.0420373869601174  0.3990465427221520
  0.9580724357958926  0.1665314099571137  0.3985825001797100
  0.9578803006435472  0.2912557019920134  0.3976802866039487
  0.9578633050284040  0.4163833339054236  0.3968508896763433
  0.9582673467198286  0.5418731155019371  0.3969508834597461
  0.9584906021913473  0.6673843500745943  0.3977723982229482
  0.9584494991508701  0.7926393378913326  0.3985989027506077
  0.9583475236716990  0.9174696727002007  0.3990456698430847
  0.4076709855385984  0.5841133407589771  0.4108742961486740
  0.5187384109916927  0.4927162079549546  0.5104910402609151
  0.4633227499693691  0.5169405774816020  0.4934023488518520
 
  0.00000000E+00  0.00000000E+00  0.00000000E+00
  0.00000000E+00  0.00000000E+00  0.00000000E+00
  0.00000000E+00  0.00000000E+00  0.00000000E+00
  0.00000000E+00  0.00000000E+00  0.00000000E+00
  0.00000000E+00  0.00000000E+00  0.00000000E+00
  0.00000000E+00  0.00000000E+00  0.00000000E+00
  0.00000000E+00  0.00000000E+00  0.00000000E+00
  0.00000000E+00  0.00000000E+00  0.00000000E+00
  0.00000000E+00  0.00000000E+00  0.00000000E+00
  0.00000000E+00  0.00000000E+00  0.00000000E+00
  0.00000000E+00  0.00000000E+00  0.00000000E+00
  0.00000000E+00  0.00000000E+00  0.00000000E+00
  0.00000000E+00  0.00000000E+00  0.00000000E+00
  0.00000000E+00  0.00000000E+00  0.00000000E+00
  0.00000000E+00  0.00000000E+00  0.00000000E+00
  0.00000000E+00  0.00000000E+00  0.00000000E+00
  0.00000000E+00  0.00000000E+00  0.00000000E+00
  0.00000000E+00  0.00000000E+00  0.00000000E+00
  0.00000000E+00  0.00000000E+00  0.00000000E+00
  0.00000000E+00  0.00000000E+00  0.00000000E+00
  0.00000000E+00  0.00000000E+00  0.00000000E+00
  0.00000000E+00  0.00000000E+00  0.00000000E+00
  0.00000000E+00  0.00000000E+00  0.00000000E+00
  0.00000000E+00  0.00000000E+00  0.00000000E+00
  0.00000000E+00  0.00000000E+00  0.00000000E+00
  0.00000000E+00  0.00000000E+00  0.00000000E+00
  0.00000000E+00  0.00000000E+00  0.00000000E+00
  0.00000000E+00  0.00000000E+00  0.00000000E+00
  0.00000000E+00  0.00000000E+00  0.00000000E+00
  0.00000000E+00  0.00000000E+00  0.00000000E+00
  0.00000000E+00  0.00000000E+00  0.00000000E+00
  0.00000000E+00  0.00000000E+00  0.00000000E+00
  0.00000000E+00  0.00000000E+00  0.00000000E+00
  0.00000000E+00  0.00000000E+00  0.00000000E+00
  0.00000000E+00  0.00000000E+00  0.00000000E+00
  0.00000000E+00  0.00000000E+00  0.00000000E+00
  0.00000000E+00  0.00000000E+00  0.00000000E+00
  0.00000000E+00  0.00000000E+00  0.00000000E+00
  0.00000000E+00  0.00000000E+00  0.00000000E+00
  0.00000000E+00  0.00000000E+00  0.00000000E+00
  0.00000000E+00  0.00000000E+00  0.00000000E+00
  0.00000000E+00  0.00000000E+00  0.00000000E+00
  0.00000000E+00  0.00000000E+00  0.00000000E+00
  0.00000000E+00  0.00000000E+00  0.00000000E+00
  0.00000000E+00  0.00000000E+00  0.00000000E+00
  0.00000000E+00  0.00000000E+00  0.00000000E+00
  0.00000000E+00  0.00000000E+00  0.00000000E+00
  0.00000000E+00  0.00000000E+00  0.00000000E+00
  0.00000000E+00  0.00000000E+00  0.00000000E+00
  0.00000000E+00  0.00000000E+00  0.00000000E+00
  0.00000000E+00  0.00000000E+00  0.00000000E+00
  0.00000000E+00  0.00000000E+00  0.00000000E+00
  0.00000000E+00  0.00000000E+00  0.00000000E+00
  0.00000000E+00  0.00000000E+00  0.00000000E+00
  0.00000000E+00  0.00000000E+00  0.00000000E+00
  0.00000000E+00  0.00000000E+00  0.00000000E+00
  0.00000000E+00  0.00000000E+00  0.00000000E+00
  0.00000000E+00  0.00000000E+00  0.00000000E+00
  0.00000000E+00  0.00000000E+00  0.00000000E+00
  0.00000000E+00  0.00000000E+00  0.00000000E+00
  0.00000000E+00  0.00000000E+00  0.00000000E+00
  0.00000000E+00  0.00000000E+00  0.00000000E+00
  0.00000000E+00  0.00000000E+00  0.00000000E+00
  0.00000000E+00  0.00000000E+00  0.00000000E+00
  0.00000000E+00  0.00000000E+00  0.00000000E+00
  0.00000000E+00  0.00000000E+00  0.00000000E+00
  0.00000000E+00  0.00000000E+00  0.00000000E+00
  0.00000000E+00  0.00000000E+00  0.00000000E+00
  0.00000000E+00  0.00000000E+00  0.00000000E+00
  0.00000000E+00  0.00000000E+00  0.00000000E+00
  0.00000000E+00  0.00000000E+00  0.00000000E+00
  0.00000000E+00  0.00000000E+00  0.00000000E+00
  0.00000000E+00  0.00000000E+00  0.00000000E+00
  0.00000000E+00  0.00000000E+00  0.00000000E+00
  0.00000000E+00  0.00000000E+00  0.00000000E+00
  0.00000000E+00  0.00000000E+00  0.00000000E+00
  0.00000000E+00  0.00000000E+00  0.00000000E+00
  0.00000000E+00  0.00000000E+00  0.00000000E+00
  0.00000000E+00  0.00000000E+00  0.00000000E+00
  0.00000000E+00  0.00000000E+00  0.00000000E+00
  0.00000000E+00  0.00000000E+00  0.00000000E+00
  0.00000000E+00  0.00000000E+00  0.00000000E+00
  0.00000000E+00  0.00000000E+00  0.00000000E+00
  0.00000000E+00  0.00000000E+00  0.00000000E+00
  0.00000000E+00  0.00000000E+00  0.00000000E+00
  0.00000000E+00  0.00000000E+00  0.00000000E+00
  0.00000000E+00  0.00000000E+00  0.00000000E+00
  0.00000000E+00  0.00000000E+00  0.00000000E+00
  0.00000000E+00  0.00000000E+00  0.00000000E+00
  0.00000000E+00  0.00000000E+00  0.00000000E+00
  0.00000000E+00  0.00000000E+00  0.00000000E+00
  0.00000000E+00  0.00000000E+00  0.00000000E+00
  0.00000000E+00  0.00000000E+00  0.00000000E+00
  0.00000000E+00  0.00000000E+00  0.00000000E+00
  0.00000000E+00  0.00000000E+00  0.00000000E+00
  0.00000000E+00  0.00000000E+00  0.00000000E+00
  0.00000000E+00  0.00000000E+00  0.00000000E+00
  0.00000000E+00  0.00000000E+00  0.00000000E+00
  0.00000000E+00  0.00000000E+00  0.00000000E+00
  0.00000000E+00  0.00000000E+00  0.00000000E+00
  0.00000000E+00  0.00000000E+00  0.00000000E+00
  0.00000000E+00  0.00000000E+00  0.00000000E+00
  0.00000000E+00  0.00000000E+00  0.00000000E+00
  0.00000000E+00  0.00000000E+00  0.00000000E+00
  0.00000000E+00  0.00000000E+00  0.00000000E+00
  0.00000000E+00  0.00000000E+00  0.00000000E+00
  0.00000000E+00  0.00000000E+00  0.00000000E+00
  0.00000000E+00  0.00000000E+00  0.00000000E+00
  0.00000000E+00  0.00000000E+00  0.00000000E+00
  0.00000000E+00  0.00000000E+00  0.00000000E+00
  0.00000000E+00  0.00000000E+00  0.00000000E+00
  0.00000000E+00  0.00000000E+00  0.00000000E+00
  0.00000000E+00  0.00000000E+00  0.00000000E+00
  0.00000000E+00  0.00000000E+00  0.00000000E+00
  0.00000000E+00  0.00000000E+00  0.00000000E+00
  0.00000000E+00  0.00000000E+00  0.00000000E+00
  0.00000000E+00  0.00000000E+00  0.00000000E+00
  0.00000000E+00  0.00000000E+00  0.00000000E+00
  0.00000000E+00  0.00000000E+00  0.00000000E+00
  0.00000000E+00  0.00000000E+00  0.00000000E+00
  0.00000000E+00  0.00000000E+00  0.00000000E+00
  0.00000000E+00  0.00000000E+00  0.00000000E+00
  0.00000000E+00  0.00000000E+00  0.00000000E+00
  0.00000000E+00  0.00000000E+00  0.00000000E+00
  0.00000000E+00  0.00000000E+00  0.00000000E+00
  0.00000000E+00  0.00000000E+00  0.00000000E+00
  0.00000000E+00  0.00000000E+00  0.00000000E+00
  0.00000000E+00  0.00000000E+00  0.00000000E+00
  0.00000000E+00  0.00000000E+00  0.00000000E+00
  0.00000000E+00  0.00000000E+00  0.00000000E+00
