Nb1 H1 C123 N3 O2                       
   1.00000000000000     
    19.8073606547993393    0.0114343844035467    0.0206378696839946
    -9.8937724357539079   17.0306364417534688   -0.0554292364509671
     0.0311829844667477   -0.0789972696596635   29.8196460806196981
   Nb   H    C    N    O 
     1     1   123     3     2
Direct
  0.4384282996014545  0.5024342114000964  0.4347070836460947
  0.5050213656793771  0.5125131251986117  0.5508837037002466
  0.0418501073380795  0.0840046345492658  0.3997405202082125
  0.0409011442244741  0.2080984167494134  0.3997083304794817
  0.0402158460829352  0.3328696569870190  0.3996115028201430
  0.0404027421803186  0.4581083526351655  0.3996171006415515
  0.0413626829049590  0.5836545023409736  0.3999349525462396
  0.0422248792719738  0.7091415122836916  0.4000652968573915
  0.0424932629061982  0.8343810288164496  0.4000374598306328
  0.0423858130642849  0.9594819427931627  0.3998832835118127
  0.1676690913233010  0.0852992038499916  0.3999074798865403
  0.1671778106223121  0.2100337304505457  0.3999118842651805
  0.1649792937381470  0.3335068259474923  0.3999878489198465
  0.1641803820297958  0.4582847063029757  0.3991067115250882
  0.1651600600972890  0.5835112867161194  0.3993690849571099
  0.1664798871504418  0.7088456646369437  0.3998506632509982
  0.1671404049714139  0.8343266508213080  0.4000416152365099
  0.1674671467065319  0.9598842968245633  0.3999878595497924
  0.2925100625872387  0.0856699236485095  0.3998882325795202
  0.2930054771004916  0.2123444725649951  0.4007234202378371
  0.2920603833095189  0.3377899904258735  0.4026971362129313
  0.2876383062869506  0.4577816589508007  0.4010838655639270
  0.2884984707064646  0.5827312626989630  0.3988431520347107
  0.2907569707388036  0.7081449562670524  0.3994407604935060
  0.2917224575142519  0.8337758928986484  0.3998419701552518
  0.2921830375254500  0.9595259426733440  0.3999269084491484
  0.4170042120740061  0.0842161926313527  0.3997893131728992
  0.4175805531033306  0.2104760753149594  0.3996508702979261
  0.4192878484168484  0.3382421043261259  0.4021649539215081
  0.4149000731349766  0.7057524001094864  0.3995571596427578
  0.4161725325667913  0.8320703016180268  0.3996809244451152
  0.4167067170123434  0.9582031753319872  0.3999083836291614
  0.5414993688232729  0.0826979944952538  0.3999168059896260
  0.5420158886851134  0.2085617911204577  0.3996197328941004
  0.5430468435686505  0.3342813223814012  0.3993770994123747
  0.5461670066048423  0.4596894539107459  0.4009394182313261
  0.5385876892386223  0.7019202975164541  0.4016159055945424
  0.5405563053046253  0.8302069085597801  0.4001235848635373
  0.5411043426214474  0.9566988397036352  0.3999066384521250
  0.6660595829423519  0.0820312976979005  0.4000189454292586
  0.6664430977413546  0.2075573184043774  0.3999429076087760
  0.6673447461809102  0.3330927001026400  0.3995540316724535
  0.6693995272753432  0.4587209872585269  0.3990444339044404
  0.6705274356514833  0.5841106640206279  0.3992193548668878
  0.6668354551967846  0.7066218978033431  0.3999571263945016
  0.6648406091950340  0.8304167391973757  0.4002300533214966
  0.6655874181444921  0.9563264000966107  0.4000575414808277
  0.7907263438206331  0.0819810662371493  0.4000035648784351
  0.7909962928091760  0.2073273037045466  0.4000650559129562
  0.7916069721236636  0.3327744389739442  0.3999736210087775
  0.7927881564880150  0.4583014312523889  0.3996892719025446
  0.7937434872241304  0.5837892586303465  0.3994465191062226
  0.7933143819274003  0.7088996882202929  0.3996475519465457
  0.7913594595602882  0.8325379591260946  0.3997423330667713
  0.7905494835218669  0.9567780172788135  0.3998876175343720
  0.9159100833998726  0.0825890326135440  0.3998175272543920
  0.9156862096675497  0.2074306232286577  0.3998708138494557
  0.9158492511643420  0.3326962979941213  0.3999194902759445
  0.9166029010081301  0.4582182084440669  0.4000160312689715
  0.9175384168390953  0.5837507402431935  0.3999589894529889
  0.9177916389294295  0.7090342721056678  0.3998744313176036
  0.9174825082621110  0.8340413881233110  0.3998581089592002
  0.9166116719283932  0.9582917457752079  0.3998626240738973
  0.0841499216080085  0.0430694880851798  0.3998143562811959
  0.0835517533446921  0.1675930613080061  0.3996817083988076
  0.0821472350153903  0.2915164939866597  0.3996976317926371
  0.0814535487897718  0.4162119896211650  0.3993902072828898
  0.0822582742559207  0.5416842218232946  0.3996477108936410
  0.0833656038480598  0.6671981830671795  0.3999895990224032
  0.0839454400121717  0.7926402078962561  0.4000874293827983
  0.0841693458695461  0.9179634929812531  0.3999813077550158
  0.2091624250913162  0.0435364182142866  0.3999558076404781
  0.2094898763259656  0.1691564647746070  0.4001465710835634
  0.2084472665781308  0.2937041083430009  0.4004617160179083
  0.2054909044139237  0.4167475910275705  0.3996427230127840
  0.2057223950344075  0.5413455650258991  0.3989977459329579
  0.2074625726499213  0.6668616983774631  0.3995517442087201
  0.2084963426091019  0.7924187108488847  0.3999276955312281
  0.2089251805318595  0.9179347808209758  0.4000043906561153
  0.3338309986841390  0.0432648689561189  0.3998448547438547
  0.3341782301128101  0.1695498665447302  0.4000302725530163
  0.3349081273822516  0.2967624631019883  0.4023563809475586
  0.3293325845378823  0.5413941757823237  0.3998165891162953
  0.3315708856446606  0.6659867774720891  0.3991667584124943
  0.3329866263770185  0.7915699937829511  0.3996677163040458
  0.3334772498392433  0.9172932406895946  0.3998989586526753
  0.4583059966238937  0.0417700925176588  0.3999019856762840
  0.4587229362006450  0.1678838103480641  0.3995880259353851
  0.4596369468082160  0.2941910009208693  0.3998503480227011
  0.4641307242861625  0.4209362970219557  0.4048891800139769
  0.4542114479442941  0.6611198524350674  0.4009632672516583
  0.4573050094223834  0.7894267403295036  0.3996986941612603
  0.4579430343251704  0.9157740473453432  0.3998332272773906
  0.5827815770529041  0.0404394634867072  0.3999497458482875
  0.5832663143758977  0.1662885054394112  0.3998544108413701
  0.5840816545941891  0.2919250339763408  0.3994171401884390
  0.5866044618547291  0.4176181106146143  0.3992740860907503
  0.5890047651945425  0.5434234533594366  0.4006836993261394
  0.5830188265866266  0.6620426818403550  0.4017642370071010
  0.5810460494302871  0.7870000726560067  0.4006453625254223
  0.5823639590961762  0.9142593443036786  0.4000145359015133
  0.7074328005770039  0.0400678565706727  0.4000264989996837
  0.7078230989308001  0.1656227869072361  0.4000475436099977
  0.7084290805879829  0.2911204159114129  0.3998606978117899
  0.7099088942845209  0.4165612111649864  0.3993720926238741
  0.7112528578844639  0.5418723144333246  0.3990657333784091
  0.7105260552301190  0.6671122085464234  0.3995869352900166
  0.7077457741450615  0.7901222172164097  0.3998439852680132
  0.7069053563478874  0.9143767557048051  0.4000366982952078
  0.8324580343066843  0.0404625316969112  0.3998970755043213
  0.8324868857966071  0.1655901347335528  0.4000067432611542
  0.8327756441327628  0.2908335354652239  0.4000292716352080
  0.8336691988161820  0.4162918272638969  0.3999504631710435
  0.8347176991707334  0.5418612868701399  0.3997090487448299
  0.8349509494822391  0.6672582978118828  0.3996635014603399
  0.8342150798202604  0.7921126226327637  0.3997576090026621
  0.8330253101156251  0.9160659692621292  0.3998289113792352
  0.9583118705995922  0.0417617563378562  0.3998199381434513
  0.9575697345656822  0.1660606351244007  0.3997717715537084
  0.9572723986052859  0.2909866765292297  0.3998041906222202
  0.9575433531568275  0.4162307253680774  0.3998963428309052
  0.9584527472121970  0.5417253122586673  0.4000254745542519
  0.9592069823219805  0.6672666607944429  0.3999783312224195
  0.9592968052780690  0.7926041908270188  0.3999337034062541
  0.9590045730985353  0.9174782622419123  0.3998715388346498
  0.4099756512202279  0.5801692362227929  0.4023000062032673
  0.5471506396942816  0.5817236506644369  0.4041435847160565
  0.3295109130964016  0.4191736419583162  0.4055889036943530
  0.5163543175207803  0.5112707709745113  0.5190819139545527
  0.4529379038297102  0.5204109563956685  0.4998081045429530
 
  0.00000000E+00  0.00000000E+00  0.00000000E+00
  0.00000000E+00  0.00000000E+00  0.00000000E+00
  0.00000000E+00  0.00000000E+00  0.00000000E+00
  0.00000000E+00  0.00000000E+00  0.00000000E+00
  0.00000000E+00  0.00000000E+00  0.00000000E+00
  0.00000000E+00  0.00000000E+00  0.00000000E+00
  0.00000000E+00  0.00000000E+00  0.00000000E+00
  0.00000000E+00  0.00000000E+00  0.00000000E+00
  0.00000000E+00  0.00000000E+00  0.00000000E+00
  0.00000000E+00  0.00000000E+00  0.00000000E+00
  0.00000000E+00  0.00000000E+00  0.00000000E+00
  0.00000000E+00  0.00000000E+00  0.00000000E+00
  0.00000000E+00  0.00000000E+00  0.00000000E+00
  0.00000000E+00  0.00000000E+00  0.00000000E+00
  0.00000000E+00  0.00000000E+00  0.00000000E+00
  0.00000000E+00  0.00000000E+00  0.00000000E+00
  0.00000000E+00  0.00000000E+00  0.00000000E+00
  0.00000000E+00  0.00000000E+00  0.00000000E+00
  0.00000000E+00  0.00000000E+00  0.00000000E+00
  0.00000000E+00  0.00000000E+00  0.00000000E+00
  0.00000000E+00  0.00000000E+00  0.00000000E+00
  0.00000000E+00  0.00000000E+00  0.00000000E+00
  0.00000000E+00  0.00000000E+00  0.00000000E+00
  0.00000000E+00  0.00000000E+00  0.00000000E+00
  0.00000000E+00  0.00000000E+00  0.00000000E+00
  0.00000000E+00  0.00000000E+00  0.00000000E+00
  0.00000000E+00  0.00000000E+00  0.00000000E+00
  0.00000000E+00  0.00000000E+00  0.00000000E+00
  0.00000000E+00  0.00000000E+00  0.00000000E+00
  0.00000000E+00  0.00000000E+00  0.00000000E+00
  0.00000000E+00  0.00000000E+00  0.00000000E+00
  0.00000000E+00  0.00000000E+00  0.00000000E+00
  0.00000000E+00  0.00000000E+00  0.00000000E+00
  0.00000000E+00  0.00000000E+00  0.00000000E+00
  0.00000000E+00  0.00000000E+00  0.00000000E+00
  0.00000000E+00  0.00000000E+00  0.00000000E+00
  0.00000000E+00  0.00000000E+00  0.00000000E+00
  0.00000000E+00  0.00000000E+00  0.00000000E+00
  0.00000000E+00  0.00000000E+00  0.00000000E+00
  0.00000000E+00  0.00000000E+00  0.00000000E+00
  0.00000000E+00  0.00000000E+00  0.00000000E+00
  0.00000000E+00  0.00000000E+00  0.00000000E+00
  0.00000000E+00  0.00000000E+00  0.00000000E+00
  0.00000000E+00  0.00000000E+00  0.00000000E+00
  0.00000000E+00  0.00000000E+00  0.00000000E+00
  0.00000000E+00  0.00000000E+00  0.00000000E+00
  0.00000000E+00  0.00000000E+00  0.00000000E+00
  0.00000000E+00  0.00000000E+00  0.00000000E+00
  0.00000000E+00  0.00000000E+00  0.00000000E+00
  0.00000000E+00  0.00000000E+00  0.00000000E+00
  0.00000000E+00  0.00000000E+00  0.00000000E+00
  0.00000000E+00  0.00000000E+00  0.00000000E+00
  0.00000000E+00  0.00000000E+00  0.00000000E+00
  0.00000000E+00  0.00000000E+00  0.00000000E+00
  0.00000000E+00  0.00000000E+00  0.00000000E+00
  0.00000000E+00  0.00000000E+00  0.00000000E+00
  0.00000000E+00  0.00000000E+00  0.00000000E+00
  0.00000000E+00  0.00000000E+00  0.00000000E+00
  0.00000000E+00  0.00000000E+00  0.00000000E+00
  0.00000000E+00  0.00000000E+00  0.00000000E+00
  0.00000000E+00  0.00000000E+00  0.00000000E+00
  0.00000000E+00  0.00000000E+00  0.00000000E+00
  0.00000000E+00  0.00000000E+00  0.00000000E+00
  0.00000000E+00  0.00000000E+00  0.00000000E+00
  0.00000000E+00  0.00000000E+00  0.00000000E+00
  0.00000000E+00  0.00000000E+00  0.00000000E+00
  0.00000000E+00  0.00000000E+00  0.00000000E+00
  0.00000000E+00  0.00000000E+00  0.00000000E+00
  0.00000000E+00  0.00000000E+00  0.00000000E+00
  0.00000000E+00  0.00000000E+00  0.00000000E+00
  0.00000000E+00  0.00000000E+00  0.00000000E+00
  0.00000000E+00  0.00000000E+00  0.00000000E+00
  0.00000000E+00  0.00000000E+00  0.00000000E+00
  0.00000000E+00  0.00000000E+00  0.00000000E+00
  0.00000000E+00  0.00000000E+00  0.00000000E+00
  0.00000000E+00  0.00000000E+00  0.00000000E+00
  0.00000000E+00  0.00000000E+00  0.00000000E+00
  0.00000000E+00  0.00000000E+00  0.00000000E+00
  0.00000000E+00  0.00000000E+00  0.00000000E+00
  0.00000000E+00  0.00000000E+00  0.00000000E+00
  0.00000000E+00  0.00000000E+00  0.00000000E+00
  0.00000000E+00  0.00000000E+00  0.00000000E+00
  0.00000000E+00  0.00000000E+00  0.00000000E+00
  0.00000000E+00  0.00000000E+00  0.00000000E+00
  0.00000000E+00  0.00000000E+00  0.00000000E+00
  0.00000000E+00  0.00000000E+00  0.00000000E+00
  0.00000000E+00  0.00000000E+00  0.00000000E+00
  0.00000000E+00  0.00000000E+00  0.00000000E+00
  0.00000000E+00  0.00000000E+00  0.00000000E+00
  0.00000000E+00  0.00000000E+00  0.00000000E+00
  0.00000000E+00  0.00000000E+00  0.00000000E+00
  0.00000000E+00  0.00000000E+00  0.00000000E+00
  0.00000000E+00  0.00000000E+00  0.00000000E+00
  0.00000000E+00  0.00000000E+00  0.00000000E+00
  0.00000000E+00  0.00000000E+00  0.00000000E+00
  0.00000000E+00  0.00000000E+00  0.00000000E+00
  0.00000000E+00  0.00000000E+00  0.00000000E+00
  0.00000000E+00  0.00000000E+00  0.00000000E+00
  0.00000000E+00  0.00000000E+00  0.00000000E+00
  0.00000000E+00  0.00000000E+00  0.00000000E+00
  0.00000000E+00  0.00000000E+00  0.00000000E+00
  0.00000000E+00  0.00000000E+00  0.00000000E+00
  0.00000000E+00  0.00000000E+00  0.00000000E+00
  0.00000000E+00  0.00000000E+00  0.00000000E+00
  0.00000000E+00  0.00000000E+00  0.00000000E+00
  0.00000000E+00  0.00000000E+00  0.00000000E+00
  0.00000000E+00  0.00000000E+00  0.00000000E+00
  0.00000000E+00  0.00000000E+00  0.00000000E+00
  0.00000000E+00  0.00000000E+00  0.00000000E+00
  0.00000000E+00  0.00000000E+00  0.00000000E+00
  0.00000000E+00  0.00000000E+00  0.00000000E+00
  0.00000000E+00  0.00000000E+00  0.00000000E+00
  0.00000000E+00  0.00000000E+00  0.00000000E+00
  0.00000000E+00  0.00000000E+00  0.00000000E+00
  0.00000000E+00  0.00000000E+00  0.00000000E+00
  0.00000000E+00  0.00000000E+00  0.00000000E+00
  0.00000000E+00  0.00000000E+00  0.00000000E+00
  0.00000000E+00  0.00000000E+00  0.00000000E+00
  0.00000000E+00  0.00000000E+00  0.00000000E+00
  0.00000000E+00  0.00000000E+00  0.00000000E+00
  0.00000000E+00  0.00000000E+00  0.00000000E+00
  0.00000000E+00  0.00000000E+00  0.00000000E+00
  0.00000000E+00  0.00000000E+00  0.00000000E+00
  0.00000000E+00  0.00000000E+00  0.00000000E+00
  0.00000000E+00  0.00000000E+00  0.00000000E+00
  0.00000000E+00  0.00000000E+00  0.00000000E+00
  0.00000000E+00  0.00000000E+00  0.00000000E+00
  0.00000000E+00  0.00000000E+00  0.00000000E+00
  0.00000000E+00  0.00000000E+00  0.00000000E+00
  0.00000000E+00  0.00000000E+00  0.00000000E+00
