Ni1 C122 N4                             
   1.00000000000000     
    19.7997306345908903    0.0000240038861530    0.0054451581880425
    -9.8998491739456558   17.0063199513151595   -0.0180158362158668
     0.0082686378922804   -0.0265247861777203   29.8835746438428593
   Ni   C    N 
     1   122     4
Direct
  0.4374833593414194  0.5000081345133836  0.4041673410328217
  0.0423612492088011  0.0844780633437474  0.4001450189317218
  0.0413461463395548  0.2084494317161358  0.4002533380314301
  0.0404414708088244  0.3330140693120516  0.4000638854285769
  0.0405072502092979  0.4581867079194852  0.3996323828007818
  0.0413327444326058  0.5837094309163590  0.3993590237108814
  0.0420899302740179  0.7091925427411350  0.3994319754099596
  0.0424207355277239  0.8345148228262846  0.3995773680991879
  0.0425684518022571  0.9597927021245062  0.3998027332356034
  0.1684893410308304  0.0863049064752581  0.4005517459864056
  0.1682152239673110  0.2111464637823906  0.4014812620515535
  0.1654775025695756  0.3340316682442218  0.4017869040418636
  0.1642791709419320  0.4585403986644336  0.4012482376642196
  0.1652017881585988  0.5836095737400097  0.4002359558469356
  0.1664280807834630  0.7089461386451987  0.3995993721237794
  0.1671043776867041  0.8345084114641862  0.3995721550426524
  0.1676545091712270  0.9602757549944418  0.3998050239891215
  0.2928566638889052  0.0863000576427355  0.4005539757057920
  0.2945891160605981  0.2141701340764265  0.4020263797649118
  0.2939134886414360  0.3404750966737249  0.4031991350603797
  0.2878006705752975  0.4582971945527973  0.4033524231387280
  0.2885902718619788  0.5828475595855067  0.4022525980818463
  0.2906781489785947  0.7082014607137028  0.4006450967923732
  0.2916906703300359  0.8338683216657665  0.3997815710834908
  0.2922441905346512  0.9597833993318999  0.3997844196530879
  0.4171494712955366  0.0844650360319016  0.4001587318834461
  0.4179388988768024  0.2111375304432566  0.4015074293288984
  0.4215377852425092  0.3404649174854414  0.4032146330539034
  0.4145341456141121  0.7050294726458404  0.4023103771610961
  0.4160823996459210  0.8317292043909986  0.4006383246122870
  0.4167021200717472  0.9581452370817606  0.3998448487950538
  0.5415291815098889  0.0825477596812648  0.3997847524054653
  0.5421131987221792  0.2084436608145016  0.4002865943375331
  0.5435336278645921  0.3340225824252129  0.4018091725295371
  0.5454509630602195  0.4582893809091501  0.4033652761612751
  0.5378503357958733  0.7007103757578659  0.4030312763955055
  0.5402977964008788  0.8295132856929792  0.4014227273497039
  0.5410551781477786  0.9563352572845792  0.4001426525595720
  0.6660620857120607  0.0817953690148150  0.3996933351429249
  0.6665453805153101  0.2074211492480851  0.3996175720576302
  0.6675493107486032  0.3330064753899581  0.4000724098875283
  0.6692198848608339  0.4585340258206937  0.4012370555335670
  0.6692241054160147  0.5828456373810421  0.4022545586798102
  0.6654910489001471  0.7050372896661022  0.4023375366676263
  0.6642417118403282  0.8295270906679882  0.4014413905186164
  0.6654639475684809  0.9558818096414592  0.4002766890746435
  0.7907682164850355  0.0817992705123000  0.3996804395499814
  0.7911416987067085  0.2072687263802921  0.3995427771881987
  0.7917143941207054  0.3327252106135190  0.3994198486780483
  0.7926355617750371  0.4581785131880838  0.3995975985470285
  0.7933715836681097  0.5836088822116385  0.4002052027175255
  0.7925199668795395  0.7082082570957494  0.4006520257827861
  0.7906723042341994  0.8317444400134548  0.4006700228238760
  0.7903353786547134  0.9563496754695059  0.4001369910018924
  0.9160585165233668  0.0825544866355983  0.3997461794555185
  0.9158917889845190  0.2074273524800349  0.3995981390511731
  0.9159884287695799  0.3327251877215932  0.3994202433245637
  0.9165899456213161  0.4582180301552558  0.3992698826699435
  0.9173384686668383  0.5837061711480447  0.3993404997050930
  0.9175127947116709  0.7089549380347122  0.3995974274817263
  0.9171983809057954  0.8338790339072780  0.3998024368926354
  0.9164941476274867  0.9581645799802698  0.3998479775520271
  0.0847163814369225  0.0436559272237060  0.4001327319825645
  0.0843487885816122  0.1682683710858632  0.4006130914390183
  0.0824667329940642  0.2917901955021344  0.4006263905327033
  0.0815918797491101  0.4163932344780335  0.4002266941056782
  0.0823148030395369  0.5418126610580357  0.3996405026818017
  0.0832647341488955  0.6672767212220185  0.3994209979400560
  0.0838624752069608  0.7927212537153497  0.3995477253718707
  0.0842619344569864  0.9181976391250276  0.3996893848619564
  0.2095790431119466  0.0441123331456758  0.4002660157755116
  0.2107831820595811  0.1704871123684963  0.4014025617058417
  0.2095084721928061  0.2949797815309175  0.4022921867109761
  0.2057476294729055  0.4171616285256242  0.4022390807192256
  0.2057455202738502  0.5414679117729575  0.4012518920344676
  0.2074334527868263  0.6669935266188667  0.4000763385355230
  0.2084654056485582  0.7925762592518831  0.3996096489566677
  0.2089568494400758  0.9181907291417495  0.3996784052526782
  0.3339749083155871  0.0436456019964978  0.4001282109199280
  0.3347126121628982  0.1704778669267318  0.4014185476441393
  0.3371493392198663  0.2993130783459446  0.4030033575307207
  0.3295134523074719  0.5417177441456813  0.4033632333488544
  0.3314575776066547  0.6659747138047164  0.4018086070307771
  0.3328971523747630  0.7915514837451029  0.4002756839344084
  0.3334942450217180  0.9174374992839016  0.3997654757669314
  0.4583233308119135  0.0418229241702798  0.3998511819971076
  0.4589232511011254  0.1682532085125423  0.4006437679362864
  0.4604538691753697  0.2949679218053525  0.4023157326885594
  0.4534505147656386  0.6595403191094299  0.4032191904852803
  0.4570741060526739  0.7888586581645733  0.4014940986584180
  0.4578796862720309  0.9155132184070175  0.4001657177148906
  0.5827786851143217  0.0402016509584854  0.3998079094699331
  0.5833222001024327  0.1661168652610997  0.3997949337188006
  0.5843064264447507  0.2917822060666829  0.4006512881330661
  0.5863737711594631  0.4171572587185257  0.4022475583590002
  0.5871636425809513  0.5417183065393879  0.4033726947800769
  0.5810793310568250  0.6595475196061550  0.4032371156264962
  0.5804299078125975  0.7858433200588968  0.4020590470917484
  0.5821824200485184  0.9136891123955710  0.4005618233058908
  0.7073768166343386  0.0397157813366789  0.3998142413165615
  0.7079109535628954  0.1654785445111009  0.3995773139000977
  0.7085625339956154  0.2910425459566753  0.3995930364073974
  0.7097623945122691  0.4163864466817862  0.4002130747414986
  0.7106862729942068  0.5414754745091283  0.4012334634292034
  0.7095058912853881  0.6659842215908425  0.4018180419158605
  0.7068040509654951  0.7888696257360648  0.4015292631165166
  0.7065602583608963  0.9137019276785886  0.4005703467388754
  0.8324620953540530  0.0402095633725991  0.3997832558741917
  0.8325941739475490  0.1654835322338040  0.3995685628055720
  0.8328924666090254  0.2907943209700035  0.3994306519923274
  0.8336266019710590  0.4162804389982243  0.3993459105035212
  0.8344556128589963  0.5418212379847529  0.3996018108766177
  0.8345502926231835  0.6670051712507966  0.4000690781266963
  0.8336662733186778  0.7915555686369533  0.4003018106592358
  0.8326776680952961  0.9155235964783981  0.4001716776028123
  0.9585481370658229  0.0418407494264034  0.3998302341821610
  0.9578145557048565  0.1661252444521961  0.3997619965731218
  0.9574744586371077  0.2910492704038992  0.3995831108701938
  0.9576140221474138  0.4162784435960724  0.3993621035630381
  0.9583665354979100  0.5417682076696908  0.3992662035469352
  0.9589894510370752  0.6672750110879340  0.3994175448547406
  0.9591243999526109  0.7925840070453227  0.3996148734489153
  0.9589746671902242  0.9174471043994228  0.3997876708928588
  0.4096745325583598  0.5788938327932599  0.4038911500248513
  0.5441876024010821  0.5788968704529911  0.4039075061678728
  0.3307920268909715  0.4211294926896516  0.4038757522847065
  0.4652938324492744  0.4211202555798340  0.4038921295700174
 
  0.00000000E+00  0.00000000E+00  0.00000000E+00
  0.00000000E+00  0.00000000E+00  0.00000000E+00
  0.00000000E+00  0.00000000E+00  0.00000000E+00
  0.00000000E+00  0.00000000E+00  0.00000000E+00
  0.00000000E+00  0.00000000E+00  0.00000000E+00
  0.00000000E+00  0.00000000E+00  0.00000000E+00
  0.00000000E+00  0.00000000E+00  0.00000000E+00
  0.00000000E+00  0.00000000E+00  0.00000000E+00
  0.00000000E+00  0.00000000E+00  0.00000000E+00
  0.00000000E+00  0.00000000E+00  0.00000000E+00
  0.00000000E+00  0.00000000E+00  0.00000000E+00
  0.00000000E+00  0.00000000E+00  0.00000000E+00
  0.00000000E+00  0.00000000E+00  0.00000000E+00
  0.00000000E+00  0.00000000E+00  0.00000000E+00
  0.00000000E+00  0.00000000E+00  0.00000000E+00
  0.00000000E+00  0.00000000E+00  0.00000000E+00
  0.00000000E+00  0.00000000E+00  0.00000000E+00
  0.00000000E+00  0.00000000E+00  0.00000000E+00
  0.00000000E+00  0.00000000E+00  0.00000000E+00
  0.00000000E+00  0.00000000E+00  0.00000000E+00
  0.00000000E+00  0.00000000E+00  0.00000000E+00
  0.00000000E+00  0.00000000E+00  0.00000000E+00
  0.00000000E+00  0.00000000E+00  0.00000000E+00
  0.00000000E+00  0.00000000E+00  0.00000000E+00
  0.00000000E+00  0.00000000E+00  0.00000000E+00
  0.00000000E+00  0.00000000E+00  0.00000000E+00
  0.00000000E+00  0.00000000E+00  0.00000000E+00
  0.00000000E+00  0.00000000E+00  0.00000000E+00
  0.00000000E+00  0.00000000E+00  0.00000000E+00
  0.00000000E+00  0.00000000E+00  0.00000000E+00
  0.00000000E+00  0.00000000E+00  0.00000000E+00
  0.00000000E+00  0.00000000E+00  0.00000000E+00
  0.00000000E+00  0.00000000E+00  0.00000000E+00
  0.00000000E+00  0.00000000E+00  0.00000000E+00
  0.00000000E+00  0.00000000E+00  0.00000000E+00
  0.00000000E+00  0.00000000E+00  0.00000000E+00
  0.00000000E+00  0.00000000E+00  0.00000000E+00
  0.00000000E+00  0.00000000E+00  0.00000000E+00
  0.00000000E+00  0.00000000E+00  0.00000000E+00
  0.00000000E+00  0.00000000E+00  0.00000000E+00
  0.00000000E+00  0.00000000E+00  0.00000000E+00
  0.00000000E+00  0.00000000E+00  0.00000000E+00
  0.00000000E+00  0.00000000E+00  0.00000000E+00
  0.00000000E+00  0.00000000E+00  0.00000000E+00
  0.00000000E+00  0.00000000E+00  0.00000000E+00
  0.00000000E+00  0.00000000E+00  0.00000000E+00
  0.00000000E+00  0.00000000E+00  0.00000000E+00
  0.00000000E+00  0.00000000E+00  0.00000000E+00
  0.00000000E+00  0.00000000E+00  0.00000000E+00
  0.00000000E+00  0.00000000E+00  0.00000000E+00
  0.00000000E+00  0.00000000E+00  0.00000000E+00
  0.00000000E+00  0.00000000E+00  0.00000000E+00
  0.00000000E+00  0.00000000E+00  0.00000000E+00
  0.00000000E+00  0.00000000E+00  0.00000000E+00
  0.00000000E+00  0.00000000E+00  0.00000000E+00
  0.00000000E+00  0.00000000E+00  0.00000000E+00
  0.00000000E+00  0.00000000E+00  0.00000000E+00
  0.00000000E+00  0.00000000E+00  0.00000000E+00
  0.00000000E+00  0.00000000E+00  0.00000000E+00
  0.00000000E+00  0.00000000E+00  0.00000000E+00
  0.00000000E+00  0.00000000E+00  0.00000000E+00
  0.00000000E+00  0.00000000E+00  0.00000000E+00
  0.00000000E+00  0.00000000E+00  0.00000000E+00
  0.00000000E+00  0.00000000E+00  0.00000000E+00
  0.00000000E+00  0.00000000E+00  0.00000000E+00
  0.00000000E+00  0.00000000E+00  0.00000000E+00
  0.00000000E+00  0.00000000E+00  0.00000000E+00
  0.00000000E+00  0.00000000E+00  0.00000000E+00
  0.00000000E+00  0.00000000E+00  0.00000000E+00
  0.00000000E+00  0.00000000E+00  0.00000000E+00
  0.00000000E+00  0.00000000E+00  0.00000000E+00
  0.00000000E+00  0.00000000E+00  0.00000000E+00
  0.00000000E+00  0.00000000E+00  0.00000000E+00
  0.00000000E+00  0.00000000E+00  0.00000000E+00
  0.00000000E+00  0.00000000E+00  0.00000000E+00
  0.00000000E+00  0.00000000E+00  0.00000000E+00
  0.00000000E+00  0.00000000E+00  0.00000000E+00
  0.00000000E+00  0.00000000E+00  0.00000000E+00
  0.00000000E+00  0.00000000E+00  0.00000000E+00
  0.00000000E+00  0.00000000E+00  0.00000000E+00
  0.00000000E+00  0.00000000E+00  0.00000000E+00
  0.00000000E+00  0.00000000E+00  0.00000000E+00
  0.00000000E+00  0.00000000E+00  0.00000000E+00
  0.00000000E+00  0.00000000E+00  0.00000000E+00
  0.00000000E+00  0.00000000E+00  0.00000000E+00
  0.00000000E+00  0.00000000E+00  0.00000000E+00
  0.00000000E+00  0.00000000E+00  0.00000000E+00
  0.00000000E+00  0.00000000E+00  0.00000000E+00
  0.00000000E+00  0.00000000E+00  0.00000000E+00
  0.00000000E+00  0.00000000E+00  0.00000000E+00
  0.00000000E+00  0.00000000E+00  0.00000000E+00
  0.00000000E+00  0.00000000E+00  0.00000000E+00
  0.00000000E+00  0.00000000E+00  0.00000000E+00
  0.00000000E+00  0.00000000E+00  0.00000000E+00
  0.00000000E+00  0.00000000E+00  0.00000000E+00
  0.00000000E+00  0.00000000E+00  0.00000000E+00
  0.00000000E+00  0.00000000E+00  0.00000000E+00
  0.00000000E+00  0.00000000E+00  0.00000000E+00
  0.00000000E+00  0.00000000E+00  0.00000000E+00
  0.00000000E+00  0.00000000E+00  0.00000000E+00
  0.00000000E+00  0.00000000E+00  0.00000000E+00
  0.00000000E+00  0.00000000E+00  0.00000000E+00
  0.00000000E+00  0.00000000E+00  0.00000000E+00
  0.00000000E+00  0.00000000E+00  0.00000000E+00
  0.00000000E+00  0.00000000E+00  0.00000000E+00
  0.00000000E+00  0.00000000E+00  0.00000000E+00
  0.00000000E+00  0.00000000E+00  0.00000000E+00
  0.00000000E+00  0.00000000E+00  0.00000000E+00
  0.00000000E+00  0.00000000E+00  0.00000000E+00
  0.00000000E+00  0.00000000E+00  0.00000000E+00
  0.00000000E+00  0.00000000E+00  0.00000000E+00
  0.00000000E+00  0.00000000E+00  0.00000000E+00
  0.00000000E+00  0.00000000E+00  0.00000000E+00
  0.00000000E+00  0.00000000E+00  0.00000000E+00
  0.00000000E+00  0.00000000E+00  0.00000000E+00
  0.00000000E+00  0.00000000E+00  0.00000000E+00
  0.00000000E+00  0.00000000E+00  0.00000000E+00
  0.00000000E+00  0.00000000E+00  0.00000000E+00
  0.00000000E+00  0.00000000E+00  0.00000000E+00
  0.00000000E+00  0.00000000E+00  0.00000000E+00
  0.00000000E+00  0.00000000E+00  0.00000000E+00
  0.00000000E+00  0.00000000E+00  0.00000000E+00
  0.00000000E+00  0.00000000E+00  0.00000000E+00
  0.00000000E+00  0.00000000E+00  0.00000000E+00
  0.00000000E+00  0.00000000E+00  0.00000000E+00
  0.00000000E+00  0.00000000E+00  0.00000000E+00
  0.00000000E+00  0.00000000E+00  0.00000000E+00
