Re1 C122 N4                             
   1.00000000000000     
    19.8294157982959227   -0.0000569413295728   -0.0032109922777837
    -9.9147395744097757   17.0342773527311167    0.0032786279000937
    -0.0048198826059338    0.0029456031540085   29.7899090466336922
   Re   C    N 
     1   122     4
Direct
  0.4374969489299095  0.5000206731555471  0.4193019817359046
  0.0420265047300278  0.0841398931925914  0.3995424706318040
  0.0409284904007160  0.2081400984053934  0.3994617755932436
  0.0400318738621910  0.3329054988725362  0.3988663365295138
  0.0400877557758293  0.4581751643273997  0.3984822543038689
  0.0411890046611692  0.5838166277429944  0.3989280560672208
  0.0421853526216248  0.7093420552044767  0.3993638052183161
  0.0424364098185726  0.8345327323339373  0.3995711087549791
  0.0425639786678738  0.9596948826523973  0.3995796055802699
  0.1681564615172730  0.0858582198423312  0.4001560837991704
  0.1674190348096542  0.2103148856102804  0.4007697016173391
  0.1646483359277144  0.3335147050970998  0.4008718485670218
  0.1634814354715879  0.4585366694094199  0.3989195022872954
  0.1646781500198376  0.5837986752932529  0.3984303894585781
  0.1662959553633897  0.7090722896958930  0.3990912436093428
  0.1671105417916977  0.8345423697530139  0.3995679808808074
  0.1675851272735666  0.9601334106954622  0.3997523931558274
  0.2926902710231298  0.0858386326256073  0.4001688985177467
  0.2940679865549052  0.2131202464704694  0.4024449472871635
  0.2915540409620777  0.3376053852719969  0.4061225091046378
  0.2857068486792244  0.4584376652682635  0.4049718737082551
  0.2876521787020451  0.5830957524312768  0.4010249844482618
  0.2905697748593878  0.7084321784330834  0.3994810615535511
  0.2916166805492759  0.8339639995778968  0.3993670695119239
  0.2921689523439637  0.9596887151215004  0.3995773237401358
  0.4171358213031895  0.0841351297481013  0.3995635352838007
  0.4178932071752214  0.2103166715570813  0.4008330482014068
  0.4210420608221243  0.3376074066566594  0.4061426550264616
  0.4146361867565337  0.7061275065812869  0.4022315389527983
  0.4160141933160580  0.8322505337943970  0.3997408936143588
  0.4166436555715008  0.9582264957970940  0.3994238145489715
  0.5415708793814124  0.0825083576618705  0.3994492837871358
  0.5422287558389889  0.2081407550659842  0.3994976770134432
  0.5438544106427118  0.3335003015199791  0.4009239568050680
  0.5476988327479417  0.4584295121909781  0.4049881558090150
  0.5383548128044869  0.7017025423057581  0.4054501148260459
  0.5404000812521818  0.8301120308760999  0.4011041635664194
  0.5410810626701544  0.9565567568028942  0.3997065989672894
  0.6660757037506464  0.0817982462660485  0.3996582839456274
  0.6666645493192381  0.2073204560311285  0.3993930693795824
  0.6678726513414525  0.3329214002231587  0.3989740543184254
  0.6700099122280240  0.4585339839928276  0.3990016549260700
  0.6704200836876348  0.5831235463018087  0.4010647568115084
  0.6664885768097911  0.7061336958434442  0.4022719394527204
  0.6647212731253686  0.8301313059515807  0.4011517158087669
  0.6655828825721900  0.9561535007360248  0.4000351266319205
  0.7907505011072579  0.0817880132746104  0.3996596869209988
  0.7911113570645797  0.2072079015011359  0.3995454023662873
  0.7917991276074011  0.3326486733548713  0.3991877718393961
  0.7930470369164365  0.4581831229894485  0.3986191926223979
  0.7940747681795707  0.5837873141190213  0.3985685178900494
  0.7928743637874126  0.7084332653738569  0.3995472654315204
  0.7912597515184139  0.8322491707151558  0.3997846648257602
  0.7904941314068732  0.9565681081993328  0.3997166835027960
  0.9159781287235315  0.0825179134575075  0.3994379195769752
  0.9156598918418503  0.2073188405539238  0.3993743695095068
  0.9158553821880865  0.3326505500812212  0.3991366692174205
  0.9166082011177560  0.4582518028947781  0.3990434767733956
  0.9175837976721690  0.5838138773018804  0.3989914887814379
  0.9177670074698967  0.7090650987135417  0.3991567174179718
  0.9173728604185951  0.8339769366277141  0.3993786573285350
  0.9166173258640351  0.9582354024201298  0.3994337149998674
  0.0845177993338728  0.0434453253977274  0.3997022190583903
  0.0837608870557314  0.1677565485027274  0.3997335140083028
  0.0821172376101929  0.2915620503039775  0.3994737702228637
  0.0808678224022961  0.4161887724816221  0.3984299407763391
  0.0819098308127521  0.5418168461187410  0.3984833332538222
  0.0832072061331988  0.6673447439657014  0.3991367219846355
  0.0839037782239849  0.7927923195929831  0.3995464974786364
  0.0842783443597081  0.9182092572151253  0.3996583174387205
  0.2094371996504715  0.0438604469723425  0.4000292073367850
  0.2102845854778982  0.1698949687158371  0.4010880780972230
  0.2085150628815804  0.2938981476556949  0.4022368794875729
  0.2046285330705107  0.4169099758555043  0.4010352989779004
  0.2049120074860716  0.5414407741035334  0.3989027465921244
  0.2071331783860126  0.6670865976109898  0.3988724987691527
  0.2083482888529727  0.7926817531102766  0.3993776220114190
  0.2089673415545193  0.9182187904913122  0.3996586605284286
  0.3339351053622630  0.0434360910511751  0.3997121956994179
  0.3346024892742565  0.1698748821195177  0.4011382794088179
  0.3366188793583027  0.2982229327479499  0.4054832928085518
  0.3271618880364613  0.5415537975435325  0.4050564114116234
  0.3311427547971330  0.6664892192636136  0.4008806259495519
  0.3327966410374623  0.7918643205720790  0.3994662334786970
  0.3334662045330092  0.9174851110848701  0.3994390860858954
  0.4583859904697392  0.0417672224951368  0.3994316078790114
  0.4590197756039264  0.1677546489347823  0.3997768033734911
  0.4603757436025765  0.2938886264533628  0.4022773447672219
  0.4538953756736628  0.6623949846256270  0.4060851867796352
  0.4571320560666551  0.7897069669076522  0.4007752874370378
  0.4578938026215820  0.9158613872720324  0.3995487831853805
  0.5828748213968854  0.0403076997593427  0.3995808353089305
  0.5834054572559625  0.1660280534796315  0.3993737209822054
  0.5844523683915370  0.2915602917988428  0.3995409923962313
  0.5872343563530603  0.4168863239017581  0.4010740569461567
  0.5893640036692374  0.5415583357798951  0.4050708545097827
  0.5834847222746139  0.6623880750729749  0.4060997446478221
  0.5809301326375799  0.7868482294734868  0.4024741498963643
  0.5823082908287208  0.9141537802488525  0.4001634516250149
  0.7074576247077711  0.0398785842623621  0.3997550672072076
  0.7079025439059269  0.1654668352092087  0.3995696941630283
  0.7087094375292502  0.2909281601896467  0.3991546107024849
  0.7102854759091957  0.4162024904783141  0.3985687603519802
  0.7114844387894010  0.5414415704762674  0.3989866967310512
  0.7103506874407470  0.6665076296824257  0.4009324157477918
  0.7075705535994683  0.7897012023086191  0.4008375154248963
  0.7068534733474727  0.9141722116698238  0.4001739859141171
  0.8324775772835463  0.0403145515782991  0.3995789023236445
  0.8325661947790286  0.1654578739903718  0.3995657698645430
  0.8328436721887607  0.2906582105070591  0.3993625312202114
  0.8337682094109595  0.4161824208019792  0.3989922572608779
  0.8348591073551982  0.5418075018620155  0.3986201918676455
  0.8349413011429033  0.6670736253214548  0.3989777869280647
  0.8340829393018637  0.7918667541241685  0.3995035002837943
  0.8329947714617371  0.9158664031914747  0.3995691949786087
  0.9584164011216614  0.0417757552364314  0.3994214029192656
  0.9576488803846462  0.1660368218795962  0.3993641301734203
  0.9572094909123030  0.2909221711813854  0.3990871109191056
  0.9573708704349555  0.4161784971092002  0.3989283044592261
  0.9583574132567874  0.5417496807992396  0.3990428205409862
  0.9591432788290352  0.6673461812217100  0.3991879240000152
  0.9593374350737581  0.7926792979732530  0.3993952280850530
  0.9590606442503142  0.9174956291549865  0.3994509204804818
  0.4085297578431309  0.5814194680284940  0.4108591576494421
  0.5478589137962677  0.5814177871585628  0.4108634656480889
  0.3271939288471319  0.4185831134867807  0.4107118097744926
  0.4663606932430475  0.4185827184702108  0.4107181514380096
 
  0.00000000E+00  0.00000000E+00  0.00000000E+00
  0.00000000E+00  0.00000000E+00  0.00000000E+00
  0.00000000E+00  0.00000000E+00  0.00000000E+00
  0.00000000E+00  0.00000000E+00  0.00000000E+00
  0.00000000E+00  0.00000000E+00  0.00000000E+00
  0.00000000E+00  0.00000000E+00  0.00000000E+00
  0.00000000E+00  0.00000000E+00  0.00000000E+00
  0.00000000E+00  0.00000000E+00  0.00000000E+00
  0.00000000E+00  0.00000000E+00  0.00000000E+00
  0.00000000E+00  0.00000000E+00  0.00000000E+00
  0.00000000E+00  0.00000000E+00  0.00000000E+00
  0.00000000E+00  0.00000000E+00  0.00000000E+00
  0.00000000E+00  0.00000000E+00  0.00000000E+00
  0.00000000E+00  0.00000000E+00  0.00000000E+00
  0.00000000E+00  0.00000000E+00  0.00000000E+00
  0.00000000E+00  0.00000000E+00  0.00000000E+00
  0.00000000E+00  0.00000000E+00  0.00000000E+00
  0.00000000E+00  0.00000000E+00  0.00000000E+00
  0.00000000E+00  0.00000000E+00  0.00000000E+00
  0.00000000E+00  0.00000000E+00  0.00000000E+00
  0.00000000E+00  0.00000000E+00  0.00000000E+00
  0.00000000E+00  0.00000000E+00  0.00000000E+00
  0.00000000E+00  0.00000000E+00  0.00000000E+00
  0.00000000E+00  0.00000000E+00  0.00000000E+00
  0.00000000E+00  0.00000000E+00  0.00000000E+00
  0.00000000E+00  0.00000000E+00  0.00000000E+00
  0.00000000E+00  0.00000000E+00  0.00000000E+00
  0.00000000E+00  0.00000000E+00  0.00000000E+00
  0.00000000E+00  0.00000000E+00  0.00000000E+00
  0.00000000E+00  0.00000000E+00  0.00000000E+00
  0.00000000E+00  0.00000000E+00  0.00000000E+00
  0.00000000E+00  0.00000000E+00  0.00000000E+00
  0.00000000E+00  0.00000000E+00  0.00000000E+00
  0.00000000E+00  0.00000000E+00  0.00000000E+00
  0.00000000E+00  0.00000000E+00  0.00000000E+00
  0.00000000E+00  0.00000000E+00  0.00000000E+00
  0.00000000E+00  0.00000000E+00  0.00000000E+00
  0.00000000E+00  0.00000000E+00  0.00000000E+00
  0.00000000E+00  0.00000000E+00  0.00000000E+00
  0.00000000E+00  0.00000000E+00  0.00000000E+00
  0.00000000E+00  0.00000000E+00  0.00000000E+00
  0.00000000E+00  0.00000000E+00  0.00000000E+00
  0.00000000E+00  0.00000000E+00  0.00000000E+00
  0.00000000E+00  0.00000000E+00  0.00000000E+00
  0.00000000E+00  0.00000000E+00  0.00000000E+00
  0.00000000E+00  0.00000000E+00  0.00000000E+00
  0.00000000E+00  0.00000000E+00  0.00000000E+00
  0.00000000E+00  0.00000000E+00  0.00000000E+00
  0.00000000E+00  0.00000000E+00  0.00000000E+00
  0.00000000E+00  0.00000000E+00  0.00000000E+00
  0.00000000E+00  0.00000000E+00  0.00000000E+00
  0.00000000E+00  0.00000000E+00  0.00000000E+00
  0.00000000E+00  0.00000000E+00  0.00000000E+00
  0.00000000E+00  0.00000000E+00  0.00000000E+00
  0.00000000E+00  0.00000000E+00  0.00000000E+00
  0.00000000E+00  0.00000000E+00  0.00000000E+00
  0.00000000E+00  0.00000000E+00  0.00000000E+00
  0.00000000E+00  0.00000000E+00  0.00000000E+00
  0.00000000E+00  0.00000000E+00  0.00000000E+00
  0.00000000E+00  0.00000000E+00  0.00000000E+00
  0.00000000E+00  0.00000000E+00  0.00000000E+00
  0.00000000E+00  0.00000000E+00  0.00000000E+00
  0.00000000E+00  0.00000000E+00  0.00000000E+00
  0.00000000E+00  0.00000000E+00  0.00000000E+00
  0.00000000E+00  0.00000000E+00  0.00000000E+00
  0.00000000E+00  0.00000000E+00  0.00000000E+00
  0.00000000E+00  0.00000000E+00  0.00000000E+00
  0.00000000E+00  0.00000000E+00  0.00000000E+00
  0.00000000E+00  0.00000000E+00  0.00000000E+00
  0.00000000E+00  0.00000000E+00  0.00000000E+00
  0.00000000E+00  0.00000000E+00  0.00000000E+00
  0.00000000E+00  0.00000000E+00  0.00000000E+00
  0.00000000E+00  0.00000000E+00  0.00000000E+00
  0.00000000E+00  0.00000000E+00  0.00000000E+00
  0.00000000E+00  0.00000000E+00  0.00000000E+00
  0.00000000E+00  0.00000000E+00  0.00000000E+00
  0.00000000E+00  0.00000000E+00  0.00000000E+00
  0.00000000E+00  0.00000000E+00  0.00000000E+00
  0.00000000E+00  0.00000000E+00  0.00000000E+00
  0.00000000E+00  0.00000000E+00  0.00000000E+00
  0.00000000E+00  0.00000000E+00  0.00000000E+00
  0.00000000E+00  0.00000000E+00  0.00000000E+00
  0.00000000E+00  0.00000000E+00  0.00000000E+00
  0.00000000E+00  0.00000000E+00  0.00000000E+00
  0.00000000E+00  0.00000000E+00  0.00000000E+00
  0.00000000E+00  0.00000000E+00  0.00000000E+00
  0.00000000E+00  0.00000000E+00  0.00000000E+00
  0.00000000E+00  0.00000000E+00  0.00000000E+00
  0.00000000E+00  0.00000000E+00  0.00000000E+00
  0.00000000E+00  0.00000000E+00  0.00000000E+00
  0.00000000E+00  0.00000000E+00  0.00000000E+00
  0.00000000E+00  0.00000000E+00  0.00000000E+00
  0.00000000E+00  0.00000000E+00  0.00000000E+00
  0.00000000E+00  0.00000000E+00  0.00000000E+00
  0.00000000E+00  0.00000000E+00  0.00000000E+00
  0.00000000E+00  0.00000000E+00  0.00000000E+00
  0.00000000E+00  0.00000000E+00  0.00000000E+00
  0.00000000E+00  0.00000000E+00  0.00000000E+00
  0.00000000E+00  0.00000000E+00  0.00000000E+00
  0.00000000E+00  0.00000000E+00  0.00000000E+00
  0.00000000E+00  0.00000000E+00  0.00000000E+00
  0.00000000E+00  0.00000000E+00  0.00000000E+00
  0.00000000E+00  0.00000000E+00  0.00000000E+00
  0.00000000E+00  0.00000000E+00  0.00000000E+00
  0.00000000E+00  0.00000000E+00  0.00000000E+00
  0.00000000E+00  0.00000000E+00  0.00000000E+00
  0.00000000E+00  0.00000000E+00  0.00000000E+00
  0.00000000E+00  0.00000000E+00  0.00000000E+00
  0.00000000E+00  0.00000000E+00  0.00000000E+00
  0.00000000E+00  0.00000000E+00  0.00000000E+00
  0.00000000E+00  0.00000000E+00  0.00000000E+00
  0.00000000E+00  0.00000000E+00  0.00000000E+00
  0.00000000E+00  0.00000000E+00  0.00000000E+00
  0.00000000E+00  0.00000000E+00  0.00000000E+00
  0.00000000E+00  0.00000000E+00  0.00000000E+00
  0.00000000E+00  0.00000000E+00  0.00000000E+00
  0.00000000E+00  0.00000000E+00  0.00000000E+00
  0.00000000E+00  0.00000000E+00  0.00000000E+00
  0.00000000E+00  0.00000000E+00  0.00000000E+00
  0.00000000E+00  0.00000000E+00  0.00000000E+00
  0.00000000E+00  0.00000000E+00  0.00000000E+00
  0.00000000E+00  0.00000000E+00  0.00000000E+00
  0.00000000E+00  0.00000000E+00  0.00000000E+00
  0.00000000E+00  0.00000000E+00  0.00000000E+00
  0.00000000E+00  0.00000000E+00  0.00000000E+00
  0.00000000E+00  0.00000000E+00  0.00000000E+00
  0.00000000E+00  0.00000000E+00  0.00000000E+00
