Hf1 C126 O1                             
   1.00000000000000     
    19.7712212465981452   -0.0002276589977291   -0.0549996912728538
    -9.8856906252886567   17.1128038190911731   -0.1024199394708930
    -0.0826150363302664   -0.2251018715618923   29.7425784489407370
   Hf   C    O 
     1   126     1
Direct
  0.4400045123899980  0.5020937127832424  0.4435695718834442
  0.0415582375945437  0.0832988800996985  0.3995706118836885
  0.0412761692166005  0.2080770527621769  0.3992944001953666
  0.0412886173359978  0.3331609620614873  0.3990755727216510
  0.0414211232781894  0.4584598991674771  0.3993273386714851
  0.0416195105364407  0.5835237753121384  0.3998065831969210
  0.0418101259153571  0.7085443792109533  0.4000274712145532
  0.0419125825312584  0.8336102135990107  0.3999775530316989
  0.0418757517213627  0.9585440233351056  0.3997782638669382
  0.1667253336481509  0.0834610472098573  0.3998549797129118
  0.1661802167542256  0.2078674903897789  0.4000555532988824
  0.1659695783376919  0.3330165425306748  0.3997658679801799
  0.1658729757886914  0.4582749460056816  0.3986819281065816
  0.1662992451921810  0.5834922135457747  0.3989029161343224
  0.1666249017515861  0.7086389445751206  0.3995978104349420
  0.1667660238996390  0.8336019406487388  0.3999453858598180
  0.1668619833033247  0.9586558165510093  0.3998419823522794
  0.2918337159372181  0.0834895576283744  0.3997916216163309
  0.2919483607544750  0.2088239439875428  0.4012350645122021
  0.2908032925310880  0.3330952804621684  0.4036199968288536
  0.2903022115192553  0.4573938980570049  0.4018345140979920
  0.2908244508902036  0.5839798043512319  0.3991066787232580
  0.2914025382516788  0.7088124271793215  0.3989940781643080
  0.2917010545676274  0.8336817274099858  0.3995832278294980
  0.2917377020037389  0.9585389008637094  0.3997379341619125
  0.4168151181142893  0.0832988840820789  0.3995486792490991
  0.4167715377563160  0.2078786170718017  0.3999673418775748
  0.4173658711148370  0.3330848138278996  0.4029587426296119
  0.4146882935049999  0.5858922149593405  0.4058343467585740
  0.4165274904489132  0.7091511127648743  0.3998491133836298
  0.4166596479507048  0.8338312188104062  0.3993488584715897
  0.4167032786936120  0.9585075715517313  0.3996427496141863
  0.5417679403383784  0.0832892492767516  0.3997114011063835
  0.5418689725357653  0.2080838350515942  0.3993162808301526
  0.5421142368512802  0.3330178296770142  0.3994841051963183
  0.5421853000096873  0.4573556249421354  0.4007479146600116
  0.5463107585676444  0.5857871214616294  0.4043944284991281
  0.5420249205931716  0.7089654336281490  0.4017510806065389
  0.5415966971189692  0.8335632790760179  0.3998678502473408
  0.5417789203164710  0.9584710049604772  0.3997508977719357
  0.6667143496656821  0.0833099030384739  0.3999757202176830
  0.6668358812233962  0.2082816506779736  0.3997101102690861
  0.6669256837293265  0.3331417408196498  0.3990863074915423
  0.6674755428385087  0.4582635984242577  0.3985195214790098
  0.6682455015113136  0.5839685096913775  0.3987403660464490
  0.6676783968943696  0.7091220957887006  0.3995268040109456
  0.6670266477591591  0.8335441139546459  0.3997926444098986
  0.6667747541320087  0.9584677831728695  0.3998689770608379
  0.7916956698101942  0.0833098088826151  0.3999627177454442
  0.7916915881801834  0.2082884216554837  0.3999956011992032
  0.7918346405797085  0.3333359005376930  0.3997856107798903
  0.7920965584419033  0.4584428006982083  0.3993624071639169
  0.7922570533107345  0.5834976010377112  0.3988720593633225
  0.7924639740474887  0.7088028708072093  0.3989663357514722
  0.7922325694098946  0.8338084111152261  0.3993560241859455
  0.7917674518087326  0.9584448269908972  0.3997467697116488
  0.9166067046519327  0.0832826123185443  0.3996632376754484
  0.9165281492795653  0.2082944603532677  0.3996816935959720
  0.9166000750799039  0.3333468285786458  0.3997667400468018
  0.9167361076560143  0.4583890041542890  0.3998945624855579
  0.9169666639695632  0.5835144968935519  0.3998068734853302
  0.9170808938396728  0.7086516291106995  0.3996536936777020
  0.9170447359818683  0.8336829980525126  0.3996508376212697
  0.9168854421705926  0.9585007878560348  0.3996717787073851
  0.0834422654643328  0.0418053551322857  0.3997003613950032
  0.0829578440839731  0.1664134925608494  0.3994563807151280
  0.0827213996222150  0.2914008722026443  0.3991441680905842
  0.0829245858330136  0.4167112112455057  0.3988955610016435
  0.0830757470321993  0.5417825528487743  0.3993699365129427
  0.0833805995312490  0.6669248964551767  0.3998700511472820
  0.0835341611759599  0.7919853173755739  0.4000358962657370
  0.0835177540471323  0.9169646495261108  0.3998871690435115
  0.2084530830157107  0.0418148038774409  0.3998106278495859
  0.2081766131289735  0.1667080554478862  0.4003894605018610
  0.2075167222595440  0.2911095510008958  0.4007688443641191
  0.2069412221704857  0.4162227754851013  0.3995189605085295
  0.2076866162321583  0.5419047999790322  0.3986144327009703
  0.2082143046629355  0.6670475652081441  0.3990914644178296
  0.2083627484887838  0.7919594673297979  0.3997518384364270
  0.2085192258167186  0.9169622523384711  0.3998741483607958
  0.3334374569330570  0.0418047974543045  0.3996405099284298
  0.3336194256135647  0.1667349248872302  0.4002862377782170
  0.3332544845269964  0.2914291484033904  0.4032781400486985
  0.3289960738545919  0.4147377540617391  0.4071723151553726
  0.3330868828098395  0.5429172799537013  0.4013566823603555
  0.3330561705457952  0.6671985376188642  0.3992149148199141
  0.3333098620108034  0.7921448782903494  0.3992654218220101
  0.3334614552511237  0.9169599634758009  0.3996813121068631
  0.4585252853657862  0.0417598829685269  0.3996310692679936
  0.4585286480480553  0.1664079001421693  0.3994512107706648
  0.4586725067842072  0.2911121111636242  0.4004270802064472
  0.4608889626794413  0.4147541413573270  0.4056344658914472
  0.4579410183268187  0.6673045082482781  0.4021348410890666
  0.4584273721376237  0.7923692624744826  0.3995400475763097
  0.4583962141311855  0.9169547957388535  0.3995928515347534
  0.5834931486838536  0.0417255209431347  0.3998620304555788
  0.5834936795039871  0.1665590855849516  0.3995584590155291
  0.5837551644087692  0.2913911744377931  0.3991052368108849
  0.5843772651372648  0.4161975999133793  0.3990971094721725
  0.5849130410424592  0.5428568542053308  0.4003154661503163
  0.5844314981390473  0.6672793649930208  0.4015194490903883
  0.5832826634553526  0.7914909332225873  0.4002973491237820
  0.5833845814983510  0.9167940981298692  0.3997785889089542
  0.7083592112571865  0.0416280822550521  0.3999824447500098
  0.7084490795418460  0.1666565043644693  0.3999540317067082
  0.7085664317774791  0.2915951375402380  0.3995344760148714
  0.7088589894467430  0.4166898040225185  0.3988922770690256
  0.7092884481647929  0.5418951690635445  0.3984586670385816
  0.7091934062700933  0.6671667983792223  0.3989680546922033
  0.7090105564655137  0.7923574941428716  0.3994482209295510
  0.7084807143245866  0.9167807359150614  0.3997660804336137
  0.8333272360228527  0.0417210501249653  0.3998258237231374
  0.8333084696626785  0.1666679705118647  0.3999436143372807
  0.8334216390521026  0.2917384779315809  0.3999346353952591
  0.8335886769882118  0.4167410136801887  0.3997583257474894
  0.8337658424243554  0.5417672529873684  0.3993777326971241
  0.8338976833921659  0.6670568675607808  0.3991099773922870
  0.8338966716628177  0.7921276022034757  0.3993013861780154
  0.8336363384120914  0.9169301306396134  0.3996153469163564
  0.9583240082831230  0.0417556510801299  0.3996188347967052
  0.9581475430283980  0.1665631136825874  0.3995173972484575
  0.9581249137946505  0.2916085802487555  0.3994956817118945
  0.9582474425311815  0.4167582368623422  0.3997248800956014
  0.9584938580116008  0.5418993297718010  0.3999303473267167
  0.9586271382629339  0.6669248382261000  0.3998906569039259
  0.9586794930357854  0.7919711735892196  0.3998191876116709
  0.9585948745010282  0.9169768634370868  0.3997298116102695
  0.4457163446950987  0.5056269406170281  0.5043869254132579
 
  0.00000000E+00  0.00000000E+00  0.00000000E+00
  0.00000000E+00  0.00000000E+00  0.00000000E+00
  0.00000000E+00  0.00000000E+00  0.00000000E+00
  0.00000000E+00  0.00000000E+00  0.00000000E+00
  0.00000000E+00  0.00000000E+00  0.00000000E+00
  0.00000000E+00  0.00000000E+00  0.00000000E+00
  0.00000000E+00  0.00000000E+00  0.00000000E+00
  0.00000000E+00  0.00000000E+00  0.00000000E+00
  0.00000000E+00  0.00000000E+00  0.00000000E+00
  0.00000000E+00  0.00000000E+00  0.00000000E+00
  0.00000000E+00  0.00000000E+00  0.00000000E+00
  0.00000000E+00  0.00000000E+00  0.00000000E+00
  0.00000000E+00  0.00000000E+00  0.00000000E+00
  0.00000000E+00  0.00000000E+00  0.00000000E+00
  0.00000000E+00  0.00000000E+00  0.00000000E+00
  0.00000000E+00  0.00000000E+00  0.00000000E+00
  0.00000000E+00  0.00000000E+00  0.00000000E+00
  0.00000000E+00  0.00000000E+00  0.00000000E+00
  0.00000000E+00  0.00000000E+00  0.00000000E+00
  0.00000000E+00  0.00000000E+00  0.00000000E+00
  0.00000000E+00  0.00000000E+00  0.00000000E+00
  0.00000000E+00  0.00000000E+00  0.00000000E+00
  0.00000000E+00  0.00000000E+00  0.00000000E+00
  0.00000000E+00  0.00000000E+00  0.00000000E+00
  0.00000000E+00  0.00000000E+00  0.00000000E+00
  0.00000000E+00  0.00000000E+00  0.00000000E+00
  0.00000000E+00  0.00000000E+00  0.00000000E+00
  0.00000000E+00  0.00000000E+00  0.00000000E+00
  0.00000000E+00  0.00000000E+00  0.00000000E+00
  0.00000000E+00  0.00000000E+00  0.00000000E+00
  0.00000000E+00  0.00000000E+00  0.00000000E+00
  0.00000000E+00  0.00000000E+00  0.00000000E+00
  0.00000000E+00  0.00000000E+00  0.00000000E+00
  0.00000000E+00  0.00000000E+00  0.00000000E+00
  0.00000000E+00  0.00000000E+00  0.00000000E+00
  0.00000000E+00  0.00000000E+00  0.00000000E+00
  0.00000000E+00  0.00000000E+00  0.00000000E+00
  0.00000000E+00  0.00000000E+00  0.00000000E+00
  0.00000000E+00  0.00000000E+00  0.00000000E+00
  0.00000000E+00  0.00000000E+00  0.00000000E+00
  0.00000000E+00  0.00000000E+00  0.00000000E+00
  0.00000000E+00  0.00000000E+00  0.00000000E+00
  0.00000000E+00  0.00000000E+00  0.00000000E+00
  0.00000000E+00  0.00000000E+00  0.00000000E+00
  0.00000000E+00  0.00000000E+00  0.00000000E+00
  0.00000000E+00  0.00000000E+00  0.00000000E+00
  0.00000000E+00  0.00000000E+00  0.00000000E+00
  0.00000000E+00  0.00000000E+00  0.00000000E+00
  0.00000000E+00  0.00000000E+00  0.00000000E+00
  0.00000000E+00  0.00000000E+00  0.00000000E+00
  0.00000000E+00  0.00000000E+00  0.00000000E+00
  0.00000000E+00  0.00000000E+00  0.00000000E+00
  0.00000000E+00  0.00000000E+00  0.00000000E+00
  0.00000000E+00  0.00000000E+00  0.00000000E+00
  0.00000000E+00  0.00000000E+00  0.00000000E+00
  0.00000000E+00  0.00000000E+00  0.00000000E+00
  0.00000000E+00  0.00000000E+00  0.00000000E+00
  0.00000000E+00  0.00000000E+00  0.00000000E+00
  0.00000000E+00  0.00000000E+00  0.00000000E+00
  0.00000000E+00  0.00000000E+00  0.00000000E+00
  0.00000000E+00  0.00000000E+00  0.00000000E+00
  0.00000000E+00  0.00000000E+00  0.00000000E+00
  0.00000000E+00  0.00000000E+00  0.00000000E+00
  0.00000000E+00  0.00000000E+00  0.00000000E+00
  0.00000000E+00  0.00000000E+00  0.00000000E+00
  0.00000000E+00  0.00000000E+00  0.00000000E+00
  0.00000000E+00  0.00000000E+00  0.00000000E+00
  0.00000000E+00  0.00000000E+00  0.00000000E+00
  0.00000000E+00  0.00000000E+00  0.00000000E+00
  0.00000000E+00  0.00000000E+00  0.00000000E+00
  0.00000000E+00  0.00000000E+00  0.00000000E+00
  0.00000000E+00  0.00000000E+00  0.00000000E+00
  0.00000000E+00  0.00000000E+00  0.00000000E+00
  0.00000000E+00  0.00000000E+00  0.00000000E+00
  0.00000000E+00  0.00000000E+00  0.00000000E+00
  0.00000000E+00  0.00000000E+00  0.00000000E+00
  0.00000000E+00  0.00000000E+00  0.00000000E+00
  0.00000000E+00  0.00000000E+00  0.00000000E+00
  0.00000000E+00  0.00000000E+00  0.00000000E+00
  0.00000000E+00  0.00000000E+00  0.00000000E+00
  0.00000000E+00  0.00000000E+00  0.00000000E+00
  0.00000000E+00  0.00000000E+00  0.00000000E+00
  0.00000000E+00  0.00000000E+00  0.00000000E+00
  0.00000000E+00  0.00000000E+00  0.00000000E+00
  0.00000000E+00  0.00000000E+00  0.00000000E+00
  0.00000000E+00  0.00000000E+00  0.00000000E+00
  0.00000000E+00  0.00000000E+00  0.00000000E+00
  0.00000000E+00  0.00000000E+00  0.00000000E+00
  0.00000000E+00  0.00000000E+00  0.00000000E+00
  0.00000000E+00  0.00000000E+00  0.00000000E+00
  0.00000000E+00  0.00000000E+00  0.00000000E+00
  0.00000000E+00  0.00000000E+00  0.00000000E+00
  0.00000000E+00  0.00000000E+00  0.00000000E+00
  0.00000000E+00  0.00000000E+00  0.00000000E+00
  0.00000000E+00  0.00000000E+00  0.00000000E+00
  0.00000000E+00  0.00000000E+00  0.00000000E+00
  0.00000000E+00  0.00000000E+00  0.00000000E+00
  0.00000000E+00  0.00000000E+00  0.00000000E+00
  0.00000000E+00  0.00000000E+00  0.00000000E+00
  0.00000000E+00  0.00000000E+00  0.00000000E+00
  0.00000000E+00  0.00000000E+00  0.00000000E+00
  0.00000000E+00  0.00000000E+00  0.00000000E+00
  0.00000000E+00  0.00000000E+00  0.00000000E+00
  0.00000000E+00  0.00000000E+00  0.00000000E+00
  0.00000000E+00  0.00000000E+00  0.00000000E+00
  0.00000000E+00  0.00000000E+00  0.00000000E+00
  0.00000000E+00  0.00000000E+00  0.00000000E+00
  0.00000000E+00  0.00000000E+00  0.00000000E+00
  0.00000000E+00  0.00000000E+00  0.00000000E+00
  0.00000000E+00  0.00000000E+00  0.00000000E+00
  0.00000000E+00  0.00000000E+00  0.00000000E+00
  0.00000000E+00  0.00000000E+00  0.00000000E+00
  0.00000000E+00  0.00000000E+00  0.00000000E+00
  0.00000000E+00  0.00000000E+00  0.00000000E+00
  0.00000000E+00  0.00000000E+00  0.00000000E+00
  0.00000000E+00  0.00000000E+00  0.00000000E+00
  0.00000000E+00  0.00000000E+00  0.00000000E+00
  0.00000000E+00  0.00000000E+00  0.00000000E+00
  0.00000000E+00  0.00000000E+00  0.00000000E+00
  0.00000000E+00  0.00000000E+00  0.00000000E+00
  0.00000000E+00  0.00000000E+00  0.00000000E+00
  0.00000000E+00  0.00000000E+00  0.00000000E+00
  0.00000000E+00  0.00000000E+00  0.00000000E+00
  0.00000000E+00  0.00000000E+00  0.00000000E+00
  0.00000000E+00  0.00000000E+00  0.00000000E+00
  0.00000000E+00  0.00000000E+00  0.00000000E+00
  0.00000000E+00  0.00000000E+00  0.00000000E+00
  0.00000000E+00  0.00000000E+00  0.00000000E+00
