Cu1 H1 C122 N4 O2                       
   1.00000000000000     
    19.8164446095701514   -0.0000144649434545    0.0649705431017093
    -9.9082316620597570   17.0203868281773687   -0.0239825168329038
     0.0978835019551570    0.0149126804661486   29.8340260130242250
   Cu   H    C    N    O 
     1     1   122     4     2
Direct
  0.4371145587508104  0.4998029222217593  0.4141682537425926
  0.5249868721898225  0.5462578643507897  0.5161777459987568
  0.0421258146697982  0.0842749266965510  0.4000375355967547
  0.0409994700161415  0.2082226215602810  0.4001480391620588
  0.0401255146357529  0.3328482246027561  0.3999127070305864
  0.0402741759288055  0.4581792095486228  0.3995654895922135
  0.0412319713301735  0.5837949477259002  0.3993694264570412
  0.0421455315338078  0.7093267127821841  0.3994819880573942
  0.0425155805687617  0.8346557657810357  0.3996493284821894
  0.0426376541772765  0.9598455852489977  0.3997914293381266
  0.1683864386686479  0.0862599307285776  0.4005087236293919
  0.1676062969279359  0.2106297572503563  0.4014024151695655
  0.1649855907986967  0.3337224738192608  0.4015285635742137
  0.1638927392825571  0.4584360021467552  0.4008738027408441
  0.1649480294163508  0.5836487948954975  0.4000330742795672
  0.1663287397092141  0.7090918916132938  0.3995310422503038
  0.1671376862070862  0.8346748217514052  0.3996199874091987
  0.1677052454574095  0.9603775335660861  0.3998306991411498
  0.2928600897778783  0.0862662487443388  0.4005132755615869
  0.2945000940573038  0.2141114278206436  0.4022867442502484
  0.2927212748440178  0.3396065170859563  0.4034177396736067
  0.2872210690796401  0.4577109412122663  0.4028553103243782
  0.2882280847330252  0.5830148556948732  0.4018243584505913
  0.2904485763078304  0.7084532045835810  0.4004719704146250
  0.2916144489333586  0.8340235570762367  0.3997061036762227
  0.2922595463097322  0.9598728507051582  0.3997535912313149
  0.4171749690273876  0.0843252488976906  0.4000620095728751
  0.4179459987563536  0.2106841024273642  0.4014409539864056
  0.4216497698115634  0.3396359010148384  0.4037218576512541
  0.4143139590071114  0.7056912646219644  0.4022529479252178
  0.4159916581067202  0.8320992916461224  0.4004417718878553
  0.4166719584034988  0.9582564063567973  0.3998008927187924
  0.5415536676214270  0.0824662336068934  0.3997701756732520
  0.5421929411814106  0.2082822000709989  0.4001746854172276
  0.5435719463514580  0.3337670367876794  0.4016288096453404
  0.5452106733272365  0.4577031119170090  0.4036199832804324
  0.5378642873538744  0.7009538891396159  0.4035994219554712
  0.5401807486601332  0.8296910945566196  0.4014231128499209
  0.5410135607109074  0.9563773354234935  0.4000460208570460
  0.6660252829363210  0.0816995970613227  0.3997531430245173
  0.6665543860778319  0.2073065562382635  0.3996223551301107
  0.6676197666231179  0.3328997309180766  0.3998635133975843
  0.6693556437113307  0.4584451742378138  0.4008588123267445
  0.6695924578945424  0.5830049948051367  0.4020696420131498
  0.6661826077957627  0.7056838385860827  0.4023400360965814
  0.6644311341627654  0.8296979264717033  0.4014573574578985
  0.6654372261409394  0.9558829696824512  0.4002260511379456
  0.7906765628110303  0.0816738855984260  0.3997242606449439
  0.7910303978472909  0.2071038260317107  0.3996141309297219
  0.7917231142648667  0.3326309797128993  0.3994171890072811
  0.7927852241844217  0.4582010100527099  0.3994300593004139
  0.7935460587202917  0.5836209278902663  0.3999002441945967
  0.7928812242755239  0.7084244291790434  0.4004364329028159
  0.7910455350951243  0.8320598572001076  0.4004795613975747
  0.7903522081259906  0.9563578387481494  0.4000476877280722
  0.9159076274510394  0.0824374673038924  0.3997150727714271
  0.9156855726317024  0.2072818802072232  0.3995776589753001
  0.9158227022242443  0.3326287637349168  0.3994234683236469
  0.9165448666972120  0.4582044201332227  0.3993042424178009
  0.9174514566762670  0.5837947579094633  0.3993234849205344
  0.9176888686753489  0.7090762705181854  0.3995402718815669
  0.9173837783361931  0.8340002259645684  0.3997586691952598
  0.9165861145673155  0.9582201431652104  0.3998277280297906
  0.0846425330362244  0.0436260341756484  0.4000525136510580
  0.0838740746076787  0.1678822828355839  0.4004662236792523
  0.0819647420810331  0.2915180574320481  0.4004675430014097
  0.0812793170309697  0.4163278828188950  0.4000449410118432
  0.0820973344398946  0.5418055704530466  0.3995573309229501
  0.0832093546864121  0.6673659139770545  0.3994203501000748
  0.0839421788511305  0.7928927174803115  0.3996143228179973
  0.0843385905462304  0.9183066711833424  0.3997491851034070
  0.2095671821528148  0.0441225597494781  0.4002306607465678
  0.2104896320041811  0.1703049570182941  0.4014473606873473
  0.2085895084756322  0.2942612220293278  0.4021936890111481
  0.2051691458488268  0.4169302031098908  0.4017462536605563
  0.2054468557107247  0.5415265547568564  0.4008757010520749
  0.2072816506942818  0.6671300063862190  0.3999033392548493
  0.2084180625509003  0.7927124101281502  0.3995777772676898
  0.2090191484800053  0.9183295207036108  0.3997214840343531
  0.3340048314590471  0.0436523933096977  0.4000496552839859
  0.3347469149508273  0.1703095611563711  0.4014908545221567
  0.3369072361865451  0.2990266587122613  0.4035009342677798
  0.3294640514325433  0.5422028693638632  0.4029992322604267
  0.3312443087674259  0.6662292836411186  0.4015897923059593
  0.3327800468336435  0.7917532650657223  0.4001364619722826
  0.3334771270022054  0.9175576158189329  0.3997113076122285
  0.4583674292596236  0.0417818605282371  0.3998289706491598
  0.4589851499744930  0.1679458055880187  0.4005011865756878
  0.4604949208653020  0.2943172294795328  0.4023459660918599
  0.4530909505834772  0.6603380920406073  0.4036310532889743
  0.4569641724095970  0.7893352318403527  0.4013821629107736
  0.4578529962348413  0.9157182001745804  0.4000273520733205
  0.5827871826999992  0.0401585514426111  0.3997936703389172
  0.5833790043889828  0.1660039374322353  0.3997672038468851
  0.5844455642693834  0.2915699567535702  0.4004505572976017
  0.5865566751662207  0.4169489317618628  0.4020307587745350
  0.5874830308792720  0.5421938426978201  0.4037006490620883
  0.5820033170739305  0.6603522457913714  0.4038094420084158
  0.5803942559540787  0.7859033900472987  0.4022832149191410
  0.5821274564050465  0.9137450447749237  0.4004920654239416
  0.7073259137575089  0.0396349891504399  0.3998336233459172
  0.7078483168726448  0.1653471326688848  0.3996517254669922
  0.7085996814585211  0.2909255631874890  0.3995403024909250
  0.7099126611912739  0.4163726868501146  0.3999091815274224
  0.7109119738060024  0.5415249647886400  0.4008607251293692
  0.7098121547328542  0.6662125383638210  0.4016314520844088
  0.7072681586998476  0.7893258383957220  0.4014068423749183
  0.7065981422557466  0.9137491243664064  0.4004975703226422
  0.8323818606477604  0.0401328746209676  0.3997576761289419
  0.8324473874386208  0.1653248563434361  0.3996197803282583
  0.8328054307497735  0.2906716003361698  0.3994812113119396
  0.8336521439620335  0.4162059025291777  0.3993176843334480
  0.8345892967804778  0.5417966660778895  0.3994298472209836
  0.8347348332566749  0.6670962168014239  0.3998550339020222
  0.8339180935628348  0.7917214003992746  0.4001591073292161
  0.8328564950955769  0.9156868767193092  0.4000560891767319
  0.9584097009809809  0.0417426062186380  0.3998033268510681
  0.9575723048177037  0.1659681738427611  0.3997116239366280
  0.9572197509837865  0.2909006945115313  0.3995389672438699
  0.9574285968293038  0.4162009489057599  0.3993729343561174
  0.9583491295858433  0.5417998007300084  0.3993059467274391
  0.9591067632377872  0.6673696173127327  0.3994220217158352
  0.9592629069529107  0.7926974762711252  0.3996167599044564
  0.9590947292277189  0.9175382883284692  0.3997671069678400
  0.4088488029338286  0.5803508715566383  0.4042400935719208
  0.5462285844783449  0.5803458948607011  0.4047510402841059
  0.3284257644660769  0.4195511110813125  0.4038303382346269
  0.4658712345476372  0.4195912684680337  0.4045203941243258
  0.4913117630137186  0.4929827362546103  0.5048180340977447
  0.4304844391253789  0.5002025713686541  0.4837583301602960
 
  0.00000000E+00  0.00000000E+00  0.00000000E+00
  0.00000000E+00  0.00000000E+00  0.00000000E+00
  0.00000000E+00  0.00000000E+00  0.00000000E+00
  0.00000000E+00  0.00000000E+00  0.00000000E+00
  0.00000000E+00  0.00000000E+00  0.00000000E+00
  0.00000000E+00  0.00000000E+00  0.00000000E+00
  0.00000000E+00  0.00000000E+00  0.00000000E+00
  0.00000000E+00  0.00000000E+00  0.00000000E+00
  0.00000000E+00  0.00000000E+00  0.00000000E+00
  0.00000000E+00  0.00000000E+00  0.00000000E+00
  0.00000000E+00  0.00000000E+00  0.00000000E+00
  0.00000000E+00  0.00000000E+00  0.00000000E+00
  0.00000000E+00  0.00000000E+00  0.00000000E+00
  0.00000000E+00  0.00000000E+00  0.00000000E+00
  0.00000000E+00  0.00000000E+00  0.00000000E+00
  0.00000000E+00  0.00000000E+00  0.00000000E+00
  0.00000000E+00  0.00000000E+00  0.00000000E+00
  0.00000000E+00  0.00000000E+00  0.00000000E+00
  0.00000000E+00  0.00000000E+00  0.00000000E+00
  0.00000000E+00  0.00000000E+00  0.00000000E+00
  0.00000000E+00  0.00000000E+00  0.00000000E+00
  0.00000000E+00  0.00000000E+00  0.00000000E+00
  0.00000000E+00  0.00000000E+00  0.00000000E+00
  0.00000000E+00  0.00000000E+00  0.00000000E+00
  0.00000000E+00  0.00000000E+00  0.00000000E+00
  0.00000000E+00  0.00000000E+00  0.00000000E+00
  0.00000000E+00  0.00000000E+00  0.00000000E+00
  0.00000000E+00  0.00000000E+00  0.00000000E+00
  0.00000000E+00  0.00000000E+00  0.00000000E+00
  0.00000000E+00  0.00000000E+00  0.00000000E+00
  0.00000000E+00  0.00000000E+00  0.00000000E+00
  0.00000000E+00  0.00000000E+00  0.00000000E+00
  0.00000000E+00  0.00000000E+00  0.00000000E+00
  0.00000000E+00  0.00000000E+00  0.00000000E+00
  0.00000000E+00  0.00000000E+00  0.00000000E+00
  0.00000000E+00  0.00000000E+00  0.00000000E+00
  0.00000000E+00  0.00000000E+00  0.00000000E+00
  0.00000000E+00  0.00000000E+00  0.00000000E+00
  0.00000000E+00  0.00000000E+00  0.00000000E+00
  0.00000000E+00  0.00000000E+00  0.00000000E+00
  0.00000000E+00  0.00000000E+00  0.00000000E+00
  0.00000000E+00  0.00000000E+00  0.00000000E+00
  0.00000000E+00  0.00000000E+00  0.00000000E+00
  0.00000000E+00  0.00000000E+00  0.00000000E+00
  0.00000000E+00  0.00000000E+00  0.00000000E+00
  0.00000000E+00  0.00000000E+00  0.00000000E+00
  0.00000000E+00  0.00000000E+00  0.00000000E+00
  0.00000000E+00  0.00000000E+00  0.00000000E+00
  0.00000000E+00  0.00000000E+00  0.00000000E+00
  0.00000000E+00  0.00000000E+00  0.00000000E+00
  0.00000000E+00  0.00000000E+00  0.00000000E+00
  0.00000000E+00  0.00000000E+00  0.00000000E+00
  0.00000000E+00  0.00000000E+00  0.00000000E+00
  0.00000000E+00  0.00000000E+00  0.00000000E+00
  0.00000000E+00  0.00000000E+00  0.00000000E+00
  0.00000000E+00  0.00000000E+00  0.00000000E+00
  0.00000000E+00  0.00000000E+00  0.00000000E+00
  0.00000000E+00  0.00000000E+00  0.00000000E+00
  0.00000000E+00  0.00000000E+00  0.00000000E+00
  0.00000000E+00  0.00000000E+00  0.00000000E+00
  0.00000000E+00  0.00000000E+00  0.00000000E+00
  0.00000000E+00  0.00000000E+00  0.00000000E+00
  0.00000000E+00  0.00000000E+00  0.00000000E+00
  0.00000000E+00  0.00000000E+00  0.00000000E+00
  0.00000000E+00  0.00000000E+00  0.00000000E+00
  0.00000000E+00  0.00000000E+00  0.00000000E+00
  0.00000000E+00  0.00000000E+00  0.00000000E+00
  0.00000000E+00  0.00000000E+00  0.00000000E+00
  0.00000000E+00  0.00000000E+00  0.00000000E+00
  0.00000000E+00  0.00000000E+00  0.00000000E+00
  0.00000000E+00  0.00000000E+00  0.00000000E+00
  0.00000000E+00  0.00000000E+00  0.00000000E+00
  0.00000000E+00  0.00000000E+00  0.00000000E+00
  0.00000000E+00  0.00000000E+00  0.00000000E+00
  0.00000000E+00  0.00000000E+00  0.00000000E+00
  0.00000000E+00  0.00000000E+00  0.00000000E+00
  0.00000000E+00  0.00000000E+00  0.00000000E+00
  0.00000000E+00  0.00000000E+00  0.00000000E+00
  0.00000000E+00  0.00000000E+00  0.00000000E+00
  0.00000000E+00  0.00000000E+00  0.00000000E+00
  0.00000000E+00  0.00000000E+00  0.00000000E+00
  0.00000000E+00  0.00000000E+00  0.00000000E+00
  0.00000000E+00  0.00000000E+00  0.00000000E+00
  0.00000000E+00  0.00000000E+00  0.00000000E+00
  0.00000000E+00  0.00000000E+00  0.00000000E+00
  0.00000000E+00  0.00000000E+00  0.00000000E+00
  0.00000000E+00  0.00000000E+00  0.00000000E+00
  0.00000000E+00  0.00000000E+00  0.00000000E+00
  0.00000000E+00  0.00000000E+00  0.00000000E+00
  0.00000000E+00  0.00000000E+00  0.00000000E+00
  0.00000000E+00  0.00000000E+00  0.00000000E+00
  0.00000000E+00  0.00000000E+00  0.00000000E+00
  0.00000000E+00  0.00000000E+00  0.00000000E+00
  0.00000000E+00  0.00000000E+00  0.00000000E+00
  0.00000000E+00  0.00000000E+00  0.00000000E+00
  0.00000000E+00  0.00000000E+00  0.00000000E+00
  0.00000000E+00  0.00000000E+00  0.00000000E+00
  0.00000000E+00  0.00000000E+00  0.00000000E+00
  0.00000000E+00  0.00000000E+00  0.00000000E+00
  0.00000000E+00  0.00000000E+00  0.00000000E+00
  0.00000000E+00  0.00000000E+00  0.00000000E+00
  0.00000000E+00  0.00000000E+00  0.00000000E+00
  0.00000000E+00  0.00000000E+00  0.00000000E+00
  0.00000000E+00  0.00000000E+00  0.00000000E+00
  0.00000000E+00  0.00000000E+00  0.00000000E+00
  0.00000000E+00  0.00000000E+00  0.00000000E+00
  0.00000000E+00  0.00000000E+00  0.00000000E+00
  0.00000000E+00  0.00000000E+00  0.00000000E+00
  0.00000000E+00  0.00000000E+00  0.00000000E+00
  0.00000000E+00  0.00000000E+00  0.00000000E+00
  0.00000000E+00  0.00000000E+00  0.00000000E+00
  0.00000000E+00  0.00000000E+00  0.00000000E+00
  0.00000000E+00  0.00000000E+00  0.00000000E+00
  0.00000000E+00  0.00000000E+00  0.00000000E+00
  0.00000000E+00  0.00000000E+00  0.00000000E+00
  0.00000000E+00  0.00000000E+00  0.00000000E+00
  0.00000000E+00  0.00000000E+00  0.00000000E+00
  0.00000000E+00  0.00000000E+00  0.00000000E+00
  0.00000000E+00  0.00000000E+00  0.00000000E+00
  0.00000000E+00  0.00000000E+00  0.00000000E+00
  0.00000000E+00  0.00000000E+00  0.00000000E+00
  0.00000000E+00  0.00000000E+00  0.00000000E+00
  0.00000000E+00  0.00000000E+00  0.00000000E+00
  0.00000000E+00  0.00000000E+00  0.00000000E+00
  0.00000000E+00  0.00000000E+00  0.00000000E+00
  0.00000000E+00  0.00000000E+00  0.00000000E+00
  0.00000000E+00  0.00000000E+00  0.00000000E+00
  0.00000000E+00  0.00000000E+00  0.00000000E+00
  0.00000000E+00  0.00000000E+00  0.00000000E+00
  0.00000000E+00  0.00000000E+00  0.00000000E+00
