H1 Ru1 C126 O2                          
   1.00000000000000     
    19.7942780829715730   -0.0033296932075909   -0.1628334560215703
    -9.8999220714858502   17.0513647310319172    0.0077843382008260
    -0.2450790471233847   -0.1285693924581448   29.8183189772976505
   H    Ru   C    O 
     1     1   126     2
Direct
  0.5385185645480407  0.5622420572144897  0.5152821148306447
  0.4409417728640177  0.5014538802286951  0.4328368956944643
  0.0422591471248818  0.0842409763068541  0.3996928147676984
  0.0413564299462266  0.2083029352477136  0.3994574891725471
  0.0407715750701231  0.3328938511916529  0.3989276168611027
  0.0407899399801549  0.4582839691767512  0.3988578867809436
  0.0415054568694635  0.5837697709791139  0.3995205181478176
  0.0421306021438979  0.7090649165858367  0.3999628004037913
  0.0423973075217274  0.8344337959035726  0.3999060510395934
  0.0424769200817086  0.9594844243643996  0.3997602883227375
  0.1677801882662525  0.0852786399461356  0.4000773222358484
  0.1678822757215875  0.2103656300666724  0.4004655402928904
  0.1658970030337912  0.3335939952172212  0.4001510977350852
  0.1646230189997729  0.4583830964450911  0.3987558499277098
  0.1654182214886272  0.5835787816551821  0.3984804292141838
  0.1666247643757507  0.7090237430219565  0.3993342684118266
  0.1671928128464677  0.8344254605188737  0.3998829486291111
  0.1675279072416981  0.9598514127540424  0.3999007812549839
  0.2926926571773168  0.0852141224369205  0.3999507581857774
  0.2934770921913893  0.2116654075108831  0.4012881845077801
  0.2944188541207806  0.3381852284735552  0.4041315053864721
  0.2880520172982092  0.4585039145648181  0.4033474364797056
  0.2892306442667834  0.5836036833100353  0.4001860465637216
  0.2911313826182220  0.7087226796295145  0.3991729051333707
  0.2917769107392433  0.8339181569812508  0.3994155338633150
  0.2922105177156689  0.9594478801913986  0.3997380472263637
  0.4172116812107570  0.0840471347400421  0.3996641875367834
  0.4176971019478689  0.2100366973203969  0.3998833346981120
  0.4191394530517041  0.3375430489125095  0.4021034098401119
  0.4112006007722179  0.5793382772067811  0.4091431629452524
  0.4155405372808265  0.7061604123460258  0.4014855267597018
  0.4163584191972385  0.8324905053904370  0.3995818786088014
  0.4167998409497815  0.9582734760175784  0.3995325445292997
  0.5417309470886988  0.0827318586671007  0.3996989189112669
  0.5422079625608948  0.2081337299436090  0.3995510181797329
  0.5429653047350116  0.3333563598946097  0.3994703860646273
  0.5453018898514684  0.4579540403290430  0.4006379756090872
  0.5431245943690008  0.5793535523838854  0.4042591695654109
  0.5399686246320086  0.7049007546044916  0.4032301099787502
  0.5408134756326884  0.8313121416513684  0.4006272874078116
  0.5413605221367502  0.9571541297798035  0.3996590194857805
  0.6663701251021518  0.0822314043339698  0.3997782743021959
  0.6667573121647437  0.2075655262236911  0.3997960445841091
  0.6673860589454075  0.3327965563760797  0.3994601203203137
  0.6689669755850000  0.4582341027775753  0.3991148331346161
  0.6695028331834235  0.5835320904823471  0.3992291000265218
  0.6657782482712518  0.7061752912554626  0.3999778039482286
  0.6656258110744011  0.8313082673425655  0.4001953804257232
  0.6660102288107379  0.9568021802302507  0.3998187901333649
  0.7911731050604248  0.0822590789816669  0.3997913367000347
  0.7913788278561760  0.2074400290424468  0.3999196427343559
  0.7919145868529999  0.3328127610012074  0.3999182390395918
  0.7927566027865808  0.4582700126349185  0.3996409997351387
  0.7932650474952374  0.5835004568851997  0.3992215447741998
  0.7927299556230348  0.7087106375810526  0.3991552914609263
  0.7913138385433601  0.8325515667034190  0.3994065469228625
  0.7910305993778493  0.9572034232030745  0.3996002932366472
  0.9163804878853193  0.0828421470366416  0.3996746180245345
  0.9161693486444350  0.2076424424381721  0.3996656190580679
  0.9162745211090805  0.3328604707138959  0.3996779599269120
  0.9167565564197974  0.4581896518265737  0.3998928980246739
  0.9174616233496328  0.5837512518312697  0.3998980471899672
  0.9175526293914843  0.7090448550446847  0.3996729919122859
  0.9173251229548727  0.8339564816045879  0.3995605136790719
  0.9167756844365670  0.9583986577189878  0.3995658600470741
  0.0842942128623531  0.0430407529378953  0.3997993822870302
  0.0840458242470342  0.1677422608026373  0.3997411828535535
  0.0825362155342319  0.2914968012280579  0.3992389486131109
  0.0819348882084627  0.4165323250879278  0.3985514235038303
  0.0825234269706522  0.5418431852806460  0.3988376525511197
  0.0834233664629989  0.6672979082199409  0.3996673426790984
  0.0839592199002981  0.7927419610302534  0.3999724676617755
  0.0841397163306516  0.9179413327570166  0.3998682605738682
  0.2093015887387154  0.0433691023654169  0.3999803286856822
  0.2096104698170014  0.1689418423188413  0.4006830081649247
  0.2097224559388893  0.2942580419814149  0.4013939674028517
  0.2058383011689338  0.4166409357257770  0.4001380563783919
  0.2062422228432273  0.5417620333661141  0.3987137717258692
  0.2078769579060909  0.6672533144023810  0.3988296845698218
  0.2085569226930260  0.7925491744115952  0.3995936392388681
  0.2089961569672906  0.9179395772250986  0.3998812916304149
  0.3339563794047463  0.0429705107322775  0.3997450720723132
  0.3345424061240935  0.1688811731878342  0.4003053364788592
  0.3353525850821569  0.2952991784994719  0.4030403643232516
  0.3325227995445226  0.4214675673384640  0.4081953587589349
  0.3295557563641369  0.5419969391725011  0.4035598260757871
  0.3323768801961171  0.6667713420238297  0.4002186225085567
  0.3331242890337196  0.7919185260662899  0.3993073084097741
  0.3336069814182191  0.9173436104639514  0.3995689334270078
  0.4585707889552530  0.0417680626513814  0.3996362532785812
  0.4589407677516499  0.1675105682726500  0.3996083493690877
  0.4598176508816759  0.2938081594816722  0.4000601472976782
  0.4639237128038284  0.4205379734793174  0.4039778566097779
  0.4563227233243414  0.6624342484938407  0.4044996092523967
  0.4575878667569785  0.7899434815165475  0.4004128946161085
  0.4581378247214404  0.9160029831948258  0.3995339634711559
  0.5831326464166408  0.0406831756665772  0.3996962705720413
  0.5835600145200170  0.1661437106386819  0.3996934718266398
  0.5842497755961477  0.2913081747250882  0.3993815568063519
  0.5860475928711193  0.4163348846274968  0.3994052447485789
  0.5872673846920634  0.5418363707452604  0.4006121506514456
  0.5813173207563674  0.6625295130394558  0.4021741534277949
  0.5819038067741594  0.7887096573937911  0.4012753737707585
  0.5826445701743500  0.9149691289473768  0.3999401472705026
  0.7078148278266340  0.0403446339802861  0.3997495001566573
  0.7081827826985128  0.1657283098694348  0.3998619606608743
  0.7086904191887161  0.2910283817106040  0.3997580446467093
  0.7098318020291878  0.4164570685066911  0.3993161173373940
  0.7106289528646822  0.5416647615884271  0.3990259835018054
  0.7094172358911528  0.6666458924088083  0.3992595309915110
  0.7075565569765985  0.7900212612674660  0.3997599345804682
  0.7075052611120287  0.9149710544764038  0.3997864035371510
  0.8328818012456344  0.0407517790323882  0.3997003414859210
  0.8328824701040191  0.1657514343134132  0.3998608610757535
  0.8332103129876126  0.2910560608732694  0.3999386531939925
  0.8338370405912753  0.4163597118619762  0.3999279736154103
  0.8344941720676353  0.5417794388610382  0.3996134505935516
  0.8344714168022571  0.6672240341508537  0.3993093075411744
  0.8339402252799003  0.7919217748423761  0.3993391652890749
  0.8331364043554043  0.9160818243196334  0.3995048605067171
  0.9585761058886862  0.0419058873531629  0.3996228440716819
  0.9579835531509409  0.1662700840209554  0.3995672753192650
  0.9577419618169576  0.2911278444076462  0.3993976471527103
  0.9578392304006953  0.4163786783777988  0.3995317857979762
  0.9585826388122249  0.5419252923871324  0.3998878407260508
  0.9590538169583681  0.6672964539913733  0.3999006995602665
  0.9591131040322297  0.7925463259765112  0.3997313927382501
  0.9589796712551922  0.9173980115697631  0.3996361242178398
  0.5004535927960240  0.5065010336837226  0.5101370832780197
  0.4311251015211537  0.5117216042892100  0.4954537343487114
 
  0.00000000E+00  0.00000000E+00  0.00000000E+00
  0.00000000E+00  0.00000000E+00  0.00000000E+00
  0.00000000E+00  0.00000000E+00  0.00000000E+00
  0.00000000E+00  0.00000000E+00  0.00000000E+00
  0.00000000E+00  0.00000000E+00  0.00000000E+00
  0.00000000E+00  0.00000000E+00  0.00000000E+00
  0.00000000E+00  0.00000000E+00  0.00000000E+00
  0.00000000E+00  0.00000000E+00  0.00000000E+00
  0.00000000E+00  0.00000000E+00  0.00000000E+00
  0.00000000E+00  0.00000000E+00  0.00000000E+00
  0.00000000E+00  0.00000000E+00  0.00000000E+00
  0.00000000E+00  0.00000000E+00  0.00000000E+00
  0.00000000E+00  0.00000000E+00  0.00000000E+00
  0.00000000E+00  0.00000000E+00  0.00000000E+00
  0.00000000E+00  0.00000000E+00  0.00000000E+00
  0.00000000E+00  0.00000000E+00  0.00000000E+00
  0.00000000E+00  0.00000000E+00  0.00000000E+00
  0.00000000E+00  0.00000000E+00  0.00000000E+00
  0.00000000E+00  0.00000000E+00  0.00000000E+00
  0.00000000E+00  0.00000000E+00  0.00000000E+00
  0.00000000E+00  0.00000000E+00  0.00000000E+00
  0.00000000E+00  0.00000000E+00  0.00000000E+00
  0.00000000E+00  0.00000000E+00  0.00000000E+00
  0.00000000E+00  0.00000000E+00  0.00000000E+00
  0.00000000E+00  0.00000000E+00  0.00000000E+00
  0.00000000E+00  0.00000000E+00  0.00000000E+00
  0.00000000E+00  0.00000000E+00  0.00000000E+00
  0.00000000E+00  0.00000000E+00  0.00000000E+00
  0.00000000E+00  0.00000000E+00  0.00000000E+00
  0.00000000E+00  0.00000000E+00  0.00000000E+00
  0.00000000E+00  0.00000000E+00  0.00000000E+00
  0.00000000E+00  0.00000000E+00  0.00000000E+00
  0.00000000E+00  0.00000000E+00  0.00000000E+00
  0.00000000E+00  0.00000000E+00  0.00000000E+00
  0.00000000E+00  0.00000000E+00  0.00000000E+00
  0.00000000E+00  0.00000000E+00  0.00000000E+00
  0.00000000E+00  0.00000000E+00  0.00000000E+00
  0.00000000E+00  0.00000000E+00  0.00000000E+00
  0.00000000E+00  0.00000000E+00  0.00000000E+00
  0.00000000E+00  0.00000000E+00  0.00000000E+00
  0.00000000E+00  0.00000000E+00  0.00000000E+00
  0.00000000E+00  0.00000000E+00  0.00000000E+00
  0.00000000E+00  0.00000000E+00  0.00000000E+00
  0.00000000E+00  0.00000000E+00  0.00000000E+00
  0.00000000E+00  0.00000000E+00  0.00000000E+00
  0.00000000E+00  0.00000000E+00  0.00000000E+00
  0.00000000E+00  0.00000000E+00  0.00000000E+00
  0.00000000E+00  0.00000000E+00  0.00000000E+00
  0.00000000E+00  0.00000000E+00  0.00000000E+00
  0.00000000E+00  0.00000000E+00  0.00000000E+00
  0.00000000E+00  0.00000000E+00  0.00000000E+00
  0.00000000E+00  0.00000000E+00  0.00000000E+00
  0.00000000E+00  0.00000000E+00  0.00000000E+00
  0.00000000E+00  0.00000000E+00  0.00000000E+00
  0.00000000E+00  0.00000000E+00  0.00000000E+00
  0.00000000E+00  0.00000000E+00  0.00000000E+00
  0.00000000E+00  0.00000000E+00  0.00000000E+00
  0.00000000E+00  0.00000000E+00  0.00000000E+00
  0.00000000E+00  0.00000000E+00  0.00000000E+00
  0.00000000E+00  0.00000000E+00  0.00000000E+00
  0.00000000E+00  0.00000000E+00  0.00000000E+00
  0.00000000E+00  0.00000000E+00  0.00000000E+00
  0.00000000E+00  0.00000000E+00  0.00000000E+00
  0.00000000E+00  0.00000000E+00  0.00000000E+00
  0.00000000E+00  0.00000000E+00  0.00000000E+00
  0.00000000E+00  0.00000000E+00  0.00000000E+00
  0.00000000E+00  0.00000000E+00  0.00000000E+00
  0.00000000E+00  0.00000000E+00  0.00000000E+00
  0.00000000E+00  0.00000000E+00  0.00000000E+00
  0.00000000E+00  0.00000000E+00  0.00000000E+00
  0.00000000E+00  0.00000000E+00  0.00000000E+00
  0.00000000E+00  0.00000000E+00  0.00000000E+00
  0.00000000E+00  0.00000000E+00  0.00000000E+00
  0.00000000E+00  0.00000000E+00  0.00000000E+00
  0.00000000E+00  0.00000000E+00  0.00000000E+00
  0.00000000E+00  0.00000000E+00  0.00000000E+00
  0.00000000E+00  0.00000000E+00  0.00000000E+00
  0.00000000E+00  0.00000000E+00  0.00000000E+00
  0.00000000E+00  0.00000000E+00  0.00000000E+00
  0.00000000E+00  0.00000000E+00  0.00000000E+00
  0.00000000E+00  0.00000000E+00  0.00000000E+00
  0.00000000E+00  0.00000000E+00  0.00000000E+00
  0.00000000E+00  0.00000000E+00  0.00000000E+00
  0.00000000E+00  0.00000000E+00  0.00000000E+00
  0.00000000E+00  0.00000000E+00  0.00000000E+00
  0.00000000E+00  0.00000000E+00  0.00000000E+00
  0.00000000E+00  0.00000000E+00  0.00000000E+00
  0.00000000E+00  0.00000000E+00  0.00000000E+00
  0.00000000E+00  0.00000000E+00  0.00000000E+00
  0.00000000E+00  0.00000000E+00  0.00000000E+00
  0.00000000E+00  0.00000000E+00  0.00000000E+00
  0.00000000E+00  0.00000000E+00  0.00000000E+00
  0.00000000E+00  0.00000000E+00  0.00000000E+00
  0.00000000E+00  0.00000000E+00  0.00000000E+00
  0.00000000E+00  0.00000000E+00  0.00000000E+00
  0.00000000E+00  0.00000000E+00  0.00000000E+00
  0.00000000E+00  0.00000000E+00  0.00000000E+00
  0.00000000E+00  0.00000000E+00  0.00000000E+00
  0.00000000E+00  0.00000000E+00  0.00000000E+00
  0.00000000E+00  0.00000000E+00  0.00000000E+00
  0.00000000E+00  0.00000000E+00  0.00000000E+00
  0.00000000E+00  0.00000000E+00  0.00000000E+00
  0.00000000E+00  0.00000000E+00  0.00000000E+00
  0.00000000E+00  0.00000000E+00  0.00000000E+00
  0.00000000E+00  0.00000000E+00  0.00000000E+00
  0.00000000E+00  0.00000000E+00  0.00000000E+00
  0.00000000E+00  0.00000000E+00  0.00000000E+00
  0.00000000E+00  0.00000000E+00  0.00000000E+00
  0.00000000E+00  0.00000000E+00  0.00000000E+00
  0.00000000E+00  0.00000000E+00  0.00000000E+00
  0.00000000E+00  0.00000000E+00  0.00000000E+00
  0.00000000E+00  0.00000000E+00  0.00000000E+00
  0.00000000E+00  0.00000000E+00  0.00000000E+00
  0.00000000E+00  0.00000000E+00  0.00000000E+00
  0.00000000E+00  0.00000000E+00  0.00000000E+00
  0.00000000E+00  0.00000000E+00  0.00000000E+00
  0.00000000E+00  0.00000000E+00  0.00000000E+00
  0.00000000E+00  0.00000000E+00  0.00000000E+00
  0.00000000E+00  0.00000000E+00  0.00000000E+00
  0.00000000E+00  0.00000000E+00  0.00000000E+00
  0.00000000E+00  0.00000000E+00  0.00000000E+00
  0.00000000E+00  0.00000000E+00  0.00000000E+00
  0.00000000E+00  0.00000000E+00  0.00000000E+00
  0.00000000E+00  0.00000000E+00  0.00000000E+00
  0.00000000E+00  0.00000000E+00  0.00000000E+00
  0.00000000E+00  0.00000000E+00  0.00000000E+00
  0.00000000E+00  0.00000000E+00  0.00000000E+00
  0.00000000E+00  0.00000000E+00  0.00000000E+00
  0.00000000E+00  0.00000000E+00  0.00000000E+00
  0.00000000E+00  0.00000000E+00  0.00000000E+00
