H1 Rh1 C123 N3                          
   1.00000000000000     
    19.8539445338811262    0.0020311224165479    0.0512021975749067
    -9.9250139276921328   17.0363376403249234   -0.1482190526281396
     0.0773553713401259   -0.2144343599405141   29.7494250070610882
   H    Rh   C    N 
     1     1   123     3
Direct
  0.4382398862246020  0.4862888933130758  0.4629485841545963
  0.4373752623271788  0.4991866589697958  0.4123869927249416
  0.0417963642241274  0.0842281991282130  0.3998759848537346
  0.0404546193476362  0.2080130346759676  0.4001954537517139
  0.0396714055335875  0.3327117320781178  0.3996821824464149
  0.0400140740866709  0.4582297385727109  0.3988952722899109
  0.0412330727800584  0.5840105594682651  0.3987267476127511
  0.0423553417946826  0.7096164419793731  0.3991203285699012
  0.0427636812128203  0.8350452610374003  0.3991479904954814
  0.0426802456505489  0.9600432241301320  0.3991738401253008
  0.1680077511023845  0.0861888379676025  0.4008313677314250
  0.1669017205430282  0.2103003422228562  0.4023220376728848
  0.1641512624591974  0.3335264879960650  0.4023678207232527
  0.1631111487160181  0.4584899552784790  0.4005344596713584
  0.1644423903616614  0.5838954098293687  0.3992202973811615
  0.1662727215312608  0.7094785835860995  0.3991109100144739
  0.1672504183823848  0.8350598188291689  0.3993396537950033
  0.1677832249159575  0.9607086153213223  0.3996719811099336
  0.2929426454427771  0.0864131601681378  0.4008510047424316
  0.2937202225755607  0.2135940909129732  0.4038336122752158
  0.2913079249431724  0.3384682633716418  0.4064037080838686
  0.2856427040344562  0.4578820818215173  0.4052217824224139
  0.2870749581716497  0.5835678267835263  0.4018057157373182
  0.2901745814816080  0.7089685817032385  0.3998180776583313
  0.2915671811310235  0.8344134178633686  0.3991320631313586
  0.2922800209244457  0.9601537625723261  0.3993490321552128
  0.4172777252428325  0.0843684530565109  0.3998404293763723
  0.4181745522917544  0.2104659939469826  0.4023998942088934
  0.4207183625715820  0.3379855809488646  0.4071668733149702
  0.4140340145682641  0.7067330841015497  0.4023929418128693
  0.4158637207627499  0.8326123072767881  0.4000974319242430
  0.4166614839431114  0.9584683049034752  0.3991107973583756
  0.5416023301606294  0.0824436561008790  0.3991055062298912
  0.5424790965047699  0.2082098249000579  0.4001164559066553
  0.5441622505532020  0.3338116572944162  0.4030341154587082
  0.5490382671075535  0.4592005580110742  0.4077220168051490
  0.5379201198414909  0.7010721593382397  0.4053615149415354
  0.5401141567140726  0.8298129432818943  0.4017067515298687
  0.5409816063843712  0.9564113548018940  0.3997627103539163
  0.6659651638229114  0.0815467546278527  0.3995218442274411
  0.6666869757755309  0.2071633564205578  0.3990020252237339
  0.6679803290607088  0.3327236592175398  0.3995886798586444
  0.6708700243336849  0.4585368980657402  0.4014268445707305
  0.6722865519061737  0.5844067042991101  0.4036842214988636
  0.6671160837036028  0.7063060497995737  0.4036983941932778
  0.6645712972764457  0.8297807855123767  0.4020368316381215
  0.6653727989626054  0.9558032929406923  0.4004495298573796
  0.7905079049335410  0.0814906724824284  0.3996149746271735
  0.7909211350873372  0.2068976315960927  0.3992144708883153
  0.7918575313712659  0.3325080681816313  0.3986054114826703
  0.7935089242434984  0.4582882819645654  0.3986419750354442
  0.7946377371568730  0.5839582593581892  0.3995467566879608
  0.7939510430924023  0.7092274121539160  0.4004741751006056
  0.7914316089780499  0.8324151722372286  0.4004826950798253
  0.7902756502512407  0.9563331129845486  0.3999158037510754
  0.9156518533001676  0.0822962566456291  0.3992437647335346
  0.9153589097922490  0.2071041076740376  0.3993320560435696
  0.9156724012679257  0.3325055174374690  0.3989471028687896
  0.9167310464904792  0.4582071827713429  0.3983873446142235
  0.9179458744600608  0.5840212815921868  0.3984892990347520
  0.9182419603275104  0.7094926905033543  0.3990125526628185
  0.9177930856211726  0.8344073421464411  0.3991357963732560
  0.9165923233880595  0.9583051729822618  0.3991735333503654
  0.0844260669912562  0.0436857923067927  0.3998611781305608
  0.0832958779365682  0.1677178524706559  0.4007513676344890
  0.0813621776600215  0.2913551950628202  0.4006002331653660
  0.0807590290397759  0.4162812164501773  0.3995189552582379
  0.0817893249277528  0.5419090838563998  0.3988205521179610
  0.0832777874067215  0.6676679998467535  0.3990270755709970
  0.0841427619325321  0.7933044217606785  0.3993096019421929
  0.0844624927243673  0.9186729563140311  0.3992612689832545
  0.2095591627630994  0.0443741875456243  0.4004453589170325
  0.2097563350290878  0.1700326952080420  0.4023973791166209
  0.2077130325356297  0.2939216707689128  0.4037369012547024
  0.2040124994339634  0.4168038378123660  0.4025776061041111
  0.2045556981371566  0.5417363831881477  0.4002880047797060
  0.2070557664183424  0.6675164412695159  0.3992318589500293
  0.2084187212120778  0.7931027406344590  0.3991799319755743
  0.2091394064965957  0.9187172787961453  0.3994673754755088
  0.3341038929141638  0.0438538899206228  0.3999054513444006
  0.3348701237991000  0.1703350359466827  0.4024328046372980
  0.3358791408720973  0.2978955534967085  0.4063644046780790
  0.3278285402694067  0.5429114927199263  0.4045687667745902
  0.3308144963805971  0.6668792323222886  0.4012496987433165
  0.3326849237680381  0.7922613188115121  0.3995810513572540
  0.3335217718684650  0.9178872768682563  0.3990900979668021
  0.4585004986861577  0.0419176429991186  0.3991883278295383
  0.4592251471499054  0.1678239501673841  0.4007272803250077
  0.4607046850286430  0.2940473928736556  0.4041837369189055
  0.4672316108012569  0.4206514266097762  0.4098232078789392
  0.4527179386895993  0.6618455692690315  0.4049286344935829
  0.4569118751101663  0.7900806866282706  0.4013649536199156
  0.4578419507947427  0.9160475663504344  0.3995594258470859
  0.5828106077833271  0.0401146680409430  0.3993399755890925
  0.5835620802328589  0.1659810740892357  0.3992093805578730
  0.5848301034872406  0.2915555767220802  0.4007459842457832
  0.5884504750591050  0.4171169480722595  0.4040029952356991
  0.5914144350433728  0.5434977909362901  0.4074650251222855
  0.5832484406666086  0.6611654306013607  0.4065240251555583
  0.5804499699911824  0.7859713836657164  0.4031144904600192
  0.5821023774992292  0.9137920173658810  0.4005926385443968
  0.7072412774219446  0.0395228791631423  0.3998918092498144
  0.7078393013561208  0.1651954420505096  0.3991991689764963
  0.7087863227277432  0.2907432578925729  0.3988758269708647
  0.7109019034375339  0.4163512109685702  0.3995994338114967
  0.7125450907716445  0.5418937271481249  0.4013205087449996
  0.7113249146644435  0.6673265279265931  0.4026350969851698
  0.7077371383497495  0.7897838645061552  0.4019987767184657
  0.7065959661926500  0.9137634271688462  0.4007295907155969
  0.8321658766017538  0.0400366210010233  0.3994557471256641
  0.8322400357034728  0.1651540225409722  0.3993843083082016
  0.8327785793748940  0.2905449832203303  0.3988899160495433
  0.8340456637235402  0.4161635584881454  0.3983715808494551
  0.8353367032706926  0.5419532453554747  0.3986642174232689
  0.8355340030109387  0.6676191334179311  0.3995339269887372
  0.8345741911404890  0.7923531589728082  0.3999070436682196
  0.8329615818975024  0.9158700826470497  0.3997541764565467
  0.9581862023628774  0.0417610979395379  0.3992563465654109
  0.9572014127855224  0.1657926831666189  0.3994230110230594
  0.9568773473102220  0.2907206604583253  0.3992692441801172
  0.9573415324854632  0.4161540190493364  0.3987010771602230
  0.9585813728399377  0.5419592899843102  0.3984513533680315
  0.9595078008624732  0.6676744254251433  0.3988406909038505
  0.9596506303184253  0.7930993142343693  0.3990519396759863
  0.9592361995171509  0.9178356129898966  0.3990236632574755
  0.4072144448198714  0.5822782187979154  0.4065917850484349
  0.5494060014495944  0.5811872685816915  0.4095099404649232
  0.3265565479147767  0.4190920679975427  0.4078943886537339
 
  0.00000000E+00  0.00000000E+00  0.00000000E+00
  0.00000000E+00  0.00000000E+00  0.00000000E+00
  0.00000000E+00  0.00000000E+00  0.00000000E+00
  0.00000000E+00  0.00000000E+00  0.00000000E+00
  0.00000000E+00  0.00000000E+00  0.00000000E+00
  0.00000000E+00  0.00000000E+00  0.00000000E+00
  0.00000000E+00  0.00000000E+00  0.00000000E+00
  0.00000000E+00  0.00000000E+00  0.00000000E+00
  0.00000000E+00  0.00000000E+00  0.00000000E+00
  0.00000000E+00  0.00000000E+00  0.00000000E+00
  0.00000000E+00  0.00000000E+00  0.00000000E+00
  0.00000000E+00  0.00000000E+00  0.00000000E+00
  0.00000000E+00  0.00000000E+00  0.00000000E+00
  0.00000000E+00  0.00000000E+00  0.00000000E+00
  0.00000000E+00  0.00000000E+00  0.00000000E+00
  0.00000000E+00  0.00000000E+00  0.00000000E+00
  0.00000000E+00  0.00000000E+00  0.00000000E+00
  0.00000000E+00  0.00000000E+00  0.00000000E+00
  0.00000000E+00  0.00000000E+00  0.00000000E+00
  0.00000000E+00  0.00000000E+00  0.00000000E+00
  0.00000000E+00  0.00000000E+00  0.00000000E+00
  0.00000000E+00  0.00000000E+00  0.00000000E+00
  0.00000000E+00  0.00000000E+00  0.00000000E+00
  0.00000000E+00  0.00000000E+00  0.00000000E+00
  0.00000000E+00  0.00000000E+00  0.00000000E+00
  0.00000000E+00  0.00000000E+00  0.00000000E+00
  0.00000000E+00  0.00000000E+00  0.00000000E+00
  0.00000000E+00  0.00000000E+00  0.00000000E+00
  0.00000000E+00  0.00000000E+00  0.00000000E+00
  0.00000000E+00  0.00000000E+00  0.00000000E+00
  0.00000000E+00  0.00000000E+00  0.00000000E+00
  0.00000000E+00  0.00000000E+00  0.00000000E+00
  0.00000000E+00  0.00000000E+00  0.00000000E+00
  0.00000000E+00  0.00000000E+00  0.00000000E+00
  0.00000000E+00  0.00000000E+00  0.00000000E+00
  0.00000000E+00  0.00000000E+00  0.00000000E+00
  0.00000000E+00  0.00000000E+00  0.00000000E+00
  0.00000000E+00  0.00000000E+00  0.00000000E+00
  0.00000000E+00  0.00000000E+00  0.00000000E+00
  0.00000000E+00  0.00000000E+00  0.00000000E+00
  0.00000000E+00  0.00000000E+00  0.00000000E+00
  0.00000000E+00  0.00000000E+00  0.00000000E+00
  0.00000000E+00  0.00000000E+00  0.00000000E+00
  0.00000000E+00  0.00000000E+00  0.00000000E+00
  0.00000000E+00  0.00000000E+00  0.00000000E+00
  0.00000000E+00  0.00000000E+00  0.00000000E+00
  0.00000000E+00  0.00000000E+00  0.00000000E+00
  0.00000000E+00  0.00000000E+00  0.00000000E+00
  0.00000000E+00  0.00000000E+00  0.00000000E+00
  0.00000000E+00  0.00000000E+00  0.00000000E+00
  0.00000000E+00  0.00000000E+00  0.00000000E+00
  0.00000000E+00  0.00000000E+00  0.00000000E+00
  0.00000000E+00  0.00000000E+00  0.00000000E+00
  0.00000000E+00  0.00000000E+00  0.00000000E+00
  0.00000000E+00  0.00000000E+00  0.00000000E+00
  0.00000000E+00  0.00000000E+00  0.00000000E+00
  0.00000000E+00  0.00000000E+00  0.00000000E+00
  0.00000000E+00  0.00000000E+00  0.00000000E+00
  0.00000000E+00  0.00000000E+00  0.00000000E+00
  0.00000000E+00  0.00000000E+00  0.00000000E+00
  0.00000000E+00  0.00000000E+00  0.00000000E+00
  0.00000000E+00  0.00000000E+00  0.00000000E+00
  0.00000000E+00  0.00000000E+00  0.00000000E+00
  0.00000000E+00  0.00000000E+00  0.00000000E+00
  0.00000000E+00  0.00000000E+00  0.00000000E+00
  0.00000000E+00  0.00000000E+00  0.00000000E+00
  0.00000000E+00  0.00000000E+00  0.00000000E+00
  0.00000000E+00  0.00000000E+00  0.00000000E+00
  0.00000000E+00  0.00000000E+00  0.00000000E+00
  0.00000000E+00  0.00000000E+00  0.00000000E+00
  0.00000000E+00  0.00000000E+00  0.00000000E+00
  0.00000000E+00  0.00000000E+00  0.00000000E+00
  0.00000000E+00  0.00000000E+00  0.00000000E+00
  0.00000000E+00  0.00000000E+00  0.00000000E+00
  0.00000000E+00  0.00000000E+00  0.00000000E+00
  0.00000000E+00  0.00000000E+00  0.00000000E+00
  0.00000000E+00  0.00000000E+00  0.00000000E+00
  0.00000000E+00  0.00000000E+00  0.00000000E+00
  0.00000000E+00  0.00000000E+00  0.00000000E+00
  0.00000000E+00  0.00000000E+00  0.00000000E+00
  0.00000000E+00  0.00000000E+00  0.00000000E+00
  0.00000000E+00  0.00000000E+00  0.00000000E+00
  0.00000000E+00  0.00000000E+00  0.00000000E+00
  0.00000000E+00  0.00000000E+00  0.00000000E+00
  0.00000000E+00  0.00000000E+00  0.00000000E+00
  0.00000000E+00  0.00000000E+00  0.00000000E+00
  0.00000000E+00  0.00000000E+00  0.00000000E+00
  0.00000000E+00  0.00000000E+00  0.00000000E+00
  0.00000000E+00  0.00000000E+00  0.00000000E+00
  0.00000000E+00  0.00000000E+00  0.00000000E+00
  0.00000000E+00  0.00000000E+00  0.00000000E+00
  0.00000000E+00  0.00000000E+00  0.00000000E+00
  0.00000000E+00  0.00000000E+00  0.00000000E+00
  0.00000000E+00  0.00000000E+00  0.00000000E+00
  0.00000000E+00  0.00000000E+00  0.00000000E+00
  0.00000000E+00  0.00000000E+00  0.00000000E+00
  0.00000000E+00  0.00000000E+00  0.00000000E+00
  0.00000000E+00  0.00000000E+00  0.00000000E+00
  0.00000000E+00  0.00000000E+00  0.00000000E+00
  0.00000000E+00  0.00000000E+00  0.00000000E+00
  0.00000000E+00  0.00000000E+00  0.00000000E+00
  0.00000000E+00  0.00000000E+00  0.00000000E+00
  0.00000000E+00  0.00000000E+00  0.00000000E+00
  0.00000000E+00  0.00000000E+00  0.00000000E+00
  0.00000000E+00  0.00000000E+00  0.00000000E+00
  0.00000000E+00  0.00000000E+00  0.00000000E+00
  0.00000000E+00  0.00000000E+00  0.00000000E+00
  0.00000000E+00  0.00000000E+00  0.00000000E+00
  0.00000000E+00  0.00000000E+00  0.00000000E+00
  0.00000000E+00  0.00000000E+00  0.00000000E+00
  0.00000000E+00  0.00000000E+00  0.00000000E+00
  0.00000000E+00  0.00000000E+00  0.00000000E+00
  0.00000000E+00  0.00000000E+00  0.00000000E+00
  0.00000000E+00  0.00000000E+00  0.00000000E+00
  0.00000000E+00  0.00000000E+00  0.00000000E+00
  0.00000000E+00  0.00000000E+00  0.00000000E+00
  0.00000000E+00  0.00000000E+00  0.00000000E+00
  0.00000000E+00  0.00000000E+00  0.00000000E+00
  0.00000000E+00  0.00000000E+00  0.00000000E+00
  0.00000000E+00  0.00000000E+00  0.00000000E+00
  0.00000000E+00  0.00000000E+00  0.00000000E+00
  0.00000000E+00  0.00000000E+00  0.00000000E+00
  0.00000000E+00  0.00000000E+00  0.00000000E+00
  0.00000000E+00  0.00000000E+00  0.00000000E+00
  0.00000000E+00  0.00000000E+00  0.00000000E+00
  0.00000000E+00  0.00000000E+00  0.00000000E+00
  0.00000000E+00  0.00000000E+00  0.00000000E+00
  0.00000000E+00  0.00000000E+00  0.00000000E+00
