Zn1 H1 C126 O2                          
   1.00000000000000     
    19.8336680693172553   -0.0001254019328439    0.0924319470141712
    -9.9168160101716030   17.0655285611566754   -0.0044031855659475
     0.1384724078346919    0.0728032771235782   29.7298640733255937
   Zn   H    C    O 
     1     1   126     2
Direct
  0.4373725698553905  0.4998326151026605  0.4113835987267699
  0.5124866506478828  0.5319011767128197  0.5308085667239486
  0.0416563383524955  0.0837889709534870  0.4000980489882424
  0.0405092852892773  0.2077843138834450  0.4001594870525997
  0.0399720418962195  0.3325330470363637  0.3998555430320645
  0.0401081756346491  0.4581166493024709  0.3994499967663264
  0.0411016624895019  0.5836519618593237  0.3991388912426189
  0.0419565670442691  0.7090514553659613  0.3990207507087106
  0.0423259094117460  0.8344320159216448  0.3992947901658922
  0.0423033369423132  0.9594159824186668  0.3997418054148134
  0.1674343216456173  0.0851128069485896  0.4006276985891833
  0.1666703781961248  0.2094432745706410  0.4013286118252116
  0.1645962433763745  0.3329177550455137  0.4013942964201995
  0.1634270799649674  0.4580973391401784  0.4005523625736455
  0.1647209916299237  0.5835732948633180  0.3999613046026579
  0.1662240432763897  0.7090573730712818  0.3994705783530177
  0.1669047977109489  0.8344120461478429  0.3993083936568187
  0.1673188273188482  0.9598075590103303  0.3998215576140275
  0.2924737303575231  0.0851190885154411  0.4006211511738111
  0.2931367304140643  0.2115052103088456  0.4022720063943134
  0.2919599449779681  0.3365498289808042  0.4039714809239218
  0.2860472886171193  0.4577999187321555  0.4033836599220193
  0.2880679706696617  0.5838930229626652  0.4015794628779316
  0.2905108708675722  0.7088677892673436  0.4005070301625319
  0.2913536584101326  0.8339452801448508  0.3997896817258058
  0.2919118242544849  0.9593785714492971  0.3997542367873882
  0.4169155508263568  0.0837547921903717  0.4001217355561116
  0.4175815613589818  0.2094477876396068  0.4013840378068531
  0.4193987153605697  0.3365918561212612  0.4036069824999272
  0.4095932012751230  0.5812264021732059  0.4044677977992403
  0.4148635551849679  0.7068903270241665  0.4021373163516793
  0.4159331481973335  0.8327207002466329  0.4006143789629664
  0.4164525115250684  0.9582262593211298  0.3998683608546826
  0.5414531135946364  0.0824697136483502  0.3997066433257618
  0.5420968870440602  0.2077838719599456  0.4002626551612445
  0.5431613368497179  0.3329421746364032  0.4014813869032788
  0.5465115652672685  0.4577954223875714  0.4028175848867071
  0.5464546026048797  0.5812550837148879  0.4033099859294499
  0.5398641813628886  0.7049693247924337  0.4032848150821240
  0.5403858499654748  0.8312108050879483  0.4015592727980655
  0.5409936079718115  0.9569841645717551  0.4001433637628569
  0.6660077582005631  0.0819282503394652  0.3995232416995797
  0.6665240596093468  0.2072616546230900  0.3994388126727580
  0.6674151348095283  0.3325300876685262  0.3999232398546155
  0.6695444893960975  0.4580997799992461  0.4007118571865340
  0.6706370993146029  0.5838772725805359  0.4015632715278810
  0.6668387602169970  0.7068907475941243  0.4020654519221112
  0.6656004665649784  0.8311978475341654  0.4015475624420495
  0.6656884829923402  0.9565683524094525  0.4004012739111055
  0.7907612970198745  0.0819310866339975  0.3995531405265298
  0.7909730155078725  0.2071056077449381  0.3991329374379008
  0.7916481999812751  0.3325326885468213  0.3991442619457913
  0.7928792568222152  0.4581236905166158  0.3994056520495015
  0.7936988717205919  0.5835693542895689  0.3999991474969981
  0.7931952961780262  0.7088682944356038  0.4005767377892166
  0.7916108858805364  0.8327377969564568  0.4006463010941262
  0.7907803543334333  0.9569894219063918  0.4001461215312322
  0.9158500356914644  0.0824945256969575  0.3997281315094928
  0.9155637387477699  0.2072683091235732  0.3994891455022015
  0.9157672942092412  0.3325323634293250  0.3992055500844932
  0.9164558894133421  0.4580213432362864  0.3989955766470973
  0.9174094106584787  0.5836583842858991  0.3990804224485924
  0.9176823403758431  0.7090800227416862  0.3994561387150228
  0.9174248621856949  0.8339876165006547  0.3997807457761872
  0.9166055436299795  0.9582646261840808  0.3998598078124739
  0.0839471302414486  0.0429006420391430  0.4001189935966156
  0.0831084045147695  0.1671257222348998  0.4004670118889661
  0.0814963091185380  0.2909513811398023  0.4003681836473305
  0.0810182825904445  0.4162149772035587  0.3998615974456073
  0.0818908889377710  0.5416753260775626  0.3994732292915759
  0.0831167723012028  0.6672451554097445  0.3991411822041280
  0.0837610879807796  0.7927136402891850  0.3991377300519836
  0.0839997107916397  0.9179359658497966  0.3995913230951483
  0.2090537440687510  0.0433137720641615  0.4003938209938853
  0.2090956452569769  0.1686825562006414  0.4014639834672145
  0.2078113895118846  0.2929230685756848  0.4022089184198532
  0.2039902023159283  0.4158813043988436  0.4015942210342303
  0.2052400945081793  0.5416903101790914  0.4006161099159679
  0.2073598157022422  0.6672758278249815  0.3999535546489647
  0.2082048386028960  0.7925443896185228  0.3994758661637173
  0.2087469060464129  0.9179188116697181  0.3995997267079289
  0.3337247266109989  0.0428721226250745  0.4001267266393014
  0.3343755789935940  0.1686882306379139  0.4014617534378333
  0.3347987910131583  0.2948636281572775  0.4036521933893875
  0.3280501477189983  0.4185151664412728  0.4052820875531659
  0.3282033650772183  0.5419756234975409  0.4031439608556859
  0.3316338682583778  0.6668967931818149  0.4014294217217697
  0.3326625799128455  0.7920389377810717  0.4002895696689269
  0.3332630886193333  0.9173371348946018  0.3997550430857946
  0.4582702149839301  0.0415797321100269  0.3998433079922098
  0.4588141796141414  0.1670992877348910  0.4005516560378719
  0.4599252409520029  0.2929261511061614  0.4021399685293179
  0.4652162743125450  0.4185154460373478  0.4042748440882729
  0.4553978071302406  0.6632462676780944  0.4035141743589485
  0.4571778752081364  0.7904016379195409  0.4014414484663522
  0.4578123579997720  0.9160769223582298  0.4001660139424118
  0.5828297038410943  0.0404650988905223  0.3996983398117513
  0.5833761450475318  0.1658539484566963  0.3997468490798363
  0.5842986393024555  0.2909512775670912  0.4005174324867228
  0.5867348435774044  0.4158944008394715  0.4016411645992413
  0.5885255417441464  0.5419592435750191  0.4025564292618581
  0.5826131630659275  0.6632527656454218  0.4031334722894199
  0.5815938537041422  0.7884164404343542  0.4022720121210819
  0.5822895834831517  0.9147929514311179  0.4006876617414411
  0.7074587697218385  0.0400703815754787  0.3997614316768128
  0.7078374314006449  0.1654202606386968  0.3992562284063846
  0.7085353467747831  0.2907303057622875  0.3994388238997455
  0.7100677023693851  0.4162186001408825  0.3999354595797021
  0.7113068132653960  0.5416811264098524  0.4007373341440496
  0.7100772840540717  0.6668901025487149  0.4014472130785461
  0.7080215727859498  0.7904029245288929  0.4014897606070798
  0.7072844472337648  0.9147792538938673  0.4006732693875512
  0.8324648479816598  0.0404826609902542  0.3997370841421081
  0.8324129509392644  0.1654260159568942  0.3992957879653370
  0.8328106791008140  0.2907321235434925  0.3990757571182051
  0.8336562237260633  0.4161205702467221  0.3991048962685776
  0.8346335908992268  0.5416694049196652  0.3994144417912278
  0.8347530294722880  0.6672744660247970  0.3999783422475872
  0.8342054374093781  0.7920597588190859  0.4003229307353440
  0.8330828262075829  0.9161073337558772  0.4001650571854082
  0.9581413580095676  0.0416219341218413  0.3998453000119687
  0.9573107632577129  0.1658724418627331  0.3997472633356193
  0.9570576585097369  0.2907393195370331  0.3994877346857525
  0.9573327008487008  0.4161177949446029  0.3991656386846937
  0.9583086959367185  0.5417418029560312  0.3989731881895144
  0.9589884922759527  0.6672512563407030  0.3991162382448672
  0.9591640724546689  0.7925773009428885  0.3994627426438447
  0.9589115224821939  0.9173911949053916  0.3997450328070412
  0.5000504855790977  0.5012858371759987  0.5029312955673536
  0.4447383335418074  0.5163766094723278  0.4836789241750366
 
  0.00000000E+00  0.00000000E+00  0.00000000E+00
  0.00000000E+00  0.00000000E+00  0.00000000E+00
  0.00000000E+00  0.00000000E+00  0.00000000E+00
  0.00000000E+00  0.00000000E+00  0.00000000E+00
  0.00000000E+00  0.00000000E+00  0.00000000E+00
  0.00000000E+00  0.00000000E+00  0.00000000E+00
  0.00000000E+00  0.00000000E+00  0.00000000E+00
  0.00000000E+00  0.00000000E+00  0.00000000E+00
  0.00000000E+00  0.00000000E+00  0.00000000E+00
  0.00000000E+00  0.00000000E+00  0.00000000E+00
  0.00000000E+00  0.00000000E+00  0.00000000E+00
  0.00000000E+00  0.00000000E+00  0.00000000E+00
  0.00000000E+00  0.00000000E+00  0.00000000E+00
  0.00000000E+00  0.00000000E+00  0.00000000E+00
  0.00000000E+00  0.00000000E+00  0.00000000E+00
  0.00000000E+00  0.00000000E+00  0.00000000E+00
  0.00000000E+00  0.00000000E+00  0.00000000E+00
  0.00000000E+00  0.00000000E+00  0.00000000E+00
  0.00000000E+00  0.00000000E+00  0.00000000E+00
  0.00000000E+00  0.00000000E+00  0.00000000E+00
  0.00000000E+00  0.00000000E+00  0.00000000E+00
  0.00000000E+00  0.00000000E+00  0.00000000E+00
  0.00000000E+00  0.00000000E+00  0.00000000E+00
  0.00000000E+00  0.00000000E+00  0.00000000E+00
  0.00000000E+00  0.00000000E+00  0.00000000E+00
  0.00000000E+00  0.00000000E+00  0.00000000E+00
  0.00000000E+00  0.00000000E+00  0.00000000E+00
  0.00000000E+00  0.00000000E+00  0.00000000E+00
  0.00000000E+00  0.00000000E+00  0.00000000E+00
  0.00000000E+00  0.00000000E+00  0.00000000E+00
  0.00000000E+00  0.00000000E+00  0.00000000E+00
  0.00000000E+00  0.00000000E+00  0.00000000E+00
  0.00000000E+00  0.00000000E+00  0.00000000E+00
  0.00000000E+00  0.00000000E+00  0.00000000E+00
  0.00000000E+00  0.00000000E+00  0.00000000E+00
  0.00000000E+00  0.00000000E+00  0.00000000E+00
  0.00000000E+00  0.00000000E+00  0.00000000E+00
  0.00000000E+00  0.00000000E+00  0.00000000E+00
  0.00000000E+00  0.00000000E+00  0.00000000E+00
  0.00000000E+00  0.00000000E+00  0.00000000E+00
  0.00000000E+00  0.00000000E+00  0.00000000E+00
  0.00000000E+00  0.00000000E+00  0.00000000E+00
  0.00000000E+00  0.00000000E+00  0.00000000E+00
  0.00000000E+00  0.00000000E+00  0.00000000E+00
  0.00000000E+00  0.00000000E+00  0.00000000E+00
  0.00000000E+00  0.00000000E+00  0.00000000E+00
  0.00000000E+00  0.00000000E+00  0.00000000E+00
  0.00000000E+00  0.00000000E+00  0.00000000E+00
  0.00000000E+00  0.00000000E+00  0.00000000E+00
  0.00000000E+00  0.00000000E+00  0.00000000E+00
  0.00000000E+00  0.00000000E+00  0.00000000E+00
  0.00000000E+00  0.00000000E+00  0.00000000E+00
  0.00000000E+00  0.00000000E+00  0.00000000E+00
  0.00000000E+00  0.00000000E+00  0.00000000E+00
  0.00000000E+00  0.00000000E+00  0.00000000E+00
  0.00000000E+00  0.00000000E+00  0.00000000E+00
  0.00000000E+00  0.00000000E+00  0.00000000E+00
  0.00000000E+00  0.00000000E+00  0.00000000E+00
  0.00000000E+00  0.00000000E+00  0.00000000E+00
  0.00000000E+00  0.00000000E+00  0.00000000E+00
  0.00000000E+00  0.00000000E+00  0.00000000E+00
  0.00000000E+00  0.00000000E+00  0.00000000E+00
  0.00000000E+00  0.00000000E+00  0.00000000E+00
  0.00000000E+00  0.00000000E+00  0.00000000E+00
  0.00000000E+00  0.00000000E+00  0.00000000E+00
  0.00000000E+00  0.00000000E+00  0.00000000E+00
  0.00000000E+00  0.00000000E+00  0.00000000E+00
  0.00000000E+00  0.00000000E+00  0.00000000E+00
  0.00000000E+00  0.00000000E+00  0.00000000E+00
  0.00000000E+00  0.00000000E+00  0.00000000E+00
  0.00000000E+00  0.00000000E+00  0.00000000E+00
  0.00000000E+00  0.00000000E+00  0.00000000E+00
  0.00000000E+00  0.00000000E+00  0.00000000E+00
  0.00000000E+00  0.00000000E+00  0.00000000E+00
  0.00000000E+00  0.00000000E+00  0.00000000E+00
  0.00000000E+00  0.00000000E+00  0.00000000E+00
  0.00000000E+00  0.00000000E+00  0.00000000E+00
  0.00000000E+00  0.00000000E+00  0.00000000E+00
  0.00000000E+00  0.00000000E+00  0.00000000E+00
  0.00000000E+00  0.00000000E+00  0.00000000E+00
  0.00000000E+00  0.00000000E+00  0.00000000E+00
  0.00000000E+00  0.00000000E+00  0.00000000E+00
  0.00000000E+00  0.00000000E+00  0.00000000E+00
  0.00000000E+00  0.00000000E+00  0.00000000E+00
  0.00000000E+00  0.00000000E+00  0.00000000E+00
  0.00000000E+00  0.00000000E+00  0.00000000E+00
  0.00000000E+00  0.00000000E+00  0.00000000E+00
  0.00000000E+00  0.00000000E+00  0.00000000E+00
  0.00000000E+00  0.00000000E+00  0.00000000E+00
  0.00000000E+00  0.00000000E+00  0.00000000E+00
  0.00000000E+00  0.00000000E+00  0.00000000E+00
  0.00000000E+00  0.00000000E+00  0.00000000E+00
  0.00000000E+00  0.00000000E+00  0.00000000E+00
  0.00000000E+00  0.00000000E+00  0.00000000E+00
  0.00000000E+00  0.00000000E+00  0.00000000E+00
  0.00000000E+00  0.00000000E+00  0.00000000E+00
  0.00000000E+00  0.00000000E+00  0.00000000E+00
  0.00000000E+00  0.00000000E+00  0.00000000E+00
  0.00000000E+00  0.00000000E+00  0.00000000E+00
  0.00000000E+00  0.00000000E+00  0.00000000E+00
  0.00000000E+00  0.00000000E+00  0.00000000E+00
  0.00000000E+00  0.00000000E+00  0.00000000E+00
  0.00000000E+00  0.00000000E+00  0.00000000E+00
  0.00000000E+00  0.00000000E+00  0.00000000E+00
  0.00000000E+00  0.00000000E+00  0.00000000E+00
  0.00000000E+00  0.00000000E+00  0.00000000E+00
  0.00000000E+00  0.00000000E+00  0.00000000E+00
  0.00000000E+00  0.00000000E+00  0.00000000E+00
  0.00000000E+00  0.00000000E+00  0.00000000E+00
  0.00000000E+00  0.00000000E+00  0.00000000E+00
  0.00000000E+00  0.00000000E+00  0.00000000E+00
  0.00000000E+00  0.00000000E+00  0.00000000E+00
  0.00000000E+00  0.00000000E+00  0.00000000E+00
  0.00000000E+00  0.00000000E+00  0.00000000E+00
  0.00000000E+00  0.00000000E+00  0.00000000E+00
  0.00000000E+00  0.00000000E+00  0.00000000E+00
  0.00000000E+00  0.00000000E+00  0.00000000E+00
  0.00000000E+00  0.00000000E+00  0.00000000E+00
  0.00000000E+00  0.00000000E+00  0.00000000E+00
  0.00000000E+00  0.00000000E+00  0.00000000E+00
  0.00000000E+00  0.00000000E+00  0.00000000E+00
  0.00000000E+00  0.00000000E+00  0.00000000E+00
  0.00000000E+00  0.00000000E+00  0.00000000E+00
  0.00000000E+00  0.00000000E+00  0.00000000E+00
  0.00000000E+00  0.00000000E+00  0.00000000E+00
  0.00000000E+00  0.00000000E+00  0.00000000E+00
  0.00000000E+00  0.00000000E+00  0.00000000E+00
  0.00000000E+00  0.00000000E+00  0.00000000E+00
  0.00000000E+00  0.00000000E+00  0.00000000E+00
  0.00000000E+00  0.00000000E+00  0.00000000E+00
