Ta1 C126 O1                             
   1.00000000000000     
    19.8302337600711382   -0.0002421493936241   -0.0473680719986974
    -9.9153290760181889   17.0661675813375808   -0.0603119401684587
    -0.0705837017897979   -0.1453623056834865   29.7340601740329546
   Ta   C    O 
     1   126     1
Direct
  0.4390374018856513  0.5015405054675637  0.4463105426886307
  0.0417869471321562  0.0837986252372630  0.3988091264357836
  0.0407499343299543  0.2080092161676679  0.3986596344570884
  0.0402690831960391  0.3328119362138068  0.3973837388467908
  0.0404048056391067  0.4582511036844045  0.3954021478326835
  0.0412983509806663  0.5837157831906188  0.3943205463145852
  0.0420444203660812  0.7090665662685804  0.3948546855055662
  0.0423899138217286  0.8344674633212642  0.3964628295201243
  0.0424309422226984  0.9594646068544891  0.3980300433362213
  0.1675793438485109  0.0851892963897843  0.4001296870194210
  0.1665447170945779  0.2092759387253801  0.4019268933091504
  0.1648070771194187  0.3330681621261724  0.4024073019219015
  0.1638620781309609  0.4583402399094114  0.3997635999080536
  0.1650020399204071  0.5836363059924191  0.3969471454565618
  0.1663971008205495  0.7090661736610188  0.3960016421135965
  0.1670566567552705  0.8344395489819640  0.3966920509621530
  0.1674104905819332  0.9598165519447848  0.3982347788503824
  0.2926382253297506  0.0851925209403349  0.4000288619556068
  0.2933402654903272  0.2115805682145047  0.4046466278362738
  0.2906864945554828  0.3356572646551567  0.4112681389490341
  0.2857432938808112  0.4574605136701745  0.4112356633843962
  0.2884330993325129  0.5840499023755703  0.4035331610146969
  0.2907824760339716  0.7090112077606671  0.3991209104345724
  0.2914724263244450  0.8340138917390392  0.3978155554736401
  0.2920297943775257  0.9594412445330404  0.3981934572432186
  0.4170165841898169  0.0837972269297853  0.3986114807635421
  0.4178090814789167  0.2093879233870218  0.4014157716231877
  0.4202394213931396  0.3360635778698218  0.4101431504113753
  0.4100175474414149  0.5835271158416987  0.4174651901057324
  0.4151825513309332  0.7078421421966333  0.4044035000636509
  0.4161656216196101  0.8331345975847758  0.3997880056886435
  0.4166397033542036  0.9584525203071586  0.3984003501246920
  0.5416626517381952  0.0827021651393948  0.3975794135775625
  0.5422302446024591  0.2079755553114225  0.3979163073709660
  0.5432852966210504  0.3330587041859066  0.4011474574835165
  0.5470523606029741  0.4575384540027770  0.4088923662175551
  0.5481637734896251  0.5826145548090689  0.4151280714574040
  0.5404788249133070  0.7057826772842996  0.4094525002671652
  0.5407061932590309  0.8316518772297097  0.4023113500825695
  0.5411995143603203  0.9572499444704587  0.3989528808583466
  0.6661961928638835  0.0821911918815957  0.3975531624706466
  0.6666390153099310  0.2074691202657843  0.3963035163335206
  0.6674985850275943  0.3327711348815211  0.3963178816183834
  0.6695949091193172  0.4583301033253896  0.3984049129569801
  0.6708374738144703  0.5840447565651328  0.4020541662614784
  0.6675774229068009  0.7076423830084292  0.4036198569726818
  0.6659865171887615  0.8315962064532986  0.4021478390619596
  0.6659718208769935  0.9569070969977000  0.3995418153807767
  0.7909978432460315  0.0822166297594729  0.3976975136334963
  0.7911769786385796  0.2073872726278999  0.3963109884871569
  0.7917391115309316  0.3327477819422406  0.3949697739425208
  0.7928509280452375  0.4582185318697387  0.3945752621995776
  0.7937257696918776  0.5836533852293249  0.3959718297374878
  0.7932595557740600  0.7090222924190871  0.3983302734741227
  0.7919681570275300  0.8330920140892422  0.3994853632930814
  0.7910660242170519  0.9572669881464179  0.3989906396623632
  0.9160482933401152  0.0827242284506945  0.3979248083167839
  0.9158236677604470  0.2075053506877403  0.3968655386250620
  0.9159964182002197  0.3327701259697877  0.3953803610216681
  0.9165866393230877  0.4581584068148802  0.3940262076902902
  0.9174152629018861  0.5837075954211098  0.3939325474085358
  0.9176981881083607  0.7090916189066452  0.3954292152471849
  0.9175651219011436  0.8340446082310878  0.3973444873283443
  0.9168219925147864  0.9584681583483764  0.3983170910585417
  0.0840972996209230  0.0429536695283766  0.3989323541276699
  0.0831981611629398  0.1671000352313931  0.3995735557051326
  0.0818775827474585  0.2911654883257355  0.3991624628100595
  0.0814175930405607  0.4164436589920075  0.3971321183129870
  0.0821731923127266  0.5417506255936377  0.3952410397535180
  0.0832602076769021  0.6672227053375379  0.3948166210546218
  0.0838353894646636  0.7926482170265332  0.3959116487683761
  0.0841062452678077  0.9179284922925586  0.3975894824276472
  0.2091872331127090  0.0433170188435452  0.3995645426516414
  0.2092547401411255  0.1686965615165661  0.4023413731359746
  0.2075610068548180  0.2925546121385729  0.4046343288638241
  0.2045235874945656  0.4162478457172781  0.4036588217323477
  0.2056280394162272  0.5418359729185124  0.3997128726000644
  0.2075172308390525  0.6672686012779767  0.3971623300109126
  0.2083448874405522  0.7925626919244512  0.3967489675882710
  0.2088233234975538  0.9178949189915053  0.3977317331012686
  0.3338496504301072  0.0429185728171960  0.3988983982176137
  0.3345237910113326  0.1687354407591122  0.4020703536901609
  0.3350079565993629  0.2948111454216664  0.4099434711295050
  0.3267991835602193  0.4173225938731077  0.4182267821599187
  0.3285761108974915  0.5430763986482041  0.4110205983937661
  0.3318787995168103  0.6672003050821598  0.4022580938010364
  0.3328023980324647  0.7921613308627852  0.3988329758820851
  0.3333462266947241  0.9174084304560037  0.3981385644679934
  0.4583817452659831  0.0416863479553059  0.3981092395327340
  0.4589117244488729  0.1671121801624537  0.3990985178927712
  0.4600721864249406  0.2927171099639855  0.4036796080926797
  0.4660379856808525  0.4181531900693949  0.4158466995836794
  0.4553446399706297  0.6649617571791355  0.4106832022214265
  0.4574036015481285  0.7910402438848267  0.4019381236644666
  0.4580343192697238  0.9163945549977610  0.3989879774998389
  0.5829983762653619  0.0406770669729611  0.3978914433565550
  0.5835100628780544  0.1660464788229397  0.3970422979203819
  0.5842567377686944  0.2911174247234239  0.3981126652392679
  0.5869033097191312  0.4162113919859213  0.4020449015131647
  0.5897162335506878  0.5429116084596216  0.4087237024608433
  0.5844421386501835  0.6645158838895713  0.4096475601088635
  0.5819790084066890  0.7888384917420825  0.4044989425496812
  0.5825017960602549  0.9150746316627015  0.4001537737856903
  0.7076851378049311  0.0403484516293161  0.3981954965541508
  0.7079495103231268  0.1656205102210303  0.3966169454247214
  0.7085758122240379  0.2909195486474520  0.3956321968416650
  0.7100856076157093  0.4163932986694588  0.3959871944709978
  0.7113608894958326  0.5418141852277472  0.3984403795393647
  0.7103967598812009  0.6671848191227037  0.4012208302197520
  0.7086222546302001  0.7909179919143706  0.4015866795209074
  0.7076010157778727  0.9150594830473080  0.4001160022667953
  0.8327096575355107  0.0407181128652123  0.3980976796045801
  0.8326899658629783  0.1656638221023880  0.3968724389970759
  0.8329873425348746  0.2909507958053776  0.3954345333219935
  0.8336959612610509  0.4162403395546669  0.3942715532616181
  0.8346371545973538  0.5417399859548254  0.3944775662569458
  0.8348060474480479  0.6672843957902762  0.3963407291615970
  0.8344065505099051  0.7921729558027095  0.3983128204530317
  0.8333698838113580  0.9163982098690587  0.3988933635067534
  0.9583359713958401  0.0417076573751492  0.3982766889270336
  0.9575542383495002  0.1661007685699648  0.3976314329557640
  0.9573581585107990  0.2909778663937644  0.3963421513619934
  0.9575960437817163  0.4162706687534621  0.3947210778564594
  0.9584189022818651  0.5417874037888118  0.3937937720520985
  0.9590138755965407  0.6672502036368010  0.3944924493917241
  0.9592602207561898  0.7926030153360868  0.3962671235867181
  0.9591039662308155  0.9174394098493780  0.3978732992619314
  0.4470707301468336  0.5061332471565617  0.5056178303472378
 
  0.00000000E+00  0.00000000E+00  0.00000000E+00
  0.00000000E+00  0.00000000E+00  0.00000000E+00
  0.00000000E+00  0.00000000E+00  0.00000000E+00
  0.00000000E+00  0.00000000E+00  0.00000000E+00
  0.00000000E+00  0.00000000E+00  0.00000000E+00
  0.00000000E+00  0.00000000E+00  0.00000000E+00
  0.00000000E+00  0.00000000E+00  0.00000000E+00
  0.00000000E+00  0.00000000E+00  0.00000000E+00
  0.00000000E+00  0.00000000E+00  0.00000000E+00
  0.00000000E+00  0.00000000E+00  0.00000000E+00
  0.00000000E+00  0.00000000E+00  0.00000000E+00
  0.00000000E+00  0.00000000E+00  0.00000000E+00
  0.00000000E+00  0.00000000E+00  0.00000000E+00
  0.00000000E+00  0.00000000E+00  0.00000000E+00
  0.00000000E+00  0.00000000E+00  0.00000000E+00
  0.00000000E+00  0.00000000E+00  0.00000000E+00
  0.00000000E+00  0.00000000E+00  0.00000000E+00
  0.00000000E+00  0.00000000E+00  0.00000000E+00
  0.00000000E+00  0.00000000E+00  0.00000000E+00
  0.00000000E+00  0.00000000E+00  0.00000000E+00
  0.00000000E+00  0.00000000E+00  0.00000000E+00
  0.00000000E+00  0.00000000E+00  0.00000000E+00
  0.00000000E+00  0.00000000E+00  0.00000000E+00
  0.00000000E+00  0.00000000E+00  0.00000000E+00
  0.00000000E+00  0.00000000E+00  0.00000000E+00
  0.00000000E+00  0.00000000E+00  0.00000000E+00
  0.00000000E+00  0.00000000E+00  0.00000000E+00
  0.00000000E+00  0.00000000E+00  0.00000000E+00
  0.00000000E+00  0.00000000E+00  0.00000000E+00
  0.00000000E+00  0.00000000E+00  0.00000000E+00
  0.00000000E+00  0.00000000E+00  0.00000000E+00
  0.00000000E+00  0.00000000E+00  0.00000000E+00
  0.00000000E+00  0.00000000E+00  0.00000000E+00
  0.00000000E+00  0.00000000E+00  0.00000000E+00
  0.00000000E+00  0.00000000E+00  0.00000000E+00
  0.00000000E+00  0.00000000E+00  0.00000000E+00
  0.00000000E+00  0.00000000E+00  0.00000000E+00
  0.00000000E+00  0.00000000E+00  0.00000000E+00
  0.00000000E+00  0.00000000E+00  0.00000000E+00
  0.00000000E+00  0.00000000E+00  0.00000000E+00
  0.00000000E+00  0.00000000E+00  0.00000000E+00
  0.00000000E+00  0.00000000E+00  0.00000000E+00
  0.00000000E+00  0.00000000E+00  0.00000000E+00
  0.00000000E+00  0.00000000E+00  0.00000000E+00
  0.00000000E+00  0.00000000E+00  0.00000000E+00
  0.00000000E+00  0.00000000E+00  0.00000000E+00
  0.00000000E+00  0.00000000E+00  0.00000000E+00
  0.00000000E+00  0.00000000E+00  0.00000000E+00
  0.00000000E+00  0.00000000E+00  0.00000000E+00
  0.00000000E+00  0.00000000E+00  0.00000000E+00
  0.00000000E+00  0.00000000E+00  0.00000000E+00
  0.00000000E+00  0.00000000E+00  0.00000000E+00
  0.00000000E+00  0.00000000E+00  0.00000000E+00
  0.00000000E+00  0.00000000E+00  0.00000000E+00
  0.00000000E+00  0.00000000E+00  0.00000000E+00
  0.00000000E+00  0.00000000E+00  0.00000000E+00
  0.00000000E+00  0.00000000E+00  0.00000000E+00
  0.00000000E+00  0.00000000E+00  0.00000000E+00
  0.00000000E+00  0.00000000E+00  0.00000000E+00
  0.00000000E+00  0.00000000E+00  0.00000000E+00
  0.00000000E+00  0.00000000E+00  0.00000000E+00
  0.00000000E+00  0.00000000E+00  0.00000000E+00
  0.00000000E+00  0.00000000E+00  0.00000000E+00
  0.00000000E+00  0.00000000E+00  0.00000000E+00
  0.00000000E+00  0.00000000E+00  0.00000000E+00
  0.00000000E+00  0.00000000E+00  0.00000000E+00
  0.00000000E+00  0.00000000E+00  0.00000000E+00
  0.00000000E+00  0.00000000E+00  0.00000000E+00
  0.00000000E+00  0.00000000E+00  0.00000000E+00
  0.00000000E+00  0.00000000E+00  0.00000000E+00
  0.00000000E+00  0.00000000E+00  0.00000000E+00
  0.00000000E+00  0.00000000E+00  0.00000000E+00
  0.00000000E+00  0.00000000E+00  0.00000000E+00
  0.00000000E+00  0.00000000E+00  0.00000000E+00
  0.00000000E+00  0.00000000E+00  0.00000000E+00
  0.00000000E+00  0.00000000E+00  0.00000000E+00
  0.00000000E+00  0.00000000E+00  0.00000000E+00
  0.00000000E+00  0.00000000E+00  0.00000000E+00
  0.00000000E+00  0.00000000E+00  0.00000000E+00
  0.00000000E+00  0.00000000E+00  0.00000000E+00
  0.00000000E+00  0.00000000E+00  0.00000000E+00
  0.00000000E+00  0.00000000E+00  0.00000000E+00
  0.00000000E+00  0.00000000E+00  0.00000000E+00
  0.00000000E+00  0.00000000E+00  0.00000000E+00
  0.00000000E+00  0.00000000E+00  0.00000000E+00
  0.00000000E+00  0.00000000E+00  0.00000000E+00
  0.00000000E+00  0.00000000E+00  0.00000000E+00
  0.00000000E+00  0.00000000E+00  0.00000000E+00
  0.00000000E+00  0.00000000E+00  0.00000000E+00
  0.00000000E+00  0.00000000E+00  0.00000000E+00
  0.00000000E+00  0.00000000E+00  0.00000000E+00
  0.00000000E+00  0.00000000E+00  0.00000000E+00
  0.00000000E+00  0.00000000E+00  0.00000000E+00
  0.00000000E+00  0.00000000E+00  0.00000000E+00
  0.00000000E+00  0.00000000E+00  0.00000000E+00
  0.00000000E+00  0.00000000E+00  0.00000000E+00
  0.00000000E+00  0.00000000E+00  0.00000000E+00
  0.00000000E+00  0.00000000E+00  0.00000000E+00
  0.00000000E+00  0.00000000E+00  0.00000000E+00
  0.00000000E+00  0.00000000E+00  0.00000000E+00
  0.00000000E+00  0.00000000E+00  0.00000000E+00
  0.00000000E+00  0.00000000E+00  0.00000000E+00
  0.00000000E+00  0.00000000E+00  0.00000000E+00
  0.00000000E+00  0.00000000E+00  0.00000000E+00
  0.00000000E+00  0.00000000E+00  0.00000000E+00
  0.00000000E+00  0.00000000E+00  0.00000000E+00
  0.00000000E+00  0.00000000E+00  0.00000000E+00
  0.00000000E+00  0.00000000E+00  0.00000000E+00
  0.00000000E+00  0.00000000E+00  0.00000000E+00
  0.00000000E+00  0.00000000E+00  0.00000000E+00
  0.00000000E+00  0.00000000E+00  0.00000000E+00
  0.00000000E+00  0.00000000E+00  0.00000000E+00
  0.00000000E+00  0.00000000E+00  0.00000000E+00
  0.00000000E+00  0.00000000E+00  0.00000000E+00
  0.00000000E+00  0.00000000E+00  0.00000000E+00
  0.00000000E+00  0.00000000E+00  0.00000000E+00
  0.00000000E+00  0.00000000E+00  0.00000000E+00
  0.00000000E+00  0.00000000E+00  0.00000000E+00
  0.00000000E+00  0.00000000E+00  0.00000000E+00
  0.00000000E+00  0.00000000E+00  0.00000000E+00
  0.00000000E+00  0.00000000E+00  0.00000000E+00
  0.00000000E+00  0.00000000E+00  0.00000000E+00
  0.00000000E+00  0.00000000E+00  0.00000000E+00
  0.00000000E+00  0.00000000E+00  0.00000000E+00
  0.00000000E+00  0.00000000E+00  0.00000000E+00
  0.00000000E+00  0.00000000E+00  0.00000000E+00
  0.00000000E+00  0.00000000E+00  0.00000000E+00
  0.00000000E+00  0.00000000E+00  0.00000000E+00
