H1 Rh1 C126                             
   1.00000000000000     
    19.7790218623734404    0.0021613200234261   -0.0299336604500276
    -9.8885214525783152   17.0614765244802058    0.2956635014056914
    -0.0453274540953256    0.4896718462569614   29.8243853876852398
   H    Rh   C 
     1     1   126
Direct
  0.4725432683725557  0.5635125485228347  0.4702248823749620
  0.4383856512133396  0.5013862250539826  0.4313161435298838
  0.0417425175318094  0.0834422608513476  0.3994145164970554
  0.0411228261265720  0.2078131332456585  0.3992981983576742
  0.0408227172460129  0.3325586926041336  0.3993194353223440
  0.0408619709517302  0.4578510672691186  0.3995490841504387
  0.0412802996010371  0.5831554585035658  0.3996929254633307
  0.0418133290812877  0.7084628888588996  0.3995483833268116
  0.0420335048201840  0.8336719725536001  0.3997038438243301
  0.0419931296901722  0.9586802705115511  0.3997473977755323
  0.1670934282191298  0.0841299185333180  0.3998263907708627
  0.1670543115086682  0.2090470900953187  0.3997826338582710
  0.1659033511081139  0.3329816386002469  0.3994210931926658
  0.1651860357975997  0.4579168520592006  0.3989987272751847
  0.1655514482259239  0.5831335893058467  0.3992727400578294
  0.1663700928962780  0.7084328228396022  0.3996537862400115
  0.1667346839716077  0.8336627967238707  0.3998327470630375
  0.1669950547744261  0.9589320088532262  0.4000244918959105
  0.2920447710024561  0.0841542976072680  0.3999499867357094
  0.2924525650376351  0.2099346787235713  0.4006889655274271
  0.2930828509195922  0.3358039429020022  0.4021345495878630
  0.2894570066987603  0.4574984368061118  0.4010472083009010
  0.2895167770806093  0.5833748175078035  0.3997594078740923
  0.2908864077406740  0.7082587640225657  0.3998034919253967
  0.2914378363947772  0.8333793540867568  0.3996514953419101
  0.2917504237920400  0.9586835430006418  0.3997462378590826
  0.4167290357477267  0.0835053911308815  0.3996280192705545
  0.4169700550488984  0.2091444402495244  0.4003247886807480
  0.4176559347090912  0.3359445747673590  0.4024749723032397
  0.4107332809691171  0.5804108875247774  0.4082853192641162
  0.4153982494248316  0.7063932634472966  0.4020745569064096
  0.4161340199254376  0.8323962483518305  0.4001414139388069
  0.4164461266976628  0.9579573566246083  0.3995078937371167
  0.5413855570809621  0.0825451644173217  0.3995015345345235
  0.5416676196644838  0.2078640725695116  0.3997622732727462
  0.5420813612557184  0.3330662283377133  0.4001612694333336
  0.5432796112750478  0.4577339579606413  0.4015407114354361
  0.5451857692999510  0.5806129639185558  0.4087615620032135
  0.5402706276085215  0.7052755007541680  0.4054507052116133
  0.5406740879645281  0.8313370539503498  0.4016600974499189
  0.5411230236252719  0.9570749351005075  0.3998309798363586
  0.6660869402167032  0.0820994171360852  0.3995623088766720
  0.6663634992539677  0.2074052630885410  0.3996934886466715
  0.6667402142243827  0.3326070237344259  0.3995166751808450
  0.6678389716703750  0.4579957734310434  0.3993750673181106
  0.6691603399775543  0.5834906525190283  0.3999382525189229
  0.6662946357935816  0.7064915455527073  0.4021241539687700
  0.6657577445281203  0.8313488901289875  0.4016303140530656
  0.6658876879250697  0.9567600587686779  0.4002190529400103
  0.7909810734280096  0.0820886057571130  0.3997328312550685
  0.7910822706465087  0.2072035420922718  0.3999646686902610
  0.7914560694575778  0.3325190319594903  0.3997638173387691
  0.7920981089226510  0.4579106729898471  0.3992467614424626
  0.7927988048343216  0.5832158126131042  0.3990459777198284
  0.7926024707529019  0.7083460561614118  0.3996923966727138
  0.7913878427214796  0.8324433717650542  0.4000846559015470
  0.7909683793444685  0.9570760754691444  0.3998993289971036
  0.9161280567969563  0.0825160799338104  0.3995172593799269
  0.9159866825107338  0.2073641770683113  0.3998316967215323
  0.9160709037105979  0.3324971037968292  0.4000229958157326
  0.9164339294538965  0.4577745164918686  0.3996886202945439
  0.9170470714720255  0.5832147153748038  0.3993623015252070
  0.9172466477713875  0.7084955258554730  0.3992622586689787
  0.9170754926606064  0.8334308886462236  0.3995703521229566
  0.9165566885816177  0.9579572035451865  0.3995812168360086
  0.0836724321646333  0.0421173840305840  0.3996435616178387
  0.0834297808169769  0.1668654414658325  0.3993474461119774
  0.0824756325677960  0.2910515663765718  0.3991284968814388
  0.0823101307111137  0.4161600835729296  0.3992071209723665
  0.0825059792185037  0.5413135774935375  0.3995367547795740
  0.0831612047421481  0.6666763230076483  0.3996672241210537
  0.0835630251750610  0.7919890391652871  0.3996997502679675
  0.0836772784762791  0.9171097871128994  0.3999105494749039
  0.2086869384967561  0.0423487146722044  0.3999678119811255
  0.2087773232952748  0.1675895342531374  0.4000399479861378
  0.2087833742566148  0.2926827416614434  0.4003741690302295
  0.2065254065621401  0.4160475640052798  0.3993271651029748
  0.2066147801761953  0.5414403464188942  0.3989628299791871
  0.2077504536047877  0.6667129592290720  0.3995033141725722
  0.2082090967678253  0.7918598504887460  0.3997203768680314
  0.2085193320766700  0.9171006216997585  0.3999483432389875
  0.3334686933134967  0.0421389760103861  0.3997434312240685
  0.3338039175012954  0.1676158049261750  0.4002970829286521
  0.3340265669533408  0.2930855582597557  0.4019746554979781
  0.3322515000393204  0.4183936585628947  0.4034857581360032
  0.3303817583247362  0.5416759311824899  0.4020368889160682
  0.3322622216893200  0.6663404995115551  0.4005194333907854
  0.3328794355136450  0.7914899402153854  0.3998392117447273
  0.3332478408051136  0.9167736946097560  0.3995867235317985
  0.4581698594145669  0.0413822457539957  0.3994795890250001
  0.4584319636272062  0.1669288981269676  0.3998412817734550
  0.4588932472158754  0.2928179088571188  0.4010045680875995
  0.4613269089523622  0.4186483374204044  0.4038918518683561
  0.4563827712424293  0.6631050785675218  0.4052497773926572
  0.4575279178149642  0.7900903403028791  0.4012684680900596
  0.4578813592992618  0.9158251078687666  0.3997760246403518
  0.5828524189659960  0.0405555583382066  0.3995157658789654
  0.5831366536949629  0.1659416446565690  0.3996368381666187
  0.5835695070496255  0.2911082333496947  0.3997148454475193
  0.5846212807657724  0.4161455899292105  0.3999801908089205
  0.5866866669330262  0.5418743616153330  0.4024663532839690
  0.5821436696252124  0.6632209655794811  0.4054484208895592
  0.5819576119703226  0.7887960029316439  0.4029470430104677
  0.5824902115135705  0.9149389098305254  0.4004969493681177
  0.7076141414933175  0.0402467899318159  0.3997209576408186
  0.7078390232309087  0.1655507692254331  0.3997104150519263
  0.7082011921376855  0.2908334102390233  0.3996648545441871
  0.7089468239501319  0.4162168654614498  0.3993024518265541
  0.7100497443621955  0.5415178073298291  0.3990778027329583
  0.7093664512436518  0.6664364157948692  0.4005738998954456
  0.7077356733050676  0.7901488637469265  0.4012228239056657
  0.7074784065388237  0.9149362639238320  0.4004855055264385
  0.8326922349330245  0.0405458810698636  0.3996685200585439
  0.8326672104733273  0.1655335804224808  0.3998887789809907
  0.8328996674559043  0.2907679270784343  0.4000387727471072
  0.8333540330586646  0.4160345964620797  0.3995290913990388
  0.8339959381363760  0.5413795688191086  0.3991692611867115
  0.8341761299427306  0.6667883321626931  0.3992184187899737
  0.8337767289532940  0.7915500762522263  0.3997510492539475
  0.8330105864597649  0.9158533686878820  0.3998027235565537
  0.9582034330550872  0.0413568951808073  0.3994521653844182
  0.9577610483346455  0.1659069480022269  0.3995459133738436
  0.9576081109063375  0.2907946517053415  0.3998167294625998
  0.9577446226129114  0.4159983521040411  0.3998382874041185
  0.9582663995696749  0.5413884453573148  0.3995981373774520
  0.9587141522267978  0.6667286540995903  0.3993393855495069
  0.9587985063544500  0.7919145160855369  0.3994854954972957
  0.9586144431752938  0.9167941271700984  0.3996342288734779
 
  0.00000000E+00  0.00000000E+00  0.00000000E+00
  0.00000000E+00  0.00000000E+00  0.00000000E+00
  0.00000000E+00  0.00000000E+00  0.00000000E+00
  0.00000000E+00  0.00000000E+00  0.00000000E+00
  0.00000000E+00  0.00000000E+00  0.00000000E+00
  0.00000000E+00  0.00000000E+00  0.00000000E+00
  0.00000000E+00  0.00000000E+00  0.00000000E+00
  0.00000000E+00  0.00000000E+00  0.00000000E+00
  0.00000000E+00  0.00000000E+00  0.00000000E+00
  0.00000000E+00  0.00000000E+00  0.00000000E+00
  0.00000000E+00  0.00000000E+00  0.00000000E+00
  0.00000000E+00  0.00000000E+00  0.00000000E+00
  0.00000000E+00  0.00000000E+00  0.00000000E+00
  0.00000000E+00  0.00000000E+00  0.00000000E+00
  0.00000000E+00  0.00000000E+00  0.00000000E+00
  0.00000000E+00  0.00000000E+00  0.00000000E+00
  0.00000000E+00  0.00000000E+00  0.00000000E+00
  0.00000000E+00  0.00000000E+00  0.00000000E+00
  0.00000000E+00  0.00000000E+00  0.00000000E+00
  0.00000000E+00  0.00000000E+00  0.00000000E+00
  0.00000000E+00  0.00000000E+00  0.00000000E+00
  0.00000000E+00  0.00000000E+00  0.00000000E+00
  0.00000000E+00  0.00000000E+00  0.00000000E+00
  0.00000000E+00  0.00000000E+00  0.00000000E+00
  0.00000000E+00  0.00000000E+00  0.00000000E+00
  0.00000000E+00  0.00000000E+00  0.00000000E+00
  0.00000000E+00  0.00000000E+00  0.00000000E+00
  0.00000000E+00  0.00000000E+00  0.00000000E+00
  0.00000000E+00  0.00000000E+00  0.00000000E+00
  0.00000000E+00  0.00000000E+00  0.00000000E+00
  0.00000000E+00  0.00000000E+00  0.00000000E+00
  0.00000000E+00  0.00000000E+00  0.00000000E+00
  0.00000000E+00  0.00000000E+00  0.00000000E+00
  0.00000000E+00  0.00000000E+00  0.00000000E+00
  0.00000000E+00  0.00000000E+00  0.00000000E+00
  0.00000000E+00  0.00000000E+00  0.00000000E+00
  0.00000000E+00  0.00000000E+00  0.00000000E+00
  0.00000000E+00  0.00000000E+00  0.00000000E+00
  0.00000000E+00  0.00000000E+00  0.00000000E+00
  0.00000000E+00  0.00000000E+00  0.00000000E+00
  0.00000000E+00  0.00000000E+00  0.00000000E+00
  0.00000000E+00  0.00000000E+00  0.00000000E+00
  0.00000000E+00  0.00000000E+00  0.00000000E+00
  0.00000000E+00  0.00000000E+00  0.00000000E+00
  0.00000000E+00  0.00000000E+00  0.00000000E+00
  0.00000000E+00  0.00000000E+00  0.00000000E+00
  0.00000000E+00  0.00000000E+00  0.00000000E+00
  0.00000000E+00  0.00000000E+00  0.00000000E+00
  0.00000000E+00  0.00000000E+00  0.00000000E+00
  0.00000000E+00  0.00000000E+00  0.00000000E+00
  0.00000000E+00  0.00000000E+00  0.00000000E+00
  0.00000000E+00  0.00000000E+00  0.00000000E+00
  0.00000000E+00  0.00000000E+00  0.00000000E+00
  0.00000000E+00  0.00000000E+00  0.00000000E+00
  0.00000000E+00  0.00000000E+00  0.00000000E+00
  0.00000000E+00  0.00000000E+00  0.00000000E+00
  0.00000000E+00  0.00000000E+00  0.00000000E+00
  0.00000000E+00  0.00000000E+00  0.00000000E+00
  0.00000000E+00  0.00000000E+00  0.00000000E+00
  0.00000000E+00  0.00000000E+00  0.00000000E+00
  0.00000000E+00  0.00000000E+00  0.00000000E+00
  0.00000000E+00  0.00000000E+00  0.00000000E+00
  0.00000000E+00  0.00000000E+00  0.00000000E+00
  0.00000000E+00  0.00000000E+00  0.00000000E+00
  0.00000000E+00  0.00000000E+00  0.00000000E+00
  0.00000000E+00  0.00000000E+00  0.00000000E+00
  0.00000000E+00  0.00000000E+00  0.00000000E+00
  0.00000000E+00  0.00000000E+00  0.00000000E+00
  0.00000000E+00  0.00000000E+00  0.00000000E+00
  0.00000000E+00  0.00000000E+00  0.00000000E+00
  0.00000000E+00  0.00000000E+00  0.00000000E+00
  0.00000000E+00  0.00000000E+00  0.00000000E+00
  0.00000000E+00  0.00000000E+00  0.00000000E+00
  0.00000000E+00  0.00000000E+00  0.00000000E+00
  0.00000000E+00  0.00000000E+00  0.00000000E+00
  0.00000000E+00  0.00000000E+00  0.00000000E+00
  0.00000000E+00  0.00000000E+00  0.00000000E+00
  0.00000000E+00  0.00000000E+00  0.00000000E+00
  0.00000000E+00  0.00000000E+00  0.00000000E+00
  0.00000000E+00  0.00000000E+00  0.00000000E+00
  0.00000000E+00  0.00000000E+00  0.00000000E+00
  0.00000000E+00  0.00000000E+00  0.00000000E+00
  0.00000000E+00  0.00000000E+00  0.00000000E+00
  0.00000000E+00  0.00000000E+00  0.00000000E+00
  0.00000000E+00  0.00000000E+00  0.00000000E+00
  0.00000000E+00  0.00000000E+00  0.00000000E+00
  0.00000000E+00  0.00000000E+00  0.00000000E+00
  0.00000000E+00  0.00000000E+00  0.00000000E+00
  0.00000000E+00  0.00000000E+00  0.00000000E+00
  0.00000000E+00  0.00000000E+00  0.00000000E+00
  0.00000000E+00  0.00000000E+00  0.00000000E+00
  0.00000000E+00  0.00000000E+00  0.00000000E+00
  0.00000000E+00  0.00000000E+00  0.00000000E+00
  0.00000000E+00  0.00000000E+00  0.00000000E+00
  0.00000000E+00  0.00000000E+00  0.00000000E+00
  0.00000000E+00  0.00000000E+00  0.00000000E+00
  0.00000000E+00  0.00000000E+00  0.00000000E+00
  0.00000000E+00  0.00000000E+00  0.00000000E+00
  0.00000000E+00  0.00000000E+00  0.00000000E+00
  0.00000000E+00  0.00000000E+00  0.00000000E+00
  0.00000000E+00  0.00000000E+00  0.00000000E+00
  0.00000000E+00  0.00000000E+00  0.00000000E+00
  0.00000000E+00  0.00000000E+00  0.00000000E+00
  0.00000000E+00  0.00000000E+00  0.00000000E+00
  0.00000000E+00  0.00000000E+00  0.00000000E+00
  0.00000000E+00  0.00000000E+00  0.00000000E+00
  0.00000000E+00  0.00000000E+00  0.00000000E+00
  0.00000000E+00  0.00000000E+00  0.00000000E+00
  0.00000000E+00  0.00000000E+00  0.00000000E+00
  0.00000000E+00  0.00000000E+00  0.00000000E+00
  0.00000000E+00  0.00000000E+00  0.00000000E+00
  0.00000000E+00  0.00000000E+00  0.00000000E+00
  0.00000000E+00  0.00000000E+00  0.00000000E+00
  0.00000000E+00  0.00000000E+00  0.00000000E+00
  0.00000000E+00  0.00000000E+00  0.00000000E+00
  0.00000000E+00  0.00000000E+00  0.00000000E+00
  0.00000000E+00  0.00000000E+00  0.00000000E+00
  0.00000000E+00  0.00000000E+00  0.00000000E+00
  0.00000000E+00  0.00000000E+00  0.00000000E+00
  0.00000000E+00  0.00000000E+00  0.00000000E+00
  0.00000000E+00  0.00000000E+00  0.00000000E+00
  0.00000000E+00  0.00000000E+00  0.00000000E+00
  0.00000000E+00  0.00000000E+00  0.00000000E+00
  0.00000000E+00  0.00000000E+00  0.00000000E+00
  0.00000000E+00  0.00000000E+00  0.00000000E+00
  0.00000000E+00  0.00000000E+00  0.00000000E+00
  0.00000000E+00  0.00000000E+00  0.00000000E+00
  0.00000000E+00  0.00000000E+00  0.00000000E+00
