Rh1 C124 N2 O1                          
   1.00000000000000     
    19.8042284521805882   -0.0369019881208078   -0.0050401844940749
    -9.9342324304055563   17.0493332590465307   -0.0023692487960209
    -0.0075964316827923   -0.0085784183790350   29.8338024958552239
   Rh   C    N    O 
     1   124     2     1
Direct
  0.4378464916097332  0.5005139548013564  0.4261718980078438
  0.0425968901039630  0.0846373120045451  0.3999004371936180
  0.0421775170933254  0.2089783259284313  0.3996907509485608
  0.0413195675543202  0.3334155349448640  0.3995341986981029
  0.0407921771192310  0.4585163458384822  0.3996332370297778
  0.0410851893810127  0.5838868922113590  0.3998102329251391
  0.0415576333348769  0.7092149769092280  0.4000158550037333
  0.0418436553412525  0.8343884993249100  0.4000403464781757
  0.0422411680424455  0.9596486504088713  0.3999459885344835
  0.1683012030915381  0.0859817311433653  0.4000662212468756
  0.1690181320896947  0.2115419883295090  0.3999605535827773
  0.1672391387001504  0.3350953581357342  0.3990643310240435
  0.1648872451513892  0.4592317644260840  0.3991373361206285
  0.1650082912924424  0.5841969043182195  0.3993320166346595
  0.1659034029271430  0.7093308396779642  0.3996971808280339
  0.1665743974256261  0.8345851472834572  0.3999438371821594
  0.1672640862412482  0.9600540161969112  0.4000215209794121
  0.2926843481596164  0.0854183014613456  0.4001507110948704
  0.2947508227039052  0.2127327560963314  0.4012901951282627
  0.2961724363098922  0.3398714178263556  0.4009551949262102
  0.2895398992080025  0.4613545861892849  0.3993741959369870
  0.2886124116247770  0.5849797524148710  0.4000166561829701
  0.2902069474902934  0.7094132088585234  0.3998412447408696
  0.2912299753101768  0.8343298607310895  0.3996761251179037
  0.2918967511978555  0.9596118765595105  0.3998029314838242
  0.4171513994837791  0.0838144080527784  0.3997334674939115
  0.4180178788373625  0.2096390949578823  0.4003974978286192
  0.4215423079029789  0.3373707774335738  0.4044376420340817
  0.4142473962454545  0.7070128023759675  0.4012903555920619
  0.4158166180650922  0.8327979120264025  0.3997925587751424
  0.4165244090966438  0.9583420711250822  0.3996871038283948
  0.5417503907466557  0.0823377755237268  0.3997179707115280
  0.5424266927958844  0.2074673583235943  0.3997416136075990
  0.5437976770922966  0.3322613966193193  0.4006123471006828
  0.5453804082904701  0.4556018231136708  0.4020942753467357
  0.5416974669395217  0.5767484877338609  0.4016903190757234
  0.5374181590580906  0.7027608056708767  0.4027601424043096
  0.5401252119583071  0.8307792835142042  0.4006304980693962
  0.5411287234911198  0.9568539241537261  0.3998507561270993
  0.6664107872887843  0.0818235110982761  0.3999586088385109
  0.6670345177594303  0.2071306569548454  0.3997999964379562
  0.6679803795250016  0.3323679588106537  0.3995250153801965
  0.6691773046912667  0.4575381040190412  0.3989872941411773
  0.6682264672159802  0.5816178280264118  0.3985648418174754
  0.6638477043002138  0.7043513357423062  0.3995698101235756
  0.6642080632882663  0.8299351273073995  0.4002984329115532
  0.6656603036722900  0.9562174930511493  0.4000872149341037
  0.7912235817536659  0.0819383970931804  0.3999793329288490
  0.7916605105081085  0.2071767596406107  0.4000248587243517
  0.7922149752436002  0.3325063752951535  0.3998329039064576
  0.7928584907349208  0.4578783683979316  0.3995140380164851
  0.7929199781412830  0.5831216348651560  0.3992514261421806
  0.7913702087432786  0.7075425111247383  0.3992358841439486
  0.7901616159828390  0.8314939326626611  0.3997265915244569
  0.7904808086044522  0.9565164286568166  0.3998674667159406
  0.9165062269708733  0.0828261843116595  0.3998769138233914
  0.9165569542841188  0.2076688607650403  0.3999005284047697
  0.9165634745494703  0.3327929497454122  0.3999488650571343
  0.9167896717697609  0.4581774382545225  0.3999390947320907
  0.9170924399652295  0.5835828931383555  0.3999102012537216
  0.9168487847726104  0.7087283404627825  0.3998565767544258
  0.9165433838889158  0.8335167452839527  0.3998461793057791
  0.9163814338396532  0.9581191522444882  0.3998897881430384
  0.0845355084418758  0.0435012573588196  0.3999297645731311
  0.0848941414031260  0.1685352730487469  0.3998395133882334
  0.0836342661320498  0.2924657735817681  0.3993791602713135
  0.0820905079195169  0.4168915034253997  0.3994182085331888
  0.0820975196852273  0.5420953784600544  0.3995551691396987
  0.0827508339222077  0.6674470208660751  0.3998345680482479
  0.0833132238125452  0.7927816099662343  0.4000487787764182
  0.0837847123369458  0.9180528301944567  0.4000061032479290
  0.2093436441664482  0.0437868491773523  0.4001022904444515
  0.2108066629545214  0.1700875178409290  0.4003569025410800
  0.2112126277163716  0.2956698008138480  0.3996715548028717
  0.2068648069517927  0.4183872102895694  0.3988308046705611
  0.2058025210228238  0.5424586706465983  0.3991636834702409
  0.2069855173434221  0.6676355938468677  0.3995484931937343
  0.2079310879870358  0.7928544946270815  0.3997800816140540
  0.2085712498612183  0.9181552720068010  0.3999484267166194
  0.3338346619153615  0.0431360794156473  0.3998464030783037
  0.3348577171901944  0.1692401394347405  0.4007015446804484
  0.3376304254081513  0.2973078732860657  0.4027940588568630
  0.3338728155495533  0.4234631359514365  0.4006208186135848
  0.3296379118154535  0.5444511876940843  0.4016591368359710
  0.3311763385697206  0.6677516102956386  0.4005522988447394
  0.3325376496237891  0.7925380277174174  0.3997339295004468
  0.3332508239269238  0.9176620761605011  0.3996973545717797
  0.4584675847825507  0.0416656284011255  0.3996967837080894
  0.4591650313647430  0.1672175520930229  0.3998065275075592
  0.4607341690915885  0.2930702669977104  0.4014565730202489
  0.4534632466480135  0.6627192531956169  0.4041104375968607
  0.4569565723050556  0.7904146299727707  0.4003332737292018
  0.4578303680568470  0.9161917306355619  0.3997195922554050
  0.5830896600474096  0.0403640153073010  0.3998260056012247
  0.5837423190821280  0.1656722640441499  0.3996919268288547
  0.5847565690315230  0.2906052527645790  0.3998439366219542
  0.5863557963323243  0.4150329257232180  0.4000310156185997
  0.5855982595673132  0.5385994252133405  0.3997064895853761
  0.5789145239988870  0.6602738986594773  0.4011066819914659
  0.5802743577424725  0.7873130538147324  0.4012157757290307
  0.5823035581049213  0.9145903495800375  0.4001352913232051
  0.7077396389482810  0.0399363597030107  0.4000119293477170
  0.7083858051350245  0.1653901290043243  0.3999706692344283
  0.7090662541874200  0.2906505050448572  0.3996971663406035
  0.7099492749699050  0.4157854138815484  0.3992356248358850
  0.7101518651981868  0.5407523442423747  0.3988216641903415
  0.7077888263775046  0.6649008596559942  0.3988660867487903
  0.7060230827092289  0.7884844635175102  0.3998413838337223
  0.7067132474331902  0.9140470094486907  0.4000192383834565
  0.8327845277521928  0.0403696108458349  0.3998976077625838
  0.8331547680695335  0.1655977781186420  0.4000014660836755
  0.8334274879060313  0.2907474960106775  0.3999856686678714
  0.8338694471848834  0.4160656929463066  0.3998111619753726
  0.8341859059674469  0.5414603853937464  0.3995946992370369
  0.8336845058557069  0.6665800850110464  0.3994449586214407
  0.8328694429708700  0.7910359200841570  0.3996186940681968
  0.8324481715318373  0.9153898235480720  0.3998472941451938
  0.9586693985495371  0.0418984000323932  0.3998922425100652
  0.9584982934378511  0.1664943544842226  0.3998252651973394
  0.9581465977846962  0.2912747248389364  0.3998395198984219
  0.9578665891485408  0.4163657686462474  0.3998910227722634
  0.9581717879953706  0.5417660947963224  0.3999440101950643
  0.9584117474644281  0.6671656806633393  0.3999829008799539
  0.9584674508647795  0.7923179848121087  0.3999348433640273
  0.9585291070030038  0.9171850472830108  0.3999165183935592
  0.4090610710947822  0.5823499534753704  0.4071860462215174
  0.4659401491472480  0.4178161411716195  0.4079017780856540
  0.4456187774988429  0.5080666312330493  0.4856955702880916
 
  0.00000000E+00  0.00000000E+00  0.00000000E+00
  0.00000000E+00  0.00000000E+00  0.00000000E+00
  0.00000000E+00  0.00000000E+00  0.00000000E+00
  0.00000000E+00  0.00000000E+00  0.00000000E+00
  0.00000000E+00  0.00000000E+00  0.00000000E+00
  0.00000000E+00  0.00000000E+00  0.00000000E+00
  0.00000000E+00  0.00000000E+00  0.00000000E+00
  0.00000000E+00  0.00000000E+00  0.00000000E+00
  0.00000000E+00  0.00000000E+00  0.00000000E+00
  0.00000000E+00  0.00000000E+00  0.00000000E+00
  0.00000000E+00  0.00000000E+00  0.00000000E+00
  0.00000000E+00  0.00000000E+00  0.00000000E+00
  0.00000000E+00  0.00000000E+00  0.00000000E+00
  0.00000000E+00  0.00000000E+00  0.00000000E+00
  0.00000000E+00  0.00000000E+00  0.00000000E+00
  0.00000000E+00  0.00000000E+00  0.00000000E+00
  0.00000000E+00  0.00000000E+00  0.00000000E+00
  0.00000000E+00  0.00000000E+00  0.00000000E+00
  0.00000000E+00  0.00000000E+00  0.00000000E+00
  0.00000000E+00  0.00000000E+00  0.00000000E+00
  0.00000000E+00  0.00000000E+00  0.00000000E+00
  0.00000000E+00  0.00000000E+00  0.00000000E+00
  0.00000000E+00  0.00000000E+00  0.00000000E+00
  0.00000000E+00  0.00000000E+00  0.00000000E+00
  0.00000000E+00  0.00000000E+00  0.00000000E+00
  0.00000000E+00  0.00000000E+00  0.00000000E+00
  0.00000000E+00  0.00000000E+00  0.00000000E+00
  0.00000000E+00  0.00000000E+00  0.00000000E+00
  0.00000000E+00  0.00000000E+00  0.00000000E+00
  0.00000000E+00  0.00000000E+00  0.00000000E+00
  0.00000000E+00  0.00000000E+00  0.00000000E+00
  0.00000000E+00  0.00000000E+00  0.00000000E+00
  0.00000000E+00  0.00000000E+00  0.00000000E+00
  0.00000000E+00  0.00000000E+00  0.00000000E+00
  0.00000000E+00  0.00000000E+00  0.00000000E+00
  0.00000000E+00  0.00000000E+00  0.00000000E+00
  0.00000000E+00  0.00000000E+00  0.00000000E+00
  0.00000000E+00  0.00000000E+00  0.00000000E+00
  0.00000000E+00  0.00000000E+00  0.00000000E+00
  0.00000000E+00  0.00000000E+00  0.00000000E+00
  0.00000000E+00  0.00000000E+00  0.00000000E+00
  0.00000000E+00  0.00000000E+00  0.00000000E+00
  0.00000000E+00  0.00000000E+00  0.00000000E+00
  0.00000000E+00  0.00000000E+00  0.00000000E+00
  0.00000000E+00  0.00000000E+00  0.00000000E+00
  0.00000000E+00  0.00000000E+00  0.00000000E+00
  0.00000000E+00  0.00000000E+00  0.00000000E+00
  0.00000000E+00  0.00000000E+00  0.00000000E+00
  0.00000000E+00  0.00000000E+00  0.00000000E+00
  0.00000000E+00  0.00000000E+00  0.00000000E+00
  0.00000000E+00  0.00000000E+00  0.00000000E+00
  0.00000000E+00  0.00000000E+00  0.00000000E+00
  0.00000000E+00  0.00000000E+00  0.00000000E+00
  0.00000000E+00  0.00000000E+00  0.00000000E+00
  0.00000000E+00  0.00000000E+00  0.00000000E+00
  0.00000000E+00  0.00000000E+00  0.00000000E+00
  0.00000000E+00  0.00000000E+00  0.00000000E+00
  0.00000000E+00  0.00000000E+00  0.00000000E+00
  0.00000000E+00  0.00000000E+00  0.00000000E+00
  0.00000000E+00  0.00000000E+00  0.00000000E+00
  0.00000000E+00  0.00000000E+00  0.00000000E+00
  0.00000000E+00  0.00000000E+00  0.00000000E+00
  0.00000000E+00  0.00000000E+00  0.00000000E+00
  0.00000000E+00  0.00000000E+00  0.00000000E+00
  0.00000000E+00  0.00000000E+00  0.00000000E+00
  0.00000000E+00  0.00000000E+00  0.00000000E+00
  0.00000000E+00  0.00000000E+00  0.00000000E+00
  0.00000000E+00  0.00000000E+00  0.00000000E+00
  0.00000000E+00  0.00000000E+00  0.00000000E+00
  0.00000000E+00  0.00000000E+00  0.00000000E+00
  0.00000000E+00  0.00000000E+00  0.00000000E+00
  0.00000000E+00  0.00000000E+00  0.00000000E+00
  0.00000000E+00  0.00000000E+00  0.00000000E+00
  0.00000000E+00  0.00000000E+00  0.00000000E+00
  0.00000000E+00  0.00000000E+00  0.00000000E+00
  0.00000000E+00  0.00000000E+00  0.00000000E+00
  0.00000000E+00  0.00000000E+00  0.00000000E+00
  0.00000000E+00  0.00000000E+00  0.00000000E+00
  0.00000000E+00  0.00000000E+00  0.00000000E+00
  0.00000000E+00  0.00000000E+00  0.00000000E+00
  0.00000000E+00  0.00000000E+00  0.00000000E+00
  0.00000000E+00  0.00000000E+00  0.00000000E+00
  0.00000000E+00  0.00000000E+00  0.00000000E+00
  0.00000000E+00  0.00000000E+00  0.00000000E+00
  0.00000000E+00  0.00000000E+00  0.00000000E+00
  0.00000000E+00  0.00000000E+00  0.00000000E+00
  0.00000000E+00  0.00000000E+00  0.00000000E+00
  0.00000000E+00  0.00000000E+00  0.00000000E+00
  0.00000000E+00  0.00000000E+00  0.00000000E+00
  0.00000000E+00  0.00000000E+00  0.00000000E+00
  0.00000000E+00  0.00000000E+00  0.00000000E+00
  0.00000000E+00  0.00000000E+00  0.00000000E+00
  0.00000000E+00  0.00000000E+00  0.00000000E+00
  0.00000000E+00  0.00000000E+00  0.00000000E+00
  0.00000000E+00  0.00000000E+00  0.00000000E+00
  0.00000000E+00  0.00000000E+00  0.00000000E+00
  0.00000000E+00  0.00000000E+00  0.00000000E+00
  0.00000000E+00  0.00000000E+00  0.00000000E+00
  0.00000000E+00  0.00000000E+00  0.00000000E+00
  0.00000000E+00  0.00000000E+00  0.00000000E+00
  0.00000000E+00  0.00000000E+00  0.00000000E+00
  0.00000000E+00  0.00000000E+00  0.00000000E+00
  0.00000000E+00  0.00000000E+00  0.00000000E+00
  0.00000000E+00  0.00000000E+00  0.00000000E+00
  0.00000000E+00  0.00000000E+00  0.00000000E+00
  0.00000000E+00  0.00000000E+00  0.00000000E+00
  0.00000000E+00  0.00000000E+00  0.00000000E+00
  0.00000000E+00  0.00000000E+00  0.00000000E+00
  0.00000000E+00  0.00000000E+00  0.00000000E+00
  0.00000000E+00  0.00000000E+00  0.00000000E+00
  0.00000000E+00  0.00000000E+00  0.00000000E+00
  0.00000000E+00  0.00000000E+00  0.00000000E+00
  0.00000000E+00  0.00000000E+00  0.00000000E+00
  0.00000000E+00  0.00000000E+00  0.00000000E+00
  0.00000000E+00  0.00000000E+00  0.00000000E+00
  0.00000000E+00  0.00000000E+00  0.00000000E+00
  0.00000000E+00  0.00000000E+00  0.00000000E+00
  0.00000000E+00  0.00000000E+00  0.00000000E+00
  0.00000000E+00  0.00000000E+00  0.00000000E+00
  0.00000000E+00  0.00000000E+00  0.00000000E+00
  0.00000000E+00  0.00000000E+00  0.00000000E+00
  0.00000000E+00  0.00000000E+00  0.00000000E+00
  0.00000000E+00  0.00000000E+00  0.00000000E+00
  0.00000000E+00  0.00000000E+00  0.00000000E+00
  0.00000000E+00  0.00000000E+00  0.00000000E+00
  0.00000000E+00  0.00000000E+00  0.00000000E+00
  0.00000000E+00  0.00000000E+00  0.00000000E+00
  0.00000000E+00  0.00000000E+00  0.00000000E+00
