Nb1 H1 C124 N2 O2                       
   1.00000000000000     
    19.7886768769055870   -0.0209973318384132   -0.2459177412602789
    -9.9131744818275411   17.0688922288090907   -0.0583507747035647
    -0.3701799567540595   -0.3169814309901097   29.8169967630290920
   Nb   H    C    N    O 
     1     1   124     2     2
Direct
  0.4309837270932669  0.5012594464201029  0.4348344602078755
  0.5406000750877008  0.5589825484691860  0.5046114854178049
  0.0422628425165402  0.0840097106682552  0.3993456689940594
  0.0420986092973509  0.2087733986560595  0.3996814883400991
  0.0416325401185829  0.3335130538967732  0.4006350013317840
  0.0414282042796479  0.4585946032555174  0.4006107194789483
  0.0417142174617560  0.5838043422187468  0.3999551621707098
  0.0420614910049965  0.7090324619869006  0.3994683562402766
  0.0421842171902719  0.8341235819655167  0.3993620709869053
  0.0423550797452351  0.9592498057383728  0.3993969224192964
  0.1680481127775773  0.0850918590543214  0.3996086101972192
  0.1678345467874617  0.2098584329212487  0.3993371498864923
  0.1671183689776983  0.3344733089631299  0.4005069704576382
  0.1658406642836960  0.4589358730477053  0.4024110317756147
  0.1660818771743438  0.5840879108604772  0.4015126969674110
  0.1666592502594071  0.7091201553848984  0.4002624206532628
  0.1670103375459806  0.8342171306191147  0.3995640594891726
  0.1673714804701085  0.9594993965735523  0.3995741760579848
  0.2925978311354455  0.0847902673898091  0.3998231127683732
  0.2941064685262216  0.2113419006669789  0.4006064888769000
  0.2935203805048052  0.3362393049401680  0.3997417750428520
  0.2910693872033394  0.4601831896074661  0.4017005014575695
  0.2901309096309392  0.5847291437632475  0.4030148897233360
  0.2912425298613691  0.7092169756787716  0.4008056109259718
  0.2918269120775427  0.8341569043366037  0.3995952132703272
  0.2921313715226159  0.9592890417516469  0.3993688125763217
  0.4172424008641274  0.0840238110674804  0.3994022540573125
  0.4177794592436079  0.2096872323672308  0.4003844474665889
  0.4206296580867496  0.3373239687594785  0.4041383625888654
  0.4157146948633167  0.7080578436975284  0.4004164357403272
  0.4165054802853269  0.8333509555372635  0.3995231326299389
  0.4169007541822592  0.9586453988577297  0.3992055944100710
  0.5419367466437607  0.0829954481129595  0.3993544677464020
  0.5423564669127374  0.2081349816713597  0.3998404751889637
  0.5434149133605741  0.3330421778067650  0.4019686184977831
  0.5445887863828466  0.4566840114895546  0.4061481636205293
  0.5426640276661754  0.5798341721034497  0.4077039606548830
  0.5393960003911187  0.7050669951570711  0.4021729862297409
  0.5411538334476638  0.8320549186337075  0.3997783306831276
  0.5416673872557183  0.9577102714803967  0.3993259928518360
  0.6667407798318362  0.0826962342305497  0.3994592420033017
  0.6670788602875851  0.2078829816123429  0.3994913186370960
  0.6677251071488129  0.3330342338606463  0.3999023872100982
  0.6687778596694242  0.4582602672696756  0.4012450826902557
  0.6684832609420174  0.5825230565625895  0.4025325890101578
  0.6654930957679560  0.7061288886541743  0.4009112740191211
  0.6654311690493646  0.8314401866833968  0.3998993688463638
  0.6663154836643879  0.9573146423378214  0.3994920229608725
  0.7915933564599194  0.0826914546082599  0.3994371928562758
  0.7918571331220118  0.2078893268312713  0.3995521619440011
  0.7922342663500745  0.3330766587808219  0.3992874143932603
  0.7926936846206357  0.4582621930062639  0.3991762931068724
  0.7930198767264296  0.5834405903435741  0.3995911820003740
  0.7920070408645770  0.7080607082678284  0.3997800061090472
  0.7909874859482411  0.8322906934106240  0.3991698826370379
  0.7911329707752345  0.9573303998333063  0.3991589134381540
  0.9167044870814854  0.0831043773516203  0.3993391925179077
  0.9167531181144168  0.2080606441790084  0.3997976438990979
  0.9168194575655478  0.3331799694576465  0.3998042710194468
  0.9170479424802506  0.4584384241358080  0.3993260454338825
  0.9173640644742191  0.5836752325409595  0.3990510409790651
  0.9172356248982377  0.7087290825896161  0.3991602392969592
  0.9169552419886250  0.8335823511173456  0.3991300775731121
  0.9166820457510741  0.9582469946556667  0.3991001513793975
  0.0843636142392054  0.0428599876977276  0.3994265869819999
  0.0841610022646046  0.1675615277118541  0.3994249592721540
  0.0836529168970205  0.2922611887547111  0.4003096810937621
  0.0827502331881673  0.4168732562018708  0.4012061561337120
  0.0829584339654794  0.5420911940996824  0.4007008628334283
  0.0834391546610763  0.6673032440427504  0.3999141494456253
  0.0837374005230717  0.7924563872895669  0.3994640137326001
  0.0839656180219796  0.9175895327722848  0.3994591479960647
  0.2092776655448850  0.0430196183744233  0.3997224525967754
  0.2102213785404153  0.1688023685101472  0.3996875454502816
  0.2094328114587132  0.2932394935963650  0.3992551758428350
  0.2075605705084407  0.4178819236582124  0.4022970795947436
  0.2071658640127062  0.5423688387919480  0.4026364432339133
  0.2079646280338028  0.6674520074090923  0.4009904093113179
  0.2085254465424945  0.7925800619565038  0.3998181352681677
  0.2088630290570918  0.9177195059259938  0.3994868605070722
  0.3339587314165076  0.0427920677602897  0.3994722854948159
  0.3346141231502797  0.1684577931359359  0.4003766508172727
  0.3366155832952044  0.2954762590828716  0.4017591164299401
  0.3325539602315971  0.4185575600000581  0.4004260861341595
  0.3317727859269749  0.5443084533870035  0.4026414366398495
  0.3324495295350648  0.6677586705142899  0.4015030283746699
  0.3333142020922468  0.7924862543555831  0.3998550861703808
  0.3336430945370074  0.9174793422056374  0.3992818048766841
  0.4587007627718799  0.0420281318225734  0.3992662060226604
  0.4591108145691365  0.1674863544033085  0.3997637379395898
  0.4602671977256817  0.2933565141424527  0.4018987802025397
  0.4561793520649319  0.6652801247360645  0.4016034602581594
  0.4579830369840193  0.7913430015870334  0.3996717337613152
  0.4583702221917673  0.9167112346588192  0.3992881325650244
  0.5834583918415591  0.0411519238869501  0.3993723803229442
  0.5837772154499822  0.1663425947449198  0.3994881427515350
  0.5844895990849562  0.2913479668372574  0.4004800964358145
  0.5858004286922593  0.4160986712006992  0.4030680156200254
  0.5858375809561120  0.5405452023230602  0.4056623902906077
  0.5812054811868624  0.6623391221175098  0.4034685415962562
  0.5817330550066991  0.7891208090853187  0.4005731611091808
  0.5830841757704146  0.9157004510897901  0.3994788868453170
  0.7081845798165775  0.0408517229245334  0.3994584103268428
  0.7085788377633638  0.1661832675769054  0.3994864022435709
  0.7090158845138530  0.2913673275698134  0.3994430337810453
  0.7096617417362608  0.4164263726074532  0.3998774866656136
  0.7101932755836033  0.5414330912404111  0.4010570107208295
  0.7085590605580974  0.6657989381873999  0.4010372818900054
  0.7072606067342944  0.7898164516786077  0.3996626550044431
  0.7075275179464867  0.9151430665439962  0.3994484070948160
  0.8331635067935232  0.0409909046038830  0.3992878082588363
  0.8333935524144324  0.1661879716772752  0.3996060579208064
  0.8335795038650018  0.2913024727194740  0.3994902774364786
  0.8339343927454128  0.4165177349637428  0.3991358640118738
  0.8343021166596528  0.5417485292205192  0.3990890792393529
  0.8340453584866302  0.6668360938911101  0.3994322688852229
  0.8333838190052990  0.7913711128684559  0.3992378933962563
  0.8329817708034168  0.9159433970208665  0.3990550145475417
  0.9586202974610425  0.0417603008621109  0.3992202592253704
  0.9585602829321809  0.1666383478332864  0.3996063790593108
  0.9583608002381782  0.2915530619975120  0.4000938165472355
  0.9583337071318483  0.4166689333981257  0.3998462641405430
  0.9586141335409932  0.5418739152646714  0.3993342130121004
  0.9588304374125659  0.6671224318973134  0.3991821022035883
  0.9588185885413236  0.7922244780802983  0.3992296016837769
  0.9587737784487960  0.9170977100017011  0.3991893256541154
  0.4130486920955640  0.5844658661546484  0.4037600915971301
  0.4642590895755014  0.4183995964649362  0.4088647196010422
  0.4987160512600378  0.5046944954695487  0.4983947402201999
  0.4267530682935039  0.5098682395135107  0.5025906436371236
 
  0.00000000E+00  0.00000000E+00  0.00000000E+00
  0.00000000E+00  0.00000000E+00  0.00000000E+00
  0.00000000E+00  0.00000000E+00  0.00000000E+00
  0.00000000E+00  0.00000000E+00  0.00000000E+00
  0.00000000E+00  0.00000000E+00  0.00000000E+00
  0.00000000E+00  0.00000000E+00  0.00000000E+00
  0.00000000E+00  0.00000000E+00  0.00000000E+00
  0.00000000E+00  0.00000000E+00  0.00000000E+00
  0.00000000E+00  0.00000000E+00  0.00000000E+00
  0.00000000E+00  0.00000000E+00  0.00000000E+00
  0.00000000E+00  0.00000000E+00  0.00000000E+00
  0.00000000E+00  0.00000000E+00  0.00000000E+00
  0.00000000E+00  0.00000000E+00  0.00000000E+00
  0.00000000E+00  0.00000000E+00  0.00000000E+00
  0.00000000E+00  0.00000000E+00  0.00000000E+00
  0.00000000E+00  0.00000000E+00  0.00000000E+00
  0.00000000E+00  0.00000000E+00  0.00000000E+00
  0.00000000E+00  0.00000000E+00  0.00000000E+00
  0.00000000E+00  0.00000000E+00  0.00000000E+00
  0.00000000E+00  0.00000000E+00  0.00000000E+00
  0.00000000E+00  0.00000000E+00  0.00000000E+00
  0.00000000E+00  0.00000000E+00  0.00000000E+00
  0.00000000E+00  0.00000000E+00  0.00000000E+00
  0.00000000E+00  0.00000000E+00  0.00000000E+00
  0.00000000E+00  0.00000000E+00  0.00000000E+00
  0.00000000E+00  0.00000000E+00  0.00000000E+00
  0.00000000E+00  0.00000000E+00  0.00000000E+00
  0.00000000E+00  0.00000000E+00  0.00000000E+00
  0.00000000E+00  0.00000000E+00  0.00000000E+00
  0.00000000E+00  0.00000000E+00  0.00000000E+00
  0.00000000E+00  0.00000000E+00  0.00000000E+00
  0.00000000E+00  0.00000000E+00  0.00000000E+00
  0.00000000E+00  0.00000000E+00  0.00000000E+00
  0.00000000E+00  0.00000000E+00  0.00000000E+00
  0.00000000E+00  0.00000000E+00  0.00000000E+00
  0.00000000E+00  0.00000000E+00  0.00000000E+00
  0.00000000E+00  0.00000000E+00  0.00000000E+00
  0.00000000E+00  0.00000000E+00  0.00000000E+00
  0.00000000E+00  0.00000000E+00  0.00000000E+00
  0.00000000E+00  0.00000000E+00  0.00000000E+00
  0.00000000E+00  0.00000000E+00  0.00000000E+00
  0.00000000E+00  0.00000000E+00  0.00000000E+00
  0.00000000E+00  0.00000000E+00  0.00000000E+00
  0.00000000E+00  0.00000000E+00  0.00000000E+00
  0.00000000E+00  0.00000000E+00  0.00000000E+00
  0.00000000E+00  0.00000000E+00  0.00000000E+00
  0.00000000E+00  0.00000000E+00  0.00000000E+00
  0.00000000E+00  0.00000000E+00  0.00000000E+00
  0.00000000E+00  0.00000000E+00  0.00000000E+00
  0.00000000E+00  0.00000000E+00  0.00000000E+00
  0.00000000E+00  0.00000000E+00  0.00000000E+00
  0.00000000E+00  0.00000000E+00  0.00000000E+00
  0.00000000E+00  0.00000000E+00  0.00000000E+00
  0.00000000E+00  0.00000000E+00  0.00000000E+00
  0.00000000E+00  0.00000000E+00  0.00000000E+00
  0.00000000E+00  0.00000000E+00  0.00000000E+00
  0.00000000E+00  0.00000000E+00  0.00000000E+00
  0.00000000E+00  0.00000000E+00  0.00000000E+00
  0.00000000E+00  0.00000000E+00  0.00000000E+00
  0.00000000E+00  0.00000000E+00  0.00000000E+00
  0.00000000E+00  0.00000000E+00  0.00000000E+00
  0.00000000E+00  0.00000000E+00  0.00000000E+00
  0.00000000E+00  0.00000000E+00  0.00000000E+00
  0.00000000E+00  0.00000000E+00  0.00000000E+00
  0.00000000E+00  0.00000000E+00  0.00000000E+00
  0.00000000E+00  0.00000000E+00  0.00000000E+00
  0.00000000E+00  0.00000000E+00  0.00000000E+00
  0.00000000E+00  0.00000000E+00  0.00000000E+00
  0.00000000E+00  0.00000000E+00  0.00000000E+00
  0.00000000E+00  0.00000000E+00  0.00000000E+00
  0.00000000E+00  0.00000000E+00  0.00000000E+00
  0.00000000E+00  0.00000000E+00  0.00000000E+00
  0.00000000E+00  0.00000000E+00  0.00000000E+00
  0.00000000E+00  0.00000000E+00  0.00000000E+00
  0.00000000E+00  0.00000000E+00  0.00000000E+00
  0.00000000E+00  0.00000000E+00  0.00000000E+00
  0.00000000E+00  0.00000000E+00  0.00000000E+00
  0.00000000E+00  0.00000000E+00  0.00000000E+00
  0.00000000E+00  0.00000000E+00  0.00000000E+00
  0.00000000E+00  0.00000000E+00  0.00000000E+00
  0.00000000E+00  0.00000000E+00  0.00000000E+00
  0.00000000E+00  0.00000000E+00  0.00000000E+00
  0.00000000E+00  0.00000000E+00  0.00000000E+00
  0.00000000E+00  0.00000000E+00  0.00000000E+00
  0.00000000E+00  0.00000000E+00  0.00000000E+00
  0.00000000E+00  0.00000000E+00  0.00000000E+00
  0.00000000E+00  0.00000000E+00  0.00000000E+00
  0.00000000E+00  0.00000000E+00  0.00000000E+00
  0.00000000E+00  0.00000000E+00  0.00000000E+00
  0.00000000E+00  0.00000000E+00  0.00000000E+00
  0.00000000E+00  0.00000000E+00  0.00000000E+00
  0.00000000E+00  0.00000000E+00  0.00000000E+00
  0.00000000E+00  0.00000000E+00  0.00000000E+00
  0.00000000E+00  0.00000000E+00  0.00000000E+00
  0.00000000E+00  0.00000000E+00  0.00000000E+00
  0.00000000E+00  0.00000000E+00  0.00000000E+00
  0.00000000E+00  0.00000000E+00  0.00000000E+00
  0.00000000E+00  0.00000000E+00  0.00000000E+00
  0.00000000E+00  0.00000000E+00  0.00000000E+00
  0.00000000E+00  0.00000000E+00  0.00000000E+00
  0.00000000E+00  0.00000000E+00  0.00000000E+00
  0.00000000E+00  0.00000000E+00  0.00000000E+00
  0.00000000E+00  0.00000000E+00  0.00000000E+00
  0.00000000E+00  0.00000000E+00  0.00000000E+00
  0.00000000E+00  0.00000000E+00  0.00000000E+00
  0.00000000E+00  0.00000000E+00  0.00000000E+00
  0.00000000E+00  0.00000000E+00  0.00000000E+00
  0.00000000E+00  0.00000000E+00  0.00000000E+00
  0.00000000E+00  0.00000000E+00  0.00000000E+00
  0.00000000E+00  0.00000000E+00  0.00000000E+00
  0.00000000E+00  0.00000000E+00  0.00000000E+00
  0.00000000E+00  0.00000000E+00  0.00000000E+00
  0.00000000E+00  0.00000000E+00  0.00000000E+00
  0.00000000E+00  0.00000000E+00  0.00000000E+00
  0.00000000E+00  0.00000000E+00  0.00000000E+00
  0.00000000E+00  0.00000000E+00  0.00000000E+00
  0.00000000E+00  0.00000000E+00  0.00000000E+00
  0.00000000E+00  0.00000000E+00  0.00000000E+00
  0.00000000E+00  0.00000000E+00  0.00000000E+00
  0.00000000E+00  0.00000000E+00  0.00000000E+00
  0.00000000E+00  0.00000000E+00  0.00000000E+00
  0.00000000E+00  0.00000000E+00  0.00000000E+00
  0.00000000E+00  0.00000000E+00  0.00000000E+00
  0.00000000E+00  0.00000000E+00  0.00000000E+00
  0.00000000E+00  0.00000000E+00  0.00000000E+00
  0.00000000E+00  0.00000000E+00  0.00000000E+00
  0.00000000E+00  0.00000000E+00  0.00000000E+00
  0.00000000E+00  0.00000000E+00  0.00000000E+00
  0.00000000E+00  0.00000000E+00  0.00000000E+00
  0.00000000E+00  0.00000000E+00  0.00000000E+00
