Ti1 C123 N3                             
   1.00000000000000     
    19.7962306353830435    0.0108194589945144   -0.0172458694101320
    -9.8886839411507292   17.0420845528632015    0.0101058779887616
    -0.0259481072019521    0.0026164497827277   29.8166933162555239
   Ti   C    N 
     1   123     3
Direct
  0.4317371019999188  0.4996648076665818  0.4269657094010418
  0.0416948034635055  0.0837949385134289  0.3997716102072971
  0.0409009524492683  0.2080613761653414  0.3996831338924356
  0.0404024664341177  0.3329498197076264  0.3998190061539281
  0.0407020507126844  0.4581707718940440  0.3997427124519972
  0.0415439185796735  0.5836166427334336  0.3998863393125501
  0.0422559695119298  0.7090462442878491  0.4000040879921958
  0.0424001569142055  0.8342295382526879  0.4000378721819449
  0.0423094599958779  0.9592689098455394  0.3999131285295401
  0.1674691739148305  0.0849468859921470  0.3997850655578247
  0.1669679262176590  0.2095911211153425  0.3997129317820144
  0.1651322341800753  0.3335020646877633  0.4004220028191777
  0.1647122523014387  0.4582493041132482  0.4004662606023660
  0.1655618934462390  0.5835345316187673  0.3999039667271264
  0.1665871044678431  0.7088327927471056  0.3998623170242115
  0.1671527185298814  0.8342035419131908  0.4000020567135585
  0.1674133083566984  0.9596816472800767  0.3999576401332592
  0.2924742731880670  0.0853795791977122  0.3998434331940647
  0.2928895064632808  0.2117724973941532  0.4003474966193487
  0.2913984870521697  0.3362481637240655  0.4013294163988285
  0.2886211193651983  0.4577528072947265  0.4020008666747680
  0.2892294882746633  0.5828194096146272  0.4005724719432731
  0.2909605122313327  0.7081013822377235  0.3996975139021895
  0.2918218715302266  0.8337232775481652  0.3998417287446679
  0.2921749570216960  0.9594335197482646  0.3998959604826090
  0.4170901492589494  0.0842759708738931  0.3997852878185262
  0.4175542659880458  0.2105182800482975  0.3998152858709285
  0.4193280298953225  0.3384317696097180  0.4021761866553203
  0.4154230802085525  0.7061917443886018  0.3994783394243937
  0.4163289179569265  0.8323498929438774  0.3997819641575350
  0.4167377541099091  0.9583014698531180  0.3999295178606397
  0.5415923162681541  0.0828738381616328  0.3999107100881194
  0.5420751267052463  0.2086488990289664  0.3996879676504865
  0.5430323124773332  0.3343193489393423  0.3998290945538809
  0.5459344711911711  0.4598307909876697  0.4021128081988240
  0.5390318400575534  0.7023900794262872  0.4015111435429146
  0.5407027082433498  0.8305669165934718  0.3999017053937373
  0.5412558159854401  0.9569467257875753  0.3998788276483438
  0.6661324861764775  0.0822066200241310  0.3999746877194556
  0.6665861446511642  0.2077272210900630  0.3999278728685984
  0.6674005912985334  0.3332008011315669  0.3996460697040601
  0.6692198643746594  0.4587297054998627  0.3993498952482997
  0.6700577855670065  0.5840055300918560  0.4000614350838307
  0.6662937664227900  0.7061915491170337  0.4005632250847515
  0.6650135331512680  0.8306052363455265  0.4001061536917278
  0.6657415262832377  0.9565552139378743  0.3999285707350437
  0.7908172864674187  0.0820840505037074  0.3999861385084703
  0.7911098965711676  0.2074703706144448  0.4000235795492204
  0.7917146386724415  0.3328869010973322  0.3999532985536212
  0.7927802075006365  0.4583261057751288  0.3997072060440751
  0.7936320212976244  0.5837576381061332  0.3993759826140598
  0.7931179086873763  0.7087710341262498  0.3996895992699995
  0.7912436924384604  0.8323886830939082  0.3996178629185534
  0.7905929081988815  0.9568585447597099  0.3998223107558984
  0.9159666734694187  0.0826102558298318  0.3998380100512133
  0.9157423834783722  0.2075290139089331  0.3998547930081672
  0.9160040871199114  0.3327836613834606  0.3998770317707481
  0.9167378267804038  0.4582437654266985  0.3999385537459659
  0.9175685084931419  0.5837133256417287  0.3998890838921755
  0.9177318462604183  0.7089240734166472  0.3998153147998012
  0.9173770518800214  0.8339065115107679  0.3998218894394586
  0.9164811549768549  0.9581104836754314  0.3998564401354148
  0.0840303717324404  0.0428029252960499  0.3998031178873863
  0.0833573186131061  0.1672813326804292  0.3996742455188209
  0.0823258185104852  0.2915597096650571  0.3998864597085480
  0.0817709122786742  0.4162195293197788  0.3998588069606997
  0.0825463650302536  0.5416713944151447  0.3997961567866584
  0.0834616656694615  0.6671299814125548  0.3999390659789797
  0.0839671858416720  0.7925104027362045  0.4000481947014037
  0.0840928102509015  0.9177858515554868  0.3999901800283255
  0.2091007625433309  0.0432850590073225  0.3998680830512496
  0.2093081321929128  0.1687459604637552  0.3998676195517288
  0.2082863596359373  0.2930998565435454  0.4000040558856223
  0.2060043182532611  0.4167267925254766  0.4012407125544714
  0.2063710296490733  0.5414118625199670  0.4003944879841199
  0.2076645834777944  0.6668016575632330  0.3998095894575584
  0.2084998893960417  0.7923268714290312  0.3998949322800384
  0.2089573218892299  0.9178490080129682  0.3999765291807580
  0.3338403043914109  0.0431257259996960  0.3998188716434056
  0.3341738217624639  0.1692195947293489  0.3999923336813188
  0.3348629390865052  0.2960905176685984  0.4015736939363958
  0.3306470714573939  0.5415303825655930  0.4009559834301778
  0.3318442084968651  0.6659945560567792  0.3997495640598812
  0.3330698319373498  0.7916244570134907  0.3997286670429105
  0.3335723492247679  0.9172784638277462  0.3999018755768924
  0.4584144532710637  0.0419140320150335  0.3998987644500538
  0.4587574375423537  0.1679214365944756  0.3996706643936858
  0.4595389476429136  0.2943488041578914  0.4002445921115846
  0.4636027490942182  0.4216236701432515  0.4051298421079951
  0.4550541327438541  0.6623668419976112  0.4000794849413213
  0.4575871505815829  0.7898650547501281  0.3997152336642953
  0.4580408934283365  0.9159556701545007  0.3998873197574518
  0.5829543630297683  0.0406625389708879  0.3999263169295763
  0.5833286343165400  0.1664079171084816  0.3998491138543220
  0.5840708515814679  0.2920124201507492  0.3995983326653395
  0.5863064057487903  0.4176506491523361  0.3999230757186447
  0.5885542566806168  0.5432522495399317  0.4027402920764605
  0.5825929371711062  0.6614873215739659  0.4030465721323389
  0.5813579884834815  0.7873724858522861  0.4004207175926882
  0.5825062455398987  0.9145849740692465  0.3998633187173807
  0.7075557567136654  0.0402441266365964  0.3999732493218034
  0.7079285578826866  0.1657961566094360  0.4000096757974045
  0.7085249978854360  0.2912323338688796  0.3998754880970494
  0.7098769232575213  0.4165969157749281  0.3994806917388840
  0.7109619782311243  0.5418264854794483  0.3992509664693870
  0.7104544632071006  0.6670408874699131  0.4001514591353495
  0.7074750333515403  0.7898447909755227  0.3998296424914376
  0.7070675770493735  0.9145666037421031  0.3999128474885527
  0.8324913665071928  0.0405083621338474  0.3998915472574934
  0.8326194550507379  0.1657169975244358  0.3999893328956495
  0.8329183913806615  0.2909504838039056  0.3999840956085168
  0.8337749792646173  0.4163666988557497  0.3999209705000599
  0.8346807381121346  0.5418372939643357  0.3996578651770775
  0.8348870816384087  0.6671456051046708  0.3995845336868422
  0.8341446988686534  0.7920041588176258  0.3996778269692368
  0.8329458239412170  0.9159081820640143  0.3997393491927375
  0.9581960590722591  0.0416179074726803  0.3998599443172816
  0.9576591746237122  0.1660937292164343  0.3997578665970986
  0.9573888318683281  0.2910386822512899  0.3998050682717266
  0.9577757394305584  0.4163047630108441  0.3998344341194880
  0.9585951864916549  0.5417286723801300  0.3999453135520149
  0.9591836847816231  0.6671606982096057  0.3999195291339238
  0.9592941660189276  0.7924602164205381  0.3999252657046461
  0.9588839410919008  0.9172655530295285  0.3998866402914881
  0.4118951804802452  0.5814761161826304  0.4008739758397680
  0.5457306696199502  0.5807145441623771  0.4073478678556421
  0.3295034408353407  0.4172434775564502  0.4042581109904831
 
  0.00000000E+00  0.00000000E+00  0.00000000E+00
  0.00000000E+00  0.00000000E+00  0.00000000E+00
  0.00000000E+00  0.00000000E+00  0.00000000E+00
  0.00000000E+00  0.00000000E+00  0.00000000E+00
  0.00000000E+00  0.00000000E+00  0.00000000E+00
  0.00000000E+00  0.00000000E+00  0.00000000E+00
  0.00000000E+00  0.00000000E+00  0.00000000E+00
  0.00000000E+00  0.00000000E+00  0.00000000E+00
  0.00000000E+00  0.00000000E+00  0.00000000E+00
  0.00000000E+00  0.00000000E+00  0.00000000E+00
  0.00000000E+00  0.00000000E+00  0.00000000E+00
  0.00000000E+00  0.00000000E+00  0.00000000E+00
  0.00000000E+00  0.00000000E+00  0.00000000E+00
  0.00000000E+00  0.00000000E+00  0.00000000E+00
  0.00000000E+00  0.00000000E+00  0.00000000E+00
  0.00000000E+00  0.00000000E+00  0.00000000E+00
  0.00000000E+00  0.00000000E+00  0.00000000E+00
  0.00000000E+00  0.00000000E+00  0.00000000E+00
  0.00000000E+00  0.00000000E+00  0.00000000E+00
  0.00000000E+00  0.00000000E+00  0.00000000E+00
  0.00000000E+00  0.00000000E+00  0.00000000E+00
  0.00000000E+00  0.00000000E+00  0.00000000E+00
  0.00000000E+00  0.00000000E+00  0.00000000E+00
  0.00000000E+00  0.00000000E+00  0.00000000E+00
  0.00000000E+00  0.00000000E+00  0.00000000E+00
  0.00000000E+00  0.00000000E+00  0.00000000E+00
  0.00000000E+00  0.00000000E+00  0.00000000E+00
  0.00000000E+00  0.00000000E+00  0.00000000E+00
  0.00000000E+00  0.00000000E+00  0.00000000E+00
  0.00000000E+00  0.00000000E+00  0.00000000E+00
  0.00000000E+00  0.00000000E+00  0.00000000E+00
  0.00000000E+00  0.00000000E+00  0.00000000E+00
  0.00000000E+00  0.00000000E+00  0.00000000E+00
  0.00000000E+00  0.00000000E+00  0.00000000E+00
  0.00000000E+00  0.00000000E+00  0.00000000E+00
  0.00000000E+00  0.00000000E+00  0.00000000E+00
  0.00000000E+00  0.00000000E+00  0.00000000E+00
  0.00000000E+00  0.00000000E+00  0.00000000E+00
  0.00000000E+00  0.00000000E+00  0.00000000E+00
  0.00000000E+00  0.00000000E+00  0.00000000E+00
  0.00000000E+00  0.00000000E+00  0.00000000E+00
  0.00000000E+00  0.00000000E+00  0.00000000E+00
  0.00000000E+00  0.00000000E+00  0.00000000E+00
  0.00000000E+00  0.00000000E+00  0.00000000E+00
  0.00000000E+00  0.00000000E+00  0.00000000E+00
  0.00000000E+00  0.00000000E+00  0.00000000E+00
  0.00000000E+00  0.00000000E+00  0.00000000E+00
  0.00000000E+00  0.00000000E+00  0.00000000E+00
  0.00000000E+00  0.00000000E+00  0.00000000E+00
  0.00000000E+00  0.00000000E+00  0.00000000E+00
  0.00000000E+00  0.00000000E+00  0.00000000E+00
  0.00000000E+00  0.00000000E+00  0.00000000E+00
  0.00000000E+00  0.00000000E+00  0.00000000E+00
  0.00000000E+00  0.00000000E+00  0.00000000E+00
  0.00000000E+00  0.00000000E+00  0.00000000E+00
  0.00000000E+00  0.00000000E+00  0.00000000E+00
  0.00000000E+00  0.00000000E+00  0.00000000E+00
  0.00000000E+00  0.00000000E+00  0.00000000E+00
  0.00000000E+00  0.00000000E+00  0.00000000E+00
  0.00000000E+00  0.00000000E+00  0.00000000E+00
  0.00000000E+00  0.00000000E+00  0.00000000E+00
  0.00000000E+00  0.00000000E+00  0.00000000E+00
  0.00000000E+00  0.00000000E+00  0.00000000E+00
  0.00000000E+00  0.00000000E+00  0.00000000E+00
  0.00000000E+00  0.00000000E+00  0.00000000E+00
  0.00000000E+00  0.00000000E+00  0.00000000E+00
  0.00000000E+00  0.00000000E+00  0.00000000E+00
  0.00000000E+00  0.00000000E+00  0.00000000E+00
  0.00000000E+00  0.00000000E+00  0.00000000E+00
  0.00000000E+00  0.00000000E+00  0.00000000E+00
  0.00000000E+00  0.00000000E+00  0.00000000E+00
  0.00000000E+00  0.00000000E+00  0.00000000E+00
  0.00000000E+00  0.00000000E+00  0.00000000E+00
  0.00000000E+00  0.00000000E+00  0.00000000E+00
  0.00000000E+00  0.00000000E+00  0.00000000E+00
  0.00000000E+00  0.00000000E+00  0.00000000E+00
  0.00000000E+00  0.00000000E+00  0.00000000E+00
  0.00000000E+00  0.00000000E+00  0.00000000E+00
  0.00000000E+00  0.00000000E+00  0.00000000E+00
  0.00000000E+00  0.00000000E+00  0.00000000E+00
  0.00000000E+00  0.00000000E+00  0.00000000E+00
  0.00000000E+00  0.00000000E+00  0.00000000E+00
  0.00000000E+00  0.00000000E+00  0.00000000E+00
  0.00000000E+00  0.00000000E+00  0.00000000E+00
  0.00000000E+00  0.00000000E+00  0.00000000E+00
  0.00000000E+00  0.00000000E+00  0.00000000E+00
  0.00000000E+00  0.00000000E+00  0.00000000E+00
  0.00000000E+00  0.00000000E+00  0.00000000E+00
  0.00000000E+00  0.00000000E+00  0.00000000E+00
  0.00000000E+00  0.00000000E+00  0.00000000E+00
  0.00000000E+00  0.00000000E+00  0.00000000E+00
  0.00000000E+00  0.00000000E+00  0.00000000E+00
  0.00000000E+00  0.00000000E+00  0.00000000E+00
  0.00000000E+00  0.00000000E+00  0.00000000E+00
  0.00000000E+00  0.00000000E+00  0.00000000E+00
  0.00000000E+00  0.00000000E+00  0.00000000E+00
  0.00000000E+00  0.00000000E+00  0.00000000E+00
  0.00000000E+00  0.00000000E+00  0.00000000E+00
  0.00000000E+00  0.00000000E+00  0.00000000E+00
  0.00000000E+00  0.00000000E+00  0.00000000E+00
  0.00000000E+00  0.00000000E+00  0.00000000E+00
  0.00000000E+00  0.00000000E+00  0.00000000E+00
  0.00000000E+00  0.00000000E+00  0.00000000E+00
  0.00000000E+00  0.00000000E+00  0.00000000E+00
  0.00000000E+00  0.00000000E+00  0.00000000E+00
  0.00000000E+00  0.00000000E+00  0.00000000E+00
  0.00000000E+00  0.00000000E+00  0.00000000E+00
  0.00000000E+00  0.00000000E+00  0.00000000E+00
  0.00000000E+00  0.00000000E+00  0.00000000E+00
  0.00000000E+00  0.00000000E+00  0.00000000E+00
  0.00000000E+00  0.00000000E+00  0.00000000E+00
  0.00000000E+00  0.00000000E+00  0.00000000E+00
  0.00000000E+00  0.00000000E+00  0.00000000E+00
  0.00000000E+00  0.00000000E+00  0.00000000E+00
  0.00000000E+00  0.00000000E+00  0.00000000E+00
  0.00000000E+00  0.00000000E+00  0.00000000E+00
  0.00000000E+00  0.00000000E+00  0.00000000E+00
  0.00000000E+00  0.00000000E+00  0.00000000E+00
  0.00000000E+00  0.00000000E+00  0.00000000E+00
  0.00000000E+00  0.00000000E+00  0.00000000E+00
  0.00000000E+00  0.00000000E+00  0.00000000E+00
  0.00000000E+00  0.00000000E+00  0.00000000E+00
  0.00000000E+00  0.00000000E+00  0.00000000E+00
  0.00000000E+00  0.00000000E+00  0.00000000E+00
  0.00000000E+00  0.00000000E+00  0.00000000E+00
  0.00000000E+00  0.00000000E+00  0.00000000E+00
  0.00000000E+00  0.00000000E+00  0.00000000E+00
