Nb1 H1 C122 N4 O2                       
   1.00000000000000     
    19.8014307485353740   -0.0002745132751685    0.0005953965941740
    -9.9009274456488079   17.0311767431486167   -0.0003043718328777
     0.0008950273284365   -0.0000117562676449   29.8376317255616925
   Nb   H    C    N    O 
     1     1   122     4     2
Direct
  0.4375029573963640  0.4999996089483646  0.4356666309649782
  0.4374913592524981  0.5000011747711203  0.6350448840522955
  0.0420040976831209  0.0840310825484656  0.3997547910640711
  0.0411513741052745  0.2082295778018197  0.3996467670873523
  0.0403936141747980  0.3329803938253268  0.3995311356962881
  0.0404604187917300  0.4582131250389812  0.3995312040383228
  0.0413036295018684  0.5837092445730524  0.3998434643651442
  0.0420743126556930  0.7091344785804992  0.4000252404313577
  0.0423393656032419  0.8343516654305657  0.4000204591687120
  0.0424151474146734  0.9595152835809199  0.3998601342970112
  0.1680398014494646  0.0855770013082986  0.4000267209524164
  0.1673833559714257  0.2100391126910338  0.4000086706342915
  0.1652418336428823  0.3336523118498241  0.3999752647100952
  0.1642376774719198  0.4584776603509607  0.3993636253853887
  0.1651727954353505  0.5836586891165556  0.3993490320066296
  0.1663709743921630  0.7089149923873883  0.3997701245748091
  0.1669994428736555  0.8343379246490690  0.4000025627254505
  0.1674358884282660  0.9598701705237068  0.3999781361899228
  0.2925225565270223  0.0855640901739010  0.4000346314956560
  0.2938940461327046  0.2128022907437540  0.4012627171405577
  0.2921384233180455  0.3379553853964995  0.4028801027332065
  0.2876769504742027  0.4578944351615420  0.4019994652819063
  0.2885802548986044  0.5830286275415982  0.4000272127238129
  0.2906801898017977  0.7084017189957634  0.3995988057786634
  0.2916210855269304  0.8338669668560257  0.3997487709755593
  0.2921000578069529  0.9594947918361455  0.3998572551569860
  0.4170218995273271  0.0840121946463936  0.3997510490118626
  0.4176364695051000  0.2100368486560369  0.4000429710313385
  0.4208026215634990  0.3379564783623303  0.4028875235880372
  0.4148772237427309  0.7064570907592097  0.4004552733696414
  0.4161533055895695  0.8323955253170275  0.3996940093314171
  0.4166582629836263  0.9582466770504011  0.3997932212852405
  0.5415671331506265  0.0826099275438468  0.3998018754085813
  0.5420732486684228  0.2082188711551862  0.3996500742906330
  0.5434080795609941  0.3336310028906814  0.3999906717231657
  0.5452151781172967  0.4578827750896152  0.4019644803891813
  0.5386499375908682  0.7023049387596113  0.4029565153386194
  0.5406192373360252  0.8304875807626242  0.4004197219794772
  0.5411552929850458  0.9567927250421794  0.3998356370412048
  0.6661800669928845  0.0820657463911493  0.3999709392434164
  0.6665997819813617  0.2074968979411425  0.3998822139492990
  0.6675891265511804  0.3329853816654876  0.3995496576225605
  0.6692502191107003  0.4584819197841368  0.3993787522225066
  0.6694757725334575  0.5830494125223439  0.4000145516133534
  0.6665720988824276  0.7064605626409641  0.4004680011724726
  0.6648580429149206  0.8305027590118403  0.4004551751231325
  0.6657228162119941  0.9564452960457094  0.4000314432264724
  0.7908946070841451  0.0820745046236697  0.3999674750194391
  0.7911938607076187  0.2073945094708498  0.4000601607200569
  0.7917773954425007  0.3327712125752980  0.3999215715824555
  0.7927461204912325  0.4582220351665358  0.3995467655767070
  0.7934783363697746  0.5836437519655445  0.3993620448460160
  0.7927396301553535  0.7084186108749093  0.3996135251427997
  0.7912427782597804  0.8323984945508637  0.3996993161717067
  0.7906363904766649  0.9568111853598009  0.3998359959305245
  0.9160672009612625  0.0826338693929876  0.3998040850387379
  0.9159011712486025  0.2075160401973797  0.3998594081009372
  0.9160009897830684  0.3327757326868452  0.3999092911839620
  0.9166263113612035  0.4582622341109007  0.3999534298131737
  0.9173908079691334  0.5837093861238060  0.3998502854481422
  0.9175479733890680  0.7089244279159354  0.3997925689063875
  0.9172630460436574  0.8338893524297935  0.3997556938083191
  0.9166087363152273  0.9582629635546844  0.3997878888411656
  0.0843628256941281  0.0432071495253547  0.3998350188468530
  0.0837566956429281  0.1676043360649258  0.3996941564010330
  0.0822797525954645  0.2915989098750509  0.3995990630831336
  0.0815141548563451  0.4163399050153568  0.3993489470050851
  0.0822470124164299  0.5417858231132954  0.3995318890836937
  0.0832250842879808  0.6672247667581587  0.3999083841074085
  0.0838000370143779  0.7926070066408525  0.4000602674637224
  0.0841137660434417  0.9179346714745310  0.3999699405057481
  0.2092765925526449  0.0435545727968547  0.4000302499643263
  0.2101312329724453  0.1695117651994828  0.4004189443282139
  0.2084180955355117  0.2935421885359655  0.4004545989546042
  0.2055519406550053  0.4169710966725346  0.4000269136835000
  0.2057589830523522  0.5415199750710072  0.3993631672350989
  0.2074120306197302  0.6670187767334316  0.3995310969052432
  0.2083856836057078  0.7924846637516020  0.3998597261892777
  0.2088201611684293  0.9179256101795731  0.3999666973302657
  0.3338248919354648  0.0431887494754291  0.3998346432755079
  0.3343547245803619  0.1694969570758134  0.4004547809449283
  0.3363442325740463  0.2976951924874276  0.4029562170689059
  0.3297807274511438  0.5421043097505327  0.4019995473808121
  0.3315870162014869  0.6663450340845142  0.3999761030039414
  0.3329213992448997  0.7917708939406082  0.3996466629634698
  0.3334332672681376  0.9173674259379613  0.3998029420747213
  0.4583452131827365  0.0417365498110367  0.3997883335700435
  0.4588439926876409  0.1676007075390635  0.3996995588233155
  0.4601107731091834  0.2935391233456575  0.4004681888527141
  0.4541822153818299  0.6620437470489715  0.4028802103827687
  0.4573426725095158  0.7899592209383371  0.4000092485951434
  0.4579726201704062  0.9159693523653668  0.3997545030187825
  0.5828996405032478  0.0404855558146844  0.3998612965071199
  0.5833728250020576  0.1661103423111661  0.3997576869455203
  0.5843214941453942  0.2915816822121564  0.3996146999173121
  0.5864272119847700  0.4169509645358653  0.4000142784889217
  0.5873323901597174  0.5421178685840556  0.4019649575578532
  0.5828457439555556  0.6620444050944942  0.4028879170149394
  0.5810910104347716  0.7871979580670555  0.4012628187396481
  0.5824618887713984  0.9144227390795355  0.4000286343726500
  0.7075649790080484  0.0401299587367387  0.3999790522186712
  0.7079881663363716  0.1656487067927259  0.4000210484506205
  0.7086234662756155  0.2910756321809084  0.3997938026882165
  0.7098352035126828  0.4163562123554364  0.3993629676857794
  0.7107697080243986  0.5415192842442581  0.3993787032720120
  0.7097774011853171  0.6663696506881237  0.3999902749625698
  0.7075991228751339  0.7899640275918550  0.4000425931309379
  0.7069579873055197  0.9144360924378047  0.4000356602676128
  0.8326044526778869  0.0405053468835747  0.3998584441026135
  0.8326598188696527  0.1656618830414076  0.4000032014030622
  0.8329394193946422  0.2908655936469256  0.4000256328243242
  0.8336802622887538  0.4162899752678177  0.3998519989508940
  0.8345239068030159  0.5417778021335111  0.3995461064935604
  0.8346040862771065  0.6670158251027428  0.3995480410686129
  0.8338547287998811  0.7917823113967833  0.3996484404695743
  0.8330089961915481  0.9159874349922856  0.3997511874067938
  0.9584108209933618  0.0417529495030551  0.3997937908430093
  0.9577538776820502  0.1661341188026201  0.3997484932706520
  0.9574555832372071  0.2910849475852902  0.3997702451946943
  0.9575932231416023  0.4162900086283065  0.3998442619766880
  0.9583637614325652  0.5417372113210461  0.3999527923968973
  0.9590061629197942  0.6672292797001946  0.3999199771782748
  0.9591028790378274  0.7925032883537910  0.3998813688370802
  0.9589572112872352  0.9173901053390108  0.3998007025679807
  0.4100934406946757  0.5818780589517926  0.4053681537497260
  0.5467829178567833  0.5818756148633581  0.4053500969674071
  0.3282142842971537  0.4181216711625422  0.4053691018503484
  0.4649068630094269  0.4181244742863706  0.4053492070732087
  0.4374827288310766  0.5000000640743630  0.4940655081725261
  0.4376017574979863  0.5000017453087253  0.6021657802162080
 
  0.00000000E+00  0.00000000E+00  0.00000000E+00
  0.00000000E+00  0.00000000E+00  0.00000000E+00
  0.00000000E+00  0.00000000E+00  0.00000000E+00
  0.00000000E+00  0.00000000E+00  0.00000000E+00
  0.00000000E+00  0.00000000E+00  0.00000000E+00
  0.00000000E+00  0.00000000E+00  0.00000000E+00
  0.00000000E+00  0.00000000E+00  0.00000000E+00
  0.00000000E+00  0.00000000E+00  0.00000000E+00
  0.00000000E+00  0.00000000E+00  0.00000000E+00
  0.00000000E+00  0.00000000E+00  0.00000000E+00
  0.00000000E+00  0.00000000E+00  0.00000000E+00
  0.00000000E+00  0.00000000E+00  0.00000000E+00
  0.00000000E+00  0.00000000E+00  0.00000000E+00
  0.00000000E+00  0.00000000E+00  0.00000000E+00
  0.00000000E+00  0.00000000E+00  0.00000000E+00
  0.00000000E+00  0.00000000E+00  0.00000000E+00
  0.00000000E+00  0.00000000E+00  0.00000000E+00
  0.00000000E+00  0.00000000E+00  0.00000000E+00
  0.00000000E+00  0.00000000E+00  0.00000000E+00
  0.00000000E+00  0.00000000E+00  0.00000000E+00
  0.00000000E+00  0.00000000E+00  0.00000000E+00
  0.00000000E+00  0.00000000E+00  0.00000000E+00
  0.00000000E+00  0.00000000E+00  0.00000000E+00
  0.00000000E+00  0.00000000E+00  0.00000000E+00
  0.00000000E+00  0.00000000E+00  0.00000000E+00
  0.00000000E+00  0.00000000E+00  0.00000000E+00
  0.00000000E+00  0.00000000E+00  0.00000000E+00
  0.00000000E+00  0.00000000E+00  0.00000000E+00
  0.00000000E+00  0.00000000E+00  0.00000000E+00
  0.00000000E+00  0.00000000E+00  0.00000000E+00
  0.00000000E+00  0.00000000E+00  0.00000000E+00
  0.00000000E+00  0.00000000E+00  0.00000000E+00
  0.00000000E+00  0.00000000E+00  0.00000000E+00
  0.00000000E+00  0.00000000E+00  0.00000000E+00
  0.00000000E+00  0.00000000E+00  0.00000000E+00
  0.00000000E+00  0.00000000E+00  0.00000000E+00
  0.00000000E+00  0.00000000E+00  0.00000000E+00
  0.00000000E+00  0.00000000E+00  0.00000000E+00
  0.00000000E+00  0.00000000E+00  0.00000000E+00
  0.00000000E+00  0.00000000E+00  0.00000000E+00
  0.00000000E+00  0.00000000E+00  0.00000000E+00
  0.00000000E+00  0.00000000E+00  0.00000000E+00
  0.00000000E+00  0.00000000E+00  0.00000000E+00
  0.00000000E+00  0.00000000E+00  0.00000000E+00
  0.00000000E+00  0.00000000E+00  0.00000000E+00
  0.00000000E+00  0.00000000E+00  0.00000000E+00
  0.00000000E+00  0.00000000E+00  0.00000000E+00
  0.00000000E+00  0.00000000E+00  0.00000000E+00
  0.00000000E+00  0.00000000E+00  0.00000000E+00
  0.00000000E+00  0.00000000E+00  0.00000000E+00
  0.00000000E+00  0.00000000E+00  0.00000000E+00
  0.00000000E+00  0.00000000E+00  0.00000000E+00
  0.00000000E+00  0.00000000E+00  0.00000000E+00
  0.00000000E+00  0.00000000E+00  0.00000000E+00
  0.00000000E+00  0.00000000E+00  0.00000000E+00
  0.00000000E+00  0.00000000E+00  0.00000000E+00
  0.00000000E+00  0.00000000E+00  0.00000000E+00
  0.00000000E+00  0.00000000E+00  0.00000000E+00
  0.00000000E+00  0.00000000E+00  0.00000000E+00
  0.00000000E+00  0.00000000E+00  0.00000000E+00
  0.00000000E+00  0.00000000E+00  0.00000000E+00
  0.00000000E+00  0.00000000E+00  0.00000000E+00
  0.00000000E+00  0.00000000E+00  0.00000000E+00
  0.00000000E+00  0.00000000E+00  0.00000000E+00
  0.00000000E+00  0.00000000E+00  0.00000000E+00
  0.00000000E+00  0.00000000E+00  0.00000000E+00
  0.00000000E+00  0.00000000E+00  0.00000000E+00
  0.00000000E+00  0.00000000E+00  0.00000000E+00
  0.00000000E+00  0.00000000E+00  0.00000000E+00
  0.00000000E+00  0.00000000E+00  0.00000000E+00
  0.00000000E+00  0.00000000E+00  0.00000000E+00
  0.00000000E+00  0.00000000E+00  0.00000000E+00
  0.00000000E+00  0.00000000E+00  0.00000000E+00
  0.00000000E+00  0.00000000E+00  0.00000000E+00
  0.00000000E+00  0.00000000E+00  0.00000000E+00
  0.00000000E+00  0.00000000E+00  0.00000000E+00
  0.00000000E+00  0.00000000E+00  0.00000000E+00
  0.00000000E+00  0.00000000E+00  0.00000000E+00
  0.00000000E+00  0.00000000E+00  0.00000000E+00
  0.00000000E+00  0.00000000E+00  0.00000000E+00
  0.00000000E+00  0.00000000E+00  0.00000000E+00
  0.00000000E+00  0.00000000E+00  0.00000000E+00
  0.00000000E+00  0.00000000E+00  0.00000000E+00
  0.00000000E+00  0.00000000E+00  0.00000000E+00
  0.00000000E+00  0.00000000E+00  0.00000000E+00
  0.00000000E+00  0.00000000E+00  0.00000000E+00
  0.00000000E+00  0.00000000E+00  0.00000000E+00
  0.00000000E+00  0.00000000E+00  0.00000000E+00
  0.00000000E+00  0.00000000E+00  0.00000000E+00
  0.00000000E+00  0.00000000E+00  0.00000000E+00
  0.00000000E+00  0.00000000E+00  0.00000000E+00
  0.00000000E+00  0.00000000E+00  0.00000000E+00
  0.00000000E+00  0.00000000E+00  0.00000000E+00
  0.00000000E+00  0.00000000E+00  0.00000000E+00
  0.00000000E+00  0.00000000E+00  0.00000000E+00
  0.00000000E+00  0.00000000E+00  0.00000000E+00
  0.00000000E+00  0.00000000E+00  0.00000000E+00
  0.00000000E+00  0.00000000E+00  0.00000000E+00
  0.00000000E+00  0.00000000E+00  0.00000000E+00
  0.00000000E+00  0.00000000E+00  0.00000000E+00
  0.00000000E+00  0.00000000E+00  0.00000000E+00
  0.00000000E+00  0.00000000E+00  0.00000000E+00
  0.00000000E+00  0.00000000E+00  0.00000000E+00
  0.00000000E+00  0.00000000E+00  0.00000000E+00
  0.00000000E+00  0.00000000E+00  0.00000000E+00
  0.00000000E+00  0.00000000E+00  0.00000000E+00
  0.00000000E+00  0.00000000E+00  0.00000000E+00
  0.00000000E+00  0.00000000E+00  0.00000000E+00
  0.00000000E+00  0.00000000E+00  0.00000000E+00
  0.00000000E+00  0.00000000E+00  0.00000000E+00
  0.00000000E+00  0.00000000E+00  0.00000000E+00
  0.00000000E+00  0.00000000E+00  0.00000000E+00
  0.00000000E+00  0.00000000E+00  0.00000000E+00
  0.00000000E+00  0.00000000E+00  0.00000000E+00
  0.00000000E+00  0.00000000E+00  0.00000000E+00
  0.00000000E+00  0.00000000E+00  0.00000000E+00
  0.00000000E+00  0.00000000E+00  0.00000000E+00
  0.00000000E+00  0.00000000E+00  0.00000000E+00
  0.00000000E+00  0.00000000E+00  0.00000000E+00
  0.00000000E+00  0.00000000E+00  0.00000000E+00
  0.00000000E+00  0.00000000E+00  0.00000000E+00
  0.00000000E+00  0.00000000E+00  0.00000000E+00
  0.00000000E+00  0.00000000E+00  0.00000000E+00
  0.00000000E+00  0.00000000E+00  0.00000000E+00
  0.00000000E+00  0.00000000E+00  0.00000000E+00
  0.00000000E+00  0.00000000E+00  0.00000000E+00
  0.00000000E+00  0.00000000E+00  0.00000000E+00
  0.00000000E+00  0.00000000E+00  0.00000000E+00
  0.00000000E+00  0.00000000E+00  0.00000000E+00
  0.00000000E+00  0.00000000E+00  0.00000000E+00
