Ir1 C124 N2 O1                          
   1.00000000000000     
    19.8139307325514586   -0.0354761136256389   -0.0395458975673915
    -9.9378792504430411   17.0451589973288620   -0.0245866159043241
    -0.0595967448716875   -0.0777250387291811   29.8255633744874693
   Ir   C    N    O 
     1   124     2     1
Direct
  0.4379587723782781  0.5004595132890347  0.4265801695869059
  0.0426426209730420  0.0847011468364423  0.3998130051709373
  0.0421478098686434  0.2089695408167712  0.3994002465580355
  0.0412096775012849  0.3333807190040691  0.3991131550311905
  0.0406758053426931  0.4585504797828600  0.3994085112553775
  0.0411192174988788  0.5839444690725093  0.3997791551363878
  0.0416737073163674  0.7092869780053563  0.3998257645425196
  0.0419587089915299  0.8344701157753581  0.3999765532443061
  0.0423384196141742  0.9597322583411174  0.4000198436038112
  0.1684244545509436  0.0861171782835378  0.4000863326781877
  0.1689914077593698  0.2115788895795331  0.3998655918680362
  0.1670183278473680  0.3350550872336485  0.3985611898440475
  0.1645212562107885  0.4592323069785073  0.3985365013325619
  0.1648743917537037  0.5842472011232811  0.3991963111434971
  0.1659675067781795  0.7093985207580333  0.3997941749606881
  0.1666964812827001  0.8346457940620721  0.3997600806451221
  0.1673602792639914  0.9601264187684444  0.3999322021001795
  0.2927671190893413  0.0855756007252208  0.4002470532398075
  0.2948942558725441  0.2129387995299791  0.4017192064397919
  0.2959348226375782  0.3398961249086759  0.4010437318210652
  0.2887711084430256  0.4613325572007143  0.3993830069351261
  0.2882974949058069  0.5850003535342454  0.4001968881205684
  0.2902285682213324  0.7094172532471662  0.4001295185287626
  0.2913319005721883  0.8343777310082822  0.3997349842051177
  0.2919750419362665  0.9596764415499347  0.3996239951817693
  0.4172065599415637  0.0839211394925726  0.3997166400389105
  0.4181357822220992  0.2098305795743542  0.4008767735772987
  0.4217806174557663  0.3375997982076098  0.4053405244615739
  0.4142343015004396  0.7068869101069397  0.4019245139972379
  0.4158697202481577  0.8327508924224534  0.3999852209324121
  0.4165792824837993  0.9583476477093363  0.3995214539098552
  0.5417947915307314  0.0823814389716668  0.3995940517005513
  0.5424738246662005  0.2075452569857680  0.4000314638013429
  0.5440258421862015  0.3323748829408329  0.4011117201744117
  0.5463518324836535  0.4559510348952474  0.4022766126970294
  0.5415284527194059  0.5763092992283981  0.4005821914946980
  0.5374211352656901  0.7025359349255307  0.4030327446483325
  0.5401769222585227  0.8306944050126404  0.4009485806705902
  0.5411839321535160  0.9568479883380965  0.3998193417584502
  0.6664447825956397  0.0818342362948847  0.3997886453882590
  0.6670679129111375  0.2071766323696679  0.3997989445853770
  0.6680689642132628  0.3324127219097560  0.3996950227991700
  0.6695658998598250  0.4576368109974443  0.3987042319544664
  0.6687406162890893  0.5817221194424538  0.3978793030050254
  0.6640560189364050  0.7044925221169073  0.3990399218031490
  0.6642222623738089  0.8298934812851070  0.4002975993885101
  0.6656853317669104  0.9561988972087592  0.4001239992752026
  0.7912435678667169  0.0819457631897310  0.4000394307838148
  0.7917039136822884  0.2072245030257398  0.3997861392807339
  0.7922744469480458  0.3325582319035888  0.3997983774741037
  0.7930365360264985  0.4579608844833197  0.3994310224070335
  0.7932535367268854  0.5832072719081774  0.3988366600297443
  0.7915833772037443  0.7076457398276398  0.3987085629177931
  0.7902845110550630  0.8315947217173029  0.3995123043090663
  0.7905209813018689  0.9565359840986893  0.3998999329876031
  0.9165506868640766  0.0828689093883661  0.3999272258358558
  0.9165478502568397  0.2076808465368647  0.3998457858360037
  0.9165619030786851  0.3328180817616851  0.3997755969086770
  0.9168595605273278  0.4582676911003780  0.3998246153378348
  0.9172528022466038  0.5836704550132322  0.3997622261874685
  0.9170432905848300  0.7088451442276283  0.3996845964293751
  0.9166904481787196  0.8336272794961199  0.3998108485309079
  0.9164566857453142  0.9582073330187164  0.3999331591706434
  0.0846338557631998  0.0436112025681681  0.3999071658761834
  0.0848997440322631  0.1685618478160711  0.3996118767216095
  0.0835401318205332  0.2924639585371301  0.3989009708861105
  0.0818269952114549  0.4168536960354978  0.3989290969283692
  0.0820376685342846  0.5421078649486374  0.3994510132711289
  0.0828146489589227  0.6675017189824619  0.3998064304511635
  0.0834190076311920  0.7928524898843639  0.3998171874186592
  0.0838903210472379  0.9181518566754221  0.4000315729319588
  0.2094335948909795  0.0438907132531727  0.4000907787089996
  0.2109368947732157  0.1702504428128564  0.4004930213292453
  0.2110863468748000  0.2956382855542865  0.3994837316066033
  0.2063429094829775  0.4183471906449385  0.3982952295738876
  0.2055022459800546  0.5424114588782011  0.3988102847914819
  0.2070024707471688  0.6676703669810322  0.3996742815806907
  0.2080272039372302  0.7929052621913524  0.3997993701497684
  0.2086556015494540  0.9182373235499703  0.3997607720806000
  0.3338864375447645  0.0432126667813603  0.3997850694111362
  0.3349458007069927  0.1694351492288736  0.4010887214636589
  0.3377974818330507  0.2976850959006881  0.4034183859944059
  0.3336080382986116  0.4238416189477726  0.4009874565234811
  0.3288287502464539  0.5442320668172344  0.4023867845410257
  0.3311000200571178  0.6677476912201324  0.4010224738343945
  0.3326176455952782  0.7925666240533356  0.3999519207725462
  0.3333213033751077  0.9176973334172148  0.3995626313911809
  0.4585278703191186  0.0417247323521567  0.3995315348563661
  0.4592290317570506  0.1673282056484973  0.4000635521462486
  0.4609158999248718  0.2932850630926488  0.4021352055115343
  0.4534950553314664  0.6626795524524686  0.4050682447466144
  0.4570080514086209  0.7903118424026809  0.4007018760505877
  0.4579025577801755  0.9161758446449356  0.3997095291562746
  0.5831354063217181  0.0403946232179762  0.3996707228797263
  0.5837518432574760  0.1656899166173399  0.3997605927762522
  0.5848618394206837  0.2906734138190842  0.4002031595737112
  0.5868275383650066  0.4151472107326915  0.4001348782738425
  0.5863475762115606  0.5387952279862889  0.3990008936381728
  0.5792472309853607  0.6602831685663042  0.4005644521394752
  0.5802931644964534  0.7872440217302413  0.4014603500519194
  0.5823537729018270  0.9145356351201791  0.4002521681424713
  0.7077362714453159  0.0399434855678022  0.3999785560702837
  0.7083998939996714  0.1654231726449554  0.3997523330125624
  0.7091216402410013  0.2906736932960261  0.3998002912453499
  0.7101987858242366  0.4158324668658858  0.3991694039530832
  0.7105729376345493  0.5408478848676006  0.3983215115482820
  0.7080904948664227  0.6650322733584021  0.3981356581604598
  0.7061826055769111  0.7885786075284080  0.3995986693812615
  0.7067059155716811  0.9140117035163867  0.4000499010757355
  0.8327986548953197  0.0403973368061836  0.4000101912555750
  0.8331597774381597  0.1656404055416325  0.3999422486017402
  0.8334240125538815  0.2907721136176649  0.3998015186240160
  0.8339483949866215  0.4161069424183746  0.3997659321097444
  0.8343945970149077  0.5415274903431300  0.3993952285551295
  0.8338808157798663  0.6666994519276501  0.3990446463741320
  0.8329852080321239  0.7911297840810159  0.3993359195545956
  0.8325213426152861  0.9154464860499887  0.3998201295079751
  0.9587205683781180  0.0419558663621217  0.3999046529739268
  0.9584717939200116  0.1665076751820804  0.3997571796963321
  0.9580722981014609  0.2912585238032827  0.3996447762478454
  0.9578073998703011  0.4163958517255633  0.3997352077701947
  0.9582316552664012  0.5418038696772135  0.3998365554794831
  0.9585349555586201  0.6672436256631057  0.3998102621056491
  0.9585756191465318  0.7924197161486936  0.3999017262747663
  0.9586112091110899  0.9172599797897047  0.3999829186387329
  0.4083590802182977  0.5819556875407498  0.4092192275013007
  0.4670090297073040  0.4184645036270896  0.4093623095089569
  0.4385590439068450  0.5018890674372208  0.4866874969290838
 
  0.00000000E+00  0.00000000E+00  0.00000000E+00
  0.00000000E+00  0.00000000E+00  0.00000000E+00
  0.00000000E+00  0.00000000E+00  0.00000000E+00
  0.00000000E+00  0.00000000E+00  0.00000000E+00
  0.00000000E+00  0.00000000E+00  0.00000000E+00
  0.00000000E+00  0.00000000E+00  0.00000000E+00
  0.00000000E+00  0.00000000E+00  0.00000000E+00
  0.00000000E+00  0.00000000E+00  0.00000000E+00
  0.00000000E+00  0.00000000E+00  0.00000000E+00
  0.00000000E+00  0.00000000E+00  0.00000000E+00
  0.00000000E+00  0.00000000E+00  0.00000000E+00
  0.00000000E+00  0.00000000E+00  0.00000000E+00
  0.00000000E+00  0.00000000E+00  0.00000000E+00
  0.00000000E+00  0.00000000E+00  0.00000000E+00
  0.00000000E+00  0.00000000E+00  0.00000000E+00
  0.00000000E+00  0.00000000E+00  0.00000000E+00
  0.00000000E+00  0.00000000E+00  0.00000000E+00
  0.00000000E+00  0.00000000E+00  0.00000000E+00
  0.00000000E+00  0.00000000E+00  0.00000000E+00
  0.00000000E+00  0.00000000E+00  0.00000000E+00
  0.00000000E+00  0.00000000E+00  0.00000000E+00
  0.00000000E+00  0.00000000E+00  0.00000000E+00
  0.00000000E+00  0.00000000E+00  0.00000000E+00
  0.00000000E+00  0.00000000E+00  0.00000000E+00
  0.00000000E+00  0.00000000E+00  0.00000000E+00
  0.00000000E+00  0.00000000E+00  0.00000000E+00
  0.00000000E+00  0.00000000E+00  0.00000000E+00
  0.00000000E+00  0.00000000E+00  0.00000000E+00
  0.00000000E+00  0.00000000E+00  0.00000000E+00
  0.00000000E+00  0.00000000E+00  0.00000000E+00
  0.00000000E+00  0.00000000E+00  0.00000000E+00
  0.00000000E+00  0.00000000E+00  0.00000000E+00
  0.00000000E+00  0.00000000E+00  0.00000000E+00
  0.00000000E+00  0.00000000E+00  0.00000000E+00
  0.00000000E+00  0.00000000E+00  0.00000000E+00
  0.00000000E+00  0.00000000E+00  0.00000000E+00
  0.00000000E+00  0.00000000E+00  0.00000000E+00
  0.00000000E+00  0.00000000E+00  0.00000000E+00
  0.00000000E+00  0.00000000E+00  0.00000000E+00
  0.00000000E+00  0.00000000E+00  0.00000000E+00
  0.00000000E+00  0.00000000E+00  0.00000000E+00
  0.00000000E+00  0.00000000E+00  0.00000000E+00
  0.00000000E+00  0.00000000E+00  0.00000000E+00
  0.00000000E+00  0.00000000E+00  0.00000000E+00
  0.00000000E+00  0.00000000E+00  0.00000000E+00
  0.00000000E+00  0.00000000E+00  0.00000000E+00
  0.00000000E+00  0.00000000E+00  0.00000000E+00
  0.00000000E+00  0.00000000E+00  0.00000000E+00
  0.00000000E+00  0.00000000E+00  0.00000000E+00
  0.00000000E+00  0.00000000E+00  0.00000000E+00
  0.00000000E+00  0.00000000E+00  0.00000000E+00
  0.00000000E+00  0.00000000E+00  0.00000000E+00
  0.00000000E+00  0.00000000E+00  0.00000000E+00
  0.00000000E+00  0.00000000E+00  0.00000000E+00
  0.00000000E+00  0.00000000E+00  0.00000000E+00
  0.00000000E+00  0.00000000E+00  0.00000000E+00
  0.00000000E+00  0.00000000E+00  0.00000000E+00
  0.00000000E+00  0.00000000E+00  0.00000000E+00
  0.00000000E+00  0.00000000E+00  0.00000000E+00
  0.00000000E+00  0.00000000E+00  0.00000000E+00
  0.00000000E+00  0.00000000E+00  0.00000000E+00
  0.00000000E+00  0.00000000E+00  0.00000000E+00
  0.00000000E+00  0.00000000E+00  0.00000000E+00
  0.00000000E+00  0.00000000E+00  0.00000000E+00
  0.00000000E+00  0.00000000E+00  0.00000000E+00
  0.00000000E+00  0.00000000E+00  0.00000000E+00
  0.00000000E+00  0.00000000E+00  0.00000000E+00
  0.00000000E+00  0.00000000E+00  0.00000000E+00
  0.00000000E+00  0.00000000E+00  0.00000000E+00
  0.00000000E+00  0.00000000E+00  0.00000000E+00
  0.00000000E+00  0.00000000E+00  0.00000000E+00
  0.00000000E+00  0.00000000E+00  0.00000000E+00
  0.00000000E+00  0.00000000E+00  0.00000000E+00
  0.00000000E+00  0.00000000E+00  0.00000000E+00
  0.00000000E+00  0.00000000E+00  0.00000000E+00
  0.00000000E+00  0.00000000E+00  0.00000000E+00
  0.00000000E+00  0.00000000E+00  0.00000000E+00
  0.00000000E+00  0.00000000E+00  0.00000000E+00
  0.00000000E+00  0.00000000E+00  0.00000000E+00
  0.00000000E+00  0.00000000E+00  0.00000000E+00
  0.00000000E+00  0.00000000E+00  0.00000000E+00
  0.00000000E+00  0.00000000E+00  0.00000000E+00
  0.00000000E+00  0.00000000E+00  0.00000000E+00
  0.00000000E+00  0.00000000E+00  0.00000000E+00
  0.00000000E+00  0.00000000E+00  0.00000000E+00
  0.00000000E+00  0.00000000E+00  0.00000000E+00
  0.00000000E+00  0.00000000E+00  0.00000000E+00
  0.00000000E+00  0.00000000E+00  0.00000000E+00
  0.00000000E+00  0.00000000E+00  0.00000000E+00
  0.00000000E+00  0.00000000E+00  0.00000000E+00
  0.00000000E+00  0.00000000E+00  0.00000000E+00
  0.00000000E+00  0.00000000E+00  0.00000000E+00
  0.00000000E+00  0.00000000E+00  0.00000000E+00
  0.00000000E+00  0.00000000E+00  0.00000000E+00
  0.00000000E+00  0.00000000E+00  0.00000000E+00
  0.00000000E+00  0.00000000E+00  0.00000000E+00
  0.00000000E+00  0.00000000E+00  0.00000000E+00
  0.00000000E+00  0.00000000E+00  0.00000000E+00
  0.00000000E+00  0.00000000E+00  0.00000000E+00
  0.00000000E+00  0.00000000E+00  0.00000000E+00
  0.00000000E+00  0.00000000E+00  0.00000000E+00
  0.00000000E+00  0.00000000E+00  0.00000000E+00
  0.00000000E+00  0.00000000E+00  0.00000000E+00
  0.00000000E+00  0.00000000E+00  0.00000000E+00
  0.00000000E+00  0.00000000E+00  0.00000000E+00
  0.00000000E+00  0.00000000E+00  0.00000000E+00
  0.00000000E+00  0.00000000E+00  0.00000000E+00
  0.00000000E+00  0.00000000E+00  0.00000000E+00
  0.00000000E+00  0.00000000E+00  0.00000000E+00
  0.00000000E+00  0.00000000E+00  0.00000000E+00
  0.00000000E+00  0.00000000E+00  0.00000000E+00
  0.00000000E+00  0.00000000E+00  0.00000000E+00
  0.00000000E+00  0.00000000E+00  0.00000000E+00
  0.00000000E+00  0.00000000E+00  0.00000000E+00
  0.00000000E+00  0.00000000E+00  0.00000000E+00
  0.00000000E+00  0.00000000E+00  0.00000000E+00
  0.00000000E+00  0.00000000E+00  0.00000000E+00
  0.00000000E+00  0.00000000E+00  0.00000000E+00
  0.00000000E+00  0.00000000E+00  0.00000000E+00
  0.00000000E+00  0.00000000E+00  0.00000000E+00
  0.00000000E+00  0.00000000E+00  0.00000000E+00
  0.00000000E+00  0.00000000E+00  0.00000000E+00
  0.00000000E+00  0.00000000E+00  0.00000000E+00
  0.00000000E+00  0.00000000E+00  0.00000000E+00
  0.00000000E+00  0.00000000E+00  0.00000000E+00
  0.00000000E+00  0.00000000E+00  0.00000000E+00
  0.00000000E+00  0.00000000E+00  0.00000000E+00
  0.00000000E+00  0.00000000E+00  0.00000000E+00
