Ta1 H1 C122 N4 O2                       
   1.00000000000000     
    19.7936721508878577    0.0004275625749433   -0.1211352003861139
    -9.8964708403038308   17.0366142602015103    0.0608191851628004
    -0.1823453304646704    0.0004351609526205   29.8403013914954798
   Ta   H    C    N    O 
     1     1   122     4     2
Direct
  0.4316016658385016  0.4999995847055168  0.4316645314384134
  0.4374972777130124  0.5000092516625413  0.6381502874019603
  0.0419681497647333  0.0837742121700032  0.3996799516396329
  0.0412525244589437  0.2081469229497065  0.3998643088943238
  0.0406493511797872  0.3330291030781614  0.4003430562803963
  0.0406937568031049  0.4582483334206715  0.4001864531133694
  0.0414801206455142  0.5836695343133110  0.3997015363249915
  0.0421886932283074  0.7090538195551224  0.3994662183541322
  0.0423625029768619  0.8341906504559096  0.3995545117554817
  0.0424322884218465  0.9592994634257453  0.3996221027885249
  0.1680007144404939  0.0852318939696945  0.4001478846773818
  0.1672684315187860  0.2095472869217143  0.4000690627788563
  0.1654341289556430  0.3336396477017202  0.4003848509518265
  0.1645601085783136  0.4583961035795343  0.4012797292934311
  0.1654425194254063  0.5836606351535065  0.4006883049121897
  0.1665412976395676  0.7089073624582827  0.3999385119713055
  0.1671067356392807  0.8342287761550139  0.3996724918222873
  0.1675093016075287  0.9596908605674315  0.3998555557966568
  0.2926218263034542  0.0853836898053354  0.4004360790207789
  0.2939295416950469  0.2123611342239288  0.4015369900373915
  0.2916322997513965  0.3365309055414008  0.4008368284077763
  0.2882468740019427  0.4579416244152033  0.4001870456945221
  0.2889202929439446  0.5831873854106484  0.4010494171790892
  0.2908993328908233  0.7083876696228943  0.4002698773759914
  0.2918333787817102  0.8338556499639492  0.3996859448233495
  0.2922458781943958  0.9594837469666844  0.3997506278673312
  0.4172217024990342  0.0842114358151378  0.3998649634468679
  0.4177867872535515  0.2102875278522149  0.4009058853976351
  0.4209246204200452  0.3382290262750800  0.4043611576447487
  0.4154024660052103  0.7070272624431146  0.3999345290124691
  0.4164258468069334  0.8327345551239065  0.3998351194184772
  0.4168300032547630  0.9584401673186072  0.3995765717678558
  0.5417542153863093  0.0828236710711705  0.3995716400430679
  0.5422295626857684  0.2083884561984470  0.3998581780342393
  0.5436174913232956  0.3337993556750438  0.4009707654386944
  0.5456922402273225  0.4582116621079632  0.4036775758959233
  0.5391305204916402  0.7027131781292064  0.4027291358588856
  0.5409540685868987  0.8308794477508872  0.4005248361974231
  0.5414430580859652  0.9570675454681146  0.3997366240899257
  0.6663775078416556  0.0822431825537735  0.3996725597390846
  0.6667926104489167  0.2076540423367741  0.3994234482347296
  0.6677268672590172  0.3331201169357896  0.3991596009627247
  0.6692495826395830  0.4585101764014804  0.3991997003014757
  0.6694222937294854  0.5829420637982528  0.4007947003070537
  0.6663228039156746  0.7061019632811677  0.4019267530264516
  0.6651444543997135  0.8306524680036736  0.4011075246364495
  0.6660111853626893  0.9566560629177495  0.4001925881974420
  0.7910969257584238  0.0821556984962623  0.3997627932578796
  0.7913965644343223  0.2074992717513648  0.3995674363389757
  0.7919196471140465  0.3328494124255820  0.3991486223052573
  0.7928111705317927  0.4582370854455759  0.3986746557160643
  0.7934902139875472  0.5835969940152795  0.3987642665756709
  0.7926568790756697  0.7082095926915506  0.3998718347579303
  0.7912029536965733  0.8321845200542877  0.4001291617077145
  0.7907897723437882  0.9568493557367107  0.3999935599790430
  0.9162327615025205  0.0826125887189931  0.3996085583076487
  0.9160853251325187  0.2075908056242383  0.3997363702139962
  0.9161977151381924  0.3328124150320568  0.3997093777343535
  0.9167851806811551  0.4582697854194517  0.3992874955617552
  0.9174780000658878  0.5836643092294064  0.3989825985442688
  0.9175866468121552  0.7088061126126820  0.3991514928434111
  0.9172266083785113  0.8337198332480217  0.3995488129595265
  0.9165551493563826  0.9580348993167027  0.3996209952279779
  0.0843763473104907  0.0429346052931191  0.3997390774485436
  0.0836889917318143  0.1672668969902900  0.3998404350316891
  0.0825137256482507  0.2916196535393623  0.4002643469675989
  0.0817839824483125  0.4163435654267621  0.4006808777279977
  0.0824492719945445  0.5417525917725258  0.4001923714414468
  0.0833906108180107  0.6671827445246392  0.3997121786882535
  0.0838990081716861  0.7924962785266813  0.3995709985834653
  0.0841370556500073  0.9177571280324227  0.3996730451532174
  0.2093562129469869  0.0433452405790980  0.4001951937121184
  0.2100747845861578  0.1691232946937674  0.4005268626885912
  0.2083729562235387  0.2929753370008980  0.3999345186017509
  0.2057319646041080  0.4168152439453038  0.4010485125090766
  0.2061678189641513  0.5416085621972575  0.4012821249966796
  0.2076265623048261  0.6669769741056728  0.4003516032896233
  0.2084992628523646  0.7924138502665719  0.3997398662390462
  0.2089407734152823  0.9178441863292006  0.3997692149628262
  0.3339380281615368  0.0431478432225335  0.3999953687992546
  0.3344890816981365  0.1693443866275375  0.4011154813212615
  0.3364214312771950  0.2972909287313141  0.4027310195640699
  0.3303076659011691  0.5420555174542111  0.4001856794128627
  0.3317997994678583  0.6663637674059086  0.4003874842635877
  0.3331109081872547  0.7918595953562791  0.3998613616039616
  0.3336225596301839  0.9173909468011304  0.3996034966017608
  0.4585135652825649  0.0419636831652789  0.3996149130858755
  0.4590145447792036  0.1678151999376728  0.4001336892192746
  0.4602174704381740  0.2938940731523003  0.4019273898147805
  0.4551054427916929  0.6634720478183842  0.4008352044108469
  0.4577275504267173  0.7904532097697842  0.4000668042780730
  0.4581990071620671  0.9162287923659135  0.3996721841905846
  0.5831322133628279  0.0407007648467950  0.3996206947553935
  0.5835005568546862  0.1662770578631480  0.3995603373149565
  0.5844376937383782  0.2917863439466869  0.3998790442611752
  0.5864790015299767  0.4170592450295660  0.4007998865584226
  0.5874857700255439  0.5417950002769090  0.4036755319501452
  0.5826943490151514  0.6617674570746659  0.4043603838037404
  0.5815723126623996  0.7876421411889517  0.4015329600643773
  0.5827704927944529  0.9147704288210042  0.4001477136671389
  0.7078209095624197  0.0403099970178641  0.3998524909654740
  0.7081656078652470  0.1658074413244452  0.3995533597365409
  0.7087695698119626  0.2911865490709121  0.3991553926774566
  0.7098891659829476  0.4163944927599430  0.3987722400726413
  0.7107381140515459  0.5414845538651402  0.3991944208866727
  0.7098246683499614  0.6662000371183551  0.4009678634708956
  0.7075039671206493  0.7897111397171875  0.4009022417400231
  0.7072386810184571  0.9146146671520510  0.4004292143187162
  0.8327645742868180  0.0405156094791321  0.3997508239396360
  0.8328789170050455  0.1657728953742321  0.3996668685170990
  0.8331282808344621  0.2909409671965689  0.3994661663479907
  0.8338103885416642  0.4163309880363272  0.3989816011280743
  0.8345723541346294  0.5417540260805466  0.3986708555148666
  0.8346115414290811  0.6668709875491418  0.3991533024312477
  0.8338458648236785  0.7916084133726051  0.3998502528187537
  0.8330148405974485  0.9157893413153451  0.3998687137196747
  0.9583940060016062  0.0415617771157498  0.3995843308746597
  0.9579829695486510  0.1661506177775198  0.3996881307275090
  0.9576324597726200  0.2910961773008104  0.3999321710146201
  0.9578075141630887  0.4163275570939461  0.3996935922242827
  0.9585162909286657  0.5417256341272995  0.3992904635341449
  0.9590751850887651  0.6671465050262786  0.3991473850578070
  0.9591455653621271  0.7923417299869797  0.3994175990612768
  0.9589331200099960  0.9171716595198247  0.3995698145614672
  0.4114702413786097  0.5829722577847934  0.4009468066572498
  0.5460712660362516  0.5808824904218102  0.4078616784509827
  0.3284925739105150  0.4170252990502922  0.4009495592900936
  0.4651906370409443  0.4191186952271764  0.4078602445744726
  0.4225239046575601  0.5000018899661379  0.4896638838217163
  0.4393476497955555  0.5000097236226567  0.6053266245957492
 
  0.00000000E+00  0.00000000E+00  0.00000000E+00
  0.00000000E+00  0.00000000E+00  0.00000000E+00
  0.00000000E+00  0.00000000E+00  0.00000000E+00
  0.00000000E+00  0.00000000E+00  0.00000000E+00
  0.00000000E+00  0.00000000E+00  0.00000000E+00
  0.00000000E+00  0.00000000E+00  0.00000000E+00
  0.00000000E+00  0.00000000E+00  0.00000000E+00
  0.00000000E+00  0.00000000E+00  0.00000000E+00
  0.00000000E+00  0.00000000E+00  0.00000000E+00
  0.00000000E+00  0.00000000E+00  0.00000000E+00
  0.00000000E+00  0.00000000E+00  0.00000000E+00
  0.00000000E+00  0.00000000E+00  0.00000000E+00
  0.00000000E+00  0.00000000E+00  0.00000000E+00
  0.00000000E+00  0.00000000E+00  0.00000000E+00
  0.00000000E+00  0.00000000E+00  0.00000000E+00
  0.00000000E+00  0.00000000E+00  0.00000000E+00
  0.00000000E+00  0.00000000E+00  0.00000000E+00
  0.00000000E+00  0.00000000E+00  0.00000000E+00
  0.00000000E+00  0.00000000E+00  0.00000000E+00
  0.00000000E+00  0.00000000E+00  0.00000000E+00
  0.00000000E+00  0.00000000E+00  0.00000000E+00
  0.00000000E+00  0.00000000E+00  0.00000000E+00
  0.00000000E+00  0.00000000E+00  0.00000000E+00
  0.00000000E+00  0.00000000E+00  0.00000000E+00
  0.00000000E+00  0.00000000E+00  0.00000000E+00
  0.00000000E+00  0.00000000E+00  0.00000000E+00
  0.00000000E+00  0.00000000E+00  0.00000000E+00
  0.00000000E+00  0.00000000E+00  0.00000000E+00
  0.00000000E+00  0.00000000E+00  0.00000000E+00
  0.00000000E+00  0.00000000E+00  0.00000000E+00
  0.00000000E+00  0.00000000E+00  0.00000000E+00
  0.00000000E+00  0.00000000E+00  0.00000000E+00
  0.00000000E+00  0.00000000E+00  0.00000000E+00
  0.00000000E+00  0.00000000E+00  0.00000000E+00
  0.00000000E+00  0.00000000E+00  0.00000000E+00
  0.00000000E+00  0.00000000E+00  0.00000000E+00
  0.00000000E+00  0.00000000E+00  0.00000000E+00
  0.00000000E+00  0.00000000E+00  0.00000000E+00
  0.00000000E+00  0.00000000E+00  0.00000000E+00
  0.00000000E+00  0.00000000E+00  0.00000000E+00
  0.00000000E+00  0.00000000E+00  0.00000000E+00
  0.00000000E+00  0.00000000E+00  0.00000000E+00
  0.00000000E+00  0.00000000E+00  0.00000000E+00
  0.00000000E+00  0.00000000E+00  0.00000000E+00
  0.00000000E+00  0.00000000E+00  0.00000000E+00
  0.00000000E+00  0.00000000E+00  0.00000000E+00
  0.00000000E+00  0.00000000E+00  0.00000000E+00
  0.00000000E+00  0.00000000E+00  0.00000000E+00
  0.00000000E+00  0.00000000E+00  0.00000000E+00
  0.00000000E+00  0.00000000E+00  0.00000000E+00
  0.00000000E+00  0.00000000E+00  0.00000000E+00
  0.00000000E+00  0.00000000E+00  0.00000000E+00
  0.00000000E+00  0.00000000E+00  0.00000000E+00
  0.00000000E+00  0.00000000E+00  0.00000000E+00
  0.00000000E+00  0.00000000E+00  0.00000000E+00
  0.00000000E+00  0.00000000E+00  0.00000000E+00
  0.00000000E+00  0.00000000E+00  0.00000000E+00
  0.00000000E+00  0.00000000E+00  0.00000000E+00
  0.00000000E+00  0.00000000E+00  0.00000000E+00
  0.00000000E+00  0.00000000E+00  0.00000000E+00
  0.00000000E+00  0.00000000E+00  0.00000000E+00
  0.00000000E+00  0.00000000E+00  0.00000000E+00
  0.00000000E+00  0.00000000E+00  0.00000000E+00
  0.00000000E+00  0.00000000E+00  0.00000000E+00
  0.00000000E+00  0.00000000E+00  0.00000000E+00
  0.00000000E+00  0.00000000E+00  0.00000000E+00
  0.00000000E+00  0.00000000E+00  0.00000000E+00
  0.00000000E+00  0.00000000E+00  0.00000000E+00
  0.00000000E+00  0.00000000E+00  0.00000000E+00
  0.00000000E+00  0.00000000E+00  0.00000000E+00
  0.00000000E+00  0.00000000E+00  0.00000000E+00
  0.00000000E+00  0.00000000E+00  0.00000000E+00
  0.00000000E+00  0.00000000E+00  0.00000000E+00
  0.00000000E+00  0.00000000E+00  0.00000000E+00
  0.00000000E+00  0.00000000E+00  0.00000000E+00
  0.00000000E+00  0.00000000E+00  0.00000000E+00
  0.00000000E+00  0.00000000E+00  0.00000000E+00
  0.00000000E+00  0.00000000E+00  0.00000000E+00
  0.00000000E+00  0.00000000E+00  0.00000000E+00
  0.00000000E+00  0.00000000E+00  0.00000000E+00
  0.00000000E+00  0.00000000E+00  0.00000000E+00
  0.00000000E+00  0.00000000E+00  0.00000000E+00
  0.00000000E+00  0.00000000E+00  0.00000000E+00
  0.00000000E+00  0.00000000E+00  0.00000000E+00
  0.00000000E+00  0.00000000E+00  0.00000000E+00
  0.00000000E+00  0.00000000E+00  0.00000000E+00
  0.00000000E+00  0.00000000E+00  0.00000000E+00
  0.00000000E+00  0.00000000E+00  0.00000000E+00
  0.00000000E+00  0.00000000E+00  0.00000000E+00
  0.00000000E+00  0.00000000E+00  0.00000000E+00
  0.00000000E+00  0.00000000E+00  0.00000000E+00
  0.00000000E+00  0.00000000E+00  0.00000000E+00
  0.00000000E+00  0.00000000E+00  0.00000000E+00
  0.00000000E+00  0.00000000E+00  0.00000000E+00
  0.00000000E+00  0.00000000E+00  0.00000000E+00
  0.00000000E+00  0.00000000E+00  0.00000000E+00
  0.00000000E+00  0.00000000E+00  0.00000000E+00
  0.00000000E+00  0.00000000E+00  0.00000000E+00
  0.00000000E+00  0.00000000E+00  0.00000000E+00
  0.00000000E+00  0.00000000E+00  0.00000000E+00
  0.00000000E+00  0.00000000E+00  0.00000000E+00
  0.00000000E+00  0.00000000E+00  0.00000000E+00
  0.00000000E+00  0.00000000E+00  0.00000000E+00
  0.00000000E+00  0.00000000E+00  0.00000000E+00
  0.00000000E+00  0.00000000E+00  0.00000000E+00
  0.00000000E+00  0.00000000E+00  0.00000000E+00
  0.00000000E+00  0.00000000E+00  0.00000000E+00
  0.00000000E+00  0.00000000E+00  0.00000000E+00
  0.00000000E+00  0.00000000E+00  0.00000000E+00
  0.00000000E+00  0.00000000E+00  0.00000000E+00
  0.00000000E+00  0.00000000E+00  0.00000000E+00
  0.00000000E+00  0.00000000E+00  0.00000000E+00
  0.00000000E+00  0.00000000E+00  0.00000000E+00
  0.00000000E+00  0.00000000E+00  0.00000000E+00
  0.00000000E+00  0.00000000E+00  0.00000000E+00
  0.00000000E+00  0.00000000E+00  0.00000000E+00
  0.00000000E+00  0.00000000E+00  0.00000000E+00
  0.00000000E+00  0.00000000E+00  0.00000000E+00
  0.00000000E+00  0.00000000E+00  0.00000000E+00
  0.00000000E+00  0.00000000E+00  0.00000000E+00
  0.00000000E+00  0.00000000E+00  0.00000000E+00
  0.00000000E+00  0.00000000E+00  0.00000000E+00
  0.00000000E+00  0.00000000E+00  0.00000000E+00
  0.00000000E+00  0.00000000E+00  0.00000000E+00
  0.00000000E+00  0.00000000E+00  0.00000000E+00
  0.00000000E+00  0.00000000E+00  0.00000000E+00
  0.00000000E+00  0.00000000E+00  0.00000000E+00
  0.00000000E+00  0.00000000E+00  0.00000000E+00
  0.00000000E+00  0.00000000E+00  0.00000000E+00
  0.00000000E+00  0.00000000E+00  0.00000000E+00
