Zn1 H1 C122 N4 O1                       
   1.00000000000000     
    19.8110191185251416   -0.0001500668388864   -0.0181789723226277
    -9.9056374438260733   17.0225274271551186   -0.0082080333580656
    -0.0272972955399487   -0.0302670631650374   29.8382907439392042
   Zn   H    C    N    O 
     1     1   122     4     1
Direct
  0.4377145208640362  0.4997749724176613  0.4317868471536782
  0.4776803801031579  0.5493808344306048  0.5068278937965183
  0.0421071283928682  0.0842488466582014  0.4000062405896978
  0.0409661412569015  0.2082045292816157  0.4000414446022174
  0.0402178281584438  0.3328643046980909  0.3996765361398604
  0.0404253259741892  0.4582465203384674  0.3993418964999269
  0.0413091104319563  0.5838171405638790  0.3992266653064656
  0.0421622118829131  0.7093036851720879  0.3993518480743317
  0.0425706231692006  0.8346832217105431  0.3995589126404040
  0.0427003464753403  0.9598702978664185  0.3997500422303670
  0.1683998537657882  0.0862554000879797  0.4006743709942684
  0.1674615061398719  0.2104407567535630  0.4012387316325631
  0.1650841223578361  0.3336986931083911  0.4009417850586739
  0.1641536270791996  0.4584508511374271  0.3997570996235002
  0.1651091608940524  0.5836515451494934  0.3995399507059875
  0.1663667136287094  0.7091329684250472  0.3995357183621928
  0.1671458150516431  0.8346943839462041  0.3995513557436324
  0.1677283470768828  0.9603945099795000  0.3999174548712729
  0.2929075818429362  0.0862441900043316  0.4006382293829347
  0.2946227517139005  0.2141901324887862  0.4024986820438958
  0.2924103256560045  0.3393995258105271  0.4041759511167426
  0.2876877227962968  0.4572172195747919  0.4030667709617816
  0.2885361367281331  0.5830886002512040  0.4007341871016171
  0.2905053473188784  0.7085767673081301  0.4001383090307626
  0.2916016839692940  0.8340775393816072  0.3996967651931450
  0.2922434510091618  0.9598705876208312  0.3997336067543679
  0.4172054983633879  0.0842103252828542  0.4000326255454328
  0.4180174602740764  0.2103847778506110  0.4012779720908194
  0.4220710336464085  0.3393662156027387  0.4037052621588113
  0.4144296430859048  0.7060386777619537  0.4017688003281183
  0.4160324159459685  0.8322872718725572  0.4003524597671685
  0.4166869296835390  0.9582818268270140  0.3997231423065532
  0.5416203348572738  0.0824559582030326  0.3996643424208816
  0.5422848234516396  0.2081877306142148  0.4001178465113778
  0.5436266700591484  0.3336599573914700  0.4008046434773686
  0.5444784063869605  0.4571767502594116  0.4021979117557654
  0.5380685115056647  0.7011001533400819  0.4038261956711079
  0.5402048580469425  0.8297788128165078  0.4014610514715229
  0.5410694911536829  0.9564328667920429  0.4001092535712349
  0.6660883985897003  0.0817371826998219  0.3997061491681203
  0.6666506946475181  0.2073264980205496  0.3995703603408817
  0.6676547992149482  0.3328579289480048  0.3997285181402459
  0.6692854233795509  0.4584359390488406  0.3996557269480396
  0.6695492614972371  0.5830897000678517  0.4004420556579908
  0.6666622279649554  0.7060824736502085  0.4016767888579222
  0.6646114239657266  0.8297952724382733  0.4014601565453917
  0.6654993110688520  0.9559433783366962  0.4004336258593253
  0.7907319481610229  0.0817286672793531  0.3997213904883848
  0.7911076916470383  0.2071573259923292  0.3994944664204963
  0.7917870773165105  0.3326629408306191  0.3993254637668306
  0.7927860667219218  0.4582346069440580  0.3993378330491129
  0.7935050525960083  0.5836210813104411  0.3995368596993156
  0.7930852218459339  0.7085724762520352  0.4001651179714822
  0.7913150578493053  0.8323084424739265  0.4004234698888408
  0.7904204318468753  0.9564339837752728  0.4001046809057135
  0.9159228857259578  0.0824656042825321  0.3996560160195367
  0.9157320541150074  0.2073432064276290  0.3995686816591059
  0.9159094878854953  0.3326836806666288  0.3993279110561938
  0.9165950444712453  0.4582091948350461  0.3991071127726318
  0.9174688936404213  0.5838100059172547  0.3992240162314928
  0.9177617424804899  0.7091283429303933  0.3995443247123037
  0.9175090372721013  0.8340751037020068  0.3997470707574507
  0.9166918992119066  0.9583032239856166  0.3997442081426058
  0.0846596348309259  0.0436277065051241  0.4000990400164363
  0.0837664521240273  0.1677747240017604  0.4003569926057425
  0.0819483970240834  0.2914809182041674  0.4001482345597789
  0.0814988209433561  0.4164254915208907  0.3995212452109794
  0.0822180352652177  0.5418466190685669  0.3993452195026669
  0.0832580877015855  0.6674008837039099  0.3993371333868520
  0.0839653024244539  0.7929089548358329  0.3994924295071350
  0.0843672793476978  0.9183256204268399  0.3997202743232660
  0.2095892841130607  0.0441191794850645  0.4004283624122404
  0.2104460682104571  0.1702696293462006  0.4015729469438905
  0.2084145389194654  0.2939971273794839  0.4019002584112850
  0.2054632650550938  0.4169315495582407  0.4007523633533890
  0.2057177717141546  0.5416032718900332  0.3997796600055287
  0.2073892593854695  0.6672076918187179  0.3997046035539214
  0.2084165295831074  0.7927312041579271  0.3995752170936294
  0.2090260127115843  0.9183379758430738  0.3997153984865515
  0.3340256830738367  0.0436203690291971  0.4000800498286992
  0.3348613947026226  0.1702422698979866  0.4015514839699718
  0.3369875009011897  0.2989008480522941  0.4040150994015252
  0.3304761818829834  0.5428013214399748  0.4029347801845317
  0.3313962349569533  0.6663374446951503  0.4008620623330287
  0.3327988991546429  0.7918577290595534  0.4000587726662782
  0.3334872808821517  0.9175949182442181  0.3996512846202346
  0.4584303112436521  0.0417544425501524  0.3997320223459512
  0.4590566624010339  0.1677337594693137  0.4004339035799154
  0.4606122254772360  0.2939240440427683  0.4017678273131694
  0.4529750588199097  0.6605954248469156  0.4038739426426284
  0.4570425912321648  0.7896048118542374  0.4011580894903334
  0.4578961338996527  0.9158142587529999  0.4000179597176503
  0.5828727042635444  0.0401887758478901  0.3997509986671134
  0.5834847176660285  0.1659769221189670  0.3997194600852121
  0.5845550276813628  0.2914619075618460  0.4001833585996880
  0.5864599839878750  0.4168983471374808  0.4004511952556328
  0.5872866597439352  0.5427712568166070  0.4022044232436693
  0.5826830332950910  0.6606280164074813  0.4036021631005553
  0.5804349103659827  0.7858392340933071  0.4023475879171799
  0.5821735441972764  0.9138011224475092  0.4006558096730450
  0.7073713845874615  0.0396704086732334  0.3999212637275362
  0.7079343544655831  0.1653797293823219  0.3995430864916763
  0.7086787048364159  0.2909290571035241  0.3995241536906952
  0.7099146960756941  0.4164216560799429  0.3995466533042230
  0.7108565628622971  0.5415755773661275  0.3996487226557326
  0.7099536171545378  0.6663468151430905  0.4007568387188689
  0.7076162952771081  0.7896404575989515  0.4011914672432776
  0.7066737836537925  0.9138080774004762  0.4006261897596388
  0.8323979034971617  0.0401843128206245  0.3997502760110682
  0.8324963459862202  0.1653760327911850  0.3995630936222672
  0.8329056394915419  0.2907683192664824  0.3993527521035385
  0.8336943510820286  0.4162555841474630  0.3992163553511074
  0.8345765731792579  0.5418184614058885  0.3993380636541268
  0.8348030430203380  0.6671848709996591  0.3997314993905159
  0.8340869384488653  0.7918522503163311  0.4001268460631203
  0.8330012209415650  0.9158365312692056  0.4000564595518259
  0.9584305889177444  0.0417805138025767  0.3997203098338467
  0.9575545901349539  0.1659870582040506  0.3996794026050027
  0.9572749010638295  0.2909425689263477  0.3995054478237821
  0.9575368459872495  0.4162686052461742  0.3992241210976077
  0.9584174240808122  0.5418706785565702  0.3991125285131134
  0.9591402665726168  0.6674017619853190  0.3993318475739619
  0.9593273251237477  0.7927299098419945  0.3995962323140737
  0.9591724324004213  0.9175920817501918  0.3996719892619269
  0.4090839133397065  0.5809944571270538  0.4055505834668193
  0.5469252590220275  0.5810066647785539  0.4048202581158908
  0.3280608510651354  0.4190135548065700  0.4060541360053026
  0.4659168934085459  0.4189541517713346  0.4048069797607878
  0.4411988418265634  0.4978784697318095  0.4946559805329636
 
  0.00000000E+00  0.00000000E+00  0.00000000E+00
  0.00000000E+00  0.00000000E+00  0.00000000E+00
  0.00000000E+00  0.00000000E+00  0.00000000E+00
  0.00000000E+00  0.00000000E+00  0.00000000E+00
  0.00000000E+00  0.00000000E+00  0.00000000E+00
  0.00000000E+00  0.00000000E+00  0.00000000E+00
  0.00000000E+00  0.00000000E+00  0.00000000E+00
  0.00000000E+00  0.00000000E+00  0.00000000E+00
  0.00000000E+00  0.00000000E+00  0.00000000E+00
  0.00000000E+00  0.00000000E+00  0.00000000E+00
  0.00000000E+00  0.00000000E+00  0.00000000E+00
  0.00000000E+00  0.00000000E+00  0.00000000E+00
  0.00000000E+00  0.00000000E+00  0.00000000E+00
  0.00000000E+00  0.00000000E+00  0.00000000E+00
  0.00000000E+00  0.00000000E+00  0.00000000E+00
  0.00000000E+00  0.00000000E+00  0.00000000E+00
  0.00000000E+00  0.00000000E+00  0.00000000E+00
  0.00000000E+00  0.00000000E+00  0.00000000E+00
  0.00000000E+00  0.00000000E+00  0.00000000E+00
  0.00000000E+00  0.00000000E+00  0.00000000E+00
  0.00000000E+00  0.00000000E+00  0.00000000E+00
  0.00000000E+00  0.00000000E+00  0.00000000E+00
  0.00000000E+00  0.00000000E+00  0.00000000E+00
  0.00000000E+00  0.00000000E+00  0.00000000E+00
  0.00000000E+00  0.00000000E+00  0.00000000E+00
  0.00000000E+00  0.00000000E+00  0.00000000E+00
  0.00000000E+00  0.00000000E+00  0.00000000E+00
  0.00000000E+00  0.00000000E+00  0.00000000E+00
  0.00000000E+00  0.00000000E+00  0.00000000E+00
  0.00000000E+00  0.00000000E+00  0.00000000E+00
  0.00000000E+00  0.00000000E+00  0.00000000E+00
  0.00000000E+00  0.00000000E+00  0.00000000E+00
  0.00000000E+00  0.00000000E+00  0.00000000E+00
  0.00000000E+00  0.00000000E+00  0.00000000E+00
  0.00000000E+00  0.00000000E+00  0.00000000E+00
  0.00000000E+00  0.00000000E+00  0.00000000E+00
  0.00000000E+00  0.00000000E+00  0.00000000E+00
  0.00000000E+00  0.00000000E+00  0.00000000E+00
  0.00000000E+00  0.00000000E+00  0.00000000E+00
  0.00000000E+00  0.00000000E+00  0.00000000E+00
  0.00000000E+00  0.00000000E+00  0.00000000E+00
  0.00000000E+00  0.00000000E+00  0.00000000E+00
  0.00000000E+00  0.00000000E+00  0.00000000E+00
  0.00000000E+00  0.00000000E+00  0.00000000E+00
  0.00000000E+00  0.00000000E+00  0.00000000E+00
  0.00000000E+00  0.00000000E+00  0.00000000E+00
  0.00000000E+00  0.00000000E+00  0.00000000E+00
  0.00000000E+00  0.00000000E+00  0.00000000E+00
  0.00000000E+00  0.00000000E+00  0.00000000E+00
  0.00000000E+00  0.00000000E+00  0.00000000E+00
  0.00000000E+00  0.00000000E+00  0.00000000E+00
  0.00000000E+00  0.00000000E+00  0.00000000E+00
  0.00000000E+00  0.00000000E+00  0.00000000E+00
  0.00000000E+00  0.00000000E+00  0.00000000E+00
  0.00000000E+00  0.00000000E+00  0.00000000E+00
  0.00000000E+00  0.00000000E+00  0.00000000E+00
  0.00000000E+00  0.00000000E+00  0.00000000E+00
  0.00000000E+00  0.00000000E+00  0.00000000E+00
  0.00000000E+00  0.00000000E+00  0.00000000E+00
  0.00000000E+00  0.00000000E+00  0.00000000E+00
  0.00000000E+00  0.00000000E+00  0.00000000E+00
  0.00000000E+00  0.00000000E+00  0.00000000E+00
  0.00000000E+00  0.00000000E+00  0.00000000E+00
  0.00000000E+00  0.00000000E+00  0.00000000E+00
  0.00000000E+00  0.00000000E+00  0.00000000E+00
  0.00000000E+00  0.00000000E+00  0.00000000E+00
  0.00000000E+00  0.00000000E+00  0.00000000E+00
  0.00000000E+00  0.00000000E+00  0.00000000E+00
  0.00000000E+00  0.00000000E+00  0.00000000E+00
  0.00000000E+00  0.00000000E+00  0.00000000E+00
  0.00000000E+00  0.00000000E+00  0.00000000E+00
  0.00000000E+00  0.00000000E+00  0.00000000E+00
  0.00000000E+00  0.00000000E+00  0.00000000E+00
  0.00000000E+00  0.00000000E+00  0.00000000E+00
  0.00000000E+00  0.00000000E+00  0.00000000E+00
  0.00000000E+00  0.00000000E+00  0.00000000E+00
  0.00000000E+00  0.00000000E+00  0.00000000E+00
  0.00000000E+00  0.00000000E+00  0.00000000E+00
  0.00000000E+00  0.00000000E+00  0.00000000E+00
  0.00000000E+00  0.00000000E+00  0.00000000E+00
  0.00000000E+00  0.00000000E+00  0.00000000E+00
  0.00000000E+00  0.00000000E+00  0.00000000E+00
  0.00000000E+00  0.00000000E+00  0.00000000E+00
  0.00000000E+00  0.00000000E+00  0.00000000E+00
  0.00000000E+00  0.00000000E+00  0.00000000E+00
  0.00000000E+00  0.00000000E+00  0.00000000E+00
  0.00000000E+00  0.00000000E+00  0.00000000E+00
  0.00000000E+00  0.00000000E+00  0.00000000E+00
  0.00000000E+00  0.00000000E+00  0.00000000E+00
  0.00000000E+00  0.00000000E+00  0.00000000E+00
  0.00000000E+00  0.00000000E+00  0.00000000E+00
  0.00000000E+00  0.00000000E+00  0.00000000E+00
  0.00000000E+00  0.00000000E+00  0.00000000E+00
  0.00000000E+00  0.00000000E+00  0.00000000E+00
  0.00000000E+00  0.00000000E+00  0.00000000E+00
  0.00000000E+00  0.00000000E+00  0.00000000E+00
  0.00000000E+00  0.00000000E+00  0.00000000E+00
  0.00000000E+00  0.00000000E+00  0.00000000E+00
  0.00000000E+00  0.00000000E+00  0.00000000E+00
  0.00000000E+00  0.00000000E+00  0.00000000E+00
  0.00000000E+00  0.00000000E+00  0.00000000E+00
  0.00000000E+00  0.00000000E+00  0.00000000E+00
  0.00000000E+00  0.00000000E+00  0.00000000E+00
  0.00000000E+00  0.00000000E+00  0.00000000E+00
  0.00000000E+00  0.00000000E+00  0.00000000E+00
  0.00000000E+00  0.00000000E+00  0.00000000E+00
  0.00000000E+00  0.00000000E+00  0.00000000E+00
  0.00000000E+00  0.00000000E+00  0.00000000E+00
  0.00000000E+00  0.00000000E+00  0.00000000E+00
  0.00000000E+00  0.00000000E+00  0.00000000E+00
  0.00000000E+00  0.00000000E+00  0.00000000E+00
  0.00000000E+00  0.00000000E+00  0.00000000E+00
  0.00000000E+00  0.00000000E+00  0.00000000E+00
  0.00000000E+00  0.00000000E+00  0.00000000E+00
  0.00000000E+00  0.00000000E+00  0.00000000E+00
  0.00000000E+00  0.00000000E+00  0.00000000E+00
  0.00000000E+00  0.00000000E+00  0.00000000E+00
  0.00000000E+00  0.00000000E+00  0.00000000E+00
  0.00000000E+00  0.00000000E+00  0.00000000E+00
  0.00000000E+00  0.00000000E+00  0.00000000E+00
  0.00000000E+00  0.00000000E+00  0.00000000E+00
  0.00000000E+00  0.00000000E+00  0.00000000E+00
  0.00000000E+00  0.00000000E+00  0.00000000E+00
  0.00000000E+00  0.00000000E+00  0.00000000E+00
  0.00000000E+00  0.00000000E+00  0.00000000E+00
  0.00000000E+00  0.00000000E+00  0.00000000E+00
  0.00000000E+00  0.00000000E+00  0.00000000E+00
  0.00000000E+00  0.00000000E+00  0.00000000E+00
  0.00000000E+00  0.00000000E+00  0.00000000E+00
