Ta1 C122 N4                             
   1.00000000000000     
    19.7864560676052150    0.0000177068995848    0.0380131086800589
    -9.8932131582408100   17.0481488938891097   -0.0192120665713055
     0.0571397693687500   -0.0003572435274661   29.8303407771577405
   Ta   C    N 
     1   122     4
Direct
  0.4490855396768675  0.5000012050625748  0.4255119950051923
  0.0422979179251292  0.0844349258654864  0.3997766303727865
  0.0414410089544656  0.2085522187564372  0.3999077951102263
  0.0406523990741126  0.3332365418797762  0.3989630717948830
  0.0405766576523564  0.4582678322315378  0.3979364741512674
  0.0412023212736154  0.5835959330725541  0.3985491039406622
  0.0418529677654681  0.7089286946885501  0.3995856333009003
  0.0420529927310992  0.8340849760004487  0.3998537226559205
  0.0423020935168706  0.9593827154693103  0.3997405839335662
  0.1676666971767187  0.0851454067911448  0.4000638007162842
  0.1680318979524369  0.2106098779888331  0.4006210413936692
  0.1655378274096176  0.3340202514759670  0.4016327990140912
  0.1646349103428754  0.4585491702475506  0.3990358996509350
  0.1653254208518726  0.5835820507389574  0.3982602526563629
  0.1663020821870116  0.7086618301616494  0.3990414760331855
  0.1668459099626872  0.8339672964923608  0.3997626582026051
  0.1671511284855640  0.9594757397788146  0.3998932265302816
  0.2921889184079510  0.0848911702388153  0.3995105344816197
  0.2931764174391934  0.2119345212817312  0.4001666919630766
  0.2930922134091618  0.3386480785447777  0.4051385440972717
  0.2878433247652618  0.4587991874496228  0.4054055644928204
  0.2889488564245027  0.5828600647611880  0.4014409151651299
  0.2908336820595362  0.7079642194505535  0.4000368562637343
  0.2915716966292056  0.8334577340765408  0.3997103058137587
  0.2918267422842812  0.9590221111068776  0.3997492727407063
  0.4168205153536327  0.0835418141109377  0.3994666987587224
  0.4170248355315590  0.2089953283535431  0.3988278221041391
  0.4188098727283752  0.3345566870812768  0.3978940446162020
  0.4151622055447176  0.7053836912259056  0.4024768392460613
  0.4161281146676539  0.8318972915187592  0.3999901373980983
  0.4165253698379699  0.9577814928693114  0.3996806089118932
  0.5414054680307788  0.0826004940846463  0.3995954070633534
  0.5418813282828171  0.2080719761278781  0.3995175640623202
  0.5430633544596273  0.3336300646853812  0.3997838841316561
  0.5441261593033110  0.4580304952711256  0.3989481420382575
  0.5387111093801118  0.7032571417326051  0.4011681875517272
  0.5405868048250001  0.8308332438867974  0.4004469132478405
  0.5411985546000306  0.9569305878056189  0.3998646985554733
  0.6661476047010698  0.0822527065779461  0.3998450149300375
  0.6665844227180596  0.2076705997529013  0.3999143186546247
  0.6672218754805432  0.3330606703402981  0.4008475571852069
  0.6682874701476406  0.4583160916633728  0.4025632634229476
  0.6689279551569922  0.5833572416010296  0.4016369159311363
  0.6666694357671731  0.7075473378293485  0.3980068330406916
  0.6651543699970018  0.8312001936095621  0.3992520044706793
  0.6658365440093090  0.9568935216582213  0.3998626446599518
  0.7910876356831243  0.0824350290085359  0.3998590147109409
  0.7912032836569671  0.2076449051608347  0.3997719913562515
  0.7915958842139198  0.3328964555394931  0.4001005251590364
  0.7923240451984831  0.4582588362565302  0.4012233451535192
  0.7929160380586948  0.5836646259922849  0.4017410526868483
  0.7922695548952076  0.7083375678751663  0.4000881925519660
  0.7915191720628946  0.8330135466761432  0.3992787154438605
  0.7908386274936590  0.9573290209459430  0.3995410377807467
  0.9163781817470524  0.0830734614648931  0.3997353805682815
  0.9160214201537011  0.2078578721829386  0.3995674427327289
  0.9160870786506590  0.3329768134111912  0.3989635533775370
  0.9164441138368929  0.4582918536036464  0.3992666139631493
  0.9170182278863449  0.5835846545823744  0.4002290773148247
  0.9173035672320885  0.7088685836638170  0.4003399886337888
  0.9169667496707833  0.8338183351509211  0.3996610013203656
  0.9168483804149014  0.9586034826289579  0.3995798286398396
  0.0842666430986671  0.0430681657169603  0.3998656781442039
  0.0842308889236131  0.1681027814132794  0.3999890227481001
  0.0828699955700008  0.2920375932297251  0.4000357784020047
  0.0817419921829771  0.4164189303327375  0.3982597690785677
  0.0823047699197233  0.5417326288528025  0.3979367105364237
  0.0831087966021196  0.6670224034657076  0.3989655135083968
  0.0835559373406718  0.7923531600575396  0.3997728637723504
  0.0838920308847712  0.9177454600143381  0.3998459763697744
  0.2089422970454259  0.0431065408915237  0.3998646264011318
  0.2097536603928241  0.1691664323945403  0.4004478923792536
  0.2097793630964427  0.2946172180902799  0.4024758644634759
  0.2060901072790026  0.4171423451464660  0.4014416273925562
  0.2060858153760693  0.5414531409690385  0.3990358139921946
  0.2074146275462216  0.6667649417320940  0.3989642078179213
  0.2081611477644465  0.7921403994306367  0.3995683673952656
  0.2086497502862304  0.9175629235262910  0.3998582387267553
  0.3335108745137599  0.0426712548994046  0.3995419767052230
  0.3339550070027270  0.1687995721647766  0.3992526537851360
  0.3354550388024772  0.2967425325161644  0.4011681383968568
  0.3290453334411771  0.5412020233918552  0.4054056690275998
  0.3315171766557748  0.6659809415297333  0.4016336567196875
  0.3328879705325222  0.7914478730583221  0.3999087770239725
  0.3333049304922047  0.9169246289863726  0.3997360505676329
  0.4582455414264194  0.0413967170994395  0.3995798813072302
  0.4585074510074124  0.1669875005737215  0.3992797909718143
  0.4591221444009888  0.2924521515373683  0.3980076048590404
  0.4544443744325359  0.6613525071370263  0.4051386854184020
  0.4574221230468301  0.7893909381130754  0.4006219372598500
  0.4578624877785676  0.9155653509597266  0.3997773902373363
  0.5829180826993494  0.0406192564655583  0.3997397141417405
  0.5831483725284045  0.1661814799899562  0.3996628933126031
  0.5839306069585319  0.2916605644607908  0.4000892600364354
  0.5855694261346777  0.4166417065792591  0.4016367471631277
  0.5860957654474540  0.5419699527003478  0.3989489395981781
  0.5842532579430296  0.6654431383729410  0.3978947803023677
  0.5812409896002448  0.7880644171733470  0.4001658245652943
  0.5825201903108826  0.9148545967971191  0.4000618346028179
  0.7076749582481200  0.0405260314953023  0.3998922692585938
  0.7079680357589521  0.1659158821808840  0.3998536405258059
  0.7084342339086945  0.2911301291869330  0.4003401316341733
  0.7092501006589531  0.4163339218697412  0.4017411436309877
  0.7099708422017986  0.5416842361266926  0.4025632233888080
  0.7094324091705384  0.6663706009531756  0.3997836592173832
  0.7080287882933720  0.7910038397988702  0.3988268762147869
  0.7072957410649351  0.9151074801247334  0.3995094984748356
  0.8328044289042764  0.0409775010020581  0.3997492030033271
  0.8328804901135430  0.1660362270058428  0.3997625754110729
  0.8329246511574694  0.2910728995554807  0.3995844868089778
  0.8334343315527651  0.4164141221621104  0.4002280554174100
  0.8340648256238229  0.5417405886282017  0.4012234462782289
  0.8341609100622130  0.6669405900110326  0.4008466740646245
  0.8338091349464302  0.7919282379379927  0.3995155961948222
  0.8332780560067876  0.9164557241127227  0.3994657432252883
  0.9587437682258215  0.0422173947278406  0.3996803985965685
  0.9581149439177600  0.1665437954190862  0.3997100400993360
  0.9576408768781721  0.2913404425757408  0.3990399063882374
  0.9576053762727490  0.4164030935611612  0.3985480381524323
  0.9581519789980738  0.5417070308306603  0.3992674731522565
  0.9586995475104152  0.6671033617704127  0.4001015175155450
  0.9589119998186219  0.7923302081658855  0.3999132865395231
  0.9588034818443986  0.9173977422432724  0.3995952993357990
  0.4099867210608898  0.5791410602534881  0.4118639048964158
  0.5462963226101776  0.5843509704813628  0.3980608912508846
  0.3308470025861724  0.4208605689494079  0.4118630499278886
  0.4619451184022713  0.4156486795574482  0.3980597034096143
 
  0.00000000E+00  0.00000000E+00  0.00000000E+00
  0.00000000E+00  0.00000000E+00  0.00000000E+00
  0.00000000E+00  0.00000000E+00  0.00000000E+00
  0.00000000E+00  0.00000000E+00  0.00000000E+00
  0.00000000E+00  0.00000000E+00  0.00000000E+00
  0.00000000E+00  0.00000000E+00  0.00000000E+00
  0.00000000E+00  0.00000000E+00  0.00000000E+00
  0.00000000E+00  0.00000000E+00  0.00000000E+00
  0.00000000E+00  0.00000000E+00  0.00000000E+00
  0.00000000E+00  0.00000000E+00  0.00000000E+00
  0.00000000E+00  0.00000000E+00  0.00000000E+00
  0.00000000E+00  0.00000000E+00  0.00000000E+00
  0.00000000E+00  0.00000000E+00  0.00000000E+00
  0.00000000E+00  0.00000000E+00  0.00000000E+00
  0.00000000E+00  0.00000000E+00  0.00000000E+00
  0.00000000E+00  0.00000000E+00  0.00000000E+00
  0.00000000E+00  0.00000000E+00  0.00000000E+00
  0.00000000E+00  0.00000000E+00  0.00000000E+00
  0.00000000E+00  0.00000000E+00  0.00000000E+00
  0.00000000E+00  0.00000000E+00  0.00000000E+00
  0.00000000E+00  0.00000000E+00  0.00000000E+00
  0.00000000E+00  0.00000000E+00  0.00000000E+00
  0.00000000E+00  0.00000000E+00  0.00000000E+00
  0.00000000E+00  0.00000000E+00  0.00000000E+00
  0.00000000E+00  0.00000000E+00  0.00000000E+00
  0.00000000E+00  0.00000000E+00  0.00000000E+00
  0.00000000E+00  0.00000000E+00  0.00000000E+00
  0.00000000E+00  0.00000000E+00  0.00000000E+00
  0.00000000E+00  0.00000000E+00  0.00000000E+00
  0.00000000E+00  0.00000000E+00  0.00000000E+00
  0.00000000E+00  0.00000000E+00  0.00000000E+00
  0.00000000E+00  0.00000000E+00  0.00000000E+00
  0.00000000E+00  0.00000000E+00  0.00000000E+00
  0.00000000E+00  0.00000000E+00  0.00000000E+00
  0.00000000E+00  0.00000000E+00  0.00000000E+00
  0.00000000E+00  0.00000000E+00  0.00000000E+00
  0.00000000E+00  0.00000000E+00  0.00000000E+00
  0.00000000E+00  0.00000000E+00  0.00000000E+00
  0.00000000E+00  0.00000000E+00  0.00000000E+00
  0.00000000E+00  0.00000000E+00  0.00000000E+00
  0.00000000E+00  0.00000000E+00  0.00000000E+00
  0.00000000E+00  0.00000000E+00  0.00000000E+00
  0.00000000E+00  0.00000000E+00  0.00000000E+00
  0.00000000E+00  0.00000000E+00  0.00000000E+00
  0.00000000E+00  0.00000000E+00  0.00000000E+00
  0.00000000E+00  0.00000000E+00  0.00000000E+00
  0.00000000E+00  0.00000000E+00  0.00000000E+00
  0.00000000E+00  0.00000000E+00  0.00000000E+00
  0.00000000E+00  0.00000000E+00  0.00000000E+00
  0.00000000E+00  0.00000000E+00  0.00000000E+00
  0.00000000E+00  0.00000000E+00  0.00000000E+00
  0.00000000E+00  0.00000000E+00  0.00000000E+00
  0.00000000E+00  0.00000000E+00  0.00000000E+00
  0.00000000E+00  0.00000000E+00  0.00000000E+00
  0.00000000E+00  0.00000000E+00  0.00000000E+00
  0.00000000E+00  0.00000000E+00  0.00000000E+00
  0.00000000E+00  0.00000000E+00  0.00000000E+00
  0.00000000E+00  0.00000000E+00  0.00000000E+00
  0.00000000E+00  0.00000000E+00  0.00000000E+00
  0.00000000E+00  0.00000000E+00  0.00000000E+00
  0.00000000E+00  0.00000000E+00  0.00000000E+00
  0.00000000E+00  0.00000000E+00  0.00000000E+00
  0.00000000E+00  0.00000000E+00  0.00000000E+00
  0.00000000E+00  0.00000000E+00  0.00000000E+00
  0.00000000E+00  0.00000000E+00  0.00000000E+00
  0.00000000E+00  0.00000000E+00  0.00000000E+00
  0.00000000E+00  0.00000000E+00  0.00000000E+00
  0.00000000E+00  0.00000000E+00  0.00000000E+00
  0.00000000E+00  0.00000000E+00  0.00000000E+00
  0.00000000E+00  0.00000000E+00  0.00000000E+00
  0.00000000E+00  0.00000000E+00  0.00000000E+00
  0.00000000E+00  0.00000000E+00  0.00000000E+00
  0.00000000E+00  0.00000000E+00  0.00000000E+00
  0.00000000E+00  0.00000000E+00  0.00000000E+00
  0.00000000E+00  0.00000000E+00  0.00000000E+00
  0.00000000E+00  0.00000000E+00  0.00000000E+00
  0.00000000E+00  0.00000000E+00  0.00000000E+00
  0.00000000E+00  0.00000000E+00  0.00000000E+00
  0.00000000E+00  0.00000000E+00  0.00000000E+00
  0.00000000E+00  0.00000000E+00  0.00000000E+00
  0.00000000E+00  0.00000000E+00  0.00000000E+00
  0.00000000E+00  0.00000000E+00  0.00000000E+00
  0.00000000E+00  0.00000000E+00  0.00000000E+00
  0.00000000E+00  0.00000000E+00  0.00000000E+00
  0.00000000E+00  0.00000000E+00  0.00000000E+00
  0.00000000E+00  0.00000000E+00  0.00000000E+00
  0.00000000E+00  0.00000000E+00  0.00000000E+00
  0.00000000E+00  0.00000000E+00  0.00000000E+00
  0.00000000E+00  0.00000000E+00  0.00000000E+00
  0.00000000E+00  0.00000000E+00  0.00000000E+00
  0.00000000E+00  0.00000000E+00  0.00000000E+00
  0.00000000E+00  0.00000000E+00  0.00000000E+00
  0.00000000E+00  0.00000000E+00  0.00000000E+00
  0.00000000E+00  0.00000000E+00  0.00000000E+00
  0.00000000E+00  0.00000000E+00  0.00000000E+00
  0.00000000E+00  0.00000000E+00  0.00000000E+00
  0.00000000E+00  0.00000000E+00  0.00000000E+00
  0.00000000E+00  0.00000000E+00  0.00000000E+00
  0.00000000E+00  0.00000000E+00  0.00000000E+00
  0.00000000E+00  0.00000000E+00  0.00000000E+00
  0.00000000E+00  0.00000000E+00  0.00000000E+00
  0.00000000E+00  0.00000000E+00  0.00000000E+00
  0.00000000E+00  0.00000000E+00  0.00000000E+00
  0.00000000E+00  0.00000000E+00  0.00000000E+00
  0.00000000E+00  0.00000000E+00  0.00000000E+00
  0.00000000E+00  0.00000000E+00  0.00000000E+00
  0.00000000E+00  0.00000000E+00  0.00000000E+00
  0.00000000E+00  0.00000000E+00  0.00000000E+00
  0.00000000E+00  0.00000000E+00  0.00000000E+00
  0.00000000E+00  0.00000000E+00  0.00000000E+00
  0.00000000E+00  0.00000000E+00  0.00000000E+00
  0.00000000E+00  0.00000000E+00  0.00000000E+00
  0.00000000E+00  0.00000000E+00  0.00000000E+00
  0.00000000E+00  0.00000000E+00  0.00000000E+00
  0.00000000E+00  0.00000000E+00  0.00000000E+00
  0.00000000E+00  0.00000000E+00  0.00000000E+00
  0.00000000E+00  0.00000000E+00  0.00000000E+00
  0.00000000E+00  0.00000000E+00  0.00000000E+00
  0.00000000E+00  0.00000000E+00  0.00000000E+00
  0.00000000E+00  0.00000000E+00  0.00000000E+00
  0.00000000E+00  0.00000000E+00  0.00000000E+00
  0.00000000E+00  0.00000000E+00  0.00000000E+00
  0.00000000E+00  0.00000000E+00  0.00000000E+00
  0.00000000E+00  0.00000000E+00  0.00000000E+00
  0.00000000E+00  0.00000000E+00  0.00000000E+00
  0.00000000E+00  0.00000000E+00  0.00000000E+00
  0.00000000E+00  0.00000000E+00  0.00000000E+00
