Y1 H1 C123 N3 O2                        
   1.00000000000000     
    19.8034244755931930    0.0054206621118298   -0.1930582870957077
    -9.8978504578977144   17.0463446049236040   -0.0998868341838005
    -0.2899234572588252   -0.3429733304956575   29.8098787237621359
   Y    H    C    N    O 
     1     1   123     3     2
Direct
  0.4381615720093595  0.5062852677075870  0.4516655808041365
  0.5543701631479923  0.5721871586622892  0.5296949143856695
  0.0419377724996494  0.0839882572826054  0.3992745210893846
  0.0410047504053353  0.2081213614828916  0.3991360476632305
  0.0404434540082466  0.3329388918434803  0.3985428078052032
  0.0406612612691202  0.4582140099559940  0.3982633833727089
  0.0415321395282639  0.5837375904525051  0.3988298542198805
  0.0423252097236990  0.7091802769903801  0.3992828719541721
  0.0426458365505394  0.8345055150902309  0.3993496787866381
  0.0425972144228264  0.9595700272508501  0.3992423136456154
  0.1678667993887568  0.0853840899661985  0.3999507482047099
  0.1670718946044534  0.2097084745054288  0.4005910715334733
  0.1652255879587613  0.3334818208000568  0.4001683890472412
  0.1645521584952408  0.4583332613792039  0.3982701700874478
  0.1654279559269027  0.5835693479752547  0.3980362827689187
  0.1665735948698137  0.7089449661767172  0.3988511192707473
  0.1672785009528347  0.8344478785498795  0.3993568834160169
  0.1676285359624505  0.9599468201221568  0.3995055900255999
  0.2927455779446309  0.0855950219040234  0.3999591170921995
  0.2935398119788737  0.2125435873372695  0.4028784727854179
  0.2918352985544409  0.3376751368047716  0.4060376494674942
  0.2884309093993441  0.4572472998962610  0.4033014221468263
  0.2890669110922828  0.5829868374355257  0.3989691239318148
  0.2908782041392355  0.7084709657393453  0.3984580138845664
  0.2917863479034891  0.8339260258657683  0.3989527916404607
  0.2922738733538945  0.9595567432971370  0.3992407105155836
  0.4172039082047733  0.0840596232813948  0.3990146881948755
  0.4178406466043636  0.2099217983515016  0.4001344035638079
  0.4207152615891960  0.3373374108959755  0.4078595700795201
  0.4151652462082303  0.7068619909331821  0.3997658630271735
  0.4163196775358182  0.8326023840796414  0.3990198020316468
  0.4168516767391103  0.9583612224884537  0.3990816066549180
  0.5417420532951456  0.0827365750040717  0.3989781562487538
  0.5422495492433257  0.2083790534805040  0.3984362151922831
  0.5433161450204336  0.3339804608917660  0.3996940527889552
  0.5456871547036848  0.4588522432397621  0.4065001579796185
  0.5393983917162809  0.7028769982507423  0.4037921106658973
  0.5408572652568214  0.8307094423575858  0.4002217912461787
  0.5413629477295802  0.9569429081681775  0.3994168180881751
  0.6663426059455451  0.0822040158779700  0.3994885002956727
  0.6667274408466943  0.2075963642985674  0.3987596164741318
  0.6674428580266506  0.3329636143416523  0.3977317945470089
  0.6690008879834168  0.4584664232352003  0.3976203394609160
  0.6701077437367693  0.5840382424217846  0.3996665232699809
  0.6676144832004222  0.7073122679137399  0.4005329991964693
  0.6653702212632107  0.8308569082541095  0.4003615161276088
  0.6659542602828107  0.9566558158472853  0.3998395934172111
  0.7910127043944609  0.0821744483541089  0.3995221763109791
  0.7912666536089499  0.2074572825612087  0.3992893404256634
  0.7918078690914636  0.3328439009353033  0.3986235144906106
  0.7927495245492212  0.4583071787431351  0.3977830079230639
  0.7934939085672912  0.5836922046538987  0.3975921791279464
  0.7934549170894071  0.7089889711042753  0.3983895317140191
  0.7917925053507038  0.8328811529788954  0.3989433336831762
  0.7908623519614870  0.9570285932975126  0.3993752211797891
  0.9161260349344672  0.0827121195579607  0.3991694200849346
  0.9158836475923300  0.2075533931813274  0.3990868522539360
  0.9160779681201565  0.3328367145662722  0.3988626065450750
  0.9167486241849753  0.4582914005991267  0.3987451485159125
  0.9175650491022779  0.5837963009763264  0.3986689948819217
  0.9179027639000322  0.7091136765789482  0.3987324792410845
  0.9176696209222297  0.8341281476754333  0.3988762496515385
  0.9168662954944126  0.9584460183119843  0.3990610775606032
  0.0843374470556206  0.0431224830205368  0.3993938586386515
  0.0835076559215211  0.1674204301974676  0.3994993307233280
  0.0821989490831399  0.2914757253941234  0.3990535923049685
  0.0817749816699794  0.4163681852017481  0.3981163611225970
  0.0825148322910897  0.5417979274985767  0.3983221133971099
  0.0834836740836321  0.6672762750885982  0.3990605965347458
  0.0840854672027070  0.7927385777139813  0.3994079383976414
  0.0842954450610931  0.9180113006851995  0.3993778295671078
  0.2093743172762776  0.0435080716872099  0.3998435995521500
  0.2096407345881212  0.1691249042390523  0.4010770921037390
  0.2082052840931534  0.2932146061610977  0.4016869287888517
  0.2058987167535270  0.4168698158482010  0.3999579376523722
  0.2061790597773956  0.5415220092768169  0.3980634958390205
  0.2076479739026331  0.6670481617028766  0.3983716170929087
  0.2086050619572140  0.7925392764657777  0.3990788401232663
  0.2090678975740090  0.9179879578468532  0.3993862317911400
  0.3340078842635734  0.0432036972122266  0.3993162712630119
  0.3346069929727521  0.1694148456142106  0.4010684269171478
  0.3357557507635815  0.2965471007058993  0.4067733162893240
  0.3311680206039849  0.5427035814736533  0.4020376582050214
  0.3318712882422050  0.6664152607592715  0.3988479118907642
  0.3331163835886410  0.7918477304901258  0.3987477037236226
  0.3336158091444217  0.9173862395346258  0.3990769239262641
  0.4585568115938778  0.0417900249692344  0.3989913230170748
  0.4589893195157291  0.1674801257405159  0.3989163139541914
  0.4600748105982401  0.2934674823196084  0.4015937668949032
  0.4655949034227980  0.4190910694361082  0.4151032365596353
  0.4543921536471452  0.6623723487019192  0.4029125505407249
  0.4575966827344362  0.7902677712183719  0.3994932929986898
  0.4581586043083952  0.9161106294557807  0.3991756281250609
  0.5831073296923222  0.0405965479270470  0.3993295962821081
  0.5835531422210715  0.1662642589908121  0.3986297334828827
  0.5842875891446151  0.2917520036648442  0.3982115739539847
  0.5863802543267993  0.4174025059386090  0.3999987842929999
  0.5887085190567520  0.5440682361119522  0.4052697393736160
  0.5843899879831825  0.6628189102518269  0.4047193217490828
  0.5814568388253950  0.7873344333311095  0.4014045354633042
  0.5826669469648083  0.9145736313928977  0.3997900178122783
  0.7077462689503454  0.0402663936721379  0.3996601072515141
  0.7081045807469067  0.1657378755531837  0.3992615545930615
  0.7086343887354316  0.2911164692712601  0.3983092555057494
  0.7098025537021639  0.4165229571958029  0.3972926697253654
  0.7108678924454503  0.5418310101933480  0.3977523380435626
  0.7105636350756767  0.6671327611657546  0.3993028375965775
  0.7083206712825081  0.7906287857199383  0.3996477087199864
  0.7072757123153460  0.9146694039272404  0.3998035211193320
  0.8326753475204295  0.0406271644287794  0.3993577198203041
  0.8327196983619745  0.1657249245237566  0.3993713933794631
  0.8330459794569852  0.2909944381970846  0.3990221873875615
  0.8337902093829959  0.4163950885764656  0.3984516180800302
  0.8346251105309384  0.5418635933804089  0.3979124354706336
  0.8349529860197396  0.6672879600141729  0.3981500417924549
  0.8343966836702251  0.7921817176634660  0.3986477713443171
  0.8333518008277747  0.9162890732448240  0.3990911004727800
  0.9584365859428107  0.0418197401847161  0.3991308245779362
  0.9577114150062488  0.1661338860005014  0.3990557318077120
  0.9574836448527452  0.2911051822339442  0.3988026466161904
  0.9577664791687243  0.4163628728819298  0.3986775611491464
  0.9586011638418288  0.5418652186283767  0.3988412571783149
  0.9592963916327228  0.6673292371868482  0.3989694869829594
  0.9594321794354160  0.7926647034686886  0.3990466480597408
  0.9591791152526500  0.9175549781530040  0.3990505914760910
  0.4109613912888074  0.5828269709569608  0.4056267800402029
  0.5493002665332064  0.5838263692783378  0.4098880036947166
  0.3282427240661671  0.4178872110277777  0.4089298533774905
  0.5154006974950174  0.5205283553635554  0.5176901947154645
  0.4410407044663428  0.5220146124763757  0.5241253879897976
 
  0.00000000E+00  0.00000000E+00  0.00000000E+00
  0.00000000E+00  0.00000000E+00  0.00000000E+00
  0.00000000E+00  0.00000000E+00  0.00000000E+00
  0.00000000E+00  0.00000000E+00  0.00000000E+00
  0.00000000E+00  0.00000000E+00  0.00000000E+00
  0.00000000E+00  0.00000000E+00  0.00000000E+00
  0.00000000E+00  0.00000000E+00  0.00000000E+00
  0.00000000E+00  0.00000000E+00  0.00000000E+00
  0.00000000E+00  0.00000000E+00  0.00000000E+00
  0.00000000E+00  0.00000000E+00  0.00000000E+00
  0.00000000E+00  0.00000000E+00  0.00000000E+00
  0.00000000E+00  0.00000000E+00  0.00000000E+00
  0.00000000E+00  0.00000000E+00  0.00000000E+00
  0.00000000E+00  0.00000000E+00  0.00000000E+00
  0.00000000E+00  0.00000000E+00  0.00000000E+00
  0.00000000E+00  0.00000000E+00  0.00000000E+00
  0.00000000E+00  0.00000000E+00  0.00000000E+00
  0.00000000E+00  0.00000000E+00  0.00000000E+00
  0.00000000E+00  0.00000000E+00  0.00000000E+00
  0.00000000E+00  0.00000000E+00  0.00000000E+00
  0.00000000E+00  0.00000000E+00  0.00000000E+00
  0.00000000E+00  0.00000000E+00  0.00000000E+00
  0.00000000E+00  0.00000000E+00  0.00000000E+00
  0.00000000E+00  0.00000000E+00  0.00000000E+00
  0.00000000E+00  0.00000000E+00  0.00000000E+00
  0.00000000E+00  0.00000000E+00  0.00000000E+00
  0.00000000E+00  0.00000000E+00  0.00000000E+00
  0.00000000E+00  0.00000000E+00  0.00000000E+00
  0.00000000E+00  0.00000000E+00  0.00000000E+00
  0.00000000E+00  0.00000000E+00  0.00000000E+00
  0.00000000E+00  0.00000000E+00  0.00000000E+00
  0.00000000E+00  0.00000000E+00  0.00000000E+00
  0.00000000E+00  0.00000000E+00  0.00000000E+00
  0.00000000E+00  0.00000000E+00  0.00000000E+00
  0.00000000E+00  0.00000000E+00  0.00000000E+00
  0.00000000E+00  0.00000000E+00  0.00000000E+00
  0.00000000E+00  0.00000000E+00  0.00000000E+00
  0.00000000E+00  0.00000000E+00  0.00000000E+00
  0.00000000E+00  0.00000000E+00  0.00000000E+00
  0.00000000E+00  0.00000000E+00  0.00000000E+00
  0.00000000E+00  0.00000000E+00  0.00000000E+00
  0.00000000E+00  0.00000000E+00  0.00000000E+00
  0.00000000E+00  0.00000000E+00  0.00000000E+00
  0.00000000E+00  0.00000000E+00  0.00000000E+00
  0.00000000E+00  0.00000000E+00  0.00000000E+00
  0.00000000E+00  0.00000000E+00  0.00000000E+00
  0.00000000E+00  0.00000000E+00  0.00000000E+00
  0.00000000E+00  0.00000000E+00  0.00000000E+00
  0.00000000E+00  0.00000000E+00  0.00000000E+00
  0.00000000E+00  0.00000000E+00  0.00000000E+00
  0.00000000E+00  0.00000000E+00  0.00000000E+00
  0.00000000E+00  0.00000000E+00  0.00000000E+00
  0.00000000E+00  0.00000000E+00  0.00000000E+00
  0.00000000E+00  0.00000000E+00  0.00000000E+00
  0.00000000E+00  0.00000000E+00  0.00000000E+00
  0.00000000E+00  0.00000000E+00  0.00000000E+00
  0.00000000E+00  0.00000000E+00  0.00000000E+00
  0.00000000E+00  0.00000000E+00  0.00000000E+00
  0.00000000E+00  0.00000000E+00  0.00000000E+00
  0.00000000E+00  0.00000000E+00  0.00000000E+00
  0.00000000E+00  0.00000000E+00  0.00000000E+00
  0.00000000E+00  0.00000000E+00  0.00000000E+00
  0.00000000E+00  0.00000000E+00  0.00000000E+00
  0.00000000E+00  0.00000000E+00  0.00000000E+00
  0.00000000E+00  0.00000000E+00  0.00000000E+00
  0.00000000E+00  0.00000000E+00  0.00000000E+00
  0.00000000E+00  0.00000000E+00  0.00000000E+00
  0.00000000E+00  0.00000000E+00  0.00000000E+00
  0.00000000E+00  0.00000000E+00  0.00000000E+00
  0.00000000E+00  0.00000000E+00  0.00000000E+00
  0.00000000E+00  0.00000000E+00  0.00000000E+00
  0.00000000E+00  0.00000000E+00  0.00000000E+00
  0.00000000E+00  0.00000000E+00  0.00000000E+00
  0.00000000E+00  0.00000000E+00  0.00000000E+00
  0.00000000E+00  0.00000000E+00  0.00000000E+00
  0.00000000E+00  0.00000000E+00  0.00000000E+00
  0.00000000E+00  0.00000000E+00  0.00000000E+00
  0.00000000E+00  0.00000000E+00  0.00000000E+00
  0.00000000E+00  0.00000000E+00  0.00000000E+00
  0.00000000E+00  0.00000000E+00  0.00000000E+00
  0.00000000E+00  0.00000000E+00  0.00000000E+00
  0.00000000E+00  0.00000000E+00  0.00000000E+00
  0.00000000E+00  0.00000000E+00  0.00000000E+00
  0.00000000E+00  0.00000000E+00  0.00000000E+00
  0.00000000E+00  0.00000000E+00  0.00000000E+00
  0.00000000E+00  0.00000000E+00  0.00000000E+00
  0.00000000E+00  0.00000000E+00  0.00000000E+00
  0.00000000E+00  0.00000000E+00  0.00000000E+00
  0.00000000E+00  0.00000000E+00  0.00000000E+00
  0.00000000E+00  0.00000000E+00  0.00000000E+00
  0.00000000E+00  0.00000000E+00  0.00000000E+00
  0.00000000E+00  0.00000000E+00  0.00000000E+00
  0.00000000E+00  0.00000000E+00  0.00000000E+00
  0.00000000E+00  0.00000000E+00  0.00000000E+00
  0.00000000E+00  0.00000000E+00  0.00000000E+00
  0.00000000E+00  0.00000000E+00  0.00000000E+00
  0.00000000E+00  0.00000000E+00  0.00000000E+00
  0.00000000E+00  0.00000000E+00  0.00000000E+00
  0.00000000E+00  0.00000000E+00  0.00000000E+00
  0.00000000E+00  0.00000000E+00  0.00000000E+00
  0.00000000E+00  0.00000000E+00  0.00000000E+00
  0.00000000E+00  0.00000000E+00  0.00000000E+00
  0.00000000E+00  0.00000000E+00  0.00000000E+00
  0.00000000E+00  0.00000000E+00  0.00000000E+00
  0.00000000E+00  0.00000000E+00  0.00000000E+00
  0.00000000E+00  0.00000000E+00  0.00000000E+00
  0.00000000E+00  0.00000000E+00  0.00000000E+00
  0.00000000E+00  0.00000000E+00  0.00000000E+00
  0.00000000E+00  0.00000000E+00  0.00000000E+00
  0.00000000E+00  0.00000000E+00  0.00000000E+00
  0.00000000E+00  0.00000000E+00  0.00000000E+00
  0.00000000E+00  0.00000000E+00  0.00000000E+00
  0.00000000E+00  0.00000000E+00  0.00000000E+00
  0.00000000E+00  0.00000000E+00  0.00000000E+00
  0.00000000E+00  0.00000000E+00  0.00000000E+00
  0.00000000E+00  0.00000000E+00  0.00000000E+00
  0.00000000E+00  0.00000000E+00  0.00000000E+00
  0.00000000E+00  0.00000000E+00  0.00000000E+00
  0.00000000E+00  0.00000000E+00  0.00000000E+00
  0.00000000E+00  0.00000000E+00  0.00000000E+00
  0.00000000E+00  0.00000000E+00  0.00000000E+00
  0.00000000E+00  0.00000000E+00  0.00000000E+00
  0.00000000E+00  0.00000000E+00  0.00000000E+00
  0.00000000E+00  0.00000000E+00  0.00000000E+00
  0.00000000E+00  0.00000000E+00  0.00000000E+00
  0.00000000E+00  0.00000000E+00  0.00000000E+00
  0.00000000E+00  0.00000000E+00  0.00000000E+00
  0.00000000E+00  0.00000000E+00  0.00000000E+00
  0.00000000E+00  0.00000000E+00  0.00000000E+00
  0.00000000E+00  0.00000000E+00  0.00000000E+00
