Ti1 H1 C124 N2 O2                       
   1.00000000000000     
    19.8018579344033476   -0.0178391907018344   -0.1925535666703789
    -9.9166970191369543   17.0613694171781773   -0.0284352970037090
    -0.2896525816904640   -0.2180512352016929   29.8039644749851895
   Ti   H    C    N    O 
     1     1   124     2     2
Direct
  0.4359744730943452  0.5006231454893825  0.4332629703892190
  0.5366638396128794  0.5575776331964597  0.5035704438973717
  0.0423258324434316  0.0841940101347247  0.3996709863917584
  0.0417939842928417  0.2086443401777368  0.3994805855102037
  0.0411582555259707  0.3332299641374428  0.3992736260410024
  0.0410114090963377  0.4584890161612603  0.3992922085902254
  0.0415254093370539  0.5838843417051638  0.3995965816751479
  0.0420437211585128  0.7091759928273219  0.3998398478748136
  0.0423314271102019  0.8344063546511008  0.3998021229745410
  0.0425217995319354  0.9595446837460061  0.3996823585620947
  0.1682477995305869  0.0856092107288698  0.4001607840565004
  0.1678092620743397  0.2101521420106246  0.4002465972360152
  0.1666040253777434  0.3343297512837615  0.3999311958690308
  0.1650307408404983  0.4588237607386279  0.3995941197480740
  0.1655681896889529  0.5839356828630575  0.3993416324571070
  0.1664822629203817  0.7092106140244290  0.3996165897937302
  0.1670804401317398  0.8345088959382770  0.3998040620615288
  0.1675647406094992  0.9599105784513576  0.3998874296773023
  0.2928192911097847  0.0852638476610573  0.4002673395047782
  0.2945440748442208  0.2122730257532217  0.4018345424681816
  0.2936038119145798  0.3375070675315984  0.4027501627012169
  0.2897067331882236  0.4596354509662666  0.4021776842577708
  0.2894434235803723  0.5844920825360711  0.4008876992819699
  0.2909127045949922  0.7092426725635673  0.3997910716944542
  0.2917338024060784  0.8342632624849563  0.3994885631577337
  0.2921968227416260  0.9595406566349177  0.3996332352634523
  0.4173284583685638  0.0839799564846700  0.3997069022792180
  0.4179562029927045  0.2096318125774740  0.4007666331640096
  0.4213391625620379  0.3375220403114294  0.4047037404763955
  0.4152077554988788  0.7074412665012636  0.4013998018534867
  0.4163263222739826  0.8330566753392635  0.3997306492527960
  0.4168451214003069  0.9585009169560833  0.3994729424707643
  0.5419106024227689  0.0827261036658299  0.3996461466917068
  0.5424290415691414  0.2079239124059555  0.3997463365138526
  0.5435430884033887  0.3328480406298191  0.4007559276040795
  0.5446393956102212  0.4562264484718966  0.4040029953644368
  0.5437732459989892  0.5800313531205847  0.4072669501716327
  0.5389565591462639  0.7041444223936745  0.4040028364031727
  0.5407429969278981  0.8314120826398669  0.4006774435837672
  0.5414921120365460  0.9572935365887973  0.3997335182890325
  0.6665895622573221  0.0822831761565426  0.3998596974404880
  0.6670518725680726  0.2075740980053539  0.3996954045389403
  0.6677844120088426  0.3328131642699640  0.3993505202800779
  0.6689793842695758  0.4581233579519980  0.3991924372529301
  0.6687053826196324  0.5824853236728723  0.4001026104380492
  0.6659028329618658  0.7062115676794507  0.4007117791352072
  0.6651636686081878  0.8308588225297107  0.4005068486112154
  0.6660834677833612  0.9568157873974160  0.3999868810557443
  0.7913763617555353  0.0823139702669463  0.3997749623665779
  0.7916926112090878  0.2075587083046475  0.3998445777429315
  0.7921943573427849  0.3328746616560419  0.3996095635799418
  0.7928058154412679  0.4582082950923374  0.3990743875450484
  0.7931491206128896  0.5834137949545947  0.3986983357172723
  0.7922627697864499  0.7081707204276675  0.3989572426540584
  0.7911720857410330  0.8323695862580800  0.3992716364834011
  0.7909368004902357  0.9570018054110554  0.3995652503793698
  0.9165265424640692  0.0829020874142290  0.3995356403115063
  0.9164770966919613  0.2077954942003281  0.3995668099930655
  0.9165647598569605  0.3329812321862564  0.3995788745388377
  0.9169154583962162  0.4583403978551069  0.3995536193753937
  0.9174061962033387  0.5837426664607538  0.3994413112956280
  0.9174093478682754  0.7089465897189849  0.3993231909754402
  0.9171441771190818  0.8337691674559942  0.3992809935469746
  0.9167505546473582  0.9583192423700041  0.3994056655448581
  0.0845212085709676  0.0432183860811335  0.3997912545543835
  0.0841240604440760  0.1677089355232049  0.3997216730940919
  0.0831327012985303  0.2920272417999047  0.3994100765938446
  0.0822381566658333  0.4167949220210966  0.3992195227380010
  0.0825881475220948  0.5420346472421399  0.3993439541775708
  0.0832905140528082  0.6674015561628949  0.3997362091278429
  0.0838204984908668  0.7927457511253022  0.3998848679337474
  0.0841349237571860  0.9179624000487278  0.3998071967990313
  0.2094494166171537  0.0434744230433918  0.4001245009369918
  0.2103705114057553  0.1694141738816995  0.4007079044942523
  0.2093924988648362  0.2937512636377613  0.4005641726811330
  0.2067397978624993  0.4177246226735027  0.4003398062960336
  0.2063898760969813  0.5421322353318941  0.3996913028611291
  0.2076508153966966  0.6674715670530877  0.3995057456658439
  0.2084533826834549  0.7927492112393729  0.3996524248654899
  0.2089466686187077  0.9180338086348895  0.3997822881587457
  0.3340402152780495  0.0430522805851578  0.3998108088955298
  0.3348908097911174  0.1689696874391084  0.4010443608258082
  0.3368737820560744  0.2963263599493250  0.4037574117523840
  0.3320394532092607  0.4199035143023809  0.4041785358794220
  0.3310527757924269  0.5442879293035300  0.4030691225997760
  0.3320274495679351  0.6675963093622080  0.4007047570109145
  0.3331031797346888  0.7924388784047423  0.3996020587674624
  0.3336222842881930  0.9176167736477898  0.3994749929163299
  0.4587118801445628  0.0418881213331548  0.3995574052055264
  0.4592160582377293  0.1673688375612258  0.3999450706492137
  0.4604956713357793  0.2931759734678230  0.4017953207547434
  0.4547920104850917  0.6634941515409790  0.4041746155008102
  0.4576579048752060  0.7908643965622549  0.4004248616771463
  0.4582207224100151  0.9164154349556716  0.3995729261804590
  0.5833547236811343  0.0408050091992074  0.3997365702879744
  0.5837936419286267  0.1660894833226098  0.3996365054196752
  0.5846021739134933  0.2911064307992099  0.3997621547574883
  0.5860496434789386  0.4158583183106477  0.4007620658149409
  0.5862035633659888  0.5407633794577844  0.4034987578583480
  0.5818567666619610  0.6623683671170224  0.4040937572308524
  0.5811429153222900  0.7881262321990944  0.4016484549755938
  0.5827612990991093  0.9150959647273312  0.4000492730323301
  0.7079775872118246  0.0403972137067979  0.3998698707658562
  0.7084587003851508  0.1658141452639604  0.3998491475571551
  0.7090149257857075  0.2910886337646655  0.3995299092495219
  0.7098354947597110  0.4163367155771698  0.3989888709242475
  0.7104077687383052  0.5413904343891742  0.3989617608329589
  0.7088417544732224  0.6658725853546229  0.3996990910404973
  0.7074948563805943  0.7898904020323346  0.3999500588683343
  0.7072646922951892  0.9146552082514012  0.3999342017573874
  0.8329645379473570  0.0406978773992641  0.3996087842383881
  0.8331800135882409  0.1658784880616356  0.3997715369269021
  0.8334612903703656  0.2911096011042565  0.3997476337996690
  0.8339280510587848  0.4163965626251132  0.3994634184676879
  0.8344053629210518  0.5417387746795794  0.3990044952341427
  0.8342616154305819  0.6669899136842450  0.3988736515211671
  0.8336172831733955  0.7915428777015786  0.3990664387913340
  0.8330568339065331  0.9159477456486079  0.3993641885126969
  0.9586466521598249  0.0418390888134034  0.3995176725317746
  0.9582903603210203  0.1664473611591601  0.3994847315060084
  0.9580462929147305  0.2913175504965685  0.3994397650608660
  0.9580442652950597  0.4165281727220754  0.3994949799813824
  0.9585561718036875  0.5419397858616918  0.3995905479011121
  0.9589217290597334  0.6672956782245707  0.3995970727620620
  0.9590034300790840  0.7924802907840170  0.3995139488337957
  0.9589354430370742  0.9173245904877222  0.3994425247167927
  0.4110813492810289  0.5830382079780858  0.4067643288363234
  0.4652472091895663  0.4180443739458775  0.4079411948921146
  0.4968641655360280  0.5030619159669507  0.4963741875842803
  0.4239630792188110  0.5069793550869619  0.4963457918781530
 
  0.00000000E+00  0.00000000E+00  0.00000000E+00
  0.00000000E+00  0.00000000E+00  0.00000000E+00
  0.00000000E+00  0.00000000E+00  0.00000000E+00
  0.00000000E+00  0.00000000E+00  0.00000000E+00
  0.00000000E+00  0.00000000E+00  0.00000000E+00
  0.00000000E+00  0.00000000E+00  0.00000000E+00
  0.00000000E+00  0.00000000E+00  0.00000000E+00
  0.00000000E+00  0.00000000E+00  0.00000000E+00
  0.00000000E+00  0.00000000E+00  0.00000000E+00
  0.00000000E+00  0.00000000E+00  0.00000000E+00
  0.00000000E+00  0.00000000E+00  0.00000000E+00
  0.00000000E+00  0.00000000E+00  0.00000000E+00
  0.00000000E+00  0.00000000E+00  0.00000000E+00
  0.00000000E+00  0.00000000E+00  0.00000000E+00
  0.00000000E+00  0.00000000E+00  0.00000000E+00
  0.00000000E+00  0.00000000E+00  0.00000000E+00
  0.00000000E+00  0.00000000E+00  0.00000000E+00
  0.00000000E+00  0.00000000E+00  0.00000000E+00
  0.00000000E+00  0.00000000E+00  0.00000000E+00
  0.00000000E+00  0.00000000E+00  0.00000000E+00
  0.00000000E+00  0.00000000E+00  0.00000000E+00
  0.00000000E+00  0.00000000E+00  0.00000000E+00
  0.00000000E+00  0.00000000E+00  0.00000000E+00
  0.00000000E+00  0.00000000E+00  0.00000000E+00
  0.00000000E+00  0.00000000E+00  0.00000000E+00
  0.00000000E+00  0.00000000E+00  0.00000000E+00
  0.00000000E+00  0.00000000E+00  0.00000000E+00
  0.00000000E+00  0.00000000E+00  0.00000000E+00
  0.00000000E+00  0.00000000E+00  0.00000000E+00
  0.00000000E+00  0.00000000E+00  0.00000000E+00
  0.00000000E+00  0.00000000E+00  0.00000000E+00
  0.00000000E+00  0.00000000E+00  0.00000000E+00
  0.00000000E+00  0.00000000E+00  0.00000000E+00
  0.00000000E+00  0.00000000E+00  0.00000000E+00
  0.00000000E+00  0.00000000E+00  0.00000000E+00
  0.00000000E+00  0.00000000E+00  0.00000000E+00
  0.00000000E+00  0.00000000E+00  0.00000000E+00
  0.00000000E+00  0.00000000E+00  0.00000000E+00
  0.00000000E+00  0.00000000E+00  0.00000000E+00
  0.00000000E+00  0.00000000E+00  0.00000000E+00
  0.00000000E+00  0.00000000E+00  0.00000000E+00
  0.00000000E+00  0.00000000E+00  0.00000000E+00
  0.00000000E+00  0.00000000E+00  0.00000000E+00
  0.00000000E+00  0.00000000E+00  0.00000000E+00
  0.00000000E+00  0.00000000E+00  0.00000000E+00
  0.00000000E+00  0.00000000E+00  0.00000000E+00
  0.00000000E+00  0.00000000E+00  0.00000000E+00
  0.00000000E+00  0.00000000E+00  0.00000000E+00
  0.00000000E+00  0.00000000E+00  0.00000000E+00
  0.00000000E+00  0.00000000E+00  0.00000000E+00
  0.00000000E+00  0.00000000E+00  0.00000000E+00
  0.00000000E+00  0.00000000E+00  0.00000000E+00
  0.00000000E+00  0.00000000E+00  0.00000000E+00
  0.00000000E+00  0.00000000E+00  0.00000000E+00
  0.00000000E+00  0.00000000E+00  0.00000000E+00
  0.00000000E+00  0.00000000E+00  0.00000000E+00
  0.00000000E+00  0.00000000E+00  0.00000000E+00
  0.00000000E+00  0.00000000E+00  0.00000000E+00
  0.00000000E+00  0.00000000E+00  0.00000000E+00
  0.00000000E+00  0.00000000E+00  0.00000000E+00
  0.00000000E+00  0.00000000E+00  0.00000000E+00
  0.00000000E+00  0.00000000E+00  0.00000000E+00
  0.00000000E+00  0.00000000E+00  0.00000000E+00
  0.00000000E+00  0.00000000E+00  0.00000000E+00
  0.00000000E+00  0.00000000E+00  0.00000000E+00
  0.00000000E+00  0.00000000E+00  0.00000000E+00
  0.00000000E+00  0.00000000E+00  0.00000000E+00
  0.00000000E+00  0.00000000E+00  0.00000000E+00
  0.00000000E+00  0.00000000E+00  0.00000000E+00
  0.00000000E+00  0.00000000E+00  0.00000000E+00
  0.00000000E+00  0.00000000E+00  0.00000000E+00
  0.00000000E+00  0.00000000E+00  0.00000000E+00
  0.00000000E+00  0.00000000E+00  0.00000000E+00
  0.00000000E+00  0.00000000E+00  0.00000000E+00
  0.00000000E+00  0.00000000E+00  0.00000000E+00
  0.00000000E+00  0.00000000E+00  0.00000000E+00
  0.00000000E+00  0.00000000E+00  0.00000000E+00
  0.00000000E+00  0.00000000E+00  0.00000000E+00
  0.00000000E+00  0.00000000E+00  0.00000000E+00
  0.00000000E+00  0.00000000E+00  0.00000000E+00
  0.00000000E+00  0.00000000E+00  0.00000000E+00
  0.00000000E+00  0.00000000E+00  0.00000000E+00
  0.00000000E+00  0.00000000E+00  0.00000000E+00
  0.00000000E+00  0.00000000E+00  0.00000000E+00
  0.00000000E+00  0.00000000E+00  0.00000000E+00
  0.00000000E+00  0.00000000E+00  0.00000000E+00
  0.00000000E+00  0.00000000E+00  0.00000000E+00
  0.00000000E+00  0.00000000E+00  0.00000000E+00
  0.00000000E+00  0.00000000E+00  0.00000000E+00
  0.00000000E+00  0.00000000E+00  0.00000000E+00
  0.00000000E+00  0.00000000E+00  0.00000000E+00
  0.00000000E+00  0.00000000E+00  0.00000000E+00
  0.00000000E+00  0.00000000E+00  0.00000000E+00
  0.00000000E+00  0.00000000E+00  0.00000000E+00
  0.00000000E+00  0.00000000E+00  0.00000000E+00
  0.00000000E+00  0.00000000E+00  0.00000000E+00
  0.00000000E+00  0.00000000E+00  0.00000000E+00
  0.00000000E+00  0.00000000E+00  0.00000000E+00
  0.00000000E+00  0.00000000E+00  0.00000000E+00
  0.00000000E+00  0.00000000E+00  0.00000000E+00
  0.00000000E+00  0.00000000E+00  0.00000000E+00
  0.00000000E+00  0.00000000E+00  0.00000000E+00
  0.00000000E+00  0.00000000E+00  0.00000000E+00
  0.00000000E+00  0.00000000E+00  0.00000000E+00
  0.00000000E+00  0.00000000E+00  0.00000000E+00
  0.00000000E+00  0.00000000E+00  0.00000000E+00
  0.00000000E+00  0.00000000E+00  0.00000000E+00
  0.00000000E+00  0.00000000E+00  0.00000000E+00
  0.00000000E+00  0.00000000E+00  0.00000000E+00
  0.00000000E+00  0.00000000E+00  0.00000000E+00
  0.00000000E+00  0.00000000E+00  0.00000000E+00
  0.00000000E+00  0.00000000E+00  0.00000000E+00
  0.00000000E+00  0.00000000E+00  0.00000000E+00
  0.00000000E+00  0.00000000E+00  0.00000000E+00
  0.00000000E+00  0.00000000E+00  0.00000000E+00
  0.00000000E+00  0.00000000E+00  0.00000000E+00
  0.00000000E+00  0.00000000E+00  0.00000000E+00
  0.00000000E+00  0.00000000E+00  0.00000000E+00
  0.00000000E+00  0.00000000E+00  0.00000000E+00
  0.00000000E+00  0.00000000E+00  0.00000000E+00
  0.00000000E+00  0.00000000E+00  0.00000000E+00
  0.00000000E+00  0.00000000E+00  0.00000000E+00
  0.00000000E+00  0.00000000E+00  0.00000000E+00
  0.00000000E+00  0.00000000E+00  0.00000000E+00
  0.00000000E+00  0.00000000E+00  0.00000000E+00
  0.00000000E+00  0.00000000E+00  0.00000000E+00
  0.00000000E+00  0.00000000E+00  0.00000000E+00
  0.00000000E+00  0.00000000E+00  0.00000000E+00
  0.00000000E+00  0.00000000E+00  0.00000000E+00
  0.00000000E+00  0.00000000E+00  0.00000000E+00
