Ta1 H1 C122 N4                          
   1.00000000000000     
    19.7866130225540431   -0.0000803273787478    0.1696450948684113
    -9.8932744100777654   17.0442230204316587   -0.1398095869690734
     0.2554946145654873   -0.0961989492280138   29.8394532803870263
   Ta   H    C    N 
     1     1   122     4
Direct
  0.4482288276104188  0.5007742005037512  0.4274119929950865
  0.4625912281948484  0.5035241270093340  0.4867348579454561
  0.0422594626909536  0.0845747895067273  0.3999356052931064
  0.0413860775228932  0.2086494741005007  0.4001285704319221
  0.0405488303143080  0.3332811211545859  0.3992612909432738
  0.0404597827801626  0.4583206002555375  0.3984057285010834
  0.0410939559911967  0.5836714911823253  0.3988496031681500
  0.0417590491024749  0.7090112338999159  0.3994885054304563
  0.0419646435767784  0.8341828238572571  0.3997539402010112
  0.0422239722226830  0.9595177577763327  0.3998027463547305
  0.1676675027949452  0.0853274081117365  0.4000264510035027
  0.1680728795890803  0.2108528465100201  0.4008791017067100
  0.1654328685333816  0.3341477015151108  0.4017397246645881
  0.1644668965114083  0.4585920750139071  0.3990607905125829
  0.1651691196159452  0.5836246474418655  0.3985918290415980
  0.1661965876282304  0.7087389125556268  0.3991508544724627
  0.1667541199423841  0.8340373717733202  0.3994610539592008
  0.1670730673145029  0.9595790589922251  0.3996635425671100
  0.2921676075455085  0.0850304401954327  0.3992808637497858
  0.2932121399899324  0.2121731402660760  0.4001797779037802
  0.2931508371144561  0.3390802955843717  0.4051046672200782
  0.2876771785913610  0.4590323512890284  0.4046337204903273
  0.2887492398401007  0.5829520674660239  0.4010396928812147
  0.2906902905699152  0.7080373137177928  0.4002295140422609
  0.2914639549584602  0.8335237198836334  0.3997107851606805
  0.2917284879060782  0.9590850633820321  0.3994699011762197
  0.4167460317019274  0.0836132469411697  0.3993435045288279
  0.4170265619831955  0.2091999835707553  0.3986753097544160
  0.4188718588264612  0.3349268315752866  0.3984576092551919
  0.4149746049408250  0.7053597077733570  0.4023265869310065
  0.4160137182324883  0.8319091707956585  0.4001963740146587
  0.4164160035729448  0.9578070300488449  0.3997483055532813
  0.5413012430721956  0.0826083053350833  0.3997097455813632
  0.5418187539049085  0.2081293667860650  0.3995108229569461
  0.5430377106504396  0.3337532838910304  0.3999464319976349
  0.5442697235120361  0.4581971482757793  0.3994665664662557
  0.5385248418819032  0.7030967449328379  0.4007995726590535
  0.5404660487994909  0.8307696928019738  0.4003538510093758
  0.5410852394987541  0.9569196216969820  0.3999935538805562
  0.6660321321008442  0.0822550625657489  0.3998004836063622
  0.6664931018040203  0.2076882504598313  0.3998826023131157
  0.6671494369983944  0.3331094377877493  0.4008080440980006
  0.6682786604624328  0.4584166835993323  0.4025180388408803
  0.6688836547307901  0.5834124422952239  0.4014550471902851
  0.6664328310247749  0.7073572667041242  0.3975953824001191
  0.6650474426587596  0.8311298676058335  0.3989212578730480
  0.6657237306574056  0.9568644466993504  0.3997091422170506
  0.7909845689260959  0.0824690162432447  0.3995453661180610
  0.7911188227026961  0.2076651657548751  0.3995370929828423
  0.7915216358012037  0.3329340310625099  0.3999536091876227
  0.7922741268068529  0.4583324503379664  0.4010516056866477
  0.7928489867587508  0.5837198122351716  0.4015981030832638
  0.7921838111309731  0.7083764624117614  0.3999672879400156
  0.7913930380492711  0.8329952577517926  0.3991047070023882
  0.7907578340142932  0.9573567934512225  0.3993498757815095
  0.9163013522127595  0.0831410348363187  0.3996630285383221
  0.9159406951028324  0.2079046171988162  0.3994370205211763
  0.9160042592980754  0.3330199866356566  0.3990243040833827
  0.9163716936926246  0.4583601342498759  0.3993758001191773
  0.9169341719406471  0.5836588282316436  0.4001649214642289
  0.9172122328990945  0.7089446344663621  0.4002996699055666
  0.9168784806772734  0.8339026529687013  0.3997404247461101
  0.9167518964788841  0.9586881280745502  0.3996614880510551
  0.0842512494955496  0.0432290964244522  0.3999377165319217
  0.0842244169645772  0.1682568985492204  0.4002487434989822
  0.0827801528206067  0.2921208931421891  0.4002964143311109
  0.0816130281627925  0.4164654056901082  0.3986207537946892
  0.0821777011569065  0.5417897388310873  0.3984167517985698
  0.0830126068566377  0.6671053885435461  0.3990562766676599
  0.0834691302219052  0.7924506313973846  0.3995549769536029
  0.0838062330262948  0.9178643211081089  0.3997727707341102
  0.2089163827239019  0.0432543688412639  0.3996747533017183
  0.2097972795296862  0.1693986984492674  0.4005042683278266
  0.2097902726684090  0.2949008530759292  0.4026170259071829
  0.2059260698564828  0.4172334384321656  0.4011938941930057
  0.2059166724152610  0.5415207259975076  0.3990177030701894
  0.2072912786509823  0.6668306620059394  0.3992297081119182
  0.2080598492224294  0.7922137512309407  0.3994505084882332
  0.2085459867299760  0.9176382817396810  0.3995187570938554
  0.3334553123363980  0.0427641636409487  0.3992921689712089
  0.3339819135731798  0.1689982392800157  0.3991071762623305
  0.3355221086542762  0.2971013926079968  0.4013875489566643
  0.3287786907496482  0.5412924409532982  0.4044866385362822
  0.3313447145639166  0.6660588497596936  0.4015619446430282
  0.3327761990157453  0.7915095802477510  0.4001002475966362
  0.3332048345037478  0.9169886393193317  0.3996376023740157
  0.4581318044033804  0.0414429569347082  0.3996324622631552
  0.4584534312446067  0.1670986028303992  0.3991433291580964
  0.4591337355324090  0.2927182488691010  0.3981618997236821
  0.4542202964350686  0.6612836704368591  0.4046645969350174
  0.4572827007695252  0.7893553337787778  0.4006939906635524
  0.4577420387142411  0.9155750079196134  0.3999593417000789
  0.5827948633000078  0.0406167476486981  0.3998482874093559
  0.5830620389986935  0.1662150994599868  0.3997042088084742
  0.5838674364438652  0.2917268852377555  0.4001191781526710
  0.5855663982815736  0.4167577541684425  0.4018059706065837
  0.5861105018107666  0.5419008594330181  0.3991114581896596
  0.5839604349556193  0.6651517843118248  0.3976920602862788
  0.5811228470145235  0.7879994961190401  0.3998507029525531
  0.5824018619382930  0.9148207002877213  0.4000385668928430
  0.7075627928494962  0.0405250348029137  0.3997051026814612
  0.7078808454350088  0.1659261981287402  0.3997386175039915
  0.7083593052961576  0.2911773414692615  0.4002452013074504
  0.7092009805374194  0.4163948723111988  0.4016364071363804
  0.7099203390097865  0.5417454769906912  0.4024349220703671
  0.7093366923409551  0.6663613279808560  0.3995162456597914
  0.7078669021932856  0.7909074855846508  0.3984215391233519
  0.7072006030294973  0.9150947694758113  0.3992855274166819
  0.8327207184220444  0.0410316094935078  0.3995162450030916
  0.8327988900580328  0.1660629786167308  0.3994559178808110
  0.8328441460693312  0.2911113882000331  0.3994420036552772
  0.8333607375594789  0.4164518921207889  0.4001062212961944
  0.8339890177498193  0.5417803101311751  0.4010674663270599
  0.8340687171362654  0.6669921299128669  0.4007782794134034
  0.8337261388502827  0.7919667653364112  0.3994816663433560
  0.8331703899495544  0.9164911453351536  0.3993979650515294
  0.9586898901296464  0.0423246555132148  0.3997543959864636
  0.9580474876004335  0.1666060597263450  0.3997080934914618
  0.9575421853537065  0.2913781797070580  0.3991446375208232
  0.9575017507551422  0.4164534814100008  0.3988203033784394
  0.9580650229408214  0.5417753644691961  0.3994051308906473
  0.9586169666661417  0.6671855087850316  0.4000274590578919
  0.9588238724254333  0.7924204004317097  0.3999219692744633
  0.9587367789604091  0.9175106976595642  0.3997110936687188
  0.4095556877783764  0.5789460730076804  0.4110253196874336
  0.5458555913335156  0.5838539636283687  0.3987636355830686
  0.3309232485576236  0.4216234482164178  0.4113496566854312
  0.4620742813107406  0.4162102038538681  0.3996179228630904
 
  0.00000000E+00  0.00000000E+00  0.00000000E+00
  0.00000000E+00  0.00000000E+00  0.00000000E+00
  0.00000000E+00  0.00000000E+00  0.00000000E+00
  0.00000000E+00  0.00000000E+00  0.00000000E+00
  0.00000000E+00  0.00000000E+00  0.00000000E+00
  0.00000000E+00  0.00000000E+00  0.00000000E+00
  0.00000000E+00  0.00000000E+00  0.00000000E+00
  0.00000000E+00  0.00000000E+00  0.00000000E+00
  0.00000000E+00  0.00000000E+00  0.00000000E+00
  0.00000000E+00  0.00000000E+00  0.00000000E+00
  0.00000000E+00  0.00000000E+00  0.00000000E+00
  0.00000000E+00  0.00000000E+00  0.00000000E+00
  0.00000000E+00  0.00000000E+00  0.00000000E+00
  0.00000000E+00  0.00000000E+00  0.00000000E+00
  0.00000000E+00  0.00000000E+00  0.00000000E+00
  0.00000000E+00  0.00000000E+00  0.00000000E+00
  0.00000000E+00  0.00000000E+00  0.00000000E+00
  0.00000000E+00  0.00000000E+00  0.00000000E+00
  0.00000000E+00  0.00000000E+00  0.00000000E+00
  0.00000000E+00  0.00000000E+00  0.00000000E+00
  0.00000000E+00  0.00000000E+00  0.00000000E+00
  0.00000000E+00  0.00000000E+00  0.00000000E+00
  0.00000000E+00  0.00000000E+00  0.00000000E+00
  0.00000000E+00  0.00000000E+00  0.00000000E+00
  0.00000000E+00  0.00000000E+00  0.00000000E+00
  0.00000000E+00  0.00000000E+00  0.00000000E+00
  0.00000000E+00  0.00000000E+00  0.00000000E+00
  0.00000000E+00  0.00000000E+00  0.00000000E+00
  0.00000000E+00  0.00000000E+00  0.00000000E+00
  0.00000000E+00  0.00000000E+00  0.00000000E+00
  0.00000000E+00  0.00000000E+00  0.00000000E+00
  0.00000000E+00  0.00000000E+00  0.00000000E+00
  0.00000000E+00  0.00000000E+00  0.00000000E+00
  0.00000000E+00  0.00000000E+00  0.00000000E+00
  0.00000000E+00  0.00000000E+00  0.00000000E+00
  0.00000000E+00  0.00000000E+00  0.00000000E+00
  0.00000000E+00  0.00000000E+00  0.00000000E+00
  0.00000000E+00  0.00000000E+00  0.00000000E+00
  0.00000000E+00  0.00000000E+00  0.00000000E+00
  0.00000000E+00  0.00000000E+00  0.00000000E+00
  0.00000000E+00  0.00000000E+00  0.00000000E+00
  0.00000000E+00  0.00000000E+00  0.00000000E+00
  0.00000000E+00  0.00000000E+00  0.00000000E+00
  0.00000000E+00  0.00000000E+00  0.00000000E+00
  0.00000000E+00  0.00000000E+00  0.00000000E+00
  0.00000000E+00  0.00000000E+00  0.00000000E+00
  0.00000000E+00  0.00000000E+00  0.00000000E+00
  0.00000000E+00  0.00000000E+00  0.00000000E+00
  0.00000000E+00  0.00000000E+00  0.00000000E+00
  0.00000000E+00  0.00000000E+00  0.00000000E+00
  0.00000000E+00  0.00000000E+00  0.00000000E+00
  0.00000000E+00  0.00000000E+00  0.00000000E+00
  0.00000000E+00  0.00000000E+00  0.00000000E+00
  0.00000000E+00  0.00000000E+00  0.00000000E+00
  0.00000000E+00  0.00000000E+00  0.00000000E+00
  0.00000000E+00  0.00000000E+00  0.00000000E+00
  0.00000000E+00  0.00000000E+00  0.00000000E+00
  0.00000000E+00  0.00000000E+00  0.00000000E+00
  0.00000000E+00  0.00000000E+00  0.00000000E+00
  0.00000000E+00  0.00000000E+00  0.00000000E+00
  0.00000000E+00  0.00000000E+00  0.00000000E+00
  0.00000000E+00  0.00000000E+00  0.00000000E+00
  0.00000000E+00  0.00000000E+00  0.00000000E+00
  0.00000000E+00  0.00000000E+00  0.00000000E+00
  0.00000000E+00  0.00000000E+00  0.00000000E+00
  0.00000000E+00  0.00000000E+00  0.00000000E+00
  0.00000000E+00  0.00000000E+00  0.00000000E+00
  0.00000000E+00  0.00000000E+00  0.00000000E+00
  0.00000000E+00  0.00000000E+00  0.00000000E+00
  0.00000000E+00  0.00000000E+00  0.00000000E+00
  0.00000000E+00  0.00000000E+00  0.00000000E+00
  0.00000000E+00  0.00000000E+00  0.00000000E+00
  0.00000000E+00  0.00000000E+00  0.00000000E+00
  0.00000000E+00  0.00000000E+00  0.00000000E+00
  0.00000000E+00  0.00000000E+00  0.00000000E+00
  0.00000000E+00  0.00000000E+00  0.00000000E+00
  0.00000000E+00  0.00000000E+00  0.00000000E+00
  0.00000000E+00  0.00000000E+00  0.00000000E+00
  0.00000000E+00  0.00000000E+00  0.00000000E+00
  0.00000000E+00  0.00000000E+00  0.00000000E+00
  0.00000000E+00  0.00000000E+00  0.00000000E+00
  0.00000000E+00  0.00000000E+00  0.00000000E+00
  0.00000000E+00  0.00000000E+00  0.00000000E+00
  0.00000000E+00  0.00000000E+00  0.00000000E+00
  0.00000000E+00  0.00000000E+00  0.00000000E+00
  0.00000000E+00  0.00000000E+00  0.00000000E+00
  0.00000000E+00  0.00000000E+00  0.00000000E+00
  0.00000000E+00  0.00000000E+00  0.00000000E+00
  0.00000000E+00  0.00000000E+00  0.00000000E+00
  0.00000000E+00  0.00000000E+00  0.00000000E+00
  0.00000000E+00  0.00000000E+00  0.00000000E+00
  0.00000000E+00  0.00000000E+00  0.00000000E+00
  0.00000000E+00  0.00000000E+00  0.00000000E+00
  0.00000000E+00  0.00000000E+00  0.00000000E+00
  0.00000000E+00  0.00000000E+00  0.00000000E+00
  0.00000000E+00  0.00000000E+00  0.00000000E+00
  0.00000000E+00  0.00000000E+00  0.00000000E+00
  0.00000000E+00  0.00000000E+00  0.00000000E+00
  0.00000000E+00  0.00000000E+00  0.00000000E+00
  0.00000000E+00  0.00000000E+00  0.00000000E+00
  0.00000000E+00  0.00000000E+00  0.00000000E+00
  0.00000000E+00  0.00000000E+00  0.00000000E+00
  0.00000000E+00  0.00000000E+00  0.00000000E+00
  0.00000000E+00  0.00000000E+00  0.00000000E+00
  0.00000000E+00  0.00000000E+00  0.00000000E+00
  0.00000000E+00  0.00000000E+00  0.00000000E+00
  0.00000000E+00  0.00000000E+00  0.00000000E+00
  0.00000000E+00  0.00000000E+00  0.00000000E+00
  0.00000000E+00  0.00000000E+00  0.00000000E+00
  0.00000000E+00  0.00000000E+00  0.00000000E+00
  0.00000000E+00  0.00000000E+00  0.00000000E+00
  0.00000000E+00  0.00000000E+00  0.00000000E+00
  0.00000000E+00  0.00000000E+00  0.00000000E+00
  0.00000000E+00  0.00000000E+00  0.00000000E+00
  0.00000000E+00  0.00000000E+00  0.00000000E+00
  0.00000000E+00  0.00000000E+00  0.00000000E+00
  0.00000000E+00  0.00000000E+00  0.00000000E+00
  0.00000000E+00  0.00000000E+00  0.00000000E+00
  0.00000000E+00  0.00000000E+00  0.00000000E+00
  0.00000000E+00  0.00000000E+00  0.00000000E+00
  0.00000000E+00  0.00000000E+00  0.00000000E+00
  0.00000000E+00  0.00000000E+00  0.00000000E+00
  0.00000000E+00  0.00000000E+00  0.00000000E+00
  0.00000000E+00  0.00000000E+00  0.00000000E+00
  0.00000000E+00  0.00000000E+00  0.00000000E+00
  0.00000000E+00  0.00000000E+00  0.00000000E+00
  0.00000000E+00  0.00000000E+00  0.00000000E+00
  0.00000000E+00  0.00000000E+00  0.00000000E+00
