Fe1 C123 N3 O1                          
   1.00000000000000     
    19.7911885703618893    0.0163562232072846    0.0542525090051539
    -9.8812949609961773   17.0046730379103721   -0.0748503000186889
     0.0816139378381505   -0.0835487371731508   29.8854710255054918
   Fe   C    N    O 
     1   123     3     1
Direct
  0.4364120334821258  0.4996639103169164  0.4225959518990554
  0.0420033131537670  0.0842211591834981  0.4001816981239202
  0.0410331350140734  0.2082830410374514  0.4003526309168104
  0.0404253373226849  0.3329992229226300  0.3999723532181403
  0.0407266528512698  0.4582093248935198  0.3995511099572969
  0.0415523417586942  0.5836186447114130  0.3993579049210242
  0.0421937141219806  0.7090135373746123  0.3993473511464382
  0.0424450969011502  0.8343083631050119  0.3994946599000553
  0.0424052872673372  0.9595105314998880  0.3997988358022391
  0.1678229395041731  0.0855795908390372  0.4007561651669595
  0.1675394607919875  0.2105275614396113  0.4015280597953090
  0.1651415800460819  0.3336359966594333  0.4013171151832268
  0.1646269769860479  0.4582873434138055  0.3999620067307604
  0.1656157807740778  0.5834556163191646  0.3997369103740274
  0.1666502294835419  0.7087313871051404  0.3994757098317856
  0.1671279656661815  0.8342171583346951  0.3994793659948792
  0.1675088729845798  0.9599479359724509  0.3999072046992401
  0.2925816273033338  0.0859026793446192  0.4007005075384528
  0.2932624529110669  0.2129584552419681  0.4028530099247429
  0.2927195020828087  0.3391082890429968  0.4052590448684937
  0.2881886720030675  0.4577033328236140  0.4026012548769919
  0.2892127309829941  0.5825577827365364  0.4005463058279483
  0.2910289996694474  0.7080060380365708  0.4000634284246990
  0.2917766882626660  0.8336398342275073  0.3996882075037912
  0.2921615845575245  0.9595413695314340  0.3998262905379969
  0.4169901315024315  0.0844927126795893  0.4000770521200621
  0.4175602542018489  0.2112383510226457  0.4014529607030843
  0.4191988935938984  0.3397972206281750  0.4040904188246712
  0.4150205589011703  0.7047639851809646  0.4014654321496383
  0.4162463968630407  0.8317397179444331  0.4004194933697887
  0.4166992774964061  0.9581549287912093  0.3997804273156296
  0.5414709579243034  0.0828259055182578  0.3996842172333324
  0.5418751022698635  0.2087650256626093  0.4000095464842940
  0.5428157699156887  0.3346484460625913  0.4011445081291126
  0.5459471581570576  0.4603387441795435  0.4034600879288875
  0.5382613749352001  0.7010487967312542  0.4039299308947157
  0.5404641860531562  0.8298119308786146  0.4013634319560028
  0.5411221638202571  0.9566030945740531  0.4001436815739964
  0.6660781684961644  0.0821288003791880  0.3997407450628456
  0.6664097266942424  0.2077374203675798  0.3994473600112115
  0.6670807903323978  0.3332074576524456  0.3996711612208697
  0.6689359740503668  0.4588239303930263  0.4004955281386278
  0.6701985240352374  0.5842357962173966  0.4019880071560222
  0.6661486512135828  0.7058813961622381  0.4025974468544505
  0.6645949344995349  0.8300648177107716  0.4016175260791287
  0.6655116251919105  0.9562208861980100  0.4004542640060721
  0.7907513435627096  0.0820785777904554  0.3997596416111837
  0.7910494350978848  0.2074911078874903  0.3994474900927488
  0.7915115482940540  0.3328857513863738  0.3992875280694060
  0.7925276769137184  0.4583600590781052  0.3994707372005851
  0.7935033914773409  0.5838396212864110  0.3999198771342175
  0.7932011801331399  0.7088850751111004  0.4005640944734305
  0.7910191196650537  0.8322641319265913  0.4004985812084950
  0.7904229096483723  0.9567025916122801  0.4002014994535211
  0.9159509752059282  0.0826796080661228  0.3998767727225875
  0.9158073121388263  0.2076175894372310  0.3997997749325117
  0.9159625322966879  0.3328344881658660  0.3995288682292520
  0.9166142672086822  0.4582544773993707  0.3993271802881011
  0.9174477281450462  0.5837343619387075  0.3994314681057504
  0.9176916650309391  0.7090402786780964  0.3997031860076661
  0.9173871336700700  0.8340064639299116  0.3998247465018502
  0.9165155930977912  0.9582572191702224  0.3998529495264137
  0.0842789397555295  0.0432225046149902  0.4001893082711150
  0.0838246594906866  0.1678776835049076  0.4005796695670974
  0.0822167627666063  0.2916086880855458  0.4004654637406721
  0.0818238138663444  0.4163468545455643  0.3997585578787266
  0.0826428422624344  0.5417429086512519  0.3995051788478903
  0.0835014036440771  0.6671628661337001  0.3993495394983792
  0.0839409396743270  0.7925469809224641  0.3993925197974889
  0.0841756510397695  0.9179483631583376  0.3996758399156857
  0.2092759882985508  0.0437197914723499  0.4004659813884210
  0.2097151426541198  0.1695489844805410  0.4017759095767473
  0.2088806717816919  0.2943453964831083  0.4024874238635552
  0.2059138696032396  0.4167015390949302  0.4008912664434479
  0.2063367086565076  0.5413339732460223  0.4000980137595699
  0.2078182557973796  0.6668253245692592  0.3997223475300953
  0.2085679082716707  0.7923075098166371  0.3995093643705669
  0.2089189870499745  0.9179104886596589  0.3997233878923912
  0.3338238703841484  0.0434004103035794  0.4001503811737526
  0.3342894243675253  0.1700052485074882  0.4016890778587500
  0.3352492731245695  0.2975923183494693  0.4048448198066782
  0.3301725150522926  0.5410845109564664  0.4011161757225711
  0.3319126357664812  0.6657166357067902  0.4005973288585011
  0.3331214408479007  0.7914171896270398  0.4000267236439823
  0.3335165194175346  0.9172412259665975  0.3997289694395614
  0.4582915773906989  0.0419073659491396  0.3997674118211287
  0.4586433643848388  0.1683061816092276  0.4004608189155348
  0.4595571051693546  0.2952965479219966  0.4020793288780438
  0.4640135318824426  0.4232485327065018  0.4052820882302665
  0.4541297090616196  0.6594093876716802  0.4025848575241162
  0.4573401347647972  0.7888059295538790  0.4011741431993373
  0.4579629779641747  0.9155789659801239  0.4000748712060932
  0.5828167046096362  0.0404919864779003  0.3998252202643297
  0.5832168319049543  0.1664673714951268  0.3996095545921610
  0.5838267128679608  0.2921770251915781  0.4001597132031172
  0.5860653230883526  0.4178684789798672  0.4014393842854312
  0.5884551485335250  0.5435229947034687  0.4046741191337096
  0.5820506390404210  0.6605325933500592  0.4052796477135200
  0.5807626366843797  0.7863202388438231  0.4023633811029498
  0.5823098488652594  0.9140552344075354  0.4006082100123948
  0.7074210641798153  0.0400655633426791  0.3999414724436715
  0.7078620962887137  0.1658134469176696  0.3994776381865583
  0.7082962786192191  0.2912878129230243  0.3993810245545690
  0.7095599269628554  0.4166771873734663  0.3997660517643437
  0.7108570418644091  0.5419843657735555  0.4005311585456303
  0.7103150956921146  0.6670187124435454  0.4017535881372737
  0.7072477345101831  0.7895460650995204  0.4014267738081052
  0.7067534366603928  0.9141751593666891  0.4007360926378114
  0.8324286658023331  0.0404733534351618  0.3998708854345528
  0.8325471279990622  0.1657407225433541  0.3996017311467037
  0.8328235043703613  0.2910284073438411  0.3993578281456184
  0.8335898167342155  0.4164438449912771  0.3993129163433901
  0.8345095548161731  0.5419116700999158  0.3995648895893912
  0.8347741340683753  0.6672657193802254  0.4000468989025960
  0.8340537868767632  0.7920309752553021  0.4002616025153732
  0.8328311237033243  0.9158800023211638  0.4001168015771637
  0.9583705352805745  0.0418397303574608  0.3999167419092894
  0.9576592113786868  0.1661946333997000  0.3999804470569168
  0.9574437190028331  0.2911649497139615  0.3997838814565376
  0.9577441459095477  0.4163781767067394  0.3994562676015859
  0.9585507410869847  0.5418187459578830  0.3993238951601794
  0.9591217058233505  0.6672725590062820  0.3994742297315281
  0.9592256397372276  0.7925668703563841  0.3996502911949318
  0.9589542276212989  0.9174568598555463  0.3997580968254670
  0.4104329460717224  0.5778640203485927  0.4016822743619596
  0.5456213542141809  0.5802251839375376  0.4082649795661541
  0.3306477417277374  0.4203517896148394  0.4070958322860833
  0.4395327655950703  0.4936123665235103  0.4762300042544756
 
  0.00000000E+00  0.00000000E+00  0.00000000E+00
  0.00000000E+00  0.00000000E+00  0.00000000E+00
  0.00000000E+00  0.00000000E+00  0.00000000E+00
  0.00000000E+00  0.00000000E+00  0.00000000E+00
  0.00000000E+00  0.00000000E+00  0.00000000E+00
  0.00000000E+00  0.00000000E+00  0.00000000E+00
  0.00000000E+00  0.00000000E+00  0.00000000E+00
  0.00000000E+00  0.00000000E+00  0.00000000E+00
  0.00000000E+00  0.00000000E+00  0.00000000E+00
  0.00000000E+00  0.00000000E+00  0.00000000E+00
  0.00000000E+00  0.00000000E+00  0.00000000E+00
  0.00000000E+00  0.00000000E+00  0.00000000E+00
  0.00000000E+00  0.00000000E+00  0.00000000E+00
  0.00000000E+00  0.00000000E+00  0.00000000E+00
  0.00000000E+00  0.00000000E+00  0.00000000E+00
  0.00000000E+00  0.00000000E+00  0.00000000E+00
  0.00000000E+00  0.00000000E+00  0.00000000E+00
  0.00000000E+00  0.00000000E+00  0.00000000E+00
  0.00000000E+00  0.00000000E+00  0.00000000E+00
  0.00000000E+00  0.00000000E+00  0.00000000E+00
  0.00000000E+00  0.00000000E+00  0.00000000E+00
  0.00000000E+00  0.00000000E+00  0.00000000E+00
  0.00000000E+00  0.00000000E+00  0.00000000E+00
  0.00000000E+00  0.00000000E+00  0.00000000E+00
  0.00000000E+00  0.00000000E+00  0.00000000E+00
  0.00000000E+00  0.00000000E+00  0.00000000E+00
  0.00000000E+00  0.00000000E+00  0.00000000E+00
  0.00000000E+00  0.00000000E+00  0.00000000E+00
  0.00000000E+00  0.00000000E+00  0.00000000E+00
  0.00000000E+00  0.00000000E+00  0.00000000E+00
  0.00000000E+00  0.00000000E+00  0.00000000E+00
  0.00000000E+00  0.00000000E+00  0.00000000E+00
  0.00000000E+00  0.00000000E+00  0.00000000E+00
  0.00000000E+00  0.00000000E+00  0.00000000E+00
  0.00000000E+00  0.00000000E+00  0.00000000E+00
  0.00000000E+00  0.00000000E+00  0.00000000E+00
  0.00000000E+00  0.00000000E+00  0.00000000E+00
  0.00000000E+00  0.00000000E+00  0.00000000E+00
  0.00000000E+00  0.00000000E+00  0.00000000E+00
  0.00000000E+00  0.00000000E+00  0.00000000E+00
  0.00000000E+00  0.00000000E+00  0.00000000E+00
  0.00000000E+00  0.00000000E+00  0.00000000E+00
  0.00000000E+00  0.00000000E+00  0.00000000E+00
  0.00000000E+00  0.00000000E+00  0.00000000E+00
  0.00000000E+00  0.00000000E+00  0.00000000E+00
  0.00000000E+00  0.00000000E+00  0.00000000E+00
  0.00000000E+00  0.00000000E+00  0.00000000E+00
  0.00000000E+00  0.00000000E+00  0.00000000E+00
  0.00000000E+00  0.00000000E+00  0.00000000E+00
  0.00000000E+00  0.00000000E+00  0.00000000E+00
  0.00000000E+00  0.00000000E+00  0.00000000E+00
  0.00000000E+00  0.00000000E+00  0.00000000E+00
  0.00000000E+00  0.00000000E+00  0.00000000E+00
  0.00000000E+00  0.00000000E+00  0.00000000E+00
  0.00000000E+00  0.00000000E+00  0.00000000E+00
  0.00000000E+00  0.00000000E+00  0.00000000E+00
  0.00000000E+00  0.00000000E+00  0.00000000E+00
  0.00000000E+00  0.00000000E+00  0.00000000E+00
  0.00000000E+00  0.00000000E+00  0.00000000E+00
  0.00000000E+00  0.00000000E+00  0.00000000E+00
  0.00000000E+00  0.00000000E+00  0.00000000E+00
  0.00000000E+00  0.00000000E+00  0.00000000E+00
  0.00000000E+00  0.00000000E+00  0.00000000E+00
  0.00000000E+00  0.00000000E+00  0.00000000E+00
  0.00000000E+00  0.00000000E+00  0.00000000E+00
  0.00000000E+00  0.00000000E+00  0.00000000E+00
  0.00000000E+00  0.00000000E+00  0.00000000E+00
  0.00000000E+00  0.00000000E+00  0.00000000E+00
  0.00000000E+00  0.00000000E+00  0.00000000E+00
  0.00000000E+00  0.00000000E+00  0.00000000E+00
  0.00000000E+00  0.00000000E+00  0.00000000E+00
  0.00000000E+00  0.00000000E+00  0.00000000E+00
  0.00000000E+00  0.00000000E+00  0.00000000E+00
  0.00000000E+00  0.00000000E+00  0.00000000E+00
  0.00000000E+00  0.00000000E+00  0.00000000E+00
  0.00000000E+00  0.00000000E+00  0.00000000E+00
  0.00000000E+00  0.00000000E+00  0.00000000E+00
  0.00000000E+00  0.00000000E+00  0.00000000E+00
  0.00000000E+00  0.00000000E+00  0.00000000E+00
  0.00000000E+00  0.00000000E+00  0.00000000E+00
  0.00000000E+00  0.00000000E+00  0.00000000E+00
  0.00000000E+00  0.00000000E+00  0.00000000E+00
  0.00000000E+00  0.00000000E+00  0.00000000E+00
  0.00000000E+00  0.00000000E+00  0.00000000E+00
  0.00000000E+00  0.00000000E+00  0.00000000E+00
  0.00000000E+00  0.00000000E+00  0.00000000E+00
  0.00000000E+00  0.00000000E+00  0.00000000E+00
  0.00000000E+00  0.00000000E+00  0.00000000E+00
  0.00000000E+00  0.00000000E+00  0.00000000E+00
  0.00000000E+00  0.00000000E+00  0.00000000E+00
  0.00000000E+00  0.00000000E+00  0.00000000E+00
  0.00000000E+00  0.00000000E+00  0.00000000E+00
  0.00000000E+00  0.00000000E+00  0.00000000E+00
  0.00000000E+00  0.00000000E+00  0.00000000E+00
  0.00000000E+00  0.00000000E+00  0.00000000E+00
  0.00000000E+00  0.00000000E+00  0.00000000E+00
  0.00000000E+00  0.00000000E+00  0.00000000E+00
  0.00000000E+00  0.00000000E+00  0.00000000E+00
  0.00000000E+00  0.00000000E+00  0.00000000E+00
  0.00000000E+00  0.00000000E+00  0.00000000E+00
  0.00000000E+00  0.00000000E+00  0.00000000E+00
  0.00000000E+00  0.00000000E+00  0.00000000E+00
  0.00000000E+00  0.00000000E+00  0.00000000E+00
  0.00000000E+00  0.00000000E+00  0.00000000E+00
  0.00000000E+00  0.00000000E+00  0.00000000E+00
  0.00000000E+00  0.00000000E+00  0.00000000E+00
  0.00000000E+00  0.00000000E+00  0.00000000E+00
  0.00000000E+00  0.00000000E+00  0.00000000E+00
  0.00000000E+00  0.00000000E+00  0.00000000E+00
  0.00000000E+00  0.00000000E+00  0.00000000E+00
  0.00000000E+00  0.00000000E+00  0.00000000E+00
  0.00000000E+00  0.00000000E+00  0.00000000E+00
  0.00000000E+00  0.00000000E+00  0.00000000E+00
  0.00000000E+00  0.00000000E+00  0.00000000E+00
  0.00000000E+00  0.00000000E+00  0.00000000E+00
  0.00000000E+00  0.00000000E+00  0.00000000E+00
  0.00000000E+00  0.00000000E+00  0.00000000E+00
  0.00000000E+00  0.00000000E+00  0.00000000E+00
  0.00000000E+00  0.00000000E+00  0.00000000E+00
  0.00000000E+00  0.00000000E+00  0.00000000E+00
  0.00000000E+00  0.00000000E+00  0.00000000E+00
  0.00000000E+00  0.00000000E+00  0.00000000E+00
  0.00000000E+00  0.00000000E+00  0.00000000E+00
  0.00000000E+00  0.00000000E+00  0.00000000E+00
  0.00000000E+00  0.00000000E+00  0.00000000E+00
  0.00000000E+00  0.00000000E+00  0.00000000E+00
  0.00000000E+00  0.00000000E+00  0.00000000E+00
  0.00000000E+00  0.00000000E+00  0.00000000E+00
