Re1 C124 N2 O1                          
   1.00000000000000     
    19.8172216377992321   -0.0138113095627356   -0.0351374158359138
    -9.9208542294486239   17.0444041668035950   -0.0450394452123872
    -0.0529531676733424   -0.1095687413296702   29.8030631637574430
   Re   C    N    O 
     1   124     2     1
Direct
  0.4387872625768936  0.5010097562506743  0.4306540851784487
  0.0423458781970313  0.0844207492382600  0.3997967290231953
  0.0414534442273608  0.2085337998581581  0.3994739020687803
  0.0405989685033906  0.3330144413055371  0.3994970881716667
  0.0404188320881175  0.4583451987145915  0.3996267604261208
  0.0413066856897159  0.5838648417079921  0.3998327205307331
  0.0420492456225558  0.7092827298161501  0.3999711772827187
  0.0423794543823720  0.8345881874775259  0.4001027430014133
  0.0425655209409683  0.9597733053622584  0.4000244656985637
  0.1682858061231422  0.0859800464025294  0.3998903828900258
  0.1680531478904639  0.2108112305971311  0.3996038334459924
  0.1660273599484269  0.3342574169914731  0.3993620645802867
  0.1640083590779533  0.4586798146020115  0.3994862471035076
  0.1650481665296572  0.5838632014787769  0.3995649166349462
  0.1662996204011349  0.7092106480140845  0.3998249318211566
  0.1670211608475429  0.8346201232796593  0.3999159047999271
  0.1675614781956758  0.9601403111143491  0.4000100248102178
  0.2927363536407660  0.0855414894753223  0.4000123083159016
  0.2945310623768552  0.2128244360914040  0.4008310708670192
  0.2941594812006383  0.3388425761705263  0.4014349776423899
  0.2877015600531609  0.4595713773990850  0.4014450028521703
  0.2885852738553727  0.5842292848873519  0.4005327898868725
  0.2906055418931887  0.7090278577407639  0.3998901910505442
  0.2915739718961453  0.8341993691731890  0.3997910644371778
  0.2921098273948068  0.9596535065068700  0.3998125447911696
  0.4171759269271729  0.0840905476734853  0.3997650448906075
  0.4178717637265761  0.2101401269003352  0.4001010582777046
  0.4208777190769306  0.3380771631724420  0.4027092735024291
  0.4147342192167611  0.7063213338492265  0.4005487046832702
  0.4160341636017688  0.8325469976157085  0.3998100288569167
  0.4166428599801518  0.9583412367041260  0.3997599523698073
  0.5416379602208328  0.0825283023601686  0.3997396846885253
  0.5422287983877612  0.2078685073295743  0.3998323765936755
  0.5435720335680491  0.3329462366468239  0.4004825984795336
  0.5460844118580890  0.4568992838228599  0.4019006030054335
  0.5435957965057083  0.5786739375073769  0.4022651558548581
  0.5381427596935110  0.7029642607844427  0.4013712689140233
  0.5403137755987159  0.8307423279020657  0.4001918104992192
  0.5411603611317590  0.9569009765536135  0.3999129476790249
  0.6661960869141248  0.0819094836989222  0.3999269671169797
  0.6667417520360199  0.2073059062086736  0.3998089265813177
  0.6677318574772206  0.3327026424186131  0.3998504513423675
  0.6695274820039774  0.4581742059346961  0.3997353690276707
  0.6697911367867694  0.5827069469585759  0.3990815042918890
  0.6655390497582685  0.7056951544338541  0.3988162513245896
  0.6646606774342882  0.8303166048758087  0.3998043200350733
  0.6656406497691425  0.9563551095932196  0.4000816291232573
  0.7909537069877366  0.0819547425363896  0.4000994424434697
  0.7912746427778474  0.2072289432749301  0.4000712761214777
  0.7919216557531410  0.3326453386224949  0.3998745481286946
  0.7929616237339887  0.4581619987517727  0.3997417621154643
  0.7936896000188550  0.5835296755654871  0.3995439794127677
  0.7925345824531619  0.7083077655421699  0.3992602589630875
  0.7909846728456592  0.8321656609941916  0.3995408739534829
  0.7905805976523200  0.9566835372357392  0.3999265372987737
  0.9162180235769959  0.0827171423344260  0.3999859163368754
  0.9160364396241550  0.2075025273652405  0.3999707443831709
  0.9161247035659504  0.3327234726165511  0.3999506338746216
  0.9166852410423143  0.4582240126507430  0.3998875863830152
  0.9175249197933878  0.5837872105959422  0.3998934561879048
  0.9175622884591538  0.7090615756079371  0.3999274881916853
  0.9172242391838488  0.8339131517564549  0.3999376954799263
  0.9166629369247665  0.9583353615027068  0.4000320551424518
  0.0845796673679468  0.0434969536774693  0.3998535235573620
  0.0842123911869339  0.1680494208680476  0.3995252041540718
  0.0826472066467402  0.2918548545819941  0.3993136307271098
  0.0814292961536781  0.4165716833185975  0.3994156579887569
  0.0821488490267776  0.5419387755231788  0.3996299788337642
  0.0831701462426904  0.6674313206367579  0.3998782468033856
  0.0838331672743703  0.7928792509798005  0.4000140239589043
  0.0841861998882258  0.9181778433285763  0.4000695319375276
  0.2094669837818421  0.0437977191837051  0.4000027692045242
  0.2104764918086413  0.1698947388302359  0.4000628432155858
  0.2096971726086931  0.2945597721133339  0.3996097036307468
  0.2054262348055706  0.4174830022579037  0.3997018567287522
  0.2056103392108410  0.5419572833458376  0.3996818850796912
  0.2073497375530545  0.6674091032654621  0.3997518203646012
  0.2083274407619410  0.7927840631417677  0.3998379436010090
  0.2089108524455884  0.9182120795643501  0.3999254578910445
  0.3339227675417203  0.0432336693060823  0.3998440836831264
  0.3347903401782392  0.1694346841793491  0.4003313240032057
  0.3370702152469719  0.2973221657752706  0.4021292835288651
  0.3317812211334945  0.4217709575885820  0.4039332670963287
  0.3291365147964433  0.5433499735703498  0.4024051666789816
  0.3315495139500203  0.6672246903487320  0.4003768210883484
  0.3328576362318958  0.7922700434490441  0.3998195018029536
  0.3334640651675883  0.9175974778233673  0.3997564976444653
  0.4584734806889123  0.0418148771433030  0.3997404830969883
  0.4590632849533929  0.1675994516329552  0.3998065147322856
  0.4603889268518533  0.2938681736340324  0.4007200002211826
  0.4543336189155264  0.6621832729525439  0.4024118923709398
  0.4572263215639418  0.7900251297981146  0.3999663562655585
  0.4579215701211509  0.9160537532158705  0.3998134442215791
  0.5829930184129934  0.0404720784918571  0.3998328933010906
  0.5835075290660311  0.1659220754423921  0.3997623718514015
  0.5844839965581464  0.2911165562972645  0.3999775367633913
  0.5865850383508686  0.4159366897848220  0.4005002801037263
  0.5875272148837418  0.5406651921945546  0.4002918186577014
  0.5811197693029645  0.6615234220402720  0.4001672739502077
  0.5806212372137274  0.7874077453864667  0.4004071286665511
  0.5823596955977717  0.9146124413850106  0.4000670843674655
  0.7075595658173940  0.0399939793895156  0.4000608469104275
  0.7080737474946343  0.1654890483368709  0.3999094799039710
  0.7087711980097546  0.2908678161842029  0.3998363497920910
  0.7100660048681011  0.4162521792764541  0.3997286088649221
  0.7111446116556203  0.5414516891358856  0.3994246753658455
  0.7091682245125200  0.6659212384109345  0.3988140319531290
  0.7071317431064994  0.7894249568801061  0.3992920825455876
  0.7068477206131110  0.9142132943827848  0.3999050926349811
  0.8326155727336453  0.0403997767809939  0.4000526811552290
  0.8327495999668396  0.1655362520383581  0.4001192887483635
  0.8330694665092179  0.2908118620973443  0.4000048084176611
  0.8337976735546372  0.4162254494731797  0.3998443659413063
  0.8346851780718666  0.5417441833251581  0.3997618115199381
  0.8345291959124288  0.6670919287899769  0.3995996027333768
  0.8337150817523131  0.7916379134388203  0.3995543786117961
  0.8328796880721148  0.9158059028528461  0.3998824058715132
  0.9585857191745966  0.0418994966026427  0.3999786469814502
  0.9579534232466399  0.1662581146922310  0.3998031301802389
  0.9575684946753452  0.2910470488886001  0.3998351137673001
  0.9575758586115309  0.4162978198057102  0.3998533059267200
  0.9584392177342882  0.5418782685748547  0.3998955975453226
  0.9589995337090339  0.6673732584249469  0.3999595969696319
  0.9590977872975992  0.7926213925086145  0.4000320320236955
  0.9589836953548498  0.9174706839367632  0.4000534879663546
  0.4095199193093910  0.5806022284015763  0.4058262812927074
  0.4658465929853138  0.4198045315461845  0.4056603061167119
  0.4416737521395656  0.5033781902137420  0.4882977796205299
 
  0.00000000E+00  0.00000000E+00  0.00000000E+00
  0.00000000E+00  0.00000000E+00  0.00000000E+00
  0.00000000E+00  0.00000000E+00  0.00000000E+00
  0.00000000E+00  0.00000000E+00  0.00000000E+00
  0.00000000E+00  0.00000000E+00  0.00000000E+00
  0.00000000E+00  0.00000000E+00  0.00000000E+00
  0.00000000E+00  0.00000000E+00  0.00000000E+00
  0.00000000E+00  0.00000000E+00  0.00000000E+00
  0.00000000E+00  0.00000000E+00  0.00000000E+00
  0.00000000E+00  0.00000000E+00  0.00000000E+00
  0.00000000E+00  0.00000000E+00  0.00000000E+00
  0.00000000E+00  0.00000000E+00  0.00000000E+00
  0.00000000E+00  0.00000000E+00  0.00000000E+00
  0.00000000E+00  0.00000000E+00  0.00000000E+00
  0.00000000E+00  0.00000000E+00  0.00000000E+00
  0.00000000E+00  0.00000000E+00  0.00000000E+00
  0.00000000E+00  0.00000000E+00  0.00000000E+00
  0.00000000E+00  0.00000000E+00  0.00000000E+00
  0.00000000E+00  0.00000000E+00  0.00000000E+00
  0.00000000E+00  0.00000000E+00  0.00000000E+00
  0.00000000E+00  0.00000000E+00  0.00000000E+00
  0.00000000E+00  0.00000000E+00  0.00000000E+00
  0.00000000E+00  0.00000000E+00  0.00000000E+00
  0.00000000E+00  0.00000000E+00  0.00000000E+00
  0.00000000E+00  0.00000000E+00  0.00000000E+00
  0.00000000E+00  0.00000000E+00  0.00000000E+00
  0.00000000E+00  0.00000000E+00  0.00000000E+00
  0.00000000E+00  0.00000000E+00  0.00000000E+00
  0.00000000E+00  0.00000000E+00  0.00000000E+00
  0.00000000E+00  0.00000000E+00  0.00000000E+00
  0.00000000E+00  0.00000000E+00  0.00000000E+00
  0.00000000E+00  0.00000000E+00  0.00000000E+00
  0.00000000E+00  0.00000000E+00  0.00000000E+00
  0.00000000E+00  0.00000000E+00  0.00000000E+00
  0.00000000E+00  0.00000000E+00  0.00000000E+00
  0.00000000E+00  0.00000000E+00  0.00000000E+00
  0.00000000E+00  0.00000000E+00  0.00000000E+00
  0.00000000E+00  0.00000000E+00  0.00000000E+00
  0.00000000E+00  0.00000000E+00  0.00000000E+00
  0.00000000E+00  0.00000000E+00  0.00000000E+00
  0.00000000E+00  0.00000000E+00  0.00000000E+00
  0.00000000E+00  0.00000000E+00  0.00000000E+00
  0.00000000E+00  0.00000000E+00  0.00000000E+00
  0.00000000E+00  0.00000000E+00  0.00000000E+00
  0.00000000E+00  0.00000000E+00  0.00000000E+00
  0.00000000E+00  0.00000000E+00  0.00000000E+00
  0.00000000E+00  0.00000000E+00  0.00000000E+00
  0.00000000E+00  0.00000000E+00  0.00000000E+00
  0.00000000E+00  0.00000000E+00  0.00000000E+00
  0.00000000E+00  0.00000000E+00  0.00000000E+00
  0.00000000E+00  0.00000000E+00  0.00000000E+00
  0.00000000E+00  0.00000000E+00  0.00000000E+00
  0.00000000E+00  0.00000000E+00  0.00000000E+00
  0.00000000E+00  0.00000000E+00  0.00000000E+00
  0.00000000E+00  0.00000000E+00  0.00000000E+00
  0.00000000E+00  0.00000000E+00  0.00000000E+00
  0.00000000E+00  0.00000000E+00  0.00000000E+00
  0.00000000E+00  0.00000000E+00  0.00000000E+00
  0.00000000E+00  0.00000000E+00  0.00000000E+00
  0.00000000E+00  0.00000000E+00  0.00000000E+00
  0.00000000E+00  0.00000000E+00  0.00000000E+00
  0.00000000E+00  0.00000000E+00  0.00000000E+00
  0.00000000E+00  0.00000000E+00  0.00000000E+00
  0.00000000E+00  0.00000000E+00  0.00000000E+00
  0.00000000E+00  0.00000000E+00  0.00000000E+00
  0.00000000E+00  0.00000000E+00  0.00000000E+00
  0.00000000E+00  0.00000000E+00  0.00000000E+00
  0.00000000E+00  0.00000000E+00  0.00000000E+00
  0.00000000E+00  0.00000000E+00  0.00000000E+00
  0.00000000E+00  0.00000000E+00  0.00000000E+00
  0.00000000E+00  0.00000000E+00  0.00000000E+00
  0.00000000E+00  0.00000000E+00  0.00000000E+00
  0.00000000E+00  0.00000000E+00  0.00000000E+00
  0.00000000E+00  0.00000000E+00  0.00000000E+00
  0.00000000E+00  0.00000000E+00  0.00000000E+00
  0.00000000E+00  0.00000000E+00  0.00000000E+00
  0.00000000E+00  0.00000000E+00  0.00000000E+00
  0.00000000E+00  0.00000000E+00  0.00000000E+00
  0.00000000E+00  0.00000000E+00  0.00000000E+00
  0.00000000E+00  0.00000000E+00  0.00000000E+00
  0.00000000E+00  0.00000000E+00  0.00000000E+00
  0.00000000E+00  0.00000000E+00  0.00000000E+00
  0.00000000E+00  0.00000000E+00  0.00000000E+00
  0.00000000E+00  0.00000000E+00  0.00000000E+00
  0.00000000E+00  0.00000000E+00  0.00000000E+00
  0.00000000E+00  0.00000000E+00  0.00000000E+00
  0.00000000E+00  0.00000000E+00  0.00000000E+00
  0.00000000E+00  0.00000000E+00  0.00000000E+00
  0.00000000E+00  0.00000000E+00  0.00000000E+00
  0.00000000E+00  0.00000000E+00  0.00000000E+00
  0.00000000E+00  0.00000000E+00  0.00000000E+00
  0.00000000E+00  0.00000000E+00  0.00000000E+00
  0.00000000E+00  0.00000000E+00  0.00000000E+00
  0.00000000E+00  0.00000000E+00  0.00000000E+00
  0.00000000E+00  0.00000000E+00  0.00000000E+00
  0.00000000E+00  0.00000000E+00  0.00000000E+00
  0.00000000E+00  0.00000000E+00  0.00000000E+00
  0.00000000E+00  0.00000000E+00  0.00000000E+00
  0.00000000E+00  0.00000000E+00  0.00000000E+00
  0.00000000E+00  0.00000000E+00  0.00000000E+00
  0.00000000E+00  0.00000000E+00  0.00000000E+00
  0.00000000E+00  0.00000000E+00  0.00000000E+00
  0.00000000E+00  0.00000000E+00  0.00000000E+00
  0.00000000E+00  0.00000000E+00  0.00000000E+00
  0.00000000E+00  0.00000000E+00  0.00000000E+00
  0.00000000E+00  0.00000000E+00  0.00000000E+00
  0.00000000E+00  0.00000000E+00  0.00000000E+00
  0.00000000E+00  0.00000000E+00  0.00000000E+00
  0.00000000E+00  0.00000000E+00  0.00000000E+00
  0.00000000E+00  0.00000000E+00  0.00000000E+00
  0.00000000E+00  0.00000000E+00  0.00000000E+00
  0.00000000E+00  0.00000000E+00  0.00000000E+00
  0.00000000E+00  0.00000000E+00  0.00000000E+00
  0.00000000E+00  0.00000000E+00  0.00000000E+00
  0.00000000E+00  0.00000000E+00  0.00000000E+00
  0.00000000E+00  0.00000000E+00  0.00000000E+00
  0.00000000E+00  0.00000000E+00  0.00000000E+00
  0.00000000E+00  0.00000000E+00  0.00000000E+00
  0.00000000E+00  0.00000000E+00  0.00000000E+00
  0.00000000E+00  0.00000000E+00  0.00000000E+00
  0.00000000E+00  0.00000000E+00  0.00000000E+00
  0.00000000E+00  0.00000000E+00  0.00000000E+00
  0.00000000E+00  0.00000000E+00  0.00000000E+00
  0.00000000E+00  0.00000000E+00  0.00000000E+00
  0.00000000E+00  0.00000000E+00  0.00000000E+00
  0.00000000E+00  0.00000000E+00  0.00000000E+00
  0.00000000E+00  0.00000000E+00  0.00000000E+00
  0.00000000E+00  0.00000000E+00  0.00000000E+00
