Co1 C126 O1                             
   1.00000000000000     
    19.7764442468518915   -0.0001871268551087   -0.0323098778287027
    -9.8883219522234782   17.0628340272851950    0.0699958108180959
    -0.0487030935796252    0.0941476767034433   29.8202009354451967
   Co   C    O 
     1   126     1
Direct
  0.4375956399248082  0.4999744305586518  0.4243255390849612
  0.0419797809809097  0.0838040282043337  0.3998843592486097
  0.0413702017892064  0.2081387461453161  0.3997965471887142
  0.0410756350416577  0.3328763514895812  0.3996146904694342
  0.0410889967513910  0.4581958054587005  0.3996567015217138
  0.0414655011452609  0.5834870110388977  0.3998580927627060
  0.0419036836845592  0.7087241488510969  0.3999173189740688
  0.0421333407749032  0.8339607181555948  0.3998766456697851
  0.0421398247314215  0.9589772592167805  0.3998498395912904
  0.1673380364011123  0.0845167288892128  0.4001707786634867
  0.1674672036260247  0.2096023141899366  0.4004132383788672
  0.1661624271877784  0.3332948501656645  0.4000913196388112
  0.1653598231311832  0.4582490467112308  0.3994456017603198
  0.1657896430690542  0.5833752947159709  0.3993117222775879
  0.1665667292002979  0.7087205492932256  0.3996561259940847
  0.1669124803764035  0.8339652631234955  0.3998560933282249
  0.1671757878912103  0.9592716731785274  0.3999571679793519
  0.2922733763463370  0.0845157170249706  0.4001243837767561
  0.2928229312764756  0.2105449150319032  0.4011005434178898
  0.2937380940470717  0.3367824558230410  0.4023429775334790
  0.2894145659397012  0.4579083777534336  0.4013774232717253
  0.2898354101785827  0.5836030184730063  0.3998363781353262
  0.2911084471918670  0.7085438228240903  0.3995907063835276
  0.2916186723268339  0.8336272562113436  0.3996541059637195
  0.2919267667373617  0.9589842158912489  0.3998141511002231
  0.4169163958833622  0.0838031273925779  0.3998595493569681
  0.4172248769660882  0.2096050995066321  0.4003195889712003
  0.4181531189626781  0.3367838288713187  0.4022241531469604
  0.4117613342163651  0.5805410512279892  0.4052798547164969
  0.4155449482114619  0.7064166298629786  0.4010889448561770
  0.4163024697702369  0.8325526259439116  0.3998697687083421
  0.4166074582118142  0.9581708382258114  0.3997312851647266
  0.5415577507266676  0.0828063604625839  0.3998079446207328
  0.5418471190425151  0.2081362662517492  0.3997765594701477
  0.5421896832472797  0.3332921351831004  0.3999426670515476
  0.5435484299077658  0.4578878667919710  0.4012101062353253
  0.5438358635103668  0.5804878694809332  0.4051572349809547
  0.5403644921624320  0.7056273123683710  0.4037718456370385
  0.5407533467040153  0.8315178475041805  0.4009061193858301
  0.5412979532700106  0.9573075512271600  0.3999062582419057
  0.6662713352600065  0.0823712638134637  0.3998690706515049
  0.6665350499108627  0.2076985178409601  0.3998378377064213
  0.6668658966772227  0.3328761566110856  0.3995720761749908
  0.6679520243443662  0.4582473611382767  0.3992818247905774
  0.6688088029440351  0.5835912676025927  0.3996900011889011
  0.6659241400943259  0.7063967098278852  0.4009621464565782
  0.6658608949827070  0.8315275468060719  0.4008410242103935
  0.6660356316065545  0.9569904686226636  0.4001367045525441
  0.7911734480811461  0.0823649500171371  0.3998386757822914
  0.7913102370324907  0.2075403611406230  0.3999108428113232
  0.7916319225156130  0.3328575978874824  0.3998841772508257
  0.7921796168547885  0.4582035822869983  0.3995863737077556
  0.7926342463110316  0.5833679553309423  0.3991947588436346
  0.7924782247781863  0.7085298244049980  0.3994931315017993
  0.7913112104969287  0.8325431772014440  0.3997875715668329
  0.7910860972856284  0.9573143020901114  0.3998470116747725
  0.9163314838506551  0.0828074683518523  0.3997529292390709
  0.9162380070946412  0.2076896097897247  0.3998027061115721
  0.9163028300793385  0.3328523933176228  0.3998923357988531
  0.9165744108640581  0.4580705593811771  0.3999547795849097
  0.9170993643164067  0.5834951986192323  0.3998340809345606
  0.9172117958658390  0.7087151449306504  0.3996465501693720
  0.9170753150185647  0.8336164220776752  0.3996414180479206
  0.9166405262051995  0.9581671449380735  0.3997032059321270
  0.0839001865890410  0.0424658965520095  0.3999596144966802
  0.0837734306502469  0.1672963900784623  0.3999787318283339
  0.0827664537996071  0.2913591581426473  0.3997164386730532
  0.0825492685086431  0.4165594853096195  0.3994848055951223
  0.0827610026293186  0.5416662526356362  0.3996139990342442
  0.0833345612304939  0.6670062753466652  0.3998342083500219
  0.0837057235932832  0.7923179113822201  0.3999227015503379
  0.0838183991609753  0.9174346127198447  0.3999082906925580
  0.2089023965290835  0.0427141907779287  0.4000794885367753
  0.2091089224391922  0.1680789847102844  0.4005678924079490
  0.2093413382456859  0.2933833694092982  0.4008167990314959
  0.2067275840794949  0.4163965196555566  0.3999899463955927
  0.2068763685965678  0.5416712851533205  0.3992672416674949
  0.2080003500929735  0.6670227154545145  0.3994365614873558
  0.2083919509623371  0.7921502930742577  0.3997178238980013
  0.2087053224217144  0.9174417748316941  0.3998830224008714
  0.3336612876188028  0.0424690876793647  0.3999093395015123
  0.3340498135490577  0.1680730591646906  0.4005076353672976
  0.3345216777186408  0.2939440314026669  0.4022899333413008
  0.3330652290051503  0.4197087366904597  0.4038432893711672
  0.3308646864761968  0.5419303257975940  0.4016418193258389
  0.3325104775670340  0.6665368295531735  0.4000727188404056
  0.3330396403596154  0.7917267902373766  0.3996565190223791
  0.3334134823498545  0.9170256698385373  0.3997223553129672
  0.4583336626497783  0.0416442154976053  0.3997785653976322
  0.4586091852741632  0.1672953898309117  0.3999210749255937
  0.4591214142152182  0.2933767018097484  0.4006730781807093
  0.4617187508326523  0.4197139671467767  0.4036950384843863
  0.4564939541273887  0.6629501051011601  0.4035008598575658
  0.4576249901355567  0.7901448708945367  0.4005601725460863
  0.4580420452197700  0.9160116068577082  0.3998051221068479
  0.5830539386677174  0.0408267475735187  0.3998323276930975
  0.5833006193377557  0.1662348962096161  0.3998027837268978
  0.5836643431530106  0.2913639432234589  0.3996383388053673
  0.5847335539111782  0.4163889803875591  0.3998095224331877
  0.5861125596538841  0.5419066622367197  0.4014833425197111
  0.5815260285770023  0.6629233603404430  0.4034020387482826
  0.5820046582333873  0.7888998419552635  0.4018674188549411
  0.5825928702065823  0.9151251761012276  0.4002410267956478
  0.7077786551899123  0.0404758062765822  0.3999151611689626
  0.7080350454273585  0.1658602502935551  0.3998774393641611
  0.7083478149920950  0.2911740203133419  0.3997764020971388
  0.7090773270304851  0.4165593979435940  0.3993833686279373
  0.7098394887297701  0.5416684859875431  0.3991194649406751
  0.7090622845495602  0.6665280245926652  0.3999392850698200
  0.7075831141057662  0.7901315528967316  0.4004573627114496
  0.7076259133015981  0.9151268887495192  0.4001952485927518
  0.8328536876547119  0.0408236204371875  0.3997858858560193
  0.8329081381047487  0.1658623277537572  0.3998505820271134
  0.8331273320490169  0.2911870781696209  0.3999467281717131
  0.8334881999117343  0.4163708041849645  0.3998623585645333
  0.8339724239248483  0.5416707933795024  0.3995354400466979
  0.8340664445559227  0.6670085541626918  0.3993654804207623
  0.8337410010783302  0.7917136807243139  0.3995868997949898
  0.8330378233334130  0.9160025389659410  0.3997475982085916
  0.9583962253940470  0.0416439930835395  0.3997495105693076
  0.9580113382213540  0.1662363835248186  0.3997595523943076
  0.9578935295750952  0.2911704213505502  0.3997745718103616
  0.9579561658958156  0.4163644488105191  0.3998867776437791
  0.9584209938776240  0.5417776450318996  0.3999495121312648
  0.9587565407482757  0.6670161689025704  0.3998332281004906
  0.9588361827153378  0.7921480209508687  0.3997351719196161
  0.9586884605414880  0.9170179249664017  0.3997277496114364
  0.4476329877085234  0.5205116650339505  0.4767307656028592
 
  0.00000000E+00  0.00000000E+00  0.00000000E+00
  0.00000000E+00  0.00000000E+00  0.00000000E+00
  0.00000000E+00  0.00000000E+00  0.00000000E+00
  0.00000000E+00  0.00000000E+00  0.00000000E+00
  0.00000000E+00  0.00000000E+00  0.00000000E+00
  0.00000000E+00  0.00000000E+00  0.00000000E+00
  0.00000000E+00  0.00000000E+00  0.00000000E+00
  0.00000000E+00  0.00000000E+00  0.00000000E+00
  0.00000000E+00  0.00000000E+00  0.00000000E+00
  0.00000000E+00  0.00000000E+00  0.00000000E+00
  0.00000000E+00  0.00000000E+00  0.00000000E+00
  0.00000000E+00  0.00000000E+00  0.00000000E+00
  0.00000000E+00  0.00000000E+00  0.00000000E+00
  0.00000000E+00  0.00000000E+00  0.00000000E+00
  0.00000000E+00  0.00000000E+00  0.00000000E+00
  0.00000000E+00  0.00000000E+00  0.00000000E+00
  0.00000000E+00  0.00000000E+00  0.00000000E+00
  0.00000000E+00  0.00000000E+00  0.00000000E+00
  0.00000000E+00  0.00000000E+00  0.00000000E+00
  0.00000000E+00  0.00000000E+00  0.00000000E+00
  0.00000000E+00  0.00000000E+00  0.00000000E+00
  0.00000000E+00  0.00000000E+00  0.00000000E+00
  0.00000000E+00  0.00000000E+00  0.00000000E+00
  0.00000000E+00  0.00000000E+00  0.00000000E+00
  0.00000000E+00  0.00000000E+00  0.00000000E+00
  0.00000000E+00  0.00000000E+00  0.00000000E+00
  0.00000000E+00  0.00000000E+00  0.00000000E+00
  0.00000000E+00  0.00000000E+00  0.00000000E+00
  0.00000000E+00  0.00000000E+00  0.00000000E+00
  0.00000000E+00  0.00000000E+00  0.00000000E+00
  0.00000000E+00  0.00000000E+00  0.00000000E+00
  0.00000000E+00  0.00000000E+00  0.00000000E+00
  0.00000000E+00  0.00000000E+00  0.00000000E+00
  0.00000000E+00  0.00000000E+00  0.00000000E+00
  0.00000000E+00  0.00000000E+00  0.00000000E+00
  0.00000000E+00  0.00000000E+00  0.00000000E+00
  0.00000000E+00  0.00000000E+00  0.00000000E+00
  0.00000000E+00  0.00000000E+00  0.00000000E+00
  0.00000000E+00  0.00000000E+00  0.00000000E+00
  0.00000000E+00  0.00000000E+00  0.00000000E+00
  0.00000000E+00  0.00000000E+00  0.00000000E+00
  0.00000000E+00  0.00000000E+00  0.00000000E+00
  0.00000000E+00  0.00000000E+00  0.00000000E+00
  0.00000000E+00  0.00000000E+00  0.00000000E+00
  0.00000000E+00  0.00000000E+00  0.00000000E+00
  0.00000000E+00  0.00000000E+00  0.00000000E+00
  0.00000000E+00  0.00000000E+00  0.00000000E+00
  0.00000000E+00  0.00000000E+00  0.00000000E+00
  0.00000000E+00  0.00000000E+00  0.00000000E+00
  0.00000000E+00  0.00000000E+00  0.00000000E+00
  0.00000000E+00  0.00000000E+00  0.00000000E+00
  0.00000000E+00  0.00000000E+00  0.00000000E+00
  0.00000000E+00  0.00000000E+00  0.00000000E+00
  0.00000000E+00  0.00000000E+00  0.00000000E+00
  0.00000000E+00  0.00000000E+00  0.00000000E+00
  0.00000000E+00  0.00000000E+00  0.00000000E+00
  0.00000000E+00  0.00000000E+00  0.00000000E+00
  0.00000000E+00  0.00000000E+00  0.00000000E+00
  0.00000000E+00  0.00000000E+00  0.00000000E+00
  0.00000000E+00  0.00000000E+00  0.00000000E+00
  0.00000000E+00  0.00000000E+00  0.00000000E+00
  0.00000000E+00  0.00000000E+00  0.00000000E+00
  0.00000000E+00  0.00000000E+00  0.00000000E+00
  0.00000000E+00  0.00000000E+00  0.00000000E+00
  0.00000000E+00  0.00000000E+00  0.00000000E+00
  0.00000000E+00  0.00000000E+00  0.00000000E+00
  0.00000000E+00  0.00000000E+00  0.00000000E+00
  0.00000000E+00  0.00000000E+00  0.00000000E+00
  0.00000000E+00  0.00000000E+00  0.00000000E+00
  0.00000000E+00  0.00000000E+00  0.00000000E+00
  0.00000000E+00  0.00000000E+00  0.00000000E+00
  0.00000000E+00  0.00000000E+00  0.00000000E+00
  0.00000000E+00  0.00000000E+00  0.00000000E+00
  0.00000000E+00  0.00000000E+00  0.00000000E+00
  0.00000000E+00  0.00000000E+00  0.00000000E+00
  0.00000000E+00  0.00000000E+00  0.00000000E+00
  0.00000000E+00  0.00000000E+00  0.00000000E+00
  0.00000000E+00  0.00000000E+00  0.00000000E+00
  0.00000000E+00  0.00000000E+00  0.00000000E+00
  0.00000000E+00  0.00000000E+00  0.00000000E+00
  0.00000000E+00  0.00000000E+00  0.00000000E+00
  0.00000000E+00  0.00000000E+00  0.00000000E+00
  0.00000000E+00  0.00000000E+00  0.00000000E+00
  0.00000000E+00  0.00000000E+00  0.00000000E+00
  0.00000000E+00  0.00000000E+00  0.00000000E+00
  0.00000000E+00  0.00000000E+00  0.00000000E+00
  0.00000000E+00  0.00000000E+00  0.00000000E+00
  0.00000000E+00  0.00000000E+00  0.00000000E+00
  0.00000000E+00  0.00000000E+00  0.00000000E+00
  0.00000000E+00  0.00000000E+00  0.00000000E+00
  0.00000000E+00  0.00000000E+00  0.00000000E+00
  0.00000000E+00  0.00000000E+00  0.00000000E+00
  0.00000000E+00  0.00000000E+00  0.00000000E+00
  0.00000000E+00  0.00000000E+00  0.00000000E+00
  0.00000000E+00  0.00000000E+00  0.00000000E+00
  0.00000000E+00  0.00000000E+00  0.00000000E+00
  0.00000000E+00  0.00000000E+00  0.00000000E+00
  0.00000000E+00  0.00000000E+00  0.00000000E+00
  0.00000000E+00  0.00000000E+00  0.00000000E+00
  0.00000000E+00  0.00000000E+00  0.00000000E+00
  0.00000000E+00  0.00000000E+00  0.00000000E+00
  0.00000000E+00  0.00000000E+00  0.00000000E+00
  0.00000000E+00  0.00000000E+00  0.00000000E+00
  0.00000000E+00  0.00000000E+00  0.00000000E+00
  0.00000000E+00  0.00000000E+00  0.00000000E+00
  0.00000000E+00  0.00000000E+00  0.00000000E+00
  0.00000000E+00  0.00000000E+00  0.00000000E+00
  0.00000000E+00  0.00000000E+00  0.00000000E+00
  0.00000000E+00  0.00000000E+00  0.00000000E+00
  0.00000000E+00  0.00000000E+00  0.00000000E+00
  0.00000000E+00  0.00000000E+00  0.00000000E+00
  0.00000000E+00  0.00000000E+00  0.00000000E+00
  0.00000000E+00  0.00000000E+00  0.00000000E+00
  0.00000000E+00  0.00000000E+00  0.00000000E+00
  0.00000000E+00  0.00000000E+00  0.00000000E+00
  0.00000000E+00  0.00000000E+00  0.00000000E+00
  0.00000000E+00  0.00000000E+00  0.00000000E+00
  0.00000000E+00  0.00000000E+00  0.00000000E+00
  0.00000000E+00  0.00000000E+00  0.00000000E+00
  0.00000000E+00  0.00000000E+00  0.00000000E+00
  0.00000000E+00  0.00000000E+00  0.00000000E+00
  0.00000000E+00  0.00000000E+00  0.00000000E+00
  0.00000000E+00  0.00000000E+00  0.00000000E+00
  0.00000000E+00  0.00000000E+00  0.00000000E+00
  0.00000000E+00  0.00000000E+00  0.00000000E+00
  0.00000000E+00  0.00000000E+00  0.00000000E+00
  0.00000000E+00  0.00000000E+00  0.00000000E+00
  0.00000000E+00  0.00000000E+00  0.00000000E+00
