Mn1 H1 C126                             
   1.00000000000000     
    19.7781356871656548    0.0029475218181164   -0.0008218672094460
    -9.8865162974092460   17.0717377770686163    0.1028392911206166
    -0.0012511569043078    0.1786483067194731   29.8000578135430949
   Mn   H    C 
     1     1   126
Direct
  0.4376424506370503  0.5004633589296726  0.4243033616369287
  0.4587918919563216  0.5313139249311564  0.4735614855633676
  0.0417223762815560  0.0835630738748505  0.3999663830805640
  0.0411090644870032  0.2079579906388030  0.3999544569378882
  0.0408527437620020  0.3327512493808434  0.3999079011421566
  0.0409344831263697  0.4580998704563387  0.3998127588125928
  0.0414114998598377  0.5833865605238232  0.3997482969111146
  0.0418687554553668  0.7086118337491656  0.3998599722535639
  0.0420822438574202  0.8338613191338605  0.3999110168890339
  0.0420441242482154  0.9588537238967022  0.3999249484109352
  0.1671240973493497  0.0842679131420269  0.4000496459704534
  0.1669077985828473  0.2090500661907877  0.4000712827610447
  0.1658092311171545  0.3330251733285209  0.4002322353432211
  0.1651669141820911  0.4580426453320221  0.4004031233939730
  0.1657702336940856  0.5832237577843151  0.3999430609172440
  0.1665340680285327  0.7085782401355473  0.3996893761233669
  0.1668736161992175  0.8338415628410382  0.3998417274002537
  0.1670839282142235  0.9591090647793749  0.3999641228256304
  0.2921323797922080  0.0842822284287656  0.4000267087272098
  0.2925361771179024  0.2101436488822619  0.4002803323850446
  0.2926660430833135  0.3357278277987279  0.4009823620065013
  0.2891960764913299  0.4573205274741120  0.4012991639641132
  0.2899612400586796  0.5833295108728959  0.4009146008144898
  0.2911403644204974  0.7083833129259431  0.4000290510929180
  0.2916013737129309  0.8335251597824498  0.3996641852770322
  0.2918432737172932  0.9588192685098709  0.3998341421748363
  0.4168071046564705  0.0836121348775289  0.3998962309826190
  0.4170738751682282  0.2092114825450091  0.4001438969089673
  0.4178291764855484  0.3358829373988874  0.4016307463515516
  0.4128999360325084  0.5808800092866592  0.4045394860568470
  0.4157562831559761  0.7067943258808729  0.4011842667431080
  0.4163145759822944  0.8326444089182815  0.3999001853612357
  0.4165556004639710  0.9581158420311341  0.3997480377386959
  0.5414635535002660  0.0827647274512908  0.3998165382755647
  0.5417573468433328  0.2080694571292574  0.3998652639084306
  0.5421487895184159  0.3332327967156725  0.4004457057949870
  0.5433595236655488  0.4577870078993755  0.4021977253800850
  0.5436198750408706  0.5813414258458295  0.4063457762492877
  0.5406346376585029  0.7060784786079389  0.4029363364298968
  0.5408576066317174  0.8317838036511627  0.4005019424408053
  0.5412537563461483  0.9573724890009909  0.3997442609544395
  0.6661866027633254  0.0824012275618707  0.3998492977814611
  0.6664365163707943  0.2076771600086143  0.3998337493545676
  0.6668217757665647  0.3328746960871378  0.3997538883708653
  0.6679208370069512  0.4582465337249656  0.4001907646520348
  0.6686590602130208  0.5835770133372097  0.4007778485586921
  0.6663946802404118  0.7070182799936322  0.4013832134119980
  0.6659864845255187  0.8318400954162474  0.4005629144407657
  0.6660265907727720  0.9571209617770291  0.3998482713931975
  0.7910758841570534  0.0824005377815335  0.3998460844191761
  0.7911702595338430  0.2075238340005810  0.3999439970424025
  0.7915348490148638  0.3328383851003239  0.3997668508804073
  0.7921477818587620  0.4581935950558689  0.3995922702615374
  0.7926315919728013  0.5833750244109320  0.3995747678994176
  0.7925063778536177  0.7085632243874324  0.3998085423956071
  0.7914825671675515  0.8327670348399173  0.3997508090552226
  0.7910852957108944  0.9574072462064156  0.3997074003441902
  0.9161921869802755  0.0827541526182041  0.3998216220160678
  0.9160610615554832  0.2076373214740141  0.3998496786992164
  0.9161542547086381  0.3327977999193809  0.3998090799971022
  0.9164851913168058  0.4580290507664931  0.3997736124348180
  0.9170503139929411  0.5834360034216555  0.3996789773534252
  0.9172228229557625  0.7086684515856915  0.3995654426638524
  0.9170826299954800  0.8336145370581544  0.3996186525261082
  0.9165855234532417  0.9581552475676052  0.3997142947175136
  0.0837137461086217  0.0422796608981719  0.4000033946226241
  0.0833509420920876  0.1669179334005770  0.4000017869699394
  0.0824318694937420  0.2911669623758221  0.3999883875624063
  0.0823252083194152  0.4163962365193629  0.3999920791138935
  0.0826696781187940  0.5415419897157192  0.3997861319380461
  0.0832929488178847  0.6668856671959330  0.3997653838032161
  0.0836432689065627  0.7921697286777308  0.3999576794433662
  0.0837207775201303  0.9172861096860063  0.3999571448945510
  0.2087624666250438  0.0425061318847897  0.4000244910329844
  0.2087850514196624  0.1677184026426217  0.4000944138428948
  0.2085590976668899  0.2926094967784817  0.4002851840430881
  0.2064000903525687  0.4161278006364811  0.4006159014299045
  0.2068693834594165  0.5415078210490434  0.4003940700260983
  0.2079728887923995  0.6668859678205523  0.3998186924548285
  0.2083545955164660  0.7920177167304492  0.3996925686429739
  0.2086211125325747  0.9172650271134369  0.3998691636341308
  0.3335462100350873  0.0422693249114647  0.3999328334018678
  0.3338952840024483  0.1677706129383199  0.4001468140895172
  0.3341031557389912  0.2933175844542907  0.4009573860287918
  0.3321684784495889  0.4183095021369425  0.4021796050337743
  0.3312495067654374  0.5419147691490273  0.4017095861353476
  0.3325924507949896  0.6664755018604092  0.4007346494958032
  0.3330401944508026  0.7916168999135614  0.3998036564471478
  0.3333532349739127  0.9168953955911087  0.3997382596091170
  0.4582609421405177  0.0415399110541907  0.3998266059190089
  0.4585090027425364  0.1670385472425854  0.3999275731814696
  0.4589489362805800  0.2928314481843737  0.4006553439827483
  0.4612597133482307  0.4186094079765729  0.4037622720061140
  0.4568537556191228  0.6637013950052743  0.4027425524392785
  0.4576920088994986  0.7903978904610780  0.4004842920907221
  0.4580177242635330  0.9160487134819236  0.3997309347038661
  0.5829822050132328  0.0408260010523903  0.3997736734722865
  0.5832176288434293  0.1661910396551628  0.3998300904320317
  0.5836202381723815  0.2913224161638177  0.3999221122084676
  0.5847401843804333  0.4164010490092481  0.4008536323748785
  0.5860965588869432  0.5422975304752391  0.4026715190144410
  0.5823366876200676  0.6639374345585428  0.4035182476344208
  0.5822163018462267  0.7893695104304981  0.4012722642182363
  0.5826286352294137  0.9152905993273345  0.3999211024688300
  0.7077194163987153  0.0405645227874412  0.3998174174929546
  0.7079270192780529  0.1658576524500032  0.3999142068275193
  0.7082842167025838  0.2911361767214814  0.3997471437860909
  0.7090507173520745  0.4165279032201153  0.3997302154108644
  0.7098263166570521  0.5417044792202960  0.4000063774214675
  0.7092167154313380  0.6667009863054700  0.4006602302165954
  0.7079022816343272  0.7905679370564630  0.4004517667940369
  0.7076354146312145  0.9153137933105550  0.3999330925309028
  0.8327705543600712  0.0408408770974329  0.3997564457426075
  0.8327681019380270  0.1658514810841707  0.3999028119669779
  0.8330115516131396  0.2911431276463584  0.3998669907072379
  0.8334281857524213  0.4163439758410744  0.3996968019213906
  0.8339652555334839  0.5416323762795757  0.3995534703735542
  0.8341285040546442  0.6670224311171317  0.3995384801118622
  0.8337761818170386  0.7917611929817036  0.3996504495393604
  0.8330938623267106  0.9161440488972175  0.3996363357808371
  0.9582266286725781  0.0415364839199125  0.3998461773223427
  0.9578036469376345  0.1661416667551721  0.3998840600586508
  0.9576688096404288  0.2910710883573641  0.3998156802352928
  0.9578190865736758  0.4163010679234491  0.3997877604733485
  0.9583628016271534  0.5416807728355518  0.3997671455949557
  0.9587464151675829  0.6669408979958725  0.3997126333308351
  0.9588169462287602  0.7920970020117399  0.3996858486796410
  0.9586479749616449  0.9169703649612163  0.3997498447759609
 
  0.00000000E+00  0.00000000E+00  0.00000000E+00
  0.00000000E+00  0.00000000E+00  0.00000000E+00
  0.00000000E+00  0.00000000E+00  0.00000000E+00
  0.00000000E+00  0.00000000E+00  0.00000000E+00
  0.00000000E+00  0.00000000E+00  0.00000000E+00
  0.00000000E+00  0.00000000E+00  0.00000000E+00
  0.00000000E+00  0.00000000E+00  0.00000000E+00
  0.00000000E+00  0.00000000E+00  0.00000000E+00
  0.00000000E+00  0.00000000E+00  0.00000000E+00
  0.00000000E+00  0.00000000E+00  0.00000000E+00
  0.00000000E+00  0.00000000E+00  0.00000000E+00
  0.00000000E+00  0.00000000E+00  0.00000000E+00
  0.00000000E+00  0.00000000E+00  0.00000000E+00
  0.00000000E+00  0.00000000E+00  0.00000000E+00
  0.00000000E+00  0.00000000E+00  0.00000000E+00
  0.00000000E+00  0.00000000E+00  0.00000000E+00
  0.00000000E+00  0.00000000E+00  0.00000000E+00
  0.00000000E+00  0.00000000E+00  0.00000000E+00
  0.00000000E+00  0.00000000E+00  0.00000000E+00
  0.00000000E+00  0.00000000E+00  0.00000000E+00
  0.00000000E+00  0.00000000E+00  0.00000000E+00
  0.00000000E+00  0.00000000E+00  0.00000000E+00
  0.00000000E+00  0.00000000E+00  0.00000000E+00
  0.00000000E+00  0.00000000E+00  0.00000000E+00
  0.00000000E+00  0.00000000E+00  0.00000000E+00
  0.00000000E+00  0.00000000E+00  0.00000000E+00
  0.00000000E+00  0.00000000E+00  0.00000000E+00
  0.00000000E+00  0.00000000E+00  0.00000000E+00
  0.00000000E+00  0.00000000E+00  0.00000000E+00
  0.00000000E+00  0.00000000E+00  0.00000000E+00
  0.00000000E+00  0.00000000E+00  0.00000000E+00
  0.00000000E+00  0.00000000E+00  0.00000000E+00
  0.00000000E+00  0.00000000E+00  0.00000000E+00
  0.00000000E+00  0.00000000E+00  0.00000000E+00
  0.00000000E+00  0.00000000E+00  0.00000000E+00
  0.00000000E+00  0.00000000E+00  0.00000000E+00
  0.00000000E+00  0.00000000E+00  0.00000000E+00
  0.00000000E+00  0.00000000E+00  0.00000000E+00
  0.00000000E+00  0.00000000E+00  0.00000000E+00
  0.00000000E+00  0.00000000E+00  0.00000000E+00
  0.00000000E+00  0.00000000E+00  0.00000000E+00
  0.00000000E+00  0.00000000E+00  0.00000000E+00
  0.00000000E+00  0.00000000E+00  0.00000000E+00
  0.00000000E+00  0.00000000E+00  0.00000000E+00
  0.00000000E+00  0.00000000E+00  0.00000000E+00
  0.00000000E+00  0.00000000E+00  0.00000000E+00
  0.00000000E+00  0.00000000E+00  0.00000000E+00
  0.00000000E+00  0.00000000E+00  0.00000000E+00
  0.00000000E+00  0.00000000E+00  0.00000000E+00
  0.00000000E+00  0.00000000E+00  0.00000000E+00
  0.00000000E+00  0.00000000E+00  0.00000000E+00
  0.00000000E+00  0.00000000E+00  0.00000000E+00
  0.00000000E+00  0.00000000E+00  0.00000000E+00
  0.00000000E+00  0.00000000E+00  0.00000000E+00
  0.00000000E+00  0.00000000E+00  0.00000000E+00
  0.00000000E+00  0.00000000E+00  0.00000000E+00
  0.00000000E+00  0.00000000E+00  0.00000000E+00
  0.00000000E+00  0.00000000E+00  0.00000000E+00
  0.00000000E+00  0.00000000E+00  0.00000000E+00
  0.00000000E+00  0.00000000E+00  0.00000000E+00
  0.00000000E+00  0.00000000E+00  0.00000000E+00
  0.00000000E+00  0.00000000E+00  0.00000000E+00
  0.00000000E+00  0.00000000E+00  0.00000000E+00
  0.00000000E+00  0.00000000E+00  0.00000000E+00
  0.00000000E+00  0.00000000E+00  0.00000000E+00
  0.00000000E+00  0.00000000E+00  0.00000000E+00
  0.00000000E+00  0.00000000E+00  0.00000000E+00
  0.00000000E+00  0.00000000E+00  0.00000000E+00
  0.00000000E+00  0.00000000E+00  0.00000000E+00
  0.00000000E+00  0.00000000E+00  0.00000000E+00
  0.00000000E+00  0.00000000E+00  0.00000000E+00
  0.00000000E+00  0.00000000E+00  0.00000000E+00
  0.00000000E+00  0.00000000E+00  0.00000000E+00
  0.00000000E+00  0.00000000E+00  0.00000000E+00
  0.00000000E+00  0.00000000E+00  0.00000000E+00
  0.00000000E+00  0.00000000E+00  0.00000000E+00
  0.00000000E+00  0.00000000E+00  0.00000000E+00
  0.00000000E+00  0.00000000E+00  0.00000000E+00
  0.00000000E+00  0.00000000E+00  0.00000000E+00
  0.00000000E+00  0.00000000E+00  0.00000000E+00
  0.00000000E+00  0.00000000E+00  0.00000000E+00
  0.00000000E+00  0.00000000E+00  0.00000000E+00
  0.00000000E+00  0.00000000E+00  0.00000000E+00
  0.00000000E+00  0.00000000E+00  0.00000000E+00
  0.00000000E+00  0.00000000E+00  0.00000000E+00
  0.00000000E+00  0.00000000E+00  0.00000000E+00
  0.00000000E+00  0.00000000E+00  0.00000000E+00
  0.00000000E+00  0.00000000E+00  0.00000000E+00
  0.00000000E+00  0.00000000E+00  0.00000000E+00
  0.00000000E+00  0.00000000E+00  0.00000000E+00
  0.00000000E+00  0.00000000E+00  0.00000000E+00
  0.00000000E+00  0.00000000E+00  0.00000000E+00
  0.00000000E+00  0.00000000E+00  0.00000000E+00
  0.00000000E+00  0.00000000E+00  0.00000000E+00
  0.00000000E+00  0.00000000E+00  0.00000000E+00
  0.00000000E+00  0.00000000E+00  0.00000000E+00
  0.00000000E+00  0.00000000E+00  0.00000000E+00
  0.00000000E+00  0.00000000E+00  0.00000000E+00
  0.00000000E+00  0.00000000E+00  0.00000000E+00
  0.00000000E+00  0.00000000E+00  0.00000000E+00
  0.00000000E+00  0.00000000E+00  0.00000000E+00
  0.00000000E+00  0.00000000E+00  0.00000000E+00
  0.00000000E+00  0.00000000E+00  0.00000000E+00
  0.00000000E+00  0.00000000E+00  0.00000000E+00
  0.00000000E+00  0.00000000E+00  0.00000000E+00
  0.00000000E+00  0.00000000E+00  0.00000000E+00
  0.00000000E+00  0.00000000E+00  0.00000000E+00
  0.00000000E+00  0.00000000E+00  0.00000000E+00
  0.00000000E+00  0.00000000E+00  0.00000000E+00
  0.00000000E+00  0.00000000E+00  0.00000000E+00
  0.00000000E+00  0.00000000E+00  0.00000000E+00
  0.00000000E+00  0.00000000E+00  0.00000000E+00
  0.00000000E+00  0.00000000E+00  0.00000000E+00
  0.00000000E+00  0.00000000E+00  0.00000000E+00
  0.00000000E+00  0.00000000E+00  0.00000000E+00
  0.00000000E+00  0.00000000E+00  0.00000000E+00
  0.00000000E+00  0.00000000E+00  0.00000000E+00
  0.00000000E+00  0.00000000E+00  0.00000000E+00
  0.00000000E+00  0.00000000E+00  0.00000000E+00
  0.00000000E+00  0.00000000E+00  0.00000000E+00
  0.00000000E+00  0.00000000E+00  0.00000000E+00
  0.00000000E+00  0.00000000E+00  0.00000000E+00
  0.00000000E+00  0.00000000E+00  0.00000000E+00
  0.00000000E+00  0.00000000E+00  0.00000000E+00
  0.00000000E+00  0.00000000E+00  0.00000000E+00
  0.00000000E+00  0.00000000E+00  0.00000000E+00
  0.00000000E+00  0.00000000E+00  0.00000000E+00
  0.00000000E+00  0.00000000E+00  0.00000000E+00
