Co1 H1 C122 N4                          
   1.00000000000000     
    19.7989958017910119   -0.0000981977890839    0.0054016651569351
    -9.8995824964077723   17.0002028422289477   -0.0027843223892920
     0.0081554448830788   -0.0001476613502163   29.8955188888247569
   Co   H    C    N 
     1     1   122     4
Direct
  0.4374875148356665  0.5000001655448543  0.4091508587459458
  0.4374680022598696  0.5000042574808674  0.4574840799291167
  0.0423793553462772  0.0845183488251848  0.3998308516198819
  0.0412491453447998  0.2083738576903471  0.4001465855232382
  0.0402796124760840  0.3328851972245701  0.3999252582778325
  0.0404545262089258  0.4581792382211773  0.3993709972316282
  0.0413131448945023  0.5837857216397069  0.3992522059796570
  0.0421693438545248  0.7093666818980040  0.3995615576591689
  0.0425478765539467  0.8346772260277078  0.3996730873443113
  0.0427003209577350  0.9599138576691217  0.3996579923158876
  0.1685431081515318  0.0864227986351409  0.4007237203051872
  0.1683293070969754  0.2113378985876011  0.4017335460027098
  0.1653757424187674  0.3340001028786332  0.4019670879986066
  0.1642417621698513  0.4584840338941305  0.4010717605143981
  0.1651931852729192  0.5836878718307972  0.3999564860318827
  0.1664169104319839  0.7091192530818304  0.3995725180634437
  0.1671183788745410  0.8346647362694952  0.3996444720488483
  0.1677337052667696  0.9604043870527832  0.3999046558388528
  0.2929265863159003  0.0864069932494473  0.4006755862331133
  0.2946821240713646  0.2143277814219076  0.4028416506121104
  0.2940734277898187  0.3407034302048260  0.4045972471116031
  0.2877258537831580  0.4583867966309398  0.4042806308342506
  0.2886060941744972  0.5829011662861063  0.4024983179856605
  0.2906173917350259  0.7082723286358998  0.4005591205113106
  0.2916913156321286  0.8339641309208830  0.3996190734896103
  0.2922684303913385  0.9598892949564970  0.3996316691707662
  0.4171905258592474  0.0844884976604590  0.3998367792556792
  0.4180333316936355  0.2112946435974337  0.4017552819897574
  0.4215942021235861  0.3406687111155833  0.4045996538148273
  0.4144388605060314  0.7047441608338474  0.4028618560352086
  0.4160670145511318  0.8317031536268118  0.4004631909540421
  0.4166925697405830  0.9581521681611918  0.3994196950416935
  0.5415154729785527  0.0824280348544306  0.3994888639270044
  0.5421407085726102  0.2083588649693411  0.4001824739451791
  0.5435796861576918  0.3339790574986097  0.4020116765550767
  0.5456214626824831  0.4583801448978804  0.4042396837069333
  0.5376668788794561  0.7003514003905593  0.4043956365033665
  0.5401986135552903  0.8293556431488156  0.4018449984271584
  0.5410243439704558  0.9562265466854925  0.4000277633103195
  0.6660318160063881  0.0816404678155536  0.3997550958799181
  0.6665237446868915  0.2072179885878285  0.3996214031508458
  0.6675415350149763  0.3328661371264090  0.3999619956180709
  0.6691965988811006  0.4584789091083294  0.4011025886557320
  0.6692642924153702  0.5829183723617959  0.4025304414304358
  0.6652994419821425  0.7047743083288509  0.4028813742657746
  0.6642308810263131  0.8293869086843415  0.4018410501430836
  0.6653965458989077  0.9557408227638433  0.4003964132537234
  0.7906691956916347  0.0816517331379174  0.3997286924233450
  0.7910314839199870  0.2070710417672572  0.3996880463316188
  0.7916662664310934  0.3325737438859235  0.3994977133224822
  0.7926395055879283  0.4581722439334541  0.3993762003377128
  0.7934321896784624  0.5836917002567432  0.3999635988348658
  0.7926564720943787  0.7083165065634560  0.4005947888238168
  0.7907004104162638  0.8317344289845039  0.4004728704467340
  0.7902646986869613  0.9562576637971745  0.3999910093296251
  0.9159803716406003  0.0824546009108005  0.3994493561715871
  0.9157115475318989  0.2072564266658929  0.3995859878472956
  0.9158589658018528  0.3325885408833713  0.3994510322460414
  0.9165618403141877  0.4581985642172768  0.3991663583241376
  0.9173879126058253  0.5837798077538991  0.3992897954209411
  0.9176771399840078  0.7091444084385827  0.3996138750643965
  0.9173238961479839  0.8340101216094737  0.3996673256887249
  0.9165403610326806  0.9581891789229289  0.3994353116418452
  0.0848022295621007  0.0437729311104604  0.4000199669816951
  0.0843629679311420  0.1682915390111006  0.4004607102921653
  0.0823366326801889  0.2917203994399529  0.4005607300452070
  0.0815073706675591  0.4163165206181603  0.3999522850238080
  0.0822822125469500  0.5418321794900720  0.3993692138076526
  0.0832793290627052  0.6674165487844590  0.3994533352815210
  0.0839557513555960  0.7929276323364647  0.3996880974785242
  0.0843915059142475  0.9183564985164026  0.3997555881644033
  0.2096610070778624  0.0442591372476642  0.4003945970062190
  0.2108374740793835  0.1706404883862973  0.4018461693390876
  0.2097024672081531  0.2952616631893079  0.4028639067779096
  0.2057105508729862  0.4170983941950439  0.4025068263275102
  0.2057574248141307  0.5415173918470870  0.4010755157448074
  0.2074037097736294  0.6671173033049911  0.3999167796363636
  0.2084528184281993  0.7927451021061955  0.3995884606175508
  0.2090192700216917  0.9183493435512702  0.3997239812607418
  0.3340118991139320  0.0437444259298871  0.3999938523973015
  0.3348399030935383  0.1706169494723895  0.4018439801943785
  0.3373138434315734  0.2996476525110836  0.4044003571937154
  0.3293374965553113  0.5416156727462678  0.4042698603872452
  0.3313749985012961  0.6659967373652478  0.4019762093317638
  0.3328723346618361  0.7916162969108456  0.4001449541961364
  0.3335220619814976  0.9175387190137059  0.3994521623358338
  0.4583561720926923  0.0418160613446545  0.3994344127809981
  0.4589694321097895  0.1682712863468794  0.4004777946695128
  0.4605248560318245  0.2952180484324032  0.4028846582467267
  0.4533693248880581  0.6593068536944315  0.4045880844981582
  0.4569915861840315  0.7886634731097786  0.4017338438500815
  0.4578554482945734  0.9154767282268708  0.3998349194563886
  0.5827861930498344  0.0400880470966953  0.3996657133649393
  0.5833179328216929  0.1659997775387509  0.3996740303283843
  0.5843365131858675  0.2916895952864849  0.4006012233097422
  0.5863528368628437  0.4170837194518739  0.4025291977191472
  0.5872366171465515  0.5416169833468203  0.4042448512565144
  0.5809154155167562  0.6593210235766733  0.4046001788128635
  0.5803628620725974  0.7856725777779445  0.4028385245224015
  0.5821167989999694  0.9135739063891535  0.4007272098841312
  0.7073274123679241  0.0395951406685668  0.3999078498040731
  0.7078748220314495  0.1653186200033829  0.3996676297679613
  0.7085276416781099  0.2908531943078358  0.3996162029418855
  0.7097385451763571  0.4163000794324745  0.3999701552378738
  0.7107143993850116  0.5415206761320306  0.4010968776963892
  0.7096061603881481  0.6660270640504109  0.4019937824368895
  0.7067388994715884  0.7887022546820575  0.4017501267635453
  0.7065190790599019  0.9135962650569454  0.4006742367669460
  0.8323777032015940  0.0401098892557954  0.3996292030613802
  0.8324622480551227  0.1653378039961027  0.3996493315666783
  0.8327989074116289  0.2906310918020978  0.3995652102284097
  0.8336061561103136  0.4162112156551956  0.3992874619074982
  0.8344630809609370  0.5418127752016417  0.3993789169670237
  0.8346832223438483  0.6671304110681149  0.3999636696553353
  0.8337918935627613  0.7916524809096828  0.4001809403286458
  0.8327027729011789  0.9155180760183228  0.3998345375361367
  0.9585433353841495  0.0418469285688801  0.3994233256884598
  0.9577248325056331  0.1660293827589925  0.3996144105971098
  0.9572930389159282  0.2908828176069207  0.3995727503489235
  0.9575292558379971  0.4162213657523068  0.3992589211012501
  0.9583676978862599  0.5418023737116116  0.3991648547267559
  0.9590949192836717  0.6674195721353016  0.3994919402044061
  0.9593031066740281  0.7927807221134273  0.3996175400165924
  0.9590930185405213  0.9175809351272903  0.3994817150598422
  0.4095400119422408  0.5781302894881932  0.4054136251185270
  0.5435621646843529  0.5781401480527819  0.4053807940216174
  0.3314213463536149  0.4218793447710354  0.4054031097671924
  0.4654241282356679  0.4218482622642838  0.4053978026628755
 
  0.00000000E+00  0.00000000E+00  0.00000000E+00
  0.00000000E+00  0.00000000E+00  0.00000000E+00
  0.00000000E+00  0.00000000E+00  0.00000000E+00
  0.00000000E+00  0.00000000E+00  0.00000000E+00
  0.00000000E+00  0.00000000E+00  0.00000000E+00
  0.00000000E+00  0.00000000E+00  0.00000000E+00
  0.00000000E+00  0.00000000E+00  0.00000000E+00
  0.00000000E+00  0.00000000E+00  0.00000000E+00
  0.00000000E+00  0.00000000E+00  0.00000000E+00
  0.00000000E+00  0.00000000E+00  0.00000000E+00
  0.00000000E+00  0.00000000E+00  0.00000000E+00
  0.00000000E+00  0.00000000E+00  0.00000000E+00
  0.00000000E+00  0.00000000E+00  0.00000000E+00
  0.00000000E+00  0.00000000E+00  0.00000000E+00
  0.00000000E+00  0.00000000E+00  0.00000000E+00
  0.00000000E+00  0.00000000E+00  0.00000000E+00
  0.00000000E+00  0.00000000E+00  0.00000000E+00
  0.00000000E+00  0.00000000E+00  0.00000000E+00
  0.00000000E+00  0.00000000E+00  0.00000000E+00
  0.00000000E+00  0.00000000E+00  0.00000000E+00
  0.00000000E+00  0.00000000E+00  0.00000000E+00
  0.00000000E+00  0.00000000E+00  0.00000000E+00
  0.00000000E+00  0.00000000E+00  0.00000000E+00
  0.00000000E+00  0.00000000E+00  0.00000000E+00
  0.00000000E+00  0.00000000E+00  0.00000000E+00
  0.00000000E+00  0.00000000E+00  0.00000000E+00
  0.00000000E+00  0.00000000E+00  0.00000000E+00
  0.00000000E+00  0.00000000E+00  0.00000000E+00
  0.00000000E+00  0.00000000E+00  0.00000000E+00
  0.00000000E+00  0.00000000E+00  0.00000000E+00
  0.00000000E+00  0.00000000E+00  0.00000000E+00
  0.00000000E+00  0.00000000E+00  0.00000000E+00
  0.00000000E+00  0.00000000E+00  0.00000000E+00
  0.00000000E+00  0.00000000E+00  0.00000000E+00
  0.00000000E+00  0.00000000E+00  0.00000000E+00
  0.00000000E+00  0.00000000E+00  0.00000000E+00
  0.00000000E+00  0.00000000E+00  0.00000000E+00
  0.00000000E+00  0.00000000E+00  0.00000000E+00
  0.00000000E+00  0.00000000E+00  0.00000000E+00
  0.00000000E+00  0.00000000E+00  0.00000000E+00
  0.00000000E+00  0.00000000E+00  0.00000000E+00
  0.00000000E+00  0.00000000E+00  0.00000000E+00
  0.00000000E+00  0.00000000E+00  0.00000000E+00
  0.00000000E+00  0.00000000E+00  0.00000000E+00
  0.00000000E+00  0.00000000E+00  0.00000000E+00
  0.00000000E+00  0.00000000E+00  0.00000000E+00
  0.00000000E+00  0.00000000E+00  0.00000000E+00
  0.00000000E+00  0.00000000E+00  0.00000000E+00
  0.00000000E+00  0.00000000E+00  0.00000000E+00
  0.00000000E+00  0.00000000E+00  0.00000000E+00
  0.00000000E+00  0.00000000E+00  0.00000000E+00
  0.00000000E+00  0.00000000E+00  0.00000000E+00
  0.00000000E+00  0.00000000E+00  0.00000000E+00
  0.00000000E+00  0.00000000E+00  0.00000000E+00
  0.00000000E+00  0.00000000E+00  0.00000000E+00
  0.00000000E+00  0.00000000E+00  0.00000000E+00
  0.00000000E+00  0.00000000E+00  0.00000000E+00
  0.00000000E+00  0.00000000E+00  0.00000000E+00
  0.00000000E+00  0.00000000E+00  0.00000000E+00
  0.00000000E+00  0.00000000E+00  0.00000000E+00
  0.00000000E+00  0.00000000E+00  0.00000000E+00
  0.00000000E+00  0.00000000E+00  0.00000000E+00
  0.00000000E+00  0.00000000E+00  0.00000000E+00
  0.00000000E+00  0.00000000E+00  0.00000000E+00
  0.00000000E+00  0.00000000E+00  0.00000000E+00
  0.00000000E+00  0.00000000E+00  0.00000000E+00
  0.00000000E+00  0.00000000E+00  0.00000000E+00
  0.00000000E+00  0.00000000E+00  0.00000000E+00
  0.00000000E+00  0.00000000E+00  0.00000000E+00
  0.00000000E+00  0.00000000E+00  0.00000000E+00
  0.00000000E+00  0.00000000E+00  0.00000000E+00
  0.00000000E+00  0.00000000E+00  0.00000000E+00
  0.00000000E+00  0.00000000E+00  0.00000000E+00
  0.00000000E+00  0.00000000E+00  0.00000000E+00
  0.00000000E+00  0.00000000E+00  0.00000000E+00
  0.00000000E+00  0.00000000E+00  0.00000000E+00
  0.00000000E+00  0.00000000E+00  0.00000000E+00
  0.00000000E+00  0.00000000E+00  0.00000000E+00
  0.00000000E+00  0.00000000E+00  0.00000000E+00
  0.00000000E+00  0.00000000E+00  0.00000000E+00
  0.00000000E+00  0.00000000E+00  0.00000000E+00
  0.00000000E+00  0.00000000E+00  0.00000000E+00
  0.00000000E+00  0.00000000E+00  0.00000000E+00
  0.00000000E+00  0.00000000E+00  0.00000000E+00
  0.00000000E+00  0.00000000E+00  0.00000000E+00
  0.00000000E+00  0.00000000E+00  0.00000000E+00
  0.00000000E+00  0.00000000E+00  0.00000000E+00
  0.00000000E+00  0.00000000E+00  0.00000000E+00
  0.00000000E+00  0.00000000E+00  0.00000000E+00
  0.00000000E+00  0.00000000E+00  0.00000000E+00
  0.00000000E+00  0.00000000E+00  0.00000000E+00
  0.00000000E+00  0.00000000E+00  0.00000000E+00
  0.00000000E+00  0.00000000E+00  0.00000000E+00
  0.00000000E+00  0.00000000E+00  0.00000000E+00
  0.00000000E+00  0.00000000E+00  0.00000000E+00
  0.00000000E+00  0.00000000E+00  0.00000000E+00
  0.00000000E+00  0.00000000E+00  0.00000000E+00
  0.00000000E+00  0.00000000E+00  0.00000000E+00
  0.00000000E+00  0.00000000E+00  0.00000000E+00
  0.00000000E+00  0.00000000E+00  0.00000000E+00
  0.00000000E+00  0.00000000E+00  0.00000000E+00
  0.00000000E+00  0.00000000E+00  0.00000000E+00
  0.00000000E+00  0.00000000E+00  0.00000000E+00
  0.00000000E+00  0.00000000E+00  0.00000000E+00
  0.00000000E+00  0.00000000E+00  0.00000000E+00
  0.00000000E+00  0.00000000E+00  0.00000000E+00
  0.00000000E+00  0.00000000E+00  0.00000000E+00
  0.00000000E+00  0.00000000E+00  0.00000000E+00
  0.00000000E+00  0.00000000E+00  0.00000000E+00
  0.00000000E+00  0.00000000E+00  0.00000000E+00
  0.00000000E+00  0.00000000E+00  0.00000000E+00
  0.00000000E+00  0.00000000E+00  0.00000000E+00
  0.00000000E+00  0.00000000E+00  0.00000000E+00
  0.00000000E+00  0.00000000E+00  0.00000000E+00
  0.00000000E+00  0.00000000E+00  0.00000000E+00
  0.00000000E+00  0.00000000E+00  0.00000000E+00
  0.00000000E+00  0.00000000E+00  0.00000000E+00
  0.00000000E+00  0.00000000E+00  0.00000000E+00
  0.00000000E+00  0.00000000E+00  0.00000000E+00
  0.00000000E+00  0.00000000E+00  0.00000000E+00
  0.00000000E+00  0.00000000E+00  0.00000000E+00
  0.00000000E+00  0.00000000E+00  0.00000000E+00
  0.00000000E+00  0.00000000E+00  0.00000000E+00
  0.00000000E+00  0.00000000E+00  0.00000000E+00
  0.00000000E+00  0.00000000E+00  0.00000000E+00
  0.00000000E+00  0.00000000E+00  0.00000000E+00
  0.00000000E+00  0.00000000E+00  0.00000000E+00
  0.00000000E+00  0.00000000E+00  0.00000000E+00
