Co1 H1 C124 N2                          
   1.00000000000000     
    19.8209645296571857   -0.0049003540596168    0.0158897343735117
    -9.9149442513477286   17.0335334547921811   -0.0054044251537674
     0.0242691295230308    0.0043107786573187   29.8081741673151797
   Co   H    C    N 
     1     1   124     2
Direct
  0.4374993752544843  0.4999995954167756  0.4068007982498564
  0.4374652391671868  0.5001586395814728  0.4548482714325709
  0.0421423175980359  0.0843106749918270  0.4002574135947739
  0.0409623563948782  0.2082099213007571  0.4003777609001961
  0.0401851234532069  0.3326913705445431  0.3999692118777958
  0.0402540010547369  0.4582486405557099  0.3994123136909310
  0.0412316982947366  0.5838252658479781  0.3991191102937734
  0.0420809890869048  0.7093278230940474  0.3990602041676087
  0.0425129011738779  0.8347527964170203  0.3993288941207276
  0.0427198730398127  0.9599302710187309  0.3998533089001856
  0.1683316940568075  0.0862494338788376  0.4008106138219060
  0.1675814038908396  0.2105784718031988  0.4020703924356668
  0.1652748612046056  0.3338777037551284  0.4024206723135555
  0.1636503472548531  0.4583359871813470  0.4011761314489621
  0.1649341031548863  0.5836810549813648  0.3999984872267385
  0.1662866764201186  0.7092803487755265  0.3994041418329599
  0.1671250128004932  0.8348284369731792  0.3992945587621591
  0.1677647328735805  0.9604973737065310  0.3997431928735056
  0.2930121354216635  0.0860580533543417  0.4007913550228547
  0.2948195025312423  0.2136576113921362  0.4030987363109604
  0.2930030057739885  0.3386108556070183  0.4053572826418303
  0.2870559450139513  0.4586334989968673  0.4048814113286093
  0.2883906408703387  0.5841294478158384  0.4025894015078978
  0.2903935099489578  0.7089560245301018  0.4006744464259457
  0.2915672732467863  0.8342335135520264  0.3997909923672494
  0.2921927405261266  0.9598926817669521  0.3998011259622965
  0.4172661168865247  0.0842670755223044  0.4003213410469793
  0.4180342089010288  0.2105010196271589  0.4021497908522697
  0.4218031838576455  0.3395337172259758  0.4050186486197774
  0.4143750758002244  0.7056665075700915  0.4031878824050614
  0.4158905293634584  0.8322376431937439  0.4008030096783948
  0.4165703318300393  0.9582361226497588  0.3999700338463942
  0.5415432609800286  0.0823210342302303  0.3998688211116815
  0.5422828995593411  0.2078460134754349  0.4004789757107334
  0.5436408667515333  0.3330645497612489  0.4024130076545399
  0.5456405447205330  0.4568003539434174  0.4048419682869277
  0.5433558329191481  0.5781724802006808  0.4068232904560301
  0.5381552303070070  0.7020799298776008  0.4048742803252005
  0.5398992243106479  0.8300398704485287  0.4020669564185795
  0.5409702137082546  0.9564530943914010  0.4002299924066481
  0.6659376491357691  0.0815124572058386  0.3995779433669234
  0.6666554090349056  0.2071429602270728  0.3995028824976918
  0.6676089689162927  0.3325689998807038  0.4000280405758503
  0.6694825851190378  0.4581468867340914  0.4013891041701963
  0.6700400115780705  0.5829571776631617  0.4031000752353353
  0.6659621861953973  0.7057021433221589  0.4036631585135657
  0.6646120468120124  0.8297365855105348  0.4021802062186764
  0.6653965293621118  0.9558069726445365  0.4003970562846706
  0.7906634455333886  0.0815157372182862  0.3995645059103377
  0.7909985834738060  0.2068881814839175  0.3990935090415180
  0.7917934439695695  0.3324979222964549  0.3991660158110453
  0.7928914938572583  0.4581425134124203  0.3994486513123903
  0.7936896881909132  0.5835114204849109  0.4001205189268516
  0.7928386608187916  0.7083906872219320  0.4009726162340866
  0.7912451145465658  0.8321925575363177  0.4009437831766506
  0.7903789102427305  0.9563316618809966  0.4002578185894420
  0.9159789428674957  0.0824450839601865  0.3998351228505634
  0.9156629588874213  0.2072264634334548  0.3994887180098053
  0.9158747156541132  0.3325152877296241  0.3991479857864468
  0.9165158415420444  0.4580602106190211  0.3990376646031206
  0.9175224463469099  0.5837815419957180  0.3991480053453247
  0.9177307718313202  0.7092112086798646  0.3994871328189605
  0.9173813132615606  0.8339813113101495  0.3999018568298293
  0.9166352665367100  0.9582005739281949  0.4000222621079209
  0.0846430420408142  0.0436468385598690  0.4002397070177031
  0.0837374497697707  0.1677660450576786  0.4007890308343103
  0.0821377965815770  0.2915915792964603  0.4008118696903183
  0.0812597053327582  0.4164641740746158  0.4000251580418733
  0.0820717134273283  0.5418471397678157  0.3994019136129784
  0.0831930520978482  0.6674749437072020  0.3991394545529761
  0.0839893875832754  0.7930861062092701  0.3991141294854379
  0.0843566795049392  0.9184446780923669  0.3996036325050353
  0.2096280839061920  0.0441741980319927  0.4003830863882600
  0.2103771752054879  0.1702639197860421  0.4020825148745568
  0.2089939278485368  0.2942876065498237  0.4034169149575311
  0.2049444959566311  0.4170550727595193  0.4028037796747817
  0.2055086175509603  0.5418450237484277  0.4011576382794509
  0.2073705406124325  0.6674202675769365  0.3999160527440371
  0.2083427498716725  0.7928425988720411  0.3994691671033035
  0.2090935910768883  0.9184737142353065  0.3995766446574179
  0.3340404904267272  0.0435305776609130  0.4002314617503525
  0.3350919806329252  0.1699489123415061  0.4020684669760722
  0.3368052171014627  0.2979082135237111  0.4048234831589222
  0.3316087742182480  0.4218172878099427  0.4065580360928464
  0.3293413217983684  0.5431922880024965  0.4045401000741923
  0.3313361963479390  0.6669269111649846  0.4021577233895823
  0.3327107553654315  0.7921338366218106  0.4003481596056437
  0.3334941607648974  0.9176679022794899  0.3998282293794639
  0.4584579949322416  0.0417505265633370  0.4000006534860412
  0.4591129368431172  0.1677563820233038  0.4009110934577688
  0.4606039696090615  0.2943280662892035  0.4033801784689865
  0.4531600926011630  0.6604629797484268  0.4048859301516989
  0.4569473139159686  0.7894902833920080  0.4020526587750557
  0.4577520427988362  0.9157090493198196  0.4002599583274990
  0.5828391356642798  0.0400867027899898  0.3998255478474647
  0.5834274472685246  0.1657544044231326  0.3998566300621981
  0.5845759864055154  0.2910299191600881  0.4008495671991408
  0.5865905204387772  0.4158521335187051  0.4028764698709489
  0.5879184034880897  0.5413599310476201  0.4051990767826542
  0.5819429107171242  0.6613786789681744  0.4055755038885269
  0.5801576091126387  0.7863329572706355  0.4031539861792409
  0.5820007721427913  0.9139305470189466  0.4008052286737581
  0.7072642503748919  0.0394789887526735  0.3997314235398664
  0.7078620763225224  0.1651473752166081  0.3992858483998485
  0.7086978129878121  0.2907107980047437  0.3994604722873434
  0.7100273226913761  0.4163084928940830  0.4001209640727606
  0.7113116264956704  0.5416412156012239  0.4013963700702985
  0.7096862310833553  0.6661121518374453  0.4026778388589329
  0.7073965626739148  0.7894105197216009  0.4022448569728739
  0.7066867190989847  0.9137415262384289  0.4008446754106828
  0.8323212410571532  0.0400476581861243  0.3998125713279319
  0.8324728780704528  0.1652118396858411  0.3992903969367631
  0.8329157877383474  0.2906464837394973  0.3990479773807396
  0.8337150960273431  0.4161463957139676  0.3991440657657245
  0.8346882381947259  0.5417216877744767  0.3994458496111436
  0.8347606191027048  0.6672697318953221  0.4000611012715128
  0.8340289205201601  0.7917674770146271  0.4005254492509631
  0.8328864672137657  0.9156604501851608  0.4003463698368194
  0.9583991225041893  0.0417766108610872  0.3999830566314156
  0.9576146085526347  0.1659966567170900  0.3997937615061183
  0.9572354360374690  0.2907612316887625  0.3994318694400654
  0.9574294612475754  0.4161970226638808  0.3991252708542961
  0.9584413642357792  0.5419155797283544  0.3990386345071834
  0.9590997293434408  0.6674609435799582  0.3991834536658936
  0.9593159521012102  0.7927476468577922  0.3995521984716070
  0.9590509296492811  0.9175382805141189  0.3999078867140191
  0.4085535967259915  0.5793036967931520  0.4056670184184797
  0.4664179458712610  0.4206826855339487  0.4058729182307435
 
  0.00000000E+00  0.00000000E+00  0.00000000E+00
  0.00000000E+00  0.00000000E+00  0.00000000E+00
  0.00000000E+00  0.00000000E+00  0.00000000E+00
  0.00000000E+00  0.00000000E+00  0.00000000E+00
  0.00000000E+00  0.00000000E+00  0.00000000E+00
  0.00000000E+00  0.00000000E+00  0.00000000E+00
  0.00000000E+00  0.00000000E+00  0.00000000E+00
  0.00000000E+00  0.00000000E+00  0.00000000E+00
  0.00000000E+00  0.00000000E+00  0.00000000E+00
  0.00000000E+00  0.00000000E+00  0.00000000E+00
  0.00000000E+00  0.00000000E+00  0.00000000E+00
  0.00000000E+00  0.00000000E+00  0.00000000E+00
  0.00000000E+00  0.00000000E+00  0.00000000E+00
  0.00000000E+00  0.00000000E+00  0.00000000E+00
  0.00000000E+00  0.00000000E+00  0.00000000E+00
  0.00000000E+00  0.00000000E+00  0.00000000E+00
  0.00000000E+00  0.00000000E+00  0.00000000E+00
  0.00000000E+00  0.00000000E+00  0.00000000E+00
  0.00000000E+00  0.00000000E+00  0.00000000E+00
  0.00000000E+00  0.00000000E+00  0.00000000E+00
  0.00000000E+00  0.00000000E+00  0.00000000E+00
  0.00000000E+00  0.00000000E+00  0.00000000E+00
  0.00000000E+00  0.00000000E+00  0.00000000E+00
  0.00000000E+00  0.00000000E+00  0.00000000E+00
  0.00000000E+00  0.00000000E+00  0.00000000E+00
  0.00000000E+00  0.00000000E+00  0.00000000E+00
  0.00000000E+00  0.00000000E+00  0.00000000E+00
  0.00000000E+00  0.00000000E+00  0.00000000E+00
  0.00000000E+00  0.00000000E+00  0.00000000E+00
  0.00000000E+00  0.00000000E+00  0.00000000E+00
  0.00000000E+00  0.00000000E+00  0.00000000E+00
  0.00000000E+00  0.00000000E+00  0.00000000E+00
  0.00000000E+00  0.00000000E+00  0.00000000E+00
  0.00000000E+00  0.00000000E+00  0.00000000E+00
  0.00000000E+00  0.00000000E+00  0.00000000E+00
  0.00000000E+00  0.00000000E+00  0.00000000E+00
  0.00000000E+00  0.00000000E+00  0.00000000E+00
  0.00000000E+00  0.00000000E+00  0.00000000E+00
  0.00000000E+00  0.00000000E+00  0.00000000E+00
  0.00000000E+00  0.00000000E+00  0.00000000E+00
  0.00000000E+00  0.00000000E+00  0.00000000E+00
  0.00000000E+00  0.00000000E+00  0.00000000E+00
  0.00000000E+00  0.00000000E+00  0.00000000E+00
  0.00000000E+00  0.00000000E+00  0.00000000E+00
  0.00000000E+00  0.00000000E+00  0.00000000E+00
  0.00000000E+00  0.00000000E+00  0.00000000E+00
  0.00000000E+00  0.00000000E+00  0.00000000E+00
  0.00000000E+00  0.00000000E+00  0.00000000E+00
  0.00000000E+00  0.00000000E+00  0.00000000E+00
  0.00000000E+00  0.00000000E+00  0.00000000E+00
  0.00000000E+00  0.00000000E+00  0.00000000E+00
  0.00000000E+00  0.00000000E+00  0.00000000E+00
  0.00000000E+00  0.00000000E+00  0.00000000E+00
  0.00000000E+00  0.00000000E+00  0.00000000E+00
  0.00000000E+00  0.00000000E+00  0.00000000E+00
  0.00000000E+00  0.00000000E+00  0.00000000E+00
  0.00000000E+00  0.00000000E+00  0.00000000E+00
  0.00000000E+00  0.00000000E+00  0.00000000E+00
  0.00000000E+00  0.00000000E+00  0.00000000E+00
  0.00000000E+00  0.00000000E+00  0.00000000E+00
  0.00000000E+00  0.00000000E+00  0.00000000E+00
  0.00000000E+00  0.00000000E+00  0.00000000E+00
  0.00000000E+00  0.00000000E+00  0.00000000E+00
  0.00000000E+00  0.00000000E+00  0.00000000E+00
  0.00000000E+00  0.00000000E+00  0.00000000E+00
  0.00000000E+00  0.00000000E+00  0.00000000E+00
  0.00000000E+00  0.00000000E+00  0.00000000E+00
  0.00000000E+00  0.00000000E+00  0.00000000E+00
  0.00000000E+00  0.00000000E+00  0.00000000E+00
  0.00000000E+00  0.00000000E+00  0.00000000E+00
  0.00000000E+00  0.00000000E+00  0.00000000E+00
  0.00000000E+00  0.00000000E+00  0.00000000E+00
  0.00000000E+00  0.00000000E+00  0.00000000E+00
  0.00000000E+00  0.00000000E+00  0.00000000E+00
  0.00000000E+00  0.00000000E+00  0.00000000E+00
  0.00000000E+00  0.00000000E+00  0.00000000E+00
  0.00000000E+00  0.00000000E+00  0.00000000E+00
  0.00000000E+00  0.00000000E+00  0.00000000E+00
  0.00000000E+00  0.00000000E+00  0.00000000E+00
  0.00000000E+00  0.00000000E+00  0.00000000E+00
  0.00000000E+00  0.00000000E+00  0.00000000E+00
  0.00000000E+00  0.00000000E+00  0.00000000E+00
  0.00000000E+00  0.00000000E+00  0.00000000E+00
  0.00000000E+00  0.00000000E+00  0.00000000E+00
  0.00000000E+00  0.00000000E+00  0.00000000E+00
  0.00000000E+00  0.00000000E+00  0.00000000E+00
  0.00000000E+00  0.00000000E+00  0.00000000E+00
  0.00000000E+00  0.00000000E+00  0.00000000E+00
  0.00000000E+00  0.00000000E+00  0.00000000E+00
  0.00000000E+00  0.00000000E+00  0.00000000E+00
  0.00000000E+00  0.00000000E+00  0.00000000E+00
  0.00000000E+00  0.00000000E+00  0.00000000E+00
  0.00000000E+00  0.00000000E+00  0.00000000E+00
  0.00000000E+00  0.00000000E+00  0.00000000E+00
  0.00000000E+00  0.00000000E+00  0.00000000E+00
  0.00000000E+00  0.00000000E+00  0.00000000E+00
  0.00000000E+00  0.00000000E+00  0.00000000E+00
  0.00000000E+00  0.00000000E+00  0.00000000E+00
  0.00000000E+00  0.00000000E+00  0.00000000E+00
  0.00000000E+00  0.00000000E+00  0.00000000E+00
  0.00000000E+00  0.00000000E+00  0.00000000E+00
  0.00000000E+00  0.00000000E+00  0.00000000E+00
  0.00000000E+00  0.00000000E+00  0.00000000E+00
  0.00000000E+00  0.00000000E+00  0.00000000E+00
  0.00000000E+00  0.00000000E+00  0.00000000E+00
  0.00000000E+00  0.00000000E+00  0.00000000E+00
  0.00000000E+00  0.00000000E+00  0.00000000E+00
  0.00000000E+00  0.00000000E+00  0.00000000E+00
  0.00000000E+00  0.00000000E+00  0.00000000E+00
  0.00000000E+00  0.00000000E+00  0.00000000E+00
  0.00000000E+00  0.00000000E+00  0.00000000E+00
  0.00000000E+00  0.00000000E+00  0.00000000E+00
  0.00000000E+00  0.00000000E+00  0.00000000E+00
  0.00000000E+00  0.00000000E+00  0.00000000E+00
  0.00000000E+00  0.00000000E+00  0.00000000E+00
  0.00000000E+00  0.00000000E+00  0.00000000E+00
  0.00000000E+00  0.00000000E+00  0.00000000E+00
  0.00000000E+00  0.00000000E+00  0.00000000E+00
  0.00000000E+00  0.00000000E+00  0.00000000E+00
  0.00000000E+00  0.00000000E+00  0.00000000E+00
  0.00000000E+00  0.00000000E+00  0.00000000E+00
  0.00000000E+00  0.00000000E+00  0.00000000E+00
  0.00000000E+00  0.00000000E+00  0.00000000E+00
  0.00000000E+00  0.00000000E+00  0.00000000E+00
  0.00000000E+00  0.00000000E+00  0.00000000E+00
  0.00000000E+00  0.00000000E+00  0.00000000E+00
  0.00000000E+00  0.00000000E+00  0.00000000E+00
  0.00000000E+00  0.00000000E+00  0.00000000E+00
