Nb1 C123 N3                             
   1.00000000000000     
    19.8089064614835060    0.0105634481916704    0.0043668418228547
    -9.8952722477933488   17.0331358664678092   -0.0044280419181503
     0.0066314890938144   -0.0039802830270256   29.8134649651514927
   Nb   C    N 
     1   123     3
Direct
  0.4378771483485370  0.5000610554372485  0.4337899095261110
  0.0417997389194196  0.0839716136092196  0.3998041827917204
  0.0409123312283327  0.2081054079587018  0.3997342682346430
  0.0402733393685197  0.3329067992761817  0.3996970742126083
  0.0404806107338945  0.4581394292912945  0.3997917877002823
  0.0414259204851325  0.5836945789058410  0.4000610713888533
  0.0422345704449474  0.7091764111768867  0.4001019894155193
  0.0424755771067024  0.8343998732948597  0.4000934533791379
  0.0423368128392345  0.9594437310786817  0.3999979594802704
  0.1675879882700401  0.0851979091240321  0.3998606406524601
  0.1671161697279984  0.2099140527743405  0.3996992267595188
  0.1649971045780856  0.3334772751318955  0.3998786503091969
  0.1642996130754631  0.4583439059358765  0.3992269065632759
  0.1652576053612405  0.5835650808844588  0.3995780622487181
  0.1664920718735813  0.7088719646607828  0.3999599197537522
  0.1671332426040358  0.8343520350184042  0.4000524561301212
  0.1674312627316880  0.9598694976094151  0.3999635128079275
  0.2924940921301607  0.0855862885509821  0.3998591816892217
  0.2929067193117171  0.2121416418313531  0.4004157951818162
  0.2919586200117731  0.3374455854389578  0.4023250016422450
  0.2877062374204346  0.4578464808600070  0.4012564716912321
  0.2886664047308446  0.5827618862220922  0.3991184166441433
  0.2907852137019061  0.7081786006914305  0.3995989092098835
  0.2917083417647265  0.8337869121750545  0.3999409865766607
  0.2921662893717108  0.9594870376508746  0.3999547337042457
  0.4170219821563907  0.0841646389627074  0.3998632515721188
  0.4175886164271081  0.2103204602214564  0.3997208629335158
  0.4192282149134333  0.3379363055268892  0.4014831570105122
  0.4149304832902871  0.7057970831565795  0.3996685911590463
  0.4161771907054923  0.8320852905824545  0.3997212954259414
  0.4167140405869582  0.9581904500000589  0.3999803723389658
  0.5415387005011034  0.0826632618007426  0.4000011118762596
  0.5420929502507288  0.2085100306018348  0.3997494408118744
  0.5430836383589004  0.3341777686701709  0.3994048157964860
  0.5461200894871897  0.4595459325238527  0.4007717415857688
  0.5386499185215136  0.7019854645447282  0.4016730165421193
  0.5406041765507181  0.8302834987560676  0.4000258512517209
  0.5411077191872856  0.9567073690091870  0.3999167599229715
  0.6660957449150915  0.0820239328893347  0.4000137064601106
  0.6665080843707057  0.2075383940885183  0.3999947514750193
  0.6674039082472379  0.3330537061126913  0.3996912276585396
  0.6694096331109275  0.4586591533929699  0.3993877632121108
  0.6705436229317395  0.5840923804104097  0.3996042679604419
  0.6667563655580113  0.7065447861192885  0.4000523244319685
  0.6648664776277630  0.8304381771245029  0.4000720875421845
  0.6656231655231188  0.9563529142234707  0.3999587156223817
  0.7907492493202807  0.0819717875480995  0.4000054614332995
  0.7910373127253224  0.2073308174692237  0.4001066304581333
  0.7916840341803560  0.3327748977898431  0.4000308283558187
  0.7928320460837520  0.4582883586263071  0.3997971786310710
  0.7937449531887307  0.5837621359058031  0.3995404458203832
  0.7933106402658746  0.7088886913405616  0.3996529813241653
  0.7913423857689742  0.8325292551548444  0.3997011167249333
  0.7905722572990241  0.9567812808937122  0.3998721339186081
  0.9159140970752376  0.0825933635171304  0.3999395866867427
  0.9157000431129465  0.2074310099960768  0.3999803674026841
  0.9159045946496501  0.3327011654365123  0.4000206587312666
  0.9166661762001939  0.4582352430069503  0.4001083112107551
  0.9175765609502724  0.5837668740725022  0.4000144266168393
  0.9177948075204087  0.7090376144778637  0.3999129709340945
  0.9174539611855518  0.8340266650244381  0.3999422755395709
  0.9165916258157937  0.9582666010787105  0.3999776378509961
  0.0840914200618982  0.0430165416100354  0.3998695349414191
  0.0834982799197506  0.1675387463782853  0.3996410106691185
  0.0822097582142704  0.2915331041586990  0.3997005647945180
  0.0815352863615307  0.4162429084855070  0.3995219609638694
  0.0823491338616042  0.5417294915171174  0.3998369352041466
  0.0833889215301181  0.6672373015088888  0.4000717838451534
  0.0839200686570644  0.7926491618740004  0.4001046170986957
  0.0841450597333233  0.9179523975017458  0.4000328656046671
  0.2091167684538045  0.0434773836620276  0.3999106779124106
  0.2093805217296252  0.1690037085898558  0.3999611025173829
  0.2084173757010124  0.2935888107920918  0.4001446670858426
  0.2056392042310062  0.4167938089216007  0.3996133011699704
  0.2058562254046841  0.5413835024945918  0.3992104455056469
  0.2074814179779420  0.6668827005365648  0.3997269629872942
  0.2084814633790237  0.7924424318996642  0.3999962696762790
  0.2089074162961388  0.9179313354284537  0.3999920435811968
  0.3338396046544289  0.0432282088370367  0.3998679050908989
  0.3341530360775721  0.1694063167435856  0.3999544469242796
  0.3347516844317217  0.2964792500470759  0.4017598412903405
  0.3295088154397401  0.5413931708990880  0.4003091691134470
  0.3316186342289130  0.6660163803427847  0.3993731772309213
  0.3329764579739381  0.7915632973834316  0.3997777804755433
  0.3334517138857615  0.9172759445111508  0.3999752034187418
  0.4583301303476058  0.0417387231073198  0.3999831359313425
  0.4587400464264790  0.1677885117192285  0.3997327922472999
  0.4596376793387542  0.2940262744715617  0.3997254817059885
  0.4638847638317594  0.4206996858523378  0.4036565275652494
  0.4541970262988665  0.6610644641323570  0.4014261119140639
  0.4573171354945126  0.7894525651860620  0.3996739393944654
  0.4579446401425488  0.9157823484394185  0.3998820718952275
  0.5828158916206898  0.0404342076622713  0.3999858044492110
  0.5833307646693443  0.1662642247405360  0.3999434733400600
  0.5841408350016104  0.2918326818706019  0.3995508197035594
  0.5866130126763738  0.4174749177175718  0.3994184229376286
  0.5889760489469891  0.5433378571839386  0.4011802652225121
  0.5829658524718150  0.6620255650437863  0.4019962412197441
  0.5810674396666342  0.7870266457036139  0.4005045183126816
  0.5823822947528405  0.9142681896854425  0.3999364962821537
  0.7074645526223878  0.0400713721315766  0.3999765421149391
  0.7078672840835369  0.1655907371370573  0.4000720672389377
  0.7085020779889153  0.2910953634437156  0.3999283078447515
  0.7099607357115816  0.4165303120621756  0.3995889046620261
  0.7112481677329270  0.5418141291113565  0.3993438078924413
  0.7105138659649798  0.6670679754509525  0.3997341256860534
  0.7077346566224140  0.7901095758367638  0.3997735811370332
  0.7069357080967456  0.9143992240231389  0.3999214430413468
  0.8324831111523330  0.0404698420859331  0.3999520048913871
  0.8325274340427209  0.1655855970148477  0.4000638340758975
  0.8328416705464109  0.2908310737722558  0.4000938856715090
  0.8337303783445796  0.4162944386743102  0.4000174716741390
  0.8347564264751220  0.5418597775320803  0.3997809618705495
  0.8349400828013966  0.6672314493651701  0.3996884710549915
  0.8342080728389678  0.7920878449230285  0.3997568502372816
  0.8330168755683705  0.9160417254353919  0.3998404445365534
  0.9582951408916612  0.0417349169076687  0.3999489602710465
  0.9575861331960979  0.1660600813235397  0.3998902187945896
  0.9573363203399701  0.2910038391169787  0.3999101483565478
  0.9576257136792462  0.4162547925571091  0.4000213148422311
  0.9585127856312986  0.5417489496438798  0.4001200526979928
  0.9592247248274092  0.6672769451970595  0.4000161702137255
  0.9592794782826244  0.7925931415692343  0.4000061180394285
  0.9589851498615143  0.9174576419182680  0.4000111197398363
  0.4101687674844319  0.5802885427392070  0.4035855153434887
  0.5469446691215328  0.5815025907208599  0.4047252076024978
  0.3292866914949463  0.4188325390217102  0.4061664093228350
 
  0.00000000E+00  0.00000000E+00  0.00000000E+00
  0.00000000E+00  0.00000000E+00  0.00000000E+00
  0.00000000E+00  0.00000000E+00  0.00000000E+00
  0.00000000E+00  0.00000000E+00  0.00000000E+00
  0.00000000E+00  0.00000000E+00  0.00000000E+00
  0.00000000E+00  0.00000000E+00  0.00000000E+00
  0.00000000E+00  0.00000000E+00  0.00000000E+00
  0.00000000E+00  0.00000000E+00  0.00000000E+00
  0.00000000E+00  0.00000000E+00  0.00000000E+00
  0.00000000E+00  0.00000000E+00  0.00000000E+00
  0.00000000E+00  0.00000000E+00  0.00000000E+00
  0.00000000E+00  0.00000000E+00  0.00000000E+00
  0.00000000E+00  0.00000000E+00  0.00000000E+00
  0.00000000E+00  0.00000000E+00  0.00000000E+00
  0.00000000E+00  0.00000000E+00  0.00000000E+00
  0.00000000E+00  0.00000000E+00  0.00000000E+00
  0.00000000E+00  0.00000000E+00  0.00000000E+00
  0.00000000E+00  0.00000000E+00  0.00000000E+00
  0.00000000E+00  0.00000000E+00  0.00000000E+00
  0.00000000E+00  0.00000000E+00  0.00000000E+00
  0.00000000E+00  0.00000000E+00  0.00000000E+00
  0.00000000E+00  0.00000000E+00  0.00000000E+00
  0.00000000E+00  0.00000000E+00  0.00000000E+00
  0.00000000E+00  0.00000000E+00  0.00000000E+00
  0.00000000E+00  0.00000000E+00  0.00000000E+00
  0.00000000E+00  0.00000000E+00  0.00000000E+00
  0.00000000E+00  0.00000000E+00  0.00000000E+00
  0.00000000E+00  0.00000000E+00  0.00000000E+00
  0.00000000E+00  0.00000000E+00  0.00000000E+00
  0.00000000E+00  0.00000000E+00  0.00000000E+00
  0.00000000E+00  0.00000000E+00  0.00000000E+00
  0.00000000E+00  0.00000000E+00  0.00000000E+00
  0.00000000E+00  0.00000000E+00  0.00000000E+00
  0.00000000E+00  0.00000000E+00  0.00000000E+00
  0.00000000E+00  0.00000000E+00  0.00000000E+00
  0.00000000E+00  0.00000000E+00  0.00000000E+00
  0.00000000E+00  0.00000000E+00  0.00000000E+00
  0.00000000E+00  0.00000000E+00  0.00000000E+00
  0.00000000E+00  0.00000000E+00  0.00000000E+00
  0.00000000E+00  0.00000000E+00  0.00000000E+00
  0.00000000E+00  0.00000000E+00  0.00000000E+00
  0.00000000E+00  0.00000000E+00  0.00000000E+00
  0.00000000E+00  0.00000000E+00  0.00000000E+00
  0.00000000E+00  0.00000000E+00  0.00000000E+00
  0.00000000E+00  0.00000000E+00  0.00000000E+00
  0.00000000E+00  0.00000000E+00  0.00000000E+00
  0.00000000E+00  0.00000000E+00  0.00000000E+00
  0.00000000E+00  0.00000000E+00  0.00000000E+00
  0.00000000E+00  0.00000000E+00  0.00000000E+00
  0.00000000E+00  0.00000000E+00  0.00000000E+00
  0.00000000E+00  0.00000000E+00  0.00000000E+00
  0.00000000E+00  0.00000000E+00  0.00000000E+00
  0.00000000E+00  0.00000000E+00  0.00000000E+00
  0.00000000E+00  0.00000000E+00  0.00000000E+00
  0.00000000E+00  0.00000000E+00  0.00000000E+00
  0.00000000E+00  0.00000000E+00  0.00000000E+00
  0.00000000E+00  0.00000000E+00  0.00000000E+00
  0.00000000E+00  0.00000000E+00  0.00000000E+00
  0.00000000E+00  0.00000000E+00  0.00000000E+00
  0.00000000E+00  0.00000000E+00  0.00000000E+00
  0.00000000E+00  0.00000000E+00  0.00000000E+00
  0.00000000E+00  0.00000000E+00  0.00000000E+00
  0.00000000E+00  0.00000000E+00  0.00000000E+00
  0.00000000E+00  0.00000000E+00  0.00000000E+00
  0.00000000E+00  0.00000000E+00  0.00000000E+00
  0.00000000E+00  0.00000000E+00  0.00000000E+00
  0.00000000E+00  0.00000000E+00  0.00000000E+00
  0.00000000E+00  0.00000000E+00  0.00000000E+00
  0.00000000E+00  0.00000000E+00  0.00000000E+00
  0.00000000E+00  0.00000000E+00  0.00000000E+00
  0.00000000E+00  0.00000000E+00  0.00000000E+00
  0.00000000E+00  0.00000000E+00  0.00000000E+00
  0.00000000E+00  0.00000000E+00  0.00000000E+00
  0.00000000E+00  0.00000000E+00  0.00000000E+00
  0.00000000E+00  0.00000000E+00  0.00000000E+00
  0.00000000E+00  0.00000000E+00  0.00000000E+00
  0.00000000E+00  0.00000000E+00  0.00000000E+00
  0.00000000E+00  0.00000000E+00  0.00000000E+00
  0.00000000E+00  0.00000000E+00  0.00000000E+00
  0.00000000E+00  0.00000000E+00  0.00000000E+00
  0.00000000E+00  0.00000000E+00  0.00000000E+00
  0.00000000E+00  0.00000000E+00  0.00000000E+00
  0.00000000E+00  0.00000000E+00  0.00000000E+00
  0.00000000E+00  0.00000000E+00  0.00000000E+00
  0.00000000E+00  0.00000000E+00  0.00000000E+00
  0.00000000E+00  0.00000000E+00  0.00000000E+00
  0.00000000E+00  0.00000000E+00  0.00000000E+00
  0.00000000E+00  0.00000000E+00  0.00000000E+00
  0.00000000E+00  0.00000000E+00  0.00000000E+00
  0.00000000E+00  0.00000000E+00  0.00000000E+00
  0.00000000E+00  0.00000000E+00  0.00000000E+00
  0.00000000E+00  0.00000000E+00  0.00000000E+00
  0.00000000E+00  0.00000000E+00  0.00000000E+00
  0.00000000E+00  0.00000000E+00  0.00000000E+00
  0.00000000E+00  0.00000000E+00  0.00000000E+00
  0.00000000E+00  0.00000000E+00  0.00000000E+00
  0.00000000E+00  0.00000000E+00  0.00000000E+00
  0.00000000E+00  0.00000000E+00  0.00000000E+00
  0.00000000E+00  0.00000000E+00  0.00000000E+00
  0.00000000E+00  0.00000000E+00  0.00000000E+00
  0.00000000E+00  0.00000000E+00  0.00000000E+00
  0.00000000E+00  0.00000000E+00  0.00000000E+00
  0.00000000E+00  0.00000000E+00  0.00000000E+00
  0.00000000E+00  0.00000000E+00  0.00000000E+00
  0.00000000E+00  0.00000000E+00  0.00000000E+00
  0.00000000E+00  0.00000000E+00  0.00000000E+00
  0.00000000E+00  0.00000000E+00  0.00000000E+00
  0.00000000E+00  0.00000000E+00  0.00000000E+00
  0.00000000E+00  0.00000000E+00  0.00000000E+00
  0.00000000E+00  0.00000000E+00  0.00000000E+00
  0.00000000E+00  0.00000000E+00  0.00000000E+00
  0.00000000E+00  0.00000000E+00  0.00000000E+00
  0.00000000E+00  0.00000000E+00  0.00000000E+00
  0.00000000E+00  0.00000000E+00  0.00000000E+00
  0.00000000E+00  0.00000000E+00  0.00000000E+00
  0.00000000E+00  0.00000000E+00  0.00000000E+00
  0.00000000E+00  0.00000000E+00  0.00000000E+00
  0.00000000E+00  0.00000000E+00  0.00000000E+00
  0.00000000E+00  0.00000000E+00  0.00000000E+00
  0.00000000E+00  0.00000000E+00  0.00000000E+00
  0.00000000E+00  0.00000000E+00  0.00000000E+00
  0.00000000E+00  0.00000000E+00  0.00000000E+00
  0.00000000E+00  0.00000000E+00  0.00000000E+00
  0.00000000E+00  0.00000000E+00  0.00000000E+00
  0.00000000E+00  0.00000000E+00  0.00000000E+00
  0.00000000E+00  0.00000000E+00  0.00000000E+00
  0.00000000E+00  0.00000000E+00  0.00000000E+00
