Ag1 C122 N4 O1                          
   1.00000000000000     
    19.8000724150062695   -0.0009993009614447    0.0076625733668433
    -9.9008938097167878   17.0313708247229734   -0.0074503322833246
     0.0115123427267497   -0.0063407577298732   29.8399764702286703
   Ag   C    N    O 
     1   122     4     1
Direct
  0.4356272432294323  0.4955034973316047  0.4497869823171651
  0.0419952638848012  0.0841393251357656  0.3997722013632929
  0.0409923968173787  0.2081857383849104  0.3994374215413724
  0.0404522467925280  0.3329205261295329  0.3989626286486103
  0.0406865714403279  0.4582913020550674  0.3992393716958389
  0.0413863408584444  0.5837678798585844  0.3997889438609318
  0.0421030906095379  0.7092109885367073  0.3999165792628727
  0.0424828467601112  0.8346020641576296  0.3999782545752836
  0.0426037507268790  0.9597750043299705  0.3999193506557518
  0.1682127538213781  0.0860209965778913  0.4001535001060452
  0.1672811266423920  0.2101331366270280  0.3999002667971172
  0.1653138394582857  0.3336776228470501  0.3990099292653344
  0.1646655705390703  0.4584286772160021  0.3975924348211985
  0.1654064868181686  0.5835831948855942  0.3988038470831281
  0.1664157995682786  0.7090789835561606  0.3997998014122693
  0.1671019534714271  0.8346021370097880  0.4000086511573135
  0.1676277448595465  0.9602464661225769  0.4000939917183862
  0.2927990970056812  0.0859960926944505  0.4001231991909189
  0.2944291197830348  0.2138522812725487  0.4012234116794150
  0.2921046939208771  0.3389088212855145  0.4032989520908323
  0.2886484690107604  0.4570957190655204  0.4011847470238091
  0.2891478254004265  0.5832197910374577  0.3987725011961342
  0.2905896607225689  0.7085849669973772  0.3994586187163058
  0.2916003742650773  0.8340324461327774  0.3998553389751801
  0.2921927479066524  0.9597691376358959  0.3998940329020570
  0.4171723786664279  0.0840984082727512  0.3998246000838532
  0.4178598630777620  0.2100459694977418  0.4000690333911203
  0.4218430606220758  0.3388278796242797  0.4022298710789681
  0.4145867931051385  0.7063821803677383  0.4001565585006088
  0.4160425813573179  0.8324690486575826  0.3999738662921128
  0.4166645818666416  0.9582957361524419  0.3998800773545153
  0.5416267560747547  0.0825210600045080  0.3999074541476424
  0.5422265542085875  0.2081698394691115  0.3996637490236539
  0.5433864799446491  0.3336424327349218  0.3991315414201090
  0.5432677555243711  0.4570208576612433  0.3995140117065185
  0.5382460473083011  0.7014815668225584  0.4010509358399312
  0.5401864673003990  0.8299611825971600  0.4003925077248076
  0.5410920942894979  0.9565598404381447  0.4001000861306724
  0.6661035403875387  0.0818263736650774  0.4000148808705470
  0.6666517217837087  0.2074441858845110  0.3998928029817912
  0.6674797324266095  0.3329027076587799  0.3993002264837099
  0.6687439617386958  0.4583883664441103  0.3981363255534154
  0.6690136134310204  0.5831768819681141  0.3986135555937842
  0.6668094088555784  0.7063753441622111  0.4000171914235642
  0.6647651908534223  0.8299636715401213  0.4003642082598450
  0.6655361917292225  0.9560380418329443  0.4002522607661948
  0.7907738976125525  0.0818317943544231  0.4000311205180508
  0.7911355584448796  0.2072507372855977  0.4000789310589971
  0.7917654325536807  0.3327686269108506  0.3998909217207305
  0.7925793213683090  0.4582825140117228  0.3994821301921399
  0.7931167063640912  0.5835352858432868  0.3991700453944435
  0.7929744217445936  0.7085512665829634  0.3996358430670223
  0.7914238571527583  0.8324574277451280  0.4000927926906339
  0.7904856488800704  0.9565602591189994  0.4001131368642373
  0.9159538777891749  0.0825423800087170  0.3998801112694765
  0.9158313762377874  0.2074664240784124  0.3999059094041497
  0.9160355956859605  0.3327821126497024  0.3999109240582467
  0.9166059203410747  0.4582328167910207  0.3999521367773137
  0.9173437765253688  0.5837668374289436  0.3998220922871805
  0.9176348610203173  0.7090685836666482  0.3998408867869801
  0.9174177619975752  0.8340229195439296  0.3999520143899148
  0.9166758717059773  0.9583083363946917  0.3999362073575292
  0.0845166100515285  0.0434731298924501  0.3999167717403405
  0.0836270195740196  0.1676030429920282  0.3995394390947750
  0.0821035603403162  0.2915068181346179  0.3989781382289386
  0.0819135378843265  0.4165394454819493  0.3984523894953594
  0.0824413102443326  0.5418464932222733  0.3992798238497716
  0.0833011679177937  0.6673631524407997  0.3998685691466184
  0.0839274037581296  0.7928756255441698  0.3999829152360864
  0.0842677601421278  0.9182290345770563  0.4000208189057309
  0.2094760366119785  0.0439444513150741  0.4001686856823113
  0.2102340505295597  0.1700042271017241  0.4004841143201752
  0.2082935270678545  0.2936735544777238  0.4002294954161824
  0.2060636980606177  0.4168930809702344  0.3981155734451462
  0.2062756328018576  0.5417249165820862  0.3980301711572121
  0.2075563617118090  0.6672025975223328  0.3993785041017801
  0.2084155159712034  0.7926534406864922  0.3999188814037790
  0.2089819822257475  0.9182346016534151  0.4000277060578286
  0.3339647739156468  0.0434576041149049  0.3998981629432330
  0.3347673189887329  0.1699676734431164  0.4004628051387895
  0.3367405382747351  0.2984265142792145  0.4028968607288041
  0.3318575920086118  0.5432633610401932  0.4006835549528743
  0.3316379080527976  0.6664249410283131  0.3994063745603810
  0.3328285633082675  0.7918976273080603  0.3998066770348311
  0.3334837660470562  0.9175341299566069  0.3998436132522858
  0.4584486307744463  0.0417415425006486  0.3998599271232026
  0.4590021748419302  0.1675404137855667  0.3997607619298627
  0.4604049738784737  0.2935578557901973  0.4001227176582601
  0.4531128933688157  0.6609313952148456  0.4014025978223382
  0.4571082213269734  0.7898923852825234  0.4001401696002803
  0.4579089408437850  0.9159173975675425  0.4000013535988481
  0.5829009073777440  0.0402617666131553  0.3999993860741840
  0.5834754844841249  0.1660405459642992  0.3998333429718996
  0.5844442275602896  0.2914917008842101  0.3993032950696027
  0.5858320494617513  0.4168704785593002  0.3982128040537377
  0.5862530451094743  0.5432445320187916  0.3990922788693073
  0.5828272856167691  0.6608860751086738  0.4006557962211980
  0.5805172484275920  0.7860533984807796  0.4006028564750094
  0.5821863981683417  0.9139548419046097  0.4002735154544825
  0.7074080556319294  0.0397666028295748  0.4000894970921480
  0.7079563717530104  0.1654759679779753  0.4000096311435792
  0.7086423850687621  0.2910287504605901  0.3997459827367304
  0.7096207740887016  0.4165378057780542  0.3989356189437139
  0.7103896856903209  0.5416724720029076  0.3984237701759427
  0.7097618242346042  0.6663723819637847  0.3993829013271934
  0.7077673656190798  0.7898727561036143  0.4002012963642545
  0.7067771870130454  0.9139463625119476  0.4002627236434210
  0.8324168845686465  0.0402735679288828  0.3999993596627506
  0.8325541522466978  0.1654870361636396  0.4000564487508341
  0.8329900758835115  0.2909428179218903  0.4000499206708570
  0.8336542423815201  0.4163816036149550  0.3998444712088567
  0.8343523574963031  0.5418232688406970  0.3995156814664061
  0.8345991131146283  0.6671597854022003  0.3995775898433256
  0.8340422400537260  0.7918576630211888  0.3999650869183979
  0.8330352365810959  0.9159142015161709  0.4000612258788123
  0.9583574017995594  0.0417686284945172  0.3998609538432820
  0.9576166953023848  0.1660595724437525  0.3997532695453476
  0.9574224387460064  0.2910527599713604  0.3996749904129543
  0.9577104885414141  0.4163893912115776  0.3998233002098751
  0.9584424346197958  0.5419253959124181  0.3999190373005173
  0.9590493486408298  0.6673655660350288  0.3998424689590284
  0.9592104496858531  0.7926398492288885  0.3999263670746734
  0.9590753609604705  0.9175377691022741  0.3999103436770611
  0.4101090463306860  0.5814254088276819  0.4027934650826833
  0.5461615781266265  0.5814305488321309  0.4004955424026663
  0.3279440268098788  0.4184275800007149  0.4065716720018395
  0.4650904495408778  0.4183851838966756  0.4033852453062633
  0.4712165384515274  0.5347928138104245  0.5106173830201205
 
  0.00000000E+00  0.00000000E+00  0.00000000E+00
  0.00000000E+00  0.00000000E+00  0.00000000E+00
  0.00000000E+00  0.00000000E+00  0.00000000E+00
  0.00000000E+00  0.00000000E+00  0.00000000E+00
  0.00000000E+00  0.00000000E+00  0.00000000E+00
  0.00000000E+00  0.00000000E+00  0.00000000E+00
  0.00000000E+00  0.00000000E+00  0.00000000E+00
  0.00000000E+00  0.00000000E+00  0.00000000E+00
  0.00000000E+00  0.00000000E+00  0.00000000E+00
  0.00000000E+00  0.00000000E+00  0.00000000E+00
  0.00000000E+00  0.00000000E+00  0.00000000E+00
  0.00000000E+00  0.00000000E+00  0.00000000E+00
  0.00000000E+00  0.00000000E+00  0.00000000E+00
  0.00000000E+00  0.00000000E+00  0.00000000E+00
  0.00000000E+00  0.00000000E+00  0.00000000E+00
  0.00000000E+00  0.00000000E+00  0.00000000E+00
  0.00000000E+00  0.00000000E+00  0.00000000E+00
  0.00000000E+00  0.00000000E+00  0.00000000E+00
  0.00000000E+00  0.00000000E+00  0.00000000E+00
  0.00000000E+00  0.00000000E+00  0.00000000E+00
  0.00000000E+00  0.00000000E+00  0.00000000E+00
  0.00000000E+00  0.00000000E+00  0.00000000E+00
  0.00000000E+00  0.00000000E+00  0.00000000E+00
  0.00000000E+00  0.00000000E+00  0.00000000E+00
  0.00000000E+00  0.00000000E+00  0.00000000E+00
  0.00000000E+00  0.00000000E+00  0.00000000E+00
  0.00000000E+00  0.00000000E+00  0.00000000E+00
  0.00000000E+00  0.00000000E+00  0.00000000E+00
  0.00000000E+00  0.00000000E+00  0.00000000E+00
  0.00000000E+00  0.00000000E+00  0.00000000E+00
  0.00000000E+00  0.00000000E+00  0.00000000E+00
  0.00000000E+00  0.00000000E+00  0.00000000E+00
  0.00000000E+00  0.00000000E+00  0.00000000E+00
  0.00000000E+00  0.00000000E+00  0.00000000E+00
  0.00000000E+00  0.00000000E+00  0.00000000E+00
  0.00000000E+00  0.00000000E+00  0.00000000E+00
  0.00000000E+00  0.00000000E+00  0.00000000E+00
  0.00000000E+00  0.00000000E+00  0.00000000E+00
  0.00000000E+00  0.00000000E+00  0.00000000E+00
  0.00000000E+00  0.00000000E+00  0.00000000E+00
  0.00000000E+00  0.00000000E+00  0.00000000E+00
  0.00000000E+00  0.00000000E+00  0.00000000E+00
  0.00000000E+00  0.00000000E+00  0.00000000E+00
  0.00000000E+00  0.00000000E+00  0.00000000E+00
  0.00000000E+00  0.00000000E+00  0.00000000E+00
  0.00000000E+00  0.00000000E+00  0.00000000E+00
  0.00000000E+00  0.00000000E+00  0.00000000E+00
  0.00000000E+00  0.00000000E+00  0.00000000E+00
  0.00000000E+00  0.00000000E+00  0.00000000E+00
  0.00000000E+00  0.00000000E+00  0.00000000E+00
  0.00000000E+00  0.00000000E+00  0.00000000E+00
  0.00000000E+00  0.00000000E+00  0.00000000E+00
  0.00000000E+00  0.00000000E+00  0.00000000E+00
  0.00000000E+00  0.00000000E+00  0.00000000E+00
  0.00000000E+00  0.00000000E+00  0.00000000E+00
  0.00000000E+00  0.00000000E+00  0.00000000E+00
  0.00000000E+00  0.00000000E+00  0.00000000E+00
  0.00000000E+00  0.00000000E+00  0.00000000E+00
  0.00000000E+00  0.00000000E+00  0.00000000E+00
  0.00000000E+00  0.00000000E+00  0.00000000E+00
  0.00000000E+00  0.00000000E+00  0.00000000E+00
  0.00000000E+00  0.00000000E+00  0.00000000E+00
  0.00000000E+00  0.00000000E+00  0.00000000E+00
  0.00000000E+00  0.00000000E+00  0.00000000E+00
  0.00000000E+00  0.00000000E+00  0.00000000E+00
  0.00000000E+00  0.00000000E+00  0.00000000E+00
  0.00000000E+00  0.00000000E+00  0.00000000E+00
  0.00000000E+00  0.00000000E+00  0.00000000E+00
  0.00000000E+00  0.00000000E+00  0.00000000E+00
  0.00000000E+00  0.00000000E+00  0.00000000E+00
  0.00000000E+00  0.00000000E+00  0.00000000E+00
  0.00000000E+00  0.00000000E+00  0.00000000E+00
  0.00000000E+00  0.00000000E+00  0.00000000E+00
  0.00000000E+00  0.00000000E+00  0.00000000E+00
  0.00000000E+00  0.00000000E+00  0.00000000E+00
  0.00000000E+00  0.00000000E+00  0.00000000E+00
  0.00000000E+00  0.00000000E+00  0.00000000E+00
  0.00000000E+00  0.00000000E+00  0.00000000E+00
  0.00000000E+00  0.00000000E+00  0.00000000E+00
  0.00000000E+00  0.00000000E+00  0.00000000E+00
  0.00000000E+00  0.00000000E+00  0.00000000E+00
  0.00000000E+00  0.00000000E+00  0.00000000E+00
  0.00000000E+00  0.00000000E+00  0.00000000E+00
  0.00000000E+00  0.00000000E+00  0.00000000E+00
  0.00000000E+00  0.00000000E+00  0.00000000E+00
  0.00000000E+00  0.00000000E+00  0.00000000E+00
  0.00000000E+00  0.00000000E+00  0.00000000E+00
  0.00000000E+00  0.00000000E+00  0.00000000E+00
  0.00000000E+00  0.00000000E+00  0.00000000E+00
  0.00000000E+00  0.00000000E+00  0.00000000E+00
  0.00000000E+00  0.00000000E+00  0.00000000E+00
  0.00000000E+00  0.00000000E+00  0.00000000E+00
  0.00000000E+00  0.00000000E+00  0.00000000E+00
  0.00000000E+00  0.00000000E+00  0.00000000E+00
  0.00000000E+00  0.00000000E+00  0.00000000E+00
  0.00000000E+00  0.00000000E+00  0.00000000E+00
  0.00000000E+00  0.00000000E+00  0.00000000E+00
  0.00000000E+00  0.00000000E+00  0.00000000E+00
  0.00000000E+00  0.00000000E+00  0.00000000E+00
  0.00000000E+00  0.00000000E+00  0.00000000E+00
  0.00000000E+00  0.00000000E+00  0.00000000E+00
  0.00000000E+00  0.00000000E+00  0.00000000E+00
  0.00000000E+00  0.00000000E+00  0.00000000E+00
  0.00000000E+00  0.00000000E+00  0.00000000E+00
  0.00000000E+00  0.00000000E+00  0.00000000E+00
  0.00000000E+00  0.00000000E+00  0.00000000E+00
  0.00000000E+00  0.00000000E+00  0.00000000E+00
  0.00000000E+00  0.00000000E+00  0.00000000E+00
  0.00000000E+00  0.00000000E+00  0.00000000E+00
  0.00000000E+00  0.00000000E+00  0.00000000E+00
  0.00000000E+00  0.00000000E+00  0.00000000E+00
  0.00000000E+00  0.00000000E+00  0.00000000E+00
  0.00000000E+00  0.00000000E+00  0.00000000E+00
  0.00000000E+00  0.00000000E+00  0.00000000E+00
  0.00000000E+00  0.00000000E+00  0.00000000E+00
  0.00000000E+00  0.00000000E+00  0.00000000E+00
  0.00000000E+00  0.00000000E+00  0.00000000E+00
  0.00000000E+00  0.00000000E+00  0.00000000E+00
  0.00000000E+00  0.00000000E+00  0.00000000E+00
  0.00000000E+00  0.00000000E+00  0.00000000E+00
  0.00000000E+00  0.00000000E+00  0.00000000E+00
  0.00000000E+00  0.00000000E+00  0.00000000E+00
  0.00000000E+00  0.00000000E+00  0.00000000E+00
  0.00000000E+00  0.00000000E+00  0.00000000E+00
  0.00000000E+00  0.00000000E+00  0.00000000E+00
  0.00000000E+00  0.00000000E+00  0.00000000E+00
  0.00000000E+00  0.00000000E+00  0.00000000E+00
  0.00000000E+00  0.00000000E+00  0.00000000E+00
