Zr1 C125 N1                             
   1.00000000000000     
    19.8180195982341338   -0.0115048768437504    0.0053315293020382
    -9.9189908785974055   17.0790254515873627   -0.0026814259515772
     0.0080625310757201   -0.0000865072691162   29.7389219798767215
   Zr   C    N 
     1   125     1
Direct
  0.4380797384828038  0.5000491942924935  0.4369215250329783
  0.0417884677135312  0.0839167066554614  0.3998040834068172
  0.0412108434416576  0.2083544982063870  0.3995168948429526
  0.0406898254084092  0.3330225848605712  0.3995310250475954
  0.0406695856232550  0.4583294777591012  0.3996460683439098
  0.0413197330567610  0.5837644407629599  0.3999149522593242
  0.0418938742794918  0.7090793428530732  0.4000838537612016
  0.0421708519724794  0.8343373446329561  0.4000953791290766
  0.0421635559203756  0.9593268011742544  0.3999799594987343
  0.1673931157919608  0.0849142236498143  0.3997433982113427
  0.1669802691763489  0.2095881436066953  0.3993557744018236
  0.1659172714406621  0.3340070222862125  0.3994041797636997
  0.1645450039012451  0.4586150064818765  0.3993905183340059
  0.1652248095723128  0.5838245553316368  0.3993536670094476
  0.1662109694645968  0.7091066276113066  0.3997880924196408
  0.1668363221748381  0.8343898416187446  0.4000852657600827
  0.1672310295075078  0.9596867546973342  0.4000270034470643
  0.2923861291964527  0.0848015833396395  0.3997702678171937
  0.2930121998872399  0.2108843383074631  0.4001942373929310
  0.2924905053689284  0.3363846913198733  0.4013967851828432
  0.2890302101797785  0.4592761199910074  0.4018651430518486
  0.2889132020662427  0.5843391017985232  0.4000130064273618
  0.2905598775482680  0.7091288967662143  0.3994491752239599
  0.2914259559012815  0.8341141994740408  0.3997612708010223
  0.2918971193356630  0.9592936680191922  0.3999522835963622
  0.4170170793584855  0.0835752677186319  0.3997824497728022
  0.4175579901656514  0.2088853919497887  0.3994851816139597
  0.4191517930055905  0.3353250340983859  0.4022402729585051
  0.4148169964843688  0.7074797767470883  0.3999165689834716
  0.4159688876430407  0.8329460166679160  0.3994873384200438
  0.4165632900857714  0.9582802254282005  0.3999229211608182
  0.5416412584318777  0.0825129779623730  0.3999247598466165
  0.5422479823131083  0.2077169813652941  0.3995136523956889
  0.5431959146570392  0.3327521626506820  0.3997793520265924
  0.5455233869729836  0.4571390385316961  0.4025129266974984
  0.5448437123634706  0.5811618977562809  0.4036250375718375
  0.5387847374050198  0.7043536712656306  0.4017423613575334
  0.5404778046947543  0.8314363978445412  0.3998294627416176
  0.5411796414466857  0.9571579043626564  0.3998365495098019
  0.6662760587558644  0.0820686898617828  0.4000621217102487
  0.6667875829141050  0.2073324078133207  0.3998820645295038
  0.6675799676258694  0.3325443767296551  0.3994959207726723
  0.6693496873014048  0.4580077724101553  0.3995295098653570
  0.6699147938982106  0.5834583166692020  0.3998228008358950
  0.6665801930532000  0.7069995299916280  0.3994574892696262
  0.6650935397344786  0.8310523864224902  0.3997759191794103
  0.6657820047408367  0.9567227987171409  0.3999211709161521
  0.7910117255140573  0.0821271214032450  0.4000464454041976
  0.7913185700287401  0.2072940605275339  0.4001403637719784
  0.7919390171039633  0.3326398841861885  0.3999380325254878
  0.7929103191330514  0.4581159510398009  0.3996176442782155
  0.7934742510936580  0.5834878012562023  0.3994108248099250
  0.7928145818748552  0.7086719235781759  0.3993154665940744
  0.7914083070437266  0.8327115592948531  0.3995376561502718
  0.7907337479720281  0.9570119733637605  0.3998377790849676
  0.9161293185417755  0.0827502276929461  0.3999135960618712
  0.9160327427894892  0.2075888566492942  0.3999110092276848
  0.9162125938165043  0.3327642105822503  0.4000065002238791
  0.9167398118862714  0.4581554327811682  0.4000200809923001
  0.9174069814005787  0.5836685074630389  0.3999326678209982
  0.9174681190470214  0.7089898527470662  0.3998404002146445
  0.9172000565154900  0.8338807404581298  0.3998314213393423
  0.9165680166360347  0.9583067254223406  0.3999741623589503
  0.0838958595687934  0.0428173240408932  0.3998370759176271
  0.0834294805799281  0.1673500738598982  0.3995057498512246
  0.0825746706199167  0.2917599672133094  0.3993652736689215
  0.0817953611242598  0.4165617845060586  0.3993878762983327
  0.0822855653792002  0.5418836120471038  0.3996200065807340
  0.0830960110596322  0.6672976182278522  0.3999529719708436
  0.0836307190066503  0.7926457089820557  0.4001344050897906
  0.0838618237019529  0.9178131316759132  0.4000469567473939
  0.2089601173063681  0.0430920311044537  0.3998829277670639
  0.2091331265670586  0.1684563728286933  0.3996619219782403
  0.2085615658871382  0.2932007710104962  0.3994686672821763
  0.2060903851247821  0.4174167879715143  0.3998936930466145
  0.2059737708552951  0.5419856253130205  0.3993530743015526
  0.2073435514389563  0.6673759646793400  0.3995062857548939
  0.2081820367087999  0.7926144185755444  0.3998964888922664
  0.2086889216706792  0.9178440712896967  0.4000585390207374
  0.3337447715897741  0.0427024494107394  0.3998172320166732
  0.3342781824999995  0.1682261230175638  0.3997679488319671
  0.3347847006176281  0.2941922219702298  0.4017614235822288
  0.3312130912023390  0.4192537254861850  0.4041238426251088
  0.3303932695628840  0.5440432286198916  0.4022188422067015
  0.3316276101247644  0.6674818362115221  0.3997275006577549
  0.3327906938635110  0.7923321903640002  0.3995204168457289
  0.3333357920012755  0.9174018239369626  0.3998994139129628
  0.4584515592997709  0.0415727724724522  0.3999406860970691
  0.4589285622047510  0.1668334690225891  0.3995115649397373
  0.4598200833501720  0.2922458980577702  0.3999123635848087
  0.4636620045816253  0.4176260065920028  0.4055525495186525
  0.4545298947328527  0.6636821807222816  0.4021632701448338
  0.4573345194583881  0.7908386659596537  0.3994852908405823
  0.4579258138278421  0.9162595993353168  0.3997613429224298
  0.5830493292866527  0.0405931237384150  0.3999701242482660
  0.5835767564562346  0.1658800081540419  0.3997612855989378
  0.5844011901766367  0.2909237641182959  0.3994413440361242
  0.5864907927930022  0.4159019613036222  0.4003225792180622
  0.5876971113428801  0.5419867752651896  0.4016822965152063
  0.5823510378708400  0.6633265485930596  0.4013293993145503
  0.5810219440029794  0.7883493245523289  0.4003032836658430
  0.5824994391329531  0.9150531792485164  0.3998132305986241
  0.7076734527501114  0.0402356192117386  0.4000399836582213
  0.7081505538132182  0.1655548842449812  0.4000883704850440
  0.7087620195292786  0.2908029237647181  0.3997670193157369
  0.7100333772161649  0.4161910405755488  0.3993800229848990
  0.7109469228152153  0.5415496613260403  0.3994704137253528
  0.7096253578811252  0.6666772594685815  0.3993101284160732
  0.7078063194278891  0.7904108223554295  0.3994184704002729
  0.7070905432490174  0.9147160288177340  0.3997954681344869
  0.8326340634969027  0.0405953029804218  0.3999487341091496
  0.8327759826243101  0.1656389300107397  0.4000787162987684
  0.8331449891887257  0.2908630862634047  0.4000904560459200
  0.8338497427686578  0.4161995169217947  0.3998968529376577
  0.8345456131425643  0.5416639130975425  0.3996553753294367
  0.8345103791296208  0.6671550165275276  0.3995068156951788
  0.8338852513757029  0.7918902966590026  0.3995276670288864
  0.8330053201699387  0.9161108171419745  0.3998228813630600
  0.9582458841239513  0.0417142162232563  0.3999519805708989
  0.9578296730273693  0.1662367948433784  0.3997830855677540
  0.9576117449053012  0.2910820431055657  0.3998416366363373
  0.9577486129721442  0.4163101003317018  0.3999490897144271
  0.9584345678369047  0.5418102918608392  0.4000159510263511
  0.9588810525937819  0.6672267973755603  0.3999852625424474
  0.9589638740202904  0.7924832517339403  0.3999418771130574
  0.9587339003050963  0.9172923005021940  0.3999734562656401
  0.4104597551964378  0.5831579282705154  0.4055414453859919
 
  0.00000000E+00  0.00000000E+00  0.00000000E+00
  0.00000000E+00  0.00000000E+00  0.00000000E+00
  0.00000000E+00  0.00000000E+00  0.00000000E+00
  0.00000000E+00  0.00000000E+00  0.00000000E+00
  0.00000000E+00  0.00000000E+00  0.00000000E+00
  0.00000000E+00  0.00000000E+00  0.00000000E+00
  0.00000000E+00  0.00000000E+00  0.00000000E+00
  0.00000000E+00  0.00000000E+00  0.00000000E+00
  0.00000000E+00  0.00000000E+00  0.00000000E+00
  0.00000000E+00  0.00000000E+00  0.00000000E+00
  0.00000000E+00  0.00000000E+00  0.00000000E+00
  0.00000000E+00  0.00000000E+00  0.00000000E+00
  0.00000000E+00  0.00000000E+00  0.00000000E+00
  0.00000000E+00  0.00000000E+00  0.00000000E+00
  0.00000000E+00  0.00000000E+00  0.00000000E+00
  0.00000000E+00  0.00000000E+00  0.00000000E+00
  0.00000000E+00  0.00000000E+00  0.00000000E+00
  0.00000000E+00  0.00000000E+00  0.00000000E+00
  0.00000000E+00  0.00000000E+00  0.00000000E+00
  0.00000000E+00  0.00000000E+00  0.00000000E+00
  0.00000000E+00  0.00000000E+00  0.00000000E+00
  0.00000000E+00  0.00000000E+00  0.00000000E+00
  0.00000000E+00  0.00000000E+00  0.00000000E+00
  0.00000000E+00  0.00000000E+00  0.00000000E+00
  0.00000000E+00  0.00000000E+00  0.00000000E+00
  0.00000000E+00  0.00000000E+00  0.00000000E+00
  0.00000000E+00  0.00000000E+00  0.00000000E+00
  0.00000000E+00  0.00000000E+00  0.00000000E+00
  0.00000000E+00  0.00000000E+00  0.00000000E+00
  0.00000000E+00  0.00000000E+00  0.00000000E+00
  0.00000000E+00  0.00000000E+00  0.00000000E+00
  0.00000000E+00  0.00000000E+00  0.00000000E+00
  0.00000000E+00  0.00000000E+00  0.00000000E+00
  0.00000000E+00  0.00000000E+00  0.00000000E+00
  0.00000000E+00  0.00000000E+00  0.00000000E+00
  0.00000000E+00  0.00000000E+00  0.00000000E+00
  0.00000000E+00  0.00000000E+00  0.00000000E+00
  0.00000000E+00  0.00000000E+00  0.00000000E+00
  0.00000000E+00  0.00000000E+00  0.00000000E+00
  0.00000000E+00  0.00000000E+00  0.00000000E+00
  0.00000000E+00  0.00000000E+00  0.00000000E+00
  0.00000000E+00  0.00000000E+00  0.00000000E+00
  0.00000000E+00  0.00000000E+00  0.00000000E+00
  0.00000000E+00  0.00000000E+00  0.00000000E+00
  0.00000000E+00  0.00000000E+00  0.00000000E+00
  0.00000000E+00  0.00000000E+00  0.00000000E+00
  0.00000000E+00  0.00000000E+00  0.00000000E+00
  0.00000000E+00  0.00000000E+00  0.00000000E+00
  0.00000000E+00  0.00000000E+00  0.00000000E+00
  0.00000000E+00  0.00000000E+00  0.00000000E+00
  0.00000000E+00  0.00000000E+00  0.00000000E+00
  0.00000000E+00  0.00000000E+00  0.00000000E+00
  0.00000000E+00  0.00000000E+00  0.00000000E+00
  0.00000000E+00  0.00000000E+00  0.00000000E+00
  0.00000000E+00  0.00000000E+00  0.00000000E+00
  0.00000000E+00  0.00000000E+00  0.00000000E+00
  0.00000000E+00  0.00000000E+00  0.00000000E+00
  0.00000000E+00  0.00000000E+00  0.00000000E+00
  0.00000000E+00  0.00000000E+00  0.00000000E+00
  0.00000000E+00  0.00000000E+00  0.00000000E+00
  0.00000000E+00  0.00000000E+00  0.00000000E+00
  0.00000000E+00  0.00000000E+00  0.00000000E+00
  0.00000000E+00  0.00000000E+00  0.00000000E+00
  0.00000000E+00  0.00000000E+00  0.00000000E+00
  0.00000000E+00  0.00000000E+00  0.00000000E+00
  0.00000000E+00  0.00000000E+00  0.00000000E+00
  0.00000000E+00  0.00000000E+00  0.00000000E+00
  0.00000000E+00  0.00000000E+00  0.00000000E+00
  0.00000000E+00  0.00000000E+00  0.00000000E+00
  0.00000000E+00  0.00000000E+00  0.00000000E+00
  0.00000000E+00  0.00000000E+00  0.00000000E+00
  0.00000000E+00  0.00000000E+00  0.00000000E+00
  0.00000000E+00  0.00000000E+00  0.00000000E+00
  0.00000000E+00  0.00000000E+00  0.00000000E+00
  0.00000000E+00  0.00000000E+00  0.00000000E+00
  0.00000000E+00  0.00000000E+00  0.00000000E+00
  0.00000000E+00  0.00000000E+00  0.00000000E+00
  0.00000000E+00  0.00000000E+00  0.00000000E+00
  0.00000000E+00  0.00000000E+00  0.00000000E+00
  0.00000000E+00  0.00000000E+00  0.00000000E+00
  0.00000000E+00  0.00000000E+00  0.00000000E+00
  0.00000000E+00  0.00000000E+00  0.00000000E+00
  0.00000000E+00  0.00000000E+00  0.00000000E+00
  0.00000000E+00  0.00000000E+00  0.00000000E+00
  0.00000000E+00  0.00000000E+00  0.00000000E+00
  0.00000000E+00  0.00000000E+00  0.00000000E+00
  0.00000000E+00  0.00000000E+00  0.00000000E+00
  0.00000000E+00  0.00000000E+00  0.00000000E+00
  0.00000000E+00  0.00000000E+00  0.00000000E+00
  0.00000000E+00  0.00000000E+00  0.00000000E+00
  0.00000000E+00  0.00000000E+00  0.00000000E+00
  0.00000000E+00  0.00000000E+00  0.00000000E+00
  0.00000000E+00  0.00000000E+00  0.00000000E+00
  0.00000000E+00  0.00000000E+00  0.00000000E+00
  0.00000000E+00  0.00000000E+00  0.00000000E+00
  0.00000000E+00  0.00000000E+00  0.00000000E+00
  0.00000000E+00  0.00000000E+00  0.00000000E+00
  0.00000000E+00  0.00000000E+00  0.00000000E+00
  0.00000000E+00  0.00000000E+00  0.00000000E+00
  0.00000000E+00  0.00000000E+00  0.00000000E+00
  0.00000000E+00  0.00000000E+00  0.00000000E+00
  0.00000000E+00  0.00000000E+00  0.00000000E+00
  0.00000000E+00  0.00000000E+00  0.00000000E+00
  0.00000000E+00  0.00000000E+00  0.00000000E+00
  0.00000000E+00  0.00000000E+00  0.00000000E+00
  0.00000000E+00  0.00000000E+00  0.00000000E+00
  0.00000000E+00  0.00000000E+00  0.00000000E+00
  0.00000000E+00  0.00000000E+00  0.00000000E+00
  0.00000000E+00  0.00000000E+00  0.00000000E+00
  0.00000000E+00  0.00000000E+00  0.00000000E+00
  0.00000000E+00  0.00000000E+00  0.00000000E+00
  0.00000000E+00  0.00000000E+00  0.00000000E+00
  0.00000000E+00  0.00000000E+00  0.00000000E+00
  0.00000000E+00  0.00000000E+00  0.00000000E+00
  0.00000000E+00  0.00000000E+00  0.00000000E+00
  0.00000000E+00  0.00000000E+00  0.00000000E+00
  0.00000000E+00  0.00000000E+00  0.00000000E+00
  0.00000000E+00  0.00000000E+00  0.00000000E+00
  0.00000000E+00  0.00000000E+00  0.00000000E+00
  0.00000000E+00  0.00000000E+00  0.00000000E+00
  0.00000000E+00  0.00000000E+00  0.00000000E+00
  0.00000000E+00  0.00000000E+00  0.00000000E+00
  0.00000000E+00  0.00000000E+00  0.00000000E+00
  0.00000000E+00  0.00000000E+00  0.00000000E+00
  0.00000000E+00  0.00000000E+00  0.00000000E+00
  0.00000000E+00  0.00000000E+00  0.00000000E+00
  0.00000000E+00  0.00000000E+00  0.00000000E+00
