Nb1 C125 N1 O1                          
   1.00000000000000     
    19.8110129815018006   -0.0082251414239992   -0.0930750222202390
    -9.9124220666875811   17.0874657822044576   -0.0843062461864666
    -0.1394097993543700   -0.2275182670333746   29.7342764831217643
   Nb   C    N    O 
     1   125     1     1
Direct
  0.4442855655285244  0.5014669317900197  0.4362608405272268
  0.0420794950979576  0.0841120698884744  0.3996667623226619
  0.0413652303533515  0.2084919704032101  0.3993764632184469
  0.0408239858480322  0.3331295978963305  0.3990252921477492
  0.0406939167011345  0.4584512776873518  0.3991086745094396
  0.0412998349056609  0.5837635690583645  0.3997672881210137
  0.0418874365368810  0.7089696186818062  0.4002340811664719
  0.0422261940973502  0.8342308656906215  0.3999820672760235
  0.0423317021056306  0.9593188500187031  0.3997100218840543
  0.1673747711163542  0.0847135307231505  0.4000285646049322
  0.1671523834527745  0.2096455475963123  0.4002794367398841
  0.1659990985233292  0.3339504032506589  0.3997683192828028
  0.1645466164263633  0.4585211921811510  0.3986885432867975
  0.1653262912307423  0.5837276019316983  0.3987502481406183
  0.1663127748367154  0.7090022312277134  0.3995723715577858
  0.1668927180878086  0.8341872923499851  0.3998434077988426
  0.1672348705347269  0.9594210628615863  0.3997226164955962
  0.2923166587014780  0.0843893492313749  0.3998714059303780
  0.2929050033707760  0.2105726595902249  0.4016404377539597
  0.2926401540181791  0.3367344390126980  0.4041004352178351
  0.2887424593239102  0.4588773724459185  0.4023301915386201
  0.2891404764249388  0.5844831332661822  0.3995308704281961
  0.2907858634887107  0.7091777385004490  0.3992218331691509
  0.2915704254420078  0.8339448976076448  0.3994905095307010
  0.2918956926595697  0.9589887800283333  0.3995116272839319
  0.4169984127332296  0.0831536930370521  0.3993174682967484
  0.4173663534993173  0.2079298827256374  0.3996992153740995
  0.4188372199107837  0.3330492077284389  0.4046006351332084
  0.4152014967295229  0.7074590501232694  0.4005218987768069
  0.4162524503751928  0.8329796704025287  0.3995290377752357
  0.4166675580452314  0.9581315008167166  0.3994883199503876
  0.5417494659396045  0.0826432427670204  0.3994582646419211
  0.5422080906544113  0.2076401600704509  0.3989832793931840
  0.5429777885032283  0.3326376219250992  0.3995472550124848
  0.5442614536499449  0.4568107544590203  0.4040015232103259
  0.5486040591621681  0.5858813195182920  0.4066619394041301
  0.5396185930929709  0.7053753149570656  0.4026457690397166
  0.5407698391999110  0.8319538847253519  0.4000528344400343
  0.5414454336312250  0.9574885434559041  0.3997273254597406
  0.6665152323045981  0.0825307235783660  0.4000310653167555
  0.6668882633743344  0.2076663633542527  0.3995916133960122
  0.6673987635805654  0.3327209781552832  0.3989429464491211
  0.6686423252706333  0.4580719026003244  0.3984874871221163
  0.6696334430039060  0.5839259246133254  0.3988752823296554
  0.6680725890122293  0.7088091268937184  0.3987915334502594
  0.6657526845388453  0.8319165477031456  0.3995606096665917
  0.6661858773432895  0.9573494420213282  0.3999413199822163
  0.7913657799586568  0.0826715900529027  0.3999465039995670
  0.7915285053738911  0.2077272770611073  0.4000256748362849
  0.7919326225511383  0.3329692852265748  0.3998619449594751
  0.7925938986060932  0.4583244784263613  0.3992308119895548
  0.7930709201023076  0.5836062385409936  0.3984607171253832
  0.7930347270519761  0.7090214580284598  0.3982635934232034
  0.7922797434358819  0.8337095667824129  0.3987858645346105
  0.7912508067192302  0.9577274746030885  0.3995470457761704
  0.9164955862501997  0.0831683145540020  0.3995462003650208
  0.9162780207205889  0.2079666792523236  0.3995259470738645
  0.9163275695796053  0.3330738340806633  0.3997243613539597
  0.9166268382163111  0.4583149867532681  0.3999621608431976
  0.9172021241354136  0.5837045380100041  0.3999176916794303
  0.9174850482091886  0.7090693026876140  0.3996182221828835
  0.9174417934843144  0.8340775974177420  0.3994263354079293
  0.9170817982431825  0.9588053225431986  0.3995850233845921
  0.0839980463516596  0.0427837771879979  0.3997560781930298
  0.0836341754328257  0.1674836757778868  0.3996636843771612
  0.0826181133498752  0.2918109292597323  0.3992072287274125
  0.0819210081433752  0.4167180725609466  0.3987527617279612
  0.0823569394532975  0.5419159605647411  0.3991259944020931
  0.0831621691811423  0.6672208230410849  0.3999372235569878
  0.0837007103556707  0.7925345642401264  0.4001125089968720
  0.0839192248268505  0.9177129424181204  0.3997723149438454
  0.2089213555775822  0.0428273438548620  0.3999039127464012
  0.2090266572117143  0.1682589048767938  0.4006401250277785
  0.2087581779880387  0.2933158134422879  0.4008768030317733
  0.2059368410771954  0.4172061875051253  0.3996020187501715
  0.2061692598919362  0.5419886655532583  0.3986646332864234
  0.2076013547527062  0.6673146816387263  0.3990897603889889
  0.2083143436052615  0.7924178841546939  0.3996621182151938
  0.2087236502202987  0.9175906559819375  0.3996644996194375
  0.3337002731883932  0.0423133927237076  0.3995068831211618
  0.3341895830188246  0.1677652249849854  0.4004121301396915
  0.3346042741417589  0.2937061969162345  0.4043869255509991
  0.3307376285723701  0.4197034871806703  0.4065447497188215
  0.3308249205429551  0.5442220759945048  0.4022684307761694
  0.3320019627109316  0.6674321682138923  0.3996830646022181
  0.3330310540085928  0.7922746129684021  0.3994182322946324
  0.3334597465979357  0.9172086297507184  0.3994831560522229
  0.4585633111987819  0.0413819606447970  0.3993859912199412
  0.4588879401694065  0.1662476456883942  0.3991406746371357
  0.4596107726695400  0.2909656638021424  0.4004648508044943
  0.4632006868896931  0.4141118960652408  0.4092474010661515
  0.4546359700218935  0.6633399543153107  0.4031650651665683
  0.4576821574102672  0.7909493329896856  0.3998720816969921
  0.4581754572840966  0.9162821258213786  0.3995720007109098
  0.5833086789308158  0.0409217439979325  0.3997647596985622
  0.5836735469041517  0.1660181152859363  0.3992669594443118
  0.5843370013726438  0.2909416242516802  0.3988817121674915
  0.5858369797327679  0.4158948173400266  0.3999165964185457
  0.5872745557737116  0.5431334887928175  0.4029719425311474
  0.5849451354498217  0.6664572027956612  0.4022508361242272
  0.5814452552911762  0.7889950924425477  0.4005375754822970
  0.5828231604451336  0.9155294842996778  0.3998546643380577
  0.7080111036510004  0.0407989489247708  0.4000787790474308
  0.7083638349889676  0.1660074689061350  0.3999806182851735
  0.7087575269194626  0.2910947407649981  0.3994804938819723
  0.7095911278683853  0.4164077742134206  0.3986456757838257
  0.7104367218751414  0.5418466741707634  0.3981990873092505
  0.7098466663552314  0.6672036519957021  0.3982223617193844
  0.7089121850236569  0.7918447857447588  0.3987143321516003
  0.7076073804768170  0.9154802330595286  0.3996484810122889
  0.8330134926944317  0.0411824194963823  0.3997012713954638
  0.8330368409196889  0.1661289817269228  0.3998810142419756
  0.8332822070899228  0.2912970101679028  0.3999824476622059
  0.8337085908084211  0.4165004707304594  0.3998405209990300
  0.8342493219179326  0.5417956465889999  0.3992238735846477
  0.8344153461543494  0.6673315334617995  0.3987293822903230
  0.8342129835177524  0.7923306995508245  0.3987596297267011
  0.8336289226246040  0.9168775319336786  0.3993574869367509
  0.9586306815705575  0.0421420376175743  0.3996058953513899
  0.9580738947882458  0.1665850093758700  0.3993992689458158
  0.9577707090271210  0.2913620511717580  0.3993842718430146
  0.9577907169061458  0.4165618821475354  0.3996658352239660
  0.9583941563804580  0.5419691815556447  0.4000160847335936
  0.9588307044602968  0.6672498801553514  0.4000659420662037
  0.9590149109092864  0.7924821022881173  0.3997662539104309
  0.9589539830094106  0.9174842599352252  0.3996200165769506
  0.4100317858804494  0.5828578581285015  0.4057211500011648
  0.4344433294311641  0.5006245642904541  0.4952054430761393
 
  0.00000000E+00  0.00000000E+00  0.00000000E+00
  0.00000000E+00  0.00000000E+00  0.00000000E+00
  0.00000000E+00  0.00000000E+00  0.00000000E+00
  0.00000000E+00  0.00000000E+00  0.00000000E+00
  0.00000000E+00  0.00000000E+00  0.00000000E+00
  0.00000000E+00  0.00000000E+00  0.00000000E+00
  0.00000000E+00  0.00000000E+00  0.00000000E+00
  0.00000000E+00  0.00000000E+00  0.00000000E+00
  0.00000000E+00  0.00000000E+00  0.00000000E+00
  0.00000000E+00  0.00000000E+00  0.00000000E+00
  0.00000000E+00  0.00000000E+00  0.00000000E+00
  0.00000000E+00  0.00000000E+00  0.00000000E+00
  0.00000000E+00  0.00000000E+00  0.00000000E+00
  0.00000000E+00  0.00000000E+00  0.00000000E+00
  0.00000000E+00  0.00000000E+00  0.00000000E+00
  0.00000000E+00  0.00000000E+00  0.00000000E+00
  0.00000000E+00  0.00000000E+00  0.00000000E+00
  0.00000000E+00  0.00000000E+00  0.00000000E+00
  0.00000000E+00  0.00000000E+00  0.00000000E+00
  0.00000000E+00  0.00000000E+00  0.00000000E+00
  0.00000000E+00  0.00000000E+00  0.00000000E+00
  0.00000000E+00  0.00000000E+00  0.00000000E+00
  0.00000000E+00  0.00000000E+00  0.00000000E+00
  0.00000000E+00  0.00000000E+00  0.00000000E+00
  0.00000000E+00  0.00000000E+00  0.00000000E+00
  0.00000000E+00  0.00000000E+00  0.00000000E+00
  0.00000000E+00  0.00000000E+00  0.00000000E+00
  0.00000000E+00  0.00000000E+00  0.00000000E+00
  0.00000000E+00  0.00000000E+00  0.00000000E+00
  0.00000000E+00  0.00000000E+00  0.00000000E+00
  0.00000000E+00  0.00000000E+00  0.00000000E+00
  0.00000000E+00  0.00000000E+00  0.00000000E+00
  0.00000000E+00  0.00000000E+00  0.00000000E+00
  0.00000000E+00  0.00000000E+00  0.00000000E+00
  0.00000000E+00  0.00000000E+00  0.00000000E+00
  0.00000000E+00  0.00000000E+00  0.00000000E+00
  0.00000000E+00  0.00000000E+00  0.00000000E+00
  0.00000000E+00  0.00000000E+00  0.00000000E+00
  0.00000000E+00  0.00000000E+00  0.00000000E+00
  0.00000000E+00  0.00000000E+00  0.00000000E+00
  0.00000000E+00  0.00000000E+00  0.00000000E+00
  0.00000000E+00  0.00000000E+00  0.00000000E+00
  0.00000000E+00  0.00000000E+00  0.00000000E+00
  0.00000000E+00  0.00000000E+00  0.00000000E+00
  0.00000000E+00  0.00000000E+00  0.00000000E+00
  0.00000000E+00  0.00000000E+00  0.00000000E+00
  0.00000000E+00  0.00000000E+00  0.00000000E+00
  0.00000000E+00  0.00000000E+00  0.00000000E+00
  0.00000000E+00  0.00000000E+00  0.00000000E+00
  0.00000000E+00  0.00000000E+00  0.00000000E+00
  0.00000000E+00  0.00000000E+00  0.00000000E+00
  0.00000000E+00  0.00000000E+00  0.00000000E+00
  0.00000000E+00  0.00000000E+00  0.00000000E+00
  0.00000000E+00  0.00000000E+00  0.00000000E+00
  0.00000000E+00  0.00000000E+00  0.00000000E+00
  0.00000000E+00  0.00000000E+00  0.00000000E+00
  0.00000000E+00  0.00000000E+00  0.00000000E+00
  0.00000000E+00  0.00000000E+00  0.00000000E+00
  0.00000000E+00  0.00000000E+00  0.00000000E+00
  0.00000000E+00  0.00000000E+00  0.00000000E+00
  0.00000000E+00  0.00000000E+00  0.00000000E+00
  0.00000000E+00  0.00000000E+00  0.00000000E+00
  0.00000000E+00  0.00000000E+00  0.00000000E+00
  0.00000000E+00  0.00000000E+00  0.00000000E+00
  0.00000000E+00  0.00000000E+00  0.00000000E+00
  0.00000000E+00  0.00000000E+00  0.00000000E+00
  0.00000000E+00  0.00000000E+00  0.00000000E+00
  0.00000000E+00  0.00000000E+00  0.00000000E+00
  0.00000000E+00  0.00000000E+00  0.00000000E+00
  0.00000000E+00  0.00000000E+00  0.00000000E+00
  0.00000000E+00  0.00000000E+00  0.00000000E+00
  0.00000000E+00  0.00000000E+00  0.00000000E+00
  0.00000000E+00  0.00000000E+00  0.00000000E+00
  0.00000000E+00  0.00000000E+00  0.00000000E+00
  0.00000000E+00  0.00000000E+00  0.00000000E+00
  0.00000000E+00  0.00000000E+00  0.00000000E+00
  0.00000000E+00  0.00000000E+00  0.00000000E+00
  0.00000000E+00  0.00000000E+00  0.00000000E+00
  0.00000000E+00  0.00000000E+00  0.00000000E+00
  0.00000000E+00  0.00000000E+00  0.00000000E+00
  0.00000000E+00  0.00000000E+00  0.00000000E+00
  0.00000000E+00  0.00000000E+00  0.00000000E+00
  0.00000000E+00  0.00000000E+00  0.00000000E+00
  0.00000000E+00  0.00000000E+00  0.00000000E+00
  0.00000000E+00  0.00000000E+00  0.00000000E+00
  0.00000000E+00  0.00000000E+00  0.00000000E+00
  0.00000000E+00  0.00000000E+00  0.00000000E+00
  0.00000000E+00  0.00000000E+00  0.00000000E+00
  0.00000000E+00  0.00000000E+00  0.00000000E+00
  0.00000000E+00  0.00000000E+00  0.00000000E+00
  0.00000000E+00  0.00000000E+00  0.00000000E+00
  0.00000000E+00  0.00000000E+00  0.00000000E+00
  0.00000000E+00  0.00000000E+00  0.00000000E+00
  0.00000000E+00  0.00000000E+00  0.00000000E+00
  0.00000000E+00  0.00000000E+00  0.00000000E+00
  0.00000000E+00  0.00000000E+00  0.00000000E+00
  0.00000000E+00  0.00000000E+00  0.00000000E+00
  0.00000000E+00  0.00000000E+00  0.00000000E+00
  0.00000000E+00  0.00000000E+00  0.00000000E+00
  0.00000000E+00  0.00000000E+00  0.00000000E+00
  0.00000000E+00  0.00000000E+00  0.00000000E+00
  0.00000000E+00  0.00000000E+00  0.00000000E+00
  0.00000000E+00  0.00000000E+00  0.00000000E+00
  0.00000000E+00  0.00000000E+00  0.00000000E+00
  0.00000000E+00  0.00000000E+00  0.00000000E+00
  0.00000000E+00  0.00000000E+00  0.00000000E+00
  0.00000000E+00  0.00000000E+00  0.00000000E+00
  0.00000000E+00  0.00000000E+00  0.00000000E+00
  0.00000000E+00  0.00000000E+00  0.00000000E+00
  0.00000000E+00  0.00000000E+00  0.00000000E+00
  0.00000000E+00  0.00000000E+00  0.00000000E+00
  0.00000000E+00  0.00000000E+00  0.00000000E+00
  0.00000000E+00  0.00000000E+00  0.00000000E+00
  0.00000000E+00  0.00000000E+00  0.00000000E+00
  0.00000000E+00  0.00000000E+00  0.00000000E+00
  0.00000000E+00  0.00000000E+00  0.00000000E+00
  0.00000000E+00  0.00000000E+00  0.00000000E+00
  0.00000000E+00  0.00000000E+00  0.00000000E+00
  0.00000000E+00  0.00000000E+00  0.00000000E+00
  0.00000000E+00  0.00000000E+00  0.00000000E+00
  0.00000000E+00  0.00000000E+00  0.00000000E+00
  0.00000000E+00  0.00000000E+00  0.00000000E+00
  0.00000000E+00  0.00000000E+00  0.00000000E+00
  0.00000000E+00  0.00000000E+00  0.00000000E+00
  0.00000000E+00  0.00000000E+00  0.00000000E+00
  0.00000000E+00  0.00000000E+00  0.00000000E+00
  0.00000000E+00  0.00000000E+00  0.00000000E+00
  0.00000000E+00  0.00000000E+00  0.00000000E+00
