Y1 C123 N3 O1                           
   1.00000000000000     
    19.7954106798097484    0.0081037755307325   -0.3856356823641771
    -9.8909683562749748   17.0454309946019258    0.1299058846699699
    -0.5792484688829214   -0.1096395918399194   29.8261112822837262
   Y    C    N    O 
     1   123     3     1
Direct
  0.4395853498919334  0.5048606672316451  0.4541663102138343
  0.0419792275888383  0.0839222781810011  0.3993583591635054
  0.0410427106944281  0.2081045802551222  0.3993387056241901
  0.0405405495951060  0.3328855534857308  0.3989841343379539
  0.0407976499662254  0.4581797661640919  0.3986274511539014
  0.0416002499884703  0.5836187665761259  0.3986681086002742
  0.0423337298775405  0.7090181103692105  0.3988246422380715
  0.0426598885809772  0.8343919514762118  0.3990573189184098
  0.0426339122259609  0.9594715082848306  0.3992751125133797
  0.1678932525260891  0.0852727047447195  0.3999151935585457
  0.1669991473822354  0.2094734844409009  0.4004890991548821
  0.1653754862424817  0.3334054139863876  0.4002621109944273
  0.1647847306910875  0.4582584295919022  0.3990183972676257
  0.1656522903254931  0.5834156646806099  0.3985250140579465
  0.1666534164801879  0.7088173350790421  0.3988166904546153
  0.1672727818927059  0.8342620836221359  0.3991759599278578
  0.1676527753692287  0.9597956192480382  0.3994701078882804
  0.2926942296584511  0.0853125858281009  0.3998860772061890
  0.2935627237809508  0.2121826620948150  0.4025062469372327
  0.2918242222828628  0.3374382326303094  0.4050830532867963
  0.2889491076090944  0.4567213900735583  0.4028505952495446
  0.2894691297139298  0.5829697147807161  0.3994977116032540
  0.2909765768063043  0.7083815733847583  0.3988281013621000
  0.2918101371808827  0.8337614470379552  0.3989586330487489
  0.2922494037801338  0.9593560038615940  0.3991691359404048
  0.4171536595186031  0.0838314771869934  0.3988843445077146
  0.4177254954817186  0.2095024817221504  0.4001664186679226
  0.4204633397492212  0.3363208052009780  0.4082090783998292
  0.4153185164649225  0.7067586458792672  0.4003552824202616
  0.4164042887952333  0.8325474146114584  0.3992505078826468
  0.4167979787169513  0.9581803464680227  0.3990332316631560
  0.5416872024272497  0.0826592948815847  0.3988240291500970
  0.5421320526505876  0.2082555852927419  0.3981412257261778
  0.5432612416008297  0.3338966898751211  0.3996724616993114
  0.5458269689326335  0.4588666663110039  0.4071952746174475
  0.5397135618430240  0.7028113372684718  0.4042716282300444
  0.5408798442357711  0.8306246272726617  0.4004858120144482
  0.5413664298562941  0.9568673607555079  0.3994286837054852
  0.6662767007235151  0.0821233405436944  0.3992924816708948
  0.6666493933210607  0.2075809740478233  0.3983170889904703
  0.6673006382681270  0.3329695673351172  0.3969935931344737
  0.6687501797832235  0.4584757746577388  0.3968254937585896
  0.6702583848059002  0.5841785606146493  0.3993088988827163
  0.6679892598899521  0.7075604439743871  0.4004946360788159
  0.6655308277342685  0.8308703703372142  0.4004445665938763
  0.6659981115549002  0.9566230609511532  0.3998297761912584
  0.7910375886005777  0.0821685451762987  0.3994006962933525
  0.7912305986218672  0.2074264229857184  0.3989754864415447
  0.7917053408638032  0.3327884536291338  0.3979792886380930
  0.7926182469111571  0.4583027761002400  0.3967940865700610
  0.7933903092675296  0.5837163175983702  0.3965346464896814
  0.7935572322515798  0.7090419783915695  0.3977320261836495
  0.7919951018801302  0.8330131324169234  0.3986865049690336
  0.7909369658548352  0.9570624021584990  0.3992739031301114
  0.9161441315117895  0.0826864622460377  0.3991830044312579
  0.9159427368078383  0.2075730200100154  0.3991328860679713
  0.9160781929659445  0.3328046734048366  0.3988007472126542
  0.9166993627460418  0.4581878622925038  0.3982792932868452
  0.9175179800568130  0.5836952172509789  0.3978521565563443
  0.9179174618641237  0.7090592224767873  0.3980038839041776
  0.9177460438760818  0.8341270854782011  0.3985574807960011
  0.9169267768981849  0.9584328195453333  0.3990007435699333
  0.0843390246030975  0.0430094913241895  0.3994710006544636
  0.0834972752929312  0.1672751267560952  0.3995997780801356
  0.0821756843872049  0.2913880710793178  0.3993555256736804
  0.0819968092780048  0.4163890967919347  0.3987494027662007
  0.0826471720808047  0.5416819554468999  0.3986051267156821
  0.0835344387140636  0.6671420912372320  0.3988124487956954
  0.0841128428983964  0.7925923427364160  0.3990785286644030
  0.0843272438717858  0.9179098084006867  0.3993110760254336
  0.2093786364610779  0.0433171035748709  0.3998093766008978
  0.2096203501861477  0.1689065831153030  0.4008250721009270
  0.2080899305896404  0.2929121120523393  0.4014162176363629
  0.2061492650962952  0.4166906416325714  0.4002956910490093
  0.2064878850650987  0.5414719703256561  0.3987639664428252
  0.2078321113364406  0.6669599834771746  0.3986350290374907
  0.2086204045756151  0.7923403726277556  0.3989939070237647
  0.2090685836645355  0.9178219968889751  0.3992959045282574
  0.3339605203881144  0.0429563537857219  0.3992394404831104
  0.3345812921394837  0.1690783659504305  0.4009749828326876
  0.3357903009237324  0.2960028220912556  0.4062764025123743
  0.3320396253811256  0.5428401625457624  0.4020273267323922
  0.3321038919732873  0.6662967722281108  0.3994076203068589
  0.3331451272997995  0.7917062599735584  0.3989426242697082
  0.3336233984145608  0.9172251196444521  0.3990383219823300
  0.4585204458865593  0.0416341378780483  0.3988691186961479
  0.4589284816054439  0.1671976177747732  0.3987245432962706
  0.4600596393460749  0.2929351418403909  0.4019814219086064
  0.4665510450930144  0.4173174407656131  0.4168948658331426
  0.4545297860556183  0.6621080182851524  0.4033758487625033
  0.4576982091142541  0.7902351048630269  0.3999229960207330
  0.4581737690384999  0.9159611308130599  0.3992281740512998
  0.5830843728216226  0.0405163291870678  0.3992107819657112
  0.5834649507793711  0.1661800504448419  0.3983332543131222
  0.5841702508802261  0.2917163700476746  0.3978019892661606
  0.5862152331932338  0.4173954436384285  0.3997608211586735
  0.5890223008319856  0.5444583357049192  0.4059798659974374
  0.5850985462868031  0.6630957768883624  0.4052113532832102
  0.5815863697732481  0.7872058317216636  0.4016961798681418
  0.5826884683603996  0.9144949519440430  0.3998652787679993
  0.7077498602625887  0.0402128496730253  0.3995509545553922
  0.7080470886550035  0.1657122665294569  0.3989132382228726
  0.7085079518065914  0.2910845652836992  0.3976450313581040
  0.7095665513453849  0.4164893821195608  0.3963803658933602
  0.7107349941781950  0.5419140435127208  0.3968751691037945
  0.7107086401349861  0.6672049930960028  0.3989131315053931
  0.7085676935774640  0.7908121980051525  0.3995361404299185
  0.7073391993507188  0.9146445160329294  0.3997829085758826
  0.8327245765376596  0.0406429479755041  0.3992824826462528
  0.8327102109887824  0.1656961758905492  0.3992237379117043
  0.8330185171473526  0.2909825199887611  0.3986583270079729
  0.8336951603130114  0.4163578386558305  0.3976940531293319
  0.8345272251960484  0.5418167043797329  0.3968740514992691
  0.8349063380229990  0.6672897594567262  0.3972442207995054
  0.8345008962217333  0.7922464479514718  0.3982365104906163
  0.8334412609479370  0.9163168557538258  0.3989486037904855
  0.9584713949219540  0.0417928957390947  0.3991590002619768
  0.9577270345397974  0.1661049470827043  0.3991809949370971
  0.9575116280378947  0.2910805816261977  0.3989774070118969
  0.9578079251660038  0.4163111118164490  0.3986399166464875
  0.9586209475848249  0.5417983189905299  0.3983415674124610
  0.9592957786121771  0.6672582006412433  0.3982667467918135
  0.9594515202817024  0.7925650101340797  0.3985878203049689
  0.9592520457245184  0.9175029679475927  0.3989761097062270
  0.4112464142634308  0.5824421809435979  0.4054022905432974
  0.5504328956045029  0.5843330451378507  0.4109881080144274
  0.3284576922431673  0.4171801831602449  0.4069192016009016
  0.4317910471820658  0.5247174635330129  0.5164010265164908
 
  0.00000000E+00  0.00000000E+00  0.00000000E+00
  0.00000000E+00  0.00000000E+00  0.00000000E+00
  0.00000000E+00  0.00000000E+00  0.00000000E+00
  0.00000000E+00  0.00000000E+00  0.00000000E+00
  0.00000000E+00  0.00000000E+00  0.00000000E+00
  0.00000000E+00  0.00000000E+00  0.00000000E+00
  0.00000000E+00  0.00000000E+00  0.00000000E+00
  0.00000000E+00  0.00000000E+00  0.00000000E+00
  0.00000000E+00  0.00000000E+00  0.00000000E+00
  0.00000000E+00  0.00000000E+00  0.00000000E+00
  0.00000000E+00  0.00000000E+00  0.00000000E+00
  0.00000000E+00  0.00000000E+00  0.00000000E+00
  0.00000000E+00  0.00000000E+00  0.00000000E+00
  0.00000000E+00  0.00000000E+00  0.00000000E+00
  0.00000000E+00  0.00000000E+00  0.00000000E+00
  0.00000000E+00  0.00000000E+00  0.00000000E+00
  0.00000000E+00  0.00000000E+00  0.00000000E+00
  0.00000000E+00  0.00000000E+00  0.00000000E+00
  0.00000000E+00  0.00000000E+00  0.00000000E+00
  0.00000000E+00  0.00000000E+00  0.00000000E+00
  0.00000000E+00  0.00000000E+00  0.00000000E+00
  0.00000000E+00  0.00000000E+00  0.00000000E+00
  0.00000000E+00  0.00000000E+00  0.00000000E+00
  0.00000000E+00  0.00000000E+00  0.00000000E+00
  0.00000000E+00  0.00000000E+00  0.00000000E+00
  0.00000000E+00  0.00000000E+00  0.00000000E+00
  0.00000000E+00  0.00000000E+00  0.00000000E+00
  0.00000000E+00  0.00000000E+00  0.00000000E+00
  0.00000000E+00  0.00000000E+00  0.00000000E+00
  0.00000000E+00  0.00000000E+00  0.00000000E+00
  0.00000000E+00  0.00000000E+00  0.00000000E+00
  0.00000000E+00  0.00000000E+00  0.00000000E+00
  0.00000000E+00  0.00000000E+00  0.00000000E+00
  0.00000000E+00  0.00000000E+00  0.00000000E+00
  0.00000000E+00  0.00000000E+00  0.00000000E+00
  0.00000000E+00  0.00000000E+00  0.00000000E+00
  0.00000000E+00  0.00000000E+00  0.00000000E+00
  0.00000000E+00  0.00000000E+00  0.00000000E+00
  0.00000000E+00  0.00000000E+00  0.00000000E+00
  0.00000000E+00  0.00000000E+00  0.00000000E+00
  0.00000000E+00  0.00000000E+00  0.00000000E+00
  0.00000000E+00  0.00000000E+00  0.00000000E+00
  0.00000000E+00  0.00000000E+00  0.00000000E+00
  0.00000000E+00  0.00000000E+00  0.00000000E+00
  0.00000000E+00  0.00000000E+00  0.00000000E+00
  0.00000000E+00  0.00000000E+00  0.00000000E+00
  0.00000000E+00  0.00000000E+00  0.00000000E+00
  0.00000000E+00  0.00000000E+00  0.00000000E+00
  0.00000000E+00  0.00000000E+00  0.00000000E+00
  0.00000000E+00  0.00000000E+00  0.00000000E+00
  0.00000000E+00  0.00000000E+00  0.00000000E+00
  0.00000000E+00  0.00000000E+00  0.00000000E+00
  0.00000000E+00  0.00000000E+00  0.00000000E+00
  0.00000000E+00  0.00000000E+00  0.00000000E+00
  0.00000000E+00  0.00000000E+00  0.00000000E+00
  0.00000000E+00  0.00000000E+00  0.00000000E+00
  0.00000000E+00  0.00000000E+00  0.00000000E+00
  0.00000000E+00  0.00000000E+00  0.00000000E+00
  0.00000000E+00  0.00000000E+00  0.00000000E+00
  0.00000000E+00  0.00000000E+00  0.00000000E+00
  0.00000000E+00  0.00000000E+00  0.00000000E+00
  0.00000000E+00  0.00000000E+00  0.00000000E+00
  0.00000000E+00  0.00000000E+00  0.00000000E+00
  0.00000000E+00  0.00000000E+00  0.00000000E+00
  0.00000000E+00  0.00000000E+00  0.00000000E+00
  0.00000000E+00  0.00000000E+00  0.00000000E+00
  0.00000000E+00  0.00000000E+00  0.00000000E+00
  0.00000000E+00  0.00000000E+00  0.00000000E+00
  0.00000000E+00  0.00000000E+00  0.00000000E+00
  0.00000000E+00  0.00000000E+00  0.00000000E+00
  0.00000000E+00  0.00000000E+00  0.00000000E+00
  0.00000000E+00  0.00000000E+00  0.00000000E+00
  0.00000000E+00  0.00000000E+00  0.00000000E+00
  0.00000000E+00  0.00000000E+00  0.00000000E+00
  0.00000000E+00  0.00000000E+00  0.00000000E+00
  0.00000000E+00  0.00000000E+00  0.00000000E+00
  0.00000000E+00  0.00000000E+00  0.00000000E+00
  0.00000000E+00  0.00000000E+00  0.00000000E+00
  0.00000000E+00  0.00000000E+00  0.00000000E+00
  0.00000000E+00  0.00000000E+00  0.00000000E+00
  0.00000000E+00  0.00000000E+00  0.00000000E+00
  0.00000000E+00  0.00000000E+00  0.00000000E+00
  0.00000000E+00  0.00000000E+00  0.00000000E+00
  0.00000000E+00  0.00000000E+00  0.00000000E+00
  0.00000000E+00  0.00000000E+00  0.00000000E+00
  0.00000000E+00  0.00000000E+00  0.00000000E+00
  0.00000000E+00  0.00000000E+00  0.00000000E+00
  0.00000000E+00  0.00000000E+00  0.00000000E+00
  0.00000000E+00  0.00000000E+00  0.00000000E+00
  0.00000000E+00  0.00000000E+00  0.00000000E+00
  0.00000000E+00  0.00000000E+00  0.00000000E+00
  0.00000000E+00  0.00000000E+00  0.00000000E+00
  0.00000000E+00  0.00000000E+00  0.00000000E+00
  0.00000000E+00  0.00000000E+00  0.00000000E+00
  0.00000000E+00  0.00000000E+00  0.00000000E+00
  0.00000000E+00  0.00000000E+00  0.00000000E+00
  0.00000000E+00  0.00000000E+00  0.00000000E+00
  0.00000000E+00  0.00000000E+00  0.00000000E+00
  0.00000000E+00  0.00000000E+00  0.00000000E+00
  0.00000000E+00  0.00000000E+00  0.00000000E+00
  0.00000000E+00  0.00000000E+00  0.00000000E+00
  0.00000000E+00  0.00000000E+00  0.00000000E+00
  0.00000000E+00  0.00000000E+00  0.00000000E+00
  0.00000000E+00  0.00000000E+00  0.00000000E+00
  0.00000000E+00  0.00000000E+00  0.00000000E+00
  0.00000000E+00  0.00000000E+00  0.00000000E+00
  0.00000000E+00  0.00000000E+00  0.00000000E+00
  0.00000000E+00  0.00000000E+00  0.00000000E+00
  0.00000000E+00  0.00000000E+00  0.00000000E+00
  0.00000000E+00  0.00000000E+00  0.00000000E+00
  0.00000000E+00  0.00000000E+00  0.00000000E+00
  0.00000000E+00  0.00000000E+00  0.00000000E+00
  0.00000000E+00  0.00000000E+00  0.00000000E+00
  0.00000000E+00  0.00000000E+00  0.00000000E+00
  0.00000000E+00  0.00000000E+00  0.00000000E+00
  0.00000000E+00  0.00000000E+00  0.00000000E+00
  0.00000000E+00  0.00000000E+00  0.00000000E+00
  0.00000000E+00  0.00000000E+00  0.00000000E+00
  0.00000000E+00  0.00000000E+00  0.00000000E+00
  0.00000000E+00  0.00000000E+00  0.00000000E+00
  0.00000000E+00  0.00000000E+00  0.00000000E+00
  0.00000000E+00  0.00000000E+00  0.00000000E+00
  0.00000000E+00  0.00000000E+00  0.00000000E+00
  0.00000000E+00  0.00000000E+00  0.00000000E+00
  0.00000000E+00  0.00000000E+00  0.00000000E+00
  0.00000000E+00  0.00000000E+00  0.00000000E+00
  0.00000000E+00  0.00000000E+00  0.00000000E+00
  0.00000000E+00  0.00000000E+00  0.00000000E+00
