Nb1 C124 N2                             
   1.00000000000000     
    19.8114526516012930   -0.0209110141950165    0.0016586827476924
    -9.9238994199240231   17.0620082425762405   -0.0006206458131441
     0.0024954119826776    0.0003657540485401   29.7866943726913966
   Nb   C    N 
     1   124     2
Direct
  0.4375316315563929  0.4999755167760689  0.4328178075910397
  0.0422137104356307  0.0841917417940140  0.3999477181759054
  0.0416854130064129  0.2086101093669755  0.3997677939023515
  0.0409698097778980  0.3331924770763061  0.3998581276161053
  0.0407096168859060  0.4583873089871789  0.3998551940804080
  0.0412498217948204  0.5837724617897174  0.3999355065839217
  0.0417925296272040  0.7091041110435947  0.4000747382245954
  0.0420467940136794  0.8342975445156616  0.4000596460977647
  0.0422494523983989  0.9594373976402306  0.4000246256690558
  0.1679935716255151  0.0854839101728043  0.3998953623131105
  0.1679359489305972  0.2104370885745217  0.3995091205843918
  0.1664524037967715  0.3343414727416358  0.3995660280304043
  0.1646644648483622  0.4587759386464395  0.4001530630168118
  0.1652303666545691  0.5839220722170406  0.3997881509613846
  0.1661761949521907  0.7091106364362438  0.3998638727621432
  0.1667658440945937  0.8343702176979848  0.4000728629597600
  0.1672757015382991  0.9597592429390986  0.4000170814769082
  0.2924756423954682  0.0850057573707594  0.3998580471707028
  0.2941138310610130  0.2118962618510324  0.3999341607496954
  0.2941499183292327  0.3380741063875412  0.4001005041965777
  0.2890812530100257  0.4599783456744864  0.4013004534030843
  0.2889130070618920  0.5844612362808164  0.4008659422673044
  0.2905794620479624  0.7090849243154237  0.3997676905477196
  0.2914392636686570  0.8341040069746030  0.3998497414589089
  0.2919325552275303  0.9593676065749390  0.4000073864588735
  0.4170581489487740  0.0837613555320015  0.3998561853184923
  0.4176360943333010  0.2093708836017517  0.3994922794836639
  0.4204154007017889  0.3366638223304426  0.4013731370070882
  0.4148419007960585  0.7070801728798218  0.3999006511435806
  0.4160183097646726  0.8328203800361125  0.3995952591517523
  0.4165718286792290  0.9582987794247874  0.4000244164589565
  0.5416641925169094  0.0825394371178580  0.4000191057784250
  0.5421949294637344  0.2077060351886106  0.3996752230259753
  0.5433750336197987  0.3325839627817195  0.4001899717067630
  0.5449426071820298  0.4561773747347224  0.4024936806720252
  0.5424851927669516  0.5790223125294204  0.4021573782607950
  0.5383659080870001  0.7038394021572012  0.4006726979266914
  0.5404497388547790  0.8312615718655918  0.3997755315313093
  0.5412045533232730  0.9571199583866518  0.3999494197977924
  0.6663336535232443  0.0820854900401320  0.4000586604435616
  0.6668361058680593  0.2073898625199986  0.3999525228493935
  0.6676692198460592  0.3326635211243783  0.3998007306115691
  0.6690201443013591  0.4579378730275175  0.4001702118676133
  0.6687219689904639  0.5822991996205201  0.4002106797907671
  0.6653509059349002  0.7058662891831907  0.3992877784532001
  0.6648005072748072  0.8307163644747240  0.3997286347989087
  0.6658023621144750  0.9566476790061297  0.3999527120218809
  0.7911502984129454  0.0821615815221529  0.4000237561433609
  0.7914577230276187  0.2073877366128387  0.4001072222810645
  0.7919905488603539  0.3327000163933121  0.3999636081795515
  0.7927317877454501  0.4580722702178615  0.3997815125938078
  0.7931371549480554  0.5833660632711408  0.3998633759129265
  0.7919729342371982  0.7079909385004998  0.3997167977398646
  0.7908578029014038  0.8321443398725087  0.3997418491834860
  0.7907130992700732  0.9568576535370004  0.3999301723915538
  0.9163410871952826  0.0828146530899035  0.3999890393014486
  0.9162833867425464  0.2076657262097911  0.3999537153078029
  0.9163621548818980  0.3328362586194151  0.4000184572520110
  0.9167146300783444  0.4582354769155744  0.4000106069888747
  0.9172099840095728  0.5836254226327467  0.3999553573477022
  0.9171686555802517  0.7088118656017797  0.3999389111968505
  0.9168836460276143  0.8336418798884454  0.3999616640871402
  0.9165262699422448  0.9582136073544616  0.4000349203022264
  0.0842833257633542  0.0431272731125051  0.3999732912462564
  0.0841381934151343  0.1678362523209340  0.3997357662003073
  0.0830490249922915  0.2920123475574610  0.3996964768560243
  0.0818870408361090  0.4166544506326105  0.3998803369170773
  0.0822639388198463  0.5419566210364659  0.3997957103244156
  0.0830193319715045  0.6673113975401254  0.3999682050641174
  0.0835322625216642  0.7926065880710770  0.4001081109255782
  0.0838647994688324  0.9178339638975695  0.4000317074869904
  0.2091931179859723  0.0433413315377500  0.3999567569461222
  0.2101702838524182  0.1692811903233702  0.3997389359982690
  0.2096470923854701  0.2941245473222772  0.3992862675148084
  0.2062965344574746  0.4177079150891317  0.4002169515504737
  0.2059970636053609  0.5420863209683019  0.4001630767924917
  0.2073306379987414  0.6673653939693660  0.3997844171191414
  0.2081487931694075  0.7926224589468647  0.3999415434573713
  0.2086629574136798  0.9179050111399006  0.4000484494315176
  0.3337762153634177  0.0428637967360295  0.3999032296703934
  0.3345039864365230  0.1687165577936959  0.3997612520783694
  0.3366129743317324  0.2961617157845330  0.4006387919435647
  0.3325092614677799  0.4209973873728426  0.4021727997289792
  0.3300625666723472  0.5438388693269974  0.4025349455666284
  0.3316157283146497  0.6674264643913799  0.4002008273816603
  0.3327937944292372  0.7923013328307194  0.3996573630384253
  0.3333428168382531  0.9174487502071391  0.3999783154919389
  0.4584376714658915  0.0416874417883849  0.4000370346050986
  0.4589687986691012  0.1671646566039997  0.3995973075747590
  0.4601251631772020  0.2928875298246170  0.3998784589222650
  0.4545591289509318  0.6633016344658421  0.4014212451744615
  0.4573249819610391  0.7905975936411200  0.3995068102985987
  0.4579321916185943  0.9162141048608258  0.3998658822519989
  0.5830722506393606  0.0406177670116189  0.4000484504389875
  0.5835484029317702  0.1658948395384260  0.3998713244198333
  0.5844138189423810  0.2909390491634016  0.3997822137568440
  0.5861038518690279  0.4155582543862711  0.4008547431334856
  0.5859316655292056  0.5400454571214069  0.4012691466953373
  0.5808385255185239  0.6619335388176326  0.4001017594604396
  0.5808471678094997  0.7880974579241777  0.3999456360851191
  0.5825041532271470  0.9149831146571906  0.3998877153591083
  0.7077274132816695  0.0402291955421596  0.4000179352435210
  0.7082161498539749  0.1656259886376565  0.4000851688191014
  0.7088252372420527  0.2909060205622238  0.3998750605918476
  0.7097790510307888  0.4161111641785915  0.3997973365427706
  0.7103657592286626  0.5412417650308707  0.4001562289211066
  0.7085614578552281  0.6656590678981160  0.3995719258592422
  0.7070397755653945  0.7895523337294170  0.3995066765331400
  0.7069931233805586  0.9145057761598560  0.3998637389688503
  0.8327686552575775  0.0405562984059889  0.3999907237388129
  0.8329599433627870  0.1657032396240027  0.4000431613731002
  0.8332194056514771  0.2908973868244867  0.4000701843438083
  0.8337419239875014  0.4162450504296841  0.3999185543930744
  0.8342895174223356  0.5416234857017836  0.3998290402228457
  0.8340578684385214  0.6668244820278032  0.3998577756512873
  0.8333288800359192  0.7913819837398673  0.3997970938502909
  0.8327983923467305  0.9157940233150860  0.3999317005833561
  0.9584951819401715  0.0417813715547864  0.4000280296129339
  0.9581369098063437  0.1663655240131817  0.3999173181271081
  0.9578617554487484  0.2912098221334590  0.3999301131110979
  0.9577879138135059  0.4163756358420082  0.3999815952226827
  0.9582885073495773  0.5417674291356496  0.4000060945068768
  0.9586517713294456  0.6671646989028451  0.4000021207951693
  0.9587370133682583  0.7923487091762678  0.3999776723682653
  0.9586843309783730  0.9171929674911861  0.4000318673521108
  0.4105305950939992  0.5823006243287296  0.4052028377690434
  0.4644568726179584  0.4176738662524356  0.4051523279824674
 
  0.00000000E+00  0.00000000E+00  0.00000000E+00
  0.00000000E+00  0.00000000E+00  0.00000000E+00
  0.00000000E+00  0.00000000E+00  0.00000000E+00
  0.00000000E+00  0.00000000E+00  0.00000000E+00
  0.00000000E+00  0.00000000E+00  0.00000000E+00
  0.00000000E+00  0.00000000E+00  0.00000000E+00
  0.00000000E+00  0.00000000E+00  0.00000000E+00
  0.00000000E+00  0.00000000E+00  0.00000000E+00
  0.00000000E+00  0.00000000E+00  0.00000000E+00
  0.00000000E+00  0.00000000E+00  0.00000000E+00
  0.00000000E+00  0.00000000E+00  0.00000000E+00
  0.00000000E+00  0.00000000E+00  0.00000000E+00
  0.00000000E+00  0.00000000E+00  0.00000000E+00
  0.00000000E+00  0.00000000E+00  0.00000000E+00
  0.00000000E+00  0.00000000E+00  0.00000000E+00
  0.00000000E+00  0.00000000E+00  0.00000000E+00
  0.00000000E+00  0.00000000E+00  0.00000000E+00
  0.00000000E+00  0.00000000E+00  0.00000000E+00
  0.00000000E+00  0.00000000E+00  0.00000000E+00
  0.00000000E+00  0.00000000E+00  0.00000000E+00
  0.00000000E+00  0.00000000E+00  0.00000000E+00
  0.00000000E+00  0.00000000E+00  0.00000000E+00
  0.00000000E+00  0.00000000E+00  0.00000000E+00
  0.00000000E+00  0.00000000E+00  0.00000000E+00
  0.00000000E+00  0.00000000E+00  0.00000000E+00
  0.00000000E+00  0.00000000E+00  0.00000000E+00
  0.00000000E+00  0.00000000E+00  0.00000000E+00
  0.00000000E+00  0.00000000E+00  0.00000000E+00
  0.00000000E+00  0.00000000E+00  0.00000000E+00
  0.00000000E+00  0.00000000E+00  0.00000000E+00
  0.00000000E+00  0.00000000E+00  0.00000000E+00
  0.00000000E+00  0.00000000E+00  0.00000000E+00
  0.00000000E+00  0.00000000E+00  0.00000000E+00
  0.00000000E+00  0.00000000E+00  0.00000000E+00
  0.00000000E+00  0.00000000E+00  0.00000000E+00
  0.00000000E+00  0.00000000E+00  0.00000000E+00
  0.00000000E+00  0.00000000E+00  0.00000000E+00
  0.00000000E+00  0.00000000E+00  0.00000000E+00
  0.00000000E+00  0.00000000E+00  0.00000000E+00
  0.00000000E+00  0.00000000E+00  0.00000000E+00
  0.00000000E+00  0.00000000E+00  0.00000000E+00
  0.00000000E+00  0.00000000E+00  0.00000000E+00
  0.00000000E+00  0.00000000E+00  0.00000000E+00
  0.00000000E+00  0.00000000E+00  0.00000000E+00
  0.00000000E+00  0.00000000E+00  0.00000000E+00
  0.00000000E+00  0.00000000E+00  0.00000000E+00
  0.00000000E+00  0.00000000E+00  0.00000000E+00
  0.00000000E+00  0.00000000E+00  0.00000000E+00
  0.00000000E+00  0.00000000E+00  0.00000000E+00
  0.00000000E+00  0.00000000E+00  0.00000000E+00
  0.00000000E+00  0.00000000E+00  0.00000000E+00
  0.00000000E+00  0.00000000E+00  0.00000000E+00
  0.00000000E+00  0.00000000E+00  0.00000000E+00
  0.00000000E+00  0.00000000E+00  0.00000000E+00
  0.00000000E+00  0.00000000E+00  0.00000000E+00
  0.00000000E+00  0.00000000E+00  0.00000000E+00
  0.00000000E+00  0.00000000E+00  0.00000000E+00
  0.00000000E+00  0.00000000E+00  0.00000000E+00
  0.00000000E+00  0.00000000E+00  0.00000000E+00
  0.00000000E+00  0.00000000E+00  0.00000000E+00
  0.00000000E+00  0.00000000E+00  0.00000000E+00
  0.00000000E+00  0.00000000E+00  0.00000000E+00
  0.00000000E+00  0.00000000E+00  0.00000000E+00
  0.00000000E+00  0.00000000E+00  0.00000000E+00
  0.00000000E+00  0.00000000E+00  0.00000000E+00
  0.00000000E+00  0.00000000E+00  0.00000000E+00
  0.00000000E+00  0.00000000E+00  0.00000000E+00
  0.00000000E+00  0.00000000E+00  0.00000000E+00
  0.00000000E+00  0.00000000E+00  0.00000000E+00
  0.00000000E+00  0.00000000E+00  0.00000000E+00
  0.00000000E+00  0.00000000E+00  0.00000000E+00
  0.00000000E+00  0.00000000E+00  0.00000000E+00
  0.00000000E+00  0.00000000E+00  0.00000000E+00
  0.00000000E+00  0.00000000E+00  0.00000000E+00
  0.00000000E+00  0.00000000E+00  0.00000000E+00
  0.00000000E+00  0.00000000E+00  0.00000000E+00
  0.00000000E+00  0.00000000E+00  0.00000000E+00
  0.00000000E+00  0.00000000E+00  0.00000000E+00
  0.00000000E+00  0.00000000E+00  0.00000000E+00
  0.00000000E+00  0.00000000E+00  0.00000000E+00
  0.00000000E+00  0.00000000E+00  0.00000000E+00
  0.00000000E+00  0.00000000E+00  0.00000000E+00
  0.00000000E+00  0.00000000E+00  0.00000000E+00
  0.00000000E+00  0.00000000E+00  0.00000000E+00
  0.00000000E+00  0.00000000E+00  0.00000000E+00
  0.00000000E+00  0.00000000E+00  0.00000000E+00
  0.00000000E+00  0.00000000E+00  0.00000000E+00
  0.00000000E+00  0.00000000E+00  0.00000000E+00
  0.00000000E+00  0.00000000E+00  0.00000000E+00
  0.00000000E+00  0.00000000E+00  0.00000000E+00
  0.00000000E+00  0.00000000E+00  0.00000000E+00
  0.00000000E+00  0.00000000E+00  0.00000000E+00
  0.00000000E+00  0.00000000E+00  0.00000000E+00
  0.00000000E+00  0.00000000E+00  0.00000000E+00
  0.00000000E+00  0.00000000E+00  0.00000000E+00
  0.00000000E+00  0.00000000E+00  0.00000000E+00
  0.00000000E+00  0.00000000E+00  0.00000000E+00
  0.00000000E+00  0.00000000E+00  0.00000000E+00
  0.00000000E+00  0.00000000E+00  0.00000000E+00
  0.00000000E+00  0.00000000E+00  0.00000000E+00
  0.00000000E+00  0.00000000E+00  0.00000000E+00
  0.00000000E+00  0.00000000E+00  0.00000000E+00
  0.00000000E+00  0.00000000E+00  0.00000000E+00
  0.00000000E+00  0.00000000E+00  0.00000000E+00
  0.00000000E+00  0.00000000E+00  0.00000000E+00
  0.00000000E+00  0.00000000E+00  0.00000000E+00
  0.00000000E+00  0.00000000E+00  0.00000000E+00
  0.00000000E+00  0.00000000E+00  0.00000000E+00
  0.00000000E+00  0.00000000E+00  0.00000000E+00
  0.00000000E+00  0.00000000E+00  0.00000000E+00
  0.00000000E+00  0.00000000E+00  0.00000000E+00
  0.00000000E+00  0.00000000E+00  0.00000000E+00
  0.00000000E+00  0.00000000E+00  0.00000000E+00
  0.00000000E+00  0.00000000E+00  0.00000000E+00
  0.00000000E+00  0.00000000E+00  0.00000000E+00
  0.00000000E+00  0.00000000E+00  0.00000000E+00
  0.00000000E+00  0.00000000E+00  0.00000000E+00
  0.00000000E+00  0.00000000E+00  0.00000000E+00
  0.00000000E+00  0.00000000E+00  0.00000000E+00
  0.00000000E+00  0.00000000E+00  0.00000000E+00
  0.00000000E+00  0.00000000E+00  0.00000000E+00
  0.00000000E+00  0.00000000E+00  0.00000000E+00
  0.00000000E+00  0.00000000E+00  0.00000000E+00
  0.00000000E+00  0.00000000E+00  0.00000000E+00
  0.00000000E+00  0.00000000E+00  0.00000000E+00
  0.00000000E+00  0.00000000E+00  0.00000000E+00
  0.00000000E+00  0.00000000E+00  0.00000000E+00
