Zr1 C123 N3                             
   1.00000000000000     
    19.8007849660339019    0.0109677335316538    0.0029120358550522
    -9.8908799480894398   17.0483289867855419   -0.0035712817223268
     0.0044098117932659   -0.0037666462259480   29.7987703551683616
   Zr   C    N 
     1   123     3
Direct
  0.4378367862458121  0.4999206349776670  0.4342673361913489
  0.0416681782178127  0.0836971503150173  0.3998792002599170
  0.0410177085347212  0.2080773280336857  0.3997664976959555
  0.0405183293717486  0.3330237526139704  0.3998049412178405
  0.0406910202552741  0.4581822943477727  0.3998370395456435
  0.0414371978653434  0.5835453777131165  0.4000400832243872
  0.0420586986292937  0.7088892386899948  0.4000456058359615
  0.0421909772497996  0.8340004176765108  0.4000494781692990
  0.0421346016009376  0.9590776935109151  0.4000396624907681
  0.1672541595612978  0.0845322358719996  0.3998704742707692
  0.1668099504844330  0.2092839722820546  0.3995250629656665
  0.1650946537453182  0.3333190988564455  0.3999604999525667
  0.1646771111964147  0.4582733140155956  0.3996591140290877
  0.1655283062252743  0.5835467765736001  0.3997665670163055
  0.1664520910651376  0.7086864875160112  0.3999803242894683
  0.1669579619865658  0.8339690676361325  0.4000113790259072
  0.1671364231160225  0.9593079776829905  0.3999986890324969
  0.2921864706783389  0.0849123843814684  0.3998599087464574
  0.2924299450556564  0.2111156328344176  0.4001130463711612
  0.2913432466361630  0.3362179377989604  0.4015950119913218
  0.2883230575863389  0.4576494019398486  0.4015603391527829
  0.2891544841102174  0.5828477295698240  0.3999245854241007
  0.2909267024099241  0.7081689606108036  0.3997684697132234
  0.2917067300089305  0.8336325141696489  0.3999635275157196
  0.2919824620370068  0.9591045889671308  0.3999989455146968
  0.4169021429661135  0.0838286850271173  0.3999153125820045
  0.4173063573429404  0.2096054828702607  0.3995770054486904
  0.4186772413373162  0.3366116612620259  0.4008504758199825
  0.4153723329074167  0.7065469192993254  0.3996069894437058
  0.4163260137437351  0.8324731982352630  0.3997244149723196
  0.4167141652159667  0.9581980627680697  0.4000419092555814
  0.5415910326324621  0.0828537735975637  0.4000575807062340
  0.5419945639297872  0.2084475071615501  0.3997677824458911
  0.5428229726708906  0.3339921740548319  0.3997206685341194
  0.5451448347519244  0.4594455505377579  0.4014614912751676
  0.5393071656182997  0.7032991970962362  0.4009647402589310
  0.5409469547411946  0.8311024258998743  0.3998532090059915
  0.5413570642207801  0.9571963085869757  0.3999390164674189
  0.6663113422800883  0.0824954205023954  0.4000314461247967
  0.6665899704541451  0.2077852555805406  0.4000106203582626
  0.6672730933793894  0.3331153396188432  0.3997886616923110
  0.6688929689083736  0.4585683338659512  0.3998342331112410
  0.6701227045208840  0.5841653880553677  0.4002184414042725
  0.6671345486122042  0.7073694741797659  0.3998552993840720
  0.6653332301080106  0.8312775442398005  0.3998825939100635
  0.6659707778437093  0.9570221276177668  0.3999522067044035
  0.7910386836652664  0.0824448371999943  0.4000077505934947
  0.7912512462793214  0.2076932215013171  0.4000431533216530
  0.7917037232919901  0.3329453756097436  0.4000191446384723
  0.7925971051373643  0.4582825615560537  0.3997976420246192
  0.7934142807272303  0.5837226327199473  0.3996461122942453
  0.7931141816008794  0.7088950486049996  0.3997254928034359
  0.7915974189169471  0.8329485215857878  0.3996841925135934
  0.7908501126497299  0.9572896015448544  0.3999039166671343
  0.9161174858609963  0.0828299223004274  0.4000009990606977
  0.9159357618500841  0.2077100174918180  0.4000059968491773
  0.9160879556934139  0.3328898126908097  0.4000278751628482
  0.9166661974697844  0.4582778123103549  0.4000794166024549
  0.9173533708308903  0.5836176535063847  0.3999920306516740
  0.9175597519608273  0.7088364602429804  0.3999560575391739
  0.9172776241306372  0.8338924012316938  0.3999685741186482
  0.9166218929916249  0.9583229085621845  0.4000423173180141
  0.0838183890347076  0.0425314800554413  0.3999251041347531
  0.0832811805512983  0.1671667585563721  0.3996384471515519
  0.0823442735012765  0.2915296108056769  0.3997806032269851
  0.0818006990621215  0.4162777526874105  0.3996637911656466
  0.0825207325759748  0.5417017360563039  0.3998739523316325
  0.0833477300587143  0.6670397043386735  0.4000436343235714
  0.0837066642347459  0.7922724504906763  0.4000298476960416
  0.0838570368986561  0.9174903631770831  0.4000405342490415
  0.2087878140932483  0.0428233285531870  0.3999384756447614
  0.2089767143318471  0.1682008961715015  0.3998242664172927
  0.2079705387448679  0.2927780748951694  0.3998619871060827
  0.2059079397562054  0.4167138988237659  0.4001574245905201
  0.2063550386329529  0.5414589296237431  0.3997284048546222
  0.2076117265226922  0.6667836608578747  0.3998629225888226
  0.2083826325029924  0.7921785978278952  0.4000015525084847
  0.2086952141177225  0.9174833674168964  0.4000087995347957
  0.3336403666267043  0.0427171475994225  0.3999111277009519
  0.3337947221423940  0.1685856911547148  0.3998111058260469
  0.3342173342937888  0.2953282448924224  0.4010716322700194
  0.3304533952952665  0.5415577317930809  0.4007789287651864
  0.3318589286847590  0.6661681691879614  0.3997154704262503
  0.3330818569113749  0.7916269882720666  0.3998124820885724
  0.3334185731412020  0.9170627989538762  0.4000218841836515
  0.4583447972227029  0.0416708213716490  0.4000588687092321
  0.4586076933628895  0.1673290452884944  0.3997179633152971
  0.4592932272364272  0.2931356051624491  0.3995781404704932
  0.4625903702232258  0.4189678448140199  0.4027752733483869
  0.4549038374862163  0.6624496065579577  0.4008276208856968
  0.4576483885804314  0.7901207487097267  0.3995640198939799
  0.4580887405747997  0.9160365833134558  0.3999163459026074
  0.5830170871668127  0.0408169545210921  0.4000354362390185
  0.5833514687833279  0.1663708401298616  0.3999678505704736
  0.5840056019106724  0.2917880949671318  0.3996919974512950
  0.5861174759269469  0.4174085838679264  0.4002440864832971
  0.5883105999318177  0.5436690544171673  0.4016900509832660
  0.5836711757308968  0.6634672809738825  0.4013051633430998
  0.5816104759445042  0.7881250773636923  0.4001455188436543
  0.5827212348301563  0.9149787291412251  0.3999002669191704
  0.7077491546275287  0.0406243041598415  0.3999937130609201
  0.7080586636706759  0.1659745049749109  0.4000462554245363
  0.7085249603191318  0.2912568295256455  0.3999519327384642
  0.7096801646021047  0.4165293403618175  0.3996920463623832
  0.7107734689600770  0.5418567100015003  0.3997585980106629
  0.7104445111986512  0.6672798211961252  0.3998717225224248
  0.7080665876949797  0.7907887832733839  0.3996148095677136
  0.7073279133286019  0.9151220725029604  0.3998926232747496
  0.8327164969567857  0.0408727268411367  0.3999884118117262
  0.8327984327029389  0.1659839215268871  0.4000289040854920
  0.8330021681045834  0.2911022050431666  0.4000553539107017
  0.8336737530216460  0.4164044499286879  0.3999999821618592
  0.8345005126745970  0.5418081915160485  0.3997841617057982
  0.8346708664320559  0.6671376823840901  0.3997746146161213
  0.8341367119734827  0.7921736276014496  0.3997690035760099
  0.8331653777697176  0.9163342195511106  0.3998821543571081
  0.9582955643088968  0.0417356600264834  0.4000277709939834
  0.9577524805882164  0.1662157862449956  0.3999397632966296
  0.9575370541055596  0.2912042044739365  0.3999583680696514
  0.9577946544562077  0.4163897703736904  0.4000201584445019
  0.9584659901407543  0.5416918309124311  0.4000807068674481
  0.9589902713492708  0.6670755289031469  0.4000157581932032
  0.9590617807075832  0.7923385393490202  0.4000206289660078
  0.9587973997838928  0.9172627538561533  0.4000544720876019
  0.4115397525557001  0.5816811062580474  0.4026844140270371
  0.5471795569996067  0.5830972779906798  0.4038584575615053
  0.3288865492230367  0.4172663111294779  0.4050706714538302
 
  0.00000000E+00  0.00000000E+00  0.00000000E+00
  0.00000000E+00  0.00000000E+00  0.00000000E+00
  0.00000000E+00  0.00000000E+00  0.00000000E+00
  0.00000000E+00  0.00000000E+00  0.00000000E+00
  0.00000000E+00  0.00000000E+00  0.00000000E+00
  0.00000000E+00  0.00000000E+00  0.00000000E+00
  0.00000000E+00  0.00000000E+00  0.00000000E+00
  0.00000000E+00  0.00000000E+00  0.00000000E+00
  0.00000000E+00  0.00000000E+00  0.00000000E+00
  0.00000000E+00  0.00000000E+00  0.00000000E+00
  0.00000000E+00  0.00000000E+00  0.00000000E+00
  0.00000000E+00  0.00000000E+00  0.00000000E+00
  0.00000000E+00  0.00000000E+00  0.00000000E+00
  0.00000000E+00  0.00000000E+00  0.00000000E+00
  0.00000000E+00  0.00000000E+00  0.00000000E+00
  0.00000000E+00  0.00000000E+00  0.00000000E+00
  0.00000000E+00  0.00000000E+00  0.00000000E+00
  0.00000000E+00  0.00000000E+00  0.00000000E+00
  0.00000000E+00  0.00000000E+00  0.00000000E+00
  0.00000000E+00  0.00000000E+00  0.00000000E+00
  0.00000000E+00  0.00000000E+00  0.00000000E+00
  0.00000000E+00  0.00000000E+00  0.00000000E+00
  0.00000000E+00  0.00000000E+00  0.00000000E+00
  0.00000000E+00  0.00000000E+00  0.00000000E+00
  0.00000000E+00  0.00000000E+00  0.00000000E+00
  0.00000000E+00  0.00000000E+00  0.00000000E+00
  0.00000000E+00  0.00000000E+00  0.00000000E+00
  0.00000000E+00  0.00000000E+00  0.00000000E+00
  0.00000000E+00  0.00000000E+00  0.00000000E+00
  0.00000000E+00  0.00000000E+00  0.00000000E+00
  0.00000000E+00  0.00000000E+00  0.00000000E+00
  0.00000000E+00  0.00000000E+00  0.00000000E+00
  0.00000000E+00  0.00000000E+00  0.00000000E+00
  0.00000000E+00  0.00000000E+00  0.00000000E+00
  0.00000000E+00  0.00000000E+00  0.00000000E+00
  0.00000000E+00  0.00000000E+00  0.00000000E+00
  0.00000000E+00  0.00000000E+00  0.00000000E+00
  0.00000000E+00  0.00000000E+00  0.00000000E+00
  0.00000000E+00  0.00000000E+00  0.00000000E+00
  0.00000000E+00  0.00000000E+00  0.00000000E+00
  0.00000000E+00  0.00000000E+00  0.00000000E+00
  0.00000000E+00  0.00000000E+00  0.00000000E+00
  0.00000000E+00  0.00000000E+00  0.00000000E+00
  0.00000000E+00  0.00000000E+00  0.00000000E+00
  0.00000000E+00  0.00000000E+00  0.00000000E+00
  0.00000000E+00  0.00000000E+00  0.00000000E+00
  0.00000000E+00  0.00000000E+00  0.00000000E+00
  0.00000000E+00  0.00000000E+00  0.00000000E+00
  0.00000000E+00  0.00000000E+00  0.00000000E+00
  0.00000000E+00  0.00000000E+00  0.00000000E+00
  0.00000000E+00  0.00000000E+00  0.00000000E+00
  0.00000000E+00  0.00000000E+00  0.00000000E+00
  0.00000000E+00  0.00000000E+00  0.00000000E+00
  0.00000000E+00  0.00000000E+00  0.00000000E+00
  0.00000000E+00  0.00000000E+00  0.00000000E+00
  0.00000000E+00  0.00000000E+00  0.00000000E+00
  0.00000000E+00  0.00000000E+00  0.00000000E+00
  0.00000000E+00  0.00000000E+00  0.00000000E+00
  0.00000000E+00  0.00000000E+00  0.00000000E+00
  0.00000000E+00  0.00000000E+00  0.00000000E+00
  0.00000000E+00  0.00000000E+00  0.00000000E+00
  0.00000000E+00  0.00000000E+00  0.00000000E+00
  0.00000000E+00  0.00000000E+00  0.00000000E+00
  0.00000000E+00  0.00000000E+00  0.00000000E+00
  0.00000000E+00  0.00000000E+00  0.00000000E+00
  0.00000000E+00  0.00000000E+00  0.00000000E+00
  0.00000000E+00  0.00000000E+00  0.00000000E+00
  0.00000000E+00  0.00000000E+00  0.00000000E+00
  0.00000000E+00  0.00000000E+00  0.00000000E+00
  0.00000000E+00  0.00000000E+00  0.00000000E+00
  0.00000000E+00  0.00000000E+00  0.00000000E+00
  0.00000000E+00  0.00000000E+00  0.00000000E+00
  0.00000000E+00  0.00000000E+00  0.00000000E+00
  0.00000000E+00  0.00000000E+00  0.00000000E+00
  0.00000000E+00  0.00000000E+00  0.00000000E+00
  0.00000000E+00  0.00000000E+00  0.00000000E+00
  0.00000000E+00  0.00000000E+00  0.00000000E+00
  0.00000000E+00  0.00000000E+00  0.00000000E+00
  0.00000000E+00  0.00000000E+00  0.00000000E+00
  0.00000000E+00  0.00000000E+00  0.00000000E+00
  0.00000000E+00  0.00000000E+00  0.00000000E+00
  0.00000000E+00  0.00000000E+00  0.00000000E+00
  0.00000000E+00  0.00000000E+00  0.00000000E+00
  0.00000000E+00  0.00000000E+00  0.00000000E+00
  0.00000000E+00  0.00000000E+00  0.00000000E+00
  0.00000000E+00  0.00000000E+00  0.00000000E+00
  0.00000000E+00  0.00000000E+00  0.00000000E+00
  0.00000000E+00  0.00000000E+00  0.00000000E+00
  0.00000000E+00  0.00000000E+00  0.00000000E+00
  0.00000000E+00  0.00000000E+00  0.00000000E+00
  0.00000000E+00  0.00000000E+00  0.00000000E+00
  0.00000000E+00  0.00000000E+00  0.00000000E+00
  0.00000000E+00  0.00000000E+00  0.00000000E+00
  0.00000000E+00  0.00000000E+00  0.00000000E+00
  0.00000000E+00  0.00000000E+00  0.00000000E+00
  0.00000000E+00  0.00000000E+00  0.00000000E+00
  0.00000000E+00  0.00000000E+00  0.00000000E+00
  0.00000000E+00  0.00000000E+00  0.00000000E+00
  0.00000000E+00  0.00000000E+00  0.00000000E+00
  0.00000000E+00  0.00000000E+00  0.00000000E+00
  0.00000000E+00  0.00000000E+00  0.00000000E+00
  0.00000000E+00  0.00000000E+00  0.00000000E+00
  0.00000000E+00  0.00000000E+00  0.00000000E+00
  0.00000000E+00  0.00000000E+00  0.00000000E+00
  0.00000000E+00  0.00000000E+00  0.00000000E+00
  0.00000000E+00  0.00000000E+00  0.00000000E+00
  0.00000000E+00  0.00000000E+00  0.00000000E+00
  0.00000000E+00  0.00000000E+00  0.00000000E+00
  0.00000000E+00  0.00000000E+00  0.00000000E+00
  0.00000000E+00  0.00000000E+00  0.00000000E+00
  0.00000000E+00  0.00000000E+00  0.00000000E+00
  0.00000000E+00  0.00000000E+00  0.00000000E+00
  0.00000000E+00  0.00000000E+00  0.00000000E+00
  0.00000000E+00  0.00000000E+00  0.00000000E+00
  0.00000000E+00  0.00000000E+00  0.00000000E+00
  0.00000000E+00  0.00000000E+00  0.00000000E+00
  0.00000000E+00  0.00000000E+00  0.00000000E+00
  0.00000000E+00  0.00000000E+00  0.00000000E+00
  0.00000000E+00  0.00000000E+00  0.00000000E+00
  0.00000000E+00  0.00000000E+00  0.00000000E+00
  0.00000000E+00  0.00000000E+00  0.00000000E+00
  0.00000000E+00  0.00000000E+00  0.00000000E+00
  0.00000000E+00  0.00000000E+00  0.00000000E+00
  0.00000000E+00  0.00000000E+00  0.00000000E+00
  0.00000000E+00  0.00000000E+00  0.00000000E+00
  0.00000000E+00  0.00000000E+00  0.00000000E+00
  0.00000000E+00  0.00000000E+00  0.00000000E+00
