Cr1 C126 O1                             
   1.00000000000000     
    19.8238555680117265   -0.0000383372923671   -0.0407658219586728
    -9.9119886700261191   17.0573801245501855   -0.0229272367172156
    -0.0611907073284337   -0.0755235423365487   29.7582055008686766
   Cr   C    O 
     1   126     1
Direct
  0.4388235560458216  0.5016763545840116  0.4283430015428913
  0.0419037283890597  0.0838160759797451  0.3995937492265994
  0.0409952123701807  0.2080619258837105  0.3994388734611469
  0.0405417112940826  0.3328453526623948  0.3993134881292567
  0.0406244854711846  0.4582904829874472  0.3993779544012877
  0.0413888848299061  0.5836759874044214  0.3996832160365481
  0.0420004124725394  0.7089292007922441  0.3998796571361471
  0.0422765463717646  0.8342442046334274  0.3999175162713468
  0.0422977543595614  0.9592370267760240  0.3997897366001095
  0.1675246610186584  0.0850039410892211  0.4000777742868841
  0.1670445806304599  0.2096154797609747  0.4001663721596154
  0.1652951426163429  0.3331424090273535  0.3999917013091524
  0.1642410333072250  0.4582880196449971  0.3992203441501655
  0.1652115544054163  0.5835741123603377  0.3991772818834804
  0.1664748340476271  0.7089449585399502  0.3996016940324036
  0.1670496845581835  0.8342337439850408  0.3998714280233953
  0.1673301577590572  0.9595851637139220  0.3999473297648131
  0.2925710126184403  0.0850073440725587  0.4000587645341978
  0.2932998490836262  0.2115043891042553  0.4014096439253637
  0.2925565125020379  0.3370809438714997  0.4035656635881327
  0.2872235416050927  0.4576650806934145  0.4029285152259441
  0.2889280265347094  0.5838452868980870  0.3998841691656873
  0.2909460396088235  0.7088645025447899  0.3993566823572756
  0.2915750148173861  0.8338677978049935  0.3995884918310695
  0.2920048532984880  0.9592330116673217  0.3997418439953995
  0.4169811939959995  0.0838084748893829  0.3995832543113165
  0.4176473814330180  0.2096003968217344  0.4000932217563666
  0.4196567403272739  0.3370668381072956  0.4033047340081108
  0.4108998836500116  0.5807289492753632  0.4059322884206792
  0.4153235953419512  0.7069734413095086  0.4006292403534339
  0.4162799310811984  0.8328806870584424  0.3995614242631588
  0.4166977835439485  0.9583828879359326  0.3995435169223928
  0.5417076439835877  0.0828278959434458  0.3996243471167180
  0.5421318028477841  0.2080564119226470  0.3994492435857904
  0.5429239012337834  0.3331406025174220  0.3998185344380514
  0.5455799389019680  0.4576608502409508  0.4023960613123211
  0.5449415163369391  0.5806969135254975  0.4052920579710311
  0.5401043995586761  0.7051039772085846  0.4031273905055804
  0.5407083408454328  0.8314885406123312  0.4004381576071660
  0.5413032269940915  0.9573416481731367  0.3997947577941952
  0.6663143984658357  0.0823736872162191  0.3999319033937330
  0.6666865538104587  0.2076586151551094  0.3997145941495845
  0.6673791238898114  0.3328609386712419  0.3993561378295269
  0.6691588543821940  0.4583128025436125  0.3990846237174006
  0.6700078093737180  0.5838568341670493  0.3995867088707712
  0.6667277245692008  0.7069756871270964  0.4004089369513683
  0.6658485449942653  0.8314910418696495  0.4004068132219695
  0.6660290979415795  0.9569846949251301  0.4000919371013376
  0.7911263643525994  0.0823661365199410  0.3999013919064082
  0.7913197196386377  0.2075572905544626  0.3999092598490729
  0.7917752792585587  0.3328762943130957  0.3997992054759353
  0.7927628953767741  0.4582887159858255  0.3994669074314257
  0.7934573099687520  0.5835770321530400  0.3992237879610096
  0.7929957556420438  0.7088783559558453  0.3993508874070948
  0.7916619419479106  0.8328812482374081  0.3996031535911166
  0.7910980690524099  0.9573326596529212  0.3998039243886318
  0.9161798753007145  0.0828135286744375  0.3995816105082194
  0.9160434300309989  0.2076523591330628  0.3996503797460440
  0.9161811536256517  0.3328873865354848  0.3997266458695478
  0.9166507453292014  0.4582020881421351  0.3997701626427038
  0.9173940549626860  0.5836931409235474  0.3997577776170169
  0.9175490764763693  0.7089651565355605  0.3996993291170743
  0.9173773890564408  0.8338865079735192  0.3996630800619647
  0.9167433520148363  0.9583775273784039  0.3995832158304929
  0.0840321815209434  0.0427577896566288  0.3997829108014674
  0.0835138987160985  0.1672361941866039  0.3995885447631047
  0.0821584405481008  0.2912142254915381  0.3994113617506093
  0.0816907706160267  0.4164801978738533  0.3991803481804439
  0.0823607662916079  0.5417784797719113  0.3994031178023435
  0.0833094915558680  0.6671864775497305  0.3997421786283421
  0.0838049696526347  0.7925208884123762  0.3999202896278339
  0.0839837520053595  0.9177193905644351  0.3999100890189868
  0.2091111270523315  0.0431201798622603  0.4000708432158184
  0.2092951629447143  0.1686253352875137  0.4005536450837939
  0.2085427399302148  0.2932409265129383  0.4008035000306921
  0.2051675604664805  0.4162024693002702  0.4000961292888334
  0.2059428064229382  0.5417520216165933  0.3991972769177505
  0.2076987676500993  0.6672137964129998  0.3993179871991847
  0.2084202764883602  0.7924185162722845  0.3997123073774709
  0.2087926492926191  0.9177050469690621  0.3998699761015015
  0.3337944528102791  0.0427499036408186  0.3997507063829105
  0.3344176979762685  0.1686281959919430  0.4005143875231218
  0.3350882292276246  0.2950419810864337  0.4033541903603095
  0.3307212997043109  0.4196947332749660  0.4066705416334813
  0.3294456752175043  0.5423318004387292  0.4024216868959758
  0.3321554318251088  0.6669421299664055  0.3997983931254656
  0.3329487903094308  0.7920230275373705  0.3994614310894514
  0.3334022748912654  0.9172768898860888  0.3996205200083409
  0.4584189644580811  0.0417553777284998  0.3995536959394242
  0.4587994523521950  0.1672290311894865  0.3995758567200919
  0.4597839583804993  0.2932208178546687  0.4006200385648437
  0.4641653747559685  0.4196876049070228  0.4061750154304987
  0.4554934189420542  0.6632289233369497  0.4033158081745899
  0.4574481521756854  0.7905495743193705  0.4000545021381381
  0.4581124709770132  0.9163100614690979  0.3995837543795801
  0.5831029006379014  0.0408656633221076  0.3997925509355589
  0.5835155791247261  0.1662161456584730  0.3995674687809084
  0.5841239737513962  0.2912126746253748  0.3993903719700976
  0.5861453839487272  0.4162078660095392  0.3998049877830314
  0.5879923329128076  0.5423400655678665  0.4018686993656655
  0.5828341728847611  0.6632182366387561  0.4029928624597300
  0.5818621682020068  0.7886414710933221  0.4011885245674524
  0.5825607395981431  0.9151146580817454  0.4000685415973867
  0.7077976541989257  0.0405172909440854  0.4000023054171082
  0.7080748137860571  0.1658521285036930  0.3998879077346660
  0.7086010082317603  0.2911290072497421  0.3996462757990193
  0.7098913435792613  0.4165029283447211  0.3991912565084768
  0.7109089769689274  0.5417704389550745  0.3990738404641553
  0.7098660316822457  0.6669617485353896  0.3996138332939053
  0.7081628528009358  0.7905512478146566  0.4000097998725706
  0.7076256333754217  0.9151139703686180  0.4000666226885015
  0.8328204996239768  0.0408480714323277  0.3997635786175557
  0.8328525161854472  0.1658394263123532  0.3998470020063692
  0.8331196139894324  0.2911636275891102  0.3998634951161466
  0.8337253419930188  0.4163838609328894  0.3997479524578775
  0.8345263722365368  0.5417798717574542  0.3995035400465140
  0.8346021790143925  0.6672202257799076  0.3993975035007674
  0.8341443221906486  0.7920319192810468  0.3995121471635787
  0.8332553824457779  0.9163006152655111  0.3996344435328326
  0.9584031444425595  0.0417497793637220  0.3995493637100683
  0.9577641506517437  0.1662145414135562  0.3995186205168425
  0.9575817694996362  0.2911187259388250  0.3995536115091561
  0.9577560069918416  0.4163962847274320  0.3996702729917397
  0.9584767716929226  0.5418568225549076  0.3997730769335935
  0.9589486205607892  0.6672013626898862  0.3998075080859635
  0.9590959811712672  0.7924388649842488  0.3998005824638178
  0.9589430185827398  0.9172755499251096  0.3996751059392769
  0.4421061483325063  0.5061438776021270  0.4813728139712337
 
  0.00000000E+00  0.00000000E+00  0.00000000E+00
  0.00000000E+00  0.00000000E+00  0.00000000E+00
  0.00000000E+00  0.00000000E+00  0.00000000E+00
  0.00000000E+00  0.00000000E+00  0.00000000E+00
  0.00000000E+00  0.00000000E+00  0.00000000E+00
  0.00000000E+00  0.00000000E+00  0.00000000E+00
  0.00000000E+00  0.00000000E+00  0.00000000E+00
  0.00000000E+00  0.00000000E+00  0.00000000E+00
  0.00000000E+00  0.00000000E+00  0.00000000E+00
  0.00000000E+00  0.00000000E+00  0.00000000E+00
  0.00000000E+00  0.00000000E+00  0.00000000E+00
  0.00000000E+00  0.00000000E+00  0.00000000E+00
  0.00000000E+00  0.00000000E+00  0.00000000E+00
  0.00000000E+00  0.00000000E+00  0.00000000E+00
  0.00000000E+00  0.00000000E+00  0.00000000E+00
  0.00000000E+00  0.00000000E+00  0.00000000E+00
  0.00000000E+00  0.00000000E+00  0.00000000E+00
  0.00000000E+00  0.00000000E+00  0.00000000E+00
  0.00000000E+00  0.00000000E+00  0.00000000E+00
  0.00000000E+00  0.00000000E+00  0.00000000E+00
  0.00000000E+00  0.00000000E+00  0.00000000E+00
  0.00000000E+00  0.00000000E+00  0.00000000E+00
  0.00000000E+00  0.00000000E+00  0.00000000E+00
  0.00000000E+00  0.00000000E+00  0.00000000E+00
  0.00000000E+00  0.00000000E+00  0.00000000E+00
  0.00000000E+00  0.00000000E+00  0.00000000E+00
  0.00000000E+00  0.00000000E+00  0.00000000E+00
  0.00000000E+00  0.00000000E+00  0.00000000E+00
  0.00000000E+00  0.00000000E+00  0.00000000E+00
  0.00000000E+00  0.00000000E+00  0.00000000E+00
  0.00000000E+00  0.00000000E+00  0.00000000E+00
  0.00000000E+00  0.00000000E+00  0.00000000E+00
  0.00000000E+00  0.00000000E+00  0.00000000E+00
  0.00000000E+00  0.00000000E+00  0.00000000E+00
  0.00000000E+00  0.00000000E+00  0.00000000E+00
  0.00000000E+00  0.00000000E+00  0.00000000E+00
  0.00000000E+00  0.00000000E+00  0.00000000E+00
  0.00000000E+00  0.00000000E+00  0.00000000E+00
  0.00000000E+00  0.00000000E+00  0.00000000E+00
  0.00000000E+00  0.00000000E+00  0.00000000E+00
  0.00000000E+00  0.00000000E+00  0.00000000E+00
  0.00000000E+00  0.00000000E+00  0.00000000E+00
  0.00000000E+00  0.00000000E+00  0.00000000E+00
  0.00000000E+00  0.00000000E+00  0.00000000E+00
  0.00000000E+00  0.00000000E+00  0.00000000E+00
  0.00000000E+00  0.00000000E+00  0.00000000E+00
  0.00000000E+00  0.00000000E+00  0.00000000E+00
  0.00000000E+00  0.00000000E+00  0.00000000E+00
  0.00000000E+00  0.00000000E+00  0.00000000E+00
  0.00000000E+00  0.00000000E+00  0.00000000E+00
  0.00000000E+00  0.00000000E+00  0.00000000E+00
  0.00000000E+00  0.00000000E+00  0.00000000E+00
  0.00000000E+00  0.00000000E+00  0.00000000E+00
  0.00000000E+00  0.00000000E+00  0.00000000E+00
  0.00000000E+00  0.00000000E+00  0.00000000E+00
  0.00000000E+00  0.00000000E+00  0.00000000E+00
  0.00000000E+00  0.00000000E+00  0.00000000E+00
  0.00000000E+00  0.00000000E+00  0.00000000E+00
  0.00000000E+00  0.00000000E+00  0.00000000E+00
  0.00000000E+00  0.00000000E+00  0.00000000E+00
  0.00000000E+00  0.00000000E+00  0.00000000E+00
  0.00000000E+00  0.00000000E+00  0.00000000E+00
  0.00000000E+00  0.00000000E+00  0.00000000E+00
  0.00000000E+00  0.00000000E+00  0.00000000E+00
  0.00000000E+00  0.00000000E+00  0.00000000E+00
  0.00000000E+00  0.00000000E+00  0.00000000E+00
  0.00000000E+00  0.00000000E+00  0.00000000E+00
  0.00000000E+00  0.00000000E+00  0.00000000E+00
  0.00000000E+00  0.00000000E+00  0.00000000E+00
  0.00000000E+00  0.00000000E+00  0.00000000E+00
  0.00000000E+00  0.00000000E+00  0.00000000E+00
  0.00000000E+00  0.00000000E+00  0.00000000E+00
  0.00000000E+00  0.00000000E+00  0.00000000E+00
  0.00000000E+00  0.00000000E+00  0.00000000E+00
  0.00000000E+00  0.00000000E+00  0.00000000E+00
  0.00000000E+00  0.00000000E+00  0.00000000E+00
  0.00000000E+00  0.00000000E+00  0.00000000E+00
  0.00000000E+00  0.00000000E+00  0.00000000E+00
  0.00000000E+00  0.00000000E+00  0.00000000E+00
  0.00000000E+00  0.00000000E+00  0.00000000E+00
  0.00000000E+00  0.00000000E+00  0.00000000E+00
  0.00000000E+00  0.00000000E+00  0.00000000E+00
  0.00000000E+00  0.00000000E+00  0.00000000E+00
  0.00000000E+00  0.00000000E+00  0.00000000E+00
  0.00000000E+00  0.00000000E+00  0.00000000E+00
  0.00000000E+00  0.00000000E+00  0.00000000E+00
  0.00000000E+00  0.00000000E+00  0.00000000E+00
  0.00000000E+00  0.00000000E+00  0.00000000E+00
  0.00000000E+00  0.00000000E+00  0.00000000E+00
  0.00000000E+00  0.00000000E+00  0.00000000E+00
  0.00000000E+00  0.00000000E+00  0.00000000E+00
  0.00000000E+00  0.00000000E+00  0.00000000E+00
  0.00000000E+00  0.00000000E+00  0.00000000E+00
  0.00000000E+00  0.00000000E+00  0.00000000E+00
  0.00000000E+00  0.00000000E+00  0.00000000E+00
  0.00000000E+00  0.00000000E+00  0.00000000E+00
  0.00000000E+00  0.00000000E+00  0.00000000E+00
  0.00000000E+00  0.00000000E+00  0.00000000E+00
  0.00000000E+00  0.00000000E+00  0.00000000E+00
  0.00000000E+00  0.00000000E+00  0.00000000E+00
  0.00000000E+00  0.00000000E+00  0.00000000E+00
  0.00000000E+00  0.00000000E+00  0.00000000E+00
  0.00000000E+00  0.00000000E+00  0.00000000E+00
  0.00000000E+00  0.00000000E+00  0.00000000E+00
  0.00000000E+00  0.00000000E+00  0.00000000E+00
  0.00000000E+00  0.00000000E+00  0.00000000E+00
  0.00000000E+00  0.00000000E+00  0.00000000E+00
  0.00000000E+00  0.00000000E+00  0.00000000E+00
  0.00000000E+00  0.00000000E+00  0.00000000E+00
  0.00000000E+00  0.00000000E+00  0.00000000E+00
  0.00000000E+00  0.00000000E+00  0.00000000E+00
  0.00000000E+00  0.00000000E+00  0.00000000E+00
  0.00000000E+00  0.00000000E+00  0.00000000E+00
  0.00000000E+00  0.00000000E+00  0.00000000E+00
  0.00000000E+00  0.00000000E+00  0.00000000E+00
  0.00000000E+00  0.00000000E+00  0.00000000E+00
  0.00000000E+00  0.00000000E+00  0.00000000E+00
  0.00000000E+00  0.00000000E+00  0.00000000E+00
  0.00000000E+00  0.00000000E+00  0.00000000E+00
  0.00000000E+00  0.00000000E+00  0.00000000E+00
  0.00000000E+00  0.00000000E+00  0.00000000E+00
  0.00000000E+00  0.00000000E+00  0.00000000E+00
  0.00000000E+00  0.00000000E+00  0.00000000E+00
  0.00000000E+00  0.00000000E+00  0.00000000E+00
  0.00000000E+00  0.00000000E+00  0.00000000E+00
  0.00000000E+00  0.00000000E+00  0.00000000E+00
  0.00000000E+00  0.00000000E+00  0.00000000E+00
  0.00000000E+00  0.00000000E+00  0.00000000E+00
