H1 Pt1 C124 N2                          
   1.00000000000000     
    19.8632731964794758   -0.0020944391506638    0.0172281638634571
    -9.9336552830357672   17.0476912134852121    0.0058674642825139
     0.0257688809711681    0.0252343360812054   29.7175504557493682
   H    Pt   C    N 
     1     1   124     2
Direct
  0.4428934286710948  0.5050786042989619  0.4653748336043085
  0.4374493187950229  0.4999331025185331  0.4132800103175270
  0.0418312294772528  0.0840101739376597  0.3995968017544105
  0.0403966533731635  0.2078507259261004  0.3995631421139624
  0.0394276464542934  0.3324500679416711  0.3991182994487090
  0.0395894834654522  0.4581531525052335  0.3986727927086710
  0.0410765132153213  0.5839353840879842  0.3987565011004175
  0.0422799622008475  0.7095297858259234  0.3991016297001944
  0.0427348596903050  0.8348921500516476  0.3993294201182740
  0.0427640172519698  0.9599325607135978  0.3994191126883471
  0.1682592662920716  0.0861000222248976  0.4006264408945667
  0.1667308808329924  0.2098455248452723  0.4014528568071067
  0.1641094687260543  0.3333364991899415  0.4014865114340639
  0.1622228868195840  0.4582625549080353  0.4002510302307040
  0.1641783715664245  0.5838315637678528  0.3994122693173314
  0.1661610753026084  0.7094131489364317  0.3992582707750425
  0.1671682143016456  0.8349055470104375  0.3994131850563255
  0.1677794624801381  0.9604587738325833  0.3998246188143952
  0.2929012366458713  0.0858736180967666  0.4007082754721266
  0.2945670795478171  0.2132198333441196  0.4032975171101919
  0.2911324723778286  0.3370450803858314  0.4059436073571179
  0.2842268717738709  0.4583937107230844  0.4057593432490308
  0.2868207269459273  0.5841765917075187  0.4027508846523035
  0.2900791697786024  0.7091235233923506  0.4005037147766207
  0.2914886838595787  0.8343519848588188  0.3994275885050693
  0.2921904638583742  0.9598850897562794  0.3994678178531862
  0.4172348615855516  0.0840789307675982  0.3998149100377557
  0.4180499741247113  0.2100133507357592  0.4021179515269748
  0.4216734993637979  0.3380443153635212  0.4063470527468599
  0.4139930513581027  0.7063299018198406  0.4037248671932852
  0.4157544300386270  0.8324668291631616  0.4006072425378008
  0.4165462100354981  0.9582661313568421  0.3993181635568867
  0.5415252278863190  0.0822376374873876  0.3992858028386206
  0.5423422414247355  0.2076498111465100  0.4001023975505807
  0.5441550668930395  0.3327695045110370  0.4023867066186077
  0.5483886361226535  0.4570597484655021  0.4061600568639848
  0.5487277154541028  0.5809619907207972  0.4092725100806383
  0.5382023478815787  0.7023594699034311  0.4059689152153418
  0.5399315104373644  0.8302163494048034  0.4021690484343555
  0.5409229956643811  0.9564873397858321  0.3999282755306941
  0.6658761915684202  0.0814409844054853  0.3995603635490787
  0.6666474081237380  0.2069899683713515  0.3993576819470824
  0.6679811766889885  0.3324695123440456  0.3996164385217262
  0.6707611200386719  0.4582567233792542  0.4006558256020955
  0.6720690981404986  0.5833532727616844  0.4024798349690711
  0.6674510779012480  0.7067182616708306  0.4030509346348423
  0.6647432445057483  0.8299706696125856  0.4019482637197991
  0.6653403107237911  0.9558564864679461  0.4003915373307375
  0.7905007161861900  0.0814366032599239  0.3995096412412103
  0.7908413002022346  0.2067605941133162  0.3993456789001355
  0.7918238592361261  0.3323784224258611  0.3990297926060903
  0.7934200473481099  0.4581366098926911  0.3987499823775878
  0.7948116518376570  0.5838224784227823  0.3990446715823941
  0.7936877381480837  0.7087944462641882  0.3998942879606704
  0.7917574501652932  0.8325798632058016  0.4001202221436373
  0.7903846692259845  0.9563659394355565  0.3998093881494147
  0.9157016211959415  0.0822515837291203  0.3991591547501837
  0.9152748411832067  0.2069646502975155  0.3991235259002359
  0.9155238371109152  0.3323422515614529  0.3989043381730286
  0.9164997879160114  0.4580802156428108  0.3986000736406336
  0.9179360565664613  0.5839405897617737  0.3986061994823298
  0.9182342827857201  0.7094183064252650  0.3989327398475295
  0.9177747295258948  0.8342086893465770  0.3991673626752035
  0.9167239736604796  0.9582738555507107  0.3992070037955666
  0.0845656292097447  0.0435767093504326  0.3998185777974329
  0.0831967295985488  0.1673663603433552  0.4000655135727989
  0.0812476499061101  0.2911418059314361  0.3998163680494091
  0.0801311990161889  0.4161413164061259  0.3990517791285623
  0.0815092451137651  0.5418236260205168  0.3987869533906108
  0.0831530322076476  0.6675911172340679  0.3990368923740550
  0.0841180006862428  0.7931961908837232  0.3993421789847049
  0.0844747790527177  0.9184995369592164  0.3995414457749289
  0.2096235024010435  0.0440916320532529  0.4003969792547371
  0.2101819149785017  0.1699667807538851  0.4018464643448368
  0.2075015507612994  0.2932294919240898  0.4027846310382051
  0.2028953182086317  0.4166101798200718  0.4021829870756783
  0.2041536479110858  0.5416950868424080  0.4005385670238785
  0.2069562744496939  0.6675098132059410  0.3996092809684638
  0.2083347862861695  0.7930051083765794  0.3993459358977918
  0.2091197829559616  0.9185253226238571  0.3995768597440846
  0.3340507494436121  0.0434849410922839  0.3999120860652450
  0.3349754977673954  0.1697251489075602  0.4021064304285182
  0.3366833357015840  0.2975696625970000  0.4057132370515655
  0.3263545533457031  0.4190484452232311  0.4087076427998012
  0.3265022088584419  0.5428728168145371  0.4058543790839781
  0.3307513669783164  0.6671830284573985  0.4023653233868118
  0.3326082895294972  0.7923399301620477  0.4000998109499184
  0.3334897178599062  0.9177623393884722  0.3992930605677480
  0.4584661108553725  0.0417275719037493  0.3993180844272637
  0.4592048198834459  0.1675153506740840  0.4005809589423578
  0.4609065517049216  0.2936130100120275  0.4037002119991828
  0.4531757503191898  0.6618559207448914  0.4064111956824098
  0.4568712627955399  0.7899449785285403  0.4021700453240856
  0.4577528269369731  0.9159006521259184  0.3998233802159245
  0.5828100828739843  0.0400925794223358  0.3994605918883898
  0.5834917106170667  0.1656501969286707  0.3994285495650091
  0.5848534230947029  0.2908644174429467  0.4005150515941641
  0.5880796370352798  0.4157785563731274  0.4029047283659262
  0.5907245331363132  0.5415342638909891  0.4062953483358372
  0.5838200355584857  0.6629324617284359  0.4063899493265851
  0.5803297233417426  0.7867049674439304  0.4034296780020643
  0.5820443256981934  0.9140706104744513  0.4007359570091767
  0.7071977002855294  0.0394872417781473  0.3997892251878102
  0.7077914872392812  0.1650611119433979  0.3994088060417356
  0.7088125425442213  0.2905875513736044  0.3992527433488105
  0.7107490430437658  0.4161340328371711  0.3994275787258301
  0.7127209880426192  0.5417014503230095  0.4003709934658540
  0.7108417196626233  0.6666048817651389  0.4017173073285184
  0.7082006511280222  0.7900964003453400  0.4015889847113521
  0.7066816578426083  0.9138371170356853  0.4006301721784148
  0.8322130114699867  0.0400095763751889  0.3993904298620247
  0.8322051087672186  0.1650443569889042  0.3993153025808895
  0.8327003779378104  0.2904369626956380  0.3991207665618243
  0.8338706991332933  0.4160326658858239  0.3987193489596071
  0.8353550523840730  0.5418082876574497  0.3986210504413535
  0.8355073339942254  0.6674892654114495  0.3991128387747832
  0.8345412868163185  0.7920894996201318  0.3996012039430941
  0.8331315073459937  0.9159334145529932  0.3996154954074302
  0.9582559571204264  0.0416631392327934  0.3991935055953687
  0.9571670646147318  0.1657233886739191  0.3991522999073751
  0.9567089173965320  0.2905120440937558  0.3989675865364916
  0.9570089269987212  0.4160178170865143  0.3986716773204093
  0.9584578916265860  0.5418827002687052  0.3985924852076280
  0.9594436649233232  0.6676063766013786  0.3988578529302226
  0.9596583946291523  0.7929555342285908  0.3991272979655973
  0.9592752848989566  0.9176829707188944  0.3991752898629340
  0.4062345341361828  0.5809644964441316  0.4082218615636127
  0.4685642379787984  0.4189337232285659  0.4082994600662027
 
  0.00000000E+00  0.00000000E+00  0.00000000E+00
  0.00000000E+00  0.00000000E+00  0.00000000E+00
  0.00000000E+00  0.00000000E+00  0.00000000E+00
  0.00000000E+00  0.00000000E+00  0.00000000E+00
  0.00000000E+00  0.00000000E+00  0.00000000E+00
  0.00000000E+00  0.00000000E+00  0.00000000E+00
  0.00000000E+00  0.00000000E+00  0.00000000E+00
  0.00000000E+00  0.00000000E+00  0.00000000E+00
  0.00000000E+00  0.00000000E+00  0.00000000E+00
  0.00000000E+00  0.00000000E+00  0.00000000E+00
  0.00000000E+00  0.00000000E+00  0.00000000E+00
  0.00000000E+00  0.00000000E+00  0.00000000E+00
  0.00000000E+00  0.00000000E+00  0.00000000E+00
  0.00000000E+00  0.00000000E+00  0.00000000E+00
  0.00000000E+00  0.00000000E+00  0.00000000E+00
  0.00000000E+00  0.00000000E+00  0.00000000E+00
  0.00000000E+00  0.00000000E+00  0.00000000E+00
  0.00000000E+00  0.00000000E+00  0.00000000E+00
  0.00000000E+00  0.00000000E+00  0.00000000E+00
  0.00000000E+00  0.00000000E+00  0.00000000E+00
  0.00000000E+00  0.00000000E+00  0.00000000E+00
  0.00000000E+00  0.00000000E+00  0.00000000E+00
  0.00000000E+00  0.00000000E+00  0.00000000E+00
  0.00000000E+00  0.00000000E+00  0.00000000E+00
  0.00000000E+00  0.00000000E+00  0.00000000E+00
  0.00000000E+00  0.00000000E+00  0.00000000E+00
  0.00000000E+00  0.00000000E+00  0.00000000E+00
  0.00000000E+00  0.00000000E+00  0.00000000E+00
  0.00000000E+00  0.00000000E+00  0.00000000E+00
  0.00000000E+00  0.00000000E+00  0.00000000E+00
  0.00000000E+00  0.00000000E+00  0.00000000E+00
  0.00000000E+00  0.00000000E+00  0.00000000E+00
  0.00000000E+00  0.00000000E+00  0.00000000E+00
  0.00000000E+00  0.00000000E+00  0.00000000E+00
  0.00000000E+00  0.00000000E+00  0.00000000E+00
  0.00000000E+00  0.00000000E+00  0.00000000E+00
  0.00000000E+00  0.00000000E+00  0.00000000E+00
  0.00000000E+00  0.00000000E+00  0.00000000E+00
  0.00000000E+00  0.00000000E+00  0.00000000E+00
  0.00000000E+00  0.00000000E+00  0.00000000E+00
  0.00000000E+00  0.00000000E+00  0.00000000E+00
  0.00000000E+00  0.00000000E+00  0.00000000E+00
  0.00000000E+00  0.00000000E+00  0.00000000E+00
  0.00000000E+00  0.00000000E+00  0.00000000E+00
  0.00000000E+00  0.00000000E+00  0.00000000E+00
  0.00000000E+00  0.00000000E+00  0.00000000E+00
  0.00000000E+00  0.00000000E+00  0.00000000E+00
  0.00000000E+00  0.00000000E+00  0.00000000E+00
  0.00000000E+00  0.00000000E+00  0.00000000E+00
  0.00000000E+00  0.00000000E+00  0.00000000E+00
  0.00000000E+00  0.00000000E+00  0.00000000E+00
  0.00000000E+00  0.00000000E+00  0.00000000E+00
  0.00000000E+00  0.00000000E+00  0.00000000E+00
  0.00000000E+00  0.00000000E+00  0.00000000E+00
  0.00000000E+00  0.00000000E+00  0.00000000E+00
  0.00000000E+00  0.00000000E+00  0.00000000E+00
  0.00000000E+00  0.00000000E+00  0.00000000E+00
  0.00000000E+00  0.00000000E+00  0.00000000E+00
  0.00000000E+00  0.00000000E+00  0.00000000E+00
  0.00000000E+00  0.00000000E+00  0.00000000E+00
  0.00000000E+00  0.00000000E+00  0.00000000E+00
  0.00000000E+00  0.00000000E+00  0.00000000E+00
  0.00000000E+00  0.00000000E+00  0.00000000E+00
  0.00000000E+00  0.00000000E+00  0.00000000E+00
  0.00000000E+00  0.00000000E+00  0.00000000E+00
  0.00000000E+00  0.00000000E+00  0.00000000E+00
  0.00000000E+00  0.00000000E+00  0.00000000E+00
  0.00000000E+00  0.00000000E+00  0.00000000E+00
  0.00000000E+00  0.00000000E+00  0.00000000E+00
  0.00000000E+00  0.00000000E+00  0.00000000E+00
  0.00000000E+00  0.00000000E+00  0.00000000E+00
  0.00000000E+00  0.00000000E+00  0.00000000E+00
  0.00000000E+00  0.00000000E+00  0.00000000E+00
  0.00000000E+00  0.00000000E+00  0.00000000E+00
  0.00000000E+00  0.00000000E+00  0.00000000E+00
  0.00000000E+00  0.00000000E+00  0.00000000E+00
  0.00000000E+00  0.00000000E+00  0.00000000E+00
  0.00000000E+00  0.00000000E+00  0.00000000E+00
  0.00000000E+00  0.00000000E+00  0.00000000E+00
  0.00000000E+00  0.00000000E+00  0.00000000E+00
  0.00000000E+00  0.00000000E+00  0.00000000E+00
  0.00000000E+00  0.00000000E+00  0.00000000E+00
  0.00000000E+00  0.00000000E+00  0.00000000E+00
  0.00000000E+00  0.00000000E+00  0.00000000E+00
  0.00000000E+00  0.00000000E+00  0.00000000E+00
  0.00000000E+00  0.00000000E+00  0.00000000E+00
  0.00000000E+00  0.00000000E+00  0.00000000E+00
  0.00000000E+00  0.00000000E+00  0.00000000E+00
  0.00000000E+00  0.00000000E+00  0.00000000E+00
  0.00000000E+00  0.00000000E+00  0.00000000E+00
  0.00000000E+00  0.00000000E+00  0.00000000E+00
  0.00000000E+00  0.00000000E+00  0.00000000E+00
  0.00000000E+00  0.00000000E+00  0.00000000E+00
  0.00000000E+00  0.00000000E+00  0.00000000E+00
  0.00000000E+00  0.00000000E+00  0.00000000E+00
  0.00000000E+00  0.00000000E+00  0.00000000E+00
  0.00000000E+00  0.00000000E+00  0.00000000E+00
  0.00000000E+00  0.00000000E+00  0.00000000E+00
  0.00000000E+00  0.00000000E+00  0.00000000E+00
  0.00000000E+00  0.00000000E+00  0.00000000E+00
  0.00000000E+00  0.00000000E+00  0.00000000E+00
  0.00000000E+00  0.00000000E+00  0.00000000E+00
  0.00000000E+00  0.00000000E+00  0.00000000E+00
  0.00000000E+00  0.00000000E+00  0.00000000E+00
  0.00000000E+00  0.00000000E+00  0.00000000E+00
  0.00000000E+00  0.00000000E+00  0.00000000E+00
  0.00000000E+00  0.00000000E+00  0.00000000E+00
  0.00000000E+00  0.00000000E+00  0.00000000E+00
  0.00000000E+00  0.00000000E+00  0.00000000E+00
  0.00000000E+00  0.00000000E+00  0.00000000E+00
  0.00000000E+00  0.00000000E+00  0.00000000E+00
  0.00000000E+00  0.00000000E+00  0.00000000E+00
  0.00000000E+00  0.00000000E+00  0.00000000E+00
  0.00000000E+00  0.00000000E+00  0.00000000E+00
  0.00000000E+00  0.00000000E+00  0.00000000E+00
  0.00000000E+00  0.00000000E+00  0.00000000E+00
  0.00000000E+00  0.00000000E+00  0.00000000E+00
  0.00000000E+00  0.00000000E+00  0.00000000E+00
  0.00000000E+00  0.00000000E+00  0.00000000E+00
  0.00000000E+00  0.00000000E+00  0.00000000E+00
  0.00000000E+00  0.00000000E+00  0.00000000E+00
  0.00000000E+00  0.00000000E+00  0.00000000E+00
  0.00000000E+00  0.00000000E+00  0.00000000E+00
  0.00000000E+00  0.00000000E+00  0.00000000E+00
  0.00000000E+00  0.00000000E+00  0.00000000E+00
  0.00000000E+00  0.00000000E+00  0.00000000E+00
  0.00000000E+00  0.00000000E+00  0.00000000E+00
  0.00000000E+00  0.00000000E+00  0.00000000E+00
