ALGO = Fast

ENCUT = 520
IBRION = 2
ISIF = 4
ISMEAR = 0
ISPIN = 2
LASPH = True
LCHARG = False
LMAXMIX = 6
LORBIT = 11
LREAL = Auto
LVTOT = False
LWAVE = False
MAGMOM = 128*0.6
NELM = 100
NSW = 1000
PREC = Accurate
SIGMA = 0.05
EDIFF = 1e-4
AMIX = 0.1
BMIX = 0.01
LVDW = .TRUE.
