Zr1 H1 C125 N1 O2                       
   1.00000000000000     
    19.8122700303960571   -0.0094772308222355   -0.1492360518992916
    -9.9147789485775171   17.0749393785292369   -0.1485704500504241
    -0.2234564353399407   -0.3882069992308564   29.7596623939519773
   Zr   H    C    N    O 
     1     1   125     1     2
Direct
  0.4356054257177457  0.5036461450883851  0.4433230034573750
  0.5454448494358458  0.5650993986140098  0.5184703653269013
  0.0419923944050259  0.0840341550317244  0.3994077190618002
  0.0412640025693771  0.2083516620734303  0.3990991407501412
  0.0407817504684702  0.3330122473735606  0.3987595323980338
  0.0408312456830313  0.4584161007502348  0.3989083458729213
  0.0414825157556070  0.5838583204407386  0.3996118159895251
  0.0421186639211070  0.7091817076888853  0.3999707053008458
  0.0424356315877521  0.8344805613448398  0.3998278101703331
  0.0424737265402944  0.9595074887585108  0.3995489741632593
  0.1677542488817263  0.0852373336081836  0.3998639476173276
  0.1670103179047009  0.2095531166033441  0.4001047146780061
  0.1660406145662058  0.3339593108895225  0.3994790338311104
  0.1646828219178584  0.4585247609132377  0.3985180844876869
  0.1654237965784329  0.5837956152671061  0.3985698842169033
  0.1664488162931829  0.7092267821754298  0.3994623696389532
  0.1671292691046956  0.8345747753731025  0.3998434713165954
  0.1675319499113087  0.9598904579944898  0.3997439237190856
  0.2927316303473275  0.0851357895623472  0.3999370355451066
  0.2936856241630114  0.2115871373381728  0.4022784238203798
  0.2922080336499637  0.3362525305757930  0.4042450751372099
  0.2891510184063013  0.4588316218327358  0.4020179662497726
  0.2891288063028921  0.5845065975467041  0.3991088000948908
  0.2908543019013873  0.7093261939925469  0.3988487268779525
  0.2916823328987314  0.8343220481510146  0.3993457019531566
  0.2921334299962801  0.9595233848652681  0.3994754951713846
  0.4172617439831351  0.0838846506300195  0.3991957206345573
  0.4178587926415945  0.2093099734162526  0.4002810697713195
  0.4204200109122713  0.3360994052295578  0.4077186253446324
  0.4151875034343455  0.7079734395513199  0.3999365333512538
  0.4162838153351871  0.8332627676456986  0.3992157043659951
  0.4167929691574479  0.9585815572371372  0.3993600602433849
  0.5418647899926020  0.0827956840526977  0.3993864626998309
  0.5424107826826299  0.2079532003720387  0.3987941976469687
  0.5432975045541157  0.3330712254333236  0.3999254276070812
  0.5459128567301570  0.4574686341027184  0.4065820640574579
  0.5475832555998106  0.5830360713192863  0.4117839673120151
  0.5395922718619258  0.7047647369080595  0.4037863337089016
  0.5407542235186505  0.8316060164182375  0.3999402544216505
  0.5414463083877203  0.9574240882918047  0.3995911206275135
  0.6665023053232171  0.0823298223303403  0.3999203315465955
  0.6669738139446220  0.2076029028335228  0.3993417667691591
  0.6675842318447941  0.3327050428428165  0.3981922403852222
  0.6689873520775810  0.4580313632566486  0.3976139993826762
  0.6698668537460295  0.5836752631094367  0.3990428439784704
  0.6670860844578161  0.7073746417559122  0.3999523129263197
  0.6654852192818111  0.8312640964057033  0.3999457419608581
  0.6660705115643921  0.9569599369023616  0.3998608617977800
  0.7912481411030872  0.0823405788116693  0.3998588762720297
  0.7915185794422928  0.2075220720267424  0.3999175148263964
  0.7920398796168188  0.3328498777894708  0.3994009516001478
  0.7928596647371291  0.4582785530750306  0.3983278515567390
  0.7933240662282891  0.5835112727779039  0.3974640860920680
  0.7929354360449814  0.7087636886149178  0.3977983782717098
  0.7917045320582913  0.8329095313695219  0.3985804203878017
  0.7910229674948417  0.9572532028782985  0.3994122297935931
  0.9163229248718889  0.0828813486794393  0.3994215006877278
  0.9161849908395641  0.2077508245283460  0.3994544719225445
  0.9163457128679987  0.3329285924490482  0.3995344431298588
  0.9168198360074725  0.4582991425481436  0.3995949469981134
  0.9174742441233492  0.5837635782544924  0.3993350073594844
  0.9176953672344941  0.7091485811352470  0.3989829783863343
  0.9174905457758753  0.8340432884439331  0.3989972944626546
  0.9168349190808865  0.9584569715603152  0.3992602260225139
  0.0841812071240952  0.0430135688220381  0.3995235306983942
  0.0835053177356929  0.1673430378395964  0.3994011621161555
  0.0826115330092851  0.2917347107548483  0.3988863120424846
  0.0820043121383911  0.4166642447437469  0.3985089503129727
  0.0824936732022013  0.5419766260303238  0.3989946544064521
  0.0833652561326117  0.6674259348625519  0.3997878182705699
  0.0839492058333830  0.7928379660129978  0.3999874347199420
  0.0841674395852057  0.9180168900785867  0.3997411317364845
  0.2092927950839312  0.0433513209812459  0.3998649309830546
  0.2095368185971711  0.1688719159486159  0.4006085399937975
  0.2083935411297294  0.2929828777333695  0.4006472598291786
  0.2060772464818372  0.4172883020239319  0.3995263846652227
  0.2062366219419733  0.5420314793975409  0.3984401158286362
  0.2076675204824952  0.6674824994147023  0.3988833152839874
  0.2084813313128965  0.7927436601755116  0.3995891168422000
  0.2089727234470049  0.9180273082727093  0.3997034678648314
  0.3339875205359181  0.0429038452887556  0.3994422894647662
  0.3347249280397982  0.1686369437746388  0.4009178603151212
  0.3355985146910040  0.2947920735887392  0.4058511070829865
  0.3304901042616441  0.4186572451816598  0.4058775038416901
  0.3311612406909012  0.5445832584063204  0.4016295166378083
  0.3320410474168602  0.6676455962833654  0.3991248712246785
  0.3330856958916867  0.7925482475134682  0.3991128875129809
  0.3335816827697729  0.9176104846368579  0.3993866069764851
  0.4586741531296499  0.0418362700364846  0.3992851718803004
  0.4591064363686025  0.1670857594580163  0.3991170456543989
  0.4601891559624831  0.2926352314804528  0.4019487393590865
  0.4656920950123353  0.4181632790491848  0.4142504672775157
  0.4549038098853624  0.6642844505126482  0.4029716326929971
  0.4576594243921298  0.7912198875266616  0.3995037631031367
  0.4581818166686338  0.9165268722891738  0.3993807868012918
  0.5832950619356171  0.0408632247149264  0.3996914464204497
  0.5837437894154178  0.1660973761667625  0.3990884757092989
  0.5844492937937914  0.2911719641327923  0.3985426267488498
  0.5863376083013123  0.4161247219490343  0.4000651483055921
  0.5884356957883351  0.5428272517476235  0.4056333520708321
  0.5837357667797203  0.6640694929385909  0.4050887782643782
  0.5813409822738015  0.7883606092718493  0.4009748158396174
  0.5827512456819093  0.9152582385825739  0.3997330581394715
  0.7079130011292322  0.0404734662374017  0.3999464856897345
  0.7083611061709073  0.1658289704598558  0.3998473331324145
  0.7088557474303038  0.2910086143085067  0.3989486736922583
  0.7098391390448496  0.4163692617424099  0.3976321307350469
  0.7107145112398333  0.5417045098432527  0.3973372371143851
  0.7097608400932727  0.6668132436252936  0.3984791898288270
  0.7081366889848055  0.7906695845771383  0.3990743001075852
  0.7074002088050493  0.9149643794976233  0.3996745967059865
  0.8328239600113939  0.0407775852126788  0.3995930250901383
  0.8329282209726900  0.1658344203776823  0.3998393372507627
  0.8333089004318079  0.2911110531802192  0.3997574158044963
  0.8339087496357297  0.4164413682922287  0.3992497630518115
  0.8345122384271678  0.5418004678555809  0.3983472594078226
  0.8345787131698663  0.6672696835060572  0.3979302711501738
  0.8341322571418718  0.7920717548864502  0.3983523267871301
  0.8332447281749682  0.9162648403641238  0.3990812485354741
  0.9584244572292536  0.0418373933093064  0.3993678473312369
  0.9578994757252798  0.1663002811788186  0.3992540022946400
  0.9577088076947643  0.2911853866587877  0.3992309573687028
  0.9579275757080646  0.4165069009519588  0.3994364032635940
  0.9586290969869893  0.5420271270117375  0.3996883565482680
  0.9590946217526899  0.6674114538014152  0.3995535554703536
  0.9592156511917417  0.7926174702026704  0.3993619397382470
  0.9590078106740412  0.9174478990690066  0.3993040507195140
  0.4105755723152693  0.5842387039450959  0.4051342950198228
  0.5085608050346865  0.5105614891841969  0.5091259590220021
  0.4321422744314557  0.5074561542568871  0.5124480770654386
 
  0.00000000E+00  0.00000000E+00  0.00000000E+00
  0.00000000E+00  0.00000000E+00  0.00000000E+00
  0.00000000E+00  0.00000000E+00  0.00000000E+00
  0.00000000E+00  0.00000000E+00  0.00000000E+00
  0.00000000E+00  0.00000000E+00  0.00000000E+00
  0.00000000E+00  0.00000000E+00  0.00000000E+00
  0.00000000E+00  0.00000000E+00  0.00000000E+00
  0.00000000E+00  0.00000000E+00  0.00000000E+00
  0.00000000E+00  0.00000000E+00  0.00000000E+00
  0.00000000E+00  0.00000000E+00  0.00000000E+00
  0.00000000E+00  0.00000000E+00  0.00000000E+00
  0.00000000E+00  0.00000000E+00  0.00000000E+00
  0.00000000E+00  0.00000000E+00  0.00000000E+00
  0.00000000E+00  0.00000000E+00  0.00000000E+00
  0.00000000E+00  0.00000000E+00  0.00000000E+00
  0.00000000E+00  0.00000000E+00  0.00000000E+00
  0.00000000E+00  0.00000000E+00  0.00000000E+00
  0.00000000E+00  0.00000000E+00  0.00000000E+00
  0.00000000E+00  0.00000000E+00  0.00000000E+00
  0.00000000E+00  0.00000000E+00  0.00000000E+00
  0.00000000E+00  0.00000000E+00  0.00000000E+00
  0.00000000E+00  0.00000000E+00  0.00000000E+00
  0.00000000E+00  0.00000000E+00  0.00000000E+00
  0.00000000E+00  0.00000000E+00  0.00000000E+00
  0.00000000E+00  0.00000000E+00  0.00000000E+00
  0.00000000E+00  0.00000000E+00  0.00000000E+00
  0.00000000E+00  0.00000000E+00  0.00000000E+00
  0.00000000E+00  0.00000000E+00  0.00000000E+00
  0.00000000E+00  0.00000000E+00  0.00000000E+00
  0.00000000E+00  0.00000000E+00  0.00000000E+00
  0.00000000E+00  0.00000000E+00  0.00000000E+00
  0.00000000E+00  0.00000000E+00  0.00000000E+00
  0.00000000E+00  0.00000000E+00  0.00000000E+00
  0.00000000E+00  0.00000000E+00  0.00000000E+00
  0.00000000E+00  0.00000000E+00  0.00000000E+00
  0.00000000E+00  0.00000000E+00  0.00000000E+00
  0.00000000E+00  0.00000000E+00  0.00000000E+00
  0.00000000E+00  0.00000000E+00  0.00000000E+00
  0.00000000E+00  0.00000000E+00  0.00000000E+00
  0.00000000E+00  0.00000000E+00  0.00000000E+00
  0.00000000E+00  0.00000000E+00  0.00000000E+00
  0.00000000E+00  0.00000000E+00  0.00000000E+00
  0.00000000E+00  0.00000000E+00  0.00000000E+00
  0.00000000E+00  0.00000000E+00  0.00000000E+00
  0.00000000E+00  0.00000000E+00  0.00000000E+00
  0.00000000E+00  0.00000000E+00  0.00000000E+00
  0.00000000E+00  0.00000000E+00  0.00000000E+00
  0.00000000E+00  0.00000000E+00  0.00000000E+00
  0.00000000E+00  0.00000000E+00  0.00000000E+00
  0.00000000E+00  0.00000000E+00  0.00000000E+00
  0.00000000E+00  0.00000000E+00  0.00000000E+00
  0.00000000E+00  0.00000000E+00  0.00000000E+00
  0.00000000E+00  0.00000000E+00  0.00000000E+00
  0.00000000E+00  0.00000000E+00  0.00000000E+00
  0.00000000E+00  0.00000000E+00  0.00000000E+00
  0.00000000E+00  0.00000000E+00  0.00000000E+00
  0.00000000E+00  0.00000000E+00  0.00000000E+00
  0.00000000E+00  0.00000000E+00  0.00000000E+00
  0.00000000E+00  0.00000000E+00  0.00000000E+00
  0.00000000E+00  0.00000000E+00  0.00000000E+00
  0.00000000E+00  0.00000000E+00  0.00000000E+00
  0.00000000E+00  0.00000000E+00  0.00000000E+00
  0.00000000E+00  0.00000000E+00  0.00000000E+00
  0.00000000E+00  0.00000000E+00  0.00000000E+00
  0.00000000E+00  0.00000000E+00  0.00000000E+00
  0.00000000E+00  0.00000000E+00  0.00000000E+00
  0.00000000E+00  0.00000000E+00  0.00000000E+00
  0.00000000E+00  0.00000000E+00  0.00000000E+00
  0.00000000E+00  0.00000000E+00  0.00000000E+00
  0.00000000E+00  0.00000000E+00  0.00000000E+00
  0.00000000E+00  0.00000000E+00  0.00000000E+00
  0.00000000E+00  0.00000000E+00  0.00000000E+00
  0.00000000E+00  0.00000000E+00  0.00000000E+00
  0.00000000E+00  0.00000000E+00  0.00000000E+00
  0.00000000E+00  0.00000000E+00  0.00000000E+00
  0.00000000E+00  0.00000000E+00  0.00000000E+00
  0.00000000E+00  0.00000000E+00  0.00000000E+00
  0.00000000E+00  0.00000000E+00  0.00000000E+00
  0.00000000E+00  0.00000000E+00  0.00000000E+00
  0.00000000E+00  0.00000000E+00  0.00000000E+00
  0.00000000E+00  0.00000000E+00  0.00000000E+00
  0.00000000E+00  0.00000000E+00  0.00000000E+00
  0.00000000E+00  0.00000000E+00  0.00000000E+00
  0.00000000E+00  0.00000000E+00  0.00000000E+00
  0.00000000E+00  0.00000000E+00  0.00000000E+00
  0.00000000E+00  0.00000000E+00  0.00000000E+00
  0.00000000E+00  0.00000000E+00  0.00000000E+00
  0.00000000E+00  0.00000000E+00  0.00000000E+00
  0.00000000E+00  0.00000000E+00  0.00000000E+00
  0.00000000E+00  0.00000000E+00  0.00000000E+00
  0.00000000E+00  0.00000000E+00  0.00000000E+00
  0.00000000E+00  0.00000000E+00  0.00000000E+00
  0.00000000E+00  0.00000000E+00  0.00000000E+00
  0.00000000E+00  0.00000000E+00  0.00000000E+00
  0.00000000E+00  0.00000000E+00  0.00000000E+00
  0.00000000E+00  0.00000000E+00  0.00000000E+00
  0.00000000E+00  0.00000000E+00  0.00000000E+00
  0.00000000E+00  0.00000000E+00  0.00000000E+00
  0.00000000E+00  0.00000000E+00  0.00000000E+00
  0.00000000E+00  0.00000000E+00  0.00000000E+00
  0.00000000E+00  0.00000000E+00  0.00000000E+00
  0.00000000E+00  0.00000000E+00  0.00000000E+00
  0.00000000E+00  0.00000000E+00  0.00000000E+00
  0.00000000E+00  0.00000000E+00  0.00000000E+00
  0.00000000E+00  0.00000000E+00  0.00000000E+00
  0.00000000E+00  0.00000000E+00  0.00000000E+00
  0.00000000E+00  0.00000000E+00  0.00000000E+00
  0.00000000E+00  0.00000000E+00  0.00000000E+00
  0.00000000E+00  0.00000000E+00  0.00000000E+00
  0.00000000E+00  0.00000000E+00  0.00000000E+00
  0.00000000E+00  0.00000000E+00  0.00000000E+00
  0.00000000E+00  0.00000000E+00  0.00000000E+00
  0.00000000E+00  0.00000000E+00  0.00000000E+00
  0.00000000E+00  0.00000000E+00  0.00000000E+00
  0.00000000E+00  0.00000000E+00  0.00000000E+00
  0.00000000E+00  0.00000000E+00  0.00000000E+00
  0.00000000E+00  0.00000000E+00  0.00000000E+00
  0.00000000E+00  0.00000000E+00  0.00000000E+00
  0.00000000E+00  0.00000000E+00  0.00000000E+00
  0.00000000E+00  0.00000000E+00  0.00000000E+00
  0.00000000E+00  0.00000000E+00  0.00000000E+00
  0.00000000E+00  0.00000000E+00  0.00000000E+00
  0.00000000E+00  0.00000000E+00  0.00000000E+00
  0.00000000E+00  0.00000000E+00  0.00000000E+00
  0.00000000E+00  0.00000000E+00  0.00000000E+00
  0.00000000E+00  0.00000000E+00  0.00000000E+00
  0.00000000E+00  0.00000000E+00  0.00000000E+00
  0.00000000E+00  0.00000000E+00  0.00000000E+00
  0.00000000E+00  0.00000000E+00  0.00000000E+00
  0.00000000E+00  0.00000000E+00  0.00000000E+00
