Pt1 C126 O1                             
   1.00000000000000     
    19.7992589036507418   -0.0000335755466021   -0.0086435271646752
    -9.8997402474640026   17.0535967689765684    0.1174478381997756
    -0.0130446290591595    0.1977257142484508   29.8027778777431358
   Pt   C    O 
     1   126     1
Direct
  0.4373280465047244  0.4993765806789410  0.4337187262575575
  0.0419334026001132  0.0838608681852988  0.3996991152815940
  0.0411275416577920  0.2080438818056307  0.3997802387138397
  0.0406387726089095  0.3327993625483500  0.3994027787501687
  0.0406123019658225  0.4581542482587282  0.3990513972769470
  0.0412895705330910  0.5835694392866659  0.3991276158366274
  0.0419450914721492  0.7088900135868161  0.3993077674885509
  0.0421940741498034  0.8341233724287042  0.3994436865614299
  0.0421991227168133  0.9591720451019052  0.3995017458933021
  0.1674467603722601  0.0847928154524440  0.4004070327631485
  0.1674042044470486  0.2097866246001610  0.4008355346751785
  0.1656040091327061  0.3332423535525653  0.4001697651861146
  0.1645032986690967  0.4582243568111588  0.3990417937004726
  0.1652795710858046  0.5835355128034547  0.3989193102991295
  0.1664190194452388  0.7088329727153045  0.3992557177177295
  0.1668742501865254  0.8340920289219255  0.3994556591029817
  0.1672144956107887  0.9594493266182853  0.3997455532765793
  0.2922928245942814  0.0847664475369300  0.4004160023455263
  0.2928997017194955  0.2108247578939070  0.4022120443306732
  0.2934403704241282  0.3368910554303381  0.4037659728551184
  0.2877891809425419  0.4581256516061626  0.4015134930421265
  0.2888460792934794  0.5836091394648372  0.3997018673101914
  0.2908489343131344  0.7085166215818738  0.3996110300284171
  0.2915250254787995  0.8336916634264321  0.3993798172745253
  0.2919200851395010  0.9591130303509890  0.3994803863508177
  0.4168649844353937  0.0838080276139132  0.3996665537044647
  0.4173314538837500  0.2097550107117736  0.4009866660502839
  0.4183569787762355  0.3367178798033948  0.4043758654170972
  0.4094659046659985  0.5798374173503176  0.4083868011428026
  0.4151382351342651  0.7060916725382191  0.4020164815777526
  0.4161347797751454  0.8323334955218913  0.3999838825809272
  0.4165380651372637  0.9580936994669779  0.3993046997785530
  0.5414588506179266  0.0825994431065604  0.3993485848231064
  0.5418534187878842  0.2080049210535064  0.3997681540085945
  0.5426296046593347  0.3332275749846245  0.4005616377116767
  0.5454173077231812  0.4581385910260766  0.4025506289930624
  0.5458777259262132  0.5801955229370571  0.4092020690810567
  0.5398751095544411  0.7047484419686658  0.4060559726248769
  0.5405577036880334  0.8310555257860051  0.4017131450038380
  0.5411117477038950  0.9569869060086520  0.3997441335210110
  0.6661117445805123  0.0820933475456984  0.3994761563199461
  0.6664670557664418  0.2074716434164090  0.3994112464737657
  0.6671093091082501  0.3327757988453715  0.3993454319094568
  0.6687231836580984  0.4582287259599596  0.3991418742557944
  0.6698487840260470  0.5836429680290749  0.3999738951292232
  0.6660876430736643  0.7061488753565324  0.4022751735492579
  0.6654641402885115  0.8310481420056489  0.4017637679687115
  0.6657860748779819  0.9566087416177615  0.4002890476132587
  0.7909448951925596  0.0821168060388519  0.3994944394062488
  0.7911359394031190  0.2073428536098939  0.3994652402744516
  0.7916079184304954  0.3327144967055870  0.3992448036385682
  0.7924966093115416  0.4581644977489220  0.3989120945131669
  0.7932625079931027  0.5835508534443525  0.3987891292917965
  0.7927379196588077  0.7085649018724819  0.3995811104869730
  0.7912202474992737  0.8323746962935457  0.3999639897130122
  0.7908415997537885  0.9570086768782597  0.3997386668114701
  0.9161202483006849  0.0826499160459036  0.3993805320149666
  0.9159636276657168  0.2075123356251492  0.3994709698102930
  0.9160639915541775  0.3327319558224878  0.3993057754750131
  0.9165256739011791  0.4581085845382480  0.3991063799350542
  0.9172485203443712  0.5835791427402072  0.3990591535571734
  0.9174321849853448  0.7088642399741407  0.3991812274445776
  0.9171921345098502  0.8337574554139755  0.3993426954664474
  0.9165659313866016  0.9581606618490692  0.3992899273250700
  0.0839774592401057  0.0426960672765193  0.3998136058444645
  0.0837046009390048  0.1673821611258377  0.4000610896757448
  0.0823973277938710  0.2912961986603468  0.3997022958944225
  0.0818176558179764  0.4163560118447001  0.3990958853310022
  0.0823383472616831  0.5416838927867859  0.3990158049260416
  0.0832466946483635  0.6671103806372954  0.3992136811478458
  0.0837046626628644  0.7924426108514566  0.3994538349608199
  0.0839046954436081  0.9176291701554323  0.3995548992409067
  0.2089832888552605  0.0429928368977709  0.4002482151704554
  0.2092918554657731  0.1684333493591585  0.4012013362433297
  0.2090966260144512  0.2935204562400950  0.4013663528201290
  0.2055883488723803  0.4163033617238315  0.3997377641399508
  0.2060606846046081  0.5416468920446575  0.3988670276026924
  0.2076791803213833  0.6670476723415804  0.3991937590408273
  0.2083228036051954  0.7922876054268611  0.3993646956435554
  0.2086845315304819  0.9175974811103256  0.3995433112336429
  0.3336526676003372  0.0426447592238661  0.3997811503773606
  0.3341041112442784  0.1684209987618955  0.4012967899145617
  0.3347569085946218  0.2945292281323797  0.4040476631133463
  0.3317215917984344  0.4201619646697534  0.4058807382732321
  0.3289047880593823  0.5414078626775003  0.4019984438400150
  0.3320460243210068  0.6664952876390797  0.4003833995580299
  0.3329080015566088  0.7917283054760628  0.3996297089934987
  0.3333507717937159  0.9171060396615998  0.3993369755429967
  0.4582497039100822  0.0415924544648049  0.3993252623747134
  0.4586326568510755  0.1673432139925140  0.4000705258451620
  0.4594176070879120  0.2934758905450144  0.4018051564731534
  0.4635956154725273  0.4198530628297518  0.4072301861359351
  0.4560522141304734  0.6625505612088185  0.4055270745483374
  0.4573830464849785  0.7898257716936871  0.4011784626204701
  0.4579199208018506  0.9158545905227119  0.3996105068274859
  0.5828730310626662  0.0405516652727508  0.3994332088721653
  0.5832536328952888  0.1660462423858659  0.3994583958863359
  0.5838530690703280  0.2912745240186180  0.3997794614078463
  0.5857387405526465  0.4163017169386663  0.4002478951530077
  0.5876065772819115  0.5414360243674416  0.4028929080933173
  0.5816895453726059  0.6626776797799815  0.4059788813113857
  0.5817002914375604  0.7884346004673448  0.4032512450982269
  0.5824154801622720  0.9147679166017639  0.4005139170825283
  0.7075862688025419  0.0402119744984747  0.3996803743933667
  0.7078974868378953  0.1656383567091107  0.3994272711662139
  0.7083872247930263  0.2909717289245912  0.3993320422278677
  0.7095072152099196  0.4163431337814646  0.3990149516494215
  0.7105986534053430  0.5416476787034449  0.3988886893030764
  0.7095428989832170  0.6665241682263028  0.4005360933413293
  0.7074732825811619  0.7898544863348644  0.4012646478457731
  0.7073170960838474  0.9147560725367970  0.4005016997348079
  0.8326618274581804  0.0405854144404981  0.3994483826484591
  0.8326873636300888  0.1656630560465958  0.3994471061445463
  0.8329507127742157  0.2909480466786611  0.3993729614023294
  0.8335409933023952  0.4162660075059527  0.3990799598895982
  0.8343213925047598  0.5416894345233042  0.3988703128095425
  0.8343968493068794  0.6670705772255505  0.3990944725981959
  0.8338523386012269  0.7917737733903235  0.3995994467174702
  0.8329436709959672  0.9159043211494243  0.3995762244220808
  0.9583431568847525  0.0416519934566393  0.3993482936385425
  0.9577673282126817  0.1660912656820925  0.3995150871198051
  0.9575596686278077  0.2910122616685185  0.3994320457066416
  0.9576635525150430  0.4162704443294735  0.3991555928806351
  0.9583446426320035  0.5417223914961854  0.3991068305221709
  0.9588687072149769  0.6671208015687587  0.3991723521522406
  0.9589667685524083  0.7923278606478203  0.3993264789614378
  0.9587793160854083  0.9171769420389063  0.3993236377065926
  0.4556113325815461  0.5270066807187613  0.4922104720373638
 
  0.00000000E+00  0.00000000E+00  0.00000000E+00
  0.00000000E+00  0.00000000E+00  0.00000000E+00
  0.00000000E+00  0.00000000E+00  0.00000000E+00
  0.00000000E+00  0.00000000E+00  0.00000000E+00
  0.00000000E+00  0.00000000E+00  0.00000000E+00
  0.00000000E+00  0.00000000E+00  0.00000000E+00
  0.00000000E+00  0.00000000E+00  0.00000000E+00
  0.00000000E+00  0.00000000E+00  0.00000000E+00
  0.00000000E+00  0.00000000E+00  0.00000000E+00
  0.00000000E+00  0.00000000E+00  0.00000000E+00
  0.00000000E+00  0.00000000E+00  0.00000000E+00
  0.00000000E+00  0.00000000E+00  0.00000000E+00
  0.00000000E+00  0.00000000E+00  0.00000000E+00
  0.00000000E+00  0.00000000E+00  0.00000000E+00
  0.00000000E+00  0.00000000E+00  0.00000000E+00
  0.00000000E+00  0.00000000E+00  0.00000000E+00
  0.00000000E+00  0.00000000E+00  0.00000000E+00
  0.00000000E+00  0.00000000E+00  0.00000000E+00
  0.00000000E+00  0.00000000E+00  0.00000000E+00
  0.00000000E+00  0.00000000E+00  0.00000000E+00
  0.00000000E+00  0.00000000E+00  0.00000000E+00
  0.00000000E+00  0.00000000E+00  0.00000000E+00
  0.00000000E+00  0.00000000E+00  0.00000000E+00
  0.00000000E+00  0.00000000E+00  0.00000000E+00
  0.00000000E+00  0.00000000E+00  0.00000000E+00
  0.00000000E+00  0.00000000E+00  0.00000000E+00
  0.00000000E+00  0.00000000E+00  0.00000000E+00
  0.00000000E+00  0.00000000E+00  0.00000000E+00
  0.00000000E+00  0.00000000E+00  0.00000000E+00
  0.00000000E+00  0.00000000E+00  0.00000000E+00
  0.00000000E+00  0.00000000E+00  0.00000000E+00
  0.00000000E+00  0.00000000E+00  0.00000000E+00
  0.00000000E+00  0.00000000E+00  0.00000000E+00
  0.00000000E+00  0.00000000E+00  0.00000000E+00
  0.00000000E+00  0.00000000E+00  0.00000000E+00
  0.00000000E+00  0.00000000E+00  0.00000000E+00
  0.00000000E+00  0.00000000E+00  0.00000000E+00
  0.00000000E+00  0.00000000E+00  0.00000000E+00
  0.00000000E+00  0.00000000E+00  0.00000000E+00
  0.00000000E+00  0.00000000E+00  0.00000000E+00
  0.00000000E+00  0.00000000E+00  0.00000000E+00
  0.00000000E+00  0.00000000E+00  0.00000000E+00
  0.00000000E+00  0.00000000E+00  0.00000000E+00
  0.00000000E+00  0.00000000E+00  0.00000000E+00
  0.00000000E+00  0.00000000E+00  0.00000000E+00
  0.00000000E+00  0.00000000E+00  0.00000000E+00
  0.00000000E+00  0.00000000E+00  0.00000000E+00
  0.00000000E+00  0.00000000E+00  0.00000000E+00
  0.00000000E+00  0.00000000E+00  0.00000000E+00
  0.00000000E+00  0.00000000E+00  0.00000000E+00
  0.00000000E+00  0.00000000E+00  0.00000000E+00
  0.00000000E+00  0.00000000E+00  0.00000000E+00
  0.00000000E+00  0.00000000E+00  0.00000000E+00
  0.00000000E+00  0.00000000E+00  0.00000000E+00
  0.00000000E+00  0.00000000E+00  0.00000000E+00
  0.00000000E+00  0.00000000E+00  0.00000000E+00
  0.00000000E+00  0.00000000E+00  0.00000000E+00
  0.00000000E+00  0.00000000E+00  0.00000000E+00
  0.00000000E+00  0.00000000E+00  0.00000000E+00
  0.00000000E+00  0.00000000E+00  0.00000000E+00
  0.00000000E+00  0.00000000E+00  0.00000000E+00
  0.00000000E+00  0.00000000E+00  0.00000000E+00
  0.00000000E+00  0.00000000E+00  0.00000000E+00
  0.00000000E+00  0.00000000E+00  0.00000000E+00
  0.00000000E+00  0.00000000E+00  0.00000000E+00
  0.00000000E+00  0.00000000E+00  0.00000000E+00
  0.00000000E+00  0.00000000E+00  0.00000000E+00
  0.00000000E+00  0.00000000E+00  0.00000000E+00
  0.00000000E+00  0.00000000E+00  0.00000000E+00
  0.00000000E+00  0.00000000E+00  0.00000000E+00
  0.00000000E+00  0.00000000E+00  0.00000000E+00
  0.00000000E+00  0.00000000E+00  0.00000000E+00
  0.00000000E+00  0.00000000E+00  0.00000000E+00
  0.00000000E+00  0.00000000E+00  0.00000000E+00
  0.00000000E+00  0.00000000E+00  0.00000000E+00
  0.00000000E+00  0.00000000E+00  0.00000000E+00
  0.00000000E+00  0.00000000E+00  0.00000000E+00
  0.00000000E+00  0.00000000E+00  0.00000000E+00
  0.00000000E+00  0.00000000E+00  0.00000000E+00
  0.00000000E+00  0.00000000E+00  0.00000000E+00
  0.00000000E+00  0.00000000E+00  0.00000000E+00
  0.00000000E+00  0.00000000E+00  0.00000000E+00
  0.00000000E+00  0.00000000E+00  0.00000000E+00
  0.00000000E+00  0.00000000E+00  0.00000000E+00
  0.00000000E+00  0.00000000E+00  0.00000000E+00
  0.00000000E+00  0.00000000E+00  0.00000000E+00
  0.00000000E+00  0.00000000E+00  0.00000000E+00
  0.00000000E+00  0.00000000E+00  0.00000000E+00
  0.00000000E+00  0.00000000E+00  0.00000000E+00
  0.00000000E+00  0.00000000E+00  0.00000000E+00
  0.00000000E+00  0.00000000E+00  0.00000000E+00
  0.00000000E+00  0.00000000E+00  0.00000000E+00
  0.00000000E+00  0.00000000E+00  0.00000000E+00
  0.00000000E+00  0.00000000E+00  0.00000000E+00
  0.00000000E+00  0.00000000E+00  0.00000000E+00
  0.00000000E+00  0.00000000E+00  0.00000000E+00
  0.00000000E+00  0.00000000E+00  0.00000000E+00
  0.00000000E+00  0.00000000E+00  0.00000000E+00
  0.00000000E+00  0.00000000E+00  0.00000000E+00
  0.00000000E+00  0.00000000E+00  0.00000000E+00
  0.00000000E+00  0.00000000E+00  0.00000000E+00
  0.00000000E+00  0.00000000E+00  0.00000000E+00
  0.00000000E+00  0.00000000E+00  0.00000000E+00
  0.00000000E+00  0.00000000E+00  0.00000000E+00
  0.00000000E+00  0.00000000E+00  0.00000000E+00
  0.00000000E+00  0.00000000E+00  0.00000000E+00
  0.00000000E+00  0.00000000E+00  0.00000000E+00
  0.00000000E+00  0.00000000E+00  0.00000000E+00
  0.00000000E+00  0.00000000E+00  0.00000000E+00
  0.00000000E+00  0.00000000E+00  0.00000000E+00
  0.00000000E+00  0.00000000E+00  0.00000000E+00
  0.00000000E+00  0.00000000E+00  0.00000000E+00
  0.00000000E+00  0.00000000E+00  0.00000000E+00
  0.00000000E+00  0.00000000E+00  0.00000000E+00
  0.00000000E+00  0.00000000E+00  0.00000000E+00
  0.00000000E+00  0.00000000E+00  0.00000000E+00
  0.00000000E+00  0.00000000E+00  0.00000000E+00
  0.00000000E+00  0.00000000E+00  0.00000000E+00
  0.00000000E+00  0.00000000E+00  0.00000000E+00
  0.00000000E+00  0.00000000E+00  0.00000000E+00
  0.00000000E+00  0.00000000E+00  0.00000000E+00
  0.00000000E+00  0.00000000E+00  0.00000000E+00
  0.00000000E+00  0.00000000E+00  0.00000000E+00
  0.00000000E+00  0.00000000E+00  0.00000000E+00
  0.00000000E+00  0.00000000E+00  0.00000000E+00
  0.00000000E+00  0.00000000E+00  0.00000000E+00
  0.00000000E+00  0.00000000E+00  0.00000000E+00
  0.00000000E+00  0.00000000E+00  0.00000000E+00
