Cd1 H1 C123 N3 O1                       
   1.00000000000000     
    19.7835914064165621    0.0216132884719597   -0.6643169172378938
    -9.8785342853584766   17.0318347457071191    0.5462933606612757
    -0.9990254278159233    0.3740179772026821   29.8825017725062061
   Cd   H    C    N    O 
     1     1   123     3     1
Direct
  0.4417886192943264  0.4933369652044012  0.4532922443590117
  0.4804675681984635  0.5719537454696765  0.5241151746033939
  0.0419858181846216  0.0836860068953654  0.3998234058930072
  0.0409371546119187  0.2077941229149561  0.3997883229568213
  0.0405316972378776  0.3325945004727741  0.3994616555613173
  0.0409525779224520  0.4579741554106037  0.3992085245464800
  0.0418175446609480  0.5834296043146496  0.3992177808363408
  0.0425551270479890  0.7088879587310362  0.3993179456277176
  0.0429219030852091  0.8343355555025527  0.3995626466101976
  0.0428729998697188  0.9594354192403798  0.3997263173619963
  0.1680593552897174  0.0852602305324471  0.4000380636902984
  0.1668789631374668  0.2092131005671296  0.4003764370610598
  0.1652522591335301  0.3331222099293101  0.3994785915135188
  0.1649733098991736  0.4579454601588436  0.3987858604098183
  0.1658984398643223  0.5831325273146725  0.3988639134310128
  0.1668772047893309  0.7086617278656085  0.3994111274074034
  0.1675110959144163  0.8341805203016130  0.3997783935164112
  0.1678977072834547  0.9597671900496665  0.3999198225714815
  0.2929110379164765  0.0853716548842993  0.4001453581387233
  0.2938264620850927  0.2123496629607386  0.4017308650075479
  0.2915572243702898  0.3373023026300158  0.4015464664333489
  0.2892457992259670  0.4561064961994979  0.3985077934546089
  0.2897390318094704  0.5826996060788743  0.3982575686448409
  0.2910841662801324  0.7080975567976165  0.3992667459778054
  0.2919855617329547  0.8335649288550165  0.3996666267046864
  0.2924420686061914  0.9593250037573057  0.3997150618055280
  0.4172560872582465  0.0839326885489938  0.3991171955629039
  0.4178251894230272  0.2099519911804173  0.3998971748074580
  0.4206334764611834  0.3368282774699636  0.4077119415903391
  0.4152721326939349  0.7059356037369364  0.4002008085383835
  0.4164598433209785  0.8320991029821361  0.3998985773513274
  0.4168942692186517  0.9580048129251125  0.3995826468858025
  0.5416903531624968  0.0825051918397478  0.3990797616256118
  0.5421102064565964  0.2083072317354428  0.3981024427175706
  0.5431201650813157  0.3340008357671245  0.3988598936830604
  0.5456318623910678  0.4586373183894620  0.4055520316912918
  0.5394103193882309  0.7015400042291328  0.4029947325865575
  0.5407147695159489  0.8298476084618317  0.4008304823239368
  0.5413505618511195  0.9564116584581315  0.3999424807403383
  0.6661995097786361  0.0817553840649494  0.3997573060796584
  0.6665973316455315  0.2074504899652026  0.3985363241094402
  0.6671709017809029  0.3330268144041105  0.3967309274044798
  0.6684354565971244  0.4585890640929762  0.3957864562757898
  0.6705847518079120  0.5842538660681792  0.3987592596004105
  0.6681484192537883  0.7071586433311731  0.4006788850164075
  0.6654718153946770  0.8301660649123839  0.4008842327258073
  0.6658932000068977  0.9560308757516973  0.4004229862551912
  0.7909597074830161  0.0817373366209318  0.4001237439920891
  0.7911803546590808  0.2071141932179256  0.3996078802073748
  0.7916581971407233  0.3326684581276065  0.3982989368882238
  0.7925421693913506  0.4583172419238932  0.3967409828214986
  0.7935317116249401  0.5837565301456389  0.3965590804300516
  0.7938813275961278  0.7090378177506297  0.3982081826738038
  0.7921865866940864  0.8327749377368624  0.3994909010993258
  0.7909031363336664  0.9566201478171941  0.4000630423425551
  0.9161209071109564  0.0823523125194621  0.3999069235555659
  0.9158946227589011  0.2072575967632232  0.3998627518772894
  0.9160958681498624  0.3325760433787092  0.3994837515682035
  0.9167699650854253  0.4580283137993429  0.3987129367374261
  0.9176742065077972  0.5836175698875475  0.3981039063558937
  0.9181804806549878  0.7090460604555089  0.3984469670236336
  0.9180129720275494  0.8340530461683323  0.3991519570783845
  0.9170407703666261  0.9582148372667457  0.3996296142109946
  0.0845247408718270  0.0429663519928256  0.3998298845339212
  0.0834182487865050  0.1669943469550372  0.3999806090438136
  0.0820261238061683  0.2910914184343841  0.3995076876261107
  0.0821850679203185  0.4162174782779792  0.3991436077284808
  0.0828849470581482  0.5414856343170744  0.3991654804088187
  0.0837648862588766  0.6669944135537804  0.3993613342165617
  0.0843790791487960  0.7925394662471729  0.3996149522884224
  0.0845938305902163  0.9179001824329220  0.3997777338936904
  0.2096351488409540  0.0434083098476564  0.4000835822347591
  0.2097715823191756  0.1689723535917539  0.4004790512259178
  0.2078150735402151  0.2925700303640201  0.4003519969928909
  0.2062681222958794  0.4163311253317650  0.3990455531913435
  0.2068130388323671  0.5412979385673095  0.3984014382089350
  0.2080704238037629  0.6667535475988862  0.3991118413028152
  0.2088318151514076  0.7921844548948771  0.3996380308217677
  0.2093113732623115  0.9177917962370047  0.3998646001584704
  0.3341310709937693  0.0429854214275765  0.3996298512262929
  0.3347906475278576  0.1692326648289794  0.4008613068960024
  0.3360442961033727  0.2962571709486118  0.4044093440115260
  0.3328704875699267  0.5427286915665128  0.3985771438989287
  0.3322042246780519  0.6658528834675033  0.3991607260789625
  0.3332472487634930  0.7914069924112069  0.3996413107365459
  0.3337937211008860  0.9171122651471817  0.3996645058884820
  0.4585723266158960  0.0415693956777428  0.3992125749369000
  0.4589608631654482  0.1674740366253854  0.3986798923057417
  0.4600842373657286  0.2934864788931917  0.4014247460462059
  0.4673708564606940  0.4177988042083494  0.4171525077451236
  0.4539879808737807  0.6604474415273172  0.4018454679143230
  0.4576426877697893  0.7895235089335897  0.4003357684280061
  0.4581966492030922  0.9155895468261092  0.3998246340941183
  0.5830229386393394  0.0401686462815738  0.3995905265205833
  0.5834319758178667  0.1661192473357512  0.3984805679213785
  0.5840775931556267  0.2918454410289598  0.3974868565202758
  0.5856859665711208  0.4174173937093559  0.3980631745438990
  0.5889368235060269  0.5443092394519808  0.4040033691104307
  0.5849026478075632  0.6619485162356472  0.4037568429936979
  0.5813384248434786  0.7861156643821808  0.4016225895900026
  0.5825751767714442  0.9138598114015424  0.4004053963969842
  0.7076458030576932  0.0397215929208306  0.4001591083913409
  0.7079893469231013  0.1654586008150283  0.3993777248228399
  0.7084392647753543  0.2910399995085349  0.3977162582087185
  0.7094022022955656  0.4166504362185312  0.3959677140017570
  0.7108439374635612  0.5420896662686960  0.3964032282050844
  0.7109966477580938  0.6671723536178298  0.3990039413018943
  0.7087174307177870  0.7904322229582643  0.4002046453220933
  0.7072819914162245  0.9140725870759495  0.4004508296741037
  0.8326476412740318  0.0402114687657015  0.4000658334203938
  0.8326443868355420  0.1653493485610217  0.3999494066969513
  0.8329959515209792  0.2907943668866239  0.3992572611312607
  0.8336833215716009  0.4163023077432573  0.3979408410443085
  0.8346425451410572  0.5418488022153660  0.3968938558570370
  0.8351362818748437  0.6673388597108326  0.3976273274959131
  0.8347919359303529  0.7921978280408049  0.3989202382904347
  0.8335359859603890  0.9160265407366379  0.3997019320849693
  0.9584825996105394  0.0415351678223527  0.3997624749167497
  0.9576553265497745  0.1658006290976704  0.3998548476459955
  0.9574773411140707  0.2908089756958276  0.3996972771646189
  0.9579196786207057  0.4161496037914645  0.3992290321304750
  0.9588025634748600  0.5416903736541363  0.3987509820976983
  0.9594935994755002  0.6671974045572081  0.3986424687354262
  0.9597041729736636  0.7925282563401513  0.3991034705428512
  0.9594609717100827  0.9174215004558626  0.3995347471654737
  0.4111031325064181  0.5809213454628364  0.4014933416877605
  0.5496827469580290  0.5827851503392277  0.4071628168425749
  0.3283194772878053  0.4167846248259163  0.3992126569386181
  0.4297620638863294  0.5445536900190122  0.5080944299430756
 
  0.00000000E+00  0.00000000E+00  0.00000000E+00
  0.00000000E+00  0.00000000E+00  0.00000000E+00
  0.00000000E+00  0.00000000E+00  0.00000000E+00
  0.00000000E+00  0.00000000E+00  0.00000000E+00
  0.00000000E+00  0.00000000E+00  0.00000000E+00
  0.00000000E+00  0.00000000E+00  0.00000000E+00
  0.00000000E+00  0.00000000E+00  0.00000000E+00
  0.00000000E+00  0.00000000E+00  0.00000000E+00
  0.00000000E+00  0.00000000E+00  0.00000000E+00
  0.00000000E+00  0.00000000E+00  0.00000000E+00
  0.00000000E+00  0.00000000E+00  0.00000000E+00
  0.00000000E+00  0.00000000E+00  0.00000000E+00
  0.00000000E+00  0.00000000E+00  0.00000000E+00
  0.00000000E+00  0.00000000E+00  0.00000000E+00
  0.00000000E+00  0.00000000E+00  0.00000000E+00
  0.00000000E+00  0.00000000E+00  0.00000000E+00
  0.00000000E+00  0.00000000E+00  0.00000000E+00
  0.00000000E+00  0.00000000E+00  0.00000000E+00
  0.00000000E+00  0.00000000E+00  0.00000000E+00
  0.00000000E+00  0.00000000E+00  0.00000000E+00
  0.00000000E+00  0.00000000E+00  0.00000000E+00
  0.00000000E+00  0.00000000E+00  0.00000000E+00
  0.00000000E+00  0.00000000E+00  0.00000000E+00
  0.00000000E+00  0.00000000E+00  0.00000000E+00
  0.00000000E+00  0.00000000E+00  0.00000000E+00
  0.00000000E+00  0.00000000E+00  0.00000000E+00
  0.00000000E+00  0.00000000E+00  0.00000000E+00
  0.00000000E+00  0.00000000E+00  0.00000000E+00
  0.00000000E+00  0.00000000E+00  0.00000000E+00
  0.00000000E+00  0.00000000E+00  0.00000000E+00
  0.00000000E+00  0.00000000E+00  0.00000000E+00
  0.00000000E+00  0.00000000E+00  0.00000000E+00
  0.00000000E+00  0.00000000E+00  0.00000000E+00
  0.00000000E+00  0.00000000E+00  0.00000000E+00
  0.00000000E+00  0.00000000E+00  0.00000000E+00
  0.00000000E+00  0.00000000E+00  0.00000000E+00
  0.00000000E+00  0.00000000E+00  0.00000000E+00
  0.00000000E+00  0.00000000E+00  0.00000000E+00
  0.00000000E+00  0.00000000E+00  0.00000000E+00
  0.00000000E+00  0.00000000E+00  0.00000000E+00
  0.00000000E+00  0.00000000E+00  0.00000000E+00
  0.00000000E+00  0.00000000E+00  0.00000000E+00
  0.00000000E+00  0.00000000E+00  0.00000000E+00
  0.00000000E+00  0.00000000E+00  0.00000000E+00
  0.00000000E+00  0.00000000E+00  0.00000000E+00
  0.00000000E+00  0.00000000E+00  0.00000000E+00
  0.00000000E+00  0.00000000E+00  0.00000000E+00
  0.00000000E+00  0.00000000E+00  0.00000000E+00
  0.00000000E+00  0.00000000E+00  0.00000000E+00
  0.00000000E+00  0.00000000E+00  0.00000000E+00
  0.00000000E+00  0.00000000E+00  0.00000000E+00
  0.00000000E+00  0.00000000E+00  0.00000000E+00
  0.00000000E+00  0.00000000E+00  0.00000000E+00
  0.00000000E+00  0.00000000E+00  0.00000000E+00
  0.00000000E+00  0.00000000E+00  0.00000000E+00
  0.00000000E+00  0.00000000E+00  0.00000000E+00
  0.00000000E+00  0.00000000E+00  0.00000000E+00
  0.00000000E+00  0.00000000E+00  0.00000000E+00
  0.00000000E+00  0.00000000E+00  0.00000000E+00
  0.00000000E+00  0.00000000E+00  0.00000000E+00
  0.00000000E+00  0.00000000E+00  0.00000000E+00
  0.00000000E+00  0.00000000E+00  0.00000000E+00
  0.00000000E+00  0.00000000E+00  0.00000000E+00
  0.00000000E+00  0.00000000E+00  0.00000000E+00
  0.00000000E+00  0.00000000E+00  0.00000000E+00
  0.00000000E+00  0.00000000E+00  0.00000000E+00
  0.00000000E+00  0.00000000E+00  0.00000000E+00
  0.00000000E+00  0.00000000E+00  0.00000000E+00
  0.00000000E+00  0.00000000E+00  0.00000000E+00
  0.00000000E+00  0.00000000E+00  0.00000000E+00
  0.00000000E+00  0.00000000E+00  0.00000000E+00
  0.00000000E+00  0.00000000E+00  0.00000000E+00
  0.00000000E+00  0.00000000E+00  0.00000000E+00
  0.00000000E+00  0.00000000E+00  0.00000000E+00
  0.00000000E+00  0.00000000E+00  0.00000000E+00
  0.00000000E+00  0.00000000E+00  0.00000000E+00
  0.00000000E+00  0.00000000E+00  0.00000000E+00
  0.00000000E+00  0.00000000E+00  0.00000000E+00
  0.00000000E+00  0.00000000E+00  0.00000000E+00
  0.00000000E+00  0.00000000E+00  0.00000000E+00
  0.00000000E+00  0.00000000E+00  0.00000000E+00
  0.00000000E+00  0.00000000E+00  0.00000000E+00
  0.00000000E+00  0.00000000E+00  0.00000000E+00
  0.00000000E+00  0.00000000E+00  0.00000000E+00
  0.00000000E+00  0.00000000E+00  0.00000000E+00
  0.00000000E+00  0.00000000E+00  0.00000000E+00
  0.00000000E+00  0.00000000E+00  0.00000000E+00
  0.00000000E+00  0.00000000E+00  0.00000000E+00
  0.00000000E+00  0.00000000E+00  0.00000000E+00
  0.00000000E+00  0.00000000E+00  0.00000000E+00
  0.00000000E+00  0.00000000E+00  0.00000000E+00
  0.00000000E+00  0.00000000E+00  0.00000000E+00
  0.00000000E+00  0.00000000E+00  0.00000000E+00
  0.00000000E+00  0.00000000E+00  0.00000000E+00
  0.00000000E+00  0.00000000E+00  0.00000000E+00
  0.00000000E+00  0.00000000E+00  0.00000000E+00
  0.00000000E+00  0.00000000E+00  0.00000000E+00
  0.00000000E+00  0.00000000E+00  0.00000000E+00
  0.00000000E+00  0.00000000E+00  0.00000000E+00
  0.00000000E+00  0.00000000E+00  0.00000000E+00
  0.00000000E+00  0.00000000E+00  0.00000000E+00
  0.00000000E+00  0.00000000E+00  0.00000000E+00
  0.00000000E+00  0.00000000E+00  0.00000000E+00
  0.00000000E+00  0.00000000E+00  0.00000000E+00
  0.00000000E+00  0.00000000E+00  0.00000000E+00
  0.00000000E+00  0.00000000E+00  0.00000000E+00
  0.00000000E+00  0.00000000E+00  0.00000000E+00
  0.00000000E+00  0.00000000E+00  0.00000000E+00
  0.00000000E+00  0.00000000E+00  0.00000000E+00
  0.00000000E+00  0.00000000E+00  0.00000000E+00
  0.00000000E+00  0.00000000E+00  0.00000000E+00
  0.00000000E+00  0.00000000E+00  0.00000000E+00
  0.00000000E+00  0.00000000E+00  0.00000000E+00
  0.00000000E+00  0.00000000E+00  0.00000000E+00
  0.00000000E+00  0.00000000E+00  0.00000000E+00
  0.00000000E+00  0.00000000E+00  0.00000000E+00
  0.00000000E+00  0.00000000E+00  0.00000000E+00
  0.00000000E+00  0.00000000E+00  0.00000000E+00
  0.00000000E+00  0.00000000E+00  0.00000000E+00
  0.00000000E+00  0.00000000E+00  0.00000000E+00
  0.00000000E+00  0.00000000E+00  0.00000000E+00
  0.00000000E+00  0.00000000E+00  0.00000000E+00
  0.00000000E+00  0.00000000E+00  0.00000000E+00
  0.00000000E+00  0.00000000E+00  0.00000000E+00
  0.00000000E+00  0.00000000E+00  0.00000000E+00
  0.00000000E+00  0.00000000E+00  0.00000000E+00
  0.00000000E+00  0.00000000E+00  0.00000000E+00
  0.00000000E+00  0.00000000E+00  0.00000000E+00
  0.00000000E+00  0.00000000E+00  0.00000000E+00
