Ni1 H1 C126                             
   1.00000000000000     
    19.8391475134236082   -0.0000167698248398    0.0138927327139377
    -9.9195866682583951   17.0509126292294582   -0.0073378620731248
     0.0208457387700401   -0.0006842906942086   29.7462242872074647
   Ni   H    C 
     1     1   126
Direct
  0.4375771248322051  0.5000156587649349  0.4068464380796863
  0.4393216729105227  0.5004404652505484  0.4541457242639869
  0.0419189877616935  0.0840661970558288  0.3997841937747703
  0.0406194148848806  0.2079182967092301  0.4000098147369803
  0.0399351632209597  0.3325914973280404  0.3996303709585948
  0.0400474334489134  0.4581929939313653  0.3990312169231922
  0.0411905872505864  0.5838476215218428  0.3989900425928028
  0.0421623286517955  0.7093060931512608  0.3993310224286761
  0.0425649868980936  0.8347374368829489  0.3994738204687828
  0.0425744857790633  0.9597197552448017  0.3994699851741769
  0.1678431796706023  0.0857109187313964  0.4005567268964200
  0.1670522542597608  0.2100976547330859  0.4020555146079773
  0.1646189631047732  0.3331243397114769  0.4025226139388911
  0.1632478806846700  0.4582488474807104  0.4012147147718268
  0.1645885526540458  0.5836785263539130  0.3996649355938434
  0.1663599778226565  0.7092844370794809  0.3992377521226971
  0.1672023755964442  0.8347571961285163  0.3994690389552396
  0.1676595976050402  0.9602577866760156  0.3996976875766985
  0.2928852115192082  0.0857185652056835  0.4005508901921515
  0.2936520031180088  0.2123686085121534  0.4031984616386412
  0.2925118286839434  0.3378147237155102  0.4058493346444921
  0.2856104918912919  0.4578204083217564  0.4060928097403915
  0.2877896284621885  0.5838019877049229  0.4033074558669611
  0.2905434889117917  0.7089157472052172  0.4005254194367460
  0.2915171960275914  0.8341233287384507  0.3993952553129016
  0.2922039730314308  0.9597385907412278  0.3994617541229937
  0.4171799323810403  0.0840802912341154  0.3997868045081188
  0.4180135477731060  0.2101224526075292  0.4020828134471021
  0.4201788038448140  0.3378011955088439  0.4060734248404994
  0.4096278573138640  0.5791850672596611  0.4071690732024750
  0.4146664896606558  0.7063340390370031  0.4036692725811810
  0.4159474617354275  0.8325229402208377  0.4004941029265991
  0.4166350245382774  0.9583051891127730  0.3993764260351331
  0.5416227327904221  0.0824728847975632  0.3993389451329795
  0.5422905747061627  0.2079319583495077  0.4000137908062752
  0.5434432921848922  0.3331434598096859  0.4025466566922687
  0.5471114726739900  0.4578155282829412  0.4064536011297316
  0.5445602037432972  0.5792473326560141  0.4077490083208047
  0.5393993717938127  0.7039073462773763  0.4053268670099940
  0.5401999103146187  0.8306295327482320  0.4019838225050956
  0.5410080412854121  0.9567183593561401  0.3998475490386885
  0.6660255025123334  0.0817054167378449  0.3995602076416329
  0.6666383188413345  0.2072049144032486  0.3993482303037242
  0.6676230694602979  0.3325970154793267  0.3995953075265210
  0.6699301672634190  0.4582560299494425  0.4011346364900202
  0.6709055110857927  0.5837865120241718  0.4033096315028861
  0.6665725798696580  0.7063013938600289  0.4037588091482881
  0.6653815016438304  0.8306145518429747  0.4020068009362718
  0.6655862697576517  0.9561478448711289  0.4001967289138245
  0.7907101455786104  0.0816816122512399  0.3995518724520661
  0.7909914289505077  0.2069808811540283  0.3994760475528468
  0.7917457187468879  0.3325250870125659  0.3991711980712431
  0.7930863376251762  0.4581931890164557  0.3989770036871427
  0.7940064702203321  0.5836615073711762  0.3995920953418658
  0.7933034077971911  0.7088877736082688  0.4005203491464030
  0.7915362611717440  0.8324879888684480  0.4004964202467156
  0.7907089597131715  0.9566938745726283  0.3998350815326289
  0.9158809045619707  0.0824453545982806  0.3993275738134242
  0.9155536921831711  0.2071765099806880  0.3993396569147801
  0.9157716391148556  0.3325183242382397  0.3991826796335562
  0.9165297675467420  0.4580921842340897  0.3989503176858102
  0.9176085903222376  0.5838354083941369  0.3989693100363246
  0.9178958219591028  0.7092539793406756  0.3992283555514777
  0.9175883331108567  0.8340844523513073  0.3993996302479504
  0.9166946920970864  0.9582674856549178  0.3993754953687778
  0.0842870930001015  0.0432803760584207  0.3998453988686565
  0.0834260149979089  0.1674773813961124  0.4004929874779670
  0.0816311139334144  0.2910839268913695  0.4005278013497714
  0.0809107951277426  0.4163219218029239  0.3996664174135568
  0.0818538510576542  0.5418064301170822  0.3990313738958351
  0.0832499695714643  0.6674802051378552  0.3991825671071222
  0.0840087751270353  0.7930176335663962  0.3994774820681695
  0.0843174309742219  0.9182933946697348  0.3995606436749437
  0.2094366561688819  0.0438521429949342  0.4001965283515231
  0.2095708853328530  0.1693711559030018  0.4019781435484427
  0.2083349165869750  0.2936667965166135  0.4036660221680698
  0.2039890891238438  0.4161973578034157  0.4033117422587866
  0.2049996272510027  0.5417509717575151  0.4012119874405260
  0.2073429672124625  0.6674082757350911  0.3996271248109960
  0.2083762315279221  0.7928218423784716  0.3993396014821547
  0.2090274884756741  0.9183170759020076  0.3995538913786061
  0.3340161406594966  0.0433063589398825  0.3998380492231182
  0.3347691307939861  0.1693869496918713  0.4020017777671153
  0.3354930479311692  0.2960945777421101  0.4053152656877564
  0.3304536453822730  0.4208183108581618  0.4071626322470573
  0.3277863963313785  0.5421766021231296  0.4060932370207812
  0.3314957097071226  0.6668757799697039  0.4025210159210494
  0.3327022293644504  0.7920819904835843  0.4000090045227057
  0.3334382481889275  0.9175543364631480  0.3993304599401116
  0.4584294202841441  0.0417337184912208  0.3993790316396717
  0.4590517536942049  0.1675136580215306  0.4004978073306433
  0.4602732640776482  0.2936995917428813  0.4037556017504498
  0.4653057726563632  0.4207566792564884  0.4077399141524424
  0.4546985354453196  0.6621889932924694  0.4058591732116598
  0.4569539604800616  0.7899018666806088  0.4020595402219630
  0.4578532281930892  0.9159339271537887  0.3997867397306427
  0.5828547493402459  0.0402820104444583  0.3994726381811145
  0.5835050391569091  0.1659163441637405  0.3994016745742455
  0.5844160804687560  0.2911097999831091  0.4005226827938302
  0.5871187736951464  0.4162092845823838  0.4033148421107745
  0.5892959900276774  0.5421789973207976  0.4064529878923533
  0.5823792400791437  0.6622032743947448  0.4060871530476886
  0.5812825617936522  0.7876317059757302  0.4032073565524906
  0.5821314407116515  0.9142880320428446  0.4005589647098278
  0.7074009035707948  0.0397437658189802  0.3996966308479546
  0.7078274005290720  0.1652641217244791  0.3994719041815768
  0.7086408058149460  0.2907452024537743  0.3992272304230911
  0.7103443990660403  0.4163349808242778  0.3995938774077675
  0.7116758345427027  0.5417432350959647  0.4011321325095574
  0.7103006120283859  0.6668569070484830  0.4025444627166632
  0.7078896797712196  0.7898763658026413  0.4020850870377296
  0.7071667700078922  0.9142803714814962  0.4005518410877026
  0.8324679586765669  0.0402626510270234  0.3994586041719838
  0.8324468626577451  0.1652458137232599  0.3994681831234660
  0.8328564457549243  0.2906946273248302  0.3993289390569740
  0.8337733569207754  0.4161637609131150  0.3989665413755669
  0.8348934016176892  0.5418061341496392  0.3989772485640009
  0.8350279976639529  0.6674048295606722  0.3995949546663595
  0.8343572690272379  0.7920666205087261  0.4000117375530438
  0.8330995204197778  0.9159164198464195  0.3997835316051571
  0.9583312784732282  0.0416942011187892  0.3993742410046355
  0.9573958410177251  0.1658768398405541  0.3993943495283329
  0.9570772935951002  0.2907161886792798  0.3992394827148577
  0.9573425631409717  0.4161532369562671  0.3989904025143672
  0.9584375353053822  0.5419081019604397  0.3989512547277824
  0.9592199178766546  0.6674751013971407  0.3991742089141005
  0.9594314315369701  0.7927948793584252  0.3993485210068525
  0.9591490604963900  0.9175254129821362  0.3993357769922259
 
  0.00000000E+00  0.00000000E+00  0.00000000E+00
  0.00000000E+00  0.00000000E+00  0.00000000E+00
  0.00000000E+00  0.00000000E+00  0.00000000E+00
  0.00000000E+00  0.00000000E+00  0.00000000E+00
  0.00000000E+00  0.00000000E+00  0.00000000E+00
  0.00000000E+00  0.00000000E+00  0.00000000E+00
  0.00000000E+00  0.00000000E+00  0.00000000E+00
  0.00000000E+00  0.00000000E+00  0.00000000E+00
  0.00000000E+00  0.00000000E+00  0.00000000E+00
  0.00000000E+00  0.00000000E+00  0.00000000E+00
  0.00000000E+00  0.00000000E+00  0.00000000E+00
  0.00000000E+00  0.00000000E+00  0.00000000E+00
  0.00000000E+00  0.00000000E+00  0.00000000E+00
  0.00000000E+00  0.00000000E+00  0.00000000E+00
  0.00000000E+00  0.00000000E+00  0.00000000E+00
  0.00000000E+00  0.00000000E+00  0.00000000E+00
  0.00000000E+00  0.00000000E+00  0.00000000E+00
  0.00000000E+00  0.00000000E+00  0.00000000E+00
  0.00000000E+00  0.00000000E+00  0.00000000E+00
  0.00000000E+00  0.00000000E+00  0.00000000E+00
  0.00000000E+00  0.00000000E+00  0.00000000E+00
  0.00000000E+00  0.00000000E+00  0.00000000E+00
  0.00000000E+00  0.00000000E+00  0.00000000E+00
  0.00000000E+00  0.00000000E+00  0.00000000E+00
  0.00000000E+00  0.00000000E+00  0.00000000E+00
  0.00000000E+00  0.00000000E+00  0.00000000E+00
  0.00000000E+00  0.00000000E+00  0.00000000E+00
  0.00000000E+00  0.00000000E+00  0.00000000E+00
  0.00000000E+00  0.00000000E+00  0.00000000E+00
  0.00000000E+00  0.00000000E+00  0.00000000E+00
  0.00000000E+00  0.00000000E+00  0.00000000E+00
  0.00000000E+00  0.00000000E+00  0.00000000E+00
  0.00000000E+00  0.00000000E+00  0.00000000E+00
  0.00000000E+00  0.00000000E+00  0.00000000E+00
  0.00000000E+00  0.00000000E+00  0.00000000E+00
  0.00000000E+00  0.00000000E+00  0.00000000E+00
  0.00000000E+00  0.00000000E+00  0.00000000E+00
  0.00000000E+00  0.00000000E+00  0.00000000E+00
  0.00000000E+00  0.00000000E+00  0.00000000E+00
  0.00000000E+00  0.00000000E+00  0.00000000E+00
  0.00000000E+00  0.00000000E+00  0.00000000E+00
  0.00000000E+00  0.00000000E+00  0.00000000E+00
  0.00000000E+00  0.00000000E+00  0.00000000E+00
  0.00000000E+00  0.00000000E+00  0.00000000E+00
  0.00000000E+00  0.00000000E+00  0.00000000E+00
  0.00000000E+00  0.00000000E+00  0.00000000E+00
  0.00000000E+00  0.00000000E+00  0.00000000E+00
  0.00000000E+00  0.00000000E+00  0.00000000E+00
  0.00000000E+00  0.00000000E+00  0.00000000E+00
  0.00000000E+00  0.00000000E+00  0.00000000E+00
  0.00000000E+00  0.00000000E+00  0.00000000E+00
  0.00000000E+00  0.00000000E+00  0.00000000E+00
  0.00000000E+00  0.00000000E+00  0.00000000E+00
  0.00000000E+00  0.00000000E+00  0.00000000E+00
  0.00000000E+00  0.00000000E+00  0.00000000E+00
  0.00000000E+00  0.00000000E+00  0.00000000E+00
  0.00000000E+00  0.00000000E+00  0.00000000E+00
  0.00000000E+00  0.00000000E+00  0.00000000E+00
  0.00000000E+00  0.00000000E+00  0.00000000E+00
  0.00000000E+00  0.00000000E+00  0.00000000E+00
  0.00000000E+00  0.00000000E+00  0.00000000E+00
  0.00000000E+00  0.00000000E+00  0.00000000E+00
  0.00000000E+00  0.00000000E+00  0.00000000E+00
  0.00000000E+00  0.00000000E+00  0.00000000E+00
  0.00000000E+00  0.00000000E+00  0.00000000E+00
  0.00000000E+00  0.00000000E+00  0.00000000E+00
  0.00000000E+00  0.00000000E+00  0.00000000E+00
  0.00000000E+00  0.00000000E+00  0.00000000E+00
  0.00000000E+00  0.00000000E+00  0.00000000E+00
  0.00000000E+00  0.00000000E+00  0.00000000E+00
  0.00000000E+00  0.00000000E+00  0.00000000E+00
  0.00000000E+00  0.00000000E+00  0.00000000E+00
  0.00000000E+00  0.00000000E+00  0.00000000E+00
  0.00000000E+00  0.00000000E+00  0.00000000E+00
  0.00000000E+00  0.00000000E+00  0.00000000E+00
  0.00000000E+00  0.00000000E+00  0.00000000E+00
  0.00000000E+00  0.00000000E+00  0.00000000E+00
  0.00000000E+00  0.00000000E+00  0.00000000E+00
  0.00000000E+00  0.00000000E+00  0.00000000E+00
  0.00000000E+00  0.00000000E+00  0.00000000E+00
  0.00000000E+00  0.00000000E+00  0.00000000E+00
  0.00000000E+00  0.00000000E+00  0.00000000E+00
  0.00000000E+00  0.00000000E+00  0.00000000E+00
  0.00000000E+00  0.00000000E+00  0.00000000E+00
  0.00000000E+00  0.00000000E+00  0.00000000E+00
  0.00000000E+00  0.00000000E+00  0.00000000E+00
  0.00000000E+00  0.00000000E+00  0.00000000E+00
  0.00000000E+00  0.00000000E+00  0.00000000E+00
  0.00000000E+00  0.00000000E+00  0.00000000E+00
  0.00000000E+00  0.00000000E+00  0.00000000E+00
  0.00000000E+00  0.00000000E+00  0.00000000E+00
  0.00000000E+00  0.00000000E+00  0.00000000E+00
  0.00000000E+00  0.00000000E+00  0.00000000E+00
  0.00000000E+00  0.00000000E+00  0.00000000E+00
  0.00000000E+00  0.00000000E+00  0.00000000E+00
  0.00000000E+00  0.00000000E+00  0.00000000E+00
  0.00000000E+00  0.00000000E+00  0.00000000E+00
  0.00000000E+00  0.00000000E+00  0.00000000E+00
  0.00000000E+00  0.00000000E+00  0.00000000E+00
  0.00000000E+00  0.00000000E+00  0.00000000E+00
  0.00000000E+00  0.00000000E+00  0.00000000E+00
  0.00000000E+00  0.00000000E+00  0.00000000E+00
  0.00000000E+00  0.00000000E+00  0.00000000E+00
  0.00000000E+00  0.00000000E+00  0.00000000E+00
  0.00000000E+00  0.00000000E+00  0.00000000E+00
  0.00000000E+00  0.00000000E+00  0.00000000E+00
  0.00000000E+00  0.00000000E+00  0.00000000E+00
  0.00000000E+00  0.00000000E+00  0.00000000E+00
  0.00000000E+00  0.00000000E+00  0.00000000E+00
  0.00000000E+00  0.00000000E+00  0.00000000E+00
  0.00000000E+00  0.00000000E+00  0.00000000E+00
  0.00000000E+00  0.00000000E+00  0.00000000E+00
  0.00000000E+00  0.00000000E+00  0.00000000E+00
  0.00000000E+00  0.00000000E+00  0.00000000E+00
  0.00000000E+00  0.00000000E+00  0.00000000E+00
  0.00000000E+00  0.00000000E+00  0.00000000E+00
  0.00000000E+00  0.00000000E+00  0.00000000E+00
  0.00000000E+00  0.00000000E+00  0.00000000E+00
  0.00000000E+00  0.00000000E+00  0.00000000E+00
  0.00000000E+00  0.00000000E+00  0.00000000E+00
  0.00000000E+00  0.00000000E+00  0.00000000E+00
  0.00000000E+00  0.00000000E+00  0.00000000E+00
  0.00000000E+00  0.00000000E+00  0.00000000E+00
  0.00000000E+00  0.00000000E+00  0.00000000E+00
  0.00000000E+00  0.00000000E+00  0.00000000E+00
  0.00000000E+00  0.00000000E+00  0.00000000E+00
  0.00000000E+00  0.00000000E+00  0.00000000E+00
  0.00000000E+00  0.00000000E+00  0.00000000E+00
