Re1 H1 C122 N4 O1                       
   1.00000000000000     
    19.8170803550253041    0.0106108986166012    0.0420418572958463
    -9.8994203982072975   17.0052751857630362   -0.1210557531771087
     0.0634397572483660   -0.1754077482124606   29.8511005005357148
   Re   H    C    N    O 
     1     1   122     4     1
Direct
  0.4379901016812628  0.5017008018179391  0.4296200693452863
  0.4916364054413695  0.5359833814129850  0.5069134141465799
  0.0421670248666096  0.0844345294226639  0.3995865300868012
  0.0407236892783805  0.2081213272482187  0.3995522204058819
  0.0397123197397244  0.3327371401040228  0.3989044930568842
  0.0399458783118621  0.4580830802237567  0.3983371090557392
  0.0412849930052768  0.5837879503775808  0.3987315821982174
  0.0424553890240448  0.7094470872168314  0.3991275011931112
  0.0427668200091019  0.8347630576251828  0.3993664912303526
  0.0428297202530739  0.9599812877338316  0.3994681007319113
  0.1683992526356060  0.0863647688759674  0.4002692570552309
  0.1677310511283899  0.2109058771845929  0.4008291777647205
  0.1643206808399176  0.3335991252538330  0.4010571582933300
  0.1632122103752060  0.4582202153402176  0.3985834412012202
  0.1647387781326355  0.5835866300946184  0.3982722044579755
  0.1665231040294117  0.7090352205443226  0.3989669926883640
  0.1673936974722235  0.8346556309512638  0.3994030471477176
  0.1678604440569023  0.9604588702550573  0.3996963872825695
  0.2929207900991036  0.0864047851358457  0.4003198605990725
  0.2943492379224001  0.2141433812355159  0.4025813886246103
  0.2920187242236736  0.3391289242612500  0.4067208614011287
  0.2853951698882377  0.4582174885140915  0.4046427819610773
  0.2876759615705547  0.5825942737947657  0.3995390037420119
  0.2906999880813938  0.7080118697853407  0.3990528740991285
  0.2918581242640347  0.8338627640686159  0.3993737177486367
  0.2923540987042058  0.9599112632102800  0.3996347132291995
  0.4172129299279099  0.0846419853900711  0.3998083240298994
  0.4178558550974619  0.2113403851492693  0.4008374816963498
  0.4211152308643668  0.3398370985296102  0.4051801542298428
  0.4147778299706320  0.7047787475481418  0.4008031654889529
  0.4160977122444501  0.8317517791270356  0.3997632087991110
  0.4166918240983239  0.9581658036872640  0.3996369841357103
  0.5414189520990784  0.0825901466481186  0.3995898177769742
  0.5421062186060629  0.2085626325479230  0.3995975165045321
  0.5437743807324721  0.3343621855469004  0.4003231891177589
  0.5478108279355361  0.4596788262539377  0.4038028666418119
  0.5380893366075961  0.7008144403151776  0.4048431894887928
  0.5402175895212875  0.8294970531394850  0.4009279661975553
  0.5410058907387915  0.9563259881889371  0.3998661802699674
  0.6658045816423902  0.0816536813538297  0.3996255621811833
  0.6664500445319343  0.2074526794188528  0.3992860540719036
  0.6676261245031972  0.3331726211198808  0.3989134965709519
  0.6699846924738150  0.4588876495673685  0.3988090977273738
  0.6709678470934010  0.5836857373432850  0.4005453822166641
  0.6661578336286335  0.7055540061567152  0.4018210775105248
  0.6645412848493741  0.8296634602954556  0.4011243427040364
  0.6653590614375064  0.9558368252342059  0.4001359808973962
  0.7905114414690946  0.0816093233584871  0.3995500212659368
  0.7907745722821636  0.2070977229009169  0.3992749982592964
  0.7915557922912134  0.3326810011462265  0.3989345292585153
  0.7930285805715510  0.4583713717545014  0.3984468614205071
  0.7943333674888685  0.5840339687409314  0.3984221532414053
  0.7932939961659260  0.7086443835722277  0.3995274773018265
  0.7912166941939046  0.8321206846976242  0.3997900183391919
  0.7903171416228839  0.9563611127898587  0.3997853589833189
  0.9158387840776367  0.0824464550942968  0.3994011497655576
  0.9153571679023376  0.2072153428110530  0.3992104335234677
  0.9155806013511444  0.3325503820974250  0.3988424605182028
  0.9165073653951410  0.4582447641786144  0.3987259561959607
  0.9177635303292039  0.5839329752123176  0.3987283620705217
  0.9181467861851963  0.7093064477322040  0.3989656591644855
  0.9176197340424146  0.8341489537810398  0.3992931689130487
  0.9166606612250041  0.9582626561102144  0.3994486330962384
  0.0848058677716156  0.0438107106571070  0.3997041511867893
  0.0839172027511583  0.1680746108850980  0.3998275867511929
  0.0818372596947813  0.2915389257195245  0.3996843416067432
  0.0806883196224464  0.4160626691373203  0.3983571881983449
  0.0819484274217897  0.5417343901006666  0.3983680248359583
  0.0834532250839699  0.6674241175629329  0.3989544038868727
  0.0842616624485500  0.7930237254383081  0.3993252577107829
  0.0845973992535508  0.9185322515012103  0.3995119913559713
  0.2097051225360188  0.0443457005226957  0.4001202163549289
  0.2105744588042196  0.1706075843963273  0.4012580305945400
  0.2089950573725133  0.2947824467615462  0.4022639279183449
  0.2041537818599195  0.4166138725598950  0.4006957674615579
  0.2049431430925767  0.5412205369121275  0.3984253033020317
  0.2073568077779930  0.6669487473090524  0.3986904698110105
  0.2085870773884704  0.7926797438189580  0.3992552651739471
  0.2092763439484463  0.9184916660425820  0.3995875736623646
  0.3340552581522457  0.0438433812329782  0.3998699340796489
  0.3348287525559792  0.1707499998949510  0.4012340380346790
  0.3369097134768295  0.2996550450246324  0.4056166907756467
  0.3270384648738927  0.5405755515703246  0.4029561581271335
  0.3312012121180926  0.6657828629709273  0.3995913039167269
  0.3329564517495761  0.7915838347075099  0.3993746482829100
  0.3336414840843138  0.9175428463140077  0.3995467882859944
  0.4583865934456128  0.0419953397983836  0.3996623404331515
  0.4589517768842929  0.1684548752715516  0.3999850630949387
  0.4602440032450319  0.2955258587469333  0.4016372771037483
  0.4539298427710645  0.6605837142638082  0.4040213480359181
  0.4571702026477011  0.7888623245950308  0.4003958301431622
  0.4578493761059966  0.9155316724871720  0.3997508552642698
  0.5827291427090873  0.0402289766511815  0.3996725590216542
  0.5831925066911905  0.1662607846459323  0.3994390794989787
  0.5843085074116104  0.2920961656139767  0.3994374564272363
  0.5872350338766420  0.4174975192389224  0.4002989635318882
  0.5897306468437998  0.5422248412433194  0.4046557128055940
  0.5831841389401122  0.6614692286726734  0.4059747131328945
  0.5806938877664278  0.7861580412002852  0.4021806639191638
  0.5821448515309847  0.9137857676546435  0.4002517522995054
  0.7072262224145187  0.0396863755215552  0.3997393531548463
  0.7076785939163824  0.1654680834176080  0.3994036311271328
  0.7084843653170910  0.2910759382018701  0.3990231622491880
  0.7101976939359207  0.4165241377787821  0.3985109861286166
  0.7118029380768094  0.5418939494938575  0.3987190104485588
  0.7107665853687105  0.6666405920930631  0.4006969228213146
  0.7074246359630101  0.7893908115950609  0.4006523654316479
  0.7067086386118758  0.9138403770400211  0.4002941564924185
  0.8322927255516295  0.0401741769055383  0.3995341189417817
  0.8323113112111555  0.1653698804232134  0.3993515204348844
  0.8325931971482669  0.2906784463043191  0.3990481200211997
  0.8336843484411353  0.4163070982024406  0.3987117833054690
  0.8350362143464971  0.5419835612821964  0.3984243824447828
  0.8353136560187067  0.6673714032845495  0.3988752203595268
  0.8343887572309849  0.7920409777806390  0.3994896355285549
  0.8329706112644477  0.9157556177119358  0.3996391497858132
  0.9585063399765054  0.0419094522229765  0.3994460659448057
  0.9574801615290774  0.1659856982155932  0.3993026764954883
  0.9569201991007705  0.2908147759940370  0.3989309922869076
  0.9572356045668143  0.4161708768940668  0.3986513655733649
  0.9584798713307747  0.5418492741648456  0.3987684807876055
  0.9594537506993954  0.6675500429744183  0.3989359855826498
  0.9596976510157720  0.7928985728384041  0.3992225136484342
  0.9592986321315113  0.9177091768839629  0.3993668238834714
  0.4080689125170847  0.5780641605791111  0.4080788737172131
  0.5470561993228161  0.5800466792164178  0.4125847888667891
  0.3281048658003727  0.4208261688983197  0.4133431930018027
  0.4668872055483582  0.4226786011993628  0.4093222306731146
  0.4402041867025914  0.5127307515293792  0.4926851565148287
 
  0.00000000E+00  0.00000000E+00  0.00000000E+00
  0.00000000E+00  0.00000000E+00  0.00000000E+00
  0.00000000E+00  0.00000000E+00  0.00000000E+00
  0.00000000E+00  0.00000000E+00  0.00000000E+00
  0.00000000E+00  0.00000000E+00  0.00000000E+00
  0.00000000E+00  0.00000000E+00  0.00000000E+00
  0.00000000E+00  0.00000000E+00  0.00000000E+00
  0.00000000E+00  0.00000000E+00  0.00000000E+00
  0.00000000E+00  0.00000000E+00  0.00000000E+00
  0.00000000E+00  0.00000000E+00  0.00000000E+00
  0.00000000E+00  0.00000000E+00  0.00000000E+00
  0.00000000E+00  0.00000000E+00  0.00000000E+00
  0.00000000E+00  0.00000000E+00  0.00000000E+00
  0.00000000E+00  0.00000000E+00  0.00000000E+00
  0.00000000E+00  0.00000000E+00  0.00000000E+00
  0.00000000E+00  0.00000000E+00  0.00000000E+00
  0.00000000E+00  0.00000000E+00  0.00000000E+00
  0.00000000E+00  0.00000000E+00  0.00000000E+00
  0.00000000E+00  0.00000000E+00  0.00000000E+00
  0.00000000E+00  0.00000000E+00  0.00000000E+00
  0.00000000E+00  0.00000000E+00  0.00000000E+00
  0.00000000E+00  0.00000000E+00  0.00000000E+00
  0.00000000E+00  0.00000000E+00  0.00000000E+00
  0.00000000E+00  0.00000000E+00  0.00000000E+00
  0.00000000E+00  0.00000000E+00  0.00000000E+00
  0.00000000E+00  0.00000000E+00  0.00000000E+00
  0.00000000E+00  0.00000000E+00  0.00000000E+00
  0.00000000E+00  0.00000000E+00  0.00000000E+00
  0.00000000E+00  0.00000000E+00  0.00000000E+00
  0.00000000E+00  0.00000000E+00  0.00000000E+00
  0.00000000E+00  0.00000000E+00  0.00000000E+00
  0.00000000E+00  0.00000000E+00  0.00000000E+00
  0.00000000E+00  0.00000000E+00  0.00000000E+00
  0.00000000E+00  0.00000000E+00  0.00000000E+00
  0.00000000E+00  0.00000000E+00  0.00000000E+00
  0.00000000E+00  0.00000000E+00  0.00000000E+00
  0.00000000E+00  0.00000000E+00  0.00000000E+00
  0.00000000E+00  0.00000000E+00  0.00000000E+00
  0.00000000E+00  0.00000000E+00  0.00000000E+00
  0.00000000E+00  0.00000000E+00  0.00000000E+00
  0.00000000E+00  0.00000000E+00  0.00000000E+00
  0.00000000E+00  0.00000000E+00  0.00000000E+00
  0.00000000E+00  0.00000000E+00  0.00000000E+00
  0.00000000E+00  0.00000000E+00  0.00000000E+00
  0.00000000E+00  0.00000000E+00  0.00000000E+00
  0.00000000E+00  0.00000000E+00  0.00000000E+00
  0.00000000E+00  0.00000000E+00  0.00000000E+00
  0.00000000E+00  0.00000000E+00  0.00000000E+00
  0.00000000E+00  0.00000000E+00  0.00000000E+00
  0.00000000E+00  0.00000000E+00  0.00000000E+00
  0.00000000E+00  0.00000000E+00  0.00000000E+00
  0.00000000E+00  0.00000000E+00  0.00000000E+00
  0.00000000E+00  0.00000000E+00  0.00000000E+00
  0.00000000E+00  0.00000000E+00  0.00000000E+00
  0.00000000E+00  0.00000000E+00  0.00000000E+00
  0.00000000E+00  0.00000000E+00  0.00000000E+00
  0.00000000E+00  0.00000000E+00  0.00000000E+00
  0.00000000E+00  0.00000000E+00  0.00000000E+00
  0.00000000E+00  0.00000000E+00  0.00000000E+00
  0.00000000E+00  0.00000000E+00  0.00000000E+00
  0.00000000E+00  0.00000000E+00  0.00000000E+00
  0.00000000E+00  0.00000000E+00  0.00000000E+00
  0.00000000E+00  0.00000000E+00  0.00000000E+00
  0.00000000E+00  0.00000000E+00  0.00000000E+00
  0.00000000E+00  0.00000000E+00  0.00000000E+00
  0.00000000E+00  0.00000000E+00  0.00000000E+00
  0.00000000E+00  0.00000000E+00  0.00000000E+00
  0.00000000E+00  0.00000000E+00  0.00000000E+00
  0.00000000E+00  0.00000000E+00  0.00000000E+00
  0.00000000E+00  0.00000000E+00  0.00000000E+00
  0.00000000E+00  0.00000000E+00  0.00000000E+00
  0.00000000E+00  0.00000000E+00  0.00000000E+00
  0.00000000E+00  0.00000000E+00  0.00000000E+00
  0.00000000E+00  0.00000000E+00  0.00000000E+00
  0.00000000E+00  0.00000000E+00  0.00000000E+00
  0.00000000E+00  0.00000000E+00  0.00000000E+00
  0.00000000E+00  0.00000000E+00  0.00000000E+00
  0.00000000E+00  0.00000000E+00  0.00000000E+00
  0.00000000E+00  0.00000000E+00  0.00000000E+00
  0.00000000E+00  0.00000000E+00  0.00000000E+00
  0.00000000E+00  0.00000000E+00  0.00000000E+00
  0.00000000E+00  0.00000000E+00  0.00000000E+00
  0.00000000E+00  0.00000000E+00  0.00000000E+00
  0.00000000E+00  0.00000000E+00  0.00000000E+00
  0.00000000E+00  0.00000000E+00  0.00000000E+00
  0.00000000E+00  0.00000000E+00  0.00000000E+00
  0.00000000E+00  0.00000000E+00  0.00000000E+00
  0.00000000E+00  0.00000000E+00  0.00000000E+00
  0.00000000E+00  0.00000000E+00  0.00000000E+00
  0.00000000E+00  0.00000000E+00  0.00000000E+00
  0.00000000E+00  0.00000000E+00  0.00000000E+00
  0.00000000E+00  0.00000000E+00  0.00000000E+00
  0.00000000E+00  0.00000000E+00  0.00000000E+00
  0.00000000E+00  0.00000000E+00  0.00000000E+00
  0.00000000E+00  0.00000000E+00  0.00000000E+00
  0.00000000E+00  0.00000000E+00  0.00000000E+00
  0.00000000E+00  0.00000000E+00  0.00000000E+00
  0.00000000E+00  0.00000000E+00  0.00000000E+00
  0.00000000E+00  0.00000000E+00  0.00000000E+00
  0.00000000E+00  0.00000000E+00  0.00000000E+00
  0.00000000E+00  0.00000000E+00  0.00000000E+00
  0.00000000E+00  0.00000000E+00  0.00000000E+00
  0.00000000E+00  0.00000000E+00  0.00000000E+00
  0.00000000E+00  0.00000000E+00  0.00000000E+00
  0.00000000E+00  0.00000000E+00  0.00000000E+00
  0.00000000E+00  0.00000000E+00  0.00000000E+00
  0.00000000E+00  0.00000000E+00  0.00000000E+00
  0.00000000E+00  0.00000000E+00  0.00000000E+00
  0.00000000E+00  0.00000000E+00  0.00000000E+00
  0.00000000E+00  0.00000000E+00  0.00000000E+00
  0.00000000E+00  0.00000000E+00  0.00000000E+00
  0.00000000E+00  0.00000000E+00  0.00000000E+00
  0.00000000E+00  0.00000000E+00  0.00000000E+00
  0.00000000E+00  0.00000000E+00  0.00000000E+00
  0.00000000E+00  0.00000000E+00  0.00000000E+00
  0.00000000E+00  0.00000000E+00  0.00000000E+00
  0.00000000E+00  0.00000000E+00  0.00000000E+00
  0.00000000E+00  0.00000000E+00  0.00000000E+00
  0.00000000E+00  0.00000000E+00  0.00000000E+00
  0.00000000E+00  0.00000000E+00  0.00000000E+00
  0.00000000E+00  0.00000000E+00  0.00000000E+00
  0.00000000E+00  0.00000000E+00  0.00000000E+00
  0.00000000E+00  0.00000000E+00  0.00000000E+00
  0.00000000E+00  0.00000000E+00  0.00000000E+00
  0.00000000E+00  0.00000000E+00  0.00000000E+00
  0.00000000E+00  0.00000000E+00  0.00000000E+00
  0.00000000E+00  0.00000000E+00  0.00000000E+00
  0.00000000E+00  0.00000000E+00  0.00000000E+00
  0.00000000E+00  0.00000000E+00  0.00000000E+00
