Zn1 H1 C126 O1                          
   1.00000000000000     
    19.8308917658793042   -0.0003558676094969   -0.0616999541135902
    -9.9157009438462911   17.0619951971986197   -0.0011047242646942
    -0.0925148683877361   -0.0556845509859412   29.7399526360398028
   Zn   H    C    O 
     1     1   126     1
Direct
  0.4375720758767039  0.4999435759780526  0.4180647248407339
  0.4809708310863888  0.5431440628942819  0.4968485381115648
  0.0419053007043413  0.0838755716057966  0.4001883769485862
  0.0408163003893564  0.2079834331558043  0.4002923922529615
  0.0402631937613691  0.3327547435858141  0.3997081790652384
  0.0403788644286483  0.4582682033963595  0.3990492798207333
  0.0413148850255061  0.5837685956782189  0.3989297598937108
  0.0421269188314823  0.7091355360493345  0.3991512897441440
  0.0424461805461559  0.8344651681884899  0.3993038501780962
  0.0424704059203826  0.9594599309126847  0.3996117272374619
  0.1676383695331813  0.0851868430851566  0.4009828072639006
  0.1669336035789471  0.2095995007531506  0.4021786552446553
  0.1649738677460127  0.3331078702826499  0.4020489370708765
  0.1638498680925094  0.4582891575869476  0.4006998724396246
  0.1650032366437072  0.5837020188208477  0.3995826418732027
  0.1664377144933338  0.7091251453213110  0.3991617334683406
  0.1671456509888419  0.8344746514660697  0.3992042936832968
  0.1675056498704119  0.9598388010237715  0.3996844603596586
  0.2927209787333901  0.0851757247978457  0.4009770696439912
  0.2933475403223197  0.2114903389388622  0.4034072666799065
  0.2923300604401821  0.3367541535896971  0.4050490073093067
  0.2866888363269138  0.4580548476404069  0.4039234021343810
  0.2885273778347934  0.5839283931002387  0.4020423734960321
  0.2908136049803276  0.7089183815782649  0.4005027682837527
  0.2916050495865508  0.8340212922483260  0.3994859128623364
  0.2921552081359345  0.9594465222990932  0.3995624187511471
  0.4171453781239742  0.0838599400679955  0.4001607849458203
  0.4178287328763144  0.2095881018659213  0.4020239178969162
  0.4196324272674847  0.3367277158944880  0.4049903692125327
  0.4102730183560602  0.5813683325614857  0.4062343666093118
  0.4151226770342884  0.7070301776057538  0.4033176049755977
  0.4162026282678462  0.8328164988505217  0.4007673396075715
  0.4167477349205191  0.9583620480256120  0.3996567979018208
  0.5417305827341284  0.0826347349509264  0.3996100432694530
  0.5423051187799373  0.2079684328802369  0.4001959700423686
  0.5432520856024711  0.3330974730563387  0.4013404336987603
  0.5464854434105406  0.4580170093053318  0.4034079802239950
  0.5461293744611713  0.5811646298739240  0.4065804007221268
  0.5401329044037385  0.7051368273479341  0.4052629961694809
  0.5406579097495777  0.8313562666228704  0.4023636393444157
  0.5412495274275986  0.9571188456341232  0.4001461751303165
  0.6662645918711232  0.0821129824058664  0.3995569317576818
  0.6667263718803950  0.2074427254449030  0.3993911139302154
  0.6675870182242192  0.3327549147582654  0.3994646648041607
  0.6695197893824143  0.4582874266247058  0.3998604966747572
  0.6705102481084589  0.5839250734232659  0.4014631950936671
  0.6669746755361459  0.7069544244842026  0.4030000991518156
  0.6658411024863085  0.8313426486200485  0.4022470583508146
  0.6659489578565611  0.9567271537756514  0.4005067470464916
  0.7910135266222528  0.0821151774965521  0.3994632956595438
  0.7912278346923366  0.2073419389308173  0.3991577505846476
  0.7918324017570985  0.3327582069765616  0.3990874123428997
  0.7929453957191409  0.4582689368282428  0.3990258790723467
  0.7937613764348541  0.5836849246396922  0.3993626821168803
  0.7932197637623097  0.7089161672552841  0.4003322044463055
  0.7917309024858734  0.8328033660304174  0.4006522424126598
  0.7910362199742926  0.9571334098894795  0.4000933923311270
  0.9160921064246051  0.0826595546332908  0.3995230556892850
  0.9158361204660642  0.2074541519793316  0.3992441112185507
  0.9160371721785179  0.3327661698400855  0.3989727540631287
  0.9166429018142596  0.4582311827641017  0.3989079534478624
  0.9175098369236361  0.5837736354280857  0.3990478042397147
  0.9177800562419133  0.7091322723343634  0.3993186960948412
  0.9175550539256685  0.8340220839133574  0.3995521444492035
  0.9168026601883525  0.9583689225956066  0.3996575673602272
  0.0841511640861863  0.0429630894372577  0.4001884385007264
  0.0833970256887792  0.1672636311300980  0.4008533920700091
  0.0818828777504267  0.2911505448007791  0.4006164038389463
  0.0813217315853562  0.4163695411767462  0.3996476904802185
  0.0821606317599266  0.5418124451486246  0.3990316042582652
  0.0833152865017388  0.6673147586443192  0.3990383068673530
  0.0839366245694619  0.7927420869612284  0.3992067779421646
  0.0841760220637564  0.9179616116623295  0.3994702098346863
  0.2092632362299152  0.0433573839625250  0.4005428853183687
  0.2093345813154100  0.1687453547675337  0.4023261475975974
  0.2081356906660426  0.2930794117466601  0.4031130210971046
  0.2045597410345241  0.4161006834979634  0.4021445016751790
  0.2055990909387176  0.5417668101642527  0.4006028747551324
  0.2075525452170382  0.6673150603346177  0.3996076890116850
  0.2084409694309291  0.7926230108888952  0.3992302131495487
  0.2089569378410025  0.9179727504438205  0.3994178655855090
  0.3339685811492262  0.0429433363155025  0.4001717240692690
  0.3345874194495367  0.1687335567317544  0.4023025419234029
  0.3350870256725633  0.2949352409970705  0.4050213699457166
  0.3288735324925356  0.4187091476754217  0.4061737416405459
  0.3286031089022404  0.5419686732792619  0.4041316906363456
  0.3319287446149056  0.6669816025041881  0.4019978191767287
  0.3329194276704727  0.7921012769983969  0.4001979419905382
  0.3334896541540197  0.9174105956373992  0.3994842545871677
  0.4585105112543073  0.0417045864464520  0.3997070957037261
  0.4590122765771031  0.1672447609004638  0.4007363524219375
  0.4601000790026351  0.2930812004128104  0.4027908321510331
  0.4650299354057538  0.4187416975529701  0.4061972530921479
  0.4556597239708371  0.6634033607634394  0.4053810405456202
  0.4573963780419910  0.7904934859245767  0.4022442803774275
  0.4580903537101557  0.9162021742847515  0.4000936443406239
  0.5830654657612359  0.0406149950126344  0.3996562344627477
  0.5835952270892126  0.1660358291430068  0.3996455303983795
  0.5843793670307480  0.2911385921212940  0.4002265494842743
  0.5866135283242975  0.4160980101276829  0.4010931490827527
  0.5884536356687241  0.5419802056385352  0.4035070773024154
  0.5828359585193684  0.6632604841876594  0.4053261439227467
  0.5818914816367357  0.7886196663715217  0.4034983695950929
  0.5825214335532479  0.9149138907619597  0.4009432545027127
  0.7077081851191090  0.0402472307962350  0.3997368228764130
  0.7080367072570919  0.1656087012309005  0.3993275931809218
  0.7087000781889811  0.2909331810186685  0.3992495455640214
  0.7101135719061059  0.4163696497082130  0.3993037111844179
  0.7112548298063393  0.5417598793012322  0.4000016072673243
  0.7101289242560260  0.6669422774230365  0.4016393380141645
  0.7082081489319346  0.7904554285639208  0.4019991408186385
  0.7075606953730695  0.9148998566676334  0.4008831804472588
  0.8327431786062006  0.0406397937898311  0.3995667526994618
  0.8326983009213696  0.1656131451135162  0.3992048703694623
  0.8330373728095304  0.2909445075313634  0.3990525215040586
  0.8337903083873259  0.4163058312152141  0.3989963965152131
  0.8347094513715239  0.5418060582566669  0.3990499491441566
  0.8348403432797846  0.6673187456703137  0.3995613641920116
  0.8343140650639497  0.7920891549054967  0.4001407108132224
  0.8332778514710060  0.9162045908519162  0.4000566488015820
  0.9583955409758674  0.0417103892797157  0.3997021052350314
  0.9575918569863795  0.1660572230251777  0.3995523288578328
  0.9573477575962276  0.2909497618371029  0.3991833513958546
  0.9575916915251679  0.4163195921263937  0.3989012062680030
  0.9584699362430350  0.5418696667564312  0.3989366500283183
  0.9591161480481827  0.6673299116780975  0.3991740407066957
  0.9592962144211987  0.7926248722283679  0.3993755153577224
  0.9591049945401082  0.9174338696436751  0.3995337401436421
  0.4310156383332594  0.5025081872313673  0.4849721845317540
 
  0.00000000E+00  0.00000000E+00  0.00000000E+00
  0.00000000E+00  0.00000000E+00  0.00000000E+00
  0.00000000E+00  0.00000000E+00  0.00000000E+00
  0.00000000E+00  0.00000000E+00  0.00000000E+00
  0.00000000E+00  0.00000000E+00  0.00000000E+00
  0.00000000E+00  0.00000000E+00  0.00000000E+00
  0.00000000E+00  0.00000000E+00  0.00000000E+00
  0.00000000E+00  0.00000000E+00  0.00000000E+00
  0.00000000E+00  0.00000000E+00  0.00000000E+00
  0.00000000E+00  0.00000000E+00  0.00000000E+00
  0.00000000E+00  0.00000000E+00  0.00000000E+00
  0.00000000E+00  0.00000000E+00  0.00000000E+00
  0.00000000E+00  0.00000000E+00  0.00000000E+00
  0.00000000E+00  0.00000000E+00  0.00000000E+00
  0.00000000E+00  0.00000000E+00  0.00000000E+00
  0.00000000E+00  0.00000000E+00  0.00000000E+00
  0.00000000E+00  0.00000000E+00  0.00000000E+00
  0.00000000E+00  0.00000000E+00  0.00000000E+00
  0.00000000E+00  0.00000000E+00  0.00000000E+00
  0.00000000E+00  0.00000000E+00  0.00000000E+00
  0.00000000E+00  0.00000000E+00  0.00000000E+00
  0.00000000E+00  0.00000000E+00  0.00000000E+00
  0.00000000E+00  0.00000000E+00  0.00000000E+00
  0.00000000E+00  0.00000000E+00  0.00000000E+00
  0.00000000E+00  0.00000000E+00  0.00000000E+00
  0.00000000E+00  0.00000000E+00  0.00000000E+00
  0.00000000E+00  0.00000000E+00  0.00000000E+00
  0.00000000E+00  0.00000000E+00  0.00000000E+00
  0.00000000E+00  0.00000000E+00  0.00000000E+00
  0.00000000E+00  0.00000000E+00  0.00000000E+00
  0.00000000E+00  0.00000000E+00  0.00000000E+00
  0.00000000E+00  0.00000000E+00  0.00000000E+00
  0.00000000E+00  0.00000000E+00  0.00000000E+00
  0.00000000E+00  0.00000000E+00  0.00000000E+00
  0.00000000E+00  0.00000000E+00  0.00000000E+00
  0.00000000E+00  0.00000000E+00  0.00000000E+00
  0.00000000E+00  0.00000000E+00  0.00000000E+00
  0.00000000E+00  0.00000000E+00  0.00000000E+00
  0.00000000E+00  0.00000000E+00  0.00000000E+00
  0.00000000E+00  0.00000000E+00  0.00000000E+00
  0.00000000E+00  0.00000000E+00  0.00000000E+00
  0.00000000E+00  0.00000000E+00  0.00000000E+00
  0.00000000E+00  0.00000000E+00  0.00000000E+00
  0.00000000E+00  0.00000000E+00  0.00000000E+00
  0.00000000E+00  0.00000000E+00  0.00000000E+00
  0.00000000E+00  0.00000000E+00  0.00000000E+00
  0.00000000E+00  0.00000000E+00  0.00000000E+00
  0.00000000E+00  0.00000000E+00  0.00000000E+00
  0.00000000E+00  0.00000000E+00  0.00000000E+00
  0.00000000E+00  0.00000000E+00  0.00000000E+00
  0.00000000E+00  0.00000000E+00  0.00000000E+00
  0.00000000E+00  0.00000000E+00  0.00000000E+00
  0.00000000E+00  0.00000000E+00  0.00000000E+00
  0.00000000E+00  0.00000000E+00  0.00000000E+00
  0.00000000E+00  0.00000000E+00  0.00000000E+00
  0.00000000E+00  0.00000000E+00  0.00000000E+00
  0.00000000E+00  0.00000000E+00  0.00000000E+00
  0.00000000E+00  0.00000000E+00  0.00000000E+00
  0.00000000E+00  0.00000000E+00  0.00000000E+00
  0.00000000E+00  0.00000000E+00  0.00000000E+00
  0.00000000E+00  0.00000000E+00  0.00000000E+00
  0.00000000E+00  0.00000000E+00  0.00000000E+00
  0.00000000E+00  0.00000000E+00  0.00000000E+00
  0.00000000E+00  0.00000000E+00  0.00000000E+00
  0.00000000E+00  0.00000000E+00  0.00000000E+00
  0.00000000E+00  0.00000000E+00  0.00000000E+00
  0.00000000E+00  0.00000000E+00  0.00000000E+00
  0.00000000E+00  0.00000000E+00  0.00000000E+00
  0.00000000E+00  0.00000000E+00  0.00000000E+00
  0.00000000E+00  0.00000000E+00  0.00000000E+00
  0.00000000E+00  0.00000000E+00  0.00000000E+00
  0.00000000E+00  0.00000000E+00  0.00000000E+00
  0.00000000E+00  0.00000000E+00  0.00000000E+00
  0.00000000E+00  0.00000000E+00  0.00000000E+00
  0.00000000E+00  0.00000000E+00  0.00000000E+00
  0.00000000E+00  0.00000000E+00  0.00000000E+00
  0.00000000E+00  0.00000000E+00  0.00000000E+00
  0.00000000E+00  0.00000000E+00  0.00000000E+00
  0.00000000E+00  0.00000000E+00  0.00000000E+00
  0.00000000E+00  0.00000000E+00  0.00000000E+00
  0.00000000E+00  0.00000000E+00  0.00000000E+00
  0.00000000E+00  0.00000000E+00  0.00000000E+00
  0.00000000E+00  0.00000000E+00  0.00000000E+00
  0.00000000E+00  0.00000000E+00  0.00000000E+00
  0.00000000E+00  0.00000000E+00  0.00000000E+00
  0.00000000E+00  0.00000000E+00  0.00000000E+00
  0.00000000E+00  0.00000000E+00  0.00000000E+00
  0.00000000E+00  0.00000000E+00  0.00000000E+00
  0.00000000E+00  0.00000000E+00  0.00000000E+00
  0.00000000E+00  0.00000000E+00  0.00000000E+00
  0.00000000E+00  0.00000000E+00  0.00000000E+00
  0.00000000E+00  0.00000000E+00  0.00000000E+00
  0.00000000E+00  0.00000000E+00  0.00000000E+00
  0.00000000E+00  0.00000000E+00  0.00000000E+00
  0.00000000E+00  0.00000000E+00  0.00000000E+00
  0.00000000E+00  0.00000000E+00  0.00000000E+00
  0.00000000E+00  0.00000000E+00  0.00000000E+00
  0.00000000E+00  0.00000000E+00  0.00000000E+00
  0.00000000E+00  0.00000000E+00  0.00000000E+00
  0.00000000E+00  0.00000000E+00  0.00000000E+00
  0.00000000E+00  0.00000000E+00  0.00000000E+00
  0.00000000E+00  0.00000000E+00  0.00000000E+00
  0.00000000E+00  0.00000000E+00  0.00000000E+00
  0.00000000E+00  0.00000000E+00  0.00000000E+00
  0.00000000E+00  0.00000000E+00  0.00000000E+00
  0.00000000E+00  0.00000000E+00  0.00000000E+00
  0.00000000E+00  0.00000000E+00  0.00000000E+00
  0.00000000E+00  0.00000000E+00  0.00000000E+00
  0.00000000E+00  0.00000000E+00  0.00000000E+00
  0.00000000E+00  0.00000000E+00  0.00000000E+00
  0.00000000E+00  0.00000000E+00  0.00000000E+00
  0.00000000E+00  0.00000000E+00  0.00000000E+00
  0.00000000E+00  0.00000000E+00  0.00000000E+00
  0.00000000E+00  0.00000000E+00  0.00000000E+00
  0.00000000E+00  0.00000000E+00  0.00000000E+00
  0.00000000E+00  0.00000000E+00  0.00000000E+00
  0.00000000E+00  0.00000000E+00  0.00000000E+00
  0.00000000E+00  0.00000000E+00  0.00000000E+00
  0.00000000E+00  0.00000000E+00  0.00000000E+00
  0.00000000E+00  0.00000000E+00  0.00000000E+00
  0.00000000E+00  0.00000000E+00  0.00000000E+00
  0.00000000E+00  0.00000000E+00  0.00000000E+00
  0.00000000E+00  0.00000000E+00  0.00000000E+00
  0.00000000E+00  0.00000000E+00  0.00000000E+00
  0.00000000E+00  0.00000000E+00  0.00000000E+00
  0.00000000E+00  0.00000000E+00  0.00000000E+00
  0.00000000E+00  0.00000000E+00  0.00000000E+00
  0.00000000E+00  0.00000000E+00  0.00000000E+00
  0.00000000E+00  0.00000000E+00  0.00000000E+00
