Mo1 H1 C123 N3 O1                       
   1.00000000000000     
    19.7994162607206832    0.0045206557077061   -0.2220353362365542
    -9.8914173922356881   17.0158617654328843   -0.2703712928288452
    -0.3333592105684485   -0.6660897916375093   29.8819798990532313
   Mo   H    C    N    O 
     1     1   123     3     1
Direct
  0.4435542895812223  0.5042266459153252  0.4355518131724465
  0.4320644583994184  0.5007654074292980  0.5246261652561098
  0.0425338466279333  0.0848498546143317  0.4001177970875165
  0.0415967428857160  0.2088502594459938  0.4003965292678369
  0.0407810151300853  0.3334099012327851  0.3992236084838768
  0.0407892481782505  0.4584057980531922  0.3977748014844215
  0.0415524659571015  0.5838600251937276  0.3973336404116762
  0.0423518433753893  0.7093943275494397  0.3977582616122763
  0.0427189484581781  0.8347880302141625  0.3986753055921772
  0.0427409677987410  0.9600351861100324  0.3995130460310414
  0.1683337641448448  0.0861269829824533  0.4010377198032454
  0.1684143823550535  0.2113806313593772  0.4022295724334961
  0.1658016842806519  0.3343686934493500  0.4018312499920573
  0.1647769368996238  0.4587333151977540  0.3986538612293556
  0.1655259812223975  0.5837972974773159  0.3976365471652639
  0.1666718821563163  0.7090839897682802  0.3979425887101190
  0.1673457485568518  0.8346662961047271  0.3988106542746128
  0.1678395901435916  0.9604475144483997  0.3997976795503478
  0.2930312414102101  0.0863689018927928  0.4007016579648533
  0.2939240625743418  0.2135379368401385  0.4030949942747764
  0.2940863180519210  0.3401889092045078  0.4066739582795493
  0.2884797784086973  0.4590582866071256  0.4038474493814912
  0.2891359540614705  0.5831403006896663  0.3992319832671004
  0.2910949076263901  0.7084520739104903  0.3987199329343790
  0.2918843615407927  0.8340311573380919  0.3989039497983165
  0.2924296474439388  0.9599309254671569  0.3995963331591360
  0.4173344187123950  0.0847089663370682  0.3999061282331436
  0.4180465774192565  0.2112474445184974  0.4007482847385120
  0.4201026263978643  0.3396087995582155  0.4034426310266550
  0.4153038878170963  0.7055992472898182  0.4014186218687742
  0.4164307787416361  0.8322153531082270  0.3996243296503696
  0.4168967997721689  0.9584608310244754  0.3994697770849536
  0.5417393007712901  0.0830182151571307  0.3993276185201135
  0.5423076463933236  0.2089255751102689  0.3992283533564553
  0.5433265409705230  0.3347046095735947  0.3996823239934572
  0.5466827336553716  0.4601923881102141  0.4016820470437593
  0.5388403215441743  0.7020845390842574  0.4038396299589218
  0.5409156587935190  0.8305217874291817  0.4011135311085088
  0.5413710562534265  0.9569933613679704  0.3997145273534968
  0.6663252875715290  0.0823221531226280  0.3991407217840075
  0.6666939087998358  0.2078469955734190  0.3985392259320600
  0.6675107239223118  0.3333159865732834  0.3981730754121155
  0.6696650296338630  0.4590227212022368  0.3990276977872846
  0.6707077779375512  0.5845098781839220  0.4000722256385637
  0.6665244800295037  0.7065673978621495  0.4006176634662431
  0.6651216983683587  0.8307456337630299  0.4008789440659891
  0.6659152546626903  0.9567214234558420  0.4000000376291481
  0.7910683991002063  0.0824089085587538  0.3991079402779003
  0.7912551977799540  0.2076142584401848  0.3985276879262629
  0.7917587124957719  0.3329217463743509  0.3976475157826976
  0.7929454140392982  0.4584769171238049  0.3972641586849531
  0.7938828778337045  0.5841084738213742  0.3980536857513061
  0.7934232869651326  0.7092289570533830  0.3989897915960476
  0.7914568035121414  0.8328259513883849  0.3995691133006802
  0.7908459921928940  0.9571857686587583  0.3995495941022442
  0.9163390532191255  0.0831322955399514  0.3993074898351300
  0.9161561319731369  0.2079523899219479  0.3989490723789721
  0.9161580140618486  0.3329499427655901  0.3980069919192348
  0.9167548222586197  0.4583268101613336  0.3971695763495070
  0.9176518961596785  0.5839265141973310  0.3970557048275076
  0.9179233737307703  0.7093683519589908  0.3978097048922610
  0.9176290397723879  0.8343702332322119  0.3987397239872362
  0.9169289230140633  0.9587394802527175  0.3992873540742829
  0.0847415452857451  0.0437996571551082  0.4002193984327602
  0.0844997033339382  0.1686246071985312  0.4008651386202591
  0.0828550069367182  0.2922312729551200  0.4005070655162621
  0.0820025716473863  0.4166539892487288  0.3984520900429436
  0.0825745044040851  0.5419698885173836  0.3974933925592065
  0.0835408418394523  0.6674560755293446  0.3976095106994104
  0.0841132135718796  0.7929930069552296  0.3984365619416022
  0.0845309669014074  0.9185115226607747  0.3993960275286207
  0.2097044155285031  0.0442474480966214  0.4005808243279661
  0.2104016623710015  0.1702226567247263  0.4023160269315424
  0.2100246652260229  0.2954539493582815  0.4035432797344921
  0.2063663465740327  0.4174455845301486  0.4007828354419716
  0.2061942590188502  0.5416637813961648  0.3980919954762002
  0.2077470422597399  0.6671456356748759  0.3979147181749649
  0.2086569654836355  0.7926959637317139  0.3985372514708544
  0.2091800669847177  0.9183722681643514  0.3994082531542298
  0.3342035488988354  0.0438018180306580  0.4000598865141152
  0.3348139903737802  0.1704079840087333  0.4015134063339150
  0.3361030502577437  0.2983852455180916  0.4052410456887047
  0.3297802047309529  0.5418547461402721  0.4024751761338663
  0.3319848320169770  0.6663511902628572  0.3997116506212656
  0.3332629464102718  0.7918753639162973  0.3990407300100278
  0.3336562911013355  0.9175974689368662  0.3993165468095982
  0.4585587547650774  0.0421451182237938  0.3995888761743422
  0.4590780602075127  0.1684543756246838  0.3999347879193897
  0.4600629282353802  0.2951175585150650  0.4008058372208175
  0.4649320497378013  0.4227755948335312  0.4052937841265949
  0.4545502087682424  0.6607353351405808  0.4044404803022422
  0.4576417441189361  0.7894705157356715  0.4006517279793858
  0.4581691291459298  0.9160142606443130  0.3995541341633035
  0.5830264456467329  0.0407639006741848  0.3993556384519731
  0.5835332602560376  0.1666410871757515  0.3989964590104195
  0.5843076482239471  0.2922499014586740  0.3989078395415938
  0.5869194013865542  0.4179507174498781  0.3998734263748148
  0.5891397358893732  0.5437118085882794  0.4018837530891662
  0.5829248947645261  0.6620599242209951  0.4030850236516335
  0.5813397522271796  0.7872604582161900  0.4020139797125319
  0.5826917608655577  0.9146176080306206  0.4002475198860782
  0.7077321853903632  0.0404389836794451  0.3993610534759777
  0.7081003381859489  0.1659253176087500  0.3987149945330885
  0.7086196779325145  0.2913646136463824  0.3980105607010997
  0.7100938167391474  0.4167775157223856  0.3980302675207626
  0.7114343528081485  0.5421918077144523  0.3990604520059144
  0.7105973725726918  0.6673785033901821  0.3998271311289825
  0.7078052917094896  0.7903236912567679  0.4002980724892131
  0.7072135675439059  0.9147597547489564  0.4001320378418058
  0.8328173546236967  0.0409396959909379  0.3992217024524360
  0.8328966155677252  0.1660384217142939  0.3988108213292827
  0.8330348201146086  0.2910883720047147  0.3980085285895039
  0.8338026151876630  0.4164261071399689  0.3971676713405564
  0.8348384090420529  0.5420758534981501  0.3972465037251401
  0.8350524933802435  0.6675860760718384  0.3982271488253672
  0.8343821007633112  0.7924551133286296  0.3990757348633145
  0.8332590468329283  0.9164338309411255  0.3994183896979848
  0.9588273496966899  0.0423799307936319  0.3995013361814808
  0.9581133965850925  0.1666706456254995  0.3994898281109954
  0.9577708544641199  0.2914628441569282  0.3986979949027317
  0.9578554298215307  0.4164832905968297  0.3976275333501785
  0.9585755338116676  0.5418809011929122  0.3970825635199472
  0.9593012210366823  0.6675543218710269  0.3974033237170230
  0.9594716789319223  0.7929539820584577  0.3982974768713565
  0.9592906362421676  0.9179107562773191  0.3991089911568082
  0.4103417529758679  0.5793844428720254  0.4078016705000550
  0.5465064615006777  0.5813068494795322  0.4054844140231534
  0.3322575316108614  0.4227823799141540  0.4108074201763846
  0.4582421659869779  0.5028457521111881  0.4972086952440586
 
  0.00000000E+00  0.00000000E+00  0.00000000E+00
  0.00000000E+00  0.00000000E+00  0.00000000E+00
  0.00000000E+00  0.00000000E+00  0.00000000E+00
  0.00000000E+00  0.00000000E+00  0.00000000E+00
  0.00000000E+00  0.00000000E+00  0.00000000E+00
  0.00000000E+00  0.00000000E+00  0.00000000E+00
  0.00000000E+00  0.00000000E+00  0.00000000E+00
  0.00000000E+00  0.00000000E+00  0.00000000E+00
  0.00000000E+00  0.00000000E+00  0.00000000E+00
  0.00000000E+00  0.00000000E+00  0.00000000E+00
  0.00000000E+00  0.00000000E+00  0.00000000E+00
  0.00000000E+00  0.00000000E+00  0.00000000E+00
  0.00000000E+00  0.00000000E+00  0.00000000E+00
  0.00000000E+00  0.00000000E+00  0.00000000E+00
  0.00000000E+00  0.00000000E+00  0.00000000E+00
  0.00000000E+00  0.00000000E+00  0.00000000E+00
  0.00000000E+00  0.00000000E+00  0.00000000E+00
  0.00000000E+00  0.00000000E+00  0.00000000E+00
  0.00000000E+00  0.00000000E+00  0.00000000E+00
  0.00000000E+00  0.00000000E+00  0.00000000E+00
  0.00000000E+00  0.00000000E+00  0.00000000E+00
  0.00000000E+00  0.00000000E+00  0.00000000E+00
  0.00000000E+00  0.00000000E+00  0.00000000E+00
  0.00000000E+00  0.00000000E+00  0.00000000E+00
  0.00000000E+00  0.00000000E+00  0.00000000E+00
  0.00000000E+00  0.00000000E+00  0.00000000E+00
  0.00000000E+00  0.00000000E+00  0.00000000E+00
  0.00000000E+00  0.00000000E+00  0.00000000E+00
  0.00000000E+00  0.00000000E+00  0.00000000E+00
  0.00000000E+00  0.00000000E+00  0.00000000E+00
  0.00000000E+00  0.00000000E+00  0.00000000E+00
  0.00000000E+00  0.00000000E+00  0.00000000E+00
  0.00000000E+00  0.00000000E+00  0.00000000E+00
  0.00000000E+00  0.00000000E+00  0.00000000E+00
  0.00000000E+00  0.00000000E+00  0.00000000E+00
  0.00000000E+00  0.00000000E+00  0.00000000E+00
  0.00000000E+00  0.00000000E+00  0.00000000E+00
  0.00000000E+00  0.00000000E+00  0.00000000E+00
  0.00000000E+00  0.00000000E+00  0.00000000E+00
  0.00000000E+00  0.00000000E+00  0.00000000E+00
  0.00000000E+00  0.00000000E+00  0.00000000E+00
  0.00000000E+00  0.00000000E+00  0.00000000E+00
  0.00000000E+00  0.00000000E+00  0.00000000E+00
  0.00000000E+00  0.00000000E+00  0.00000000E+00
  0.00000000E+00  0.00000000E+00  0.00000000E+00
  0.00000000E+00  0.00000000E+00  0.00000000E+00
  0.00000000E+00  0.00000000E+00  0.00000000E+00
  0.00000000E+00  0.00000000E+00  0.00000000E+00
  0.00000000E+00  0.00000000E+00  0.00000000E+00
  0.00000000E+00  0.00000000E+00  0.00000000E+00
  0.00000000E+00  0.00000000E+00  0.00000000E+00
  0.00000000E+00  0.00000000E+00  0.00000000E+00
  0.00000000E+00  0.00000000E+00  0.00000000E+00
  0.00000000E+00  0.00000000E+00  0.00000000E+00
  0.00000000E+00  0.00000000E+00  0.00000000E+00
  0.00000000E+00  0.00000000E+00  0.00000000E+00
  0.00000000E+00  0.00000000E+00  0.00000000E+00
  0.00000000E+00  0.00000000E+00  0.00000000E+00
  0.00000000E+00  0.00000000E+00  0.00000000E+00
  0.00000000E+00  0.00000000E+00  0.00000000E+00
  0.00000000E+00  0.00000000E+00  0.00000000E+00
  0.00000000E+00  0.00000000E+00  0.00000000E+00
  0.00000000E+00  0.00000000E+00  0.00000000E+00
  0.00000000E+00  0.00000000E+00  0.00000000E+00
  0.00000000E+00  0.00000000E+00  0.00000000E+00
  0.00000000E+00  0.00000000E+00  0.00000000E+00
  0.00000000E+00  0.00000000E+00  0.00000000E+00
  0.00000000E+00  0.00000000E+00  0.00000000E+00
  0.00000000E+00  0.00000000E+00  0.00000000E+00
  0.00000000E+00  0.00000000E+00  0.00000000E+00
  0.00000000E+00  0.00000000E+00  0.00000000E+00
  0.00000000E+00  0.00000000E+00  0.00000000E+00
  0.00000000E+00  0.00000000E+00  0.00000000E+00
  0.00000000E+00  0.00000000E+00  0.00000000E+00
  0.00000000E+00  0.00000000E+00  0.00000000E+00
  0.00000000E+00  0.00000000E+00  0.00000000E+00
  0.00000000E+00  0.00000000E+00  0.00000000E+00
  0.00000000E+00  0.00000000E+00  0.00000000E+00
  0.00000000E+00  0.00000000E+00  0.00000000E+00
  0.00000000E+00  0.00000000E+00  0.00000000E+00
  0.00000000E+00  0.00000000E+00  0.00000000E+00
  0.00000000E+00  0.00000000E+00  0.00000000E+00
  0.00000000E+00  0.00000000E+00  0.00000000E+00
  0.00000000E+00  0.00000000E+00  0.00000000E+00
  0.00000000E+00  0.00000000E+00  0.00000000E+00
  0.00000000E+00  0.00000000E+00  0.00000000E+00
  0.00000000E+00  0.00000000E+00  0.00000000E+00
  0.00000000E+00  0.00000000E+00  0.00000000E+00
  0.00000000E+00  0.00000000E+00  0.00000000E+00
  0.00000000E+00  0.00000000E+00  0.00000000E+00
  0.00000000E+00  0.00000000E+00  0.00000000E+00
  0.00000000E+00  0.00000000E+00  0.00000000E+00
  0.00000000E+00  0.00000000E+00  0.00000000E+00
  0.00000000E+00  0.00000000E+00  0.00000000E+00
  0.00000000E+00  0.00000000E+00  0.00000000E+00
  0.00000000E+00  0.00000000E+00  0.00000000E+00
  0.00000000E+00  0.00000000E+00  0.00000000E+00
  0.00000000E+00  0.00000000E+00  0.00000000E+00
  0.00000000E+00  0.00000000E+00  0.00000000E+00
  0.00000000E+00  0.00000000E+00  0.00000000E+00
  0.00000000E+00  0.00000000E+00  0.00000000E+00
  0.00000000E+00  0.00000000E+00  0.00000000E+00
  0.00000000E+00  0.00000000E+00  0.00000000E+00
  0.00000000E+00  0.00000000E+00  0.00000000E+00
  0.00000000E+00  0.00000000E+00  0.00000000E+00
  0.00000000E+00  0.00000000E+00  0.00000000E+00
  0.00000000E+00  0.00000000E+00  0.00000000E+00
  0.00000000E+00  0.00000000E+00  0.00000000E+00
  0.00000000E+00  0.00000000E+00  0.00000000E+00
  0.00000000E+00  0.00000000E+00  0.00000000E+00
  0.00000000E+00  0.00000000E+00  0.00000000E+00
  0.00000000E+00  0.00000000E+00  0.00000000E+00
  0.00000000E+00  0.00000000E+00  0.00000000E+00
  0.00000000E+00  0.00000000E+00  0.00000000E+00
  0.00000000E+00  0.00000000E+00  0.00000000E+00
  0.00000000E+00  0.00000000E+00  0.00000000E+00
  0.00000000E+00  0.00000000E+00  0.00000000E+00
  0.00000000E+00  0.00000000E+00  0.00000000E+00
  0.00000000E+00  0.00000000E+00  0.00000000E+00
  0.00000000E+00  0.00000000E+00  0.00000000E+00
  0.00000000E+00  0.00000000E+00  0.00000000E+00
  0.00000000E+00  0.00000000E+00  0.00000000E+00
  0.00000000E+00  0.00000000E+00  0.00000000E+00
  0.00000000E+00  0.00000000E+00  0.00000000E+00
  0.00000000E+00  0.00000000E+00  0.00000000E+00
  0.00000000E+00  0.00000000E+00  0.00000000E+00
  0.00000000E+00  0.00000000E+00  0.00000000E+00
  0.00000000E+00  0.00000000E+00  0.00000000E+00
  0.00000000E+00  0.00000000E+00  0.00000000E+00
