Fe1 H1 C125 N1 O2                       
   1.00000000000000     
    19.7904540360305035   -0.0214835672635373    0.0928647530686947
    -9.9136703362134693   17.0570977049884789   -0.0521294270344989
     0.1405753459394839   -0.0092436809059270   29.8280546088759628
   Fe   H    C    N    O 
     1     1   125     1     2
Direct
  0.4393086788820895  0.5004325394639267  0.4236644743679333
  0.5278420135658509  0.5446991341114554  0.5241527334358768
  0.0421085465304800  0.0841445588603103  0.3997237797256489
  0.0417613902340748  0.2086379311857580  0.3995677018308154
  0.0413827294896837  0.3331952686192627  0.3992937966615048
  0.0411181399039632  0.4583097836395112  0.3990974673548054
  0.0413179742727251  0.5835642593293542  0.3993127295489682
  0.0416402055835217  0.7087755237176735  0.3995335246007750
  0.0418696346205793  0.8340570022223605  0.3996144303437592
  0.0420112229261022  0.9591518859154026  0.3996483750255563
  0.1674932048467974  0.0850592118847348  0.4002465814604897
  0.1680055614658438  0.2104805435025211  0.4007537051150872
  0.1670173344999916  0.3344827323957593  0.4003855676971413
  0.1654889700813850  0.4586945293722448  0.3999320467414922
  0.1655076860168958  0.5836245758084329  0.3992451496728011
  0.1661857476078943  0.7088784677362305  0.3994913958306483
  0.1667393984144700  0.8342005843567564  0.3997402859751549
  0.1671045160762153  0.9595520322253677  0.3998920640866052
  0.2924098183013057  0.0849387177290375  0.4004099449021077
  0.2932684964319335  0.2113016648023900  0.4017153121547597
  0.2947669909619463  0.3383706604666352  0.4015685938494361
  0.2908143705471863  0.4599844571011794  0.4010302253617259
  0.2893793473522583  0.5844408759649120  0.4005038330198002
  0.2905761949257298  0.7090606555318854  0.3998152232444072
  0.2914521392706692  0.8340032436700674  0.3996801712631456
  0.2918497827676019  0.9592442728141514  0.3998014257906468
  0.4169434792695145  0.0838541592604136  0.3998464478820940
  0.4174820772921252  0.2095856915296903  0.4008065675021020
  0.4188854077120986  0.3364652413284463  0.4044158236629523
  0.4146093941368902  0.7069521077360794  0.4013055350276161
  0.4160110945529761  0.8328358948829635  0.3999734618169252
  0.4165645555441020  0.9583420904939477  0.3996919710461258
  0.5415794010378893  0.0827118116869145  0.3996916428871310
  0.5419962122716199  0.2079509931074557  0.3999115991204819
  0.5426642328048379  0.3329610429192989  0.4011112581360273
  0.5441793368972834  0.4570822586630631  0.4036878938477141
  0.5422446994540912  0.5784075755512375  0.4034069203884096
  0.5378774801419716  0.7034236512230809  0.4028626469128602
  0.5401984245189687  0.8310589258365765  0.4010294346635675
  0.5411748419498242  0.9571971711783412  0.4000112056280531
  0.6662796297458524  0.0822302425854463  0.3998803280869339
  0.6666836727155370  0.2075630742362968  0.3997307352087602
  0.6671731294098326  0.3326969276907084  0.3998458373908444
  0.6682809608999448  0.4579010951209454  0.4001539144465244
  0.6687531696503725  0.5830052638870421  0.4004542137264068
  0.6646725168929961  0.7054763476851802  0.4006867774855295
  0.6645072904731757  0.8304526031866393  0.4009167873801788
  0.6656704459328486  0.9566008385986788  0.4003842448926132
  0.7911095816483175  0.0822323166150339  0.3998980198404357
  0.7914293645301742  0.2074914646187702  0.3997052737519514
  0.7918323713541083  0.3328227991352140  0.3995963808666704
  0.7923831400320921  0.4581285048079397  0.3995795734448856
  0.7926361043625756  0.5832321459073786  0.3996263393922285
  0.7918363139796482  0.7081761282559302  0.3996516947376668
  0.7905265674877430  0.8320465882322389  0.3999882816584673
  0.7905542628083730  0.9568776914970212  0.4000467905442587
  0.9162982570098521  0.0828410413559371  0.3995745693008531
  0.9163941334586541  0.2078098721728245  0.3994178466566132
  0.9164642389314661  0.3329194666658797  0.3993120236113380
  0.9166828171026009  0.4581352949948291  0.3993849035853359
  0.9170076139260661  0.5834728995517950  0.3994776434452365
  0.9169300780519367  0.7086801777777050  0.3994428386100630
  0.9166891856048648  0.8335380738523714  0.3994944369364047
  0.9163488263412384  0.9581061298423859  0.3995999734934861
  0.0839448904558565  0.0427757100381771  0.3998175800541563
  0.0841505154409577  0.1678305595455185  0.4000060775158860
  0.0833474098733915  0.2920474359317015  0.3996687723629876
  0.0826285008527641  0.4167583571321768  0.3993229007240054
  0.0825164100521283  0.5417787344020693  0.3991233488852215
  0.0830111643577427  0.6670733454438328  0.3994667324302113
  0.0834406841922766  0.7924230790321228  0.3996603441586158
  0.0836625326031863  0.9176141452056231  0.3997348730542575
  0.2089660924702417  0.0431376588427682  0.4001780959250603
  0.2094871432274995  0.1688399041534467  0.4009152954201789
  0.2102057773655499  0.2945392597478710  0.4009179898862388
  0.2075299396314720  0.4177547898115758  0.4005792671741290
  0.2065489024343203  0.5420284959826267  0.3996926933301298
  0.2074830357452226  0.6672120501146408  0.3994325582555979
  0.2081841531555071  0.7923956837619217  0.3996693273645259
  0.2085961617471079  0.9177243520227502  0.3998328276520129
  0.3336650781750283  0.0427443514166873  0.3999857733026219
  0.3343081259387722  0.1685708114524017  0.4010997519045129
  0.3352721777257095  0.2948406461249949  0.4029307879034545
  0.3348698294760464  0.4220164206321922  0.4013078334594837
  0.3313638609135028  0.5443783310000532  0.4021682485994688
  0.3317021723790049  0.6673110185430244  0.4005566810313748
  0.3328093000750841  0.7922161770035042  0.3997834625840118
  0.3333286041394058  0.9173465145572315  0.3997003901414000
  0.4583639234727199  0.0417640202586007  0.3996933482387906
  0.4587114863719460  0.1672421147624790  0.4000339578640628
  0.4595213403903918  0.2931276937112371  0.4018652481019292
  0.4623151911630777  0.4192287976670333  0.4080780453166743
  0.4536156073550596  0.6623273516853402  0.4033872935243490
  0.4571499401456369  0.7904691352497553  0.4006436857246434
  0.4579144755909645  0.9162261269979811  0.3998499133559082
  0.5830244838499643  0.0407461807044954  0.3998189560283852
  0.5834147383088820  0.1661049528307662  0.3997334848745925
  0.5839600908591492  0.2911747759161607  0.4001252735554987
  0.5852892000676275  0.4159089707951975  0.4014119168986967
  0.5862663643661085  0.5409519316941978  0.4021093015536805
  0.5798158799432899  0.6613186639022597  0.4019343733145058
  0.5803810887435537  0.7875651459548861  0.4016938706350495
  0.5822992651715505  0.9148380360259974  0.4004756735706944
  0.7076662548154766  0.0402721031312096  0.4000557477137079
  0.7081463723788252  0.1657923582720298  0.3997684814148593
  0.7085603107160244  0.2910388472874823  0.3997166640744766
  0.7093434353344418  0.4163135372024106  0.3997458654176748
  0.7099655831481048  0.5413368951752109  0.4000324617688142
  0.7084153015624864  0.6660120757911971  0.4000919354882451
  0.7065355298892035  0.7893311526765633  0.4005722115681544
  0.7068150315254506  0.9144046466846739  0.4004515313877297
  0.8326577531411682  0.0406156862699997  0.3998380580672956
  0.8329660675387626  0.1658325976304565  0.3996932234622821
  0.8332469252875657  0.2911383276648579  0.3995457206039110
  0.8336428642589693  0.4163633943915190  0.3995452336751433
  0.8339880549703217  0.5416132274201598  0.3995453385190891
  0.8337250932545069  0.6668531880253484  0.3995261641967548
  0.8331647982307275  0.7914450602173975  0.3996574657815545
  0.8325432409733632  0.9156844050158685  0.3998652693175523
  0.9583491741629390  0.0417573150526405  0.3995544939487080
  0.9582002303424940  0.1664298666204829  0.3994120277852515
  0.9580897201079758  0.2913330915835453  0.3992304433028714
  0.9580202453000122  0.4164429472666543  0.3992087726983872
  0.9583319735167188  0.5417896707341094  0.3993996905173051
  0.9584972678842908  0.6670294435462358  0.3994717736772670
  0.9585254645462820  0.7921804870898381  0.3994730239449759
  0.9584362921152673  0.9170312683429588  0.3995445002182328
  0.4101390060559872  0.5819936762769389  0.4054360438786879
  0.4931729169726851  0.4945721701499541  0.5093384499349196
  0.4478661482305936  0.5181641143259187  0.4818950758822608
 
  0.00000000E+00  0.00000000E+00  0.00000000E+00
  0.00000000E+00  0.00000000E+00  0.00000000E+00
  0.00000000E+00  0.00000000E+00  0.00000000E+00
  0.00000000E+00  0.00000000E+00  0.00000000E+00
  0.00000000E+00  0.00000000E+00  0.00000000E+00
  0.00000000E+00  0.00000000E+00  0.00000000E+00
  0.00000000E+00  0.00000000E+00  0.00000000E+00
  0.00000000E+00  0.00000000E+00  0.00000000E+00
  0.00000000E+00  0.00000000E+00  0.00000000E+00
  0.00000000E+00  0.00000000E+00  0.00000000E+00
  0.00000000E+00  0.00000000E+00  0.00000000E+00
  0.00000000E+00  0.00000000E+00  0.00000000E+00
  0.00000000E+00  0.00000000E+00  0.00000000E+00
  0.00000000E+00  0.00000000E+00  0.00000000E+00
  0.00000000E+00  0.00000000E+00  0.00000000E+00
  0.00000000E+00  0.00000000E+00  0.00000000E+00
  0.00000000E+00  0.00000000E+00  0.00000000E+00
  0.00000000E+00  0.00000000E+00  0.00000000E+00
  0.00000000E+00  0.00000000E+00  0.00000000E+00
  0.00000000E+00  0.00000000E+00  0.00000000E+00
  0.00000000E+00  0.00000000E+00  0.00000000E+00
  0.00000000E+00  0.00000000E+00  0.00000000E+00
  0.00000000E+00  0.00000000E+00  0.00000000E+00
  0.00000000E+00  0.00000000E+00  0.00000000E+00
  0.00000000E+00  0.00000000E+00  0.00000000E+00
  0.00000000E+00  0.00000000E+00  0.00000000E+00
  0.00000000E+00  0.00000000E+00  0.00000000E+00
  0.00000000E+00  0.00000000E+00  0.00000000E+00
  0.00000000E+00  0.00000000E+00  0.00000000E+00
  0.00000000E+00  0.00000000E+00  0.00000000E+00
  0.00000000E+00  0.00000000E+00  0.00000000E+00
  0.00000000E+00  0.00000000E+00  0.00000000E+00
  0.00000000E+00  0.00000000E+00  0.00000000E+00
  0.00000000E+00  0.00000000E+00  0.00000000E+00
  0.00000000E+00  0.00000000E+00  0.00000000E+00
  0.00000000E+00  0.00000000E+00  0.00000000E+00
  0.00000000E+00  0.00000000E+00  0.00000000E+00
  0.00000000E+00  0.00000000E+00  0.00000000E+00
  0.00000000E+00  0.00000000E+00  0.00000000E+00
  0.00000000E+00  0.00000000E+00  0.00000000E+00
  0.00000000E+00  0.00000000E+00  0.00000000E+00
  0.00000000E+00  0.00000000E+00  0.00000000E+00
  0.00000000E+00  0.00000000E+00  0.00000000E+00
  0.00000000E+00  0.00000000E+00  0.00000000E+00
  0.00000000E+00  0.00000000E+00  0.00000000E+00
  0.00000000E+00  0.00000000E+00  0.00000000E+00
  0.00000000E+00  0.00000000E+00  0.00000000E+00
  0.00000000E+00  0.00000000E+00  0.00000000E+00
  0.00000000E+00  0.00000000E+00  0.00000000E+00
  0.00000000E+00  0.00000000E+00  0.00000000E+00
  0.00000000E+00  0.00000000E+00  0.00000000E+00
  0.00000000E+00  0.00000000E+00  0.00000000E+00
  0.00000000E+00  0.00000000E+00  0.00000000E+00
  0.00000000E+00  0.00000000E+00  0.00000000E+00
  0.00000000E+00  0.00000000E+00  0.00000000E+00
  0.00000000E+00  0.00000000E+00  0.00000000E+00
  0.00000000E+00  0.00000000E+00  0.00000000E+00
  0.00000000E+00  0.00000000E+00  0.00000000E+00
  0.00000000E+00  0.00000000E+00  0.00000000E+00
  0.00000000E+00  0.00000000E+00  0.00000000E+00
  0.00000000E+00  0.00000000E+00  0.00000000E+00
  0.00000000E+00  0.00000000E+00  0.00000000E+00
  0.00000000E+00  0.00000000E+00  0.00000000E+00
  0.00000000E+00  0.00000000E+00  0.00000000E+00
  0.00000000E+00  0.00000000E+00  0.00000000E+00
  0.00000000E+00  0.00000000E+00  0.00000000E+00
  0.00000000E+00  0.00000000E+00  0.00000000E+00
  0.00000000E+00  0.00000000E+00  0.00000000E+00
  0.00000000E+00  0.00000000E+00  0.00000000E+00
  0.00000000E+00  0.00000000E+00  0.00000000E+00
  0.00000000E+00  0.00000000E+00  0.00000000E+00
  0.00000000E+00  0.00000000E+00  0.00000000E+00
  0.00000000E+00  0.00000000E+00  0.00000000E+00
  0.00000000E+00  0.00000000E+00  0.00000000E+00
  0.00000000E+00  0.00000000E+00  0.00000000E+00
  0.00000000E+00  0.00000000E+00  0.00000000E+00
  0.00000000E+00  0.00000000E+00  0.00000000E+00
  0.00000000E+00  0.00000000E+00  0.00000000E+00
  0.00000000E+00  0.00000000E+00  0.00000000E+00
  0.00000000E+00  0.00000000E+00  0.00000000E+00
  0.00000000E+00  0.00000000E+00  0.00000000E+00
  0.00000000E+00  0.00000000E+00  0.00000000E+00
  0.00000000E+00  0.00000000E+00  0.00000000E+00
  0.00000000E+00  0.00000000E+00  0.00000000E+00
  0.00000000E+00  0.00000000E+00  0.00000000E+00
  0.00000000E+00  0.00000000E+00  0.00000000E+00
  0.00000000E+00  0.00000000E+00  0.00000000E+00
  0.00000000E+00  0.00000000E+00  0.00000000E+00
  0.00000000E+00  0.00000000E+00  0.00000000E+00
  0.00000000E+00  0.00000000E+00  0.00000000E+00
  0.00000000E+00  0.00000000E+00  0.00000000E+00
  0.00000000E+00  0.00000000E+00  0.00000000E+00
  0.00000000E+00  0.00000000E+00  0.00000000E+00
  0.00000000E+00  0.00000000E+00  0.00000000E+00
  0.00000000E+00  0.00000000E+00  0.00000000E+00
  0.00000000E+00  0.00000000E+00  0.00000000E+00
  0.00000000E+00  0.00000000E+00  0.00000000E+00
  0.00000000E+00  0.00000000E+00  0.00000000E+00
  0.00000000E+00  0.00000000E+00  0.00000000E+00
  0.00000000E+00  0.00000000E+00  0.00000000E+00
  0.00000000E+00  0.00000000E+00  0.00000000E+00
  0.00000000E+00  0.00000000E+00  0.00000000E+00
  0.00000000E+00  0.00000000E+00  0.00000000E+00
  0.00000000E+00  0.00000000E+00  0.00000000E+00
  0.00000000E+00  0.00000000E+00  0.00000000E+00
  0.00000000E+00  0.00000000E+00  0.00000000E+00
  0.00000000E+00  0.00000000E+00  0.00000000E+00
  0.00000000E+00  0.00000000E+00  0.00000000E+00
  0.00000000E+00  0.00000000E+00  0.00000000E+00
  0.00000000E+00  0.00000000E+00  0.00000000E+00
  0.00000000E+00  0.00000000E+00  0.00000000E+00
  0.00000000E+00  0.00000000E+00  0.00000000E+00
  0.00000000E+00  0.00000000E+00  0.00000000E+00
  0.00000000E+00  0.00000000E+00  0.00000000E+00
  0.00000000E+00  0.00000000E+00  0.00000000E+00
  0.00000000E+00  0.00000000E+00  0.00000000E+00
  0.00000000E+00  0.00000000E+00  0.00000000E+00
  0.00000000E+00  0.00000000E+00  0.00000000E+00
  0.00000000E+00  0.00000000E+00  0.00000000E+00
  0.00000000E+00  0.00000000E+00  0.00000000E+00
  0.00000000E+00  0.00000000E+00  0.00000000E+00
  0.00000000E+00  0.00000000E+00  0.00000000E+00
  0.00000000E+00  0.00000000E+00  0.00000000E+00
  0.00000000E+00  0.00000000E+00  0.00000000E+00
  0.00000000E+00  0.00000000E+00  0.00000000E+00
  0.00000000E+00  0.00000000E+00  0.00000000E+00
  0.00000000E+00  0.00000000E+00  0.00000000E+00
  0.00000000E+00  0.00000000E+00  0.00000000E+00
  0.00000000E+00  0.00000000E+00  0.00000000E+00
  0.00000000E+00  0.00000000E+00  0.00000000E+00
