H1 Pd1 C124 N2 O1                       
   1.00000000000000     
    19.8261214324138635   -0.0239708516507498    0.1416175335015125
    -9.9340966013140815   17.0550550309028353    0.0808503142574901
     0.2126643430307594    0.2648943599164502   29.7833621601633745
   H    Pd   C    N    O 
     1     1   124     2     1
Direct
  0.4749172089494317  0.5586801084705185  0.5026381351505723
  0.4360313275880577  0.4980697069485118  0.4239192749138125
  0.0420498343195229  0.0841905581146731  0.3998201943803861
  0.0412861745893050  0.2083747255705722  0.3994485654095833
  0.0404586823119750  0.3329203768008658  0.3990826623051085
  0.0402078996745953  0.4582852799450293  0.3990542200097421
  0.0409214445754698  0.5837782725499653  0.3990823095212509
  0.0416732760697089  0.7092072784125588  0.3989899757822374
  0.0420702317128368  0.8344698849699482  0.3992438533081402
  0.0422976071885728  0.9596131213576465  0.3997279450330017
  0.1680228568712890  0.0857751041462594  0.4004576328566785
  0.1677046944693789  0.2104228122085255  0.4004289147596202
  0.1658559403566774  0.3342221181438834  0.3994964985464975
  0.1637824671752349  0.4587393962152871  0.3991943458824819
  0.1645912062086048  0.5839482188486900  0.3992946520575484
  0.1658392544649053  0.7092491467628314  0.3993447730983840
  0.1666646077709606  0.8345808852287963  0.3993686368424804
  0.1673010639185375  0.9600530438496782  0.3998207076852749
  0.2925639911469942  0.0853681465616864  0.4006962435070043
  0.2942978969123461  0.2125136642380858  0.4025136453396413
  0.2935637540849391  0.3380198693691225  0.4029798179604158
  0.2875115551536650  0.4600027134168702  0.4020628561289166
  0.2878405507995215  0.5845987771941208  0.4013794733968898
  0.2899441669010105  0.7091733311626855  0.4004756142046780
  0.2911595645148123  0.8342019072553625  0.3996528329423727
  0.2918319325823886  0.9595504532114127  0.3996666571429680
  0.4170045567910069  0.0836975777905843  0.3999457444519900
  0.4177435891831098  0.2092688195007993  0.4017827719521557
  0.4212683311718896  0.3369189315606068  0.4062192374393747
  0.4138413200274408  0.7066395705333584  0.4034829569601960
  0.4155895422241719  0.8325740489913476  0.4005800215154524
  0.4163455605703954  0.9581507337077242  0.3995966212391612
  0.5414901925272315  0.0821650047762748  0.3994315530174551
  0.5422162321280912  0.2073827579999926  0.4001879057479193
  0.5435978279691153  0.3322011851985928  0.4022621868016975
  0.5452855314226168  0.4554273658122442  0.4056047481023737
  0.5454797933973555  0.5794388510312855  0.4069656157331519
  0.5374445291840499  0.7025986200387256  0.4061094206986562
  0.5397894879527581  0.8304526249327919  0.4022517916057983
  0.5408667494757032  0.9565946181380663  0.3999570458445583
  0.6660260462077101  0.0815679009810332  0.3993249031031991
  0.6666972842892998  0.2069879709360419  0.3992107281894464
  0.6676771664775408  0.3322736149884979  0.3996450025191424
  0.6693326199140857  0.4576399060934098  0.4005065227801900
  0.6693765805870917  0.5822303482954505  0.4015202857214429
  0.6654737578577644  0.7055452416740460  0.4020960158799185
  0.6643163139913913  0.8298888666752977  0.4018642457563762
  0.6653533295034637  0.9559700726237810  0.4003417049111949
  0.7907549061441048  0.0816217272678531  0.3995391798655126
  0.7911429518620435  0.2069094064806463  0.3992712903716371
  0.7918446278633822  0.3323655029452344  0.3989552389654130
  0.7927945415662359  0.4579110812160766  0.3988289308064873
  0.7933510990890806  0.5832656794157892  0.3992434516323640
  0.7921849153743818  0.7079607912335023  0.3998572492919681
  0.7908225402143535  0.8319883309610854  0.4002154388519241
  0.7903205281432507  0.9563843060840059  0.3999851166839346
  0.9160238849381526  0.0824991676477610  0.3996272571305063
  0.9158793352850493  0.2072989714555032  0.3994370990778525
  0.9160002423357013  0.3325302961008473  0.3992598432891564
  0.9164612137740881  0.4580284355166927  0.3989687513575595
  0.9172047846733961  0.5836096527594565  0.3987648758541290
  0.9172519818024748  0.7089104103532975  0.3989584616097083
  0.9169224627674051  0.8336917585229806  0.3994378923993428
  0.9164078875610441  0.9580890910399363  0.3997149898305610
  0.0843257969620474  0.0433381251914466  0.3999731677063572
  0.0838824288290576  0.1677837721836514  0.3998000721769742
  0.0825703453544714  0.2918391235702058  0.3991631250701239
  0.0812490437209255  0.4165029577332290  0.3989712938716505
  0.0817601474659254  0.5418669892509965  0.3990810070239886
  0.0827521097877478  0.6673814132697776  0.3991123851480759
  0.0834885102736576  0.7928391046471621  0.3991648657464412
  0.0839206635545987  0.9181045442113646  0.3995982919260856
  0.2092299423420543  0.0436960073128451  0.4003599824554569
  0.2102003605060339  0.1697182062518594  0.4011095812888730
  0.2092996866584095  0.2942020768191373  0.4005720264349847
  0.2052819002033859  0.4175551466247400  0.3996623829232295
  0.2051536554036339  0.5420937195511507  0.3995601109361586
  0.2068657957909003  0.6674687604823142  0.3996357950334824
  0.2079137114497095  0.7927599575653010  0.3994398182774023
  0.2086296560725552  0.9181555313849603  0.3996203898935739
  0.3337426846815439  0.0430777621675545  0.4000451004761805
  0.3346364604737996  0.1690644646377584  0.4018374153563828
  0.3366245588659705  0.2967019397223014  0.4044758157518345
  0.3299997424440492  0.4207670151494886  0.4049322775477448
  0.3286224252564300  0.5438072929035115  0.4042008673725394
  0.3307896303534180  0.6673634925245664  0.4019399293015941
  0.3323729973301230  0.7923102977070743  0.4002194502165654
  0.3331633906584578  0.9175506566634978  0.3995798707769154
  0.4583117558058387  0.0415231613906724  0.3995758289740326
  0.4589705505572299  0.1670131500985334  0.4005441370816712
  0.4604782925950560  0.2926399099428287  0.4033041578558056
  0.4526627959721889  0.6619617686918415  0.4070676987786214
  0.4566995505550647  0.7901522512196680  0.4020022244571156
  0.4576181818940517  0.9159426537202694  0.3999506286166820
  0.5828241116960351  0.0401555995863236  0.3994304457790135
  0.5834726649445698  0.1655291749775143  0.3995066105923099
  0.5845937242144815  0.2905076040389408  0.4005859052396233
  0.5865107542237100  0.4150031305525592  0.4025116818648519
  0.5868904676866756  0.5396503345554946  0.4042851182219752
  0.5810492834778852  0.6616313377580200  0.4050637000588944
  0.5800037393192289  0.7869067169285159  0.4035431239021128
  0.5819822474297837  0.9142441069703979  0.4007571264773535
  0.7073378726454065  0.0396513303647674  0.3996121210754784
  0.7079752894643921  0.1651554221119056  0.3991649278702915
  0.7087570496634077  0.2905086110275597  0.3991262991050878
  0.7099377081440036  0.4158476340965647  0.3994575087094480
  0.7107852680869121  0.5410432298371460  0.4002830615766030
  0.7088303106667725  0.6655116989775219  0.4010130572771906
  0.7069625849480133  0.7892995362911311  0.4013309768976574
  0.7065524987601053  0.9138745878361881  0.4006428985187840
  0.8323917336947320  0.0401411134928048  0.3996787967960205
  0.8326007124631704  0.1652855614872956  0.3994325902388016
  0.8329607158965574  0.2905517008424205  0.3991890430124255
  0.8336278093117701  0.4159726395036686  0.3988215346535068
  0.8343673344926138  0.5414904010918509  0.3987973375106619
  0.8341932409942174  0.6668604251068085  0.3992606956553923
  0.8334325533579616  0.7913770089008111  0.3997532451734047
  0.8326377988071409  0.9155663315284028  0.3999151095807489
  0.9583165576087428  0.0416907876353912  0.3997000700248444
  0.9577942415719575  0.1660838162151292  0.3995014582431266
  0.9574208876438993  0.2908679522356529  0.3993055304608427
  0.9573727351206791  0.4161479110291992  0.3991360468409046
  0.9580945935000379  0.5417173555339903  0.3989278467079683
  0.9586358700925660  0.6672345817699673  0.3988346703430378
  0.9588014749493822  0.7924542321590304  0.3991601613628751
  0.9586792147529751  0.9172661823185887  0.3996279697745330
  0.4074682986744677  0.5815332219028618  0.4098809081854072
  0.4659098630924763  0.4167714886639807  0.4093534497511017
  0.4767125802267476  0.5145468378476631  0.4893717388865813
 
  0.00000000E+00  0.00000000E+00  0.00000000E+00
  0.00000000E+00  0.00000000E+00  0.00000000E+00
  0.00000000E+00  0.00000000E+00  0.00000000E+00
  0.00000000E+00  0.00000000E+00  0.00000000E+00
  0.00000000E+00  0.00000000E+00  0.00000000E+00
  0.00000000E+00  0.00000000E+00  0.00000000E+00
  0.00000000E+00  0.00000000E+00  0.00000000E+00
  0.00000000E+00  0.00000000E+00  0.00000000E+00
  0.00000000E+00  0.00000000E+00  0.00000000E+00
  0.00000000E+00  0.00000000E+00  0.00000000E+00
  0.00000000E+00  0.00000000E+00  0.00000000E+00
  0.00000000E+00  0.00000000E+00  0.00000000E+00
  0.00000000E+00  0.00000000E+00  0.00000000E+00
  0.00000000E+00  0.00000000E+00  0.00000000E+00
  0.00000000E+00  0.00000000E+00  0.00000000E+00
  0.00000000E+00  0.00000000E+00  0.00000000E+00
  0.00000000E+00  0.00000000E+00  0.00000000E+00
  0.00000000E+00  0.00000000E+00  0.00000000E+00
  0.00000000E+00  0.00000000E+00  0.00000000E+00
  0.00000000E+00  0.00000000E+00  0.00000000E+00
  0.00000000E+00  0.00000000E+00  0.00000000E+00
  0.00000000E+00  0.00000000E+00  0.00000000E+00
  0.00000000E+00  0.00000000E+00  0.00000000E+00
  0.00000000E+00  0.00000000E+00  0.00000000E+00
  0.00000000E+00  0.00000000E+00  0.00000000E+00
  0.00000000E+00  0.00000000E+00  0.00000000E+00
  0.00000000E+00  0.00000000E+00  0.00000000E+00
  0.00000000E+00  0.00000000E+00  0.00000000E+00
  0.00000000E+00  0.00000000E+00  0.00000000E+00
  0.00000000E+00  0.00000000E+00  0.00000000E+00
  0.00000000E+00  0.00000000E+00  0.00000000E+00
  0.00000000E+00  0.00000000E+00  0.00000000E+00
  0.00000000E+00  0.00000000E+00  0.00000000E+00
  0.00000000E+00  0.00000000E+00  0.00000000E+00
  0.00000000E+00  0.00000000E+00  0.00000000E+00
  0.00000000E+00  0.00000000E+00  0.00000000E+00
  0.00000000E+00  0.00000000E+00  0.00000000E+00
  0.00000000E+00  0.00000000E+00  0.00000000E+00
  0.00000000E+00  0.00000000E+00  0.00000000E+00
  0.00000000E+00  0.00000000E+00  0.00000000E+00
  0.00000000E+00  0.00000000E+00  0.00000000E+00
  0.00000000E+00  0.00000000E+00  0.00000000E+00
  0.00000000E+00  0.00000000E+00  0.00000000E+00
  0.00000000E+00  0.00000000E+00  0.00000000E+00
  0.00000000E+00  0.00000000E+00  0.00000000E+00
  0.00000000E+00  0.00000000E+00  0.00000000E+00
  0.00000000E+00  0.00000000E+00  0.00000000E+00
  0.00000000E+00  0.00000000E+00  0.00000000E+00
  0.00000000E+00  0.00000000E+00  0.00000000E+00
  0.00000000E+00  0.00000000E+00  0.00000000E+00
  0.00000000E+00  0.00000000E+00  0.00000000E+00
  0.00000000E+00  0.00000000E+00  0.00000000E+00
  0.00000000E+00  0.00000000E+00  0.00000000E+00
  0.00000000E+00  0.00000000E+00  0.00000000E+00
  0.00000000E+00  0.00000000E+00  0.00000000E+00
  0.00000000E+00  0.00000000E+00  0.00000000E+00
  0.00000000E+00  0.00000000E+00  0.00000000E+00
  0.00000000E+00  0.00000000E+00  0.00000000E+00
  0.00000000E+00  0.00000000E+00  0.00000000E+00
  0.00000000E+00  0.00000000E+00  0.00000000E+00
  0.00000000E+00  0.00000000E+00  0.00000000E+00
  0.00000000E+00  0.00000000E+00  0.00000000E+00
  0.00000000E+00  0.00000000E+00  0.00000000E+00
  0.00000000E+00  0.00000000E+00  0.00000000E+00
  0.00000000E+00  0.00000000E+00  0.00000000E+00
  0.00000000E+00  0.00000000E+00  0.00000000E+00
  0.00000000E+00  0.00000000E+00  0.00000000E+00
  0.00000000E+00  0.00000000E+00  0.00000000E+00
  0.00000000E+00  0.00000000E+00  0.00000000E+00
  0.00000000E+00  0.00000000E+00  0.00000000E+00
  0.00000000E+00  0.00000000E+00  0.00000000E+00
  0.00000000E+00  0.00000000E+00  0.00000000E+00
  0.00000000E+00  0.00000000E+00  0.00000000E+00
  0.00000000E+00  0.00000000E+00  0.00000000E+00
  0.00000000E+00  0.00000000E+00  0.00000000E+00
  0.00000000E+00  0.00000000E+00  0.00000000E+00
  0.00000000E+00  0.00000000E+00  0.00000000E+00
  0.00000000E+00  0.00000000E+00  0.00000000E+00
  0.00000000E+00  0.00000000E+00  0.00000000E+00
  0.00000000E+00  0.00000000E+00  0.00000000E+00
  0.00000000E+00  0.00000000E+00  0.00000000E+00
  0.00000000E+00  0.00000000E+00  0.00000000E+00
  0.00000000E+00  0.00000000E+00  0.00000000E+00
  0.00000000E+00  0.00000000E+00  0.00000000E+00
  0.00000000E+00  0.00000000E+00  0.00000000E+00
  0.00000000E+00  0.00000000E+00  0.00000000E+00
  0.00000000E+00  0.00000000E+00  0.00000000E+00
  0.00000000E+00  0.00000000E+00  0.00000000E+00
  0.00000000E+00  0.00000000E+00  0.00000000E+00
  0.00000000E+00  0.00000000E+00  0.00000000E+00
  0.00000000E+00  0.00000000E+00  0.00000000E+00
  0.00000000E+00  0.00000000E+00  0.00000000E+00
  0.00000000E+00  0.00000000E+00  0.00000000E+00
  0.00000000E+00  0.00000000E+00  0.00000000E+00
  0.00000000E+00  0.00000000E+00  0.00000000E+00
  0.00000000E+00  0.00000000E+00  0.00000000E+00
  0.00000000E+00  0.00000000E+00  0.00000000E+00
  0.00000000E+00  0.00000000E+00  0.00000000E+00
  0.00000000E+00  0.00000000E+00  0.00000000E+00
  0.00000000E+00  0.00000000E+00  0.00000000E+00
  0.00000000E+00  0.00000000E+00  0.00000000E+00
  0.00000000E+00  0.00000000E+00  0.00000000E+00
  0.00000000E+00  0.00000000E+00  0.00000000E+00
  0.00000000E+00  0.00000000E+00  0.00000000E+00
  0.00000000E+00  0.00000000E+00  0.00000000E+00
  0.00000000E+00  0.00000000E+00  0.00000000E+00
  0.00000000E+00  0.00000000E+00  0.00000000E+00
  0.00000000E+00  0.00000000E+00  0.00000000E+00
  0.00000000E+00  0.00000000E+00  0.00000000E+00
  0.00000000E+00  0.00000000E+00  0.00000000E+00
  0.00000000E+00  0.00000000E+00  0.00000000E+00
  0.00000000E+00  0.00000000E+00  0.00000000E+00
  0.00000000E+00  0.00000000E+00  0.00000000E+00
  0.00000000E+00  0.00000000E+00  0.00000000E+00
  0.00000000E+00  0.00000000E+00  0.00000000E+00
  0.00000000E+00  0.00000000E+00  0.00000000E+00
  0.00000000E+00  0.00000000E+00  0.00000000E+00
  0.00000000E+00  0.00000000E+00  0.00000000E+00
  0.00000000E+00  0.00000000E+00  0.00000000E+00
  0.00000000E+00  0.00000000E+00  0.00000000E+00
  0.00000000E+00  0.00000000E+00  0.00000000E+00
  0.00000000E+00  0.00000000E+00  0.00000000E+00
  0.00000000E+00  0.00000000E+00  0.00000000E+00
  0.00000000E+00  0.00000000E+00  0.00000000E+00
  0.00000000E+00  0.00000000E+00  0.00000000E+00
  0.00000000E+00  0.00000000E+00  0.00000000E+00
  0.00000000E+00  0.00000000E+00  0.00000000E+00
  0.00000000E+00  0.00000000E+00  0.00000000E+00
  0.00000000E+00  0.00000000E+00  0.00000000E+00
