Ag1 H1 C125 N1                          
   1.00000000000000     
    19.8394532955590073   -0.0110870661763343    0.3020453919007792
    -9.9320383936751817   17.0741734990461111    0.1314417086371927
     0.4517432250155604    0.4911382907942144   29.7298876605950326
   Ag   H    C    N 
     1     1   125     1
Direct
  0.4362500843342029  0.4976224775921581  0.4093567357785297
  0.5181416433643938  0.5676917188883885  0.4590374581352309
  0.0410839455527074  0.0833750389483408  0.3998966733750580
  0.0403280400707426  0.2077191293554355  0.3994144284389217
  0.0398218864492392  0.3324591833272927  0.3984054586674991
  0.0398850351305018  0.4579101868148492  0.3978369888684110
  0.0407292855762034  0.5834218454109598  0.3977632938507438
  0.0414343277489598  0.7087768355972689  0.3980514773048560
  0.0416293703523408  0.8339569129114637  0.3987090917638464
  0.0416013893314952  0.9589173716995696  0.3994623407130740
  0.1668533591668225  0.0845873556558494  0.4006499237579623
  0.1659655143883082  0.2088186376956015  0.4011613671898960
  0.1646502521887349  0.3332070044585417  0.4000115034049291
  0.1632440347842073  0.4581561443978540  0.3987263397157991
  0.1643022103740192  0.5834620531123642  0.3982750061511892
  0.1656572959728653  0.7087775054929680  0.3983185375209553
  0.1662960077095839  0.8340371179267535  0.3987651877095033
  0.1666994250482016  0.9593674215929077  0.3996158186880811
  0.2918411265853910  0.0845545416251132  0.4009610078516155
  0.2925500579918685  0.2107882645204783  0.4027996923844920
  0.2907348145139569  0.3351371478606138  0.4031640363230650
  0.2865472359084741  0.4585779050538765  0.4016238180364998
  0.2873010790741216  0.5839388539092769  0.4007851724340688
  0.2898221935519167  0.7087592846519732  0.3996392884389958
  0.2908765117329361  0.8337578942312522  0.3992165668624534
  0.2913691278227072  0.9589621521375157  0.3996670453393105
  0.4164621579798363  0.0832652369240207  0.4003086210014457
  0.4170452642115331  0.2086411894745984  0.4027143805531037
  0.4186752189203032  0.3350762911149101  0.4068158150398758
  0.4137705674097398  0.7068472133555599  0.4032893642325956
  0.4154025254756156  0.8323997616549256  0.4006905392637558
  0.4160248353719449  0.9578982005413292  0.3996665597712994
  0.5411098954297145  0.0820611556256420  0.3994516021102708
  0.5417214237629274  0.2072614245666189  0.4003853876001447
  0.5428745625844081  0.3321562942577082  0.4044100155798294
  0.5468699852346235  0.4566128348580241  0.4130295092011365
  0.5492359117647729  0.5825354017904237  0.4255534589472544
  0.5381320749341623  0.7029636585381234  0.4084300658643195
  0.5397875981276891  0.8306006784466041  0.4024104553379312
  0.5405632668958195  0.9565896028518582  0.3999723090347728
  0.6657059998014582  0.0815968634288502  0.3991871616305590
  0.6662883398788961  0.2068196335316344  0.3989406031083178
  0.6672250915249455  0.3319667720669466  0.3997566498074209
  0.6693725634148713  0.4572264600290786  0.4027255948895416
  0.6699081253806033  0.5823752202816014  0.4060757730423619
  0.6660354063605324  0.7066489149368025  0.4051927074078620
  0.6642980415083279  0.8304347568567666  0.4025801019977868
  0.6651596818937395  0.9561973043978962  0.4003891686447258
  0.7903513677090714  0.0816426832183112  0.3992127505537699
  0.7907867300508004  0.2068337582047229  0.3985419525175811
  0.7914865688794703  0.3321488526375893  0.3982178234663292
  0.7926722314947321  0.4576042231482653  0.3981000472184159
  0.7932699279500455  0.5830052305997783  0.3986733542858617
  0.7920657156292977  0.7080489496299427  0.4004003417857861
  0.7908158348917259  0.8322903270016671  0.4002064829721407
  0.7901053705841429  0.9565794118828240  0.3999848697659750
  0.9154423438496176  0.0822206812603168  0.3993283630132224
  0.9153281042547735  0.2070637174488281  0.3986986091610312
  0.9155759109410330  0.3322932000195583  0.3980970326029440
  0.9162716769043473  0.4577484910244464  0.3976095283533040
  0.9170595046113630  0.5833034022526579  0.3976548447124902
  0.9169719918379070  0.7085536217479180  0.3982981985963640
  0.9166021543673546  0.8334930949731498  0.3991106794120247
  0.9159360147869881  0.9578502187235446  0.3995475553667911
  0.0833379886096477  0.0424388894939332  0.3999981640662824
  0.0825852012437431  0.1667290304067150  0.4001268221190300
  0.0815081734419191  0.2910488166740726  0.3991367081898384
  0.0808041739764999  0.4160327303801392  0.3981763413987647
  0.0815302403498975  0.5414889522868370  0.3978296195753054
  0.0825534493500172  0.6669668549535871  0.3979937196375430
  0.0831356340539213  0.7922915696342503  0.3984289435544499
  0.0833173394260731  0.9174498277655775  0.3992305206063944
  0.2083999078841368  0.0427421528482001  0.4004129413673130
  0.2085347134527681  0.1681287484905747  0.4015843974320414
  0.2070103886273337  0.2922118759245113  0.4014345911560665
  0.2042637284069345  0.4165507657602907  0.3997313992109566
  0.2046270103191020  0.5414970471324003  0.3989936861831597
  0.2066835346626115  0.6670426949413336  0.3985610956168192
  0.2076754994800197  0.7922760076641782  0.3987113846301099
  0.2081297942142510  0.9174652749960330  0.3993499890183838
  0.3331723624009177  0.0423878119633125  0.4003209109711224
  0.3337243696997261  0.1679810773223080  0.4023044590326699
  0.3341680183146862  0.2939983425628624  0.4043332986543688
  0.3259980505600067  0.4165613529821385  0.4035757743852253
  0.3281276839765796  0.5434128975441948  0.4024537320445482
  0.3306822573436687  0.6669284805870075  0.4011847008379825
  0.3321376053545687  0.7918798507901693  0.3998093500261907
  0.3327753569479052  0.9170548509438791  0.3994966528801310
  0.4578495029740954  0.0411771451572639  0.3997270801978032
  0.4583635959910103  0.1665233794889728  0.4011174001704980
  0.4593622179548476  0.2917990006115621  0.4049130062779628
  0.4650842953574505  0.4161313880956156  0.4111288980648442
  0.4527110943714446  0.6623472579558575  0.4062167425449225
  0.4565116362048129  0.7902138428686318  0.4023481354060512
  0.4573433538685414  0.9158033903305369  0.4000380115179250
  0.5824612465608825  0.0401050024932539  0.3994128986226603
  0.5830447522518121  0.1654120023343732  0.3994468134339753
  0.5839546691867146  0.2903658039608154  0.4011533621937379
  0.5867934314761226  0.4148610648293632  0.4071853834214258
  0.5897060849451617  0.5403686469493832  0.4157616504784592
  0.5829112759098580  0.6642770314700933  0.4123296881572915
  0.5802996656303462  0.7875301964846236  0.4043600646451085
  0.5818014965034851  0.9143346553005495  0.4007301896126089
  0.7070564123637185  0.0397664647262075  0.3995099275451148
  0.7075943927660573  0.1650614788320071  0.3987829447389403
  0.7083211861878637  0.2902538617328777  0.3987679196209306
  0.7098393829479077  0.4154454055408825  0.3996851570251116
  0.7108424266144936  0.5406482924109888  0.4014852570067401
  0.7093427162953823  0.6661031428091087  0.4040709787402115
  0.7071700164259075  0.7900686680421870  0.4019463071366948
  0.7064368626746442  0.9143276224813772  0.4008805603686914
  0.8319803093600695  0.0401496644467696  0.3994302310095009
  0.8321277020119301  0.1651590488097093  0.3987699354893762
  0.8325795233951625  0.2903463982607786  0.3982285825362516
  0.8334698535413512  0.4156997388329842  0.3978124486666207
  0.8343095537011707  0.5412228652547745  0.3978519665435307
  0.8341136814104740  0.6666152661351725  0.3988570677442823
  0.8332770712908377  0.7915220852189816  0.3997232115293171
  0.8324368494573630  0.9157461175900652  0.3998146888501628
  0.9575774897011147  0.0412460775611406  0.3995649761749235
  0.9570806526720905  0.1656948341770044  0.3990903099344760
  0.9568821355425736  0.2905397993085260  0.3983435260934239
  0.9571035353871881  0.4158398097571592  0.3978025401267415
  0.9579486984900693  0.5414025035481589  0.3976052568760189
  0.9584569557946065  0.6668646229545450  0.3979061330383695
  0.9584540360163855  0.7921034532921427  0.3987013812963998
  0.9581644383610710  0.9168985796157053  0.3993317844415598
  0.4073840749729797  0.5829987681092303  0.4051648435712898
 
  0.00000000E+00  0.00000000E+00  0.00000000E+00
  0.00000000E+00  0.00000000E+00  0.00000000E+00
  0.00000000E+00  0.00000000E+00  0.00000000E+00
  0.00000000E+00  0.00000000E+00  0.00000000E+00
  0.00000000E+00  0.00000000E+00  0.00000000E+00
  0.00000000E+00  0.00000000E+00  0.00000000E+00
  0.00000000E+00  0.00000000E+00  0.00000000E+00
  0.00000000E+00  0.00000000E+00  0.00000000E+00
  0.00000000E+00  0.00000000E+00  0.00000000E+00
  0.00000000E+00  0.00000000E+00  0.00000000E+00
  0.00000000E+00  0.00000000E+00  0.00000000E+00
  0.00000000E+00  0.00000000E+00  0.00000000E+00
  0.00000000E+00  0.00000000E+00  0.00000000E+00
  0.00000000E+00  0.00000000E+00  0.00000000E+00
  0.00000000E+00  0.00000000E+00  0.00000000E+00
  0.00000000E+00  0.00000000E+00  0.00000000E+00
  0.00000000E+00  0.00000000E+00  0.00000000E+00
  0.00000000E+00  0.00000000E+00  0.00000000E+00
  0.00000000E+00  0.00000000E+00  0.00000000E+00
  0.00000000E+00  0.00000000E+00  0.00000000E+00
  0.00000000E+00  0.00000000E+00  0.00000000E+00
  0.00000000E+00  0.00000000E+00  0.00000000E+00
  0.00000000E+00  0.00000000E+00  0.00000000E+00
  0.00000000E+00  0.00000000E+00  0.00000000E+00
  0.00000000E+00  0.00000000E+00  0.00000000E+00
  0.00000000E+00  0.00000000E+00  0.00000000E+00
  0.00000000E+00  0.00000000E+00  0.00000000E+00
  0.00000000E+00  0.00000000E+00  0.00000000E+00
  0.00000000E+00  0.00000000E+00  0.00000000E+00
  0.00000000E+00  0.00000000E+00  0.00000000E+00
  0.00000000E+00  0.00000000E+00  0.00000000E+00
  0.00000000E+00  0.00000000E+00  0.00000000E+00
  0.00000000E+00  0.00000000E+00  0.00000000E+00
  0.00000000E+00  0.00000000E+00  0.00000000E+00
  0.00000000E+00  0.00000000E+00  0.00000000E+00
  0.00000000E+00  0.00000000E+00  0.00000000E+00
  0.00000000E+00  0.00000000E+00  0.00000000E+00
  0.00000000E+00  0.00000000E+00  0.00000000E+00
  0.00000000E+00  0.00000000E+00  0.00000000E+00
  0.00000000E+00  0.00000000E+00  0.00000000E+00
  0.00000000E+00  0.00000000E+00  0.00000000E+00
  0.00000000E+00  0.00000000E+00  0.00000000E+00
  0.00000000E+00  0.00000000E+00  0.00000000E+00
  0.00000000E+00  0.00000000E+00  0.00000000E+00
  0.00000000E+00  0.00000000E+00  0.00000000E+00
  0.00000000E+00  0.00000000E+00  0.00000000E+00
  0.00000000E+00  0.00000000E+00  0.00000000E+00
  0.00000000E+00  0.00000000E+00  0.00000000E+00
  0.00000000E+00  0.00000000E+00  0.00000000E+00
  0.00000000E+00  0.00000000E+00  0.00000000E+00
  0.00000000E+00  0.00000000E+00  0.00000000E+00
  0.00000000E+00  0.00000000E+00  0.00000000E+00
  0.00000000E+00  0.00000000E+00  0.00000000E+00
  0.00000000E+00  0.00000000E+00  0.00000000E+00
  0.00000000E+00  0.00000000E+00  0.00000000E+00
  0.00000000E+00  0.00000000E+00  0.00000000E+00
  0.00000000E+00  0.00000000E+00  0.00000000E+00
  0.00000000E+00  0.00000000E+00  0.00000000E+00
  0.00000000E+00  0.00000000E+00  0.00000000E+00
  0.00000000E+00  0.00000000E+00  0.00000000E+00
  0.00000000E+00  0.00000000E+00  0.00000000E+00
  0.00000000E+00  0.00000000E+00  0.00000000E+00
  0.00000000E+00  0.00000000E+00  0.00000000E+00
  0.00000000E+00  0.00000000E+00  0.00000000E+00
  0.00000000E+00  0.00000000E+00  0.00000000E+00
  0.00000000E+00  0.00000000E+00  0.00000000E+00
  0.00000000E+00  0.00000000E+00  0.00000000E+00
  0.00000000E+00  0.00000000E+00  0.00000000E+00
  0.00000000E+00  0.00000000E+00  0.00000000E+00
  0.00000000E+00  0.00000000E+00  0.00000000E+00
  0.00000000E+00  0.00000000E+00  0.00000000E+00
  0.00000000E+00  0.00000000E+00  0.00000000E+00
  0.00000000E+00  0.00000000E+00  0.00000000E+00
  0.00000000E+00  0.00000000E+00  0.00000000E+00
  0.00000000E+00  0.00000000E+00  0.00000000E+00
  0.00000000E+00  0.00000000E+00  0.00000000E+00
  0.00000000E+00  0.00000000E+00  0.00000000E+00
  0.00000000E+00  0.00000000E+00  0.00000000E+00
  0.00000000E+00  0.00000000E+00  0.00000000E+00
  0.00000000E+00  0.00000000E+00  0.00000000E+00
  0.00000000E+00  0.00000000E+00  0.00000000E+00
  0.00000000E+00  0.00000000E+00  0.00000000E+00
  0.00000000E+00  0.00000000E+00  0.00000000E+00
  0.00000000E+00  0.00000000E+00  0.00000000E+00
  0.00000000E+00  0.00000000E+00  0.00000000E+00
  0.00000000E+00  0.00000000E+00  0.00000000E+00
  0.00000000E+00  0.00000000E+00  0.00000000E+00
  0.00000000E+00  0.00000000E+00  0.00000000E+00
  0.00000000E+00  0.00000000E+00  0.00000000E+00
  0.00000000E+00  0.00000000E+00  0.00000000E+00
  0.00000000E+00  0.00000000E+00  0.00000000E+00
  0.00000000E+00  0.00000000E+00  0.00000000E+00
  0.00000000E+00  0.00000000E+00  0.00000000E+00
  0.00000000E+00  0.00000000E+00  0.00000000E+00
  0.00000000E+00  0.00000000E+00  0.00000000E+00
  0.00000000E+00  0.00000000E+00  0.00000000E+00
  0.00000000E+00  0.00000000E+00  0.00000000E+00
  0.00000000E+00  0.00000000E+00  0.00000000E+00
  0.00000000E+00  0.00000000E+00  0.00000000E+00
  0.00000000E+00  0.00000000E+00  0.00000000E+00
  0.00000000E+00  0.00000000E+00  0.00000000E+00
  0.00000000E+00  0.00000000E+00  0.00000000E+00
  0.00000000E+00  0.00000000E+00  0.00000000E+00
  0.00000000E+00  0.00000000E+00  0.00000000E+00
  0.00000000E+00  0.00000000E+00  0.00000000E+00
  0.00000000E+00  0.00000000E+00  0.00000000E+00
  0.00000000E+00  0.00000000E+00  0.00000000E+00
  0.00000000E+00  0.00000000E+00  0.00000000E+00
  0.00000000E+00  0.00000000E+00  0.00000000E+00
  0.00000000E+00  0.00000000E+00  0.00000000E+00
  0.00000000E+00  0.00000000E+00  0.00000000E+00
  0.00000000E+00  0.00000000E+00  0.00000000E+00
  0.00000000E+00  0.00000000E+00  0.00000000E+00
  0.00000000E+00  0.00000000E+00  0.00000000E+00
  0.00000000E+00  0.00000000E+00  0.00000000E+00
  0.00000000E+00  0.00000000E+00  0.00000000E+00
  0.00000000E+00  0.00000000E+00  0.00000000E+00
  0.00000000E+00  0.00000000E+00  0.00000000E+00
  0.00000000E+00  0.00000000E+00  0.00000000E+00
  0.00000000E+00  0.00000000E+00  0.00000000E+00
  0.00000000E+00  0.00000000E+00  0.00000000E+00
  0.00000000E+00  0.00000000E+00  0.00000000E+00
  0.00000000E+00  0.00000000E+00  0.00000000E+00
  0.00000000E+00  0.00000000E+00  0.00000000E+00
  0.00000000E+00  0.00000000E+00  0.00000000E+00
  0.00000000E+00  0.00000000E+00  0.00000000E+00
  0.00000000E+00  0.00000000E+00  0.00000000E+00
  0.00000000E+00  0.00000000E+00  0.00000000E+00
