Ag1 H1 C126 O1                          
   1.00000000000000     
    19.7398896848609446   -0.0016549649634632    0.1115969277903551
    -9.8713306696144283   17.1007392176563684   -0.0009313801403560
     0.1670091946626749    0.0951901803240693   29.8113518802480648
   Ag   H    C    O 
     1     1   126     1
Direct
  0.4353333637714606  0.4985730016505361  0.4350212115419715
  0.4847618143641288  0.5556690505427023  0.5132018106188484
  0.0415460655837869  0.0833048802741899  0.3996657186503174
  0.0413986538145848  0.2081544998368909  0.3996777129387318
  0.0414431022548531  0.3331537571510894  0.3993305633792578
  0.0415095421842747  0.4583028149204058  0.3992082807009817
  0.0415047459565261  0.5833135330035986  0.3992257058606522
  0.0415547784363951  0.7083387338129705  0.3992983640506911
  0.0416376962059777  0.8334117320631477  0.3994188338643782
  0.0416463020203402  0.9583973160803347  0.3995267044066050
  0.1665616139796526  0.0833660086989062  0.4002666409035893
  0.1665200818510680  0.2082189625998249  0.4006943375757891
  0.1663632690157819  0.3330788066395564  0.3998587380112598
  0.1663677047130832  0.4582259789176896  0.3988576445521155
  0.1665163886646364  0.5833157572042851  0.3992306557940397
  0.1665394529076968  0.7084034277850806  0.3993971098377369
  0.1665714902403309  0.8334126360809777  0.3994675081116904
  0.1666534825000895  0.9584756402683678  0.3997339977557575
  0.2916280900413383  0.0833453734014754  0.4003508538557426
  0.2916004407195841  0.2084168955390832  0.4021450840737967
  0.2919944697705160  0.3337345896470877  0.4034458851277631
  0.2912979635143575  0.4575905689997743  0.4000790947891308
  0.2915013292503242  0.5837393099236612  0.3991329343424424
  0.2914370655816241  0.7085515782176179  0.3996475936686845
  0.2915096390469461  0.8333739524591712  0.3995288584910571
  0.2915720304615407  0.9583700357600693  0.3995626842870071
  0.4166082053730702  0.0832300746234681  0.3996219635858558
  0.4165146859452521  0.2080581928009197  0.4008746156096899
  0.4164102605619717  0.3331953967688818  0.4047500734766838
  0.4151221970068685  0.5848051196559249  0.4041683892186756
  0.4163776828893239  0.7083562160101702  0.4013776733173112
  0.4165145528198336  0.8333735116106247  0.3999700795195883
  0.4165253832586485  0.9582707168348039  0.3994783729832957
  0.5415445606034511  0.0831659167627230  0.3994162138052815
  0.5416269388583241  0.2081019583685921  0.3996105819544040
  0.5415464466638953  0.3330129369599359  0.4003050862961309
  0.5408707206318415  0.4573925996467045  0.4023086907422422
  0.5447922187854929  0.5852153693173081  0.4065146147261574
  0.5417229853521016  0.7088504588719737  0.4041708852795651
  0.5414565797127611  0.8333690553326277  0.4011918075962565
  0.5414894802432874  0.9582102753596726  0.3997790996124805
  0.6664951828398427  0.0831595972400622  0.3995544557342702
  0.6665570526603094  0.2081587512068026  0.3993893280283684
  0.6665469224911892  0.3331090404287213  0.3992237920687374
  0.6665557633827983  0.4581849262311797  0.3989647538776939
  0.6667958468967754  0.5836544117925652  0.3999007884440898
  0.6667756656330948  0.7083826242239267  0.4021462659547579
  0.6667075536031528  0.8333826993196438  0.4014346101105004
  0.6665411058812396  0.9582230033404089  0.4001477232244618
  0.7915210209696446  0.0831569260478674  0.3995810013448655
  0.7914898749271100  0.2081243654646771  0.3994324420890966
  0.7915687649679177  0.3332109540461950  0.3992502772446387
  0.7915735681404775  0.4582989834230340  0.3990739815147914
  0.7914991936561777  0.5833022318911522  0.3991198776212117
  0.7918328617616406  0.7085097423282581  0.3997435427074660
  0.7917058494850493  0.8333817176288058  0.3999785212080156
  0.7915878958707812  0.9582524086545636  0.3997776867716203
  0.9165331778864202  0.0832072695341211  0.3994517264723726
  0.9164817191945183  0.2081808890714346  0.3994623312885500
  0.9164829096401491  0.3332261979926958  0.3993041994599954
  0.9164900929877724  0.4582128499740646  0.3991685128235399
  0.9165283639060560  0.5833030687336188  0.3991587608473087
  0.9166346770788075  0.7084060242470105  0.3992598242999741
  0.9167049875135044  0.8334076922120542  0.3994282594590052
  0.9166358764125931  0.9583336418365763  0.3994151870057802
  0.0832383375243116  0.0416985637685558  0.3997687974244422
  0.0831608809339844  0.1665989939584947  0.3998993954363655
  0.0829106122955918  0.2914140589275503  0.3995573487298997
  0.0831637146049978  0.4166235088094363  0.3991724936842743
  0.0831745914956854  0.5416544510559247  0.3992226126423840
  0.0831938638112596  0.6667110101029905  0.3992953577472386
  0.0833078983878460  0.7918087842403468  0.3994002883627374
  0.0832842720913589  0.9167675815759475  0.3995625886961093
  0.2082533445761359  0.0416750060453541  0.4001505301773539
  0.2080614415702247  0.1665646441558608  0.4010406293467892
  0.2080817028313953  0.2916505572453080  0.4011817111492037
  0.2077353433103221  0.4162447533913191  0.3989927451348275
  0.2081587671188605  0.5417376857081556  0.3989217199731400
  0.2082508600203836  0.6668010902383050  0.3993951353351527
  0.2082372295941422  0.7917533971298537  0.3994531803533876
  0.2083117533140137  0.9167594929271246  0.3995925592045089
  0.3333038823093069  0.0416520292808382  0.3997872779276008
  0.3333007999520239  0.1665284724300180  0.4012371695490243
  0.3328864981244183  0.2910375948191478  0.4040763763903349
  0.3302188548305360  0.4152243982536509  0.4043185682643974
  0.3337527553253927  0.5423821080526234  0.4001044557621462
  0.3332422323224847  0.6668760258923568  0.4000102481905669
  0.3331786819889528  0.7917768182225676  0.3997314817414162
  0.3332797003543470  0.9167293763107887  0.3994689113138720
  0.4582850510104295  0.0415665199318493  0.3994372062089758
  0.4583015399211193  0.1664806299831344  0.3998449843200105
  0.4583840316119925  0.2913572911716548  0.4018209591356561
  0.4598290829839775  0.4142203215432736  0.4074096876788021
  0.4581478316890041  0.6662612937114734  0.4035787932389667
  0.4582284712518420  0.7917154334652775  0.4008427684258888
  0.4582002017963083  0.9166254348949476  0.3996974582159525
  0.5832260853141854  0.0415201200844523  0.3995179874091409
  0.5832927888483571  0.1665004173333565  0.3994383976795209
  0.5833608100080531  0.2913757531265598  0.3995699806444511
  0.5832480296692364  0.4161577944432477  0.3997138984428116
  0.5830772770228696  0.5422270624579546  0.4022026300274737
  0.5828319002308556  0.6664735217120653  0.4047132470465695
  0.5831102162132479  0.7915090188919718  0.4023674043740326
  0.5831636545445169  0.9165699584475356  0.4003167442572605
  0.7081719154704982  0.0414585152090850  0.3997118417035080
  0.7082335307256896  0.1665121066194450  0.3994456896585862
  0.7082429243238217  0.2915202450983312  0.3992703720960047
  0.7082010676755034  0.4166068342489213  0.3990285004907128
  0.7082273578641248  0.5416927154760671  0.3990773925578605
  0.7083409192177291  0.6668180072354799  0.4005701657479475
  0.7082917254907334  0.7917477533697298  0.4011556112842272
  0.7082334934800626  0.9165608705824614  0.4003880145747480
  0.8331985810178292  0.0415590546004845  0.3995295927928368
  0.8331557907749728  0.1665220572003157  0.3994870724893115
  0.8332143823203736  0.2915928818816852  0.3993330210400799
  0.8332531732166658  0.4166381344558995  0.3991613698536481
  0.8331964624309902  0.5416503853429876  0.3990914422099299
  0.8332963906731248  0.6667901932863667  0.3993088541653097
  0.8334028606430272  0.7917698339517107  0.3997039976224031
  0.8333061361958179  0.9166564825570862  0.3996409435997237
  0.9582185066540718  0.0416343690065420  0.3994491353420735
  0.9581231936083073  0.1665445370691462  0.3995140132574936
  0.9581152198502556  0.2915313960036486  0.3993805090480746
  0.9581631708920505  0.4166335192818531  0.3992236445555065
  0.9582434605487247  0.5417274697680705  0.3991605166261064
  0.9582933095924406  0.6667246438862746  0.3992239249125211
  0.9583309614593616  0.7917669690279049  0.3993580024008356
  0.9583167416955054  0.9167540014898171  0.3994072704653506
  0.4545933300302948  0.5016803923371660  0.5029478473477352
 
  0.00000000E+00  0.00000000E+00  0.00000000E+00
  0.00000000E+00  0.00000000E+00  0.00000000E+00
  0.00000000E+00  0.00000000E+00  0.00000000E+00
  0.00000000E+00  0.00000000E+00  0.00000000E+00
  0.00000000E+00  0.00000000E+00  0.00000000E+00
  0.00000000E+00  0.00000000E+00  0.00000000E+00
  0.00000000E+00  0.00000000E+00  0.00000000E+00
  0.00000000E+00  0.00000000E+00  0.00000000E+00
  0.00000000E+00  0.00000000E+00  0.00000000E+00
  0.00000000E+00  0.00000000E+00  0.00000000E+00
  0.00000000E+00  0.00000000E+00  0.00000000E+00
  0.00000000E+00  0.00000000E+00  0.00000000E+00
  0.00000000E+00  0.00000000E+00  0.00000000E+00
  0.00000000E+00  0.00000000E+00  0.00000000E+00
  0.00000000E+00  0.00000000E+00  0.00000000E+00
  0.00000000E+00  0.00000000E+00  0.00000000E+00
  0.00000000E+00  0.00000000E+00  0.00000000E+00
  0.00000000E+00  0.00000000E+00  0.00000000E+00
  0.00000000E+00  0.00000000E+00  0.00000000E+00
  0.00000000E+00  0.00000000E+00  0.00000000E+00
  0.00000000E+00  0.00000000E+00  0.00000000E+00
  0.00000000E+00  0.00000000E+00  0.00000000E+00
  0.00000000E+00  0.00000000E+00  0.00000000E+00
  0.00000000E+00  0.00000000E+00  0.00000000E+00
  0.00000000E+00  0.00000000E+00  0.00000000E+00
  0.00000000E+00  0.00000000E+00  0.00000000E+00
  0.00000000E+00  0.00000000E+00  0.00000000E+00
  0.00000000E+00  0.00000000E+00  0.00000000E+00
  0.00000000E+00  0.00000000E+00  0.00000000E+00
  0.00000000E+00  0.00000000E+00  0.00000000E+00
  0.00000000E+00  0.00000000E+00  0.00000000E+00
  0.00000000E+00  0.00000000E+00  0.00000000E+00
  0.00000000E+00  0.00000000E+00  0.00000000E+00
  0.00000000E+00  0.00000000E+00  0.00000000E+00
  0.00000000E+00  0.00000000E+00  0.00000000E+00
  0.00000000E+00  0.00000000E+00  0.00000000E+00
  0.00000000E+00  0.00000000E+00  0.00000000E+00
  0.00000000E+00  0.00000000E+00  0.00000000E+00
  0.00000000E+00  0.00000000E+00  0.00000000E+00
  0.00000000E+00  0.00000000E+00  0.00000000E+00
  0.00000000E+00  0.00000000E+00  0.00000000E+00
  0.00000000E+00  0.00000000E+00  0.00000000E+00
  0.00000000E+00  0.00000000E+00  0.00000000E+00
  0.00000000E+00  0.00000000E+00  0.00000000E+00
  0.00000000E+00  0.00000000E+00  0.00000000E+00
  0.00000000E+00  0.00000000E+00  0.00000000E+00
  0.00000000E+00  0.00000000E+00  0.00000000E+00
  0.00000000E+00  0.00000000E+00  0.00000000E+00
  0.00000000E+00  0.00000000E+00  0.00000000E+00
  0.00000000E+00  0.00000000E+00  0.00000000E+00
  0.00000000E+00  0.00000000E+00  0.00000000E+00
  0.00000000E+00  0.00000000E+00  0.00000000E+00
  0.00000000E+00  0.00000000E+00  0.00000000E+00
  0.00000000E+00  0.00000000E+00  0.00000000E+00
  0.00000000E+00  0.00000000E+00  0.00000000E+00
  0.00000000E+00  0.00000000E+00  0.00000000E+00
  0.00000000E+00  0.00000000E+00  0.00000000E+00
  0.00000000E+00  0.00000000E+00  0.00000000E+00
  0.00000000E+00  0.00000000E+00  0.00000000E+00
  0.00000000E+00  0.00000000E+00  0.00000000E+00
  0.00000000E+00  0.00000000E+00  0.00000000E+00
  0.00000000E+00  0.00000000E+00  0.00000000E+00
  0.00000000E+00  0.00000000E+00  0.00000000E+00
  0.00000000E+00  0.00000000E+00  0.00000000E+00
  0.00000000E+00  0.00000000E+00  0.00000000E+00
  0.00000000E+00  0.00000000E+00  0.00000000E+00
  0.00000000E+00  0.00000000E+00  0.00000000E+00
  0.00000000E+00  0.00000000E+00  0.00000000E+00
  0.00000000E+00  0.00000000E+00  0.00000000E+00
  0.00000000E+00  0.00000000E+00  0.00000000E+00
  0.00000000E+00  0.00000000E+00  0.00000000E+00
  0.00000000E+00  0.00000000E+00  0.00000000E+00
  0.00000000E+00  0.00000000E+00  0.00000000E+00
  0.00000000E+00  0.00000000E+00  0.00000000E+00
  0.00000000E+00  0.00000000E+00  0.00000000E+00
  0.00000000E+00  0.00000000E+00  0.00000000E+00
  0.00000000E+00  0.00000000E+00  0.00000000E+00
  0.00000000E+00  0.00000000E+00  0.00000000E+00
  0.00000000E+00  0.00000000E+00  0.00000000E+00
  0.00000000E+00  0.00000000E+00  0.00000000E+00
  0.00000000E+00  0.00000000E+00  0.00000000E+00
  0.00000000E+00  0.00000000E+00  0.00000000E+00
  0.00000000E+00  0.00000000E+00  0.00000000E+00
  0.00000000E+00  0.00000000E+00  0.00000000E+00
  0.00000000E+00  0.00000000E+00  0.00000000E+00
  0.00000000E+00  0.00000000E+00  0.00000000E+00
  0.00000000E+00  0.00000000E+00  0.00000000E+00
  0.00000000E+00  0.00000000E+00  0.00000000E+00
  0.00000000E+00  0.00000000E+00  0.00000000E+00
  0.00000000E+00  0.00000000E+00  0.00000000E+00
  0.00000000E+00  0.00000000E+00  0.00000000E+00
  0.00000000E+00  0.00000000E+00  0.00000000E+00
  0.00000000E+00  0.00000000E+00  0.00000000E+00
  0.00000000E+00  0.00000000E+00  0.00000000E+00
  0.00000000E+00  0.00000000E+00  0.00000000E+00
  0.00000000E+00  0.00000000E+00  0.00000000E+00
  0.00000000E+00  0.00000000E+00  0.00000000E+00
  0.00000000E+00  0.00000000E+00  0.00000000E+00
  0.00000000E+00  0.00000000E+00  0.00000000E+00
  0.00000000E+00  0.00000000E+00  0.00000000E+00
  0.00000000E+00  0.00000000E+00  0.00000000E+00
  0.00000000E+00  0.00000000E+00  0.00000000E+00
  0.00000000E+00  0.00000000E+00  0.00000000E+00
  0.00000000E+00  0.00000000E+00  0.00000000E+00
  0.00000000E+00  0.00000000E+00  0.00000000E+00
  0.00000000E+00  0.00000000E+00  0.00000000E+00
  0.00000000E+00  0.00000000E+00  0.00000000E+00
  0.00000000E+00  0.00000000E+00  0.00000000E+00
  0.00000000E+00  0.00000000E+00  0.00000000E+00
  0.00000000E+00  0.00000000E+00  0.00000000E+00
  0.00000000E+00  0.00000000E+00  0.00000000E+00
  0.00000000E+00  0.00000000E+00  0.00000000E+00
  0.00000000E+00  0.00000000E+00  0.00000000E+00
  0.00000000E+00  0.00000000E+00  0.00000000E+00
  0.00000000E+00  0.00000000E+00  0.00000000E+00
  0.00000000E+00  0.00000000E+00  0.00000000E+00
  0.00000000E+00  0.00000000E+00  0.00000000E+00
  0.00000000E+00  0.00000000E+00  0.00000000E+00
  0.00000000E+00  0.00000000E+00  0.00000000E+00
  0.00000000E+00  0.00000000E+00  0.00000000E+00
  0.00000000E+00  0.00000000E+00  0.00000000E+00
  0.00000000E+00  0.00000000E+00  0.00000000E+00
  0.00000000E+00  0.00000000E+00  0.00000000E+00
  0.00000000E+00  0.00000000E+00  0.00000000E+00
  0.00000000E+00  0.00000000E+00  0.00000000E+00
  0.00000000E+00  0.00000000E+00  0.00000000E+00
  0.00000000E+00  0.00000000E+00  0.00000000E+00
  0.00000000E+00  0.00000000E+00  0.00000000E+00
  0.00000000E+00  0.00000000E+00  0.00000000E+00
