Mo1 C123 N3                             
   1.00000000000000     
    19.8218336219204829    0.0295644341823493    0.0032014810091638
    -9.8853415843765067   17.0343929890617645   -0.0074948556508708
     0.0049229966158514   -0.0103762435383493   29.7752826249635945
   Mo   C    N 
     1   123     3
Direct
  0.4376355739826169  0.4994363633436365  0.4299266036845678
  0.0414351713740635  0.0834843194298845  0.3994588870247779
  0.0403038971850430  0.2076254418005974  0.3994317157984489
  0.0396258493137879  0.3326211179182871  0.3992656422838818
  0.0401817983919726  0.4580457037288789  0.3993038789943743
  0.0414693460935870  0.5836224182443808  0.3997995526567641
  0.0424466092788506  0.7091110232002407  0.4000167880393051
  0.0426658996498232  0.8343172958239871  0.3999991109351629
  0.0423561763024820  0.9592386112884996  0.3997796689360785
  0.1673494585596484  0.0847534703731113  0.3998944374545491
  0.1660670659786336  0.2088603723615697  0.3996720973930962
  0.1637735332201738  0.3326474096697326  0.4001651333064623
  0.1635670131741893  0.4579484282712051  0.3986321669003716
  0.1652104101985279  0.5834108447226812  0.3990719691111829
  0.1666340122520056  0.7087322095818164  0.3997625604430164
  0.1672754039247377  0.8341743306254856  0.4000481779765457
  0.1674559630527770  0.9596194310101385  0.4000209190644389
  0.2923392857978824  0.0853327290144360  0.3999119576343673
  0.2924754606936894  0.2117792868087529  0.4008508724173682
  0.2895617908585280  0.3357617450313053  0.4042473613802708
  0.2860529177196396  0.4564960992065553  0.4028936929827433
  0.2884278759363664  0.5822120553373774  0.3991987945610087
  0.2909799021921924  0.7079761954334585  0.3992458258906509
  0.2918382771681037  0.8336621392832093  0.3997588983767513
  0.2921718566682322  0.9593084651377219  0.3999230719931342
  0.4168999292812266  0.0841356198193626  0.3997712331830964
  0.4173240091095222  0.2103524083686461  0.3998821216388861
  0.4185679037022202  0.3379551855291938  0.4017749783168260
  0.4152580133896183  0.7056666591200724  0.3999150658629288
  0.4163297611837428  0.8320884276803060  0.3996615972916184
  0.4167195515411778  0.9581909749372273  0.3997995351809291
  0.5414135406189906  0.0828007403128507  0.3998657826878431
  0.5418330482089176  0.2086235942158550  0.3995394989882044
  0.5428537032880980  0.3345378053998264  0.3993684408142002
  0.5470826201142617  0.4607225700985341  0.4015772564101486
  0.5394748909071937  0.7024595290382619  0.4029423835864938
  0.5408259870629544  0.8304727593210107  0.4002577710662908
  0.5411886007807194  0.9569170283943718  0.3998823687070241
  0.6659811339368549  0.0822231422102827  0.4000336297766463
  0.6662904616967239  0.2076833973917923  0.3998788004930284
  0.6672066081547399  0.3331944899207365  0.3993851715361549
  0.6697518751981916  0.4590651126875067  0.3990058273246824
  0.6719129311738660  0.5849146622444307  0.3998451717016498
  0.6685521834105848  0.7079468210568954  0.4005605275801929
  0.6653529328403942  0.8309821112226116  0.4002714330804480
  0.6656994816105442  0.9566734175792158  0.4000467256314376
  0.7906380863320452  0.0821299923164023  0.3999988744410179
  0.7908337007050711  0.2074391324590534  0.4000599262942799
  0.7914415711560611  0.3328353910594939  0.3998852027322611
  0.7928871432068031  0.4583901227508935  0.3993906176381050
  0.7944101830271233  0.5840920128097843  0.3988284741069806
  0.7942938120052734  0.7095144830055897  0.3992482944713186
  0.7920897880683451  0.8332088123937113  0.3992484204950965
  0.7907646874401177  0.9571267553755617  0.3997084955756038
  0.9157260587235427  0.0825310334910535  0.3996485621849722
  0.9153926670512842  0.2073533331582514  0.3998003225930069
  0.9155709770002384  0.3326673478983793  0.3998164865578455
  0.9165340911005119  0.4582294097084237  0.3998554497410176
  0.9178376801421082  0.5838335436369040  0.3997278577474185
  0.9182724424051223  0.7091956842936964  0.3995616487913776
  0.9179066479153423  0.8342707320953010  0.3995323229425174
  0.9167197264221392  0.9583737392883843  0.3995255212083489
  0.0838974723190676  0.0426507392631796  0.3996821118841908
  0.0827358207497497  0.1668236309245417  0.3993299041474529
  0.0812336183346194  0.2909525075637926  0.3994704651582389
  0.0809281957812461  0.4159511599503077  0.3988666898327138
  0.0822997222018741  0.5416210951108349  0.3993843039459374
  0.0835610886557999  0.6671425019740842  0.3999107207159595
  0.0841145700873489  0.7925202790528456  0.4000878842979766
  0.0842153287321752  0.9177802298679629  0.3999826940971830
  0.2090139781475067  0.0431187386724579  0.3999785140343990
  0.2089052864940326  0.1684267300898169  0.4001459399089704
  0.2065772611959791  0.2921452447254299  0.4007104101279026
  0.2043315488974129  0.4159998531222569  0.3998597549378461
  0.2055829884800661  0.5410352268125933  0.3987785458395942
  0.2076443294675756  0.6667528190235967  0.3993488314578338
  0.2086543391109144  0.7922896272854489  0.3998968777573325
  0.2089791022477874  0.9177140370589596  0.4000163288417193
  0.3337661628074703  0.0430269500776623  0.3998508121342129
  0.3339257297752039  0.1692075427782966  0.4001298706991783
  0.3338990105122615  0.2959760501315045  0.4026574476662879
  0.3288442134829839  0.5404951746658850  0.4009234377429857
  0.3317953554605436  0.6657110431905097  0.3992076717532011
  0.3331895441881510  0.7914895954500241  0.3995299639577418
  0.3335453541070480  0.9171645994189256  0.3998477773121510
  0.4582663752005601  0.0417606594960969  0.3998062039369273
  0.4585618915969535  0.1678277268491478  0.3996605527164593
  0.4593045366276102  0.2941956984237136  0.3999942229173271
  0.4645055022993407  0.4208242411298814  0.4033737373846124
  0.4547665097427152  0.6610953591268971  0.4017857848784879
  0.4575537235097354  0.7894372663060000  0.3998769951165351
  0.4580502852222280  0.9158355651281269  0.3997775059785766
  0.5827742935994626  0.0406213714201042  0.3999497682709368
  0.5831401332679255  0.1663889291390167  0.3997644862512937
  0.5838589810769691  0.2920595927155307  0.3992868143716737
  0.5869004007442590  0.4180764110121256  0.3995831660186471
  0.5908892377161266  0.5448129238258073  0.4031473135719859
  0.5853709639845580  0.6637264742901847  0.4043044565929284
  0.5815183050445472  0.7874175725098269  0.4011035536823358
  0.5825325739530179  0.9145321328483244  0.3999901151906951
  0.7074011602147423  0.0402915488249520  0.4000423085335159
  0.7076936959209815  0.1657590232012549  0.4000362593797846
  0.7082835584096145  0.2912295088514526  0.3997486624125985
  0.7100025428517429  0.4166733941463218  0.3991554424744687
  0.7120366870711922  0.5422354630208357  0.3987048797097064
  0.7118022539364122  0.6679991110561011  0.3999432427693297
  0.7087842063634807  0.7911230066055108  0.3996281298294218
  0.7071646495524798  0.9148140905820527  0.3999616417484856
  0.8324378189503086  0.0406570213041228  0.3998078594884747
  0.8323239006470614  0.1656576090938597  0.4000087928534948
  0.8325782051558436  0.2908781224383467  0.3999862495596098
  0.8336472819852231  0.4163176103873508  0.3997639520735604
  0.8350927209385525  0.5419695128313780  0.3992937899252312
  0.8356417558263171  0.6675766463212410  0.3991308511751424
  0.8348598990075571  0.7926315489001911  0.3992815953798905
  0.8333829043005593  0.9165101216103386  0.3994538712050533
  0.9581319831923264  0.0416470042421962  0.3995411520720498
  0.9571591650032277  0.1658449287977047  0.3996106432377101
  0.9568546771166012  0.2908541562967359  0.3996342710785594
  0.9573701187273773  0.4161818934905490  0.3997379788983221
  0.9586026946056551  0.5417118479046478  0.3998690947527190
  0.9595261994938574  0.6672999744837659  0.3998048770420402
  0.9596052279763371  0.7926933306837687  0.3997410308513698
  0.9591604457884132  0.9175247040943812  0.3996128518777344
  0.4099009626134845  0.5800819732196559  0.4026895771559021
  0.5513406555423002  0.5847295777755235  0.4095779813498995
  0.3249429151062312  0.4155244804672212  0.4098447944162822
 
  0.00000000E+00  0.00000000E+00  0.00000000E+00
  0.00000000E+00  0.00000000E+00  0.00000000E+00
  0.00000000E+00  0.00000000E+00  0.00000000E+00
  0.00000000E+00  0.00000000E+00  0.00000000E+00
  0.00000000E+00  0.00000000E+00  0.00000000E+00
  0.00000000E+00  0.00000000E+00  0.00000000E+00
  0.00000000E+00  0.00000000E+00  0.00000000E+00
  0.00000000E+00  0.00000000E+00  0.00000000E+00
  0.00000000E+00  0.00000000E+00  0.00000000E+00
  0.00000000E+00  0.00000000E+00  0.00000000E+00
  0.00000000E+00  0.00000000E+00  0.00000000E+00
  0.00000000E+00  0.00000000E+00  0.00000000E+00
  0.00000000E+00  0.00000000E+00  0.00000000E+00
  0.00000000E+00  0.00000000E+00  0.00000000E+00
  0.00000000E+00  0.00000000E+00  0.00000000E+00
  0.00000000E+00  0.00000000E+00  0.00000000E+00
  0.00000000E+00  0.00000000E+00  0.00000000E+00
  0.00000000E+00  0.00000000E+00  0.00000000E+00
  0.00000000E+00  0.00000000E+00  0.00000000E+00
  0.00000000E+00  0.00000000E+00  0.00000000E+00
  0.00000000E+00  0.00000000E+00  0.00000000E+00
  0.00000000E+00  0.00000000E+00  0.00000000E+00
  0.00000000E+00  0.00000000E+00  0.00000000E+00
  0.00000000E+00  0.00000000E+00  0.00000000E+00
  0.00000000E+00  0.00000000E+00  0.00000000E+00
  0.00000000E+00  0.00000000E+00  0.00000000E+00
  0.00000000E+00  0.00000000E+00  0.00000000E+00
  0.00000000E+00  0.00000000E+00  0.00000000E+00
  0.00000000E+00  0.00000000E+00  0.00000000E+00
  0.00000000E+00  0.00000000E+00  0.00000000E+00
  0.00000000E+00  0.00000000E+00  0.00000000E+00
  0.00000000E+00  0.00000000E+00  0.00000000E+00
  0.00000000E+00  0.00000000E+00  0.00000000E+00
  0.00000000E+00  0.00000000E+00  0.00000000E+00
  0.00000000E+00  0.00000000E+00  0.00000000E+00
  0.00000000E+00  0.00000000E+00  0.00000000E+00
  0.00000000E+00  0.00000000E+00  0.00000000E+00
  0.00000000E+00  0.00000000E+00  0.00000000E+00
  0.00000000E+00  0.00000000E+00  0.00000000E+00
  0.00000000E+00  0.00000000E+00  0.00000000E+00
  0.00000000E+00  0.00000000E+00  0.00000000E+00
  0.00000000E+00  0.00000000E+00  0.00000000E+00
  0.00000000E+00  0.00000000E+00  0.00000000E+00
  0.00000000E+00  0.00000000E+00  0.00000000E+00
  0.00000000E+00  0.00000000E+00  0.00000000E+00
  0.00000000E+00  0.00000000E+00  0.00000000E+00
  0.00000000E+00  0.00000000E+00  0.00000000E+00
  0.00000000E+00  0.00000000E+00  0.00000000E+00
  0.00000000E+00  0.00000000E+00  0.00000000E+00
  0.00000000E+00  0.00000000E+00  0.00000000E+00
  0.00000000E+00  0.00000000E+00  0.00000000E+00
  0.00000000E+00  0.00000000E+00  0.00000000E+00
  0.00000000E+00  0.00000000E+00  0.00000000E+00
  0.00000000E+00  0.00000000E+00  0.00000000E+00
  0.00000000E+00  0.00000000E+00  0.00000000E+00
  0.00000000E+00  0.00000000E+00  0.00000000E+00
  0.00000000E+00  0.00000000E+00  0.00000000E+00
  0.00000000E+00  0.00000000E+00  0.00000000E+00
  0.00000000E+00  0.00000000E+00  0.00000000E+00
  0.00000000E+00  0.00000000E+00  0.00000000E+00
  0.00000000E+00  0.00000000E+00  0.00000000E+00
  0.00000000E+00  0.00000000E+00  0.00000000E+00
  0.00000000E+00  0.00000000E+00  0.00000000E+00
  0.00000000E+00  0.00000000E+00  0.00000000E+00
  0.00000000E+00  0.00000000E+00  0.00000000E+00
  0.00000000E+00  0.00000000E+00  0.00000000E+00
  0.00000000E+00  0.00000000E+00  0.00000000E+00
  0.00000000E+00  0.00000000E+00  0.00000000E+00
  0.00000000E+00  0.00000000E+00  0.00000000E+00
  0.00000000E+00  0.00000000E+00  0.00000000E+00
  0.00000000E+00  0.00000000E+00  0.00000000E+00
  0.00000000E+00  0.00000000E+00  0.00000000E+00
  0.00000000E+00  0.00000000E+00  0.00000000E+00
  0.00000000E+00  0.00000000E+00  0.00000000E+00
  0.00000000E+00  0.00000000E+00  0.00000000E+00
  0.00000000E+00  0.00000000E+00  0.00000000E+00
  0.00000000E+00  0.00000000E+00  0.00000000E+00
  0.00000000E+00  0.00000000E+00  0.00000000E+00
  0.00000000E+00  0.00000000E+00  0.00000000E+00
  0.00000000E+00  0.00000000E+00  0.00000000E+00
  0.00000000E+00  0.00000000E+00  0.00000000E+00
  0.00000000E+00  0.00000000E+00  0.00000000E+00
  0.00000000E+00  0.00000000E+00  0.00000000E+00
  0.00000000E+00  0.00000000E+00  0.00000000E+00
  0.00000000E+00  0.00000000E+00  0.00000000E+00
  0.00000000E+00  0.00000000E+00  0.00000000E+00
  0.00000000E+00  0.00000000E+00  0.00000000E+00
  0.00000000E+00  0.00000000E+00  0.00000000E+00
  0.00000000E+00  0.00000000E+00  0.00000000E+00
  0.00000000E+00  0.00000000E+00  0.00000000E+00
  0.00000000E+00  0.00000000E+00  0.00000000E+00
  0.00000000E+00  0.00000000E+00  0.00000000E+00
  0.00000000E+00  0.00000000E+00  0.00000000E+00
  0.00000000E+00  0.00000000E+00  0.00000000E+00
  0.00000000E+00  0.00000000E+00  0.00000000E+00
  0.00000000E+00  0.00000000E+00  0.00000000E+00
  0.00000000E+00  0.00000000E+00  0.00000000E+00
  0.00000000E+00  0.00000000E+00  0.00000000E+00
  0.00000000E+00  0.00000000E+00  0.00000000E+00
  0.00000000E+00  0.00000000E+00  0.00000000E+00
  0.00000000E+00  0.00000000E+00  0.00000000E+00
  0.00000000E+00  0.00000000E+00  0.00000000E+00
  0.00000000E+00  0.00000000E+00  0.00000000E+00
  0.00000000E+00  0.00000000E+00  0.00000000E+00
  0.00000000E+00  0.00000000E+00  0.00000000E+00
  0.00000000E+00  0.00000000E+00  0.00000000E+00
  0.00000000E+00  0.00000000E+00  0.00000000E+00
  0.00000000E+00  0.00000000E+00  0.00000000E+00
  0.00000000E+00  0.00000000E+00  0.00000000E+00
  0.00000000E+00  0.00000000E+00  0.00000000E+00
  0.00000000E+00  0.00000000E+00  0.00000000E+00
  0.00000000E+00  0.00000000E+00  0.00000000E+00
  0.00000000E+00  0.00000000E+00  0.00000000E+00
  0.00000000E+00  0.00000000E+00  0.00000000E+00
  0.00000000E+00  0.00000000E+00  0.00000000E+00
  0.00000000E+00  0.00000000E+00  0.00000000E+00
  0.00000000E+00  0.00000000E+00  0.00000000E+00
  0.00000000E+00  0.00000000E+00  0.00000000E+00
  0.00000000E+00  0.00000000E+00  0.00000000E+00
  0.00000000E+00  0.00000000E+00  0.00000000E+00
  0.00000000E+00  0.00000000E+00  0.00000000E+00
  0.00000000E+00  0.00000000E+00  0.00000000E+00
  0.00000000E+00  0.00000000E+00  0.00000000E+00
  0.00000000E+00  0.00000000E+00  0.00000000E+00
  0.00000000E+00  0.00000000E+00  0.00000000E+00
  0.00000000E+00  0.00000000E+00  0.00000000E+00
  0.00000000E+00  0.00000000E+00  0.00000000E+00
