Cr1 H1 C124 N2                          
   1.00000000000000     
    19.8047492152243549   -0.0303125655871651   -0.0172186777147156
    -9.9287244085831698   17.0567954552957239   -0.0154663142974820
    -0.0259726069557180   -0.0421319681500513   29.8142297648379575
   Cr   H    C    N 
     1     1   124     2
Direct
  0.4379478293807175  0.5006650684372537  0.4225543514189408
  0.4439775863097016  0.5063343805029888  0.4767840212795419
  0.0424184250478717  0.0844321355102119  0.3998601728687705
  0.0419349973023108  0.2088006505030390  0.3996714715347517
  0.0412173569571517  0.3333054729345812  0.3996375905251128
  0.0408370232192693  0.4585055801619833  0.3996706668066061
  0.0411789540287373  0.5838669116621865  0.3998126965299659
  0.0416362999165791  0.7091359477398579  0.3999382349392807
  0.0419481084469712  0.8343964328930422  0.4000241012905744
  0.0422872268088854  0.9595874460562833  0.3999877860960581
  0.1681845922759518  0.0858198704876207  0.3999297679408854
  0.1683519920302604  0.2108581186470262  0.4001492600183685
  0.1669145328522931  0.3347491841206534  0.3999247387021416
  0.1648845652381133  0.4590773475659869  0.3999663454794650
  0.1651698701333778  0.5840591204201389  0.3994978293615735
  0.1660425878471164  0.7092949793767419  0.3997007373751613
  0.1666650630634236  0.8345574985790890  0.3999094864752882
  0.1672962129100245  0.9599954669112227  0.3999842572338217
  0.2926784714001619  0.0853514955822638  0.4000302865166361
  0.2946262617150395  0.2126251453614018  0.4011585584109882
  0.2949600980614426  0.3389450730998118  0.4011174195082100
  0.2895636049123468  0.4604530191992645  0.4010418626417772
  0.2889452196457533  0.5848410652300390  0.4008147560186862
  0.2903748724151883  0.7094077677302636  0.3999049429157758
  0.2912961873977911  0.8342974792048683  0.3997139438705025
  0.2918908793049466  0.9595595712097681  0.3998095043714935
  0.4171362862583650  0.0838005378570775  0.3997046755978840
  0.4179288095750777  0.2094715428570735  0.4003498548230693
  0.4214931467101472  0.3372815451523160  0.4041739139508002
  0.4144850697195551  0.7072440011363293  0.4012771371440456
  0.4158864514864554  0.8329208249685176  0.3997781054468440
  0.4165241789257075  0.9583606951338479  0.3997070095169754
  0.5417470971726477  0.0824302905451841  0.3997575703333493
  0.5423831130624278  0.2075606365376945  0.3997338616905569
  0.5436464470344412  0.3323524211835702  0.4008029962686324
  0.5447033871731228  0.4553981853485795  0.4029523466576975
  0.5419652966113087  0.5779395305149637  0.4011719068877892
  0.5379296233511413  0.7033143436468101  0.4022811488727266
  0.5402364230858444  0.8310198692160675  0.4004595515731534
  0.5411682535129947  0.9569882733091847  0.3998147298865155
  0.6664029915486132  0.0819428676157564  0.3999653395756261
  0.6669880910922372  0.2072229828583602  0.3998173284736194
  0.6678374845780336  0.3324347370763643  0.3995804655427531
  0.6690930616687669  0.4577019197285721  0.3995653323982400
  0.6683407222154418  0.5819245690377726  0.3999976448822046
  0.6647715587726406  0.7053005494501490  0.4001018735679909
  0.6645834233321025  0.8303281904380344  0.4001814377981569
  0.6657595567071619  0.9564404294776878  0.3999604121252258
  0.7912336064088049  0.0820534498420453  0.4000294414592456
  0.7916206723608071  0.2072457223033561  0.3999850648675095
  0.7921612386754192  0.3325758105939077  0.3998229143596254
  0.7927891531334432  0.4579455323878610  0.3995940420593381
  0.7929416672752335  0.5831414227899505  0.3995454117173146
  0.7917229683025364  0.7078238525057342  0.3995056294639948
  0.7906331196991077  0.8319632602029716  0.3997719081613677
  0.7906299839959042  0.9567367288655362  0.3998473439330542
  0.9164544216804718  0.0828325932594018  0.3999505506341899
  0.9164833704395003  0.2076965165866012  0.3999461499787044
  0.9165040196877063  0.3328306835009475  0.3999288064622041
  0.9167535793357930  0.4581411386163888  0.3999142307251827
  0.9171419069628662  0.5835857644460830  0.3998887807586419
  0.9170016611447392  0.7087821871773299  0.3998744091951860
  0.9167369774195326  0.8336265825864202  0.3998741716844555
  0.9165024160641909  0.9582147674110627  0.3999264197742864
  0.0844334130385414  0.0433356010447821  0.3998828112863240
  0.0844478551642173  0.1681030708003416  0.3998330619790738
  0.0833273011713984  0.2922307991431209  0.3995933791820184
  0.0821468701149086  0.4169143671979638  0.3996460360940380
  0.0822362310408818  0.5420655333424811  0.3996174608343628
  0.0828446377026759  0.6673994568630223  0.3998085307765177
  0.0833873289113778  0.7927464943125875  0.3999592510393237
  0.0838166055258508  0.9179959898903245  0.4000184679048092
  0.2093039070148893  0.0436343080382389  0.3999732152774310
  0.2104957219198082  0.1697743418789318  0.4002869234448217
  0.2102982869523941  0.2947788544717554  0.4003015625562830
  0.2067638896533957  0.4181190667632721  0.4003758512995886
  0.2060052234120016  0.5423713740671363  0.3997855234498776
  0.2071904747786028  0.6676151900068157  0.3996149742440663
  0.2080095865571078  0.7928029283057659  0.3997817503736383
  0.2086128677634694  0.9180895842536179  0.3999402141900313
  0.3338321935176356  0.0430633874102889  0.3998014034641609
  0.3348169211554622  0.1690904077700653  0.4005732612116973
  0.3372267882536980  0.2968467668678926  0.4026037813829016
  0.3332347967078148  0.4221516725485454  0.4008456027085212
  0.3304744080803185  0.5447525067691873  0.4028848575217487
  0.3314531308392760  0.6677633061807969  0.4007852293553398
  0.3326362065564053  0.7925150008972143  0.3997493767466676
  0.3332841245631484  0.9176336131999251  0.3997286354593177
  0.4584879300611986  0.0416898094346148  0.3997127365701837
  0.4591263546484705  0.1671472628044083  0.3997727924740822
  0.4605875913451880  0.2929013918981717  0.4014521978512469
  0.4536667190650922  0.6629405316765249  0.4037900261989585
  0.4571287659922597  0.7906571773203048  0.4002665972565715
  0.4578787732884028  0.9162591815834644  0.3997183223351576
  0.5831204347838254  0.0404787010280508  0.3998409527382297
  0.5837079408755087  0.1657529716219233  0.3997259637007670
  0.5846669346668312  0.2906850520273148  0.3998796448827664
  0.5861689524709980  0.4152740359363038  0.4006754109845856
  0.5856234302803656  0.5395843225455760  0.4008881593831563
  0.5801580655400668  0.6612285808312274  0.4009422780805698
  0.5804888705859264  0.7875290423645835  0.4009473857025430
  0.5823670237489853  0.9147337590027396  0.4000106170874925
  0.7077574783798298  0.0400557948089720  0.3999945479304785
  0.7083441299759251  0.1654547036868576  0.3999568373386114
  0.7090004395851538  0.2907439344074154  0.3997109667556469
  0.7099065238602321  0.4160011048777859  0.3994095385183791
  0.7102491958277030  0.5410028351529306  0.3996835081678712
  0.7081707986507829  0.6653183798997061  0.3996960460635730
  0.7067232938052925  0.7892255612608532  0.4000243521990237
  0.7068942138713630  0.9142769948615351  0.3998942887646376
  0.8327982951653152  0.0404784186718215  0.3999676213458367
  0.8331090759445432  0.1656393512422415  0.4000281763810856
  0.8334071984166478  0.2908569476296992  0.3999398418379357
  0.8338459691533945  0.4161212794634661  0.3998150470219297
  0.8342170820042389  0.5415138242432936  0.3996701435146021
  0.8338652320229497  0.6667630258921764  0.3995920774167666
  0.8331531979842891  0.7912751595475579  0.3996486650953306
  0.8326815608014601  0.9156546727188772  0.3998329937702732
  0.9585899306683219  0.0418585169105316  0.3999191063057159
  0.9583479676063772  0.1664343828727353  0.3998461097994727
  0.9580581592636594  0.2912641311596481  0.3998502017920693
  0.9578826114230584  0.4163969560305602  0.3998603204092906
  0.9582664979976919  0.5418249098176942  0.3999208541284457
  0.9585203000951937  0.6671565293653623  0.3999555248165954
  0.9585771547472252  0.7923466493043807  0.3999626756852207
  0.9586259773463958  0.9172323521715512  0.3999800460541041
  0.4099590575145687  0.5827072085627223  0.4072712792331791
  0.4653270453382585  0.4176147480472689  0.4078002742465464
 
  0.00000000E+00  0.00000000E+00  0.00000000E+00
  0.00000000E+00  0.00000000E+00  0.00000000E+00
  0.00000000E+00  0.00000000E+00  0.00000000E+00
  0.00000000E+00  0.00000000E+00  0.00000000E+00
  0.00000000E+00  0.00000000E+00  0.00000000E+00
  0.00000000E+00  0.00000000E+00  0.00000000E+00
  0.00000000E+00  0.00000000E+00  0.00000000E+00
  0.00000000E+00  0.00000000E+00  0.00000000E+00
  0.00000000E+00  0.00000000E+00  0.00000000E+00
  0.00000000E+00  0.00000000E+00  0.00000000E+00
  0.00000000E+00  0.00000000E+00  0.00000000E+00
  0.00000000E+00  0.00000000E+00  0.00000000E+00
  0.00000000E+00  0.00000000E+00  0.00000000E+00
  0.00000000E+00  0.00000000E+00  0.00000000E+00
  0.00000000E+00  0.00000000E+00  0.00000000E+00
  0.00000000E+00  0.00000000E+00  0.00000000E+00
  0.00000000E+00  0.00000000E+00  0.00000000E+00
  0.00000000E+00  0.00000000E+00  0.00000000E+00
  0.00000000E+00  0.00000000E+00  0.00000000E+00
  0.00000000E+00  0.00000000E+00  0.00000000E+00
  0.00000000E+00  0.00000000E+00  0.00000000E+00
  0.00000000E+00  0.00000000E+00  0.00000000E+00
  0.00000000E+00  0.00000000E+00  0.00000000E+00
  0.00000000E+00  0.00000000E+00  0.00000000E+00
  0.00000000E+00  0.00000000E+00  0.00000000E+00
  0.00000000E+00  0.00000000E+00  0.00000000E+00
  0.00000000E+00  0.00000000E+00  0.00000000E+00
  0.00000000E+00  0.00000000E+00  0.00000000E+00
  0.00000000E+00  0.00000000E+00  0.00000000E+00
  0.00000000E+00  0.00000000E+00  0.00000000E+00
  0.00000000E+00  0.00000000E+00  0.00000000E+00
  0.00000000E+00  0.00000000E+00  0.00000000E+00
  0.00000000E+00  0.00000000E+00  0.00000000E+00
  0.00000000E+00  0.00000000E+00  0.00000000E+00
  0.00000000E+00  0.00000000E+00  0.00000000E+00
  0.00000000E+00  0.00000000E+00  0.00000000E+00
  0.00000000E+00  0.00000000E+00  0.00000000E+00
  0.00000000E+00  0.00000000E+00  0.00000000E+00
  0.00000000E+00  0.00000000E+00  0.00000000E+00
  0.00000000E+00  0.00000000E+00  0.00000000E+00
  0.00000000E+00  0.00000000E+00  0.00000000E+00
  0.00000000E+00  0.00000000E+00  0.00000000E+00
  0.00000000E+00  0.00000000E+00  0.00000000E+00
  0.00000000E+00  0.00000000E+00  0.00000000E+00
  0.00000000E+00  0.00000000E+00  0.00000000E+00
  0.00000000E+00  0.00000000E+00  0.00000000E+00
  0.00000000E+00  0.00000000E+00  0.00000000E+00
  0.00000000E+00  0.00000000E+00  0.00000000E+00
  0.00000000E+00  0.00000000E+00  0.00000000E+00
  0.00000000E+00  0.00000000E+00  0.00000000E+00
  0.00000000E+00  0.00000000E+00  0.00000000E+00
  0.00000000E+00  0.00000000E+00  0.00000000E+00
  0.00000000E+00  0.00000000E+00  0.00000000E+00
  0.00000000E+00  0.00000000E+00  0.00000000E+00
  0.00000000E+00  0.00000000E+00  0.00000000E+00
  0.00000000E+00  0.00000000E+00  0.00000000E+00
  0.00000000E+00  0.00000000E+00  0.00000000E+00
  0.00000000E+00  0.00000000E+00  0.00000000E+00
  0.00000000E+00  0.00000000E+00  0.00000000E+00
  0.00000000E+00  0.00000000E+00  0.00000000E+00
  0.00000000E+00  0.00000000E+00  0.00000000E+00
  0.00000000E+00  0.00000000E+00  0.00000000E+00
  0.00000000E+00  0.00000000E+00  0.00000000E+00
  0.00000000E+00  0.00000000E+00  0.00000000E+00
  0.00000000E+00  0.00000000E+00  0.00000000E+00
  0.00000000E+00  0.00000000E+00  0.00000000E+00
  0.00000000E+00  0.00000000E+00  0.00000000E+00
  0.00000000E+00  0.00000000E+00  0.00000000E+00
  0.00000000E+00  0.00000000E+00  0.00000000E+00
  0.00000000E+00  0.00000000E+00  0.00000000E+00
  0.00000000E+00  0.00000000E+00  0.00000000E+00
  0.00000000E+00  0.00000000E+00  0.00000000E+00
  0.00000000E+00  0.00000000E+00  0.00000000E+00
  0.00000000E+00  0.00000000E+00  0.00000000E+00
  0.00000000E+00  0.00000000E+00  0.00000000E+00
  0.00000000E+00  0.00000000E+00  0.00000000E+00
  0.00000000E+00  0.00000000E+00  0.00000000E+00
  0.00000000E+00  0.00000000E+00  0.00000000E+00
  0.00000000E+00  0.00000000E+00  0.00000000E+00
  0.00000000E+00  0.00000000E+00  0.00000000E+00
  0.00000000E+00  0.00000000E+00  0.00000000E+00
  0.00000000E+00  0.00000000E+00  0.00000000E+00
  0.00000000E+00  0.00000000E+00  0.00000000E+00
  0.00000000E+00  0.00000000E+00  0.00000000E+00
  0.00000000E+00  0.00000000E+00  0.00000000E+00
  0.00000000E+00  0.00000000E+00  0.00000000E+00
  0.00000000E+00  0.00000000E+00  0.00000000E+00
  0.00000000E+00  0.00000000E+00  0.00000000E+00
  0.00000000E+00  0.00000000E+00  0.00000000E+00
  0.00000000E+00  0.00000000E+00  0.00000000E+00
  0.00000000E+00  0.00000000E+00  0.00000000E+00
  0.00000000E+00  0.00000000E+00  0.00000000E+00
  0.00000000E+00  0.00000000E+00  0.00000000E+00
  0.00000000E+00  0.00000000E+00  0.00000000E+00
  0.00000000E+00  0.00000000E+00  0.00000000E+00
  0.00000000E+00  0.00000000E+00  0.00000000E+00
  0.00000000E+00  0.00000000E+00  0.00000000E+00
  0.00000000E+00  0.00000000E+00  0.00000000E+00
  0.00000000E+00  0.00000000E+00  0.00000000E+00
  0.00000000E+00  0.00000000E+00  0.00000000E+00
  0.00000000E+00  0.00000000E+00  0.00000000E+00
  0.00000000E+00  0.00000000E+00  0.00000000E+00
  0.00000000E+00  0.00000000E+00  0.00000000E+00
  0.00000000E+00  0.00000000E+00  0.00000000E+00
  0.00000000E+00  0.00000000E+00  0.00000000E+00
  0.00000000E+00  0.00000000E+00  0.00000000E+00
  0.00000000E+00  0.00000000E+00  0.00000000E+00
  0.00000000E+00  0.00000000E+00  0.00000000E+00
  0.00000000E+00  0.00000000E+00  0.00000000E+00
  0.00000000E+00  0.00000000E+00  0.00000000E+00
  0.00000000E+00  0.00000000E+00  0.00000000E+00
  0.00000000E+00  0.00000000E+00  0.00000000E+00
  0.00000000E+00  0.00000000E+00  0.00000000E+00
  0.00000000E+00  0.00000000E+00  0.00000000E+00
  0.00000000E+00  0.00000000E+00  0.00000000E+00
  0.00000000E+00  0.00000000E+00  0.00000000E+00
  0.00000000E+00  0.00000000E+00  0.00000000E+00
  0.00000000E+00  0.00000000E+00  0.00000000E+00
  0.00000000E+00  0.00000000E+00  0.00000000E+00
  0.00000000E+00  0.00000000E+00  0.00000000E+00
  0.00000000E+00  0.00000000E+00  0.00000000E+00
  0.00000000E+00  0.00000000E+00  0.00000000E+00
  0.00000000E+00  0.00000000E+00  0.00000000E+00
  0.00000000E+00  0.00000000E+00  0.00000000E+00
  0.00000000E+00  0.00000000E+00  0.00000000E+00
  0.00000000E+00  0.00000000E+00  0.00000000E+00
  0.00000000E+00  0.00000000E+00  0.00000000E+00
  0.00000000E+00  0.00000000E+00  0.00000000E+00
