Ir1 C122 N4                             
   1.00000000000000     
    19.8540305338503060    0.0000470642648715    0.0057203559743467
    -9.9269767114946958   17.0197600053801672   -0.0027784536520817
     0.0085798284849343    0.0001436284005963   29.7782645233257739
   Ir   C    N 
     1   122     4
Direct
  0.4374908363637122  0.4999996851886083  0.4062853505611295
  0.0421017105296003  0.0843411784741847  0.3999856110790509
  0.0406574417264307  0.2080528312702851  0.4000743753035003
  0.0396081181990105  0.3326827449976779  0.3997093361945914
  0.0397774427832003  0.4581660137754278  0.3992000178323773
  0.0410779880434127  0.5839349850950862  0.3991333054623747
  0.0422790562626239  0.7095519189531739  0.3994325672589820
  0.0427016677515230  0.8349138801520146  0.3996068562524673
  0.0428050987583950  0.9600579368579877  0.3997254671716631
  0.1684977042239554  0.0865019522086045  0.4004768110680552
  0.1674882226704974  0.2107208490107353  0.4014254327032963
  0.1642057530130466  0.3334838220709899  0.4017574204419574
  0.1627329074032368  0.4584787465729116  0.4008817273388424
  0.1642486376766535  0.5837971741380000  0.3997466592117390
  0.1662111116877811  0.7093097729888446  0.3993602247656062
  0.1672051130775125  0.8349084023825193  0.3996160672042373
  0.1678288913782288  0.9606291921676193  0.3998066360723825
  0.2930220546914197  0.0864805871646501  0.4004970695406579
  0.2947119057740624  0.2144057737309649  0.4022331642041408
  0.2920511893306001  0.3392864529556168  0.4039145980898811
  0.2847773333756053  0.4579793609028959  0.4040758139956168
  0.2869429582206895  0.5832652097797186  0.4022890991243800
  0.2901552446433187  0.7086333536173068  0.4004048745662950
  0.2915335865477056  0.8341907620855865  0.3996157595470318
  0.2922875529638003  0.9600522543440184  0.3997218619897939
  0.4172700441537334  0.0843362657548287  0.4000019655743819
  0.4182262311801624  0.2107171718076077  0.4014741806942782
  0.4222351690475252  0.3392896394668763  0.4039483371727229
  0.4139454461752959  0.7056212695001837  0.4024450460502759
  0.4158038352711291  0.8320592627016797  0.4004389705455688
  0.4166252316367053  0.9582295839397090  0.3997268195624139
  0.5415592461286000  0.0822831485577045  0.3996482666271514
  0.5423951277175497  0.2080577867252004  0.4000857144641000
  0.5442638626853050  0.3334795042790337  0.4017786116159910
  0.5481864187597525  0.4579732660458138  0.4041416854880092
  0.5377288145508243  0.7004582852551020  0.4036217154227941
  0.5399904012237716  0.8293854537830969  0.4013999766762211
  0.5409122836854839  0.9561442895995386  0.4000225705238872
  0.6659048114411226  0.0814004940248460  0.3996980672314707
  0.6666474707820558  0.2070577872538903  0.3994709475149811
  0.6680469347059728  0.3326828064739221  0.3997006502092137
  0.6707207539832629  0.4584758704789587  0.4009085381931062
  0.6713129466488623  0.5832780906644311  0.4023211696106968
  0.6666610737573176  0.7056190896459110  0.4024764507925518
  0.6644193710255089  0.8294079684237472  0.4014506176583321
  0.6653103749930016  0.9555886314350994  0.4002137838387880
  0.7905262326147378  0.0813996728365471  0.3996926512288647
  0.7909173925350507  0.2068335924921478  0.3996452682707195
  0.7918334203456794  0.3324438868492445  0.3992618769717395
  0.7933462271666145  0.4581622282313160  0.3992004932992664
  0.7945119957076905  0.5838003442302349  0.3997452988099929
  0.7934580864948169  0.7086374043019551  0.4004035650343745
  0.7912559880319622  0.8320543739003387  0.4004645356025831
  0.7902686223064167  0.9561595505315679  0.4000364553580236
  0.9157609067144037  0.0822777179320681  0.3996454802950710
  0.9154029803559255  0.2070403221062335  0.3994812604849753
  0.9156085913042196  0.3324422722961904  0.3992745599324735
  0.9165606160209800  0.4581516064011246  0.3991325792801970
  0.9178178141711649  0.5839351400193681  0.3991317128709156
  0.9180809292245455  0.7092939000525659  0.3993375128521331
  0.9176592583729474  0.8341783907344695  0.3996094310985418
  0.9166451837496234  0.9582257303970653  0.3997309984646470
  0.0847680439470669  0.0438559349671776  0.4000223866262127
  0.0837444995544914  0.1679404962953327  0.4004375837284094
  0.0815217269286217  0.2913667577378515  0.4004044935483458
  0.0804517365289894  0.4162039689047617  0.3997439821033189
  0.0816112695158508  0.5418342970835859  0.3992015144424573
  0.0831664224988171  0.6675574351879346  0.3992762274790079
  0.0840818302325800  0.7931658411844368  0.3996445035340492
  0.0845042955358802  0.9186002480015413  0.3996970262091426
  0.2097213753350348  0.0444118200933031  0.4002152320312593
  0.2106052581520307  0.1706148260888817  0.4014006799919815
  0.2083240143878595  0.2943788367114254  0.4024436075898669
  0.2036772199996167  0.4167357595849800  0.4022874443106509
  0.2042541611066149  0.5415227317945966  0.4008830458362020
  0.2069249506745668  0.6673173438983302  0.3997112925595220
  0.2083613724035937  0.7929597074738677  0.3994821357330063
  0.2091247853093924  0.9185999405652973  0.3996923437361716
  0.3341075966382561  0.0438401259336536  0.4000386097388566
  0.3350117997489783  0.1705927045922362  0.4014519632294908
  0.3372707644860229  0.2995417407508510  0.4036216416903000
  0.3267979039771007  0.5420212789284945  0.4040764466684418
  0.3307216504802802  0.6665164335328280  0.4017588922553171
  0.3326037929070079  0.7919466327474874  0.4000746296482267
  0.3334819970817611  0.9177216721744813  0.3996462245458353
  0.4584185679122285  0.0417740003551653  0.3997326350671907
  0.4592016848188161  0.1679452988125583  0.4004683050163755
  0.4610425272131750  0.2943807262039949  0.4024778621212299
  0.4527644604817503  0.6607137688649656  0.4039157537668235
  0.4567669061131355  0.7892792143628978  0.4014269182937156
  0.4577601347261783  0.9156588250290236  0.3999858979756348
  0.5827470701483658  0.0399420395333463  0.3997262211999601
  0.5834807813933940  0.1658211608933761  0.3996126326250249
  0.5848210596255071  0.2913622593847102  0.4004070912145722
  0.5880344474308488  0.4167210559420724  0.4023220738220926
  0.5902117458309962  0.5420254089619699  0.4041413438957202
  0.5829444994374599  0.6607098291211928  0.4039476004426804
  0.5803056924515040  0.7855947221056466  0.4022323170935310
  0.5819956820127316  0.9134983140611699  0.4004755843920102
  0.7071999953465977  0.0393707700450187  0.3998072112598962
  0.7077883061927795  0.1650863921835202  0.3996077259142622
  0.7087872050337855  0.2907061327043658  0.3993378871184394
  0.7107118376414899  0.4162001954617182  0.3997454946194324
  0.7122438710062288  0.5415247687882547  0.4009083440028338
  0.7107828737024087  0.6665206062422766  0.4017763867123685
  0.7075079306686419  0.7892830382443062  0.4014719359267228
  0.7065417563603581  0.9135197842535062  0.4004956732405045
  0.8322352010170128  0.0399467084422561  0.3997207020666874
  0.8322976278969195  0.1650908543467521  0.3996165658394263
  0.8327274610156394  0.2904472163224254  0.3994308193984635
  0.8338829159988146  0.4160643688796871  0.3991319780077527
  0.8351832138675173  0.5418379615252803  0.3992003021335507
  0.8353634975136803  0.6673183635886467  0.3996990387642591
  0.8343353355229163  0.7919418452492212  0.4000813937528345
  0.8329336654645240  0.9156633307269043  0.3999985032245998
  0.9583955058736183  0.0417700094316928  0.3997270138889804
  0.9573427096454509  0.1658088243740770  0.3996152653013977
  0.9569022264154387  0.2906909886928050  0.3993586354123014
  0.9571432516688283  0.4160650958548661  0.3991316386933084
  0.9584087306139150  0.5418481944162558  0.3991329043296495
  0.9593883300383369  0.6675556200111979  0.3992629293708920
  0.9595885500359916  0.7929427520084164  0.3994697935695335
  0.9592754764438569  0.9177162982300291  0.3996463804939184
  0.4071159198081044  0.5800276173157883  0.4051730575266976
  0.5478969593182418  0.5800243948031878  0.4052269793502059
  0.3270880523895790  0.4199724199512398  0.4051727300738926
  0.4678722447070833  0.4199746500258127  0.4052276935430716
 
  0.00000000E+00  0.00000000E+00  0.00000000E+00
  0.00000000E+00  0.00000000E+00  0.00000000E+00
  0.00000000E+00  0.00000000E+00  0.00000000E+00
  0.00000000E+00  0.00000000E+00  0.00000000E+00
  0.00000000E+00  0.00000000E+00  0.00000000E+00
  0.00000000E+00  0.00000000E+00  0.00000000E+00
  0.00000000E+00  0.00000000E+00  0.00000000E+00
  0.00000000E+00  0.00000000E+00  0.00000000E+00
  0.00000000E+00  0.00000000E+00  0.00000000E+00
  0.00000000E+00  0.00000000E+00  0.00000000E+00
  0.00000000E+00  0.00000000E+00  0.00000000E+00
  0.00000000E+00  0.00000000E+00  0.00000000E+00
  0.00000000E+00  0.00000000E+00  0.00000000E+00
  0.00000000E+00  0.00000000E+00  0.00000000E+00
  0.00000000E+00  0.00000000E+00  0.00000000E+00
  0.00000000E+00  0.00000000E+00  0.00000000E+00
  0.00000000E+00  0.00000000E+00  0.00000000E+00
  0.00000000E+00  0.00000000E+00  0.00000000E+00
  0.00000000E+00  0.00000000E+00  0.00000000E+00
  0.00000000E+00  0.00000000E+00  0.00000000E+00
  0.00000000E+00  0.00000000E+00  0.00000000E+00
  0.00000000E+00  0.00000000E+00  0.00000000E+00
  0.00000000E+00  0.00000000E+00  0.00000000E+00
  0.00000000E+00  0.00000000E+00  0.00000000E+00
  0.00000000E+00  0.00000000E+00  0.00000000E+00
  0.00000000E+00  0.00000000E+00  0.00000000E+00
  0.00000000E+00  0.00000000E+00  0.00000000E+00
  0.00000000E+00  0.00000000E+00  0.00000000E+00
  0.00000000E+00  0.00000000E+00  0.00000000E+00
  0.00000000E+00  0.00000000E+00  0.00000000E+00
  0.00000000E+00  0.00000000E+00  0.00000000E+00
  0.00000000E+00  0.00000000E+00  0.00000000E+00
  0.00000000E+00  0.00000000E+00  0.00000000E+00
  0.00000000E+00  0.00000000E+00  0.00000000E+00
  0.00000000E+00  0.00000000E+00  0.00000000E+00
  0.00000000E+00  0.00000000E+00  0.00000000E+00
  0.00000000E+00  0.00000000E+00  0.00000000E+00
  0.00000000E+00  0.00000000E+00  0.00000000E+00
  0.00000000E+00  0.00000000E+00  0.00000000E+00
  0.00000000E+00  0.00000000E+00  0.00000000E+00
  0.00000000E+00  0.00000000E+00  0.00000000E+00
  0.00000000E+00  0.00000000E+00  0.00000000E+00
  0.00000000E+00  0.00000000E+00  0.00000000E+00
  0.00000000E+00  0.00000000E+00  0.00000000E+00
  0.00000000E+00  0.00000000E+00  0.00000000E+00
  0.00000000E+00  0.00000000E+00  0.00000000E+00
  0.00000000E+00  0.00000000E+00  0.00000000E+00
  0.00000000E+00  0.00000000E+00  0.00000000E+00
  0.00000000E+00  0.00000000E+00  0.00000000E+00
  0.00000000E+00  0.00000000E+00  0.00000000E+00
  0.00000000E+00  0.00000000E+00  0.00000000E+00
  0.00000000E+00  0.00000000E+00  0.00000000E+00
  0.00000000E+00  0.00000000E+00  0.00000000E+00
  0.00000000E+00  0.00000000E+00  0.00000000E+00
  0.00000000E+00  0.00000000E+00  0.00000000E+00
  0.00000000E+00  0.00000000E+00  0.00000000E+00
  0.00000000E+00  0.00000000E+00  0.00000000E+00
  0.00000000E+00  0.00000000E+00  0.00000000E+00
  0.00000000E+00  0.00000000E+00  0.00000000E+00
  0.00000000E+00  0.00000000E+00  0.00000000E+00
  0.00000000E+00  0.00000000E+00  0.00000000E+00
  0.00000000E+00  0.00000000E+00  0.00000000E+00
  0.00000000E+00  0.00000000E+00  0.00000000E+00
  0.00000000E+00  0.00000000E+00  0.00000000E+00
  0.00000000E+00  0.00000000E+00  0.00000000E+00
  0.00000000E+00  0.00000000E+00  0.00000000E+00
  0.00000000E+00  0.00000000E+00  0.00000000E+00
  0.00000000E+00  0.00000000E+00  0.00000000E+00
  0.00000000E+00  0.00000000E+00  0.00000000E+00
  0.00000000E+00  0.00000000E+00  0.00000000E+00
  0.00000000E+00  0.00000000E+00  0.00000000E+00
  0.00000000E+00  0.00000000E+00  0.00000000E+00
  0.00000000E+00  0.00000000E+00  0.00000000E+00
  0.00000000E+00  0.00000000E+00  0.00000000E+00
  0.00000000E+00  0.00000000E+00  0.00000000E+00
  0.00000000E+00  0.00000000E+00  0.00000000E+00
  0.00000000E+00  0.00000000E+00  0.00000000E+00
  0.00000000E+00  0.00000000E+00  0.00000000E+00
  0.00000000E+00  0.00000000E+00  0.00000000E+00
  0.00000000E+00  0.00000000E+00  0.00000000E+00
  0.00000000E+00  0.00000000E+00  0.00000000E+00
  0.00000000E+00  0.00000000E+00  0.00000000E+00
  0.00000000E+00  0.00000000E+00  0.00000000E+00
  0.00000000E+00  0.00000000E+00  0.00000000E+00
  0.00000000E+00  0.00000000E+00  0.00000000E+00
  0.00000000E+00  0.00000000E+00  0.00000000E+00
  0.00000000E+00  0.00000000E+00  0.00000000E+00
  0.00000000E+00  0.00000000E+00  0.00000000E+00
  0.00000000E+00  0.00000000E+00  0.00000000E+00
  0.00000000E+00  0.00000000E+00  0.00000000E+00
  0.00000000E+00  0.00000000E+00  0.00000000E+00
  0.00000000E+00  0.00000000E+00  0.00000000E+00
  0.00000000E+00  0.00000000E+00  0.00000000E+00
  0.00000000E+00  0.00000000E+00  0.00000000E+00
  0.00000000E+00  0.00000000E+00  0.00000000E+00
  0.00000000E+00  0.00000000E+00  0.00000000E+00
  0.00000000E+00  0.00000000E+00  0.00000000E+00
  0.00000000E+00  0.00000000E+00  0.00000000E+00
  0.00000000E+00  0.00000000E+00  0.00000000E+00
  0.00000000E+00  0.00000000E+00  0.00000000E+00
  0.00000000E+00  0.00000000E+00  0.00000000E+00
  0.00000000E+00  0.00000000E+00  0.00000000E+00
  0.00000000E+00  0.00000000E+00  0.00000000E+00
  0.00000000E+00  0.00000000E+00  0.00000000E+00
  0.00000000E+00  0.00000000E+00  0.00000000E+00
  0.00000000E+00  0.00000000E+00  0.00000000E+00
  0.00000000E+00  0.00000000E+00  0.00000000E+00
  0.00000000E+00  0.00000000E+00  0.00000000E+00
  0.00000000E+00  0.00000000E+00  0.00000000E+00
  0.00000000E+00  0.00000000E+00  0.00000000E+00
  0.00000000E+00  0.00000000E+00  0.00000000E+00
  0.00000000E+00  0.00000000E+00  0.00000000E+00
  0.00000000E+00  0.00000000E+00  0.00000000E+00
  0.00000000E+00  0.00000000E+00  0.00000000E+00
  0.00000000E+00  0.00000000E+00  0.00000000E+00
  0.00000000E+00  0.00000000E+00  0.00000000E+00
  0.00000000E+00  0.00000000E+00  0.00000000E+00
  0.00000000E+00  0.00000000E+00  0.00000000E+00
  0.00000000E+00  0.00000000E+00  0.00000000E+00
  0.00000000E+00  0.00000000E+00  0.00000000E+00
  0.00000000E+00  0.00000000E+00  0.00000000E+00
  0.00000000E+00  0.00000000E+00  0.00000000E+00
  0.00000000E+00  0.00000000E+00  0.00000000E+00
  0.00000000E+00  0.00000000E+00  0.00000000E+00
  0.00000000E+00  0.00000000E+00  0.00000000E+00
  0.00000000E+00  0.00000000E+00  0.00000000E+00
  0.00000000E+00  0.00000000E+00  0.00000000E+00
