Cr1 H1 C126 O2                          
   1.00000000000000     
    19.7883637367026601   -0.0005801650102330   -0.0596257175959093
    -9.8946840312248376   17.0687399291219641   -0.0720206955798221
    -0.0896913269806145   -0.1776101313945586   29.7932233156664203
   Cr   H    C    O 
     1     1   126     2
Direct
  0.4384001861977002  0.5007493105688593  0.4285947315133522
  0.5340035885546482  0.5589706218855397  0.5136661593829998
  0.0419885751415769  0.0839346397924400  0.3997164879770934
  0.0412633165725716  0.2082219543110641  0.3996952750846819
  0.0409403915162102  0.3329651176640966  0.3996682101356101
  0.0410211575107818  0.4584036179653788  0.3996277685122411
  0.0415374251889173  0.5837179002728873  0.3997519699706221
  0.0419891389074545  0.7089184671270963  0.3998916680037782
  0.0422702047211907  0.8342247584773330  0.3999010539896820
  0.0422671150749029  0.9591951809298532  0.3997643670533831
  0.1674309083315224  0.0847712214512471  0.4000317066263430
  0.1673207756479690  0.2096541837039350  0.4003509252194632
  0.1659052594998541  0.3333957231036788  0.4003788018751427
  0.1650435062052128  0.4583722286583133  0.3999145568377429
  0.1657955430186245  0.5835685374154030  0.3995789416748834
  0.1666393196988568  0.7089615762594874  0.3997243848001075
  0.1670122708587750  0.8341984703404574  0.3998574806501648
  0.1673019021274156  0.9595017926219614  0.3998577590572074
  0.2924314325900748  0.0847570596330242  0.4000236599863618
  0.2930003605441510  0.2109060592566838  0.4012366716251013
  0.2932830125968789  0.3367737736025817  0.4027297416479977
  0.2887862414381914  0.4578102667928875  0.4019883344580151
  0.2898689166023228  0.5838190172052485  0.4002670602861787
  0.2912163158355097  0.7088125896193220  0.3996450450067916
  0.2917116529643031  0.8338737454584295  0.3996937496817939
  0.2920030821571614  0.9591670508545739  0.3997228559424932
  0.4170289794817871  0.0838845100019333  0.3996681550742774
  0.4174207286950671  0.2095477059334804  0.4003248407248455
  0.4186142032580658  0.3364781584382065  0.4029176362043646
  0.4126480897353583  0.5807785771354314  0.4043697772173752
  0.4158176835016665  0.7069676384510244  0.4004668642984416
  0.4164408394093263  0.8329096229938977  0.3996981328084367
  0.4167197266603586  0.9583786445218646  0.3996365111653093
  0.5416943728104024  0.0829659628556451  0.3996640523004441
  0.5420477088614755  0.2081994652473327  0.3996920356465529
  0.5425942487638259  0.3333836452030691  0.4002737665417920
  0.5439976061445453  0.4577560576280560  0.4021355795174669
  0.5436268231604550  0.5812568507332899  0.4051282613517050
  0.5406016606761436  0.7061384975820357  0.4021950619049068
  0.5409851960874981  0.8319905356440580  0.4001904035156513
  0.5414572866799123  0.9576024700122653  0.3997719971099932
  0.6664329996998055  0.0826164715766670  0.3998277200920642
  0.6667349982349544  0.2078559709698328  0.3997369496920031
  0.6671178178990635  0.3329587959615206  0.3996504645502640
  0.6683465185577052  0.4583476343954244  0.3997027985259091
  0.6689228922132984  0.5837596116921049  0.4001499369465653
  0.6663628407840585  0.7071032758789904  0.4005141317931801
  0.6661058619342594  0.8320186489939685  0.4002093352142314
  0.6662246924301128  0.9573543235915920  0.3999529615525969
  0.7913092322940881  0.0826289735808375  0.3998097555555537
  0.7914274585842989  0.2077410340371156  0.3998046468064403
  0.7918058780927927  0.3330327036985788  0.3997704349817495
  0.7924520803875318  0.4583987081507894  0.3996508663378632
  0.7928179203451223  0.5835615418897380  0.3994935698508355
  0.7926539772070905  0.7088140345092407  0.3995995252698194
  0.7915950252123901  0.8329770841868560  0.3996481683766789
  0.7912677003814826  0.9576456323107703  0.3997517757573267
  0.9163940789864224  0.0829974499814815  0.3996530244614356
  0.9162368805231221  0.2078726541298370  0.3996818621126015
  0.9163247059722841  0.3330403495861640  0.3997218589658803
  0.9166771137509168  0.4582744677205008  0.3997687550712936
  0.9172457325178305  0.5837158834780222  0.3997833470638119
  0.9174005887059083  0.7089787768834240  0.3997458576909323
  0.9172373655970864  0.8338966071870133  0.3997154833282340
  0.9167774572877360  0.9584284257841386  0.3996559618353974
  0.0839714145724655  0.0426566004085950  0.3997894128813675
  0.0836554283988677  0.1673498368069798  0.3998285241746325
  0.0825242418801134  0.2914294552197847  0.3998101861476710
  0.0823454152644003  0.4166845158884216  0.3996655322823467
  0.0827423787809651  0.5418550152468373  0.3996313032812195
  0.0834009038025214  0.6672246613640991  0.3998027950894277
  0.0838065179154764  0.7925341158103495  0.3999190218454066
  0.0839361485556029  0.9176546881483562  0.3998535264289004
  0.2090156632325040  0.0429290507120602  0.3999634754974355
  0.2091415444512336  0.1683274972642229  0.4005231808807904
  0.2090177028805495  0.2933644956131314  0.4009256512865958
  0.2061571374906972  0.4164528288538923  0.4005350525162447
  0.2068070510923305  0.5418902584552509  0.3998266047404170
  0.2080775918364335  0.6672688996316732  0.3995962875029411
  0.2084796445018920  0.7923792017668955  0.3997672559838822
  0.2087967900509940  0.9176353627936713  0.3998209065768888
  0.3337565177158298  0.0426277625528841  0.3997501577837092
  0.3342726368427281  0.1683102456594598  0.4005393741393006
  0.3346841264501657  0.2942210866331841  0.4027652025512483
  0.3320476344606881  0.4196664530853366  0.4046728160415093
  0.3311496514200903  0.5425007575094671  0.4018280632303204
  0.3326546925810839  0.6668736664237067  0.4000275192733264
  0.3331524693467737  0.7920140009644694  0.3996485621924393
  0.3335155876553764  0.9172544092421571  0.3996729951049930
  0.4584927004136511  0.0418196093338262  0.3996196012609111
  0.4587685048438608  0.1672778939261078  0.3997755343315580
  0.4594606040624374  0.2932069412464559  0.4009203815438834
  0.4626752468559351  0.4191704737969582  0.4052632039586284
  0.4566452600956786  0.6635778027442323  0.4022219917524205
  0.4578242356872244  0.7906507116605012  0.4000016761672032
  0.4581817042255384  0.9163041079203542  0.3996844402982450
  0.5832193403955427  0.0410701874090760  0.3997441079308116
  0.5834898754140943  0.1663432250140625  0.3996650463567175
  0.5839912390703047  0.2914159122092523  0.3997685466693408
  0.5853275182262881  0.4164511439072761  0.4003439150821157
  0.5863307560980822  0.5424673955163785  0.4020227714906943
  0.5822486769663050  0.6638855755894195  0.4024853446212133
  0.5822478288152092  0.7894149944303325  0.4007576452129881
  0.5828151865025886  0.9155227797923903  0.3999343160620175
  0.7079460317260527  0.0407849980146087  0.3998717155277959
  0.7082100178771632  0.1660565725436396  0.3997961466094943
  0.7085693431160704  0.2912721543187436  0.3997099543704732
  0.7093929188132485  0.4166714942559168  0.3995926575157810
  0.7101030961153914  0.5418722325132658  0.3996292611443533
  0.7092897272178855  0.6668707504405986  0.3999878771752650
  0.7079780495049219  0.7907426202473646  0.3999800401812426
  0.7078149136905727  0.9155493597248100  0.3999326411208478
  0.8329775078591779  0.0411039399113207  0.3997266086517490
  0.8329611927752911  0.1660766336674522  0.3997670591198341
  0.8332216832468342  0.2913490839593491  0.3997750376345659
  0.8336804641060974  0.4165511338233259  0.3997639564523333
  0.8341679145819075  0.5418547666722988  0.3996409410249370
  0.8342519964491160  0.6672800781096488  0.3995624945559431
  0.8339253331688227  0.7920363580120557  0.3996215235609858
  0.8332502984294358  0.9163595553038201  0.3996572174364834
  0.9584572934861532  0.0418606127786046  0.3996426998277462
  0.9579670306496059  0.1663723167795063  0.3996352314966394
  0.9578109388647097  0.2912942963997445  0.3996660318131413
  0.9579605497486249  0.4165608203327708  0.3997097130996939
  0.9585299439520746  0.5419906523142207  0.3997922616149371
  0.9588871122750575  0.6672282248403176  0.3998326749042689
  0.9589854611554710  0.7924069129442400  0.3998201600604888
  0.9588290453897934  0.9172778347888449  0.3997127621676580
  0.5021175208023425  0.5032848940363311  0.5054045112828254
  0.4320924751176022  0.5015328151876716  0.4875852572653251
 
  0.00000000E+00  0.00000000E+00  0.00000000E+00
  0.00000000E+00  0.00000000E+00  0.00000000E+00
  0.00000000E+00  0.00000000E+00  0.00000000E+00
  0.00000000E+00  0.00000000E+00  0.00000000E+00
  0.00000000E+00  0.00000000E+00  0.00000000E+00
  0.00000000E+00  0.00000000E+00  0.00000000E+00
  0.00000000E+00  0.00000000E+00  0.00000000E+00
  0.00000000E+00  0.00000000E+00  0.00000000E+00
  0.00000000E+00  0.00000000E+00  0.00000000E+00
  0.00000000E+00  0.00000000E+00  0.00000000E+00
  0.00000000E+00  0.00000000E+00  0.00000000E+00
  0.00000000E+00  0.00000000E+00  0.00000000E+00
  0.00000000E+00  0.00000000E+00  0.00000000E+00
  0.00000000E+00  0.00000000E+00  0.00000000E+00
  0.00000000E+00  0.00000000E+00  0.00000000E+00
  0.00000000E+00  0.00000000E+00  0.00000000E+00
  0.00000000E+00  0.00000000E+00  0.00000000E+00
  0.00000000E+00  0.00000000E+00  0.00000000E+00
  0.00000000E+00  0.00000000E+00  0.00000000E+00
  0.00000000E+00  0.00000000E+00  0.00000000E+00
  0.00000000E+00  0.00000000E+00  0.00000000E+00
  0.00000000E+00  0.00000000E+00  0.00000000E+00
  0.00000000E+00  0.00000000E+00  0.00000000E+00
  0.00000000E+00  0.00000000E+00  0.00000000E+00
  0.00000000E+00  0.00000000E+00  0.00000000E+00
  0.00000000E+00  0.00000000E+00  0.00000000E+00
  0.00000000E+00  0.00000000E+00  0.00000000E+00
  0.00000000E+00  0.00000000E+00  0.00000000E+00
  0.00000000E+00  0.00000000E+00  0.00000000E+00
  0.00000000E+00  0.00000000E+00  0.00000000E+00
  0.00000000E+00  0.00000000E+00  0.00000000E+00
  0.00000000E+00  0.00000000E+00  0.00000000E+00
  0.00000000E+00  0.00000000E+00  0.00000000E+00
  0.00000000E+00  0.00000000E+00  0.00000000E+00
  0.00000000E+00  0.00000000E+00  0.00000000E+00
  0.00000000E+00  0.00000000E+00  0.00000000E+00
  0.00000000E+00  0.00000000E+00  0.00000000E+00
  0.00000000E+00  0.00000000E+00  0.00000000E+00
  0.00000000E+00  0.00000000E+00  0.00000000E+00
  0.00000000E+00  0.00000000E+00  0.00000000E+00
  0.00000000E+00  0.00000000E+00  0.00000000E+00
  0.00000000E+00  0.00000000E+00  0.00000000E+00
  0.00000000E+00  0.00000000E+00  0.00000000E+00
  0.00000000E+00  0.00000000E+00  0.00000000E+00
  0.00000000E+00  0.00000000E+00  0.00000000E+00
  0.00000000E+00  0.00000000E+00  0.00000000E+00
  0.00000000E+00  0.00000000E+00  0.00000000E+00
  0.00000000E+00  0.00000000E+00  0.00000000E+00
  0.00000000E+00  0.00000000E+00  0.00000000E+00
  0.00000000E+00  0.00000000E+00  0.00000000E+00
  0.00000000E+00  0.00000000E+00  0.00000000E+00
  0.00000000E+00  0.00000000E+00  0.00000000E+00
  0.00000000E+00  0.00000000E+00  0.00000000E+00
  0.00000000E+00  0.00000000E+00  0.00000000E+00
  0.00000000E+00  0.00000000E+00  0.00000000E+00
  0.00000000E+00  0.00000000E+00  0.00000000E+00
  0.00000000E+00  0.00000000E+00  0.00000000E+00
  0.00000000E+00  0.00000000E+00  0.00000000E+00
  0.00000000E+00  0.00000000E+00  0.00000000E+00
  0.00000000E+00  0.00000000E+00  0.00000000E+00
  0.00000000E+00  0.00000000E+00  0.00000000E+00
  0.00000000E+00  0.00000000E+00  0.00000000E+00
  0.00000000E+00  0.00000000E+00  0.00000000E+00
  0.00000000E+00  0.00000000E+00  0.00000000E+00
  0.00000000E+00  0.00000000E+00  0.00000000E+00
  0.00000000E+00  0.00000000E+00  0.00000000E+00
  0.00000000E+00  0.00000000E+00  0.00000000E+00
  0.00000000E+00  0.00000000E+00  0.00000000E+00
  0.00000000E+00  0.00000000E+00  0.00000000E+00
  0.00000000E+00  0.00000000E+00  0.00000000E+00
  0.00000000E+00  0.00000000E+00  0.00000000E+00
  0.00000000E+00  0.00000000E+00  0.00000000E+00
  0.00000000E+00  0.00000000E+00  0.00000000E+00
  0.00000000E+00  0.00000000E+00  0.00000000E+00
  0.00000000E+00  0.00000000E+00  0.00000000E+00
  0.00000000E+00  0.00000000E+00  0.00000000E+00
  0.00000000E+00  0.00000000E+00  0.00000000E+00
  0.00000000E+00  0.00000000E+00  0.00000000E+00
  0.00000000E+00  0.00000000E+00  0.00000000E+00
  0.00000000E+00  0.00000000E+00  0.00000000E+00
  0.00000000E+00  0.00000000E+00  0.00000000E+00
  0.00000000E+00  0.00000000E+00  0.00000000E+00
  0.00000000E+00  0.00000000E+00  0.00000000E+00
  0.00000000E+00  0.00000000E+00  0.00000000E+00
  0.00000000E+00  0.00000000E+00  0.00000000E+00
  0.00000000E+00  0.00000000E+00  0.00000000E+00
  0.00000000E+00  0.00000000E+00  0.00000000E+00
  0.00000000E+00  0.00000000E+00  0.00000000E+00
  0.00000000E+00  0.00000000E+00  0.00000000E+00
  0.00000000E+00  0.00000000E+00  0.00000000E+00
  0.00000000E+00  0.00000000E+00  0.00000000E+00
  0.00000000E+00  0.00000000E+00  0.00000000E+00
  0.00000000E+00  0.00000000E+00  0.00000000E+00
  0.00000000E+00  0.00000000E+00  0.00000000E+00
  0.00000000E+00  0.00000000E+00  0.00000000E+00
  0.00000000E+00  0.00000000E+00  0.00000000E+00
  0.00000000E+00  0.00000000E+00  0.00000000E+00
  0.00000000E+00  0.00000000E+00  0.00000000E+00
  0.00000000E+00  0.00000000E+00  0.00000000E+00
  0.00000000E+00  0.00000000E+00  0.00000000E+00
  0.00000000E+00  0.00000000E+00  0.00000000E+00
  0.00000000E+00  0.00000000E+00  0.00000000E+00
  0.00000000E+00  0.00000000E+00  0.00000000E+00
  0.00000000E+00  0.00000000E+00  0.00000000E+00
  0.00000000E+00  0.00000000E+00  0.00000000E+00
  0.00000000E+00  0.00000000E+00  0.00000000E+00
  0.00000000E+00  0.00000000E+00  0.00000000E+00
  0.00000000E+00  0.00000000E+00  0.00000000E+00
  0.00000000E+00  0.00000000E+00  0.00000000E+00
  0.00000000E+00  0.00000000E+00  0.00000000E+00
  0.00000000E+00  0.00000000E+00  0.00000000E+00
  0.00000000E+00  0.00000000E+00  0.00000000E+00
  0.00000000E+00  0.00000000E+00  0.00000000E+00
  0.00000000E+00  0.00000000E+00  0.00000000E+00
  0.00000000E+00  0.00000000E+00  0.00000000E+00
  0.00000000E+00  0.00000000E+00  0.00000000E+00
  0.00000000E+00  0.00000000E+00  0.00000000E+00
  0.00000000E+00  0.00000000E+00  0.00000000E+00
  0.00000000E+00  0.00000000E+00  0.00000000E+00
  0.00000000E+00  0.00000000E+00  0.00000000E+00
  0.00000000E+00  0.00000000E+00  0.00000000E+00
  0.00000000E+00  0.00000000E+00  0.00000000E+00
  0.00000000E+00  0.00000000E+00  0.00000000E+00
  0.00000000E+00  0.00000000E+00  0.00000000E+00
  0.00000000E+00  0.00000000E+00  0.00000000E+00
  0.00000000E+00  0.00000000E+00  0.00000000E+00
  0.00000000E+00  0.00000000E+00  0.00000000E+00
  0.00000000E+00  0.00000000E+00  0.00000000E+00
  0.00000000E+00  0.00000000E+00  0.00000000E+00
  0.00000000E+00  0.00000000E+00  0.00000000E+00
