V1 C122 N4                              
   1.00000000000000     
    19.8246459307903216   -0.0001889067365287    0.0027717723865284
    -9.9124851213413709   17.0406298586800489   -0.0053766117514747
     0.0041735629332967   -0.0069850920961987   29.7860849536610672
   V    C    N 
     1   122     4
Direct
  0.4375044564220371  0.5000152441119415  0.4190136078792460
  0.0418862239718049  0.0838635863822508  0.3998105460641652
  0.0409721168553771  0.2080734145331886  0.3996699373316123
  0.0401815138689207  0.3329287115691982  0.3995504316159018
  0.0402805904015356  0.4582189260486416  0.3995963955765088
  0.0412134343475586  0.5837263267036181  0.3998941268605272
  0.0420552886442742  0.7091168999704434  0.4000301464615482
  0.0423033716950786  0.8342782502805620  0.4000330796517518
  0.0423765479306043  0.9593999939482348  0.3999454805247529
  0.1679475809993207  0.0853887684136777  0.3999785325658908
  0.1671229461069536  0.2097623945393063  0.3999134651026302
  0.1648627503916977  0.3334306394259672  0.3998961025408311
  0.1637944662754687  0.4584756399501365  0.3991885996073877
  0.1648944923799746  0.5836998798278302  0.3993326773767018
  0.1662798024632656  0.7089235009112361  0.3998123330596675
  0.1669697526029291  0.8342756597519821  0.4000065574372095
  0.1673717709024492  0.9597461858205456  0.4000134661444795
  0.2924321855079891  0.0853802987773580  0.3999613784497208
  0.2938952886830871  0.2127847330578799  0.4008385439729211
  0.2916435849900901  0.3377850824899910  0.4026686621858971
  0.2867586932378959  0.4578340819481518  0.4022422552755415
  0.2881117743933018  0.5831060833047284  0.3999209359662057
  0.2905809631416637  0.7085328567270031  0.3995725015697850
  0.2915675115715025  0.8339175421163905  0.3997837078633227
  0.2920083148045069  0.9593890251372732  0.3999059460208317
  0.4169651714914054  0.0838515472536537  0.3997985308506216
  0.4176419660680147  0.2097535734777230  0.3998975479719447
  0.4211465935873567  0.3377827505854641  0.4026586366777878
  0.4147932434880201  0.7067306825438524  0.4003302591443094
  0.4161524412593074  0.8325816972342058  0.3996967842306241
  0.4166309118455747  0.9582770589024332  0.3998328594143763
  0.5415866205823381  0.0826248666260025  0.3998712655307210
  0.5420996173243214  0.2080675835939064  0.3996776998917664
  0.5435771516171208  0.3334390155317197  0.3998883719221265
  0.5460722978188036  0.4578381578407333  0.4022304642801082
  0.5386526524851901  0.7023034533209281  0.4023667705502661
  0.5406736149945703  0.8306394313679746  0.4002138031472669
  0.5412244069977010  0.9569449963552357  0.3998918056686667
  0.6662164782076083  0.0821550588460450  0.4000225379914060
  0.6666556027351157  0.2075163326866143  0.3999108745596209
  0.6677477292205520  0.3329314567439114  0.3995527667872742
  0.6696814013784514  0.4584810975062690  0.3991707782706936
  0.6699839964541637  0.5831007761089519  0.3999106217936635
  0.6669420883796884  0.7067338731545281  0.4003216914771821
  0.6649720996160798  0.8306445501484582  0.4002019966795344
  0.6658253818341970  0.9566472409689128  0.3999926900524256
  0.7909444005403561  0.0821658887593223  0.3999860270435407
  0.7912258349873906  0.2074602216490531  0.4000558438447590
  0.7918230342867193  0.3327900988499766  0.3999477372524827
  0.7929272283755282  0.4582179795057710  0.3995843771019907
  0.7937956346033912  0.5836985112019021  0.3993230211656479
  0.7929456307356194  0.7085295930815286  0.3995856481148965
  0.7914393875612510  0.8325923968804037  0.3997028554472026
  0.7907226097374047  0.9569485178130518  0.3998660174742303
  0.9160343203113726  0.0826225346468746  0.3998496848375859
  0.9158556867130643  0.2075194427232142  0.3998935107413251
  0.9159506259052002  0.3327835958058409  0.3999437701517757
  0.9166154157996856  0.4582657434994549  0.3999784867914332
  0.9174826687341181  0.5837220394250550  0.3998894416809154
  0.9176405303461389  0.7089226728254628  0.3998288514857737
  0.9173550756993982  0.8339226697185113  0.3998097399821722
  0.9166443910013131  0.9582818536920142  0.3998351320253623
  0.0842821665738706  0.0430512079975053  0.3998890232319843
  0.0835687498841190  0.1674139814132874  0.3997100425679527
  0.0820453540099599  0.2914608666682002  0.3995830733460847
  0.0811959906009851  0.4163030678167643  0.3993312355795129
  0.0820720018432865  0.5417859603749613  0.3996025774888715
  0.0831747000650315  0.6672092494794490  0.3999417883250364
  0.0837671311225869  0.7925335170416010  0.4000481242245457
  0.0840533641632270  0.9178350394710437  0.4000197200134817
  0.2091757545306180  0.0433539623226223  0.3999949072945692
  0.2100308037622776  0.1693608005763298  0.4002263002081710
  0.2080648218024448  0.2932724246549379  0.4003465277938845
  0.2050079976193132  0.4168953218518922  0.3999280150007020
  0.2053156444593816  0.5415211160151515  0.3991851431955478
  0.2072596752606061  0.6670659076616349  0.3995450814706222
  0.2083511073239957  0.7924802356959918  0.3998904798639840
  0.2087763102580253  0.9178374144620964  0.3999811767886832
  0.3337730394523282  0.0430501312100879  0.3998639261833601
  0.3343310085548113  0.1693542051291502  0.4002142842207816
  0.3363569255298446  0.2977027897314955  0.4023909786180179
  0.3289256667073691  0.5421618470343255  0.4022369744253894
  0.3314365552895635  0.6665725450951603  0.3998891198263493
  0.3329048974654329  0.7919298322273474  0.3996626087602010
  0.3334148580902491  0.9173725053106788  0.3998470033122442
  0.4583627516002747  0.0417148023953461  0.3998338854302315
  0.4588507163165053  0.1674093514104672  0.3997031997941703
  0.4602117276777599  0.2932660067874185  0.4003351514089826
  0.4538575769160803  0.6622107967727711  0.4026490260176263
  0.4573641439764398  0.7902374951037414  0.3998958996320006
  0.4580247650325465  0.9161365973803888  0.3998112620802182
  0.5829826051739894  0.0406004865500805  0.3999458344677810
  0.5834303701183657  0.1660762135082233  0.3998052462096218
  0.5844169222802199  0.2914610948689935  0.3995862404248347
  0.5868862713762427  0.4168940021227118  0.3999140191993540
  0.5882344310961171  0.5421639862650106  0.4022247134338539
  0.5833620145340418  0.6622158720345731  0.4026378773570836
  0.5811123980969143  0.7872124805845802  0.4008157201484537
  0.5825672073996191  0.9146141205246762  0.3999768121192528
  0.7076278561814167  0.0402532018954146  0.4000195931188500
  0.7080235415484283  0.1657174173298648  0.4000343137683490
  0.7087199805339111  0.2910770976790911  0.3998223935189250
  0.7101012570235612  0.4162976732856946  0.3993175684378670
  0.7111990594567116  0.5415226216791182  0.3991696841141834
  0.7101451911049260  0.6665749094782719  0.3998856820290960
  0.7078899248744844  0.7902412448044841  0.3998848059070527
  0.7070545855949129  0.9146155018907783  0.3999589319097587
  0.8326258922730759  0.0406114953498707  0.3999071294597145
  0.8326972500339851  0.1657244417956418  0.4000161749126753
  0.8329433588565279  0.2908851216200112  0.4000364962677758
  0.8337841404029078  0.4162843611471615  0.3998905045325799
  0.8347177914365115  0.5417912471869819  0.3995933569646140
  0.8348171379220413  0.6670726163170189  0.3995584168212532
  0.8340365143221055  0.7919287728803157  0.3996772057771839
  0.8331165428788343  0.9161478798506120  0.3998032669850473
  0.9583533809693562  0.0417254000068973  0.3998347872733656
  0.9576466873728861  0.1660778523674350  0.3997866121926585
  0.9573592714607307  0.2910784653680902  0.3998123476064534
  0.9575151747416424  0.4162862259852640  0.3998949809695205
  0.9583760663940224  0.5417293463784426  0.3999727666281301
  0.9590362374403117  0.6672143829482768  0.3999458768987852
  0.9591420612054696  0.7924802247220228  0.3999149268720328
  0.9589614231697714  0.9173762749971357  0.3998751917185628
  0.4093003571274554  0.5821999022708975  0.4057039250661895
  0.5478989096670841  0.5822020354499496  0.4056962756944315
  0.3271029185211364  0.4178038122943375  0.4057153945774460
  0.4656986962085251  0.4178015508477815  0.4057070713755472
 
  0.00000000E+00  0.00000000E+00  0.00000000E+00
  0.00000000E+00  0.00000000E+00  0.00000000E+00
  0.00000000E+00  0.00000000E+00  0.00000000E+00
  0.00000000E+00  0.00000000E+00  0.00000000E+00
  0.00000000E+00  0.00000000E+00  0.00000000E+00
  0.00000000E+00  0.00000000E+00  0.00000000E+00
  0.00000000E+00  0.00000000E+00  0.00000000E+00
  0.00000000E+00  0.00000000E+00  0.00000000E+00
  0.00000000E+00  0.00000000E+00  0.00000000E+00
  0.00000000E+00  0.00000000E+00  0.00000000E+00
  0.00000000E+00  0.00000000E+00  0.00000000E+00
  0.00000000E+00  0.00000000E+00  0.00000000E+00
  0.00000000E+00  0.00000000E+00  0.00000000E+00
  0.00000000E+00  0.00000000E+00  0.00000000E+00
  0.00000000E+00  0.00000000E+00  0.00000000E+00
  0.00000000E+00  0.00000000E+00  0.00000000E+00
  0.00000000E+00  0.00000000E+00  0.00000000E+00
  0.00000000E+00  0.00000000E+00  0.00000000E+00
  0.00000000E+00  0.00000000E+00  0.00000000E+00
  0.00000000E+00  0.00000000E+00  0.00000000E+00
  0.00000000E+00  0.00000000E+00  0.00000000E+00
  0.00000000E+00  0.00000000E+00  0.00000000E+00
  0.00000000E+00  0.00000000E+00  0.00000000E+00
  0.00000000E+00  0.00000000E+00  0.00000000E+00
  0.00000000E+00  0.00000000E+00  0.00000000E+00
  0.00000000E+00  0.00000000E+00  0.00000000E+00
  0.00000000E+00  0.00000000E+00  0.00000000E+00
  0.00000000E+00  0.00000000E+00  0.00000000E+00
  0.00000000E+00  0.00000000E+00  0.00000000E+00
  0.00000000E+00  0.00000000E+00  0.00000000E+00
  0.00000000E+00  0.00000000E+00  0.00000000E+00
  0.00000000E+00  0.00000000E+00  0.00000000E+00
  0.00000000E+00  0.00000000E+00  0.00000000E+00
  0.00000000E+00  0.00000000E+00  0.00000000E+00
  0.00000000E+00  0.00000000E+00  0.00000000E+00
  0.00000000E+00  0.00000000E+00  0.00000000E+00
  0.00000000E+00  0.00000000E+00  0.00000000E+00
  0.00000000E+00  0.00000000E+00  0.00000000E+00
  0.00000000E+00  0.00000000E+00  0.00000000E+00
  0.00000000E+00  0.00000000E+00  0.00000000E+00
  0.00000000E+00  0.00000000E+00  0.00000000E+00
  0.00000000E+00  0.00000000E+00  0.00000000E+00
  0.00000000E+00  0.00000000E+00  0.00000000E+00
  0.00000000E+00  0.00000000E+00  0.00000000E+00
  0.00000000E+00  0.00000000E+00  0.00000000E+00
  0.00000000E+00  0.00000000E+00  0.00000000E+00
  0.00000000E+00  0.00000000E+00  0.00000000E+00
  0.00000000E+00  0.00000000E+00  0.00000000E+00
  0.00000000E+00  0.00000000E+00  0.00000000E+00
  0.00000000E+00  0.00000000E+00  0.00000000E+00
  0.00000000E+00  0.00000000E+00  0.00000000E+00
  0.00000000E+00  0.00000000E+00  0.00000000E+00
  0.00000000E+00  0.00000000E+00  0.00000000E+00
  0.00000000E+00  0.00000000E+00  0.00000000E+00
  0.00000000E+00  0.00000000E+00  0.00000000E+00
  0.00000000E+00  0.00000000E+00  0.00000000E+00
  0.00000000E+00  0.00000000E+00  0.00000000E+00
  0.00000000E+00  0.00000000E+00  0.00000000E+00
  0.00000000E+00  0.00000000E+00  0.00000000E+00
  0.00000000E+00  0.00000000E+00  0.00000000E+00
  0.00000000E+00  0.00000000E+00  0.00000000E+00
  0.00000000E+00  0.00000000E+00  0.00000000E+00
  0.00000000E+00  0.00000000E+00  0.00000000E+00
  0.00000000E+00  0.00000000E+00  0.00000000E+00
  0.00000000E+00  0.00000000E+00  0.00000000E+00
  0.00000000E+00  0.00000000E+00  0.00000000E+00
  0.00000000E+00  0.00000000E+00  0.00000000E+00
  0.00000000E+00  0.00000000E+00  0.00000000E+00
  0.00000000E+00  0.00000000E+00  0.00000000E+00
  0.00000000E+00  0.00000000E+00  0.00000000E+00
  0.00000000E+00  0.00000000E+00  0.00000000E+00
  0.00000000E+00  0.00000000E+00  0.00000000E+00
  0.00000000E+00  0.00000000E+00  0.00000000E+00
  0.00000000E+00  0.00000000E+00  0.00000000E+00
  0.00000000E+00  0.00000000E+00  0.00000000E+00
  0.00000000E+00  0.00000000E+00  0.00000000E+00
  0.00000000E+00  0.00000000E+00  0.00000000E+00
  0.00000000E+00  0.00000000E+00  0.00000000E+00
  0.00000000E+00  0.00000000E+00  0.00000000E+00
  0.00000000E+00  0.00000000E+00  0.00000000E+00
  0.00000000E+00  0.00000000E+00  0.00000000E+00
  0.00000000E+00  0.00000000E+00  0.00000000E+00
  0.00000000E+00  0.00000000E+00  0.00000000E+00
  0.00000000E+00  0.00000000E+00  0.00000000E+00
  0.00000000E+00  0.00000000E+00  0.00000000E+00
  0.00000000E+00  0.00000000E+00  0.00000000E+00
  0.00000000E+00  0.00000000E+00  0.00000000E+00
  0.00000000E+00  0.00000000E+00  0.00000000E+00
  0.00000000E+00  0.00000000E+00  0.00000000E+00
  0.00000000E+00  0.00000000E+00  0.00000000E+00
  0.00000000E+00  0.00000000E+00  0.00000000E+00
  0.00000000E+00  0.00000000E+00  0.00000000E+00
  0.00000000E+00  0.00000000E+00  0.00000000E+00
  0.00000000E+00  0.00000000E+00  0.00000000E+00
  0.00000000E+00  0.00000000E+00  0.00000000E+00
  0.00000000E+00  0.00000000E+00  0.00000000E+00
  0.00000000E+00  0.00000000E+00  0.00000000E+00
  0.00000000E+00  0.00000000E+00  0.00000000E+00
  0.00000000E+00  0.00000000E+00  0.00000000E+00
  0.00000000E+00  0.00000000E+00  0.00000000E+00
  0.00000000E+00  0.00000000E+00  0.00000000E+00
  0.00000000E+00  0.00000000E+00  0.00000000E+00
  0.00000000E+00  0.00000000E+00  0.00000000E+00
  0.00000000E+00  0.00000000E+00  0.00000000E+00
  0.00000000E+00  0.00000000E+00  0.00000000E+00
  0.00000000E+00  0.00000000E+00  0.00000000E+00
  0.00000000E+00  0.00000000E+00  0.00000000E+00
  0.00000000E+00  0.00000000E+00  0.00000000E+00
  0.00000000E+00  0.00000000E+00  0.00000000E+00
  0.00000000E+00  0.00000000E+00  0.00000000E+00
  0.00000000E+00  0.00000000E+00  0.00000000E+00
  0.00000000E+00  0.00000000E+00  0.00000000E+00
  0.00000000E+00  0.00000000E+00  0.00000000E+00
  0.00000000E+00  0.00000000E+00  0.00000000E+00
  0.00000000E+00  0.00000000E+00  0.00000000E+00
  0.00000000E+00  0.00000000E+00  0.00000000E+00
  0.00000000E+00  0.00000000E+00  0.00000000E+00
  0.00000000E+00  0.00000000E+00  0.00000000E+00
  0.00000000E+00  0.00000000E+00  0.00000000E+00
  0.00000000E+00  0.00000000E+00  0.00000000E+00
  0.00000000E+00  0.00000000E+00  0.00000000E+00
  0.00000000E+00  0.00000000E+00  0.00000000E+00
  0.00000000E+00  0.00000000E+00  0.00000000E+00
  0.00000000E+00  0.00000000E+00  0.00000000E+00
  0.00000000E+00  0.00000000E+00  0.00000000E+00
  0.00000000E+00  0.00000000E+00  0.00000000E+00
  0.00000000E+00  0.00000000E+00  0.00000000E+00
