Rh1 C126                                
   1.00000000000000     
    19.7927557772408065   -0.0000009985164303   -0.0009241830658078
    -9.8963783874620486   17.0690726520980860    0.0004635904785702
    -0.0013892114863496    0.0000019967848646   29.7841988105804809
   Rh   C 
     1   126
Direct
  0.4375140511774826  0.5000000000000769  0.4277620170214953
  0.0418318011680749  0.0837774527177838  0.3998809997705695
  0.0411352168954857  0.2081163108818514  0.3997162162316141
  0.0407876825775194  0.3328950125540865  0.3996626353464048
  0.0408621574947113  0.4582655733717061  0.3998540728962851
  0.0414226146384781  0.5835861508508708  0.4000494056657902
  0.0419242066410023  0.7088302883545560  0.4000895276463556
  0.0421601857216946  0.8340863082148395  0.4000717840732734
  0.0421356901854679  0.9590791541005830  0.4000183443174810
  0.1672639847887980  0.0845640592061989  0.3998510482882336
  0.1670493718326621  0.2093572633622494  0.3998157775688055
  0.1656794327759852  0.3332279948388849  0.3997431027388481
  0.1648675221254280  0.4582439128936872  0.3995250756409222
  0.1656389988069903  0.5834975964890106  0.3996253935397426
  0.1665166665932609  0.7088291216047469  0.3998922734315107
  0.1668991822770964  0.8340738906177428  0.4000536453966327
  0.1671675322909211  0.9593611165633268  0.3999575632214601
  0.2922678707365928  0.0845626001996278  0.3998407383315652
  0.2927378445486438  0.2104967170127408  0.4003704046607701
  0.2928452768993002  0.3361351127632659  0.4018429707988618
  0.2884649354512106  0.4577721539048391  0.4012953913631981
  0.2896319416397660  0.5837106229876198  0.3997436628021556
  0.2910628447338785  0.7086509215746291  0.3995759412953129
  0.2915809347861202  0.8337350457221838  0.3999112841812775
  0.2919207384838466  0.9590517626395038  0.3999788154092780
  0.4169132700611789  0.0837470400612961  0.3998644401070193
  0.4172746288516360  0.2093523743717998  0.3998036096868240
  0.4182998299218131  0.3361547120245758  0.4018270463876941
  0.4121316427659419  0.5812750315837896  0.4047585158248263
  0.4156470263176101  0.7070260677746568  0.4001849129109336
  0.4162954012158315  0.8328220592082738  0.3997077213225912
  0.4166103307348623  0.9582743351306635  0.4000086212860666
  0.5415785234085353  0.0828344138417238  0.4000389903373566
  0.5419511796931425  0.2080824773594275  0.3997226527917951
  0.5425515578245743  0.3332021508316415  0.3997252477125713
  0.5443547417672765  0.4577643300563801  0.4012482127479124
  0.5441626812641875  0.5812539083073426  0.4047284218738285
  0.5405975144291786  0.7061960061742399  0.4016403555735290
  0.5408855266146243  0.8319090715442145  0.3999761049774352
  0.5412958996688141  0.9574637575329129  0.3999044706575719
  0.6662857818276452  0.0824552402543630  0.4000302638177682
  0.6666069266985672  0.2077086356935201  0.3999886939889221
  0.6671027037094300  0.3328729685966591  0.3996721122862573
  0.6684145457410118  0.4582392862379516  0.3994996025431731
  0.6691408372819320  0.5837351849536392  0.3997059607629273
  0.6663738825218979  0.7070363213271948  0.4001651674360160
  0.6659951828441691  0.8319170632540873  0.3999648473913790
  0.6660790916529737  0.9571847747499558  0.3998650336253093
  0.7911556595409690  0.0824643373178083  0.4000128776023090
  0.7912858307641261  0.2075911820284478  0.4000865273043817
  0.7917029870221353  0.3328911119479079  0.4000232147575283
  0.7924193278732538  0.4582683087274419  0.3998210234424308
  0.7928971468365026  0.5835089040701034  0.3996119291594186
  0.7926168985027836  0.7086881644958154  0.3995811022615083
  0.7915208404248687  0.8328454443085052  0.3996959252871837
  0.7911541779460092  0.9574893151864756  0.3998704618929566
  0.9162728971675931  0.0828747954523607  0.4000003871835772
  0.9160997769502550  0.2077372773283293  0.3999692505142965
  0.9162101297682816  0.3329011668260898  0.4000373520587837
  0.9166037850157278  0.4581843964150045  0.4001263283024512
  0.9171741377106271  0.5835838901295696  0.4000270937412462
  0.9173317777922284  0.7088550128344417  0.3999024507812300
  0.9171596201519201  0.8337762269760476  0.3999391181161834
  0.9166769789590827  0.9583077895084742  0.4000178684177217
  0.0838321421359037  0.0425362424670910  0.3999044706575712
  0.0834733420075583  0.1671779407917274  0.3997077213225914
  0.0824119231592502  0.2913490784253738  0.3995759412953130
  0.0821424023179775  0.4165024035109899  0.3996253935397423
  0.0825955841230075  0.5417344266282926  0.3998540728962847
  0.0833089629421941  0.6670988331739138  0.4000373520587832
  0.0836946487356775  0.7924088179715526  0.4000875273043870
  0.0838305415732830  0.9175447597456390  0.4000302638177684
  0.2088953169030134  0.0428152252500390  0.3998650336253084
  0.2089754550704160  0.1680909284557884  0.3999761049774340
  0.2086209585429531  0.2929739322253371  0.4001849129109318
  0.2059213186521414  0.4162893770123721  0.3997436628021563
  0.2066236092317404  0.5417560871063123  0.3995250756409224
  0.2078926700234345  0.6671059874459122  0.3996626353464041
  0.2083624996219204  0.7922627226716737  0.3999692505142963
  0.2086913222231615  0.9175356626821934  0.4000128776023090
  0.3336658627595309  0.0425106848135226  0.3998704618929557
  0.3340781195900918  0.1680829367459127  0.3999658473913750
  0.3344015082549342  0.2938039938257438  0.4016403555735268
  0.3308566111821574  0.4187249684161884  0.4047575158248229
  0.3306927815463539  0.5422278460951427  0.4012963913631968
  0.3324514379370977  0.6667730051611063  0.3997421027388433
  0.3330189060136364  0.7918836891181497  0.3997162162316133
  0.3333971017152378  0.9171252045476431  0.4000003871835766
  0.4583681894506065  0.0416922104915302  0.4000178684177215
  0.4586753961163685  0.1671545556914911  0.3996959252871840
  0.4593375611947019  0.2929636786727977  0.4001651674360144
  0.4629087729568341  0.4187460916926045  0.4047284218738227
  0.4567101641360150  0.6638648872367223  0.4018429707988699
  0.4576921084704118  0.7906427366377490  0.3998157775688055
  0.4580543484502920  0.9162225472822166  0.3998809997705690
  0.5830565360848878  0.0409208458994218  0.4000183443174804
  0.5833843931758707  0.1662237730239546  0.3999391181161836
  0.5839287340069704  0.2913118355041902  0.3995811022615084
  0.5854056523282980  0.4162648150463584  0.3997069607629326
  0.5865904117108901  0.5422356699436098  0.4012482127479137
  0.5821451178972182  0.6638452879754129  0.4018270463877021
  0.5822411275358987  0.7895032829872548  0.4003694046607734
  0.5826999255825996  0.9154359407938014  0.3998510482882331
  0.7078054157275887  0.0406388834366692  0.3999575632214592
  0.7080738775068566  0.1659136917851633  0.4000707840732692
  0.7084777649577838  0.2911439871655607  0.3999024507812302
  0.7093872427664061  0.4164910959299054  0.3996119291594184
  0.7101752595030658  0.5417607137620599  0.3994996025431733
  0.7093484069929307  0.6667968491683580  0.3997252477125712
  0.7079222544798350  0.7906476256281990  0.3998036096868243
  0.7077052705369637  0.9154373998003702  0.3998397383315677
  0.8328689758443442  0.0409482373604976  0.3999788154092774
  0.8328242916593582  0.1659251093822633  0.4000536453966328
  0.8330939182864481  0.2911697116454463  0.4000885276463508
  0.8335902475810596  0.4164151098704370  0.4000270937412459
  0.8341510191458136  0.5417316912725602  0.3998220234424276
  0.8342297351127815  0.6671270314033462  0.3996721122862567
  0.8338687023337179  0.7919175226405759  0.3997226527917945
  0.8331662299998829  0.9162529599387027  0.3998644401070189
  0.9583349956042055  0.0417256648693443  0.4000086212860662
  0.9578458890639375  0.1662649542778196  0.3999112841812777
  0.9576885449885115  0.2911708783952526  0.3998922734315103
  0.9578364637876087  0.4164138491491320  0.4000494056657900
  0.9584193886007270  0.5418156035850016  0.4001273283024483
  0.9588118750742289  0.6671088880520943  0.4000232147575278
  0.9588982910050402  0.7922913643064795  0.3999886939889221
  0.9587441095668148  0.9171655861582816  0.4000389903373562
 
  0.00000000E+00  0.00000000E+00  0.00000000E+00
  0.00000000E+00  0.00000000E+00  0.00000000E+00
  0.00000000E+00  0.00000000E+00  0.00000000E+00
  0.00000000E+00  0.00000000E+00  0.00000000E+00
  0.00000000E+00  0.00000000E+00  0.00000000E+00
  0.00000000E+00  0.00000000E+00  0.00000000E+00
  0.00000000E+00  0.00000000E+00  0.00000000E+00
  0.00000000E+00  0.00000000E+00  0.00000000E+00
  0.00000000E+00  0.00000000E+00  0.00000000E+00
  0.00000000E+00  0.00000000E+00  0.00000000E+00
  0.00000000E+00  0.00000000E+00  0.00000000E+00
  0.00000000E+00  0.00000000E+00  0.00000000E+00
  0.00000000E+00  0.00000000E+00  0.00000000E+00
  0.00000000E+00  0.00000000E+00  0.00000000E+00
  0.00000000E+00  0.00000000E+00  0.00000000E+00
  0.00000000E+00  0.00000000E+00  0.00000000E+00
  0.00000000E+00  0.00000000E+00  0.00000000E+00
  0.00000000E+00  0.00000000E+00  0.00000000E+00
  0.00000000E+00  0.00000000E+00  0.00000000E+00
  0.00000000E+00  0.00000000E+00  0.00000000E+00
  0.00000000E+00  0.00000000E+00  0.00000000E+00
  0.00000000E+00  0.00000000E+00  0.00000000E+00
  0.00000000E+00  0.00000000E+00  0.00000000E+00
  0.00000000E+00  0.00000000E+00  0.00000000E+00
  0.00000000E+00  0.00000000E+00  0.00000000E+00
  0.00000000E+00  0.00000000E+00  0.00000000E+00
  0.00000000E+00  0.00000000E+00  0.00000000E+00
  0.00000000E+00  0.00000000E+00  0.00000000E+00
  0.00000000E+00  0.00000000E+00  0.00000000E+00
  0.00000000E+00  0.00000000E+00  0.00000000E+00
  0.00000000E+00  0.00000000E+00  0.00000000E+00
  0.00000000E+00  0.00000000E+00  0.00000000E+00
  0.00000000E+00  0.00000000E+00  0.00000000E+00
  0.00000000E+00  0.00000000E+00  0.00000000E+00
  0.00000000E+00  0.00000000E+00  0.00000000E+00
  0.00000000E+00  0.00000000E+00  0.00000000E+00
  0.00000000E+00  0.00000000E+00  0.00000000E+00
  0.00000000E+00  0.00000000E+00  0.00000000E+00
  0.00000000E+00  0.00000000E+00  0.00000000E+00
  0.00000000E+00  0.00000000E+00  0.00000000E+00
  0.00000000E+00  0.00000000E+00  0.00000000E+00
  0.00000000E+00  0.00000000E+00  0.00000000E+00
  0.00000000E+00  0.00000000E+00  0.00000000E+00
  0.00000000E+00  0.00000000E+00  0.00000000E+00
  0.00000000E+00  0.00000000E+00  0.00000000E+00
  0.00000000E+00  0.00000000E+00  0.00000000E+00
  0.00000000E+00  0.00000000E+00  0.00000000E+00
  0.00000000E+00  0.00000000E+00  0.00000000E+00
  0.00000000E+00  0.00000000E+00  0.00000000E+00
  0.00000000E+00  0.00000000E+00  0.00000000E+00
  0.00000000E+00  0.00000000E+00  0.00000000E+00
  0.00000000E+00  0.00000000E+00  0.00000000E+00
  0.00000000E+00  0.00000000E+00  0.00000000E+00
  0.00000000E+00  0.00000000E+00  0.00000000E+00
  0.00000000E+00  0.00000000E+00  0.00000000E+00
  0.00000000E+00  0.00000000E+00  0.00000000E+00
  0.00000000E+00  0.00000000E+00  0.00000000E+00
  0.00000000E+00  0.00000000E+00  0.00000000E+00
  0.00000000E+00  0.00000000E+00  0.00000000E+00
  0.00000000E+00  0.00000000E+00  0.00000000E+00
  0.00000000E+00  0.00000000E+00  0.00000000E+00
  0.00000000E+00  0.00000000E+00  0.00000000E+00
  0.00000000E+00  0.00000000E+00  0.00000000E+00
  0.00000000E+00  0.00000000E+00  0.00000000E+00
  0.00000000E+00  0.00000000E+00  0.00000000E+00
  0.00000000E+00  0.00000000E+00  0.00000000E+00
  0.00000000E+00  0.00000000E+00  0.00000000E+00
  0.00000000E+00  0.00000000E+00  0.00000000E+00
  0.00000000E+00  0.00000000E+00  0.00000000E+00
  0.00000000E+00  0.00000000E+00  0.00000000E+00
  0.00000000E+00  0.00000000E+00  0.00000000E+00
  0.00000000E+00  0.00000000E+00  0.00000000E+00
  0.00000000E+00  0.00000000E+00  0.00000000E+00
  0.00000000E+00  0.00000000E+00  0.00000000E+00
  0.00000000E+00  0.00000000E+00  0.00000000E+00
  0.00000000E+00  0.00000000E+00  0.00000000E+00
  0.00000000E+00  0.00000000E+00  0.00000000E+00
  0.00000000E+00  0.00000000E+00  0.00000000E+00
  0.00000000E+00  0.00000000E+00  0.00000000E+00
  0.00000000E+00  0.00000000E+00  0.00000000E+00
  0.00000000E+00  0.00000000E+00  0.00000000E+00
  0.00000000E+00  0.00000000E+00  0.00000000E+00
  0.00000000E+00  0.00000000E+00  0.00000000E+00
  0.00000000E+00  0.00000000E+00  0.00000000E+00
  0.00000000E+00  0.00000000E+00  0.00000000E+00
  0.00000000E+00  0.00000000E+00  0.00000000E+00
  0.00000000E+00  0.00000000E+00  0.00000000E+00
  0.00000000E+00  0.00000000E+00  0.00000000E+00
  0.00000000E+00  0.00000000E+00  0.00000000E+00
  0.00000000E+00  0.00000000E+00  0.00000000E+00
  0.00000000E+00  0.00000000E+00  0.00000000E+00
  0.00000000E+00  0.00000000E+00  0.00000000E+00
  0.00000000E+00  0.00000000E+00  0.00000000E+00
  0.00000000E+00  0.00000000E+00  0.00000000E+00
  0.00000000E+00  0.00000000E+00  0.00000000E+00
  0.00000000E+00  0.00000000E+00  0.00000000E+00
  0.00000000E+00  0.00000000E+00  0.00000000E+00
  0.00000000E+00  0.00000000E+00  0.00000000E+00
  0.00000000E+00  0.00000000E+00  0.00000000E+00
  0.00000000E+00  0.00000000E+00  0.00000000E+00
  0.00000000E+00  0.00000000E+00  0.00000000E+00
  0.00000000E+00  0.00000000E+00  0.00000000E+00
  0.00000000E+00  0.00000000E+00  0.00000000E+00
  0.00000000E+00  0.00000000E+00  0.00000000E+00
  0.00000000E+00  0.00000000E+00  0.00000000E+00
  0.00000000E+00  0.00000000E+00  0.00000000E+00
  0.00000000E+00  0.00000000E+00  0.00000000E+00
  0.00000000E+00  0.00000000E+00  0.00000000E+00
  0.00000000E+00  0.00000000E+00  0.00000000E+00
  0.00000000E+00  0.00000000E+00  0.00000000E+00
  0.00000000E+00  0.00000000E+00  0.00000000E+00
  0.00000000E+00  0.00000000E+00  0.00000000E+00
  0.00000000E+00  0.00000000E+00  0.00000000E+00
  0.00000000E+00  0.00000000E+00  0.00000000E+00
  0.00000000E+00  0.00000000E+00  0.00000000E+00
  0.00000000E+00  0.00000000E+00  0.00000000E+00
  0.00000000E+00  0.00000000E+00  0.00000000E+00
  0.00000000E+00  0.00000000E+00  0.00000000E+00
  0.00000000E+00  0.00000000E+00  0.00000000E+00
  0.00000000E+00  0.00000000E+00  0.00000000E+00
  0.00000000E+00  0.00000000E+00  0.00000000E+00
  0.00000000E+00  0.00000000E+00  0.00000000E+00
  0.00000000E+00  0.00000000E+00  0.00000000E+00
  0.00000000E+00  0.00000000E+00  0.00000000E+00
  0.00000000E+00  0.00000000E+00  0.00000000E+00
  0.00000000E+00  0.00000000E+00  0.00000000E+00
  0.00000000E+00  0.00000000E+00  0.00000000E+00
