H1 Rh1 C122 N4 O2                       
   1.00000000000000     
    19.8408117771011234    0.0000831663450135    0.0043836432476723
    -9.9203098333782123   17.0201720928130449   -0.0264734546768417
     0.0066059008459439   -0.0424399560678556   29.7974129369351388
   H    Rh   C    N    O 
     1     1   122     4     2
Direct
  0.5247238737625449  0.5481036328738307  0.5073806801078867
  0.4373848356130620  0.4999637082015583  0.4105444993922012
  0.0421120968476364  0.0843366688232814  0.4000185442575053
  0.0407433669378240  0.2081117209469531  0.4002867245042534
  0.0397338990250687  0.3327417982303036  0.4000792327162694
  0.0399090741751134  0.4581914234352842  0.3993400756385627
  0.0411468631362430  0.5839326024789936  0.3987897202933758
  0.0423061464700608  0.7095649407960145  0.3989332587323574
  0.0427260898669751  0.8348917572628107  0.3992320852898507
  0.0427986940415260  0.9600498301343291  0.3995299482967218
  0.1684953919325537  0.0864306308317321  0.4009353767236417
  0.1674643937108354  0.2106298680557976  0.4019577192401471
  0.1643461079783690  0.3335696974423374  0.4022276349303242
  0.1629674509629100  0.4584479500389071  0.4016990013870768
  0.1644273218626187  0.5838389870868157  0.4002822976899471
  0.1662499988567381  0.7093121297805774  0.3993330341531597
  0.1671974718800184  0.8348915968895371  0.3992581171208486
  0.1678241910316522  0.9605842713773017  0.3998094845152320
  0.2929694509766924  0.0864046079763434  0.4009251140813581
  0.2946233407577420  0.2142123038723710  0.4030587691352062
  0.2921777517673660  0.3392739973837738  0.4042780060121699
  0.2854608686064187  0.4579701050644615  0.4042950278006928
  0.2871659382875116  0.5833003464918792  0.4029390868983926
  0.2901754549439156  0.7086459678074732  0.4008226513358132
  0.2915644882196828  0.8342032723266062  0.3995051403066668
  0.2923155759747307  0.9600346345990978  0.3995294760561302
  0.4172754119052157  0.0843105649492103  0.4000172545759610
  0.4181826502029569  0.2106180667454074  0.4020531064158185
  0.4220870763660438  0.3392721017460925  0.4046526215351081
  0.4140492894430906  0.7058596618641312  0.4029427576931767
  0.4158677721383154  0.8321699955555789  0.4007079656734392
  0.4166552032456058  0.9582584314743154  0.3994539236207153
  0.5415872672223747  0.0823413137152154  0.3993764814583314
  0.5423920679747080  0.2081027699440067  0.4003425855266816
  0.5441842548497384  0.3335505214670215  0.4025608281408125
  0.5474216326009145  0.4579440306225764  0.4051352939128632
  0.5378753355217540  0.7007552146474583  0.4046314600860935
  0.5401369781410202  0.8295940492481568  0.4020889502421295
  0.5409667904577605  0.9562581419866696  0.4000820469531362
  0.6659782793149532  0.0815097821362391  0.3995028455632068
  0.6666680440324476  0.2071388570825606  0.3992806380445251
  0.6679945755813748  0.3327464431102408  0.4001014136100929
  0.6704136874268035  0.4584415862983986  0.4019475625385946
  0.6710698192598245  0.5832940704826796  0.4034055001631290
  0.6668294749923233  0.7059055641350550  0.4031721940230591
  0.6644987670794741  0.8296320387305381  0.4021010618294907
  0.6653832172391491  0.9557256446278684  0.4005398088111093
  0.7905902689401144  0.0815061133049759  0.3995014163746708
  0.7909697544963673  0.2069173154742786  0.3991847035311304
  0.7918404136598429  0.3325002296590662  0.3989036215405927
  0.7932463120728108  0.4581842715824532  0.3992648361185439
  0.7943672676599047  0.5838297844750584  0.4002945350563655
  0.7934708376942089  0.7086539985988042  0.4009204416297815
  0.7913543071033915  0.8322004912638552  0.4007400100612958
  0.7903492685784768  0.9562867873584134  0.4000599591766353
  0.9158290140799742  0.0823522398999024  0.3993801671399896
  0.9154970639273419  0.2071282349181039  0.3993198063350044
  0.9156877680390940  0.3325047954926260  0.3989617702948920
  0.9166094316248535  0.4582146949926362  0.3985103472884014
  0.9177754433039581  0.5839364061389846  0.3987058611270580
  0.9180807715171756  0.7093020291913510  0.3992766432714517
  0.9176835816611038  0.8342054834523529  0.3994837439582481
  0.9166940791365691  0.9582867975008235  0.3994432145197305
  0.0847574347578626  0.0438228588394133  0.4001154206831641
  0.0837407764260771  0.1679030319216835  0.4007383178450352
  0.0815649135830755  0.2914170083484928  0.4008243230142329
  0.0806163708985233  0.4162202323878709  0.4002964584302992
  0.0817388135475749  0.5418667159966553  0.3993326269330206
  0.0832165241785474  0.6675632574287051  0.3989576744527025
  0.0840895383526314  0.7931484065307857  0.3991706827421305
  0.0845090798546759  0.9185668723651148  0.3995017684214324
  0.2097078843589044  0.0443618545531745  0.4005809539157184
  0.2106033343427148  0.1705123945387000  0.4020949364757895
  0.2082428738495574  0.2942257553608296  0.4028602606938023
  0.2039092552674301  0.4167722388242693  0.4028952844019542
  0.2045561606022642  0.5416236900391289  0.4016912353604383
  0.2070236863191139  0.6673260346560532  0.4000594733279160
  0.2084006247298325  0.7929369144381121  0.3992986042687228
  0.2091272526708797  0.9185656560465579  0.3995033843657997
  0.3341119115111872  0.0437984830898508  0.4001031278253135
  0.3349351593302574  0.1704811959015449  0.4021132378246171
  0.3371944216476836  0.2993788281018498  0.4044226423551285
  0.3275155202196767  0.5421077187616309  0.4044216864770049
  0.3308119817338838  0.6665180502880083  0.4022801631081299
  0.3326657544834147  0.7919607076032333  0.4002617628553725
  0.3335126842368302  0.9177196542938926  0.3993723909532447
  0.4584500529718971  0.0417918597711049  0.3994671757080987
  0.4591999363844786  0.1678928118861047  0.4007975012348650
  0.4609703408455046  0.2942127847434177  0.4031418237213206
  0.4529384373503182  0.6608227478601921  0.4045254254161114
  0.4568752180612445  0.7894518424478225  0.4019629454424420
  0.4578099329487813  0.9157358672740867  0.3999805994416610
  0.5827854700592390  0.0400251857729012  0.3995269439592157
  0.5835183504999029  0.1658684117495057  0.3995137201756693
  0.5848404119798207  0.2914174200935458  0.4009470016491026
  0.5877907764876358  0.4167603886084137  0.4034010413357909
  0.5895416713209153  0.5420584094103640  0.4052473723031931
  0.5829007219411273  0.6608952324171806  0.4048581566656578
  0.5804867773307039  0.7859407955994064  0.4031140590712229
  0.5821083594712275  0.9136652939090398  0.4008941514363051
  0.7072784571561055  0.0395013138107013  0.3997944283750043
  0.7078642614266097  0.1651816384014210  0.3992425880227339
  0.7088071909936856  0.2907680372620672  0.3992975577216665
  0.7105568860455433  0.4162204523533680  0.4003163035585581
  0.7120240323045403  0.5416083870230145  0.4019278295281428
  0.7107011586712476  0.6665248986414702  0.4025633034923923
  0.7076248984236057  0.7894955724153576  0.4020254758596362
  0.7066098181585940  0.9136976305318947  0.4008752790011812
  0.8323177984940260  0.0400433277168883  0.3995139229425995
  0.8323393633244545  0.1651765358002354  0.3992747141965952
  0.8327633488014304  0.2905006317795539  0.3989420647535266
  0.8338656518238303  0.4161231752762596  0.3987107296791413
  0.8350924396043767  0.5418593579194155  0.3992565347718393
  0.8352943458051543  0.6673058010527790  0.4000754062505230
  0.8343318526648765  0.7919734641469522  0.4003017562533060
  0.8330042888677488  0.9157752699492706  0.3999720602338728
  0.9584354740338892  0.0418156057283998  0.3994672376544206
  0.9573966013956700  0.1658645452453313  0.3995270622454031
  0.9569599240169591  0.2907450823366786  0.3993474588651635
  0.9572347213276454  0.4161290043271041  0.3987894113286684
  0.9584187251536149  0.5418494170716203  0.3985101192767794
  0.9593763248905011  0.6675597415804960  0.3988959549422103
  0.9595667535708517  0.7929248399582124  0.3992607872380201
  0.9592824114404764  0.9177315640844784  0.3993551146887079
  0.4074462020488802  0.5806206037391742  0.4050782232568944
  0.5481003013988852  0.5806271525454535  0.4059526873325260
  0.3268171552341905  0.4194330826657117  0.4046021035281014
  0.4675332031575302  0.4194373231541729  0.4054768531848003
  0.4889158901648376  0.4926099268028241  0.5002488553454799
  0.4269237889279978  0.4963420307395897  0.4777187577234431
 
  0.00000000E+00  0.00000000E+00  0.00000000E+00
  0.00000000E+00  0.00000000E+00  0.00000000E+00
  0.00000000E+00  0.00000000E+00  0.00000000E+00
  0.00000000E+00  0.00000000E+00  0.00000000E+00
  0.00000000E+00  0.00000000E+00  0.00000000E+00
  0.00000000E+00  0.00000000E+00  0.00000000E+00
  0.00000000E+00  0.00000000E+00  0.00000000E+00
  0.00000000E+00  0.00000000E+00  0.00000000E+00
  0.00000000E+00  0.00000000E+00  0.00000000E+00
  0.00000000E+00  0.00000000E+00  0.00000000E+00
  0.00000000E+00  0.00000000E+00  0.00000000E+00
  0.00000000E+00  0.00000000E+00  0.00000000E+00
  0.00000000E+00  0.00000000E+00  0.00000000E+00
  0.00000000E+00  0.00000000E+00  0.00000000E+00
  0.00000000E+00  0.00000000E+00  0.00000000E+00
  0.00000000E+00  0.00000000E+00  0.00000000E+00
  0.00000000E+00  0.00000000E+00  0.00000000E+00
  0.00000000E+00  0.00000000E+00  0.00000000E+00
  0.00000000E+00  0.00000000E+00  0.00000000E+00
  0.00000000E+00  0.00000000E+00  0.00000000E+00
  0.00000000E+00  0.00000000E+00  0.00000000E+00
  0.00000000E+00  0.00000000E+00  0.00000000E+00
  0.00000000E+00  0.00000000E+00  0.00000000E+00
  0.00000000E+00  0.00000000E+00  0.00000000E+00
  0.00000000E+00  0.00000000E+00  0.00000000E+00
  0.00000000E+00  0.00000000E+00  0.00000000E+00
  0.00000000E+00  0.00000000E+00  0.00000000E+00
  0.00000000E+00  0.00000000E+00  0.00000000E+00
  0.00000000E+00  0.00000000E+00  0.00000000E+00
  0.00000000E+00  0.00000000E+00  0.00000000E+00
  0.00000000E+00  0.00000000E+00  0.00000000E+00
  0.00000000E+00  0.00000000E+00  0.00000000E+00
  0.00000000E+00  0.00000000E+00  0.00000000E+00
  0.00000000E+00  0.00000000E+00  0.00000000E+00
  0.00000000E+00  0.00000000E+00  0.00000000E+00
  0.00000000E+00  0.00000000E+00  0.00000000E+00
  0.00000000E+00  0.00000000E+00  0.00000000E+00
  0.00000000E+00  0.00000000E+00  0.00000000E+00
  0.00000000E+00  0.00000000E+00  0.00000000E+00
  0.00000000E+00  0.00000000E+00  0.00000000E+00
  0.00000000E+00  0.00000000E+00  0.00000000E+00
  0.00000000E+00  0.00000000E+00  0.00000000E+00
  0.00000000E+00  0.00000000E+00  0.00000000E+00
  0.00000000E+00  0.00000000E+00  0.00000000E+00
  0.00000000E+00  0.00000000E+00  0.00000000E+00
  0.00000000E+00  0.00000000E+00  0.00000000E+00
  0.00000000E+00  0.00000000E+00  0.00000000E+00
  0.00000000E+00  0.00000000E+00  0.00000000E+00
  0.00000000E+00  0.00000000E+00  0.00000000E+00
  0.00000000E+00  0.00000000E+00  0.00000000E+00
  0.00000000E+00  0.00000000E+00  0.00000000E+00
  0.00000000E+00  0.00000000E+00  0.00000000E+00
  0.00000000E+00  0.00000000E+00  0.00000000E+00
  0.00000000E+00  0.00000000E+00  0.00000000E+00
  0.00000000E+00  0.00000000E+00  0.00000000E+00
  0.00000000E+00  0.00000000E+00  0.00000000E+00
  0.00000000E+00  0.00000000E+00  0.00000000E+00
  0.00000000E+00  0.00000000E+00  0.00000000E+00
  0.00000000E+00  0.00000000E+00  0.00000000E+00
  0.00000000E+00  0.00000000E+00  0.00000000E+00
  0.00000000E+00  0.00000000E+00  0.00000000E+00
  0.00000000E+00  0.00000000E+00  0.00000000E+00
  0.00000000E+00  0.00000000E+00  0.00000000E+00
  0.00000000E+00  0.00000000E+00  0.00000000E+00
  0.00000000E+00  0.00000000E+00  0.00000000E+00
  0.00000000E+00  0.00000000E+00  0.00000000E+00
  0.00000000E+00  0.00000000E+00  0.00000000E+00
  0.00000000E+00  0.00000000E+00  0.00000000E+00
  0.00000000E+00  0.00000000E+00  0.00000000E+00
  0.00000000E+00  0.00000000E+00  0.00000000E+00
  0.00000000E+00  0.00000000E+00  0.00000000E+00
  0.00000000E+00  0.00000000E+00  0.00000000E+00
  0.00000000E+00  0.00000000E+00  0.00000000E+00
  0.00000000E+00  0.00000000E+00  0.00000000E+00
  0.00000000E+00  0.00000000E+00  0.00000000E+00
  0.00000000E+00  0.00000000E+00  0.00000000E+00
  0.00000000E+00  0.00000000E+00  0.00000000E+00
  0.00000000E+00  0.00000000E+00  0.00000000E+00
  0.00000000E+00  0.00000000E+00  0.00000000E+00
  0.00000000E+00  0.00000000E+00  0.00000000E+00
  0.00000000E+00  0.00000000E+00  0.00000000E+00
  0.00000000E+00  0.00000000E+00  0.00000000E+00
  0.00000000E+00  0.00000000E+00  0.00000000E+00
  0.00000000E+00  0.00000000E+00  0.00000000E+00
  0.00000000E+00  0.00000000E+00  0.00000000E+00
  0.00000000E+00  0.00000000E+00  0.00000000E+00
  0.00000000E+00  0.00000000E+00  0.00000000E+00
  0.00000000E+00  0.00000000E+00  0.00000000E+00
  0.00000000E+00  0.00000000E+00  0.00000000E+00
  0.00000000E+00  0.00000000E+00  0.00000000E+00
  0.00000000E+00  0.00000000E+00  0.00000000E+00
  0.00000000E+00  0.00000000E+00  0.00000000E+00
  0.00000000E+00  0.00000000E+00  0.00000000E+00
  0.00000000E+00  0.00000000E+00  0.00000000E+00
  0.00000000E+00  0.00000000E+00  0.00000000E+00
  0.00000000E+00  0.00000000E+00  0.00000000E+00
  0.00000000E+00  0.00000000E+00  0.00000000E+00
  0.00000000E+00  0.00000000E+00  0.00000000E+00
  0.00000000E+00  0.00000000E+00  0.00000000E+00
  0.00000000E+00  0.00000000E+00  0.00000000E+00
  0.00000000E+00  0.00000000E+00  0.00000000E+00
  0.00000000E+00  0.00000000E+00  0.00000000E+00
  0.00000000E+00  0.00000000E+00  0.00000000E+00
  0.00000000E+00  0.00000000E+00  0.00000000E+00
  0.00000000E+00  0.00000000E+00  0.00000000E+00
  0.00000000E+00  0.00000000E+00  0.00000000E+00
  0.00000000E+00  0.00000000E+00  0.00000000E+00
  0.00000000E+00  0.00000000E+00  0.00000000E+00
  0.00000000E+00  0.00000000E+00  0.00000000E+00
  0.00000000E+00  0.00000000E+00  0.00000000E+00
  0.00000000E+00  0.00000000E+00  0.00000000E+00
  0.00000000E+00  0.00000000E+00  0.00000000E+00
  0.00000000E+00  0.00000000E+00  0.00000000E+00
  0.00000000E+00  0.00000000E+00  0.00000000E+00
  0.00000000E+00  0.00000000E+00  0.00000000E+00
  0.00000000E+00  0.00000000E+00  0.00000000E+00
  0.00000000E+00  0.00000000E+00  0.00000000E+00
  0.00000000E+00  0.00000000E+00  0.00000000E+00
  0.00000000E+00  0.00000000E+00  0.00000000E+00
  0.00000000E+00  0.00000000E+00  0.00000000E+00
  0.00000000E+00  0.00000000E+00  0.00000000E+00
  0.00000000E+00  0.00000000E+00  0.00000000E+00
  0.00000000E+00  0.00000000E+00  0.00000000E+00
  0.00000000E+00  0.00000000E+00  0.00000000E+00
  0.00000000E+00  0.00000000E+00  0.00000000E+00
  0.00000000E+00  0.00000000E+00  0.00000000E+00
  0.00000000E+00  0.00000000E+00  0.00000000E+00
  0.00000000E+00  0.00000000E+00  0.00000000E+00
  0.00000000E+00  0.00000000E+00  0.00000000E+00
  0.00000000E+00  0.00000000E+00  0.00000000E+00
