Fe1 C123 N3                             
   1.00000000000000     
    19.8114605868027489    0.0032923994220634    0.0227275567351374
    -9.9026877150989314   17.0375196082292959   -0.0243103248884555
     0.0333999588886208   -0.0225438366815402   29.8083610101090350
   Fe   C    N 
     1   123     3
Direct
  0.4370453798067326  0.4994626862321813  0.4051036865649538
  0.0418452112493020  0.0839469214615032  0.3999695961435464
  0.0410965955527342  0.2082068563091947  0.4003088147587047
  0.0404651874510735  0.3330401537300027  0.4003991726581803
  0.0406060125620394  0.4582229350956435  0.3998673381971917
  0.0413526214347738  0.5836935953549625  0.3992375281475729
  0.0420584430847307  0.7091112461657835  0.3991848708845192
  0.0422843357746082  0.8341901721618544  0.3994394735346261
  0.0421994953731812  0.9592366097975085  0.3997225975070339
  0.1674837419770694  0.0849668957670955  0.4003923614319094
  0.1672905121594116  0.2099756826920839  0.4012008028744728
  0.1652274035417145  0.3336063054086139  0.4018750026851458
  0.1644303450069955  0.4585377184388651  0.4015307131022642
  0.1651170025874176  0.5837033065115084  0.4004618024213135
  0.1662897577695546  0.7088990385766778  0.3995899750479619
  0.1669154664912075  0.8342111513229399  0.3994287396737253
  0.1672360317469791  0.9595992569805840  0.3998109462476266
  0.2923879941729523  0.0853480983072224  0.4004038696393866
  0.2928329935913999  0.2118107454206931  0.4016617993058266
  0.2923300118659011  0.3374640103362207  0.4031884913872042
  0.2879799292603594  0.4583999317459799  0.4034994419337082
  0.2884151948684508  0.5830972213567475  0.4022027371892234
  0.2906200706858181  0.7084156516514145  0.4005576532280655
  0.2915557662294292  0.8338701661940802  0.3996562194540627
  0.2919952157069831  0.9593335804893922  0.3997093220837950
  0.4169921852970171  0.0840465013174084  0.3999549169243965
  0.4176061055366856  0.2100450290518254  0.4012508950808443
  0.4191669502076365  0.3373824954634626  0.4035194492399001
  0.4148033065408082  0.7064578926691847  0.4018691626871991
  0.4161261612879771  0.8323753010138523  0.4002405355971033
  0.4166762685026352  0.9582894128688103  0.3996397640483876
  0.5416232579601481  0.0827360081082425  0.3996509834413812
  0.5421529803959002  0.2083692385489511  0.4002643671651169
  0.5432040447442467  0.3338224593352909  0.4020945102371142
  0.5467602839372204  0.4594756893757849  0.4043126079587612
  0.5385411672864256  0.7021512798447217  0.4028563401271313
  0.5406570267857091  0.8305344350711026  0.4009656160081609
  0.5412112486620609  0.9569553359315059  0.3999796677104649
  0.6662907496790370  0.0822339159651619  0.3996790496103450
  0.6666541510022680  0.2075472966640615  0.3995613706665210
  0.6675293875461812  0.3329536278149695  0.4003114901576885
  0.6696175028347383  0.4585761158921228  0.4018000683252512
  0.6705616692577365  0.5839484482021120  0.4027716720216315
  0.6664777154677817  0.7063157799524263  0.4022940476108534
  0.6648314660403705  0.8305391266823476  0.4010778109725201
  0.6657740642969279  0.9565832694917079  0.4002483065324516
  0.7909465070916029  0.0821989916789667  0.3997302199186945
  0.7912480679538550  0.2074685821308000  0.3994198167141066
  0.7917900921150093  0.3327890988338809  0.3992685969847945
  0.7928829840480075  0.4582217451034938  0.3997572314433505
  0.7937904494504360  0.5837417153845660  0.4005855351473048
  0.7931498657809757  0.7088174827823642  0.4008179550762060
  0.7911665320356857  0.8324034551521960  0.4004561275561221
  0.7906609541443012  0.9569028677244398  0.4000670781618774
  0.9160528833450424  0.0827127075582057  0.3997171494245698
  0.9159020983593843  0.2075828869685135  0.3996859972882998
  0.9160602258051077  0.3327855700797713  0.3993817558525786
  0.9167027798934035  0.4582435981544642  0.3990159559403237
  0.9175080308045488  0.5837256148736292  0.3991864561256910
  0.9176411894056562  0.7089568626209101  0.3996105019787629
  0.9173197549613413  0.8339146477913809  0.3997430092520530
  0.9165172988602969  0.9582102080592872  0.3997135194684890
  0.0839706932709560  0.0428254659221700  0.4000083021990579
  0.0836273107051343  0.1675902258374760  0.4004316232947380
  0.0824425214000287  0.2916702705840220  0.4008372825804019
  0.0816512904343755  0.4163499750464265  0.4006048830759917
  0.0822806250506031  0.5417829578768849  0.3998133935893562
  0.0832197876545530  0.6672050539054706  0.3992678685685915
  0.0837199964347815  0.7925088764522352  0.3993370501854774
  0.0839358139386969  0.9177145012948158  0.3996462209888866
  0.2089488829202924  0.0432083299844792  0.4002142891230906
  0.2093552015775610  0.1688003286725434  0.4010426692300288
  0.2086027814167467  0.2936648690600790  0.4021628971757410
  0.2059185808846314  0.4170362995039628  0.4023976411724373
  0.2056958874095366  0.5415480262724369  0.4014287378727077
  0.2073022549672044  0.6669982581145965  0.4001851726372482
  0.2083045640403016  0.7924353746186132  0.3995195906962529
  0.2087077282976038  0.9177328354933851  0.3996337236348834
  0.3337602275711763  0.0430387973933877  0.4000222093348981
  0.3340698032106528  0.1691191894695415  0.4010740957130453
  0.3346801632802205  0.2961211120705959  0.4029112466287406
  0.3292260955170321  0.5419084123893169  0.4034384394278738
  0.3314492397646771  0.6663921367856874  0.4015540922863199
  0.3328774881734767  0.7917580529660873  0.4000781487733758
  0.3333752493362049  0.9172898494196021  0.3995986987663991
  0.4583685948183028  0.0417790400090499  0.3996709209904901
  0.4587729764616053  0.1676334892214118  0.4004243560771947
  0.4598017646405592  0.2935918862562851  0.4023742576300242
  0.4644070729191548  0.4193046406737083  0.4047308149212123
  0.4540683648644996  0.6618743414814209  0.4030578810024719
  0.4572843841370936  0.7899004970308156  0.4009863950965415
  0.4579712964831356  0.9160019474146918  0.3998910290749951
  0.5830027488283089  0.0406511655280186  0.3997221912406153
  0.5834659216869510  0.1662328489963409  0.3997456361790502
  0.5842560717863595  0.2916166286651414  0.4008274823429903
  0.5867845931594253  0.4171150636663587  0.4028702266441522
  0.5891841372090552  0.5428989081766843  0.4041591949935227
  0.5824037186856175  0.6615931420933685  0.4033734583125287
  0.5810710567488112  0.7872364754819396  0.4016558006663403
  0.5824825084837764  0.9145233667796385  0.4003743695277809
  0.7076438064939674  0.0403172623970732  0.3998720211384552
  0.7081011394601192  0.1657453503000300  0.3994805006658768
  0.7086432719032624  0.2910906415952194  0.3996114024541306
  0.7100759745756137  0.4163897593648234  0.4005905332593147
  0.7112920866463228  0.5416719512414425  0.4017832975795596
  0.7103904216114191  0.6670340791044025  0.4020212728272705
  0.7074822962679091  0.7899291978997899  0.4012475267598772
  0.7069999232159793  0.9145495284240289  0.4004305062397820
  0.8326055111492643  0.0406479191619299  0.3997970868035287
  0.8327289551032485  0.1657847399253269  0.3995529874290604
  0.8329840741227568  0.2908900708946606  0.3992453870754504
  0.8337821971805739  0.4162734824447417  0.3991939024499807
  0.8346792500493886  0.5417937444013728  0.3997577737200270
  0.8348011850253079  0.6671577421351264  0.4003083111080982
  0.8340162879972445  0.7919915131123648  0.4002764406141664
  0.8329257734767814  0.9160029166323446  0.4000018713643585
  0.9583134820448890  0.0417565855077473  0.3997158235637062
  0.9577259487243643  0.1661732662369926  0.3998330017540828
  0.9574969544607287  0.2911347016798833  0.3997560722818388
  0.9577197781722960  0.4163047673294322  0.3993110357284867
  0.9584344688990339  0.5417113360214425  0.3989987319384059
  0.9590539233058132  0.6672204737804256  0.3992543370408761
  0.9591357676954497  0.7925080927997592  0.3995417412528223
  0.9588204558569782  0.9173299155928807  0.3996524970603428
  0.4100140497765025  0.5817409209447898  0.4041135562823830
  0.5466805113257955  0.5810053479694124  0.4045609309913239
  0.3298499800148936  0.4188264208232386  0.4041176644028492
 
  0.00000000E+00  0.00000000E+00  0.00000000E+00
  0.00000000E+00  0.00000000E+00  0.00000000E+00
  0.00000000E+00  0.00000000E+00  0.00000000E+00
  0.00000000E+00  0.00000000E+00  0.00000000E+00
  0.00000000E+00  0.00000000E+00  0.00000000E+00
  0.00000000E+00  0.00000000E+00  0.00000000E+00
  0.00000000E+00  0.00000000E+00  0.00000000E+00
  0.00000000E+00  0.00000000E+00  0.00000000E+00
  0.00000000E+00  0.00000000E+00  0.00000000E+00
  0.00000000E+00  0.00000000E+00  0.00000000E+00
  0.00000000E+00  0.00000000E+00  0.00000000E+00
  0.00000000E+00  0.00000000E+00  0.00000000E+00
  0.00000000E+00  0.00000000E+00  0.00000000E+00
  0.00000000E+00  0.00000000E+00  0.00000000E+00
  0.00000000E+00  0.00000000E+00  0.00000000E+00
  0.00000000E+00  0.00000000E+00  0.00000000E+00
  0.00000000E+00  0.00000000E+00  0.00000000E+00
  0.00000000E+00  0.00000000E+00  0.00000000E+00
  0.00000000E+00  0.00000000E+00  0.00000000E+00
  0.00000000E+00  0.00000000E+00  0.00000000E+00
  0.00000000E+00  0.00000000E+00  0.00000000E+00
  0.00000000E+00  0.00000000E+00  0.00000000E+00
  0.00000000E+00  0.00000000E+00  0.00000000E+00
  0.00000000E+00  0.00000000E+00  0.00000000E+00
  0.00000000E+00  0.00000000E+00  0.00000000E+00
  0.00000000E+00  0.00000000E+00  0.00000000E+00
  0.00000000E+00  0.00000000E+00  0.00000000E+00
  0.00000000E+00  0.00000000E+00  0.00000000E+00
  0.00000000E+00  0.00000000E+00  0.00000000E+00
  0.00000000E+00  0.00000000E+00  0.00000000E+00
  0.00000000E+00  0.00000000E+00  0.00000000E+00
  0.00000000E+00  0.00000000E+00  0.00000000E+00
  0.00000000E+00  0.00000000E+00  0.00000000E+00
  0.00000000E+00  0.00000000E+00  0.00000000E+00
  0.00000000E+00  0.00000000E+00  0.00000000E+00
  0.00000000E+00  0.00000000E+00  0.00000000E+00
  0.00000000E+00  0.00000000E+00  0.00000000E+00
  0.00000000E+00  0.00000000E+00  0.00000000E+00
  0.00000000E+00  0.00000000E+00  0.00000000E+00
  0.00000000E+00  0.00000000E+00  0.00000000E+00
  0.00000000E+00  0.00000000E+00  0.00000000E+00
  0.00000000E+00  0.00000000E+00  0.00000000E+00
  0.00000000E+00  0.00000000E+00  0.00000000E+00
  0.00000000E+00  0.00000000E+00  0.00000000E+00
  0.00000000E+00  0.00000000E+00  0.00000000E+00
  0.00000000E+00  0.00000000E+00  0.00000000E+00
  0.00000000E+00  0.00000000E+00  0.00000000E+00
  0.00000000E+00  0.00000000E+00  0.00000000E+00
  0.00000000E+00  0.00000000E+00  0.00000000E+00
  0.00000000E+00  0.00000000E+00  0.00000000E+00
  0.00000000E+00  0.00000000E+00  0.00000000E+00
  0.00000000E+00  0.00000000E+00  0.00000000E+00
  0.00000000E+00  0.00000000E+00  0.00000000E+00
  0.00000000E+00  0.00000000E+00  0.00000000E+00
  0.00000000E+00  0.00000000E+00  0.00000000E+00
  0.00000000E+00  0.00000000E+00  0.00000000E+00
  0.00000000E+00  0.00000000E+00  0.00000000E+00
  0.00000000E+00  0.00000000E+00  0.00000000E+00
  0.00000000E+00  0.00000000E+00  0.00000000E+00
  0.00000000E+00  0.00000000E+00  0.00000000E+00
  0.00000000E+00  0.00000000E+00  0.00000000E+00
  0.00000000E+00  0.00000000E+00  0.00000000E+00
  0.00000000E+00  0.00000000E+00  0.00000000E+00
  0.00000000E+00  0.00000000E+00  0.00000000E+00
  0.00000000E+00  0.00000000E+00  0.00000000E+00
  0.00000000E+00  0.00000000E+00  0.00000000E+00
  0.00000000E+00  0.00000000E+00  0.00000000E+00
  0.00000000E+00  0.00000000E+00  0.00000000E+00
  0.00000000E+00  0.00000000E+00  0.00000000E+00
  0.00000000E+00  0.00000000E+00  0.00000000E+00
  0.00000000E+00  0.00000000E+00  0.00000000E+00
  0.00000000E+00  0.00000000E+00  0.00000000E+00
  0.00000000E+00  0.00000000E+00  0.00000000E+00
  0.00000000E+00  0.00000000E+00  0.00000000E+00
  0.00000000E+00  0.00000000E+00  0.00000000E+00
  0.00000000E+00  0.00000000E+00  0.00000000E+00
  0.00000000E+00  0.00000000E+00  0.00000000E+00
  0.00000000E+00  0.00000000E+00  0.00000000E+00
  0.00000000E+00  0.00000000E+00  0.00000000E+00
  0.00000000E+00  0.00000000E+00  0.00000000E+00
  0.00000000E+00  0.00000000E+00  0.00000000E+00
  0.00000000E+00  0.00000000E+00  0.00000000E+00
  0.00000000E+00  0.00000000E+00  0.00000000E+00
  0.00000000E+00  0.00000000E+00  0.00000000E+00
  0.00000000E+00  0.00000000E+00  0.00000000E+00
  0.00000000E+00  0.00000000E+00  0.00000000E+00
  0.00000000E+00  0.00000000E+00  0.00000000E+00
  0.00000000E+00  0.00000000E+00  0.00000000E+00
  0.00000000E+00  0.00000000E+00  0.00000000E+00
  0.00000000E+00  0.00000000E+00  0.00000000E+00
  0.00000000E+00  0.00000000E+00  0.00000000E+00
  0.00000000E+00  0.00000000E+00  0.00000000E+00
  0.00000000E+00  0.00000000E+00  0.00000000E+00
  0.00000000E+00  0.00000000E+00  0.00000000E+00
  0.00000000E+00  0.00000000E+00  0.00000000E+00
  0.00000000E+00  0.00000000E+00  0.00000000E+00
  0.00000000E+00  0.00000000E+00  0.00000000E+00
  0.00000000E+00  0.00000000E+00  0.00000000E+00
  0.00000000E+00  0.00000000E+00  0.00000000E+00
  0.00000000E+00  0.00000000E+00  0.00000000E+00
  0.00000000E+00  0.00000000E+00  0.00000000E+00
  0.00000000E+00  0.00000000E+00  0.00000000E+00
  0.00000000E+00  0.00000000E+00  0.00000000E+00
  0.00000000E+00  0.00000000E+00  0.00000000E+00
  0.00000000E+00  0.00000000E+00  0.00000000E+00
  0.00000000E+00  0.00000000E+00  0.00000000E+00
  0.00000000E+00  0.00000000E+00  0.00000000E+00
  0.00000000E+00  0.00000000E+00  0.00000000E+00
  0.00000000E+00  0.00000000E+00  0.00000000E+00
  0.00000000E+00  0.00000000E+00  0.00000000E+00
  0.00000000E+00  0.00000000E+00  0.00000000E+00
  0.00000000E+00  0.00000000E+00  0.00000000E+00
  0.00000000E+00  0.00000000E+00  0.00000000E+00
  0.00000000E+00  0.00000000E+00  0.00000000E+00
  0.00000000E+00  0.00000000E+00  0.00000000E+00
  0.00000000E+00  0.00000000E+00  0.00000000E+00
  0.00000000E+00  0.00000000E+00  0.00000000E+00
  0.00000000E+00  0.00000000E+00  0.00000000E+00
  0.00000000E+00  0.00000000E+00  0.00000000E+00
  0.00000000E+00  0.00000000E+00  0.00000000E+00
  0.00000000E+00  0.00000000E+00  0.00000000E+00
  0.00000000E+00  0.00000000E+00  0.00000000E+00
  0.00000000E+00  0.00000000E+00  0.00000000E+00
  0.00000000E+00  0.00000000E+00  0.00000000E+00
  0.00000000E+00  0.00000000E+00  0.00000000E+00
  0.00000000E+00  0.00000000E+00  0.00000000E+00
  0.00000000E+00  0.00000000E+00  0.00000000E+00
