Zn1 C122 N4                             
   1.00000000000000     
    19.8339119969475348    0.0000554723273938   -0.0011208987333346
    -9.9169075712886023   17.0277640759325628    0.0005938678631943
    -0.0016822401405170    0.0000584473049051   29.7944506436254812
   Zn   C    N 
     1   122     4
Direct
  0.4375104453761285  0.5000001327461402  0.4082515278866942
  0.0420363150356993  0.0841778048851736  0.3999556094278206
  0.0408693229019819  0.2081600161992328  0.3999552969438964
  0.0399345658153276  0.3328577789704641  0.3995417905187054
  0.0400358718494582  0.4581505836282873  0.3991148108989421
  0.0411493975328952  0.5838340941642335  0.3991703353596597
  0.0421942085386758  0.7094007661011633  0.3995049985918502
  0.0425561759507803  0.8346754256517118  0.3996562840298860
  0.0426491554808287  0.9598327952487221  0.3997528794061528
  0.1683848423585310  0.0861443231387309  0.4005753268349453
  0.1673550351463794  0.2103348453571476  0.4014088607519363
  0.1646372391073845  0.3335827992593081  0.4015411709020186
  0.1633776354040844  0.4584643171528335  0.4004481784681558
  0.1646405359206069  0.5837559312295055  0.3994841222960035
  0.1662511838647349  0.7091708716368106  0.3993522656520152
  0.1671129621976069  0.8346876640372720  0.3996535209866368
  0.1676814272715478  0.9603288837798448  0.3998914610677059
  0.2928001089083952  0.0861484883402072  0.4005461083064686
  0.2944330849887171  0.2138285032259253  0.4024779170935509
  0.2920233706283799  0.3388746807697692  0.4042780036672987
  0.2861680697081025  0.4576752812480671  0.4041969583271891
  0.2875809798163090  0.5830787199225398  0.4020016828420520
  0.2903586657636000  0.7085847192356476  0.4001835793098769
  0.2915662662805756  0.8341050972247578  0.3995672059579076
  0.2922376239601602  0.9598491065451099  0.3997214880044556
  0.4171615014734112  0.0841650898889975  0.3999609863449528
  0.4179917666332120  0.2103364986712660  0.4014249512959094
  0.4218745193497022  0.3388799731436839  0.4042745060043910
  0.4143208721609982  0.7062312584520950  0.4024294737244907
  0.4159638178931064  0.8322925169604121  0.4003581012608649
  0.4166522271120712  0.9582660406060602  0.3996778785515767
  0.5415670486663323  0.0823933029921018  0.3996349365679127
  0.5422634849042861  0.2081344523295928  0.3999595389797924
  0.5439214249776938  0.3335687255412461  0.4014951285395718
  0.5465062242992414  0.4576715107043578  0.4041340890222063
  0.5380171379869657  0.7010278595436780  0.4040529260180277
  0.5403020663400474  0.8298516941936316  0.4015335275424632
  0.5410124981549150  0.9564202658254708  0.4000531074349865
  0.6660432953819800  0.0816769527041310  0.3997594604708501
  0.6666242699203209  0.2072308737389742  0.3994897165441069
  0.6678895023947343  0.3328513501801605  0.3994878732875900
  0.6700638078818532  0.4584789008797340  0.4003648725031915
  0.6705080628039525  0.5831051621638510  0.4019262902801862
  0.6669108444802693  0.7062173511401006  0.4024338002009598
  0.6645565898993164  0.8298635695346079  0.4015431806311792
  0.6654932238154007  0.9559716265702835  0.4003110530135285
  0.7906618474279862  0.0816870990558427  0.3997442372208210
  0.7910396641800539  0.2070711617302711  0.3996911166432683
  0.7918194147286738  0.3325843983218926  0.3993098186952700
  0.7930738026448712  0.4581616692371138  0.3990492865819089
  0.7940773564557770  0.5837579940693918  0.3994060591123003
  0.7932345969612835  0.7085857151569213  0.4001423075172871
  0.7913464813792926  0.8322825410217394  0.4003755661344842
  0.7904207813895802  0.9564381516446094  0.4000316155009673
  0.9158596489823723  0.0824172260517149  0.3996091761587858
  0.9156004348321843  0.2072403640029840  0.3994898806904888
  0.9157582076542797  0.3325892154641797  0.3993267721926700
  0.9165735630325793  0.4581896228192717  0.3991768214767201
  0.9176462427998329  0.5838497937063835  0.3991434918282428
  0.9178989147576947  0.7091715110664806  0.3993244225715412
  0.9175575361444204  0.8340868323829563  0.3995829135366449
  0.9166552895184606  0.9582629201512430  0.3996902009813669
  0.0845921068908531  0.0435799613761035  0.4000527168619554
  0.0836708049420481  0.1677086507621798  0.4003563872429925
  0.0817736765717259  0.2914160706734367  0.4001832132391571
  0.0808838258076267  0.4162409376162532  0.3994837078665991
  0.0818855937692886  0.5418512710908961  0.3991152282025131
  0.0831682366463483  0.6674121277098495  0.3993289278676433
  0.0839672512575583  0.7929274950798307  0.3996934399738741
  0.0843643169573410  0.9183233471757080  0.3997593711686709
  0.2095192616550076  0.0440278009823768  0.4003099092816843
  0.2104497071104849  0.1701476294476361  0.4015332116018239
  0.2080916671120568  0.2937715949330491  0.4024281973712247
  0.2045024917732977  0.4169207711000307  0.4020015792749960
  0.2049139528906140  0.5415341669110986  0.4004481155160266
  0.2070759550149645  0.6671439745079630  0.3995425461044160
  0.2083561296329600  0.7927551046467342  0.3994907229922251
  0.2089712421873267  0.9183113021122651  0.3997451640630131
  0.3339802956338047  0.0435606432655652  0.4000297284190936
  0.3346888367287580  0.1701340373091062  0.4015412992710952
  0.3369897704753171  0.2989731449756465  0.4040516052749177
  0.3284933272585421  0.5423238442735662  0.4041971826432820
  0.3310537539950812  0.6664164211207584  0.4015418826254586
  0.3327074244158370  0.7918374380575924  0.3999561554770217
  0.3334387462232822  0.9175788240134757  0.3996089494872774
  0.4583910950420114  0.0417377602375388  0.3996893105882821
  0.4590634541336613  0.1677177280956666  0.4003745146314645
  0.4606933302576076  0.2937856536445230  0.4024327784999760
  0.4531481142905465  0.6611237658455008  0.4042788108052170
  0.4570176018371779  0.7896642699989241  0.4014099652865572
  0.4578574636394879  0.9158214546298444  0.3999565764183452
  0.5828155515749505  0.0401680029415234  0.3997527012821802
  0.5834706076773228  0.1659145364274380  0.3995824913868267
  0.5846462907542972  0.2914149120680560  0.4001419825078755
  0.5873994806590709  0.4168972271976748  0.4019264743863529
  0.5888306235971812  0.5423274398251569  0.4041342155992776
  0.5829921842517790  0.6611178169300269  0.4042759530468712
  0.5806029534038930  0.7861718532579235  0.4024792001573381
  0.5822387916486292  0.9138561847938902  0.4005762189916819
  0.7073494565222245  0.0396713153213704  0.3998911890655887
  0.7078806342193292  0.1653255415304592  0.3996551630373148
  0.7087261906808905  0.2908295894149232  0.3993243654202544
  0.7103145896975178  0.4162428150597102  0.3994056243352398
  0.7115803663229200  0.5415206885046706  0.4003651946278048
  0.7103493612899110  0.6664289083722961  0.4014955621431965
  0.7076521934581899  0.7896632359879369  0.4014263218307840
  0.7066494674131507  0.9138534623774095  0.4005481714983071
  0.8323870976716575  0.0401523970381642  0.3997217181390043
  0.8324246625356198  0.1653143076357005  0.3996515822713983
  0.8327920794373842  0.2906005591540544  0.3995024203878042
  0.8337919860387437  0.4161504115421247  0.3991433759022429
  0.8349070047764209  0.5418382880749156  0.3990496829840364
  0.8350359840440968  0.6671489836399002  0.3994882740688552
  0.8341289803790991  0.7918655513095203  0.3999601316994134
  0.8329974000954625  0.9158355725112758  0.3999623854061053
  0.9583853286392214  0.0417351899372821  0.3996778988610963
  0.9574614706207975  0.1658993224301537  0.3995673603839767
  0.9570779894597615  0.2908293323505042  0.3993509261724342
  0.9573115663571309  0.4161640667901274  0.3991689413159842
  0.9583816609735752  0.5418110744525864  0.3991775822829698
  0.9592325459684226  0.6674157048649157  0.3993111502714998
  0.9593930373951796  0.7927685668014616  0.3994900769735311
  0.9591718567374823  0.9176060229040399  0.3996353344315861
  0.4080569766435086  0.5812568485679802  0.4057656961129970
  0.5481995466553272  0.5812475013695514  0.4057307333636972
  0.3268005114341332  0.4187440150067567  0.4057647754969874
  0.4669516775890676  0.4187537406693406  0.4057304575074167
 
  0.00000000E+00  0.00000000E+00  0.00000000E+00
  0.00000000E+00  0.00000000E+00  0.00000000E+00
  0.00000000E+00  0.00000000E+00  0.00000000E+00
  0.00000000E+00  0.00000000E+00  0.00000000E+00
  0.00000000E+00  0.00000000E+00  0.00000000E+00
  0.00000000E+00  0.00000000E+00  0.00000000E+00
  0.00000000E+00  0.00000000E+00  0.00000000E+00
  0.00000000E+00  0.00000000E+00  0.00000000E+00
  0.00000000E+00  0.00000000E+00  0.00000000E+00
  0.00000000E+00  0.00000000E+00  0.00000000E+00
  0.00000000E+00  0.00000000E+00  0.00000000E+00
  0.00000000E+00  0.00000000E+00  0.00000000E+00
  0.00000000E+00  0.00000000E+00  0.00000000E+00
  0.00000000E+00  0.00000000E+00  0.00000000E+00
  0.00000000E+00  0.00000000E+00  0.00000000E+00
  0.00000000E+00  0.00000000E+00  0.00000000E+00
  0.00000000E+00  0.00000000E+00  0.00000000E+00
  0.00000000E+00  0.00000000E+00  0.00000000E+00
  0.00000000E+00  0.00000000E+00  0.00000000E+00
  0.00000000E+00  0.00000000E+00  0.00000000E+00
  0.00000000E+00  0.00000000E+00  0.00000000E+00
  0.00000000E+00  0.00000000E+00  0.00000000E+00
  0.00000000E+00  0.00000000E+00  0.00000000E+00
  0.00000000E+00  0.00000000E+00  0.00000000E+00
  0.00000000E+00  0.00000000E+00  0.00000000E+00
  0.00000000E+00  0.00000000E+00  0.00000000E+00
  0.00000000E+00  0.00000000E+00  0.00000000E+00
  0.00000000E+00  0.00000000E+00  0.00000000E+00
  0.00000000E+00  0.00000000E+00  0.00000000E+00
  0.00000000E+00  0.00000000E+00  0.00000000E+00
  0.00000000E+00  0.00000000E+00  0.00000000E+00
  0.00000000E+00  0.00000000E+00  0.00000000E+00
  0.00000000E+00  0.00000000E+00  0.00000000E+00
  0.00000000E+00  0.00000000E+00  0.00000000E+00
  0.00000000E+00  0.00000000E+00  0.00000000E+00
  0.00000000E+00  0.00000000E+00  0.00000000E+00
  0.00000000E+00  0.00000000E+00  0.00000000E+00
  0.00000000E+00  0.00000000E+00  0.00000000E+00
  0.00000000E+00  0.00000000E+00  0.00000000E+00
  0.00000000E+00  0.00000000E+00  0.00000000E+00
  0.00000000E+00  0.00000000E+00  0.00000000E+00
  0.00000000E+00  0.00000000E+00  0.00000000E+00
  0.00000000E+00  0.00000000E+00  0.00000000E+00
  0.00000000E+00  0.00000000E+00  0.00000000E+00
  0.00000000E+00  0.00000000E+00  0.00000000E+00
  0.00000000E+00  0.00000000E+00  0.00000000E+00
  0.00000000E+00  0.00000000E+00  0.00000000E+00
  0.00000000E+00  0.00000000E+00  0.00000000E+00
  0.00000000E+00  0.00000000E+00  0.00000000E+00
  0.00000000E+00  0.00000000E+00  0.00000000E+00
  0.00000000E+00  0.00000000E+00  0.00000000E+00
  0.00000000E+00  0.00000000E+00  0.00000000E+00
  0.00000000E+00  0.00000000E+00  0.00000000E+00
  0.00000000E+00  0.00000000E+00  0.00000000E+00
  0.00000000E+00  0.00000000E+00  0.00000000E+00
  0.00000000E+00  0.00000000E+00  0.00000000E+00
  0.00000000E+00  0.00000000E+00  0.00000000E+00
  0.00000000E+00  0.00000000E+00  0.00000000E+00
  0.00000000E+00  0.00000000E+00  0.00000000E+00
  0.00000000E+00  0.00000000E+00  0.00000000E+00
  0.00000000E+00  0.00000000E+00  0.00000000E+00
  0.00000000E+00  0.00000000E+00  0.00000000E+00
  0.00000000E+00  0.00000000E+00  0.00000000E+00
  0.00000000E+00  0.00000000E+00  0.00000000E+00
  0.00000000E+00  0.00000000E+00  0.00000000E+00
  0.00000000E+00  0.00000000E+00  0.00000000E+00
  0.00000000E+00  0.00000000E+00  0.00000000E+00
  0.00000000E+00  0.00000000E+00  0.00000000E+00
  0.00000000E+00  0.00000000E+00  0.00000000E+00
  0.00000000E+00  0.00000000E+00  0.00000000E+00
  0.00000000E+00  0.00000000E+00  0.00000000E+00
  0.00000000E+00  0.00000000E+00  0.00000000E+00
  0.00000000E+00  0.00000000E+00  0.00000000E+00
  0.00000000E+00  0.00000000E+00  0.00000000E+00
  0.00000000E+00  0.00000000E+00  0.00000000E+00
  0.00000000E+00  0.00000000E+00  0.00000000E+00
  0.00000000E+00  0.00000000E+00  0.00000000E+00
  0.00000000E+00  0.00000000E+00  0.00000000E+00
  0.00000000E+00  0.00000000E+00  0.00000000E+00
  0.00000000E+00  0.00000000E+00  0.00000000E+00
  0.00000000E+00  0.00000000E+00  0.00000000E+00
  0.00000000E+00  0.00000000E+00  0.00000000E+00
  0.00000000E+00  0.00000000E+00  0.00000000E+00
  0.00000000E+00  0.00000000E+00  0.00000000E+00
  0.00000000E+00  0.00000000E+00  0.00000000E+00
  0.00000000E+00  0.00000000E+00  0.00000000E+00
  0.00000000E+00  0.00000000E+00  0.00000000E+00
  0.00000000E+00  0.00000000E+00  0.00000000E+00
  0.00000000E+00  0.00000000E+00  0.00000000E+00
  0.00000000E+00  0.00000000E+00  0.00000000E+00
  0.00000000E+00  0.00000000E+00  0.00000000E+00
  0.00000000E+00  0.00000000E+00  0.00000000E+00
  0.00000000E+00  0.00000000E+00  0.00000000E+00
  0.00000000E+00  0.00000000E+00  0.00000000E+00
  0.00000000E+00  0.00000000E+00  0.00000000E+00
  0.00000000E+00  0.00000000E+00  0.00000000E+00
  0.00000000E+00  0.00000000E+00  0.00000000E+00
  0.00000000E+00  0.00000000E+00  0.00000000E+00
  0.00000000E+00  0.00000000E+00  0.00000000E+00
  0.00000000E+00  0.00000000E+00  0.00000000E+00
  0.00000000E+00  0.00000000E+00  0.00000000E+00
  0.00000000E+00  0.00000000E+00  0.00000000E+00
  0.00000000E+00  0.00000000E+00  0.00000000E+00
  0.00000000E+00  0.00000000E+00  0.00000000E+00
  0.00000000E+00  0.00000000E+00  0.00000000E+00
  0.00000000E+00  0.00000000E+00  0.00000000E+00
  0.00000000E+00  0.00000000E+00  0.00000000E+00
  0.00000000E+00  0.00000000E+00  0.00000000E+00
  0.00000000E+00  0.00000000E+00  0.00000000E+00
  0.00000000E+00  0.00000000E+00  0.00000000E+00
  0.00000000E+00  0.00000000E+00  0.00000000E+00
  0.00000000E+00  0.00000000E+00  0.00000000E+00
  0.00000000E+00  0.00000000E+00  0.00000000E+00
  0.00000000E+00  0.00000000E+00  0.00000000E+00
  0.00000000E+00  0.00000000E+00  0.00000000E+00
  0.00000000E+00  0.00000000E+00  0.00000000E+00
  0.00000000E+00  0.00000000E+00  0.00000000E+00
  0.00000000E+00  0.00000000E+00  0.00000000E+00
  0.00000000E+00  0.00000000E+00  0.00000000E+00
  0.00000000E+00  0.00000000E+00  0.00000000E+00
  0.00000000E+00  0.00000000E+00  0.00000000E+00
  0.00000000E+00  0.00000000E+00  0.00000000E+00
  0.00000000E+00  0.00000000E+00  0.00000000E+00
  0.00000000E+00  0.00000000E+00  0.00000000E+00
  0.00000000E+00  0.00000000E+00  0.00000000E+00
  0.00000000E+00  0.00000000E+00  0.00000000E+00
  0.00000000E+00  0.00000000E+00  0.00000000E+00
