Ag1 H1 C125 N1 O1                       
   1.00000000000000     
    19.8225279249750628   -0.0142866623616076    0.2185443382014533
    -9.9249456454385836   17.0736272277101087    0.2376261151878540
     0.3270790805834582    0.6034068292623079   29.7598693702125985
   Ag   H    C    N    O 
     1     1   125     1     1
Direct
  0.4337137736645101  0.4949570492486034  0.4274430982151904
  0.5016153904047737  0.5795379908375327  0.4980952347898616
  0.0414270158480445  0.0835089389535126  0.3990439920803854
  0.0409121694631115  0.2079986361352076  0.3985888660550864
  0.0405580181114581  0.3327899734861570  0.3976855177846951
  0.0405740555612474  0.4582071593719231  0.3972239173484808
  0.0411347858008698  0.5836004299458171  0.3977128575916858
  0.0416683957902182  0.7088679225426556  0.3986479836539502
  0.0418926310572401  0.8340470857004730  0.3991790244664690
  0.0418729132014336  0.9590046152929375  0.3991663517204859
  0.1670251822351927  0.0845366784596602  0.3998811968206981
  0.1664437029207091  0.2089622466303351  0.4002604991395528
  0.1655352788911447  0.3335383589665131  0.3993730795738847
  0.1643656736910766  0.4584108309323594  0.3978766090710944
  0.1649744617918179  0.5837147945466682  0.3975297798673354
  0.1659246780697259  0.7089793889818006  0.3983175761573101
  0.1665426338460352  0.8341722659562929  0.3991248825875231
  0.1669182558630196  0.9593815929837726  0.3994623611927369
  0.2920071494406616  0.0844397314721880  0.4004804233782927
  0.2924783162262621  0.2102991945374469  0.4029274846544178
  0.2912187013266997  0.3349902454317837  0.4048238816375923
  0.2882029288859017  0.4588786734367986  0.4026185162587765
  0.2882231517725242  0.5843792159317197  0.4000260616739217
  0.2900724040999328  0.7091067711996978  0.3992788568279230
  0.2910907514632236  0.8339730258641207  0.3992690488383265
  0.2915717628669446  0.9590683366869169  0.3995387698461504
  0.4166969928585164  0.0833791297432590  0.3997487209329052
  0.4170790010822362  0.2084825315986940  0.4019075315073590
  0.4181851610821425  0.3341934916187047  0.4080802913752490
  0.4139905276302807  0.7074127507905245  0.4028208846948238
  0.4155783465298241  0.8329081265404733  0.4002760327229803
  0.4162296918762512  0.9581676748781984  0.3995141422422705
  0.5413680561185578  0.0823186606803377  0.3992741327088966
  0.5419391788189242  0.2074253992492987  0.3997914277032228
  0.5427079494868892  0.3321137379185989  0.4025354329555471
  0.5455137331900771  0.4562740438150977  0.4085748303450756
  0.5485057400038769  0.5814332494128859  0.4127025049512527
  0.5376110724399024  0.7032440216763756  0.4073217977951837
  0.5398181216958357  0.8308928067102376  0.4023530519623759
  0.5408276899508028  0.9568849429087248  0.4000130514161734
  0.6659833037906223  0.0818021273282112  0.3994459372324608
  0.6665521708143619  0.2071098146328540  0.3990324969564576
  0.6672547730560708  0.3322032970068737  0.3994692163327829
  0.6689839683383111  0.4574847460912196  0.4008580359510487
  0.6702863087190734  0.5831051582279908  0.4030479604676387
  0.6662019981606950  0.7063779168273866  0.4039650315616037
  0.6644868050713428  0.8303708947311537  0.4028465659189239
  0.6653652602862357  0.9563058164987145  0.4007935304446567
  0.7907124493070948  0.0817941352871380  0.3995126742652015
  0.7910985677391905  0.2070436234942069  0.3988245184450881
  0.7917129278857171  0.3324011766821935  0.3986256334310948
  0.7926874581650870  0.4578684897617258  0.3987752344401882
  0.7934099721763329  0.5832194403576152  0.3992902884345162
  0.7926177567434408  0.7083520602753706  0.4002860962608274
  0.7910330841544652  0.8322965896098728  0.4006966763647024
  0.7903077881472770  0.9565753466730459  0.4003903395964598
  0.9158091067209079  0.0823861048507004  0.3991359602963648
  0.9158251033981341  0.2073460755171977  0.3984500674536007
  0.9160589338167506  0.3325766506667257  0.3979647232629474
  0.9165633599529227  0.4579400962161506  0.3980096014866378
  0.9172631062097756  0.5834427519094932  0.3984705756572381
  0.9172742646793267  0.7087476243810727  0.3990630316238647
  0.9169206015776393  0.8335676747651015  0.3994685400802332
  0.9162167837904946  0.9579132372734721  0.3994845402110685
  0.0835618748984607  0.0424633407824615  0.3992226791984813
  0.0829940161155308  0.1668882246879637  0.3991013813232995
  0.0822654939293314  0.2914307501126735  0.3983002618218968
  0.0817426564068161  0.4164465519650508  0.3973651319702182
  0.0821191414144672  0.5417518615195170  0.3972631853746976
  0.0828676918539712  0.6671249246915685  0.3981529253726185
  0.0833931419650025  0.7924481832847412  0.3990221216339190
  0.0835697905733116  0.9175378798183006  0.3992536779132947
  0.2086276685358597  0.0427821955305222  0.3999387640659371
  0.2086862980941848  0.1680129453516387  0.4009387060838220
  0.2077401123633167  0.2924353979253692  0.4011123881144632
  0.2057231626769009  0.4169918429668981  0.3992865827453586
  0.2056839575004641  0.5419144782902475  0.3980444127117500
  0.2071132741182782  0.6672758338684881  0.3981932485117989
  0.2078961139916987  0.7924034042595046  0.3989149648699984
  0.2083970149449271  0.9176052642049733  0.3994194590530606
  0.3334101978830722  0.0424220962335365  0.3998861177081085
  0.3338366988603120  0.1677509268554125  0.4019244513164406
  0.3339317546002420  0.2932857712818620  0.4060287806547875
  0.3275656771067514  0.4168219138309082  0.4072510622160397
  0.3296737822204103  0.5439842369427915  0.4034218965892392
  0.3310521629099145  0.6672953989046234  0.4006753621321293
  0.3323909832011502  0.7922131324243503  0.3996023824768901
  0.3330364690424647  0.9172462788774652  0.3994595900372038
  0.4581797482243760  0.0414470959769305  0.3994103406696365
  0.4585963337247898  0.1665730299333554  0.4002757398920969
  0.4593346636017930  0.2916316112540472  0.4039746534383156
  0.4640540711265019  0.4151802642583069  0.4128348492575006
  0.4527698420518768  0.6629294354804576  0.4066439633245049
  0.4567749811372238  0.7907216393644336  0.4017442192793505
  0.4575969994083337  0.9161512355417029  0.3998773440410534
  0.5827863374867529  0.0403688647635158  0.3994865440311494
  0.5833462356307230  0.1656611941831047  0.3992236301801242
  0.5841000163217953  0.2905474494491697  0.4003153837448643
  0.5860449600197342  0.4150542503004307  0.4034346809264229
  0.5882125381499803  0.5407633719804670  0.4083093869027735
  0.5817487434563620  0.6626078574313830  0.4083036313403031
  0.5801163714246352  0.7873240657415083  0.4042520633540321
  0.5820265750972680  0.9146085956952743  0.4009548674381858
  0.7073423794533039  0.0398970638349314  0.3998829925487851
  0.7079236082516600  0.1653322967834037  0.3990611529971902
  0.7085311870882064  0.2905444586341984  0.3989452218524061
  0.7097424016625103  0.4158537423774222  0.3994535039197222
  0.7109280245269596  0.5411789068217803  0.4006741957063826
  0.7093949766766843  0.6662350298239192  0.4022795859231441
  0.7072583211804407  0.7898691318380924  0.4023787114603094
  0.7065845486175446  0.9141961992557033  0.4013365159372853
  0.8322514392321708  0.0402216168011785  0.3996618059442913
  0.8325185471141597  0.1653740013869366  0.3989058947222656
  0.8329710827626579  0.2906804224284958  0.3984737223405253
  0.8336570945655662  0.4159928212237982  0.3984600943658466
  0.8344288256195970  0.5414150239297162  0.3987326650630436
  0.8342804626521695  0.6668963278926882  0.3994027071624190
  0.8335947530393647  0.7915765127364003  0.4000500864702346
  0.8325920892262068  0.9156894404595675  0.4001631674492138
  0.9578710472700802  0.0413475736598947  0.3991401373453253
  0.9575351539394420  0.1659233188670049  0.3986394634955865
  0.9574459074044167  0.2908766068809842  0.3979148801535518
  0.9576304617718326  0.4161574602616070  0.3976425191418532
  0.9582769798395412  0.5416238469439308  0.3980235417776803
  0.9586608018239330  0.6670197131869996  0.3987137006213126
  0.9586831902114658  0.7921784572729639  0.3992411584120033
  0.9584020168713785  0.9169592263931732  0.3993266130337835
  0.4077882386293993  0.5832475749490251  0.4084172543671544
  0.4711756107411447  0.5228378592515281  0.4951198953521855
 
  0.00000000E+00  0.00000000E+00  0.00000000E+00
  0.00000000E+00  0.00000000E+00  0.00000000E+00
  0.00000000E+00  0.00000000E+00  0.00000000E+00
  0.00000000E+00  0.00000000E+00  0.00000000E+00
  0.00000000E+00  0.00000000E+00  0.00000000E+00
  0.00000000E+00  0.00000000E+00  0.00000000E+00
  0.00000000E+00  0.00000000E+00  0.00000000E+00
  0.00000000E+00  0.00000000E+00  0.00000000E+00
  0.00000000E+00  0.00000000E+00  0.00000000E+00
  0.00000000E+00  0.00000000E+00  0.00000000E+00
  0.00000000E+00  0.00000000E+00  0.00000000E+00
  0.00000000E+00  0.00000000E+00  0.00000000E+00
  0.00000000E+00  0.00000000E+00  0.00000000E+00
  0.00000000E+00  0.00000000E+00  0.00000000E+00
  0.00000000E+00  0.00000000E+00  0.00000000E+00
  0.00000000E+00  0.00000000E+00  0.00000000E+00
  0.00000000E+00  0.00000000E+00  0.00000000E+00
  0.00000000E+00  0.00000000E+00  0.00000000E+00
  0.00000000E+00  0.00000000E+00  0.00000000E+00
  0.00000000E+00  0.00000000E+00  0.00000000E+00
  0.00000000E+00  0.00000000E+00  0.00000000E+00
  0.00000000E+00  0.00000000E+00  0.00000000E+00
  0.00000000E+00  0.00000000E+00  0.00000000E+00
  0.00000000E+00  0.00000000E+00  0.00000000E+00
  0.00000000E+00  0.00000000E+00  0.00000000E+00
  0.00000000E+00  0.00000000E+00  0.00000000E+00
  0.00000000E+00  0.00000000E+00  0.00000000E+00
  0.00000000E+00  0.00000000E+00  0.00000000E+00
  0.00000000E+00  0.00000000E+00  0.00000000E+00
  0.00000000E+00  0.00000000E+00  0.00000000E+00
  0.00000000E+00  0.00000000E+00  0.00000000E+00
  0.00000000E+00  0.00000000E+00  0.00000000E+00
  0.00000000E+00  0.00000000E+00  0.00000000E+00
  0.00000000E+00  0.00000000E+00  0.00000000E+00
  0.00000000E+00  0.00000000E+00  0.00000000E+00
  0.00000000E+00  0.00000000E+00  0.00000000E+00
  0.00000000E+00  0.00000000E+00  0.00000000E+00
  0.00000000E+00  0.00000000E+00  0.00000000E+00
  0.00000000E+00  0.00000000E+00  0.00000000E+00
  0.00000000E+00  0.00000000E+00  0.00000000E+00
  0.00000000E+00  0.00000000E+00  0.00000000E+00
  0.00000000E+00  0.00000000E+00  0.00000000E+00
  0.00000000E+00  0.00000000E+00  0.00000000E+00
  0.00000000E+00  0.00000000E+00  0.00000000E+00
  0.00000000E+00  0.00000000E+00  0.00000000E+00
  0.00000000E+00  0.00000000E+00  0.00000000E+00
  0.00000000E+00  0.00000000E+00  0.00000000E+00
  0.00000000E+00  0.00000000E+00  0.00000000E+00
  0.00000000E+00  0.00000000E+00  0.00000000E+00
  0.00000000E+00  0.00000000E+00  0.00000000E+00
  0.00000000E+00  0.00000000E+00  0.00000000E+00
  0.00000000E+00  0.00000000E+00  0.00000000E+00
  0.00000000E+00  0.00000000E+00  0.00000000E+00
  0.00000000E+00  0.00000000E+00  0.00000000E+00
  0.00000000E+00  0.00000000E+00  0.00000000E+00
  0.00000000E+00  0.00000000E+00  0.00000000E+00
  0.00000000E+00  0.00000000E+00  0.00000000E+00
  0.00000000E+00  0.00000000E+00  0.00000000E+00
  0.00000000E+00  0.00000000E+00  0.00000000E+00
  0.00000000E+00  0.00000000E+00  0.00000000E+00
  0.00000000E+00  0.00000000E+00  0.00000000E+00
  0.00000000E+00  0.00000000E+00  0.00000000E+00
  0.00000000E+00  0.00000000E+00  0.00000000E+00
  0.00000000E+00  0.00000000E+00  0.00000000E+00
  0.00000000E+00  0.00000000E+00  0.00000000E+00
  0.00000000E+00  0.00000000E+00  0.00000000E+00
  0.00000000E+00  0.00000000E+00  0.00000000E+00
  0.00000000E+00  0.00000000E+00  0.00000000E+00
  0.00000000E+00  0.00000000E+00  0.00000000E+00
  0.00000000E+00  0.00000000E+00  0.00000000E+00
  0.00000000E+00  0.00000000E+00  0.00000000E+00
  0.00000000E+00  0.00000000E+00  0.00000000E+00
  0.00000000E+00  0.00000000E+00  0.00000000E+00
  0.00000000E+00  0.00000000E+00  0.00000000E+00
  0.00000000E+00  0.00000000E+00  0.00000000E+00
  0.00000000E+00  0.00000000E+00  0.00000000E+00
  0.00000000E+00  0.00000000E+00  0.00000000E+00
  0.00000000E+00  0.00000000E+00  0.00000000E+00
  0.00000000E+00  0.00000000E+00  0.00000000E+00
  0.00000000E+00  0.00000000E+00  0.00000000E+00
  0.00000000E+00  0.00000000E+00  0.00000000E+00
  0.00000000E+00  0.00000000E+00  0.00000000E+00
  0.00000000E+00  0.00000000E+00  0.00000000E+00
  0.00000000E+00  0.00000000E+00  0.00000000E+00
  0.00000000E+00  0.00000000E+00  0.00000000E+00
  0.00000000E+00  0.00000000E+00  0.00000000E+00
  0.00000000E+00  0.00000000E+00  0.00000000E+00
  0.00000000E+00  0.00000000E+00  0.00000000E+00
  0.00000000E+00  0.00000000E+00  0.00000000E+00
  0.00000000E+00  0.00000000E+00  0.00000000E+00
  0.00000000E+00  0.00000000E+00  0.00000000E+00
  0.00000000E+00  0.00000000E+00  0.00000000E+00
  0.00000000E+00  0.00000000E+00  0.00000000E+00
  0.00000000E+00  0.00000000E+00  0.00000000E+00
  0.00000000E+00  0.00000000E+00  0.00000000E+00
  0.00000000E+00  0.00000000E+00  0.00000000E+00
  0.00000000E+00  0.00000000E+00  0.00000000E+00
  0.00000000E+00  0.00000000E+00  0.00000000E+00
  0.00000000E+00  0.00000000E+00  0.00000000E+00
  0.00000000E+00  0.00000000E+00  0.00000000E+00
  0.00000000E+00  0.00000000E+00  0.00000000E+00
  0.00000000E+00  0.00000000E+00  0.00000000E+00
  0.00000000E+00  0.00000000E+00  0.00000000E+00
  0.00000000E+00  0.00000000E+00  0.00000000E+00
  0.00000000E+00  0.00000000E+00  0.00000000E+00
  0.00000000E+00  0.00000000E+00  0.00000000E+00
  0.00000000E+00  0.00000000E+00  0.00000000E+00
  0.00000000E+00  0.00000000E+00  0.00000000E+00
  0.00000000E+00  0.00000000E+00  0.00000000E+00
  0.00000000E+00  0.00000000E+00  0.00000000E+00
  0.00000000E+00  0.00000000E+00  0.00000000E+00
  0.00000000E+00  0.00000000E+00  0.00000000E+00
  0.00000000E+00  0.00000000E+00  0.00000000E+00
  0.00000000E+00  0.00000000E+00  0.00000000E+00
  0.00000000E+00  0.00000000E+00  0.00000000E+00
  0.00000000E+00  0.00000000E+00  0.00000000E+00
  0.00000000E+00  0.00000000E+00  0.00000000E+00
  0.00000000E+00  0.00000000E+00  0.00000000E+00
  0.00000000E+00  0.00000000E+00  0.00000000E+00
  0.00000000E+00  0.00000000E+00  0.00000000E+00
  0.00000000E+00  0.00000000E+00  0.00000000E+00
  0.00000000E+00  0.00000000E+00  0.00000000E+00
  0.00000000E+00  0.00000000E+00  0.00000000E+00
  0.00000000E+00  0.00000000E+00  0.00000000E+00
  0.00000000E+00  0.00000000E+00  0.00000000E+00
  0.00000000E+00  0.00000000E+00  0.00000000E+00
  0.00000000E+00  0.00000000E+00  0.00000000E+00
  0.00000000E+00  0.00000000E+00  0.00000000E+00
  0.00000000E+00  0.00000000E+00  0.00000000E+00
