Au1 C123 N3                             
   1.00000000000000     
    19.8483124863401059    0.0008328586239166   -0.0078908591475492
    -9.9232083585242368   17.0344906672052403   -0.0084039109287066
    -0.0115139622638633   -0.0217730601124470   29.7604190166448639
   Au   C    N 
     1   123     3
Direct
  0.4373868951007690  0.4992306712161198  0.4078485515930346
  0.0417937334947025  0.0840110720998514  0.3999847110451591
  0.0406920162246775  0.2079774422251686  0.3999896449559624
  0.0398553977014013  0.3327930698449688  0.3994008526680133
  0.0399782989718915  0.4581820171322723  0.3987673298734590
  0.0411230465266293  0.5839100327411414  0.3987715859787542
  0.0422302826911830  0.7094901625067495  0.3991600001647688
  0.0425579010687813  0.8346821950730240  0.3994779243817989
  0.0424586768477482  0.9596772560636052  0.3997181431368494
  0.1678206864701514  0.0855743551950979  0.4005000054127715
  0.1670929918605464  0.2100955349688816  0.4013880448156874
  0.1643792808902637  0.3334737994077809  0.4014361151629739
  0.1631702817556421  0.4585434949115495  0.3999852896000213
  0.1643330743144668  0.5839594163401396  0.3989698030951143
  0.1661391776790549  0.7093152934943713  0.3990635334402866
  0.1670624946259166  0.8347515818794637  0.3994812362249192
  0.1675396842592776  0.9602361403250351  0.3998317706595620
  0.2926911428420687  0.0859942632227833  0.4005765633631765
  0.2933052988818433  0.2127160716779306  0.4025664641652780
  0.2916991651388155  0.3376573826153306  0.4045306731225946
  0.2856344857158980  0.4585091326791397  0.4039905528974938
  0.2868751258848092  0.5834348212887763  0.4013028145501922
  0.2901129124876416  0.7087704826526442  0.3996809856867462
  0.2914905614889599  0.8342416177013297  0.3994299821924941
  0.2921797908049453  0.9598552977566380  0.3997412543120826
  0.4171601130661755  0.0841832251076508  0.4000430869709961
  0.4180266694779480  0.2102462062658873  0.4017623639392462
  0.4202259791409563  0.3376991554087126  0.4053121638281048
  0.4141271527664444  0.7065445365264045  0.4018275419338589
  0.4158711751014895  0.8324559733746220  0.3999878462838502
  0.4166634949960170  0.9583576041437802  0.3996324020966425
  0.5416313368655317  0.0824195370326170  0.3996256751483165
  0.5424345963481858  0.2081327488900448  0.4001584851608341
  0.5440116532528330  0.3335846880235199  0.4023659527601841
  0.5492677287004414  0.4591616995668467  0.4060206208892275
  0.5379422341533090  0.7011461981099525  0.4039802504590839
  0.5403353243570713  0.8299703133014065  0.4010932751534370
  0.5410424775127511  0.9564998420191584  0.3998572144402880
  0.6661140517141624  0.0816699645050898  0.3996281925450741
  0.6667339903926023  0.2071643234659142  0.3994212421949562
  0.6680008397922796  0.3326408928016327  0.3997031677470259
  0.6709282780038527  0.4583900698694870  0.4011191793464976
  0.6721138127009956  0.5839924285199798  0.4029150437767295
  0.6668124968802482  0.7060453943118805  0.4028218880400249
  0.6645394974865619  0.8299133628888192  0.4013876447964017
  0.6654787501555128  0.9559718868157395  0.4001464575654367
  0.7906474570327492  0.0816114854769659  0.3996828118261203
  0.7910688983604139  0.2069868034688415  0.3994209649774201
  0.7919236310992882  0.3324817604686813  0.3990436571783801
  0.7935089386089704  0.4581252969380836  0.3989516501249937
  0.7946606181765304  0.5838337161312842  0.3995757365635683
  0.7937208227019472  0.7089446515502091  0.4003159447017284
  0.7912558581711528  0.8322514459834590  0.4003824641865894
  0.7903618100525270  0.9564062961181985  0.4000103747575388
  0.9157776572062153  0.0823460354154853  0.3996969567824420
  0.9155441357767261  0.2071603195927889  0.3994509668008083
  0.9157838653574676  0.3324927458353609  0.3990471242915027
  0.9167358846107314  0.4581821006825939  0.3987482425855620
  0.9178695103720531  0.5838910777592582  0.3988058768284377
  0.9180614663612942  0.7092452466367372  0.3992079401898840
  0.9176069228812364  0.8341617028245231  0.3995566286129821
  0.9165240680462196  0.9581658186190011  0.3997293044865824
  0.0842465163069515  0.0432860066314540  0.4000166778053503
  0.0833964931104508  0.1676013178058145  0.4003638197709824
  0.0817341220140602  0.2914303027866626  0.4001224952425293
  0.0807157872992736  0.4161820346282308  0.3991705409870809
  0.0816933298066745  0.5418572038755199  0.3987104850219794
  0.0831482831621015  0.6675161988300463  0.3989814969807615
  0.0839068444279617  0.7929707699553824  0.3994161454405630
  0.0842383593344060  0.9182593998867458  0.3996673913887663
  0.2092726561848576  0.0438565442365248  0.4002709267947346
  0.2096397635449653  0.1694469284708584  0.4014720120277639
  0.2080406490194414  0.2937535350841976  0.4024903838943408
  0.2041495678409182  0.4168903738231675  0.4016902474257634
  0.2044161268279203  0.5416823370219886  0.3998128068307915
  0.2068634967825706  0.6673201523361891  0.3991153752548883
  0.2082809038913239  0.7928858536377342  0.3993207705592643
  0.2089391379860350  0.9183241848983421  0.3996880855587605
  0.3339603575292186  0.0435563584628928  0.4000851555194689
  0.3344691477191516  0.1697883407615718  0.4016749162408936
  0.3352851624815122  0.2972326990288307  0.4044276476723696
  0.3269648974178878  0.5421579481782262  0.4037781918163263
  0.3306809635802163  0.6666961251593041  0.4008707900186264
  0.3326402776482515  0.7920730711671894  0.3996308044344115
  0.3334145939144426  0.9176728688965142  0.3995862807189744
  0.4584236483510682  0.0417836027049785  0.3997099818986863
  0.4590775401692904  0.1677086712159325  0.4005664585964054
  0.4605615695056862  0.2937543605372848  0.4032242103816055
  0.4675533734609043  0.4191640458418264  0.4074081398283354
  0.4531121069686158  0.6618668131798767  0.4039871562941580
  0.4569434242077749  0.7898986917676775  0.4008720053031267
  0.4578426181572131  0.9159861555322837  0.3997651146674651
  0.5828389313440431  0.0401753654278314  0.3996549294964144
  0.5835577712883057  0.1659182410790100  0.3996178074630359
  0.5847684943168118  0.2913279263992325  0.4005631459252275
  0.5885017258804546  0.4168413143028714  0.4032167961920217
  0.5914642974440369  0.5427306893094386  0.4057509916388302
  0.5827897288329292  0.6612793319563297  0.4048435790823424
  0.5806661416452009  0.7864799379718593  0.4021732683130250
  0.5822370763253318  0.9139644604447694  0.4002827609471920
  0.7073710479152877  0.0397005063143187  0.3997776641439930
  0.7079442148240319  0.1652251229752560  0.3994660042818136
  0.7088397014918049  0.2907084368346110  0.3992626515470843
  0.7109024450078925  0.4161533591078757  0.3996625461683008
  0.7125172122594368  0.5416395807667770  0.4010245121875838
  0.7111321295170085  0.6670712355266381  0.4020048337758572
  0.7075388410621947  0.7896471991182739  0.4014524013922836
  0.7066670302982483  0.9139434463109433  0.4004245882402157
  0.8323130326027570  0.0401372533187363  0.3997504778470423
  0.8324493769065630  0.1652660978866907  0.3995184616333087
  0.8328654036810240  0.2905014041028196  0.3991801878156454
  0.8340399939978096  0.4160474492704115  0.3988079965620166
  0.8352873130526861  0.5418111475223601  0.3989357196772404
  0.8353763283010378  0.6673409811119887  0.3995703921269478
  0.8343443266968772  0.7921057443548806  0.3999843594041012
  0.8328775769539031  0.9158043218594389  0.3999647252123169
  0.9582243169043295  0.0416620285962719  0.3997525026969835
  0.9573935132757496  0.1658467837964039  0.3996320343055082
  0.9570732007658388  0.2907717319842872  0.3992247331742657
  0.9573750956039266  0.4161129422587280  0.3988179413153073
  0.9584618925506875  0.5417687424664004  0.3987497037100629
  0.9593428006260394  0.6674634104971651  0.3990224404636076
  0.9594288408967027  0.7928269964703633  0.3993848360198208
  0.9590418863162486  0.9175722549626891  0.3996370678172649
  0.4071726670747918  0.5823369132836729  0.4057029686082884
  0.5496130075060890  0.5810910760961201  0.4071411793195578
  0.3263473167737811  0.4185695105008438  0.4061131046503356
 
  0.00000000E+00  0.00000000E+00  0.00000000E+00
  0.00000000E+00  0.00000000E+00  0.00000000E+00
  0.00000000E+00  0.00000000E+00  0.00000000E+00
  0.00000000E+00  0.00000000E+00  0.00000000E+00
  0.00000000E+00  0.00000000E+00  0.00000000E+00
  0.00000000E+00  0.00000000E+00  0.00000000E+00
  0.00000000E+00  0.00000000E+00  0.00000000E+00
  0.00000000E+00  0.00000000E+00  0.00000000E+00
  0.00000000E+00  0.00000000E+00  0.00000000E+00
  0.00000000E+00  0.00000000E+00  0.00000000E+00
  0.00000000E+00  0.00000000E+00  0.00000000E+00
  0.00000000E+00  0.00000000E+00  0.00000000E+00
  0.00000000E+00  0.00000000E+00  0.00000000E+00
  0.00000000E+00  0.00000000E+00  0.00000000E+00
  0.00000000E+00  0.00000000E+00  0.00000000E+00
  0.00000000E+00  0.00000000E+00  0.00000000E+00
  0.00000000E+00  0.00000000E+00  0.00000000E+00
  0.00000000E+00  0.00000000E+00  0.00000000E+00
  0.00000000E+00  0.00000000E+00  0.00000000E+00
  0.00000000E+00  0.00000000E+00  0.00000000E+00
  0.00000000E+00  0.00000000E+00  0.00000000E+00
  0.00000000E+00  0.00000000E+00  0.00000000E+00
  0.00000000E+00  0.00000000E+00  0.00000000E+00
  0.00000000E+00  0.00000000E+00  0.00000000E+00
  0.00000000E+00  0.00000000E+00  0.00000000E+00
  0.00000000E+00  0.00000000E+00  0.00000000E+00
  0.00000000E+00  0.00000000E+00  0.00000000E+00
  0.00000000E+00  0.00000000E+00  0.00000000E+00
  0.00000000E+00  0.00000000E+00  0.00000000E+00
  0.00000000E+00  0.00000000E+00  0.00000000E+00
  0.00000000E+00  0.00000000E+00  0.00000000E+00
  0.00000000E+00  0.00000000E+00  0.00000000E+00
  0.00000000E+00  0.00000000E+00  0.00000000E+00
  0.00000000E+00  0.00000000E+00  0.00000000E+00
  0.00000000E+00  0.00000000E+00  0.00000000E+00
  0.00000000E+00  0.00000000E+00  0.00000000E+00
  0.00000000E+00  0.00000000E+00  0.00000000E+00
  0.00000000E+00  0.00000000E+00  0.00000000E+00
  0.00000000E+00  0.00000000E+00  0.00000000E+00
  0.00000000E+00  0.00000000E+00  0.00000000E+00
  0.00000000E+00  0.00000000E+00  0.00000000E+00
  0.00000000E+00  0.00000000E+00  0.00000000E+00
  0.00000000E+00  0.00000000E+00  0.00000000E+00
  0.00000000E+00  0.00000000E+00  0.00000000E+00
  0.00000000E+00  0.00000000E+00  0.00000000E+00
  0.00000000E+00  0.00000000E+00  0.00000000E+00
  0.00000000E+00  0.00000000E+00  0.00000000E+00
  0.00000000E+00  0.00000000E+00  0.00000000E+00
  0.00000000E+00  0.00000000E+00  0.00000000E+00
  0.00000000E+00  0.00000000E+00  0.00000000E+00
  0.00000000E+00  0.00000000E+00  0.00000000E+00
  0.00000000E+00  0.00000000E+00  0.00000000E+00
  0.00000000E+00  0.00000000E+00  0.00000000E+00
  0.00000000E+00  0.00000000E+00  0.00000000E+00
  0.00000000E+00  0.00000000E+00  0.00000000E+00
  0.00000000E+00  0.00000000E+00  0.00000000E+00
  0.00000000E+00  0.00000000E+00  0.00000000E+00
  0.00000000E+00  0.00000000E+00  0.00000000E+00
  0.00000000E+00  0.00000000E+00  0.00000000E+00
  0.00000000E+00  0.00000000E+00  0.00000000E+00
  0.00000000E+00  0.00000000E+00  0.00000000E+00
  0.00000000E+00  0.00000000E+00  0.00000000E+00
  0.00000000E+00  0.00000000E+00  0.00000000E+00
  0.00000000E+00  0.00000000E+00  0.00000000E+00
  0.00000000E+00  0.00000000E+00  0.00000000E+00
  0.00000000E+00  0.00000000E+00  0.00000000E+00
  0.00000000E+00  0.00000000E+00  0.00000000E+00
  0.00000000E+00  0.00000000E+00  0.00000000E+00
  0.00000000E+00  0.00000000E+00  0.00000000E+00
  0.00000000E+00  0.00000000E+00  0.00000000E+00
  0.00000000E+00  0.00000000E+00  0.00000000E+00
  0.00000000E+00  0.00000000E+00  0.00000000E+00
  0.00000000E+00  0.00000000E+00  0.00000000E+00
  0.00000000E+00  0.00000000E+00  0.00000000E+00
  0.00000000E+00  0.00000000E+00  0.00000000E+00
  0.00000000E+00  0.00000000E+00  0.00000000E+00
  0.00000000E+00  0.00000000E+00  0.00000000E+00
  0.00000000E+00  0.00000000E+00  0.00000000E+00
  0.00000000E+00  0.00000000E+00  0.00000000E+00
  0.00000000E+00  0.00000000E+00  0.00000000E+00
  0.00000000E+00  0.00000000E+00  0.00000000E+00
  0.00000000E+00  0.00000000E+00  0.00000000E+00
  0.00000000E+00  0.00000000E+00  0.00000000E+00
  0.00000000E+00  0.00000000E+00  0.00000000E+00
  0.00000000E+00  0.00000000E+00  0.00000000E+00
  0.00000000E+00  0.00000000E+00  0.00000000E+00
  0.00000000E+00  0.00000000E+00  0.00000000E+00
  0.00000000E+00  0.00000000E+00  0.00000000E+00
  0.00000000E+00  0.00000000E+00  0.00000000E+00
  0.00000000E+00  0.00000000E+00  0.00000000E+00
  0.00000000E+00  0.00000000E+00  0.00000000E+00
  0.00000000E+00  0.00000000E+00  0.00000000E+00
  0.00000000E+00  0.00000000E+00  0.00000000E+00
  0.00000000E+00  0.00000000E+00  0.00000000E+00
  0.00000000E+00  0.00000000E+00  0.00000000E+00
  0.00000000E+00  0.00000000E+00  0.00000000E+00
  0.00000000E+00  0.00000000E+00  0.00000000E+00
  0.00000000E+00  0.00000000E+00  0.00000000E+00
  0.00000000E+00  0.00000000E+00  0.00000000E+00
  0.00000000E+00  0.00000000E+00  0.00000000E+00
  0.00000000E+00  0.00000000E+00  0.00000000E+00
  0.00000000E+00  0.00000000E+00  0.00000000E+00
  0.00000000E+00  0.00000000E+00  0.00000000E+00
  0.00000000E+00  0.00000000E+00  0.00000000E+00
  0.00000000E+00  0.00000000E+00  0.00000000E+00
  0.00000000E+00  0.00000000E+00  0.00000000E+00
  0.00000000E+00  0.00000000E+00  0.00000000E+00
  0.00000000E+00  0.00000000E+00  0.00000000E+00
  0.00000000E+00  0.00000000E+00  0.00000000E+00
  0.00000000E+00  0.00000000E+00  0.00000000E+00
  0.00000000E+00  0.00000000E+00  0.00000000E+00
  0.00000000E+00  0.00000000E+00  0.00000000E+00
  0.00000000E+00  0.00000000E+00  0.00000000E+00
  0.00000000E+00  0.00000000E+00  0.00000000E+00
  0.00000000E+00  0.00000000E+00  0.00000000E+00
  0.00000000E+00  0.00000000E+00  0.00000000E+00
  0.00000000E+00  0.00000000E+00  0.00000000E+00
  0.00000000E+00  0.00000000E+00  0.00000000E+00
  0.00000000E+00  0.00000000E+00  0.00000000E+00
  0.00000000E+00  0.00000000E+00  0.00000000E+00
  0.00000000E+00  0.00000000E+00  0.00000000E+00
  0.00000000E+00  0.00000000E+00  0.00000000E+00
  0.00000000E+00  0.00000000E+00  0.00000000E+00
  0.00000000E+00  0.00000000E+00  0.00000000E+00
  0.00000000E+00  0.00000000E+00  0.00000000E+00
  0.00000000E+00  0.00000000E+00  0.00000000E+00
  0.00000000E+00  0.00000000E+00  0.00000000E+00
