Ni1 H1 C126 O1                          
   1.00000000000000     
    19.7565468728456644   -0.0065349038804366    0.1627152047805356
    -9.8835577819760747   17.0707149582685744    0.0821353062369383
     0.2457311453318016    0.2854096573751151   29.8463855232741189
   Ni   H    C    O 
     1     1   126     1
Direct
  0.4351902739297211  0.4973747772259990  0.4261249350417062
  0.4981191648749747  0.5699828851756025  0.4910013217573789
  0.0417008780779464  0.0834857873864549  0.3997998242275043
  0.0414351223454874  0.2081821669981001  0.3995223293339711
  0.0413024264392117  0.3330295330500677  0.3992611092595620
  0.0412491887736469  0.4581505928613843  0.3993021429758647
  0.0413400030957271  0.5832166727613726  0.3990588303932134
  0.0414855965310407  0.7082859562785164  0.3990058433492657
  0.0415822979275243  0.8333833510509623  0.3992500434364983
  0.0416223428646622  0.9584550314675868  0.3995649878518248
  0.1667505370989232  0.0838161435497218  0.4003706926562581
  0.1671745845355903  0.2091796667301077  0.4006676645004263
  0.1664820266301876  0.3332837158835804  0.3999788671418315
  0.1659343899812618  0.4582009192191648  0.4000206485290154
  0.1660337630031294  0.5831868663654907  0.3996538217653696
  0.1663739765491806  0.7083018139701279  0.3992554204990985
  0.1665412061033965  0.8334261375052485  0.3992411072406022
  0.1666465939995886  0.9585786890294409  0.3996073046495735
  0.2916779522762614  0.0837300907194684  0.4006920735522906
  0.2920340129649297  0.2093605961888364  0.4025832828426011
  0.2935400903494767  0.3361210579645582  0.4024115405715630
  0.2905886533142088  0.4579619490936127  0.4006432279703153
  0.2905871158858073  0.5834360025182291  0.4011633381531042
  0.2911456282766111  0.7083146421243037  0.4002606750821898
  0.2914061134783954  0.8333250340262007  0.3994967129321471
  0.2915605054308155  0.9584602315410982  0.3995265809185486
  0.4165183910064940  0.0833481668462319  0.3999147935851166
  0.4166394863926005  0.2087087019783020  0.4020869623765538
  0.4170357373950429  0.3348849377312684  0.4066637252914513
  0.4136307202008105  0.5810133643388360  0.4058172249900643
  0.4156405252569627  0.7069193311464143  0.4028414887504931
  0.4162260181914844  0.8327046453995915  0.4006728874522955
  0.4164364430664751  0.9580772849193017  0.3996434341702790
  0.5414471878899135  0.0829391830486328  0.3995334230395327
  0.5415258586925722  0.2080139045188313  0.3999683029856596
  0.5415398080145917  0.3328449650340276  0.4026192669457420
  0.5417038769730166  0.4571988454941067  0.4061376717188893
  0.5419036193690648  0.5811034066068056  0.4088784511566542
  0.5401893821633466  0.7065435190682182  0.4061638006179159
  0.5407291425420669  0.8321199848827902  0.4027024572866546
  0.5412493706973026  0.9576391941579737  0.4004856052722177
  0.6662792329307837  0.0827549611324163  0.3999468742556461
  0.6664255074992760  0.2079483571985712  0.3990849066580022
  0.6665310102480613  0.3329699707610390  0.3993948887888496
  0.6667870058165741  0.4580084335062541  0.4007196626805207
  0.6669728414211518  0.5831530914626378  0.4023828815177479
  0.6654249705221419  0.7066411543653554  0.4040277420206308
  0.6657484503034991  0.8320408423335118  0.4031127827044872
  0.6660160977128838  0.9574236266742311  0.4012692776154014
  0.7912333405068454  0.0827344064440940  0.3999797167623033
  0.7913263554772140  0.2079038160898289  0.3991832664818928
  0.7914658822722433  0.3330436555958694  0.3987339837790225
  0.7916167773000721  0.4581399421395010  0.3988505289592178
  0.7916414496880888  0.5831101692081639  0.3994239552069370
  0.7915549722462207  0.7081235090332959  0.4005610730218093
  0.7909221218954365  0.8325195646274423  0.4010580937994669
  0.7910378330910470  0.9575520149722758  0.4006562998831633
  0.9163055631490949  0.0829374732512875  0.3996112440652985
  0.9163292721044541  0.2079544980180394  0.3991814345820857
  0.9163538361814277  0.3330433081053554  0.3989975468046635
  0.9164209179799200  0.4581023508520389  0.3988697936110920
  0.9165695503552933  0.5832402494058523  0.3987622789025165
  0.9165414244247596  0.7082787190062073  0.3990214586500095
  0.9165417452647278  0.8332226855946232  0.3996219301070927
  0.9163525358507600  0.9580505133479967  0.3998421169285731
  0.0833649862641831  0.0419046981865323  0.3998622632183659
  0.0835856240850892  0.1670083923784553  0.3999633859380027
  0.0830230350148668  0.2914187557176987  0.3994606543122036
  0.0828611149595638  0.4165300979102853  0.3995004667899835
  0.0828589656017545  0.5415107423673911  0.3993125769884011
  0.0830751524156899  0.6666264036776919  0.3990840752914072
  0.0832327621353536  0.7917339646403163  0.3991627252429208
  0.0832647226724084  0.9167872436780417  0.3994489484523976
  0.2083253004465327  0.0419985709572667  0.4002046240209884
  0.2085440288011667  0.1672810522874472  0.4011378877745635
  0.2092519039679367  0.2929370408293043  0.4007928477731704
  0.2075751932480716  0.4164089812146873  0.4000835317494452
  0.2074315902411273  0.5415245005348213  0.4002509139877834
  0.2079409510625253  0.6666700329284685  0.3996100194456876
  0.2081249232351301  0.7917027910424863  0.3992748673772907
  0.2082506203055683  0.9168364071286828  0.3994291119338564
  0.3332170340857959  0.0418727557905288  0.3999841032157444
  0.3333962793942917  0.1671239928589184  0.4020643999642449
  0.3336996801257226  0.2926082373703001  0.4043579765380689
  0.3342180124772438  0.4191665791641015  0.4026952588940288
  0.3321277374278824  0.5419479812176312  0.4017377148090334
  0.3326601578414858  0.6664656745623988  0.4014840457108071
  0.3329285478428263  0.7915534291932677  0.4000553822303459
  0.3331550900311004  0.9167037347712826  0.3994851739029797
  0.4580965269071444  0.0414728213461518  0.3995939498922678
  0.4581728510686743  0.1667412007288963  0.4005141283379049
  0.4583881082755217  0.2921922559324358  0.4039022710041869
  0.4596118068267668  0.4170644760504527  0.4108079795128372
  0.4564997760492449  0.6636442955495619  0.4052229576993363
  0.4575503943475703  0.7905278100790039  0.4021068613799214
  0.4579672109607156  0.9161272034012687  0.4001750894481426
  0.5829799465948932  0.0411109703219574  0.3999506175822244
  0.5831418099583672  0.1663071546536517  0.3993420596320309
  0.5831757469876000  0.2912378520806476  0.4004470965081195
  0.5834194286600243  0.4160369104212425  0.4028620839518608
  0.5837296426883405  0.5412670054541595  0.4056358618260659
  0.5809446672550633  0.6634531390724706  0.4067838349469859
  0.5820083613129070  0.7897444232771375  0.4042210779185039
  0.5825665997110658  0.9156084811265255  0.4014748171061423
  0.7078175321474494  0.0409080297913875  0.4003937211544173
  0.7079856096860396  0.1662097365301813  0.3993513022796538
  0.7081319487502646  0.2913512506242095  0.3988488604373329
  0.7083462850150793  0.4164692879628600  0.3994253272910296
  0.7084460636683616  0.5413885982754714  0.4006122157496598
  0.7080307569619929  0.6662134598817411  0.4023502736887153
  0.7072638215897810  0.7903185855242627  0.4027687588806197
  0.7075611261471626  0.9155128171487373  0.4016631869270526
  0.8328682896357206  0.0410612722416553  0.4000195178279675
  0.8329702565441834  0.1661906250011054  0.3994132986922367
  0.8330770807342739  0.2913859402991495  0.3989057717909589
  0.8331853381449105  0.4164600519302833  0.3987223120514842
  0.8332952711593670  0.5415406607424542  0.3988614388040631
  0.8332534574920240  0.6665893837388345  0.3994796792021428
  0.8331064756093524  0.7913526021259799  0.4003186713953498
  0.8327757652830461  0.9159990668131364  0.4004406200240416
  0.9581911029189317  0.0414863873807619  0.3996693200001641
  0.9580219231459560  0.1663536616282412  0.3993384387367309
  0.9580330895803096  0.2913736452166524  0.3990889809408942
  0.9580117666210124  0.4164390228898612  0.3990541262059973
  0.9581187296468887  0.5415749537900746  0.3988760137748235
  0.9582133375769902  0.6666499584996237  0.3988524020025486
  0.9582296253139574  0.7916594727454705  0.3992385672038096
  0.9582264344826714  0.9166011201402339  0.3996322413276233
  0.4632349140256922  0.5147982901915796  0.4845677512447115
 
  0.00000000E+00  0.00000000E+00  0.00000000E+00
  0.00000000E+00  0.00000000E+00  0.00000000E+00
  0.00000000E+00  0.00000000E+00  0.00000000E+00
  0.00000000E+00  0.00000000E+00  0.00000000E+00
  0.00000000E+00  0.00000000E+00  0.00000000E+00
  0.00000000E+00  0.00000000E+00  0.00000000E+00
  0.00000000E+00  0.00000000E+00  0.00000000E+00
  0.00000000E+00  0.00000000E+00  0.00000000E+00
  0.00000000E+00  0.00000000E+00  0.00000000E+00
  0.00000000E+00  0.00000000E+00  0.00000000E+00
  0.00000000E+00  0.00000000E+00  0.00000000E+00
  0.00000000E+00  0.00000000E+00  0.00000000E+00
  0.00000000E+00  0.00000000E+00  0.00000000E+00
  0.00000000E+00  0.00000000E+00  0.00000000E+00
  0.00000000E+00  0.00000000E+00  0.00000000E+00
  0.00000000E+00  0.00000000E+00  0.00000000E+00
  0.00000000E+00  0.00000000E+00  0.00000000E+00
  0.00000000E+00  0.00000000E+00  0.00000000E+00
  0.00000000E+00  0.00000000E+00  0.00000000E+00
  0.00000000E+00  0.00000000E+00  0.00000000E+00
  0.00000000E+00  0.00000000E+00  0.00000000E+00
  0.00000000E+00  0.00000000E+00  0.00000000E+00
  0.00000000E+00  0.00000000E+00  0.00000000E+00
  0.00000000E+00  0.00000000E+00  0.00000000E+00
  0.00000000E+00  0.00000000E+00  0.00000000E+00
  0.00000000E+00  0.00000000E+00  0.00000000E+00
  0.00000000E+00  0.00000000E+00  0.00000000E+00
  0.00000000E+00  0.00000000E+00  0.00000000E+00
  0.00000000E+00  0.00000000E+00  0.00000000E+00
  0.00000000E+00  0.00000000E+00  0.00000000E+00
  0.00000000E+00  0.00000000E+00  0.00000000E+00
  0.00000000E+00  0.00000000E+00  0.00000000E+00
  0.00000000E+00  0.00000000E+00  0.00000000E+00
  0.00000000E+00  0.00000000E+00  0.00000000E+00
  0.00000000E+00  0.00000000E+00  0.00000000E+00
  0.00000000E+00  0.00000000E+00  0.00000000E+00
  0.00000000E+00  0.00000000E+00  0.00000000E+00
  0.00000000E+00  0.00000000E+00  0.00000000E+00
  0.00000000E+00  0.00000000E+00  0.00000000E+00
  0.00000000E+00  0.00000000E+00  0.00000000E+00
  0.00000000E+00  0.00000000E+00  0.00000000E+00
  0.00000000E+00  0.00000000E+00  0.00000000E+00
  0.00000000E+00  0.00000000E+00  0.00000000E+00
  0.00000000E+00  0.00000000E+00  0.00000000E+00
  0.00000000E+00  0.00000000E+00  0.00000000E+00
  0.00000000E+00  0.00000000E+00  0.00000000E+00
  0.00000000E+00  0.00000000E+00  0.00000000E+00
  0.00000000E+00  0.00000000E+00  0.00000000E+00
  0.00000000E+00  0.00000000E+00  0.00000000E+00
  0.00000000E+00  0.00000000E+00  0.00000000E+00
  0.00000000E+00  0.00000000E+00  0.00000000E+00
  0.00000000E+00  0.00000000E+00  0.00000000E+00
  0.00000000E+00  0.00000000E+00  0.00000000E+00
  0.00000000E+00  0.00000000E+00  0.00000000E+00
  0.00000000E+00  0.00000000E+00  0.00000000E+00
  0.00000000E+00  0.00000000E+00  0.00000000E+00
  0.00000000E+00  0.00000000E+00  0.00000000E+00
  0.00000000E+00  0.00000000E+00  0.00000000E+00
  0.00000000E+00  0.00000000E+00  0.00000000E+00
  0.00000000E+00  0.00000000E+00  0.00000000E+00
  0.00000000E+00  0.00000000E+00  0.00000000E+00
  0.00000000E+00  0.00000000E+00  0.00000000E+00
  0.00000000E+00  0.00000000E+00  0.00000000E+00
  0.00000000E+00  0.00000000E+00  0.00000000E+00
  0.00000000E+00  0.00000000E+00  0.00000000E+00
  0.00000000E+00  0.00000000E+00  0.00000000E+00
  0.00000000E+00  0.00000000E+00  0.00000000E+00
  0.00000000E+00  0.00000000E+00  0.00000000E+00
  0.00000000E+00  0.00000000E+00  0.00000000E+00
  0.00000000E+00  0.00000000E+00  0.00000000E+00
  0.00000000E+00  0.00000000E+00  0.00000000E+00
  0.00000000E+00  0.00000000E+00  0.00000000E+00
  0.00000000E+00  0.00000000E+00  0.00000000E+00
  0.00000000E+00  0.00000000E+00  0.00000000E+00
  0.00000000E+00  0.00000000E+00  0.00000000E+00
  0.00000000E+00  0.00000000E+00  0.00000000E+00
  0.00000000E+00  0.00000000E+00  0.00000000E+00
  0.00000000E+00  0.00000000E+00  0.00000000E+00
  0.00000000E+00  0.00000000E+00  0.00000000E+00
  0.00000000E+00  0.00000000E+00  0.00000000E+00
  0.00000000E+00  0.00000000E+00  0.00000000E+00
  0.00000000E+00  0.00000000E+00  0.00000000E+00
  0.00000000E+00  0.00000000E+00  0.00000000E+00
  0.00000000E+00  0.00000000E+00  0.00000000E+00
  0.00000000E+00  0.00000000E+00  0.00000000E+00
  0.00000000E+00  0.00000000E+00  0.00000000E+00
  0.00000000E+00  0.00000000E+00  0.00000000E+00
  0.00000000E+00  0.00000000E+00  0.00000000E+00
  0.00000000E+00  0.00000000E+00  0.00000000E+00
  0.00000000E+00  0.00000000E+00  0.00000000E+00
  0.00000000E+00  0.00000000E+00  0.00000000E+00
  0.00000000E+00  0.00000000E+00  0.00000000E+00
  0.00000000E+00  0.00000000E+00  0.00000000E+00
  0.00000000E+00  0.00000000E+00  0.00000000E+00
  0.00000000E+00  0.00000000E+00  0.00000000E+00
  0.00000000E+00  0.00000000E+00  0.00000000E+00
  0.00000000E+00  0.00000000E+00  0.00000000E+00
  0.00000000E+00  0.00000000E+00  0.00000000E+00
  0.00000000E+00  0.00000000E+00  0.00000000E+00
  0.00000000E+00  0.00000000E+00  0.00000000E+00
  0.00000000E+00  0.00000000E+00  0.00000000E+00
  0.00000000E+00  0.00000000E+00  0.00000000E+00
  0.00000000E+00  0.00000000E+00  0.00000000E+00
  0.00000000E+00  0.00000000E+00  0.00000000E+00
  0.00000000E+00  0.00000000E+00  0.00000000E+00
  0.00000000E+00  0.00000000E+00  0.00000000E+00
  0.00000000E+00  0.00000000E+00  0.00000000E+00
  0.00000000E+00  0.00000000E+00  0.00000000E+00
  0.00000000E+00  0.00000000E+00  0.00000000E+00
  0.00000000E+00  0.00000000E+00  0.00000000E+00
  0.00000000E+00  0.00000000E+00  0.00000000E+00
  0.00000000E+00  0.00000000E+00  0.00000000E+00
  0.00000000E+00  0.00000000E+00  0.00000000E+00
  0.00000000E+00  0.00000000E+00  0.00000000E+00
  0.00000000E+00  0.00000000E+00  0.00000000E+00
  0.00000000E+00  0.00000000E+00  0.00000000E+00
  0.00000000E+00  0.00000000E+00  0.00000000E+00
  0.00000000E+00  0.00000000E+00  0.00000000E+00
  0.00000000E+00  0.00000000E+00  0.00000000E+00
  0.00000000E+00  0.00000000E+00  0.00000000E+00
  0.00000000E+00  0.00000000E+00  0.00000000E+00
  0.00000000E+00  0.00000000E+00  0.00000000E+00
  0.00000000E+00  0.00000000E+00  0.00000000E+00
  0.00000000E+00  0.00000000E+00  0.00000000E+00
  0.00000000E+00  0.00000000E+00  0.00000000E+00
  0.00000000E+00  0.00000000E+00  0.00000000E+00
  0.00000000E+00  0.00000000E+00  0.00000000E+00
  0.00000000E+00  0.00000000E+00  0.00000000E+00
  0.00000000E+00  0.00000000E+00  0.00000000E+00
