Ni1 C126                                
   1.00000000000000     
    19.8439044402780311    0.0000698273402480    0.0082275314683653
    -9.9218902357587755   17.0541192749817974   -0.0040980117170241
     0.0123578834932749    0.0000360583750914   29.7334165487275222
   Ni   C 
     1   126
Direct
  0.4374843123730041  0.5000000955640621  0.4064291867301920
  0.0418302983086246  0.0839052808244548  0.3999349899467973
  0.0406479967273282  0.2079374074373110  0.4001505270034821
  0.0400218281267680  0.3327009515980150  0.3999854432603991
  0.0401298019452609  0.4582169572689478  0.3994142251192715
  0.0412076086803905  0.5837447480065813  0.3990926446206486
  0.0420686554520824  0.7091370685296650  0.3991992255392203
  0.0424464340403183  0.8345331181414083  0.3994278545210034
  0.0424637605296358  0.9595562446393378  0.3996669222252804
  0.1677173398167440  0.0854789377757632  0.4005211301977105
  0.1668902979090094  0.2098713903249517  0.4013853261139034
  0.1646023219393933  0.3330777150921320  0.4018052399087658
  0.1632913158739001  0.4582335928906712  0.4011619296947112
  0.1646000116484591  0.5836674332956825  0.4000904552711929
  0.1663176060164336  0.7091135475520201  0.3994585311124922
  0.1671023265232249  0.8345332141360161  0.3994254773859012
  0.1675351628173228  0.9600488293109589  0.3997923292282539
  0.2927732094686002  0.0854787947159953  0.4005078626943790
  0.2935278844633951  0.2120495189637787  0.4020594994319051
  0.2922355871098343  0.3374958181570468  0.4038899869024750
  0.2858243949856031  0.4578829692944135  0.4041329945487143
  0.2878630399609907  0.5838717967510001  0.4023578419955968
  0.2905420565064394  0.7089137832491449  0.4005821404934531
  0.2914761276817914  0.8339906794655151  0.3996361023173431
  0.2921126876650352  0.9595603218772860  0.3996543315014203
  0.4170885418220437  0.0839043223042377  0.3999282163821269
  0.4179945173537552  0.2098695940153589  0.4013687378546081
  0.4202488342402291  0.3374915866593852  0.4038833954266801
  0.4097969967871490  0.5797410218420256  0.4052055972506656
  0.4147798530054747  0.7066199279113035  0.4024049569206640
  0.4159935684427172  0.8326563908542771  0.4004349217506655
  0.4166292507067106  0.9583153339333703  0.3996001193847292
  0.5416223404319181  0.0825809529204211  0.3995732434707195
  0.5423018794709278  0.2079354909956511  0.4001301228027378
  0.5434749223467286  0.3330765308972369  0.4017791829899580
  0.5470341133474330  0.4578867098539502  0.4041126115934245
  0.5449220338013645  0.5797439825734032  0.4051954208345760
  0.5395886671181661  0.7041857440019725  0.4034519089889583
  0.5403303945186402  0.8308674532919318  0.4013454693672979
  0.5410819159321097  0.9568730489881435  0.4000204573205821
  0.6661032546985496  0.0819045360783361  0.3996170965549879
  0.6666555992662271  0.2073646110531549  0.3994628113171968
  0.6676713511805333  0.3327023953834387  0.3999570193092356
  0.6699295474191009  0.4582376655970447  0.4011264514969036
  0.6709872447335367  0.5838688055096529  0.4023275946429862
  0.6668352394320762  0.7066149311292217  0.4023911481781611
  0.6655441003012500  0.8308640879030497  0.4013264835863601
  0.6656634593777202  0.9563144790683623  0.4002889635212279
  0.7908221252001524  0.0819098249708305  0.3996014080207823
  0.7911258319638403  0.2072334849341144  0.3993610993514256
  0.7917367937742900  0.3326654366136887  0.3991896069957314
  0.7930871391765858  0.4582221036031803  0.3993896030247863
  0.7940577555886029  0.5836657211269758  0.4000630969507099
  0.7933673879646302  0.7089095601325048  0.4005506867475988
  0.7916760745672109  0.8326516288261744  0.4004177784028682
  0.7908029456077456  0.9568725119059024  0.4000031951867870
  0.9159734027294167  0.0825850567081564  0.3995717614871467
  0.9157250350796553  0.2073730074481675  0.3994675573164057
  0.9159193835843411  0.3326707169402074  0.3992006799421230
  0.9165788426796186  0.4581569479158507  0.3989481323189621
  0.9175346879545615  0.5837461857891043  0.3990759901185788
  0.9177952517803799  0.7091130036600678  0.3994511175806088
  0.9175254635493891  0.8339866001276479  0.3996313950393439
  0.9167002538468452  0.9583167669195461  0.3995986655096017
  0.0842098874973002  0.0431252785659205  0.4000174387100521
  0.0833375625048753  0.1673438871530664  0.4004335285607816
  0.0816276424787097  0.2910868298644982  0.4005753530485704
  0.0809294355051455  0.4163325521980410  0.4000864618182716
  0.0819099403643003  0.5417840538760061  0.3994148348909547
  0.0832468376008393  0.6673275797982580  0.3992034835161536
  0.0838893397722159  0.7927665375907197  0.3993607037340441
  0.0841966031375090  0.9180953560177646  0.3996133586633909
  0.2093479852113194  0.0436843652201497  0.4002859621324548
  0.2094626487611803  0.1691339677444891  0.4013450894491710
  0.2081588703071630  0.2933822273532475  0.4024015718940892
  0.2039885329528933  0.4161304865343787  0.4023518109048300
  0.2050540527588373  0.5417680416786256  0.4011644892453393
  0.2073174079715517  0.6672982871496075  0.3999888534542275
  0.2083494864195891  0.7926269850604274  0.3994686425097357
  0.2089096950104502  0.9180902639509330  0.3995997903096786
  0.3339289690875655  0.0431275995018710  0.4000057127274132
  0.3346805354381812  0.1691370352386238  0.4013261538045436
  0.3354036716662258  0.2958139350074056  0.4034502501618872
  0.3300568606761554  0.4202607839619685  0.4052035142739981
  0.3279388056403049  0.5421171501677358  0.4041359177116878
  0.3315177859804796  0.6669234367165185  0.4018120028727777
  0.3327055773983010  0.7920612217336517  0.4001544589811259
  0.3333850774280972  0.9174136197964525  0.3995734931103382
  0.4583810132399173  0.0416812580261255  0.3996006615391901
  0.4590163479095473  0.1673448312913131  0.4004181432059363
  0.4602210207266034  0.2933872899798333  0.4023892621056254
  0.4651798555632779  0.4202579242016522  0.4051924931031909
  0.4547376359616691  0.6625043975521140  0.4038932321151235
  0.4570161326019945  0.7901292565915835  0.4013901199564489
  0.4579212098841760  0.9160942510233340  0.3999357453465155
  0.5829041003765787  0.0404419308474560  0.3996708523567455
  0.5835364901257940  0.1660124605368799  0.3996306662971296
  0.5844578962309771  0.2910952612642795  0.4005485259942663
  0.5871188488965425  0.4161350801587503  0.4023251473881067
  0.5891465548065187  0.5421129457180147  0.4041147852662631
  0.5827547451427466  0.6625071326516362  0.4038859648955910
  0.5814761707253228  0.7879497973460453  0.4020605001695342
  0.5822379308218826  0.9145231732353681  0.4005260036293543
  0.7074849487439238  0.0399504527009322  0.3997948170270888
  0.7079097403700574  0.1654644868897974  0.3994297002670203
  0.7086724437627504  0.2908832001780519  0.3994460770191787
  0.7103867876373372  0.4163353919854710  0.4000603746390276
  0.7116871343729088  0.5417607591022952  0.4011277950853486
  0.7103941878354274  0.6669208160993052  0.4017794790819769
  0.7081213962727000  0.7901307774878993  0.4013697759974659
  0.7072934601756888  0.9145208813327853  0.4005084688105859
  0.8325517753253768  0.0404394185597064  0.3996533164854776
  0.8325675937240442  0.1654674035518655  0.3994277274984698
  0.8329277995557813  0.2908683971166200  0.3991974410889854
  0.8337803736416948  0.4162495857739675  0.3990720828860670
  0.8348600118866938  0.5417782809429506  0.3993918092301186
  0.8349656857842930  0.6672964245043576  0.3999622461868605
  0.8343633918657981  0.7920623630207654  0.4001321601902026
  0.8331827455511199  0.9160947581379920  0.3999270913362142
  0.9583142482654849  0.0416853084558841  0.3995991884696775
  0.9574864098138949  0.1660096096217444  0.3996336329431260
  0.9572042036055698  0.2908885611116602  0.3994582257344707
  0.9574624961476118  0.4162571722908214  0.3990894438389896
  0.9584193215206799  0.5418398335326827  0.3989499577204331
  0.9590688269351846  0.6673324167048728  0.3991950704456773
  0.9592853379052607  0.7926341696148741  0.3994626573039960
  0.9590414473667680  0.9174176837287060  0.3995705781555883
 
  0.00000000E+00  0.00000000E+00  0.00000000E+00
  0.00000000E+00  0.00000000E+00  0.00000000E+00
  0.00000000E+00  0.00000000E+00  0.00000000E+00
  0.00000000E+00  0.00000000E+00  0.00000000E+00
  0.00000000E+00  0.00000000E+00  0.00000000E+00
  0.00000000E+00  0.00000000E+00  0.00000000E+00
  0.00000000E+00  0.00000000E+00  0.00000000E+00
  0.00000000E+00  0.00000000E+00  0.00000000E+00
  0.00000000E+00  0.00000000E+00  0.00000000E+00
  0.00000000E+00  0.00000000E+00  0.00000000E+00
  0.00000000E+00  0.00000000E+00  0.00000000E+00
  0.00000000E+00  0.00000000E+00  0.00000000E+00
  0.00000000E+00  0.00000000E+00  0.00000000E+00
  0.00000000E+00  0.00000000E+00  0.00000000E+00
  0.00000000E+00  0.00000000E+00  0.00000000E+00
  0.00000000E+00  0.00000000E+00  0.00000000E+00
  0.00000000E+00  0.00000000E+00  0.00000000E+00
  0.00000000E+00  0.00000000E+00  0.00000000E+00
  0.00000000E+00  0.00000000E+00  0.00000000E+00
  0.00000000E+00  0.00000000E+00  0.00000000E+00
  0.00000000E+00  0.00000000E+00  0.00000000E+00
  0.00000000E+00  0.00000000E+00  0.00000000E+00
  0.00000000E+00  0.00000000E+00  0.00000000E+00
  0.00000000E+00  0.00000000E+00  0.00000000E+00
  0.00000000E+00  0.00000000E+00  0.00000000E+00
  0.00000000E+00  0.00000000E+00  0.00000000E+00
  0.00000000E+00  0.00000000E+00  0.00000000E+00
  0.00000000E+00  0.00000000E+00  0.00000000E+00
  0.00000000E+00  0.00000000E+00  0.00000000E+00
  0.00000000E+00  0.00000000E+00  0.00000000E+00
  0.00000000E+00  0.00000000E+00  0.00000000E+00
  0.00000000E+00  0.00000000E+00  0.00000000E+00
  0.00000000E+00  0.00000000E+00  0.00000000E+00
  0.00000000E+00  0.00000000E+00  0.00000000E+00
  0.00000000E+00  0.00000000E+00  0.00000000E+00
  0.00000000E+00  0.00000000E+00  0.00000000E+00
  0.00000000E+00  0.00000000E+00  0.00000000E+00
  0.00000000E+00  0.00000000E+00  0.00000000E+00
  0.00000000E+00  0.00000000E+00  0.00000000E+00
  0.00000000E+00  0.00000000E+00  0.00000000E+00
  0.00000000E+00  0.00000000E+00  0.00000000E+00
  0.00000000E+00  0.00000000E+00  0.00000000E+00
  0.00000000E+00  0.00000000E+00  0.00000000E+00
  0.00000000E+00  0.00000000E+00  0.00000000E+00
  0.00000000E+00  0.00000000E+00  0.00000000E+00
  0.00000000E+00  0.00000000E+00  0.00000000E+00
  0.00000000E+00  0.00000000E+00  0.00000000E+00
  0.00000000E+00  0.00000000E+00  0.00000000E+00
  0.00000000E+00  0.00000000E+00  0.00000000E+00
  0.00000000E+00  0.00000000E+00  0.00000000E+00
  0.00000000E+00  0.00000000E+00  0.00000000E+00
  0.00000000E+00  0.00000000E+00  0.00000000E+00
  0.00000000E+00  0.00000000E+00  0.00000000E+00
  0.00000000E+00  0.00000000E+00  0.00000000E+00
  0.00000000E+00  0.00000000E+00  0.00000000E+00
  0.00000000E+00  0.00000000E+00  0.00000000E+00
  0.00000000E+00  0.00000000E+00  0.00000000E+00
  0.00000000E+00  0.00000000E+00  0.00000000E+00
  0.00000000E+00  0.00000000E+00  0.00000000E+00
  0.00000000E+00  0.00000000E+00  0.00000000E+00
  0.00000000E+00  0.00000000E+00  0.00000000E+00
  0.00000000E+00  0.00000000E+00  0.00000000E+00
  0.00000000E+00  0.00000000E+00  0.00000000E+00
  0.00000000E+00  0.00000000E+00  0.00000000E+00
  0.00000000E+00  0.00000000E+00  0.00000000E+00
  0.00000000E+00  0.00000000E+00  0.00000000E+00
  0.00000000E+00  0.00000000E+00  0.00000000E+00
  0.00000000E+00  0.00000000E+00  0.00000000E+00
  0.00000000E+00  0.00000000E+00  0.00000000E+00
  0.00000000E+00  0.00000000E+00  0.00000000E+00
  0.00000000E+00  0.00000000E+00  0.00000000E+00
  0.00000000E+00  0.00000000E+00  0.00000000E+00
  0.00000000E+00  0.00000000E+00  0.00000000E+00
  0.00000000E+00  0.00000000E+00  0.00000000E+00
  0.00000000E+00  0.00000000E+00  0.00000000E+00
  0.00000000E+00  0.00000000E+00  0.00000000E+00
  0.00000000E+00  0.00000000E+00  0.00000000E+00
  0.00000000E+00  0.00000000E+00  0.00000000E+00
  0.00000000E+00  0.00000000E+00  0.00000000E+00
  0.00000000E+00  0.00000000E+00  0.00000000E+00
  0.00000000E+00  0.00000000E+00  0.00000000E+00
  0.00000000E+00  0.00000000E+00  0.00000000E+00
  0.00000000E+00  0.00000000E+00  0.00000000E+00
  0.00000000E+00  0.00000000E+00  0.00000000E+00
  0.00000000E+00  0.00000000E+00  0.00000000E+00
  0.00000000E+00  0.00000000E+00  0.00000000E+00
  0.00000000E+00  0.00000000E+00  0.00000000E+00
  0.00000000E+00  0.00000000E+00  0.00000000E+00
  0.00000000E+00  0.00000000E+00  0.00000000E+00
  0.00000000E+00  0.00000000E+00  0.00000000E+00
  0.00000000E+00  0.00000000E+00  0.00000000E+00
  0.00000000E+00  0.00000000E+00  0.00000000E+00
  0.00000000E+00  0.00000000E+00  0.00000000E+00
  0.00000000E+00  0.00000000E+00  0.00000000E+00
  0.00000000E+00  0.00000000E+00  0.00000000E+00
  0.00000000E+00  0.00000000E+00  0.00000000E+00
  0.00000000E+00  0.00000000E+00  0.00000000E+00
  0.00000000E+00  0.00000000E+00  0.00000000E+00
  0.00000000E+00  0.00000000E+00  0.00000000E+00
  0.00000000E+00  0.00000000E+00  0.00000000E+00
  0.00000000E+00  0.00000000E+00  0.00000000E+00
  0.00000000E+00  0.00000000E+00  0.00000000E+00
  0.00000000E+00  0.00000000E+00  0.00000000E+00
  0.00000000E+00  0.00000000E+00  0.00000000E+00
  0.00000000E+00  0.00000000E+00  0.00000000E+00
  0.00000000E+00  0.00000000E+00  0.00000000E+00
  0.00000000E+00  0.00000000E+00  0.00000000E+00
  0.00000000E+00  0.00000000E+00  0.00000000E+00
  0.00000000E+00  0.00000000E+00  0.00000000E+00
  0.00000000E+00  0.00000000E+00  0.00000000E+00
  0.00000000E+00  0.00000000E+00  0.00000000E+00
  0.00000000E+00  0.00000000E+00  0.00000000E+00
  0.00000000E+00  0.00000000E+00  0.00000000E+00
  0.00000000E+00  0.00000000E+00  0.00000000E+00
  0.00000000E+00  0.00000000E+00  0.00000000E+00
  0.00000000E+00  0.00000000E+00  0.00000000E+00
  0.00000000E+00  0.00000000E+00  0.00000000E+00
  0.00000000E+00  0.00000000E+00  0.00000000E+00
  0.00000000E+00  0.00000000E+00  0.00000000E+00
  0.00000000E+00  0.00000000E+00  0.00000000E+00
  0.00000000E+00  0.00000000E+00  0.00000000E+00
  0.00000000E+00  0.00000000E+00  0.00000000E+00
  0.00000000E+00  0.00000000E+00  0.00000000E+00
  0.00000000E+00  0.00000000E+00  0.00000000E+00
  0.00000000E+00  0.00000000E+00  0.00000000E+00
  0.00000000E+00  0.00000000E+00  0.00000000E+00
  0.00000000E+00  0.00000000E+00  0.00000000E+00
