H1 Ir1 C122 N4 O1                       
   1.00000000000000     
    19.8516669069601726    0.0001727571984630   -0.0537848920811616
    -9.9256036254072058   17.0180362350997640    0.0058414866469995
    -0.0806243842572034   -0.0367871509761059   29.7849777990668372
   H    Ir   C    N    O 
     1     1   122     4     1
Direct
  0.4740478805463961  0.5503679852882620  0.4881889311913949
  0.4376258419680364  0.4998746411243789  0.4108664450695992
  0.0421754345664768  0.0843614399860818  0.4000989755070524
  0.0406940494708498  0.2080457973418821  0.4003165085026515
  0.0396016910125341  0.3326822157772140  0.4000632924993143
  0.0397992075208513  0.4581765279472509  0.3992265284530900
  0.0411537357588895  0.5839612628623018  0.3986210892934662
  0.0423751400644199  0.7096387116409267  0.3987724264402463
  0.0428230036084420  0.8349971594586050  0.3992099608468285
  0.0429154141562869  0.9601454867838606  0.3996205029577842
  0.1686098133780669  0.0865513538696407  0.4010083401337186
  0.1675307373047378  0.2107150764404989  0.4020323339036065
  0.1641711304972258  0.3335290836649073  0.4025502642167932
  0.1626834692957156  0.4584317541868150  0.4020380178797658
  0.1642889953683439  0.5838975078680045  0.4003324524319468
  0.1662517030619182  0.7093843568162206  0.3992299761130313
  0.1672761314357015  0.8349911186305018  0.3991818152590447
  0.1679437593136565  0.9607369057793640  0.3998854626785979
  0.2930996315604367  0.0865392874956726  0.4009606765654785
  0.2947891154847105  0.2144043150607338  0.4030648049948810
  0.2919933207162185  0.3391542233516015  0.4048048530086156
  0.2847241429962588  0.4580357138332141  0.4056896662971640
  0.2868141086793156  0.5833473331648807  0.4036977735653472
  0.2901194535281744  0.7086901063586303  0.4009454843479287
  0.2915941370788268  0.8342498209192371  0.3994950167405159
  0.2923707392818188  0.9601310836309054  0.3995903968227004
  0.4173377215140409  0.0843474623504848  0.4001036568246672
  0.4183206852696673  0.2106904169912472  0.4019667226529238
  0.4223360379870951  0.3391669523007602  0.4045048626567526
  0.4139659437604806  0.7057340555936470  0.4033344497814429
  0.4158337918565891  0.8321021336427538  0.4007848821544746
  0.4166628066556547  0.9582398963653285  0.3995350052593755
  0.5415986068273057  0.0822716246359163  0.3994606376541522
  0.5424773110907353  0.2080398504537172  0.4003453967773635
  0.5444722421654816  0.3335091571210142  0.4022646633021392
  0.5484196354550280  0.4580199946355619  0.4049756050221391
  0.5377851271845863  0.7004339305158825  0.4049172512881908
  0.5400771937483103  0.8293851083724822  0.4022377677359728
  0.5409804292152429  0.9561563211862826  0.4001574478018124
  0.6659757522332219  0.0814032790557076  0.3995237054865290
  0.6667389784808918  0.2070479857509920  0.3993272640916086
  0.6681729626448956  0.3326762902157353  0.4000665623152611
  0.6708717647350599  0.4584264372865509  0.4018023158033254
  0.6716661104680206  0.5833610714675533  0.4033101584209796
  0.6669132087697396  0.7057528702089410  0.4031975908168439
  0.6644722850276163  0.8294082886141206  0.4021878692894246
  0.6653677520396289  0.9555918172338224  0.4006369826083044
  0.7905629725445787  0.0814222637793622  0.3994931011709016
  0.7909521280771208  0.2067978498026059  0.3990160119479308
  0.7918848084559104  0.3324027734073909  0.3988468744636493
  0.7934542018747277  0.4581645246329382  0.3992665036158419
  0.7946782353799450  0.5838727294273729  0.4003097221697832
  0.7936895073788622  0.7087100277994250  0.4009547271460789
  0.7914117897918442  0.8320992761562532  0.4008124070699954
  0.7903319161082097  0.9561651948103940  0.4001318595612010
  0.9158202713571563  0.0822696852727403  0.3994221161313644
  0.9154027604188915  0.2070271404639305  0.3992423115977982
  0.9156321108364018  0.3323952255745886  0.3987820682315713
  0.9166671214768101  0.4582036901784972  0.3983333335915107
  0.9179011144786976  0.5839555593058280  0.3986479279901247
  0.9182466371747260  0.7093810407255501  0.3993113028851540
  0.9177987836169793  0.8342667476894783  0.3995616859915618
  0.9167575340808665  0.9582370553741378  0.3995396264727417
  0.0848799252950506  0.0439225857449194  0.4002059105186763
  0.0837709583137963  0.1679626580716173  0.4007970099448750
  0.0814486458645130  0.2913660863813363  0.4009056677758259
  0.0804153454175056  0.4161411581825811  0.4003186126551655
  0.0816449761476211  0.5418568772224039  0.3992303001159687
  0.0832374189011492  0.6676165586893208  0.3987909252947647
  0.0841552056256617  0.7932021782244632  0.3990359788339486
  0.0846090286136965  0.9186471451002356  0.3995667069185049
  0.2098250441132673  0.0444985450749526  0.4006543150374474
  0.2107431278954132  0.1707093871238953  0.4021499669836508
  0.2082614300949772  0.2943313007094841  0.4031120556190582
  0.2034573079198009  0.4166913946052928  0.4035352154606685
  0.2042803322083666  0.5416213154322891  0.4020664572746208
  0.2069466297342482  0.6673663916385105  0.4000699278808504
  0.2083828175816212  0.7930018461680987  0.3992277417729892
  0.2091754341274555  0.9186341661549677  0.3995366108826765
  0.3341915050621916  0.0438935872672543  0.4001748585502662
  0.3351133016305479  0.1706936256967678  0.4020800549604133
  0.3374085687305894  0.2996664469538759  0.4045385311648105
  0.3266659548770580  0.5419710494744188  0.4059006742431081
  0.3306555802226344  0.6665212420770090  0.4027047199654643
  0.3326509726100207  0.7919981186330589  0.4003007090189979
  0.3335516663668321  0.9177840326189470  0.3994180452708211
  0.4585024578112131  0.0417987234663586  0.3995720319625893
  0.4593329406370485  0.1679718840764522  0.4007951434004464
  0.4612132239414161  0.2943548699281230  0.4028933402813504
  0.4528284407138154  0.6608830194919344  0.4051887154109414
  0.4568362321252085  0.7893404817574295  0.4021253918385697
  0.4578156420180184  0.9156868495212219  0.4000526823613696
  0.5827694695531773  0.0399084334084490  0.3995845203918114
  0.5835442901232610  0.1657977062269717  0.3995876079595376
  0.5850040288886995  0.2913686810481761  0.4008282244288524
  0.5883229408528178  0.4166791739227619  0.4030790509695327
  0.5904828972991348  0.5419666137302619  0.4052577621660674
  0.5832551063818142  0.6609228163683407  0.4049919825871798
  0.5804341928519346  0.7857110812106449  0.4032647739736118
  0.5820875342410046  0.9135436753422734  0.4010007782476868
  0.7072420533063855  0.0393219442423506  0.3998391287960717
  0.7078339541183796  0.1650591631703381  0.3992037720637069
  0.7088703324749972  0.2906572726914496  0.3993267127686043
  0.7108006398867922  0.4161685761484589  0.4002744380214309
  0.7124662053637799  0.5416153936379167  0.4018500282352093
  0.7110111285640330  0.6665489938146406  0.4025334678729576
  0.7076759474012704  0.7893943004300009  0.4020838722407653
  0.7066073815080236  0.9135487393984018  0.4009664752637822
  0.8322910983177628  0.0399056094427001  0.3995497252910021
  0.8323074457521190  0.1650357730137776  0.3991531561981495
  0.8327349890120240  0.2903865726224846  0.3987690648132102
  0.8339269532669951  0.4160480515372717  0.3986359429933303
  0.8352958298223269  0.5418639656394366  0.3992756480939365
  0.8355157617799824  0.6673615017662999  0.4001197374198422
  0.8344701762483668  0.7919994370280262  0.4003744977390956
  0.8330461275402864  0.9157157947687021  0.4000602724937499
  0.9584743960595697  0.0418081287393726  0.3995542935249212
  0.9573604409466411  0.1657733348582129  0.3995225377894956
  0.9568729079080186  0.2906275749016819  0.3992358903116022
  0.9571702617153584  0.4160546260438791  0.3986039340371532
  0.9584258100770707  0.5417961775281905  0.3983429294717905
  0.9594773983233590  0.6676024069821408  0.3988376273968276
  0.9597201334145902  0.7929673958281431  0.3993016389064995
  0.9593824143546679  0.9177850712208147  0.3994437898500902
  0.4068079425865753  0.5801524762725717  0.4065277578888386
  0.5486213214868783  0.5802211186395890  0.4060331213334429
  0.3265928470342614  0.4198117977873208  0.4060809555693475
  0.4683694187565562  0.4198141772807935  0.4053447753129310
  0.4386880803450031  0.4966959201393316  0.4780634326776158
 
  0.00000000E+00  0.00000000E+00  0.00000000E+00
  0.00000000E+00  0.00000000E+00  0.00000000E+00
  0.00000000E+00  0.00000000E+00  0.00000000E+00
  0.00000000E+00  0.00000000E+00  0.00000000E+00
  0.00000000E+00  0.00000000E+00  0.00000000E+00
  0.00000000E+00  0.00000000E+00  0.00000000E+00
  0.00000000E+00  0.00000000E+00  0.00000000E+00
  0.00000000E+00  0.00000000E+00  0.00000000E+00
  0.00000000E+00  0.00000000E+00  0.00000000E+00
  0.00000000E+00  0.00000000E+00  0.00000000E+00
  0.00000000E+00  0.00000000E+00  0.00000000E+00
  0.00000000E+00  0.00000000E+00  0.00000000E+00
  0.00000000E+00  0.00000000E+00  0.00000000E+00
  0.00000000E+00  0.00000000E+00  0.00000000E+00
  0.00000000E+00  0.00000000E+00  0.00000000E+00
  0.00000000E+00  0.00000000E+00  0.00000000E+00
  0.00000000E+00  0.00000000E+00  0.00000000E+00
  0.00000000E+00  0.00000000E+00  0.00000000E+00
  0.00000000E+00  0.00000000E+00  0.00000000E+00
  0.00000000E+00  0.00000000E+00  0.00000000E+00
  0.00000000E+00  0.00000000E+00  0.00000000E+00
  0.00000000E+00  0.00000000E+00  0.00000000E+00
  0.00000000E+00  0.00000000E+00  0.00000000E+00
  0.00000000E+00  0.00000000E+00  0.00000000E+00
  0.00000000E+00  0.00000000E+00  0.00000000E+00
  0.00000000E+00  0.00000000E+00  0.00000000E+00
  0.00000000E+00  0.00000000E+00  0.00000000E+00
  0.00000000E+00  0.00000000E+00  0.00000000E+00
  0.00000000E+00  0.00000000E+00  0.00000000E+00
  0.00000000E+00  0.00000000E+00  0.00000000E+00
  0.00000000E+00  0.00000000E+00  0.00000000E+00
  0.00000000E+00  0.00000000E+00  0.00000000E+00
  0.00000000E+00  0.00000000E+00  0.00000000E+00
  0.00000000E+00  0.00000000E+00  0.00000000E+00
  0.00000000E+00  0.00000000E+00  0.00000000E+00
  0.00000000E+00  0.00000000E+00  0.00000000E+00
  0.00000000E+00  0.00000000E+00  0.00000000E+00
  0.00000000E+00  0.00000000E+00  0.00000000E+00
  0.00000000E+00  0.00000000E+00  0.00000000E+00
  0.00000000E+00  0.00000000E+00  0.00000000E+00
  0.00000000E+00  0.00000000E+00  0.00000000E+00
  0.00000000E+00  0.00000000E+00  0.00000000E+00
  0.00000000E+00  0.00000000E+00  0.00000000E+00
  0.00000000E+00  0.00000000E+00  0.00000000E+00
  0.00000000E+00  0.00000000E+00  0.00000000E+00
  0.00000000E+00  0.00000000E+00  0.00000000E+00
  0.00000000E+00  0.00000000E+00  0.00000000E+00
  0.00000000E+00  0.00000000E+00  0.00000000E+00
  0.00000000E+00  0.00000000E+00  0.00000000E+00
  0.00000000E+00  0.00000000E+00  0.00000000E+00
  0.00000000E+00  0.00000000E+00  0.00000000E+00
  0.00000000E+00  0.00000000E+00  0.00000000E+00
  0.00000000E+00  0.00000000E+00  0.00000000E+00
  0.00000000E+00  0.00000000E+00  0.00000000E+00
  0.00000000E+00  0.00000000E+00  0.00000000E+00
  0.00000000E+00  0.00000000E+00  0.00000000E+00
  0.00000000E+00  0.00000000E+00  0.00000000E+00
  0.00000000E+00  0.00000000E+00  0.00000000E+00
  0.00000000E+00  0.00000000E+00  0.00000000E+00
  0.00000000E+00  0.00000000E+00  0.00000000E+00
  0.00000000E+00  0.00000000E+00  0.00000000E+00
  0.00000000E+00  0.00000000E+00  0.00000000E+00
  0.00000000E+00  0.00000000E+00  0.00000000E+00
  0.00000000E+00  0.00000000E+00  0.00000000E+00
  0.00000000E+00  0.00000000E+00  0.00000000E+00
  0.00000000E+00  0.00000000E+00  0.00000000E+00
  0.00000000E+00  0.00000000E+00  0.00000000E+00
  0.00000000E+00  0.00000000E+00  0.00000000E+00
  0.00000000E+00  0.00000000E+00  0.00000000E+00
  0.00000000E+00  0.00000000E+00  0.00000000E+00
  0.00000000E+00  0.00000000E+00  0.00000000E+00
  0.00000000E+00  0.00000000E+00  0.00000000E+00
  0.00000000E+00  0.00000000E+00  0.00000000E+00
  0.00000000E+00  0.00000000E+00  0.00000000E+00
  0.00000000E+00  0.00000000E+00  0.00000000E+00
  0.00000000E+00  0.00000000E+00  0.00000000E+00
  0.00000000E+00  0.00000000E+00  0.00000000E+00
  0.00000000E+00  0.00000000E+00  0.00000000E+00
  0.00000000E+00  0.00000000E+00  0.00000000E+00
  0.00000000E+00  0.00000000E+00  0.00000000E+00
  0.00000000E+00  0.00000000E+00  0.00000000E+00
  0.00000000E+00  0.00000000E+00  0.00000000E+00
  0.00000000E+00  0.00000000E+00  0.00000000E+00
  0.00000000E+00  0.00000000E+00  0.00000000E+00
  0.00000000E+00  0.00000000E+00  0.00000000E+00
  0.00000000E+00  0.00000000E+00  0.00000000E+00
  0.00000000E+00  0.00000000E+00  0.00000000E+00
  0.00000000E+00  0.00000000E+00  0.00000000E+00
  0.00000000E+00  0.00000000E+00  0.00000000E+00
  0.00000000E+00  0.00000000E+00  0.00000000E+00
  0.00000000E+00  0.00000000E+00  0.00000000E+00
  0.00000000E+00  0.00000000E+00  0.00000000E+00
  0.00000000E+00  0.00000000E+00  0.00000000E+00
  0.00000000E+00  0.00000000E+00  0.00000000E+00
  0.00000000E+00  0.00000000E+00  0.00000000E+00
  0.00000000E+00  0.00000000E+00  0.00000000E+00
  0.00000000E+00  0.00000000E+00  0.00000000E+00
  0.00000000E+00  0.00000000E+00  0.00000000E+00
  0.00000000E+00  0.00000000E+00  0.00000000E+00
  0.00000000E+00  0.00000000E+00  0.00000000E+00
  0.00000000E+00  0.00000000E+00  0.00000000E+00
  0.00000000E+00  0.00000000E+00  0.00000000E+00
  0.00000000E+00  0.00000000E+00  0.00000000E+00
  0.00000000E+00  0.00000000E+00  0.00000000E+00
  0.00000000E+00  0.00000000E+00  0.00000000E+00
  0.00000000E+00  0.00000000E+00  0.00000000E+00
  0.00000000E+00  0.00000000E+00  0.00000000E+00
  0.00000000E+00  0.00000000E+00  0.00000000E+00
  0.00000000E+00  0.00000000E+00  0.00000000E+00
  0.00000000E+00  0.00000000E+00  0.00000000E+00
  0.00000000E+00  0.00000000E+00  0.00000000E+00
  0.00000000E+00  0.00000000E+00  0.00000000E+00
  0.00000000E+00  0.00000000E+00  0.00000000E+00
  0.00000000E+00  0.00000000E+00  0.00000000E+00
  0.00000000E+00  0.00000000E+00  0.00000000E+00
  0.00000000E+00  0.00000000E+00  0.00000000E+00
  0.00000000E+00  0.00000000E+00  0.00000000E+00
  0.00000000E+00  0.00000000E+00  0.00000000E+00
  0.00000000E+00  0.00000000E+00  0.00000000E+00
  0.00000000E+00  0.00000000E+00  0.00000000E+00
  0.00000000E+00  0.00000000E+00  0.00000000E+00
  0.00000000E+00  0.00000000E+00  0.00000000E+00
  0.00000000E+00  0.00000000E+00  0.00000000E+00
  0.00000000E+00  0.00000000E+00  0.00000000E+00
  0.00000000E+00  0.00000000E+00  0.00000000E+00
  0.00000000E+00  0.00000000E+00  0.00000000E+00
  0.00000000E+00  0.00000000E+00  0.00000000E+00
  0.00000000E+00  0.00000000E+00  0.00000000E+00
  0.00000000E+00  0.00000000E+00  0.00000000E+00
