H1 W1 C123 N3 O1                        
   1.00000000000000     
    19.7969087402487069    0.0139734110098317    0.2609765275998907
    -9.8866122394172073   17.0125626458196706   -0.5646517908003493
     0.3927773726312759   -0.7586350161714718   29.8891559471159738
   H    W    C    N    O 
     1     1   123     3     1
Direct
  0.4795384141433061  0.4865663323557184  0.5163358538478321
  0.4432693706290627  0.5053675485579372  0.4350295864897046
  0.0421701338772216  0.0849140934196150  0.4004423020154040
  0.0411853514542116  0.2088679298538106  0.3999927391722298
  0.0404014560560633  0.3332662246718005  0.3974151739889501
  0.0405066918888705  0.4582250930528830  0.3956795286505011
  0.0413632991221501  0.5837679696508058  0.3963807044060348
  0.0421013288706738  0.7093477700063204  0.3978903938103753
  0.0424072982020317  0.8347445390856749  0.3991108413773104
  0.0424020522778812  0.9600547429434264  0.3999595478791146
  0.1677921282329001  0.0860713664002870  0.4011286169375277
  0.1678102355471753  0.2114700126843229  0.4022002168745313
  0.1651464182464080  0.3343495599235199  0.4010041945478796
  0.1643575779457983  0.4584814404938663  0.3963866284363833
  0.1652534428658871  0.5835820592763508  0.3956910447819930
  0.1664487218113483  0.7089668848482936  0.3971323398593535
  0.1670715884173147  0.8345764113877571  0.3986150479254882
  0.1673950275516804  0.9603285118623001  0.3998155839191044
  0.2925006495360762  0.0862357932207005  0.4004764391998098
  0.2930622202868761  0.2134093794662441  0.4029885728718560
  0.2930963959793728  0.3405149885417929  0.4070921048223621
  0.2874471997461903  0.4590796720422939  0.4028258719599198
  0.2886646197651450  0.5829607469738028  0.3978738277356260
  0.2908269130626701  0.7083182176150079  0.3982758850653113
  0.2916728586592091  0.8340111741441407  0.3988604622433219
  0.2920558088147111  0.9598399765514913  0.3993984104504170
  0.4168978734513811  0.0845959809692926  0.3996118015554113
  0.4174247364633702  0.2110096091042478  0.4006488311046155
  0.4189135867560057  0.3387810646754952  0.4031671313928211
  0.4147640475806605  0.7055162524315490  0.4018498331774877
  0.4161141803145947  0.8322165155388742  0.4001389189706934
  0.4166591275380649  0.9584554312368317  0.3995312297170976
  0.5414251016301519  0.0830376747217666  0.3991024877307111
  0.5418978448631427  0.2089283247665200  0.3993409520985511
  0.5429298036139425  0.3348738162083099  0.4005735335358754
  0.5461603041736689  0.4604998111913080  0.4030817143783219
  0.5382302298580031  0.7023506170056512  0.4037733755461626
  0.5404603732461768  0.8306198493252724  0.4015116837924065
  0.5410857471532134  0.9570892438260790  0.4000049453236909
  0.6660450051478332  0.0824235446651828  0.3990984702387162
  0.6664347006171739  0.2079513063406957  0.3985902157880343
  0.6672195369003141  0.3335097487791617  0.3994573666921552
  0.6693331489476448  0.4592639653719675  0.4012520184780066
  0.6704541132303825  0.5848046616476779  0.4017006424787977
  0.6662198954446560  0.7069059733939174  0.4004404370404485
  0.6647505498211820  0.8309172010044991  0.4008063732663906
  0.6655853364059553  0.9568421774174543  0.4002299922169524
  0.7908433059669784  0.0825123975521379  0.3993163093054295
  0.7910319558790275  0.2077035788925785  0.3982741959936845
  0.7915557734101626  0.3330879762108671  0.3981359569497950
  0.7927563178869610  0.4586946949902434  0.3990996140109969
  0.7936909772357402  0.5843089689532036  0.4000938039009446
  0.7930709364086650  0.7092821136026874  0.3998484416598487
  0.7912159554320738  0.8330035384107642  0.3997270014641057
  0.7905809554060815  0.9573293523589842  0.3998984659678980
  0.9160842146918304  0.0832333493514598  0.3997360303160191
  0.9158416303930716  0.2079255245572199  0.3985161766569319
  0.9158989851892603  0.3329243798607459  0.3970230577082944
  0.9165829609663536  0.4583736959625198  0.3971201319371341
  0.9174677964426418  0.5839938676840671  0.3982033429289559
  0.9177162369644228  0.7094231098093740  0.3990556740221227
  0.9173330093081635  0.8344267007283912  0.3993757085542499
  0.9166903848039892  0.9588807191366897  0.3998399774524908
  0.0843047391664017  0.0437792296730197  0.4005313793045702
  0.0840403133990762  0.1686637563757247  0.4008389301775561
  0.0824102107527464  0.2921980642526913  0.3993771501622251
  0.0815982238034823  0.4164091987418276  0.3960884031928802
  0.0823416622148807  0.5417755843845938  0.3955847736787301
  0.0833441540139070  0.6673686611781269  0.3969637531637863
  0.0838465614505027  0.7929196386663286  0.3985168987555853
  0.0841568593284474  0.9184578713347371  0.3996601208094336
  0.2091936346640985  0.0441516918441274  0.4005263094825985
  0.2097327450037154  0.1701974283640288  0.4023402457967633
  0.2093054262438635  0.2955778846332340  0.4035266071350552
  0.2056994561977463  0.4172721783408460  0.3992725888297248
  0.2058739635872181  0.5414324673708782  0.3959887560817624
  0.2075139427862747  0.6669783861335398  0.3967565837756181
  0.2084330437717042  0.7926330557822551  0.3981848040426152
  0.2088494680044478  0.9182644608037595  0.3992681762949956
  0.3337586244139117  0.0436885747427242  0.3997842300223586
  0.3341679784672183  0.1702998054596157  0.4013166471492364
  0.3351026677013881  0.2983328343930866  0.4051548955993886
  0.3287654530068197  0.5415456589971538  0.4012656281730300
  0.3315540216240532  0.6662661908841515  0.3993301149098173
  0.3329716420755556  0.7918295095355669  0.3992058729784825
  0.3334110533054491  0.9175900889526550  0.3992949002615751
  0.4582623651574998  0.0421295914568484  0.3993934828668434
  0.4585649307515957  0.1683167056636544  0.3998116307239599
  0.4593218881009790  0.2948697655483730  0.4008577799470465
  0.4634409441059833  0.4222424383233727  0.4060938374661791
  0.4537535882055062  0.6607529887114425  0.4048626184706375
  0.4572088252534751  0.7894585642509887  0.4011709834716666
  0.4578911080374364  0.9160094225922274  0.3999324172776459
  0.5827645493214612  0.0408193043936891  0.3993189678505223
  0.5832002719376496  0.1666864708545104  0.3988810093458851
  0.5839089938728429  0.2923896174733266  0.3997118889975942
  0.5865530638626868  0.4181608007109027  0.4017189965644822
  0.5887197847831768  0.5439229146623695  0.4030706075991785
  0.5829166733461398  0.6631548255494657  0.4026682379676532
  0.5808470197949275  0.7874808159925628  0.4020590973503206
  0.5823449577351820  0.9147425602120224  0.4006113025090030
  0.7074739409007087  0.0405712829601840  0.3995171971725514
  0.7078410653465009  0.1660328216578264  0.3985587425545927
  0.7083725161417880  0.2915018976167004  0.3986772699395812
  0.7098569515632061  0.4170053307770770  0.3999821523881747
  0.7111612304562679  0.5424825931604270  0.4012093763360419
  0.7103006704011057  0.6674973184865315  0.4005688007882477
  0.7075839637875423  0.7906493992198594  0.4001368606318275
  0.7069373920901961  0.9149470450690272  0.4002889378114989
  0.8325780194903664  0.0410694745733873  0.3996686688451997
  0.8326204555963946  0.1660725973026806  0.3986550857573009
  0.8328020973200011  0.2911685442157265  0.3977351938778669
  0.8336397251647091  0.4166173632949097  0.3980895245668961
  0.8346632553193739  0.5422472179518792  0.3991813941488643
  0.8348089916868540  0.6677062950013304  0.3996906259092409
  0.8341376146233128  0.7925384250186652  0.3995074636379959
  0.8330301644735261  0.9165674905196385  0.3997860421874505
  0.9585904705179551  0.0425021664764162  0.4000163639208199
  0.9577922588522868  0.1666800557838731  0.3993773077068921
  0.9574378249744260  0.2913579060318632  0.3974910393544087
  0.9576161075265736  0.4163919831653999  0.3964226016750666
  0.9584378396146531  0.5419059719394891  0.3971499086391127
  0.9591017019542840  0.6675720526718889  0.3983633735592996
  0.9592319880550936  0.7929664128813877  0.3991391781262618
  0.9589894074587636  0.9179874484651096  0.3996842520833162
  0.4088561576749797  0.5787683619373258  0.4078662497224400
  0.5460030918949612  0.5822755680750946  0.4059684196047218
  0.3309847771000680  0.4235353853689344  0.4112568890206320
  0.4606086682315291  0.5113184064231168  0.4969236892266847
 
  0.00000000E+00  0.00000000E+00  0.00000000E+00
  0.00000000E+00  0.00000000E+00  0.00000000E+00
  0.00000000E+00  0.00000000E+00  0.00000000E+00
  0.00000000E+00  0.00000000E+00  0.00000000E+00
  0.00000000E+00  0.00000000E+00  0.00000000E+00
  0.00000000E+00  0.00000000E+00  0.00000000E+00
  0.00000000E+00  0.00000000E+00  0.00000000E+00
  0.00000000E+00  0.00000000E+00  0.00000000E+00
  0.00000000E+00  0.00000000E+00  0.00000000E+00
  0.00000000E+00  0.00000000E+00  0.00000000E+00
  0.00000000E+00  0.00000000E+00  0.00000000E+00
  0.00000000E+00  0.00000000E+00  0.00000000E+00
  0.00000000E+00  0.00000000E+00  0.00000000E+00
  0.00000000E+00  0.00000000E+00  0.00000000E+00
  0.00000000E+00  0.00000000E+00  0.00000000E+00
  0.00000000E+00  0.00000000E+00  0.00000000E+00
  0.00000000E+00  0.00000000E+00  0.00000000E+00
  0.00000000E+00  0.00000000E+00  0.00000000E+00
  0.00000000E+00  0.00000000E+00  0.00000000E+00
  0.00000000E+00  0.00000000E+00  0.00000000E+00
  0.00000000E+00  0.00000000E+00  0.00000000E+00
  0.00000000E+00  0.00000000E+00  0.00000000E+00
  0.00000000E+00  0.00000000E+00  0.00000000E+00
  0.00000000E+00  0.00000000E+00  0.00000000E+00
  0.00000000E+00  0.00000000E+00  0.00000000E+00
  0.00000000E+00  0.00000000E+00  0.00000000E+00
  0.00000000E+00  0.00000000E+00  0.00000000E+00
  0.00000000E+00  0.00000000E+00  0.00000000E+00
  0.00000000E+00  0.00000000E+00  0.00000000E+00
  0.00000000E+00  0.00000000E+00  0.00000000E+00
  0.00000000E+00  0.00000000E+00  0.00000000E+00
  0.00000000E+00  0.00000000E+00  0.00000000E+00
  0.00000000E+00  0.00000000E+00  0.00000000E+00
  0.00000000E+00  0.00000000E+00  0.00000000E+00
  0.00000000E+00  0.00000000E+00  0.00000000E+00
  0.00000000E+00  0.00000000E+00  0.00000000E+00
  0.00000000E+00  0.00000000E+00  0.00000000E+00
  0.00000000E+00  0.00000000E+00  0.00000000E+00
  0.00000000E+00  0.00000000E+00  0.00000000E+00
  0.00000000E+00  0.00000000E+00  0.00000000E+00
  0.00000000E+00  0.00000000E+00  0.00000000E+00
  0.00000000E+00  0.00000000E+00  0.00000000E+00
  0.00000000E+00  0.00000000E+00  0.00000000E+00
  0.00000000E+00  0.00000000E+00  0.00000000E+00
  0.00000000E+00  0.00000000E+00  0.00000000E+00
  0.00000000E+00  0.00000000E+00  0.00000000E+00
  0.00000000E+00  0.00000000E+00  0.00000000E+00
  0.00000000E+00  0.00000000E+00  0.00000000E+00
  0.00000000E+00  0.00000000E+00  0.00000000E+00
  0.00000000E+00  0.00000000E+00  0.00000000E+00
  0.00000000E+00  0.00000000E+00  0.00000000E+00
  0.00000000E+00  0.00000000E+00  0.00000000E+00
  0.00000000E+00  0.00000000E+00  0.00000000E+00
  0.00000000E+00  0.00000000E+00  0.00000000E+00
  0.00000000E+00  0.00000000E+00  0.00000000E+00
  0.00000000E+00  0.00000000E+00  0.00000000E+00
  0.00000000E+00  0.00000000E+00  0.00000000E+00
  0.00000000E+00  0.00000000E+00  0.00000000E+00
  0.00000000E+00  0.00000000E+00  0.00000000E+00
  0.00000000E+00  0.00000000E+00  0.00000000E+00
  0.00000000E+00  0.00000000E+00  0.00000000E+00
  0.00000000E+00  0.00000000E+00  0.00000000E+00
  0.00000000E+00  0.00000000E+00  0.00000000E+00
  0.00000000E+00  0.00000000E+00  0.00000000E+00
  0.00000000E+00  0.00000000E+00  0.00000000E+00
  0.00000000E+00  0.00000000E+00  0.00000000E+00
  0.00000000E+00  0.00000000E+00  0.00000000E+00
  0.00000000E+00  0.00000000E+00  0.00000000E+00
  0.00000000E+00  0.00000000E+00  0.00000000E+00
  0.00000000E+00  0.00000000E+00  0.00000000E+00
  0.00000000E+00  0.00000000E+00  0.00000000E+00
  0.00000000E+00  0.00000000E+00  0.00000000E+00
  0.00000000E+00  0.00000000E+00  0.00000000E+00
  0.00000000E+00  0.00000000E+00  0.00000000E+00
  0.00000000E+00  0.00000000E+00  0.00000000E+00
  0.00000000E+00  0.00000000E+00  0.00000000E+00
  0.00000000E+00  0.00000000E+00  0.00000000E+00
  0.00000000E+00  0.00000000E+00  0.00000000E+00
  0.00000000E+00  0.00000000E+00  0.00000000E+00
  0.00000000E+00  0.00000000E+00  0.00000000E+00
  0.00000000E+00  0.00000000E+00  0.00000000E+00
  0.00000000E+00  0.00000000E+00  0.00000000E+00
  0.00000000E+00  0.00000000E+00  0.00000000E+00
  0.00000000E+00  0.00000000E+00  0.00000000E+00
  0.00000000E+00  0.00000000E+00  0.00000000E+00
  0.00000000E+00  0.00000000E+00  0.00000000E+00
  0.00000000E+00  0.00000000E+00  0.00000000E+00
  0.00000000E+00  0.00000000E+00  0.00000000E+00
  0.00000000E+00  0.00000000E+00  0.00000000E+00
  0.00000000E+00  0.00000000E+00  0.00000000E+00
  0.00000000E+00  0.00000000E+00  0.00000000E+00
  0.00000000E+00  0.00000000E+00  0.00000000E+00
  0.00000000E+00  0.00000000E+00  0.00000000E+00
  0.00000000E+00  0.00000000E+00  0.00000000E+00
  0.00000000E+00  0.00000000E+00  0.00000000E+00
  0.00000000E+00  0.00000000E+00  0.00000000E+00
  0.00000000E+00  0.00000000E+00  0.00000000E+00
  0.00000000E+00  0.00000000E+00  0.00000000E+00
  0.00000000E+00  0.00000000E+00  0.00000000E+00
  0.00000000E+00  0.00000000E+00  0.00000000E+00
  0.00000000E+00  0.00000000E+00  0.00000000E+00
  0.00000000E+00  0.00000000E+00  0.00000000E+00
  0.00000000E+00  0.00000000E+00  0.00000000E+00
  0.00000000E+00  0.00000000E+00  0.00000000E+00
  0.00000000E+00  0.00000000E+00  0.00000000E+00
  0.00000000E+00  0.00000000E+00  0.00000000E+00
  0.00000000E+00  0.00000000E+00  0.00000000E+00
  0.00000000E+00  0.00000000E+00  0.00000000E+00
  0.00000000E+00  0.00000000E+00  0.00000000E+00
  0.00000000E+00  0.00000000E+00  0.00000000E+00
  0.00000000E+00  0.00000000E+00  0.00000000E+00
  0.00000000E+00  0.00000000E+00  0.00000000E+00
  0.00000000E+00  0.00000000E+00  0.00000000E+00
  0.00000000E+00  0.00000000E+00  0.00000000E+00
  0.00000000E+00  0.00000000E+00  0.00000000E+00
  0.00000000E+00  0.00000000E+00  0.00000000E+00
  0.00000000E+00  0.00000000E+00  0.00000000E+00
  0.00000000E+00  0.00000000E+00  0.00000000E+00
  0.00000000E+00  0.00000000E+00  0.00000000E+00
  0.00000000E+00  0.00000000E+00  0.00000000E+00
  0.00000000E+00  0.00000000E+00  0.00000000E+00
  0.00000000E+00  0.00000000E+00  0.00000000E+00
  0.00000000E+00  0.00000000E+00  0.00000000E+00
  0.00000000E+00  0.00000000E+00  0.00000000E+00
  0.00000000E+00  0.00000000E+00  0.00000000E+00
  0.00000000E+00  0.00000000E+00  0.00000000E+00
  0.00000000E+00  0.00000000E+00  0.00000000E+00
  0.00000000E+00  0.00000000E+00  0.00000000E+00
  0.00000000E+00  0.00000000E+00  0.00000000E+00
