Co1 H1 C123 N3 O2                       
   1.00000000000000     
    19.8038161944730078    0.0053328194500947    0.1133113289216598
    -9.8973237919697414   17.0159209257921162   -0.0524327799362728
     0.1704800542121968    0.0079803361290665   29.8568454431846710
   Co   H    C    N    O 
     1     1   123     3     2
Direct
  0.4362282776080306  0.4978884593398760  0.4129706890646858
  0.5260332912181553  0.5512815801718389  0.5058008318434446
  0.0419044608486985  0.0842328649409225  0.4001132036178134
  0.0409082227363911  0.2082324196460519  0.4000972484862899
  0.0402742208052373  0.3329087373599222  0.3999058939286755
  0.0405388742347483  0.4581841822076100  0.3998178891140967
  0.0413667512903402  0.5837073982495156  0.3997218034657166
  0.0421355675886375  0.7091862395481172  0.3995275987087865
  0.0424371582939074  0.8345464782885443  0.3995937207883173
  0.0423723748422873  0.9596622691601340  0.3999261345652769
  0.1677933244405310  0.0857648273881111  0.4003583808670825
  0.1675751095680766  0.2107154107712432  0.4006069514836099
  0.1651651576120301  0.3337495156531887  0.4002698530448612
  0.1644414828600844  0.4583732890299430  0.3997749766271070
  0.1651780687221631  0.5835579503767860  0.3998279746738902
  0.1663907750874003  0.7089668753057623  0.3997929532958366
  0.1670987066099414  0.8345158762880160  0.3996332502263229
  0.1675029285521319  0.9601796579494462  0.3998759038158894
  0.2926288370254611  0.0859942050181886  0.4003596338394075
  0.2933791167551760  0.2130310346998527  0.4012858754748265
  0.2930781748054159  0.3394228590022834  0.4019134395630388
  0.2882392086472265  0.4580568566650030  0.4005188539969211
  0.2886137126178809  0.5829452687556724  0.3997770582750562
  0.2906028168762163  0.7083151926867401  0.3999260067924126
  0.2915982651376936  0.8338930870312069  0.3999260455117053
  0.2921266300802543  0.9597274801027424  0.3999637773391029
  0.4170114336523767  0.0843836471533805  0.4001645895960380
  0.4177129647577260  0.2109282426483219  0.4004725042482065
  0.4195612064952741  0.3391114744914745  0.4016187969302862
  0.4145118580255769  0.7053169010438864  0.4003483379992971
  0.4159716413621979  0.8319875812608331  0.4001209927327949
  0.4165738980863054  0.9582142667160767  0.4000628813579254
  0.5414092107922812  0.0826004804148255  0.4000098456046643
  0.5420100854686538  0.2084714867864577  0.4000473183642583
  0.5431142033647873  0.3341813575956678  0.4001989218682169
  0.5464366190678049  0.4596437363878962  0.4010357890293932
  0.5377293544238313  0.7006727485771833  0.4020742300422029
  0.5401261317271349  0.8296504759259378  0.4006103245763271
  0.5409352765536397  0.9564426024538051  0.4001323309049951
  0.6658959871042072  0.0817838267006010  0.3998497668393384
  0.6664270385302018  0.2074300825875000  0.3997501036806739
  0.6673405249938682  0.3329740571060213  0.3998496081665408
  0.6693114418525283  0.4585525546421465  0.4001694161490406
  0.6703327354722148  0.5839358550232348  0.4010011467668022
  0.6656413369461305  0.7052970771587042  0.4010939529134347
  0.6643350151940339  0.8296981979344977  0.4007724068273149
  0.6653235915376570  0.9559152572463390  0.4002053340773273
  0.7905721499021467  0.0817588280424459  0.3998373374596795
  0.7909607727821637  0.2071997418734384  0.3996081394890894
  0.7915975189932141  0.3326863094255543  0.3996038923983747
  0.7927986394965743  0.4582682025129969  0.3997410941029500
  0.7936949820008152  0.5837551963603147  0.3999986175613799
  0.7931319798759020  0.7087739389421515  0.4003332599548557
  0.7908561412655786  0.8320259581950040  0.4003308318118926
  0.7902310065519558  0.9564327627721454  0.4001451154435145
  0.9157942057021344  0.0825080358842385  0.3999801855355898
  0.9156529764461183  0.2073902652450670  0.3998140156011942
  0.9158780203100321  0.3326853486963728  0.3996951051409638
  0.9166205510182479  0.4581847875194995  0.3996437490734479
  0.9174983712068894  0.5837564608728840  0.3996187305923726
  0.9177329770101181  0.7091069823279597  0.3997327167425695
  0.9173466262369203  0.8340451578260684  0.3999170376082617
  0.9163700694254331  0.9581634024438728  0.4000300304917630
  0.0842374286171221  0.0433430255508753  0.4001179595743594
  0.0837555376335999  0.1679184590663851  0.4002378115193963
  0.0821268456875188  0.2915948111763811  0.4000730926843943
  0.0816535810604719  0.4163376227237734  0.3998488886392693
  0.0823173062150175  0.5417444895235448  0.3998233979417165
  0.0833051839276777  0.6672814369224298  0.3996785343148659
  0.0839093664938559  0.7927908078696078  0.3995196374038983
  0.0841635339046150  0.9181879726819346  0.3997603688699414
  0.2092933630602474  0.0439305321515633  0.4002307618293131
  0.2097072144963263  0.1697133272336231  0.4007948945221571
  0.2090891322853921  0.2946501318330519  0.4007915705195373
  0.2059100598590078  0.4168748994960296  0.3999703077875907
  0.2058369812196901  0.5414591013337571  0.3997313299725960
  0.2074339260280809  0.6669910695791614  0.3998692233651227
  0.2084093028665848  0.7925466724451269  0.3997791056170144
  0.2089123762677332  0.9181823285749715  0.3997829445802381
  0.3338298276077580  0.0434961750247496  0.4001549295965035
  0.3344169080620532  0.1700022409279498  0.4007439861475177
  0.3355297514686342  0.2976086917571408  0.4020889570872583
  0.3298074534524531  0.5418610119632490  0.4003227223163890
  0.3314373475732282  0.6660727365962700  0.3999535751019820
  0.3328096112786199  0.7916467121956146  0.4000009080912221
  0.3334046704600553  0.9174310733150435  0.3999802782282273
  0.4582493892295503  0.0418498023599412  0.4000833976915246
  0.4587732813346079  0.1680596612929577  0.4002248571528639
  0.4598029313450311  0.2948163809403965  0.4005064335354618
  0.4643913673400633  0.4223485486885323  0.4024384654910662
  0.4532410488487244  0.6599332502481872  0.4014508480020851
  0.4569839247262735  0.7891131810739580  0.4003267263740540
  0.4577721287122856  0.9156719152934656  0.4001153921544756
  0.5826744395153582  0.0402544934454028  0.4000018198508144
  0.5832387517198896  0.1661934245458525  0.3999276469074076
  0.5840825390974587  0.2918423585729357  0.4000054691901767
  0.5865098873812258  0.4173853584624609  0.4003002314599229
  0.5884977771147746  0.5427909560145068  0.4017365856067059
  0.5812911275671766  0.6596648015905160  0.4022660119497345
  0.5803859442513826  0.7859165326274464  0.4011957773736654
  0.5820574226596023  0.9138158927295450  0.4002937715335833
  0.7072307073055626  0.0397425416327906  0.3999289797617891
  0.7077574172488212  0.1654749741458446  0.3996864521133574
  0.7084231094847766  0.2910089566726697  0.3997123114444321
  0.7099160829116258  0.4164682409202314  0.3998776315379544
  0.7111101400432602  0.5417838146178369  0.4003563984169105
  0.7101752068644700  0.6667364640032858  0.4008589574436670
  0.7069372666367784  0.7891362932250203  0.4007039502221730
  0.7065391847943019  0.9138419339161175  0.4003374856660145
  0.8322490166265979  0.0402172017925295  0.3999724288783426
  0.8324124601439777  0.1654491893880632  0.3997013875385562
  0.8327940471463364  0.2908026751675266  0.3995909698902196
  0.8336938426576879  0.4162814234574483  0.3996429767283232
  0.8346701367231901  0.5418445849098745  0.3997378232800912
  0.8348034717796438  0.6672291002065407  0.4000271414537906
  0.8340091041842896  0.7919405270495474  0.4001717661366655
  0.8326550851506624  0.9156645847451657  0.4001486727182382
  0.9582255248080571  0.0417664821457464  0.4000287031827341
  0.9575205207006263  0.1660438203573946  0.3999551425207031
  0.9572931150272481  0.2909861481551275  0.3998004280472642
  0.9576264842405848  0.4162570095081009  0.3997224297486426
  0.9584678751459208  0.5418050184043750  0.3996325163639156
  0.9591207991018678  0.6673411381210173  0.3995583514530168
  0.9592209305223420  0.7926685506092710  0.3997162009521276
  0.9589009243528039  0.9174986809169425  0.3999447807904843
  0.4094740579945508  0.5792700034641030  0.4016782293219592
  0.5447401857850735  0.5787999210690060  0.4030913483662957
  0.3312780043578130  0.4208444689912412  0.4021046200252982
  0.4955234213512014  0.4956108385019604  0.4975967823723977
  0.4307321480439654  0.4936122216454066  0.4738971075474154
 
  0.00000000E+00  0.00000000E+00  0.00000000E+00
  0.00000000E+00  0.00000000E+00  0.00000000E+00
  0.00000000E+00  0.00000000E+00  0.00000000E+00
  0.00000000E+00  0.00000000E+00  0.00000000E+00
  0.00000000E+00  0.00000000E+00  0.00000000E+00
  0.00000000E+00  0.00000000E+00  0.00000000E+00
  0.00000000E+00  0.00000000E+00  0.00000000E+00
  0.00000000E+00  0.00000000E+00  0.00000000E+00
  0.00000000E+00  0.00000000E+00  0.00000000E+00
  0.00000000E+00  0.00000000E+00  0.00000000E+00
  0.00000000E+00  0.00000000E+00  0.00000000E+00
  0.00000000E+00  0.00000000E+00  0.00000000E+00
  0.00000000E+00  0.00000000E+00  0.00000000E+00
  0.00000000E+00  0.00000000E+00  0.00000000E+00
  0.00000000E+00  0.00000000E+00  0.00000000E+00
  0.00000000E+00  0.00000000E+00  0.00000000E+00
  0.00000000E+00  0.00000000E+00  0.00000000E+00
  0.00000000E+00  0.00000000E+00  0.00000000E+00
  0.00000000E+00  0.00000000E+00  0.00000000E+00
  0.00000000E+00  0.00000000E+00  0.00000000E+00
  0.00000000E+00  0.00000000E+00  0.00000000E+00
  0.00000000E+00  0.00000000E+00  0.00000000E+00
  0.00000000E+00  0.00000000E+00  0.00000000E+00
  0.00000000E+00  0.00000000E+00  0.00000000E+00
  0.00000000E+00  0.00000000E+00  0.00000000E+00
  0.00000000E+00  0.00000000E+00  0.00000000E+00
  0.00000000E+00  0.00000000E+00  0.00000000E+00
  0.00000000E+00  0.00000000E+00  0.00000000E+00
  0.00000000E+00  0.00000000E+00  0.00000000E+00
  0.00000000E+00  0.00000000E+00  0.00000000E+00
  0.00000000E+00  0.00000000E+00  0.00000000E+00
  0.00000000E+00  0.00000000E+00  0.00000000E+00
  0.00000000E+00  0.00000000E+00  0.00000000E+00
  0.00000000E+00  0.00000000E+00  0.00000000E+00
  0.00000000E+00  0.00000000E+00  0.00000000E+00
  0.00000000E+00  0.00000000E+00  0.00000000E+00
  0.00000000E+00  0.00000000E+00  0.00000000E+00
  0.00000000E+00  0.00000000E+00  0.00000000E+00
  0.00000000E+00  0.00000000E+00  0.00000000E+00
  0.00000000E+00  0.00000000E+00  0.00000000E+00
  0.00000000E+00  0.00000000E+00  0.00000000E+00
  0.00000000E+00  0.00000000E+00  0.00000000E+00
  0.00000000E+00  0.00000000E+00  0.00000000E+00
  0.00000000E+00  0.00000000E+00  0.00000000E+00
  0.00000000E+00  0.00000000E+00  0.00000000E+00
  0.00000000E+00  0.00000000E+00  0.00000000E+00
  0.00000000E+00  0.00000000E+00  0.00000000E+00
  0.00000000E+00  0.00000000E+00  0.00000000E+00
  0.00000000E+00  0.00000000E+00  0.00000000E+00
  0.00000000E+00  0.00000000E+00  0.00000000E+00
  0.00000000E+00  0.00000000E+00  0.00000000E+00
  0.00000000E+00  0.00000000E+00  0.00000000E+00
  0.00000000E+00  0.00000000E+00  0.00000000E+00
  0.00000000E+00  0.00000000E+00  0.00000000E+00
  0.00000000E+00  0.00000000E+00  0.00000000E+00
  0.00000000E+00  0.00000000E+00  0.00000000E+00
  0.00000000E+00  0.00000000E+00  0.00000000E+00
  0.00000000E+00  0.00000000E+00  0.00000000E+00
  0.00000000E+00  0.00000000E+00  0.00000000E+00
  0.00000000E+00  0.00000000E+00  0.00000000E+00
  0.00000000E+00  0.00000000E+00  0.00000000E+00
  0.00000000E+00  0.00000000E+00  0.00000000E+00
  0.00000000E+00  0.00000000E+00  0.00000000E+00
  0.00000000E+00  0.00000000E+00  0.00000000E+00
  0.00000000E+00  0.00000000E+00  0.00000000E+00
  0.00000000E+00  0.00000000E+00  0.00000000E+00
  0.00000000E+00  0.00000000E+00  0.00000000E+00
  0.00000000E+00  0.00000000E+00  0.00000000E+00
  0.00000000E+00  0.00000000E+00  0.00000000E+00
  0.00000000E+00  0.00000000E+00  0.00000000E+00
  0.00000000E+00  0.00000000E+00  0.00000000E+00
  0.00000000E+00  0.00000000E+00  0.00000000E+00
  0.00000000E+00  0.00000000E+00  0.00000000E+00
  0.00000000E+00  0.00000000E+00  0.00000000E+00
  0.00000000E+00  0.00000000E+00  0.00000000E+00
  0.00000000E+00  0.00000000E+00  0.00000000E+00
  0.00000000E+00  0.00000000E+00  0.00000000E+00
  0.00000000E+00  0.00000000E+00  0.00000000E+00
  0.00000000E+00  0.00000000E+00  0.00000000E+00
  0.00000000E+00  0.00000000E+00  0.00000000E+00
  0.00000000E+00  0.00000000E+00  0.00000000E+00
  0.00000000E+00  0.00000000E+00  0.00000000E+00
  0.00000000E+00  0.00000000E+00  0.00000000E+00
  0.00000000E+00  0.00000000E+00  0.00000000E+00
  0.00000000E+00  0.00000000E+00  0.00000000E+00
  0.00000000E+00  0.00000000E+00  0.00000000E+00
  0.00000000E+00  0.00000000E+00  0.00000000E+00
  0.00000000E+00  0.00000000E+00  0.00000000E+00
  0.00000000E+00  0.00000000E+00  0.00000000E+00
  0.00000000E+00  0.00000000E+00  0.00000000E+00
  0.00000000E+00  0.00000000E+00  0.00000000E+00
  0.00000000E+00  0.00000000E+00  0.00000000E+00
  0.00000000E+00  0.00000000E+00  0.00000000E+00
  0.00000000E+00  0.00000000E+00  0.00000000E+00
  0.00000000E+00  0.00000000E+00  0.00000000E+00
  0.00000000E+00  0.00000000E+00  0.00000000E+00
  0.00000000E+00  0.00000000E+00  0.00000000E+00
  0.00000000E+00  0.00000000E+00  0.00000000E+00
  0.00000000E+00  0.00000000E+00  0.00000000E+00
  0.00000000E+00  0.00000000E+00  0.00000000E+00
  0.00000000E+00  0.00000000E+00  0.00000000E+00
  0.00000000E+00  0.00000000E+00  0.00000000E+00
  0.00000000E+00  0.00000000E+00  0.00000000E+00
  0.00000000E+00  0.00000000E+00  0.00000000E+00
  0.00000000E+00  0.00000000E+00  0.00000000E+00
  0.00000000E+00  0.00000000E+00  0.00000000E+00
  0.00000000E+00  0.00000000E+00  0.00000000E+00
  0.00000000E+00  0.00000000E+00  0.00000000E+00
  0.00000000E+00  0.00000000E+00  0.00000000E+00
  0.00000000E+00  0.00000000E+00  0.00000000E+00
  0.00000000E+00  0.00000000E+00  0.00000000E+00
  0.00000000E+00  0.00000000E+00  0.00000000E+00
  0.00000000E+00  0.00000000E+00  0.00000000E+00
  0.00000000E+00  0.00000000E+00  0.00000000E+00
  0.00000000E+00  0.00000000E+00  0.00000000E+00
  0.00000000E+00  0.00000000E+00  0.00000000E+00
  0.00000000E+00  0.00000000E+00  0.00000000E+00
  0.00000000E+00  0.00000000E+00  0.00000000E+00
  0.00000000E+00  0.00000000E+00  0.00000000E+00
  0.00000000E+00  0.00000000E+00  0.00000000E+00
  0.00000000E+00  0.00000000E+00  0.00000000E+00
  0.00000000E+00  0.00000000E+00  0.00000000E+00
  0.00000000E+00  0.00000000E+00  0.00000000E+00
  0.00000000E+00  0.00000000E+00  0.00000000E+00
  0.00000000E+00  0.00000000E+00  0.00000000E+00
  0.00000000E+00  0.00000000E+00  0.00000000E+00
  0.00000000E+00  0.00000000E+00  0.00000000E+00
  0.00000000E+00  0.00000000E+00  0.00000000E+00
  0.00000000E+00  0.00000000E+00  0.00000000E+00
  0.00000000E+00  0.00000000E+00  0.00000000E+00
