H1 Pt1 C126 O2                          
   1.00000000000000     
    19.8099271936184884   -0.0196935733628385    0.5193212605140565
    -9.9229891384800819   17.0630767889669706   -0.0969539214578617
     0.7760165949059425    0.2833116748919410   29.8091165759120180
   H    Pt   C    O 
     1     1   126     2
Direct
  0.5481748719775854  0.5574880763903514  0.5301341975794935
  0.4323620431806178  0.4985711425909483  0.4296299053312660
  0.0417557419431663  0.0839991421403930  0.3995622060315370
  0.0409751349520876  0.2081696311474067  0.3992751419539521
  0.0403601790686937  0.3328378728008229  0.3990801010711927
  0.0401161372572596  0.4582350653141911  0.3991243970239276
  0.0407087414062042  0.5836754952674296  0.3992103413310503
  0.0414361142258185  0.7089830400964907  0.3992783000684873
  0.0417790801828764  0.8342602542657310  0.3994229952872199
  0.0419105989818565  0.9593241153795145  0.3995427466144610
  0.1673509598654481  0.0851659264781510  0.3997066784016312
  0.1674102328001150  0.2101983108060372  0.3995583907910031
  0.1655965181033787  0.3336331240281327  0.3984853859520319
  0.1638714600074212  0.4585357896542491  0.3983575877724125
  0.1644696617294220  0.5837870826488477  0.3986138515151472
  0.1658211590968421  0.7090909667162636  0.3992483935898140
  0.1664734271403812  0.8343473329663335  0.3995938397123789
  0.1669483231648427  0.9597186765967717  0.3997200728839741
  0.2921376109864326  0.0849395340780550  0.4000328060591547
  0.2930314294545711  0.2114131378575637  0.4013364706603694
  0.2936915491925954  0.3378200704457512  0.4012046760497287
  0.2871224112564445  0.4588915219230199  0.3990911115125592
  0.2878365240310282  0.5842278452792020  0.3987436326053538
  0.2901481138141415  0.7090481725941751  0.3990100354179451
  0.2910274990987654  0.8340089034382966  0.3993766618614572
  0.2915954983284137  0.9593256137649683  0.3996316272795389
  0.4167125936651898  0.0836007774190087  0.3994899624954213
  0.4173155872619540  0.2091812636731105  0.4007729843558641
  0.4184969313683314  0.3353198896681295  0.4074590292913050
  0.4076464933519059  0.5811141202873422  0.4087870545696172
  0.4142857331052240  0.7070436373805458  0.4009207072959777
  0.4156022950230054  0.8328217158668787  0.3994536523332867
  0.4162175084348596  0.9582267705478740  0.3994214025820448
  0.5413364874364996  0.0824206149498473  0.3992397656911918
  0.5419231065358401  0.2075921403679695  0.3993433855298705
  0.5427805404446909  0.3324620500775018  0.4018468625204882
  0.5450634794891228  0.4563236022099380  0.4085984973946123
  0.5442003223811791  0.5794930294058895  0.4109092999498408
  0.5382312458210694  0.7043416595475254  0.4053807745504977
  0.5399032328796032  0.8310609395933082  0.4008424322218200
  0.5407903060740873  0.9569334435752215  0.3995668042015927
  0.6659105322457071  0.0818621498888442  0.3994816931688462
  0.6664743434177708  0.2072022938179424  0.3990674805872966
  0.6672837480631441  0.3324070562135344  0.3988980782558930
  0.6688046217759651  0.4576893788299547  0.4000148573195096
  0.6689460795360880  0.5828315401981294  0.4021752179215110
  0.6649386559131921  0.7055647979876868  0.4026789433189485
  0.6647625028312267  0.8307447529592163  0.4013150946586175
  0.6653918962277581  0.9563991314063726  0.4000301865574583
  0.7906860678676020  0.0818973671219135  0.3996728950050926
  0.7909946583746206  0.2071160074669007  0.3994769308121663
  0.7915556756905984  0.3325001266284099  0.3989595456675401
  0.7925291468185977  0.4579808393817277  0.3984787872800097
  0.7929374347795930  0.5833019775501291  0.3988485019924484
  0.7920402533464288  0.7082041471112555  0.3996424301135037
  0.7906341341881324  0.8320915117900479  0.3999623227857234
  0.7904338237855378  0.9567813708813018  0.3998507722221623
  0.9158783615697710  0.0825690800547815  0.3996269324984610
  0.9157627410415247  0.2074116183390644  0.3995980703726168
  0.9158314947422409  0.3326277523364904  0.3994676855980181
  0.9162520987706103  0.4580257692765556  0.3990809011269860
  0.9168901144848177  0.5835366604490210  0.3987970383069963
  0.9169694277499829  0.7088152559347213  0.3989181849707091
  0.9166988792637687  0.8336237474936520  0.3992956665640226
  0.9162058230817718  0.9580944632070036  0.3995711631826409
  0.0837975982099954  0.0429165320757203  0.3995735211574302
  0.0835983372518115  0.1675815690420328  0.3994188257464935
  0.0821799880241800  0.2914395049734711  0.3988192498385538
  0.0812634080456416  0.4164731735637696  0.3988510358457258
  0.0815980667485390  0.5417725264427935  0.3990266967025389
  0.0826339854234653  0.6672313373110351  0.3992838943634832
  0.0832448630190589  0.7926167792035297  0.3994697622337627
  0.0835507101313920  0.9178031454992058  0.3995928801957435
  0.2087879201743978  0.0432527327471840  0.3998347088659516
  0.2092686911349202  0.1688637192211403  0.3999632972100320
  0.2092991979584378  0.2940619602396408  0.3993374852324377
  0.2050836548280940  0.4167634793178395  0.3982000527510466
  0.2051181881362633  0.5420039804237168  0.3981822535041096
  0.2069435445470629  0.6673839415490858  0.3988746290636430
  0.2078054048955986  0.7925677658620718  0.3994317819006083
  0.2083368178472053  0.9178558025443309  0.3996917720469614
  0.3334483146551114  0.0427876378241509  0.3996969259278386
  0.3340617903933593  0.1685164715715212  0.4008454940349308
  0.3349758236748140  0.2950034398391290  0.4038822880812207
  0.3312688999308211  0.4212384582562509  0.4015715704343074
  0.3278483338994317  0.5427948391649723  0.4008924414096379
  0.3311940710371895  0.6672487630607319  0.3994917725855752
  0.3323724708461774  0.7922110431189621  0.3992477636683249
  0.3329907789203261  0.9173595199761048  0.3994857567224483
  0.4580797805346442  0.0415328508838397  0.3993568961041291
  0.4586419835151875  0.1669203462245080  0.3996432054285511
  0.4594443404355259  0.2924341908781281  0.4029895347736013
  0.4634962013159458  0.4164051544888130  0.4154314357661332
  0.4542046374932757  0.6635145588046467  0.4049150812084278
  0.4567280618494091  0.7904646816502863  0.4002021743816189
  0.4575797210339939  0.9161386085589042  0.3994482946169376
  0.5826732631160476  0.0403940480349203  0.3993933746876252
  0.5832688829060765  0.1657887601675307  0.3990965472391551
  0.5840412067026783  0.2907709882707377  0.3996920867581369
  0.5858838782726636  0.4154267025804294  0.4027839560109105
  0.5865619481868849  0.5403570813862174  0.4072344835405989
  0.5801412444699658  0.6619820947043141  0.4062130486863362
  0.5807544446880382  0.7881202304255620  0.4023824247003098
  0.5820030773209308  0.9147080718732749  0.4000506541704911
  0.7072977563704775  0.0399631624827176  0.3996940327734922
  0.7077788244114999  0.1653951414546754  0.3993311643040472
  0.7084364419835688  0.2906755449793094  0.3988256760588388
  0.7096509765256899  0.4159786394758406  0.3987139939560791
  0.7102396569366517  0.5411859823944373  0.4000279534668565
  0.7085930065940039  0.6659318054308067  0.4013032119026811
  0.7067142369352549  0.7894495539368558  0.4011842878041871
  0.7068229536464683  0.9145046061975112  0.4002743046985619
  0.8323422298788135  0.0403817712342575  0.3997013682470309
  0.8324672373701455  0.1654481874456387  0.3996348811159773
  0.8327906975202655  0.2907555854106210  0.3993505041834736
  0.8334400743473555  0.4160860178663280  0.3987942223020145
  0.8340824724401720  0.5415287427916707  0.3985370013957707
  0.8339237088314124  0.6668935299367732  0.3989822831145637
  0.8332743709733426  0.7914974885829014  0.3995217827820182
  0.8325025713678021  0.9157069813610715  0.3997388234009256
  0.9580465145379288  0.0416060174477375  0.3995960557191821
  0.9575511747613019  0.1660639557336329  0.3995478560925978
  0.9572904886095388  0.2909334602212958  0.3995003446504375
  0.9572582810086893  0.4161889862953299  0.3993108934296428
  0.9578669893638200  0.5416995226273001  0.3990565586236594
  0.9583780562940650  0.6671168268788950  0.3989700317026497
  0.9585107506293907  0.7923142714162382  0.3991790588775340
  0.9583835223850579  0.9171149595014437  0.3994740512323790
  0.5209266898993528  0.5095808066546358  0.5127782728506207
  0.4621063847179321  0.5222836649177648  0.4942347780913389
 
  0.00000000E+00  0.00000000E+00  0.00000000E+00
  0.00000000E+00  0.00000000E+00  0.00000000E+00
  0.00000000E+00  0.00000000E+00  0.00000000E+00
  0.00000000E+00  0.00000000E+00  0.00000000E+00
  0.00000000E+00  0.00000000E+00  0.00000000E+00
  0.00000000E+00  0.00000000E+00  0.00000000E+00
  0.00000000E+00  0.00000000E+00  0.00000000E+00
  0.00000000E+00  0.00000000E+00  0.00000000E+00
  0.00000000E+00  0.00000000E+00  0.00000000E+00
  0.00000000E+00  0.00000000E+00  0.00000000E+00
  0.00000000E+00  0.00000000E+00  0.00000000E+00
  0.00000000E+00  0.00000000E+00  0.00000000E+00
  0.00000000E+00  0.00000000E+00  0.00000000E+00
  0.00000000E+00  0.00000000E+00  0.00000000E+00
  0.00000000E+00  0.00000000E+00  0.00000000E+00
  0.00000000E+00  0.00000000E+00  0.00000000E+00
  0.00000000E+00  0.00000000E+00  0.00000000E+00
  0.00000000E+00  0.00000000E+00  0.00000000E+00
  0.00000000E+00  0.00000000E+00  0.00000000E+00
  0.00000000E+00  0.00000000E+00  0.00000000E+00
  0.00000000E+00  0.00000000E+00  0.00000000E+00
  0.00000000E+00  0.00000000E+00  0.00000000E+00
  0.00000000E+00  0.00000000E+00  0.00000000E+00
  0.00000000E+00  0.00000000E+00  0.00000000E+00
  0.00000000E+00  0.00000000E+00  0.00000000E+00
  0.00000000E+00  0.00000000E+00  0.00000000E+00
  0.00000000E+00  0.00000000E+00  0.00000000E+00
  0.00000000E+00  0.00000000E+00  0.00000000E+00
  0.00000000E+00  0.00000000E+00  0.00000000E+00
  0.00000000E+00  0.00000000E+00  0.00000000E+00
  0.00000000E+00  0.00000000E+00  0.00000000E+00
  0.00000000E+00  0.00000000E+00  0.00000000E+00
  0.00000000E+00  0.00000000E+00  0.00000000E+00
  0.00000000E+00  0.00000000E+00  0.00000000E+00
  0.00000000E+00  0.00000000E+00  0.00000000E+00
  0.00000000E+00  0.00000000E+00  0.00000000E+00
  0.00000000E+00  0.00000000E+00  0.00000000E+00
  0.00000000E+00  0.00000000E+00  0.00000000E+00
  0.00000000E+00  0.00000000E+00  0.00000000E+00
  0.00000000E+00  0.00000000E+00  0.00000000E+00
  0.00000000E+00  0.00000000E+00  0.00000000E+00
  0.00000000E+00  0.00000000E+00  0.00000000E+00
  0.00000000E+00  0.00000000E+00  0.00000000E+00
  0.00000000E+00  0.00000000E+00  0.00000000E+00
  0.00000000E+00  0.00000000E+00  0.00000000E+00
  0.00000000E+00  0.00000000E+00  0.00000000E+00
  0.00000000E+00  0.00000000E+00  0.00000000E+00
  0.00000000E+00  0.00000000E+00  0.00000000E+00
  0.00000000E+00  0.00000000E+00  0.00000000E+00
  0.00000000E+00  0.00000000E+00  0.00000000E+00
  0.00000000E+00  0.00000000E+00  0.00000000E+00
  0.00000000E+00  0.00000000E+00  0.00000000E+00
  0.00000000E+00  0.00000000E+00  0.00000000E+00
  0.00000000E+00  0.00000000E+00  0.00000000E+00
  0.00000000E+00  0.00000000E+00  0.00000000E+00
  0.00000000E+00  0.00000000E+00  0.00000000E+00
  0.00000000E+00  0.00000000E+00  0.00000000E+00
  0.00000000E+00  0.00000000E+00  0.00000000E+00
  0.00000000E+00  0.00000000E+00  0.00000000E+00
  0.00000000E+00  0.00000000E+00  0.00000000E+00
  0.00000000E+00  0.00000000E+00  0.00000000E+00
  0.00000000E+00  0.00000000E+00  0.00000000E+00
  0.00000000E+00  0.00000000E+00  0.00000000E+00
  0.00000000E+00  0.00000000E+00  0.00000000E+00
  0.00000000E+00  0.00000000E+00  0.00000000E+00
  0.00000000E+00  0.00000000E+00  0.00000000E+00
  0.00000000E+00  0.00000000E+00  0.00000000E+00
  0.00000000E+00  0.00000000E+00  0.00000000E+00
  0.00000000E+00  0.00000000E+00  0.00000000E+00
  0.00000000E+00  0.00000000E+00  0.00000000E+00
  0.00000000E+00  0.00000000E+00  0.00000000E+00
  0.00000000E+00  0.00000000E+00  0.00000000E+00
  0.00000000E+00  0.00000000E+00  0.00000000E+00
  0.00000000E+00  0.00000000E+00  0.00000000E+00
  0.00000000E+00  0.00000000E+00  0.00000000E+00
  0.00000000E+00  0.00000000E+00  0.00000000E+00
  0.00000000E+00  0.00000000E+00  0.00000000E+00
  0.00000000E+00  0.00000000E+00  0.00000000E+00
  0.00000000E+00  0.00000000E+00  0.00000000E+00
  0.00000000E+00  0.00000000E+00  0.00000000E+00
  0.00000000E+00  0.00000000E+00  0.00000000E+00
  0.00000000E+00  0.00000000E+00  0.00000000E+00
  0.00000000E+00  0.00000000E+00  0.00000000E+00
  0.00000000E+00  0.00000000E+00  0.00000000E+00
  0.00000000E+00  0.00000000E+00  0.00000000E+00
  0.00000000E+00  0.00000000E+00  0.00000000E+00
  0.00000000E+00  0.00000000E+00  0.00000000E+00
  0.00000000E+00  0.00000000E+00  0.00000000E+00
  0.00000000E+00  0.00000000E+00  0.00000000E+00
  0.00000000E+00  0.00000000E+00  0.00000000E+00
  0.00000000E+00  0.00000000E+00  0.00000000E+00
  0.00000000E+00  0.00000000E+00  0.00000000E+00
  0.00000000E+00  0.00000000E+00  0.00000000E+00
  0.00000000E+00  0.00000000E+00  0.00000000E+00
  0.00000000E+00  0.00000000E+00  0.00000000E+00
  0.00000000E+00  0.00000000E+00  0.00000000E+00
  0.00000000E+00  0.00000000E+00  0.00000000E+00
  0.00000000E+00  0.00000000E+00  0.00000000E+00
  0.00000000E+00  0.00000000E+00  0.00000000E+00
  0.00000000E+00  0.00000000E+00  0.00000000E+00
  0.00000000E+00  0.00000000E+00  0.00000000E+00
  0.00000000E+00  0.00000000E+00  0.00000000E+00
  0.00000000E+00  0.00000000E+00  0.00000000E+00
  0.00000000E+00  0.00000000E+00  0.00000000E+00
  0.00000000E+00  0.00000000E+00  0.00000000E+00
  0.00000000E+00  0.00000000E+00  0.00000000E+00
  0.00000000E+00  0.00000000E+00  0.00000000E+00
  0.00000000E+00  0.00000000E+00  0.00000000E+00
  0.00000000E+00  0.00000000E+00  0.00000000E+00
  0.00000000E+00  0.00000000E+00  0.00000000E+00
  0.00000000E+00  0.00000000E+00  0.00000000E+00
  0.00000000E+00  0.00000000E+00  0.00000000E+00
  0.00000000E+00  0.00000000E+00  0.00000000E+00
  0.00000000E+00  0.00000000E+00  0.00000000E+00
  0.00000000E+00  0.00000000E+00  0.00000000E+00
  0.00000000E+00  0.00000000E+00  0.00000000E+00
  0.00000000E+00  0.00000000E+00  0.00000000E+00
  0.00000000E+00  0.00000000E+00  0.00000000E+00
  0.00000000E+00  0.00000000E+00  0.00000000E+00
  0.00000000E+00  0.00000000E+00  0.00000000E+00
  0.00000000E+00  0.00000000E+00  0.00000000E+00
  0.00000000E+00  0.00000000E+00  0.00000000E+00
  0.00000000E+00  0.00000000E+00  0.00000000E+00
  0.00000000E+00  0.00000000E+00  0.00000000E+00
  0.00000000E+00  0.00000000E+00  0.00000000E+00
  0.00000000E+00  0.00000000E+00  0.00000000E+00
  0.00000000E+00  0.00000000E+00  0.00000000E+00
  0.00000000E+00  0.00000000E+00  0.00000000E+00
  0.00000000E+00  0.00000000E+00  0.00000000E+00
  0.00000000E+00  0.00000000E+00  0.00000000E+00
