Zr1 C124 N2                             
   1.00000000000000     
    19.8056904945108627   -0.0224735057006041    0.0019332803227959
    -9.9223486428207881   17.0727648215893417   -0.0013961314033737
     0.0029037966129789   -0.0007462366424939   29.7779454230491325
   Zr   C    N 
     1   124     2
Direct
  0.4374590108154199  0.4999693907331399  0.4348492958046614
  0.0420740747123648  0.0839910931953558  0.3999344025942726
  0.0417058209750581  0.2086140755695714  0.3997417121728091
  0.0410569551863956  0.3332570718193111  0.3998102196980077
  0.0408170883891168  0.4583836881568880  0.3998266871170202
  0.0412648078514702  0.5837139844897485  0.3999660425274991
  0.0417408032482244  0.7089718689549789  0.4000679864450959
  0.0419344675166979  0.8340637977223671  0.4000458939806196
  0.0420984302207051  0.9591834210711484  0.4000271025076305
  0.1677580809716971  0.0850241520082292  0.3998578181335773
  0.1675947511163716  0.2099187093149756  0.3995051121502185
  0.1665019766719092  0.3342848225567109  0.3995558283721548
  0.1649130494181187  0.4588014538295603  0.3998630894462796
  0.1653552124374118  0.5839115565924052  0.3996135709670057
  0.1661899043643626  0.7089944219500303  0.3998723969945402
  0.1666834523276640  0.8341484668135350  0.4000639947930567
  0.1670914830527105  0.9594135928321488  0.4000019828998118
  0.2922588777238336  0.0845763511911717  0.3998453524876556
  0.2937269243593024  0.2111720992759122  0.4000347495764265
  0.2935104807295625  0.3370919904671996  0.4003026523330729
  0.2896697393863921  0.4599568361083028  0.4012062314673044
  0.2891666955597783  0.5844486124728658  0.4005273876008770
  0.2906722982890753  0.7091047882730702  0.3996924489563046
  0.2914279864084415  0.8340289396735676  0.3998732008542428
  0.2918269467313285  0.9591257746556676  0.4000040092274391
  0.4169594895814949  0.0835553740712173  0.3998551269460836
  0.4174557952954152  0.2089225292830754  0.3994880591217179
  0.4200839821185741  0.3358445414864415  0.4016570451214249
  0.4150254738520821  0.7076874964822667  0.3999012722127758
  0.4161092487082984  0.8330869846545470  0.3995798368476505
  0.4165796905847591  0.9583338510423102  0.4000397025588799
  0.5416825651362717  0.0826552734510746  0.4000369511930931
  0.5421333844960750  0.2076833004575067  0.3996707795651507
  0.5432414233165426  0.3324420619082504  0.4000409050215674
  0.5445131985458317  0.4559817514925833  0.4022418467506215
  0.5427141809117184  0.5802134072707139  0.4022234309077086
  0.5387721325221336  0.7046385129412508  0.4009635176363003
  0.5407249061578433  0.8318074309635363  0.3997963511961583
  0.5413222384220242  0.9574220379792315  0.3999281447726165
  0.6664547680776661  0.0823737592817330  0.4000529011577031
  0.6668552791929163  0.2075232728212251  0.3999802904998210
  0.6676442531038523  0.3327178213806680  0.3997243860925203
  0.6688510872862115  0.4579619112200540  0.3998338261446690
  0.6683591221823327  0.5822676743825219  0.4001381833787572
  0.6657444910231042  0.7064920296997880  0.3993441284142111
  0.6650696021592001  0.8312395738226661  0.3997466582336110
  0.6660014332348019  0.9570566967465480  0.3999257852819527
  0.7912807739609941  0.0824383728564078  0.4000139819921486
  0.7915528655998272  0.2076057471408759  0.4000890133186028
  0.7920151665723594  0.3328224954229796  0.3999867728085879
  0.7926475461826984  0.4580945360150332  0.3997425111748655
  0.7929876701704367  0.5833587578196967  0.3997323770740955
  0.7918996907300295  0.7079832215876557  0.3996686491126973
  0.7910292139844546  0.8324125235932210  0.3997216878203981
  0.7908739640611131  0.9571592603662289  0.3999070402290704
  0.9164070946471036  0.0829268342122987  0.4000093448582763
  0.9163573703362672  0.2078051961380171  0.3999777375717247
  0.9164197493241892  0.3329422400416333  0.4000375455284355
  0.9167322227939767  0.4582666711081011  0.4000553618725981
  0.9171469146621657  0.5835733291981295  0.3999877580070790
  0.9170735571565947  0.7086943641440233  0.3999416129659153
  0.9168046537779804  0.8335538324332178  0.3999646061387397
  0.9165432968722463  0.9582460651951303  0.4000477015788203
  0.0841151179724152  0.0428206870292157  0.3999433832240619
  0.0839551311510111  0.1675598662446974  0.3997181420991738
  0.0831083974575884  0.2920128159664835  0.3996565959788083
  0.0820438677830524  0.4166630116738786  0.3997484055277318
  0.0823673477709611  0.5419328935106945  0.3997591428273351
  0.0830040568285109  0.6671863211365726  0.3999788865881573
  0.0834466753353916  0.7923946519485477  0.4000833089845508
  0.0837200791531526  0.9175506895759671  0.4000255662170034
  0.2089878728880224  0.0429323992116480  0.3999266993215683
  0.2098920452990821  0.1687477414613813  0.3997492641810469
  0.2092357129097281  0.2934848102613244  0.3993189141469561
  0.2066475643937262  0.4177316742300482  0.4001038665550646
  0.2061863311549460  0.5420740497674084  0.3998167396583150
  0.2073690752261050  0.6673125982016478  0.3997125196807680
  0.2081309791230526  0.7924825859633465  0.3999603492175381
  0.2085417909952669  0.9176247165359657  0.4000379067908153
  0.3336613271026507  0.0425730673300081  0.3998888734078125
  0.3342423979840872  0.1681924592030823  0.3997829193057131
  0.3362049180511293  0.2953491004756618  0.4009306713829157
  0.3322498353230091  0.4197637964662554  0.4021878071831523
  0.3304946940383770  0.5440271375212679  0.4022527562646286
  0.3317683454513599  0.6675809403848032  0.4000429839743487
  0.3328673186459673  0.7923362693167123  0.3996588306783334
  0.3333308289277863  0.9173441420782226  0.3999961431595713
  0.4584314169179867  0.0416650584239929  0.4000508173957088
  0.4588882389057799  0.1669176688076573  0.3995840235529110
  0.4599684712896925  0.2923123192785486  0.3998930726830539
  0.4549037489538009  0.6641479400562925  0.4016864317271265
  0.4575294373913466  0.7910774348859257  0.3994862808787486
  0.4580389287259066  0.9164374581999809  0.3998649608463755
  0.5831775316726636  0.0408673442469336  0.4000466527500903
  0.5835611101350924  0.1659743821840197  0.3998970808237569
  0.5843348862631007  0.2909249528166291  0.3997003540123669
  0.5858650895422693  0.4155771283281743  0.4005338845166642
  0.5853252403021701  0.5400485732374455  0.4012381927224948
  0.5814575303949314  0.6628786738403020  0.4003422647820449
  0.5812268718711301  0.7888096060848224  0.4000584332196737
  0.5827230934016925  0.9154264410430188  0.3998623075033958
  0.7079018434155424  0.0405760336793055  0.4000027242512809
  0.7083050532446221  0.1658548179312600  0.4000816292510951
  0.7088167246236184  0.2910158362335664  0.3998930646449348
  0.7096717690028477  0.4161235281329014  0.3996157193372165
  0.7101183548444546  0.5412168081330787  0.3998782862291386
  0.7085006670073637  0.6657072507499460  0.3995793352068486
  0.7073661611862037  0.7900593797888100  0.3995097247904039
  0.7072218033257897  0.9149568613596164  0.3998336949831012
  0.8329129715983005  0.0408043004691387  0.3999938547423206
  0.8330681267507828  0.1659313763403995  0.4000401417687278
  0.8332766944999361  0.2910275688392611  0.4000702389504255
  0.8337411742548790  0.4163007157623984  0.3999506428035501
  0.8341934009763806  0.5416293702285845  0.3998014331389168
  0.8339646603421149  0.6667596616631151  0.3997997605521934
  0.8333026093250392  0.7913786368858182  0.3997716118209616
  0.8329370188204257  0.9159977396792274  0.3999211915074384
  0.9584728856661164  0.0417422975196506  0.4000401675366111
  0.9581964922828284  0.1664351719282595  0.3999260076372333
  0.9579502202039982  0.2913168039952193  0.3999460161316866
  0.9578637249720137  0.4164219067157256  0.4000106547646416
  0.9582856133755652  0.5417322300182815  0.4000532558180678
  0.9586017427266389  0.6670597706014489  0.4000127208881393
  0.9586524386095154  0.7921976879422699  0.3999859110208496
  0.9586121519671812  0.9170723327008742  0.4000474625867267
  0.4112066884648917  0.5834141871137187  0.4052998670676956
  0.4637918865740386  0.4165806188198380  0.4052724485853968
 
  0.00000000E+00  0.00000000E+00  0.00000000E+00
  0.00000000E+00  0.00000000E+00  0.00000000E+00
  0.00000000E+00  0.00000000E+00  0.00000000E+00
  0.00000000E+00  0.00000000E+00  0.00000000E+00
  0.00000000E+00  0.00000000E+00  0.00000000E+00
  0.00000000E+00  0.00000000E+00  0.00000000E+00
  0.00000000E+00  0.00000000E+00  0.00000000E+00
  0.00000000E+00  0.00000000E+00  0.00000000E+00
  0.00000000E+00  0.00000000E+00  0.00000000E+00
  0.00000000E+00  0.00000000E+00  0.00000000E+00
  0.00000000E+00  0.00000000E+00  0.00000000E+00
  0.00000000E+00  0.00000000E+00  0.00000000E+00
  0.00000000E+00  0.00000000E+00  0.00000000E+00
  0.00000000E+00  0.00000000E+00  0.00000000E+00
  0.00000000E+00  0.00000000E+00  0.00000000E+00
  0.00000000E+00  0.00000000E+00  0.00000000E+00
  0.00000000E+00  0.00000000E+00  0.00000000E+00
  0.00000000E+00  0.00000000E+00  0.00000000E+00
  0.00000000E+00  0.00000000E+00  0.00000000E+00
  0.00000000E+00  0.00000000E+00  0.00000000E+00
  0.00000000E+00  0.00000000E+00  0.00000000E+00
  0.00000000E+00  0.00000000E+00  0.00000000E+00
  0.00000000E+00  0.00000000E+00  0.00000000E+00
  0.00000000E+00  0.00000000E+00  0.00000000E+00
  0.00000000E+00  0.00000000E+00  0.00000000E+00
  0.00000000E+00  0.00000000E+00  0.00000000E+00
  0.00000000E+00  0.00000000E+00  0.00000000E+00
  0.00000000E+00  0.00000000E+00  0.00000000E+00
  0.00000000E+00  0.00000000E+00  0.00000000E+00
  0.00000000E+00  0.00000000E+00  0.00000000E+00
  0.00000000E+00  0.00000000E+00  0.00000000E+00
  0.00000000E+00  0.00000000E+00  0.00000000E+00
  0.00000000E+00  0.00000000E+00  0.00000000E+00
  0.00000000E+00  0.00000000E+00  0.00000000E+00
  0.00000000E+00  0.00000000E+00  0.00000000E+00
  0.00000000E+00  0.00000000E+00  0.00000000E+00
  0.00000000E+00  0.00000000E+00  0.00000000E+00
  0.00000000E+00  0.00000000E+00  0.00000000E+00
  0.00000000E+00  0.00000000E+00  0.00000000E+00
  0.00000000E+00  0.00000000E+00  0.00000000E+00
  0.00000000E+00  0.00000000E+00  0.00000000E+00
  0.00000000E+00  0.00000000E+00  0.00000000E+00
  0.00000000E+00  0.00000000E+00  0.00000000E+00
  0.00000000E+00  0.00000000E+00  0.00000000E+00
  0.00000000E+00  0.00000000E+00  0.00000000E+00
  0.00000000E+00  0.00000000E+00  0.00000000E+00
  0.00000000E+00  0.00000000E+00  0.00000000E+00
  0.00000000E+00  0.00000000E+00  0.00000000E+00
  0.00000000E+00  0.00000000E+00  0.00000000E+00
  0.00000000E+00  0.00000000E+00  0.00000000E+00
  0.00000000E+00  0.00000000E+00  0.00000000E+00
  0.00000000E+00  0.00000000E+00  0.00000000E+00
  0.00000000E+00  0.00000000E+00  0.00000000E+00
  0.00000000E+00  0.00000000E+00  0.00000000E+00
  0.00000000E+00  0.00000000E+00  0.00000000E+00
  0.00000000E+00  0.00000000E+00  0.00000000E+00
  0.00000000E+00  0.00000000E+00  0.00000000E+00
  0.00000000E+00  0.00000000E+00  0.00000000E+00
  0.00000000E+00  0.00000000E+00  0.00000000E+00
  0.00000000E+00  0.00000000E+00  0.00000000E+00
  0.00000000E+00  0.00000000E+00  0.00000000E+00
  0.00000000E+00  0.00000000E+00  0.00000000E+00
  0.00000000E+00  0.00000000E+00  0.00000000E+00
  0.00000000E+00  0.00000000E+00  0.00000000E+00
  0.00000000E+00  0.00000000E+00  0.00000000E+00
  0.00000000E+00  0.00000000E+00  0.00000000E+00
  0.00000000E+00  0.00000000E+00  0.00000000E+00
  0.00000000E+00  0.00000000E+00  0.00000000E+00
  0.00000000E+00  0.00000000E+00  0.00000000E+00
  0.00000000E+00  0.00000000E+00  0.00000000E+00
  0.00000000E+00  0.00000000E+00  0.00000000E+00
  0.00000000E+00  0.00000000E+00  0.00000000E+00
  0.00000000E+00  0.00000000E+00  0.00000000E+00
  0.00000000E+00  0.00000000E+00  0.00000000E+00
  0.00000000E+00  0.00000000E+00  0.00000000E+00
  0.00000000E+00  0.00000000E+00  0.00000000E+00
  0.00000000E+00  0.00000000E+00  0.00000000E+00
  0.00000000E+00  0.00000000E+00  0.00000000E+00
  0.00000000E+00  0.00000000E+00  0.00000000E+00
  0.00000000E+00  0.00000000E+00  0.00000000E+00
  0.00000000E+00  0.00000000E+00  0.00000000E+00
  0.00000000E+00  0.00000000E+00  0.00000000E+00
  0.00000000E+00  0.00000000E+00  0.00000000E+00
  0.00000000E+00  0.00000000E+00  0.00000000E+00
  0.00000000E+00  0.00000000E+00  0.00000000E+00
  0.00000000E+00  0.00000000E+00  0.00000000E+00
  0.00000000E+00  0.00000000E+00  0.00000000E+00
  0.00000000E+00  0.00000000E+00  0.00000000E+00
  0.00000000E+00  0.00000000E+00  0.00000000E+00
  0.00000000E+00  0.00000000E+00  0.00000000E+00
  0.00000000E+00  0.00000000E+00  0.00000000E+00
  0.00000000E+00  0.00000000E+00  0.00000000E+00
  0.00000000E+00  0.00000000E+00  0.00000000E+00
  0.00000000E+00  0.00000000E+00  0.00000000E+00
  0.00000000E+00  0.00000000E+00  0.00000000E+00
  0.00000000E+00  0.00000000E+00  0.00000000E+00
  0.00000000E+00  0.00000000E+00  0.00000000E+00
  0.00000000E+00  0.00000000E+00  0.00000000E+00
  0.00000000E+00  0.00000000E+00  0.00000000E+00
  0.00000000E+00  0.00000000E+00  0.00000000E+00
  0.00000000E+00  0.00000000E+00  0.00000000E+00
  0.00000000E+00  0.00000000E+00  0.00000000E+00
  0.00000000E+00  0.00000000E+00  0.00000000E+00
  0.00000000E+00  0.00000000E+00  0.00000000E+00
  0.00000000E+00  0.00000000E+00  0.00000000E+00
  0.00000000E+00  0.00000000E+00  0.00000000E+00
  0.00000000E+00  0.00000000E+00  0.00000000E+00
  0.00000000E+00  0.00000000E+00  0.00000000E+00
  0.00000000E+00  0.00000000E+00  0.00000000E+00
  0.00000000E+00  0.00000000E+00  0.00000000E+00
  0.00000000E+00  0.00000000E+00  0.00000000E+00
  0.00000000E+00  0.00000000E+00  0.00000000E+00
  0.00000000E+00  0.00000000E+00  0.00000000E+00
  0.00000000E+00  0.00000000E+00  0.00000000E+00
  0.00000000E+00  0.00000000E+00  0.00000000E+00
  0.00000000E+00  0.00000000E+00  0.00000000E+00
  0.00000000E+00  0.00000000E+00  0.00000000E+00
  0.00000000E+00  0.00000000E+00  0.00000000E+00
  0.00000000E+00  0.00000000E+00  0.00000000E+00
  0.00000000E+00  0.00000000E+00  0.00000000E+00
  0.00000000E+00  0.00000000E+00  0.00000000E+00
  0.00000000E+00  0.00000000E+00  0.00000000E+00
  0.00000000E+00  0.00000000E+00  0.00000000E+00
  0.00000000E+00  0.00000000E+00  0.00000000E+00
  0.00000000E+00  0.00000000E+00  0.00000000E+00
  0.00000000E+00  0.00000000E+00  0.00000000E+00
  0.00000000E+00  0.00000000E+00  0.00000000E+00
