Pd1 C123 N3 O1                          
   1.00000000000000     
    19.8396634825982332    0.0052826500361346    0.0155979393117651
    -9.9151843093576879   17.0350351115506555   -0.0094833829081704
     0.0233339928285766   -0.0026301704547501   29.7685497787033917
   Pd   C    N    O 
     1   123     3     1
Direct
  0.4365786053058410  0.4978664879760951  0.4162079163363840
  0.0416918243617704  0.0839474464049207  0.3999098298493583
  0.0405503694869047  0.2079061774361007  0.4001835168690328
  0.0398883967223641  0.3326839046460053  0.3998607945082795
  0.0402035471142653  0.4581351280685883  0.3993105428538715
  0.0413048409570276  0.5838231337113738  0.3990902168692030
  0.0423172982691723  0.7093689317706858  0.3993478199260790
  0.0426228244592035  0.8346604616077973  0.3995267606749690
  0.0424779585150226  0.9596573904487188  0.3995742964860555
  0.1677485685898160  0.0855677524670478  0.4005492652767893
  0.1668367724836333  0.2098788608558825  0.4016862189429050
  0.1644351910042094  0.3333296491836059  0.4016201909397726
  0.1635926197202644  0.4582956040466385  0.4005114354653344
  0.1647078942284312  0.5837026589778596  0.3996004824438770
  0.1663215199348777  0.7091714358683622  0.3993199739212837
  0.1671688323821828  0.8346662158383561  0.3995465570648097
  0.1675847290435040  0.9601830939071415  0.3997563458430874
  0.2926586340201374  0.0858796409058668  0.4005188980379839
  0.2932714168805335  0.2126786919059506  0.4027563649799958
  0.2913258998341173  0.3376589847879058  0.4045770531602236
  0.2865523760054093  0.4578052326368858  0.4031084457257527
  0.2875345063759087  0.5832781198779413  0.4011209375367050
  0.2903066620514066  0.7086320068001765  0.3999976103970319
  0.2915727150591672  0.8340948456457807  0.3995010044242603
  0.2921804112400309  0.9597770627155924  0.3996395293373071
  0.4171059839134668  0.0841798330716197  0.3999085682412615
  0.4178351730989590  0.2102522033408587  0.4012331669775911
  0.4198152310413185  0.3375573152576176  0.4050771535913916
  0.4142698540291181  0.7064061644284012  0.4018119254924872
  0.4159420867535850  0.8324099371598657  0.4001034455010418
  0.4166219169903926  0.9583069406133130  0.3996379752179347
  0.5415307582946361  0.0824780142572042  0.3996206291749839
  0.5422401652356628  0.2082090070201490  0.3999504089580923
  0.5436424845015503  0.3337967144288962  0.4014162313903443
  0.5482017777785385  0.4594435797783376  0.4048921970733693
  0.5380702868728843  0.7011368672675716  0.4045320553929586
  0.5402144164146736  0.8298459858982093  0.4013687033639721
  0.5409951361708502  0.9564682006845812  0.3998718008774323
  0.6659661741497369  0.0816900459245346  0.3996506473102425
  0.6665857388390446  0.2072612067877190  0.3994950984378920
  0.6677031018257564  0.3327787017816742  0.3996555514905299
  0.6702953914518722  0.4584913886618649  0.4007912639592764
  0.6718583196512081  0.5842638698479373  0.4026646183566977
  0.6669727471885314  0.7062301149630126  0.4026862326389481
  0.6646107651500581  0.8298527058329678  0.4015703387547952
  0.6654023717769610  0.9559253301009958  0.4002126271543908
  0.7905368323254556  0.0816462010009287  0.3997026599598186
  0.7909431251013493  0.2070553383140781  0.3995617237518819
  0.7917734030481525  0.3325887029875362  0.3992477913847813
  0.7932519622337894  0.4582538378537859  0.3992020185376255
  0.7943845953022070  0.5838711030404040  0.3997839870701639
  0.7937686617579425  0.7090120545294285  0.4003587919292557
  0.7913583890086271  0.8323434663153988  0.4003113684330543
  0.7903000852002271  0.9564261544829328  0.3999387846057061
  0.9156650710514660  0.0823330001053671  0.3995730824286139
  0.9154411818394562  0.2071842614347425  0.3994627805496402
  0.9157558973597100  0.3325525205501585  0.3992415435975070
  0.9167177754117168  0.4581923538473874  0.3990120536043466
  0.9178243162622759  0.5838795621195327  0.3990246544630230
  0.9181116849094112  0.7092641062161286  0.3992674107489841
  0.9176472536217956  0.8341608347321703  0.3994643253845298
  0.9164977216302223  0.9581681955103483  0.3995777281760038
  0.0841946034278466  0.0432479811634453  0.3999099756044447
  0.0832417081287355  0.1674394294042799  0.4005426842967004
  0.0816081523094735  0.2912790977117859  0.4005244112099226
  0.0810639819826313  0.4161593457782507  0.3998454049818502
  0.0819793902726828  0.5417634232356719  0.3992528061863133
  0.0833112059359064  0.6674282077582898  0.3992326738082865
  0.0840516918753587  0.7929553812080545  0.3995586441104860
  0.0842863945552462  0.9182473403100807  0.3996163938659347
  0.2093242004888344  0.0438481811421305  0.4002342057655447
  0.2095134011259139  0.1693979284526339  0.4017443192660051
  0.2077365969381653  0.2934687830564086  0.4026312997434631
  0.2046204252359817  0.4165918630230604  0.4016329308079846
  0.2050218796057832  0.5415183259327606  0.4002867900479517
  0.2071949369441196  0.6671868321409783  0.3995397311692318
  0.2084094525552154  0.7927427115651902  0.3994217051725965
  0.2090049543240412  0.9182735182697785  0.3996293616436958
  0.3339277973143799  0.0434640404061765  0.3999484831774176
  0.3344894600123666  0.1697668455222674  0.4015789485205418
  0.3352809640193286  0.2970495497734408  0.4046951017469282
  0.3284656304842408  0.5423097660267802  0.4029647836633359
  0.3310275195563462  0.6664804473262653  0.4009408145476779
  0.3327534042572196  0.7919598224221851  0.3998051928706753
  0.3334714376255317  0.9175833891947279  0.3995570928373069
  0.4583853419337268  0.0417992382096364  0.3996822628041944
  0.4589770558684348  0.1676983369138213  0.4002646629464242
  0.4602097200233680  0.2938237344798285  0.4022564300436891
  0.4664854126826321  0.4197962024044729  0.4074814361430742
  0.4530834015187167  0.6615471538006849  0.4041769776435510
  0.4570347931162324  0.7898489981486270  0.4010149899401541
  0.4578524850138818  0.9159140423226105  0.3998073028374519
  0.5827817784906908  0.0401969298246012  0.3996372737673920
  0.5834386261348858  0.1660212771380427  0.3996171499348985
  0.5844964473105719  0.2915567551275667  0.4001904386519251
  0.5877080750982686  0.4170574196846207  0.4020934323660046
  0.5905186345297654  0.5432480488147909  0.4050590079749588
  0.5830425363027329  0.6611294140010644  0.4050339673307299
  0.5805874957691042  0.7861390409128157  0.4025879853349154
  0.5821569700846857  0.9138917347017754  0.4004050820480747
  0.7072701382879887  0.0396799624466485  0.3998024308883814
  0.7078257379466302  0.1653356362809543  0.3995663440425982
  0.7086450852511308  0.2908328290071016  0.3993794600069074
  0.7104964622993961  0.4163193369890437  0.3997029178550749
  0.7120974981153291  0.5418144040279675  0.4009926247487836
  0.7110474442474931  0.6670960376700746  0.4019001413034314
  0.7076574619968076  0.7897384292588951  0.4014422992015355
  0.7066353766009722  0.9138869047959347  0.4004856918943162
  0.8321939452881624  0.0401444288495766  0.3996733032381610
  0.8323018734544557  0.1653007407781777  0.3995741044813091
  0.8328001249306253  0.2906554614187414  0.3993593999581845
  0.8339208692061697  0.4162010326426130  0.3990711806146827
  0.8351398887563697  0.5418702808883856  0.3991859371212210
  0.8353262200896534  0.6673983214875685  0.3997029686822191
  0.8344276431761815  0.7921697319890699  0.3999262117704701
  0.8328859013954614  0.9158300706732923  0.3998494258793772
  0.9581200400820876  0.0416392494600903  0.3996033733635208
  0.9572686452240100  0.1658254619997687  0.3996043677937431
  0.9570237307893337  0.2907659919165072  0.3994067158143018
  0.9574642096689356  0.4161581109624287  0.3991200694064968
  0.9585634143041200  0.5418392167469815  0.3989998236710280
  0.9594157192652677  0.6674754234002479  0.3991659515866527
  0.9594980137819062  0.7928060011426168  0.3993727001977157
  0.9590629925226293  0.9175699745638111  0.3994944699763223
  0.4077989641749860  0.5818522163458333  0.4053177841218711
  0.5489657095110342  0.5811166177902581  0.4065820038359102
  0.3272776731228112  0.4183641781925376  0.4047883640065174
  0.4407570024191683  0.5039196723263569  0.4828354278766042
 
  0.00000000E+00  0.00000000E+00  0.00000000E+00
  0.00000000E+00  0.00000000E+00  0.00000000E+00
  0.00000000E+00  0.00000000E+00  0.00000000E+00
  0.00000000E+00  0.00000000E+00  0.00000000E+00
  0.00000000E+00  0.00000000E+00  0.00000000E+00
  0.00000000E+00  0.00000000E+00  0.00000000E+00
  0.00000000E+00  0.00000000E+00  0.00000000E+00
  0.00000000E+00  0.00000000E+00  0.00000000E+00
  0.00000000E+00  0.00000000E+00  0.00000000E+00
  0.00000000E+00  0.00000000E+00  0.00000000E+00
  0.00000000E+00  0.00000000E+00  0.00000000E+00
  0.00000000E+00  0.00000000E+00  0.00000000E+00
  0.00000000E+00  0.00000000E+00  0.00000000E+00
  0.00000000E+00  0.00000000E+00  0.00000000E+00
  0.00000000E+00  0.00000000E+00  0.00000000E+00
  0.00000000E+00  0.00000000E+00  0.00000000E+00
  0.00000000E+00  0.00000000E+00  0.00000000E+00
  0.00000000E+00  0.00000000E+00  0.00000000E+00
  0.00000000E+00  0.00000000E+00  0.00000000E+00
  0.00000000E+00  0.00000000E+00  0.00000000E+00
  0.00000000E+00  0.00000000E+00  0.00000000E+00
  0.00000000E+00  0.00000000E+00  0.00000000E+00
  0.00000000E+00  0.00000000E+00  0.00000000E+00
  0.00000000E+00  0.00000000E+00  0.00000000E+00
  0.00000000E+00  0.00000000E+00  0.00000000E+00
  0.00000000E+00  0.00000000E+00  0.00000000E+00
  0.00000000E+00  0.00000000E+00  0.00000000E+00
  0.00000000E+00  0.00000000E+00  0.00000000E+00
  0.00000000E+00  0.00000000E+00  0.00000000E+00
  0.00000000E+00  0.00000000E+00  0.00000000E+00
  0.00000000E+00  0.00000000E+00  0.00000000E+00
  0.00000000E+00  0.00000000E+00  0.00000000E+00
  0.00000000E+00  0.00000000E+00  0.00000000E+00
  0.00000000E+00  0.00000000E+00  0.00000000E+00
  0.00000000E+00  0.00000000E+00  0.00000000E+00
  0.00000000E+00  0.00000000E+00  0.00000000E+00
  0.00000000E+00  0.00000000E+00  0.00000000E+00
  0.00000000E+00  0.00000000E+00  0.00000000E+00
  0.00000000E+00  0.00000000E+00  0.00000000E+00
  0.00000000E+00  0.00000000E+00  0.00000000E+00
  0.00000000E+00  0.00000000E+00  0.00000000E+00
  0.00000000E+00  0.00000000E+00  0.00000000E+00
  0.00000000E+00  0.00000000E+00  0.00000000E+00
  0.00000000E+00  0.00000000E+00  0.00000000E+00
  0.00000000E+00  0.00000000E+00  0.00000000E+00
  0.00000000E+00  0.00000000E+00  0.00000000E+00
  0.00000000E+00  0.00000000E+00  0.00000000E+00
  0.00000000E+00  0.00000000E+00  0.00000000E+00
  0.00000000E+00  0.00000000E+00  0.00000000E+00
  0.00000000E+00  0.00000000E+00  0.00000000E+00
  0.00000000E+00  0.00000000E+00  0.00000000E+00
  0.00000000E+00  0.00000000E+00  0.00000000E+00
  0.00000000E+00  0.00000000E+00  0.00000000E+00
  0.00000000E+00  0.00000000E+00  0.00000000E+00
  0.00000000E+00  0.00000000E+00  0.00000000E+00
  0.00000000E+00  0.00000000E+00  0.00000000E+00
  0.00000000E+00  0.00000000E+00  0.00000000E+00
  0.00000000E+00  0.00000000E+00  0.00000000E+00
  0.00000000E+00  0.00000000E+00  0.00000000E+00
  0.00000000E+00  0.00000000E+00  0.00000000E+00
  0.00000000E+00  0.00000000E+00  0.00000000E+00
  0.00000000E+00  0.00000000E+00  0.00000000E+00
  0.00000000E+00  0.00000000E+00  0.00000000E+00
  0.00000000E+00  0.00000000E+00  0.00000000E+00
  0.00000000E+00  0.00000000E+00  0.00000000E+00
  0.00000000E+00  0.00000000E+00  0.00000000E+00
  0.00000000E+00  0.00000000E+00  0.00000000E+00
  0.00000000E+00  0.00000000E+00  0.00000000E+00
  0.00000000E+00  0.00000000E+00  0.00000000E+00
  0.00000000E+00  0.00000000E+00  0.00000000E+00
  0.00000000E+00  0.00000000E+00  0.00000000E+00
  0.00000000E+00  0.00000000E+00  0.00000000E+00
  0.00000000E+00  0.00000000E+00  0.00000000E+00
  0.00000000E+00  0.00000000E+00  0.00000000E+00
  0.00000000E+00  0.00000000E+00  0.00000000E+00
  0.00000000E+00  0.00000000E+00  0.00000000E+00
  0.00000000E+00  0.00000000E+00  0.00000000E+00
  0.00000000E+00  0.00000000E+00  0.00000000E+00
  0.00000000E+00  0.00000000E+00  0.00000000E+00
  0.00000000E+00  0.00000000E+00  0.00000000E+00
  0.00000000E+00  0.00000000E+00  0.00000000E+00
  0.00000000E+00  0.00000000E+00  0.00000000E+00
  0.00000000E+00  0.00000000E+00  0.00000000E+00
  0.00000000E+00  0.00000000E+00  0.00000000E+00
  0.00000000E+00  0.00000000E+00  0.00000000E+00
  0.00000000E+00  0.00000000E+00  0.00000000E+00
  0.00000000E+00  0.00000000E+00  0.00000000E+00
  0.00000000E+00  0.00000000E+00  0.00000000E+00
  0.00000000E+00  0.00000000E+00  0.00000000E+00
  0.00000000E+00  0.00000000E+00  0.00000000E+00
  0.00000000E+00  0.00000000E+00  0.00000000E+00
  0.00000000E+00  0.00000000E+00  0.00000000E+00
  0.00000000E+00  0.00000000E+00  0.00000000E+00
  0.00000000E+00  0.00000000E+00  0.00000000E+00
  0.00000000E+00  0.00000000E+00  0.00000000E+00
  0.00000000E+00  0.00000000E+00  0.00000000E+00
  0.00000000E+00  0.00000000E+00  0.00000000E+00
  0.00000000E+00  0.00000000E+00  0.00000000E+00
  0.00000000E+00  0.00000000E+00  0.00000000E+00
  0.00000000E+00  0.00000000E+00  0.00000000E+00
  0.00000000E+00  0.00000000E+00  0.00000000E+00
  0.00000000E+00  0.00000000E+00  0.00000000E+00
  0.00000000E+00  0.00000000E+00  0.00000000E+00
  0.00000000E+00  0.00000000E+00  0.00000000E+00
  0.00000000E+00  0.00000000E+00  0.00000000E+00
  0.00000000E+00  0.00000000E+00  0.00000000E+00
  0.00000000E+00  0.00000000E+00  0.00000000E+00
  0.00000000E+00  0.00000000E+00  0.00000000E+00
  0.00000000E+00  0.00000000E+00  0.00000000E+00
  0.00000000E+00  0.00000000E+00  0.00000000E+00
  0.00000000E+00  0.00000000E+00  0.00000000E+00
  0.00000000E+00  0.00000000E+00  0.00000000E+00
  0.00000000E+00  0.00000000E+00  0.00000000E+00
  0.00000000E+00  0.00000000E+00  0.00000000E+00
  0.00000000E+00  0.00000000E+00  0.00000000E+00
  0.00000000E+00  0.00000000E+00  0.00000000E+00
  0.00000000E+00  0.00000000E+00  0.00000000E+00
  0.00000000E+00  0.00000000E+00  0.00000000E+00
  0.00000000E+00  0.00000000E+00  0.00000000E+00
  0.00000000E+00  0.00000000E+00  0.00000000E+00
  0.00000000E+00  0.00000000E+00  0.00000000E+00
  0.00000000E+00  0.00000000E+00  0.00000000E+00
  0.00000000E+00  0.00000000E+00  0.00000000E+00
  0.00000000E+00  0.00000000E+00  0.00000000E+00
  0.00000000E+00  0.00000000E+00  0.00000000E+00
  0.00000000E+00  0.00000000E+00  0.00000000E+00
  0.00000000E+00  0.00000000E+00  0.00000000E+00
  0.00000000E+00  0.00000000E+00  0.00000000E+00
