Y1 C126                                 
   1.00000000000000     
    19.8093223601529047   -0.0000152903300642    0.0008260495002316
    -9.9046748826809896   17.0891481175355686   -0.0002946480044739
     0.0012374681016647    0.0002061746387759   29.7243395746717454
   Y    C 
     1   126
Direct
  0.4375286275881116  0.4999991412103904  0.4470472085167799
  0.0416390749948760  0.0836026254470069  0.3999424337661880
  0.0408454080213854  0.2079140316809837  0.3997162944334928
  0.0405382276934165  0.3327845521295388  0.3996351777206686
  0.0406898300221488  0.4582698794056683  0.3999065422105013
  0.0413500271732839  0.5836224048740705  0.4001257354158071
  0.0419466674161465  0.7088795074471981  0.4000865882984929
  0.0422168190248410  0.8341222521016231  0.4000480213909801
  0.0421824960274324  0.9590755086881594  0.4000411073485161
  0.1671761536153360  0.0844452302069421  0.3998681988375391
  0.1664843982865346  0.2087707325501918  0.3995848810302493
  0.1652129364594636  0.3330200263925057  0.3992165900783624
  0.1645163048079833  0.4581557777304929  0.3989745492932090
  0.1654325361248513  0.5835534199098216  0.3994741332696942
  0.1664205065775646  0.7089330825233439  0.3999475352771474
  0.1668689731412847  0.8341148123621057  0.4000323068745941
  0.1671763378058576  0.9593800253828172  0.3999710511286820
  0.2922454660262134  0.0844462729792849  0.3998540990660411
  0.2927018163538870  0.2104095533863456  0.4002614279769203
  0.2915261788016298  0.3352833327986856  0.4013843555198518
  0.2882339754818663  0.4574937666586384  0.4003875847337179
  0.2892880251534671  0.5838922211908267  0.3990103455908173
  0.2908463390114487  0.7088261798733743  0.3994501181163226
  0.2915293823585579  0.8338503928843271  0.3999627421668789
  0.2918704009529583  0.9590490502582933  0.4000028040687575
  0.4169316651129154  0.0835681157123085  0.3999341083369475
  0.4172739648927431  0.2087619000590726  0.3995929529481040
  0.4187650198347487  0.3352790975623834  0.4013821501919643
  0.4122685401270542  0.5823606688604661  0.4039482925058588
  0.4156080537020241  0.7077920899165726  0.3995158293109436
  0.4162175044199820  0.8331715383111323  0.3996919646736330
  0.4165582721067542  0.9583247562699879  0.4000681844406126
  0.5415842236881747  0.0827738339994174  0.4000734363181633
  0.5420460793956349  0.2078934788918288  0.3997241078769120
  0.5428278436735831  0.3330173097139452  0.3992233296030742
  0.5442989471088479  0.4574922615464302  0.4004038925662189
  0.5451312060737015  0.5823604598909929  0.4039330815846391
  0.5407778704178006  0.7065587740672294  0.4015097556729564
  0.5408613926650279  0.8321287278560354  0.3998735472928540
  0.5413112448867090  0.9575357038369073  0.3999458968678089
  0.6662795094404746  0.0824329615923444  0.4000218390519880
  0.6666819219803884  0.2076535942434131  0.4000146931115855
  0.6672408118892311  0.3327763579305835  0.3996133316150624
  0.6686827011834781  0.4581572904242124  0.3989384516424991
  0.6696468418824834  0.5838847168936415  0.3990114862869720
  0.6671874938718823  0.7077937582257251  0.3995288323178796
  0.6662487063195096  0.8321306970669655  0.3998702374167604
  0.6661294975085534  0.9572759899056990  0.3999121469286059
  0.7911371483833305  0.0824441335793690  0.4000054933991642
  0.7912541953332243  0.2075344338263782  0.4000451002327226
  0.7917520576099658  0.3328477457306759  0.4000570531446666
  0.7925866002347806  0.4582738466589779  0.3998399784617763
  0.7931400843120093  0.5835571353477025  0.3994259088020607
  0.7929865737297440  0.7088427404970137  0.3994495882108585
  0.7919541476249827  0.8331970199473807  0.3997087667238792
  0.7912121789615781  0.9575647281346812  0.3999134437966327
  0.9161995240075157  0.0828011378509229  0.4000443891225434
  0.9159548992474367  0.2076661695586410  0.4000094585845717
  0.9161114732893619  0.3328530233107831  0.4000754484698061
  0.9165899230079777  0.4581638659688899  0.4001908006491703
  0.9172737829399045  0.5836192917191392  0.4000899335367863
  0.9175138716389527  0.7089426411065519  0.3999492017847002
  0.9173164225425690  0.8338743299950947  0.3999797195506117
  0.9167775173858557  0.9583521831752000  0.4000741171700541
  0.0837764891331725  0.0424648812779524  0.3999455155826410
  0.0830474615545694  0.1668304242171352  0.3996927777579656
  0.0820216983138897  0.2911761088815232  0.3994517562640266
  0.0818809995477550  0.4164462371219615  0.3994753416608757
  0.0824195051409444  0.5417302657515014  0.3999066015371586
  0.0832572553445126  0.6671465149109137  0.4000751580784316
  0.0837187471649402  0.7924651908843194  0.4000448460730134
  0.0838468766331210  0.9175657520510810  0.4000213930607210
  0.2088529991299526  0.0427238417601529  0.3999116498189157
  0.2087347210162655  0.1678723042763531  0.3998730347195753
  0.2078183164178747  0.2922101524253319  0.3995155463217390
  0.2053975364520579  0.4161096526279731  0.3990113217371350
  0.2063612142709801  0.5418456669627658  0.3989737405100581
  0.2077527346773121  0.6672153856452939  0.3996336291021547
  0.2082872538708601  0.7923337363285178  0.4000083629901764
  0.2086915641523414  0.9175555603115666  0.4000055827257438
  0.3336470408655896  0.0424348987591501  0.3999133211641994
  0.3341177566211302  0.1678682611791969  0.3998700962657324
  0.3342216703261454  0.2934418615397007  0.4015126040652601
  0.3299108597256054  0.4176426056329323  0.4039450484290925
  0.3307405332779880  0.5425082292284089  0.4003879451682911
  0.3321926926095473  0.6669814366866021  0.3992160861604216
  0.3329314215689596  0.7920870174272286  0.3997136750850260
  0.3333979708043806  0.9171995643860830  0.4000441004329973
  0.4584261292806602  0.0416478047869169  0.4000738686684456
  0.4587583164818759  0.1668022882238000  0.3997064906357509
  0.4593951649633305  0.2922044449096125  0.3995301940360662
  0.4627728116990964  0.4176365444221821  0.4039418862641592
  0.4562419171037406  0.6647190805622647  0.4013851052363299
  0.4577135064295864  0.7912305540766694  0.3995845322493311
  0.4580361278570232  0.9163981136731523  0.3999421450301270
  0.5831079500173243  0.0409240347560180  0.4000415588656275
  0.5834432058713857  0.1661246629208469  0.3999782377417968
  0.5841450841452962  0.2911563740404423  0.3994463938705060
  0.5857627064553077  0.4161139468661834  0.3990104861591422
  0.5868045318023823  0.5425064304846632  0.4004026377009477
  0.5834812136490939  0.6647174903448682  0.4013774470034396
  0.5822909829121696  0.7895911933539684  0.4002607239527579
  0.5827312516632930  0.9155552833544999  0.3998686257644669
  0.7077966207056990  0.0406198844370409  0.3999710366476277
  0.7080959447573573  0.1658772899632501  0.4000478573705062
  0.7085723499768714  0.2910563040125858  0.3999470505661060
  0.7095838740846800  0.4164418368959134  0.3994234774281523
  0.7105234853118372  0.5418416970578387  0.3989398912673734
  0.7098079113212737  0.6669809282520560  0.3992244665904515
  0.7085093152152736  0.7912367295886020  0.3995938916225220
  0.7077986810398128  0.9155537489688292  0.3998545561107865
  0.8328223726028963  0.0409512401823259  0.4000022960338107
  0.8327555398643414  0.1658851207776455  0.4000329281254829
  0.8330678337173982  0.2911200204296699  0.4000863294454348
  0.8336540343717334  0.4163797128925320  0.4000893510171940
  0.8343123445079135  0.5417250612362152  0.3998406045951262
  0.8344629241485843  0.6672231526965868  0.3996158108081621
  0.8341502101920475  0.7921057582683264  0.3997265933174579
  0.8333629776512715  0.9164314921816364  0.3999345683108174
  0.9582346451860184  0.0416762851750964  0.4000690001465430
  0.9576819185276569  0.1661531224149861  0.3999635968328914
  0.9574895338329346  0.2910674679857762  0.3999487998859554
  0.9577281702216505  0.4163773106552493  0.4001260289235884
  0.9584260260628293  0.5418362919833619  0.4001907700042285
  0.9589031285261980  0.6671514833086996  0.4000579901191484
  0.9590263940787171  0.7923454886478153  0.4000158485725008
  0.9588089237921031  0.9172254856808816  0.4000740060356399
 
  0.00000000E+00  0.00000000E+00  0.00000000E+00
  0.00000000E+00  0.00000000E+00  0.00000000E+00
  0.00000000E+00  0.00000000E+00  0.00000000E+00
  0.00000000E+00  0.00000000E+00  0.00000000E+00
  0.00000000E+00  0.00000000E+00  0.00000000E+00
  0.00000000E+00  0.00000000E+00  0.00000000E+00
  0.00000000E+00  0.00000000E+00  0.00000000E+00
  0.00000000E+00  0.00000000E+00  0.00000000E+00
  0.00000000E+00  0.00000000E+00  0.00000000E+00
  0.00000000E+00  0.00000000E+00  0.00000000E+00
  0.00000000E+00  0.00000000E+00  0.00000000E+00
  0.00000000E+00  0.00000000E+00  0.00000000E+00
  0.00000000E+00  0.00000000E+00  0.00000000E+00
  0.00000000E+00  0.00000000E+00  0.00000000E+00
  0.00000000E+00  0.00000000E+00  0.00000000E+00
  0.00000000E+00  0.00000000E+00  0.00000000E+00
  0.00000000E+00  0.00000000E+00  0.00000000E+00
  0.00000000E+00  0.00000000E+00  0.00000000E+00
  0.00000000E+00  0.00000000E+00  0.00000000E+00
  0.00000000E+00  0.00000000E+00  0.00000000E+00
  0.00000000E+00  0.00000000E+00  0.00000000E+00
  0.00000000E+00  0.00000000E+00  0.00000000E+00
  0.00000000E+00  0.00000000E+00  0.00000000E+00
  0.00000000E+00  0.00000000E+00  0.00000000E+00
  0.00000000E+00  0.00000000E+00  0.00000000E+00
  0.00000000E+00  0.00000000E+00  0.00000000E+00
  0.00000000E+00  0.00000000E+00  0.00000000E+00
  0.00000000E+00  0.00000000E+00  0.00000000E+00
  0.00000000E+00  0.00000000E+00  0.00000000E+00
  0.00000000E+00  0.00000000E+00  0.00000000E+00
  0.00000000E+00  0.00000000E+00  0.00000000E+00
  0.00000000E+00  0.00000000E+00  0.00000000E+00
  0.00000000E+00  0.00000000E+00  0.00000000E+00
  0.00000000E+00  0.00000000E+00  0.00000000E+00
  0.00000000E+00  0.00000000E+00  0.00000000E+00
  0.00000000E+00  0.00000000E+00  0.00000000E+00
  0.00000000E+00  0.00000000E+00  0.00000000E+00
  0.00000000E+00  0.00000000E+00  0.00000000E+00
  0.00000000E+00  0.00000000E+00  0.00000000E+00
  0.00000000E+00  0.00000000E+00  0.00000000E+00
  0.00000000E+00  0.00000000E+00  0.00000000E+00
  0.00000000E+00  0.00000000E+00  0.00000000E+00
  0.00000000E+00  0.00000000E+00  0.00000000E+00
  0.00000000E+00  0.00000000E+00  0.00000000E+00
  0.00000000E+00  0.00000000E+00  0.00000000E+00
  0.00000000E+00  0.00000000E+00  0.00000000E+00
  0.00000000E+00  0.00000000E+00  0.00000000E+00
  0.00000000E+00  0.00000000E+00  0.00000000E+00
  0.00000000E+00  0.00000000E+00  0.00000000E+00
  0.00000000E+00  0.00000000E+00  0.00000000E+00
  0.00000000E+00  0.00000000E+00  0.00000000E+00
  0.00000000E+00  0.00000000E+00  0.00000000E+00
  0.00000000E+00  0.00000000E+00  0.00000000E+00
  0.00000000E+00  0.00000000E+00  0.00000000E+00
  0.00000000E+00  0.00000000E+00  0.00000000E+00
  0.00000000E+00  0.00000000E+00  0.00000000E+00
  0.00000000E+00  0.00000000E+00  0.00000000E+00
  0.00000000E+00  0.00000000E+00  0.00000000E+00
  0.00000000E+00  0.00000000E+00  0.00000000E+00
  0.00000000E+00  0.00000000E+00  0.00000000E+00
  0.00000000E+00  0.00000000E+00  0.00000000E+00
  0.00000000E+00  0.00000000E+00  0.00000000E+00
  0.00000000E+00  0.00000000E+00  0.00000000E+00
  0.00000000E+00  0.00000000E+00  0.00000000E+00
  0.00000000E+00  0.00000000E+00  0.00000000E+00
  0.00000000E+00  0.00000000E+00  0.00000000E+00
  0.00000000E+00  0.00000000E+00  0.00000000E+00
  0.00000000E+00  0.00000000E+00  0.00000000E+00
  0.00000000E+00  0.00000000E+00  0.00000000E+00
  0.00000000E+00  0.00000000E+00  0.00000000E+00
  0.00000000E+00  0.00000000E+00  0.00000000E+00
  0.00000000E+00  0.00000000E+00  0.00000000E+00
  0.00000000E+00  0.00000000E+00  0.00000000E+00
  0.00000000E+00  0.00000000E+00  0.00000000E+00
  0.00000000E+00  0.00000000E+00  0.00000000E+00
  0.00000000E+00  0.00000000E+00  0.00000000E+00
  0.00000000E+00  0.00000000E+00  0.00000000E+00
  0.00000000E+00  0.00000000E+00  0.00000000E+00
  0.00000000E+00  0.00000000E+00  0.00000000E+00
  0.00000000E+00  0.00000000E+00  0.00000000E+00
  0.00000000E+00  0.00000000E+00  0.00000000E+00
  0.00000000E+00  0.00000000E+00  0.00000000E+00
  0.00000000E+00  0.00000000E+00  0.00000000E+00
  0.00000000E+00  0.00000000E+00  0.00000000E+00
  0.00000000E+00  0.00000000E+00  0.00000000E+00
  0.00000000E+00  0.00000000E+00  0.00000000E+00
  0.00000000E+00  0.00000000E+00  0.00000000E+00
  0.00000000E+00  0.00000000E+00  0.00000000E+00
  0.00000000E+00  0.00000000E+00  0.00000000E+00
  0.00000000E+00  0.00000000E+00  0.00000000E+00
  0.00000000E+00  0.00000000E+00  0.00000000E+00
  0.00000000E+00  0.00000000E+00  0.00000000E+00
  0.00000000E+00  0.00000000E+00  0.00000000E+00
  0.00000000E+00  0.00000000E+00  0.00000000E+00
  0.00000000E+00  0.00000000E+00  0.00000000E+00
  0.00000000E+00  0.00000000E+00  0.00000000E+00
  0.00000000E+00  0.00000000E+00  0.00000000E+00
  0.00000000E+00  0.00000000E+00  0.00000000E+00
  0.00000000E+00  0.00000000E+00  0.00000000E+00
  0.00000000E+00  0.00000000E+00  0.00000000E+00
  0.00000000E+00  0.00000000E+00  0.00000000E+00
  0.00000000E+00  0.00000000E+00  0.00000000E+00
  0.00000000E+00  0.00000000E+00  0.00000000E+00
  0.00000000E+00  0.00000000E+00  0.00000000E+00
  0.00000000E+00  0.00000000E+00  0.00000000E+00
  0.00000000E+00  0.00000000E+00  0.00000000E+00
  0.00000000E+00  0.00000000E+00  0.00000000E+00
  0.00000000E+00  0.00000000E+00  0.00000000E+00
  0.00000000E+00  0.00000000E+00  0.00000000E+00
  0.00000000E+00  0.00000000E+00  0.00000000E+00
  0.00000000E+00  0.00000000E+00  0.00000000E+00
  0.00000000E+00  0.00000000E+00  0.00000000E+00
  0.00000000E+00  0.00000000E+00  0.00000000E+00
  0.00000000E+00  0.00000000E+00  0.00000000E+00
  0.00000000E+00  0.00000000E+00  0.00000000E+00
  0.00000000E+00  0.00000000E+00  0.00000000E+00
  0.00000000E+00  0.00000000E+00  0.00000000E+00
  0.00000000E+00  0.00000000E+00  0.00000000E+00
  0.00000000E+00  0.00000000E+00  0.00000000E+00
  0.00000000E+00  0.00000000E+00  0.00000000E+00
  0.00000000E+00  0.00000000E+00  0.00000000E+00
  0.00000000E+00  0.00000000E+00  0.00000000E+00
  0.00000000E+00  0.00000000E+00  0.00000000E+00
  0.00000000E+00  0.00000000E+00  0.00000000E+00
  0.00000000E+00  0.00000000E+00  0.00000000E+00
  0.00000000E+00  0.00000000E+00  0.00000000E+00
  0.00000000E+00  0.00000000E+00  0.00000000E+00
