H1 Au1 C123 N3 O2                       
   1.00000000000000     
    19.8510540320999809    0.0005367313447682    0.0727872842026899
    -9.9248546669470894   17.0356901633868034   -0.0030495781620007
     0.1092324575719797    0.0579352061400959   29.7549657110425763
   H    Au   C    N    O 
     1     1   123     3     2
Direct
  0.5310561204650057  0.5498637048499930  0.5180830815279336
  0.4371435790036302  0.4990181262718025  0.4046959997159514
  0.0417105439029833  0.0839917521369754  0.4001960568946315
  0.0405567994147610  0.2079253798469330  0.4003106288097177
  0.0397315023272165  0.3327301493901938  0.3998731765494011
  0.0399002077637126  0.4581493418192789  0.3990855556571616
  0.0410674329909208  0.5838801204895784  0.3985679299920769
  0.0421908451240257  0.7094765777049928  0.3987586825943607
  0.0425476667534156  0.8347118899149983  0.3992352860175097
  0.0424460620414071  0.9597002611051482  0.3996995993638933
  0.1677743803149517  0.0856212870428483  0.4007881243028690
  0.1669246239923347  0.2100235754863815  0.4015074768138640
  0.1642048132336442  0.3333918524346194  0.4014145379152943
  0.1630142227155722  0.4584723097661883  0.4006530301956380
  0.1642257600316512  0.5838868494976936  0.3996693320492016
  0.1660740403530144  0.7092903062693382  0.3991052516119878
  0.1670331697555991  0.8347684560109631  0.3991906645848403
  0.1675353292928160  0.9602889809763241  0.3998429190872133
  0.2926610916082362  0.0859974072550616  0.4008262338846300
  0.2932727952489964  0.2128069257350280  0.4021429783044069
  0.2914923777948900  0.3376654622429730  0.4027654742589388
  0.2854828535713093  0.4582529569478542  0.4023943057682564
  0.2867286852311278  0.5834182198762573  0.4014026929059217
  0.2899864615896897  0.7087607418780545  0.4001875966167852
  0.2914216065319310  0.8342199853758383  0.3994747180459859
  0.2921343437817138  0.9598554838770629  0.3996944229607464
  0.4171141077649155  0.0841512801455424  0.4002649886967828
  0.4179564419188947  0.2101845294721355  0.4017825608787906
  0.4201466685498077  0.3376322447012304  0.4032995341031971
  0.4139298614144192  0.7064946733189730  0.4017025584351221
  0.4157704092031188  0.8324233669410985  0.4003041835988634
  0.4165927522601719  0.9583245689497298  0.3996580849175637
  0.5415610258103422  0.0823556030921540  0.3996426434298094
  0.5423751722408415  0.2080576980455890  0.4005829963250831
  0.5439341596169462  0.3335220936940141  0.4023811484817763
  0.5489922459270585  0.4590297465112107  0.4041403336443908
  0.5377831155317085  0.7009980745878857  0.4028952522366328
  0.5401770905519974  0.8298658156951256  0.4012289371676793
  0.5409436762924739  0.9564170046310491  0.3999753310249762
  0.6660137914694868  0.0815802552003559  0.3995013798091241
  0.6666615079276187  0.2070928320057885  0.3994346055292746
  0.6679402822607435  0.3325746437062145  0.4003317000343543
  0.6708543206789198  0.4583226697538884  0.4019626730946947
  0.6721299062641602  0.5840045370876975  0.4031349363178098
  0.6667865938948279  0.7060183828909502  0.4026116300049795
  0.6644609886088138  0.8298101976145945  0.4014694859607114
  0.6653788766228608  0.9558690412355022  0.4002996216207792
  0.7905689422559889  0.0815388465957105  0.3995522148527751
  0.7909826214716794  0.2069125482347486  0.3990879033683206
  0.7918620792272567  0.3324312496147194  0.3989142716493806
  0.7934715530639193  0.4581143361979297  0.3994087429394001
  0.7946396809710555  0.5838074551731045  0.4004485353709935
  0.7937376901660880  0.7089444259090157  0.4009763037048971
  0.7912496176041364  0.8322401405626344  0.4007211091986151
  0.7902934893049783  0.9563479010721956  0.4001174631642900
  0.9156976263481211  0.0822947575795132  0.3996661217509953
  0.9154519497721013  0.2071096452259498  0.3993902718453970
  0.9157050935851679  0.3324531595324608  0.3988614412679659
  0.9166701029150566  0.4581380462137383  0.3983946700952958
  0.9178418443830173  0.5838807509666173  0.3986708946853535
  0.9180623049486839  0.7092513408968331  0.3993735936485867
  0.9176064905751093  0.8341634983249451  0.3996857273794556
  0.9164894342060352  0.9581431188603823  0.3997548786912360
  0.0842155642683748  0.0433167532710052  0.4002128012794065
  0.0832683452383401  0.1675265017780354  0.4007046585914367
  0.0815458218244937  0.2913346472014675  0.4005355646877320
  0.0806184783180786  0.4161487180643054  0.3998320419949349
  0.0816285123919533  0.5418239231877098  0.3990225051101097
  0.0831097031631930  0.6675011377515528  0.3987267751646272
  0.0839117080236422  0.7930119617194173  0.3990464731010042
  0.0842460603204887  0.9183145212502734  0.3995678306031278
  0.2092733025913389  0.0439059300436363  0.4005151304890147
  0.2095500618104974  0.1694682187220677  0.4015575503594239
  0.2078252331113165  0.2936649183108336  0.4020130345050743
  0.2039625969259130  0.4167548514614383  0.4015552794221944
  0.2043145188707378  0.5416318154206655  0.4005464733761971
  0.2067950681267199  0.6673094470899286  0.3996009273780061
  0.2082502004974380  0.7928891068822628  0.3992096141916875
  0.2089251917760348  0.9183578877087318  0.3995475416845654
  0.3339310431995181  0.0435543910700687  0.4002500523378749
  0.3344595294406380  0.1698018779366290  0.4016713308155798
  0.3352538534371649  0.2972403749238658  0.4028955779811165
  0.3270024230061558  0.5422047729380061  0.4024178852678753
  0.3305629032767849  0.6666607056120859  0.4011208870578641
  0.3325585238461841  0.7920677644405937  0.3999482944829746
  0.3333768314026936  0.9176673007122873  0.3995286239322188
  0.4583757342913611  0.0417476798793085  0.3997832700313046
  0.4590324394482541  0.1676351206749462  0.4009112773475820
  0.4604842404114173  0.2936833702278641  0.4026225578636427
  0.4674230651732952  0.4191538338894324  0.4039938595417871
  0.4528661088721987  0.6617188499355431  0.4027306428013770
  0.4568330850657652  0.7898615537766814  0.4010967970119669
  0.4577706553850266  0.9159447824071872  0.3999235322815081
  0.5827788523311584  0.0401043193547659  0.3996029765277508
  0.5835202488599642  0.1658572621840658  0.3998011159278823
  0.5847298122927208  0.2912499442828870  0.4011222706777724
  0.5883745823197978  0.4166855899499086  0.4030659340931474
  0.5912171092216676  0.5426620945810834  0.4042704790174312
  0.5827140886445294  0.6611722209676563  0.4034153032544824
  0.5805093383003390  0.7862838815554570  0.4019595419145785
  0.5821304575401555  0.9138690716400161  0.4004943059939530
  0.7072877429810149  0.0396054550405594  0.3997457105533515
  0.7078763721696140  0.1651532258273848  0.3992445935671682
  0.7087914206460294  0.2906425916511385  0.3994603974815573
  0.7108706147831633  0.4160817623503875  0.4005039225592170
  0.7124907881258339  0.5415837956279507  0.4019661155805704
  0.7110825136263992  0.6670211616801734  0.4023413892011046
  0.7075169232320285  0.7896260696271584  0.4016311734630917
  0.7065939629297783  0.9138656683931596  0.4006053325857433
  0.8322255557763508  0.0400729179702260  0.3996917952181974
  0.8323476819546045  0.1651830262763066  0.3992672877736990
  0.8327908135180849  0.2904453815655541  0.3988378910601609
  0.8339868856171001  0.4160069134609139  0.3987205133910626
  0.8352759424202773  0.5417817341224420  0.3993707634866409
  0.8353880947872844  0.6673489993929279  0.4002279428305571
  0.8343603527194204  0.7921273321984089  0.4004038003579560
  0.8328476196536971  0.9157819484586464  0.4001215891992657
  0.9581572812421203  0.0416338458419717  0.3997948038935651
  0.9572857836806473  0.1657854940664987  0.3997263824417284
  0.9569626293939713  0.2907106730598078  0.3993199639750754
  0.9573008215227716  0.4160676752098640  0.3986542820864384
  0.9584344522992070  0.5417574572066973  0.3983626220391900
  0.9593448899560020  0.6674659819281649  0.3988472207123459
  0.9594356824775067  0.7928383759487350  0.3993701642272582
  0.9590326485400427  0.9175868227160754  0.3996122304728377
  0.4069180559700861  0.5822393853807550  0.4031217178699206
  0.5494684740824004  0.5809323397308913  0.4042664776762249
  0.3260587217353040  0.4184050982462991  0.4027964067012324
  0.4904475912606723  0.4946466910745844  0.5139506460933871
  0.4287235594301282  0.4995814886990028  0.4962296600466968
 
  0.00000000E+00  0.00000000E+00  0.00000000E+00
  0.00000000E+00  0.00000000E+00  0.00000000E+00
  0.00000000E+00  0.00000000E+00  0.00000000E+00
  0.00000000E+00  0.00000000E+00  0.00000000E+00
  0.00000000E+00  0.00000000E+00  0.00000000E+00
  0.00000000E+00  0.00000000E+00  0.00000000E+00
  0.00000000E+00  0.00000000E+00  0.00000000E+00
  0.00000000E+00  0.00000000E+00  0.00000000E+00
  0.00000000E+00  0.00000000E+00  0.00000000E+00
  0.00000000E+00  0.00000000E+00  0.00000000E+00
  0.00000000E+00  0.00000000E+00  0.00000000E+00
  0.00000000E+00  0.00000000E+00  0.00000000E+00
  0.00000000E+00  0.00000000E+00  0.00000000E+00
  0.00000000E+00  0.00000000E+00  0.00000000E+00
  0.00000000E+00  0.00000000E+00  0.00000000E+00
  0.00000000E+00  0.00000000E+00  0.00000000E+00
  0.00000000E+00  0.00000000E+00  0.00000000E+00
  0.00000000E+00  0.00000000E+00  0.00000000E+00
  0.00000000E+00  0.00000000E+00  0.00000000E+00
  0.00000000E+00  0.00000000E+00  0.00000000E+00
  0.00000000E+00  0.00000000E+00  0.00000000E+00
  0.00000000E+00  0.00000000E+00  0.00000000E+00
  0.00000000E+00  0.00000000E+00  0.00000000E+00
  0.00000000E+00  0.00000000E+00  0.00000000E+00
  0.00000000E+00  0.00000000E+00  0.00000000E+00
  0.00000000E+00  0.00000000E+00  0.00000000E+00
  0.00000000E+00  0.00000000E+00  0.00000000E+00
  0.00000000E+00  0.00000000E+00  0.00000000E+00
  0.00000000E+00  0.00000000E+00  0.00000000E+00
  0.00000000E+00  0.00000000E+00  0.00000000E+00
  0.00000000E+00  0.00000000E+00  0.00000000E+00
  0.00000000E+00  0.00000000E+00  0.00000000E+00
  0.00000000E+00  0.00000000E+00  0.00000000E+00
  0.00000000E+00  0.00000000E+00  0.00000000E+00
  0.00000000E+00  0.00000000E+00  0.00000000E+00
  0.00000000E+00  0.00000000E+00  0.00000000E+00
  0.00000000E+00  0.00000000E+00  0.00000000E+00
  0.00000000E+00  0.00000000E+00  0.00000000E+00
  0.00000000E+00  0.00000000E+00  0.00000000E+00
  0.00000000E+00  0.00000000E+00  0.00000000E+00
  0.00000000E+00  0.00000000E+00  0.00000000E+00
  0.00000000E+00  0.00000000E+00  0.00000000E+00
  0.00000000E+00  0.00000000E+00  0.00000000E+00
  0.00000000E+00  0.00000000E+00  0.00000000E+00
  0.00000000E+00  0.00000000E+00  0.00000000E+00
  0.00000000E+00  0.00000000E+00  0.00000000E+00
  0.00000000E+00  0.00000000E+00  0.00000000E+00
  0.00000000E+00  0.00000000E+00  0.00000000E+00
  0.00000000E+00  0.00000000E+00  0.00000000E+00
  0.00000000E+00  0.00000000E+00  0.00000000E+00
  0.00000000E+00  0.00000000E+00  0.00000000E+00
  0.00000000E+00  0.00000000E+00  0.00000000E+00
  0.00000000E+00  0.00000000E+00  0.00000000E+00
  0.00000000E+00  0.00000000E+00  0.00000000E+00
  0.00000000E+00  0.00000000E+00  0.00000000E+00
  0.00000000E+00  0.00000000E+00  0.00000000E+00
  0.00000000E+00  0.00000000E+00  0.00000000E+00
  0.00000000E+00  0.00000000E+00  0.00000000E+00
  0.00000000E+00  0.00000000E+00  0.00000000E+00
  0.00000000E+00  0.00000000E+00  0.00000000E+00
  0.00000000E+00  0.00000000E+00  0.00000000E+00
  0.00000000E+00  0.00000000E+00  0.00000000E+00
  0.00000000E+00  0.00000000E+00  0.00000000E+00
  0.00000000E+00  0.00000000E+00  0.00000000E+00
  0.00000000E+00  0.00000000E+00  0.00000000E+00
  0.00000000E+00  0.00000000E+00  0.00000000E+00
  0.00000000E+00  0.00000000E+00  0.00000000E+00
  0.00000000E+00  0.00000000E+00  0.00000000E+00
  0.00000000E+00  0.00000000E+00  0.00000000E+00
  0.00000000E+00  0.00000000E+00  0.00000000E+00
  0.00000000E+00  0.00000000E+00  0.00000000E+00
  0.00000000E+00  0.00000000E+00  0.00000000E+00
  0.00000000E+00  0.00000000E+00  0.00000000E+00
  0.00000000E+00  0.00000000E+00  0.00000000E+00
  0.00000000E+00  0.00000000E+00  0.00000000E+00
  0.00000000E+00  0.00000000E+00  0.00000000E+00
  0.00000000E+00  0.00000000E+00  0.00000000E+00
  0.00000000E+00  0.00000000E+00  0.00000000E+00
  0.00000000E+00  0.00000000E+00  0.00000000E+00
  0.00000000E+00  0.00000000E+00  0.00000000E+00
  0.00000000E+00  0.00000000E+00  0.00000000E+00
  0.00000000E+00  0.00000000E+00  0.00000000E+00
  0.00000000E+00  0.00000000E+00  0.00000000E+00
  0.00000000E+00  0.00000000E+00  0.00000000E+00
  0.00000000E+00  0.00000000E+00  0.00000000E+00
  0.00000000E+00  0.00000000E+00  0.00000000E+00
  0.00000000E+00  0.00000000E+00  0.00000000E+00
  0.00000000E+00  0.00000000E+00  0.00000000E+00
  0.00000000E+00  0.00000000E+00  0.00000000E+00
  0.00000000E+00  0.00000000E+00  0.00000000E+00
  0.00000000E+00  0.00000000E+00  0.00000000E+00
  0.00000000E+00  0.00000000E+00  0.00000000E+00
  0.00000000E+00  0.00000000E+00  0.00000000E+00
  0.00000000E+00  0.00000000E+00  0.00000000E+00
  0.00000000E+00  0.00000000E+00  0.00000000E+00
  0.00000000E+00  0.00000000E+00  0.00000000E+00
  0.00000000E+00  0.00000000E+00  0.00000000E+00
  0.00000000E+00  0.00000000E+00  0.00000000E+00
  0.00000000E+00  0.00000000E+00  0.00000000E+00
  0.00000000E+00  0.00000000E+00  0.00000000E+00
  0.00000000E+00  0.00000000E+00  0.00000000E+00
  0.00000000E+00  0.00000000E+00  0.00000000E+00
  0.00000000E+00  0.00000000E+00  0.00000000E+00
  0.00000000E+00  0.00000000E+00  0.00000000E+00
  0.00000000E+00  0.00000000E+00  0.00000000E+00
  0.00000000E+00  0.00000000E+00  0.00000000E+00
  0.00000000E+00  0.00000000E+00  0.00000000E+00
  0.00000000E+00  0.00000000E+00  0.00000000E+00
  0.00000000E+00  0.00000000E+00  0.00000000E+00
  0.00000000E+00  0.00000000E+00  0.00000000E+00
  0.00000000E+00  0.00000000E+00  0.00000000E+00
  0.00000000E+00  0.00000000E+00  0.00000000E+00
  0.00000000E+00  0.00000000E+00  0.00000000E+00
  0.00000000E+00  0.00000000E+00  0.00000000E+00
  0.00000000E+00  0.00000000E+00  0.00000000E+00
  0.00000000E+00  0.00000000E+00  0.00000000E+00
  0.00000000E+00  0.00000000E+00  0.00000000E+00
  0.00000000E+00  0.00000000E+00  0.00000000E+00
  0.00000000E+00  0.00000000E+00  0.00000000E+00
  0.00000000E+00  0.00000000E+00  0.00000000E+00
  0.00000000E+00  0.00000000E+00  0.00000000E+00
  0.00000000E+00  0.00000000E+00  0.00000000E+00
  0.00000000E+00  0.00000000E+00  0.00000000E+00
  0.00000000E+00  0.00000000E+00  0.00000000E+00
  0.00000000E+00  0.00000000E+00  0.00000000E+00
  0.00000000E+00  0.00000000E+00  0.00000000E+00
  0.00000000E+00  0.00000000E+00  0.00000000E+00
  0.00000000E+00  0.00000000E+00  0.00000000E+00
  0.00000000E+00  0.00000000E+00  0.00000000E+00
  0.00000000E+00  0.00000000E+00  0.00000000E+00
