H1 Os1 C126 O1                          
   1.00000000000000     
    19.8106799413894770   -0.0000194668518449   -0.0448007967604052
    -9.9053760451232247   17.0458432088407328    0.0734078750877319
    -0.0673353090373660    0.0890970090174135   29.7982361331100414
   H    Os   C    O 
     1     1   126     1
Direct
  0.4919829513285761  0.5612554712340272  0.5093969951602474
  0.4389921294014836  0.5014350899119199  0.4319349695354743
  0.0420590863698070  0.0841343607912843  0.3998095005517481
  0.0409408934866427  0.2080460593049758  0.3996087374181994
  0.0402872413380716  0.3326226932238272  0.3995412403262423
  0.0403429906711533  0.4580915834534137  0.3996173480451840
  0.0412761054921201  0.5836681479807778  0.3998762078143527
  0.0420709721079991  0.7090525243830346  0.4000168791721194
  0.0423988330421100  0.8344765632341246  0.4000331955363456
  0.0424312247830636  0.9595177622566834  0.3999309749676129
  0.1677172032758630  0.0853906784619786  0.3999405287167438
  0.1676280788194095  0.2103220140308210  0.3997497579324466
  0.1653650459511897  0.3333603184124891  0.3995722338836338
  0.1638994428984187  0.4581344901311351  0.3991894898036428
  0.1649661809624724  0.5834272844342974  0.3992546161008458
  0.1664648880772901  0.7089589285853070  0.3997869882759902
  0.1671258330205788  0.8344511371361036  0.4000206831720651
  0.1675005287731628  0.9599543998736957  0.4000396646488394
  0.2927045172067297  0.0853811586715657  0.3999247073572276
  0.2934976133928810  0.2119520920289404  0.4004078158774235
  0.2938765006608332  0.3381136772531481  0.4016655051504313
  0.2868818501606606  0.4580482210795102  0.4012948078488454
  0.2885459868583866  0.5833939062591053  0.3994494728386256
  0.2909151412397815  0.7085885714808228  0.3993378356058644
  0.2916352240584747  0.8338573291161067  0.3997840403697478
  0.2921374610787856  0.9594794651970984  0.3999387076051182
  0.4171246651997157  0.0840777934521932  0.3998225135918332
  0.4177309845288727  0.2102921277430243  0.3996026334792777
  0.4193421272288630  0.3380422812006154  0.4014418439006776
  0.4103308154945546  0.5782453633496131  0.4058687263393075
  0.4151801013557381  0.7057611603245327  0.4001591060013654
  0.4161517877912337  0.8322110885374676  0.3995762609784388
  0.4166870517912343  0.9581633502545316  0.3998480971880992
  0.5415735806798045  0.0825306975820310  0.3999272640559482
  0.5421425168296207  0.2080211430806206  0.3996430987976834
  0.5430817558703771  0.3333629364188654  0.3991365544937309
  0.5462124699638045  0.4580628214590740  0.4005425456637880
  0.5434306974418657  0.5784724466557638  0.4065528051749290
  0.5396387910569519  0.7041460422119868  0.4023924356282774
  0.5405804967374956  0.8308324504197311  0.3999591360707243
  0.5411478867914036  0.9568551381683224  0.3998187624986159
  0.6661167211382091  0.0819136289063145  0.4000333913536164
  0.6665767902717051  0.2073008371170631  0.3999505935980657
  0.6673862329131035  0.3326298877366903  0.3995910071455911
  0.6692910940087988  0.4581491504628771  0.3988347345721218
  0.6699202938024540  0.5833848308205773  0.3990289399870148
  0.6657442526108768  0.7058826408803262  0.4000084558347264
  0.6653203792423452  0.8308750270929095  0.3999124574091568
  0.6657507867148976  0.9564484244800104  0.3999299432565114
  0.7908560066687974  0.0819338427497128  0.4000133470976522
  0.7910692347161646  0.2070931614672788  0.4000006031959629
  0.7916848171381089  0.3325345678612150  0.3999339924942036
  0.7927857568353032  0.4580867061926544  0.3997470699851903
  0.7935360918125007  0.5834489183359344  0.3992650228330613
  0.7927672109069828  0.7086413478406367  0.3992803263695861
  0.7912062099286445  0.8323181917711452  0.3994941812028590
  0.7907808433158571  0.9569181923972034  0.3997795368201154
  0.9160504471824137  0.0825833746563858  0.3998521401203061
  0.9157614260682070  0.2073067103578903  0.3998845599633807
  0.9159096187960939  0.3325513044447488  0.3998929114372743
  0.9165235664151584  0.4580000556112843  0.3999321827817746
  0.9174572499858227  0.5836767550552897  0.3999323059768284
  0.9175852382887167  0.7090033679092524  0.3998510600426015
  0.9173152307773613  0.8339219089164434  0.3998021737636645
  0.9166144839771507  0.9582492584360907  0.3998265641752730
  0.0842163798285186  0.0430828285186691  0.3998799270425882
  0.0838060170201737  0.1676643184116307  0.3996774860835563
  0.0820602814333911  0.2912348936556491  0.3994514743325826
  0.0813732616661501  0.4162767062562751  0.3993464777914885
  0.0821424953624857  0.5416563790513835  0.3996107881225584
  0.0832606183961074  0.6672245254616066  0.3999249421627349
  0.0838965053067463  0.7927274082200336  0.4000527489577347
  0.0841243416176181  0.9179878518774987  0.4000005207774530
  0.2092668215737711  0.0434937813344584  0.4000235557502121
  0.2095813929127356  0.1691413638293172  0.4000124340620252
  0.2093313632344289  0.2941461147694548  0.3999498583656065
  0.2049113198616442  0.4163112358333061  0.3996611432575664
  0.2055286367162044  0.5415134174965384  0.3990586221870311
  0.2075942001801996  0.6671439006589968  0.3994196600098170
  0.2084332184065135  0.7925245893801418  0.3999023182570995
  0.2089190651352387  0.9179769809420766  0.4000231121023148
  0.3338800477949416  0.0430341169068973  0.3998723431820996
  0.3345716578498947  0.1691079827258821  0.3999602237785503
  0.3353740849166610  0.2956479563834990  0.4015426739067721
  0.3321878800262179  0.4215857173095423  0.4045175998817964
  0.3284332709750387  0.5416539078428797  0.4013681447888410
  0.3320051196092679  0.6665573103996631  0.3995297143198135
  0.3329375497133030  0.7918030010533456  0.3995430819896821
  0.3334412168653758  0.9172758590155055  0.3998744319148938
  0.4584118190498163  0.0416494233874357  0.3998850031985042
  0.4588930768275462  0.1675878306438925  0.3996447062722303
  0.4598837306713802  0.2940964938324492  0.3995948234823232
  0.4644656259538689  0.4215187634409650  0.4043555358333741
  0.4558390727745146  0.6619131493151447  0.4024358089249619
  0.4572958289009230  0.7896020207048939  0.3997477801901719
  0.4579590003219494  0.9157968173530057  0.3997472005098488
  0.5829169050951565  0.0403901317254576  0.3999483107263025
  0.5834054820170055  0.1659381332198329  0.3998800536766866
  0.5842404546985772  0.2912076468352842  0.3993743119037266
  0.5864635254153764  0.4163274225191720  0.3989171669407558
  0.5883324131907890  0.5415891668905016  0.4009312352492773
  0.5813362142662706  0.6621927894114763  0.4024960340879041
  0.5816732195069003  0.7882808035752158  0.4005683434824546
  0.5824187352202446  0.9146038395299192  0.3998104814848443
  0.7075448085101893  0.0400242026278254  0.4000431849161528
  0.7079417996125601  0.1654181729908079  0.4000225407869704
  0.7085520895961973  0.2907760885689945  0.3999058984676328
  0.7099780146895940  0.4162691605212568  0.3993707914478285
  0.7110786208601416  0.5415183569443242  0.3987674625015009
  0.7096901911113919  0.6666301728894175  0.3993319452342518
  0.7074175785360787  0.7897201317649849  0.3996203703123108
  0.7072548690694105  0.9146572987696351  0.3997854967226074
  0.8325741476031157  0.0404350540303871  0.3999040866425578
  0.8325510623537296  0.1654384798482134  0.3999938816723180
  0.8329156600935592  0.2907223753698940  0.3999449101329990
  0.8336962909993103  0.4160875375270942  0.3999271435900116
  0.8345888002600903  0.5416665599536753  0.3997175049914924
  0.8346401373938704  0.6671614833806524  0.3994508701398742
  0.8339555240114269  0.7918793559961712  0.3995125659112100
  0.8329712338958087  0.9158892846257487  0.3997023929465606
  0.9583753335875160  0.0417456112716323  0.3998392353636983
  0.9576275852641999  0.1659906357845053  0.3997837408885496
  0.9573124321715010  0.2908034208166396  0.3998180035221662
  0.9574772013471194  0.4161037044145106  0.3998534979579288
  0.9584142439727851  0.5417563699029750  0.3999492020677260
  0.9590396394193750  0.6672346569148888  0.3999582527773671
  0.9591668330018754  0.7925587343765146  0.3999362685990719
  0.9589405595708315  0.9173561905336012  0.3998768879680237
  0.4489188560221875  0.5159445201722836  0.4948695964567830
 
  0.00000000E+00  0.00000000E+00  0.00000000E+00
  0.00000000E+00  0.00000000E+00  0.00000000E+00
  0.00000000E+00  0.00000000E+00  0.00000000E+00
  0.00000000E+00  0.00000000E+00  0.00000000E+00
  0.00000000E+00  0.00000000E+00  0.00000000E+00
  0.00000000E+00  0.00000000E+00  0.00000000E+00
  0.00000000E+00  0.00000000E+00  0.00000000E+00
  0.00000000E+00  0.00000000E+00  0.00000000E+00
  0.00000000E+00  0.00000000E+00  0.00000000E+00
  0.00000000E+00  0.00000000E+00  0.00000000E+00
  0.00000000E+00  0.00000000E+00  0.00000000E+00
  0.00000000E+00  0.00000000E+00  0.00000000E+00
  0.00000000E+00  0.00000000E+00  0.00000000E+00
  0.00000000E+00  0.00000000E+00  0.00000000E+00
  0.00000000E+00  0.00000000E+00  0.00000000E+00
  0.00000000E+00  0.00000000E+00  0.00000000E+00
  0.00000000E+00  0.00000000E+00  0.00000000E+00
  0.00000000E+00  0.00000000E+00  0.00000000E+00
  0.00000000E+00  0.00000000E+00  0.00000000E+00
  0.00000000E+00  0.00000000E+00  0.00000000E+00
  0.00000000E+00  0.00000000E+00  0.00000000E+00
  0.00000000E+00  0.00000000E+00  0.00000000E+00
  0.00000000E+00  0.00000000E+00  0.00000000E+00
  0.00000000E+00  0.00000000E+00  0.00000000E+00
  0.00000000E+00  0.00000000E+00  0.00000000E+00
  0.00000000E+00  0.00000000E+00  0.00000000E+00
  0.00000000E+00  0.00000000E+00  0.00000000E+00
  0.00000000E+00  0.00000000E+00  0.00000000E+00
  0.00000000E+00  0.00000000E+00  0.00000000E+00
  0.00000000E+00  0.00000000E+00  0.00000000E+00
  0.00000000E+00  0.00000000E+00  0.00000000E+00
  0.00000000E+00  0.00000000E+00  0.00000000E+00
  0.00000000E+00  0.00000000E+00  0.00000000E+00
  0.00000000E+00  0.00000000E+00  0.00000000E+00
  0.00000000E+00  0.00000000E+00  0.00000000E+00
  0.00000000E+00  0.00000000E+00  0.00000000E+00
  0.00000000E+00  0.00000000E+00  0.00000000E+00
  0.00000000E+00  0.00000000E+00  0.00000000E+00
  0.00000000E+00  0.00000000E+00  0.00000000E+00
  0.00000000E+00  0.00000000E+00  0.00000000E+00
  0.00000000E+00  0.00000000E+00  0.00000000E+00
  0.00000000E+00  0.00000000E+00  0.00000000E+00
  0.00000000E+00  0.00000000E+00  0.00000000E+00
  0.00000000E+00  0.00000000E+00  0.00000000E+00
  0.00000000E+00  0.00000000E+00  0.00000000E+00
  0.00000000E+00  0.00000000E+00  0.00000000E+00
  0.00000000E+00  0.00000000E+00  0.00000000E+00
  0.00000000E+00  0.00000000E+00  0.00000000E+00
  0.00000000E+00  0.00000000E+00  0.00000000E+00
  0.00000000E+00  0.00000000E+00  0.00000000E+00
  0.00000000E+00  0.00000000E+00  0.00000000E+00
  0.00000000E+00  0.00000000E+00  0.00000000E+00
  0.00000000E+00  0.00000000E+00  0.00000000E+00
  0.00000000E+00  0.00000000E+00  0.00000000E+00
  0.00000000E+00  0.00000000E+00  0.00000000E+00
  0.00000000E+00  0.00000000E+00  0.00000000E+00
  0.00000000E+00  0.00000000E+00  0.00000000E+00
  0.00000000E+00  0.00000000E+00  0.00000000E+00
  0.00000000E+00  0.00000000E+00  0.00000000E+00
  0.00000000E+00  0.00000000E+00  0.00000000E+00
  0.00000000E+00  0.00000000E+00  0.00000000E+00
  0.00000000E+00  0.00000000E+00  0.00000000E+00
  0.00000000E+00  0.00000000E+00  0.00000000E+00
  0.00000000E+00  0.00000000E+00  0.00000000E+00
  0.00000000E+00  0.00000000E+00  0.00000000E+00
  0.00000000E+00  0.00000000E+00  0.00000000E+00
  0.00000000E+00  0.00000000E+00  0.00000000E+00
  0.00000000E+00  0.00000000E+00  0.00000000E+00
  0.00000000E+00  0.00000000E+00  0.00000000E+00
  0.00000000E+00  0.00000000E+00  0.00000000E+00
  0.00000000E+00  0.00000000E+00  0.00000000E+00
  0.00000000E+00  0.00000000E+00  0.00000000E+00
  0.00000000E+00  0.00000000E+00  0.00000000E+00
  0.00000000E+00  0.00000000E+00  0.00000000E+00
  0.00000000E+00  0.00000000E+00  0.00000000E+00
  0.00000000E+00  0.00000000E+00  0.00000000E+00
  0.00000000E+00  0.00000000E+00  0.00000000E+00
  0.00000000E+00  0.00000000E+00  0.00000000E+00
  0.00000000E+00  0.00000000E+00  0.00000000E+00
  0.00000000E+00  0.00000000E+00  0.00000000E+00
  0.00000000E+00  0.00000000E+00  0.00000000E+00
  0.00000000E+00  0.00000000E+00  0.00000000E+00
  0.00000000E+00  0.00000000E+00  0.00000000E+00
  0.00000000E+00  0.00000000E+00  0.00000000E+00
  0.00000000E+00  0.00000000E+00  0.00000000E+00
  0.00000000E+00  0.00000000E+00  0.00000000E+00
  0.00000000E+00  0.00000000E+00  0.00000000E+00
  0.00000000E+00  0.00000000E+00  0.00000000E+00
  0.00000000E+00  0.00000000E+00  0.00000000E+00
  0.00000000E+00  0.00000000E+00  0.00000000E+00
  0.00000000E+00  0.00000000E+00  0.00000000E+00
  0.00000000E+00  0.00000000E+00  0.00000000E+00
  0.00000000E+00  0.00000000E+00  0.00000000E+00
  0.00000000E+00  0.00000000E+00  0.00000000E+00
  0.00000000E+00  0.00000000E+00  0.00000000E+00
  0.00000000E+00  0.00000000E+00  0.00000000E+00
  0.00000000E+00  0.00000000E+00  0.00000000E+00
  0.00000000E+00  0.00000000E+00  0.00000000E+00
  0.00000000E+00  0.00000000E+00  0.00000000E+00
  0.00000000E+00  0.00000000E+00  0.00000000E+00
  0.00000000E+00  0.00000000E+00  0.00000000E+00
  0.00000000E+00  0.00000000E+00  0.00000000E+00
  0.00000000E+00  0.00000000E+00  0.00000000E+00
  0.00000000E+00  0.00000000E+00  0.00000000E+00
  0.00000000E+00  0.00000000E+00  0.00000000E+00
  0.00000000E+00  0.00000000E+00  0.00000000E+00
  0.00000000E+00  0.00000000E+00  0.00000000E+00
  0.00000000E+00  0.00000000E+00  0.00000000E+00
  0.00000000E+00  0.00000000E+00  0.00000000E+00
  0.00000000E+00  0.00000000E+00  0.00000000E+00
  0.00000000E+00  0.00000000E+00  0.00000000E+00
  0.00000000E+00  0.00000000E+00  0.00000000E+00
  0.00000000E+00  0.00000000E+00  0.00000000E+00
  0.00000000E+00  0.00000000E+00  0.00000000E+00
  0.00000000E+00  0.00000000E+00  0.00000000E+00
  0.00000000E+00  0.00000000E+00  0.00000000E+00
  0.00000000E+00  0.00000000E+00  0.00000000E+00
  0.00000000E+00  0.00000000E+00  0.00000000E+00
  0.00000000E+00  0.00000000E+00  0.00000000E+00
  0.00000000E+00  0.00000000E+00  0.00000000E+00
  0.00000000E+00  0.00000000E+00  0.00000000E+00
  0.00000000E+00  0.00000000E+00  0.00000000E+00
  0.00000000E+00  0.00000000E+00  0.00000000E+00
  0.00000000E+00  0.00000000E+00  0.00000000E+00
  0.00000000E+00  0.00000000E+00  0.00000000E+00
  0.00000000E+00  0.00000000E+00  0.00000000E+00
  0.00000000E+00  0.00000000E+00  0.00000000E+00
  0.00000000E+00  0.00000000E+00  0.00000000E+00
  0.00000000E+00  0.00000000E+00  0.00000000E+00
