H1 Ir1 C126 O1                          
   1.00000000000000     
    19.7993225216695983    0.0009565443685512    0.0444713873942860
    -9.8994754103993277   17.0431567074476256    0.4171600283269093
     0.0666776453540079    0.7677062979093741   29.8386954888893179
   H    Ir   C    O 
     1     1   126     1
Direct
  0.5117658193622884  0.5928081111900659  0.4943985219284870
  0.4354805418057386  0.4966627453556676  0.4343048793765291
  0.0418073293887822  0.0836714146299072  0.3993246585755351
  0.0409136222125461  0.2077795386679196  0.3991479772106050
  0.0403770159383518  0.3324672941232451  0.3988781258605966
  0.0403555917814604  0.4578490978081133  0.3988332571469696
  0.0410908948331731  0.5833185957161637  0.3988257615852732
  0.0418624450434119  0.7087424277760032  0.3987143773000918
  0.0421627526550881  0.8340071623242329  0.3989680092668866
  0.0421264956877814  0.9590157633249559  0.3993030735534688
  0.1673662859381375  0.0847191104125710  0.3997128568578082
  0.1673210323747169  0.2097094084406275  0.3998042843041422
  0.1654646173655541  0.3330579031383326  0.3991639839482654
  0.1642559587320767  0.4579475127429967  0.3985059533517294
  0.1650120393426967  0.5832497067388420  0.3986166022993838
  0.1662452405729289  0.7086285945987760  0.3989382961245855
  0.1668027286412740  0.8339722636249772  0.3990780546502652
  0.1671475396035056  0.9593568845994126  0.3994112469354938
  0.2922154332647751  0.0846815109539087  0.3997848551380435
  0.2928507643427570  0.2108678934744275  0.4011095108761171
  0.2933703904400888  0.3369982214530895  0.4027022850157748
  0.2875156252787021  0.4575636324997309  0.4011327149853867
  0.2885004062159429  0.5832426117985522  0.3996191965658862
  0.2905837271604687  0.7082110502819375  0.3995448130655967
  0.2913700204811503  0.8334759560140178  0.3992956432122998
  0.2918278009987885  0.9589797151836800  0.3993180870103211
  0.4167750181262176  0.0836709880520215  0.3993490183545639
  0.4171935257831827  0.2096612703227443  0.4003659405837846
  0.4181410592796734  0.3365453359675407  0.4043325173695125
  0.4086454887573429  0.5778893644901963  0.4089262670887931
  0.4147127640574784  0.7052895307051197  0.4025026804907972
  0.4158668420415000  0.8318737414613897  0.4001997386376819
  0.4163765180515602  0.9578211113850776  0.3993558221470232
  0.5413033826875736  0.0823192070367741  0.3990415712893306
  0.5417185468320138  0.2078138255255230  0.3991915035969300
  0.5424276156823111  0.3330310904616847  0.4003030859262129
  0.5449856327170950  0.4575443186772429  0.4039827297716668
  0.5446548792204593  0.5783342521732564  0.4113186100332518
  0.5391418102220326  0.7034368683136373  0.4073058533747140
  0.5401279672771143  0.8302674226529918  0.4022211006355113
  0.5408613964542858  0.9565144970999436  0.3996634644833691
  0.6658637905464526  0.0816745717320913  0.3990380391138090
  0.6662821762489571  0.2071764288156136  0.3989154310496772
  0.6669438889137210  0.3325564338433078  0.3986343254050128
  0.6685686320790953  0.4580118119575712  0.3989090595043415
  0.6697739544546012  0.5832518318209695  0.4008503427950325
  0.6657719106636925  0.7054177412529192  0.4036019560881992
  0.6650864288704530  0.8303088114274954  0.4025864561541499
  0.6654681298566499  0.9560554427757340  0.4001184282885611
  0.7906740316226540  0.0816719311495288  0.3991266746847437
  0.7908822315994903  0.2069379245420655  0.3990610674627239
  0.7914045935404553  0.3323773739354822  0.3988820397131319
  0.7923868720249058  0.4579429075551051  0.3982300893832530
  0.7932435202443405  0.5833686734669169  0.3982003313008662
  0.7926992668065689  0.7082977416736673  0.3996372861299240
  0.7910431305275579  0.8319488768627205  0.4003906567687566
  0.7905879141749642  0.9565524880409254  0.3997816218511427
  0.9158976865163150  0.0822997180096938  0.3991766186090011
  0.9156968697418666  0.2071221939063269  0.3991798115193044
  0.9157943983122921  0.3323391385827710  0.3992071584303296
  0.9163111537649562  0.4577741028208900  0.3988637766091557
  0.9171728126412740  0.5833874201836051  0.3984155228108349
  0.9174162864292008  0.7087237472798562  0.3984837964822822
  0.9171380746349236  0.8335581326664754  0.3991299967962167
  0.9164290662788324  0.9578722408562234  0.3993386654223544
  0.0838876844215284  0.0425456500702214  0.3994375157777283
  0.0835903639644652  0.1672169539804143  0.3993497195179683
  0.0821599051220706  0.2910339328662337  0.3988950131489472
  0.0815831448201517  0.4160962398046082  0.3986318147794504
  0.0820800587022920  0.5414002709003137  0.3987606565012788
  0.0830896051645588  0.6669049547811293  0.3988169771978201
  0.0836668630157608  0.7923301917315684  0.3988935568542955
  0.0838431758701553  0.9175081157101808  0.3992647554679907
  0.2089028306136217  0.0428932649570819  0.3996661598297840
  0.2091993341957321  0.1683759123791449  0.4001495078607764
  0.2091026987332411  0.2934842643288366  0.4002318637046877
  0.2054069813917365  0.4160784814026141  0.3990092388265168
  0.2057760771280393  0.5414079202234431  0.3985286729812986
  0.2074690825415774  0.6668146061269544  0.3989328642639302
  0.2081917468342133  0.7921013144569186  0.3990964361883153
  0.2086186247449250  0.9174943949560406  0.3992657249603659
  0.3335604487080206  0.0425196397886311  0.3994576398449911
  0.3340080634016269  0.1683390792743492  0.4004504738973492
  0.3346130359872920  0.2944213850017383  0.4031572592826546
  0.3323710698714326  0.4204040727709250  0.4049453498286225
  0.3285344110318551  0.5410842091793299  0.4021093905799840
  0.3317190002461405  0.6660642681648994  0.4004910558581510
  0.3326680370363614  0.7914163773395418  0.3996688690336675
  0.3332219684577708  0.9169126874511513  0.3993183666003084
  0.4581228113838310  0.0413699078134692  0.3991896473959031
  0.4585094376041136  0.1672244103782697  0.3995251659824262
  0.4591625835984125  0.2933549738885302  0.4015322015253629
  0.4628384588745211  0.4195972511253422  0.4084393366289428
  0.4551959647460145  0.6612122844099872  0.4062146213933135
  0.4569917244244961  0.7891489365330328  0.4016455047616961
  0.4576782609020880  0.9154450346451168  0.3997279908859785
  0.5826570524281187  0.0401653219303827  0.3991228094232157
  0.5830816444215706  0.1657981180197130  0.3989821918875431
  0.5837074465099101  0.2910952645952519  0.3991465179194547
  0.5855116690568832  0.4160675212828358  0.4005297648117433
  0.5875941175406094  0.5410021398425238  0.4047264208471826
  0.5812374867924557  0.6614078564721454  0.4076674013384549
  0.5811522340369044  0.7874121733058289  0.4041812400147363
  0.5820703791391499  0.9141445704292879  0.4005508152353943
  0.7073120666122895  0.0397462295427833  0.3992717856323069
  0.7076665426290217  0.1652617843623938  0.3989543345212396
  0.7082157709291709  0.2906940670567915  0.3987673641886848
  0.7093809339252173  0.4161693836016130  0.3983106016662393
  0.7105963245108804  0.5414663685127989  0.3988350279661759
  0.7094419441704570  0.6661128672936206  0.4013568798853493
  0.7072242610116328  0.7892485292685220  0.4022272464540264
  0.7069914376899719  0.9141670419086585  0.4006993804820161
  0.8324148172430226  0.0401767035069532  0.3992475046756719
  0.8324128095835274  0.1652405776646144  0.3990987877183324
  0.8327084459391643  0.2905709744997645  0.3991313785267008
  0.8333678051640293  0.4159624867686736  0.3986750747561980
  0.8342799099598363  0.5415019533178269  0.3981225087952693
  0.8344026139064723  0.6669196565768710  0.3985639341446123
  0.8337844768273054  0.7914921219417919  0.3996716912154416
  0.8327670267931464  0.9155197795338587  0.3997677993086672
  0.9581834016694184  0.0413848790821278  0.3992300693004419
  0.9575342520312145  0.1657492429625046  0.3991648799561266
  0.9572698878876794  0.2906245250541412  0.3991734560882475
  0.9574073775349026  0.4159115797863894  0.3990576803397604
  0.9581854282166344  0.5414690916566214  0.3987222458065528
  0.9588217817722915  0.6669671989322317  0.3984702209533352
  0.9589374916866241  0.7921820811167674  0.3988326583288901
  0.9587012786752478  0.9169719943895347  0.3992498743820795
  0.4671170430209600  0.5396102929889474  0.4927870197679375
 
  0.00000000E+00  0.00000000E+00  0.00000000E+00
  0.00000000E+00  0.00000000E+00  0.00000000E+00
  0.00000000E+00  0.00000000E+00  0.00000000E+00
  0.00000000E+00  0.00000000E+00  0.00000000E+00
  0.00000000E+00  0.00000000E+00  0.00000000E+00
  0.00000000E+00  0.00000000E+00  0.00000000E+00
  0.00000000E+00  0.00000000E+00  0.00000000E+00
  0.00000000E+00  0.00000000E+00  0.00000000E+00
  0.00000000E+00  0.00000000E+00  0.00000000E+00
  0.00000000E+00  0.00000000E+00  0.00000000E+00
  0.00000000E+00  0.00000000E+00  0.00000000E+00
  0.00000000E+00  0.00000000E+00  0.00000000E+00
  0.00000000E+00  0.00000000E+00  0.00000000E+00
  0.00000000E+00  0.00000000E+00  0.00000000E+00
  0.00000000E+00  0.00000000E+00  0.00000000E+00
  0.00000000E+00  0.00000000E+00  0.00000000E+00
  0.00000000E+00  0.00000000E+00  0.00000000E+00
  0.00000000E+00  0.00000000E+00  0.00000000E+00
  0.00000000E+00  0.00000000E+00  0.00000000E+00
  0.00000000E+00  0.00000000E+00  0.00000000E+00
  0.00000000E+00  0.00000000E+00  0.00000000E+00
  0.00000000E+00  0.00000000E+00  0.00000000E+00
  0.00000000E+00  0.00000000E+00  0.00000000E+00
  0.00000000E+00  0.00000000E+00  0.00000000E+00
  0.00000000E+00  0.00000000E+00  0.00000000E+00
  0.00000000E+00  0.00000000E+00  0.00000000E+00
  0.00000000E+00  0.00000000E+00  0.00000000E+00
  0.00000000E+00  0.00000000E+00  0.00000000E+00
  0.00000000E+00  0.00000000E+00  0.00000000E+00
  0.00000000E+00  0.00000000E+00  0.00000000E+00
  0.00000000E+00  0.00000000E+00  0.00000000E+00
  0.00000000E+00  0.00000000E+00  0.00000000E+00
  0.00000000E+00  0.00000000E+00  0.00000000E+00
  0.00000000E+00  0.00000000E+00  0.00000000E+00
  0.00000000E+00  0.00000000E+00  0.00000000E+00
  0.00000000E+00  0.00000000E+00  0.00000000E+00
  0.00000000E+00  0.00000000E+00  0.00000000E+00
  0.00000000E+00  0.00000000E+00  0.00000000E+00
  0.00000000E+00  0.00000000E+00  0.00000000E+00
  0.00000000E+00  0.00000000E+00  0.00000000E+00
  0.00000000E+00  0.00000000E+00  0.00000000E+00
  0.00000000E+00  0.00000000E+00  0.00000000E+00
  0.00000000E+00  0.00000000E+00  0.00000000E+00
  0.00000000E+00  0.00000000E+00  0.00000000E+00
  0.00000000E+00  0.00000000E+00  0.00000000E+00
  0.00000000E+00  0.00000000E+00  0.00000000E+00
  0.00000000E+00  0.00000000E+00  0.00000000E+00
  0.00000000E+00  0.00000000E+00  0.00000000E+00
  0.00000000E+00  0.00000000E+00  0.00000000E+00
  0.00000000E+00  0.00000000E+00  0.00000000E+00
  0.00000000E+00  0.00000000E+00  0.00000000E+00
  0.00000000E+00  0.00000000E+00  0.00000000E+00
  0.00000000E+00  0.00000000E+00  0.00000000E+00
  0.00000000E+00  0.00000000E+00  0.00000000E+00
  0.00000000E+00  0.00000000E+00  0.00000000E+00
  0.00000000E+00  0.00000000E+00  0.00000000E+00
  0.00000000E+00  0.00000000E+00  0.00000000E+00
  0.00000000E+00  0.00000000E+00  0.00000000E+00
  0.00000000E+00  0.00000000E+00  0.00000000E+00
  0.00000000E+00  0.00000000E+00  0.00000000E+00
  0.00000000E+00  0.00000000E+00  0.00000000E+00
  0.00000000E+00  0.00000000E+00  0.00000000E+00
  0.00000000E+00  0.00000000E+00  0.00000000E+00
  0.00000000E+00  0.00000000E+00  0.00000000E+00
  0.00000000E+00  0.00000000E+00  0.00000000E+00
  0.00000000E+00  0.00000000E+00  0.00000000E+00
  0.00000000E+00  0.00000000E+00  0.00000000E+00
  0.00000000E+00  0.00000000E+00  0.00000000E+00
  0.00000000E+00  0.00000000E+00  0.00000000E+00
  0.00000000E+00  0.00000000E+00  0.00000000E+00
  0.00000000E+00  0.00000000E+00  0.00000000E+00
  0.00000000E+00  0.00000000E+00  0.00000000E+00
  0.00000000E+00  0.00000000E+00  0.00000000E+00
  0.00000000E+00  0.00000000E+00  0.00000000E+00
  0.00000000E+00  0.00000000E+00  0.00000000E+00
  0.00000000E+00  0.00000000E+00  0.00000000E+00
  0.00000000E+00  0.00000000E+00  0.00000000E+00
  0.00000000E+00  0.00000000E+00  0.00000000E+00
  0.00000000E+00  0.00000000E+00  0.00000000E+00
  0.00000000E+00  0.00000000E+00  0.00000000E+00
  0.00000000E+00  0.00000000E+00  0.00000000E+00
  0.00000000E+00  0.00000000E+00  0.00000000E+00
  0.00000000E+00  0.00000000E+00  0.00000000E+00
  0.00000000E+00  0.00000000E+00  0.00000000E+00
  0.00000000E+00  0.00000000E+00  0.00000000E+00
  0.00000000E+00  0.00000000E+00  0.00000000E+00
  0.00000000E+00  0.00000000E+00  0.00000000E+00
  0.00000000E+00  0.00000000E+00  0.00000000E+00
  0.00000000E+00  0.00000000E+00  0.00000000E+00
  0.00000000E+00  0.00000000E+00  0.00000000E+00
  0.00000000E+00  0.00000000E+00  0.00000000E+00
  0.00000000E+00  0.00000000E+00  0.00000000E+00
  0.00000000E+00  0.00000000E+00  0.00000000E+00
  0.00000000E+00  0.00000000E+00  0.00000000E+00
  0.00000000E+00  0.00000000E+00  0.00000000E+00
  0.00000000E+00  0.00000000E+00  0.00000000E+00
  0.00000000E+00  0.00000000E+00  0.00000000E+00
  0.00000000E+00  0.00000000E+00  0.00000000E+00
  0.00000000E+00  0.00000000E+00  0.00000000E+00
  0.00000000E+00  0.00000000E+00  0.00000000E+00
  0.00000000E+00  0.00000000E+00  0.00000000E+00
  0.00000000E+00  0.00000000E+00  0.00000000E+00
  0.00000000E+00  0.00000000E+00  0.00000000E+00
  0.00000000E+00  0.00000000E+00  0.00000000E+00
  0.00000000E+00  0.00000000E+00  0.00000000E+00
  0.00000000E+00  0.00000000E+00  0.00000000E+00
  0.00000000E+00  0.00000000E+00  0.00000000E+00
  0.00000000E+00  0.00000000E+00  0.00000000E+00
  0.00000000E+00  0.00000000E+00  0.00000000E+00
  0.00000000E+00  0.00000000E+00  0.00000000E+00
  0.00000000E+00  0.00000000E+00  0.00000000E+00
  0.00000000E+00  0.00000000E+00  0.00000000E+00
  0.00000000E+00  0.00000000E+00  0.00000000E+00
  0.00000000E+00  0.00000000E+00  0.00000000E+00
  0.00000000E+00  0.00000000E+00  0.00000000E+00
  0.00000000E+00  0.00000000E+00  0.00000000E+00
  0.00000000E+00  0.00000000E+00  0.00000000E+00
  0.00000000E+00  0.00000000E+00  0.00000000E+00
  0.00000000E+00  0.00000000E+00  0.00000000E+00
  0.00000000E+00  0.00000000E+00  0.00000000E+00
  0.00000000E+00  0.00000000E+00  0.00000000E+00
  0.00000000E+00  0.00000000E+00  0.00000000E+00
  0.00000000E+00  0.00000000E+00  0.00000000E+00
  0.00000000E+00  0.00000000E+00  0.00000000E+00
  0.00000000E+00  0.00000000E+00  0.00000000E+00
  0.00000000E+00  0.00000000E+00  0.00000000E+00
  0.00000000E+00  0.00000000E+00  0.00000000E+00
  0.00000000E+00  0.00000000E+00  0.00000000E+00
  0.00000000E+00  0.00000000E+00  0.00000000E+00
