Fe1 H1 C124 N2 O2                       
   1.00000000000000     
    19.7941380683050667   -0.0270822564804450    0.1978659934009444
    -9.9183472008699454   17.0377792029823745   -0.3180570231623879
     0.2985907189413122   -0.3832962621397912   29.8685081111968636
   Fe   H    C    N    O 
     1     1   124     2     2
Direct
  0.4374461126506740  0.5024307131332028  0.4218525145854111
  0.5154748244777622  0.5247168929354813  0.5289096004851619
  0.0423440279943715  0.0845961178321581  0.3998521130518116
  0.0418481166955568  0.2088642137586184  0.3992097896660860
  0.0411706551254050  0.3333396072753275  0.3990384599308596
  0.0408267878993484  0.4585503360950280  0.3991678301222193
  0.0411510954351107  0.5838750217557310  0.3991648540795081
  0.0415398185979989  0.7091420963318397  0.3990679168541351
  0.0418292971898838  0.8344140912748992  0.3994408191005140
  0.0421852950207404  0.9596767151416047  0.3999599096295218
  0.1681568696589086  0.0861123809766601  0.4005107485347884
  0.1685245271414334  0.2113081482317949  0.4000111246548321
  0.1668920515995994  0.3347937191427647  0.3989849001318448
  0.1649109365331906  0.4589855034993807  0.3995720819607972
  0.1652446776337499  0.5840467087381016  0.3998439779666509
  0.1660693085963351  0.7093280668740504  0.3997426883528315
  0.1666733609152365  0.8346436704772638  0.3995957691173468
  0.1672691974913774  0.9601876314091399  0.4001186612713883
  0.2926541272165117  0.0857787566912495  0.4010795826344495
  0.2946791746764698  0.2133050167151183  0.4022294692016734
  0.2955518221400980  0.3399991009999203  0.4008982514607293
  0.2897235006575963  0.4603928332717939  0.3998063233146781
  0.2890735876376058  0.5847228957137531  0.4007454790660924
  0.2904232905961002  0.7093697517247841  0.4005400599734257
  0.2913948104837175  0.8344224723233593  0.3998991646713890
  0.2919235175594162  0.9598064203111140  0.3999956055995073
  0.4171071869806516  0.0843144280600935  0.4005698813213929
  0.4178203426469959  0.2104085638291570  0.4023720461773163
  0.4214733248282189  0.3392718486563067  0.4057185201200424
  0.4144333648144880  0.7067841238865505  0.4017539378114467
  0.4159089169506302  0.8328928934690593  0.4005718752066776
  0.4165357358498689  0.9585724640453109  0.4000126214680532
  0.5416344197954308  0.0827436635970484  0.3999527660710756
  0.5422008978584736  0.2080668990598062  0.4009699633520429
  0.5433583496449045  0.3331039086930251  0.4029388994174928
  0.5441979600036583  0.4564254829334303  0.4042066361162843
  0.5406715878255540  0.5769173142751296  0.4026415438964792
  0.5376327931072812  0.7029910171618093  0.4028722547004462
  0.5401039363869836  0.8310093328285201  0.4014818592556526
  0.5411076659952936  0.9571696888620655  0.4003242937220515
  0.6663037468723204  0.0822072343821311  0.3996343187138415
  0.6668316621288429  0.2075951480136701  0.3995712819921508
  0.6675273693771806  0.3328262572191731  0.4003322966330384
  0.6685173798063356  0.4580021406154536  0.4004860695751590
  0.6679485422332816  0.5822045598504526  0.3997326565028534
  0.6640584453187971  0.7049109154075039  0.4000503815296086
  0.6643241781167423  0.8303729058235458  0.4010322826245893
  0.6656027565494569  0.9565639867348088  0.4006524314696692
  0.7910702506124297  0.0822257532217116  0.3999385248340807
  0.7914601908644154  0.2075241549686767  0.3991911898961612
  0.7919358546524572  0.3328532747197611  0.3990291798894148
  0.7924626378058702  0.4582086368497373  0.3991025210501521
  0.7925981094401876  0.5833041344972608  0.3989027688490019
  0.7914584093701287  0.7079371286193102  0.3990110781139063
  0.7903010361041986  0.8319346175803186  0.3998850089266432
  0.7904542297738488  0.9568447449878794  0.4003381013777635
  0.9163203445472897  0.0829413959552672  0.3997942701049210
  0.9163610276349943  0.2078467911084164  0.3993232399467717
  0.9164184623255963  0.3330002988815586  0.3989717543348646
  0.9166066053791755  0.4582910493939144  0.3987954842508399
  0.9169421544802903  0.5836474442896368  0.3987202300796436
  0.9167868554554696  0.7088083849025993  0.3988042959876398
  0.9165945669602137  0.8336694375415109  0.3994817468933394
  0.9163012734665745  0.9582611438982130  0.3999397386401251
  0.0843840886485470  0.0435159777742912  0.4000863079949418
  0.0844853314888522  0.1683421409288430  0.3996136912312599
  0.0832660214657881  0.2922599157732714  0.3989250830048005
  0.0821331324937517  0.4169070893117774  0.3992361819874217
  0.0822849711563140  0.5420987586074231  0.3993873774024667
  0.0828756342927495  0.6674637560586958  0.3993166006528196
  0.0833715593228122  0.7928194373525440  0.3993150789356246
  0.0837646766693700  0.9180975894542277  0.3998594701628636
  0.2092753060181722  0.0439345766375390  0.4006320754603622
  0.2105315582807258  0.1702101307354872  0.4008276229708496
  0.2106523089892350  0.2953404556219545  0.3996200785410502
  0.2068077152221865  0.4180071057203068  0.3993180934658985
  0.2061238667567674  0.5423284721070696  0.3999637459494957
  0.2072672197074938  0.6676349678343121  0.4001090187250482
  0.2080874874294323  0.7928956684270999  0.3997152928583211
  0.2086405393335534  0.9182783468326080  0.3998931856391771
  0.3338049411009552  0.0434363210198628  0.4005236955453119
  0.3347512384705054  0.1696713978750125  0.4021208547130491
  0.3372924516057459  0.2978122423491184  0.4034989189659835
  0.3345967215210606  0.4234908014479771  0.4003343381711352
  0.3305297482446445  0.5443139132740068  0.4017369378401698
  0.3314518267169140  0.6675997755406671  0.4011538020249767
  0.3326770897185147  0.7925472942330524  0.4003216012301760
  0.3333125727696954  0.9178185289648509  0.3998696296111102
  0.4583979236598504  0.0420261519123204  0.4001268002503250
  0.4589516702914950  0.1678099578643895  0.4012947316148583
  0.4603809810991084  0.2942120181865179  0.4037298153680815
  0.4534489683699053  0.6620770703204415  0.4035827448837935
  0.4569962759142397  0.7904065685314436  0.4012175390821484
  0.4578224746757302  0.9163497636611174  0.4002750845595453
  0.5830314489569338  0.0407385079626417  0.3998623001998228
  0.5835395912512241  0.1661516887334160  0.4000720138219508
  0.5844198277529649  0.2912297743282893  0.4014505873595218
  0.5856310866249496  0.4157936408577438  0.4024139274338669
  0.5852454529025160  0.5398058630503763  0.4015464650889179
  0.5792034549142311  0.6604902024108456  0.4014798386650842
  0.5802518950043035  0.7874899049552846  0.4019157979929856
  0.5822322649678171  0.9148323906091519  0.4008683470051723
  0.7076214429060494  0.0402565886146474  0.4000434241963753
  0.7082159193200084  0.1657898958879406  0.3992948547205128
  0.7087738244657803  0.2910960858843611  0.3995426598299099
  0.7095043848723468  0.4163403506043850  0.3999355989848100
  0.7098189446502478  0.5412583064096658  0.3996506778190120
  0.7078920358392803  0.6654356645896629  0.3992950802600319
  0.7062202847571876  0.7890397641355859  0.4002916525556205
  0.7067340020642373  0.9144329643602356  0.4007348442126298
  0.8326584381991038  0.0406415957516887  0.4000942946221869
  0.8329589422417411  0.1658900319883198  0.3994904053346887
  0.8332722548604049  0.2911329069491788  0.3989853894717278
  0.8336223426485193  0.4164077283703312  0.3988904572203130
  0.8339672621435904  0.5417193701373012  0.3988195233018736
  0.8335923905806866  0.6668729441263589  0.3987524083085556
  0.8329708892791657  0.7913882951848270  0.3993990960491203
  0.8324441806051049  0.9157102745552099  0.4000758855074936
  0.9584553446517300  0.0419943781412738  0.3998653641964313
  0.9582375697454490  0.1665560785483595  0.3994188569870260
  0.9579809184400316  0.2913884687207332  0.3990902027901689
  0.9578304989631030  0.4165698175689936  0.3989160241915682
  0.9581661883243128  0.5419429349710299  0.3988322041128503
  0.9583640571479015  0.6672186671986654  0.3987807478367082
  0.9584618841491119  0.7923758350239456  0.3991913968683618
  0.9585056262014912  0.9173206078648799  0.3998286490063919
  0.4099463128797914  0.5813457348404160  0.4054058172057507
  0.4650302133580418  0.4202873116924587  0.4083001394603770
  0.4988154036641808  0.4842541075739358  0.5050544835955481
  0.4512177556435912  0.5128030715856338  0.4774145386732954
 
  0.00000000E+00  0.00000000E+00  0.00000000E+00
  0.00000000E+00  0.00000000E+00  0.00000000E+00
  0.00000000E+00  0.00000000E+00  0.00000000E+00
  0.00000000E+00  0.00000000E+00  0.00000000E+00
  0.00000000E+00  0.00000000E+00  0.00000000E+00
  0.00000000E+00  0.00000000E+00  0.00000000E+00
  0.00000000E+00  0.00000000E+00  0.00000000E+00
  0.00000000E+00  0.00000000E+00  0.00000000E+00
  0.00000000E+00  0.00000000E+00  0.00000000E+00
  0.00000000E+00  0.00000000E+00  0.00000000E+00
  0.00000000E+00  0.00000000E+00  0.00000000E+00
  0.00000000E+00  0.00000000E+00  0.00000000E+00
  0.00000000E+00  0.00000000E+00  0.00000000E+00
  0.00000000E+00  0.00000000E+00  0.00000000E+00
  0.00000000E+00  0.00000000E+00  0.00000000E+00
  0.00000000E+00  0.00000000E+00  0.00000000E+00
  0.00000000E+00  0.00000000E+00  0.00000000E+00
  0.00000000E+00  0.00000000E+00  0.00000000E+00
  0.00000000E+00  0.00000000E+00  0.00000000E+00
  0.00000000E+00  0.00000000E+00  0.00000000E+00
  0.00000000E+00  0.00000000E+00  0.00000000E+00
  0.00000000E+00  0.00000000E+00  0.00000000E+00
  0.00000000E+00  0.00000000E+00  0.00000000E+00
  0.00000000E+00  0.00000000E+00  0.00000000E+00
  0.00000000E+00  0.00000000E+00  0.00000000E+00
  0.00000000E+00  0.00000000E+00  0.00000000E+00
  0.00000000E+00  0.00000000E+00  0.00000000E+00
  0.00000000E+00  0.00000000E+00  0.00000000E+00
  0.00000000E+00  0.00000000E+00  0.00000000E+00
  0.00000000E+00  0.00000000E+00  0.00000000E+00
  0.00000000E+00  0.00000000E+00  0.00000000E+00
  0.00000000E+00  0.00000000E+00  0.00000000E+00
  0.00000000E+00  0.00000000E+00  0.00000000E+00
  0.00000000E+00  0.00000000E+00  0.00000000E+00
  0.00000000E+00  0.00000000E+00  0.00000000E+00
  0.00000000E+00  0.00000000E+00  0.00000000E+00
  0.00000000E+00  0.00000000E+00  0.00000000E+00
  0.00000000E+00  0.00000000E+00  0.00000000E+00
  0.00000000E+00  0.00000000E+00  0.00000000E+00
  0.00000000E+00  0.00000000E+00  0.00000000E+00
  0.00000000E+00  0.00000000E+00  0.00000000E+00
  0.00000000E+00  0.00000000E+00  0.00000000E+00
  0.00000000E+00  0.00000000E+00  0.00000000E+00
  0.00000000E+00  0.00000000E+00  0.00000000E+00
  0.00000000E+00  0.00000000E+00  0.00000000E+00
  0.00000000E+00  0.00000000E+00  0.00000000E+00
  0.00000000E+00  0.00000000E+00  0.00000000E+00
  0.00000000E+00  0.00000000E+00  0.00000000E+00
  0.00000000E+00  0.00000000E+00  0.00000000E+00
  0.00000000E+00  0.00000000E+00  0.00000000E+00
  0.00000000E+00  0.00000000E+00  0.00000000E+00
  0.00000000E+00  0.00000000E+00  0.00000000E+00
  0.00000000E+00  0.00000000E+00  0.00000000E+00
  0.00000000E+00  0.00000000E+00  0.00000000E+00
  0.00000000E+00  0.00000000E+00  0.00000000E+00
  0.00000000E+00  0.00000000E+00  0.00000000E+00
  0.00000000E+00  0.00000000E+00  0.00000000E+00
  0.00000000E+00  0.00000000E+00  0.00000000E+00
  0.00000000E+00  0.00000000E+00  0.00000000E+00
  0.00000000E+00  0.00000000E+00  0.00000000E+00
  0.00000000E+00  0.00000000E+00  0.00000000E+00
  0.00000000E+00  0.00000000E+00  0.00000000E+00
  0.00000000E+00  0.00000000E+00  0.00000000E+00
  0.00000000E+00  0.00000000E+00  0.00000000E+00
  0.00000000E+00  0.00000000E+00  0.00000000E+00
  0.00000000E+00  0.00000000E+00  0.00000000E+00
  0.00000000E+00  0.00000000E+00  0.00000000E+00
  0.00000000E+00  0.00000000E+00  0.00000000E+00
  0.00000000E+00  0.00000000E+00  0.00000000E+00
  0.00000000E+00  0.00000000E+00  0.00000000E+00
  0.00000000E+00  0.00000000E+00  0.00000000E+00
  0.00000000E+00  0.00000000E+00  0.00000000E+00
  0.00000000E+00  0.00000000E+00  0.00000000E+00
  0.00000000E+00  0.00000000E+00  0.00000000E+00
  0.00000000E+00  0.00000000E+00  0.00000000E+00
  0.00000000E+00  0.00000000E+00  0.00000000E+00
  0.00000000E+00  0.00000000E+00  0.00000000E+00
  0.00000000E+00  0.00000000E+00  0.00000000E+00
  0.00000000E+00  0.00000000E+00  0.00000000E+00
  0.00000000E+00  0.00000000E+00  0.00000000E+00
  0.00000000E+00  0.00000000E+00  0.00000000E+00
  0.00000000E+00  0.00000000E+00  0.00000000E+00
  0.00000000E+00  0.00000000E+00  0.00000000E+00
  0.00000000E+00  0.00000000E+00  0.00000000E+00
  0.00000000E+00  0.00000000E+00  0.00000000E+00
  0.00000000E+00  0.00000000E+00  0.00000000E+00
  0.00000000E+00  0.00000000E+00  0.00000000E+00
  0.00000000E+00  0.00000000E+00  0.00000000E+00
  0.00000000E+00  0.00000000E+00  0.00000000E+00
  0.00000000E+00  0.00000000E+00  0.00000000E+00
  0.00000000E+00  0.00000000E+00  0.00000000E+00
  0.00000000E+00  0.00000000E+00  0.00000000E+00
  0.00000000E+00  0.00000000E+00  0.00000000E+00
  0.00000000E+00  0.00000000E+00  0.00000000E+00
  0.00000000E+00  0.00000000E+00  0.00000000E+00
  0.00000000E+00  0.00000000E+00  0.00000000E+00
  0.00000000E+00  0.00000000E+00  0.00000000E+00
  0.00000000E+00  0.00000000E+00  0.00000000E+00
  0.00000000E+00  0.00000000E+00  0.00000000E+00
  0.00000000E+00  0.00000000E+00  0.00000000E+00
  0.00000000E+00  0.00000000E+00  0.00000000E+00
  0.00000000E+00  0.00000000E+00  0.00000000E+00
  0.00000000E+00  0.00000000E+00  0.00000000E+00
  0.00000000E+00  0.00000000E+00  0.00000000E+00
  0.00000000E+00  0.00000000E+00  0.00000000E+00
  0.00000000E+00  0.00000000E+00  0.00000000E+00
  0.00000000E+00  0.00000000E+00  0.00000000E+00
  0.00000000E+00  0.00000000E+00  0.00000000E+00
  0.00000000E+00  0.00000000E+00  0.00000000E+00
  0.00000000E+00  0.00000000E+00  0.00000000E+00
  0.00000000E+00  0.00000000E+00  0.00000000E+00
  0.00000000E+00  0.00000000E+00  0.00000000E+00
  0.00000000E+00  0.00000000E+00  0.00000000E+00
  0.00000000E+00  0.00000000E+00  0.00000000E+00
  0.00000000E+00  0.00000000E+00  0.00000000E+00
  0.00000000E+00  0.00000000E+00  0.00000000E+00
  0.00000000E+00  0.00000000E+00  0.00000000E+00
  0.00000000E+00  0.00000000E+00  0.00000000E+00
  0.00000000E+00  0.00000000E+00  0.00000000E+00
  0.00000000E+00  0.00000000E+00  0.00000000E+00
  0.00000000E+00  0.00000000E+00  0.00000000E+00
  0.00000000E+00  0.00000000E+00  0.00000000E+00
  0.00000000E+00  0.00000000E+00  0.00000000E+00
  0.00000000E+00  0.00000000E+00  0.00000000E+00
  0.00000000E+00  0.00000000E+00  0.00000000E+00
  0.00000000E+00  0.00000000E+00  0.00000000E+00
  0.00000000E+00  0.00000000E+00  0.00000000E+00
  0.00000000E+00  0.00000000E+00  0.00000000E+00
  0.00000000E+00  0.00000000E+00  0.00000000E+00
  0.00000000E+00  0.00000000E+00  0.00000000E+00
