Ag1 H1 C122 N4 O1                       
   1.00000000000000     
    19.7988178223197835   -0.0016370996180869    0.0331463945545021
    -9.9008229940999879   17.0314572024787516   -0.0367210679702805
     0.0498756279551062   -0.0352284166733635   29.8423952528465648
   Ag   H    C    N    O 
     1     1   122     4     1
Direct
  0.4342589641463165  0.4973915628865987  0.4498872533779271
  0.5050041263472321  0.5778458105234806  0.5183158907967070
  0.0420555088167795  0.0842097129939965  0.3998799791111298
  0.0410179598909323  0.2082230640944681  0.3996784785120535
  0.0404611689633503  0.3329186767363352  0.3992666928907554
  0.0406610233311384  0.4582640500927594  0.3994966323072877
  0.0413512494860109  0.5837372621878459  0.3999466453902263
  0.0420881583520389  0.7092080410483901  0.4000724433160958
  0.0425227049009376  0.8346557788745385  0.4000641428692127
  0.0426763083474825  0.9598470729465722  0.3999754181071514
  0.1682843270247733  0.0861658089489118  0.4000915437663328
  0.1673129538313688  0.2102222764359825  0.3998964302068503
  0.1653371943915018  0.3337380479962782  0.3990749836949892
  0.1646628346960478  0.4584157979163590  0.3977961332640866
  0.1653768295592315  0.5835691249761539  0.3990136049838570
  0.1663867003233836  0.7091027836175380  0.3998315649677647
  0.1671120612643744  0.8346629552762926  0.4000544309897136
  0.1676994675521065  0.9603709996312439  0.4000480584861104
  0.2928813368501021  0.0861242739920349  0.4000260370479242
  0.2945135271914031  0.2139929074718294  0.4007878272980121
  0.2921926077135756  0.3390357288126485  0.4024117661714606
  0.2887481495812708  0.4570689633847593  0.4005200959241108
  0.2891253344807136  0.5832723563118968  0.3986243814899791
  0.2905268148550066  0.7085981830431599  0.3995565458299968
  0.2915626718390620  0.8340544979934755  0.3998668898695597
  0.2922082347124816  0.9598524883547597  0.3999307111171382
  0.4172010255173685  0.0841566412858577  0.3998829352515497
  0.4179423201437070  0.2101071204514226  0.4002054221634147
  0.4219931092045703  0.3389269963033685  0.4012703143007531
  0.4145394562953008  0.7064804321086101  0.4001155472939779
  0.4159896924989523  0.8325008725464252  0.3999259445658022
  0.4166227810342307  0.9583135712239665  0.3999087690420994
  0.5415928604259539  0.0824993352116999  0.3999150331161814
  0.5422587506936553  0.2081830166106712  0.3998089030052290
  0.5434616589798372  0.3336892606290141  0.3996266043480468
  0.5429923694765664  0.4568759454856609  0.3990627555050587
  0.5382318272012141  0.7015024796068572  0.4008040031061547
  0.5401418960258345  0.8299458095189981  0.4003393020009176
  0.5410435375240100  0.9565262222858790  0.4000200664741323
  0.6660571499723973  0.0817350527127002  0.4000442871572007
  0.6666401348084139  0.2073852866687055  0.3999095263089655
  0.6674882830378142  0.3328820423023126  0.3994702504462605
  0.6687052567351047  0.4583571429112572  0.3988304164186535
  0.6688818441272573  0.5831240674262524  0.3990166045015492
  0.6667747069933420  0.7063552918279618  0.4002030374952558
  0.6647741367095357  0.8299357239749164  0.4003293674017468
  0.6655019086267767  0.9559680436862157  0.4000987934569742
  0.7907614273118621  0.0817441297592864  0.4000157127345208
  0.7911008101878411  0.2071415519105538  0.4001280624903528
  0.7917399903349025  0.3326963419619491  0.3999558831723118
  0.7925666120647271  0.4582438893357350  0.3995223961340963
  0.7930753292548932  0.5835044760777602  0.3992828479870088
  0.7929438137712214  0.7085017385940060  0.3997153610680234
  0.7914503721296459  0.8324360234445598  0.4000218025999637
  0.7905108669979388  0.9565277615726854  0.3999777224725620
  0.9159921295980196  0.0825279853433517  0.3999272045512547
  0.9158258471310975  0.2074216671591165  0.3999639293443001
  0.9160007001135134  0.3327172184311639  0.4000222065762294
  0.9165672224603525  0.4581628492528427  0.4000975941756839
  0.9173004810342282  0.5837175344106184  0.3998926534886686
  0.9176411493899400  0.7090698200939729  0.3997874223805333
  0.9174499975653658  0.8340161142933298  0.3998644586064641
  0.9167277102484760  0.9583088958555093  0.3999177091958341
  0.0845773584532000  0.0435566634396590  0.3999657915227412
  0.0836561801952962  0.1676547639703444  0.3996918920052625
  0.0820990295576881  0.2915390425412352  0.3992905624869409
  0.0819099627305780  0.4165372475769888  0.3988141169231941
  0.0823949643332535  0.5418176069956965  0.3995036670272195
  0.0832634807174246  0.6673552920541916  0.3999696055224453
  0.0839423077576424  0.7929205700435890  0.4001158727980891
  0.0843229127269387  0.9183199107294775  0.4000621459542079
  0.2095525270163915  0.0440898574812623  0.4000578160746074
  0.2102894155040131  0.1701426788910887  0.4003273685272114
  0.2083275735219915  0.2937429812955087  0.4000531957205331
  0.2060513295241935  0.4168948297932344  0.3979188549437121
  0.2062736934761850  0.5417574073873831  0.3981431735140946
  0.2075114905099181  0.6672017265563540  0.3994868835532093
  0.2083805123234833  0.7926802337257854  0.3999215192938330
  0.2090109177620100  0.9183316284011560  0.4000245597409527
  0.3339948681662528  0.0435416871666840  0.3999169131234618
  0.3348757977566058  0.1701118365063429  0.4003023657228499
  0.3368796905300263  0.2985479917562703  0.4018660503344078
  0.3319340666381117  0.5433913913561103  0.4002754385369054
  0.3315766867963102  0.6664536246882764  0.3994343723799896
  0.3327756863000835  0.7919142151984826  0.3998194793145846
  0.3334633868205585  0.9175721372347787  0.3998959036735688
  0.4584371656221845  0.0417667358365145  0.3998988144806495
  0.4590533243104138  0.1675829223016775  0.3999141640873706
  0.4604768385582378  0.2935862773919025  0.4003545809582966
  0.4530672005250485  0.6611055658633069  0.4011178317821253
  0.4570634973907657  0.7899493446555627  0.4001217145077984
  0.4578528211758572  0.9159180779560497  0.3999406716753275
  0.5828573612504312  0.0402131460340580  0.3999857743647779
  0.5834706133132130  0.1660299955381871  0.3998585720493110
  0.5844786561971050  0.2915202411062930  0.3995857672688347
  0.5857993428403787  0.4168783576889183  0.3989745176690979
  0.5860261516233767  0.5431532276987605  0.3988846102821081
  0.5828188616631208  0.6608741597762277  0.4005410035512240
  0.5805223474604847  0.7860720835732086  0.4005211430187882
  0.5821383615731963  0.9139176232448762  0.4001605734997601
  0.7073887204156677  0.0396958913145615  0.4000336620439165
  0.7079194266767875  0.1654008940800651  0.4000668813433347
  0.7086097977661956  0.2909588708334236  0.3997769192509215
  0.7095922586713984  0.4165183811768353  0.3992070985304652
  0.7103295421672462  0.5416753282286723  0.3988979375466180
  0.7097089694811531  0.6663088173337897  0.3996727736357963
  0.7077804816039572  0.7898632397267843  0.4002447559366278
  0.7067936437136825  0.9139188852816823  0.4001239707173940
  0.8324356840907255  0.0402291260737735  0.3999480153079478
  0.8325450304391343  0.1654120937021310  0.4000769466439268
  0.8329523402873905  0.2908513536919367  0.4001235043140514
  0.8336144394253909  0.4163160342937020  0.3999113888610570
  0.8343104508847330  0.5417854373168520  0.3995375891823971
  0.8345803859804987  0.6671480666096600  0.3995640356312238
  0.8340542449928088  0.7918369687504839  0.3998974640146599
  0.8330748237876131  0.9158890881596978  0.3999458086138251
  0.9584018965128950  0.0417854955919890  0.3999267856811591
  0.9576384378444617  0.1660561106906021  0.3998832943951878
  0.9573902892736603  0.2909938554760435  0.3998082040575160
  0.9576750192908112  0.4163246890507436  0.3999927983129796
  0.9584051912054214  0.5418818976054673  0.4000694971477115
  0.9590278800212615  0.6673417086639356  0.3999278739749457
  0.9592418773838990  0.7926542428081358  0.3998942730023095
  0.9591191964161511  0.9175589837722782  0.3999101658724286
  0.4101006009738986  0.5816225532038126  0.4025636376955808
  0.5459197756108743  0.5813390583973594  0.4000530018392202
  0.3280628448412093  0.4185351702496111  0.4056165460673010
  0.4647024440307658  0.4184828435443153  0.4009246309008980
  0.4711475395138673  0.5212722520927064  0.5150478194649274
 
  0.00000000E+00  0.00000000E+00  0.00000000E+00
  0.00000000E+00  0.00000000E+00  0.00000000E+00
  0.00000000E+00  0.00000000E+00  0.00000000E+00
  0.00000000E+00  0.00000000E+00  0.00000000E+00
  0.00000000E+00  0.00000000E+00  0.00000000E+00
  0.00000000E+00  0.00000000E+00  0.00000000E+00
  0.00000000E+00  0.00000000E+00  0.00000000E+00
  0.00000000E+00  0.00000000E+00  0.00000000E+00
  0.00000000E+00  0.00000000E+00  0.00000000E+00
  0.00000000E+00  0.00000000E+00  0.00000000E+00
  0.00000000E+00  0.00000000E+00  0.00000000E+00
  0.00000000E+00  0.00000000E+00  0.00000000E+00
  0.00000000E+00  0.00000000E+00  0.00000000E+00
  0.00000000E+00  0.00000000E+00  0.00000000E+00
  0.00000000E+00  0.00000000E+00  0.00000000E+00
  0.00000000E+00  0.00000000E+00  0.00000000E+00
  0.00000000E+00  0.00000000E+00  0.00000000E+00
  0.00000000E+00  0.00000000E+00  0.00000000E+00
  0.00000000E+00  0.00000000E+00  0.00000000E+00
  0.00000000E+00  0.00000000E+00  0.00000000E+00
  0.00000000E+00  0.00000000E+00  0.00000000E+00
  0.00000000E+00  0.00000000E+00  0.00000000E+00
  0.00000000E+00  0.00000000E+00  0.00000000E+00
  0.00000000E+00  0.00000000E+00  0.00000000E+00
  0.00000000E+00  0.00000000E+00  0.00000000E+00
  0.00000000E+00  0.00000000E+00  0.00000000E+00
  0.00000000E+00  0.00000000E+00  0.00000000E+00
  0.00000000E+00  0.00000000E+00  0.00000000E+00
  0.00000000E+00  0.00000000E+00  0.00000000E+00
  0.00000000E+00  0.00000000E+00  0.00000000E+00
  0.00000000E+00  0.00000000E+00  0.00000000E+00
  0.00000000E+00  0.00000000E+00  0.00000000E+00
  0.00000000E+00  0.00000000E+00  0.00000000E+00
  0.00000000E+00  0.00000000E+00  0.00000000E+00
  0.00000000E+00  0.00000000E+00  0.00000000E+00
  0.00000000E+00  0.00000000E+00  0.00000000E+00
  0.00000000E+00  0.00000000E+00  0.00000000E+00
  0.00000000E+00  0.00000000E+00  0.00000000E+00
  0.00000000E+00  0.00000000E+00  0.00000000E+00
  0.00000000E+00  0.00000000E+00  0.00000000E+00
  0.00000000E+00  0.00000000E+00  0.00000000E+00
  0.00000000E+00  0.00000000E+00  0.00000000E+00
  0.00000000E+00  0.00000000E+00  0.00000000E+00
  0.00000000E+00  0.00000000E+00  0.00000000E+00
  0.00000000E+00  0.00000000E+00  0.00000000E+00
  0.00000000E+00  0.00000000E+00  0.00000000E+00
  0.00000000E+00  0.00000000E+00  0.00000000E+00
  0.00000000E+00  0.00000000E+00  0.00000000E+00
  0.00000000E+00  0.00000000E+00  0.00000000E+00
  0.00000000E+00  0.00000000E+00  0.00000000E+00
  0.00000000E+00  0.00000000E+00  0.00000000E+00
  0.00000000E+00  0.00000000E+00  0.00000000E+00
  0.00000000E+00  0.00000000E+00  0.00000000E+00
  0.00000000E+00  0.00000000E+00  0.00000000E+00
  0.00000000E+00  0.00000000E+00  0.00000000E+00
  0.00000000E+00  0.00000000E+00  0.00000000E+00
  0.00000000E+00  0.00000000E+00  0.00000000E+00
  0.00000000E+00  0.00000000E+00  0.00000000E+00
  0.00000000E+00  0.00000000E+00  0.00000000E+00
  0.00000000E+00  0.00000000E+00  0.00000000E+00
  0.00000000E+00  0.00000000E+00  0.00000000E+00
  0.00000000E+00  0.00000000E+00  0.00000000E+00
  0.00000000E+00  0.00000000E+00  0.00000000E+00
  0.00000000E+00  0.00000000E+00  0.00000000E+00
  0.00000000E+00  0.00000000E+00  0.00000000E+00
  0.00000000E+00  0.00000000E+00  0.00000000E+00
  0.00000000E+00  0.00000000E+00  0.00000000E+00
  0.00000000E+00  0.00000000E+00  0.00000000E+00
  0.00000000E+00  0.00000000E+00  0.00000000E+00
  0.00000000E+00  0.00000000E+00  0.00000000E+00
  0.00000000E+00  0.00000000E+00  0.00000000E+00
  0.00000000E+00  0.00000000E+00  0.00000000E+00
  0.00000000E+00  0.00000000E+00  0.00000000E+00
  0.00000000E+00  0.00000000E+00  0.00000000E+00
  0.00000000E+00  0.00000000E+00  0.00000000E+00
  0.00000000E+00  0.00000000E+00  0.00000000E+00
  0.00000000E+00  0.00000000E+00  0.00000000E+00
  0.00000000E+00  0.00000000E+00  0.00000000E+00
  0.00000000E+00  0.00000000E+00  0.00000000E+00
  0.00000000E+00  0.00000000E+00  0.00000000E+00
  0.00000000E+00  0.00000000E+00  0.00000000E+00
  0.00000000E+00  0.00000000E+00  0.00000000E+00
  0.00000000E+00  0.00000000E+00  0.00000000E+00
  0.00000000E+00  0.00000000E+00  0.00000000E+00
  0.00000000E+00  0.00000000E+00  0.00000000E+00
  0.00000000E+00  0.00000000E+00  0.00000000E+00
  0.00000000E+00  0.00000000E+00  0.00000000E+00
  0.00000000E+00  0.00000000E+00  0.00000000E+00
  0.00000000E+00  0.00000000E+00  0.00000000E+00
  0.00000000E+00  0.00000000E+00  0.00000000E+00
  0.00000000E+00  0.00000000E+00  0.00000000E+00
  0.00000000E+00  0.00000000E+00  0.00000000E+00
  0.00000000E+00  0.00000000E+00  0.00000000E+00
  0.00000000E+00  0.00000000E+00  0.00000000E+00
  0.00000000E+00  0.00000000E+00  0.00000000E+00
  0.00000000E+00  0.00000000E+00  0.00000000E+00
  0.00000000E+00  0.00000000E+00  0.00000000E+00
  0.00000000E+00  0.00000000E+00  0.00000000E+00
  0.00000000E+00  0.00000000E+00  0.00000000E+00
  0.00000000E+00  0.00000000E+00  0.00000000E+00
  0.00000000E+00  0.00000000E+00  0.00000000E+00
  0.00000000E+00  0.00000000E+00  0.00000000E+00
  0.00000000E+00  0.00000000E+00  0.00000000E+00
  0.00000000E+00  0.00000000E+00  0.00000000E+00
  0.00000000E+00  0.00000000E+00  0.00000000E+00
  0.00000000E+00  0.00000000E+00  0.00000000E+00
  0.00000000E+00  0.00000000E+00  0.00000000E+00
  0.00000000E+00  0.00000000E+00  0.00000000E+00
  0.00000000E+00  0.00000000E+00  0.00000000E+00
  0.00000000E+00  0.00000000E+00  0.00000000E+00
  0.00000000E+00  0.00000000E+00  0.00000000E+00
  0.00000000E+00  0.00000000E+00  0.00000000E+00
  0.00000000E+00  0.00000000E+00  0.00000000E+00
  0.00000000E+00  0.00000000E+00  0.00000000E+00
  0.00000000E+00  0.00000000E+00  0.00000000E+00
  0.00000000E+00  0.00000000E+00  0.00000000E+00
  0.00000000E+00  0.00000000E+00  0.00000000E+00
  0.00000000E+00  0.00000000E+00  0.00000000E+00
  0.00000000E+00  0.00000000E+00  0.00000000E+00
  0.00000000E+00  0.00000000E+00  0.00000000E+00
  0.00000000E+00  0.00000000E+00  0.00000000E+00
  0.00000000E+00  0.00000000E+00  0.00000000E+00
  0.00000000E+00  0.00000000E+00  0.00000000E+00
  0.00000000E+00  0.00000000E+00  0.00000000E+00
  0.00000000E+00  0.00000000E+00  0.00000000E+00
  0.00000000E+00  0.00000000E+00  0.00000000E+00
  0.00000000E+00  0.00000000E+00  0.00000000E+00
  0.00000000E+00  0.00000000E+00  0.00000000E+00
  0.00000000E+00  0.00000000E+00  0.00000000E+00
