Ni1 H1 C122 N4                          
   1.00000000000000     
    19.8104111449298905   -0.0001267322313004    0.0129362379056921
    -9.9053250736413538   17.0134666844147553   -0.0200344511155206
     0.0195587823901501   -0.0235324997409525   29.8550526044086340
   Ni   H    C    N 
     1     1   122     4
Direct
  0.4374657156013658  0.5000257866876954  0.4121282263073447
  0.4374539024694324  0.5001567233436243  0.4612025371525623
  0.0422206219337316  0.0844022470064802  0.4003224861773155
  0.0410151155691606  0.2082396726115607  0.4008109861756677
  0.0401854881505540  0.3328707161621191  0.4004325045025209
  0.0403060939927451  0.4581729666776328  0.3996519205358503
  0.0412723500762855  0.5838183467530884  0.3991905355830201
  0.0421997148792464  0.7093798439524086  0.3990952070229184
  0.0425897879123072  0.8347617997126294  0.3993263903426494
  0.0427088201972955  0.9599586491178543  0.3997047772300215
  0.1684687533873309  0.0863862660059824  0.4010337364698856
  0.1678351464999816  0.2109198410130635  0.4023495511499809
  0.1650754674145231  0.3338016681843633  0.4023010642674613
  0.1639863435624903  0.4584106626209327  0.4009937971287946
  0.1650090028293185  0.5836800896229322  0.4004025300823047
  0.1663580034390939  0.7091453660602841  0.3997417332146734
  0.1671890094518794  0.8347597991339806  0.3993008633806415
  0.1677584044918310  0.9604612554472119  0.3998146487863440
  0.2929392652184029  0.0863589744423801  0.4009925306159463
  0.2945859549908336  0.2141759165101827  0.4028816090145824
  0.2931024407882031  0.3398794124609661  0.4039733615330745
  0.2873746396560957  0.4579876847464888  0.4028481804241474
  0.2882975806647965  0.5830362602337261  0.4020463004184755
  0.2904903733731987  0.7084216338998809  0.4012655244216713
  0.2916207646127583  0.8340333845819425  0.3999378963246801
  0.2923116781338850  0.9599525650040661  0.3996574200886746
  0.4172215031018248  0.0843772026141634  0.4003441758218894
  0.4180631762179352  0.2108785936520792  0.4023772937450246
  0.4217460494651297  0.3398636936526525  0.4040318651661803
  0.4143817985594559  0.7054342344151889  0.4032490269666879
  0.4159387014094746  0.8319487553942595  0.4011985616194321
  0.4166582198412834  0.9581924550150414  0.3997701739196747
  0.5415578191762808  0.0823930137808905  0.3997063256858640
  0.5422415904741840  0.2082304448258524  0.4008847043379451
  0.5436955004677634  0.3337731383629819  0.4023759187276292
  0.5455348736266877  0.4579631495030331  0.4028784058257747
  0.5377850200568060  0.7005928325431883  0.4037180843182084
  0.5401402561840150  0.8294926484020132  0.4022167831268677
  0.5409712759199916  0.9562518550485603  0.4002878838928403
  0.6659839049411339  0.0815415758105756  0.3995404080931158
  0.6665708393228401  0.2072169688406039  0.3996303953798250
  0.6676467815357130  0.3328567772146769  0.4004195467366966
  0.6693637016398348  0.4584072797238053  0.4010276728932848
  0.6696809718748918  0.5830244081858617  0.4020846845866743
  0.6660334792998812  0.7054415029297338  0.4033029694672800
  0.6643698848731964  0.8295130430038918  0.4021881841704175
  0.6653580712203876  0.9556799026249503  0.4006021894700942
  0.7906256906937349  0.0815433000208396  0.3995042263497137
  0.7910078501047861  0.2069942911316805  0.3991346916795833
  0.7917082866072042  0.3325421914936742  0.3992313148827272
  0.7927852635026058  0.4581611359610198  0.3995992905281041
  0.7935990194714061  0.5836669827322629  0.4003286868064966
  0.7929092422986519  0.7084098983984449  0.4012819689582305
  0.7910315579073566  0.8319583632217650  0.4012341549485218
  0.7903254833879961  0.9562614003616192  0.4002517719652411
  0.9159090939069187  0.0824063476626360  0.3996629678713466
  0.9156671545922446  0.2072356692464307  0.3995847811517736
  0.9158203924845900  0.3325515621559685  0.3992270320657005
  0.9165610309375456  0.4581804231030485  0.3989612728225569
  0.9174725772936158  0.5838063833819932  0.3991542223851525
  0.9177737712517091  0.7091369347264830  0.3997126222718542
  0.9174406742362610  0.8340414044551026  0.4000032398577532
  0.9166114063802112  0.9582067114297927  0.3998173444399707
  0.0847224920279293  0.0437447960708237  0.4002942543558682
  0.0839928927053793  0.1680551492380922  0.4011907363879146
  0.0820805798136162  0.2915925576744456  0.4012439874655342
  0.0813320951460317  0.4163199872662314  0.4003737717307370
  0.0821341678243819  0.5418309554717926  0.3996675364046207
  0.0832709275403690  0.6674432426831949  0.3992552996023159
  0.0840102138666840  0.7929996101696437  0.3991604157998127
  0.0844349351322914  0.9184425403868358  0.3995590677014995
  0.2096749515883927  0.0443149396707569  0.4006076829356521
  0.2106511500927628  0.1705216440483553  0.4022061822374500
  0.2089643139034636  0.2945892821589443  0.4032246458138261
  0.2052757856523809  0.4169783576227417  0.4020303997985600
  0.2055846786039900  0.5415995656084250  0.4010104643019827
  0.2073141246981102  0.6671312761714795  0.4004605196798325
  0.2084379050384236  0.7927680701740085  0.3996173391684419
  0.2090825851285676  0.9184547295411211  0.3995256691505439
  0.3340611676139255  0.0437242831684587  0.4002596636617119
  0.3348619555135992  0.1704832046255358  0.4021751548550143
  0.3372032191917876  0.2994135296425307  0.4036967933266361
  0.3293940507623015  0.5420229248183650  0.4028545675954670
  0.3312810075934782  0.6662072363807631  0.4023235971337170
  0.3327791807678839  0.7917636239459517  0.4008293929965667
  0.3334977958838640  0.9175840300226621  0.3996616788064256
  0.4584034501112304  0.0417843947605349  0.3997991449829916
  0.4590641825383036  0.1680292332946985  0.4012276169834363
  0.4605948192042392  0.2945510245724885  0.4033081148204301
  0.4532324970862585  0.6601399482198320  0.4039949373394519
  0.4569208645303771  0.7890958939905369  0.4023663180886982
  0.4578243559659518  0.9155976645001573  0.4003109678296269
  0.5827536785298428  0.0400314106871152  0.3996885197033752
  0.5833984922751363  0.1659459130714099  0.3999919054447354
  0.5844943969599770  0.2915645230250267  0.4012864906990888
  0.5866570848398535  0.4169613783599704  0.4020871518517516
  0.5875752421779140  0.5420397849168659  0.4028777042134283
  0.5818869062029735  0.6601448038525757  0.4040341479419687
  0.5804137454913267  0.7858248777490283  0.4029019794151824
  0.5820864983007702  0.9136111225743002  0.4010361242593957
  0.7072956867896801  0.0395296174536415  0.3997994086909497
  0.7078220839104696  0.1652297460265527  0.3993004149974115
  0.7086362675031633  0.2908474506314694  0.3997104710999172
  0.7099373465846304  0.4163157324066298  0.4003313375195825
  0.7109573069937474  0.5415781030716694  0.4010261828669617
  0.7099138196797602  0.6662221829219593  0.4023690425087161
  0.7071866072871006  0.7891203909023025  0.4023808201661644
  0.7065823602693347  0.9136386575001808  0.4009906771252760
  0.8323621093807674  0.0400362489342993  0.3996468491523879
  0.8324262734132123  0.1652316980555253  0.3992698698687511
  0.8328133237339962  0.2906117114687069  0.3990755242108679
  0.8336640900915891  0.4161852318981019  0.3991527986342731
  0.8346222987788673  0.5418189514222278  0.3995987459659199
  0.8347994092249963  0.6671286852436085  0.4004164603210931
  0.8340054995413658  0.7917617878819818  0.4008860612757464
  0.8328383118273737  0.9156059217697234  0.4003521785380559
  0.9584703988367167  0.0418064647386536  0.3997910314818954
  0.9575865207542785  0.1659651939472578  0.3999195084732695
  0.9572128233756757  0.2908529702688489  0.3997068551220423
  0.9574571642404847  0.4161815083653756  0.3991733416744145
  0.9583793807269912  0.5418128593918047  0.3989629381532029
  0.9591607970855890  0.6674436078737042  0.3992377131000819
  0.9593484943078616  0.7927678889220140  0.3996446083863472
  0.9591555580729929  0.9175904005397874  0.3997242492988173
  0.4090448242691653  0.5794525110402031  0.4038537888873359
  0.5453616538296018  0.5794558753619932  0.4038826151053573
  0.3296037134881983  0.4205705750541735  0.4038395788288454
  0.4659121321363232  0.4205475097516208  0.4038858227752804
 
  0.00000000E+00  0.00000000E+00  0.00000000E+00
  0.00000000E+00  0.00000000E+00  0.00000000E+00
  0.00000000E+00  0.00000000E+00  0.00000000E+00
  0.00000000E+00  0.00000000E+00  0.00000000E+00
  0.00000000E+00  0.00000000E+00  0.00000000E+00
  0.00000000E+00  0.00000000E+00  0.00000000E+00
  0.00000000E+00  0.00000000E+00  0.00000000E+00
  0.00000000E+00  0.00000000E+00  0.00000000E+00
  0.00000000E+00  0.00000000E+00  0.00000000E+00
  0.00000000E+00  0.00000000E+00  0.00000000E+00
  0.00000000E+00  0.00000000E+00  0.00000000E+00
  0.00000000E+00  0.00000000E+00  0.00000000E+00
  0.00000000E+00  0.00000000E+00  0.00000000E+00
  0.00000000E+00  0.00000000E+00  0.00000000E+00
  0.00000000E+00  0.00000000E+00  0.00000000E+00
  0.00000000E+00  0.00000000E+00  0.00000000E+00
  0.00000000E+00  0.00000000E+00  0.00000000E+00
  0.00000000E+00  0.00000000E+00  0.00000000E+00
  0.00000000E+00  0.00000000E+00  0.00000000E+00
  0.00000000E+00  0.00000000E+00  0.00000000E+00
  0.00000000E+00  0.00000000E+00  0.00000000E+00
  0.00000000E+00  0.00000000E+00  0.00000000E+00
  0.00000000E+00  0.00000000E+00  0.00000000E+00
  0.00000000E+00  0.00000000E+00  0.00000000E+00
  0.00000000E+00  0.00000000E+00  0.00000000E+00
  0.00000000E+00  0.00000000E+00  0.00000000E+00
  0.00000000E+00  0.00000000E+00  0.00000000E+00
  0.00000000E+00  0.00000000E+00  0.00000000E+00
  0.00000000E+00  0.00000000E+00  0.00000000E+00
  0.00000000E+00  0.00000000E+00  0.00000000E+00
  0.00000000E+00  0.00000000E+00  0.00000000E+00
  0.00000000E+00  0.00000000E+00  0.00000000E+00
  0.00000000E+00  0.00000000E+00  0.00000000E+00
  0.00000000E+00  0.00000000E+00  0.00000000E+00
  0.00000000E+00  0.00000000E+00  0.00000000E+00
  0.00000000E+00  0.00000000E+00  0.00000000E+00
  0.00000000E+00  0.00000000E+00  0.00000000E+00
  0.00000000E+00  0.00000000E+00  0.00000000E+00
  0.00000000E+00  0.00000000E+00  0.00000000E+00
  0.00000000E+00  0.00000000E+00  0.00000000E+00
  0.00000000E+00  0.00000000E+00  0.00000000E+00
  0.00000000E+00  0.00000000E+00  0.00000000E+00
  0.00000000E+00  0.00000000E+00  0.00000000E+00
  0.00000000E+00  0.00000000E+00  0.00000000E+00
  0.00000000E+00  0.00000000E+00  0.00000000E+00
  0.00000000E+00  0.00000000E+00  0.00000000E+00
  0.00000000E+00  0.00000000E+00  0.00000000E+00
  0.00000000E+00  0.00000000E+00  0.00000000E+00
  0.00000000E+00  0.00000000E+00  0.00000000E+00
  0.00000000E+00  0.00000000E+00  0.00000000E+00
  0.00000000E+00  0.00000000E+00  0.00000000E+00
  0.00000000E+00  0.00000000E+00  0.00000000E+00
  0.00000000E+00  0.00000000E+00  0.00000000E+00
  0.00000000E+00  0.00000000E+00  0.00000000E+00
  0.00000000E+00  0.00000000E+00  0.00000000E+00
  0.00000000E+00  0.00000000E+00  0.00000000E+00
  0.00000000E+00  0.00000000E+00  0.00000000E+00
  0.00000000E+00  0.00000000E+00  0.00000000E+00
  0.00000000E+00  0.00000000E+00  0.00000000E+00
  0.00000000E+00  0.00000000E+00  0.00000000E+00
  0.00000000E+00  0.00000000E+00  0.00000000E+00
  0.00000000E+00  0.00000000E+00  0.00000000E+00
  0.00000000E+00  0.00000000E+00  0.00000000E+00
  0.00000000E+00  0.00000000E+00  0.00000000E+00
  0.00000000E+00  0.00000000E+00  0.00000000E+00
  0.00000000E+00  0.00000000E+00  0.00000000E+00
  0.00000000E+00  0.00000000E+00  0.00000000E+00
  0.00000000E+00  0.00000000E+00  0.00000000E+00
  0.00000000E+00  0.00000000E+00  0.00000000E+00
  0.00000000E+00  0.00000000E+00  0.00000000E+00
  0.00000000E+00  0.00000000E+00  0.00000000E+00
  0.00000000E+00  0.00000000E+00  0.00000000E+00
  0.00000000E+00  0.00000000E+00  0.00000000E+00
  0.00000000E+00  0.00000000E+00  0.00000000E+00
  0.00000000E+00  0.00000000E+00  0.00000000E+00
  0.00000000E+00  0.00000000E+00  0.00000000E+00
  0.00000000E+00  0.00000000E+00  0.00000000E+00
  0.00000000E+00  0.00000000E+00  0.00000000E+00
  0.00000000E+00  0.00000000E+00  0.00000000E+00
  0.00000000E+00  0.00000000E+00  0.00000000E+00
  0.00000000E+00  0.00000000E+00  0.00000000E+00
  0.00000000E+00  0.00000000E+00  0.00000000E+00
  0.00000000E+00  0.00000000E+00  0.00000000E+00
  0.00000000E+00  0.00000000E+00  0.00000000E+00
  0.00000000E+00  0.00000000E+00  0.00000000E+00
  0.00000000E+00  0.00000000E+00  0.00000000E+00
  0.00000000E+00  0.00000000E+00  0.00000000E+00
  0.00000000E+00  0.00000000E+00  0.00000000E+00
  0.00000000E+00  0.00000000E+00  0.00000000E+00
  0.00000000E+00  0.00000000E+00  0.00000000E+00
  0.00000000E+00  0.00000000E+00  0.00000000E+00
  0.00000000E+00  0.00000000E+00  0.00000000E+00
  0.00000000E+00  0.00000000E+00  0.00000000E+00
  0.00000000E+00  0.00000000E+00  0.00000000E+00
  0.00000000E+00  0.00000000E+00  0.00000000E+00
  0.00000000E+00  0.00000000E+00  0.00000000E+00
  0.00000000E+00  0.00000000E+00  0.00000000E+00
  0.00000000E+00  0.00000000E+00  0.00000000E+00
  0.00000000E+00  0.00000000E+00  0.00000000E+00
  0.00000000E+00  0.00000000E+00  0.00000000E+00
  0.00000000E+00  0.00000000E+00  0.00000000E+00
  0.00000000E+00  0.00000000E+00  0.00000000E+00
  0.00000000E+00  0.00000000E+00  0.00000000E+00
  0.00000000E+00  0.00000000E+00  0.00000000E+00
  0.00000000E+00  0.00000000E+00  0.00000000E+00
  0.00000000E+00  0.00000000E+00  0.00000000E+00
  0.00000000E+00  0.00000000E+00  0.00000000E+00
  0.00000000E+00  0.00000000E+00  0.00000000E+00
  0.00000000E+00  0.00000000E+00  0.00000000E+00
  0.00000000E+00  0.00000000E+00  0.00000000E+00
  0.00000000E+00  0.00000000E+00  0.00000000E+00
  0.00000000E+00  0.00000000E+00  0.00000000E+00
  0.00000000E+00  0.00000000E+00  0.00000000E+00
  0.00000000E+00  0.00000000E+00  0.00000000E+00
  0.00000000E+00  0.00000000E+00  0.00000000E+00
  0.00000000E+00  0.00000000E+00  0.00000000E+00
  0.00000000E+00  0.00000000E+00  0.00000000E+00
  0.00000000E+00  0.00000000E+00  0.00000000E+00
  0.00000000E+00  0.00000000E+00  0.00000000E+00
  0.00000000E+00  0.00000000E+00  0.00000000E+00
  0.00000000E+00  0.00000000E+00  0.00000000E+00
  0.00000000E+00  0.00000000E+00  0.00000000E+00
  0.00000000E+00  0.00000000E+00  0.00000000E+00
  0.00000000E+00  0.00000000E+00  0.00000000E+00
  0.00000000E+00  0.00000000E+00  0.00000000E+00
  0.00000000E+00  0.00000000E+00  0.00000000E+00
  0.00000000E+00  0.00000000E+00  0.00000000E+00
  0.00000000E+00  0.00000000E+00  0.00000000E+00
