Ti1 H1 C122 N4 O2                       
   1.00000000000000     
    19.7938031706549253   -0.0000977595350446    0.0053237820829537
    -9.8970182448912212   17.0268991496169093   -0.0026547512132058
     0.0078281978567575   -0.0000413706514209   29.8564757432477954
   Ti   H    C    N    O 
     1     1   122     4     2
Direct
  0.4375049336188548  0.5000045499556213  0.4306326371666986
  0.4379836168562570  0.5000083458872057  0.6331900099734503
  0.0420509951123056  0.0841262085157639  0.3997670674007752
  0.0411903593844264  0.2082855573168982  0.3997085255638385
  0.0404465028760568  0.3329797407840342  0.3995710901958933
  0.0405357426888209  0.4581964121430717  0.3995427354011218
  0.0413293475381786  0.5837097829748137  0.3998379608337560
  0.0420947921753068  0.7091652904574627  0.4001186620467947
  0.0423759138588843  0.8344237517860392  0.4001201602081904
  0.0424695940845625  0.9596078495169761  0.3998383164374547
  0.1681319098035545  0.0857658321239876  0.4000592232813515
  0.1674819560101252  0.2101976828552057  0.4003461612313636
  0.1653723034515386  0.3337309915793333  0.4004439514428170
  0.1644316773579447  0.4584624684613315  0.3997425536647785
  0.1652731906589002  0.5836178585221575  0.3994582479106815
  0.1664002782428228  0.7089269329630631  0.3997380504011055
  0.1670439792075952  0.8344148616848936  0.4000802722699072
  0.1675082485548068  0.9600167895681851  0.3999672403178768
  0.2926150223559516  0.0857463119647846  0.4000559047707376
  0.2940580285935130  0.2131125255128163  0.4015460453187641
  0.2923489033459737  0.3383324807724947  0.4033137740524162
  0.2880760274145471  0.4577683597933108  0.4026240493555236
  0.2887954284589330  0.5829302665663910  0.4006517885527738
  0.2906881606115994  0.7083579112432209  0.3997677229466879
  0.2916349732712282  0.8338811765281142  0.3996939534378042
  0.2921401369642852  0.9595876754844134  0.3998112211673188
  0.4170723397756266  0.0840996767078815  0.3997660981388721
  0.4177045556444349  0.2101835775379133  0.4003520041573476
  0.4209964182848755  0.3383293888833198  0.4032926454146681
  0.4148237854307463  0.7063020180637135  0.4010112931899434
  0.4161250614259612  0.8323128972338496  0.3998333908884645
  0.4166557929855407  0.9582380062454399  0.3997543518607263
  0.5415536559773180  0.0825842796762790  0.3997730797450819
  0.5420980899147324  0.2082745446511031  0.3997108330954942
  0.5433810285210426  0.3337177497346773  0.4004286558024499
  0.5447189503283854  0.4577601284714308  0.4026142969179297
  0.5385812651851338  0.7021394935169328  0.4033181029706835
  0.5405285167063458  0.8303075466396079  0.4006268718263711
  0.5411209154034492  0.9566839698919569  0.3998340223302436
  0.6661311523181928  0.0819733364465340  0.3999996261729246
  0.6665866739161102  0.2074639274907416  0.3998716859595491
  0.6675444427191746  0.3329795338565365  0.3995637724193589
  0.6690672967558964  0.4584694370328130  0.3997304677577126
  0.6691813957326325  0.5829395447568060  0.4006426099062019
  0.6665007596669804  0.7063140655489138  0.4009884666101807
  0.6647862348133263  0.8303358316862111  0.4006457815037860
  0.6656496091837382  0.9563052063962215  0.4000015293654673
  0.7908485886035965  0.0819776115350722  0.3999769760449835
  0.7911668391531329  0.2073320680548212  0.4002216255491083
  0.7917535994933123  0.3327406875197690  0.3999165515653521
  0.7926573968703247  0.4582046851377564  0.3995200436960385
  0.7933546806929990  0.5836117532667657  0.3994389915600830
  0.7927032726517437  0.7083746053666236  0.3997592469984407
  0.7912060886410504  0.8323253473804191  0.3998265699712427
  0.7905655637501139  0.9567036118313609  0.3998180712653458
  0.9160581837727545  0.0826178096961974  0.3997436439430049
  0.9158880835980594  0.2074845057416164  0.3998350173589341
  0.9160035588313454  0.3327476595289121  0.3999231729037330
  0.9166157129905702  0.4582349511004367  0.3999604480211899
  0.9173697744538599  0.5837099802550522  0.3998273338641090
  0.9175424370704344  0.7089437395886635  0.3997403030367503
  0.9172721108308153  0.8339105865095076  0.3997305247246998
  0.9166090966294707  0.9582668942148865  0.3997589533146880
  0.0844376608146776  0.0433164188878873  0.3998310447565037
  0.0838112988406491  0.1676862351320694  0.3998319485943749
  0.0823284092113721  0.2916400806560918  0.3997679171745906
  0.0816536546511862  0.4163798250947259  0.3994589259588563
  0.0823378304921285  0.5418016502752290  0.3995426699370186
  0.0832547366260756  0.6672503437814401  0.3999226819171108
  0.0838342994099522  0.7926664988585544  0.4002208980073683
  0.0841583289383605  0.9180263612926378  0.3999997223049882
  0.2093445199353886  0.0436946585035565  0.3999996759756497
  0.2102209690094792  0.1696924924128085  0.4006284155192674
  0.2085204653207150  0.2936965670282367  0.4010163030764394
  0.2058633046738369  0.4170671879138039  0.4006554587840978
  0.2059674599468361  0.5415350013090322  0.3997413067542429
  0.2074656269636329  0.6670181428902284  0.3995711288749044
  0.2084023631681373  0.7925138616475260  0.3998355829517348
  0.2088701264481214  0.9180212973218758  0.3999769593798091
  0.3338617694528832  0.0432960267700310  0.3998183259765718
  0.3344493170714785  0.1696639879427072  0.4006482077367383
  0.3364410534605868  0.2978603240100824  0.4033275583497986
  0.3303057589375880  0.5422290427441063  0.4026203847636082
  0.3316402088145670  0.6662668175727909  0.4004404762031672
  0.3329038266686605  0.7917128111787716  0.3997095844222189
  0.3334388478053612  0.9173809214111871  0.3997450430303842
  0.4583410502636058  0.0417326056628017  0.3997610297664183
  0.4588797249198900  0.1676749612200547  0.3998275934401774
  0.4601858405652301  0.2936866311712935  0.4009944640107975
  0.4540160227389154  0.6616665644506554  0.4033045548967455
  0.4572833499360493  0.7898013629557972  0.4003447984815952
  0.4579236008543822  0.9158732751917291  0.3997695744633903
  0.5828602006424175  0.0403924937770467  0.3998398873585898
  0.5833597962192680  0.1660894943616603  0.3997312716341896
  0.5843276831699610  0.2916259422989282  0.3997608255660672
  0.5862409490677646  0.4170609070390938  0.4006454424847191
  0.5869590656705710  0.5422403165963640  0.4026114573088392
  0.5826678580923240  0.6616713150951314  0.4032848733704263
  0.5809450846127737  0.7868876285071077  0.4015406460491067
  0.5823649883781613  0.9142344272776656  0.4000614823093178
  0.7074902610237255  0.0399828929443893  0.3999676689474431
  0.7079503748543292  0.1655756786156858  0.4001202010433936
  0.7085969550832644  0.2910558064944352  0.3997407329303448
  0.7097421642731921  0.4163883585913552  0.3994388834976386
  0.7105980098053469  0.5415308214166590  0.3997298144777635
  0.7096638501243617  0.6662827158082645  0.4004246053677696
  0.7075215380433701  0.7898168917487073  0.4003487080974661
  0.7068678939626611  0.9142536089421911  0.4000561152655771
  0.8325518848470704  0.0404115282426657  0.3998106551376288
  0.8326275419857929  0.1655837282556669  0.4000802838857573
  0.8329277279720508  0.2908330424711852  0.4001199123919893
  0.8336581499044747  0.4162884789085636  0.3998277467737978
  0.8344521608129886  0.5417947733732226  0.3995199999249066
  0.8345653392184925  0.6670207234655657  0.3995634176706945
  0.8338244838391109  0.7917260148069382  0.3997099247553816
  0.8329722011276091  0.9159003093833303  0.3997652957808527
  0.9584176992994807  0.0417612775369815  0.3997520325473434
  0.9577524618757609  0.1661171655859406  0.3996929247611299
  0.9574717846141007  0.2910710901600282  0.3997378866924366
  0.9576185557644487  0.4162886843941717  0.3998381954413485
  0.9583792090786444  0.5417628048644580  0.3999602196265438
  0.9590123626558066  0.6672577937724656  0.3999156239942595
  0.9591233188671581  0.7925356729574963  0.3998712666257417
  0.9589701666664127  0.9174158463556482  0.3997714691651444
  0.4103500478702989  0.5817165467601517  0.4052841582757771
  0.5463913013947025  0.5817184146920830  0.4052666941113960
  0.3286328293730370  0.4182827544921309  0.4052925514365291
  0.4646723385931353  0.4182821590344658  0.4052735139747817
  0.4375615601216657  0.5000219455541860  0.4856069779241478
  0.4363638239343393  0.5000097179718954  0.6003400126840865
 
  0.00000000E+00  0.00000000E+00  0.00000000E+00
  0.00000000E+00  0.00000000E+00  0.00000000E+00
  0.00000000E+00  0.00000000E+00  0.00000000E+00
  0.00000000E+00  0.00000000E+00  0.00000000E+00
  0.00000000E+00  0.00000000E+00  0.00000000E+00
  0.00000000E+00  0.00000000E+00  0.00000000E+00
  0.00000000E+00  0.00000000E+00  0.00000000E+00
  0.00000000E+00  0.00000000E+00  0.00000000E+00
  0.00000000E+00  0.00000000E+00  0.00000000E+00
  0.00000000E+00  0.00000000E+00  0.00000000E+00
  0.00000000E+00  0.00000000E+00  0.00000000E+00
  0.00000000E+00  0.00000000E+00  0.00000000E+00
  0.00000000E+00  0.00000000E+00  0.00000000E+00
  0.00000000E+00  0.00000000E+00  0.00000000E+00
  0.00000000E+00  0.00000000E+00  0.00000000E+00
  0.00000000E+00  0.00000000E+00  0.00000000E+00
  0.00000000E+00  0.00000000E+00  0.00000000E+00
  0.00000000E+00  0.00000000E+00  0.00000000E+00
  0.00000000E+00  0.00000000E+00  0.00000000E+00
  0.00000000E+00  0.00000000E+00  0.00000000E+00
  0.00000000E+00  0.00000000E+00  0.00000000E+00
  0.00000000E+00  0.00000000E+00  0.00000000E+00
  0.00000000E+00  0.00000000E+00  0.00000000E+00
  0.00000000E+00  0.00000000E+00  0.00000000E+00
  0.00000000E+00  0.00000000E+00  0.00000000E+00
  0.00000000E+00  0.00000000E+00  0.00000000E+00
  0.00000000E+00  0.00000000E+00  0.00000000E+00
  0.00000000E+00  0.00000000E+00  0.00000000E+00
  0.00000000E+00  0.00000000E+00  0.00000000E+00
  0.00000000E+00  0.00000000E+00  0.00000000E+00
  0.00000000E+00  0.00000000E+00  0.00000000E+00
  0.00000000E+00  0.00000000E+00  0.00000000E+00
  0.00000000E+00  0.00000000E+00  0.00000000E+00
  0.00000000E+00  0.00000000E+00  0.00000000E+00
  0.00000000E+00  0.00000000E+00  0.00000000E+00
  0.00000000E+00  0.00000000E+00  0.00000000E+00
  0.00000000E+00  0.00000000E+00  0.00000000E+00
  0.00000000E+00  0.00000000E+00  0.00000000E+00
  0.00000000E+00  0.00000000E+00  0.00000000E+00
  0.00000000E+00  0.00000000E+00  0.00000000E+00
  0.00000000E+00  0.00000000E+00  0.00000000E+00
  0.00000000E+00  0.00000000E+00  0.00000000E+00
  0.00000000E+00  0.00000000E+00  0.00000000E+00
  0.00000000E+00  0.00000000E+00  0.00000000E+00
  0.00000000E+00  0.00000000E+00  0.00000000E+00
  0.00000000E+00  0.00000000E+00  0.00000000E+00
  0.00000000E+00  0.00000000E+00  0.00000000E+00
  0.00000000E+00  0.00000000E+00  0.00000000E+00
  0.00000000E+00  0.00000000E+00  0.00000000E+00
  0.00000000E+00  0.00000000E+00  0.00000000E+00
  0.00000000E+00  0.00000000E+00  0.00000000E+00
  0.00000000E+00  0.00000000E+00  0.00000000E+00
  0.00000000E+00  0.00000000E+00  0.00000000E+00
  0.00000000E+00  0.00000000E+00  0.00000000E+00
  0.00000000E+00  0.00000000E+00  0.00000000E+00
  0.00000000E+00  0.00000000E+00  0.00000000E+00
  0.00000000E+00  0.00000000E+00  0.00000000E+00
  0.00000000E+00  0.00000000E+00  0.00000000E+00
  0.00000000E+00  0.00000000E+00  0.00000000E+00
  0.00000000E+00  0.00000000E+00  0.00000000E+00
  0.00000000E+00  0.00000000E+00  0.00000000E+00
  0.00000000E+00  0.00000000E+00  0.00000000E+00
  0.00000000E+00  0.00000000E+00  0.00000000E+00
  0.00000000E+00  0.00000000E+00  0.00000000E+00
  0.00000000E+00  0.00000000E+00  0.00000000E+00
  0.00000000E+00  0.00000000E+00  0.00000000E+00
  0.00000000E+00  0.00000000E+00  0.00000000E+00
  0.00000000E+00  0.00000000E+00  0.00000000E+00
  0.00000000E+00  0.00000000E+00  0.00000000E+00
  0.00000000E+00  0.00000000E+00  0.00000000E+00
  0.00000000E+00  0.00000000E+00  0.00000000E+00
  0.00000000E+00  0.00000000E+00  0.00000000E+00
  0.00000000E+00  0.00000000E+00  0.00000000E+00
  0.00000000E+00  0.00000000E+00  0.00000000E+00
  0.00000000E+00  0.00000000E+00  0.00000000E+00
  0.00000000E+00  0.00000000E+00  0.00000000E+00
  0.00000000E+00  0.00000000E+00  0.00000000E+00
  0.00000000E+00  0.00000000E+00  0.00000000E+00
  0.00000000E+00  0.00000000E+00  0.00000000E+00
  0.00000000E+00  0.00000000E+00  0.00000000E+00
  0.00000000E+00  0.00000000E+00  0.00000000E+00
  0.00000000E+00  0.00000000E+00  0.00000000E+00
  0.00000000E+00  0.00000000E+00  0.00000000E+00
  0.00000000E+00  0.00000000E+00  0.00000000E+00
  0.00000000E+00  0.00000000E+00  0.00000000E+00
  0.00000000E+00  0.00000000E+00  0.00000000E+00
  0.00000000E+00  0.00000000E+00  0.00000000E+00
  0.00000000E+00  0.00000000E+00  0.00000000E+00
  0.00000000E+00  0.00000000E+00  0.00000000E+00
  0.00000000E+00  0.00000000E+00  0.00000000E+00
  0.00000000E+00  0.00000000E+00  0.00000000E+00
  0.00000000E+00  0.00000000E+00  0.00000000E+00
  0.00000000E+00  0.00000000E+00  0.00000000E+00
  0.00000000E+00  0.00000000E+00  0.00000000E+00
  0.00000000E+00  0.00000000E+00  0.00000000E+00
  0.00000000E+00  0.00000000E+00  0.00000000E+00
  0.00000000E+00  0.00000000E+00  0.00000000E+00
  0.00000000E+00  0.00000000E+00  0.00000000E+00
  0.00000000E+00  0.00000000E+00  0.00000000E+00
  0.00000000E+00  0.00000000E+00  0.00000000E+00
  0.00000000E+00  0.00000000E+00  0.00000000E+00
  0.00000000E+00  0.00000000E+00  0.00000000E+00
  0.00000000E+00  0.00000000E+00  0.00000000E+00
  0.00000000E+00  0.00000000E+00  0.00000000E+00
  0.00000000E+00  0.00000000E+00  0.00000000E+00
  0.00000000E+00  0.00000000E+00  0.00000000E+00
  0.00000000E+00  0.00000000E+00  0.00000000E+00
  0.00000000E+00  0.00000000E+00  0.00000000E+00
  0.00000000E+00  0.00000000E+00  0.00000000E+00
  0.00000000E+00  0.00000000E+00  0.00000000E+00
  0.00000000E+00  0.00000000E+00  0.00000000E+00
  0.00000000E+00  0.00000000E+00  0.00000000E+00
  0.00000000E+00  0.00000000E+00  0.00000000E+00
  0.00000000E+00  0.00000000E+00  0.00000000E+00
  0.00000000E+00  0.00000000E+00  0.00000000E+00
  0.00000000E+00  0.00000000E+00  0.00000000E+00
  0.00000000E+00  0.00000000E+00  0.00000000E+00
  0.00000000E+00  0.00000000E+00  0.00000000E+00
  0.00000000E+00  0.00000000E+00  0.00000000E+00
  0.00000000E+00  0.00000000E+00  0.00000000E+00
  0.00000000E+00  0.00000000E+00  0.00000000E+00
  0.00000000E+00  0.00000000E+00  0.00000000E+00
  0.00000000E+00  0.00000000E+00  0.00000000E+00
  0.00000000E+00  0.00000000E+00  0.00000000E+00
  0.00000000E+00  0.00000000E+00  0.00000000E+00
  0.00000000E+00  0.00000000E+00  0.00000000E+00
  0.00000000E+00  0.00000000E+00  0.00000000E+00
  0.00000000E+00  0.00000000E+00  0.00000000E+00
  0.00000000E+00  0.00000000E+00  0.00000000E+00
  0.00000000E+00  0.00000000E+00  0.00000000E+00
