H1 Pd1 C123 N3 O2                       
   1.00000000000000     
    19.8446254923029137    0.0047540000141624    0.0595751016419887
    -9.9181856602940393   17.0352209015611891   -0.0182368162260597
     0.0892680690767238    0.0204498778467685   29.7615065291056737
   H    Pd   C    N    O 
     1     1   123     3     2
Direct
  0.5278268659419415  0.5493134500027401  0.5152003274143521
  0.4368957345238792  0.4983523373131969  0.4126337810959547
  0.0416767772202391  0.0839936546713379  0.4000365614299637
  0.0404675035920509  0.2079001257899913  0.4002798773742179
  0.0397733979500089  0.3326627997083996  0.3999940595428442
  0.0400763216760391  0.4581376004494414  0.3994108506447519
  0.0412123319335130  0.5838510307588876  0.3990680879460872
  0.0422664018478955  0.7094274524746771  0.3992590859531036
  0.0426231023495632  0.8347552136717197  0.3994533311858880
  0.0425153901558594  0.9597571560749656  0.3995823995574212
  0.1677938475685239  0.0857432823755429  0.4006435625121057
  0.1667904262267264  0.2099686390564317  0.4015674848791668
  0.1643044492801861  0.3333576107725414  0.4014732444581246
  0.1633793843830378  0.4583237248837528  0.4006738410854171
  0.1645344193629749  0.5837304845866821  0.3997534655528733
  0.1662110349062110  0.7092530018419581  0.3993541801152786
  0.1671255502286234  0.8347768380035552  0.3995083280228562
  0.1676207383502220  0.9603487314094090  0.3998155648634782
  0.2927267250267271  0.0860585900735746  0.4005935189612796
  0.2933817336559079  0.2129861133277353  0.4023706967962376
  0.2912939568993189  0.3378961972435548  0.4036375799312052
  0.2862674441917343  0.4576679089911149  0.4028760256471793
  0.2872892398679315  0.5833304016829962  0.4013130102934656
  0.2901313618136754  0.7087054867029606  0.4001231364184084
  0.2914853513299704  0.8341784659458500  0.3994987478951338
  0.2921716863227770  0.9598859889927656  0.3996551422550618
  0.4171272241792530  0.0842132306584185  0.3999840190767853
  0.4179232388552330  0.2103106472353250  0.4012704458374930
  0.4200883398404589  0.3377455929785337  0.4041253809571151
  0.4140269822109336  0.7064072390311041  0.4017662601831254
  0.4158139836219326  0.8324225858987138  0.4001867443637112
  0.4165758920716547  0.9583284563561023  0.3996097387458494
  0.5415198167114675  0.0824042166507121  0.3995714135826217
  0.5422873428510178  0.2081326486335849  0.4000756053332319
  0.5437833659005860  0.3336937457309346  0.4016827808030740
  0.5482875191642153  0.4591349047298080  0.4047189214514553
  0.5378703558319019  0.7009140281000854  0.4039185041551442
  0.5400568183021337  0.8297133313131340  0.4012697470174477
  0.5409175017235199  0.9563770666389247  0.3999225738908129
  0.6659219258344058  0.0815652150339051  0.3996708055906131
  0.6665952896535489  0.2071637932850147  0.3994627617110781
  0.6677718002564799  0.3326788982434204  0.3998458101867589
  0.6704712496770104  0.4583838287929280  0.4012442385282272
  0.6720389471757421  0.5842209876569482  0.4029369940964669
  0.6669626381315026  0.7061394919876364  0.4024419117798990
  0.6645091706966572  0.8297123867535626  0.4013899204750401
  0.6653243508197940  0.9558027645623414  0.4002707699456507
  0.7904925050450746  0.0815167089837749  0.3996718515388167
  0.7908933628544869  0.2069160384129887  0.3995042700100427
  0.7917690467984847  0.3324883122793948  0.3991831707855346
  0.7933291248493154  0.4581903653204794  0.3992906660889132
  0.7944881784635091  0.5838322869397495  0.4000145369684974
  0.7938352798570114  0.7090236787431753  0.4004718584973843
  0.7913500351462436  0.8323046319057631  0.4003650233035633
  0.7902551005441120  0.9563326111953533  0.3999804585746492
  0.9156285396108197  0.0822713738278276  0.3995861349229305
  0.9153779055628178  0.2071119538339583  0.3994979918357736
  0.9156749485886703  0.3324739682971019  0.3992521832302733
  0.9166793029813897  0.4581394487440992  0.3989170283694214
  0.9178290427568393  0.5838608928217357  0.3989792128982581
  0.9181333393572551  0.7092931557415326  0.3993355884559703
  0.9176698665307110  0.8342028133885566  0.3994792219742642
  0.9164991432009969  0.9581562611447370  0.3995718199812515
  0.0842274000237481  0.0433618859507640  0.4000509061807268
  0.0831912571011593  0.1674860032692670  0.4006390006434258
  0.0814675979116034  0.2912783840385132  0.4005417109142971
  0.0809143682530493  0.4161918747629522  0.3999945966581894
  0.0818364971575909  0.5417855641595589  0.3993466132088947
  0.0832245002163886  0.6674869534217192  0.3991890274982083
  0.0840100390043355  0.7930401117902206  0.3994862315366390
  0.0843096151415853  0.9183716396614710  0.3995914416464778
  0.2093691101312354  0.0440117994733494  0.4003598053836214
  0.2095316508821634  0.1695839533396048  0.4015787046523790
  0.2076644300652918  0.2935654115528537  0.4022738810754275
  0.2043556199870036  0.4166118713650306  0.4016626740700528
  0.2047846591714770  0.5415772450411005  0.4004564799849485
  0.2070387541417326  0.6672665715494507  0.3996757864950843
  0.2083234430280767  0.7928398621072917  0.3994036801281237
  0.2090025342501126  0.9184000823445591  0.3996432118060580
  0.3339521618476503  0.0435787912010670  0.4000426517280311
  0.3345724147697302  0.1699419915262957  0.4014718854025782
  0.3354109059551376  0.2973003400355053  0.4037905683540494
  0.3282338820274677  0.5424776443183509  0.4030311037692441
  0.3308107306497739  0.6665498011721988  0.4010554448594473
  0.3326181079616636  0.7920214894868400  0.3998867160117129
  0.3334267341278422  0.9176641460363677  0.3995162189406734
  0.4583761313623366  0.0418039473017615  0.3996637173311725
  0.4590239193202593  0.1677066034673537  0.4004188818637323
  0.4603464985236670  0.2938612784005681  0.4021222398551518
  0.4666133160144973  0.4199454857253145  0.4061052238043765
  0.4527302330793329  0.6614146216431748  0.4037576884587983
  0.4568629989045752  0.7898348656397816  0.4010352616933572
  0.4577671222205636  0.9159099597192619  0.3998382361543266
  0.5827426145299270  0.0401002307951305  0.3996387259052622
  0.5834511712382365  0.1659398479527304  0.3996079050384085
  0.5845828617388594  0.2914614528026770  0.4004352777968243
  0.5879283387432432  0.4169263161386459  0.4025071951421678
  0.5907139157298381  0.5431548212892759  0.4049129421716178
  0.5829800919449971  0.6609489913533507  0.4042903774131130
  0.5804082039436532  0.7859186217218979  0.4022764265646467
  0.5820412450396597  0.9137597342311702  0.4004360226288223
  0.7072123181775953  0.0395546765183807  0.3998430620208344
  0.7077882497748584  0.1652155330348564  0.3995394891243427
  0.7086748624925158  0.2907406093825237  0.3993985812638484
  0.7106207070185285  0.4162522027321301  0.3999630500844759
  0.7122690703425925  0.5417759844669965  0.4013884463338043
  0.7111169368433535  0.6670821821682036  0.4019445549474369
  0.7076167481183073  0.7896637425599370  0.4013353203173936
  0.7065586222722147  0.9137681538122737  0.4004915387475718
  0.8321469745242578  0.0400486550455343  0.3996631878436970
  0.8322428329393369  0.1651808757433653  0.3995185902241135
  0.8327485200531769  0.2905417168575366  0.3992787142600601
  0.8339363630821677  0.4161292285130186  0.3990167154586666
  0.8351946392007198  0.5418325475551349  0.3992773716963693
  0.8353717654513315  0.6674145033377890  0.3998615045452318
  0.8344509687418226  0.7921855218694851  0.4000125643507034
  0.8328732681081450  0.9157825016334069  0.3998888114850152
  0.9581029797057202  0.0416348658574578  0.3996438004348700
  0.9572051556224809  0.1657780670175732  0.3996917708860865
  0.9569287413112265  0.2907139441129577  0.3995192067231340
  0.9573731611510484  0.4161100099047367  0.3991182644582091
  0.9585219538311558  0.5418258183560454  0.3988999010906525
  0.9593938365039061  0.6674968742159449  0.3991381116924030
  0.9595024072851394  0.7928539967215811  0.3993629900615062
  0.9590860845422716  0.9176172818669288  0.3994529523162500
  0.4074638143693871  0.5818730186273495  0.4049330793100360
  0.5489999334081105  0.5809013992309874  0.4056407130062918
  0.3269222396910650  0.4184216840103623  0.4034779149285184
  0.4899201619333290  0.4940798100306690  0.5089516554178424
  0.4301009551020465  0.4989445503732696  0.4859894172215534
 
  0.00000000E+00  0.00000000E+00  0.00000000E+00
  0.00000000E+00  0.00000000E+00  0.00000000E+00
  0.00000000E+00  0.00000000E+00  0.00000000E+00
  0.00000000E+00  0.00000000E+00  0.00000000E+00
  0.00000000E+00  0.00000000E+00  0.00000000E+00
  0.00000000E+00  0.00000000E+00  0.00000000E+00
  0.00000000E+00  0.00000000E+00  0.00000000E+00
  0.00000000E+00  0.00000000E+00  0.00000000E+00
  0.00000000E+00  0.00000000E+00  0.00000000E+00
  0.00000000E+00  0.00000000E+00  0.00000000E+00
  0.00000000E+00  0.00000000E+00  0.00000000E+00
  0.00000000E+00  0.00000000E+00  0.00000000E+00
  0.00000000E+00  0.00000000E+00  0.00000000E+00
  0.00000000E+00  0.00000000E+00  0.00000000E+00
  0.00000000E+00  0.00000000E+00  0.00000000E+00
  0.00000000E+00  0.00000000E+00  0.00000000E+00
  0.00000000E+00  0.00000000E+00  0.00000000E+00
  0.00000000E+00  0.00000000E+00  0.00000000E+00
  0.00000000E+00  0.00000000E+00  0.00000000E+00
  0.00000000E+00  0.00000000E+00  0.00000000E+00
  0.00000000E+00  0.00000000E+00  0.00000000E+00
  0.00000000E+00  0.00000000E+00  0.00000000E+00
  0.00000000E+00  0.00000000E+00  0.00000000E+00
  0.00000000E+00  0.00000000E+00  0.00000000E+00
  0.00000000E+00  0.00000000E+00  0.00000000E+00
  0.00000000E+00  0.00000000E+00  0.00000000E+00
  0.00000000E+00  0.00000000E+00  0.00000000E+00
  0.00000000E+00  0.00000000E+00  0.00000000E+00
  0.00000000E+00  0.00000000E+00  0.00000000E+00
  0.00000000E+00  0.00000000E+00  0.00000000E+00
  0.00000000E+00  0.00000000E+00  0.00000000E+00
  0.00000000E+00  0.00000000E+00  0.00000000E+00
  0.00000000E+00  0.00000000E+00  0.00000000E+00
  0.00000000E+00  0.00000000E+00  0.00000000E+00
  0.00000000E+00  0.00000000E+00  0.00000000E+00
  0.00000000E+00  0.00000000E+00  0.00000000E+00
  0.00000000E+00  0.00000000E+00  0.00000000E+00
  0.00000000E+00  0.00000000E+00  0.00000000E+00
  0.00000000E+00  0.00000000E+00  0.00000000E+00
  0.00000000E+00  0.00000000E+00  0.00000000E+00
  0.00000000E+00  0.00000000E+00  0.00000000E+00
  0.00000000E+00  0.00000000E+00  0.00000000E+00
  0.00000000E+00  0.00000000E+00  0.00000000E+00
  0.00000000E+00  0.00000000E+00  0.00000000E+00
  0.00000000E+00  0.00000000E+00  0.00000000E+00
  0.00000000E+00  0.00000000E+00  0.00000000E+00
  0.00000000E+00  0.00000000E+00  0.00000000E+00
  0.00000000E+00  0.00000000E+00  0.00000000E+00
  0.00000000E+00  0.00000000E+00  0.00000000E+00
  0.00000000E+00  0.00000000E+00  0.00000000E+00
  0.00000000E+00  0.00000000E+00  0.00000000E+00
  0.00000000E+00  0.00000000E+00  0.00000000E+00
  0.00000000E+00  0.00000000E+00  0.00000000E+00
  0.00000000E+00  0.00000000E+00  0.00000000E+00
  0.00000000E+00  0.00000000E+00  0.00000000E+00
  0.00000000E+00  0.00000000E+00  0.00000000E+00
  0.00000000E+00  0.00000000E+00  0.00000000E+00
  0.00000000E+00  0.00000000E+00  0.00000000E+00
  0.00000000E+00  0.00000000E+00  0.00000000E+00
  0.00000000E+00  0.00000000E+00  0.00000000E+00
  0.00000000E+00  0.00000000E+00  0.00000000E+00
  0.00000000E+00  0.00000000E+00  0.00000000E+00
  0.00000000E+00  0.00000000E+00  0.00000000E+00
  0.00000000E+00  0.00000000E+00  0.00000000E+00
  0.00000000E+00  0.00000000E+00  0.00000000E+00
  0.00000000E+00  0.00000000E+00  0.00000000E+00
  0.00000000E+00  0.00000000E+00  0.00000000E+00
  0.00000000E+00  0.00000000E+00  0.00000000E+00
  0.00000000E+00  0.00000000E+00  0.00000000E+00
  0.00000000E+00  0.00000000E+00  0.00000000E+00
  0.00000000E+00  0.00000000E+00  0.00000000E+00
  0.00000000E+00  0.00000000E+00  0.00000000E+00
  0.00000000E+00  0.00000000E+00  0.00000000E+00
  0.00000000E+00  0.00000000E+00  0.00000000E+00
  0.00000000E+00  0.00000000E+00  0.00000000E+00
  0.00000000E+00  0.00000000E+00  0.00000000E+00
  0.00000000E+00  0.00000000E+00  0.00000000E+00
  0.00000000E+00  0.00000000E+00  0.00000000E+00
  0.00000000E+00  0.00000000E+00  0.00000000E+00
  0.00000000E+00  0.00000000E+00  0.00000000E+00
  0.00000000E+00  0.00000000E+00  0.00000000E+00
  0.00000000E+00  0.00000000E+00  0.00000000E+00
  0.00000000E+00  0.00000000E+00  0.00000000E+00
  0.00000000E+00  0.00000000E+00  0.00000000E+00
  0.00000000E+00  0.00000000E+00  0.00000000E+00
  0.00000000E+00  0.00000000E+00  0.00000000E+00
  0.00000000E+00  0.00000000E+00  0.00000000E+00
  0.00000000E+00  0.00000000E+00  0.00000000E+00
  0.00000000E+00  0.00000000E+00  0.00000000E+00
  0.00000000E+00  0.00000000E+00  0.00000000E+00
  0.00000000E+00  0.00000000E+00  0.00000000E+00
  0.00000000E+00  0.00000000E+00  0.00000000E+00
  0.00000000E+00  0.00000000E+00  0.00000000E+00
  0.00000000E+00  0.00000000E+00  0.00000000E+00
  0.00000000E+00  0.00000000E+00  0.00000000E+00
  0.00000000E+00  0.00000000E+00  0.00000000E+00
  0.00000000E+00  0.00000000E+00  0.00000000E+00
  0.00000000E+00  0.00000000E+00  0.00000000E+00
  0.00000000E+00  0.00000000E+00  0.00000000E+00
  0.00000000E+00  0.00000000E+00  0.00000000E+00
  0.00000000E+00  0.00000000E+00  0.00000000E+00
  0.00000000E+00  0.00000000E+00  0.00000000E+00
  0.00000000E+00  0.00000000E+00  0.00000000E+00
  0.00000000E+00  0.00000000E+00  0.00000000E+00
  0.00000000E+00  0.00000000E+00  0.00000000E+00
  0.00000000E+00  0.00000000E+00  0.00000000E+00
  0.00000000E+00  0.00000000E+00  0.00000000E+00
  0.00000000E+00  0.00000000E+00  0.00000000E+00
  0.00000000E+00  0.00000000E+00  0.00000000E+00
  0.00000000E+00  0.00000000E+00  0.00000000E+00
  0.00000000E+00  0.00000000E+00  0.00000000E+00
  0.00000000E+00  0.00000000E+00  0.00000000E+00
  0.00000000E+00  0.00000000E+00  0.00000000E+00
  0.00000000E+00  0.00000000E+00  0.00000000E+00
  0.00000000E+00  0.00000000E+00  0.00000000E+00
  0.00000000E+00  0.00000000E+00  0.00000000E+00
  0.00000000E+00  0.00000000E+00  0.00000000E+00
  0.00000000E+00  0.00000000E+00  0.00000000E+00
  0.00000000E+00  0.00000000E+00  0.00000000E+00
  0.00000000E+00  0.00000000E+00  0.00000000E+00
  0.00000000E+00  0.00000000E+00  0.00000000E+00
  0.00000000E+00  0.00000000E+00  0.00000000E+00
  0.00000000E+00  0.00000000E+00  0.00000000E+00
  0.00000000E+00  0.00000000E+00  0.00000000E+00
  0.00000000E+00  0.00000000E+00  0.00000000E+00
  0.00000000E+00  0.00000000E+00  0.00000000E+00
  0.00000000E+00  0.00000000E+00  0.00000000E+00
  0.00000000E+00  0.00000000E+00  0.00000000E+00
  0.00000000E+00  0.00000000E+00  0.00000000E+00
  0.00000000E+00  0.00000000E+00  0.00000000E+00
