Au1 C122 N4 O1                          
   1.00000000000000     
    19.7832171632636964   -0.0026042151398519    0.0296350634718083
    -9.8939750281186480   17.0358791309684321   -0.1352065688997704
     0.0446855162589143   -0.2109474524565997   29.8604558505858328
   Au   C    N    O 
     1   122     4     1
Direct
  0.4245561340647463  0.4792290291081275  0.4577794146201803
  0.0422013692021218  0.0842993916049782  0.3995057795586354
  0.0414139256213257  0.2084940836965854  0.3990488963416478
  0.0409337453422095  0.3332095977305672  0.3985291941150557
  0.0410940073373211  0.4584365503987421  0.3986379469953689
  0.0415166144970703  0.5837972318922690  0.3995230623565361
  0.0420828726457961  0.7091636311438769  0.3999826422236570
  0.0424455069171883  0.8345423753630676  0.4000332030429134
  0.0426159672262647  0.9597424472525012  0.3999296355660455
  0.1681603381371393  0.0858733865529735  0.4001075297547286
  0.1675871255182666  0.2102536975687608  0.3999575711062062
  0.1659428712531185  0.3340239800475269  0.3996720027166674
  0.1654845718073452  0.4586292968799738  0.3976723172137517
  0.1657442783124070  0.5836569158058309  0.3984983700993768
  0.1665131567463822  0.7090865790290158  0.3996565082569290
  0.1671056150342839  0.8345525726044523  0.4000009901893133
  0.1675912828294603  0.9601434869914882  0.3999400599140501
  0.2927390782259270  0.0858660891424875  0.4000593551260065
  0.2942192785391280  0.2134490920765680  0.4017268788538625
  0.2923186219201185  0.3384625491039837  0.4050898152992400
  0.2898837286155083  0.4578016607816012  0.4032755619204920
  0.2896946654576539  0.5834136130843331  0.3987028850620001
  0.2907720630155730  0.7087219956772504  0.3991940169611404
  0.2916719511777984  0.8340917957365889  0.4000066430750283
  0.2921843992025377  0.9597452450512342  0.3999771269613380
  0.4171788049674844  0.0842308458154984  0.3997838269266479
  0.4177390342231846  0.2100686417084576  0.3999973138714376
  0.4213147465338903  0.3383878670121486  0.4024606392148559
  0.4148710294228675  0.7068452695126730  0.3994180837118392
  0.4162089835353049  0.8327933506513640  0.3999031963199262
  0.4167353203022054  0.9585098018770648  0.4001640038061239
  0.5417028826196666  0.0828485482926748  0.3999873753830744
  0.5422151965909903  0.2084940638825097  0.3994613986542968
  0.5431491080249429  0.3339638942029244  0.3991897712082106
  0.5422653600494982  0.4573781100952381  0.3989943825535455
  0.5385623451840025  0.7021235590806446  0.3990650156054475
  0.5404074370128739  0.8304406877491901  0.3999349507835713
  0.5412547667757682  0.9569475103549944  0.4002953455126235
  0.6662628655344582  0.0822339779699878  0.4002921010306205
  0.6667293466705269  0.2078079180820273  0.3997962637488289
  0.6673821838561403  0.3332150724448323  0.3991476529858575
  0.6682045381786714  0.4585902266776672  0.3982661397149259
  0.6684455197764123  0.5832982459698359  0.3982189017821143
  0.6668104002825535  0.7067135048711779  0.3990739970263227
  0.6650291629513612  0.8304288365234500  0.3999160412503889
  0.6657872333420377  0.9565009921413493  0.4003899295256288
  0.7910517309594260  0.0822184057505183  0.4002980059199849
  0.7913391859301103  0.2076050301973077  0.4000958998642417
  0.7918442586158846  0.3330513315809558  0.3998258135409929
  0.7924112066869005  0.4584648465488751  0.3994124875943341
  0.7928186380533179  0.5836327878398362  0.3992207057194933
  0.7928416715964671  0.7086426518845621  0.3995410506677068
  0.7915403022716760  0.8327335923003160  0.4001676401263058
  0.7907479541234558  0.9569475982279975  0.4003899594955399
  0.9162715717287314  0.0828665092611672  0.3998250456185047
  0.9161565278214677  0.2077995708787478  0.3995160753231572
  0.9162965133576469  0.3330543048160275  0.3994827919750565
  0.9167151170870272  0.4583827447600596  0.3997936453936423
  0.9172640580930833  0.5838036677347477  0.3998249829591340
  0.9175353512389930  0.7090832892180676  0.3998867128089017
  0.9173869367089840  0.8340565948676602  0.4001460782103679
  0.9168464801086131  0.9585057261468466  0.4001501882083076
  0.0845260059674697  0.0434203743696544  0.3997583898865439
  0.0839055955024425  0.1677917371021430  0.3992220165663153
  0.0826708692199974  0.2918563263771035  0.3988677363924714
  0.0825498915309714  0.4167617075505444  0.3980265730892730
  0.0827298698904645  0.5419316419299544  0.3988168435888387
  0.0833738265909310  0.6673623524957965  0.3997542550190796
  0.0839131729257683  0.7928231553817946  0.4000327086527509
  0.0842407057907784  0.9181527257765897  0.3999712811275516
  0.2094291774297649  0.0438183870635702  0.4000794790574210
  0.2101701106910293  0.1698189667210772  0.4007188227912029
  0.2088010021618404  0.2938945332764559  0.4009186078716413
  0.2072216833068139  0.4172742552803645  0.3990533454021651
  0.2068636160933177  0.5419227454940690  0.3980013590844302
  0.2077823946517739  0.6672670072234266  0.3991289332778204
  0.2084710257004836  0.7926385596654427  0.3999341194003828
  0.2089748422611531  0.9181709726552016  0.3999531466924384
  0.3339475192124384  0.0434174034274298  0.3998720989449625
  0.3346799077838254  0.1697934940033395  0.4005357684769048
  0.3364600157190069  0.2978778434480935  0.4038917753948275
  0.3330949910783578  0.5438837504094364  0.4010769570874242
  0.3319662547844874  0.6666015710529093  0.3989583025928338
  0.3329684234086517  0.7920285349026206  0.3997482336805449
  0.3335374559249245  0.9176009514284962  0.4001229041730084
  0.4584972657183483  0.0419539663988088  0.3999783981654079
  0.4589575911173663  0.1676718540565387  0.3996125541337304
  0.4601448134310221  0.2935911827903389  0.4001451225215179
  0.4533456846042067  0.6613333940250513  0.3997811517434413
  0.4573296990598975  0.7902971040970296  0.3997174024060755
  0.4580338368733548  0.9162054562248152  0.4001846080340062
  0.5830385103763287  0.0406360859532608  0.4002449539566038
  0.5835069117177608  0.1663821855733192  0.3997020171299616
  0.5843083326489417  0.2918305387283389  0.3991669795059238
  0.5850971325472938  0.4171851221525316  0.3984135768140376
  0.5852335599073537  0.5436354638009117  0.3975212109818008
  0.5828257473510702  0.6611802461489878  0.3982238508889379
  0.5807441778709636  0.7864839007511810  0.3995942174895419
  0.5823892097507394  0.9143741347804695  0.4002731821897985
  0.7076399404846541  0.0401872904858479  0.4004123002197273
  0.7081050687064598  0.1658717647711621  0.4001198406626558
  0.7086427686043594  0.2913613102062940  0.3996095829115511
  0.7093148713438870  0.4168070783387173  0.3988754391152579
  0.7099298612363052  0.5418847291784994  0.3985388293674696
  0.7094862100409532  0.6664703419381859  0.3988555753149751
  0.7078744882561179  0.7902105193087072  0.3998503404295195
  0.7070423785046228  0.9143796753680105  0.4003192436808171
  0.8327019854690747  0.0406521324180112  0.4002547451355916
  0.8328523823227313  0.1658700188601104  0.4000398470356305
  0.8331858965055395  0.2912626113727294  0.3999101786886856
  0.8336487142110410  0.4166050127650693  0.3997909574224482
  0.8341703756519695  0.5419471523163762  0.3995054528852158
  0.8344060234931986  0.6672347362782306  0.3995829237998700
  0.8339889641931086  0.7919515278290752  0.4000405358527407
  0.8331957676281867  0.9161641082859181  0.4003171061364073
  0.9585808659357848  0.0419917098669071  0.3998078226983706
  0.9579894928420932  0.1663938312750219  0.3993668370652436
  0.9578030768811394  0.2913480944012679  0.3991115479828044
  0.9580063450121947  0.4165973766559801  0.3993673721965739
  0.9585121782909525  0.5420291113063033  0.3997962539307935
  0.9589864614097883  0.6673720476454414  0.3999083229595851
  0.9591473984517008  0.7926236213682157  0.4000292821438557
  0.9590905257769271  0.9175736613465747  0.4001201586416072
  0.4110632228916903  0.5823489119963910  0.4015529261585454
  0.5456800900108063  0.5819900445911459  0.3967427469827534
  0.3286845193482631  0.4185311818662131  0.4107204917614176
  0.4637982046720039  0.4182878856077941  0.4030286667185512
  0.4699901523597870  0.5269630085804932  0.5127189665176548
 
  0.00000000E+00  0.00000000E+00  0.00000000E+00
  0.00000000E+00  0.00000000E+00  0.00000000E+00
  0.00000000E+00  0.00000000E+00  0.00000000E+00
  0.00000000E+00  0.00000000E+00  0.00000000E+00
  0.00000000E+00  0.00000000E+00  0.00000000E+00
  0.00000000E+00  0.00000000E+00  0.00000000E+00
  0.00000000E+00  0.00000000E+00  0.00000000E+00
  0.00000000E+00  0.00000000E+00  0.00000000E+00
  0.00000000E+00  0.00000000E+00  0.00000000E+00
  0.00000000E+00  0.00000000E+00  0.00000000E+00
  0.00000000E+00  0.00000000E+00  0.00000000E+00
  0.00000000E+00  0.00000000E+00  0.00000000E+00
  0.00000000E+00  0.00000000E+00  0.00000000E+00
  0.00000000E+00  0.00000000E+00  0.00000000E+00
  0.00000000E+00  0.00000000E+00  0.00000000E+00
  0.00000000E+00  0.00000000E+00  0.00000000E+00
  0.00000000E+00  0.00000000E+00  0.00000000E+00
  0.00000000E+00  0.00000000E+00  0.00000000E+00
  0.00000000E+00  0.00000000E+00  0.00000000E+00
  0.00000000E+00  0.00000000E+00  0.00000000E+00
  0.00000000E+00  0.00000000E+00  0.00000000E+00
  0.00000000E+00  0.00000000E+00  0.00000000E+00
  0.00000000E+00  0.00000000E+00  0.00000000E+00
  0.00000000E+00  0.00000000E+00  0.00000000E+00
  0.00000000E+00  0.00000000E+00  0.00000000E+00
  0.00000000E+00  0.00000000E+00  0.00000000E+00
  0.00000000E+00  0.00000000E+00  0.00000000E+00
  0.00000000E+00  0.00000000E+00  0.00000000E+00
  0.00000000E+00  0.00000000E+00  0.00000000E+00
  0.00000000E+00  0.00000000E+00  0.00000000E+00
  0.00000000E+00  0.00000000E+00  0.00000000E+00
  0.00000000E+00  0.00000000E+00  0.00000000E+00
  0.00000000E+00  0.00000000E+00  0.00000000E+00
  0.00000000E+00  0.00000000E+00  0.00000000E+00
  0.00000000E+00  0.00000000E+00  0.00000000E+00
  0.00000000E+00  0.00000000E+00  0.00000000E+00
  0.00000000E+00  0.00000000E+00  0.00000000E+00
  0.00000000E+00  0.00000000E+00  0.00000000E+00
  0.00000000E+00  0.00000000E+00  0.00000000E+00
  0.00000000E+00  0.00000000E+00  0.00000000E+00
  0.00000000E+00  0.00000000E+00  0.00000000E+00
  0.00000000E+00  0.00000000E+00  0.00000000E+00
  0.00000000E+00  0.00000000E+00  0.00000000E+00
  0.00000000E+00  0.00000000E+00  0.00000000E+00
  0.00000000E+00  0.00000000E+00  0.00000000E+00
  0.00000000E+00  0.00000000E+00  0.00000000E+00
  0.00000000E+00  0.00000000E+00  0.00000000E+00
  0.00000000E+00  0.00000000E+00  0.00000000E+00
  0.00000000E+00  0.00000000E+00  0.00000000E+00
  0.00000000E+00  0.00000000E+00  0.00000000E+00
  0.00000000E+00  0.00000000E+00  0.00000000E+00
  0.00000000E+00  0.00000000E+00  0.00000000E+00
  0.00000000E+00  0.00000000E+00  0.00000000E+00
  0.00000000E+00  0.00000000E+00  0.00000000E+00
  0.00000000E+00  0.00000000E+00  0.00000000E+00
  0.00000000E+00  0.00000000E+00  0.00000000E+00
  0.00000000E+00  0.00000000E+00  0.00000000E+00
  0.00000000E+00  0.00000000E+00  0.00000000E+00
  0.00000000E+00  0.00000000E+00  0.00000000E+00
  0.00000000E+00  0.00000000E+00  0.00000000E+00
  0.00000000E+00  0.00000000E+00  0.00000000E+00
  0.00000000E+00  0.00000000E+00  0.00000000E+00
  0.00000000E+00  0.00000000E+00  0.00000000E+00
  0.00000000E+00  0.00000000E+00  0.00000000E+00
  0.00000000E+00  0.00000000E+00  0.00000000E+00
  0.00000000E+00  0.00000000E+00  0.00000000E+00
  0.00000000E+00  0.00000000E+00  0.00000000E+00
  0.00000000E+00  0.00000000E+00  0.00000000E+00
  0.00000000E+00  0.00000000E+00  0.00000000E+00
  0.00000000E+00  0.00000000E+00  0.00000000E+00
  0.00000000E+00  0.00000000E+00  0.00000000E+00
  0.00000000E+00  0.00000000E+00  0.00000000E+00
  0.00000000E+00  0.00000000E+00  0.00000000E+00
  0.00000000E+00  0.00000000E+00  0.00000000E+00
  0.00000000E+00  0.00000000E+00  0.00000000E+00
  0.00000000E+00  0.00000000E+00  0.00000000E+00
  0.00000000E+00  0.00000000E+00  0.00000000E+00
  0.00000000E+00  0.00000000E+00  0.00000000E+00
  0.00000000E+00  0.00000000E+00  0.00000000E+00
  0.00000000E+00  0.00000000E+00  0.00000000E+00
  0.00000000E+00  0.00000000E+00  0.00000000E+00
  0.00000000E+00  0.00000000E+00  0.00000000E+00
  0.00000000E+00  0.00000000E+00  0.00000000E+00
  0.00000000E+00  0.00000000E+00  0.00000000E+00
  0.00000000E+00  0.00000000E+00  0.00000000E+00
  0.00000000E+00  0.00000000E+00  0.00000000E+00
  0.00000000E+00  0.00000000E+00  0.00000000E+00
  0.00000000E+00  0.00000000E+00  0.00000000E+00
  0.00000000E+00  0.00000000E+00  0.00000000E+00
  0.00000000E+00  0.00000000E+00  0.00000000E+00
  0.00000000E+00  0.00000000E+00  0.00000000E+00
  0.00000000E+00  0.00000000E+00  0.00000000E+00
  0.00000000E+00  0.00000000E+00  0.00000000E+00
  0.00000000E+00  0.00000000E+00  0.00000000E+00
  0.00000000E+00  0.00000000E+00  0.00000000E+00
  0.00000000E+00  0.00000000E+00  0.00000000E+00
  0.00000000E+00  0.00000000E+00  0.00000000E+00
  0.00000000E+00  0.00000000E+00  0.00000000E+00
  0.00000000E+00  0.00000000E+00  0.00000000E+00
  0.00000000E+00  0.00000000E+00  0.00000000E+00
  0.00000000E+00  0.00000000E+00  0.00000000E+00
  0.00000000E+00  0.00000000E+00  0.00000000E+00
  0.00000000E+00  0.00000000E+00  0.00000000E+00
  0.00000000E+00  0.00000000E+00  0.00000000E+00
  0.00000000E+00  0.00000000E+00  0.00000000E+00
  0.00000000E+00  0.00000000E+00  0.00000000E+00
  0.00000000E+00  0.00000000E+00  0.00000000E+00
  0.00000000E+00  0.00000000E+00  0.00000000E+00
  0.00000000E+00  0.00000000E+00  0.00000000E+00
  0.00000000E+00  0.00000000E+00  0.00000000E+00
  0.00000000E+00  0.00000000E+00  0.00000000E+00
  0.00000000E+00  0.00000000E+00  0.00000000E+00
  0.00000000E+00  0.00000000E+00  0.00000000E+00
  0.00000000E+00  0.00000000E+00  0.00000000E+00
  0.00000000E+00  0.00000000E+00  0.00000000E+00
  0.00000000E+00  0.00000000E+00  0.00000000E+00
  0.00000000E+00  0.00000000E+00  0.00000000E+00
  0.00000000E+00  0.00000000E+00  0.00000000E+00
  0.00000000E+00  0.00000000E+00  0.00000000E+00
  0.00000000E+00  0.00000000E+00  0.00000000E+00
  0.00000000E+00  0.00000000E+00  0.00000000E+00
  0.00000000E+00  0.00000000E+00  0.00000000E+00
  0.00000000E+00  0.00000000E+00  0.00000000E+00
  0.00000000E+00  0.00000000E+00  0.00000000E+00
  0.00000000E+00  0.00000000E+00  0.00000000E+00
  0.00000000E+00  0.00000000E+00  0.00000000E+00
  0.00000000E+00  0.00000000E+00  0.00000000E+00
  0.00000000E+00  0.00000000E+00  0.00000000E+00
