Cd1 H1 C122 N4 O2                       
   1.00000000000000     
    19.8107860263315345   -0.0003557031220302    0.1718875142035771
    -9.9052381719274791   17.0325861618903751   -0.1250234669618886
     0.2583294254214130   -0.0684789338070868   29.8235444574305397
   Cd   H    C    N    O 
     1     1   122     4     2
Direct
  0.4364924059755549  0.5009417310812909  0.4461109109661403
  0.5565666700368028  0.5755630094846460  0.5352794475571234
  0.0418983410968109  0.0841496460314599  0.3997857493841214
  0.0408546302221402  0.2081953494108136  0.3991418164171954
  0.0401792245842373  0.3328987385073746  0.3983571040715725
  0.0403928682393737  0.4582499930277423  0.3985579778173052
  0.0412090711104661  0.5837610640009609  0.3995038016123281
  0.0420135974054271  0.7092329109474111  0.3999110866787832
  0.0424150374633391  0.8346331528566114  0.4000351331579785
  0.0425086458185902  0.9597995601780064  0.4000097850580804
  0.1681431589342250  0.0860565057669287  0.4002280475732734
  0.1671354072730271  0.2101353276260341  0.3999661830929854
  0.1650243155741636  0.3336469887657207  0.3986745554237422
  0.1641867419353502  0.4584297829607889  0.3967945312272412
  0.1650809973813984  0.5836209285911830  0.3977612049797924
  0.1662492413985727  0.7090725718998931  0.3993589512196783
  0.1669706959859157  0.8346089971524964  0.4000478202949985
  0.1675308798259992  0.9602661328965497  0.4000986415128028
  0.2926723030565822  0.0860255512903565  0.4002253593992446
  0.2942749154132016  0.2138349127418339  0.4017957574781504
  0.2917678117545793  0.3388378564080817  0.4033113681800833
  0.2877202754433764  0.4571717162946499  0.4006907130821917
  0.2886245717622389  0.5831123030452317  0.3974962005737492
  0.2904317653207417  0.7085713181637036  0.3984889730101187
  0.2914677966588596  0.8340341760619613  0.3996945447530237
  0.2920704515675006  0.9597604339221428  0.4000092170877924
  0.4170314900406233  0.0840962100941920  0.3997975572456383
  0.4177949501480523  0.2100953392005447  0.4001056141249182
  0.4217805996025402  0.3388338016923371  0.4034441299920419
  0.4144319193094639  0.7064671168692839  0.3994423209632169
  0.4159285741330102  0.8324667446974829  0.3994625257093624
  0.4165298779172545  0.9582996217726923  0.3999819996017641
  0.5414746960952341  0.0824968945742420  0.3998801537692522
  0.5421530751727965  0.2081668567417407  0.3991698863373067
  0.5434907455739031  0.3336466179953325  0.3991229325749693
  0.5441866931531844  0.4571465243170282  0.4013753402210281
  0.5381065066946470  0.7015834971317266  0.4022197080373348
  0.5401828818234776  0.8300723714055082  0.4002234633967024
  0.5409484398536788  0.9565650291974317  0.4000409641905752
  0.6659856463561887  0.0818528837003456  0.4001876741455772
  0.6665333639633432  0.2073834440752750  0.3995794306694130
  0.6675631546390652  0.3328668749644745  0.3984874513421157
  0.6691899368454252  0.4584417372488664  0.3975128795513067
  0.6694159559553885  0.5831411716722876  0.3983332374091579
  0.6668425929268886  0.7064935470568857  0.3997790345910671
  0.6646479981773944  0.8301071966316492  0.4002823800699763
  0.6654407635226093  0.9561264233890312  0.4002456406815378
  0.7906581665374646  0.0818610828039686  0.4001665245154712
  0.7910146029383447  0.2072561365155081  0.3999857408798440
  0.7917203849226593  0.3327565913260097  0.3995112252783752
  0.7926951826173193  0.4582584792661900  0.3986760683498125
  0.7934224602950485  0.5836425365836526  0.3980766307277277
  0.7930121856784432  0.7086236285758181  0.3986937785699315
  0.7913594684413093  0.8325179537191942  0.3995121136069027
  0.7903972995329788  0.9566100173313125  0.4000089866341139
  0.9158522124425380  0.0825469162895481  0.3998885480630516
  0.9156536923570221  0.2074105405395535  0.3996050885547729
  0.9158474196497600  0.3327577827886532  0.3995114749952655
  0.9165009016840038  0.4582270907688209  0.3997131640763750
  0.9173292486921016  0.5837593487936014  0.3994893611256206
  0.9176473569074638  0.7091041629112733  0.3993204519834496
  0.9173845816763342  0.8340828997389472  0.3996352112471733
  0.9165895698883768  0.9583502189573029  0.3999518526332702
  0.0844452674683467  0.0435250174857755  0.3999610664945956
  0.0835242470982499  0.1676118311078681  0.3994688027419222
  0.0819117564866738  0.2914765047102573  0.3985041348385043
  0.0815029361580529  0.4164164496846616  0.3976904801919655
  0.0821773542484933  0.5418174788343856  0.3985987797199230
  0.0831282539862382  0.6673249216620268  0.3996606886478944
  0.0838115991107610  0.7928442825294760  0.4000338083483614
  0.0841767816895023  0.9182350792645801  0.4000908898441340
  0.2093606805050343  0.0439447961872646  0.4002188171979298
  0.2101574310786324  0.1700101394346724  0.4007138182405519
  0.2080487600921635  0.2936317551512005  0.4001310193232649
  0.2055425876122418  0.4169108450679150  0.3977435212933811
  0.2057667707919545  0.5416022135800834  0.3968005349864824
  0.2072846888544482  0.6671571396270354  0.3984702070501044
  0.2082833295962266  0.7926679933764691  0.3997654916867507
  0.2088534464039271  0.9182218117110487  0.4000765113153511
  0.3338447912412305  0.0434729155720804  0.3999564650270709
  0.3346045749424102  0.1699707485581920  0.4007682271213101
  0.3365830518478373  0.2985198593060288  0.4036867656948705
  0.3306397549198965  0.5429449684230611  0.4001939697052061
  0.3313642555950180  0.6664070213627392  0.3983115634352147
  0.3326784854686585  0.7918683562141718  0.3992318820864963
  0.3333366631517204  0.9175360607726323  0.3999607251444180
  0.4582696056134425  0.0417197352616558  0.3999175614543898
  0.4588968031706381  0.1675661583454945  0.3995437171868172
  0.4603959967057838  0.2935888902239242  0.4004135669556477
  0.4529712182060761  0.6612584036644152  0.4019271291472311
  0.4570166598865585  0.7899486525903500  0.3995677523744440
  0.4577713825214720  0.9159340025573879  0.3998767479132669
  0.5827389141767244  0.0402928787302156  0.4000908878467310
  0.5833397205601085  0.1659850580196877  0.3994984661453368
  0.5844229033956071  0.2914403837070264  0.3986998064020942
  0.5862964547924157  0.4169141392320082  0.3985367140075150
  0.5870558625678766  0.5429804118199724  0.4009755201743719
  0.5829559117296661  0.6612441279184362  0.4021567357506429
  0.5804683139452185  0.7862342176601390  0.4008875596725842
  0.5821162769848079  0.9140188316956863  0.4001483312448301
  0.7073068139319658  0.0398166666742382  0.4002548928767718
  0.7078299620879973  0.1654564765305474  0.4000212143148609
  0.7085718161139246  0.2909634516734038  0.3991725553718817
  0.7098039932384245  0.4164032909858807  0.3979994761558592
  0.7107802059161670  0.5416133847198769  0.3975239591225219
  0.7098878848355754  0.6664245430225373  0.3987894158647761
  0.7077375928194324  0.7899968244702728  0.3997251713777711
  0.7066829125021930  0.9140512122946675  0.4001332500302958
  0.8323643114620057  0.0403397748231994  0.4000648787883990
  0.8324142015468189  0.1654818423242591  0.4000112381292592
  0.8328382581858825  0.2908593390849803  0.3997866756204296
  0.8336221164540034  0.4163153577003584  0.3994270672869569
  0.8344793788364302  0.5418185781638311  0.3987147907570173
  0.8347442448477082  0.6671966618060804  0.3985991614509182
  0.8340250869465531  0.7919135912522566  0.3992495337920787
  0.8329758159254335  0.9159993009155126  0.3998589887357242
  0.9582864741404558  0.0417861138194234  0.3999057003837208
  0.9574776762424771  0.1660235694155826  0.3995391845035156
  0.9572358500793348  0.2909951534923606  0.3991754099652594
  0.9575010241561900  0.4163262649764847  0.3994300907525159
  0.9583323830108489  0.5418706307822538  0.3997446666191958
  0.9590212095285066  0.6673417039267728  0.3996279778747466
  0.9591920695973455  0.7926968306998028  0.3997084682806415
  0.9590240509405760  0.9175900877060393  0.3999156130766917
  0.4091210942020926  0.5818341180798309  0.4040474756488541
  0.5472817308516995  0.5818770537772852  0.4042176091391479
  0.3271951816278769  0.4183467631875254  0.4056306957293405
  0.4655999199406718  0.4182483914898423  0.4056700949994367
  0.5256724308780750  0.5210749626641932  0.5251490651432122
  0.4506233991453650  0.5169840280391336  0.5162675843216543
 
  0.00000000E+00  0.00000000E+00  0.00000000E+00
  0.00000000E+00  0.00000000E+00  0.00000000E+00
  0.00000000E+00  0.00000000E+00  0.00000000E+00
  0.00000000E+00  0.00000000E+00  0.00000000E+00
  0.00000000E+00  0.00000000E+00  0.00000000E+00
  0.00000000E+00  0.00000000E+00  0.00000000E+00
  0.00000000E+00  0.00000000E+00  0.00000000E+00
  0.00000000E+00  0.00000000E+00  0.00000000E+00
  0.00000000E+00  0.00000000E+00  0.00000000E+00
  0.00000000E+00  0.00000000E+00  0.00000000E+00
  0.00000000E+00  0.00000000E+00  0.00000000E+00
  0.00000000E+00  0.00000000E+00  0.00000000E+00
  0.00000000E+00  0.00000000E+00  0.00000000E+00
  0.00000000E+00  0.00000000E+00  0.00000000E+00
  0.00000000E+00  0.00000000E+00  0.00000000E+00
  0.00000000E+00  0.00000000E+00  0.00000000E+00
  0.00000000E+00  0.00000000E+00  0.00000000E+00
  0.00000000E+00  0.00000000E+00  0.00000000E+00
  0.00000000E+00  0.00000000E+00  0.00000000E+00
  0.00000000E+00  0.00000000E+00  0.00000000E+00
  0.00000000E+00  0.00000000E+00  0.00000000E+00
  0.00000000E+00  0.00000000E+00  0.00000000E+00
  0.00000000E+00  0.00000000E+00  0.00000000E+00
  0.00000000E+00  0.00000000E+00  0.00000000E+00
  0.00000000E+00  0.00000000E+00  0.00000000E+00
  0.00000000E+00  0.00000000E+00  0.00000000E+00
  0.00000000E+00  0.00000000E+00  0.00000000E+00
  0.00000000E+00  0.00000000E+00  0.00000000E+00
  0.00000000E+00  0.00000000E+00  0.00000000E+00
  0.00000000E+00  0.00000000E+00  0.00000000E+00
  0.00000000E+00  0.00000000E+00  0.00000000E+00
  0.00000000E+00  0.00000000E+00  0.00000000E+00
  0.00000000E+00  0.00000000E+00  0.00000000E+00
  0.00000000E+00  0.00000000E+00  0.00000000E+00
  0.00000000E+00  0.00000000E+00  0.00000000E+00
  0.00000000E+00  0.00000000E+00  0.00000000E+00
  0.00000000E+00  0.00000000E+00  0.00000000E+00
  0.00000000E+00  0.00000000E+00  0.00000000E+00
  0.00000000E+00  0.00000000E+00  0.00000000E+00
  0.00000000E+00  0.00000000E+00  0.00000000E+00
  0.00000000E+00  0.00000000E+00  0.00000000E+00
  0.00000000E+00  0.00000000E+00  0.00000000E+00
  0.00000000E+00  0.00000000E+00  0.00000000E+00
  0.00000000E+00  0.00000000E+00  0.00000000E+00
  0.00000000E+00  0.00000000E+00  0.00000000E+00
  0.00000000E+00  0.00000000E+00  0.00000000E+00
  0.00000000E+00  0.00000000E+00  0.00000000E+00
  0.00000000E+00  0.00000000E+00  0.00000000E+00
  0.00000000E+00  0.00000000E+00  0.00000000E+00
  0.00000000E+00  0.00000000E+00  0.00000000E+00
  0.00000000E+00  0.00000000E+00  0.00000000E+00
  0.00000000E+00  0.00000000E+00  0.00000000E+00
  0.00000000E+00  0.00000000E+00  0.00000000E+00
  0.00000000E+00  0.00000000E+00  0.00000000E+00
  0.00000000E+00  0.00000000E+00  0.00000000E+00
  0.00000000E+00  0.00000000E+00  0.00000000E+00
  0.00000000E+00  0.00000000E+00  0.00000000E+00
  0.00000000E+00  0.00000000E+00  0.00000000E+00
  0.00000000E+00  0.00000000E+00  0.00000000E+00
  0.00000000E+00  0.00000000E+00  0.00000000E+00
  0.00000000E+00  0.00000000E+00  0.00000000E+00
  0.00000000E+00  0.00000000E+00  0.00000000E+00
  0.00000000E+00  0.00000000E+00  0.00000000E+00
  0.00000000E+00  0.00000000E+00  0.00000000E+00
  0.00000000E+00  0.00000000E+00  0.00000000E+00
  0.00000000E+00  0.00000000E+00  0.00000000E+00
  0.00000000E+00  0.00000000E+00  0.00000000E+00
  0.00000000E+00  0.00000000E+00  0.00000000E+00
  0.00000000E+00  0.00000000E+00  0.00000000E+00
  0.00000000E+00  0.00000000E+00  0.00000000E+00
  0.00000000E+00  0.00000000E+00  0.00000000E+00
  0.00000000E+00  0.00000000E+00  0.00000000E+00
  0.00000000E+00  0.00000000E+00  0.00000000E+00
  0.00000000E+00  0.00000000E+00  0.00000000E+00
  0.00000000E+00  0.00000000E+00  0.00000000E+00
  0.00000000E+00  0.00000000E+00  0.00000000E+00
  0.00000000E+00  0.00000000E+00  0.00000000E+00
  0.00000000E+00  0.00000000E+00  0.00000000E+00
  0.00000000E+00  0.00000000E+00  0.00000000E+00
  0.00000000E+00  0.00000000E+00  0.00000000E+00
  0.00000000E+00  0.00000000E+00  0.00000000E+00
  0.00000000E+00  0.00000000E+00  0.00000000E+00
  0.00000000E+00  0.00000000E+00  0.00000000E+00
  0.00000000E+00  0.00000000E+00  0.00000000E+00
  0.00000000E+00  0.00000000E+00  0.00000000E+00
  0.00000000E+00  0.00000000E+00  0.00000000E+00
  0.00000000E+00  0.00000000E+00  0.00000000E+00
  0.00000000E+00  0.00000000E+00  0.00000000E+00
  0.00000000E+00  0.00000000E+00  0.00000000E+00
  0.00000000E+00  0.00000000E+00  0.00000000E+00
  0.00000000E+00  0.00000000E+00  0.00000000E+00
  0.00000000E+00  0.00000000E+00  0.00000000E+00
  0.00000000E+00  0.00000000E+00  0.00000000E+00
  0.00000000E+00  0.00000000E+00  0.00000000E+00
  0.00000000E+00  0.00000000E+00  0.00000000E+00
  0.00000000E+00  0.00000000E+00  0.00000000E+00
  0.00000000E+00  0.00000000E+00  0.00000000E+00
  0.00000000E+00  0.00000000E+00  0.00000000E+00
  0.00000000E+00  0.00000000E+00  0.00000000E+00
  0.00000000E+00  0.00000000E+00  0.00000000E+00
  0.00000000E+00  0.00000000E+00  0.00000000E+00
  0.00000000E+00  0.00000000E+00  0.00000000E+00
  0.00000000E+00  0.00000000E+00  0.00000000E+00
  0.00000000E+00  0.00000000E+00  0.00000000E+00
  0.00000000E+00  0.00000000E+00  0.00000000E+00
  0.00000000E+00  0.00000000E+00  0.00000000E+00
  0.00000000E+00  0.00000000E+00  0.00000000E+00
  0.00000000E+00  0.00000000E+00  0.00000000E+00
  0.00000000E+00  0.00000000E+00  0.00000000E+00
  0.00000000E+00  0.00000000E+00  0.00000000E+00
  0.00000000E+00  0.00000000E+00  0.00000000E+00
  0.00000000E+00  0.00000000E+00  0.00000000E+00
  0.00000000E+00  0.00000000E+00  0.00000000E+00
  0.00000000E+00  0.00000000E+00  0.00000000E+00
  0.00000000E+00  0.00000000E+00  0.00000000E+00
  0.00000000E+00  0.00000000E+00  0.00000000E+00
  0.00000000E+00  0.00000000E+00  0.00000000E+00
  0.00000000E+00  0.00000000E+00  0.00000000E+00
  0.00000000E+00  0.00000000E+00  0.00000000E+00
  0.00000000E+00  0.00000000E+00  0.00000000E+00
  0.00000000E+00  0.00000000E+00  0.00000000E+00
  0.00000000E+00  0.00000000E+00  0.00000000E+00
  0.00000000E+00  0.00000000E+00  0.00000000E+00
  0.00000000E+00  0.00000000E+00  0.00000000E+00
  0.00000000E+00  0.00000000E+00  0.00000000E+00
  0.00000000E+00  0.00000000E+00  0.00000000E+00
  0.00000000E+00  0.00000000E+00  0.00000000E+00
  0.00000000E+00  0.00000000E+00  0.00000000E+00
  0.00000000E+00  0.00000000E+00  0.00000000E+00
  0.00000000E+00  0.00000000E+00  0.00000000E+00
