Nb1 H1 C126 O2                          
   1.00000000000000     
    19.8067774466161559   -0.0009333015560496   -0.1129025871838856
    -9.9041469611824180   17.0874068745073266   -0.1010826637591118
    -0.1692592709530051   -0.2738123063158200   29.7354766602103666
   Nb   H    C    O 
     1     1   126     2
Direct
  0.4347354429881588  0.5018176814209454  0.4363727313326192
  0.5415335941502774  0.5632544899246609  0.5183443968366547
  0.0417484455858302  0.0836555354800488  0.3996179789072436
  0.0409932976114666  0.2079926808063909  0.3994448070392654
  0.0407092644234034  0.3328672194398647  0.3993222574655165
  0.0409007950006454  0.4583874775654858  0.3994091856741495
  0.0415625999422244  0.5837933934304123  0.3998364029083907
  0.0421376421600664  0.7090515072805903  0.4000984125697173
  0.0424090692826592  0.8343149871637717  0.4000066076174685
  0.0423480954349970  0.9592278644947957  0.3997599966333493
  0.1674131645485501  0.0846494192315495  0.3998574005601780
  0.1665984596455716  0.2088320175142922  0.4000470805166803
  0.1654195646779365  0.3330250446194993  0.4000431471854833
  0.1647195997101692  0.4582680153543785  0.3995615289012666
  0.1656334322984156  0.5836670279095010  0.3991704135808536
  0.1666337566213568  0.7091086606433691  0.3996363355601326
  0.1670959494258304  0.8343346282183489  0.3999237412500403
  0.1673872333712440  0.9595681924736390  0.3998092393975332
  0.2924712177676748  0.0846918675750306  0.3998957909336837
  0.2930428121998923  0.2106743560411889  0.4014123295352282
  0.2916046148240139  0.3348644365520133  0.4030023169613540
  0.2881937100495816  0.4573993519642273  0.4021073277882489
  0.2894786122012698  0.5840268080782378  0.4000984555451216
  0.2910743980432131  0.7090693218171111  0.3992079049189811
  0.2917262396290219  0.8340703485137044  0.3995454172814079
  0.2920842974834819  0.9592778533468209  0.3996791146018726
  0.4171158045029904  0.0838373779902179  0.3994905309803075
  0.4175348577781165  0.2091995434557490  0.4000631543318663
  0.4192085514861613  0.3358600145957524  0.4045838298821061
  0.4127712471884042  0.5836101295056552  0.4039376636242229
  0.4158006346927678  0.7081495415151181  0.3997829306057505
  0.4164136254595727  0.8334050867654559  0.3993479642347800
  0.4167603922782167  0.9585718296336193  0.3996203027375408
  0.5417845310850136  0.0829485899113467  0.3996421209153845
  0.5422175215567590  0.2080848593680673  0.3992598325052666
  0.5429495411639129  0.3331646093836486  0.3998399870734509
  0.5450646287276326  0.4576252031026690  0.4035644717025405
  0.5459962976081063  0.5825159812467409  0.4076834853605710
  0.5411584510362678  0.7067158852878777  0.4027626475040031
  0.5410882864292968  0.8322552002678999  0.3997356504520804
  0.5415017797305491  0.9576903850552084  0.3996440631128966
  0.6664865877579451  0.0825792728748037  0.3999359157326190
  0.6668504339252755  0.2078037357178520  0.3996635939592774
  0.6673753724319528  0.3329019939882268  0.3990252954281401
  0.6688298867185047  0.4582682299994439  0.3985962360279321
  0.6697462901444090  0.5839386990453377  0.3995091445776223
  0.6671961087105511  0.7076527359704122  0.4002625650852693
  0.6664082366319377  0.8322154340688294  0.3999417936118063
  0.6663196123660341  0.9573934493884936  0.3998109936169900
  0.7913018851305600  0.0825588830328410  0.3998905058316209
  0.7914524314947419  0.2076725163607940  0.3999721937463415
  0.7919431886430094  0.3330102664347454  0.3997961411019936
  0.7927395639756897  0.4584044833554103  0.3991903756424707
  0.7932454327140447  0.5836216986958880  0.3986359772760799
  0.7931065814392020  0.7089570618346148  0.3989124760318762
  0.7919775757821618  0.8331705974652244  0.3992623262089486
  0.7913532817497345  0.9576403948580007  0.3996618641991010
  0.9163071267664732  0.0828769909460870  0.3996504019966545
  0.9161282578548876  0.2077837594868302  0.3996044741221327
  0.9163171240085235  0.3330224063324879  0.3997650742973633
  0.9167899846896693  0.4583199529074631  0.3999406125464175
  0.9174602673510408  0.5837894128847243  0.3997882404699621
  0.9176601196198069  0.7090919479879045  0.3995676296220331
  0.9174727832217503  0.8339953800160944  0.3995724627386110
  0.9168643078246670  0.9584175923934050  0.3996565175737227
  0.0839437746823433  0.0426163901551805  0.3996836963466642
  0.0831475171659552  0.1668856976088050  0.3996050869910461
  0.0821469889263792  0.2912099289453429  0.3994551263979114
  0.0820917084743571  0.4165954408058640  0.3992382294382026
  0.0826545808488273  0.5419057757390389  0.3994192961883810
  0.0834666053467701  0.6673178476217250  0.3999187825335044
  0.0839477501727145  0.7926754749029644  0.4000808769274528
  0.0840589235802246  0.9177528043609451  0.3998691771733306
  0.2090787722346205  0.0429210837650356  0.3998494630668435
  0.2090137447775559  0.1680754410781951  0.4003359805734391
  0.2078463942405807  0.2921581892184747  0.4005746555273190
  0.2056104707191032  0.4162675203062399  0.4004311054014799
  0.2065584308312426  0.5419746581171043  0.3994743630325812
  0.2079747685427174  0.6674076538295542  0.3992722521485930
  0.2085156281409469  0.7925297525082891  0.3997243251650408
  0.2088957363325186  0.9177508754764586  0.3998139081951761
  0.3338706491220421  0.0426715910103637  0.3996319356541321
  0.3343890523892732  0.1681392528403536  0.4004936748514671
  0.3347621188136586  0.2938066457406178  0.4038015319783103
  0.3294509425270815  0.4169926968895306  0.4046826531760619
  0.3309864886985309  0.5429966254711850  0.4018077522317116
  0.3325048501128409  0.6672484330143466  0.3995248528628041
  0.3331515252934381  0.7922943269172854  0.3993167572760721
  0.3335930236107806  0.9174208808013548  0.3996306535395616
  0.4586230380250309  0.0418989436149476  0.3995879787073280
  0.4589587512407944  0.1671169178712180  0.3994075596737395
  0.4597431037117550  0.2927092676527551  0.4009895359994843
  0.4640321731040338  0.4183434201371271  0.4085344096739894
  0.4569337707305443  0.6655882077891474  0.4020210417479229
  0.4579002184223291  0.7914665299839323  0.3994324927417073
  0.4582565485110573  0.9166455494777980  0.3995377853031590
  0.5832865456400922  0.0410795887709966  0.3997849497478698
  0.5836394129866376  0.1662946934340400  0.3994697378222651
  0.5842863198212624  0.2912732471395651  0.3991257132253453
  0.5859553558885011  0.4162892744359808  0.3998527643784257
  0.5876274976187302  0.5428129989573262  0.4032235631855148
  0.5835717043567941  0.6647275750890174  0.4035987826957250
  0.5825371256854808  0.7897108464457294  0.4005844264790707
  0.5829107638175910  0.9156565252070960  0.3996660558050836
  0.7079708334892557  0.0407497672406353  0.3999208864554360
  0.7082699993274869  0.1660208062092991  0.3999402018405674
  0.7087334019120957  0.2912024840771528  0.3994924936150517
  0.7097501369212416  0.4165918645169209  0.3987154913888806
  0.7106678897643672  0.5419222369617883  0.3985026330353737
  0.7098874076889983  0.6670975356261036  0.3993565622477607
  0.7084852132149432  0.7911249318013356  0.3995425583501590
  0.7079301382868711  0.9156273827090783  0.3997437881524900
  0.8329625784318218  0.0410406684011010  0.3997600364391689
  0.8329164994480112  0.1659876835977182  0.3998681906219594
  0.8332585870469087  0.2912857596823704  0.3999357075806662
  0.8338587792630469  0.4165354756546285  0.3997569974498342
  0.8344793079429565  0.5418672758530120  0.3991775425183020
  0.8345968913285710  0.6673651909403879  0.3989483085155505
  0.8342512857568064  0.7921872103945142  0.3992014010284227
  0.8334320215173269  0.9164681081954055  0.3995396441021953
  0.9583404934874616  0.0417496379278823  0.3996483965563687
  0.9577931922207735  0.1662396067907825  0.3994990764870836
  0.9576729072312699  0.2911990685258615  0.3995061721628238
  0.9579404559989446  0.4165403446319577  0.3997575457782251
  0.9586682928330396  0.5420501263073627  0.3999795371486002
  0.9591049238022556  0.6673343884918215  0.3999011331838952
  0.9591969145431917  0.7925174357920227  0.3997804171949843
  0.9589761208005408  0.9173599162857403  0.3997047610733412
  0.5074731740948011  0.5092761954098579  0.5073990998855813
  0.4315468777485812  0.5068960048534962  0.5030457153533974
 
  0.00000000E+00  0.00000000E+00  0.00000000E+00
  0.00000000E+00  0.00000000E+00  0.00000000E+00
  0.00000000E+00  0.00000000E+00  0.00000000E+00
  0.00000000E+00  0.00000000E+00  0.00000000E+00
  0.00000000E+00  0.00000000E+00  0.00000000E+00
  0.00000000E+00  0.00000000E+00  0.00000000E+00
  0.00000000E+00  0.00000000E+00  0.00000000E+00
  0.00000000E+00  0.00000000E+00  0.00000000E+00
  0.00000000E+00  0.00000000E+00  0.00000000E+00
  0.00000000E+00  0.00000000E+00  0.00000000E+00
  0.00000000E+00  0.00000000E+00  0.00000000E+00
  0.00000000E+00  0.00000000E+00  0.00000000E+00
  0.00000000E+00  0.00000000E+00  0.00000000E+00
  0.00000000E+00  0.00000000E+00  0.00000000E+00
  0.00000000E+00  0.00000000E+00  0.00000000E+00
  0.00000000E+00  0.00000000E+00  0.00000000E+00
  0.00000000E+00  0.00000000E+00  0.00000000E+00
  0.00000000E+00  0.00000000E+00  0.00000000E+00
  0.00000000E+00  0.00000000E+00  0.00000000E+00
  0.00000000E+00  0.00000000E+00  0.00000000E+00
  0.00000000E+00  0.00000000E+00  0.00000000E+00
  0.00000000E+00  0.00000000E+00  0.00000000E+00
  0.00000000E+00  0.00000000E+00  0.00000000E+00
  0.00000000E+00  0.00000000E+00  0.00000000E+00
  0.00000000E+00  0.00000000E+00  0.00000000E+00
  0.00000000E+00  0.00000000E+00  0.00000000E+00
  0.00000000E+00  0.00000000E+00  0.00000000E+00
  0.00000000E+00  0.00000000E+00  0.00000000E+00
  0.00000000E+00  0.00000000E+00  0.00000000E+00
  0.00000000E+00  0.00000000E+00  0.00000000E+00
  0.00000000E+00  0.00000000E+00  0.00000000E+00
  0.00000000E+00  0.00000000E+00  0.00000000E+00
  0.00000000E+00  0.00000000E+00  0.00000000E+00
  0.00000000E+00  0.00000000E+00  0.00000000E+00
  0.00000000E+00  0.00000000E+00  0.00000000E+00
  0.00000000E+00  0.00000000E+00  0.00000000E+00
  0.00000000E+00  0.00000000E+00  0.00000000E+00
  0.00000000E+00  0.00000000E+00  0.00000000E+00
  0.00000000E+00  0.00000000E+00  0.00000000E+00
  0.00000000E+00  0.00000000E+00  0.00000000E+00
  0.00000000E+00  0.00000000E+00  0.00000000E+00
  0.00000000E+00  0.00000000E+00  0.00000000E+00
  0.00000000E+00  0.00000000E+00  0.00000000E+00
  0.00000000E+00  0.00000000E+00  0.00000000E+00
  0.00000000E+00  0.00000000E+00  0.00000000E+00
  0.00000000E+00  0.00000000E+00  0.00000000E+00
  0.00000000E+00  0.00000000E+00  0.00000000E+00
  0.00000000E+00  0.00000000E+00  0.00000000E+00
  0.00000000E+00  0.00000000E+00  0.00000000E+00
  0.00000000E+00  0.00000000E+00  0.00000000E+00
  0.00000000E+00  0.00000000E+00  0.00000000E+00
  0.00000000E+00  0.00000000E+00  0.00000000E+00
  0.00000000E+00  0.00000000E+00  0.00000000E+00
  0.00000000E+00  0.00000000E+00  0.00000000E+00
  0.00000000E+00  0.00000000E+00  0.00000000E+00
  0.00000000E+00  0.00000000E+00  0.00000000E+00
  0.00000000E+00  0.00000000E+00  0.00000000E+00
  0.00000000E+00  0.00000000E+00  0.00000000E+00
  0.00000000E+00  0.00000000E+00  0.00000000E+00
  0.00000000E+00  0.00000000E+00  0.00000000E+00
  0.00000000E+00  0.00000000E+00  0.00000000E+00
  0.00000000E+00  0.00000000E+00  0.00000000E+00
  0.00000000E+00  0.00000000E+00  0.00000000E+00
  0.00000000E+00  0.00000000E+00  0.00000000E+00
  0.00000000E+00  0.00000000E+00  0.00000000E+00
  0.00000000E+00  0.00000000E+00  0.00000000E+00
  0.00000000E+00  0.00000000E+00  0.00000000E+00
  0.00000000E+00  0.00000000E+00  0.00000000E+00
  0.00000000E+00  0.00000000E+00  0.00000000E+00
  0.00000000E+00  0.00000000E+00  0.00000000E+00
  0.00000000E+00  0.00000000E+00  0.00000000E+00
  0.00000000E+00  0.00000000E+00  0.00000000E+00
  0.00000000E+00  0.00000000E+00  0.00000000E+00
  0.00000000E+00  0.00000000E+00  0.00000000E+00
  0.00000000E+00  0.00000000E+00  0.00000000E+00
  0.00000000E+00  0.00000000E+00  0.00000000E+00
  0.00000000E+00  0.00000000E+00  0.00000000E+00
  0.00000000E+00  0.00000000E+00  0.00000000E+00
  0.00000000E+00  0.00000000E+00  0.00000000E+00
  0.00000000E+00  0.00000000E+00  0.00000000E+00
  0.00000000E+00  0.00000000E+00  0.00000000E+00
  0.00000000E+00  0.00000000E+00  0.00000000E+00
  0.00000000E+00  0.00000000E+00  0.00000000E+00
  0.00000000E+00  0.00000000E+00  0.00000000E+00
  0.00000000E+00  0.00000000E+00  0.00000000E+00
  0.00000000E+00  0.00000000E+00  0.00000000E+00
  0.00000000E+00  0.00000000E+00  0.00000000E+00
  0.00000000E+00  0.00000000E+00  0.00000000E+00
  0.00000000E+00  0.00000000E+00  0.00000000E+00
  0.00000000E+00  0.00000000E+00  0.00000000E+00
  0.00000000E+00  0.00000000E+00  0.00000000E+00
  0.00000000E+00  0.00000000E+00  0.00000000E+00
  0.00000000E+00  0.00000000E+00  0.00000000E+00
  0.00000000E+00  0.00000000E+00  0.00000000E+00
  0.00000000E+00  0.00000000E+00  0.00000000E+00
  0.00000000E+00  0.00000000E+00  0.00000000E+00
  0.00000000E+00  0.00000000E+00  0.00000000E+00
  0.00000000E+00  0.00000000E+00  0.00000000E+00
  0.00000000E+00  0.00000000E+00  0.00000000E+00
  0.00000000E+00  0.00000000E+00  0.00000000E+00
  0.00000000E+00  0.00000000E+00  0.00000000E+00
  0.00000000E+00  0.00000000E+00  0.00000000E+00
  0.00000000E+00  0.00000000E+00  0.00000000E+00
  0.00000000E+00  0.00000000E+00  0.00000000E+00
  0.00000000E+00  0.00000000E+00  0.00000000E+00
  0.00000000E+00  0.00000000E+00  0.00000000E+00
  0.00000000E+00  0.00000000E+00  0.00000000E+00
  0.00000000E+00  0.00000000E+00  0.00000000E+00
  0.00000000E+00  0.00000000E+00  0.00000000E+00
  0.00000000E+00  0.00000000E+00  0.00000000E+00
  0.00000000E+00  0.00000000E+00  0.00000000E+00
  0.00000000E+00  0.00000000E+00  0.00000000E+00
  0.00000000E+00  0.00000000E+00  0.00000000E+00
  0.00000000E+00  0.00000000E+00  0.00000000E+00
  0.00000000E+00  0.00000000E+00  0.00000000E+00
  0.00000000E+00  0.00000000E+00  0.00000000E+00
  0.00000000E+00  0.00000000E+00  0.00000000E+00
  0.00000000E+00  0.00000000E+00  0.00000000E+00
  0.00000000E+00  0.00000000E+00  0.00000000E+00
  0.00000000E+00  0.00000000E+00  0.00000000E+00
  0.00000000E+00  0.00000000E+00  0.00000000E+00
  0.00000000E+00  0.00000000E+00  0.00000000E+00
  0.00000000E+00  0.00000000E+00  0.00000000E+00
  0.00000000E+00  0.00000000E+00  0.00000000E+00
  0.00000000E+00  0.00000000E+00  0.00000000E+00
  0.00000000E+00  0.00000000E+00  0.00000000E+00
  0.00000000E+00  0.00000000E+00  0.00000000E+00
  0.00000000E+00  0.00000000E+00  0.00000000E+00
  0.00000000E+00  0.00000000E+00  0.00000000E+00
  0.00000000E+00  0.00000000E+00  0.00000000E+00
