Pt1 C126                                
   1.00000000000000     
    19.8679578790539679   -0.0000060683217511   -0.0009532576226054
    -9.9339827989977145   17.0558565183316162    0.0004839505708788
    -0.0014140296697433    0.0000134248457391   29.6944562357884756
   Pt   C 
     1   126
Direct
  0.4375115630329834  0.4999998982183258  0.4194061778604409
  0.0417481244088053  0.0838996614650696  0.3996607608926844
  0.0403338942107730  0.2077096143232313  0.3992520549596213
  0.0395874042603520  0.3325628125805288  0.3989696851069162
  0.0396158642724576  0.4581787522226900  0.3992196788139254
  0.0410448764704332  0.5839093142398162  0.3998930658608399
  0.0422110664976449  0.7093908565841115  0.4001406246808771
  0.0425891285444220  0.8347688803448532  0.4000975932195023
  0.0425948112759792  0.9597287375350378  0.3999412556991056
  0.1677718231895660  0.0855983551310879  0.3997826966895648
  0.1666680873395129  0.2097806056813585  0.3997584995344751
  0.1640030953086395  0.3329013736673020  0.3995569366971215
  0.1623798418207634  0.4582641882419938  0.3984902652808795
  0.1639925190180344  0.5837941718903131  0.3985973445044209
  0.1661964572672986  0.7093475701598445  0.3996147099305087
  0.1671732852509304  0.8347706894663369  0.4000775283266229
  0.1676055562845891  0.9601915740653237  0.3999978587518128
  0.2928092459118324  0.0855793498501595  0.3997946810339884
  0.2936177795330095  0.2122324378483090  0.4009531199782697
  0.2913854333760220  0.3369372435942729  0.4045589085314402
  0.2837337983211765  0.4579206036572427  0.4045981453916137
  0.2867558275559617  0.5838697489030737  0.3999476003524414
  0.2903569338741547  0.7090317944268729  0.3989276132621893
  0.2914442100939302  0.8341953654002665  0.3996461041779579
  0.2921480545248335  0.9597135522255362  0.3999268406903843
  0.4171473009688067  0.0838777301109987  0.3996592188910275
  0.4180777589482234  0.2097458419789007  0.3997698413722275
  0.4205550321231331  0.3369429794100214  0.4045523788331410
  0.4078777718794508  0.5806332313959022  0.4101339597745991
  0.4145349510148026  0.7067325240790154  0.4006669080896008
  0.4158360419298828  0.8327163443897799  0.3993890794600103
  0.4165841058382997  0.9583195533680055  0.3998193161528293
  0.5416179212581829  0.0824001381024031  0.3998665067217472
  0.5423607906710242  0.2077118177607172  0.3992748345688041
  0.5438777506827469  0.3328845516281662  0.3995559629999646
  0.5492123834512402  0.4579305346834772  0.4045640486766456
  0.5477769498552529  0.5806325080179219  0.4101131110769956
  0.5393553325657237  0.7037117447532111  0.4039736587060519
  0.5402113901459873  0.8306370033833554  0.4000631074136621
  0.5409859745535550  0.9567467951039924  0.3997710864386217
  0.6660112452392397  0.0816649908391114  0.4000512131474734
  0.6666850777956913  0.2071307883052577  0.3998431495247562
  0.6679766200191982  0.3325751278267542  0.3989699678363955
  0.6708654446273935  0.4582476992300377  0.3984983311048020
  0.6721261219281303  0.5838959201938196  0.3999318061832597
  0.6671965034353080  0.7067460007703095  0.4006768855260041
  0.6654253640627400  0.8306613303528630  0.4000867703657435
  0.6655801487527451  0.9561621037612565  0.3998652481875553
  0.7906624256230858  0.0816637253749416  0.4000435624201290
  0.7909743974231010  0.2069608424644790  0.4001413351954304
  0.7918229667857171  0.3324850972287499  0.3999524855466752
  0.7935377900410839  0.4581710854295949  0.3992244114145824
  0.7947939408664079  0.5837961468337401  0.3986089408625016
  0.7936571089032487  0.7090259502673436  0.3989349847049567
  0.7918841057637729  0.8327321922069432  0.3993946542611469
  0.7907603534566535  0.9567633937111233  0.3997663723796488
  0.9158075270268291  0.0824060312314539  0.3998485815230092
  0.9154224966404083  0.2071111985532803  0.3998286044463485
  0.9156797765408745  0.3324817739234542  0.3999525924743266
  0.9165674612533841  0.4581311832185445  0.4001099055307388
  0.9178477649724446  0.5839056177842586  0.3998845473859050
  0.9181467279463996  0.7093257595773284  0.3996192252464679
  0.9177436169639873  0.8341902798272502  0.3996638335286981
  0.9167627873279486  0.9583215578856423  0.3998240732931670
  0.0842390156847124  0.0432523850041998  0.3997713126893985
  0.0831204162169504  0.1672840168161083  0.3993884224128689
  0.0813285174060397  0.2909687641212567  0.3989268507220898
  0.0801981518404096  0.4162054870091828  0.3985967248924012
  0.0814381775523381  0.5418210448171407  0.3992201307609162
  0.0831976974104965  0.6675183032397601  0.3999534487889069
  0.0840133025123166  0.7930389290215478  0.4001415056403388
  0.0843471055778690  0.9183358671082338  0.4000513245963097
  0.2094187314781440  0.0438378593433336  0.3998655901325949
  0.2095733606439266  0.1693633662845321  0.4000640734763281
  0.2078027212891625  0.2932677272349194  0.4006664459015775
  0.2028861072979404  0.4161298050675690  0.3999472184892965
  0.2041152537027414  0.5417360346991501  0.3984903793694372
  0.2070245486716097  0.6674367559159409  0.3989706493646875
  0.2083116500299089  0.7928898190627325  0.3998291019436078
  0.2089997259552183  0.9183361254173272  0.4000435170552338
  0.3339971469437217  0.0432377925733691  0.3997665627848486
  0.3347650058454215  0.1693392975302924  0.4000862948796627
  0.3356437601312932  0.2962885590121057  0.4039733125268022
  0.3272445398903370  0.4193668095586965  0.4101335078547599
  0.3258137181794009  0.5420795013940489  0.4045983535118612
  0.3311016747386892  0.6670979401541263  0.3995578451461884
  0.3326225538706247  0.7922889441549794  0.3992517735785885
  0.3334014245039594  0.9175934778315749  0.3998484560255119
  0.4584419381924784  0.0416782208476943  0.3998236289235710
  0.4591534223679425  0.1672675107815749  0.3993943585456162
  0.4604503273203079  0.2932533792828022  0.4006767471629821
  0.4671450547948722  0.4193679910159945  0.4101130751732353
  0.4544476673670874  0.6630623575819740  0.4045593519671349
  0.4568874784476071  0.7902185153465097  0.3997584909226614
  0.4578485587547593  0.9161006459252157  0.3996607771625765
  0.5828658164927413  0.0402721128662717  0.3999408259001629
  0.5835537625846376  0.1658083235787476  0.3996633999687498
  0.5846307493834211  0.2909731445139312  0.3989344855383393
  0.5882313732824290  0.4161049019429303  0.3999306971931884
  0.5912816187088679  0.5420693888569355  0.4045644821139686
  0.5836118790612584  0.6630570736587080  0.4045527437821433
  0.5813851220452907  0.7877682812088375  0.4009531858450686
  0.5821743654903330  0.9144019513145613  0.3997823527272050
  0.7074145184249296  0.0398086918350965  0.3999975540808168
  0.7078192869615408  0.1652312215160009  0.4000973286135316
  0.7088191884374125  0.2906712053374257  0.3996199179270388
  0.7109979993089063  0.4162043606808346  0.3986079523436613
  0.7126191457536906  0.5417528039660627  0.3984988307434556
  0.7109930535781936  0.6671164989954269  0.3995570104212672
  0.7083332597676839  0.7902546276264626  0.3997699664028204
  0.7072285870673429  0.9144203829198928  0.3997945399956409
  0.8324347886799692  0.0402863871547836  0.3999268144429589
  0.8324022681067098  0.1652294317757424  0.4000776549990077
  0.8328207550066260  0.2906091097153537  0.4001398039879521
  0.8339434189819021  0.4160950391067278  0.3998849826705277
  0.8353679506088115  0.5418283627976880  0.3992239180002164
  0.8354028258014257  0.6674270437926939  0.3989708425174976
  0.8346513269124378  0.7922890478956812  0.3992745125075395
  0.8332708855622816  0.9161229668916646  0.3996596483419082
  0.9582639035466067  0.0416797381523168  0.3998197777863737
  0.9572484884255507  0.1658048913027549  0.3996456914909244
  0.9568476732948088  0.2906519199568662  0.3996138747606349
  0.9571358323707054  0.4160911340272538  0.3998925117499715
  0.9584360134218715  0.5418691415520296  0.4001103117838904
  0.9593397472404002  0.6675164225494654  0.3999527989188638
  0.9595551544082160  0.7928718033720387  0.3998432437619592
  0.9592165757384761  0.9175981092985560  0.3998658547874697
 
  0.00000000E+00  0.00000000E+00  0.00000000E+00
  0.00000000E+00  0.00000000E+00  0.00000000E+00
  0.00000000E+00  0.00000000E+00  0.00000000E+00
  0.00000000E+00  0.00000000E+00  0.00000000E+00
  0.00000000E+00  0.00000000E+00  0.00000000E+00
  0.00000000E+00  0.00000000E+00  0.00000000E+00
  0.00000000E+00  0.00000000E+00  0.00000000E+00
  0.00000000E+00  0.00000000E+00  0.00000000E+00
  0.00000000E+00  0.00000000E+00  0.00000000E+00
  0.00000000E+00  0.00000000E+00  0.00000000E+00
  0.00000000E+00  0.00000000E+00  0.00000000E+00
  0.00000000E+00  0.00000000E+00  0.00000000E+00
  0.00000000E+00  0.00000000E+00  0.00000000E+00
  0.00000000E+00  0.00000000E+00  0.00000000E+00
  0.00000000E+00  0.00000000E+00  0.00000000E+00
  0.00000000E+00  0.00000000E+00  0.00000000E+00
  0.00000000E+00  0.00000000E+00  0.00000000E+00
  0.00000000E+00  0.00000000E+00  0.00000000E+00
  0.00000000E+00  0.00000000E+00  0.00000000E+00
  0.00000000E+00  0.00000000E+00  0.00000000E+00
  0.00000000E+00  0.00000000E+00  0.00000000E+00
  0.00000000E+00  0.00000000E+00  0.00000000E+00
  0.00000000E+00  0.00000000E+00  0.00000000E+00
  0.00000000E+00  0.00000000E+00  0.00000000E+00
  0.00000000E+00  0.00000000E+00  0.00000000E+00
  0.00000000E+00  0.00000000E+00  0.00000000E+00
  0.00000000E+00  0.00000000E+00  0.00000000E+00
  0.00000000E+00  0.00000000E+00  0.00000000E+00
  0.00000000E+00  0.00000000E+00  0.00000000E+00
  0.00000000E+00  0.00000000E+00  0.00000000E+00
  0.00000000E+00  0.00000000E+00  0.00000000E+00
  0.00000000E+00  0.00000000E+00  0.00000000E+00
  0.00000000E+00  0.00000000E+00  0.00000000E+00
  0.00000000E+00  0.00000000E+00  0.00000000E+00
  0.00000000E+00  0.00000000E+00  0.00000000E+00
  0.00000000E+00  0.00000000E+00  0.00000000E+00
  0.00000000E+00  0.00000000E+00  0.00000000E+00
  0.00000000E+00  0.00000000E+00  0.00000000E+00
  0.00000000E+00  0.00000000E+00  0.00000000E+00
  0.00000000E+00  0.00000000E+00  0.00000000E+00
  0.00000000E+00  0.00000000E+00  0.00000000E+00
  0.00000000E+00  0.00000000E+00  0.00000000E+00
  0.00000000E+00  0.00000000E+00  0.00000000E+00
  0.00000000E+00  0.00000000E+00  0.00000000E+00
  0.00000000E+00  0.00000000E+00  0.00000000E+00
  0.00000000E+00  0.00000000E+00  0.00000000E+00
  0.00000000E+00  0.00000000E+00  0.00000000E+00
  0.00000000E+00  0.00000000E+00  0.00000000E+00
  0.00000000E+00  0.00000000E+00  0.00000000E+00
  0.00000000E+00  0.00000000E+00  0.00000000E+00
  0.00000000E+00  0.00000000E+00  0.00000000E+00
  0.00000000E+00  0.00000000E+00  0.00000000E+00
  0.00000000E+00  0.00000000E+00  0.00000000E+00
  0.00000000E+00  0.00000000E+00  0.00000000E+00
  0.00000000E+00  0.00000000E+00  0.00000000E+00
  0.00000000E+00  0.00000000E+00  0.00000000E+00
  0.00000000E+00  0.00000000E+00  0.00000000E+00
  0.00000000E+00  0.00000000E+00  0.00000000E+00
  0.00000000E+00  0.00000000E+00  0.00000000E+00
  0.00000000E+00  0.00000000E+00  0.00000000E+00
  0.00000000E+00  0.00000000E+00  0.00000000E+00
  0.00000000E+00  0.00000000E+00  0.00000000E+00
  0.00000000E+00  0.00000000E+00  0.00000000E+00
  0.00000000E+00  0.00000000E+00  0.00000000E+00
  0.00000000E+00  0.00000000E+00  0.00000000E+00
  0.00000000E+00  0.00000000E+00  0.00000000E+00
  0.00000000E+00  0.00000000E+00  0.00000000E+00
  0.00000000E+00  0.00000000E+00  0.00000000E+00
  0.00000000E+00  0.00000000E+00  0.00000000E+00
  0.00000000E+00  0.00000000E+00  0.00000000E+00
  0.00000000E+00  0.00000000E+00  0.00000000E+00
  0.00000000E+00  0.00000000E+00  0.00000000E+00
  0.00000000E+00  0.00000000E+00  0.00000000E+00
  0.00000000E+00  0.00000000E+00  0.00000000E+00
  0.00000000E+00  0.00000000E+00  0.00000000E+00
  0.00000000E+00  0.00000000E+00  0.00000000E+00
  0.00000000E+00  0.00000000E+00  0.00000000E+00
  0.00000000E+00  0.00000000E+00  0.00000000E+00
  0.00000000E+00  0.00000000E+00  0.00000000E+00
  0.00000000E+00  0.00000000E+00  0.00000000E+00
  0.00000000E+00  0.00000000E+00  0.00000000E+00
  0.00000000E+00  0.00000000E+00  0.00000000E+00
  0.00000000E+00  0.00000000E+00  0.00000000E+00
  0.00000000E+00  0.00000000E+00  0.00000000E+00
  0.00000000E+00  0.00000000E+00  0.00000000E+00
  0.00000000E+00  0.00000000E+00  0.00000000E+00
  0.00000000E+00  0.00000000E+00  0.00000000E+00
  0.00000000E+00  0.00000000E+00  0.00000000E+00
  0.00000000E+00  0.00000000E+00  0.00000000E+00
  0.00000000E+00  0.00000000E+00  0.00000000E+00
  0.00000000E+00  0.00000000E+00  0.00000000E+00
  0.00000000E+00  0.00000000E+00  0.00000000E+00
  0.00000000E+00  0.00000000E+00  0.00000000E+00
  0.00000000E+00  0.00000000E+00  0.00000000E+00
  0.00000000E+00  0.00000000E+00  0.00000000E+00
  0.00000000E+00  0.00000000E+00  0.00000000E+00
  0.00000000E+00  0.00000000E+00  0.00000000E+00
  0.00000000E+00  0.00000000E+00  0.00000000E+00
  0.00000000E+00  0.00000000E+00  0.00000000E+00
  0.00000000E+00  0.00000000E+00  0.00000000E+00
  0.00000000E+00  0.00000000E+00  0.00000000E+00
  0.00000000E+00  0.00000000E+00  0.00000000E+00
  0.00000000E+00  0.00000000E+00  0.00000000E+00
  0.00000000E+00  0.00000000E+00  0.00000000E+00
  0.00000000E+00  0.00000000E+00  0.00000000E+00
  0.00000000E+00  0.00000000E+00  0.00000000E+00
  0.00000000E+00  0.00000000E+00  0.00000000E+00
  0.00000000E+00  0.00000000E+00  0.00000000E+00
  0.00000000E+00  0.00000000E+00  0.00000000E+00
  0.00000000E+00  0.00000000E+00  0.00000000E+00
  0.00000000E+00  0.00000000E+00  0.00000000E+00
  0.00000000E+00  0.00000000E+00  0.00000000E+00
  0.00000000E+00  0.00000000E+00  0.00000000E+00
  0.00000000E+00  0.00000000E+00  0.00000000E+00
  0.00000000E+00  0.00000000E+00  0.00000000E+00
  0.00000000E+00  0.00000000E+00  0.00000000E+00
  0.00000000E+00  0.00000000E+00  0.00000000E+00
  0.00000000E+00  0.00000000E+00  0.00000000E+00
  0.00000000E+00  0.00000000E+00  0.00000000E+00
  0.00000000E+00  0.00000000E+00  0.00000000E+00
  0.00000000E+00  0.00000000E+00  0.00000000E+00
  0.00000000E+00  0.00000000E+00  0.00000000E+00
  0.00000000E+00  0.00000000E+00  0.00000000E+00
  0.00000000E+00  0.00000000E+00  0.00000000E+00
  0.00000000E+00  0.00000000E+00  0.00000000E+00
  0.00000000E+00  0.00000000E+00  0.00000000E+00
  0.00000000E+00  0.00000000E+00  0.00000000E+00
