Zr1 H1 C124 N2 O1                       
   1.00000000000000     
    19.8110059654494641   -0.0174695385505372   -0.1260953738209513
    -9.9212288018544221   17.0661432148817269   -0.2823534193022350
    -0.1894496811331662   -0.6015358190649186   29.7905244235667794
   Zr   H    C    N    O 
     1     1   124     2     1
Direct
  0.4418014906720051  0.5039588770755651  0.4418004348482523
  0.4777461933058578  0.5324790188879647  0.5339743750852952
  0.0422353068379516  0.0842942060436418  0.3993824413908558
  0.0416037118282950  0.2087091321491567  0.3991670687759452
  0.0409330317822387  0.3332750806880789  0.3986305934058756
  0.0408038717609223  0.4585299462999079  0.3981248407100937
  0.0413986992512301  0.5839139093721932  0.3981113078626099
  0.0419803214248838  0.7092316135885629  0.3983775038786558
  0.0422831032116200  0.8344870540938538  0.3987414182748364
  0.0424775849630644  0.9596582033861217  0.3991217751326505
  0.1681309553128735  0.0856598161425468  0.4002331254280778
  0.1676301190798514  0.2102375178091528  0.4004597671379820
  0.1663490940386475  0.3344313818618708  0.4003105547953363
  0.1647503101798515  0.4589173547288919  0.3992177165794723
  0.1653830869560120  0.5840191296610655  0.3984379799255392
  0.1663421768055274  0.7092530507853052  0.3984681668974648
  0.1669664608696351  0.8345594494671551  0.3989193395607180
  0.1674673805912937  0.9599744357562274  0.3995742660071937
  0.2926813866218204  0.0852545691291910  0.4002987684920806
  0.2944294800365309  0.2123714647491472  0.4023567353416641
  0.2931655527069015  0.3376773475724869  0.4050753417281496
  0.2891973572139852  0.4598849797364090  0.4048622090413387
  0.2892477978367769  0.5847577174222803  0.4011586925960873
  0.2907767697291083  0.7094184857064251  0.3991943427361497
  0.2915923557782292  0.8343346379793370  0.3987881292988055
  0.2920625192155101  0.9595729393225907  0.3993277883100469
  0.4172077653942196  0.0839124872601278  0.3994521447909790
  0.4178626015243610  0.2094480941221228  0.4005910262311033
  0.4212494955675464  0.3370322100376418  0.4050464235137693
  0.4152094346699757  0.7079644001389407  0.4014988027027815
  0.4162269102642113  0.8332843078499722  0.3991773799376478
  0.4167135633799314  0.9585817689098730  0.3990169572159244
  0.5417970024238165  0.0827839980342526  0.3990234595864541
  0.5423489919932180  0.2078777499476286  0.3991501904902589
  0.5435891018560095  0.3328049734949665  0.4001608659723278
  0.5451938140002390  0.4564411368260256  0.4032984346239562
  0.5453031455816842  0.5818013001852351  0.4062614602686762
  0.5391968207608780  0.7048167114653565  0.4039457871714138
  0.5407678524900598  0.8318350618996422  0.4003290574176173
  0.5414004124287193  0.9574916276116182  0.3991791369057914
  0.6664653146943754  0.0823971875614507  0.3989989492218285
  0.6669432341506162  0.2076112366094560  0.3987546873104652
  0.6677995275969951  0.3328197476069726  0.3983230151057050
  0.6692245931732207  0.4581959535983008  0.3981399769200094
  0.6691162646263348  0.5827664006500695  0.3989335377811812
  0.6664471594073671  0.7069708539151357  0.3995054025788383
  0.6653073384126831  0.8313026446887258  0.3997608169562409
  0.6660471715862137  0.9570830658901816  0.3992588994438673
  0.7912825717918863  0.0824646344849605  0.3988670673597958
  0.7915523643862964  0.2076276801618131  0.3987922660011053
  0.7920986750526504  0.3329056734308919  0.3983111360974291
  0.7928714521886621  0.4582444292496264  0.3975852751194907
  0.7933323088252356  0.5835262908854889  0.3972417672677870
  0.7924881672711220  0.7084147545128762  0.3976774618616562
  0.7914516038988267  0.8327833917353946  0.3983466673616367
  0.7909704321582181  0.9572635383170082  0.3987606041433785
  0.9164411910965290  0.0830369007594364  0.3988942465498985
  0.9163168847465762  0.2078686489428117  0.3987772925176267
  0.9164026313811295  0.3330110136504579  0.3984530994952901
  0.9168196233407336  0.4583601236791371  0.3980543349635482
  0.9174170730581780  0.5837931118994291  0.3977833786028436
  0.9174496576439497  0.7090277382848619  0.3978251108659480
  0.9172112187827188  0.8339233174664712  0.3982130532527165
  0.9168218657848990  0.9585487195991828  0.3987044459767351
  0.0844494255305710  0.0433272695751739  0.3995578916004381
  0.0839737420115467  0.1677905147492265  0.3995820730483827
  0.0828907123413516  0.2920564514193792  0.3991684700674002
  0.0819828460499304  0.4168118553914705  0.3984019668032414
  0.0824126673190181  0.5420589409558030  0.3981057994713691
  0.0831773003072948  0.6674291224574316  0.3983028852450225
  0.0837511173366790  0.7927895756492416  0.3987145379014757
  0.0840789521034641  0.9180440041709808  0.3991797726989381
  0.2093587492506806  0.0435233103133701  0.4001390202392169
  0.2102105043802982  0.1694554499360194  0.4010645329421073
  0.2091461167399349  0.2938246130854857  0.4013025596878917
  0.2064473976128068  0.4178899716307343  0.4008940232614816
  0.2061930816091191  0.5422566198365469  0.3992914645898727
  0.2075113560983523  0.6675651886711512  0.3986264330121967
  0.2083289317316585  0.7927872167473431  0.3987043695569503
  0.2088463795976613  0.9180895512442114  0.3993038812798020
  0.3339418090721302  0.0430579771888858  0.3996930870692334
  0.3347661320949237  0.1689587552709676  0.4011415344547463
  0.3368079831139876  0.2965440977417387  0.4049609515908695
  0.3309003474196587  0.4199402499379938  0.4091456653028652
  0.3308031444138805  0.5448360651421624  0.4051668363436620
  0.3319561796346170  0.6678816601778340  0.4006301491657882
  0.3329897585267046  0.7925941532608443  0.3989599979669702
  0.3334928250279575  0.9176662937326601  0.3989984396866250
  0.4585963486033085  0.0418958578547357  0.3991368567668889
  0.4591527944673880  0.1672458215777829  0.3996153815797500
  0.4604426556389357  0.2928777821465304  0.4014988698367669
  0.4548305082223321  0.6643711895888427  0.4051797916212558
  0.4576296425940535  0.7912283736080826  0.4000657025389192
  0.4581307244578063  0.9166009034455466  0.3990428450782568
  0.5832512411682238  0.0409206156418488  0.3990462786839269
  0.5836973246947735  0.1660955558881837  0.3989116120858446
  0.5846056488394668  0.2910777756477080  0.3990302159367302
  0.5863891799123043  0.4159606237583533  0.3999908112163725
  0.5866867804009783  0.5413033489778489  0.4023890876400660
  0.5828273562823016  0.6636692130583313  0.4031371584510071
  0.5812507780156978  0.7886081633478483  0.4012625749085252
  0.5827413804019016  0.9154064821891901  0.3995198046002496
  0.7078941351728534  0.0405606519565409  0.3990075986522871
  0.7083344670353423  0.1658785474394723  0.3988658084927260
  0.7089532722178667  0.2911200349922975  0.3984138153104331
  0.7099481226102682  0.4163312392733138  0.3977794379721383
  0.7106527201615557  0.5415131202245339  0.3977533152956982
  0.7091217757982360  0.6661713615939590  0.3984399469048071
  0.7078656124322873  0.7904583784955748  0.3990044087609144
  0.7073141713149139  0.9149892221494497  0.3991526072220143
  0.8329268603076264  0.0408829237150671  0.3988004870810463
  0.8330508555094984  0.1659678849236311  0.3988329098189875
  0.8333325769028074  0.2911388560401277  0.3985664291910144
  0.8338888986060983  0.4164015700043980  0.3979696722534058
  0.8344830558657117  0.5417737433911664  0.3973985188820388
  0.8343823694147479  0.6670944029859240  0.3974289896682528
  0.8337779766552745  0.7917847767519682  0.3979623218343865
  0.8332010850521639  0.9162942369606899  0.3985633616617195
  0.9586131120955098  0.0420084228657402  0.3989892780091706
  0.9581599549481091  0.1665431856245621  0.3989062386848129
  0.9578782998705787  0.2913492797479751  0.3985821721979833
  0.9578822960612686  0.4165300161380129  0.3982102475184482
  0.9584820773295210  0.5419608163710703  0.3979922155042921
  0.9588974676371894  0.6673313690514523  0.3979985538449868
  0.9590033649474632  0.7925466350266841  0.3982442675717533
  0.9589531441135659  0.9174706031534646  0.3986561380092826
  0.4107777468309152  0.5845173249215867  0.4097232185798803
  0.4658306124039213  0.4175878538027494  0.4083131808698771
  0.4427297902800829  0.5061047226024340  0.5083352234516606
 
  0.00000000E+00  0.00000000E+00  0.00000000E+00
  0.00000000E+00  0.00000000E+00  0.00000000E+00
  0.00000000E+00  0.00000000E+00  0.00000000E+00
  0.00000000E+00  0.00000000E+00  0.00000000E+00
  0.00000000E+00  0.00000000E+00  0.00000000E+00
  0.00000000E+00  0.00000000E+00  0.00000000E+00
  0.00000000E+00  0.00000000E+00  0.00000000E+00
  0.00000000E+00  0.00000000E+00  0.00000000E+00
  0.00000000E+00  0.00000000E+00  0.00000000E+00
  0.00000000E+00  0.00000000E+00  0.00000000E+00
  0.00000000E+00  0.00000000E+00  0.00000000E+00
  0.00000000E+00  0.00000000E+00  0.00000000E+00
  0.00000000E+00  0.00000000E+00  0.00000000E+00
  0.00000000E+00  0.00000000E+00  0.00000000E+00
  0.00000000E+00  0.00000000E+00  0.00000000E+00
  0.00000000E+00  0.00000000E+00  0.00000000E+00
  0.00000000E+00  0.00000000E+00  0.00000000E+00
  0.00000000E+00  0.00000000E+00  0.00000000E+00
  0.00000000E+00  0.00000000E+00  0.00000000E+00
  0.00000000E+00  0.00000000E+00  0.00000000E+00
  0.00000000E+00  0.00000000E+00  0.00000000E+00
  0.00000000E+00  0.00000000E+00  0.00000000E+00
  0.00000000E+00  0.00000000E+00  0.00000000E+00
  0.00000000E+00  0.00000000E+00  0.00000000E+00
  0.00000000E+00  0.00000000E+00  0.00000000E+00
  0.00000000E+00  0.00000000E+00  0.00000000E+00
  0.00000000E+00  0.00000000E+00  0.00000000E+00
  0.00000000E+00  0.00000000E+00  0.00000000E+00
  0.00000000E+00  0.00000000E+00  0.00000000E+00
  0.00000000E+00  0.00000000E+00  0.00000000E+00
  0.00000000E+00  0.00000000E+00  0.00000000E+00
  0.00000000E+00  0.00000000E+00  0.00000000E+00
  0.00000000E+00  0.00000000E+00  0.00000000E+00
  0.00000000E+00  0.00000000E+00  0.00000000E+00
  0.00000000E+00  0.00000000E+00  0.00000000E+00
  0.00000000E+00  0.00000000E+00  0.00000000E+00
  0.00000000E+00  0.00000000E+00  0.00000000E+00
  0.00000000E+00  0.00000000E+00  0.00000000E+00
  0.00000000E+00  0.00000000E+00  0.00000000E+00
  0.00000000E+00  0.00000000E+00  0.00000000E+00
  0.00000000E+00  0.00000000E+00  0.00000000E+00
  0.00000000E+00  0.00000000E+00  0.00000000E+00
  0.00000000E+00  0.00000000E+00  0.00000000E+00
  0.00000000E+00  0.00000000E+00  0.00000000E+00
  0.00000000E+00  0.00000000E+00  0.00000000E+00
  0.00000000E+00  0.00000000E+00  0.00000000E+00
  0.00000000E+00  0.00000000E+00  0.00000000E+00
  0.00000000E+00  0.00000000E+00  0.00000000E+00
  0.00000000E+00  0.00000000E+00  0.00000000E+00
  0.00000000E+00  0.00000000E+00  0.00000000E+00
  0.00000000E+00  0.00000000E+00  0.00000000E+00
  0.00000000E+00  0.00000000E+00  0.00000000E+00
  0.00000000E+00  0.00000000E+00  0.00000000E+00
  0.00000000E+00  0.00000000E+00  0.00000000E+00
  0.00000000E+00  0.00000000E+00  0.00000000E+00
  0.00000000E+00  0.00000000E+00  0.00000000E+00
  0.00000000E+00  0.00000000E+00  0.00000000E+00
  0.00000000E+00  0.00000000E+00  0.00000000E+00
  0.00000000E+00  0.00000000E+00  0.00000000E+00
  0.00000000E+00  0.00000000E+00  0.00000000E+00
  0.00000000E+00  0.00000000E+00  0.00000000E+00
  0.00000000E+00  0.00000000E+00  0.00000000E+00
  0.00000000E+00  0.00000000E+00  0.00000000E+00
  0.00000000E+00  0.00000000E+00  0.00000000E+00
  0.00000000E+00  0.00000000E+00  0.00000000E+00
  0.00000000E+00  0.00000000E+00  0.00000000E+00
  0.00000000E+00  0.00000000E+00  0.00000000E+00
  0.00000000E+00  0.00000000E+00  0.00000000E+00
  0.00000000E+00  0.00000000E+00  0.00000000E+00
  0.00000000E+00  0.00000000E+00  0.00000000E+00
  0.00000000E+00  0.00000000E+00  0.00000000E+00
  0.00000000E+00  0.00000000E+00  0.00000000E+00
  0.00000000E+00  0.00000000E+00  0.00000000E+00
  0.00000000E+00  0.00000000E+00  0.00000000E+00
  0.00000000E+00  0.00000000E+00  0.00000000E+00
  0.00000000E+00  0.00000000E+00  0.00000000E+00
  0.00000000E+00  0.00000000E+00  0.00000000E+00
  0.00000000E+00  0.00000000E+00  0.00000000E+00
  0.00000000E+00  0.00000000E+00  0.00000000E+00
  0.00000000E+00  0.00000000E+00  0.00000000E+00
  0.00000000E+00  0.00000000E+00  0.00000000E+00
  0.00000000E+00  0.00000000E+00  0.00000000E+00
  0.00000000E+00  0.00000000E+00  0.00000000E+00
  0.00000000E+00  0.00000000E+00  0.00000000E+00
  0.00000000E+00  0.00000000E+00  0.00000000E+00
  0.00000000E+00  0.00000000E+00  0.00000000E+00
  0.00000000E+00  0.00000000E+00  0.00000000E+00
  0.00000000E+00  0.00000000E+00  0.00000000E+00
  0.00000000E+00  0.00000000E+00  0.00000000E+00
  0.00000000E+00  0.00000000E+00  0.00000000E+00
  0.00000000E+00  0.00000000E+00  0.00000000E+00
  0.00000000E+00  0.00000000E+00  0.00000000E+00
  0.00000000E+00  0.00000000E+00  0.00000000E+00
  0.00000000E+00  0.00000000E+00  0.00000000E+00
  0.00000000E+00  0.00000000E+00  0.00000000E+00
  0.00000000E+00  0.00000000E+00  0.00000000E+00
  0.00000000E+00  0.00000000E+00  0.00000000E+00
  0.00000000E+00  0.00000000E+00  0.00000000E+00
  0.00000000E+00  0.00000000E+00  0.00000000E+00
  0.00000000E+00  0.00000000E+00  0.00000000E+00
  0.00000000E+00  0.00000000E+00  0.00000000E+00
  0.00000000E+00  0.00000000E+00  0.00000000E+00
  0.00000000E+00  0.00000000E+00  0.00000000E+00
  0.00000000E+00  0.00000000E+00  0.00000000E+00
  0.00000000E+00  0.00000000E+00  0.00000000E+00
  0.00000000E+00  0.00000000E+00  0.00000000E+00
  0.00000000E+00  0.00000000E+00  0.00000000E+00
  0.00000000E+00  0.00000000E+00  0.00000000E+00
  0.00000000E+00  0.00000000E+00  0.00000000E+00
  0.00000000E+00  0.00000000E+00  0.00000000E+00
  0.00000000E+00  0.00000000E+00  0.00000000E+00
  0.00000000E+00  0.00000000E+00  0.00000000E+00
  0.00000000E+00  0.00000000E+00  0.00000000E+00
  0.00000000E+00  0.00000000E+00  0.00000000E+00
  0.00000000E+00  0.00000000E+00  0.00000000E+00
  0.00000000E+00  0.00000000E+00  0.00000000E+00
  0.00000000E+00  0.00000000E+00  0.00000000E+00
  0.00000000E+00  0.00000000E+00  0.00000000E+00
  0.00000000E+00  0.00000000E+00  0.00000000E+00
  0.00000000E+00  0.00000000E+00  0.00000000E+00
  0.00000000E+00  0.00000000E+00  0.00000000E+00
  0.00000000E+00  0.00000000E+00  0.00000000E+00
  0.00000000E+00  0.00000000E+00  0.00000000E+00
  0.00000000E+00  0.00000000E+00  0.00000000E+00
  0.00000000E+00  0.00000000E+00  0.00000000E+00
  0.00000000E+00  0.00000000E+00  0.00000000E+00
  0.00000000E+00  0.00000000E+00  0.00000000E+00
  0.00000000E+00  0.00000000E+00  0.00000000E+00
  0.00000000E+00  0.00000000E+00  0.00000000E+00
