Hf1 C126                                
   1.00000000000000     
    19.8344141621328340    0.0001166809307545    0.0013693868576627
    -9.9170964853545254   17.0835838641138551   -0.0006810715381533
     0.0020478827809728    0.0000061039009777   29.6962932113469584
   Hf   C 
     1   126
Direct
  0.4374515462630620  0.5000009297032064  0.4355822821236253
  0.0416575720598440  0.0836562208842482  0.3998894024229101
  0.0405985789203563  0.2077630690671868  0.3996684272627355
  0.0401561686516755  0.3325861095683714  0.3996411265640643
  0.0403366786352582  0.4582363599250527  0.3998062778308984
  0.0412435538819902  0.5837245337818695  0.4000694393359382
  0.0420373560447267  0.7090449883674311  0.4000912929407768
  0.0424002697292286  0.8343572200004020  0.4000655523322824
  0.0423504871661521  0.9592692129309387  0.4000342873691818
  0.1673645867621644  0.0847668179599319  0.3998500803353235
  0.1664488228227141  0.2089645454969684  0.3995159769064381
  0.1647348581303308  0.3328668131386555  0.3994180401895812
  0.1637240365062072  0.4581300817845264  0.3992621654398119
  0.1649777317174809  0.5836403857282653  0.3994872041224200
  0.1663661949462887  0.7091258399076006  0.3999375436545077
  0.1669526339205091  0.8343585607337451  0.4000540523597302
  0.1673225739393252  0.9596303366984111  0.3999951444873416
  0.2924084807519623  0.0847894626063209  0.3998440287005548
  0.2929702029651091  0.2109643905449224  0.4003069023902328
  0.2912955070368513  0.3355252687201498  0.4017665923694538
  0.2864921124719237  0.4572008630854273  0.4014788206990376
  0.2883806550801833  0.5839909390342697  0.3995612541457089
  0.2906494378977623  0.7090452615817575  0.3994742519616590
  0.2914899855540571  0.8340368343227587  0.3999351384451692
  0.2919466899178222  0.9592690457476416  0.3999996191425946
  0.4170031430811230  0.0836388169392438  0.3998921727303935
  0.4175120529772068  0.2089772394429632  0.3995114209214374
  0.4192147381280787  0.3355538904479350  0.4017409189438147
  0.4106160439694961  0.5819265458748273  0.4043470659823741
  0.4152298701957994  0.7076356482939937  0.3996398802047365
  0.4161192801580197  0.8331325726499549  0.3996291069476084
  0.4165742153613030  0.9583512797008221  0.4000554257685291
  0.5416115371385420  0.0826321002972611  0.4000631589008434
  0.5421595729743662  0.2077758448387113  0.3996860686305894
  0.5431251348144004  0.3328855709741140  0.3994111913859070
  0.5457034908856186  0.4572164706257998  0.4015236078126405
  0.5463262317366794  0.5819416376935765  0.4044301097825876
  0.5403911708658206  0.7057747018516162  0.4018183611140090
  0.5406944042369992  0.8317671691247792  0.3998329442481186
  0.5412505247347628  0.9573447372728141  0.3999118091984705
  0.6662326424748006  0.0822193606538821  0.4000302692886917
  0.6666944751043720  0.2074672460970620  0.3999995862164125
  0.6674258137553031  0.3326121776583436  0.3996374027251737
  0.6694033402701338  0.4581478720702444  0.3992790885494005
  0.6706226298869747  0.5840049957067154  0.3995992139563271
  0.6674232402333091  0.7076486683649658  0.3996531310212386
  0.6660608275847625  0.8317593407266547  0.3998414926647015
  0.6659992539148480  0.9569900274992295  0.3999300116260395
  0.7909901688243450  0.0822149956149500  0.4000291038766490
  0.7911578499071238  0.2073297656919238  0.4000810752670387
  0.7917866338456457  0.3327153687265246  0.4000401704803518
  0.7928909842293764  0.4582501334542474  0.3997936627462646
  0.7936587503750924  0.5836320753084424  0.3994674061724317
  0.7934025289460207  0.7090452483317062  0.3994660492006228
  0.7920363635053214  0.8331468502478987  0.3996315696786056
  0.7910914296218218  0.9573446653836939  0.3998911162655924
  0.9160420868605231  0.0826338989771239  0.4000226935504423
  0.9157490156344319  0.2074560128558822  0.3999895021556816
  0.9159329569001562  0.3327061902147619  0.4000487117159587
  0.9165617180546550  0.4581225997672220  0.4001493739001762
  0.9174736745236057  0.5837218418711261  0.4000468252659806
  0.9177743252567672  0.7091240178479901  0.3999249522094581
  0.9175600328891665  0.8340376043216573  0.3999415946311318
  0.9168153522283313  0.9583587901210637  0.4000673904530707
  0.0839065227192285  0.0426550419006228  0.3999144608659391
  0.0829768627060278  0.1668591608656595  0.3996218340459151
  0.0815863108451000  0.2909424853825796  0.3994682476925447
  0.0813274157324372  0.4163501825608504  0.3994813763578240
  0.0821010261205116  0.5417573551431526  0.3998104709289871
  0.0832364634258752  0.6672913101665482  0.4000513723805136
  0.0838397828186965  0.7926731394911563  0.4000805176978371
  0.0840226728923962  0.9177856210003219  0.4000324310708828
  0.2090130532265160  0.0430118365980787  0.3999291251537613
  0.2089198339001911  0.1682281305123053  0.3998380955244332
  0.2075753408020687  0.2923525377529270  0.3996554224942644
  0.2043779692231407  0.4159964507825786  0.3995694990125358
  0.2055951511348626  0.5418587824318709  0.3992630370443188
  0.2075766000582366  0.6674070967226412  0.3996503697928542
  0.2083021127104713  0.7925415121520359  0.3999956675434378
  0.2087833664356544  0.9177864017410159  0.4000292487045700
  0.3337466727831344  0.0426544643969381  0.3998874985756075
  0.3342981670466341  0.1682444435960544  0.3998373789833232
  0.3346029459829185  0.2942238672153841  0.4018222302247904
  0.3286591147521708  0.4180483287998528  0.4044007031588229
  0.3292882776654710  0.5427819979885851  0.4014621252306970
  0.3318741061941712  0.6671190675634697  0.3994073434306709
  0.3328430879475954  0.7922295239723877  0.3996794921022849
  0.3334114768695475  0.9173636303435596  0.4000263587790496
  0.4584528038704053  0.0416419455981776  0.4000696211040884
  0.4588851467106960  0.1668616946766242  0.3996362734606936
  0.4597664957349569  0.2923632268314204  0.3996385528814879
  0.4643760145444064  0.4180772622192266  0.4043898959714273
  0.4557762252683260  0.6644520072905585  0.4017337362274173
  0.4574933851016217  0.7910249202035837  0.3995121079729279
  0.4580031485396680  0.9163399810807628  0.3998940973448435
  0.5830736981773325  0.0407302964929843  0.4000306659755382
  0.5835126818393945  0.1659681843958786  0.3999479376533794
  0.5843496725027599  0.2909606638177978  0.3994711204866358
  0.5866198966848378  0.4160060996538097  0.3995917913755460
  0.5884961720217837  0.5428004450639816  0.4015365813316911
  0.5836863471521933  0.6644642823175785  0.4017641427184286
  0.5820134816869612  0.7890335849273946  0.4003045502516868
  0.5825978804658665  0.9152302007383033  0.3998469021297671
  0.7076842775698996  0.0403713056439380  0.3999950873302058
  0.7080313361496259  0.1656457077714839  0.4000672491156294
  0.7086403283099075  0.2908797720206312  0.3999328021833263
  0.7100270754300285  0.4163699128231124  0.3994703931146954
  0.7112689033041548  0.5418624086031462  0.3992798552142450
  0.7102593743673075  0.6671298053251428  0.3994200726483191
  0.7085547205392414  0.7910352089163346  0.3995149221660805
  0.7076212425948373  0.9152136365432846  0.3998481308846438
  0.8326696624628285  0.0407302329673585  0.4000023566407081
  0.8325807886187198  0.1656389093481106  0.4000512735438996
  0.8329804267547475  0.2909546280074104  0.4000930105764544
  0.8337483355661686  0.4162805767771804  0.4000502503557888
  0.8346456769207005  0.5417564531396468  0.3997902803257632
  0.8348298242917184  0.6673977352414876  0.3996277730475264
  0.8344000729914393  0.7922343169540733  0.3996782854344196
  0.8333705411769918  0.9163674956766565  0.3998893191591281
  0.9582173125107580  0.0416475345912990  0.4000523382796909
  0.9574383557007575  0.1659572444471735  0.3999266216670138
  0.9572221252945698  0.2908676019396339  0.3999299380352417
  0.9575108786771497  0.4162728067420348  0.4000661529667038
  0.9584446680496538  0.5418793895550502  0.4001493324142348
  0.9590845240733512  0.6672911540191594  0.4000362421070679
  0.9592395499908564  0.7925423008985236  0.3999943233553284
  0.9589863865022294  0.9173726327976756  0.4000611660309991
 
  0.00000000E+00  0.00000000E+00  0.00000000E+00
  0.00000000E+00  0.00000000E+00  0.00000000E+00
  0.00000000E+00  0.00000000E+00  0.00000000E+00
  0.00000000E+00  0.00000000E+00  0.00000000E+00
  0.00000000E+00  0.00000000E+00  0.00000000E+00
  0.00000000E+00  0.00000000E+00  0.00000000E+00
  0.00000000E+00  0.00000000E+00  0.00000000E+00
  0.00000000E+00  0.00000000E+00  0.00000000E+00
  0.00000000E+00  0.00000000E+00  0.00000000E+00
  0.00000000E+00  0.00000000E+00  0.00000000E+00
  0.00000000E+00  0.00000000E+00  0.00000000E+00
  0.00000000E+00  0.00000000E+00  0.00000000E+00
  0.00000000E+00  0.00000000E+00  0.00000000E+00
  0.00000000E+00  0.00000000E+00  0.00000000E+00
  0.00000000E+00  0.00000000E+00  0.00000000E+00
  0.00000000E+00  0.00000000E+00  0.00000000E+00
  0.00000000E+00  0.00000000E+00  0.00000000E+00
  0.00000000E+00  0.00000000E+00  0.00000000E+00
  0.00000000E+00  0.00000000E+00  0.00000000E+00
  0.00000000E+00  0.00000000E+00  0.00000000E+00
  0.00000000E+00  0.00000000E+00  0.00000000E+00
  0.00000000E+00  0.00000000E+00  0.00000000E+00
  0.00000000E+00  0.00000000E+00  0.00000000E+00
  0.00000000E+00  0.00000000E+00  0.00000000E+00
  0.00000000E+00  0.00000000E+00  0.00000000E+00
  0.00000000E+00  0.00000000E+00  0.00000000E+00
  0.00000000E+00  0.00000000E+00  0.00000000E+00
  0.00000000E+00  0.00000000E+00  0.00000000E+00
  0.00000000E+00  0.00000000E+00  0.00000000E+00
  0.00000000E+00  0.00000000E+00  0.00000000E+00
  0.00000000E+00  0.00000000E+00  0.00000000E+00
  0.00000000E+00  0.00000000E+00  0.00000000E+00
  0.00000000E+00  0.00000000E+00  0.00000000E+00
  0.00000000E+00  0.00000000E+00  0.00000000E+00
  0.00000000E+00  0.00000000E+00  0.00000000E+00
  0.00000000E+00  0.00000000E+00  0.00000000E+00
  0.00000000E+00  0.00000000E+00  0.00000000E+00
  0.00000000E+00  0.00000000E+00  0.00000000E+00
  0.00000000E+00  0.00000000E+00  0.00000000E+00
  0.00000000E+00  0.00000000E+00  0.00000000E+00
  0.00000000E+00  0.00000000E+00  0.00000000E+00
  0.00000000E+00  0.00000000E+00  0.00000000E+00
  0.00000000E+00  0.00000000E+00  0.00000000E+00
  0.00000000E+00  0.00000000E+00  0.00000000E+00
  0.00000000E+00  0.00000000E+00  0.00000000E+00
  0.00000000E+00  0.00000000E+00  0.00000000E+00
  0.00000000E+00  0.00000000E+00  0.00000000E+00
  0.00000000E+00  0.00000000E+00  0.00000000E+00
  0.00000000E+00  0.00000000E+00  0.00000000E+00
  0.00000000E+00  0.00000000E+00  0.00000000E+00
  0.00000000E+00  0.00000000E+00  0.00000000E+00
  0.00000000E+00  0.00000000E+00  0.00000000E+00
  0.00000000E+00  0.00000000E+00  0.00000000E+00
  0.00000000E+00  0.00000000E+00  0.00000000E+00
  0.00000000E+00  0.00000000E+00  0.00000000E+00
  0.00000000E+00  0.00000000E+00  0.00000000E+00
  0.00000000E+00  0.00000000E+00  0.00000000E+00
  0.00000000E+00  0.00000000E+00  0.00000000E+00
  0.00000000E+00  0.00000000E+00  0.00000000E+00
  0.00000000E+00  0.00000000E+00  0.00000000E+00
  0.00000000E+00  0.00000000E+00  0.00000000E+00
  0.00000000E+00  0.00000000E+00  0.00000000E+00
  0.00000000E+00  0.00000000E+00  0.00000000E+00
  0.00000000E+00  0.00000000E+00  0.00000000E+00
  0.00000000E+00  0.00000000E+00  0.00000000E+00
  0.00000000E+00  0.00000000E+00  0.00000000E+00
  0.00000000E+00  0.00000000E+00  0.00000000E+00
  0.00000000E+00  0.00000000E+00  0.00000000E+00
  0.00000000E+00  0.00000000E+00  0.00000000E+00
  0.00000000E+00  0.00000000E+00  0.00000000E+00
  0.00000000E+00  0.00000000E+00  0.00000000E+00
  0.00000000E+00  0.00000000E+00  0.00000000E+00
  0.00000000E+00  0.00000000E+00  0.00000000E+00
  0.00000000E+00  0.00000000E+00  0.00000000E+00
  0.00000000E+00  0.00000000E+00  0.00000000E+00
  0.00000000E+00  0.00000000E+00  0.00000000E+00
  0.00000000E+00  0.00000000E+00  0.00000000E+00
  0.00000000E+00  0.00000000E+00  0.00000000E+00
  0.00000000E+00  0.00000000E+00  0.00000000E+00
  0.00000000E+00  0.00000000E+00  0.00000000E+00
  0.00000000E+00  0.00000000E+00  0.00000000E+00
  0.00000000E+00  0.00000000E+00  0.00000000E+00
  0.00000000E+00  0.00000000E+00  0.00000000E+00
  0.00000000E+00  0.00000000E+00  0.00000000E+00
  0.00000000E+00  0.00000000E+00  0.00000000E+00
  0.00000000E+00  0.00000000E+00  0.00000000E+00
  0.00000000E+00  0.00000000E+00  0.00000000E+00
  0.00000000E+00  0.00000000E+00  0.00000000E+00
  0.00000000E+00  0.00000000E+00  0.00000000E+00
  0.00000000E+00  0.00000000E+00  0.00000000E+00
  0.00000000E+00  0.00000000E+00  0.00000000E+00
  0.00000000E+00  0.00000000E+00  0.00000000E+00
  0.00000000E+00  0.00000000E+00  0.00000000E+00
  0.00000000E+00  0.00000000E+00  0.00000000E+00
  0.00000000E+00  0.00000000E+00  0.00000000E+00
  0.00000000E+00  0.00000000E+00  0.00000000E+00
  0.00000000E+00  0.00000000E+00  0.00000000E+00
  0.00000000E+00  0.00000000E+00  0.00000000E+00
  0.00000000E+00  0.00000000E+00  0.00000000E+00
  0.00000000E+00  0.00000000E+00  0.00000000E+00
  0.00000000E+00  0.00000000E+00  0.00000000E+00
  0.00000000E+00  0.00000000E+00  0.00000000E+00
  0.00000000E+00  0.00000000E+00  0.00000000E+00
  0.00000000E+00  0.00000000E+00  0.00000000E+00
  0.00000000E+00  0.00000000E+00  0.00000000E+00
  0.00000000E+00  0.00000000E+00  0.00000000E+00
  0.00000000E+00  0.00000000E+00  0.00000000E+00
  0.00000000E+00  0.00000000E+00  0.00000000E+00
  0.00000000E+00  0.00000000E+00  0.00000000E+00
  0.00000000E+00  0.00000000E+00  0.00000000E+00
  0.00000000E+00  0.00000000E+00  0.00000000E+00
  0.00000000E+00  0.00000000E+00  0.00000000E+00
  0.00000000E+00  0.00000000E+00  0.00000000E+00
  0.00000000E+00  0.00000000E+00  0.00000000E+00
  0.00000000E+00  0.00000000E+00  0.00000000E+00
  0.00000000E+00  0.00000000E+00  0.00000000E+00
  0.00000000E+00  0.00000000E+00  0.00000000E+00
  0.00000000E+00  0.00000000E+00  0.00000000E+00
  0.00000000E+00  0.00000000E+00  0.00000000E+00
  0.00000000E+00  0.00000000E+00  0.00000000E+00
  0.00000000E+00  0.00000000E+00  0.00000000E+00
  0.00000000E+00  0.00000000E+00  0.00000000E+00
  0.00000000E+00  0.00000000E+00  0.00000000E+00
  0.00000000E+00  0.00000000E+00  0.00000000E+00
  0.00000000E+00  0.00000000E+00  0.00000000E+00
  0.00000000E+00  0.00000000E+00  0.00000000E+00
  0.00000000E+00  0.00000000E+00  0.00000000E+00
