Nb1 H1 C125 N1 O1                       
   1.00000000000000     
    19.8049250145370586   -0.0109846433640160   -0.0060337355617032
    -9.9123265154339979   17.0751557849183975   -0.2639187291565256
    -0.0092451624564012   -0.4649915361635693   29.7721478684301175
   Nb   H    C    N    O 
     1     1   125     1     1
Direct
  0.4420630047520521  0.5043824440205649  0.4335477068751536
  0.4846190360860474  0.5327930451764499  0.5209656243803705
  0.0420366696461762  0.0841727538822775  0.3996611203495549
  0.0415565117731808  0.2086574496377763  0.3996434316878647
  0.0410634948205101  0.3332951316192332  0.3995773355771398
  0.0409905209843019  0.4585106157512200  0.3994415752518124
  0.0414922987098438  0.5838709561392208  0.3997359706963617
  0.0419787779936076  0.7091578812322937  0.3999759981321656
  0.0421901910101367  0.8343639601190012  0.3998600278306157
  0.0422398231771536  0.9594056508325610  0.3996281602956503
  0.1674621957825992  0.0849499348431942  0.3997524161827926
  0.1673645493662696  0.2099061897240866  0.4001886482393715
  0.1663969836939072  0.3343012308975108  0.4007002955271975
  0.1650994625824007  0.4588061292144681  0.4001223794426263
  0.1655595623938989  0.5838975311962792  0.3994984577742175
  0.1664061220223589  0.7091362766112446  0.3996795636542970
  0.1669465856664971  0.8343974432205051  0.3997255019499093
  0.1672723377892091  0.9596754285466335  0.3996427635135809
  0.2924020149991818  0.0848260173693744  0.3996708188394315
  0.2930388392152287  0.2109424543487571  0.4010663742761549
  0.2930723809831309  0.3368354710714166  0.4031280395079418
  0.2897979942607330  0.4597299331290026  0.4030124230911621
  0.2894396490328733  0.5845333830252126  0.4004189363791295
  0.2908658466977305  0.7092348768619076  0.3994510060075248
  0.2916204443105831  0.8341870559764838  0.3995121079555641
  0.2919637526849346  0.9593364513627129  0.3994928488128551
  0.4170651664606904  0.0837675095245946  0.3994986704138128
  0.4174854422513819  0.2091003505267698  0.3998207305288862
  0.4188403282178900  0.3354905784608611  0.4025699049169481
  0.4151969599713236  0.7076608178465740  0.3995330086696746
  0.4162228940728422  0.8331673085942691  0.3992742797777271
  0.4166980615295337  0.9584941651023201  0.3995029826697228
  0.5417477967721517  0.0828679418244688  0.3996273517007801
  0.5422256015159188  0.2080112395704140  0.3995240615639797
  0.5429707864185265  0.3330329490226675  0.4002196437528205
  0.5449124514685839  0.4574609076104247  0.4019161197540188
  0.5447855872424757  0.5819788285355167  0.4007528664206258
  0.5390854234640305  0.7050190997220543  0.4000988504181306
  0.5407734456490630  0.8319475614865098  0.3993129311621943
  0.5414078600636376  0.9575981106993160  0.3995979931584104
  0.6664980796107549  0.0825667094288461  0.3998686681041241
  0.6668856202493602  0.2077351734891626  0.3997615363864480
  0.6674747084274096  0.3328517077371262  0.3996713749042871
  0.6689371380403136  0.4582249606295733  0.3999066484472880
  0.6695596242271911  0.5836613005357230  0.3996603363689559
  0.6665775798244864  0.7073441709390851  0.3984541169554476
  0.6653419379125783  0.8315766214246487  0.3990263361252044
  0.6660604281822634  0.9572655250941080  0.3996476659818143
  0.7912884346838409  0.0826009671871944  0.3997410447678050
  0.7915533531599755  0.2077452252412004  0.3997948528420456
  0.7920109597439732  0.3329835038717069  0.3997784384920569
  0.7927667211077948  0.4583456107028424  0.3997362666863955
  0.7932361385722254  0.5836191839287468  0.3995754746891046
  0.7927038794264343  0.7088209700490792  0.3991786804618019
  0.7914984563017793  0.8329897286625189  0.3991479291352345
  0.7909991028055432  0.9574560379413678  0.3994798290096273
  0.9164129332534978  0.0831084204836735  0.3995848039485556
  0.9163299752935495  0.2079598149677809  0.3995862235199254
  0.9164628285634697  0.3330954305887882  0.3995608528363941
  0.9168457644347160  0.4583909604980807  0.3997041178063581
  0.9173919023006697  0.5838242552494819  0.3999563448905617
  0.9174074038727750  0.7090659653879106  0.3999158358616794
  0.9172074330012813  0.8340006425210059  0.3996368338978898
  0.9167426230465926  0.9585733570456733  0.3995982535869512
  0.0839908909893615  0.0428866456958462  0.3996248543342735
  0.0837622609414842  0.1676379988849712  0.3997472413602516
  0.0829543343271174  0.2920363130141999  0.3998462282274742
  0.0822550667592880  0.4168043405291075  0.3995492572709730
  0.0825782106259836  0.5420350363029212  0.3995206206002700
  0.0832439419761473  0.6673713438819664  0.3998321926959779
  0.0837012584879708  0.7926723658309763  0.3998765313968958
  0.0838920300433120  0.9178288518742873  0.3997000350610568
  0.2089802766182412  0.0430634563717759  0.3996753524458966
  0.2092243377723314  0.1685081361742329  0.4003111711551651
  0.2090879877928415  0.2936119083438022  0.4009737529322362
  0.2067219903625547  0.4176815927761792  0.4012446669935880
  0.2064523165489726  0.5421459154345289  0.3999206347223787
  0.2076171458388082  0.6674445976385391  0.3995134534853728
  0.2083376966025674  0.7926454016905780  0.3996616701819766
  0.2087445878962292  0.9178308457573132  0.3996211409611570
  0.3337691183687280  0.0427387907535677  0.3994982575016960
  0.3342574083070428  0.1682750767357059  0.4001273764088983
  0.3348235431019226  0.2943230169224865  0.4028959912649642
  0.3321608091920927  0.4198927912073104  0.4055044596096974
  0.3309638787585598  0.5442754596765209  0.4022466290763211
  0.3320249531779494  0.6676263168270038  0.3997524057800961
  0.3330322177088403  0.7924416022529437  0.3993869809894032
  0.3334524781224452  0.9174896246289654  0.3994611150797968
  0.4585477131818476  0.0418142905272629  0.3995508858970765
  0.4588957415217716  0.1670428189860226  0.3995083243437411
  0.4596354774693193  0.2925141057324880  0.4003740621674400
  0.4629789650977819  0.4179572187768623  0.4047162534972893
  0.4551035176210357  0.6640948709744704  0.4009291831767078
  0.4576158862553413  0.7910585132677479  0.3991345037170131
  0.4581262586623933  0.9165295532330358  0.3994637935442682
  0.5832446301800015  0.0410300472682967  0.3997347598411020
  0.5836339214717945  0.1662318671351308  0.3996044139641097
  0.5842927015420952  0.2912240683330978  0.3996815444476564
  0.5860611863980781  0.4162021177347989  0.4006914994225742
  0.5871716668918009  0.5421354720196226  0.4004339816329078
  0.5824521181745939  0.6640538400851269  0.3993712809085040
  0.5813411767944132  0.7889691264983286  0.3993333547044593
  0.5827710614260280  0.9155623664478232  0.3995318603309294
  0.7079396648383764  0.0407459905936087  0.3998249527375238
  0.7083443390697720  0.1660224283881698  0.3998626777965940
  0.7087852287685472  0.2911803916916044  0.3997538133190627
  0.7097997958878967  0.4164789865903907  0.3996383456490465
  0.7106062300822519  0.5417629555718776  0.3997197873255493
  0.7094390538213780  0.6668485387910806  0.3988978884865362
  0.7078782758590263  0.7907498219717423  0.3987041112608905
  0.7073666733963078  0.9152319269454625  0.3993780206042942
  0.8329028370392849  0.0410307208519804  0.3996173182156854
  0.8330615760754184  0.1660933798648933  0.3997232855731438
  0.8333348353553441  0.2912587278468128  0.3997086366141688
  0.8338627294194988  0.4165033583200538  0.3997940414077853
  0.8344373929545632  0.5418803119968280  0.3997942308591709
  0.8343848344772954  0.6672758943068144  0.3995688036251527
  0.8338666732186728  0.7920503921807223  0.3992981677946394
  0.8331773792677216  0.9164306298774634  0.3994610925710442
  0.9584714785244598  0.0419975035445128  0.3996339708497322
  0.9581378138986275  0.1665756997809951  0.3995418580654287
  0.9579328821777826  0.2914275808939533  0.3995103994018451
  0.9579977902029030  0.4165995992962354  0.3995349087858245
  0.9585328168724083  0.5419883889842161  0.3998172834382041
  0.9588935462770808  0.6673439894779393  0.4000431020109595
  0.9589544008777066  0.7925554321690887  0.3998766583926591
  0.9588008897979320  0.9174260861442588  0.3996140792270155
  0.4112996442934425  0.5835122577954143  0.4038679066904925
  0.4422805729621469  0.5064389919565673  0.4990725453217886
 
  0.00000000E+00  0.00000000E+00  0.00000000E+00
  0.00000000E+00  0.00000000E+00  0.00000000E+00
  0.00000000E+00  0.00000000E+00  0.00000000E+00
  0.00000000E+00  0.00000000E+00  0.00000000E+00
  0.00000000E+00  0.00000000E+00  0.00000000E+00
  0.00000000E+00  0.00000000E+00  0.00000000E+00
  0.00000000E+00  0.00000000E+00  0.00000000E+00
  0.00000000E+00  0.00000000E+00  0.00000000E+00
  0.00000000E+00  0.00000000E+00  0.00000000E+00
  0.00000000E+00  0.00000000E+00  0.00000000E+00
  0.00000000E+00  0.00000000E+00  0.00000000E+00
  0.00000000E+00  0.00000000E+00  0.00000000E+00
  0.00000000E+00  0.00000000E+00  0.00000000E+00
  0.00000000E+00  0.00000000E+00  0.00000000E+00
  0.00000000E+00  0.00000000E+00  0.00000000E+00
  0.00000000E+00  0.00000000E+00  0.00000000E+00
  0.00000000E+00  0.00000000E+00  0.00000000E+00
  0.00000000E+00  0.00000000E+00  0.00000000E+00
  0.00000000E+00  0.00000000E+00  0.00000000E+00
  0.00000000E+00  0.00000000E+00  0.00000000E+00
  0.00000000E+00  0.00000000E+00  0.00000000E+00
  0.00000000E+00  0.00000000E+00  0.00000000E+00
  0.00000000E+00  0.00000000E+00  0.00000000E+00
  0.00000000E+00  0.00000000E+00  0.00000000E+00
  0.00000000E+00  0.00000000E+00  0.00000000E+00
  0.00000000E+00  0.00000000E+00  0.00000000E+00
  0.00000000E+00  0.00000000E+00  0.00000000E+00
  0.00000000E+00  0.00000000E+00  0.00000000E+00
  0.00000000E+00  0.00000000E+00  0.00000000E+00
  0.00000000E+00  0.00000000E+00  0.00000000E+00
  0.00000000E+00  0.00000000E+00  0.00000000E+00
  0.00000000E+00  0.00000000E+00  0.00000000E+00
  0.00000000E+00  0.00000000E+00  0.00000000E+00
  0.00000000E+00  0.00000000E+00  0.00000000E+00
  0.00000000E+00  0.00000000E+00  0.00000000E+00
  0.00000000E+00  0.00000000E+00  0.00000000E+00
  0.00000000E+00  0.00000000E+00  0.00000000E+00
  0.00000000E+00  0.00000000E+00  0.00000000E+00
  0.00000000E+00  0.00000000E+00  0.00000000E+00
  0.00000000E+00  0.00000000E+00  0.00000000E+00
  0.00000000E+00  0.00000000E+00  0.00000000E+00
  0.00000000E+00  0.00000000E+00  0.00000000E+00
  0.00000000E+00  0.00000000E+00  0.00000000E+00
  0.00000000E+00  0.00000000E+00  0.00000000E+00
  0.00000000E+00  0.00000000E+00  0.00000000E+00
  0.00000000E+00  0.00000000E+00  0.00000000E+00
  0.00000000E+00  0.00000000E+00  0.00000000E+00
  0.00000000E+00  0.00000000E+00  0.00000000E+00
  0.00000000E+00  0.00000000E+00  0.00000000E+00
  0.00000000E+00  0.00000000E+00  0.00000000E+00
  0.00000000E+00  0.00000000E+00  0.00000000E+00
  0.00000000E+00  0.00000000E+00  0.00000000E+00
  0.00000000E+00  0.00000000E+00  0.00000000E+00
  0.00000000E+00  0.00000000E+00  0.00000000E+00
  0.00000000E+00  0.00000000E+00  0.00000000E+00
  0.00000000E+00  0.00000000E+00  0.00000000E+00
  0.00000000E+00  0.00000000E+00  0.00000000E+00
  0.00000000E+00  0.00000000E+00  0.00000000E+00
  0.00000000E+00  0.00000000E+00  0.00000000E+00
  0.00000000E+00  0.00000000E+00  0.00000000E+00
  0.00000000E+00  0.00000000E+00  0.00000000E+00
  0.00000000E+00  0.00000000E+00  0.00000000E+00
  0.00000000E+00  0.00000000E+00  0.00000000E+00
  0.00000000E+00  0.00000000E+00  0.00000000E+00
  0.00000000E+00  0.00000000E+00  0.00000000E+00
  0.00000000E+00  0.00000000E+00  0.00000000E+00
  0.00000000E+00  0.00000000E+00  0.00000000E+00
  0.00000000E+00  0.00000000E+00  0.00000000E+00
  0.00000000E+00  0.00000000E+00  0.00000000E+00
  0.00000000E+00  0.00000000E+00  0.00000000E+00
  0.00000000E+00  0.00000000E+00  0.00000000E+00
  0.00000000E+00  0.00000000E+00  0.00000000E+00
  0.00000000E+00  0.00000000E+00  0.00000000E+00
  0.00000000E+00  0.00000000E+00  0.00000000E+00
  0.00000000E+00  0.00000000E+00  0.00000000E+00
  0.00000000E+00  0.00000000E+00  0.00000000E+00
  0.00000000E+00  0.00000000E+00  0.00000000E+00
  0.00000000E+00  0.00000000E+00  0.00000000E+00
  0.00000000E+00  0.00000000E+00  0.00000000E+00
  0.00000000E+00  0.00000000E+00  0.00000000E+00
  0.00000000E+00  0.00000000E+00  0.00000000E+00
  0.00000000E+00  0.00000000E+00  0.00000000E+00
  0.00000000E+00  0.00000000E+00  0.00000000E+00
  0.00000000E+00  0.00000000E+00  0.00000000E+00
  0.00000000E+00  0.00000000E+00  0.00000000E+00
  0.00000000E+00  0.00000000E+00  0.00000000E+00
  0.00000000E+00  0.00000000E+00  0.00000000E+00
  0.00000000E+00  0.00000000E+00  0.00000000E+00
  0.00000000E+00  0.00000000E+00  0.00000000E+00
  0.00000000E+00  0.00000000E+00  0.00000000E+00
  0.00000000E+00  0.00000000E+00  0.00000000E+00
  0.00000000E+00  0.00000000E+00  0.00000000E+00
  0.00000000E+00  0.00000000E+00  0.00000000E+00
  0.00000000E+00  0.00000000E+00  0.00000000E+00
  0.00000000E+00  0.00000000E+00  0.00000000E+00
  0.00000000E+00  0.00000000E+00  0.00000000E+00
  0.00000000E+00  0.00000000E+00  0.00000000E+00
  0.00000000E+00  0.00000000E+00  0.00000000E+00
  0.00000000E+00  0.00000000E+00  0.00000000E+00
  0.00000000E+00  0.00000000E+00  0.00000000E+00
  0.00000000E+00  0.00000000E+00  0.00000000E+00
  0.00000000E+00  0.00000000E+00  0.00000000E+00
  0.00000000E+00  0.00000000E+00  0.00000000E+00
  0.00000000E+00  0.00000000E+00  0.00000000E+00
  0.00000000E+00  0.00000000E+00  0.00000000E+00
  0.00000000E+00  0.00000000E+00  0.00000000E+00
  0.00000000E+00  0.00000000E+00  0.00000000E+00
  0.00000000E+00  0.00000000E+00  0.00000000E+00
  0.00000000E+00  0.00000000E+00  0.00000000E+00
  0.00000000E+00  0.00000000E+00  0.00000000E+00
  0.00000000E+00  0.00000000E+00  0.00000000E+00
  0.00000000E+00  0.00000000E+00  0.00000000E+00
  0.00000000E+00  0.00000000E+00  0.00000000E+00
  0.00000000E+00  0.00000000E+00  0.00000000E+00
  0.00000000E+00  0.00000000E+00  0.00000000E+00
  0.00000000E+00  0.00000000E+00  0.00000000E+00
  0.00000000E+00  0.00000000E+00  0.00000000E+00
  0.00000000E+00  0.00000000E+00  0.00000000E+00
  0.00000000E+00  0.00000000E+00  0.00000000E+00
  0.00000000E+00  0.00000000E+00  0.00000000E+00
  0.00000000E+00  0.00000000E+00  0.00000000E+00
  0.00000000E+00  0.00000000E+00  0.00000000E+00
  0.00000000E+00  0.00000000E+00  0.00000000E+00
  0.00000000E+00  0.00000000E+00  0.00000000E+00
  0.00000000E+00  0.00000000E+00  0.00000000E+00
  0.00000000E+00  0.00000000E+00  0.00000000E+00
  0.00000000E+00  0.00000000E+00  0.00000000E+00
  0.00000000E+00  0.00000000E+00  0.00000000E+00
  0.00000000E+00  0.00000000E+00  0.00000000E+00
