Nb1 H1 C126                             
   1.00000000000000     
    19.8114031120830312   -0.0001443460099512   -0.0469344402544615
    -9.9058634233150027   17.0877448520719355   -0.0885078071633184
    -0.0703727248641764   -0.1946485324612621   29.7252150978415344
   Nb   H    C 
     1     1   126
Direct
  0.4394569907893291  0.5014046723495530  0.4335332123445407
  0.4438269007251158  0.5037205640421755  0.4939070195427791
  0.0417548005259685  0.0837361321793825  0.3995488979740702
  0.0408878375877086  0.2079913149313838  0.3994651065499260
  0.0405519484420834  0.3328127392741766  0.3994228272048443
  0.0407377752077437  0.4583934537554012  0.3994285578932563
  0.0414423111655549  0.5837968477288163  0.3997681706644679
  0.0420706133438461  0.7090658581720318  0.3999832624276677
  0.0423769972742383  0.8343688259178715  0.4000119761234524
  0.0423417832197905  0.9592751627338610  0.3997573674415592
  0.1673452759676199  0.0846724197067885  0.3997661957179092
  0.1666147526197510  0.2089928849714153  0.4000181243215161
  0.1652749062794409  0.3330565252755255  0.4002905469825166
  0.1644846003748942  0.4582820596794255  0.3998089099525046
  0.1654488269808222  0.5836573703033510  0.3993531539373813
  0.1665291587175544  0.7091234675083142  0.3996884274993384
  0.1670523864960268  0.8343720171639115  0.3999940662959159
  0.1673385509979814  0.9595790935633446  0.3998380930334915
  0.2924078041177200  0.0847017938015007  0.3997386212584025
  0.2928341560232730  0.2106443336261883  0.4008518638739563
  0.2916600108537257  0.3353182510757273  0.4031322093685565
  0.2877535403410368  0.4575138826242662  0.4032140396419172
  0.2892152564250743  0.5840298748542501  0.4004706947588255
  0.2909207657644338  0.7090347433112680  0.3994302952969481
  0.2916452816669660  0.8340602062103912  0.3997075512298454
  0.2920475332444448  0.9593020073422003  0.3997698618852040
  0.4170842662860303  0.0837407820072515  0.3995686455177391
  0.4174297511134699  0.2090065449438322  0.3998448852996657
  0.4186908591477232  0.3352709732089580  0.4023217687933202
  0.4121422875958130  0.5829470943035223  0.4049589573434312
  0.4155977523155561  0.7078652703860598  0.3998892630551881
  0.4162941467807387  0.8332513983403104  0.3994869090503371
  0.4167202575157999  0.9584854579377273  0.3997479246301442
  0.5417388065351086  0.0828522402154137  0.3997496622397591
  0.5421560309074543  0.2079885583117224  0.3995405843442044
  0.5428664191673981  0.3330602551696392  0.3999299621619500
  0.5448308053907005  0.4574657745088895  0.4017372561662442
  0.5459391170792380  0.5828995171251508  0.4033997115087654
  0.5408046759285804  0.7065800434805846  0.4013505042824737
  0.5409182646484629  0.8321490020989133  0.3996433259771813
  0.5414130803047355  0.9575835742738096  0.3997956242094222
  0.6663870268435554  0.0824478797061777  0.3999248301543052
  0.6667667440353644  0.2076911481361780  0.3997654882660469
  0.6673042801158913  0.3327939989823200  0.3996199248437057
  0.6689105667869178  0.4582662661873819  0.3996611736888127
  0.6699337423601243  0.5839930543417173  0.3998069414087812
  0.6673338936497086  0.7078440384822738  0.3994366850919627
  0.6662624253463841  0.8321190914802200  0.3995776256969386
  0.6661854521939083  0.9572549736341587  0.3998817672841454
  0.7911912891957265  0.0824534285795130  0.3999637147154051
  0.7913304738640488  0.2075828070396942  0.4000679075608652
  0.7918253872152713  0.3329146508069758  0.3998657225298529
  0.7927040404537444  0.4583749792133155  0.3997129241233156
  0.7932687104187950  0.5836422519983628  0.3995641459750053
  0.7931471301753230  0.7089940502832498  0.3995216650085394
  0.7920246465690420  0.8332274012682606  0.3995836712167450
  0.7912655759320623  0.9575754412267876  0.3998572410957770
  0.9162393187343455  0.0828605260065070  0.3997096009837168
  0.9159918156001995  0.2077139745160992  0.3996775726781807
  0.9161601127428269  0.3329447597784144  0.3997762192819900
  0.9166709954726412  0.4582834079358050  0.3998906113583874
  0.9173997093536153  0.5838005864768510  0.3998900900845093
  0.9176424215942010  0.7091193784694655  0.3998604958599070
  0.9174637599713015  0.8340427415985306  0.3998961875010187
  0.9168808108349180  0.9584812912280173  0.3998423384705332
  0.0839249061882359  0.0426470561697967  0.3996171946836539
  0.0831402332107372  0.1669681398190776  0.3995467665909751
  0.0820235300601867  0.2911967340461347  0.3995573271821293
  0.0818983253487211  0.4165585152833716  0.3993658731434503
  0.0824611100525186  0.5418715718456240  0.3994602501604458
  0.0833730924455704  0.6673633290970158  0.3998477593899308
  0.0838914961164331  0.7927204790735011  0.4000324922583846
  0.0840229142215477  0.9177872574848989  0.3998841978740481
  0.2090206632273143  0.0429472629833203  0.3997597412340287
  0.2088983415514090  0.1680886246747010  0.4002006512533856
  0.2079014566903963  0.2923992028499456  0.4007845907003967
  0.2053351483372828  0.4162444157060040  0.4008317161055780
  0.2062970819947020  0.5419439699301136  0.3997413079744669
  0.2078287947677800  0.6673998906934592  0.3994414731569301
  0.2084369017958048  0.7925575293294227  0.3998254587736549
  0.2088645340728993  0.9177841887124919  0.3999173145076604
  0.3338111295889698  0.0426677532366342  0.3996303674083378
  0.3342538927249041  0.1681265772912063  0.4000814255190172
  0.3344205844672887  0.2937829006298792  0.4026856609872413
  0.3294377484050319  0.4176130755491945  0.4059334773478127
  0.3304767417306020  0.5429312031321861  0.4028293736753283
  0.3323089726785799  0.6671819509972918  0.3997838898257722
  0.3330135329676921  0.7922374860921148  0.3995032150585388
  0.3335304225074773  0.9174007424970195  0.3997534221242364
  0.4585652785218478  0.0417792257419808  0.3997013934941718
  0.4588960210092373  0.1669709355597248  0.3995347795512083
  0.4595770028484007  0.2923934151443531  0.4002771188308316
  0.4632788561559586  0.4175835201576233  0.4042591897139652
  0.4565479046207203  0.6650800470715801  0.4018686600550888
  0.4577292352904762  0.7912332024307093  0.3994418484656390
  0.4581473627715434  0.9164851178311136  0.3997051927532316
  0.5832248215130186  0.0409637741424196  0.3998459594390835
  0.5835704519018783  0.1661873890483474  0.3996465118634168
  0.5842243640100256  0.2911701656541412  0.3995921824770409
  0.5860285651536226  0.4162210405942500  0.4001920546898489
  0.5874914860867937  0.5428482916115658  0.4013638884375687
  0.5835906478063889  0.6650876738072455  0.4011483476846041
  0.5823331449104016  0.7896279169946869  0.3999177715816803
  0.5827840336356547  0.9155476380150911  0.3997634802461024
  0.7078738210603891  0.0406288254071797  0.3999602367373279
  0.7081764058872287  0.1658953074486731  0.3999611257125968
  0.7086659361848010  0.2911126066157379  0.3997341929024890
  0.7097404049782159  0.4165280592018483  0.3995826281017824
  0.7107344711443950  0.5419050256648245  0.3995770323712357
  0.7099132678566374  0.6671338723325662  0.3994309327190466
  0.7085409794859606  0.7912112201889737  0.3993455729193230
  0.7078300754380228  0.9155162799279163  0.3997741804084214
  0.8328633350343776  0.0409514440989345  0.3998845810158792
  0.8327884705887727  0.1658938288077768  0.3999642686628532
  0.8331682906293366  0.2912640303951369  0.3999752202191878
  0.8337765212968760  0.4165005260719493  0.3998591657689802
  0.8344760094520278  0.5418616932909576  0.3997311187721020
  0.8346271397268374  0.6673977559063106  0.3996546100932799
  0.8342716856499579  0.7922286823818804  0.3996717695396596
  0.8334340950077982  0.9164771412588973  0.3998261633602043
  0.9583247719718379  0.0417651470465150  0.3996895100521964
  0.9576963088246128  0.1661985688412267  0.3995388113360149
  0.9575281614326814  0.2911400391254367  0.3995656128201099
  0.9577916142137308  0.4165134536707455  0.3997098482787953
  0.9585642659550373  0.5420640623600712  0.3999104290974440
  0.9590635886287820  0.6673720618825132  0.3999271280611155
  0.9591777276820314  0.7925576179653416  0.3999571850614786
  0.9589703051527276  0.9173894233887934  0.3998617670905298
 
  0.00000000E+00  0.00000000E+00  0.00000000E+00
  0.00000000E+00  0.00000000E+00  0.00000000E+00
  0.00000000E+00  0.00000000E+00  0.00000000E+00
  0.00000000E+00  0.00000000E+00  0.00000000E+00
  0.00000000E+00  0.00000000E+00  0.00000000E+00
  0.00000000E+00  0.00000000E+00  0.00000000E+00
  0.00000000E+00  0.00000000E+00  0.00000000E+00
  0.00000000E+00  0.00000000E+00  0.00000000E+00
  0.00000000E+00  0.00000000E+00  0.00000000E+00
  0.00000000E+00  0.00000000E+00  0.00000000E+00
  0.00000000E+00  0.00000000E+00  0.00000000E+00
  0.00000000E+00  0.00000000E+00  0.00000000E+00
  0.00000000E+00  0.00000000E+00  0.00000000E+00
  0.00000000E+00  0.00000000E+00  0.00000000E+00
  0.00000000E+00  0.00000000E+00  0.00000000E+00
  0.00000000E+00  0.00000000E+00  0.00000000E+00
  0.00000000E+00  0.00000000E+00  0.00000000E+00
  0.00000000E+00  0.00000000E+00  0.00000000E+00
  0.00000000E+00  0.00000000E+00  0.00000000E+00
  0.00000000E+00  0.00000000E+00  0.00000000E+00
  0.00000000E+00  0.00000000E+00  0.00000000E+00
  0.00000000E+00  0.00000000E+00  0.00000000E+00
  0.00000000E+00  0.00000000E+00  0.00000000E+00
  0.00000000E+00  0.00000000E+00  0.00000000E+00
  0.00000000E+00  0.00000000E+00  0.00000000E+00
  0.00000000E+00  0.00000000E+00  0.00000000E+00
  0.00000000E+00  0.00000000E+00  0.00000000E+00
  0.00000000E+00  0.00000000E+00  0.00000000E+00
  0.00000000E+00  0.00000000E+00  0.00000000E+00
  0.00000000E+00  0.00000000E+00  0.00000000E+00
  0.00000000E+00  0.00000000E+00  0.00000000E+00
  0.00000000E+00  0.00000000E+00  0.00000000E+00
  0.00000000E+00  0.00000000E+00  0.00000000E+00
  0.00000000E+00  0.00000000E+00  0.00000000E+00
  0.00000000E+00  0.00000000E+00  0.00000000E+00
  0.00000000E+00  0.00000000E+00  0.00000000E+00
  0.00000000E+00  0.00000000E+00  0.00000000E+00
  0.00000000E+00  0.00000000E+00  0.00000000E+00
  0.00000000E+00  0.00000000E+00  0.00000000E+00
  0.00000000E+00  0.00000000E+00  0.00000000E+00
  0.00000000E+00  0.00000000E+00  0.00000000E+00
  0.00000000E+00  0.00000000E+00  0.00000000E+00
  0.00000000E+00  0.00000000E+00  0.00000000E+00
  0.00000000E+00  0.00000000E+00  0.00000000E+00
  0.00000000E+00  0.00000000E+00  0.00000000E+00
  0.00000000E+00  0.00000000E+00  0.00000000E+00
  0.00000000E+00  0.00000000E+00  0.00000000E+00
  0.00000000E+00  0.00000000E+00  0.00000000E+00
  0.00000000E+00  0.00000000E+00  0.00000000E+00
  0.00000000E+00  0.00000000E+00  0.00000000E+00
  0.00000000E+00  0.00000000E+00  0.00000000E+00
  0.00000000E+00  0.00000000E+00  0.00000000E+00
  0.00000000E+00  0.00000000E+00  0.00000000E+00
  0.00000000E+00  0.00000000E+00  0.00000000E+00
  0.00000000E+00  0.00000000E+00  0.00000000E+00
  0.00000000E+00  0.00000000E+00  0.00000000E+00
  0.00000000E+00  0.00000000E+00  0.00000000E+00
  0.00000000E+00  0.00000000E+00  0.00000000E+00
  0.00000000E+00  0.00000000E+00  0.00000000E+00
  0.00000000E+00  0.00000000E+00  0.00000000E+00
  0.00000000E+00  0.00000000E+00  0.00000000E+00
  0.00000000E+00  0.00000000E+00  0.00000000E+00
  0.00000000E+00  0.00000000E+00  0.00000000E+00
  0.00000000E+00  0.00000000E+00  0.00000000E+00
  0.00000000E+00  0.00000000E+00  0.00000000E+00
  0.00000000E+00  0.00000000E+00  0.00000000E+00
  0.00000000E+00  0.00000000E+00  0.00000000E+00
  0.00000000E+00  0.00000000E+00  0.00000000E+00
  0.00000000E+00  0.00000000E+00  0.00000000E+00
  0.00000000E+00  0.00000000E+00  0.00000000E+00
  0.00000000E+00  0.00000000E+00  0.00000000E+00
  0.00000000E+00  0.00000000E+00  0.00000000E+00
  0.00000000E+00  0.00000000E+00  0.00000000E+00
  0.00000000E+00  0.00000000E+00  0.00000000E+00
  0.00000000E+00  0.00000000E+00  0.00000000E+00
  0.00000000E+00  0.00000000E+00  0.00000000E+00
  0.00000000E+00  0.00000000E+00  0.00000000E+00
  0.00000000E+00  0.00000000E+00  0.00000000E+00
  0.00000000E+00  0.00000000E+00  0.00000000E+00
  0.00000000E+00  0.00000000E+00  0.00000000E+00
  0.00000000E+00  0.00000000E+00  0.00000000E+00
  0.00000000E+00  0.00000000E+00  0.00000000E+00
  0.00000000E+00  0.00000000E+00  0.00000000E+00
  0.00000000E+00  0.00000000E+00  0.00000000E+00
  0.00000000E+00  0.00000000E+00  0.00000000E+00
  0.00000000E+00  0.00000000E+00  0.00000000E+00
  0.00000000E+00  0.00000000E+00  0.00000000E+00
  0.00000000E+00  0.00000000E+00  0.00000000E+00
  0.00000000E+00  0.00000000E+00  0.00000000E+00
  0.00000000E+00  0.00000000E+00  0.00000000E+00
  0.00000000E+00  0.00000000E+00  0.00000000E+00
  0.00000000E+00  0.00000000E+00  0.00000000E+00
  0.00000000E+00  0.00000000E+00  0.00000000E+00
  0.00000000E+00  0.00000000E+00  0.00000000E+00
  0.00000000E+00  0.00000000E+00  0.00000000E+00
  0.00000000E+00  0.00000000E+00  0.00000000E+00
  0.00000000E+00  0.00000000E+00  0.00000000E+00
  0.00000000E+00  0.00000000E+00  0.00000000E+00
  0.00000000E+00  0.00000000E+00  0.00000000E+00
  0.00000000E+00  0.00000000E+00  0.00000000E+00
  0.00000000E+00  0.00000000E+00  0.00000000E+00
  0.00000000E+00  0.00000000E+00  0.00000000E+00
  0.00000000E+00  0.00000000E+00  0.00000000E+00
  0.00000000E+00  0.00000000E+00  0.00000000E+00
  0.00000000E+00  0.00000000E+00  0.00000000E+00
  0.00000000E+00  0.00000000E+00  0.00000000E+00
  0.00000000E+00  0.00000000E+00  0.00000000E+00
  0.00000000E+00  0.00000000E+00  0.00000000E+00
  0.00000000E+00  0.00000000E+00  0.00000000E+00
  0.00000000E+00  0.00000000E+00  0.00000000E+00
  0.00000000E+00  0.00000000E+00  0.00000000E+00
  0.00000000E+00  0.00000000E+00  0.00000000E+00
  0.00000000E+00  0.00000000E+00  0.00000000E+00
  0.00000000E+00  0.00000000E+00  0.00000000E+00
  0.00000000E+00  0.00000000E+00  0.00000000E+00
  0.00000000E+00  0.00000000E+00  0.00000000E+00
  0.00000000E+00  0.00000000E+00  0.00000000E+00
  0.00000000E+00  0.00000000E+00  0.00000000E+00
  0.00000000E+00  0.00000000E+00  0.00000000E+00
  0.00000000E+00  0.00000000E+00  0.00000000E+00
  0.00000000E+00  0.00000000E+00  0.00000000E+00
  0.00000000E+00  0.00000000E+00  0.00000000E+00
  0.00000000E+00  0.00000000E+00  0.00000000E+00
  0.00000000E+00  0.00000000E+00  0.00000000E+00
  0.00000000E+00  0.00000000E+00  0.00000000E+00
  0.00000000E+00  0.00000000E+00  0.00000000E+00
  0.00000000E+00  0.00000000E+00  0.00000000E+00
  0.00000000E+00  0.00000000E+00  0.00000000E+00
