H1 Au1 C126                             
   1.00000000000000     
    19.8806481787287055   -0.0000349004047807    0.0063924536074768
    -9.9403546135519800   17.0663396561304630    0.0142723654031265
     0.0095055632319775    0.0303124298951582   29.6573339318961864
   H    Au   C 
     1     1   126
Direct
  0.4426073115619611  0.5063728955622467  0.4713801605406333
  0.4374458635602275  0.4998782712268239  0.4166173196220911
  0.0416131080592607  0.0837547586327893  0.3994388915888996
  0.0401452924594363  0.2075887131463690  0.3994752742774387
  0.0393659869064944  0.3324122656883443  0.3988965841332944
  0.0395633966335755  0.4581821838526291  0.3981179797571526
  0.0410309823824866  0.5839837283522084  0.3981777161956584
  0.0422677709946996  0.7095091734520279  0.3987391037156425
  0.0427051711765161  0.8348750798518706  0.3990972998458821
  0.0426096156249924  0.9597241908948784  0.3991819077810915
  0.1676851780799229  0.0854853938978339  0.4004564554281477
  0.1662692173128885  0.2093373777637846  0.4016874657501328
  0.1636417118292103  0.3326516679660887  0.4019264498068857
  0.1620965215710417  0.4582333000202696  0.4002503330006466
  0.1639073673968287  0.5838820989452981  0.3986998082431307
  0.1661607926443915  0.7094685391839972  0.3986115570077507
  0.1671615679893530  0.8348784847013931  0.3990991388452700
  0.1676281006397753  0.9602397281515694  0.3995613477105424
  0.2927681266535682  0.0855022555605137  0.4004727346037336
  0.2934221149082893  0.2119172685811558  0.4034634005784554
  0.2906818031483832  0.3361658007949542  0.4071871276461155
  0.2831209846917660  0.4576210633408583  0.4072620116200232
  0.2863866856957271  0.5840752557988230  0.4029389241502045
  0.2901574894658421  0.7092414450973388  0.3998365271013781
  0.2913640068861242  0.8343232161471954  0.3989072297507810
  0.2921253866171878  0.9597466099665245  0.3991741967166954
  0.4171240364530617  0.0837739162356374  0.3994935716356518
  0.4180356153065233  0.2093535879518285  0.4017828956305061
  0.4204306123206094  0.3361459902390916  0.4073048361440657
  0.4069804537030645  0.5817883948722502  0.4108429003605325
  0.4142716374010713  0.7072448045751563  0.4035776245152564
  0.4157897320148737  0.8329008902820957  0.4000148381847911
  0.4165605342205002  0.9583599915673457  0.3989941304826505
  0.5416063825956392  0.0823006112678866  0.3989667339415759
  0.5424241641468917  0.2076063095655545  0.3995448391381674
  0.5440001184200676  0.3326556004881476  0.4019913952472257
  0.5495104356165367  0.4576034016122004  0.4074526022512827
  0.5498631828277876  0.5818320907841030  0.4109686610199237
  0.5395817339074943  0.7042356739815689  0.4068014193601739
  0.5401830658966534  0.8308122480772424  0.4019255736166960
  0.5409489274514151  0.9567244054293376  0.3996005511840258
  0.6659734524301274  0.0815824027143135  0.3993024161963710
  0.6666823691578317  0.2069926372247924  0.3988749365359799
  0.6680399729902786  0.3324159507635212  0.3988892496047408
  0.6711518422895096  0.4582238826707170  0.4002448975878941
  0.6726967748955096  0.5840667241535412  0.4029910951416193
  0.6679403762344652  0.7072292425158019  0.4036475278103219
  0.6655693946801928  0.8307980297604425  0.4019647913946551
  0.6655656432260215  0.9561573922760227  0.4001646066435102
  0.7906138757458858  0.0815814253455147  0.3993020828141305
  0.7909172602668588  0.2068411608126528  0.3990868617607842
  0.7918432023367984  0.3323902725350350  0.3985025113189578
  0.7936293036841516  0.4581723373605565  0.3980970752416781
  0.7949933517672783  0.5838738202716963  0.3986857742027649
  0.7940606294388622  0.7092145060436015  0.3998786840186547
  0.7920813526179905  0.8328759035102957  0.4001055582312718
  0.7907295726986691  0.9567076435010704  0.3996235434778739
  0.9156785383421647  0.0822823608597116  0.3989573598825501
  0.9152886075992476  0.2069897220098090  0.3988730840895112
  0.9155686938708845  0.3324073495827680  0.3985097114105146
  0.9165688516909166  0.4581158028847384  0.3981287521048713
  0.9179749422702222  0.5839826743652806  0.3981528851759878
  0.9183111726177465  0.7094629569121875  0.3986097570964905
  0.9179348409142547  0.8343046432965519  0.3989439900397305
  0.9167800103354611  0.9583305899874184  0.3990154760223109
  0.0841820487723096  0.0431963201163123  0.3996130663060424
  0.0828750044457055  0.1670406457424669  0.4000447293714994
  0.0809649685040215  0.2907487083248663  0.3998257247938874
  0.0800545166571315  0.4161303727361995  0.3987264121378842
  0.0813661503620063  0.5418366512093821  0.3981005689366368
  0.0831457090869739  0.6675965680249661  0.3984853288607051
  0.0840673584671976  0.7931429288551389  0.3990877263444820
  0.0843721540401298  0.9183685365369570  0.3993033315567505
  0.2093597571891846  0.0437467567083085  0.4001701590525500
  0.2093090760422210  0.1690419890468905  0.4019029977644878
  0.2070036042956080  0.2926404900717439  0.4034568662034220
  0.2023156414455088  0.4158651191844553  0.4027957686820747
  0.2038135192075607  0.5417553893680770  0.4002597961801083
  0.2069166169027982  0.6675978932773743  0.3988746610601728
  0.2082767378544046  0.7929975972433491  0.3988459184336182
  0.2090095322529870  0.9183734280414342  0.3992987914714313
  0.3339874238555695  0.0432179375557190  0.3996343047101380
  0.3346824812409022  0.1690540920177213  0.4019570119140400
  0.3352595672446441  0.2955903052302113  0.4065774864259321
  0.3253502689861336  0.4181208077325202  0.4104561985089455
  0.3253733116980842  0.5422583191127562  0.4074720401598286
  0.3309019511944373  0.6673026303196041  0.4020388634189990
  0.3325095626216822  0.7923926545994008  0.3994484195691135
  0.3333728288388104  0.9176794873290177  0.3989335216882869
  0.4584112939987999  0.0416203446855206  0.3990248953695303
  0.4591502156671254  0.1670620840693265  0.4001282950309063
  0.4606122395103238  0.2926478508544371  0.4035502154702538
  0.4677868086747952  0.4180702156259986  0.4106722137204135
  0.4543904539404893  0.6636870298240543  0.4075269555063221
  0.4568683151720562  0.7905658460966100  0.4017009281085197
  0.4578223298355443  0.9161834457405345  0.3994171039804228
  0.5828503837801124  0.0402178753388489  0.3991796969455654
  0.5835909870392679  0.1656700721650789  0.3989710690773223
  0.5847794250571871  0.2907662618662736  0.3998703487209855
  0.5885607170272219  0.4158619554331236  0.4028539081479551
  0.5919041808784402  0.5422530421049259  0.4076344899247475
  0.5842541091574099  0.6637017570081335  0.4075845996688051
  0.5814084352061573  0.7878861728857195  0.4035389459365910
  0.5821413953856334  0.9143965231294922  0.4004500996992583
  0.7073467071401992  0.0396860923739444  0.3995599935127608
  0.7078017792833639  0.1650970608021871  0.3990982695783460
  0.7088130651645197  0.2905367143896564  0.3986297320530295
  0.7110864570337034  0.4161276889783290  0.3987090195175638
  0.7129658729947199  0.5417468902929909  0.4002561749963638
  0.7113822239375974  0.6672830606194196  0.4020906140886275
  0.7086547879304803  0.7905504979113123  0.4017825794528264
  0.7072123928577986  0.9143818053322246  0.4004588807168907
  0.8323529799453648  0.0402043821789906  0.3991876408006171
  0.8322832997030537  0.1651022085073605  0.3991080006344738
  0.8327574720401126  0.2904940503566513  0.3987513558866042
  0.8339760377393692  0.4160282647841462  0.3981686943678248
  0.8354845246146273  0.5418283847116916  0.3980770521737059
  0.8356767222891833  0.6675818178096088  0.3988689885663108
  0.8348468866238150  0.7923660251232905  0.3995217292960623
  0.8333252274675937  0.9161613443201180  0.3994724933686603
  0.9581883838350586  0.0415930895264720  0.3990050291834799
  0.9570500771449963  0.1656566130976066  0.3989412444752944
  0.9567212014825962  0.2905377809721753  0.3986410679487543
  0.9570679079347088  0.4160369779234032  0.3981917182699909
  0.9584574839761274  0.5418924958937805  0.3981261089954262
  0.9594675669063458  0.6676033005948934  0.3984844972578596
  0.9597024849198683  0.7929851833599831  0.3988573512739018
  0.9592991562247234  0.9176560500615193  0.3989521587926019
 
  0.00000000E+00  0.00000000E+00  0.00000000E+00
  0.00000000E+00  0.00000000E+00  0.00000000E+00
  0.00000000E+00  0.00000000E+00  0.00000000E+00
  0.00000000E+00  0.00000000E+00  0.00000000E+00
  0.00000000E+00  0.00000000E+00  0.00000000E+00
  0.00000000E+00  0.00000000E+00  0.00000000E+00
  0.00000000E+00  0.00000000E+00  0.00000000E+00
  0.00000000E+00  0.00000000E+00  0.00000000E+00
  0.00000000E+00  0.00000000E+00  0.00000000E+00
  0.00000000E+00  0.00000000E+00  0.00000000E+00
  0.00000000E+00  0.00000000E+00  0.00000000E+00
  0.00000000E+00  0.00000000E+00  0.00000000E+00
  0.00000000E+00  0.00000000E+00  0.00000000E+00
  0.00000000E+00  0.00000000E+00  0.00000000E+00
  0.00000000E+00  0.00000000E+00  0.00000000E+00
  0.00000000E+00  0.00000000E+00  0.00000000E+00
  0.00000000E+00  0.00000000E+00  0.00000000E+00
  0.00000000E+00  0.00000000E+00  0.00000000E+00
  0.00000000E+00  0.00000000E+00  0.00000000E+00
  0.00000000E+00  0.00000000E+00  0.00000000E+00
  0.00000000E+00  0.00000000E+00  0.00000000E+00
  0.00000000E+00  0.00000000E+00  0.00000000E+00
  0.00000000E+00  0.00000000E+00  0.00000000E+00
  0.00000000E+00  0.00000000E+00  0.00000000E+00
  0.00000000E+00  0.00000000E+00  0.00000000E+00
  0.00000000E+00  0.00000000E+00  0.00000000E+00
  0.00000000E+00  0.00000000E+00  0.00000000E+00
  0.00000000E+00  0.00000000E+00  0.00000000E+00
  0.00000000E+00  0.00000000E+00  0.00000000E+00
  0.00000000E+00  0.00000000E+00  0.00000000E+00
  0.00000000E+00  0.00000000E+00  0.00000000E+00
  0.00000000E+00  0.00000000E+00  0.00000000E+00
  0.00000000E+00  0.00000000E+00  0.00000000E+00
  0.00000000E+00  0.00000000E+00  0.00000000E+00
  0.00000000E+00  0.00000000E+00  0.00000000E+00
  0.00000000E+00  0.00000000E+00  0.00000000E+00
  0.00000000E+00  0.00000000E+00  0.00000000E+00
  0.00000000E+00  0.00000000E+00  0.00000000E+00
  0.00000000E+00  0.00000000E+00  0.00000000E+00
  0.00000000E+00  0.00000000E+00  0.00000000E+00
  0.00000000E+00  0.00000000E+00  0.00000000E+00
  0.00000000E+00  0.00000000E+00  0.00000000E+00
  0.00000000E+00  0.00000000E+00  0.00000000E+00
  0.00000000E+00  0.00000000E+00  0.00000000E+00
  0.00000000E+00  0.00000000E+00  0.00000000E+00
  0.00000000E+00  0.00000000E+00  0.00000000E+00
  0.00000000E+00  0.00000000E+00  0.00000000E+00
  0.00000000E+00  0.00000000E+00  0.00000000E+00
  0.00000000E+00  0.00000000E+00  0.00000000E+00
  0.00000000E+00  0.00000000E+00  0.00000000E+00
  0.00000000E+00  0.00000000E+00  0.00000000E+00
  0.00000000E+00  0.00000000E+00  0.00000000E+00
  0.00000000E+00  0.00000000E+00  0.00000000E+00
  0.00000000E+00  0.00000000E+00  0.00000000E+00
  0.00000000E+00  0.00000000E+00  0.00000000E+00
  0.00000000E+00  0.00000000E+00  0.00000000E+00
  0.00000000E+00  0.00000000E+00  0.00000000E+00
  0.00000000E+00  0.00000000E+00  0.00000000E+00
  0.00000000E+00  0.00000000E+00  0.00000000E+00
  0.00000000E+00  0.00000000E+00  0.00000000E+00
  0.00000000E+00  0.00000000E+00  0.00000000E+00
  0.00000000E+00  0.00000000E+00  0.00000000E+00
  0.00000000E+00  0.00000000E+00  0.00000000E+00
  0.00000000E+00  0.00000000E+00  0.00000000E+00
  0.00000000E+00  0.00000000E+00  0.00000000E+00
  0.00000000E+00  0.00000000E+00  0.00000000E+00
  0.00000000E+00  0.00000000E+00  0.00000000E+00
  0.00000000E+00  0.00000000E+00  0.00000000E+00
  0.00000000E+00  0.00000000E+00  0.00000000E+00
  0.00000000E+00  0.00000000E+00  0.00000000E+00
  0.00000000E+00  0.00000000E+00  0.00000000E+00
  0.00000000E+00  0.00000000E+00  0.00000000E+00
  0.00000000E+00  0.00000000E+00  0.00000000E+00
  0.00000000E+00  0.00000000E+00  0.00000000E+00
  0.00000000E+00  0.00000000E+00  0.00000000E+00
  0.00000000E+00  0.00000000E+00  0.00000000E+00
  0.00000000E+00  0.00000000E+00  0.00000000E+00
  0.00000000E+00  0.00000000E+00  0.00000000E+00
  0.00000000E+00  0.00000000E+00  0.00000000E+00
  0.00000000E+00  0.00000000E+00  0.00000000E+00
  0.00000000E+00  0.00000000E+00  0.00000000E+00
  0.00000000E+00  0.00000000E+00  0.00000000E+00
  0.00000000E+00  0.00000000E+00  0.00000000E+00
  0.00000000E+00  0.00000000E+00  0.00000000E+00
  0.00000000E+00  0.00000000E+00  0.00000000E+00
  0.00000000E+00  0.00000000E+00  0.00000000E+00
  0.00000000E+00  0.00000000E+00  0.00000000E+00
  0.00000000E+00  0.00000000E+00  0.00000000E+00
  0.00000000E+00  0.00000000E+00  0.00000000E+00
  0.00000000E+00  0.00000000E+00  0.00000000E+00
  0.00000000E+00  0.00000000E+00  0.00000000E+00
  0.00000000E+00  0.00000000E+00  0.00000000E+00
  0.00000000E+00  0.00000000E+00  0.00000000E+00
  0.00000000E+00  0.00000000E+00  0.00000000E+00
  0.00000000E+00  0.00000000E+00  0.00000000E+00
  0.00000000E+00  0.00000000E+00  0.00000000E+00
  0.00000000E+00  0.00000000E+00  0.00000000E+00
  0.00000000E+00  0.00000000E+00  0.00000000E+00
  0.00000000E+00  0.00000000E+00  0.00000000E+00
  0.00000000E+00  0.00000000E+00  0.00000000E+00
  0.00000000E+00  0.00000000E+00  0.00000000E+00
  0.00000000E+00  0.00000000E+00  0.00000000E+00
  0.00000000E+00  0.00000000E+00  0.00000000E+00
  0.00000000E+00  0.00000000E+00  0.00000000E+00
  0.00000000E+00  0.00000000E+00  0.00000000E+00
  0.00000000E+00  0.00000000E+00  0.00000000E+00
  0.00000000E+00  0.00000000E+00  0.00000000E+00
  0.00000000E+00  0.00000000E+00  0.00000000E+00
  0.00000000E+00  0.00000000E+00  0.00000000E+00
  0.00000000E+00  0.00000000E+00  0.00000000E+00
  0.00000000E+00  0.00000000E+00  0.00000000E+00
  0.00000000E+00  0.00000000E+00  0.00000000E+00
  0.00000000E+00  0.00000000E+00  0.00000000E+00
  0.00000000E+00  0.00000000E+00  0.00000000E+00
  0.00000000E+00  0.00000000E+00  0.00000000E+00
  0.00000000E+00  0.00000000E+00  0.00000000E+00
  0.00000000E+00  0.00000000E+00  0.00000000E+00
  0.00000000E+00  0.00000000E+00  0.00000000E+00
  0.00000000E+00  0.00000000E+00  0.00000000E+00
  0.00000000E+00  0.00000000E+00  0.00000000E+00
  0.00000000E+00  0.00000000E+00  0.00000000E+00
  0.00000000E+00  0.00000000E+00  0.00000000E+00
  0.00000000E+00  0.00000000E+00  0.00000000E+00
  0.00000000E+00  0.00000000E+00  0.00000000E+00
  0.00000000E+00  0.00000000E+00  0.00000000E+00
  0.00000000E+00  0.00000000E+00  0.00000000E+00
  0.00000000E+00  0.00000000E+00  0.00000000E+00
  0.00000000E+00  0.00000000E+00  0.00000000E+00
