V1 H1 C122 N4 O1                        
   1.00000000000000     
    19.8023322832708963    0.0038653421508806    0.1082132179366370
    -9.8976056601267004   17.0200728269517256   -0.1452850878199785
     0.1629782833905238   -0.1597871950699261   29.8538545599669582
   V    H    C    N    O 
     1     1   122     4     1
Direct
  0.4375432171492213  0.5013658068446568  0.4254933854739384
  0.4873691510190096  0.5289424832969589  0.5035250063233646
  0.0420694881077735  0.0842147834247172  0.3997466642262427
  0.0411717946905811  0.2083354377932565  0.3996099852199243
  0.0403843544599140  0.3330601447685625  0.3992597546094033
  0.0405031858547135  0.4582368090699246  0.3990835109594277
  0.0413237267761496  0.5836816237362458  0.3994017127679943
  0.0420418110798133  0.7090833865503684  0.3996541782200422
  0.0422600307134448  0.8343048927564460  0.3997369321439677
  0.0424124401919883  0.9595606481589473  0.3997471127174291
  0.1680729555149407  0.0857994847295412  0.4002100262707484
  0.1676989508426052  0.2105622307608622  0.4003280667759235
  0.1652098576363602  0.3338062908678020  0.4000226885421054
  0.1642796495103742  0.4584463301245241  0.3985856406024725
  0.1652674207947548  0.5836124554485503  0.3986987058099791
  0.1664288794103479  0.7088421451049342  0.3994008501320019
  0.1670343750128248  0.8342950040959801  0.3998029952832371
  0.1674459581008603  0.9599695121369027  0.3999357409258877
  0.2925620488452185  0.0858333109749895  0.4002141480478454
  0.2940621072077049  0.2134728756554740  0.4015912421370621
  0.2926496996459190  0.3390981112142122  0.4034162800286417
  0.2876010653757233  0.4581675949677746  0.4016842892535940
  0.2887366200828451  0.5828164695208575  0.3987905622347901
  0.2908406474006939  0.7082042999838932  0.3990112359216071
  0.2916994726954198  0.8337955423913734  0.3995935984046297
  0.2920722917523378  0.9595599647034083  0.3998815538832092
  0.4169830981655776  0.0843328379229431  0.3997965614659689
  0.4176051075726954  0.2107902183173503  0.4003432345071853
  0.4209242787001743  0.3394992034801975  0.4032486809888485
  0.4149623909023556  0.7056529224313601  0.3997370516059892
  0.4162179810899221  0.8321642115487502  0.3996219271327949
  0.4166339084105967  0.9582522784842248  0.3998043183803562
  0.5414754487058234  0.0827779947873283  0.3997360467486733
  0.5419235438259736  0.2084600702138087  0.3994716063776720
  0.5433011905594721  0.3340778878552831  0.4000130966898834
  0.5454570388013770  0.4586762205610008  0.4022762318230498
  0.5382857559284453  0.7016332393371492  0.4024403197367609
  0.5405016017738004  0.8302181154471722  0.4003496051507690
  0.5411648654649918  0.9568135412905726  0.3999789112762033
  0.6660718002209812  0.0821368686860456  0.3999285141470672
  0.6665050089914333  0.2076833047610400  0.3995202949024637
  0.6673762648511327  0.3331368320828940  0.3990753615343666
  0.6690548104581389  0.4586355945888317  0.3989808325082185
  0.6693868558519441  0.5831705641368857  0.3999497855407708
  0.6659210911039984  0.7058797968605813  0.4006094675846252
  0.6646466106588648  0.8302461025233513  0.4005153414139573
  0.6656246258131616  0.9564173074247228  0.4001894064825310
  0.7908266330128438  0.0821113256628309  0.3998841326769402
  0.7911173417716557  0.2075320478900432  0.3997311716705336
  0.7916209494201616  0.3328861904056831  0.3994021067640838
  0.7925690630572091  0.4582735941437531  0.3989776110168948
  0.7934132244357902  0.5837278601073391  0.3988466703404554
  0.7925774470527621  0.7083878773792083  0.3994562700102840
  0.7910049022049656  0.8322666532789895  0.3997239722777133
  0.7905092446026130  0.9568063188359677  0.3999155325947097
  0.9160559234120588  0.0827260606143446  0.3996797070839722
  0.9158628622774418  0.2076255362720464  0.3996257276945440
  0.9159625092501257  0.3328629131110554  0.3995137632954815
  0.9165489913446651  0.4582996957797642  0.3994413783022105
  0.9173114625779216  0.5837099250373151  0.3993354753262276
  0.9174959310902316  0.7089196083226195  0.3993864693649565
  0.9171480187292161  0.8338654887534778  0.3995382010825261
  0.9165225356239703  0.9582530018038802  0.3996513235612040
  0.0844377416615482  0.0433347713189182  0.3998645951173679
  0.0839377984672261  0.1678750931503678  0.3997980197163740
  0.0824088597240588  0.2917600111834745  0.3995498729275628
  0.0815494025340045  0.4163709124942935  0.3988533288333022
  0.0823487980200121  0.5418026335418898  0.3990446619801573
  0.0832887920190623  0.6672093447238268  0.3995238351718150
  0.0837988463006484  0.7925889111802434  0.3997633173227627
  0.0841121345413691  0.9180063962611560  0.3998099601025896
  0.2093164554518182  0.0437641224515622  0.4001419863162284
  0.2102792111676223  0.1699522517311071  0.4007526971889700
  0.2089993301518990  0.2942982449471046  0.4007825951769052
  0.2056481882296030  0.4170268372826393  0.3995908219729613
  0.2058664652612318  0.5414454384320900  0.3984112800825259
  0.2075236313006196  0.6669376666357841  0.3989891670629698
  0.2084119850679708  0.7924256204906241  0.3996186006161939
  0.2088733558503080  0.9180178403960303  0.3998846681756217
  0.3337775412708993  0.0433840327275218  0.3999413251422049
  0.3344519360052179  0.1700289346823612  0.4007350387659792
  0.3365785709783016  0.2986980002279511  0.4033525377346722
  0.3295268764130172  0.5415978815661304  0.4006644528002439
  0.3316363562293199  0.6660851552400274  0.3989875389812714
  0.3330129972443279  0.7916742328242122  0.3993854531618530
  0.3334503437084635  0.9173729269929224  0.3997820187192613
  0.4583064461734009  0.0419431561235619  0.3997738763067417
  0.4587162446220247  0.1680493694815067  0.3997675650063403
  0.4599624269867200  0.2946824221162054  0.4008665428893383
  0.4539786384422643  0.6608889960915763  0.4017143006898238
  0.4573492362745314  0.7894780913541553  0.3998171887369161
  0.4579479390314670  0.9158725189185555  0.3998293404412779
  0.5828592199443875  0.0406020948813603  0.3999105492373796
  0.5832155622262197  0.1663451934273572  0.3995214071289521
  0.5840810015612568  0.2919231822492568  0.3993661307171181
  0.5862135526678606  0.4172935022183989  0.4000190919123112
  0.5874199100230818  0.5420875599755713  0.4024114870216157
  0.5822754514689454  0.6613006722422218  0.4030278262481938
  0.5808449758356613  0.7867745749440388  0.4010512456652507
  0.5823808424059683  0.9143579892126920  0.4001652026538191
  0.7074884633893501  0.0401811181163994  0.4000240583604524
  0.7079014834744863  0.1658454461122703  0.3997512385738200
  0.7084709139467650  0.2912396515342522  0.3992926696170423
  0.7096480905311668  0.4164746061307055  0.3988288263285860
  0.7106990497628084  0.5416608179498785  0.3989317482522020
  0.7097589747014424  0.6663561318436042  0.4000054403601339
  0.7072405754057355  0.7896257912727582  0.4001224124807702
  0.7068766481293286  0.9143812611250929  0.4002002766495752
  0.8325391268940142  0.0405686539907734  0.3998178248705817
  0.8326792003219838  0.1658066999995033  0.3997643040445411
  0.8328726344049540  0.2910334854856413  0.3995796474016379
  0.8335771211320628  0.4164144652977769  0.3993085330953264
  0.8344244386169595  0.5418423408344801  0.3989850070292041
  0.8345588211896909  0.6670621657931413  0.3991671982498977
  0.8338100190268265  0.7918209824239160  0.3995466955200932
  0.8328691203118848  0.9159143417763852  0.3997334745654678
  0.9584516174577252  0.0418856228776578  0.3996707708993121
  0.9578047560380426  0.1662459989386610  0.3995851992804104
  0.9574620946092871  0.2911943894728060  0.3994717690907471
  0.9576093049607257  0.4163896667718312  0.3994170383274163
  0.9583734124832212  0.5418052829148277  0.3994468691165445
  0.9589529312144917  0.6672432710721786  0.3994689669361622
  0.9590697174117468  0.7924782892230844  0.3995594096205241
  0.9589037562045584  0.9174100095375616  0.3996312934481133
  0.4100066264514536  0.5799353876252482  0.4035133417155892
  0.5453530855092074  0.5805194129181345  0.4065658526700328
  0.3294499744055513  0.4198729047473483  0.4065092943420118
  0.4649444227557286  0.4207553104348878  0.4056371003665574
  0.4399100364104228  0.5094850608395454  0.4858742350859878
 
  0.00000000E+00  0.00000000E+00  0.00000000E+00
  0.00000000E+00  0.00000000E+00  0.00000000E+00
  0.00000000E+00  0.00000000E+00  0.00000000E+00
  0.00000000E+00  0.00000000E+00  0.00000000E+00
  0.00000000E+00  0.00000000E+00  0.00000000E+00
  0.00000000E+00  0.00000000E+00  0.00000000E+00
  0.00000000E+00  0.00000000E+00  0.00000000E+00
  0.00000000E+00  0.00000000E+00  0.00000000E+00
  0.00000000E+00  0.00000000E+00  0.00000000E+00
  0.00000000E+00  0.00000000E+00  0.00000000E+00
  0.00000000E+00  0.00000000E+00  0.00000000E+00
  0.00000000E+00  0.00000000E+00  0.00000000E+00
  0.00000000E+00  0.00000000E+00  0.00000000E+00
  0.00000000E+00  0.00000000E+00  0.00000000E+00
  0.00000000E+00  0.00000000E+00  0.00000000E+00
  0.00000000E+00  0.00000000E+00  0.00000000E+00
  0.00000000E+00  0.00000000E+00  0.00000000E+00
  0.00000000E+00  0.00000000E+00  0.00000000E+00
  0.00000000E+00  0.00000000E+00  0.00000000E+00
  0.00000000E+00  0.00000000E+00  0.00000000E+00
  0.00000000E+00  0.00000000E+00  0.00000000E+00
  0.00000000E+00  0.00000000E+00  0.00000000E+00
  0.00000000E+00  0.00000000E+00  0.00000000E+00
  0.00000000E+00  0.00000000E+00  0.00000000E+00
  0.00000000E+00  0.00000000E+00  0.00000000E+00
  0.00000000E+00  0.00000000E+00  0.00000000E+00
  0.00000000E+00  0.00000000E+00  0.00000000E+00
  0.00000000E+00  0.00000000E+00  0.00000000E+00
  0.00000000E+00  0.00000000E+00  0.00000000E+00
  0.00000000E+00  0.00000000E+00  0.00000000E+00
  0.00000000E+00  0.00000000E+00  0.00000000E+00
  0.00000000E+00  0.00000000E+00  0.00000000E+00
  0.00000000E+00  0.00000000E+00  0.00000000E+00
  0.00000000E+00  0.00000000E+00  0.00000000E+00
  0.00000000E+00  0.00000000E+00  0.00000000E+00
  0.00000000E+00  0.00000000E+00  0.00000000E+00
  0.00000000E+00  0.00000000E+00  0.00000000E+00
  0.00000000E+00  0.00000000E+00  0.00000000E+00
  0.00000000E+00  0.00000000E+00  0.00000000E+00
  0.00000000E+00  0.00000000E+00  0.00000000E+00
  0.00000000E+00  0.00000000E+00  0.00000000E+00
  0.00000000E+00  0.00000000E+00  0.00000000E+00
  0.00000000E+00  0.00000000E+00  0.00000000E+00
  0.00000000E+00  0.00000000E+00  0.00000000E+00
  0.00000000E+00  0.00000000E+00  0.00000000E+00
  0.00000000E+00  0.00000000E+00  0.00000000E+00
  0.00000000E+00  0.00000000E+00  0.00000000E+00
  0.00000000E+00  0.00000000E+00  0.00000000E+00
  0.00000000E+00  0.00000000E+00  0.00000000E+00
  0.00000000E+00  0.00000000E+00  0.00000000E+00
  0.00000000E+00  0.00000000E+00  0.00000000E+00
  0.00000000E+00  0.00000000E+00  0.00000000E+00
  0.00000000E+00  0.00000000E+00  0.00000000E+00
  0.00000000E+00  0.00000000E+00  0.00000000E+00
  0.00000000E+00  0.00000000E+00  0.00000000E+00
  0.00000000E+00  0.00000000E+00  0.00000000E+00
  0.00000000E+00  0.00000000E+00  0.00000000E+00
  0.00000000E+00  0.00000000E+00  0.00000000E+00
  0.00000000E+00  0.00000000E+00  0.00000000E+00
  0.00000000E+00  0.00000000E+00  0.00000000E+00
  0.00000000E+00  0.00000000E+00  0.00000000E+00
  0.00000000E+00  0.00000000E+00  0.00000000E+00
  0.00000000E+00  0.00000000E+00  0.00000000E+00
  0.00000000E+00  0.00000000E+00  0.00000000E+00
  0.00000000E+00  0.00000000E+00  0.00000000E+00
  0.00000000E+00  0.00000000E+00  0.00000000E+00
  0.00000000E+00  0.00000000E+00  0.00000000E+00
  0.00000000E+00  0.00000000E+00  0.00000000E+00
  0.00000000E+00  0.00000000E+00  0.00000000E+00
  0.00000000E+00  0.00000000E+00  0.00000000E+00
  0.00000000E+00  0.00000000E+00  0.00000000E+00
  0.00000000E+00  0.00000000E+00  0.00000000E+00
  0.00000000E+00  0.00000000E+00  0.00000000E+00
  0.00000000E+00  0.00000000E+00  0.00000000E+00
  0.00000000E+00  0.00000000E+00  0.00000000E+00
  0.00000000E+00  0.00000000E+00  0.00000000E+00
  0.00000000E+00  0.00000000E+00  0.00000000E+00
  0.00000000E+00  0.00000000E+00  0.00000000E+00
  0.00000000E+00  0.00000000E+00  0.00000000E+00
  0.00000000E+00  0.00000000E+00  0.00000000E+00
  0.00000000E+00  0.00000000E+00  0.00000000E+00
  0.00000000E+00  0.00000000E+00  0.00000000E+00
  0.00000000E+00  0.00000000E+00  0.00000000E+00
  0.00000000E+00  0.00000000E+00  0.00000000E+00
  0.00000000E+00  0.00000000E+00  0.00000000E+00
  0.00000000E+00  0.00000000E+00  0.00000000E+00
  0.00000000E+00  0.00000000E+00  0.00000000E+00
  0.00000000E+00  0.00000000E+00  0.00000000E+00
  0.00000000E+00  0.00000000E+00  0.00000000E+00
  0.00000000E+00  0.00000000E+00  0.00000000E+00
  0.00000000E+00  0.00000000E+00  0.00000000E+00
  0.00000000E+00  0.00000000E+00  0.00000000E+00
  0.00000000E+00  0.00000000E+00  0.00000000E+00
  0.00000000E+00  0.00000000E+00  0.00000000E+00
  0.00000000E+00  0.00000000E+00  0.00000000E+00
  0.00000000E+00  0.00000000E+00  0.00000000E+00
  0.00000000E+00  0.00000000E+00  0.00000000E+00
  0.00000000E+00  0.00000000E+00  0.00000000E+00
  0.00000000E+00  0.00000000E+00  0.00000000E+00
  0.00000000E+00  0.00000000E+00  0.00000000E+00
  0.00000000E+00  0.00000000E+00  0.00000000E+00
  0.00000000E+00  0.00000000E+00  0.00000000E+00
  0.00000000E+00  0.00000000E+00  0.00000000E+00
  0.00000000E+00  0.00000000E+00  0.00000000E+00
  0.00000000E+00  0.00000000E+00  0.00000000E+00
  0.00000000E+00  0.00000000E+00  0.00000000E+00
  0.00000000E+00  0.00000000E+00  0.00000000E+00
  0.00000000E+00  0.00000000E+00  0.00000000E+00
  0.00000000E+00  0.00000000E+00  0.00000000E+00
  0.00000000E+00  0.00000000E+00  0.00000000E+00
  0.00000000E+00  0.00000000E+00  0.00000000E+00
  0.00000000E+00  0.00000000E+00  0.00000000E+00
  0.00000000E+00  0.00000000E+00  0.00000000E+00
  0.00000000E+00  0.00000000E+00  0.00000000E+00
  0.00000000E+00  0.00000000E+00  0.00000000E+00
  0.00000000E+00  0.00000000E+00  0.00000000E+00
  0.00000000E+00  0.00000000E+00  0.00000000E+00
  0.00000000E+00  0.00000000E+00  0.00000000E+00
  0.00000000E+00  0.00000000E+00  0.00000000E+00
  0.00000000E+00  0.00000000E+00  0.00000000E+00
  0.00000000E+00  0.00000000E+00  0.00000000E+00
  0.00000000E+00  0.00000000E+00  0.00000000E+00
  0.00000000E+00  0.00000000E+00  0.00000000E+00
  0.00000000E+00  0.00000000E+00  0.00000000E+00
  0.00000000E+00  0.00000000E+00  0.00000000E+00
  0.00000000E+00  0.00000000E+00  0.00000000E+00
  0.00000000E+00  0.00000000E+00  0.00000000E+00
  0.00000000E+00  0.00000000E+00  0.00000000E+00
  0.00000000E+00  0.00000000E+00  0.00000000E+00
