Ni1 H1 C123 N3 O2                       
   1.00000000000000     
    19.8003465767303801    0.0041917939878363    0.0618683156793661
    -9.8965923566597933   17.0143161818243698   -0.0492959226822715
     0.0931333296997078   -0.0303277102304597   29.8652431762093578
   Ni   H    C    N    O 
     1     1   123     3     2
Direct
  0.4368594029195400  0.4988241277413021  0.4105831623725282
  0.5258641660621421  0.5514162231076105  0.5072826283007768
  0.0420252350559043  0.0842526400008542  0.4004482152746556
  0.0410305457402989  0.2082404117584322  0.4006797230193381
  0.0404273838881170  0.3328818577307205  0.4004680817287866
  0.0406780536365833  0.4581490896977373  0.3998740625697738
  0.0414034718423705  0.5836241246463999  0.3992901083865393
  0.0421153046698385  0.7090522475049590  0.3990928874566771
  0.0424298328917774  0.8344112784929362  0.3992876462935687
  0.0424053604276364  0.9595686130842462  0.3998526176121027
  0.1678373390654645  0.0856989231327527  0.4009710716959233
  0.1677071642223286  0.2107081162991244  0.4018223427025301
  0.1653773177468317  0.3337979847056918  0.4017026946230378
  0.1646056050709428  0.4583377922016559  0.4013755134306525
  0.1652510452709827  0.5834943338087385  0.4005520508641227
  0.1664046568994225  0.7088910876205317  0.3996704049240929
  0.1670739635487171  0.8343979868262841  0.3993283844498438
  0.1675098224894796  0.9600760040195958  0.3998825107290661
  0.2926681338269720  0.0859777056379651  0.4009333772010775
  0.2934534471223412  0.2130795280187381  0.4024031997818589
  0.2932917898141378  0.3394646272006422  0.4027855570061266
  0.2885586829954102  0.4580274154447367  0.4021293719410322
  0.2886450411177230  0.5829744278269374  0.4019383734492276
  0.2905769195726601  0.7082895084293015  0.4009902478839519
  0.2916132170199863  0.8338285704779366  0.3998865149829495
  0.2921186701456490  0.9596543849790679  0.3998306130719341
  0.4170535332505417  0.0843717048788552  0.4003157967117573
  0.4177324144677375  0.2109041544519490  0.4016772446739106
  0.4196243684778109  0.3391180216011889  0.4034752419136917
  0.4144737619020673  0.7053100345157592  0.4024148102415608
  0.4160083740661545  0.8319238416501066  0.4009249853458489
  0.4166038636082666  0.9581676405030559  0.3999382599370372
  0.5414723434873139  0.0825761131367472  0.3998169576616624
  0.5420719737371775  0.2084436503617641  0.4005369248402388
  0.5431113761264149  0.3341069192809980  0.4021949509255420
  0.5461911299372768  0.4594176353940225  0.4038521471505908
  0.5377774601901307  0.7006623676136965  0.4036136669277758
  0.5401685761974323  0.8296012329205108  0.4019311760592264
  0.5409912245182100  0.9564157071875585  0.4004092782566213
  0.6660021230347671  0.0818120967192489  0.3996851102369771
  0.6665074506822852  0.2074241802748991  0.3995700301307682
  0.6673238133870409  0.3328973756718177  0.4004904467251479
  0.6692154556533934  0.4584388587336959  0.4021675211230973
  0.6702324238365458  0.5838708233425660  0.4035314973063635
  0.6656025698605779  0.7052170514974944  0.4028517534809834
  0.6643494144575326  0.8296252461405028  0.4019320261193698
  0.6653936179540126  0.9559205675815606  0.4006676066844305
  0.7906749345734346  0.0817706582859506  0.3997028564998563
  0.7910533473023480  0.2072090330727216  0.3992823892908468
  0.7916455993588273  0.3326797608422041  0.3992822585505665
  0.7927416345437671  0.4582146007056444  0.3999477958575577
  0.7935670996135922  0.5836633051311156  0.4010074534922282
  0.7930855770461156  0.7086698043307683  0.4013398586339619
  0.7908054421873024  0.8319085470758700  0.4010218647088370
  0.7902684117904455  0.9563936696125253  0.4004071456683062
  0.9158865269187936  0.0824823582131942  0.3999267082384244
  0.9157585881329354  0.2074013136058460  0.3997222696925271
  0.9159774703982944  0.3326952866866137  0.3993738368651306
  0.9166688586614169  0.4581400835811832  0.3990747087370558
  0.9174437683295066  0.5836605669893568  0.3992694142767209
  0.9176983365982793  0.7090135537104114  0.3997104849440636
  0.9173298957754310  0.8339432784616264  0.3998706374938386
  0.9164072891112012  0.9580965230746572  0.3999589523987231
  0.0842745033321473  0.0432776773513277  0.4004112800209277
  0.0838799717630724  0.1679500248377301  0.4010162340121193
  0.0822812933797972  0.2916169380912642  0.4009770778559468
  0.0818433167874635  0.4163500513604259  0.4006007226188954
  0.0824038203926168  0.5417129755955652  0.3998587456013389
  0.0833170390151950  0.6671992952589602  0.3992731674117124
  0.0838871899426760  0.7926640885190794  0.3991683887400874
  0.0841457554682085  0.9180542110146749  0.3996067014929157
  0.2092958733957705  0.0438337536678682  0.4006288462851115
  0.2097571131179888  0.1696795158180583  0.4018204482952941
  0.2092261349782165  0.2946503133025536  0.4022450552044531
  0.2061059652127671  0.4168967455327782  0.4018779781201222
  0.2059427793516604  0.5414719405768258  0.4013129030484654
  0.2074774804727636  0.6669676549714808  0.4003885305666124
  0.2084121702574794  0.7924680204423028  0.3995726647561596
  0.2088894076015851  0.9180517630634001  0.3996147561835838
  0.3338576823144285  0.0434403520425030  0.4003453258860584
  0.3344561454973008  0.1699912689773718  0.4017575485938787
  0.3355258879613060  0.2975553147219835  0.4032362369111322
  0.3300436305172224  0.5420431206931161  0.4025669615220326
  0.3314193825813090  0.6660376129662743  0.4018900025334493
  0.3328343880272686  0.7916034427554203  0.4005662853024894
  0.3334221134341798  0.9173658435594270  0.3997983479469115
  0.4582942828347223  0.0418037292106170  0.3999314044239642
  0.4588161123888272  0.1680579262855942  0.4008483639469747
  0.4598725343225555  0.2947476908727759  0.4024015971285108
  0.4644468099241665  0.4220255058787771  0.4043024084821632
  0.4532035439902228  0.6599208789059581  0.4034657057675496
  0.4570319441131497  0.7890790682512160  0.4018195686504532
  0.4578104734525364  0.9155958709352046  0.4003786489100074
  0.5827543325376621  0.0402358729924680  0.3998953679332525
  0.5833130450306145  0.1661777718712483  0.3998807504999867
  0.5841248917322476  0.2917809479032491  0.4010742695261951
  0.5864336808200398  0.4172035743690862  0.4028655109452421
  0.5883312860894369  0.5427400444019361  0.4041569820105397
  0.5811981278539393  0.6595949509818018  0.4036758460019272
  0.5803897129324112  0.7858172584815869  0.4026301120626722
  0.5821023829787559  0.9137724746631499  0.4010150854573435
  0.7073259884939785  0.0397550151638104  0.3999346274700584
  0.7078599596744583  0.1654937041046681  0.3993884440813990
  0.7084596849189789  0.2909971060697685  0.3996711115302946
  0.7098437693013714  0.4164265441177258  0.4008361880978386
  0.7110027267167454  0.5417312547853695  0.4024268293009139
  0.7100880189141546  0.6666396579501960  0.4026787741313082
  0.7068653363320709  0.7890459089041653  0.4019813851280423
  0.7065652017108950  0.9137946386794520  0.4010046775220134
  0.8323116538573913  0.0401985810937542  0.3999207438833118
  0.8324960467455296  0.1654684701364171  0.3994537161282554
  0.8328861431321483  0.2908400362084251  0.3991877962371936
  0.8337138428213701  0.4162803172558737  0.3992746631347847
  0.8345859475292179  0.5417873358043854  0.3999676443845952
  0.8347648168663664  0.6671824041763408  0.4006945837161938
  0.8339702947865490  0.7918395101189170  0.4006637076022990
  0.8326408350443136  0.9155584735637681  0.4003891266120124
  0.9582970611361439  0.0417311984059108  0.4000217891310196
  0.9576220316200491  0.1660340395154086  0.4000484203697459
  0.9574063669655097  0.2909976223822857  0.3998087473373035
  0.9577531351528858  0.4162754844442482  0.3993259480219560
  0.9584920206026796  0.5417680127881465  0.3990594000434037
  0.9590976942145520  0.6672529426138200  0.3992590697625901
  0.9591964320327635  0.7925644050794272  0.3995273612334756
  0.9588888722917791  0.9174069062872897  0.3997945207134251
  0.4094815065391019  0.5794913209348854  0.4036650777846446
  0.5447621164811560  0.5787273957605976  0.4037439361034458
  0.3314166600006551  0.4207923021547610  0.4017331818601583
  0.4915975539949909  0.4959260212069206  0.4995577371692283
  0.4297544540808379  0.4977093219356865  0.4763715312991973
 
  0.00000000E+00  0.00000000E+00  0.00000000E+00
  0.00000000E+00  0.00000000E+00  0.00000000E+00
  0.00000000E+00  0.00000000E+00  0.00000000E+00
  0.00000000E+00  0.00000000E+00  0.00000000E+00
  0.00000000E+00  0.00000000E+00  0.00000000E+00
  0.00000000E+00  0.00000000E+00  0.00000000E+00
  0.00000000E+00  0.00000000E+00  0.00000000E+00
  0.00000000E+00  0.00000000E+00  0.00000000E+00
  0.00000000E+00  0.00000000E+00  0.00000000E+00
  0.00000000E+00  0.00000000E+00  0.00000000E+00
  0.00000000E+00  0.00000000E+00  0.00000000E+00
  0.00000000E+00  0.00000000E+00  0.00000000E+00
  0.00000000E+00  0.00000000E+00  0.00000000E+00
  0.00000000E+00  0.00000000E+00  0.00000000E+00
  0.00000000E+00  0.00000000E+00  0.00000000E+00
  0.00000000E+00  0.00000000E+00  0.00000000E+00
  0.00000000E+00  0.00000000E+00  0.00000000E+00
  0.00000000E+00  0.00000000E+00  0.00000000E+00
  0.00000000E+00  0.00000000E+00  0.00000000E+00
  0.00000000E+00  0.00000000E+00  0.00000000E+00
  0.00000000E+00  0.00000000E+00  0.00000000E+00
  0.00000000E+00  0.00000000E+00  0.00000000E+00
  0.00000000E+00  0.00000000E+00  0.00000000E+00
  0.00000000E+00  0.00000000E+00  0.00000000E+00
  0.00000000E+00  0.00000000E+00  0.00000000E+00
  0.00000000E+00  0.00000000E+00  0.00000000E+00
  0.00000000E+00  0.00000000E+00  0.00000000E+00
  0.00000000E+00  0.00000000E+00  0.00000000E+00
  0.00000000E+00  0.00000000E+00  0.00000000E+00
  0.00000000E+00  0.00000000E+00  0.00000000E+00
  0.00000000E+00  0.00000000E+00  0.00000000E+00
  0.00000000E+00  0.00000000E+00  0.00000000E+00
  0.00000000E+00  0.00000000E+00  0.00000000E+00
  0.00000000E+00  0.00000000E+00  0.00000000E+00
  0.00000000E+00  0.00000000E+00  0.00000000E+00
  0.00000000E+00  0.00000000E+00  0.00000000E+00
  0.00000000E+00  0.00000000E+00  0.00000000E+00
  0.00000000E+00  0.00000000E+00  0.00000000E+00
  0.00000000E+00  0.00000000E+00  0.00000000E+00
  0.00000000E+00  0.00000000E+00  0.00000000E+00
  0.00000000E+00  0.00000000E+00  0.00000000E+00
  0.00000000E+00  0.00000000E+00  0.00000000E+00
  0.00000000E+00  0.00000000E+00  0.00000000E+00
  0.00000000E+00  0.00000000E+00  0.00000000E+00
  0.00000000E+00  0.00000000E+00  0.00000000E+00
  0.00000000E+00  0.00000000E+00  0.00000000E+00
  0.00000000E+00  0.00000000E+00  0.00000000E+00
  0.00000000E+00  0.00000000E+00  0.00000000E+00
  0.00000000E+00  0.00000000E+00  0.00000000E+00
  0.00000000E+00  0.00000000E+00  0.00000000E+00
  0.00000000E+00  0.00000000E+00  0.00000000E+00
  0.00000000E+00  0.00000000E+00  0.00000000E+00
  0.00000000E+00  0.00000000E+00  0.00000000E+00
  0.00000000E+00  0.00000000E+00  0.00000000E+00
  0.00000000E+00  0.00000000E+00  0.00000000E+00
  0.00000000E+00  0.00000000E+00  0.00000000E+00
  0.00000000E+00  0.00000000E+00  0.00000000E+00
  0.00000000E+00  0.00000000E+00  0.00000000E+00
  0.00000000E+00  0.00000000E+00  0.00000000E+00
  0.00000000E+00  0.00000000E+00  0.00000000E+00
  0.00000000E+00  0.00000000E+00  0.00000000E+00
  0.00000000E+00  0.00000000E+00  0.00000000E+00
  0.00000000E+00  0.00000000E+00  0.00000000E+00
  0.00000000E+00  0.00000000E+00  0.00000000E+00
  0.00000000E+00  0.00000000E+00  0.00000000E+00
  0.00000000E+00  0.00000000E+00  0.00000000E+00
  0.00000000E+00  0.00000000E+00  0.00000000E+00
  0.00000000E+00  0.00000000E+00  0.00000000E+00
  0.00000000E+00  0.00000000E+00  0.00000000E+00
  0.00000000E+00  0.00000000E+00  0.00000000E+00
  0.00000000E+00  0.00000000E+00  0.00000000E+00
  0.00000000E+00  0.00000000E+00  0.00000000E+00
  0.00000000E+00  0.00000000E+00  0.00000000E+00
  0.00000000E+00  0.00000000E+00  0.00000000E+00
  0.00000000E+00  0.00000000E+00  0.00000000E+00
  0.00000000E+00  0.00000000E+00  0.00000000E+00
  0.00000000E+00  0.00000000E+00  0.00000000E+00
  0.00000000E+00  0.00000000E+00  0.00000000E+00
  0.00000000E+00  0.00000000E+00  0.00000000E+00
  0.00000000E+00  0.00000000E+00  0.00000000E+00
  0.00000000E+00  0.00000000E+00  0.00000000E+00
  0.00000000E+00  0.00000000E+00  0.00000000E+00
  0.00000000E+00  0.00000000E+00  0.00000000E+00
  0.00000000E+00  0.00000000E+00  0.00000000E+00
  0.00000000E+00  0.00000000E+00  0.00000000E+00
  0.00000000E+00  0.00000000E+00  0.00000000E+00
  0.00000000E+00  0.00000000E+00  0.00000000E+00
  0.00000000E+00  0.00000000E+00  0.00000000E+00
  0.00000000E+00  0.00000000E+00  0.00000000E+00
  0.00000000E+00  0.00000000E+00  0.00000000E+00
  0.00000000E+00  0.00000000E+00  0.00000000E+00
  0.00000000E+00  0.00000000E+00  0.00000000E+00
  0.00000000E+00  0.00000000E+00  0.00000000E+00
  0.00000000E+00  0.00000000E+00  0.00000000E+00
  0.00000000E+00  0.00000000E+00  0.00000000E+00
  0.00000000E+00  0.00000000E+00  0.00000000E+00
  0.00000000E+00  0.00000000E+00  0.00000000E+00
  0.00000000E+00  0.00000000E+00  0.00000000E+00
  0.00000000E+00  0.00000000E+00  0.00000000E+00
  0.00000000E+00  0.00000000E+00  0.00000000E+00
  0.00000000E+00  0.00000000E+00  0.00000000E+00
  0.00000000E+00  0.00000000E+00  0.00000000E+00
  0.00000000E+00  0.00000000E+00  0.00000000E+00
  0.00000000E+00  0.00000000E+00  0.00000000E+00
  0.00000000E+00  0.00000000E+00  0.00000000E+00
  0.00000000E+00  0.00000000E+00  0.00000000E+00
  0.00000000E+00  0.00000000E+00  0.00000000E+00
  0.00000000E+00  0.00000000E+00  0.00000000E+00
  0.00000000E+00  0.00000000E+00  0.00000000E+00
  0.00000000E+00  0.00000000E+00  0.00000000E+00
  0.00000000E+00  0.00000000E+00  0.00000000E+00
  0.00000000E+00  0.00000000E+00  0.00000000E+00
  0.00000000E+00  0.00000000E+00  0.00000000E+00
  0.00000000E+00  0.00000000E+00  0.00000000E+00
  0.00000000E+00  0.00000000E+00  0.00000000E+00
  0.00000000E+00  0.00000000E+00  0.00000000E+00
  0.00000000E+00  0.00000000E+00  0.00000000E+00
  0.00000000E+00  0.00000000E+00  0.00000000E+00
  0.00000000E+00  0.00000000E+00  0.00000000E+00
  0.00000000E+00  0.00000000E+00  0.00000000E+00
  0.00000000E+00  0.00000000E+00  0.00000000E+00
  0.00000000E+00  0.00000000E+00  0.00000000E+00
  0.00000000E+00  0.00000000E+00  0.00000000E+00
  0.00000000E+00  0.00000000E+00  0.00000000E+00
  0.00000000E+00  0.00000000E+00  0.00000000E+00
  0.00000000E+00  0.00000000E+00  0.00000000E+00
  0.00000000E+00  0.00000000E+00  0.00000000E+00
  0.00000000E+00  0.00000000E+00  0.00000000E+00
  0.00000000E+00  0.00000000E+00  0.00000000E+00
  0.00000000E+00  0.00000000E+00  0.00000000E+00
