Mn1 H1 C122 N4 O2                       
   1.00000000000000     
    19.8033470009408852    0.0000866120567718    0.0557737110217171
    -9.9016575338407069   17.0166692991258905   -0.0640022669916771
     0.0838555521983342   -0.0633774400394704   29.8602330550210198
   Mn   H    C    N    O 
     1     1   122     4     2
Direct
  0.4388185950191294  0.5001478299285860  0.4164353497890411
  0.5236369560429772  0.5482810113698983  0.5146490715667358
  0.0421982041500369  0.0843885232947610  0.4003428995658891
  0.0412389182089051  0.2084194825393453  0.4002692170534561
  0.0404603025940374  0.3330551077612366  0.3998381670188018
  0.0405484746449387  0.4582490337299442  0.3993497151830024
  0.0413030965687325  0.5836893357813383  0.3991150334793540
  0.0419932689800851  0.7090829752479747  0.3991315056605211
  0.0422939157891065  0.8343712899255273  0.3994286074069294
  0.0424642657777761  0.9596611465635095  0.3999878160111461
  0.1682214397019820  0.0860000761822249  0.4010364064014363
  0.1679489907131608  0.2108372382652708  0.4017048350708046
  0.1653398673321516  0.3339144885698407  0.4015206025784196
  0.1642818749417480  0.4585321182384696  0.4004804058141590
  0.1652087345057205  0.5836569259681608  0.3998156098954253
  0.1663579138008355  0.7088943985081373  0.3994319776170308
  0.1669554834691704  0.8343260893171462  0.3994073533594609
  0.1674676681664900  0.9600233680950220  0.4000416031662849
  0.2926561863371883  0.0859878196929694  0.4010098522869970
  0.2942801399683860  0.2137204760247307  0.4028892459714102
  0.2932466652090922  0.3397253130531454  0.4045950299347040
  0.2875862276636820  0.4583599080637000  0.4037474334955911
  0.2885850561199133  0.5829990305924199  0.4016809184808807
  0.2906703879134093  0.7082939339781644  0.4004639584373280
  0.2916050016110849  0.8338257402771700  0.3997771160163099
  0.2920570679588098  0.9596070875202658  0.3999525922135067
  0.4170491198272830  0.0842833979262393  0.4003325250885353
  0.4177578662534369  0.2106761243078398  0.4016935624589411
  0.4212163185998046  0.3392473271524235  0.4043706073889197
  0.4146418104370702  0.7054054580752542  0.4025117731075138
  0.4160705505545532  0.8319946174217595  0.4006969133516334
  0.4165933837707231  0.9581619827070090  0.3999798227114694
  0.5414935601409405  0.0826453927508153  0.3998539686478900
  0.5420865598563810  0.2083861616281702  0.4003800720792410
  0.5435037486240868  0.3338934742071019  0.4018612990756637
  0.5456080117166709  0.4583074997100883  0.4039972525480770
  0.5380550916004552  0.7013056161835263  0.4045091747835400
  0.5403504117292204  0.8299675934474606  0.4019724264654111
  0.5410761116782685  0.9566113349881830  0.4003922893560213
  0.6661121288024089  0.0820410208141009  0.3997578664015773
  0.6665830095986613  0.2075628188360102  0.3995232041454656
  0.6675237979080201  0.3330504219180894  0.4001062770269368
  0.6691876916216682  0.4585395680680768  0.4012315367702646
  0.6693558429036347  0.5830416762348903  0.4023157846923022
  0.6658839579502462  0.7056884096457301  0.4023586983012754
  0.6645030464857088  0.8300128723736623  0.4018876748251221
  0.6655610142796620  0.9562444972315035  0.4007001446298569
  0.7908430817422336  0.0820732807545155  0.3997543556579035
  0.7911802366783215  0.2074630800140949  0.3992352872345555
  0.7917290040350538  0.3328388430821441  0.3991715063798449
  0.7926328831412730  0.4582485310969308  0.3995226995670451
  0.7933874397505392  0.5836791221765290  0.4002075205725477
  0.7925705070861415  0.7083304859949805  0.4006629851039500
  0.7909560267419399  0.8321400019869324  0.4006994124016905
  0.7904415113553497  0.9566695133191144  0.4003786987749438
  0.9160572353728555  0.0827030613482410  0.3998531840787925
  0.9159024653458598  0.2075930923290182  0.3995145030274881
  0.9160312429741166  0.3328435736079495  0.3991483753126245
  0.9166040313884094  0.4582816536340998  0.3989625346956029
  0.9172873801374248  0.5836886932175281  0.3991460164788063
  0.9174751640046054  0.7089401624262268  0.3995319528718739
  0.9171611678008162  0.8338873775687868  0.3998111050870795
  0.9165387213279557  0.9582851469789432  0.3999955350644898
  0.0845243892435873  0.0435000531701852  0.4004375075767327
  0.0841142777647457  0.1680976698280034  0.4007141352366883
  0.0824180897077872  0.2917802040631551  0.4004582554579807
  0.0815899968236342  0.4164068106173501  0.3998011549256392
  0.0823246090038870  0.5418161182317219  0.3993602342016034
  0.0832128723541032  0.6672201570918076  0.3991840144988014
  0.0837507852140550  0.7926055154809116  0.3992566958418647
  0.0841185011951573  0.9180586747636005  0.3997846357646289
  0.2093757716835355  0.0438661544601170  0.4007342875089944
  0.2104615859970760  0.1701594108237499  0.4019880901351907
  0.2093023195189554  0.2946917449232544  0.4024806817201655
  0.2056256179247790  0.4170739266256108  0.4016205284919594
  0.2057705408093936  0.5415214263808883  0.4004935958313084
  0.2074357460857749  0.6670129461729074  0.3998475927011553
  0.2083461907817571  0.7924829072660898  0.3994942905749893
  0.2088136904958783  0.9180062271598803  0.3997634317293940
  0.3338304282711195  0.0434506816397978  0.4003891474331829
  0.3345718007387337  0.1701382881796403  0.4019463960488015
  0.3368574556285447  0.2988663409041958  0.4044964564852214
  0.3292675792618575  0.5417531800355108  0.4038365217385947
  0.3314414511937235  0.6661675110615313  0.4015580947264908
  0.3328629294230182  0.7916608065768249  0.4002499978513760
  0.3333991643566082  0.9173788306063219  0.3998625077826835
  0.4582919663888922  0.0418116596132495  0.3999897530870423
  0.4588643510844304  0.1679833368183224  0.4007664080429503
  0.4602710641514328  0.2944537297267227  0.4024463905069636
  0.4535647427895858  0.6604073074465917  0.4047031538931405
  0.4571560746245347  0.7892535066708990  0.4016983846067689
  0.4578623003261625  0.9157107007048431  0.4003145738719930
  0.5828528994369374  0.0404454179124489  0.3999375239671292
  0.5833251349407940  0.1662196239863939  0.3998208567391729
  0.5842908199046334  0.2917654880688966  0.4007202487605058
  0.5863783379356164  0.4170741931487769  0.4023310929724611
  0.5873565348325506  0.5417964034022075  0.4040016911304730
  0.5820390979804156  0.6609334849280094  0.4042896483456858
  0.5806362725500714  0.7864568478526880  0.4028609856230094
  0.5822753485179351  0.9141180532519747  0.4010073710246691
  0.7074849149444399  0.0400685177611662  0.4000214037539070
  0.7079683151597054  0.1657221482661590  0.3994071726263469
  0.7085843478844331  0.2911559503354375  0.3995159437924219
  0.7097653506896614  0.4164172054939461  0.4002043968670741
  0.7106966171339709  0.5415587449307263  0.4012336124565677
  0.7096739490252041  0.6662300098844749  0.4017989538570407
  0.7071551552236698  0.7894642770286892  0.4016242739966053
  0.7067366314510131  0.9141477630034576  0.4009700955758883
  0.8324913802524836  0.0404852846958823  0.3999378733693075
  0.8326648108380463  0.1657483369451599  0.3994050675667107
  0.8329530612418279  0.2909880288219014  0.3990935113910832
  0.8336441791275964  0.4163744615547241  0.3991093408262227
  0.8344083244059983  0.5418125504363649  0.3995434024171435
  0.8345213642515226  0.6670435648260260  0.4000869162199920
  0.8337577518760105  0.7917152370932018  0.4003128982818219
  0.8328268824980465  0.9158367859596992  0.4003040834964844
  0.9584731154909981  0.0419288811389792  0.3999975023228177
  0.9578186205737846  0.1662576600604797  0.3997986338234244
  0.9575005157713946  0.2911677615368779  0.3994326545329452
  0.9576529707470157  0.4163742459535413  0.3990859752027949
  0.9583535943455597  0.5417889502571832  0.3989800718689349
  0.9589116725908354  0.6672249022145856  0.3992158540195554
  0.9590718966935553  0.7925361291033217  0.3995353583964903
  0.9588970044366700  0.9174513123555904  0.3998740660538246
  0.4094984721622726  0.5794474046582176  0.4064185512037898
  0.5451766225369616  0.5800928463991767  0.4057343810144401
  0.3301116034585024  0.4206922972513168  0.4061623412541268
  0.4652099049897605  0.4200696104781693  0.4057800814652843
  0.4983049177133832  0.4968769842036851  0.4997534780841371
  0.4332294771335709  0.5005731741039159  0.4768448977878856
 
  0.00000000E+00  0.00000000E+00  0.00000000E+00
  0.00000000E+00  0.00000000E+00  0.00000000E+00
  0.00000000E+00  0.00000000E+00  0.00000000E+00
  0.00000000E+00  0.00000000E+00  0.00000000E+00
  0.00000000E+00  0.00000000E+00  0.00000000E+00
  0.00000000E+00  0.00000000E+00  0.00000000E+00
  0.00000000E+00  0.00000000E+00  0.00000000E+00
  0.00000000E+00  0.00000000E+00  0.00000000E+00
  0.00000000E+00  0.00000000E+00  0.00000000E+00
  0.00000000E+00  0.00000000E+00  0.00000000E+00
  0.00000000E+00  0.00000000E+00  0.00000000E+00
  0.00000000E+00  0.00000000E+00  0.00000000E+00
  0.00000000E+00  0.00000000E+00  0.00000000E+00
  0.00000000E+00  0.00000000E+00  0.00000000E+00
  0.00000000E+00  0.00000000E+00  0.00000000E+00
  0.00000000E+00  0.00000000E+00  0.00000000E+00
  0.00000000E+00  0.00000000E+00  0.00000000E+00
  0.00000000E+00  0.00000000E+00  0.00000000E+00
  0.00000000E+00  0.00000000E+00  0.00000000E+00
  0.00000000E+00  0.00000000E+00  0.00000000E+00
  0.00000000E+00  0.00000000E+00  0.00000000E+00
  0.00000000E+00  0.00000000E+00  0.00000000E+00
  0.00000000E+00  0.00000000E+00  0.00000000E+00
  0.00000000E+00  0.00000000E+00  0.00000000E+00
  0.00000000E+00  0.00000000E+00  0.00000000E+00
  0.00000000E+00  0.00000000E+00  0.00000000E+00
  0.00000000E+00  0.00000000E+00  0.00000000E+00
  0.00000000E+00  0.00000000E+00  0.00000000E+00
  0.00000000E+00  0.00000000E+00  0.00000000E+00
  0.00000000E+00  0.00000000E+00  0.00000000E+00
  0.00000000E+00  0.00000000E+00  0.00000000E+00
  0.00000000E+00  0.00000000E+00  0.00000000E+00
  0.00000000E+00  0.00000000E+00  0.00000000E+00
  0.00000000E+00  0.00000000E+00  0.00000000E+00
  0.00000000E+00  0.00000000E+00  0.00000000E+00
  0.00000000E+00  0.00000000E+00  0.00000000E+00
  0.00000000E+00  0.00000000E+00  0.00000000E+00
  0.00000000E+00  0.00000000E+00  0.00000000E+00
  0.00000000E+00  0.00000000E+00  0.00000000E+00
  0.00000000E+00  0.00000000E+00  0.00000000E+00
  0.00000000E+00  0.00000000E+00  0.00000000E+00
  0.00000000E+00  0.00000000E+00  0.00000000E+00
  0.00000000E+00  0.00000000E+00  0.00000000E+00
  0.00000000E+00  0.00000000E+00  0.00000000E+00
  0.00000000E+00  0.00000000E+00  0.00000000E+00
  0.00000000E+00  0.00000000E+00  0.00000000E+00
  0.00000000E+00  0.00000000E+00  0.00000000E+00
  0.00000000E+00  0.00000000E+00  0.00000000E+00
  0.00000000E+00  0.00000000E+00  0.00000000E+00
  0.00000000E+00  0.00000000E+00  0.00000000E+00
  0.00000000E+00  0.00000000E+00  0.00000000E+00
  0.00000000E+00  0.00000000E+00  0.00000000E+00
  0.00000000E+00  0.00000000E+00  0.00000000E+00
  0.00000000E+00  0.00000000E+00  0.00000000E+00
  0.00000000E+00  0.00000000E+00  0.00000000E+00
  0.00000000E+00  0.00000000E+00  0.00000000E+00
  0.00000000E+00  0.00000000E+00  0.00000000E+00
  0.00000000E+00  0.00000000E+00  0.00000000E+00
  0.00000000E+00  0.00000000E+00  0.00000000E+00
  0.00000000E+00  0.00000000E+00  0.00000000E+00
  0.00000000E+00  0.00000000E+00  0.00000000E+00
  0.00000000E+00  0.00000000E+00  0.00000000E+00
  0.00000000E+00  0.00000000E+00  0.00000000E+00
  0.00000000E+00  0.00000000E+00  0.00000000E+00
  0.00000000E+00  0.00000000E+00  0.00000000E+00
  0.00000000E+00  0.00000000E+00  0.00000000E+00
  0.00000000E+00  0.00000000E+00  0.00000000E+00
  0.00000000E+00  0.00000000E+00  0.00000000E+00
  0.00000000E+00  0.00000000E+00  0.00000000E+00
  0.00000000E+00  0.00000000E+00  0.00000000E+00
  0.00000000E+00  0.00000000E+00  0.00000000E+00
  0.00000000E+00  0.00000000E+00  0.00000000E+00
  0.00000000E+00  0.00000000E+00  0.00000000E+00
  0.00000000E+00  0.00000000E+00  0.00000000E+00
  0.00000000E+00  0.00000000E+00  0.00000000E+00
  0.00000000E+00  0.00000000E+00  0.00000000E+00
  0.00000000E+00  0.00000000E+00  0.00000000E+00
  0.00000000E+00  0.00000000E+00  0.00000000E+00
  0.00000000E+00  0.00000000E+00  0.00000000E+00
  0.00000000E+00  0.00000000E+00  0.00000000E+00
  0.00000000E+00  0.00000000E+00  0.00000000E+00
  0.00000000E+00  0.00000000E+00  0.00000000E+00
  0.00000000E+00  0.00000000E+00  0.00000000E+00
  0.00000000E+00  0.00000000E+00  0.00000000E+00
  0.00000000E+00  0.00000000E+00  0.00000000E+00
  0.00000000E+00  0.00000000E+00  0.00000000E+00
  0.00000000E+00  0.00000000E+00  0.00000000E+00
  0.00000000E+00  0.00000000E+00  0.00000000E+00
  0.00000000E+00  0.00000000E+00  0.00000000E+00
  0.00000000E+00  0.00000000E+00  0.00000000E+00
  0.00000000E+00  0.00000000E+00  0.00000000E+00
  0.00000000E+00  0.00000000E+00  0.00000000E+00
  0.00000000E+00  0.00000000E+00  0.00000000E+00
  0.00000000E+00  0.00000000E+00  0.00000000E+00
  0.00000000E+00  0.00000000E+00  0.00000000E+00
  0.00000000E+00  0.00000000E+00  0.00000000E+00
  0.00000000E+00  0.00000000E+00  0.00000000E+00
  0.00000000E+00  0.00000000E+00  0.00000000E+00
  0.00000000E+00  0.00000000E+00  0.00000000E+00
  0.00000000E+00  0.00000000E+00  0.00000000E+00
  0.00000000E+00  0.00000000E+00  0.00000000E+00
  0.00000000E+00  0.00000000E+00  0.00000000E+00
  0.00000000E+00  0.00000000E+00  0.00000000E+00
  0.00000000E+00  0.00000000E+00  0.00000000E+00
  0.00000000E+00  0.00000000E+00  0.00000000E+00
  0.00000000E+00  0.00000000E+00  0.00000000E+00
  0.00000000E+00  0.00000000E+00  0.00000000E+00
  0.00000000E+00  0.00000000E+00  0.00000000E+00
  0.00000000E+00  0.00000000E+00  0.00000000E+00
  0.00000000E+00  0.00000000E+00  0.00000000E+00
  0.00000000E+00  0.00000000E+00  0.00000000E+00
  0.00000000E+00  0.00000000E+00  0.00000000E+00
  0.00000000E+00  0.00000000E+00  0.00000000E+00
  0.00000000E+00  0.00000000E+00  0.00000000E+00
  0.00000000E+00  0.00000000E+00  0.00000000E+00
  0.00000000E+00  0.00000000E+00  0.00000000E+00
  0.00000000E+00  0.00000000E+00  0.00000000E+00
  0.00000000E+00  0.00000000E+00  0.00000000E+00
  0.00000000E+00  0.00000000E+00  0.00000000E+00
  0.00000000E+00  0.00000000E+00  0.00000000E+00
  0.00000000E+00  0.00000000E+00  0.00000000E+00
  0.00000000E+00  0.00000000E+00  0.00000000E+00
  0.00000000E+00  0.00000000E+00  0.00000000E+00
  0.00000000E+00  0.00000000E+00  0.00000000E+00
  0.00000000E+00  0.00000000E+00  0.00000000E+00
  0.00000000E+00  0.00000000E+00  0.00000000E+00
  0.00000000E+00  0.00000000E+00  0.00000000E+00
  0.00000000E+00  0.00000000E+00  0.00000000E+00
  0.00000000E+00  0.00000000E+00  0.00000000E+00
  0.00000000E+00  0.00000000E+00  0.00000000E+00
