La1 C122 N4                             
   1.00000000000000     
    19.8032202452344777   -0.0000552699317645    0.0014981036187394
    -9.9016578031187716   17.0533743675258691   -0.0007080337989471
     0.0022530598282811    0.0000717771101812   29.7959077151760248
   La   C    N 
     1   122     4
Direct
  0.4375402360711912  0.4999992485398770  0.4462489872884280
  0.0418645529304370  0.0839296129255894  0.3999029956617518
  0.0411507112315328  0.2082635268660348  0.3997018577514997
  0.0405487497461588  0.3331267435217151  0.3998162275187723
  0.0406327714816401  0.4582683308941506  0.3999019950749335
  0.0413461115097087  0.5836291456904057  0.4000272948646603
  0.0420050212152650  0.7089912551217011  0.4000627565616835
  0.0421553085253688  0.8341034492301310  0.4000778406780023
  0.0422882479476910  0.9592937029922860  0.4000580302367511
  0.1676950376587497  0.0850790572879403  0.3998952704064418
  0.1672235234079738  0.2096806466789421  0.3993674922533652
  0.1653257288974851  0.3337360334149923  0.3995440182112795
  0.1646286128692176  0.4584102916374908  0.3996125271009920
  0.1653982169629230  0.5836631209369828  0.3997346752354687
  0.1663513615874602  0.7088368412970268  0.3999689780299139
  0.1669101604786649  0.8340945451214521  0.4000421899340435
  0.1672384750721757  0.9595221630046372  0.4000282268970953
  0.2923328434001848  0.0850723989368819  0.3998413076489705
  0.2934755201549101  0.2119931843003948  0.4000727348054357
  0.2917201214649587  0.3370718414125923  0.4006905320664169
  0.2886935735806246  0.4580015074651660  0.4007751635182195
  0.2890325979844712  0.5830285529423601  0.3997971366563173
  0.2907649786991933  0.7082287551952117  0.3996440317554417
  0.2916433939025479  0.8337377731351424  0.3999106582446333
  0.2919619434927843  0.9592665679601946  0.3999950655476833
  0.4170215595822543  0.0838976846860959  0.3998710806442558
  0.4174132805638813  0.2096462529624545  0.3993455910319521
  0.4203621563327372  0.3370340148179521  0.4006906406111623
  0.4152956531284095  0.7069788502660679  0.3993081352533696
  0.4162233291368547  0.8326355702990701  0.3996100516557189
  0.4166142593333589  0.9581968889118541  0.4000310382049428
  0.5415894235803936  0.0827913805089910  0.4000504996942665
  0.5420907665172275  0.2082425257848964  0.3997200102976890
  0.5434287496548496  0.3337083890453637  0.3995696529729807
  0.5443594751994716  0.4579862829825172  0.4008440076840906
  0.5391462952907509  0.7032841140412164  0.4009192333463600
  0.5408276799897519  0.8310761925094093  0.3997588723931932
  0.5413269790140894  0.9571453796231738  0.3999608475258122
  0.6662571072343739  0.0823279322806561  0.4000618384639336
  0.6667739248264415  0.2077289989479532  0.4000340214126106
  0.6675932119852750  0.3331291949426541  0.3998290802915341
  0.6688266813325195  0.4584087840766557  0.3996542477501319
  0.6690603159617492  0.5830400966286809  0.3998588387675826
  0.6667148102223502  0.7070133816421744  0.3993114183077290
  0.6652100897236649  0.8310963299512046  0.3997276443596094
  0.6659203695785546  0.9568872266666322  0.3999675803994963
  0.7910334686287577  0.0823362759180258  0.4000320820914680
  0.7912916096064415  0.2076163262617551  0.4000695093363481
  0.7918029001069945  0.3329089855591849  0.4000283347869140
  0.7926472125552648  0.4582767507719520  0.3998489860416011
  0.7932866660804794  0.5836497067176433  0.3997259188086684
  0.7925020856893357  0.7082485897454890  0.3996690159207625
  0.7914134689609443  0.8326639761849549  0.3995941137753437
  0.7907816697074033  0.9571649332605238  0.3998905032039922
  0.9161936262506230  0.0828231934347595  0.3999902891749714
  0.9159374520861401  0.2077461936645667  0.3999903027183485
  0.9161247087087897  0.3329090058348038  0.4000390357000619
  0.9166555672361686  0.4582962232610385  0.4000475369862549
  0.9172854694859863  0.5836224977914454  0.3999948670299996
  0.9175007107464187  0.7088424438272257  0.3999939297536367
  0.9170937947943423  0.8337659402071808  0.3999597967672999
  0.9165799141904732  0.9582343713300639  0.4000439100424386
  0.0841828266799361  0.0428558290087744  0.3999615408374881
  0.0835894085708648  0.1673654452614178  0.3996098846253370
  0.0825379609603786  0.2917710125689911  0.3996450964112143
  0.0817369729956936  0.4163372432033114  0.3997359434458883
  0.0823673576814848  0.5417316554346679  0.3999013235079417
  0.0832170287169354  0.6670905103682198  0.4000379070917075
  0.0836758948148308  0.7923826724753894  0.4000702190353572
  0.0839309850533442  0.9176732358743914  0.4000628080209322
  0.2090353117978993  0.0431143103763637  0.3999675305032231
  0.2097527333120681  0.1689243807021046  0.3997588439036999
  0.2083172000958607  0.2930207448058600  0.3993083136151783
  0.2060039955349234  0.4169705103889746  0.3997973894704171
  0.2062196512708019  0.5415885055518207  0.3996121981699927
  0.2074243426310914  0.6668722487657167  0.3998143838511184
  0.2081937604819349  0.7922533062572845  0.3999913412869469
  0.2086983285180681  0.9176632030650487  0.4000329205247232
  0.3336174817650536  0.0428346404147310  0.3998904769419813
  0.3341146674075881  0.1689037799564107  0.3997284423141934
  0.3358621401794644  0.2967156423233413  0.4009193352461626
  0.3306923103742847  0.5419984400516120  0.4007751947609905
  0.3315914217848066  0.6662641855043981  0.3995432061633245
  0.3328891490544132  0.7917360833400761  0.3997017039593905
  0.3333712135581849  0.9171760090375338  0.3999903160430478
  0.4583473338728016  0.0417652003228505  0.4000431597193655
  0.4587506100611016  0.1673354193579074  0.3995950994364659
  0.4597007839229563  0.2929855689023717  0.3993116748380199
  0.4546484837763680  0.6629282524929508  0.4006898639805112
  0.4575444839616934  0.7903199280356146  0.3993674735005923
  0.4579352782951235  0.9160700610425903  0.3999036502938111
  0.5829958062527584  0.0407058713853419  0.4000570292618325
  0.5833299135531247  0.1662336927596377  0.3999606674905089
  0.5842550994183189  0.2917515328645574  0.3996699569107108
  0.5860202993419351  0.4169597561640069  0.3998595417402874
  0.5863724459606764  0.5420135621648684  0.4008442001819874
  0.5833276382078080  0.6629658652241286  0.4006907936684239
  0.5814853606017144  0.7880077266244944  0.4000729726587880
  0.5826172499935610  0.9149213122211923  0.3998951235384687
  0.7077178213281887  0.0404769664979133  0.4000279889586121
  0.7080545960486069  0.1658960285850806  0.4000768941529452
  0.7086610330374078  0.2911563728088504  0.3999941605511256
  0.7096392694182958  0.4163495152727984  0.3997259423818701
  0.7104193135360328  0.5415921783288985  0.3996540664707751
  0.7097201640320381  0.6662931056988638  0.3995686898806979
  0.7077676561397619  0.7903548933516842  0.3993445571286675
  0.7072620290720282  0.9149274206611279  0.3998411620584300
  0.8326969565397035  0.0407329639024027  0.3999949982193893
  0.8328169886164197  0.1659044915029461  0.4000408639913157
  0.8330162457659147  0.2910084096621555  0.4000644845486304
  0.8336655126450658  0.4163763856917826  0.3999958376097847
  0.8343735790212052  0.5417238207145046  0.3998488962803116
  0.8344660134890522  0.6668726263568451  0.3998290081555815
  0.8338517650396043  0.7917592849482439  0.3997190033833719
  0.8331251462575892  0.9161026308103981  0.3998711040220811
  0.9584188650987931  0.0418030296112424  0.4000310916313709
  0.9579073464723600  0.1662613925981415  0.3999103264868634
  0.9575161036568162  0.2911628553390819  0.3999697405776792
  0.9577197378123432  0.4163701244782952  0.4000278599817562
  0.9583628978805944  0.5417039552908266  0.4000469735304852
  0.9588959041634793  0.6670919582598664  0.4000265220208753
  0.9590473891547983  0.7922725179457213  0.4000340209628193
  0.9588000355672761  0.9172095913884283  0.4000506391186469
  0.4116037370972377  0.5827845272875155  0.4031629909852326
  0.5462509274501185  0.5828169023493593  0.4032009844933771
  0.3288187849473242  0.4172150578877558  0.4031630588684434
  0.4634340069552794  0.4171834666147561  0.4032001494440939
 
  0.00000000E+00  0.00000000E+00  0.00000000E+00
  0.00000000E+00  0.00000000E+00  0.00000000E+00
  0.00000000E+00  0.00000000E+00  0.00000000E+00
  0.00000000E+00  0.00000000E+00  0.00000000E+00
  0.00000000E+00  0.00000000E+00  0.00000000E+00
  0.00000000E+00  0.00000000E+00  0.00000000E+00
  0.00000000E+00  0.00000000E+00  0.00000000E+00
  0.00000000E+00  0.00000000E+00  0.00000000E+00
  0.00000000E+00  0.00000000E+00  0.00000000E+00
  0.00000000E+00  0.00000000E+00  0.00000000E+00
  0.00000000E+00  0.00000000E+00  0.00000000E+00
  0.00000000E+00  0.00000000E+00  0.00000000E+00
  0.00000000E+00  0.00000000E+00  0.00000000E+00
  0.00000000E+00  0.00000000E+00  0.00000000E+00
  0.00000000E+00  0.00000000E+00  0.00000000E+00
  0.00000000E+00  0.00000000E+00  0.00000000E+00
  0.00000000E+00  0.00000000E+00  0.00000000E+00
  0.00000000E+00  0.00000000E+00  0.00000000E+00
  0.00000000E+00  0.00000000E+00  0.00000000E+00
  0.00000000E+00  0.00000000E+00  0.00000000E+00
  0.00000000E+00  0.00000000E+00  0.00000000E+00
  0.00000000E+00  0.00000000E+00  0.00000000E+00
  0.00000000E+00  0.00000000E+00  0.00000000E+00
  0.00000000E+00  0.00000000E+00  0.00000000E+00
  0.00000000E+00  0.00000000E+00  0.00000000E+00
  0.00000000E+00  0.00000000E+00  0.00000000E+00
  0.00000000E+00  0.00000000E+00  0.00000000E+00
  0.00000000E+00  0.00000000E+00  0.00000000E+00
  0.00000000E+00  0.00000000E+00  0.00000000E+00
  0.00000000E+00  0.00000000E+00  0.00000000E+00
  0.00000000E+00  0.00000000E+00  0.00000000E+00
  0.00000000E+00  0.00000000E+00  0.00000000E+00
  0.00000000E+00  0.00000000E+00  0.00000000E+00
  0.00000000E+00  0.00000000E+00  0.00000000E+00
  0.00000000E+00  0.00000000E+00  0.00000000E+00
  0.00000000E+00  0.00000000E+00  0.00000000E+00
  0.00000000E+00  0.00000000E+00  0.00000000E+00
  0.00000000E+00  0.00000000E+00  0.00000000E+00
  0.00000000E+00  0.00000000E+00  0.00000000E+00
  0.00000000E+00  0.00000000E+00  0.00000000E+00
  0.00000000E+00  0.00000000E+00  0.00000000E+00
  0.00000000E+00  0.00000000E+00  0.00000000E+00
  0.00000000E+00  0.00000000E+00  0.00000000E+00
  0.00000000E+00  0.00000000E+00  0.00000000E+00
  0.00000000E+00  0.00000000E+00  0.00000000E+00
  0.00000000E+00  0.00000000E+00  0.00000000E+00
  0.00000000E+00  0.00000000E+00  0.00000000E+00
  0.00000000E+00  0.00000000E+00  0.00000000E+00
  0.00000000E+00  0.00000000E+00  0.00000000E+00
  0.00000000E+00  0.00000000E+00  0.00000000E+00
  0.00000000E+00  0.00000000E+00  0.00000000E+00
  0.00000000E+00  0.00000000E+00  0.00000000E+00
  0.00000000E+00  0.00000000E+00  0.00000000E+00
  0.00000000E+00  0.00000000E+00  0.00000000E+00
  0.00000000E+00  0.00000000E+00  0.00000000E+00
  0.00000000E+00  0.00000000E+00  0.00000000E+00
  0.00000000E+00  0.00000000E+00  0.00000000E+00
  0.00000000E+00  0.00000000E+00  0.00000000E+00
  0.00000000E+00  0.00000000E+00  0.00000000E+00
  0.00000000E+00  0.00000000E+00  0.00000000E+00
  0.00000000E+00  0.00000000E+00  0.00000000E+00
  0.00000000E+00  0.00000000E+00  0.00000000E+00
  0.00000000E+00  0.00000000E+00  0.00000000E+00
  0.00000000E+00  0.00000000E+00  0.00000000E+00
  0.00000000E+00  0.00000000E+00  0.00000000E+00
  0.00000000E+00  0.00000000E+00  0.00000000E+00
  0.00000000E+00  0.00000000E+00  0.00000000E+00
  0.00000000E+00  0.00000000E+00  0.00000000E+00
  0.00000000E+00  0.00000000E+00  0.00000000E+00
  0.00000000E+00  0.00000000E+00  0.00000000E+00
  0.00000000E+00  0.00000000E+00  0.00000000E+00
  0.00000000E+00  0.00000000E+00  0.00000000E+00
  0.00000000E+00  0.00000000E+00  0.00000000E+00
  0.00000000E+00  0.00000000E+00  0.00000000E+00
  0.00000000E+00  0.00000000E+00  0.00000000E+00
  0.00000000E+00  0.00000000E+00  0.00000000E+00
  0.00000000E+00  0.00000000E+00  0.00000000E+00
  0.00000000E+00  0.00000000E+00  0.00000000E+00
  0.00000000E+00  0.00000000E+00  0.00000000E+00
  0.00000000E+00  0.00000000E+00  0.00000000E+00
  0.00000000E+00  0.00000000E+00  0.00000000E+00
  0.00000000E+00  0.00000000E+00  0.00000000E+00
  0.00000000E+00  0.00000000E+00  0.00000000E+00
  0.00000000E+00  0.00000000E+00  0.00000000E+00
  0.00000000E+00  0.00000000E+00  0.00000000E+00
  0.00000000E+00  0.00000000E+00  0.00000000E+00
  0.00000000E+00  0.00000000E+00  0.00000000E+00
  0.00000000E+00  0.00000000E+00  0.00000000E+00
  0.00000000E+00  0.00000000E+00  0.00000000E+00
  0.00000000E+00  0.00000000E+00  0.00000000E+00
  0.00000000E+00  0.00000000E+00  0.00000000E+00
  0.00000000E+00  0.00000000E+00  0.00000000E+00
  0.00000000E+00  0.00000000E+00  0.00000000E+00
  0.00000000E+00  0.00000000E+00  0.00000000E+00
  0.00000000E+00  0.00000000E+00  0.00000000E+00
  0.00000000E+00  0.00000000E+00  0.00000000E+00
  0.00000000E+00  0.00000000E+00  0.00000000E+00
  0.00000000E+00  0.00000000E+00  0.00000000E+00
  0.00000000E+00  0.00000000E+00  0.00000000E+00
  0.00000000E+00  0.00000000E+00  0.00000000E+00
  0.00000000E+00  0.00000000E+00  0.00000000E+00
  0.00000000E+00  0.00000000E+00  0.00000000E+00
  0.00000000E+00  0.00000000E+00  0.00000000E+00
  0.00000000E+00  0.00000000E+00  0.00000000E+00
  0.00000000E+00  0.00000000E+00  0.00000000E+00
  0.00000000E+00  0.00000000E+00  0.00000000E+00
  0.00000000E+00  0.00000000E+00  0.00000000E+00
  0.00000000E+00  0.00000000E+00  0.00000000E+00
  0.00000000E+00  0.00000000E+00  0.00000000E+00
  0.00000000E+00  0.00000000E+00  0.00000000E+00
  0.00000000E+00  0.00000000E+00  0.00000000E+00
  0.00000000E+00  0.00000000E+00  0.00000000E+00
  0.00000000E+00  0.00000000E+00  0.00000000E+00
  0.00000000E+00  0.00000000E+00  0.00000000E+00
  0.00000000E+00  0.00000000E+00  0.00000000E+00
  0.00000000E+00  0.00000000E+00  0.00000000E+00
  0.00000000E+00  0.00000000E+00  0.00000000E+00
  0.00000000E+00  0.00000000E+00  0.00000000E+00
  0.00000000E+00  0.00000000E+00  0.00000000E+00
  0.00000000E+00  0.00000000E+00  0.00000000E+00
  0.00000000E+00  0.00000000E+00  0.00000000E+00
  0.00000000E+00  0.00000000E+00  0.00000000E+00
  0.00000000E+00  0.00000000E+00  0.00000000E+00
  0.00000000E+00  0.00000000E+00  0.00000000E+00
  0.00000000E+00  0.00000000E+00  0.00000000E+00
  0.00000000E+00  0.00000000E+00  0.00000000E+00
  0.00000000E+00  0.00000000E+00  0.00000000E+00
