H1 Rh1 C123 N3 O2                       
   1.00000000000000     
    19.8361960446866732    0.0111841351561692    0.0891561600165213
    -9.9081564097852812   17.0272004835607724   -0.1950315948046196
     0.1341844989006662   -0.2628643969106966   29.7852060671620116
   H    Rh   C    N    O 
     1     1   123     3     2
Direct
  0.5260692517318313  0.5543361255522546  0.5125833588991385
  0.4366076828538446  0.4988372815339391  0.4210892355867134
  0.0417474207544171  0.0841393726466809  0.3999194031392730
  0.0403996255850416  0.2080059125423138  0.4002114150842663
  0.0396639642752954  0.3327476593847820  0.3996815063776905
  0.0400776068924682  0.4582057172824507  0.3990457486717633
  0.0413526984976914  0.5839453723127513  0.3989084346054280
  0.0424535163761346  0.7095318025582594  0.3989366538923663
  0.0428117601466871  0.8348767644155600  0.3990823561018060
  0.0426498131153634  0.9598907772410550  0.3994202132763336
  0.1678959247125494  0.0859491208943156  0.4007322556816698
  0.1668169057180101  0.2102004084603720  0.4018712336854923
  0.1641499159397433  0.3334351690593205  0.4017874821585116
  0.1633752181150527  0.4583242533317280  0.3998360610207680
  0.1647613092037495  0.5837505400913737  0.3992226494537441
  0.1664716573335739  0.7092900131018803  0.3992447363973423
  0.1673520944899335  0.8348472139124964  0.3992089783626304
  0.1677679712460361  0.9604583455966919  0.3996453286575015
  0.2928032605358246  0.0862532015549997  0.4007197324862635
  0.2933917691180049  0.2132712365244998  0.4034836547797443
  0.2911092985018136  0.3382468038147745  0.4064173034376303
  0.2861153032368409  0.4577577644156396  0.4038574225292891
  0.2876795263069711  0.5831079602359699  0.4001796297491261
  0.2905024300146684  0.7086298122598612  0.3995088000723248
  0.2917475614166214  0.8342482890528520  0.3994602388958857
  0.2923449360860806  0.9600312641191699  0.3996010883779856
  0.4172098242474515  0.0845304475836460  0.3999441894073062
  0.4178885994575913  0.2108311752004594  0.4016063414478473
  0.4198946747825208  0.3385058427641796  0.4057723453906851
  0.4144728373449655  0.7062688502488846  0.4009105729092037
  0.4160578842348712  0.8324672528037297  0.3999114377504248
  0.4167567108372778  0.9585094202143311  0.3995814743646145
  0.5415705085939387  0.0827105821072545  0.3995264645007033
  0.5422278353324886  0.2085536922353322  0.3999223637553025
  0.5436744204129552  0.3343264115399759  0.4017395308646976
  0.5484933995775624  0.4601889820313319  0.4063208989149333
  0.5381288680758891  0.7013241193121361  0.4048240942248119
  0.5402886279925738  0.8299545416485531  0.4011928999746003
  0.5410648615609633  0.9566172520386249  0.3998746499704945
  0.6659602048767200  0.0818261882566061  0.3995289507926439
  0.6665399410954118  0.2074762573987133  0.3992712711892093
  0.6676766283106194  0.3330797270325349  0.3995959364214247
  0.6703786003884034  0.4588711805890113  0.4008650855825504
  0.6720139673100597  0.5846479626902990  0.4030906111909440
  0.6670920246361807  0.7064670873712730  0.4030733554842439
  0.6646480690452213  0.8300199353331935  0.4016503792286441
  0.6654260953786469  0.9560376482395392  0.4003319181283032
  0.7904970290418100  0.0817232559321358  0.3996024217965041
  0.7908358877637049  0.2071465815446707  0.3990465244997954
  0.7916740754604272  0.3327407295060390  0.3989072600155423
  0.7932571640692557  0.4584484593751050  0.3989592877133226
  0.7945298968215644  0.5841196110425260  0.3995375445659116
  0.7939411395832011  0.7092803366655408  0.4003700181750359
  0.7914521673489352  0.8324971041493189  0.4002129621668207
  0.7903386192005283  0.9565197921842695  0.3999886888718173
  0.9156302554796288  0.0823993853810819  0.3995953418850718
  0.9153051423492631  0.2072458264922038  0.3993836523852012
  0.9155972123533701  0.3326318489607666  0.3989371862663864
  0.9166556532735218  0.4583204075825227  0.3986823183017214
  0.9179020751724787  0.5840502799438290  0.3988090589718503
  0.9182785696091275  0.7094696934184055  0.3991677213859688
  0.9178237252446005  0.8343739292159608  0.3993873237297486
  0.9166011321669387  0.9583217972267040  0.3994727498680072
  0.0843429758480231  0.0435160777349105  0.3999321286151720
  0.0832395170604446  0.1676515880383335  0.4005495858082645
  0.0813693638509332  0.2913504583480737  0.4004755036910636
  0.0808628370547829  0.4162149975780795  0.3994352428397658
  0.0819977389138920  0.5418567971286898  0.3990288206625044
  0.0834364476474589  0.6675677164207144  0.3990262238387241
  0.0842294546227658  0.7931272286180029  0.3990168807948146
  0.0844774991864587  0.9184810064261824  0.3993273664668641
  0.2094838655792429  0.0441709090148964  0.4003945224239820
  0.2096148071160687  0.1698169674998165  0.4021348238083878
  0.2076325076094948  0.2938010094894007  0.4031326415702332
  0.2043018034396887  0.4166184112598837  0.4013975402050481
  0.2050033053745984  0.5414992623318413  0.3996194547766347
  0.2073049087271932  0.6672596659373836  0.3993015541734878
  0.2085777608990865  0.7929057063772527  0.3993103011097478
  0.2091901561846821  0.9185153578336647  0.3994614810279880
  0.3340611673143752  0.0437765645886620  0.4000145795030938
  0.3346011631504719  0.1702685503331627  0.4019827907144469
  0.3354446273794468  0.2977604077635320  0.4060618626161396
  0.3283570208319408  0.5420320810975714  0.4021728884193383
  0.3311818733282952  0.6664456983978581  0.3999641969798474
  0.3329019623266103  0.7920430399661579  0.3996069796784147
  0.3336232891404350  0.9177801809791233  0.3995043796481280
  0.4584775246060759  0.0420643354590062  0.3996295315773494
  0.4590069758117506  0.1681289856082021  0.4003838613343368
  0.4601924147731577  0.2945979355703188  0.4027035663714439
  0.4664775636495018  0.4215061162917473  0.4088814715169334
  0.4533773699375366  0.6614517072876405  0.4032278251363993
  0.4571204966430311  0.7898315176548758  0.4006383394980954
  0.4579451071325366  0.9160455642390642  0.3997530873953918
  0.5828128260523573  0.0403705757742416  0.3995983724753762
  0.5833983509726066  0.1662897961901269  0.3994813561169036
  0.5844282249040751  0.2919783337713820  0.4002295299622437
  0.5878061291573682  0.4176687928374384  0.4027411812149858
  0.5909439482602667  0.5438568815228831  0.4071686259616779
  0.5832989570052823  0.6614980186847640  0.4066220249765513
  0.5806789560560419  0.7863587427984293  0.4026090444812010
  0.5822204384792069  0.9140321738823327  0.4004107202450032
  0.7072613897175838  0.0397946082911582  0.3997990567833208
  0.7077614846437260  0.1654905046565242  0.3992098389868944
  0.7085685797232492  0.2910652749663009  0.3991974884776175
  0.7105111596239762  0.4165923817128795  0.3995549078651771
  0.7122425315006241  0.5421437057369536  0.4008487363017192
  0.7112976343679895  0.6674619109372729  0.4022104202137907
  0.7077614212244723  0.7899032853017673  0.4013984525655127
  0.7066829553041583  0.9140084385479835  0.4005957684462075
  0.8321929695683826  0.0402186089462082  0.3996797440493053
  0.8322034979298859  0.1653692972245680  0.3992723966288893
  0.8326657600925037  0.2907388685166652  0.3988768386398867
  0.8338811603479577  0.4163534796452409  0.3987577752150717
  0.8352295732470277  0.5420798162633028  0.3989558774862612
  0.8355154724709949  0.6676459359750753  0.3996219658477755
  0.8346016493538196  0.7923900441954110  0.3999030800006160
  0.8329932461683611  0.9159731727840432  0.3997978546674333
  0.9581801088089890  0.0417695785509962  0.3995717906126955
  0.9571543401648123  0.1658861449958124  0.3996568909388933
  0.9568475122044884  0.2908384535557413  0.3992763731381954
  0.9573546500160945  0.4162547632947269  0.3988539038288010
  0.9586127508053098  0.5419801556535606  0.3987292488936455
  0.9595505905577613  0.6676604598091551  0.3989293302198347
  0.9596961674763141  0.7930302572973772  0.3991960438417493
  0.9592530929313556  0.9177725272607065  0.3993327235363252
  0.4082770654092100  0.5811483426420121  0.4040237266654106
  0.5490843879705377  0.5817492994018456  0.4111661425297705
  0.3268448617947549  0.4188579241446873  0.4087466271406337
  0.4998989817920633  0.4970155125854178  0.5090739941282916
  0.4288159181215030  0.4797493092142293  0.4862599612413278
 
  0.00000000E+00  0.00000000E+00  0.00000000E+00
  0.00000000E+00  0.00000000E+00  0.00000000E+00
  0.00000000E+00  0.00000000E+00  0.00000000E+00
  0.00000000E+00  0.00000000E+00  0.00000000E+00
  0.00000000E+00  0.00000000E+00  0.00000000E+00
  0.00000000E+00  0.00000000E+00  0.00000000E+00
  0.00000000E+00  0.00000000E+00  0.00000000E+00
  0.00000000E+00  0.00000000E+00  0.00000000E+00
  0.00000000E+00  0.00000000E+00  0.00000000E+00
  0.00000000E+00  0.00000000E+00  0.00000000E+00
  0.00000000E+00  0.00000000E+00  0.00000000E+00
  0.00000000E+00  0.00000000E+00  0.00000000E+00
  0.00000000E+00  0.00000000E+00  0.00000000E+00
  0.00000000E+00  0.00000000E+00  0.00000000E+00
  0.00000000E+00  0.00000000E+00  0.00000000E+00
  0.00000000E+00  0.00000000E+00  0.00000000E+00
  0.00000000E+00  0.00000000E+00  0.00000000E+00
  0.00000000E+00  0.00000000E+00  0.00000000E+00
  0.00000000E+00  0.00000000E+00  0.00000000E+00
  0.00000000E+00  0.00000000E+00  0.00000000E+00
  0.00000000E+00  0.00000000E+00  0.00000000E+00
  0.00000000E+00  0.00000000E+00  0.00000000E+00
  0.00000000E+00  0.00000000E+00  0.00000000E+00
  0.00000000E+00  0.00000000E+00  0.00000000E+00
  0.00000000E+00  0.00000000E+00  0.00000000E+00
  0.00000000E+00  0.00000000E+00  0.00000000E+00
  0.00000000E+00  0.00000000E+00  0.00000000E+00
  0.00000000E+00  0.00000000E+00  0.00000000E+00
  0.00000000E+00  0.00000000E+00  0.00000000E+00
  0.00000000E+00  0.00000000E+00  0.00000000E+00
  0.00000000E+00  0.00000000E+00  0.00000000E+00
  0.00000000E+00  0.00000000E+00  0.00000000E+00
  0.00000000E+00  0.00000000E+00  0.00000000E+00
  0.00000000E+00  0.00000000E+00  0.00000000E+00
  0.00000000E+00  0.00000000E+00  0.00000000E+00
  0.00000000E+00  0.00000000E+00  0.00000000E+00
  0.00000000E+00  0.00000000E+00  0.00000000E+00
  0.00000000E+00  0.00000000E+00  0.00000000E+00
  0.00000000E+00  0.00000000E+00  0.00000000E+00
  0.00000000E+00  0.00000000E+00  0.00000000E+00
  0.00000000E+00  0.00000000E+00  0.00000000E+00
  0.00000000E+00  0.00000000E+00  0.00000000E+00
  0.00000000E+00  0.00000000E+00  0.00000000E+00
  0.00000000E+00  0.00000000E+00  0.00000000E+00
  0.00000000E+00  0.00000000E+00  0.00000000E+00
  0.00000000E+00  0.00000000E+00  0.00000000E+00
  0.00000000E+00  0.00000000E+00  0.00000000E+00
  0.00000000E+00  0.00000000E+00  0.00000000E+00
  0.00000000E+00  0.00000000E+00  0.00000000E+00
  0.00000000E+00  0.00000000E+00  0.00000000E+00
  0.00000000E+00  0.00000000E+00  0.00000000E+00
  0.00000000E+00  0.00000000E+00  0.00000000E+00
  0.00000000E+00  0.00000000E+00  0.00000000E+00
  0.00000000E+00  0.00000000E+00  0.00000000E+00
  0.00000000E+00  0.00000000E+00  0.00000000E+00
  0.00000000E+00  0.00000000E+00  0.00000000E+00
  0.00000000E+00  0.00000000E+00  0.00000000E+00
  0.00000000E+00  0.00000000E+00  0.00000000E+00
  0.00000000E+00  0.00000000E+00  0.00000000E+00
  0.00000000E+00  0.00000000E+00  0.00000000E+00
  0.00000000E+00  0.00000000E+00  0.00000000E+00
  0.00000000E+00  0.00000000E+00  0.00000000E+00
  0.00000000E+00  0.00000000E+00  0.00000000E+00
  0.00000000E+00  0.00000000E+00  0.00000000E+00
  0.00000000E+00  0.00000000E+00  0.00000000E+00
  0.00000000E+00  0.00000000E+00  0.00000000E+00
  0.00000000E+00  0.00000000E+00  0.00000000E+00
  0.00000000E+00  0.00000000E+00  0.00000000E+00
  0.00000000E+00  0.00000000E+00  0.00000000E+00
  0.00000000E+00  0.00000000E+00  0.00000000E+00
  0.00000000E+00  0.00000000E+00  0.00000000E+00
  0.00000000E+00  0.00000000E+00  0.00000000E+00
  0.00000000E+00  0.00000000E+00  0.00000000E+00
  0.00000000E+00  0.00000000E+00  0.00000000E+00
  0.00000000E+00  0.00000000E+00  0.00000000E+00
  0.00000000E+00  0.00000000E+00  0.00000000E+00
  0.00000000E+00  0.00000000E+00  0.00000000E+00
  0.00000000E+00  0.00000000E+00  0.00000000E+00
  0.00000000E+00  0.00000000E+00  0.00000000E+00
  0.00000000E+00  0.00000000E+00  0.00000000E+00
  0.00000000E+00  0.00000000E+00  0.00000000E+00
  0.00000000E+00  0.00000000E+00  0.00000000E+00
  0.00000000E+00  0.00000000E+00  0.00000000E+00
  0.00000000E+00  0.00000000E+00  0.00000000E+00
  0.00000000E+00  0.00000000E+00  0.00000000E+00
  0.00000000E+00  0.00000000E+00  0.00000000E+00
  0.00000000E+00  0.00000000E+00  0.00000000E+00
  0.00000000E+00  0.00000000E+00  0.00000000E+00
  0.00000000E+00  0.00000000E+00  0.00000000E+00
  0.00000000E+00  0.00000000E+00  0.00000000E+00
  0.00000000E+00  0.00000000E+00  0.00000000E+00
  0.00000000E+00  0.00000000E+00  0.00000000E+00
  0.00000000E+00  0.00000000E+00  0.00000000E+00
  0.00000000E+00  0.00000000E+00  0.00000000E+00
  0.00000000E+00  0.00000000E+00  0.00000000E+00
  0.00000000E+00  0.00000000E+00  0.00000000E+00
  0.00000000E+00  0.00000000E+00  0.00000000E+00
  0.00000000E+00  0.00000000E+00  0.00000000E+00
  0.00000000E+00  0.00000000E+00  0.00000000E+00
  0.00000000E+00  0.00000000E+00  0.00000000E+00
  0.00000000E+00  0.00000000E+00  0.00000000E+00
  0.00000000E+00  0.00000000E+00  0.00000000E+00
  0.00000000E+00  0.00000000E+00  0.00000000E+00
  0.00000000E+00  0.00000000E+00  0.00000000E+00
  0.00000000E+00  0.00000000E+00  0.00000000E+00
  0.00000000E+00  0.00000000E+00  0.00000000E+00
  0.00000000E+00  0.00000000E+00  0.00000000E+00
  0.00000000E+00  0.00000000E+00  0.00000000E+00
  0.00000000E+00  0.00000000E+00  0.00000000E+00
  0.00000000E+00  0.00000000E+00  0.00000000E+00
  0.00000000E+00  0.00000000E+00  0.00000000E+00
  0.00000000E+00  0.00000000E+00  0.00000000E+00
  0.00000000E+00  0.00000000E+00  0.00000000E+00
  0.00000000E+00  0.00000000E+00  0.00000000E+00
  0.00000000E+00  0.00000000E+00  0.00000000E+00
  0.00000000E+00  0.00000000E+00  0.00000000E+00
  0.00000000E+00  0.00000000E+00  0.00000000E+00
  0.00000000E+00  0.00000000E+00  0.00000000E+00
  0.00000000E+00  0.00000000E+00  0.00000000E+00
  0.00000000E+00  0.00000000E+00  0.00000000E+00
  0.00000000E+00  0.00000000E+00  0.00000000E+00
  0.00000000E+00  0.00000000E+00  0.00000000E+00
  0.00000000E+00  0.00000000E+00  0.00000000E+00
  0.00000000E+00  0.00000000E+00  0.00000000E+00
  0.00000000E+00  0.00000000E+00  0.00000000E+00
  0.00000000E+00  0.00000000E+00  0.00000000E+00
  0.00000000E+00  0.00000000E+00  0.00000000E+00
  0.00000000E+00  0.00000000E+00  0.00000000E+00
  0.00000000E+00  0.00000000E+00  0.00000000E+00
  0.00000000E+00  0.00000000E+00  0.00000000E+00
