H1 Rh1 C122 N4 O1                       
   1.00000000000000     
    19.8372759918045247   -0.0000889994079710   -0.0589297749555005
    -9.9186457855118526   17.0185736307349487   -0.0077072365032717
    -0.0883418202139994   -0.0649566617502041   29.8060169616957538
   H    Rh   C    N    O 
     1     1   122     4     1
Direct
  0.4743992123023657  0.5486103116204812  0.4880944260881305
  0.4376569732972063  0.4999525995944070  0.4112097232610493
  0.0421699021821092  0.0843363589604217  0.3999396459457703
  0.0408034603078188  0.2081187921073498  0.4002289546532329
  0.0398046262517062  0.3327594860701665  0.3999947163307618
  0.0399627308928312  0.4582009914588767  0.3991955071526854
  0.0411935012986429  0.5839340235565879  0.3987240811551289
  0.0423396657486483  0.7095659054767087  0.3989840727945093
  0.0427673660421764  0.8348964699410081  0.3992729898239636
  0.0428533185600147  0.9600528368032752  0.3994738905295695
  0.1685749611502582  0.0864574539610611  0.4008989316577892
  0.1675678148403950  0.2106719051783287  0.4020889894065088
  0.1644434822315179  0.3336076340092174  0.4026264917636986
  0.1630866390550488  0.4584733870921632  0.4019898308232535
  0.1645218288942391  0.5838475545388613  0.4002107748295063
  0.1663098045882936  0.7093128839412675  0.3992103641639844
  0.1672532150052999  0.8348919043998387  0.3992507467159347
  0.1678905802013249  0.9606074540011875  0.3997926966015377
  0.2930642203753887  0.0864508516433395  0.4008844823502978
  0.2947057718551080  0.2142278929245661  0.4032285168603082
  0.2922984424865557  0.3393089342655211  0.4050967329686624
  0.2855968564669448  0.4580345937494584  0.4057500907647897
  0.2873057799797766  0.5833082256080998  0.4037678626446435
  0.2902569059752385  0.7086315536213296  0.4008345086012659
  0.2916286998028034  0.8341977713268183  0.3993857232254272
  0.2923783930233723  0.9600554428251082  0.3994949584621764
  0.4173491128090384  0.0843502309475256  0.4000002783396451
  0.4182627012266424  0.2106908272553192  0.4020640095967826
  0.4221577055922976  0.3393320785072347  0.4048267059196647
  0.4141475934287406  0.7058343399310315  0.4034728045590854
  0.4159345860833549  0.8321579606502404  0.4006615367094818
  0.4167145762850885  0.9582652472037777  0.3993664142267207
  0.5416400558014843  0.0823475846646259  0.3993369509920549
  0.5424519349315752  0.2081358389949202  0.4002834362221355
  0.5442581170240540  0.3336016166230018  0.4023938540511356
  0.5475278736057648  0.4580237204177455  0.4050515582637108
  0.5379641537925524  0.7007572220059656  0.4052192493170870
  0.5402066020573548  0.8295814714828902  0.4022062469649121
  0.5410282392959163  0.9562479007582864  0.3999917489772905
  0.6660196160409686  0.0814947728253207  0.3994992417782219
  0.6667095464994257  0.2071455634664056  0.3993078659260064
  0.6680300488449510  0.3327687100358399  0.3999751155962268
  0.6704462919486022  0.4584611998747242  0.4017422227850337
  0.6711101541033850  0.5832979003864339  0.4034062016498453
  0.6668258769801125  0.7058365354879095  0.4033702668267959
  0.6645478416484298  0.8295880851110518  0.4021836887203785
  0.6654368392054295  0.9556952147935971  0.4004959150038061
  0.7906251670522808  0.0814793028194283  0.3994972811393760
  0.7910090149051824  0.2069130276785105  0.3992284131631876
  0.7918626485780614  0.3325007042479332  0.3989605105599525
  0.7932635837281317  0.4581946763629202  0.3992071464401292
  0.7943795744905512  0.5838430265455018  0.4001452494198445
  0.7934774822834435  0.7086280589833035  0.4008311051773850
  0.7913662385467036  0.8321423242697579  0.4007070696819824
  0.7903790810622324  0.9562385960239771  0.4000049389341425
  0.9158647657399013  0.0823309032275735  0.3993052707415184
  0.9155349517479376  0.2071285646484582  0.3992451621268685
  0.9157181172566774  0.3325017034333844  0.3988929745570685
  0.9166319718408974  0.4582154412957107  0.3985208816867963
  0.9177868514432603  0.5839345149972556  0.3987500555493929
  0.9180994451341289  0.7093046137552060  0.3992607481133403
  0.9176981317714816  0.8341862258714128  0.3994259028469141
  0.9167176888101354  0.9582514685030697  0.3993619520161888
  0.0848309215397897  0.0438437434350497  0.4000481996503834
  0.0838165706111414  0.1679303573906372  0.4007180569377565
  0.0816649567636315  0.2914543324158600  0.4008504905133330
  0.0807165027958516  0.4162454516005818  0.4002342834374296
  0.0818118094196518  0.5418830621956721  0.3991911576340675
  0.0832674070696577  0.6675784209974980  0.3989059167963082
  0.0841405603174535  0.7931572949826835  0.3992200436645039
  0.0845751069506362  0.9185890847656923  0.3994969417725152
  0.2097968732560736  0.0444091452272932  0.4005363991727338
  0.2106947555610941  0.1705597522623562  0.4021758952068321
  0.2083834524228003  0.2942935170170413  0.4033075652771245
  0.2040414658896030  0.4168118017752295  0.4036331257755335
  0.2046829841502065  0.5416398954225891  0.4019968207750219
  0.2070920061611783  0.6673197159023198  0.3999639909307260
  0.2084472965703645  0.7929394958449348  0.3992127325513004
  0.2091860094176811  0.9185869860010427  0.3994903306260921
  0.3341877549952750  0.0438367117815078  0.4000742645282233
  0.3350329384392672  0.1705515367091853  0.4021267398302573
  0.3373008230160937  0.2994405159892963  0.4048642479412606
  0.3276092650394928  0.5420669642160101  0.4059706938744468
  0.3308933345331453  0.6665042953660102  0.4027393619882354
  0.3327330682271883  0.7919552544612668  0.4001666458649829
  0.3335694139592255  0.9177271018885975  0.3992958005706215
  0.4585093722936959  0.0418169749043974  0.3994195851778006
  0.4592729481170651  0.1679540203718439  0.4007745767621478
  0.4610319538635409  0.2943126176095310  0.4031342369398145
  0.4530626911633162  0.6608416308580967  0.4054873976356227
  0.4569532569208627  0.7894317333419471  0.4021122241312701
  0.4578748603146241  0.9157365995064635  0.3998737849063907
  0.5828383194749310  0.0400218076435762  0.3994682670678346
  0.5835520227668688  0.1658918817542886  0.3994944725437263
  0.5848871567259228  0.2914614808610128  0.4007955485033700
  0.5878490304234318  0.4167994690869625  0.4032084821874272
  0.5895877683632708  0.5420270618661434  0.4053461310191942
  0.5829526592485774  0.6608673767783809  0.4053085188731025
  0.5805690933770898  0.7859560477658457  0.4033821972572180
  0.5821710455242176  0.9136559245794427  0.4008573970897239
  0.7073256111021760  0.0394828832083485  0.3997775585989560
  0.7079017591097370  0.1651802111497676  0.3992940129565263
  0.7088312954605820  0.2907814209593378  0.3993060666552845
  0.7105783999736819  0.4162465435435986  0.4001568142575251
  0.7120418462623398  0.5416302758395213  0.4017630515890503
  0.7107286276361606  0.6664976165777219  0.4025964347583444
  0.7076369977018027  0.7894365881251560  0.4021069397079099
  0.7066612762007163  0.9136651322480960  0.4008371392790557
  0.8323550873456681  0.0400132001499417  0.3994720661216608
  0.8323917838805559  0.1651769765193634  0.3992709621683044
  0.8328056703514612  0.2905111279669508  0.3989733898399380
  0.8338938229527660  0.4161521338535705  0.3987498522052883
  0.8351126817218308  0.5418802657430608  0.3991987382528541
  0.8353121461357024  0.6673089001318596  0.3999592719596887
  0.8343565883880030  0.7919457131178964  0.4002334079444472
  0.8330354983543050  0.9157337438931558  0.3999106445927028
  0.9584817467423417  0.0418049677256097  0.3993747069307563
  0.9574579840547822  0.1658706562249120  0.3994354661192632
  0.9570271972317614  0.2907626888055480  0.3992333735838653
  0.9572939651290788  0.4161487344232617  0.3987081578928282
  0.9584596159804082  0.5418746695871626  0.3985370365698052
  0.9594084977270279  0.6675779401549530  0.3989490937017651
  0.9596109242581722  0.7929281198574283  0.3992604305930281
  0.9593293736142626  0.9177256263855972  0.3992863886189175
  0.4076181608601652  0.5804869044578856  0.4066329280559203
  0.5480480467467778  0.5804846464784065  0.4062015824803903
  0.3270893253496138  0.4195839825785733  0.4060641748061155
  0.4676078701646209  0.4196142247647187  0.4053656680764225
  0.4370514094683134  0.4954166481895831  0.4778944321143530
 
  0.00000000E+00  0.00000000E+00  0.00000000E+00
  0.00000000E+00  0.00000000E+00  0.00000000E+00
  0.00000000E+00  0.00000000E+00  0.00000000E+00
  0.00000000E+00  0.00000000E+00  0.00000000E+00
  0.00000000E+00  0.00000000E+00  0.00000000E+00
  0.00000000E+00  0.00000000E+00  0.00000000E+00
  0.00000000E+00  0.00000000E+00  0.00000000E+00
  0.00000000E+00  0.00000000E+00  0.00000000E+00
  0.00000000E+00  0.00000000E+00  0.00000000E+00
  0.00000000E+00  0.00000000E+00  0.00000000E+00
  0.00000000E+00  0.00000000E+00  0.00000000E+00
  0.00000000E+00  0.00000000E+00  0.00000000E+00
  0.00000000E+00  0.00000000E+00  0.00000000E+00
  0.00000000E+00  0.00000000E+00  0.00000000E+00
  0.00000000E+00  0.00000000E+00  0.00000000E+00
  0.00000000E+00  0.00000000E+00  0.00000000E+00
  0.00000000E+00  0.00000000E+00  0.00000000E+00
  0.00000000E+00  0.00000000E+00  0.00000000E+00
  0.00000000E+00  0.00000000E+00  0.00000000E+00
  0.00000000E+00  0.00000000E+00  0.00000000E+00
  0.00000000E+00  0.00000000E+00  0.00000000E+00
  0.00000000E+00  0.00000000E+00  0.00000000E+00
  0.00000000E+00  0.00000000E+00  0.00000000E+00
  0.00000000E+00  0.00000000E+00  0.00000000E+00
  0.00000000E+00  0.00000000E+00  0.00000000E+00
  0.00000000E+00  0.00000000E+00  0.00000000E+00
  0.00000000E+00  0.00000000E+00  0.00000000E+00
  0.00000000E+00  0.00000000E+00  0.00000000E+00
  0.00000000E+00  0.00000000E+00  0.00000000E+00
  0.00000000E+00  0.00000000E+00  0.00000000E+00
  0.00000000E+00  0.00000000E+00  0.00000000E+00
  0.00000000E+00  0.00000000E+00  0.00000000E+00
  0.00000000E+00  0.00000000E+00  0.00000000E+00
  0.00000000E+00  0.00000000E+00  0.00000000E+00
  0.00000000E+00  0.00000000E+00  0.00000000E+00
  0.00000000E+00  0.00000000E+00  0.00000000E+00
  0.00000000E+00  0.00000000E+00  0.00000000E+00
  0.00000000E+00  0.00000000E+00  0.00000000E+00
  0.00000000E+00  0.00000000E+00  0.00000000E+00
  0.00000000E+00  0.00000000E+00  0.00000000E+00
  0.00000000E+00  0.00000000E+00  0.00000000E+00
  0.00000000E+00  0.00000000E+00  0.00000000E+00
  0.00000000E+00  0.00000000E+00  0.00000000E+00
  0.00000000E+00  0.00000000E+00  0.00000000E+00
  0.00000000E+00  0.00000000E+00  0.00000000E+00
  0.00000000E+00  0.00000000E+00  0.00000000E+00
  0.00000000E+00  0.00000000E+00  0.00000000E+00
  0.00000000E+00  0.00000000E+00  0.00000000E+00
  0.00000000E+00  0.00000000E+00  0.00000000E+00
  0.00000000E+00  0.00000000E+00  0.00000000E+00
  0.00000000E+00  0.00000000E+00  0.00000000E+00
  0.00000000E+00  0.00000000E+00  0.00000000E+00
  0.00000000E+00  0.00000000E+00  0.00000000E+00
  0.00000000E+00  0.00000000E+00  0.00000000E+00
  0.00000000E+00  0.00000000E+00  0.00000000E+00
  0.00000000E+00  0.00000000E+00  0.00000000E+00
  0.00000000E+00  0.00000000E+00  0.00000000E+00
  0.00000000E+00  0.00000000E+00  0.00000000E+00
  0.00000000E+00  0.00000000E+00  0.00000000E+00
  0.00000000E+00  0.00000000E+00  0.00000000E+00
  0.00000000E+00  0.00000000E+00  0.00000000E+00
  0.00000000E+00  0.00000000E+00  0.00000000E+00
  0.00000000E+00  0.00000000E+00  0.00000000E+00
  0.00000000E+00  0.00000000E+00  0.00000000E+00
  0.00000000E+00  0.00000000E+00  0.00000000E+00
  0.00000000E+00  0.00000000E+00  0.00000000E+00
  0.00000000E+00  0.00000000E+00  0.00000000E+00
  0.00000000E+00  0.00000000E+00  0.00000000E+00
  0.00000000E+00  0.00000000E+00  0.00000000E+00
  0.00000000E+00  0.00000000E+00  0.00000000E+00
  0.00000000E+00  0.00000000E+00  0.00000000E+00
  0.00000000E+00  0.00000000E+00  0.00000000E+00
  0.00000000E+00  0.00000000E+00  0.00000000E+00
  0.00000000E+00  0.00000000E+00  0.00000000E+00
  0.00000000E+00  0.00000000E+00  0.00000000E+00
  0.00000000E+00  0.00000000E+00  0.00000000E+00
  0.00000000E+00  0.00000000E+00  0.00000000E+00
  0.00000000E+00  0.00000000E+00  0.00000000E+00
  0.00000000E+00  0.00000000E+00  0.00000000E+00
  0.00000000E+00  0.00000000E+00  0.00000000E+00
  0.00000000E+00  0.00000000E+00  0.00000000E+00
  0.00000000E+00  0.00000000E+00  0.00000000E+00
  0.00000000E+00  0.00000000E+00  0.00000000E+00
  0.00000000E+00  0.00000000E+00  0.00000000E+00
  0.00000000E+00  0.00000000E+00  0.00000000E+00
  0.00000000E+00  0.00000000E+00  0.00000000E+00
  0.00000000E+00  0.00000000E+00  0.00000000E+00
  0.00000000E+00  0.00000000E+00  0.00000000E+00
  0.00000000E+00  0.00000000E+00  0.00000000E+00
  0.00000000E+00  0.00000000E+00  0.00000000E+00
  0.00000000E+00  0.00000000E+00  0.00000000E+00
  0.00000000E+00  0.00000000E+00  0.00000000E+00
  0.00000000E+00  0.00000000E+00  0.00000000E+00
  0.00000000E+00  0.00000000E+00  0.00000000E+00
  0.00000000E+00  0.00000000E+00  0.00000000E+00
  0.00000000E+00  0.00000000E+00  0.00000000E+00
  0.00000000E+00  0.00000000E+00  0.00000000E+00
  0.00000000E+00  0.00000000E+00  0.00000000E+00
  0.00000000E+00  0.00000000E+00  0.00000000E+00
  0.00000000E+00  0.00000000E+00  0.00000000E+00
  0.00000000E+00  0.00000000E+00  0.00000000E+00
  0.00000000E+00  0.00000000E+00  0.00000000E+00
  0.00000000E+00  0.00000000E+00  0.00000000E+00
  0.00000000E+00  0.00000000E+00  0.00000000E+00
  0.00000000E+00  0.00000000E+00  0.00000000E+00
  0.00000000E+00  0.00000000E+00  0.00000000E+00
  0.00000000E+00  0.00000000E+00  0.00000000E+00
  0.00000000E+00  0.00000000E+00  0.00000000E+00
  0.00000000E+00  0.00000000E+00  0.00000000E+00
  0.00000000E+00  0.00000000E+00  0.00000000E+00
  0.00000000E+00  0.00000000E+00  0.00000000E+00
  0.00000000E+00  0.00000000E+00  0.00000000E+00
  0.00000000E+00  0.00000000E+00  0.00000000E+00
  0.00000000E+00  0.00000000E+00  0.00000000E+00
  0.00000000E+00  0.00000000E+00  0.00000000E+00
  0.00000000E+00  0.00000000E+00  0.00000000E+00
  0.00000000E+00  0.00000000E+00  0.00000000E+00
  0.00000000E+00  0.00000000E+00  0.00000000E+00
  0.00000000E+00  0.00000000E+00  0.00000000E+00
  0.00000000E+00  0.00000000E+00  0.00000000E+00
  0.00000000E+00  0.00000000E+00  0.00000000E+00
  0.00000000E+00  0.00000000E+00  0.00000000E+00
  0.00000000E+00  0.00000000E+00  0.00000000E+00
  0.00000000E+00  0.00000000E+00  0.00000000E+00
  0.00000000E+00  0.00000000E+00  0.00000000E+00
  0.00000000E+00  0.00000000E+00  0.00000000E+00
  0.00000000E+00  0.00000000E+00  0.00000000E+00
  0.00000000E+00  0.00000000E+00  0.00000000E+00
  0.00000000E+00  0.00000000E+00  0.00000000E+00
