Hf1 H1 C126                             
   1.00000000000000     
    19.8267436275366364   -0.0000945402460721   -0.0443120633322629
    -9.9135708271593970   17.0801227309766190   -0.1432488432530305
    -0.0663837356710847   -0.2873377064958756   29.7169170879297333
   Hf   H    C 
     1     1   126
Direct
  0.4399640379787284  0.5012225175943071  0.4424785898756951
  0.4441784591714941  0.5007003312429735  0.5063799763225465
  0.0417403727145068  0.0838325366359993  0.3995504638912872
  0.0407413839294596  0.2079959117719017  0.3990644654799416
  0.0403224462634705  0.3328700243079498  0.3984422471441970
  0.0404989712758968  0.4584008925204542  0.3983931271586921
  0.0414196242961757  0.5838798102794877  0.3992127685724580
  0.0421911292464269  0.7092354960259563  0.3999605627260651
  0.0424800381618570  0.8345002097072768  0.3999915590455734
  0.0424287132050096  0.9594313557177135  0.3997146714849870
  0.1674530942317729  0.0849712932155305  0.3999557262380113
  0.1665416292100071  0.2091637129163915  0.4001622544374200
  0.1649176677156347  0.3331526473179521  0.3999185113797340
  0.1640011255201814  0.4583136350683197  0.3984604380499813
  0.1651599554838635  0.5837418091520018  0.3980362892104540
  0.1664989840634503  0.7092001846603118  0.3989694004105308
  0.1671384460860807  0.8345153835408847  0.3997311201874146
  0.1674656042807155  0.9598415760925723  0.3997974610769928
  0.2925668336350525  0.0850132006559254  0.3998780332740730
  0.2931123909835095  0.2112224119681273  0.4016176557121288
  0.2912672198976116  0.3357935845601772  0.4047433079780314
  0.2869161976054790  0.4576481969322536  0.4043403914403077
  0.2887311850475968  0.5840232646572461  0.3998893412082908
  0.2908572017050456  0.7090199929544745  0.3984604677634064
  0.2916593792526261  0.8341219623221752  0.3990100454902942
  0.2921077877198128  0.9594649396361095  0.3995300779206041
  0.4171650550021835  0.0838689625086747  0.3995073303484487
  0.4176486097655321  0.2091881641592370  0.3998561294260354
  0.4195153643340379  0.3358074341508805  0.4034894247249246
  0.4112359905584923  0.5828457362412599  0.4092881316205821
  0.4154739309511334  0.7077388292255242  0.4002612106935434
  0.4162730202262923  0.8332153955052023  0.3988471140280959
  0.4167253753538754  0.9585142628531516  0.3993144322785623
  0.5417759669417039  0.0828712809124077  0.3995772563030907
  0.5422982658423838  0.2080404896294437  0.3990774252619376
  0.5432479850257822  0.3331505494487980  0.3990803677253920
  0.5457016646227703  0.4575900670885271  0.4018786401542197
  0.5464541814686704  0.5825088139427690  0.4065325153853992
  0.5405869879988634  0.7061130946223066  0.4032807069257609
  0.5407906622513958  0.8318674973878564  0.3997675816320359
  0.5413711998553480  0.9574697334846011  0.3993846022164926
  0.6663452412614491  0.0824055287342466  0.3999170953889728
  0.6668427440155826  0.2077129348481387  0.3996364369224089
  0.6676038506777163  0.3329156170963842  0.3987351160561432
  0.6693866790905211  0.4583203048860041  0.3979876440088841
  0.6703913181790829  0.5840050049052301  0.3986820048270360
  0.6673170957337503  0.7077059930535344  0.3995024902565940
  0.6660994911308847  0.8318352199054408  0.3996700682438042
  0.6660891833196619  0.9571212187880710  0.3996156387584373
  0.7911079399703833  0.0823784990296607  0.3998368829706337
  0.7913234807567726  0.2075886235534599  0.3999187996910488
  0.7919214260137344  0.3329625420256583  0.3996713368702878
  0.7929906546129153  0.4584398237392639  0.3990815165324599
  0.7936690120049725  0.5837454706136986  0.3982812675334401
  0.7932404192994117  0.7090021453917060  0.3983528255298124
  0.7920128630817660  0.8331956461810073  0.3989189831921101
  0.7911397311391188  0.9574456763160728  0.3994407532263692
  0.9161495338675240  0.0828317654692984  0.3995255281079518
  0.9158855530198003  0.2076807778108681  0.3992762489440302
  0.9161006562806153  0.3329433652683583  0.3991985904976542
  0.9167343334545898  0.4583644968536801  0.3995837812416534
  0.9175807526634494  0.5839019925088295  0.3996793981801072
  0.9177998566856810  0.7092071979630695  0.3994213384797871
  0.9175457724555234  0.8340973096998984  0.3992999001165860
  0.9168560510224454  0.9584759404797802  0.3994669049020585
  0.0840350657016712  0.0428459150276008  0.3996891514882371
  0.0831263427342091  0.1670568155087268  0.3994408380795486
  0.0818769992658460  0.2912326866175330  0.3988541453097169
  0.0814969110246625  0.4165045626887808  0.3980992503260492
  0.0822659717234786  0.5419067360452210  0.3984335913442406
  0.0833791947708374  0.6674361270478107  0.3994351124247091
  0.0839762624976959  0.7928190291829009  0.4000271693869257
  0.0841374976800070  0.9179686089357190  0.3998741591449640
  0.2091402730149123  0.0432285650685229  0.3998664770559294
  0.2090661077547990  0.1684819783732767  0.4006230416660878
  0.2077950448745365  0.2925657534328456  0.4010586472049691
  0.2047884464255234  0.4162699431586555  0.4001972939112923
  0.2058494476483476  0.5419243336910775  0.3983577719432555
  0.2076564664985692  0.6674127955614002  0.3983423411872535
  0.2084282561846159  0.7926642965846545  0.3992665906350154
  0.2089418616939865  0.9179909777650511  0.3996916119265425
  0.3338797024454127  0.0428885653713202  0.3996077702531475
  0.3344472342740780  0.1685152669959935  0.4004397910185229
  0.3347239076799494  0.2944522518642653  0.4041260302475185
  0.3287641806433640  0.4180960304114761  0.4094841655210634
  0.3296346972944036  0.5429288563627274  0.4041857744781406
  0.3319984399357693  0.6671318183517289  0.3993616987258681
  0.3329574319324966  0.7922789267084250  0.3986584036609459
  0.3335085627218010  0.9174864643595482  0.3992970330536390
  0.4585601719110093  0.0418398109968259  0.3994872729551152
  0.4589842079961326  0.1670864302389221  0.3993538903226029
  0.4597821014481028  0.2925646475314088  0.4002031675874603
  0.4643762618076698  0.4182345386602944  0.4067349547037288
  0.4558334179083605  0.6647509739354982  0.4040695796703000
  0.4575853797071489  0.7911173676341745  0.3993220283070010
  0.4580933409866096  0.9164688501226033  0.3991424258319929
  0.5831696927824973  0.0409062328374306  0.3996698886693590
  0.5836093002387432  0.1662160181038535  0.3994190050493635
  0.5843961075877594  0.2912424013459488  0.3986998811683509
  0.5865413023238911  0.4162257872059844  0.3989604476046452
  0.5882607805266058  0.5428058882779071  0.4017111184893044
  0.5839162058222761  0.6646736160032343  0.4028478108951271
  0.5821029681871863  0.7891727293704621  0.4006727280902448
  0.5826666927514439  0.9153602679522128  0.3994703840500757
  0.7077868941612733  0.0405251631140348  0.3998542436098055
  0.7081444974866823  0.1658836213992923  0.3999689712880828
  0.7087709202154694  0.2911396942097487  0.3993965221834547
  0.7100951396019480  0.4165402800848805  0.3984029819127358
  0.7111782796441205  0.5419116051920724  0.3978822836523194
  0.7101981491491907  0.6670968095906121  0.3986050797938485
  0.7085863331836808  0.7911045749907932  0.3991553133238812
  0.7077186763437200  0.9153308071435876  0.3994661946538713
  0.8327878302856426  0.0408786602642590  0.3996451866821451
  0.8327603990306544  0.1658594652813079  0.3997643345927885
  0.8331115793460742  0.2911591387038971  0.3997027117518629
  0.8338698949832534  0.4164915194053377  0.3996270136394259
  0.8347373359160960  0.5419230545986961  0.3990670988062201
  0.8348394523997962  0.6674030360930731  0.3985814320041710
  0.8343999420340126  0.7922607149418898  0.3987673907821178
  0.8334364267454903  0.9164485570544224  0.3992932297882715
  0.9583397422512531  0.0417990836453014  0.3995310446885194
  0.9576215536525663  0.1661723792358783  0.3992229407775071
  0.9573870923401702  0.2910997214962603  0.3988637301649538
  0.9576859253944950  0.4164815318973484  0.3990750378231429
  0.9585814356723571  0.5420479584677960  0.3996427275978281
  0.9591859532129926  0.6674478617461790  0.3998207313477813
  0.9593334207244330  0.7926463784244761  0.3996413863218336
  0.9590561092009399  0.9174572299503878  0.3995225967432328
 
  0.00000000E+00  0.00000000E+00  0.00000000E+00
  0.00000000E+00  0.00000000E+00  0.00000000E+00
  0.00000000E+00  0.00000000E+00  0.00000000E+00
  0.00000000E+00  0.00000000E+00  0.00000000E+00
  0.00000000E+00  0.00000000E+00  0.00000000E+00
  0.00000000E+00  0.00000000E+00  0.00000000E+00
  0.00000000E+00  0.00000000E+00  0.00000000E+00
  0.00000000E+00  0.00000000E+00  0.00000000E+00
  0.00000000E+00  0.00000000E+00  0.00000000E+00
  0.00000000E+00  0.00000000E+00  0.00000000E+00
  0.00000000E+00  0.00000000E+00  0.00000000E+00
  0.00000000E+00  0.00000000E+00  0.00000000E+00
  0.00000000E+00  0.00000000E+00  0.00000000E+00
  0.00000000E+00  0.00000000E+00  0.00000000E+00
  0.00000000E+00  0.00000000E+00  0.00000000E+00
  0.00000000E+00  0.00000000E+00  0.00000000E+00
  0.00000000E+00  0.00000000E+00  0.00000000E+00
  0.00000000E+00  0.00000000E+00  0.00000000E+00
  0.00000000E+00  0.00000000E+00  0.00000000E+00
  0.00000000E+00  0.00000000E+00  0.00000000E+00
  0.00000000E+00  0.00000000E+00  0.00000000E+00
  0.00000000E+00  0.00000000E+00  0.00000000E+00
  0.00000000E+00  0.00000000E+00  0.00000000E+00
  0.00000000E+00  0.00000000E+00  0.00000000E+00
  0.00000000E+00  0.00000000E+00  0.00000000E+00
  0.00000000E+00  0.00000000E+00  0.00000000E+00
  0.00000000E+00  0.00000000E+00  0.00000000E+00
  0.00000000E+00  0.00000000E+00  0.00000000E+00
  0.00000000E+00  0.00000000E+00  0.00000000E+00
  0.00000000E+00  0.00000000E+00  0.00000000E+00
  0.00000000E+00  0.00000000E+00  0.00000000E+00
  0.00000000E+00  0.00000000E+00  0.00000000E+00
  0.00000000E+00  0.00000000E+00  0.00000000E+00
  0.00000000E+00  0.00000000E+00  0.00000000E+00
  0.00000000E+00  0.00000000E+00  0.00000000E+00
  0.00000000E+00  0.00000000E+00  0.00000000E+00
  0.00000000E+00  0.00000000E+00  0.00000000E+00
  0.00000000E+00  0.00000000E+00  0.00000000E+00
  0.00000000E+00  0.00000000E+00  0.00000000E+00
  0.00000000E+00  0.00000000E+00  0.00000000E+00
  0.00000000E+00  0.00000000E+00  0.00000000E+00
  0.00000000E+00  0.00000000E+00  0.00000000E+00
  0.00000000E+00  0.00000000E+00  0.00000000E+00
  0.00000000E+00  0.00000000E+00  0.00000000E+00
  0.00000000E+00  0.00000000E+00  0.00000000E+00
  0.00000000E+00  0.00000000E+00  0.00000000E+00
  0.00000000E+00  0.00000000E+00  0.00000000E+00
  0.00000000E+00  0.00000000E+00  0.00000000E+00
  0.00000000E+00  0.00000000E+00  0.00000000E+00
  0.00000000E+00  0.00000000E+00  0.00000000E+00
  0.00000000E+00  0.00000000E+00  0.00000000E+00
  0.00000000E+00  0.00000000E+00  0.00000000E+00
  0.00000000E+00  0.00000000E+00  0.00000000E+00
  0.00000000E+00  0.00000000E+00  0.00000000E+00
  0.00000000E+00  0.00000000E+00  0.00000000E+00
  0.00000000E+00  0.00000000E+00  0.00000000E+00
  0.00000000E+00  0.00000000E+00  0.00000000E+00
  0.00000000E+00  0.00000000E+00  0.00000000E+00
  0.00000000E+00  0.00000000E+00  0.00000000E+00
  0.00000000E+00  0.00000000E+00  0.00000000E+00
  0.00000000E+00  0.00000000E+00  0.00000000E+00
  0.00000000E+00  0.00000000E+00  0.00000000E+00
  0.00000000E+00  0.00000000E+00  0.00000000E+00
  0.00000000E+00  0.00000000E+00  0.00000000E+00
  0.00000000E+00  0.00000000E+00  0.00000000E+00
  0.00000000E+00  0.00000000E+00  0.00000000E+00
  0.00000000E+00  0.00000000E+00  0.00000000E+00
  0.00000000E+00  0.00000000E+00  0.00000000E+00
  0.00000000E+00  0.00000000E+00  0.00000000E+00
  0.00000000E+00  0.00000000E+00  0.00000000E+00
  0.00000000E+00  0.00000000E+00  0.00000000E+00
  0.00000000E+00  0.00000000E+00  0.00000000E+00
  0.00000000E+00  0.00000000E+00  0.00000000E+00
  0.00000000E+00  0.00000000E+00  0.00000000E+00
  0.00000000E+00  0.00000000E+00  0.00000000E+00
  0.00000000E+00  0.00000000E+00  0.00000000E+00
  0.00000000E+00  0.00000000E+00  0.00000000E+00
  0.00000000E+00  0.00000000E+00  0.00000000E+00
  0.00000000E+00  0.00000000E+00  0.00000000E+00
  0.00000000E+00  0.00000000E+00  0.00000000E+00
  0.00000000E+00  0.00000000E+00  0.00000000E+00
  0.00000000E+00  0.00000000E+00  0.00000000E+00
  0.00000000E+00  0.00000000E+00  0.00000000E+00
  0.00000000E+00  0.00000000E+00  0.00000000E+00
  0.00000000E+00  0.00000000E+00  0.00000000E+00
  0.00000000E+00  0.00000000E+00  0.00000000E+00
  0.00000000E+00  0.00000000E+00  0.00000000E+00
  0.00000000E+00  0.00000000E+00  0.00000000E+00
  0.00000000E+00  0.00000000E+00  0.00000000E+00
  0.00000000E+00  0.00000000E+00  0.00000000E+00
  0.00000000E+00  0.00000000E+00  0.00000000E+00
  0.00000000E+00  0.00000000E+00  0.00000000E+00
  0.00000000E+00  0.00000000E+00  0.00000000E+00
  0.00000000E+00  0.00000000E+00  0.00000000E+00
  0.00000000E+00  0.00000000E+00  0.00000000E+00
  0.00000000E+00  0.00000000E+00  0.00000000E+00
  0.00000000E+00  0.00000000E+00  0.00000000E+00
  0.00000000E+00  0.00000000E+00  0.00000000E+00
  0.00000000E+00  0.00000000E+00  0.00000000E+00
  0.00000000E+00  0.00000000E+00  0.00000000E+00
  0.00000000E+00  0.00000000E+00  0.00000000E+00
  0.00000000E+00  0.00000000E+00  0.00000000E+00
  0.00000000E+00  0.00000000E+00  0.00000000E+00
  0.00000000E+00  0.00000000E+00  0.00000000E+00
  0.00000000E+00  0.00000000E+00  0.00000000E+00
  0.00000000E+00  0.00000000E+00  0.00000000E+00
  0.00000000E+00  0.00000000E+00  0.00000000E+00
  0.00000000E+00  0.00000000E+00  0.00000000E+00
  0.00000000E+00  0.00000000E+00  0.00000000E+00
  0.00000000E+00  0.00000000E+00  0.00000000E+00
  0.00000000E+00  0.00000000E+00  0.00000000E+00
  0.00000000E+00  0.00000000E+00  0.00000000E+00
  0.00000000E+00  0.00000000E+00  0.00000000E+00
  0.00000000E+00  0.00000000E+00  0.00000000E+00
  0.00000000E+00  0.00000000E+00  0.00000000E+00
  0.00000000E+00  0.00000000E+00  0.00000000E+00
  0.00000000E+00  0.00000000E+00  0.00000000E+00
  0.00000000E+00  0.00000000E+00  0.00000000E+00
  0.00000000E+00  0.00000000E+00  0.00000000E+00
  0.00000000E+00  0.00000000E+00  0.00000000E+00
  0.00000000E+00  0.00000000E+00  0.00000000E+00
  0.00000000E+00  0.00000000E+00  0.00000000E+00
  0.00000000E+00  0.00000000E+00  0.00000000E+00
  0.00000000E+00  0.00000000E+00  0.00000000E+00
  0.00000000E+00  0.00000000E+00  0.00000000E+00
  0.00000000E+00  0.00000000E+00  0.00000000E+00
  0.00000000E+00  0.00000000E+00  0.00000000E+00
  0.00000000E+00  0.00000000E+00  0.00000000E+00
