Y1 H1 C124 N2 O1                        
   1.00000000000000     
    19.8051991201004363   -0.0137698221399085   -0.0865210367136517
    -9.9149582287656362   17.0660915485284583   -0.0381318385678563
    -0.1298390462623979   -0.1420090929369006   29.7839596008937519
   Y    H    C    N    O 
     1     1   124     2     1
Direct
  0.4474882920729120  0.5061023450755856  0.4523998993669871
  0.4972264420702882  0.5605370644663479  0.5469500963325388
  0.0420132487360471  0.0840144971627164  0.3988048416737552
  0.0413124986833681  0.2083325021931456  0.3979303063202977
  0.0408266998039951  0.3329914214919851  0.3968303838104123
  0.0408356848055143  0.4583375355121703  0.3965654222425475
  0.0413493223694477  0.5837051415812383  0.3974601041951633
  0.0418754371212077  0.7090585891812614  0.3984282350357880
  0.0422247752622546  0.8343832342293240  0.3989076270282256
  0.0424295089089526  0.9595259985875562  0.3990536037132054
  0.1679455129692602  0.0854892921076426  0.3999575526953790
  0.1672327511256136  0.2097904425662661  0.4001732777503534
  0.1660085821579921  0.3340295890692706  0.3998780145089978
  0.1648576612108328  0.4584980041158017  0.3974725370645426
  0.1653848360021692  0.5837398442951133  0.3968373399121248
  0.1662152564960051  0.7091260417474834  0.3978867414730431
  0.1668813586150742  0.8344814499154549  0.3988211176266633
  0.1674313701967461  0.9599284709903176  0.3993688075267531
  0.2926593230263678  0.0853104954170899  0.3999577684270710
  0.2942409002348755  0.2124507924952582  0.4028894459871575
  0.2917666193227082  0.3367902382534719  0.4089896979074857
  0.2886273865192769  0.4585471757453082  0.4088387931773702
  0.2891115639263846  0.5843812841138304  0.4005702413678828
  0.2905003706076416  0.7091810458735535  0.3983025858678584
  0.2914227016601528  0.8341971560901263  0.3984988944312260
  0.2919689640462066  0.9595140581589088  0.3990747620538058
  0.4171048406517019  0.0837535796227217  0.3993145318151835
  0.4177402795207812  0.2091819199021263  0.4005374881638600
  0.4213590233958558  0.3369782219310589  0.4052637136388494
  0.4147968714144106  0.7077660019106543  0.4016828494893512
  0.4160082131004410  0.8331137836903987  0.3990777091275548
  0.4165363525439691  0.9583984442564428  0.3989761935986527
  0.5416755758145946  0.0825006630738535  0.3991385577472214
  0.5422733548717553  0.2076438917373903  0.3991438921535903
  0.5433386006715775  0.3325855956569242  0.3996838314526681
  0.5437276255874210  0.4555066047771136  0.4013731220434315
  0.5447164077591120  0.5811670111739596  0.4035250623213740
  0.5389154702518090  0.7041060487587504  0.4045428856655316
  0.5404008910740230  0.8313485270920914  0.4008459433536983
  0.5412154725179779  0.9571540211534879  0.3994551734221164
  0.6663087784896787  0.0820636561731743  0.3993125149032375
  0.6668734311268490  0.2073780793390127  0.3989336259435659
  0.6676290165045635  0.3325818041388168  0.3984647784382359
  0.6688987925556665  0.4579207252148916  0.3977674828366772
  0.6689198600324738  0.5826566066272099  0.3973263566479696
  0.6665141639849180  0.7069771552890076  0.3985585318299494
  0.6651470595219895  0.8308325751997890  0.4000990727996794
  0.6658701112773949  0.9566859014694302  0.3998467090041437
  0.7911077152286144  0.0821224540682029  0.3990183465936257
  0.7914071928595934  0.2073109646082451  0.3986054039636575
  0.7920172484238536  0.3326893918885930  0.3983805700738258
  0.7927874226623743  0.4581027320102905  0.3979980071348500
  0.7931723624936419  0.5833754855634884  0.3974359401634198
  0.7924460233258591  0.7083002749858736  0.3975555569989403
  0.7915489893559767  0.8327663779522932  0.3986513126682762
  0.7908125336134644  0.9569949370971343  0.3991998037967135
  0.9162770324544712  0.0827708772600472  0.3985172774690601
  0.9161464791492475  0.2076291836611598  0.3978825061668808
  0.9163102670546905  0.3327863595083811  0.3975149181810072
  0.9167538261387794  0.4581281542003365  0.3977675114823749
  0.9173348889115289  0.5836353642470912  0.3981234125287934
  0.9174249992221051  0.7089627478060392  0.3982749512941106
  0.9171746338613664  0.8338108143643896  0.3985538388567144
  0.9167268815323159  0.9583383348069641  0.3988511259522544
  0.0842919700800726  0.0431055222725460  0.3992128724174914
  0.0835846886212065  0.1673713440901133  0.3986567053170877
  0.0827159082399823  0.2917843426087086  0.3977314415740600
  0.0820930868097686  0.4166015423402082  0.3964315066578339
  0.0824006703083266  0.5418500530979137  0.3967257203658663
  0.0830889477935116  0.6672821323967592  0.3979250959234953
  0.0836724422450617  0.7927111020019227  0.3987694817412423
  0.0840290596650896  0.9179692318226889  0.3991593382987905
  0.2092516679903342  0.0434669111356110  0.3998260014131073
  0.2098902590908755  0.1692970994251945  0.4011512557955906
  0.2085763188389435  0.2932773430186542  0.4020843413992359
  0.2064993794837928  0.4174446661187344  0.4005811230320916
  0.2063229268139264  0.5420369977296001  0.3976947691516285
  0.2074405192767807  0.6673829805549005  0.3975131665717499
  0.2081736634802251  0.7926220811008865  0.3984355702950463
  0.2087758276733811  0.9180010972314041  0.3991175356047179
  0.3338309290341059  0.0429821583920731  0.3993932425206729
  0.3346798756362779  0.1689525580167808  0.4010222727988017
  0.3360624613879740  0.2962425038891148  0.4069261141254435
  0.3281768000835532  0.4179452949206413  0.4180491679726800
  0.3309898899022479  0.5446393374481713  0.4078878269910352
  0.3316479696421925  0.6673728807582593  0.4000144689346581
  0.3327428137767764  0.7923831769315759  0.3985293190380955
  0.3333601719359945  0.9175523320860003  0.3988203049575081
  0.4584795715493034  0.0416772278555558  0.3991180537629760
  0.4590296521252741  0.1669950070931981  0.3995370222008549
  0.4602091344296410  0.2924641329360473  0.4013051134724155
  0.4536966402130188  0.6637144347884790  0.4067456975373658
  0.4573344371238719  0.7910292990253895  0.4001863079116336
  0.4579248900938022  0.9163603504698203  0.3991243275530905
  0.5831072635225771  0.0405785705341826  0.3992960569074357
  0.5836098962882514  0.1658193378310626  0.3990428064943552
  0.5845450520137444  0.2907880375219931  0.3989192716369858
  0.5860688476726045  0.4155091341325719  0.3990889549957057
  0.5860272572648194  0.5414487014487873  0.3997492465567060
  0.5829430594272353  0.6633611570160092  0.4019481173511146
  0.5808190348379153  0.7878642285805744  0.4017739387291795
  0.5824521509707627  0.9149357899287989  0.4000143107509026
  0.7077073662236222  0.0401892545275762  0.3994435087878583
  0.7081982672647580  0.1655412915036351  0.3990088235993494
  0.7088770339132232  0.2908515921651957  0.3986386627236137
  0.7097931566870079  0.4162073521755138  0.3979681036376643
  0.7104890052942742  0.5415043088031796  0.3972220508766363
  0.7090507816447124  0.6660608370266292  0.3974075580488370
  0.7079262349856597  0.7904213338017904  0.3990097099246943
  0.7071654169421331  0.9146388381744354  0.3997045242330113
  0.8327205704567250  0.0405776925210355  0.3989329586256296
  0.8329171160802621  0.1656884756454305  0.3985325876024473
  0.8332447466812741  0.2909245791655674  0.3982085150886644
  0.8338160283292970  0.4162273537810475  0.3981453934921100
  0.8343970577869979  0.5416427749783119  0.3979025146415031
  0.8343284761277470  0.6670576874835860  0.3976548855157806
  0.8338109780514414  0.7917542021167880  0.3982015520482685
  0.8331367444935729  0.9161184735395030  0.3989614209481464
  0.9584366648430145  0.0417861723948098  0.3987051403214190
  0.9579502712076993  0.1662566276580811  0.3979684570208554
  0.9577340699234909  0.2910828359033197  0.3972451132995219
  0.9578856798891481  0.4163588785159814  0.3972383655716644
  0.9584345918929215  0.5418265728438587  0.3978116205231134
  0.9588315568682102  0.6672373505805824  0.3983429281193691
  0.9589807256021170  0.7924360379338239  0.3986073698667608
  0.9588659542305379  0.9173339864655611  0.3988270170104942
  0.4095082301092733  0.5847679181012310  0.4132328348703720
  0.4653644582355048  0.4167355130325393  0.4063530625586435
  0.4690269239840352  0.5347479779569808  0.5197588450672541
 
  0.00000000E+00  0.00000000E+00  0.00000000E+00
  0.00000000E+00  0.00000000E+00  0.00000000E+00
  0.00000000E+00  0.00000000E+00  0.00000000E+00
  0.00000000E+00  0.00000000E+00  0.00000000E+00
  0.00000000E+00  0.00000000E+00  0.00000000E+00
  0.00000000E+00  0.00000000E+00  0.00000000E+00
  0.00000000E+00  0.00000000E+00  0.00000000E+00
  0.00000000E+00  0.00000000E+00  0.00000000E+00
  0.00000000E+00  0.00000000E+00  0.00000000E+00
  0.00000000E+00  0.00000000E+00  0.00000000E+00
  0.00000000E+00  0.00000000E+00  0.00000000E+00
  0.00000000E+00  0.00000000E+00  0.00000000E+00
  0.00000000E+00  0.00000000E+00  0.00000000E+00
  0.00000000E+00  0.00000000E+00  0.00000000E+00
  0.00000000E+00  0.00000000E+00  0.00000000E+00
  0.00000000E+00  0.00000000E+00  0.00000000E+00
  0.00000000E+00  0.00000000E+00  0.00000000E+00
  0.00000000E+00  0.00000000E+00  0.00000000E+00
  0.00000000E+00  0.00000000E+00  0.00000000E+00
  0.00000000E+00  0.00000000E+00  0.00000000E+00
  0.00000000E+00  0.00000000E+00  0.00000000E+00
  0.00000000E+00  0.00000000E+00  0.00000000E+00
  0.00000000E+00  0.00000000E+00  0.00000000E+00
  0.00000000E+00  0.00000000E+00  0.00000000E+00
  0.00000000E+00  0.00000000E+00  0.00000000E+00
  0.00000000E+00  0.00000000E+00  0.00000000E+00
  0.00000000E+00  0.00000000E+00  0.00000000E+00
  0.00000000E+00  0.00000000E+00  0.00000000E+00
  0.00000000E+00  0.00000000E+00  0.00000000E+00
  0.00000000E+00  0.00000000E+00  0.00000000E+00
  0.00000000E+00  0.00000000E+00  0.00000000E+00
  0.00000000E+00  0.00000000E+00  0.00000000E+00
  0.00000000E+00  0.00000000E+00  0.00000000E+00
  0.00000000E+00  0.00000000E+00  0.00000000E+00
  0.00000000E+00  0.00000000E+00  0.00000000E+00
  0.00000000E+00  0.00000000E+00  0.00000000E+00
  0.00000000E+00  0.00000000E+00  0.00000000E+00
  0.00000000E+00  0.00000000E+00  0.00000000E+00
  0.00000000E+00  0.00000000E+00  0.00000000E+00
  0.00000000E+00  0.00000000E+00  0.00000000E+00
  0.00000000E+00  0.00000000E+00  0.00000000E+00
  0.00000000E+00  0.00000000E+00  0.00000000E+00
  0.00000000E+00  0.00000000E+00  0.00000000E+00
  0.00000000E+00  0.00000000E+00  0.00000000E+00
  0.00000000E+00  0.00000000E+00  0.00000000E+00
  0.00000000E+00  0.00000000E+00  0.00000000E+00
  0.00000000E+00  0.00000000E+00  0.00000000E+00
  0.00000000E+00  0.00000000E+00  0.00000000E+00
  0.00000000E+00  0.00000000E+00  0.00000000E+00
  0.00000000E+00  0.00000000E+00  0.00000000E+00
  0.00000000E+00  0.00000000E+00  0.00000000E+00
  0.00000000E+00  0.00000000E+00  0.00000000E+00
  0.00000000E+00  0.00000000E+00  0.00000000E+00
  0.00000000E+00  0.00000000E+00  0.00000000E+00
  0.00000000E+00  0.00000000E+00  0.00000000E+00
  0.00000000E+00  0.00000000E+00  0.00000000E+00
  0.00000000E+00  0.00000000E+00  0.00000000E+00
  0.00000000E+00  0.00000000E+00  0.00000000E+00
  0.00000000E+00  0.00000000E+00  0.00000000E+00
  0.00000000E+00  0.00000000E+00  0.00000000E+00
  0.00000000E+00  0.00000000E+00  0.00000000E+00
  0.00000000E+00  0.00000000E+00  0.00000000E+00
  0.00000000E+00  0.00000000E+00  0.00000000E+00
  0.00000000E+00  0.00000000E+00  0.00000000E+00
  0.00000000E+00  0.00000000E+00  0.00000000E+00
  0.00000000E+00  0.00000000E+00  0.00000000E+00
  0.00000000E+00  0.00000000E+00  0.00000000E+00
  0.00000000E+00  0.00000000E+00  0.00000000E+00
  0.00000000E+00  0.00000000E+00  0.00000000E+00
  0.00000000E+00  0.00000000E+00  0.00000000E+00
  0.00000000E+00  0.00000000E+00  0.00000000E+00
  0.00000000E+00  0.00000000E+00  0.00000000E+00
  0.00000000E+00  0.00000000E+00  0.00000000E+00
  0.00000000E+00  0.00000000E+00  0.00000000E+00
  0.00000000E+00  0.00000000E+00  0.00000000E+00
  0.00000000E+00  0.00000000E+00  0.00000000E+00
  0.00000000E+00  0.00000000E+00  0.00000000E+00
  0.00000000E+00  0.00000000E+00  0.00000000E+00
  0.00000000E+00  0.00000000E+00  0.00000000E+00
  0.00000000E+00  0.00000000E+00  0.00000000E+00
  0.00000000E+00  0.00000000E+00  0.00000000E+00
  0.00000000E+00  0.00000000E+00  0.00000000E+00
  0.00000000E+00  0.00000000E+00  0.00000000E+00
  0.00000000E+00  0.00000000E+00  0.00000000E+00
  0.00000000E+00  0.00000000E+00  0.00000000E+00
  0.00000000E+00  0.00000000E+00  0.00000000E+00
  0.00000000E+00  0.00000000E+00  0.00000000E+00
  0.00000000E+00  0.00000000E+00  0.00000000E+00
  0.00000000E+00  0.00000000E+00  0.00000000E+00
  0.00000000E+00  0.00000000E+00  0.00000000E+00
  0.00000000E+00  0.00000000E+00  0.00000000E+00
  0.00000000E+00  0.00000000E+00  0.00000000E+00
  0.00000000E+00  0.00000000E+00  0.00000000E+00
  0.00000000E+00  0.00000000E+00  0.00000000E+00
  0.00000000E+00  0.00000000E+00  0.00000000E+00
  0.00000000E+00  0.00000000E+00  0.00000000E+00
  0.00000000E+00  0.00000000E+00  0.00000000E+00
  0.00000000E+00  0.00000000E+00  0.00000000E+00
  0.00000000E+00  0.00000000E+00  0.00000000E+00
  0.00000000E+00  0.00000000E+00  0.00000000E+00
  0.00000000E+00  0.00000000E+00  0.00000000E+00
  0.00000000E+00  0.00000000E+00  0.00000000E+00
  0.00000000E+00  0.00000000E+00  0.00000000E+00
  0.00000000E+00  0.00000000E+00  0.00000000E+00
  0.00000000E+00  0.00000000E+00  0.00000000E+00
  0.00000000E+00  0.00000000E+00  0.00000000E+00
  0.00000000E+00  0.00000000E+00  0.00000000E+00
  0.00000000E+00  0.00000000E+00  0.00000000E+00
  0.00000000E+00  0.00000000E+00  0.00000000E+00
  0.00000000E+00  0.00000000E+00  0.00000000E+00
  0.00000000E+00  0.00000000E+00  0.00000000E+00
  0.00000000E+00  0.00000000E+00  0.00000000E+00
  0.00000000E+00  0.00000000E+00  0.00000000E+00
  0.00000000E+00  0.00000000E+00  0.00000000E+00
  0.00000000E+00  0.00000000E+00  0.00000000E+00
  0.00000000E+00  0.00000000E+00  0.00000000E+00
  0.00000000E+00  0.00000000E+00  0.00000000E+00
  0.00000000E+00  0.00000000E+00  0.00000000E+00
  0.00000000E+00  0.00000000E+00  0.00000000E+00
  0.00000000E+00  0.00000000E+00  0.00000000E+00
  0.00000000E+00  0.00000000E+00  0.00000000E+00
  0.00000000E+00  0.00000000E+00  0.00000000E+00
  0.00000000E+00  0.00000000E+00  0.00000000E+00
  0.00000000E+00  0.00000000E+00  0.00000000E+00
  0.00000000E+00  0.00000000E+00  0.00000000E+00
  0.00000000E+00  0.00000000E+00  0.00000000E+00
  0.00000000E+00  0.00000000E+00  0.00000000E+00
  0.00000000E+00  0.00000000E+00  0.00000000E+00
  0.00000000E+00  0.00000000E+00  0.00000000E+00
