Ta1 H1 C122 N4 O1                       
   1.00000000000000     
    19.7777635924652131   -0.0006806220100656    0.2743077038989583
    -9.8879983477559339   17.0346543875750598   -0.2323195012703891
     0.4128315025212040   -0.1665587978242175   29.8742531961776123
   Ta   H    C    N    O 
     1     1   122     4     1
Direct
  0.4486766467287928  0.5025499872164839  0.4292223885895308
  0.4762919790628802  0.5365377903656739  0.5184097331056570
  0.0421418460742954  0.0845731754874484  0.4000211771268941
  0.0413593622640511  0.2086787227721610  0.4000261206868856
  0.0405711239777725  0.3333163110457726  0.3989483115806069
  0.0404871604047885  0.4583010149240411  0.3983915042624920
  0.0410607340529781  0.5836182419442231  0.3991943785392839
  0.0416367624312389  0.7089643222560168  0.3997850332788968
  0.0418473577883856  0.8341674883293314  0.3997725934945536
  0.0421020294398607  0.9595293832680051  0.3997875748531043
  0.1675994997409906  0.0854205173252841  0.3999872060090333
  0.1680544909859359  0.2109667116032945  0.4009612255935782
  0.1654537950275942  0.3341995057400852  0.4014160267630399
  0.1645960774251469  0.4585793349789842  0.3984128823817547
  0.1652115640912273  0.5836031358030446  0.3981817567030935
  0.1661140887742414  0.7086889535684386  0.3991898005521745
  0.1666427040220033  0.8340373514906442  0.3996109933702433
  0.1669729679663366  0.9596183094006935  0.3995643431869058
  0.2921160425439135  0.0851483100159165  0.3992176188917299
  0.2932545083877923  0.2124289440807680  0.4004717957676864
  0.2932694634179757  0.3394637442001514  0.4053905069348368
  0.2879297553016929  0.4590263613969199  0.4040350434422598
  0.2888658227258027  0.5829493100870003  0.4004049741829021
  0.2906379878706236  0.7080236836487978  0.3999039127458701
  0.2913755333023093  0.8335300984598129  0.3997197169739570
  0.2916665363399155  0.9591337471639931  0.3994803501746966
  0.4166450343290282  0.0837550313976718  0.3993426137985241
  0.4169993022555615  0.2095087420040052  0.3987824134512304
  0.4191994995296309  0.3359291319097847  0.3986471438085247
  0.4149019886083182  0.7053819981273779  0.4022079889658879
  0.4159246865102368  0.8319142641313956  0.4001515306242401
  0.4163389252058049  0.9578738496819345  0.3998240443346497
  0.5411753150840698  0.0826133562326950  0.3996689417300923
  0.5417394813755833  0.2081906080169703  0.3993812664888433
  0.5430015675563989  0.3338772990319061  0.3995544187926284
  0.5441652124825241  0.4581410801127630  0.3982316341360208
  0.5383786384309179  0.7027496883577314  0.4004075156718135
  0.5403732088313300  0.8306356957242746  0.4003073182900308
  0.5409503355914971  0.9568794189977776  0.3999371738977018
  0.6659299075142172  0.0822360761016823  0.3997470602401790
  0.6663803383368875  0.2077036185875983  0.3997533134595506
  0.6670686408757022  0.3331308382317378  0.4005183377813085
  0.6682733906002020  0.4584656430654740  0.4017162125621806
  0.6688244489574621  0.5834059788345217  0.3997134499187276
  0.6659890104223256  0.7068854926827299  0.3967951886890819
  0.6649324047056582  0.8310076802413240  0.3987719221567658
  0.6655845749098167  0.9568012685181623  0.3995589192444481
  0.7909172355721985  0.0824546480734662  0.3995883793210733
  0.7910233447168288  0.2076601305955901  0.3996846091433360
  0.7914549790947227  0.3329339220699339  0.4001297487256851
  0.7922484893774083  0.4583503193909287  0.4010979092796574
  0.7927391469548145  0.5836996398035017  0.4012352948375955
  0.7920707211872396  0.7083360669731812  0.3993722550609257
  0.7910965612834093  0.8328222383469537  0.3989880222199674
  0.7906128424341901  0.9572876927909890  0.3993219066558806
  0.9162122976376004  0.0831342255904435  0.3997452437086637
  0.9159065958732875  0.2079255129167456  0.3995599436451490
  0.9159656152996551  0.3330081287968534  0.3993162314938606
  0.9163466271605568  0.4583257516790477  0.3998815854176923
  0.9168896630538779  0.5836535647595720  0.4005065856166409
  0.9170839409313073  0.7089288961894935  0.4002075096818379
  0.9167119434647938  0.8338431577746653  0.3996589535740606
  0.9165857972711686  0.9586019636376796  0.3997798589490630
  0.0841366960420202  0.0432390496620307  0.3999375320055992
  0.0841672836825968  0.1682872936891813  0.4002549321238525
  0.0827645029953960  0.2921518956948514  0.3999558020715534
  0.0816794944069111  0.4164702099888895  0.3982083380434723
  0.0821826597298315  0.5417531078102200  0.3983890234823602
  0.0829257076228361  0.6670597605832622  0.3993381763295198
  0.0833353555478143  0.7924253493720899  0.3997040465895185
  0.0837106972325444  0.9178626969836078  0.3997324370095289
  0.2088290982643335  0.0433395082342984  0.3995487670918327
  0.2098089581186940  0.1695460083066110  0.4006095440070772
  0.2097705162385438  0.2949947362202274  0.4027093618965730
  0.2060578811814987  0.4172661155390260  0.4006341570440541
  0.2060241532267503  0.5415264420247931  0.3983589945675514
  0.2072246816082276  0.6667906667616903  0.3989282163175741
  0.2079506898029376  0.7921811568595836  0.3995537550837633
  0.2084637006586304  0.9176564777466906  0.3995341922868498
  0.3333521387324526  0.0428357875127437  0.3992600326292733
  0.3339486382379043  0.1691530650610688  0.3992241082707478
  0.3356679485107715  0.2974949706807953  0.4018281864066892
  0.3289295195219584  0.5413104904988699  0.4037447976732660
  0.3312975061695346  0.6660705057657760  0.4011970349534021
  0.3326951289773988  0.7915046467087763  0.3999821775812231
  0.3330828388716727  0.9169940343262980  0.3996912509691097
  0.4580183508464573  0.0415202945568236  0.3996658571065148
  0.4583245028744624  0.1672748073125393  0.3991204585095385
  0.4591239293146944  0.2931869802819163  0.3982071392361163
  0.4541199450813941  0.6612030199444211  0.4044264996320759
  0.4571730629149303  0.7893069434984944  0.4006308904127833
  0.4576004638922107  0.9155940005132984  0.3999810602654510
  0.5826287842531293  0.0405691132271235  0.3997713831225523
  0.5829382373927584  0.1662388304013386  0.3995838782751724
  0.5838011370963856  0.2917508085898147  0.3998342005238331
  0.5855245480679531  0.4167548155337006  0.4007822857748006
  0.5860258020971912  0.5418412643636176  0.3970050785128800
  0.5833660306817027  0.6641545723066612  0.3964868038983534
  0.5809804463417648  0.7877843046854556  0.3997484292703777
  0.5822567914303630  0.9147345516471066  0.3999464566174317
  0.7074366741038441  0.0404960121425158  0.3996248270128696
  0.7077573348050755  0.1659159602427268  0.3997266788025403
  0.7082460135618891  0.2911643995977327  0.4001301421730147
  0.7091471738346433  0.4164502480192842  0.4013199989408079
  0.7098562477680613  0.5417413066078218  0.4014785178746539
  0.7091708224657574  0.6662117795054097  0.3983514884466527
  0.7075595835440821  0.7906113040952588  0.3981796183169449
  0.7070603719523698  0.9149962210498451  0.3991642070196413
  0.8326313681092927  0.0409987363503522  0.3995468733849338
  0.8327152318471508  0.1660647587979752  0.3996365809837172
  0.8327672762792888  0.2911153555971188  0.3997102989787945
  0.8333098026741207  0.4164387469492978  0.4004296607983338
  0.8339207883006230  0.5417722747777083  0.4011435481438274
  0.8339431020459753  0.6669850827435022  0.4003861993178683
  0.8335617783968214  0.7918917764336459  0.3992539662440254
  0.8329526848500938  0.9163612780614377  0.3994418477574082
  0.9585723578238992  0.0422684324180150  0.3998897899754342
  0.9579822653228361  0.1666030249047517  0.3997361426466204
  0.9575223537388732  0.2913893406789899  0.3991944577580370
  0.9575044212529654  0.4164432134776568  0.3991697864468902
  0.9580227614467016  0.5417512886450474  0.3999100252234863
  0.9585099309894340  0.6671587724482561  0.4002519963456964
  0.9586657410499996  0.7923796879398455  0.3998365263309488
  0.9585941146880155  0.9174818830541664  0.3997521327015229
  0.4095873174081233  0.5789688547182223  0.4104148516103661
  0.5451365824473374  0.5826445751812165  0.3958682278748132
  0.3312215335181015  0.4219552457541044  0.4107781595532344
  0.4624307770933176  0.4172840820724537  0.3990538474570595
  0.4789252074399014  0.5135699988904017  0.4898729017223827
 
  0.00000000E+00  0.00000000E+00  0.00000000E+00
  0.00000000E+00  0.00000000E+00  0.00000000E+00
  0.00000000E+00  0.00000000E+00  0.00000000E+00
  0.00000000E+00  0.00000000E+00  0.00000000E+00
  0.00000000E+00  0.00000000E+00  0.00000000E+00
  0.00000000E+00  0.00000000E+00  0.00000000E+00
  0.00000000E+00  0.00000000E+00  0.00000000E+00
  0.00000000E+00  0.00000000E+00  0.00000000E+00
  0.00000000E+00  0.00000000E+00  0.00000000E+00
  0.00000000E+00  0.00000000E+00  0.00000000E+00
  0.00000000E+00  0.00000000E+00  0.00000000E+00
  0.00000000E+00  0.00000000E+00  0.00000000E+00
  0.00000000E+00  0.00000000E+00  0.00000000E+00
  0.00000000E+00  0.00000000E+00  0.00000000E+00
  0.00000000E+00  0.00000000E+00  0.00000000E+00
  0.00000000E+00  0.00000000E+00  0.00000000E+00
  0.00000000E+00  0.00000000E+00  0.00000000E+00
  0.00000000E+00  0.00000000E+00  0.00000000E+00
  0.00000000E+00  0.00000000E+00  0.00000000E+00
  0.00000000E+00  0.00000000E+00  0.00000000E+00
  0.00000000E+00  0.00000000E+00  0.00000000E+00
  0.00000000E+00  0.00000000E+00  0.00000000E+00
  0.00000000E+00  0.00000000E+00  0.00000000E+00
  0.00000000E+00  0.00000000E+00  0.00000000E+00
  0.00000000E+00  0.00000000E+00  0.00000000E+00
  0.00000000E+00  0.00000000E+00  0.00000000E+00
  0.00000000E+00  0.00000000E+00  0.00000000E+00
  0.00000000E+00  0.00000000E+00  0.00000000E+00
  0.00000000E+00  0.00000000E+00  0.00000000E+00
  0.00000000E+00  0.00000000E+00  0.00000000E+00
  0.00000000E+00  0.00000000E+00  0.00000000E+00
  0.00000000E+00  0.00000000E+00  0.00000000E+00
  0.00000000E+00  0.00000000E+00  0.00000000E+00
  0.00000000E+00  0.00000000E+00  0.00000000E+00
  0.00000000E+00  0.00000000E+00  0.00000000E+00
  0.00000000E+00  0.00000000E+00  0.00000000E+00
  0.00000000E+00  0.00000000E+00  0.00000000E+00
  0.00000000E+00  0.00000000E+00  0.00000000E+00
  0.00000000E+00  0.00000000E+00  0.00000000E+00
  0.00000000E+00  0.00000000E+00  0.00000000E+00
  0.00000000E+00  0.00000000E+00  0.00000000E+00
  0.00000000E+00  0.00000000E+00  0.00000000E+00
  0.00000000E+00  0.00000000E+00  0.00000000E+00
  0.00000000E+00  0.00000000E+00  0.00000000E+00
  0.00000000E+00  0.00000000E+00  0.00000000E+00
  0.00000000E+00  0.00000000E+00  0.00000000E+00
  0.00000000E+00  0.00000000E+00  0.00000000E+00
  0.00000000E+00  0.00000000E+00  0.00000000E+00
  0.00000000E+00  0.00000000E+00  0.00000000E+00
  0.00000000E+00  0.00000000E+00  0.00000000E+00
  0.00000000E+00  0.00000000E+00  0.00000000E+00
  0.00000000E+00  0.00000000E+00  0.00000000E+00
  0.00000000E+00  0.00000000E+00  0.00000000E+00
  0.00000000E+00  0.00000000E+00  0.00000000E+00
  0.00000000E+00  0.00000000E+00  0.00000000E+00
  0.00000000E+00  0.00000000E+00  0.00000000E+00
  0.00000000E+00  0.00000000E+00  0.00000000E+00
  0.00000000E+00  0.00000000E+00  0.00000000E+00
  0.00000000E+00  0.00000000E+00  0.00000000E+00
  0.00000000E+00  0.00000000E+00  0.00000000E+00
  0.00000000E+00  0.00000000E+00  0.00000000E+00
  0.00000000E+00  0.00000000E+00  0.00000000E+00
  0.00000000E+00  0.00000000E+00  0.00000000E+00
  0.00000000E+00  0.00000000E+00  0.00000000E+00
  0.00000000E+00  0.00000000E+00  0.00000000E+00
  0.00000000E+00  0.00000000E+00  0.00000000E+00
  0.00000000E+00  0.00000000E+00  0.00000000E+00
  0.00000000E+00  0.00000000E+00  0.00000000E+00
  0.00000000E+00  0.00000000E+00  0.00000000E+00
  0.00000000E+00  0.00000000E+00  0.00000000E+00
  0.00000000E+00  0.00000000E+00  0.00000000E+00
  0.00000000E+00  0.00000000E+00  0.00000000E+00
  0.00000000E+00  0.00000000E+00  0.00000000E+00
  0.00000000E+00  0.00000000E+00  0.00000000E+00
  0.00000000E+00  0.00000000E+00  0.00000000E+00
  0.00000000E+00  0.00000000E+00  0.00000000E+00
  0.00000000E+00  0.00000000E+00  0.00000000E+00
  0.00000000E+00  0.00000000E+00  0.00000000E+00
  0.00000000E+00  0.00000000E+00  0.00000000E+00
  0.00000000E+00  0.00000000E+00  0.00000000E+00
  0.00000000E+00  0.00000000E+00  0.00000000E+00
  0.00000000E+00  0.00000000E+00  0.00000000E+00
  0.00000000E+00  0.00000000E+00  0.00000000E+00
  0.00000000E+00  0.00000000E+00  0.00000000E+00
  0.00000000E+00  0.00000000E+00  0.00000000E+00
  0.00000000E+00  0.00000000E+00  0.00000000E+00
  0.00000000E+00  0.00000000E+00  0.00000000E+00
  0.00000000E+00  0.00000000E+00  0.00000000E+00
  0.00000000E+00  0.00000000E+00  0.00000000E+00
  0.00000000E+00  0.00000000E+00  0.00000000E+00
  0.00000000E+00  0.00000000E+00  0.00000000E+00
  0.00000000E+00  0.00000000E+00  0.00000000E+00
  0.00000000E+00  0.00000000E+00  0.00000000E+00
  0.00000000E+00  0.00000000E+00  0.00000000E+00
  0.00000000E+00  0.00000000E+00  0.00000000E+00
  0.00000000E+00  0.00000000E+00  0.00000000E+00
  0.00000000E+00  0.00000000E+00  0.00000000E+00
  0.00000000E+00  0.00000000E+00  0.00000000E+00
  0.00000000E+00  0.00000000E+00  0.00000000E+00
  0.00000000E+00  0.00000000E+00  0.00000000E+00
  0.00000000E+00  0.00000000E+00  0.00000000E+00
  0.00000000E+00  0.00000000E+00  0.00000000E+00
  0.00000000E+00  0.00000000E+00  0.00000000E+00
  0.00000000E+00  0.00000000E+00  0.00000000E+00
  0.00000000E+00  0.00000000E+00  0.00000000E+00
  0.00000000E+00  0.00000000E+00  0.00000000E+00
  0.00000000E+00  0.00000000E+00  0.00000000E+00
  0.00000000E+00  0.00000000E+00  0.00000000E+00
  0.00000000E+00  0.00000000E+00  0.00000000E+00
  0.00000000E+00  0.00000000E+00  0.00000000E+00
  0.00000000E+00  0.00000000E+00  0.00000000E+00
  0.00000000E+00  0.00000000E+00  0.00000000E+00
  0.00000000E+00  0.00000000E+00  0.00000000E+00
  0.00000000E+00  0.00000000E+00  0.00000000E+00
  0.00000000E+00  0.00000000E+00  0.00000000E+00
  0.00000000E+00  0.00000000E+00  0.00000000E+00
  0.00000000E+00  0.00000000E+00  0.00000000E+00
  0.00000000E+00  0.00000000E+00  0.00000000E+00
  0.00000000E+00  0.00000000E+00  0.00000000E+00
  0.00000000E+00  0.00000000E+00  0.00000000E+00
  0.00000000E+00  0.00000000E+00  0.00000000E+00
  0.00000000E+00  0.00000000E+00  0.00000000E+00
  0.00000000E+00  0.00000000E+00  0.00000000E+00
  0.00000000E+00  0.00000000E+00  0.00000000E+00
  0.00000000E+00  0.00000000E+00  0.00000000E+00
  0.00000000E+00  0.00000000E+00  0.00000000E+00
  0.00000000E+00  0.00000000E+00  0.00000000E+00
  0.00000000E+00  0.00000000E+00  0.00000000E+00
  0.00000000E+00  0.00000000E+00  0.00000000E+00
