Fe1 H1 C126 O2                          
   1.00000000000000     
    19.7902636401257332   -0.0007712345879676   -0.2045656796159325
    -9.8952139991458203   17.0515261116918175    0.0512915532911252
    -0.3083558185928481   -0.0880752052016695   29.8227243843758671
   Fe   H    C    O 
     1     1   126     2
Direct
  0.4396567416833411  0.5001177337412749  0.4276917712520980
  0.5273625436748590  0.5558137584392986  0.5003545639875903
  0.0423923769775774  0.0841621766263339  0.3999237017998405
  0.0416254971652469  0.2083422437968293  0.3997508508173734
  0.0411493467244937  0.3330151671503671  0.3993010894251194
  0.0410908730923206  0.4583200519737331  0.3990460489215136
  0.0416271667051085  0.5835957433331415  0.3991421022725304
  0.0421406338528241  0.7088519544654699  0.3993199348018641
  0.0424322797759344  0.8341835501476388  0.3995926382983359
  0.0425181318089557  0.9593358139491237  0.3997942213493665
  0.1679177815914423  0.0851609586664280  0.4006706302924636
  0.1680374935960106  0.2102867306146760  0.4011946228416818
  0.1661581564353344  0.3335524977988695  0.4008542898497907
  0.1650849162189057  0.4584167451574817  0.3996205604000224
  0.1658333088977135  0.5835203116127763  0.3991319914065100
  0.1668050989034885  0.7088369193855010  0.3993066966625592
  0.1672165980466261  0.8341630422941028  0.3996143135873351
  0.1676012968591880  0.9596430445127181  0.4000546434551429
  0.2928066447774429  0.0851086004819520  0.4005056626151970
  0.2935695390852775  0.2115524127026903  0.4022404480377406
  0.2944049728226061  0.3380912119171810  0.4045152311809202
  0.2886360828357049  0.4582941237520639  0.4033337371074910
  0.2898264860071417  0.5836371045438933  0.4007157876147681
  0.2914266898690148  0.7086517228076160  0.3997166726210205
  0.2919061808144996  0.8337495611740662  0.3994787468405244
  0.2922754580350865  0.9592525046619937  0.3997246670270213
  0.4172119900509041  0.0840168791873724  0.3997633822816205
  0.4177698291074194  0.2100166327839834  0.4005779828238835
  0.4192882200517887  0.3374665859233391  0.4032989163021036
  0.4120244619701658  0.5789561707404183  0.4077903441852967
  0.4157932431743213  0.7061138972570296  0.4019355503110829
  0.4166136048071267  0.8324884864624681  0.4000932466999496
  0.4169071961722747  0.9582630993274348  0.3995710881633190
  0.5418090935910909  0.0828932821839308  0.3995601648219222
  0.5421770509915442  0.2082605679791949  0.3994514072553337
  0.5428125331818046  0.3335142066944414  0.3999141683584051
  0.5447916798956420  0.4580809399455026  0.4022116024810100
  0.5429430630644746  0.5797826517459248  0.4063899164487418
  0.5403503351319722  0.7050849075000885  0.4042889979280532
  0.5410284685592881  0.8313874278326646  0.4013601559664955
  0.5415646023101365  0.9572871404554461  0.4000249494483232
  0.6665353767880120  0.0824774506991709  0.3997778682866176
  0.6668319425108750  0.2078353936067542  0.3993958345910282
  0.6672600330972925  0.3329978967234776  0.3990184459334328
  0.6686163276345050  0.4583669410931535  0.3991503786081409
  0.6691776573476669  0.5835993651359052  0.4002794463345821
  0.6661363188458833  0.7064728337164172  0.4012552717244953
  0.6659335683846892  0.8314406819117878  0.4011312741922580
  0.6662539853666358  0.9569609711581986  0.4003127479765906
  0.7914197096136982  0.0825095404520710  0.3997098790703170
  0.7915753671292065  0.2077184353760879  0.3994980562698459
  0.7919075378821012  0.3330079015012467  0.3992135697017233
  0.7925518613594043  0.4583147555269246  0.3988485740690030
  0.7930188600285345  0.5835159650460268  0.3988139148988878
  0.7926512720576887  0.7086704983618431  0.3993778928122862
  0.7915108918996343  0.8326471279456191  0.3998023073086504
  0.7912711432275625  0.9573680620525155  0.3998025888114916
  0.9165729865250924  0.0829846691093334  0.3994714800596758
  0.9164296319405586  0.2078387984622966  0.3994086823616084
  0.9164996265085184  0.3330077508629214  0.3992511910410378
  0.9167726111227903  0.4582292121352196  0.3990837381937446
  0.9173285384207260  0.5836139181513575  0.3990255557289694
  0.9174773709700892  0.7088756401673040  0.3991538519688851
  0.9173504524508516  0.8338275111300411  0.3993634098156487
  0.9168899496138335  0.9584000960117379  0.3994851431002669
  0.0843954968782665  0.0429319082320826  0.4001194821983856
  0.0842505560257140  0.1677314763525832  0.4001906121688268
  0.0828925528493995  0.2915474701752737  0.3998153434116208
  0.0823803860294639  0.4166393311995573  0.3991554336137599
  0.0828586164495099  0.5418071911011332  0.3990526797495049
  0.0835435868415015  0.6671090037641733  0.3992601703607072
  0.0839595339414992  0.7924629333596993  0.3995285971270741
  0.0841925782986701  0.9177395523165743  0.3998512658176925
  0.2094271574186212  0.0432539143402385  0.4004658320986354
  0.2097716069527798  0.1688493073070992  0.4014666550729953
  0.2098171123871860  0.2941259358691297  0.4020333232074501
  0.2063032194019089  0.4165919641175500  0.4008175613878131
  0.2067690092475435  0.5417621105949961  0.3995852522782661
  0.2081941728987139  0.6671503461441015  0.3992826597649656
  0.2086809171708022  0.7923442930877889  0.3994527647651746
  0.2090264183465187  0.9176958905579351  0.3998336209476959
  0.3340061559794883  0.0428285002364601  0.3999459436944726
  0.3346378610276808  0.1687995186750922  0.4011364540458936
  0.3354298243335401  0.2952006423942994  0.4040239843738808
  0.3332021989896126  0.4213345539850430  0.4076641287027825
  0.3304628218135965  0.5419681871101912  0.4033603984708032
  0.3327035930376439  0.6666617697482875  0.4007131197737251
  0.3333571423672872  0.7918489844082788  0.3996911133388274
  0.3336815475311730  0.9171974281076438  0.3995334543142864
  0.4585769149896660  0.0417972164259069  0.3995760427172799
  0.4589701082145950  0.1675487429992645  0.3998409006496583
  0.4598027438322267  0.2937513358628094  0.4009544519149272
  0.4632142841252230  0.4203849260633440  0.4055645445925590
  0.4563818662875438  0.6621302804869860  0.4046294561190154
  0.4578329885079329  0.7899255800396904  0.4010665609202499
  0.4583306245526700  0.9160459986750580  0.3998531422727651
  0.5832650091802757  0.0408652386792553  0.3997380794238706
  0.5835987244531169  0.1663491964140338  0.3994235249276462
  0.5840786578141900  0.2914987389583942  0.3992782051999766
  0.5856447357375295  0.4165624842250196  0.4000922515967896
  0.5868046274908371  0.5420240773602476  0.4024693133168154
  0.5819110629969342  0.6627993777006745  0.4038131234707276
  0.5821470736077259  0.7887289064617943  0.4022729365259560
  0.5828400483857280  0.9150573410759906  0.4005394141377447
  0.7080412225439073  0.0405729331184431  0.3999327543338649
  0.7083289687117957  0.1660198724316602  0.3995681768756986
  0.7086756866740337  0.2912939421351277  0.3991854864638941
  0.7095641185203108  0.4166140238498231  0.3988102160143508
  0.7103253111543235  0.5417496757201747  0.3991793895729400
  0.7093890135378610  0.6666839984719947  0.4001440257901038
  0.7078387313975067  0.7902106707201679  0.4006504614737097
  0.7077890579632669  0.9151256135643606  0.4003645704690020
  0.8331001151180020  0.0409436948897558  0.3995962789637672
  0.8331603470259943  0.1660451047035887  0.3995397621861562
  0.8333624686677551  0.2913114897786170  0.3993316191613437
  0.8337804344148860  0.4165098536215995  0.3990514393794494
  0.8342878970399333  0.5417916778602253  0.3988240370957248
  0.8343372082508251  0.6671451195664488  0.3990235607259646
  0.8339991289057648  0.7919116959244379  0.3994346179325514
  0.8332901544884281  0.9161760155129931  0.3996340339060740
  0.9587312725042832  0.0419240631157662  0.3995422139413163
  0.9582626472938210  0.1664288874071948  0.3994617678981509
  0.9580600900262551  0.2913102449748283  0.3992733183750148
  0.9580750415689709  0.4165151171529235  0.3991210915861903
  0.9586015059709704  0.5418841092392243  0.3990597651565831
  0.9589917992260034  0.6671504313837878  0.3991643993559330
  0.9591193158244040  0.7923660691834822  0.3993584830108647
  0.9590105894708297  0.9172797827690404  0.3995208180393980
  0.4896029026296491  0.4998912268756101  0.4952200451931044
  0.4172577456339538  0.5026490533510546  0.4847462678271547
 
  0.00000000E+00  0.00000000E+00  0.00000000E+00
  0.00000000E+00  0.00000000E+00  0.00000000E+00
  0.00000000E+00  0.00000000E+00  0.00000000E+00
  0.00000000E+00  0.00000000E+00  0.00000000E+00
  0.00000000E+00  0.00000000E+00  0.00000000E+00
  0.00000000E+00  0.00000000E+00  0.00000000E+00
  0.00000000E+00  0.00000000E+00  0.00000000E+00
  0.00000000E+00  0.00000000E+00  0.00000000E+00
  0.00000000E+00  0.00000000E+00  0.00000000E+00
  0.00000000E+00  0.00000000E+00  0.00000000E+00
  0.00000000E+00  0.00000000E+00  0.00000000E+00
  0.00000000E+00  0.00000000E+00  0.00000000E+00
  0.00000000E+00  0.00000000E+00  0.00000000E+00
  0.00000000E+00  0.00000000E+00  0.00000000E+00
  0.00000000E+00  0.00000000E+00  0.00000000E+00
  0.00000000E+00  0.00000000E+00  0.00000000E+00
  0.00000000E+00  0.00000000E+00  0.00000000E+00
  0.00000000E+00  0.00000000E+00  0.00000000E+00
  0.00000000E+00  0.00000000E+00  0.00000000E+00
  0.00000000E+00  0.00000000E+00  0.00000000E+00
  0.00000000E+00  0.00000000E+00  0.00000000E+00
  0.00000000E+00  0.00000000E+00  0.00000000E+00
  0.00000000E+00  0.00000000E+00  0.00000000E+00
  0.00000000E+00  0.00000000E+00  0.00000000E+00
  0.00000000E+00  0.00000000E+00  0.00000000E+00
  0.00000000E+00  0.00000000E+00  0.00000000E+00
  0.00000000E+00  0.00000000E+00  0.00000000E+00
  0.00000000E+00  0.00000000E+00  0.00000000E+00
  0.00000000E+00  0.00000000E+00  0.00000000E+00
  0.00000000E+00  0.00000000E+00  0.00000000E+00
  0.00000000E+00  0.00000000E+00  0.00000000E+00
  0.00000000E+00  0.00000000E+00  0.00000000E+00
  0.00000000E+00  0.00000000E+00  0.00000000E+00
  0.00000000E+00  0.00000000E+00  0.00000000E+00
  0.00000000E+00  0.00000000E+00  0.00000000E+00
  0.00000000E+00  0.00000000E+00  0.00000000E+00
  0.00000000E+00  0.00000000E+00  0.00000000E+00
  0.00000000E+00  0.00000000E+00  0.00000000E+00
  0.00000000E+00  0.00000000E+00  0.00000000E+00
  0.00000000E+00  0.00000000E+00  0.00000000E+00
  0.00000000E+00  0.00000000E+00  0.00000000E+00
  0.00000000E+00  0.00000000E+00  0.00000000E+00
  0.00000000E+00  0.00000000E+00  0.00000000E+00
  0.00000000E+00  0.00000000E+00  0.00000000E+00
  0.00000000E+00  0.00000000E+00  0.00000000E+00
  0.00000000E+00  0.00000000E+00  0.00000000E+00
  0.00000000E+00  0.00000000E+00  0.00000000E+00
  0.00000000E+00  0.00000000E+00  0.00000000E+00
  0.00000000E+00  0.00000000E+00  0.00000000E+00
  0.00000000E+00  0.00000000E+00  0.00000000E+00
  0.00000000E+00  0.00000000E+00  0.00000000E+00
  0.00000000E+00  0.00000000E+00  0.00000000E+00
  0.00000000E+00  0.00000000E+00  0.00000000E+00
  0.00000000E+00  0.00000000E+00  0.00000000E+00
  0.00000000E+00  0.00000000E+00  0.00000000E+00
  0.00000000E+00  0.00000000E+00  0.00000000E+00
  0.00000000E+00  0.00000000E+00  0.00000000E+00
  0.00000000E+00  0.00000000E+00  0.00000000E+00
  0.00000000E+00  0.00000000E+00  0.00000000E+00
  0.00000000E+00  0.00000000E+00  0.00000000E+00
  0.00000000E+00  0.00000000E+00  0.00000000E+00
  0.00000000E+00  0.00000000E+00  0.00000000E+00
  0.00000000E+00  0.00000000E+00  0.00000000E+00
  0.00000000E+00  0.00000000E+00  0.00000000E+00
  0.00000000E+00  0.00000000E+00  0.00000000E+00
  0.00000000E+00  0.00000000E+00  0.00000000E+00
  0.00000000E+00  0.00000000E+00  0.00000000E+00
  0.00000000E+00  0.00000000E+00  0.00000000E+00
  0.00000000E+00  0.00000000E+00  0.00000000E+00
  0.00000000E+00  0.00000000E+00  0.00000000E+00
  0.00000000E+00  0.00000000E+00  0.00000000E+00
  0.00000000E+00  0.00000000E+00  0.00000000E+00
  0.00000000E+00  0.00000000E+00  0.00000000E+00
  0.00000000E+00  0.00000000E+00  0.00000000E+00
  0.00000000E+00  0.00000000E+00  0.00000000E+00
  0.00000000E+00  0.00000000E+00  0.00000000E+00
  0.00000000E+00  0.00000000E+00  0.00000000E+00
  0.00000000E+00  0.00000000E+00  0.00000000E+00
  0.00000000E+00  0.00000000E+00  0.00000000E+00
  0.00000000E+00  0.00000000E+00  0.00000000E+00
  0.00000000E+00  0.00000000E+00  0.00000000E+00
  0.00000000E+00  0.00000000E+00  0.00000000E+00
  0.00000000E+00  0.00000000E+00  0.00000000E+00
  0.00000000E+00  0.00000000E+00  0.00000000E+00
  0.00000000E+00  0.00000000E+00  0.00000000E+00
  0.00000000E+00  0.00000000E+00  0.00000000E+00
  0.00000000E+00  0.00000000E+00  0.00000000E+00
  0.00000000E+00  0.00000000E+00  0.00000000E+00
  0.00000000E+00  0.00000000E+00  0.00000000E+00
  0.00000000E+00  0.00000000E+00  0.00000000E+00
  0.00000000E+00  0.00000000E+00  0.00000000E+00
  0.00000000E+00  0.00000000E+00  0.00000000E+00
  0.00000000E+00  0.00000000E+00  0.00000000E+00
  0.00000000E+00  0.00000000E+00  0.00000000E+00
  0.00000000E+00  0.00000000E+00  0.00000000E+00
  0.00000000E+00  0.00000000E+00  0.00000000E+00
  0.00000000E+00  0.00000000E+00  0.00000000E+00
  0.00000000E+00  0.00000000E+00  0.00000000E+00
  0.00000000E+00  0.00000000E+00  0.00000000E+00
  0.00000000E+00  0.00000000E+00  0.00000000E+00
  0.00000000E+00  0.00000000E+00  0.00000000E+00
  0.00000000E+00  0.00000000E+00  0.00000000E+00
  0.00000000E+00  0.00000000E+00  0.00000000E+00
  0.00000000E+00  0.00000000E+00  0.00000000E+00
  0.00000000E+00  0.00000000E+00  0.00000000E+00
  0.00000000E+00  0.00000000E+00  0.00000000E+00
  0.00000000E+00  0.00000000E+00  0.00000000E+00
  0.00000000E+00  0.00000000E+00  0.00000000E+00
  0.00000000E+00  0.00000000E+00  0.00000000E+00
  0.00000000E+00  0.00000000E+00  0.00000000E+00
  0.00000000E+00  0.00000000E+00  0.00000000E+00
  0.00000000E+00  0.00000000E+00  0.00000000E+00
  0.00000000E+00  0.00000000E+00  0.00000000E+00
  0.00000000E+00  0.00000000E+00  0.00000000E+00
  0.00000000E+00  0.00000000E+00  0.00000000E+00
  0.00000000E+00  0.00000000E+00  0.00000000E+00
  0.00000000E+00  0.00000000E+00  0.00000000E+00
  0.00000000E+00  0.00000000E+00  0.00000000E+00
  0.00000000E+00  0.00000000E+00  0.00000000E+00
  0.00000000E+00  0.00000000E+00  0.00000000E+00
  0.00000000E+00  0.00000000E+00  0.00000000E+00
  0.00000000E+00  0.00000000E+00  0.00000000E+00
  0.00000000E+00  0.00000000E+00  0.00000000E+00
  0.00000000E+00  0.00000000E+00  0.00000000E+00
  0.00000000E+00  0.00000000E+00  0.00000000E+00
  0.00000000E+00  0.00000000E+00  0.00000000E+00
  0.00000000E+00  0.00000000E+00  0.00000000E+00
  0.00000000E+00  0.00000000E+00  0.00000000E+00
  0.00000000E+00  0.00000000E+00  0.00000000E+00
  0.00000000E+00  0.00000000E+00  0.00000000E+00
