Nb1 H1 C124 N2                          
   1.00000000000000     
    19.7928515402942828   -0.0208714530650755   -0.0581589515465725
    -9.9145358783970980   17.0683890634436111   -0.0308763710346179
    -0.0876484784411128   -0.1048064533990208   29.8041278552915578
   Nb   H    C    N 
     1     1   124     2
Direct
  0.4411202432227213  0.5012962268971304  0.4317346185092347
  0.4455561781176108  0.5110934288205697  0.4926915097802846
  0.0422954670450724  0.0841600462592629  0.3996018660439778
  0.0419056038888010  0.2087658693846255  0.3995294861836882
  0.0412711449705354  0.3333774970578722  0.3997831075143346
  0.0410190656976615  0.4584554865926861  0.3997053822693346
  0.0413761199472781  0.5837202190522177  0.3997081268326430
  0.0417703931283993  0.7089346250217288  0.3998305086839011
  0.0419660437445928  0.8340459947094406  0.3999621472809926
  0.0421496365293546  0.9591845227777132  0.3998536185879241
  0.1678178527855322  0.0850518619943054  0.3996708774696771
  0.1679464432810938  0.2102150136080807  0.3995464667584569
  0.1668391010018372  0.3344648882234531  0.4005131847916951
  0.1652479409199654  0.4588383871054215  0.4009090986712612
  0.1656051816210013  0.5838527228749184  0.3999789090865833
  0.1662934248167669  0.7088851304427731  0.3998332891796233
  0.1667392561718112  0.8340417175310282  0.3999710211939633
  0.1671511188783777  0.9593878558358201  0.3999314536496750
  0.2923057557977981  0.0845783115507360  0.3996915155374733
  0.2937259373663350  0.2111753262485107  0.3999836761880499
  0.2940402034083942  0.3374593688296110  0.4011235544485102
  0.2901114716837093  0.4601239252415631  0.4031616849038849
  0.2896201766770233  0.5843856890680587  0.4018957720506427
  0.2908825523536717  0.7089931788446072  0.4000243064724035
  0.2915326379440033  0.8339128741829703  0.3997245221481976
  0.2918766678116499  0.9590796466124922  0.3997998183300989
  0.4169934591070395  0.0836402459719741  0.3996924071021635
  0.4174262205483127  0.2091169499746161  0.3996400383356580
  0.4196285865976386  0.3357888260809203  0.4008839716742226
  0.4152377160490763  0.7073520687601671  0.4003523778818576
  0.4162600465534864  0.8329692657712666  0.3995562246206299
  0.4166540959408306  0.9583097362230917  0.3997166584791699
  0.5417148670799625  0.0827714969289355  0.3997431906101171
  0.5420906117264617  0.2078113172455231  0.3998174238001185
  0.5431125796933581  0.3326267108197857  0.4008129817109575
  0.5442235755576905  0.4561563869129159  0.4017005313125113
  0.5426498620163828  0.5806783873401754  0.3997718072321130
  0.5388011854748367  0.7048088272373122  0.4001660208299622
  0.5408318641832947  0.8318953654601797  0.3996462764464930
  0.5414355519472834  0.9575330491927184  0.3997572795623331
  0.6665326747820584  0.0825372366273393  0.3999397093521452
  0.6668556126782099  0.2076486058035547  0.3998254914657770
  0.6675449405717448  0.3328534847502573  0.4001616728435316
  0.6686280544192135  0.4580430888523793  0.4013081016272924
  0.6682118501900490  0.5824435026795464  0.4010821004332843
  0.6656433983134925  0.7065560080130758  0.3989753001350775
  0.6651085015153220  0.8313667617093886  0.3993339897538061
  0.6661161320770317  0.9572256120636627  0.3998522661303530
  0.7914161982694312  0.0826451371983582  0.3999910776650223
  0.7916447027340294  0.2077959079035381  0.4000167077613982
  0.7919881289855987  0.3329513848092959  0.3997463033637235
  0.7925929205642285  0.4582203090729466  0.3999250023012697
  0.7928752880385018  0.5834466195148950  0.4003702455635585
  0.7918370158777983  0.7080361109939324  0.3999778137182891
  0.7910308554779647  0.8324752819212603  0.3996228456856045
  0.7909682184732602  0.9573167359905446  0.3997983894838236
  0.9165624459506195  0.0830748484720451  0.3997987767571505
  0.9165249768151152  0.2079822446968502  0.3998583159619425
  0.9165359164388703  0.3331109118689262  0.3998121740757102
  0.9167952774240340  0.4583716119127014  0.3996276149017332
  0.9171432505239266  0.5836329292998194  0.3997006036200578
  0.9170667805911715  0.7087346799838247  0.3998930362738642
  0.9167896894171250  0.8335901771814990  0.3998656030844152
  0.9166467881738785  0.9583718571610308  0.3998575867155819
  0.0841848302970484  0.0428246831066966  0.3996727290066789
  0.0842280838488297  0.1677749810480209  0.3994746918157321
  0.0833239094535409  0.2921314912591125  0.3998159656439175
  0.0823157621202184  0.4167513862094865  0.3999433185371121
  0.0825667097508329  0.5419510370820702  0.3997324385921722
  0.0830910467728796  0.6671488387320239  0.3998084649788239
  0.0834986992692415  0.7923402222864052  0.3999579689469385
  0.0837726154736627  0.9175206144037772  0.3999674198407224
  0.2090421874208505  0.0429046546544458  0.3997810700527877
  0.2099545022276390  0.1687834232939065  0.3997077252859143
  0.2097032888089886  0.2938584950500999  0.4000354157955838
  0.2070027395761006  0.4177805334129258  0.4017962424859230
  0.2065433621985640  0.5420706384145385  0.4008738538365476
  0.2075583350839770  0.6672295455894328  0.3999006293913963
  0.2082315752334112  0.7923701260059657  0.3998738991837074
  0.2085959563745373  0.9175334402672793  0.3999351296914035
  0.3336874379400191  0.0425373822755649  0.3997141153953025
  0.3342510557510065  0.1682280850752785  0.3997036459484573
  0.3362115281792371  0.2953620185623841  0.4006926745261918
  0.3328954427899116  0.4201447229342689  0.4036635339940569
  0.3308718053496200  0.5439241308750563  0.4036259738767699
  0.3320346616633254  0.6674693556947681  0.4008430166591193
  0.3330227682637479  0.7922241465638716  0.3996695319976345
  0.3333985662936503  0.9172520501088497  0.3997390769763428
  0.4584701811246945  0.0416931574361729  0.3997381972472366
  0.4588734673126864  0.1670331004262721  0.3996789912520711
  0.4598188711094059  0.2925602105376638  0.4001175024075750
  0.4553534953665405  0.6639793555030172  0.4017363796740923
  0.4576496225351119  0.7908582933600887  0.3995597728396214
  0.4581365192643211  0.9163735845795785  0.3996498750703255
  0.5832453216501688  0.0409857390101957  0.3998146767748383
  0.5835451426063826  0.1660980712592155  0.3997530134276358
  0.5842292777130119  0.2910717827288534  0.4002600979004704
  0.5856445688621521  0.4156967762057759  0.4017456156890576
  0.5848926416252148  0.5400176533504218  0.4006085512888304
  0.5813664833868859  0.6632256199324325  0.3991728519443798
  0.5813357060046205  0.7889822470442711  0.3995824480906521
  0.5828339650276954  0.9155529411405985  0.3997650007582494
  0.7080174369117178  0.0407470789581876  0.3999670143648294
  0.7083671377450037  0.1660240979564423  0.3999503130463276
  0.7087535212390768  0.2911183701583983  0.3998291440070968
  0.7095386203325194  0.4162401272196257  0.4004201698608558
  0.7099119168798462  0.5413601000189942  0.4012106788068945
  0.7083442815998005  0.6657296253804993  0.3999150904655651
  0.7072912845780345  0.7900749671653262  0.3991961076080998
  0.7073036820565908  0.9150775154798600  0.3996672375411805
  0.8330200187144849  0.0409385101710789  0.3999034184343346
  0.8331867424446885  0.1661041206182760  0.4000244193272778
  0.8333363185002846  0.2912085738645906  0.3998611046549335
  0.8337263054371299  0.4164195848437518  0.3996743075564982
  0.8341220134433920  0.5417033860456537  0.3999306810535990
  0.8338803788854683  0.6667941840892264  0.4001121875397724
  0.8332525368061283  0.7914199055252701  0.3997849544764504
  0.8329844173585373  0.9160857913569200  0.3997898246438888
  0.9586305485721500  0.0418894591500515  0.3997716194616009
  0.9583685792873587  0.1665735634626338  0.3996802636878015
  0.9580997702552139  0.2914654921712028  0.3997718816527790
  0.9579961537648271  0.4165392662386970  0.3996864099636632
  0.9583381798538593  0.5417985657820558  0.3996471959542041
  0.9586028933894579  0.6670843111020307  0.3997751747418974
  0.9586531418524620  0.7922071183877244  0.3998917822207525
  0.9586276044041557  0.9171005776246214  0.3998702080769112
  0.4118811019291437  0.5829480871992926  0.4060015848158361
  0.4632448204396077  0.4169805874409389  0.4030372783734587
 
  0.00000000E+00  0.00000000E+00  0.00000000E+00
  0.00000000E+00  0.00000000E+00  0.00000000E+00
  0.00000000E+00  0.00000000E+00  0.00000000E+00
  0.00000000E+00  0.00000000E+00  0.00000000E+00
  0.00000000E+00  0.00000000E+00  0.00000000E+00
  0.00000000E+00  0.00000000E+00  0.00000000E+00
  0.00000000E+00  0.00000000E+00  0.00000000E+00
  0.00000000E+00  0.00000000E+00  0.00000000E+00
  0.00000000E+00  0.00000000E+00  0.00000000E+00
  0.00000000E+00  0.00000000E+00  0.00000000E+00
  0.00000000E+00  0.00000000E+00  0.00000000E+00
  0.00000000E+00  0.00000000E+00  0.00000000E+00
  0.00000000E+00  0.00000000E+00  0.00000000E+00
  0.00000000E+00  0.00000000E+00  0.00000000E+00
  0.00000000E+00  0.00000000E+00  0.00000000E+00
  0.00000000E+00  0.00000000E+00  0.00000000E+00
  0.00000000E+00  0.00000000E+00  0.00000000E+00
  0.00000000E+00  0.00000000E+00  0.00000000E+00
  0.00000000E+00  0.00000000E+00  0.00000000E+00
  0.00000000E+00  0.00000000E+00  0.00000000E+00
  0.00000000E+00  0.00000000E+00  0.00000000E+00
  0.00000000E+00  0.00000000E+00  0.00000000E+00
  0.00000000E+00  0.00000000E+00  0.00000000E+00
  0.00000000E+00  0.00000000E+00  0.00000000E+00
  0.00000000E+00  0.00000000E+00  0.00000000E+00
  0.00000000E+00  0.00000000E+00  0.00000000E+00
  0.00000000E+00  0.00000000E+00  0.00000000E+00
  0.00000000E+00  0.00000000E+00  0.00000000E+00
  0.00000000E+00  0.00000000E+00  0.00000000E+00
  0.00000000E+00  0.00000000E+00  0.00000000E+00
  0.00000000E+00  0.00000000E+00  0.00000000E+00
  0.00000000E+00  0.00000000E+00  0.00000000E+00
  0.00000000E+00  0.00000000E+00  0.00000000E+00
  0.00000000E+00  0.00000000E+00  0.00000000E+00
  0.00000000E+00  0.00000000E+00  0.00000000E+00
  0.00000000E+00  0.00000000E+00  0.00000000E+00
  0.00000000E+00  0.00000000E+00  0.00000000E+00
  0.00000000E+00  0.00000000E+00  0.00000000E+00
  0.00000000E+00  0.00000000E+00  0.00000000E+00
  0.00000000E+00  0.00000000E+00  0.00000000E+00
  0.00000000E+00  0.00000000E+00  0.00000000E+00
  0.00000000E+00  0.00000000E+00  0.00000000E+00
  0.00000000E+00  0.00000000E+00  0.00000000E+00
  0.00000000E+00  0.00000000E+00  0.00000000E+00
  0.00000000E+00  0.00000000E+00  0.00000000E+00
  0.00000000E+00  0.00000000E+00  0.00000000E+00
  0.00000000E+00  0.00000000E+00  0.00000000E+00
  0.00000000E+00  0.00000000E+00  0.00000000E+00
  0.00000000E+00  0.00000000E+00  0.00000000E+00
  0.00000000E+00  0.00000000E+00  0.00000000E+00
  0.00000000E+00  0.00000000E+00  0.00000000E+00
  0.00000000E+00  0.00000000E+00  0.00000000E+00
  0.00000000E+00  0.00000000E+00  0.00000000E+00
  0.00000000E+00  0.00000000E+00  0.00000000E+00
  0.00000000E+00  0.00000000E+00  0.00000000E+00
  0.00000000E+00  0.00000000E+00  0.00000000E+00
  0.00000000E+00  0.00000000E+00  0.00000000E+00
  0.00000000E+00  0.00000000E+00  0.00000000E+00
  0.00000000E+00  0.00000000E+00  0.00000000E+00
  0.00000000E+00  0.00000000E+00  0.00000000E+00
  0.00000000E+00  0.00000000E+00  0.00000000E+00
  0.00000000E+00  0.00000000E+00  0.00000000E+00
  0.00000000E+00  0.00000000E+00  0.00000000E+00
  0.00000000E+00  0.00000000E+00  0.00000000E+00
  0.00000000E+00  0.00000000E+00  0.00000000E+00
  0.00000000E+00  0.00000000E+00  0.00000000E+00
  0.00000000E+00  0.00000000E+00  0.00000000E+00
  0.00000000E+00  0.00000000E+00  0.00000000E+00
  0.00000000E+00  0.00000000E+00  0.00000000E+00
  0.00000000E+00  0.00000000E+00  0.00000000E+00
  0.00000000E+00  0.00000000E+00  0.00000000E+00
  0.00000000E+00  0.00000000E+00  0.00000000E+00
  0.00000000E+00  0.00000000E+00  0.00000000E+00
  0.00000000E+00  0.00000000E+00  0.00000000E+00
  0.00000000E+00  0.00000000E+00  0.00000000E+00
  0.00000000E+00  0.00000000E+00  0.00000000E+00
  0.00000000E+00  0.00000000E+00  0.00000000E+00
  0.00000000E+00  0.00000000E+00  0.00000000E+00
  0.00000000E+00  0.00000000E+00  0.00000000E+00
  0.00000000E+00  0.00000000E+00  0.00000000E+00
  0.00000000E+00  0.00000000E+00  0.00000000E+00
  0.00000000E+00  0.00000000E+00  0.00000000E+00
  0.00000000E+00  0.00000000E+00  0.00000000E+00
  0.00000000E+00  0.00000000E+00  0.00000000E+00
  0.00000000E+00  0.00000000E+00  0.00000000E+00
  0.00000000E+00  0.00000000E+00  0.00000000E+00
  0.00000000E+00  0.00000000E+00  0.00000000E+00
  0.00000000E+00  0.00000000E+00  0.00000000E+00
  0.00000000E+00  0.00000000E+00  0.00000000E+00
  0.00000000E+00  0.00000000E+00  0.00000000E+00
  0.00000000E+00  0.00000000E+00  0.00000000E+00
  0.00000000E+00  0.00000000E+00  0.00000000E+00
  0.00000000E+00  0.00000000E+00  0.00000000E+00
  0.00000000E+00  0.00000000E+00  0.00000000E+00
  0.00000000E+00  0.00000000E+00  0.00000000E+00
  0.00000000E+00  0.00000000E+00  0.00000000E+00
  0.00000000E+00  0.00000000E+00  0.00000000E+00
  0.00000000E+00  0.00000000E+00  0.00000000E+00
  0.00000000E+00  0.00000000E+00  0.00000000E+00
  0.00000000E+00  0.00000000E+00  0.00000000E+00
  0.00000000E+00  0.00000000E+00  0.00000000E+00
  0.00000000E+00  0.00000000E+00  0.00000000E+00
  0.00000000E+00  0.00000000E+00  0.00000000E+00
  0.00000000E+00  0.00000000E+00  0.00000000E+00
  0.00000000E+00  0.00000000E+00  0.00000000E+00
  0.00000000E+00  0.00000000E+00  0.00000000E+00
  0.00000000E+00  0.00000000E+00  0.00000000E+00
  0.00000000E+00  0.00000000E+00  0.00000000E+00
  0.00000000E+00  0.00000000E+00  0.00000000E+00
  0.00000000E+00  0.00000000E+00  0.00000000E+00
  0.00000000E+00  0.00000000E+00  0.00000000E+00
  0.00000000E+00  0.00000000E+00  0.00000000E+00
  0.00000000E+00  0.00000000E+00  0.00000000E+00
  0.00000000E+00  0.00000000E+00  0.00000000E+00
  0.00000000E+00  0.00000000E+00  0.00000000E+00
  0.00000000E+00  0.00000000E+00  0.00000000E+00
  0.00000000E+00  0.00000000E+00  0.00000000E+00
  0.00000000E+00  0.00000000E+00  0.00000000E+00
  0.00000000E+00  0.00000000E+00  0.00000000E+00
  0.00000000E+00  0.00000000E+00  0.00000000E+00
  0.00000000E+00  0.00000000E+00  0.00000000E+00
  0.00000000E+00  0.00000000E+00  0.00000000E+00
  0.00000000E+00  0.00000000E+00  0.00000000E+00
  0.00000000E+00  0.00000000E+00  0.00000000E+00
  0.00000000E+00  0.00000000E+00  0.00000000E+00
  0.00000000E+00  0.00000000E+00  0.00000000E+00
  0.00000000E+00  0.00000000E+00  0.00000000E+00
  0.00000000E+00  0.00000000E+00  0.00000000E+00
