Sc1 H1 C125 N1 O2                       
   1.00000000000000     
    19.7805608549316965   -0.0068340655890450   -0.3248518240620744
    -9.8970479639513442   17.0884836323198392    0.0687824145936072
    -0.4880088954643579   -0.1632241603486246   29.7835749901308908
   Sc   H    C    N    O 
     1     1   125     1     2
Direct
  0.4387728600996508  0.5064159016055740  0.4461861012977192
  0.5451968498500567  0.5640775003386890  0.5163956964748423
  0.0419604845448856  0.0837249536269321  0.3994428852478368
  0.0416686503214862  0.2084397229677512  0.3993561074293004
  0.0414394027819857  0.3331659197061394  0.3990267351608427
  0.0414449416767663  0.4583816755641125  0.3987409737986717
  0.0416433215949430  0.5835871183842536  0.3988742065937078
  0.0420357182220573  0.7087908838252391  0.3992085904330053
  0.0422644549312528  0.8340037090541638  0.3993415581842855
  0.0422617460088654  0.9590197850506469  0.3993661580900301
  0.1673298883891801  0.0842778285607954  0.4000818802575908
  0.1670185792090549  0.2089236875427114  0.4004484330597855
  0.1668627144512002  0.3339644400067915  0.4001365013014141
  0.1660426296150608  0.4585165137974310  0.3992468470312207
  0.1659838893653894  0.5835985977351565  0.3986110497691786
  0.1665637329611348  0.7088354850987039  0.3989091000206361
  0.1670485199749410  0.8340480508512310  0.3993376830390392
  0.1673169354169978  0.9592283302313029  0.3996687060876114
  0.2924076617075702  0.0841846094175143  0.4000730083467940
  0.2928694561098291  0.2098326766848216  0.4016477109303403
  0.2924749065333587  0.3349662083582557  0.4031987762870518
  0.2920367143994165  0.4590139789106917  0.4023728436513813
  0.2900974514193241  0.5843548928589851  0.4001218306750077
  0.2911362823742580  0.7091059775715087  0.3990712685201364
  0.2917415609222543  0.8339094753623228  0.3989913907155961
  0.2920387013429821  0.9589442401832245  0.3993476117211147
  0.4171461973246623  0.0834984065608068  0.3993647339338505
  0.4174313391292762  0.2085387401478130  0.4005896294438285
  0.4186044952464409  0.3344411531305706  0.4046342670191671
  0.4157504817537355  0.7081446766928561  0.4013039254196602
  0.4165078500151453  0.8332800157447081  0.3993967793745062
  0.4168037640393560  0.9583590296532956  0.3990653283836415
  0.5418762666599114  0.0828526291536371  0.3992389352390929
  0.5422475107218462  0.2080124120599424  0.3992822906607769
  0.5427069338091198  0.3331505255165457  0.4004409364835128
  0.5436024541185077  0.4580901477144410  0.4045879961954489
  0.5474752313417068  0.5835003984658076  0.4134536940447983
  0.5404012938522923  0.7054095481435786  0.4058883324571610
  0.5411152150031807  0.8319841246305588  0.4007850260998830
  0.5416152975073529  0.9575722395367920  0.3994527886098242
  0.6666488343593748  0.0825697437407401  0.3995620206835818
  0.6669776847753091  0.2077936122769361  0.3993288034209948
  0.6672566844695829  0.3329056093057680  0.3989515219534038
  0.6679829790091935  0.4581996344390576  0.3987301335267944
  0.6691733299425927  0.5838003931618135  0.3994077717936472
  0.6673137304407262  0.7078774427094813  0.4009354244300067
  0.6659030145658821  0.8317304545251614  0.4006172805766890
  0.6663700230988513  0.9572899140840604  0.3998753145572946
  0.7914921929780859  0.0826104884381077  0.3994361310217046
  0.7916998667702960  0.2077339881169062  0.3994918805553196
  0.7919974326460345  0.3329591010217657  0.3991724503138739
  0.7924151906739865  0.4582786840338169  0.3984836061741336
  0.7928782085809456  0.5834934511371478  0.3977206956369536
  0.7927474507161926  0.7087362056090666  0.3980969768284698
  0.7919015038463183  0.8331709117239386  0.3986302641029694
  0.7912514185916862  0.9575028719379571  0.3991951594081666
  0.9165609942934138  0.0830039493084123  0.3991491176003814
  0.9165336243233920  0.2079475577330544  0.3992100550439434
  0.9166587643230600  0.3330390741993871  0.3990893746929380
  0.9168735763271092  0.4581916871568709  0.3989134716900308
  0.9172954834317977  0.5835448689010565  0.3987526426342358
  0.9174463040839612  0.7088551670079576  0.3985411687681315
  0.9173162576185369  0.8337758351617426  0.3986579374337724
  0.9168796184733292  0.9583850278569409  0.3988991951678016
  0.0839087532591277  0.0424103884780874  0.3996229802932526
  0.0835510806456830  0.1670341185779624  0.3996844452819727
  0.0832179901068166  0.2918469781734682  0.3993466688479364
  0.0829966722291485  0.4167410625391976  0.3988859440272189
  0.0829219431557027  0.5418141321807282  0.3986685874525117
  0.0833903889444043  0.6670564302620793  0.3990297772728718
  0.0838291025380616  0.7923590723441648  0.3993737816487608
  0.0839405243660565  0.9174667508806659  0.3994944588927554
  0.2089910493871071  0.0425335063589373  0.3999855970785938
  0.2089650487585907  0.1676666831553212  0.4007000343109859
  0.2086155235732453  0.2924068759621315  0.4010174644669037
  0.2080144591258766  0.4173410327320271  0.4003141713154877
  0.2071557751214199  0.5419666876586391  0.3990039614635578
  0.2079939020025426  0.6672039447718897  0.3987547432406193
  0.2084801691870063  0.7922822486804108  0.3990704635870277
  0.2088423811398110  0.9174431713515925  0.3994687666273815
  0.3338401779645797  0.0422719898562525  0.3995670161001408
  0.3342855727806487  0.1674767660911116  0.4008219547698585
  0.3344248711811934  0.2926349816374318  0.4036257845231420
  0.3318986640545876  0.4168755562676944  0.4049871059388007
  0.3330638933983483  0.5448503763178530  0.4029477199274336
  0.3325559459908800  0.6674652853948699  0.4000467340159335
  0.3332636898140822  0.7922844957949396  0.3990763478025505
  0.3335792332831838  0.9172020107389948  0.3990932628758865
  0.4586621714646474  0.0416520300265617  0.3991293684481144
  0.4589466144928420  0.1667188070729603  0.3995995353900235
  0.4595233015025847  0.2918455846355846  0.4017023719042663
  0.4622919698759303  0.4159325083004047  0.4086113974308424
  0.4554375099382781  0.6644542411457336  0.4050970586555365
  0.4580193245131528  0.7914007432787075  0.4003558612268324
  0.4583255406421916  0.9165080461292321  0.3992209475998106
  0.5834003376002399  0.0410002286204895  0.3994127764778566
  0.5837135604747492  0.1662348758330758  0.3992239709090727
  0.5841577179680693  0.2913172926866317  0.3992793044617738
  0.5849130503666444  0.4163183482862360  0.4006712091355211
  0.5872899996154332  0.5433033293506258  0.4052962814272790
  0.5844586881252963  0.6648122810758372  0.4068723292519535
  0.5818487626723988  0.7888743650225516  0.4022903141405659
  0.5829989749515933  0.9155002719020272  0.3999392672588221
  0.7081201324521829  0.0407235637335908  0.3996165898125849
  0.7084807066840858  0.1660399301081252  0.3995193018233124
  0.7087586945794551  0.2912141062660333  0.3991557045746078
  0.7092187886470106  0.4165251047285240  0.3985406532128121
  0.7100757896128913  0.5418538729299304  0.3979232761143217
  0.7096468357680639  0.6669752011049890  0.3991591415566698
  0.7084360203768243  0.7910994083572874  0.3996555959578508
  0.7077060608157206  0.9153008537792221  0.3997949350366597
  0.8330741390267394  0.0409979814411503  0.3992233853170797
  0.8332227174572271  0.1660866468677943  0.3994063476417142
  0.8334867064288698  0.2913100999026187  0.3993177878786668
  0.8337716919498119  0.4164926910011310  0.3988902270126764
  0.8341897859340340  0.5417250398664244  0.3982702566544516
  0.8342835641385470  0.6671332858394280  0.3979391930988307
  0.8340469856313251  0.7920196821041874  0.3983309980968999
  0.8334140719175988  0.9164187828118960  0.3988419775290539
  0.9584934098626854  0.0417516153238224  0.3991136040212545
  0.9582736438834318  0.1664634166600986  0.3991856071312717
  0.9581751491941708  0.2913672974791109  0.3990723091768085
  0.9582769398842860  0.4165254604874760  0.3989018054240943
  0.9586117484509855  0.5418219642198980  0.3989095956039309
  0.9589126530137175  0.6670944249100931  0.3988937472432240
  0.9590253256481459  0.7922471434783617  0.3988806596077018
  0.9588493816113844  0.9171371809039760  0.3989535861012906
  0.4119133890283064  0.5846983706414365  0.4071882067048629
  0.5007377568372349  0.5116160000635923  0.5106496759141258
  0.4334020218670077  0.5257654913832387  0.5120743507688634
 
  0.00000000E+00  0.00000000E+00  0.00000000E+00
  0.00000000E+00  0.00000000E+00  0.00000000E+00
  0.00000000E+00  0.00000000E+00  0.00000000E+00
  0.00000000E+00  0.00000000E+00  0.00000000E+00
  0.00000000E+00  0.00000000E+00  0.00000000E+00
  0.00000000E+00  0.00000000E+00  0.00000000E+00
  0.00000000E+00  0.00000000E+00  0.00000000E+00
  0.00000000E+00  0.00000000E+00  0.00000000E+00
  0.00000000E+00  0.00000000E+00  0.00000000E+00
  0.00000000E+00  0.00000000E+00  0.00000000E+00
  0.00000000E+00  0.00000000E+00  0.00000000E+00
  0.00000000E+00  0.00000000E+00  0.00000000E+00
  0.00000000E+00  0.00000000E+00  0.00000000E+00
  0.00000000E+00  0.00000000E+00  0.00000000E+00
  0.00000000E+00  0.00000000E+00  0.00000000E+00
  0.00000000E+00  0.00000000E+00  0.00000000E+00
  0.00000000E+00  0.00000000E+00  0.00000000E+00
  0.00000000E+00  0.00000000E+00  0.00000000E+00
  0.00000000E+00  0.00000000E+00  0.00000000E+00
  0.00000000E+00  0.00000000E+00  0.00000000E+00
  0.00000000E+00  0.00000000E+00  0.00000000E+00
  0.00000000E+00  0.00000000E+00  0.00000000E+00
  0.00000000E+00  0.00000000E+00  0.00000000E+00
  0.00000000E+00  0.00000000E+00  0.00000000E+00
  0.00000000E+00  0.00000000E+00  0.00000000E+00
  0.00000000E+00  0.00000000E+00  0.00000000E+00
  0.00000000E+00  0.00000000E+00  0.00000000E+00
  0.00000000E+00  0.00000000E+00  0.00000000E+00
  0.00000000E+00  0.00000000E+00  0.00000000E+00
  0.00000000E+00  0.00000000E+00  0.00000000E+00
  0.00000000E+00  0.00000000E+00  0.00000000E+00
  0.00000000E+00  0.00000000E+00  0.00000000E+00
  0.00000000E+00  0.00000000E+00  0.00000000E+00
  0.00000000E+00  0.00000000E+00  0.00000000E+00
  0.00000000E+00  0.00000000E+00  0.00000000E+00
  0.00000000E+00  0.00000000E+00  0.00000000E+00
  0.00000000E+00  0.00000000E+00  0.00000000E+00
  0.00000000E+00  0.00000000E+00  0.00000000E+00
  0.00000000E+00  0.00000000E+00  0.00000000E+00
  0.00000000E+00  0.00000000E+00  0.00000000E+00
  0.00000000E+00  0.00000000E+00  0.00000000E+00
  0.00000000E+00  0.00000000E+00  0.00000000E+00
  0.00000000E+00  0.00000000E+00  0.00000000E+00
  0.00000000E+00  0.00000000E+00  0.00000000E+00
  0.00000000E+00  0.00000000E+00  0.00000000E+00
  0.00000000E+00  0.00000000E+00  0.00000000E+00
  0.00000000E+00  0.00000000E+00  0.00000000E+00
  0.00000000E+00  0.00000000E+00  0.00000000E+00
  0.00000000E+00  0.00000000E+00  0.00000000E+00
  0.00000000E+00  0.00000000E+00  0.00000000E+00
  0.00000000E+00  0.00000000E+00  0.00000000E+00
  0.00000000E+00  0.00000000E+00  0.00000000E+00
  0.00000000E+00  0.00000000E+00  0.00000000E+00
  0.00000000E+00  0.00000000E+00  0.00000000E+00
  0.00000000E+00  0.00000000E+00  0.00000000E+00
  0.00000000E+00  0.00000000E+00  0.00000000E+00
  0.00000000E+00  0.00000000E+00  0.00000000E+00
  0.00000000E+00  0.00000000E+00  0.00000000E+00
  0.00000000E+00  0.00000000E+00  0.00000000E+00
  0.00000000E+00  0.00000000E+00  0.00000000E+00
  0.00000000E+00  0.00000000E+00  0.00000000E+00
  0.00000000E+00  0.00000000E+00  0.00000000E+00
  0.00000000E+00  0.00000000E+00  0.00000000E+00
  0.00000000E+00  0.00000000E+00  0.00000000E+00
  0.00000000E+00  0.00000000E+00  0.00000000E+00
  0.00000000E+00  0.00000000E+00  0.00000000E+00
  0.00000000E+00  0.00000000E+00  0.00000000E+00
  0.00000000E+00  0.00000000E+00  0.00000000E+00
  0.00000000E+00  0.00000000E+00  0.00000000E+00
  0.00000000E+00  0.00000000E+00  0.00000000E+00
  0.00000000E+00  0.00000000E+00  0.00000000E+00
  0.00000000E+00  0.00000000E+00  0.00000000E+00
  0.00000000E+00  0.00000000E+00  0.00000000E+00
  0.00000000E+00  0.00000000E+00  0.00000000E+00
  0.00000000E+00  0.00000000E+00  0.00000000E+00
  0.00000000E+00  0.00000000E+00  0.00000000E+00
  0.00000000E+00  0.00000000E+00  0.00000000E+00
  0.00000000E+00  0.00000000E+00  0.00000000E+00
  0.00000000E+00  0.00000000E+00  0.00000000E+00
  0.00000000E+00  0.00000000E+00  0.00000000E+00
  0.00000000E+00  0.00000000E+00  0.00000000E+00
  0.00000000E+00  0.00000000E+00  0.00000000E+00
  0.00000000E+00  0.00000000E+00  0.00000000E+00
  0.00000000E+00  0.00000000E+00  0.00000000E+00
  0.00000000E+00  0.00000000E+00  0.00000000E+00
  0.00000000E+00  0.00000000E+00  0.00000000E+00
  0.00000000E+00  0.00000000E+00  0.00000000E+00
  0.00000000E+00  0.00000000E+00  0.00000000E+00
  0.00000000E+00  0.00000000E+00  0.00000000E+00
  0.00000000E+00  0.00000000E+00  0.00000000E+00
  0.00000000E+00  0.00000000E+00  0.00000000E+00
  0.00000000E+00  0.00000000E+00  0.00000000E+00
  0.00000000E+00  0.00000000E+00  0.00000000E+00
  0.00000000E+00  0.00000000E+00  0.00000000E+00
  0.00000000E+00  0.00000000E+00  0.00000000E+00
  0.00000000E+00  0.00000000E+00  0.00000000E+00
  0.00000000E+00  0.00000000E+00  0.00000000E+00
  0.00000000E+00  0.00000000E+00  0.00000000E+00
  0.00000000E+00  0.00000000E+00  0.00000000E+00
  0.00000000E+00  0.00000000E+00  0.00000000E+00
  0.00000000E+00  0.00000000E+00  0.00000000E+00
  0.00000000E+00  0.00000000E+00  0.00000000E+00
  0.00000000E+00  0.00000000E+00  0.00000000E+00
  0.00000000E+00  0.00000000E+00  0.00000000E+00
  0.00000000E+00  0.00000000E+00  0.00000000E+00
  0.00000000E+00  0.00000000E+00  0.00000000E+00
  0.00000000E+00  0.00000000E+00  0.00000000E+00
  0.00000000E+00  0.00000000E+00  0.00000000E+00
  0.00000000E+00  0.00000000E+00  0.00000000E+00
  0.00000000E+00  0.00000000E+00  0.00000000E+00
  0.00000000E+00  0.00000000E+00  0.00000000E+00
  0.00000000E+00  0.00000000E+00  0.00000000E+00
  0.00000000E+00  0.00000000E+00  0.00000000E+00
  0.00000000E+00  0.00000000E+00  0.00000000E+00
  0.00000000E+00  0.00000000E+00  0.00000000E+00
  0.00000000E+00  0.00000000E+00  0.00000000E+00
  0.00000000E+00  0.00000000E+00  0.00000000E+00
  0.00000000E+00  0.00000000E+00  0.00000000E+00
  0.00000000E+00  0.00000000E+00  0.00000000E+00
  0.00000000E+00  0.00000000E+00  0.00000000E+00
  0.00000000E+00  0.00000000E+00  0.00000000E+00
  0.00000000E+00  0.00000000E+00  0.00000000E+00
  0.00000000E+00  0.00000000E+00  0.00000000E+00
  0.00000000E+00  0.00000000E+00  0.00000000E+00
  0.00000000E+00  0.00000000E+00  0.00000000E+00
  0.00000000E+00  0.00000000E+00  0.00000000E+00
  0.00000000E+00  0.00000000E+00  0.00000000E+00
  0.00000000E+00  0.00000000E+00  0.00000000E+00
  0.00000000E+00  0.00000000E+00  0.00000000E+00
  0.00000000E+00  0.00000000E+00  0.00000000E+00
