Sc1 C123 N3 O1                          
   1.00000000000000     
    19.8104156772784954    0.0061137121674968   -0.1463547716960099
    -9.8998464391313465   17.0472262952620106    0.0289077054524091
    -0.2197332575806779   -0.0772693074276711   29.7922660895124594
   Sc   C    N    O 
     1   123     3     1
Direct
  0.4386305737287009  0.5037006912546121  0.4418740398019844
  0.0419017645160118  0.0839979006512449  0.3995758176903235
  0.0408242102781383  0.2080430271138164  0.3994725681602427
  0.0402935393461840  0.3327780165146846  0.3993345087794302
  0.0406178623413032  0.4581604252392336  0.3993929579485087
  0.0415439155795708  0.5836983131438910  0.3998805251725276
  0.0423420950110812  0.7091445662530679  0.4000169256407003
  0.0427006956340452  0.8345835602189208  0.3999790677967630
  0.0426704632760675  0.9596685967674922  0.3998233501198602
  0.1678978239319373  0.0855583298005382  0.3997425845426753
  0.1668828679776497  0.2096810724919374  0.3998189372163776
  0.1650534895143260  0.3334064984046300  0.3997591701153385
  0.1644104160940074  0.4582256730402421  0.3989550888873404
  0.1653995573713682  0.5834529394352950  0.3989754450049673
  0.1665678212126945  0.7089789024140626  0.3996507041077438
  0.1672768078220629  0.8344941423882228  0.3999430274150809
  0.1676983246025303  0.9600589328069271  0.3998893776734108
  0.2927344941150443  0.0855716381031157  0.3998101295738909
  0.2935655994040755  0.2126238820035000  0.4009781065460392
  0.2915519105553139  0.3378448754183869  0.4031360546725130
  0.2882282279605193  0.4566776021455847  0.4017154061466985
  0.2889804374117788  0.5830542109084401  0.3989931244389835
  0.2907236426337553  0.7084899110867298  0.3991287847709825
  0.2917396320970452  0.8339038189176103  0.3997652387480297
  0.2922629885440697  0.9595836134991798  0.3998721072282092
  0.4171870856132245  0.0838977367753165  0.3994834792679569
  0.4177646252954944  0.2096505984735626  0.3993233824036339
  0.4202993508298355  0.3367660674892426  0.4045566883416172
  0.4148623702742263  0.7066532478032863  0.3995368176233696
  0.4161782238436209  0.8325143842959507  0.3995309160337149
  0.4167358452008699  0.9582111335814179  0.3998818258612080
  0.5416538975431082  0.0825653146118578  0.3998545609100458
  0.5422144926505595  0.2081831207760801  0.3989596251803042
  0.5433230457747860  0.3338204223311399  0.3983275180758593
  0.5452391290635966  0.4586276026679305  0.4022000562057532
  0.5390538635109413  0.7022787171103518  0.4019330020591749
  0.5404811068288295  0.8303090285080273  0.4000801226860310
  0.5411800615092924  0.9566651327987253  0.3999788009510973
  0.6661376171583933  0.0818932251398956  0.4000668303099756
  0.6666641377233443  0.2074432303238657  0.3998546117622655
  0.6674911890040993  0.3329059870192192  0.3987016266753878
  0.6691011313426450  0.4583948031352427  0.3969251620347864
  0.6704585225231412  0.5842382727041752  0.3976810856142871
  0.6676977256508033  0.7072815081511812  0.3992480688280130
  0.6652126139399820  0.8305165746590359  0.4001161923131703
  0.6657160536413790  0.9562861265655310  0.4001305622429655
  0.7908183988185745  0.0818967015381560  0.3999361406392292
  0.7911176945571466  0.2072266291648207  0.3999398578785234
  0.7917601466119383  0.3327165725238094  0.4000380548517714
  0.7928428426215760  0.4583123677768298  0.3994501826936266
  0.7936480000208009  0.5837287134052120  0.3986073577219702
  0.7936976580320531  0.7090763402566984  0.3989569607007438
  0.7919229246077724  0.8328869792783261  0.3995489122469321
  0.7907242416405825  0.9568182480700630  0.3999669321151840
  0.9159840793730991  0.0825442523331052  0.3997714725083739
  0.9157429449602449  0.2073918845112723  0.3997336847654756
  0.9159754103565758  0.3327128272249075  0.3998691610653568
  0.9167296581361981  0.4581828646280220  0.4001716411898569
  0.9176211118641616  0.5837563725603325  0.4001722227506113
  0.9180486287546867  0.7091862213212432  0.3999567471923628
  0.9177915564896575  0.8342069267059105  0.3999215239494932
  0.9168809636566154  0.9584253520684278  0.3998656890898014
  0.0843557005460081  0.0432150958934966  0.3996495596752016
  0.0833832470753709  0.1673565905408298  0.3995049169982939
  0.0818529346169206  0.2912937270267610  0.3993726774978943
  0.0817160614388037  0.4163518104126847  0.3990783844268723
  0.0824840651267340  0.5417238584481061  0.3994061736029478
  0.0834828092843997  0.6672607744336490  0.3998678553078937
  0.0841483664616548  0.7928040145464825  0.3999372121631727
  0.0843808059293370  0.9181362816271600  0.3998970071919366
  0.2094529935312946  0.0436489053485095  0.3998603379472387
  0.2095996785751930  0.1692397441535294  0.4000341970200063
  0.2078469915616347  0.2931107775492787  0.4004152330697397
  0.2055769387303979  0.4166302053884592  0.3997700706206119
  0.2061485931890489  0.5415162651562414  0.3987449316668167
  0.2076737454084510  0.6670717941699263  0.3992199390183111
  0.2085846971002868  0.7925245211493468  0.3998355973309752
  0.2090986704940159  0.9180828323755409  0.3999486538851771
  0.3339935287975958  0.0431672929194533  0.3996939940220323
  0.3346261260817770  0.1694022656093845  0.4000663198733245
  0.3358121802468468  0.2965473698936537  0.4037047781658950
  0.3314603417094499  0.5429891551853661  0.4008673447974435
  0.3317856791950769  0.6663526553546755  0.3990539597546061
  0.3329827448927256  0.7918047977041307  0.3994574119644853
  0.3336079618104177  0.9173864180482315  0.3998724027688492
  0.4585173469320227  0.0416505083873608  0.3997778217748431
  0.4590053299577787  0.1672545540353565  0.3989765515638709
  0.4599962563407592  0.2930768247595371  0.3999298264512260
  0.4653998827780844  0.4185549987257617  0.4109250545431937
  0.4538801898482038  0.6618806405628745  0.4014710987767285
  0.4573721313328496  0.7901127319335984  0.3995701289633855
  0.4580337144709088  0.9159214765886712  0.3998309757936098
  0.5829664691669819  0.0403396629852340  0.4000361911130735
  0.5834917483818158  0.1660982404807452  0.3996156699791624
  0.5843407771581226  0.2916765274703096  0.3983543907874323
  0.5863304907839023  0.4172434460106638  0.3975324594374532
  0.5883803547024049  0.5441190928509050  0.4013467786469337
  0.5842597367488958  0.6624250307036426  0.4019248922780097
  0.5811114568131158  0.7867251404220472  0.4006225663801922
  0.5823991710014461  0.9142089262492342  0.4000579606449473
  0.7075283561602340  0.0399141756467963  0.4000519598268796
  0.7079673283366900  0.1655338210537250  0.4000175256689883
  0.7085957664365554  0.2909816089536509  0.3996525964160206
  0.7098912051804740  0.4165086096133665  0.3982454007033283
  0.7110379455756687  0.5419296283473335  0.3972094776177768
  0.7107197935611373  0.6671772564523341  0.3983982627613493
  0.7083544634722726  0.7905566365151376  0.3994593669729229
  0.7070810432332620  0.9143478617884674  0.4000886201951129
  0.8325198908040654  0.0404019427942365  0.3999191583038679
  0.8325125600966795  0.1654675860824223  0.3998549186510687
  0.8329492098362402  0.2908608129030456  0.4000227393492121
  0.8338061314536018  0.4163503964722222  0.4001080592474223
  0.8347179741324806  0.5418544405475394  0.3995500961879085
  0.8350628914131886  0.6673536084402611  0.3992594824917192
  0.8345585959075997  0.7922632822822702  0.3995548859452002
  0.8333582441142122  0.9162062233238671  0.3998663584111108
  0.9583805648673148  0.0417759599958867  0.3997357308301486
  0.9575360456189212  0.1659763799861922  0.3996357915879487
  0.9572987201890564  0.2909382169022149  0.3996405553033044
  0.9577067684108995  0.4162655341323873  0.3998567797852667
  0.9586488242523341  0.5418602033563998  0.4001877751605625
  0.9593540419729333  0.6673570801235627  0.4001166019434653
  0.9595198889768710  0.7927072828218983  0.4000165331692906
  0.9592779365139383  0.9176056635156038  0.3998981921458220
  0.4102674692298726  0.5823382641453131  0.4030724339259368
  0.5488900821603679  0.5832263916264309  0.4050775813438721
  0.3276282358833004  0.4174525006883175  0.4047407144434370
  0.4377555936059467  0.5133480480786555  0.5007875507687208
 
  0.00000000E+00  0.00000000E+00  0.00000000E+00
  0.00000000E+00  0.00000000E+00  0.00000000E+00
  0.00000000E+00  0.00000000E+00  0.00000000E+00
  0.00000000E+00  0.00000000E+00  0.00000000E+00
  0.00000000E+00  0.00000000E+00  0.00000000E+00
  0.00000000E+00  0.00000000E+00  0.00000000E+00
  0.00000000E+00  0.00000000E+00  0.00000000E+00
  0.00000000E+00  0.00000000E+00  0.00000000E+00
  0.00000000E+00  0.00000000E+00  0.00000000E+00
  0.00000000E+00  0.00000000E+00  0.00000000E+00
  0.00000000E+00  0.00000000E+00  0.00000000E+00
  0.00000000E+00  0.00000000E+00  0.00000000E+00
  0.00000000E+00  0.00000000E+00  0.00000000E+00
  0.00000000E+00  0.00000000E+00  0.00000000E+00
  0.00000000E+00  0.00000000E+00  0.00000000E+00
  0.00000000E+00  0.00000000E+00  0.00000000E+00
  0.00000000E+00  0.00000000E+00  0.00000000E+00
  0.00000000E+00  0.00000000E+00  0.00000000E+00
  0.00000000E+00  0.00000000E+00  0.00000000E+00
  0.00000000E+00  0.00000000E+00  0.00000000E+00
  0.00000000E+00  0.00000000E+00  0.00000000E+00
  0.00000000E+00  0.00000000E+00  0.00000000E+00
  0.00000000E+00  0.00000000E+00  0.00000000E+00
  0.00000000E+00  0.00000000E+00  0.00000000E+00
  0.00000000E+00  0.00000000E+00  0.00000000E+00
  0.00000000E+00  0.00000000E+00  0.00000000E+00
  0.00000000E+00  0.00000000E+00  0.00000000E+00
  0.00000000E+00  0.00000000E+00  0.00000000E+00
  0.00000000E+00  0.00000000E+00  0.00000000E+00
  0.00000000E+00  0.00000000E+00  0.00000000E+00
  0.00000000E+00  0.00000000E+00  0.00000000E+00
  0.00000000E+00  0.00000000E+00  0.00000000E+00
  0.00000000E+00  0.00000000E+00  0.00000000E+00
  0.00000000E+00  0.00000000E+00  0.00000000E+00
  0.00000000E+00  0.00000000E+00  0.00000000E+00
  0.00000000E+00  0.00000000E+00  0.00000000E+00
  0.00000000E+00  0.00000000E+00  0.00000000E+00
  0.00000000E+00  0.00000000E+00  0.00000000E+00
  0.00000000E+00  0.00000000E+00  0.00000000E+00
  0.00000000E+00  0.00000000E+00  0.00000000E+00
  0.00000000E+00  0.00000000E+00  0.00000000E+00
  0.00000000E+00  0.00000000E+00  0.00000000E+00
  0.00000000E+00  0.00000000E+00  0.00000000E+00
  0.00000000E+00  0.00000000E+00  0.00000000E+00
  0.00000000E+00  0.00000000E+00  0.00000000E+00
  0.00000000E+00  0.00000000E+00  0.00000000E+00
  0.00000000E+00  0.00000000E+00  0.00000000E+00
  0.00000000E+00  0.00000000E+00  0.00000000E+00
  0.00000000E+00  0.00000000E+00  0.00000000E+00
  0.00000000E+00  0.00000000E+00  0.00000000E+00
  0.00000000E+00  0.00000000E+00  0.00000000E+00
  0.00000000E+00  0.00000000E+00  0.00000000E+00
  0.00000000E+00  0.00000000E+00  0.00000000E+00
  0.00000000E+00  0.00000000E+00  0.00000000E+00
  0.00000000E+00  0.00000000E+00  0.00000000E+00
  0.00000000E+00  0.00000000E+00  0.00000000E+00
  0.00000000E+00  0.00000000E+00  0.00000000E+00
  0.00000000E+00  0.00000000E+00  0.00000000E+00
  0.00000000E+00  0.00000000E+00  0.00000000E+00
  0.00000000E+00  0.00000000E+00  0.00000000E+00
  0.00000000E+00  0.00000000E+00  0.00000000E+00
  0.00000000E+00  0.00000000E+00  0.00000000E+00
  0.00000000E+00  0.00000000E+00  0.00000000E+00
  0.00000000E+00  0.00000000E+00  0.00000000E+00
  0.00000000E+00  0.00000000E+00  0.00000000E+00
  0.00000000E+00  0.00000000E+00  0.00000000E+00
  0.00000000E+00  0.00000000E+00  0.00000000E+00
  0.00000000E+00  0.00000000E+00  0.00000000E+00
  0.00000000E+00  0.00000000E+00  0.00000000E+00
  0.00000000E+00  0.00000000E+00  0.00000000E+00
  0.00000000E+00  0.00000000E+00  0.00000000E+00
  0.00000000E+00  0.00000000E+00  0.00000000E+00
  0.00000000E+00  0.00000000E+00  0.00000000E+00
  0.00000000E+00  0.00000000E+00  0.00000000E+00
  0.00000000E+00  0.00000000E+00  0.00000000E+00
  0.00000000E+00  0.00000000E+00  0.00000000E+00
  0.00000000E+00  0.00000000E+00  0.00000000E+00
  0.00000000E+00  0.00000000E+00  0.00000000E+00
  0.00000000E+00  0.00000000E+00  0.00000000E+00
  0.00000000E+00  0.00000000E+00  0.00000000E+00
  0.00000000E+00  0.00000000E+00  0.00000000E+00
  0.00000000E+00  0.00000000E+00  0.00000000E+00
  0.00000000E+00  0.00000000E+00  0.00000000E+00
  0.00000000E+00  0.00000000E+00  0.00000000E+00
  0.00000000E+00  0.00000000E+00  0.00000000E+00
  0.00000000E+00  0.00000000E+00  0.00000000E+00
  0.00000000E+00  0.00000000E+00  0.00000000E+00
  0.00000000E+00  0.00000000E+00  0.00000000E+00
  0.00000000E+00  0.00000000E+00  0.00000000E+00
  0.00000000E+00  0.00000000E+00  0.00000000E+00
  0.00000000E+00  0.00000000E+00  0.00000000E+00
  0.00000000E+00  0.00000000E+00  0.00000000E+00
  0.00000000E+00  0.00000000E+00  0.00000000E+00
  0.00000000E+00  0.00000000E+00  0.00000000E+00
  0.00000000E+00  0.00000000E+00  0.00000000E+00
  0.00000000E+00  0.00000000E+00  0.00000000E+00
  0.00000000E+00  0.00000000E+00  0.00000000E+00
  0.00000000E+00  0.00000000E+00  0.00000000E+00
  0.00000000E+00  0.00000000E+00  0.00000000E+00
  0.00000000E+00  0.00000000E+00  0.00000000E+00
  0.00000000E+00  0.00000000E+00  0.00000000E+00
  0.00000000E+00  0.00000000E+00  0.00000000E+00
  0.00000000E+00  0.00000000E+00  0.00000000E+00
  0.00000000E+00  0.00000000E+00  0.00000000E+00
  0.00000000E+00  0.00000000E+00  0.00000000E+00
  0.00000000E+00  0.00000000E+00  0.00000000E+00
  0.00000000E+00  0.00000000E+00  0.00000000E+00
  0.00000000E+00  0.00000000E+00  0.00000000E+00
  0.00000000E+00  0.00000000E+00  0.00000000E+00
  0.00000000E+00  0.00000000E+00  0.00000000E+00
  0.00000000E+00  0.00000000E+00  0.00000000E+00
  0.00000000E+00  0.00000000E+00  0.00000000E+00
  0.00000000E+00  0.00000000E+00  0.00000000E+00
  0.00000000E+00  0.00000000E+00  0.00000000E+00
  0.00000000E+00  0.00000000E+00  0.00000000E+00
  0.00000000E+00  0.00000000E+00  0.00000000E+00
  0.00000000E+00  0.00000000E+00  0.00000000E+00
  0.00000000E+00  0.00000000E+00  0.00000000E+00
  0.00000000E+00  0.00000000E+00  0.00000000E+00
  0.00000000E+00  0.00000000E+00  0.00000000E+00
  0.00000000E+00  0.00000000E+00  0.00000000E+00
  0.00000000E+00  0.00000000E+00  0.00000000E+00
  0.00000000E+00  0.00000000E+00  0.00000000E+00
  0.00000000E+00  0.00000000E+00  0.00000000E+00
  0.00000000E+00  0.00000000E+00  0.00000000E+00
  0.00000000E+00  0.00000000E+00  0.00000000E+00
  0.00000000E+00  0.00000000E+00  0.00000000E+00
  0.00000000E+00  0.00000000E+00  0.00000000E+00
