Fe1 C122 N4                             
   1.00000000000000     
    19.8356658386389881    0.0000703448034626    0.0090946354427090
    -9.9177751032149555   17.0417278293094760   -0.0020421332329842
     0.0138372754715934    0.0043789560844383   29.7673978262236787
   Fe   C    N 
     1   122     4
Direct
  0.4374844885871024  0.4999983706971546  0.4057295962993782
  0.0418985204221770  0.0839779149372632  0.4001128734583566
  0.0408035050257816  0.2080545068561521  0.4002320547228376
  0.0399458033857619  0.3328715464855677  0.4000024181087567
  0.0401200453093054  0.4582150568867029  0.3995373491289547
  0.0411896421164110  0.5837973245124199  0.3992514966744597
  0.0421252313366832  0.7092513420945572  0.3993368368141656
  0.0424749815199325  0.8345336544916603  0.3995631939289441
  0.0425355023323783  0.9596571177454437  0.3998159000000318
  0.1681466521619049  0.0857979712443821  0.4006322496627437
  0.1670111798788477  0.2099343804038230  0.4014694672682401
  0.1645368567767423  0.3334231795368929  0.4017186733049045
  0.1634377271778614  0.4584774937188603  0.4010611789277404
  0.1646720734403572  0.5837473848816730  0.4001090240773300
  0.1662391157565818  0.7090738721083353  0.3995293490319031
  0.1670679872036283  0.8345311784835666  0.3995377471857025
  0.1675758311482885  0.9601234107835129  0.3998744038471118
  0.2926771138107254  0.0858019635429951  0.4006348245572897
  0.2941209956356419  0.2132407893926333  0.4021410033854317
  0.2914353408357339  0.3380104379427132  0.4034377009132135
  0.2862495521580068  0.4576480278531833  0.4034902547572271
  0.2876568829252489  0.5831551963015472  0.4021248615732901
  0.2903456678533713  0.7086117567270914  0.4005826762604808
  0.2915477973512800  0.8340655070654270  0.3997172051944728
  0.2921504863800179  0.9596550600754737  0.3997760334905752
  0.4171044605004138  0.0839751376513768  0.4001363815578024
  0.4179305041611444  0.2099316446228826  0.4014972289723476
  0.4215565968357025  0.3380058974041946  0.4034324158905057
  0.4144062396624402  0.7067090918553903  0.4022659445794108
  0.4159824859895344  0.8325193628417978  0.4005650501032336
  0.4166334882516295  0.9582757141300098  0.3997887042083686
  0.5416042795658140  0.0824777395486781  0.3997412909751963
  0.5422631854321314  0.2080531975147984  0.4002782335454478
  0.5438729954688972  0.3334193187031626  0.4017166602619877
  0.5463625045859105  0.4576465845884841  0.4034386337963236
  0.5384236373883515  0.7018653766116710  0.4032359526344039
  0.5404347203151645  0.8302702616239233  0.4014679110677680
  0.5411028364575639  0.9566715633062715  0.4001650283309421
  0.6661192669343017  0.0818597694680202  0.3997319912996844
  0.6666611974119795  0.2073534525531774  0.3995929877924382
  0.6679173632638121  0.3328691731937501  0.3999948627979530
  0.6700143178985141  0.4584756264956623  0.4009802997054323
  0.6704715159950311  0.5831558244018130  0.4020748371728358
  0.6672999051112830  0.7067093446753204  0.4022759012614120
  0.6648421764489507  0.8302635373634409  0.4014757585617010
  0.6656221165174836  0.9562194171840356  0.4003631662247461
  0.7907714397751326  0.0818641746876876  0.3997012415740733
  0.7911424921596831  0.2072753019050436  0.3994960472923423
  0.7918369840798323  0.3326993241167994  0.3993212312517292
  0.7930812285771656  0.4582122468125027  0.3994725362995026
  0.7940528343032431  0.5837421845823795  0.4000460804633783
  0.7932656142141709  0.7086152969552294  0.4006079817507004
  0.7915536841281382  0.8325181950166740  0.4006091395040442
  0.7905952344326830  0.9566750459387525  0.4001585520334495
  0.9159070539320033  0.0824835194962969  0.3997011401204010
  0.9157048530796478  0.2073565817492902  0.3995622190206165
  0.9158559439411253  0.3327009865724149  0.3993274955263730
  0.9166243533181750  0.4582557174564174  0.3991412950323393
  0.9175991857981696  0.5837986032029157  0.3992247336194680
  0.9178352576835828  0.7090752209674958  0.3995431861352891
  0.9175352531578825  0.8340658853726537  0.3997751681865495
  0.9166749472410214  0.9582785991582656  0.3998075703536803
  0.0844280557475580  0.0433278752518240  0.4001648652816705
  0.0834600136158708  0.1674811962023212  0.4005696220390807
  0.0817294889627067  0.2913890909493665  0.4005894916221766
  0.0809213020999276  0.4162582904525138  0.4001113341103535
  0.0818994506156406  0.5417890173219033  0.3995357662698040
  0.0831519368411792  0.6673012804452201  0.3993238018734460
  0.0838656319345715  0.7927255180539817  0.3994937746162487
  0.0842543187241309  0.9181396620515103  0.3997317723916321
  0.2094020063460015  0.0437850268675791  0.4003643405506896
  0.2101606517605405  0.1697305989568796  0.4014660999405880
  0.2076957667508282  0.2932924030236384  0.4022648659237775
  0.2044976108895663  0.4168442797881690  0.4021253126185640
  0.2049552600408738  0.5415247900234884  0.4010603813068370
  0.2070723527962072  0.6671289992752368  0.3999953188256138
  0.2083443734897765  0.7926440861135650  0.3995566580434480
  0.2089059945773739  0.9181377714408985  0.3996986047313995
  0.3339184594910690  0.0433248654429409  0.4001595950897816
  0.3345774587737342  0.1697336921579734  0.4014796957712943
  0.3365567012276004  0.2981336545772527  0.4032389112829184
  0.3285986553780937  0.5423496731340701  0.4034895562180719
  0.3311147107734185  0.6665775949865185  0.4017167146020041
  0.3327511798866070  0.7919476493426694  0.4002230868906195
  0.3334245153327023  0.9175184397560991  0.3996990936007868
  0.4583948466626210  0.0417218179547916  0.3998072791717749
  0.4590291426237498  0.1674783431957578  0.4006140458978645
  0.4605879076668541  0.2932885021728400  0.4022797390536738
  0.4534243667470838  0.6619879445296287  0.4034369265930361
  0.4570774368587195  0.7900675007031209  0.4014699305595378
  0.4579181788170479  0.9160241453196588  0.4001118777792711
  0.5828774607360493  0.0403417219480794  0.3998144212573393
  0.5834683961052942  0.1659299494108651  0.3997753100509212
  0.5846490424272553  0.2913855324530198  0.4006099801839066
  0.5873131194279654  0.4168427927929145  0.4020763064807526
  0.5887122527437543  0.5423488841268492  0.4034367472566033
  0.5835454414221423  0.6619906359373148  0.4034280529625343
  0.5808779272025698  0.7867567797142396  0.4021369214584830
  0.5823474606107922  0.9142014417215314  0.4006315136592031
  0.7074528730812542  0.0398798562045336  0.3998753463462382
  0.7079430050302186  0.1654698105225592  0.3995620279438065
  0.7087566118749428  0.2909249851777747  0.3995462007280600
  0.7103084158526199  0.4162600565854693  0.4000467180711403
  0.7115328297614260  0.5415223776440899  0.4009775053342831
  0.7104499246005173  0.6665767684073693  0.4017144030884177
  0.7079948350479378  0.7900669257229169  0.4014935578317692
  0.7068726535181102  0.9141969520145893  0.4006331421873108
  0.8324915546936225  0.0403445721961179  0.3997775153538915
  0.8325361398971809  0.1654712963620699  0.3995429643251144
  0.8328730715922831  0.2907536935621328  0.3993398873462682
  0.8337972464538960  0.4162074049945782  0.3992262846329390
  0.8348619541203174  0.5417881721334772  0.3994709116940998
  0.8350402434825231  0.6671251218572514  0.3999928911364288
  0.8342045985165035  0.7919446238949728  0.4002769228531078
  0.8331274279633766  0.9160248147476499  0.4001347197739220
  0.9583565289547916  0.0417248724407243  0.3997878045728578
  0.9574776954932029  0.1659329775955629  0.3997249951428123
  0.9571605135115783  0.2909281406876379  0.3995362433892575
  0.9573898963630542  0.4162083444619993  0.3992553601423277
  0.9583659458594088  0.5417469037524126  0.3991400451110762
  0.9591355211643102  0.6673004815180374  0.3993191768794981
  0.9593025594452931  0.7926439096950020  0.3995922619987872
  0.9591204354356648  0.9175186861467397  0.3997452807155496
  0.4086089741189503  0.5823104842106783  0.4043845876829938
  0.5486701329417560  0.5823132028280747  0.4043497362084255
  0.3262965363549652  0.4176869626526693  0.4043853482564440
  0.4663538642149099  0.4176817898889976  0.4043522138100984
 
  0.00000000E+00  0.00000000E+00  0.00000000E+00
  0.00000000E+00  0.00000000E+00  0.00000000E+00
  0.00000000E+00  0.00000000E+00  0.00000000E+00
  0.00000000E+00  0.00000000E+00  0.00000000E+00
  0.00000000E+00  0.00000000E+00  0.00000000E+00
  0.00000000E+00  0.00000000E+00  0.00000000E+00
  0.00000000E+00  0.00000000E+00  0.00000000E+00
  0.00000000E+00  0.00000000E+00  0.00000000E+00
  0.00000000E+00  0.00000000E+00  0.00000000E+00
  0.00000000E+00  0.00000000E+00  0.00000000E+00
  0.00000000E+00  0.00000000E+00  0.00000000E+00
  0.00000000E+00  0.00000000E+00  0.00000000E+00
  0.00000000E+00  0.00000000E+00  0.00000000E+00
  0.00000000E+00  0.00000000E+00  0.00000000E+00
  0.00000000E+00  0.00000000E+00  0.00000000E+00
  0.00000000E+00  0.00000000E+00  0.00000000E+00
  0.00000000E+00  0.00000000E+00  0.00000000E+00
  0.00000000E+00  0.00000000E+00  0.00000000E+00
  0.00000000E+00  0.00000000E+00  0.00000000E+00
  0.00000000E+00  0.00000000E+00  0.00000000E+00
  0.00000000E+00  0.00000000E+00  0.00000000E+00
  0.00000000E+00  0.00000000E+00  0.00000000E+00
  0.00000000E+00  0.00000000E+00  0.00000000E+00
  0.00000000E+00  0.00000000E+00  0.00000000E+00
  0.00000000E+00  0.00000000E+00  0.00000000E+00
  0.00000000E+00  0.00000000E+00  0.00000000E+00
  0.00000000E+00  0.00000000E+00  0.00000000E+00
  0.00000000E+00  0.00000000E+00  0.00000000E+00
  0.00000000E+00  0.00000000E+00  0.00000000E+00
  0.00000000E+00  0.00000000E+00  0.00000000E+00
  0.00000000E+00  0.00000000E+00  0.00000000E+00
  0.00000000E+00  0.00000000E+00  0.00000000E+00
  0.00000000E+00  0.00000000E+00  0.00000000E+00
  0.00000000E+00  0.00000000E+00  0.00000000E+00
  0.00000000E+00  0.00000000E+00  0.00000000E+00
  0.00000000E+00  0.00000000E+00  0.00000000E+00
  0.00000000E+00  0.00000000E+00  0.00000000E+00
  0.00000000E+00  0.00000000E+00  0.00000000E+00
  0.00000000E+00  0.00000000E+00  0.00000000E+00
  0.00000000E+00  0.00000000E+00  0.00000000E+00
  0.00000000E+00  0.00000000E+00  0.00000000E+00
  0.00000000E+00  0.00000000E+00  0.00000000E+00
  0.00000000E+00  0.00000000E+00  0.00000000E+00
  0.00000000E+00  0.00000000E+00  0.00000000E+00
  0.00000000E+00  0.00000000E+00  0.00000000E+00
  0.00000000E+00  0.00000000E+00  0.00000000E+00
  0.00000000E+00  0.00000000E+00  0.00000000E+00
  0.00000000E+00  0.00000000E+00  0.00000000E+00
  0.00000000E+00  0.00000000E+00  0.00000000E+00
  0.00000000E+00  0.00000000E+00  0.00000000E+00
  0.00000000E+00  0.00000000E+00  0.00000000E+00
  0.00000000E+00  0.00000000E+00  0.00000000E+00
  0.00000000E+00  0.00000000E+00  0.00000000E+00
  0.00000000E+00  0.00000000E+00  0.00000000E+00
  0.00000000E+00  0.00000000E+00  0.00000000E+00
  0.00000000E+00  0.00000000E+00  0.00000000E+00
  0.00000000E+00  0.00000000E+00  0.00000000E+00
  0.00000000E+00  0.00000000E+00  0.00000000E+00
  0.00000000E+00  0.00000000E+00  0.00000000E+00
  0.00000000E+00  0.00000000E+00  0.00000000E+00
  0.00000000E+00  0.00000000E+00  0.00000000E+00
  0.00000000E+00  0.00000000E+00  0.00000000E+00
  0.00000000E+00  0.00000000E+00  0.00000000E+00
  0.00000000E+00  0.00000000E+00  0.00000000E+00
  0.00000000E+00  0.00000000E+00  0.00000000E+00
  0.00000000E+00  0.00000000E+00  0.00000000E+00
  0.00000000E+00  0.00000000E+00  0.00000000E+00
  0.00000000E+00  0.00000000E+00  0.00000000E+00
  0.00000000E+00  0.00000000E+00  0.00000000E+00
  0.00000000E+00  0.00000000E+00  0.00000000E+00
  0.00000000E+00  0.00000000E+00  0.00000000E+00
  0.00000000E+00  0.00000000E+00  0.00000000E+00
  0.00000000E+00  0.00000000E+00  0.00000000E+00
  0.00000000E+00  0.00000000E+00  0.00000000E+00
  0.00000000E+00  0.00000000E+00  0.00000000E+00
  0.00000000E+00  0.00000000E+00  0.00000000E+00
  0.00000000E+00  0.00000000E+00  0.00000000E+00
  0.00000000E+00  0.00000000E+00  0.00000000E+00
  0.00000000E+00  0.00000000E+00  0.00000000E+00
  0.00000000E+00  0.00000000E+00  0.00000000E+00
  0.00000000E+00  0.00000000E+00  0.00000000E+00
  0.00000000E+00  0.00000000E+00  0.00000000E+00
  0.00000000E+00  0.00000000E+00  0.00000000E+00
  0.00000000E+00  0.00000000E+00  0.00000000E+00
  0.00000000E+00  0.00000000E+00  0.00000000E+00
  0.00000000E+00  0.00000000E+00  0.00000000E+00
  0.00000000E+00  0.00000000E+00  0.00000000E+00
  0.00000000E+00  0.00000000E+00  0.00000000E+00
  0.00000000E+00  0.00000000E+00  0.00000000E+00
  0.00000000E+00  0.00000000E+00  0.00000000E+00
  0.00000000E+00  0.00000000E+00  0.00000000E+00
  0.00000000E+00  0.00000000E+00  0.00000000E+00
  0.00000000E+00  0.00000000E+00  0.00000000E+00
  0.00000000E+00  0.00000000E+00  0.00000000E+00
  0.00000000E+00  0.00000000E+00  0.00000000E+00
  0.00000000E+00  0.00000000E+00  0.00000000E+00
  0.00000000E+00  0.00000000E+00  0.00000000E+00
  0.00000000E+00  0.00000000E+00  0.00000000E+00
  0.00000000E+00  0.00000000E+00  0.00000000E+00
  0.00000000E+00  0.00000000E+00  0.00000000E+00
  0.00000000E+00  0.00000000E+00  0.00000000E+00
  0.00000000E+00  0.00000000E+00  0.00000000E+00
  0.00000000E+00  0.00000000E+00  0.00000000E+00
  0.00000000E+00  0.00000000E+00  0.00000000E+00
  0.00000000E+00  0.00000000E+00  0.00000000E+00
  0.00000000E+00  0.00000000E+00  0.00000000E+00
  0.00000000E+00  0.00000000E+00  0.00000000E+00
  0.00000000E+00  0.00000000E+00  0.00000000E+00
  0.00000000E+00  0.00000000E+00  0.00000000E+00
  0.00000000E+00  0.00000000E+00  0.00000000E+00
  0.00000000E+00  0.00000000E+00  0.00000000E+00
  0.00000000E+00  0.00000000E+00  0.00000000E+00
  0.00000000E+00  0.00000000E+00  0.00000000E+00
  0.00000000E+00  0.00000000E+00  0.00000000E+00
  0.00000000E+00  0.00000000E+00  0.00000000E+00
  0.00000000E+00  0.00000000E+00  0.00000000E+00
  0.00000000E+00  0.00000000E+00  0.00000000E+00
  0.00000000E+00  0.00000000E+00  0.00000000E+00
  0.00000000E+00  0.00000000E+00  0.00000000E+00
  0.00000000E+00  0.00000000E+00  0.00000000E+00
  0.00000000E+00  0.00000000E+00  0.00000000E+00
  0.00000000E+00  0.00000000E+00  0.00000000E+00
  0.00000000E+00  0.00000000E+00  0.00000000E+00
  0.00000000E+00  0.00000000E+00  0.00000000E+00
  0.00000000E+00  0.00000000E+00  0.00000000E+00
  0.00000000E+00  0.00000000E+00  0.00000000E+00
  0.00000000E+00  0.00000000E+00  0.00000000E+00
