Ti1 H1 C124 N2 O1                       
   1.00000000000000     
    19.8026237052938257   -0.0171459625129643   -0.0591367658453678
    -9.9164386908816144   17.0597099130562277   -0.0958111274589596
    -0.0890370294163674   -0.2188666912129995   29.8025659740035387
   Ti   H    C    N    O 
     1     1   124     2     1
Direct
  0.4395296177940035  0.5020434353815914  0.4304422746275051
  0.4813629853756133  0.5411504651680941  0.5132784056737064
  0.0422672203260187  0.0842244752065640  0.3997026010858665
  0.0416979134928260  0.2086413018845360  0.3995015713430397
  0.0410176428212611  0.3331874615740241  0.3992411576387070
  0.0408379888968552  0.4584716343196191  0.3992559061623851
  0.0413569144766452  0.5838105605641396  0.3996175492107473
  0.0418847227043606  0.7091314764009655  0.3998712013577300
  0.0422007992933536  0.8343659011815766  0.3998466178921887
  0.0424075949094187  0.9595414161875103  0.3997382693891129
  0.1680871091268575  0.0855693909691865  0.4000820856487854
  0.1678183421717234  0.2103239126330245  0.4001957418762287
  0.1664480362311101  0.3343253757247662  0.3999670618745548
  0.1648173838401948  0.4587942078051923  0.3994444040859946
  0.1653799694208788  0.5839115495542273  0.3992555432186992
  0.1662945571154326  0.7091725292201067  0.3995390236502419
  0.1668834737178402  0.8344661974085686  0.3997306824508983
  0.1674158862245895  0.9598746017425376  0.3998288818850718
  0.2926282671852712  0.0851851927669924  0.4001102024175540
  0.2943475175102324  0.2122636274626207  0.4014919911764498
  0.2937614010205982  0.3380408970931945  0.4028061766202158
  0.2893970031392603  0.4597044023112845  0.4020464788124546
  0.2892530429199041  0.5844928641870095  0.4003044038612298
  0.2906828357714364  0.7092497562380725  0.3996489852216056
  0.2915525828627942  0.8342427256980969  0.3995449017776730
  0.2920311726510302  0.9594931497153451  0.3996554958571761
  0.4171589888829539  0.0838498987676006  0.3996861024461402
  0.4177553208695659  0.2094555535987215  0.4003569324770936
  0.4209705928681370  0.3372719415112294  0.4033767173591409
  0.4149427046592193  0.7073473923841387  0.4005919751100741
  0.4161316599643812  0.8330394938663387  0.3996928278844113
  0.4166929398072620  0.9584478621172752  0.3996035770346744
  0.5417918475595949  0.0826726384878141  0.3997033243959641
  0.5422450384788410  0.2077796249864296  0.3996527289185016
  0.5434083825488419  0.3326798147753398  0.4002024312170128
  0.5445272426677026  0.4561034857551006  0.4016593540826661
  0.5433025401033554  0.5800534146402474  0.4023051583922787
  0.5386643770196194  0.7040678598636239  0.4017829037565137
  0.5405575732616972  0.8314486284852483  0.4002624998695594
  0.5413407766543462  0.9572776428948142  0.3998426563222026
  0.6664745131929458  0.0822584110898773  0.3999035201241318
  0.6669113020668079  0.2075118222373973  0.3997681036889826
  0.6677079239107188  0.3327257024112409  0.3994385325485838
  0.6690052040309348  0.4580571994460030  0.3989684301712478
  0.6686658500901741  0.5824635315544492  0.3988888670682443
  0.6658152344127485  0.7062952350420136  0.3992106161813142
  0.6650626079534541  0.8309226624861809  0.3999525193196439
  0.6659523345595864  0.9568166154292346  0.3999969433463675
  0.7912766670772938  0.0823178088091228  0.3997843773335176
  0.7915787074822943  0.2075198423105828  0.3997988234177779
  0.7920876187753736  0.3328323116186412  0.3997667303947078
  0.7927813331878064  0.4581810345938556  0.3993869319170176
  0.7931435627938405  0.5834178016817199  0.3989366795253502
  0.7922389013668014  0.7082013247878113  0.3988959364747935
  0.7911891771075812  0.8324604580139089  0.3993735486258100
  0.7908659359291665  0.9570456925771357  0.3997405228259534
  0.9164494951796974  0.0829165172557926  0.3996132698632794
  0.9163596012293558  0.2077781893819310  0.3994697187499869
  0.9164416880345524  0.3329451111239382  0.3995379415927759
  0.9167911135296769  0.4582859738488846  0.3997208394759244
  0.9172931833527155  0.5837043138642609  0.3997468339480538
  0.9172954434393437  0.7089255513717092  0.3996051945184604
  0.9170443805290190  0.8337819860182089  0.3995353530209593
  0.9167207837169538  0.9583877126347723  0.3996696930228061
  0.0844288176805221  0.0432167151092929  0.3997923442385259
  0.0840813669148754  0.1677732420264112  0.3997154103460235
  0.0829863549252012  0.2919987096152815  0.3994417293125925
  0.0820600205562296  0.4167564714413398  0.3991529042958565
  0.0823946102302251  0.5419712803121540  0.3993101134107944
  0.0831261394480328  0.6673686570056749  0.3996913918184798
  0.0836433496558953  0.7926834287027620  0.3998480136714631
  0.0840014644378397  0.9179258186054241  0.3998113988618649
  0.2093054928801061  0.0434368637210024  0.4000229720269142
  0.2102129442396347  0.1693980487389349  0.4005821762873674
  0.2094636274513443  0.2940217550016327  0.4005883585208434
  0.2065367167948906  0.4177371379991144  0.4001698482224952
  0.2062153659449211  0.5421295176537294  0.3994781689100453
  0.2074730078490591  0.6674764719864406  0.3994232301666965
  0.2082736869015864  0.7927002261399235  0.3996087842749109
  0.2087926402370034  0.9179835796711117  0.3997377864559991
  0.3338819402388624  0.0429957687624648  0.3997755746813024
  0.3346635443983475  0.1688842214200735  0.4007043536089668
  0.3367016547112195  0.2964352335969712  0.4031879719750944
  0.3319704223975421  0.4204737726560590  0.4046960845652861
  0.3308181877172634  0.5442620185341879  0.4023237716227153
  0.3318119752988797  0.6676041866988541  0.4002072996312259
  0.3329118784306233  0.7924540361701530  0.3995962285985228
  0.3334599669426915  0.9175858303653620  0.3995536991930873
  0.4585529823345466  0.0418016219095444  0.3996433430757906
  0.4590582786185453  0.1672100991976749  0.3997740582901479
  0.4602815109404639  0.2929908592373546  0.4009811490273087
  0.4544178383626861  0.6632201788289872  0.4025428611650101
  0.4574417200036384  0.7908271345829258  0.4000240911442046
  0.4580680024754489  0.9163934656805289  0.3996840397405521
  0.5832210541595336  0.0407690571190771  0.3998227458451912
  0.5836361346413205  0.1659939195972382  0.3996631653573852
  0.5844910836880920  0.2909932132456401  0.3996388931945912
  0.5860224826422836  0.4157740948225046  0.3999046750406657
  0.5858339116851407  0.5405984740246105  0.4003612125789423
  0.5815706121330576  0.6624653422463603  0.4008647621210641
  0.5809552517165271  0.7881602202725172  0.4006014382654668
  0.5826155800217491  0.9151138960554561  0.4000269605321589
  0.7078538709982427  0.0403771369497182  0.3999157406603535
  0.7083456737581589  0.1657749236437171  0.3998805735068947
  0.7089025786945287  0.2910366214018628  0.3996804126225630
  0.7098127574043808  0.4162679991273481  0.3991402790443747
  0.7103890727796832  0.5413811471355848  0.3987558790605324
  0.7087643628161573  0.6658753649013227  0.3987792222535266
  0.7074488081803449  0.7899650133037704  0.3994239068517187
  0.7071866668295163  0.9147149084572817  0.3998875818215685
  0.8328930117283776  0.0407031174669362  0.3997214885781850
  0.8330513285724739  0.1658619557804522  0.3996835157253023
  0.8333500211511181  0.2910667190816480  0.3997354942481905
  0.8338354188840646  0.4163727648698500  0.3997187916745702
  0.8343363236201015  0.5416921485026401  0.3993667452603473
  0.8341982745691937  0.6669785864237401  0.3990999951176766
  0.8335623699699658  0.7915613429582040  0.3992372236331189
  0.8330387740264353  0.9160357300054524  0.3996397680339262
  0.9586030294886906  0.0418881909350620  0.3996735249689727
  0.9582246199509035  0.1664599444449379  0.3994719504985160
  0.9579126359287128  0.2912730182642925  0.3993584919780100
  0.9579103624584703  0.4165120980793672  0.3995200192131216
  0.9584279234416694  0.5419256033740208  0.3997600469523681
  0.9587750251715039  0.6672597472388824  0.3998282926678635
  0.9588830991669394  0.7924513709857396  0.3997065701723275
  0.9588469955197375  0.9173253338749973  0.3996459532717236
  0.4106934285826089  0.5828630415922361  0.4052525826958622
  0.4649377542731070  0.4178327853670005  0.4055609665327365
  0.4410296630351859  0.5075122469577302  0.4918152416423168
 
  0.00000000E+00  0.00000000E+00  0.00000000E+00
  0.00000000E+00  0.00000000E+00  0.00000000E+00
  0.00000000E+00  0.00000000E+00  0.00000000E+00
  0.00000000E+00  0.00000000E+00  0.00000000E+00
  0.00000000E+00  0.00000000E+00  0.00000000E+00
  0.00000000E+00  0.00000000E+00  0.00000000E+00
  0.00000000E+00  0.00000000E+00  0.00000000E+00
  0.00000000E+00  0.00000000E+00  0.00000000E+00
  0.00000000E+00  0.00000000E+00  0.00000000E+00
  0.00000000E+00  0.00000000E+00  0.00000000E+00
  0.00000000E+00  0.00000000E+00  0.00000000E+00
  0.00000000E+00  0.00000000E+00  0.00000000E+00
  0.00000000E+00  0.00000000E+00  0.00000000E+00
  0.00000000E+00  0.00000000E+00  0.00000000E+00
  0.00000000E+00  0.00000000E+00  0.00000000E+00
  0.00000000E+00  0.00000000E+00  0.00000000E+00
  0.00000000E+00  0.00000000E+00  0.00000000E+00
  0.00000000E+00  0.00000000E+00  0.00000000E+00
  0.00000000E+00  0.00000000E+00  0.00000000E+00
  0.00000000E+00  0.00000000E+00  0.00000000E+00
  0.00000000E+00  0.00000000E+00  0.00000000E+00
  0.00000000E+00  0.00000000E+00  0.00000000E+00
  0.00000000E+00  0.00000000E+00  0.00000000E+00
  0.00000000E+00  0.00000000E+00  0.00000000E+00
  0.00000000E+00  0.00000000E+00  0.00000000E+00
  0.00000000E+00  0.00000000E+00  0.00000000E+00
  0.00000000E+00  0.00000000E+00  0.00000000E+00
  0.00000000E+00  0.00000000E+00  0.00000000E+00
  0.00000000E+00  0.00000000E+00  0.00000000E+00
  0.00000000E+00  0.00000000E+00  0.00000000E+00
  0.00000000E+00  0.00000000E+00  0.00000000E+00
  0.00000000E+00  0.00000000E+00  0.00000000E+00
  0.00000000E+00  0.00000000E+00  0.00000000E+00
  0.00000000E+00  0.00000000E+00  0.00000000E+00
  0.00000000E+00  0.00000000E+00  0.00000000E+00
  0.00000000E+00  0.00000000E+00  0.00000000E+00
  0.00000000E+00  0.00000000E+00  0.00000000E+00
  0.00000000E+00  0.00000000E+00  0.00000000E+00
  0.00000000E+00  0.00000000E+00  0.00000000E+00
  0.00000000E+00  0.00000000E+00  0.00000000E+00
  0.00000000E+00  0.00000000E+00  0.00000000E+00
  0.00000000E+00  0.00000000E+00  0.00000000E+00
  0.00000000E+00  0.00000000E+00  0.00000000E+00
  0.00000000E+00  0.00000000E+00  0.00000000E+00
  0.00000000E+00  0.00000000E+00  0.00000000E+00
  0.00000000E+00  0.00000000E+00  0.00000000E+00
  0.00000000E+00  0.00000000E+00  0.00000000E+00
  0.00000000E+00  0.00000000E+00  0.00000000E+00
  0.00000000E+00  0.00000000E+00  0.00000000E+00
  0.00000000E+00  0.00000000E+00  0.00000000E+00
  0.00000000E+00  0.00000000E+00  0.00000000E+00
  0.00000000E+00  0.00000000E+00  0.00000000E+00
  0.00000000E+00  0.00000000E+00  0.00000000E+00
  0.00000000E+00  0.00000000E+00  0.00000000E+00
  0.00000000E+00  0.00000000E+00  0.00000000E+00
  0.00000000E+00  0.00000000E+00  0.00000000E+00
  0.00000000E+00  0.00000000E+00  0.00000000E+00
  0.00000000E+00  0.00000000E+00  0.00000000E+00
  0.00000000E+00  0.00000000E+00  0.00000000E+00
  0.00000000E+00  0.00000000E+00  0.00000000E+00
  0.00000000E+00  0.00000000E+00  0.00000000E+00
  0.00000000E+00  0.00000000E+00  0.00000000E+00
  0.00000000E+00  0.00000000E+00  0.00000000E+00
  0.00000000E+00  0.00000000E+00  0.00000000E+00
  0.00000000E+00  0.00000000E+00  0.00000000E+00
  0.00000000E+00  0.00000000E+00  0.00000000E+00
  0.00000000E+00  0.00000000E+00  0.00000000E+00
  0.00000000E+00  0.00000000E+00  0.00000000E+00
  0.00000000E+00  0.00000000E+00  0.00000000E+00
  0.00000000E+00  0.00000000E+00  0.00000000E+00
  0.00000000E+00  0.00000000E+00  0.00000000E+00
  0.00000000E+00  0.00000000E+00  0.00000000E+00
  0.00000000E+00  0.00000000E+00  0.00000000E+00
  0.00000000E+00  0.00000000E+00  0.00000000E+00
  0.00000000E+00  0.00000000E+00  0.00000000E+00
  0.00000000E+00  0.00000000E+00  0.00000000E+00
  0.00000000E+00  0.00000000E+00  0.00000000E+00
  0.00000000E+00  0.00000000E+00  0.00000000E+00
  0.00000000E+00  0.00000000E+00  0.00000000E+00
  0.00000000E+00  0.00000000E+00  0.00000000E+00
  0.00000000E+00  0.00000000E+00  0.00000000E+00
  0.00000000E+00  0.00000000E+00  0.00000000E+00
  0.00000000E+00  0.00000000E+00  0.00000000E+00
  0.00000000E+00  0.00000000E+00  0.00000000E+00
  0.00000000E+00  0.00000000E+00  0.00000000E+00
  0.00000000E+00  0.00000000E+00  0.00000000E+00
  0.00000000E+00  0.00000000E+00  0.00000000E+00
  0.00000000E+00  0.00000000E+00  0.00000000E+00
  0.00000000E+00  0.00000000E+00  0.00000000E+00
  0.00000000E+00  0.00000000E+00  0.00000000E+00
  0.00000000E+00  0.00000000E+00  0.00000000E+00
  0.00000000E+00  0.00000000E+00  0.00000000E+00
  0.00000000E+00  0.00000000E+00  0.00000000E+00
  0.00000000E+00  0.00000000E+00  0.00000000E+00
  0.00000000E+00  0.00000000E+00  0.00000000E+00
  0.00000000E+00  0.00000000E+00  0.00000000E+00
  0.00000000E+00  0.00000000E+00  0.00000000E+00
  0.00000000E+00  0.00000000E+00  0.00000000E+00
  0.00000000E+00  0.00000000E+00  0.00000000E+00
  0.00000000E+00  0.00000000E+00  0.00000000E+00
  0.00000000E+00  0.00000000E+00  0.00000000E+00
  0.00000000E+00  0.00000000E+00  0.00000000E+00
  0.00000000E+00  0.00000000E+00  0.00000000E+00
  0.00000000E+00  0.00000000E+00  0.00000000E+00
  0.00000000E+00  0.00000000E+00  0.00000000E+00
  0.00000000E+00  0.00000000E+00  0.00000000E+00
  0.00000000E+00  0.00000000E+00  0.00000000E+00
  0.00000000E+00  0.00000000E+00  0.00000000E+00
  0.00000000E+00  0.00000000E+00  0.00000000E+00
  0.00000000E+00  0.00000000E+00  0.00000000E+00
  0.00000000E+00  0.00000000E+00  0.00000000E+00
  0.00000000E+00  0.00000000E+00  0.00000000E+00
  0.00000000E+00  0.00000000E+00  0.00000000E+00
  0.00000000E+00  0.00000000E+00  0.00000000E+00
  0.00000000E+00  0.00000000E+00  0.00000000E+00
  0.00000000E+00  0.00000000E+00  0.00000000E+00
  0.00000000E+00  0.00000000E+00  0.00000000E+00
  0.00000000E+00  0.00000000E+00  0.00000000E+00
  0.00000000E+00  0.00000000E+00  0.00000000E+00
  0.00000000E+00  0.00000000E+00  0.00000000E+00
  0.00000000E+00  0.00000000E+00  0.00000000E+00
  0.00000000E+00  0.00000000E+00  0.00000000E+00
  0.00000000E+00  0.00000000E+00  0.00000000E+00
  0.00000000E+00  0.00000000E+00  0.00000000E+00
  0.00000000E+00  0.00000000E+00  0.00000000E+00
  0.00000000E+00  0.00000000E+00  0.00000000E+00
  0.00000000E+00  0.00000000E+00  0.00000000E+00
  0.00000000E+00  0.00000000E+00  0.00000000E+00
  0.00000000E+00  0.00000000E+00  0.00000000E+00
