Sc1 C125 N1                             
   1.00000000000000     
    19.8257131298107083   -0.0107686568898436   -0.0064461572149594
    -9.9222095511019788   17.0803312499796967    0.0049684683987634
    -0.0096084777658977    0.0031363680984636   29.7244681605162704
   Sc   C    N 
     1   125     1
Direct
  0.4356879054984615  0.5004063759649248  0.4376434161568434
  0.0417643778426022  0.0838098731006380  0.3995303365315709
  0.0410632641886415  0.2081895753480208  0.3992423070277373
  0.0405987356155711  0.3328870956195171  0.3991310179628919
  0.0406059952990668  0.4582879971753109  0.3993041191470740
  0.0412887132970494  0.5836871249305059  0.3997160016476931
  0.0418833645182766  0.7089638786164451  0.3999631568708679
  0.0421992193531069  0.8342610836471536  0.4000214624685419
  0.0422430951327332  0.9592819117542163  0.3998117506543945
  0.1674381894843081  0.0849160674249376  0.3997599260293049
  0.1668021398420330  0.2093927007970471  0.3995675639449643
  0.1657279942211339  0.3338001882529785  0.3991845131751006
  0.1643536455093441  0.4584267316324742  0.3988774759639345
  0.1651864470374900  0.5837190960576744  0.3989594355565925
  0.1662175383669310  0.7090612472416621  0.3996030655866353
  0.1668640672959675  0.8343400933347845  0.3999848453693441
  0.1672739730529944  0.9596341415659236  0.3999633791429534
  0.2924444762603070  0.0848032451748610  0.3998012289792525
  0.2932212638776226  0.2111241426974090  0.4010175184801046
  0.2921076669914129  0.3364279435121389  0.4023426153766182
  0.2886896325397180  0.4586187621273040  0.4013280355029694
  0.2887953871850391  0.5844768444480357  0.3994482929054575
  0.2905364458549854  0.7092519937581712  0.3992333793297030
  0.2914416980739523  0.8341123774130800  0.3996089910873954
  0.2918952212890308  0.9592672261824043  0.3997445654641829
  0.4170179352332454  0.0835204958547444  0.3993632761394071
  0.4175935643802267  0.2087935327154171  0.3995670516489364
  0.4197708697798948  0.3353068858445135  0.4050054158147714
  0.4148137716990365  0.7077321520448258  0.4002257019894793
  0.4160254506914691  0.8331107925964464  0.3994752098899630
  0.4165575019479947  0.9583184226705947  0.3996127770196559
  0.5416653448911301  0.0825415568813455  0.3995728497845868
  0.5422511175565176  0.2076459904989936  0.3989809535625345
  0.5432262539501390  0.3326801577538201  0.3995577319081732
  0.5453642704548870  0.4567688951419013  0.4048312389107233
  0.5459737135632891  0.5816756752210974  0.4080512612665899
  0.5389974414640297  0.7042203698481060  0.4031033503867960
  0.5404649429079275  0.8314386940571999  0.4002144951061130
  0.5412267344267004  0.9572169375611137  0.3997529153722311
  0.6663049866481557  0.0821203224490244  0.3999660610964315
  0.6668011861481685  0.2073656682962484  0.3996138677328287
  0.6675335115475852  0.3325217453949778  0.3988021126562366
  0.6691721840060948  0.4578983460020595  0.3984864123881708
  0.6700035020232525  0.5835861024118187  0.3995510084170641
  0.6669035791672671  0.7072552680927366  0.3999137437396473
  0.6652461615407063  0.8310785483112311  0.4000861257731521
  0.6658624783971965  0.9567713563756117  0.4000131761570401
  0.7910532082828230  0.0821638124669737  0.4000464367726209
  0.7913226859035721  0.2073093920450262  0.4000194735434224
  0.7919024021469546  0.3326559330877053  0.3996587005143947
  0.7928480374929291  0.4581307442322248  0.3989759724629343
  0.7934085894518802  0.5834592602332462  0.3985115051028573
  0.7929503569064966  0.7087401516453956  0.3985947574229108
  0.7916333134296205  0.8328711950753790  0.3990743657230028
  0.7908194198639921  0.9570756371354198  0.3996939346589423
  0.9161280344678803  0.0827010805820706  0.3997246910620078
  0.9160174689750598  0.2075675441530330  0.3997804263736122
  0.9161925431959737  0.3327572548422084  0.3998018573043488
  0.9166687608863830  0.4581002503709037  0.3997983680142418
  0.9173469698506160  0.5835961735665315  0.3996185183179101
  0.9175239817624644  0.7089888467184209  0.3994626198460788
  0.9172863296828422  0.8338680401799184  0.3994593986292852
  0.9166508237981420  0.9582929819332678  0.3996000236134368
  0.0839433510184563  0.0427815441467893  0.3996569611166337
  0.0833114433130677  0.1671779327146383  0.3993359941577210
  0.0823515513641450  0.2915720539372577  0.3990044077566047
  0.0817314438934453  0.4165243117383352  0.3989339724494863
  0.0822500380443180  0.5418251746418628  0.3993094318046114
  0.0831111362001491  0.6672296683863128  0.3997942918117088
  0.0836808110982709  0.7925959164911129  0.4000456202250881
  0.0839233860733132  0.9177855887363744  0.3999822466114216
  0.2090197742484959  0.0430995189260234  0.3998836277847632
  0.2091590657146052  0.1685221361489926  0.3999753937795760
  0.2082877546805200  0.2929704663474633  0.3998044696665370
  0.2057455500178426  0.4171637936312875  0.3994453868627894
  0.2059351890501363  0.5419629113616324  0.3988258883239309
  0.2074333030103371  0.6673916153622262  0.3992110900999429
  0.2082243639692609  0.7925555356776792  0.3997615399230845
  0.2087196209024735  0.9177975466298189  0.3999532457560853
  0.3337548646025760  0.0426624240893019  0.3995882785954490
  0.3343889344661818  0.1682628132515151  0.4001601157835672
  0.3350632367929077  0.2944258898342508  0.4035624680549960
  0.3304676707919394  0.4190778007911498  0.4037395429280023
  0.3307756070663035  0.5444683799430264  0.4016203693913375
  0.3317008351211090  0.6675674267747365  0.3995339583270088
  0.3328362943097443  0.7924288727398691  0.3994031119580512
  0.3333717697419642  0.9174283344468890  0.3996641247276951
  0.4584830584001790  0.0415943522006627  0.3995189149616697
  0.4589379270027460  0.1667401816472521  0.3990796063045604
  0.4598846508708786  0.2920915502043895  0.4005843962077856
  0.4644965920161369  0.4171212577161528  0.4107738397004753
  0.4540954686943615  0.6635970508561589  0.4028620885223184
  0.4573914082419486  0.7910768154014102  0.3997911155382292
  0.4579760419518171  0.9163565088699904  0.3996050734766017
  0.5830952777051669  0.0406440651189075  0.3997833489132985
  0.5835865114418021  0.1658966048464137  0.3993662875301170
  0.5844120358458078  0.2908923501924559  0.3988169928131655
  0.5863954130965148  0.4158149252738741  0.3999461546622806
  0.5878970128966259  0.5423910652485684  0.4040533969005961
  0.5830912530769153  0.6634694735993123  0.4035118744109771
  0.5809873562986178  0.7881113936357859  0.4009841749890276
  0.5825204472535001  0.9150631664722337  0.3999506494077019
  0.7077076554272447  0.0402742639658989  0.4000372542233855
  0.7081620760053798  0.1656124044273994  0.3999522175142380
  0.7087307233414665  0.2908092559865856  0.3993607570176331
  0.7099521831168633  0.4162315382824721  0.3984842225500522
  0.7109322385226348  0.5416778331077919  0.3984573010081549
  0.7097950636184738  0.6667932180926148  0.3990015778658859
  0.7080467199135914  0.7906143220225512  0.3994011623699310
  0.7071788023828617  0.9147714933383631  0.3998776927509168
  0.8326397140035489  0.0406200590635310  0.3998691764644092
  0.8327507793420273  0.1656665940055408  0.4000301531813735
  0.8331373568742562  0.2909254841899843  0.3999098256793647
  0.8337990317087659  0.4162474299523966  0.3995624414187723
  0.8345159075034664  0.5416733271166647  0.3990126672663147
  0.8345360859138848  0.6672044753657957  0.3987888213312388
  0.8340488344122711  0.7920088285851904  0.3989442246933643
  0.8331410931353124  0.9162037177128654  0.3994476488167170
  0.9582656811425236  0.0416973494856319  0.3996421633882233
  0.9577695202759929  0.1661831199149925  0.3995867358566983
  0.9575425856187383  0.2910345772497926  0.3995994138426066
  0.9577070084028766  0.4163009885713261  0.3997178457603955
  0.9584255224027092  0.5418185696833013  0.3998105926039423
  0.9588884826491930  0.6672095611109035  0.3997607747411359
  0.9590168641642030  0.7924430604752676  0.3997185453892890
  0.9588186925176382  0.9172971742436206  0.3996639633394365
  0.4096960411691462  0.5835460039482118  0.4051901822069841
 
  0.00000000E+00  0.00000000E+00  0.00000000E+00
  0.00000000E+00  0.00000000E+00  0.00000000E+00
  0.00000000E+00  0.00000000E+00  0.00000000E+00
  0.00000000E+00  0.00000000E+00  0.00000000E+00
  0.00000000E+00  0.00000000E+00  0.00000000E+00
  0.00000000E+00  0.00000000E+00  0.00000000E+00
  0.00000000E+00  0.00000000E+00  0.00000000E+00
  0.00000000E+00  0.00000000E+00  0.00000000E+00
  0.00000000E+00  0.00000000E+00  0.00000000E+00
  0.00000000E+00  0.00000000E+00  0.00000000E+00
  0.00000000E+00  0.00000000E+00  0.00000000E+00
  0.00000000E+00  0.00000000E+00  0.00000000E+00
  0.00000000E+00  0.00000000E+00  0.00000000E+00
  0.00000000E+00  0.00000000E+00  0.00000000E+00
  0.00000000E+00  0.00000000E+00  0.00000000E+00
  0.00000000E+00  0.00000000E+00  0.00000000E+00
  0.00000000E+00  0.00000000E+00  0.00000000E+00
  0.00000000E+00  0.00000000E+00  0.00000000E+00
  0.00000000E+00  0.00000000E+00  0.00000000E+00
  0.00000000E+00  0.00000000E+00  0.00000000E+00
  0.00000000E+00  0.00000000E+00  0.00000000E+00
  0.00000000E+00  0.00000000E+00  0.00000000E+00
  0.00000000E+00  0.00000000E+00  0.00000000E+00
  0.00000000E+00  0.00000000E+00  0.00000000E+00
  0.00000000E+00  0.00000000E+00  0.00000000E+00
  0.00000000E+00  0.00000000E+00  0.00000000E+00
  0.00000000E+00  0.00000000E+00  0.00000000E+00
  0.00000000E+00  0.00000000E+00  0.00000000E+00
  0.00000000E+00  0.00000000E+00  0.00000000E+00
  0.00000000E+00  0.00000000E+00  0.00000000E+00
  0.00000000E+00  0.00000000E+00  0.00000000E+00
  0.00000000E+00  0.00000000E+00  0.00000000E+00
  0.00000000E+00  0.00000000E+00  0.00000000E+00
  0.00000000E+00  0.00000000E+00  0.00000000E+00
  0.00000000E+00  0.00000000E+00  0.00000000E+00
  0.00000000E+00  0.00000000E+00  0.00000000E+00
  0.00000000E+00  0.00000000E+00  0.00000000E+00
  0.00000000E+00  0.00000000E+00  0.00000000E+00
  0.00000000E+00  0.00000000E+00  0.00000000E+00
  0.00000000E+00  0.00000000E+00  0.00000000E+00
  0.00000000E+00  0.00000000E+00  0.00000000E+00
  0.00000000E+00  0.00000000E+00  0.00000000E+00
  0.00000000E+00  0.00000000E+00  0.00000000E+00
  0.00000000E+00  0.00000000E+00  0.00000000E+00
  0.00000000E+00  0.00000000E+00  0.00000000E+00
  0.00000000E+00  0.00000000E+00  0.00000000E+00
  0.00000000E+00  0.00000000E+00  0.00000000E+00
  0.00000000E+00  0.00000000E+00  0.00000000E+00
  0.00000000E+00  0.00000000E+00  0.00000000E+00
  0.00000000E+00  0.00000000E+00  0.00000000E+00
  0.00000000E+00  0.00000000E+00  0.00000000E+00
  0.00000000E+00  0.00000000E+00  0.00000000E+00
  0.00000000E+00  0.00000000E+00  0.00000000E+00
  0.00000000E+00  0.00000000E+00  0.00000000E+00
  0.00000000E+00  0.00000000E+00  0.00000000E+00
  0.00000000E+00  0.00000000E+00  0.00000000E+00
  0.00000000E+00  0.00000000E+00  0.00000000E+00
  0.00000000E+00  0.00000000E+00  0.00000000E+00
  0.00000000E+00  0.00000000E+00  0.00000000E+00
  0.00000000E+00  0.00000000E+00  0.00000000E+00
  0.00000000E+00  0.00000000E+00  0.00000000E+00
  0.00000000E+00  0.00000000E+00  0.00000000E+00
  0.00000000E+00  0.00000000E+00  0.00000000E+00
  0.00000000E+00  0.00000000E+00  0.00000000E+00
  0.00000000E+00  0.00000000E+00  0.00000000E+00
  0.00000000E+00  0.00000000E+00  0.00000000E+00
  0.00000000E+00  0.00000000E+00  0.00000000E+00
  0.00000000E+00  0.00000000E+00  0.00000000E+00
  0.00000000E+00  0.00000000E+00  0.00000000E+00
  0.00000000E+00  0.00000000E+00  0.00000000E+00
  0.00000000E+00  0.00000000E+00  0.00000000E+00
  0.00000000E+00  0.00000000E+00  0.00000000E+00
  0.00000000E+00  0.00000000E+00  0.00000000E+00
  0.00000000E+00  0.00000000E+00  0.00000000E+00
  0.00000000E+00  0.00000000E+00  0.00000000E+00
  0.00000000E+00  0.00000000E+00  0.00000000E+00
  0.00000000E+00  0.00000000E+00  0.00000000E+00
  0.00000000E+00  0.00000000E+00  0.00000000E+00
  0.00000000E+00  0.00000000E+00  0.00000000E+00
  0.00000000E+00  0.00000000E+00  0.00000000E+00
  0.00000000E+00  0.00000000E+00  0.00000000E+00
  0.00000000E+00  0.00000000E+00  0.00000000E+00
  0.00000000E+00  0.00000000E+00  0.00000000E+00
  0.00000000E+00  0.00000000E+00  0.00000000E+00
  0.00000000E+00  0.00000000E+00  0.00000000E+00
  0.00000000E+00  0.00000000E+00  0.00000000E+00
  0.00000000E+00  0.00000000E+00  0.00000000E+00
  0.00000000E+00  0.00000000E+00  0.00000000E+00
  0.00000000E+00  0.00000000E+00  0.00000000E+00
  0.00000000E+00  0.00000000E+00  0.00000000E+00
  0.00000000E+00  0.00000000E+00  0.00000000E+00
  0.00000000E+00  0.00000000E+00  0.00000000E+00
  0.00000000E+00  0.00000000E+00  0.00000000E+00
  0.00000000E+00  0.00000000E+00  0.00000000E+00
  0.00000000E+00  0.00000000E+00  0.00000000E+00
  0.00000000E+00  0.00000000E+00  0.00000000E+00
  0.00000000E+00  0.00000000E+00  0.00000000E+00
  0.00000000E+00  0.00000000E+00  0.00000000E+00
  0.00000000E+00  0.00000000E+00  0.00000000E+00
  0.00000000E+00  0.00000000E+00  0.00000000E+00
  0.00000000E+00  0.00000000E+00  0.00000000E+00
  0.00000000E+00  0.00000000E+00  0.00000000E+00
  0.00000000E+00  0.00000000E+00  0.00000000E+00
  0.00000000E+00  0.00000000E+00  0.00000000E+00
  0.00000000E+00  0.00000000E+00  0.00000000E+00
  0.00000000E+00  0.00000000E+00  0.00000000E+00
  0.00000000E+00  0.00000000E+00  0.00000000E+00
  0.00000000E+00  0.00000000E+00  0.00000000E+00
  0.00000000E+00  0.00000000E+00  0.00000000E+00
  0.00000000E+00  0.00000000E+00  0.00000000E+00
  0.00000000E+00  0.00000000E+00  0.00000000E+00
  0.00000000E+00  0.00000000E+00  0.00000000E+00
  0.00000000E+00  0.00000000E+00  0.00000000E+00
  0.00000000E+00  0.00000000E+00  0.00000000E+00
  0.00000000E+00  0.00000000E+00  0.00000000E+00
  0.00000000E+00  0.00000000E+00  0.00000000E+00
  0.00000000E+00  0.00000000E+00  0.00000000E+00
  0.00000000E+00  0.00000000E+00  0.00000000E+00
  0.00000000E+00  0.00000000E+00  0.00000000E+00
  0.00000000E+00  0.00000000E+00  0.00000000E+00
  0.00000000E+00  0.00000000E+00  0.00000000E+00
  0.00000000E+00  0.00000000E+00  0.00000000E+00
  0.00000000E+00  0.00000000E+00  0.00000000E+00
  0.00000000E+00  0.00000000E+00  0.00000000E+00
  0.00000000E+00  0.00000000E+00  0.00000000E+00
  0.00000000E+00  0.00000000E+00  0.00000000E+00
  0.00000000E+00  0.00000000E+00  0.00000000E+00
