La1 H1 C126 O1                          
   1.00000000000000     
    19.7185927660498912   -0.0056595055137291    0.1466340052697400
    -9.8641495118854206   17.1214570262068442    0.0938403852684429
     0.2204868023169466    0.2905839231592411   29.8141530196384075
   La   H    C    O 
     1     1   126     1
Direct
  0.4344447433958002  0.5020851589693175  0.4614961352474017
  0.5246543039258927  0.5853362642708945  0.5463300385284563
  0.0414283484897476  0.0829983275228974  0.4000332352636274
  0.0417331809238458  0.2082412697703657  0.3997525325705296
  0.0420342479574810  0.3332721605462270  0.3994306672540001
  0.0421012044094424  0.4582251201702852  0.3993370313098414
  0.0416386534914389  0.5830252464325876  0.3996104902802593
  0.0413512565859043  0.7079126789033511  0.3997322727911764
  0.0413228635100428  0.8329264441430977  0.3998111304167812
  0.0413076209821250  0.9578710287010697  0.4000433356741871
  0.1662087507109944  0.0826700787634788  0.4002882200622566
  0.1664021522324615  0.2076364503039876  0.4000217512495207
  0.1672473793023189  0.3331812470199518  0.3989423685806811
  0.1677138794639973  0.4581867621546237  0.3985367495658159
  0.1671816238715604  0.5831122678984765  0.3986712430389586
  0.1665847958192826  0.7080529763684277  0.3994589972224455
  0.1663616914381376  0.8329085686913187  0.3998730440867717
  0.1663170571127355  0.9578490617653309  0.4001332247769522
  0.2913066026955344  0.0825555021354398  0.4003535279906922
  0.2912026537835003  0.2072887090991511  0.4007631941068793
  0.2921129912122244  0.3328495006222201  0.3987713665525098
  0.2943620681703227  0.4576305656912159  0.3971646528006464
  0.2927962357665556  0.5836203946880500  0.3975508454690743
  0.2917420738962571  0.7083496194628621  0.3989591890158199
  0.2914907791153407  0.8331269972054807  0.3997078024670090
  0.2913405540772662  0.9578706324888506  0.4000028382281582
  0.4164524352438848  0.0829489520149909  0.3997745089360006
  0.4161707272341523  0.2074159430651050  0.4000001379078859
  0.4158474510718794  0.3321999525624899  0.4024623963744792
  0.4177938688353450  0.5858109926875781  0.4036275062043804
  0.4169074437839382  0.7092195517482797  0.3998582770521106
  0.4166323784474805  0.8337107475570422  0.3996080768268118
  0.4164696403327007  0.9582594215842146  0.3998685790096738
  0.5415193236558699  0.0833304800623483  0.3998156807389382
  0.5414571130446609  0.2081250391019991  0.3993421376556986
  0.5409537037899278  0.3329438582456959  0.3990772839564473
  0.5381638922659605  0.4570727280631825  0.3993979237532992
  0.5417246128413904  0.5850311812592051  0.4007876516712869
  0.5420579282854909  0.7098546324261789  0.4020597123494714
  0.5416716763857208  0.8340133522304178  0.4006405457539065
  0.5416441827772784  0.9586158254556707  0.4000535821095720
  0.6666316196074377  0.0835003846711705  0.3999900768430247
  0.6665686109573215  0.2083764453803199  0.3996530264640645
  0.6662299637440512  0.3332223216764957  0.3988731910182237
  0.6653589286022736  0.4580597801691868  0.3980409315537444
  0.6654403602509634  0.5832635098490527  0.3987179694957167
  0.6664704754999576  0.7086370023067402  0.4000002225463244
  0.6669791678327626  0.8339028454084858  0.4006024929205496
  0.6667672865080739  0.9587248059600636  0.4002796210258902
  0.7917678910834356  0.0835193352005139  0.3999286696829837
  0.7916688947042052  0.2084100062976435  0.3998275619428251
  0.7915182976479922  0.3333294514247873  0.3996265097127151
  0.7910620453100398  0.4581978947990313  0.3991244874155702
  0.7907020857610920  0.5829844871876333  0.3988459418389727
  0.7912345228632129  0.7081682735986048  0.3992583217945984
  0.7915886753105472  0.8334254388299526  0.3998061609542278
  0.7917530329326403  0.9585451003441881  0.3999610902654978
  0.9166898281501370  0.0833397249150663  0.3998945812928735
  0.9167770947730671  0.2084065015964523  0.3997624422065454
  0.9167662531292942  0.3333378296336316  0.3997352919463444
  0.9165386081424131  0.4581327104624697  0.3997195649623469
  0.9162551871328757  0.5830320501968763  0.3995113929785237
  0.9162065114512692  0.7080098898755709  0.3994693495647331
  0.9163597876875915  0.8330554942382496  0.3996529090141141
  0.9165434520226177  0.9581972122995221  0.3998301737380445
  0.0829114279428807  0.0411026500192781  0.4001437148592206
  0.0831186571297522  0.1662372921154108  0.3999935169382419
  0.0835177148202254  0.2915224123329077  0.3994007044985907
  0.0841081825786376  0.4166879861999329  0.3991181816446766
  0.0836314646042912  0.5414760550788167  0.3992576369755796
  0.0831663946785049  0.6663403512689766  0.3996469214430839
  0.0830272487806088  0.7912695052885057  0.3997991715038479
  0.0829247036611242  0.9161700932102692  0.4000145839499873
  0.2079052505006868  0.0409304004448791  0.4003195769423419
  0.2076918679217558  0.1656859776938475  0.4002936181561568
  0.2082441003947428  0.2909663962696599  0.3992099733869441
  0.2095530270925349  0.4164163726404316  0.3985063018589491
  0.2092555169932849  0.5416949852021208  0.3979472047962122
  0.2084825794676114  0.6665320034436829  0.3989257653439641
  0.2081035023914937  0.7913117727573222  0.3997138212331332
  0.2080231718760267  0.9161631779897040  0.4000255172969992
  0.3330415299979107  0.0410633603370198  0.4000437458203278
  0.3329966787723258  0.1655981009398275  0.4005944472844731
  0.3325473044553505  0.2895764676890132  0.4011446925384626
  0.3335189057646564  0.4143596309222153  0.3959941442460626
  0.3362185508159072  0.5427617887686847  0.3978683250803012
  0.3336999625889251  0.6668831654609052  0.3987333496116464
  0.3332699288956864  0.7916657566372163  0.3994350691024998
  0.3331514906506280  0.9163975983435455  0.3998783423473221
  0.4582086498850395  0.0414907831026974  0.3998216687993397
  0.4580872711669688  0.1661146637296755  0.3995340989438291
  0.4577080260783811  0.2906841903308379  0.4002600923372346
  0.4556935193832282  0.4139851825498648  0.4054097107558219
  0.4585945617584229  0.6676513723707833  0.4019327588585206
  0.4585392231982036  0.7924331909436428  0.3999775483157517
  0.4582571732584574  0.9168436314905677  0.3998447263856331
  0.5833162646979473  0.0418240649426676  0.3999876150775029
  0.5831993174771478  0.1666028518525796  0.3996088959133859
  0.5829528852070425  0.2914585863527108  0.3989735199109692
  0.5816549894319090  0.4162270268461568  0.3980520454260458
  0.5809220463987715  0.5420811483475608  0.3990254882057725
  0.5827510806347528  0.6667086994346976  0.4010034992437944
  0.5834239961366267  0.7922104401532647  0.4011902681830496
  0.5833780565758311  0.9171048071956840  0.4003527291757369
  0.7083471776313782  0.0418181425669097  0.4000448823233091
  0.7083136969552696  0.1667742070569481  0.3998597652679872
  0.7081017097541455  0.2916599643491527  0.3993869417502812
  0.7074773465029555  0.4166242714177866  0.3986134173218145
  0.7071666874334980  0.5415046012582705  0.3983882553167936
  0.7075632670363786  0.6664929158647137  0.3992454251596453
  0.7083009460632694  0.7919764933325493  0.4002182385703038
  0.7084654546230903  0.9169682945542238  0.4002727728325011
  0.8333633541545912  0.0417970367654106  0.3999176603261928
  0.8333751907407593  0.1667683266619739  0.3998359737816358
  0.8333574548239051  0.2917610648291476  0.3997815071611777
  0.8330744660239636  0.4166304015652287  0.3995679384888882
  0.8327007424192283  0.5414398882789763  0.3991353145410064
  0.8327196849233364  0.6664097259538801  0.3991729642272741
  0.8330241845596329  0.7914456694858386  0.3995509084478811
  0.8332626955160023  0.9166527368979951  0.3998121102201006
  0.9581424305087289  0.0414636690234799  0.3999208459992384
  0.9583703244419339  0.1666451401758794  0.3998223851916007
  0.9585163437508241  0.2916837942378769  0.3996777602467856
  0.9585065534303038  0.4166411560756293  0.3996688479621855
  0.9581856152713935  0.5415054659293497  0.3996895322445487
  0.9579497710247393  0.6663247006326011  0.3995936787485124
  0.9579420669907269  0.7912739509696780  0.3996479404988884
  0.9580161965578777  0.9163508569713426  0.3998479871629433
  0.4909537433566368  0.5526303962725380  0.5229890877881603
 
  0.00000000E+00  0.00000000E+00  0.00000000E+00
  0.00000000E+00  0.00000000E+00  0.00000000E+00
  0.00000000E+00  0.00000000E+00  0.00000000E+00
  0.00000000E+00  0.00000000E+00  0.00000000E+00
  0.00000000E+00  0.00000000E+00  0.00000000E+00
  0.00000000E+00  0.00000000E+00  0.00000000E+00
  0.00000000E+00  0.00000000E+00  0.00000000E+00
  0.00000000E+00  0.00000000E+00  0.00000000E+00
  0.00000000E+00  0.00000000E+00  0.00000000E+00
  0.00000000E+00  0.00000000E+00  0.00000000E+00
  0.00000000E+00  0.00000000E+00  0.00000000E+00
  0.00000000E+00  0.00000000E+00  0.00000000E+00
  0.00000000E+00  0.00000000E+00  0.00000000E+00
  0.00000000E+00  0.00000000E+00  0.00000000E+00
  0.00000000E+00  0.00000000E+00  0.00000000E+00
  0.00000000E+00  0.00000000E+00  0.00000000E+00
  0.00000000E+00  0.00000000E+00  0.00000000E+00
  0.00000000E+00  0.00000000E+00  0.00000000E+00
  0.00000000E+00  0.00000000E+00  0.00000000E+00
  0.00000000E+00  0.00000000E+00  0.00000000E+00
  0.00000000E+00  0.00000000E+00  0.00000000E+00
  0.00000000E+00  0.00000000E+00  0.00000000E+00
  0.00000000E+00  0.00000000E+00  0.00000000E+00
  0.00000000E+00  0.00000000E+00  0.00000000E+00
  0.00000000E+00  0.00000000E+00  0.00000000E+00
  0.00000000E+00  0.00000000E+00  0.00000000E+00
  0.00000000E+00  0.00000000E+00  0.00000000E+00
  0.00000000E+00  0.00000000E+00  0.00000000E+00
  0.00000000E+00  0.00000000E+00  0.00000000E+00
  0.00000000E+00  0.00000000E+00  0.00000000E+00
  0.00000000E+00  0.00000000E+00  0.00000000E+00
  0.00000000E+00  0.00000000E+00  0.00000000E+00
  0.00000000E+00  0.00000000E+00  0.00000000E+00
  0.00000000E+00  0.00000000E+00  0.00000000E+00
  0.00000000E+00  0.00000000E+00  0.00000000E+00
  0.00000000E+00  0.00000000E+00  0.00000000E+00
  0.00000000E+00  0.00000000E+00  0.00000000E+00
  0.00000000E+00  0.00000000E+00  0.00000000E+00
  0.00000000E+00  0.00000000E+00  0.00000000E+00
  0.00000000E+00  0.00000000E+00  0.00000000E+00
  0.00000000E+00  0.00000000E+00  0.00000000E+00
  0.00000000E+00  0.00000000E+00  0.00000000E+00
  0.00000000E+00  0.00000000E+00  0.00000000E+00
  0.00000000E+00  0.00000000E+00  0.00000000E+00
  0.00000000E+00  0.00000000E+00  0.00000000E+00
  0.00000000E+00  0.00000000E+00  0.00000000E+00
  0.00000000E+00  0.00000000E+00  0.00000000E+00
  0.00000000E+00  0.00000000E+00  0.00000000E+00
  0.00000000E+00  0.00000000E+00  0.00000000E+00
  0.00000000E+00  0.00000000E+00  0.00000000E+00
  0.00000000E+00  0.00000000E+00  0.00000000E+00
  0.00000000E+00  0.00000000E+00  0.00000000E+00
  0.00000000E+00  0.00000000E+00  0.00000000E+00
  0.00000000E+00  0.00000000E+00  0.00000000E+00
  0.00000000E+00  0.00000000E+00  0.00000000E+00
  0.00000000E+00  0.00000000E+00  0.00000000E+00
  0.00000000E+00  0.00000000E+00  0.00000000E+00
  0.00000000E+00  0.00000000E+00  0.00000000E+00
  0.00000000E+00  0.00000000E+00  0.00000000E+00
  0.00000000E+00  0.00000000E+00  0.00000000E+00
  0.00000000E+00  0.00000000E+00  0.00000000E+00
  0.00000000E+00  0.00000000E+00  0.00000000E+00
  0.00000000E+00  0.00000000E+00  0.00000000E+00
  0.00000000E+00  0.00000000E+00  0.00000000E+00
  0.00000000E+00  0.00000000E+00  0.00000000E+00
  0.00000000E+00  0.00000000E+00  0.00000000E+00
  0.00000000E+00  0.00000000E+00  0.00000000E+00
  0.00000000E+00  0.00000000E+00  0.00000000E+00
  0.00000000E+00  0.00000000E+00  0.00000000E+00
  0.00000000E+00  0.00000000E+00  0.00000000E+00
  0.00000000E+00  0.00000000E+00  0.00000000E+00
  0.00000000E+00  0.00000000E+00  0.00000000E+00
  0.00000000E+00  0.00000000E+00  0.00000000E+00
  0.00000000E+00  0.00000000E+00  0.00000000E+00
  0.00000000E+00  0.00000000E+00  0.00000000E+00
  0.00000000E+00  0.00000000E+00  0.00000000E+00
  0.00000000E+00  0.00000000E+00  0.00000000E+00
  0.00000000E+00  0.00000000E+00  0.00000000E+00
  0.00000000E+00  0.00000000E+00  0.00000000E+00
  0.00000000E+00  0.00000000E+00  0.00000000E+00
  0.00000000E+00  0.00000000E+00  0.00000000E+00
  0.00000000E+00  0.00000000E+00  0.00000000E+00
  0.00000000E+00  0.00000000E+00  0.00000000E+00
  0.00000000E+00  0.00000000E+00  0.00000000E+00
  0.00000000E+00  0.00000000E+00  0.00000000E+00
  0.00000000E+00  0.00000000E+00  0.00000000E+00
  0.00000000E+00  0.00000000E+00  0.00000000E+00
  0.00000000E+00  0.00000000E+00  0.00000000E+00
  0.00000000E+00  0.00000000E+00  0.00000000E+00
  0.00000000E+00  0.00000000E+00  0.00000000E+00
  0.00000000E+00  0.00000000E+00  0.00000000E+00
  0.00000000E+00  0.00000000E+00  0.00000000E+00
  0.00000000E+00  0.00000000E+00  0.00000000E+00
  0.00000000E+00  0.00000000E+00  0.00000000E+00
  0.00000000E+00  0.00000000E+00  0.00000000E+00
  0.00000000E+00  0.00000000E+00  0.00000000E+00
  0.00000000E+00  0.00000000E+00  0.00000000E+00
  0.00000000E+00  0.00000000E+00  0.00000000E+00
  0.00000000E+00  0.00000000E+00  0.00000000E+00
  0.00000000E+00  0.00000000E+00  0.00000000E+00
  0.00000000E+00  0.00000000E+00  0.00000000E+00
  0.00000000E+00  0.00000000E+00  0.00000000E+00
  0.00000000E+00  0.00000000E+00  0.00000000E+00
  0.00000000E+00  0.00000000E+00  0.00000000E+00
  0.00000000E+00  0.00000000E+00  0.00000000E+00
  0.00000000E+00  0.00000000E+00  0.00000000E+00
  0.00000000E+00  0.00000000E+00  0.00000000E+00
  0.00000000E+00  0.00000000E+00  0.00000000E+00
  0.00000000E+00  0.00000000E+00  0.00000000E+00
  0.00000000E+00  0.00000000E+00  0.00000000E+00
  0.00000000E+00  0.00000000E+00  0.00000000E+00
  0.00000000E+00  0.00000000E+00  0.00000000E+00
  0.00000000E+00  0.00000000E+00  0.00000000E+00
  0.00000000E+00  0.00000000E+00  0.00000000E+00
  0.00000000E+00  0.00000000E+00  0.00000000E+00
  0.00000000E+00  0.00000000E+00  0.00000000E+00
  0.00000000E+00  0.00000000E+00  0.00000000E+00
  0.00000000E+00  0.00000000E+00  0.00000000E+00
  0.00000000E+00  0.00000000E+00  0.00000000E+00
  0.00000000E+00  0.00000000E+00  0.00000000E+00
  0.00000000E+00  0.00000000E+00  0.00000000E+00
  0.00000000E+00  0.00000000E+00  0.00000000E+00
  0.00000000E+00  0.00000000E+00  0.00000000E+00
  0.00000000E+00  0.00000000E+00  0.00000000E+00
  0.00000000E+00  0.00000000E+00  0.00000000E+00
  0.00000000E+00  0.00000000E+00  0.00000000E+00
  0.00000000E+00  0.00000000E+00  0.00000000E+00
  0.00000000E+00  0.00000000E+00  0.00000000E+00
  0.00000000E+00  0.00000000E+00  0.00000000E+00
