Ta1 H1 C123 N3                          
   1.00000000000000     
    19.7972305242283966    0.0079794894772366   -0.1887987617635407
    -9.8917222259944548   17.0418849830916663   -0.0370488586045764
    -0.2841285043774238   -0.2297929326197272   29.8224744828047577
   Ta   H    C    N 
     1     1   123     3
Direct
  0.4307173997842311  0.5011215278099287  0.4315296590312426
  0.4240700359609119  0.4968850675618237  0.4918502558477606
  0.0418996173313748  0.0838063617501540  0.3994797926589621
  0.0412310592779609  0.2081801321856674  0.3998236505070990
  0.0408039423361194  0.3331539467485817  0.4004831556147426
  0.0409843222766060  0.4583901819308139  0.4004125305993131
  0.0417695798480287  0.5837590946915987  0.4000314846770175
  0.0424219454058008  0.7091243676539692  0.3998727682074439
  0.0425549595955338  0.8342821721719375  0.3997528785887871
  0.0424395341725772  0.9593112386723762  0.3995349708990975
  0.1677065924382690  0.0849760942938972  0.3995860224083447
  0.1670905886501018  0.2094424273411473  0.3995637977368063
  0.1654892876792446  0.3336506479571593  0.4005718739394588
  0.1649426723353056  0.4584883956420583  0.4012511171131433
  0.1658182348989467  0.5837676709087536  0.4004578265497993
  0.1668023673086938  0.7089672995109573  0.3999577993531349
  0.1673341273778964  0.8342902919133611  0.3998416142390547
  0.1675750613926016  0.9597107373323660  0.3996668305603418
  0.2927053905568416  0.0854627552622386  0.3999830919926453
  0.2931911371924513  0.2117602617132530  0.4006861592423496
  0.2913628715531478  0.3355627562289226  0.4008049846571928
  0.2886238899852465  0.4580577395319160  0.4007375940165671
  0.2893431243872508  0.5831742070409197  0.4000497072810392
  0.2912192999144478  0.7083395035169799  0.3993573757734769
  0.2920735048488298  0.8338919262373918  0.3996162847175734
  0.2923956330792448  0.9595366733750224  0.3997407256653148
  0.4173483587186909  0.0844682417796687  0.3997231223543337
  0.4178795465963831  0.2107238321495332  0.4003733993433762
  0.4197618616240563  0.3386169336949676  0.4042056362014847
  0.4157009895832171  0.7066782910352590  0.3981287653600878
  0.4166467102232498  0.8326558859047146  0.3990432925283071
  0.4170200502667519  0.9585453761524924  0.3995917754436131
  0.5418835047999274  0.0830795250741072  0.3996625227681390
  0.5423310654103742  0.2088306602049937  0.3996241236700705
  0.5433483546350911  0.3344780069754920  0.4005181164176403
  0.5467671347315844  0.4599803235485471  0.4037332283656820
  0.5393870130662286  0.7027241434051702  0.4012332943489869
  0.5410779031907170  0.8308495459786690  0.3992255026322282
  0.5415556840233906  0.9571927344576335  0.3994250112537020
  0.6664581608555512  0.0824570345925800  0.3997851773871038
  0.6668522593130406  0.2078998642746782  0.3995517682727487
  0.6676433953916172  0.3333519212946241  0.3990566921338367
  0.6695025625153723  0.4588640953961887  0.3989589097007657
  0.6701711555027845  0.5840023976751531  0.4005605273257808
  0.6663661935036880  0.7061977628387339  0.4015525367343682
  0.6652764664275114  0.8308076843745340  0.4002297063508086
  0.6660736903141302  0.9568035273900581  0.3997231721252713
  0.7911515642200974  0.0823061438126221  0.3998824957879302
  0.7914746524150196  0.2076774091764310  0.3997794985408498
  0.7919965995634842  0.3330501491955934  0.3994412370544528
  0.7930042550848292  0.4584360600916603  0.3987682864648757
  0.7937417661477851  0.5838351372016610  0.3987389767795291
  0.7931381301649282  0.7087725758853876  0.3997958147468715
  0.7912892172534959  0.8323912015906025  0.3998165043117666
  0.7908608115493373  0.9570232374416011  0.3998086854109238
  0.9162485549683154  0.0827310483380980  0.3997513843647276
  0.9161468376668890  0.2077186675038730  0.3999399498599264
  0.9163380154407922  0.3329746320252079  0.3999679186709550
  0.9170214026364917  0.4584144822929224  0.3997137017638597
  0.9177372873713608  0.5838056814059561  0.3993490034676745
  0.9178415808528475  0.7089778909324630  0.3994507869212369
  0.9174721156784877  0.8339313413314795  0.3996443069522587
  0.9166248628870680  0.9581637144555859  0.3996147544786906
  0.0842161935496308  0.0428365405582198  0.3994428702402053
  0.0835512497516968  0.1672695421468116  0.3995585027650174
  0.0826524050092703  0.2917090690040938  0.4003206038510156
  0.0820685633807123  0.4164564005491812  0.4007661751046298
  0.0828047389667069  0.5418864917867930  0.4003596774377566
  0.0836734474380562  0.6672801564175135  0.3999945423958339
  0.0841311893474285  0.7925987947167791  0.3998681445341885
  0.0842262662842628  0.9178174345995286  0.3996311866441056
  0.2093125204105477  0.0433303062493430  0.3997423121279010
  0.2095793458890881  0.1687595713552672  0.3998019156297629
  0.2083728480677084  0.2929504465784593  0.3997189182550719
  0.2060574356689083  0.4168625984124518  0.4014358971576802
  0.2066167775473449  0.5417161880123061  0.4008920246886760
  0.2079554460086037  0.6670343171715598  0.3999644425535578
  0.2087552954716114  0.7924691975883466  0.3998257191798286
  0.2091120185712390  0.9179016111082522  0.3997476970914164
  0.3340842217279092  0.0432411895362204  0.3998073766104037
  0.3344453821112348  0.1693141411524887  0.4004582255037210
  0.3352123680748565  0.2961659342587859  0.4021833745880925
  0.3305629931289464  0.5417260448981887  0.3992679308884475
  0.3320623768610121  0.6662113141741385  0.3989281625867840
  0.3333582520787065  0.7918475686434042  0.3992523657436595
  0.3338101348715874  0.9174520499306031  0.3996702201219490
  0.4586675942583824  0.0421293658573525  0.3996639204631238
  0.4590435464759547  0.1681428064327546  0.3997926936351502
  0.4599186392696611  0.2945657646115169  0.4014669905256197
  0.4647863450550686  0.4220645340803715  0.4086137526727597
  0.4555943637174667  0.6633729984770442  0.3987432471283024
  0.4579243605553479  0.7903003005214619  0.3986938417125896
  0.4583602932909171  0.9162498824655498  0.3993512220685205
  0.5832421036302438  0.0408992240984282  0.3996691117571246
  0.5836137303900071  0.1665918582343617  0.3995679661054385
  0.5843340777595692  0.2921778950656722  0.3995505650480000
  0.5867365532718334  0.4177850552296032  0.4004775563032347
  0.5890631467882343  0.5431192405578720  0.4039046238268283
  0.5827230690256843  0.6617442184866827  0.4041054393737127
  0.5817312230964150  0.7877101817423654  0.4001394816521645
  0.5828535582272271  0.9148583659653120  0.3994007248135648
  0.7079004254262766  0.0405068972702576  0.3998181040557267
  0.7082448040432823  0.1660097286573730  0.3997442528390410
  0.7087925875358742  0.2914107836734393  0.3992963861692536
  0.7101102810599110  0.4167086693170848  0.3986461456680360
  0.7111111070352041  0.5418856478731044  0.3989581730443155
  0.7104954434646565  0.6670632199340560  0.4008002332445319
  0.7075749202589129  0.7898888559017229  0.4002752422678095
  0.7073502950650629  0.9147825400520895  0.3998955747151779
  0.8328037853366886  0.0406907059298638  0.3998304313906378
  0.8329724497895816  0.1659369946881780  0.3998787890181230
  0.8332340391405256  0.2911364171388433  0.3997237306221260
  0.8340209752899671  0.4165035601973891  0.3993108513388218
  0.8348233982703649  0.5419394324555995  0.3988088647091074
  0.8349657112013474  0.6672188960384647  0.3992329158273842
  0.8341980515175853  0.7920248683079163  0.3997659950503903
  0.8330787443309315  0.9159709593990319  0.3997093063973272
  0.9584039368589190  0.0416652178861098  0.3996080894202532
  0.9579950333556989  0.1662377754774159  0.3998248913730184
  0.9577489086558781  0.2912334116034503  0.4001200922941419
  0.9580782984811967  0.4165008763226393  0.4000481135559411
  0.9588114973910182  0.5418646241075089  0.3997238491993540
  0.9593348751246789  0.6672593662157147  0.3995665976776921
  0.9593891632951235  0.7925281910879238  0.3996594019225475
  0.9590106358617679  0.9173136250037381  0.3995952602522100
  0.4121784667971025  0.5821872736696208  0.3992048283541675
  0.5461729108933836  0.5806396689036875  0.4094315471804572
  0.3294872853077245  0.4171425523505554  0.4030423714540071
 
  0.00000000E+00  0.00000000E+00  0.00000000E+00
  0.00000000E+00  0.00000000E+00  0.00000000E+00
  0.00000000E+00  0.00000000E+00  0.00000000E+00
  0.00000000E+00  0.00000000E+00  0.00000000E+00
  0.00000000E+00  0.00000000E+00  0.00000000E+00
  0.00000000E+00  0.00000000E+00  0.00000000E+00
  0.00000000E+00  0.00000000E+00  0.00000000E+00
  0.00000000E+00  0.00000000E+00  0.00000000E+00
  0.00000000E+00  0.00000000E+00  0.00000000E+00
  0.00000000E+00  0.00000000E+00  0.00000000E+00
  0.00000000E+00  0.00000000E+00  0.00000000E+00
  0.00000000E+00  0.00000000E+00  0.00000000E+00
  0.00000000E+00  0.00000000E+00  0.00000000E+00
  0.00000000E+00  0.00000000E+00  0.00000000E+00
  0.00000000E+00  0.00000000E+00  0.00000000E+00
  0.00000000E+00  0.00000000E+00  0.00000000E+00
  0.00000000E+00  0.00000000E+00  0.00000000E+00
  0.00000000E+00  0.00000000E+00  0.00000000E+00
  0.00000000E+00  0.00000000E+00  0.00000000E+00
  0.00000000E+00  0.00000000E+00  0.00000000E+00
  0.00000000E+00  0.00000000E+00  0.00000000E+00
  0.00000000E+00  0.00000000E+00  0.00000000E+00
  0.00000000E+00  0.00000000E+00  0.00000000E+00
  0.00000000E+00  0.00000000E+00  0.00000000E+00
  0.00000000E+00  0.00000000E+00  0.00000000E+00
  0.00000000E+00  0.00000000E+00  0.00000000E+00
  0.00000000E+00  0.00000000E+00  0.00000000E+00
  0.00000000E+00  0.00000000E+00  0.00000000E+00
  0.00000000E+00  0.00000000E+00  0.00000000E+00
  0.00000000E+00  0.00000000E+00  0.00000000E+00
  0.00000000E+00  0.00000000E+00  0.00000000E+00
  0.00000000E+00  0.00000000E+00  0.00000000E+00
  0.00000000E+00  0.00000000E+00  0.00000000E+00
  0.00000000E+00  0.00000000E+00  0.00000000E+00
  0.00000000E+00  0.00000000E+00  0.00000000E+00
  0.00000000E+00  0.00000000E+00  0.00000000E+00
  0.00000000E+00  0.00000000E+00  0.00000000E+00
  0.00000000E+00  0.00000000E+00  0.00000000E+00
  0.00000000E+00  0.00000000E+00  0.00000000E+00
  0.00000000E+00  0.00000000E+00  0.00000000E+00
  0.00000000E+00  0.00000000E+00  0.00000000E+00
  0.00000000E+00  0.00000000E+00  0.00000000E+00
  0.00000000E+00  0.00000000E+00  0.00000000E+00
  0.00000000E+00  0.00000000E+00  0.00000000E+00
  0.00000000E+00  0.00000000E+00  0.00000000E+00
  0.00000000E+00  0.00000000E+00  0.00000000E+00
  0.00000000E+00  0.00000000E+00  0.00000000E+00
  0.00000000E+00  0.00000000E+00  0.00000000E+00
  0.00000000E+00  0.00000000E+00  0.00000000E+00
  0.00000000E+00  0.00000000E+00  0.00000000E+00
  0.00000000E+00  0.00000000E+00  0.00000000E+00
  0.00000000E+00  0.00000000E+00  0.00000000E+00
  0.00000000E+00  0.00000000E+00  0.00000000E+00
  0.00000000E+00  0.00000000E+00  0.00000000E+00
  0.00000000E+00  0.00000000E+00  0.00000000E+00
  0.00000000E+00  0.00000000E+00  0.00000000E+00
  0.00000000E+00  0.00000000E+00  0.00000000E+00
  0.00000000E+00  0.00000000E+00  0.00000000E+00
  0.00000000E+00  0.00000000E+00  0.00000000E+00
  0.00000000E+00  0.00000000E+00  0.00000000E+00
  0.00000000E+00  0.00000000E+00  0.00000000E+00
  0.00000000E+00  0.00000000E+00  0.00000000E+00
  0.00000000E+00  0.00000000E+00  0.00000000E+00
  0.00000000E+00  0.00000000E+00  0.00000000E+00
  0.00000000E+00  0.00000000E+00  0.00000000E+00
  0.00000000E+00  0.00000000E+00  0.00000000E+00
  0.00000000E+00  0.00000000E+00  0.00000000E+00
  0.00000000E+00  0.00000000E+00  0.00000000E+00
  0.00000000E+00  0.00000000E+00  0.00000000E+00
  0.00000000E+00  0.00000000E+00  0.00000000E+00
  0.00000000E+00  0.00000000E+00  0.00000000E+00
  0.00000000E+00  0.00000000E+00  0.00000000E+00
  0.00000000E+00  0.00000000E+00  0.00000000E+00
  0.00000000E+00  0.00000000E+00  0.00000000E+00
  0.00000000E+00  0.00000000E+00  0.00000000E+00
  0.00000000E+00  0.00000000E+00  0.00000000E+00
  0.00000000E+00  0.00000000E+00  0.00000000E+00
  0.00000000E+00  0.00000000E+00  0.00000000E+00
  0.00000000E+00  0.00000000E+00  0.00000000E+00
  0.00000000E+00  0.00000000E+00  0.00000000E+00
  0.00000000E+00  0.00000000E+00  0.00000000E+00
  0.00000000E+00  0.00000000E+00  0.00000000E+00
  0.00000000E+00  0.00000000E+00  0.00000000E+00
  0.00000000E+00  0.00000000E+00  0.00000000E+00
  0.00000000E+00  0.00000000E+00  0.00000000E+00
  0.00000000E+00  0.00000000E+00  0.00000000E+00
  0.00000000E+00  0.00000000E+00  0.00000000E+00
  0.00000000E+00  0.00000000E+00  0.00000000E+00
  0.00000000E+00  0.00000000E+00  0.00000000E+00
  0.00000000E+00  0.00000000E+00  0.00000000E+00
  0.00000000E+00  0.00000000E+00  0.00000000E+00
  0.00000000E+00  0.00000000E+00  0.00000000E+00
  0.00000000E+00  0.00000000E+00  0.00000000E+00
  0.00000000E+00  0.00000000E+00  0.00000000E+00
  0.00000000E+00  0.00000000E+00  0.00000000E+00
  0.00000000E+00  0.00000000E+00  0.00000000E+00
  0.00000000E+00  0.00000000E+00  0.00000000E+00
  0.00000000E+00  0.00000000E+00  0.00000000E+00
  0.00000000E+00  0.00000000E+00  0.00000000E+00
  0.00000000E+00  0.00000000E+00  0.00000000E+00
  0.00000000E+00  0.00000000E+00  0.00000000E+00
  0.00000000E+00  0.00000000E+00  0.00000000E+00
  0.00000000E+00  0.00000000E+00  0.00000000E+00
  0.00000000E+00  0.00000000E+00  0.00000000E+00
  0.00000000E+00  0.00000000E+00  0.00000000E+00
  0.00000000E+00  0.00000000E+00  0.00000000E+00
  0.00000000E+00  0.00000000E+00  0.00000000E+00
  0.00000000E+00  0.00000000E+00  0.00000000E+00
  0.00000000E+00  0.00000000E+00  0.00000000E+00
  0.00000000E+00  0.00000000E+00  0.00000000E+00
  0.00000000E+00  0.00000000E+00  0.00000000E+00
  0.00000000E+00  0.00000000E+00  0.00000000E+00
  0.00000000E+00  0.00000000E+00  0.00000000E+00
  0.00000000E+00  0.00000000E+00  0.00000000E+00
  0.00000000E+00  0.00000000E+00  0.00000000E+00
  0.00000000E+00  0.00000000E+00  0.00000000E+00
  0.00000000E+00  0.00000000E+00  0.00000000E+00
  0.00000000E+00  0.00000000E+00  0.00000000E+00
  0.00000000E+00  0.00000000E+00  0.00000000E+00
  0.00000000E+00  0.00000000E+00  0.00000000E+00
  0.00000000E+00  0.00000000E+00  0.00000000E+00
  0.00000000E+00  0.00000000E+00  0.00000000E+00
  0.00000000E+00  0.00000000E+00  0.00000000E+00
  0.00000000E+00  0.00000000E+00  0.00000000E+00
  0.00000000E+00  0.00000000E+00  0.00000000E+00
  0.00000000E+00  0.00000000E+00  0.00000000E+00
  0.00000000E+00  0.00000000E+00  0.00000000E+00
  0.00000000E+00  0.00000000E+00  0.00000000E+00
