Ag1 H1 C122 N4 O2                       
   1.00000000000000     
    19.8030814707842708   -0.0010697080151805    0.2001000265557392
    -9.9020443074450792   17.0317998131073338   -0.0959915830849734
     0.3010800282327816    0.0070518404592465   29.8377920828386571
   Ag   H    C    N    O 
     1     1   122     4     2
Direct
  0.4352852255887081  0.4994092427449919  0.4496029886178550
  0.5654888082339671  0.5808683169859250  0.5364697091635940
  0.0419126143058075  0.0841424352640888  0.3997819203469323
  0.0409226791829703  0.2081918258861108  0.3992171660942193
  0.0403730009134683  0.3328899962891625  0.3984319151020310
  0.0406010385665232  0.4582247374423942  0.3986210340277167
  0.0412737970285791  0.5836924016544673  0.3994733460369750
  0.0419858351194089  0.7091578699211190  0.3998929504610902
  0.0423847366748227  0.8345806571805958  0.4000091491639232
  0.0425165992252159  0.9597712536693784  0.4000260189781298
  0.1681378559461714  0.0860833727201512  0.4002104354347591
  0.1671880490327276  0.2101702059387995  0.3999868151601590
  0.1652440502043552  0.3336729732460426  0.3988630995650888
  0.1646493417308306  0.4583806204093067  0.3970246618925058
  0.1653507451768748  0.5835548495387783  0.3981350806926455
  0.1663038164315807  0.7090406417814902  0.3994964588463027
  0.1669809337613315  0.8345852152876387  0.3999693293107208
  0.1675506889079388  0.9602755096372885  0.4000398467517076
  0.2927204029036000  0.0860631010189954  0.4002029460026115
  0.2943173479758385  0.2139230380024000  0.4013768578916248
  0.2918902766903768  0.3389605366471301  0.4034807242856726
  0.2884911256374174  0.4570194285691606  0.4012978702437829
  0.2890879385467623  0.5831687244999721  0.3982924756983872
  0.2904944002376135  0.7085523154975075  0.3990119548654835
  0.2914618287491544  0.8339946149788909  0.3998129981533299
  0.2920618798965202  0.9597578619581177  0.3999967304862703
  0.4170285982121019  0.0840905494540189  0.3999002710324047
  0.4177849224785999  0.2100864013871301  0.4002459957842451
  0.4217682278699117  0.3388968622824944  0.4024467472010911
  0.4144717570287749  0.7064655483847588  0.3999250395480307
  0.4159142073648679  0.8324738563840561  0.3997243915703447
  0.4165016087347664  0.9582654495814040  0.3999964067382776
  0.5414663826330662  0.0824857142018333  0.3999075818936533
  0.5421140631204329  0.2081568174349259  0.3995589119678554
  0.5433274148826485  0.3336313475517320  0.3993387981287875
  0.5430697111639463  0.4568755472122855  0.3999535012773970
  0.5380988784393969  0.7015167154200791  0.4009916427401703
  0.5400831760573169  0.8299828069488620  0.4001925882315303
  0.5409356075454850  0.9565405030399026  0.4000648788039829
  0.6659529203908751  0.0817747557661047  0.4001231987860342
  0.6665206865688499  0.2073898963424510  0.3997518564945312
  0.6674028981528747  0.3328637456190954  0.3990879505978889
  0.6687044347018029  0.4583503820203700  0.3982202325251469
  0.6688845669017576  0.5831155901151729  0.3987246577909488
  0.6667003869056801  0.7063999957577763  0.3999279248210510
  0.6646541758737322  0.8299893133984784  0.4001924590756100
  0.6654006393765537  0.9560044873008356  0.4001986761864058
  0.7906534473887820  0.0817835225803838  0.4001126300603475
  0.7909978134206189  0.2071821385533734  0.3999662235718788
  0.7916519346735896  0.3326917990417405  0.3996928302858610
  0.7924974659473225  0.4582118724688540  0.3992332075793882
  0.7930576312708968  0.5835177417066564  0.3989236017908592
  0.7928612093001588  0.7085143280855449  0.3994162339937252
  0.7913267149685438  0.8324385113977735  0.3999489024396080
  0.7904078657405353  0.9565553981944459  0.4001217056595446
  0.9158667657122345  0.0825203293681241  0.3998731965029796
  0.9157108844030473  0.2074180284647751  0.3995711861883063
  0.9159065047292814  0.3327133433536678  0.3994596459691298
  0.9164846941520470  0.4581394880979160  0.3997104325469804
  0.9172222252329029  0.5836816500335795  0.3997082971552298
  0.9175445107924642  0.7090307995438248  0.3997097491027851
  0.9173274470269646  0.8339999769801947  0.3999509771054063
  0.9165728470483860  0.9582815181738372  0.4000621316558295
  0.0844290401252301  0.0434812082850009  0.3999768691274523
  0.0835332329768023  0.1675927912026370  0.3994734234819107
  0.0820323949463364  0.2915019878902306  0.3986538054089160
  0.0818648765530969  0.4164937162420452  0.3978307750819448
  0.0823756392723807  0.5417940731188906  0.3987028895994424
  0.0831807554979028  0.6672955935539117  0.3996465484451398
  0.0838096865870332  0.7928280799254055  0.3999848161034946
  0.0841846013462760  0.9182359442359493  0.4000388680209511
  0.2094004663768397  0.0440007331051246  0.4001748041209589
  0.2101392947214031  0.1700431446901046  0.4006119705402033
  0.2081447351843695  0.2936588382903874  0.4003369921748773
  0.2060450231297010  0.4169055879764506  0.3978686535014950
  0.2062451684311082  0.5416890584678958  0.3973276102199600
  0.2074486556170561  0.6671408306988551  0.3988614625031927
  0.2082731252639466  0.7926089224518529  0.3998064248005320
  0.2088640300773373  0.9182318967949743  0.4000070364686383
  0.3338352780919085  0.0434540676425511  0.4000117706089716
  0.3346595775631006  0.1700134322399320  0.4006072363444571
  0.3366029380491087  0.2985050037461015  0.4030262857134805
  0.3316346172591356  0.5432194804624605  0.4008209514731685
  0.3315196301087882  0.6663965012203773  0.3989995704656828
  0.3326910327223577  0.7918485476014284  0.3995593619590153
  0.3333245632405374  0.9175007224082887  0.3999788242272902
  0.4582766543882749  0.0417220132446090  0.3999469683921539
  0.4588791989542515  0.1675267208269489  0.3997859438788135
  0.4603123795288244  0.2935301643965993  0.4004442227035483
  0.4529604057322781  0.6610939334797692  0.4015106791973974
  0.4569807495611929  0.7899148466057132  0.3998683168682992
  0.4577470689956222  0.9159017124784129  0.3999456640289169
  0.5827418967356559  0.0402429976389513  0.4000601168590721
  0.5833273948818849  0.1659997802835626  0.3997162872135130
  0.5843474460214112  0.2914623547816673  0.3992073421366653
  0.5858018879196373  0.4168619252535047  0.3986142772240886
  0.5860997341972135  0.5431102346293554  0.3994988218508279
  0.5827053341982825  0.6609328034887059  0.4007161096407083
  0.5804240793055362  0.7861134955432705  0.4004120751292877
  0.5820478298384970  0.9139424172149704  0.4001464405178610
  0.7072837139753311  0.0397369875746107  0.4001922483939218
  0.7078057842482056  0.1654221299457134  0.4000057150107539
  0.7085085657649498  0.2909519365332350  0.3995252559862497
  0.7095402171253553  0.4164777054969536  0.3987510583992773
  0.7103225060543799  0.5416507945241624  0.3983798653478705
  0.7096550199942530  0.6663347793427529  0.3992826905549214
  0.7076639643652830  0.7898688783858007  0.4000240945756455
  0.7066835660740237  0.9139484582633884  0.4001598104403308
  0.8323378087101306  0.0402629461334968  0.4000691543158763
  0.8324251315166973  0.1654247121080727  0.3999521715341512
  0.8328512625522952  0.2908433765228106  0.3998021188663780
  0.8335325080411654  0.4162960386099700  0.3996469723035275
  0.8342590244109814  0.5417658766468314  0.3992757739095356
  0.8345174328171605  0.6671197865702985  0.3993386533191600
  0.8339443359596795  0.7918219710929145  0.3998099432501566
  0.8329452675792473  0.9158993487344749  0.4000656371997802
  0.9582712311195226  0.0417504119935901  0.3999256200754218
  0.9575289290637816  0.1660342350551431  0.3995459946561610
  0.9573199851517190  0.2909856555655076  0.3991541898913402
  0.9576205831353110  0.4163113887925432  0.3993696010861967
  0.9583300650974095  0.5418382822359753  0.3997486699425716
  0.9589435348068519  0.6672973417245939  0.3997944575317036
  0.9591262963578199  0.7926135766415624  0.3999006346127214
  0.9589886850179358  0.9175233547345722  0.4000496318510919
  0.4098408980188686  0.5816449778669844  0.4035589196143056
  0.5459874457734500  0.5814268424464777  0.4009269932895647
  0.3275351275595150  0.4183464020282996  0.4068333494554772
  0.4647894409121404  0.4183717112219452  0.4032668517993905
  0.5272230693546949  0.5253864172406012  0.5311585801302747
  0.4613839331617223  0.5309016354314390  0.5166559805471644
 
  0.00000000E+00  0.00000000E+00  0.00000000E+00
  0.00000000E+00  0.00000000E+00  0.00000000E+00
  0.00000000E+00  0.00000000E+00  0.00000000E+00
  0.00000000E+00  0.00000000E+00  0.00000000E+00
  0.00000000E+00  0.00000000E+00  0.00000000E+00
  0.00000000E+00  0.00000000E+00  0.00000000E+00
  0.00000000E+00  0.00000000E+00  0.00000000E+00
  0.00000000E+00  0.00000000E+00  0.00000000E+00
  0.00000000E+00  0.00000000E+00  0.00000000E+00
  0.00000000E+00  0.00000000E+00  0.00000000E+00
  0.00000000E+00  0.00000000E+00  0.00000000E+00
  0.00000000E+00  0.00000000E+00  0.00000000E+00
  0.00000000E+00  0.00000000E+00  0.00000000E+00
  0.00000000E+00  0.00000000E+00  0.00000000E+00
  0.00000000E+00  0.00000000E+00  0.00000000E+00
  0.00000000E+00  0.00000000E+00  0.00000000E+00
  0.00000000E+00  0.00000000E+00  0.00000000E+00
  0.00000000E+00  0.00000000E+00  0.00000000E+00
  0.00000000E+00  0.00000000E+00  0.00000000E+00
  0.00000000E+00  0.00000000E+00  0.00000000E+00
  0.00000000E+00  0.00000000E+00  0.00000000E+00
  0.00000000E+00  0.00000000E+00  0.00000000E+00
  0.00000000E+00  0.00000000E+00  0.00000000E+00
  0.00000000E+00  0.00000000E+00  0.00000000E+00
  0.00000000E+00  0.00000000E+00  0.00000000E+00
  0.00000000E+00  0.00000000E+00  0.00000000E+00
  0.00000000E+00  0.00000000E+00  0.00000000E+00
  0.00000000E+00  0.00000000E+00  0.00000000E+00
  0.00000000E+00  0.00000000E+00  0.00000000E+00
  0.00000000E+00  0.00000000E+00  0.00000000E+00
  0.00000000E+00  0.00000000E+00  0.00000000E+00
  0.00000000E+00  0.00000000E+00  0.00000000E+00
  0.00000000E+00  0.00000000E+00  0.00000000E+00
  0.00000000E+00  0.00000000E+00  0.00000000E+00
  0.00000000E+00  0.00000000E+00  0.00000000E+00
  0.00000000E+00  0.00000000E+00  0.00000000E+00
  0.00000000E+00  0.00000000E+00  0.00000000E+00
  0.00000000E+00  0.00000000E+00  0.00000000E+00
  0.00000000E+00  0.00000000E+00  0.00000000E+00
  0.00000000E+00  0.00000000E+00  0.00000000E+00
  0.00000000E+00  0.00000000E+00  0.00000000E+00
  0.00000000E+00  0.00000000E+00  0.00000000E+00
  0.00000000E+00  0.00000000E+00  0.00000000E+00
  0.00000000E+00  0.00000000E+00  0.00000000E+00
  0.00000000E+00  0.00000000E+00  0.00000000E+00
  0.00000000E+00  0.00000000E+00  0.00000000E+00
  0.00000000E+00  0.00000000E+00  0.00000000E+00
  0.00000000E+00  0.00000000E+00  0.00000000E+00
  0.00000000E+00  0.00000000E+00  0.00000000E+00
  0.00000000E+00  0.00000000E+00  0.00000000E+00
  0.00000000E+00  0.00000000E+00  0.00000000E+00
  0.00000000E+00  0.00000000E+00  0.00000000E+00
  0.00000000E+00  0.00000000E+00  0.00000000E+00
  0.00000000E+00  0.00000000E+00  0.00000000E+00
  0.00000000E+00  0.00000000E+00  0.00000000E+00
  0.00000000E+00  0.00000000E+00  0.00000000E+00
  0.00000000E+00  0.00000000E+00  0.00000000E+00
  0.00000000E+00  0.00000000E+00  0.00000000E+00
  0.00000000E+00  0.00000000E+00  0.00000000E+00
  0.00000000E+00  0.00000000E+00  0.00000000E+00
  0.00000000E+00  0.00000000E+00  0.00000000E+00
  0.00000000E+00  0.00000000E+00  0.00000000E+00
  0.00000000E+00  0.00000000E+00  0.00000000E+00
  0.00000000E+00  0.00000000E+00  0.00000000E+00
  0.00000000E+00  0.00000000E+00  0.00000000E+00
  0.00000000E+00  0.00000000E+00  0.00000000E+00
  0.00000000E+00  0.00000000E+00  0.00000000E+00
  0.00000000E+00  0.00000000E+00  0.00000000E+00
  0.00000000E+00  0.00000000E+00  0.00000000E+00
  0.00000000E+00  0.00000000E+00  0.00000000E+00
  0.00000000E+00  0.00000000E+00  0.00000000E+00
  0.00000000E+00  0.00000000E+00  0.00000000E+00
  0.00000000E+00  0.00000000E+00  0.00000000E+00
  0.00000000E+00  0.00000000E+00  0.00000000E+00
  0.00000000E+00  0.00000000E+00  0.00000000E+00
  0.00000000E+00  0.00000000E+00  0.00000000E+00
  0.00000000E+00  0.00000000E+00  0.00000000E+00
  0.00000000E+00  0.00000000E+00  0.00000000E+00
  0.00000000E+00  0.00000000E+00  0.00000000E+00
  0.00000000E+00  0.00000000E+00  0.00000000E+00
  0.00000000E+00  0.00000000E+00  0.00000000E+00
  0.00000000E+00  0.00000000E+00  0.00000000E+00
  0.00000000E+00  0.00000000E+00  0.00000000E+00
  0.00000000E+00  0.00000000E+00  0.00000000E+00
  0.00000000E+00  0.00000000E+00  0.00000000E+00
  0.00000000E+00  0.00000000E+00  0.00000000E+00
  0.00000000E+00  0.00000000E+00  0.00000000E+00
  0.00000000E+00  0.00000000E+00  0.00000000E+00
  0.00000000E+00  0.00000000E+00  0.00000000E+00
  0.00000000E+00  0.00000000E+00  0.00000000E+00
  0.00000000E+00  0.00000000E+00  0.00000000E+00
  0.00000000E+00  0.00000000E+00  0.00000000E+00
  0.00000000E+00  0.00000000E+00  0.00000000E+00
  0.00000000E+00  0.00000000E+00  0.00000000E+00
  0.00000000E+00  0.00000000E+00  0.00000000E+00
  0.00000000E+00  0.00000000E+00  0.00000000E+00
  0.00000000E+00  0.00000000E+00  0.00000000E+00
  0.00000000E+00  0.00000000E+00  0.00000000E+00
  0.00000000E+00  0.00000000E+00  0.00000000E+00
  0.00000000E+00  0.00000000E+00  0.00000000E+00
  0.00000000E+00  0.00000000E+00  0.00000000E+00
  0.00000000E+00  0.00000000E+00  0.00000000E+00
  0.00000000E+00  0.00000000E+00  0.00000000E+00
  0.00000000E+00  0.00000000E+00  0.00000000E+00
  0.00000000E+00  0.00000000E+00  0.00000000E+00
  0.00000000E+00  0.00000000E+00  0.00000000E+00
  0.00000000E+00  0.00000000E+00  0.00000000E+00
  0.00000000E+00  0.00000000E+00  0.00000000E+00
  0.00000000E+00  0.00000000E+00  0.00000000E+00
  0.00000000E+00  0.00000000E+00  0.00000000E+00
  0.00000000E+00  0.00000000E+00  0.00000000E+00
  0.00000000E+00  0.00000000E+00  0.00000000E+00
  0.00000000E+00  0.00000000E+00  0.00000000E+00
  0.00000000E+00  0.00000000E+00  0.00000000E+00
  0.00000000E+00  0.00000000E+00  0.00000000E+00
  0.00000000E+00  0.00000000E+00  0.00000000E+00
  0.00000000E+00  0.00000000E+00  0.00000000E+00
  0.00000000E+00  0.00000000E+00  0.00000000E+00
  0.00000000E+00  0.00000000E+00  0.00000000E+00
  0.00000000E+00  0.00000000E+00  0.00000000E+00
  0.00000000E+00  0.00000000E+00  0.00000000E+00
  0.00000000E+00  0.00000000E+00  0.00000000E+00
  0.00000000E+00  0.00000000E+00  0.00000000E+00
  0.00000000E+00  0.00000000E+00  0.00000000E+00
  0.00000000E+00  0.00000000E+00  0.00000000E+00
  0.00000000E+00  0.00000000E+00  0.00000000E+00
  0.00000000E+00  0.00000000E+00  0.00000000E+00
  0.00000000E+00  0.00000000E+00  0.00000000E+00
  0.00000000E+00  0.00000000E+00  0.00000000E+00
  0.00000000E+00  0.00000000E+00  0.00000000E+00
