Hf1 H1 C124 N2 O1                       
   1.00000000000000     
    19.8235710595033296   -0.0145721271797636   -0.0796892701464880
    -9.9248132321445333   17.0686970879428372   -0.1425751380253469
    -0.1197246918148589   -0.3180337404481141   29.7551517360224942
   Hf   H    C    N    O 
     1     1   124     2     1
Direct
  0.4425066067880734  0.5038469559136928  0.4373952413987312
  0.4800039538031124  0.5399539141861665  0.5292723879622576
  0.0421444938169190  0.0841775603448417  0.3994545929772080
  0.0413776897917418  0.2084872323389706  0.3990024674606180
  0.0406558141036279  0.3330630854882208  0.3985957959650733
  0.0405770347073012  0.4584020504027216  0.3986208759751101
  0.0413450768426683  0.5838916887783338  0.3993529467208211
  0.0420493927617583  0.7092691601738340  0.3998580448044621
  0.0423714369795765  0.8345328053534325  0.3998715089037148
  0.0425108324662748  0.9596497811296504  0.3997380562897391
  0.1681169483299338  0.0856769254149106  0.3999988504438206
  0.1674180450010853  0.2100631974115962  0.3999230224928729
  0.1659306095945342  0.3341415331901461  0.3996402785130111
  0.1642677456927643  0.4586882590019818  0.3985112225370487
  0.1651404116171800  0.5838966054405232  0.3984811779461568
  0.1663231240512015  0.7092449244983626  0.3992856711167664
  0.1670027895338477  0.8345857871140971  0.3997377131680935
  0.1674969068631539  0.9599918835634806  0.3998392009622879
  0.2926582614684219  0.0852736930245815  0.4000027105384206
  0.2943701997231887  0.2123848490828611  0.4017094315659205
  0.2926669714111659  0.3374475888903641  0.4043097151352796
  0.2882312086426577  0.4593159534430094  0.4037643538724827
  0.2887498901156937  0.5844556877139052  0.4000512485209253
  0.2906284503274950  0.7092699874664673  0.3990683026283430
  0.2915687211027680  0.8342976019522481  0.3992913802024867
  0.2920631647427597  0.9595701578616844  0.3995681691583164
  0.4171636926613924  0.0838621095869736  0.3995306413064995
  0.4178021911422370  0.2093757986480582  0.4001244998083361
  0.4210631390550910  0.3368375807491149  0.4037712831504835
  0.4148792502916160  0.7075884553990630  0.4004296850469113
  0.4161150522439712  0.8331048717758924  0.3992115916049395
  0.4166556960156885  0.9584940414739852  0.3994176772506060
  0.5417363655039341  0.0826545365418830  0.3996906374979788
  0.5423069996477744  0.2077769159186136  0.3995222891055581
  0.5435578150016548  0.3326594661923622  0.3996822991488671
  0.5453690539633584  0.4561971040794151  0.4010135207888051
  0.5450027745964713  0.5810839287342640  0.4013782526821958
  0.5387713507511743  0.7041188749292721  0.4017596800681080
  0.5405643748331422  0.8314551420185871  0.3999013775147613
  0.5412881604603115  0.9572729820562222  0.3996413230774575
  0.6663696408407347  0.0822184866443835  0.3999129426859793
  0.6668950875277747  0.2074916957781481  0.3997058676269241
  0.6678215761869218  0.3327705048638124  0.3991677107951293
  0.6694345221960220  0.4581579110326907  0.3980573103119836
  0.6694640943522924  0.5827109280613616  0.3975114685597273
  0.6666085240978435  0.7069171469911905  0.3979804115148254
  0.6651364963434530  0.8309765534300391  0.3993103928557466
  0.6659080779086116  0.9568298230397236  0.3998065813029269
  0.7911407679812630  0.0822524607579314  0.3997732394657730
  0.7914380209173086  0.2074504628907302  0.3998273438599004
  0.7920736411756301  0.3328278274761329  0.3996313663379462
  0.7929764369246359  0.4582485909564732  0.3991058513231623
  0.7935596156422899  0.5835622989406922  0.3983990215884649
  0.7926395479135212  0.7084157356923209  0.3981774337052525
  0.7915232685491805  0.8327282190157266  0.3987871980098865
  0.7908656579200752  0.9570635650324557  0.3994704591262352
  0.9163095949060381  0.0828494729952736  0.3994898684122009
  0.9161303508376208  0.2076555547351397  0.3993047790142772
  0.9162449649891373  0.3328612835457072  0.3992658680847354
  0.9167790747857867  0.4583006471048954  0.3995498129939138
  0.9175114889421930  0.5838098168184046  0.3996127138746369
  0.9175763565927259  0.7090644301700965  0.3994055144186969
  0.9173093307785039  0.8339260668138923  0.3993674486612964
  0.9168068588819224  0.9584559623830541  0.3994800671085545
  0.0844321102370060  0.0432982730047415  0.3996727177800762
  0.0838129968194482  0.1676353048086811  0.3992937695275711
  0.0825797828713346  0.2918158339548796  0.3988173235736719
  0.0816370613079588  0.4166220576511830  0.3982821697070879
  0.0822395150898433  0.5419683855304464  0.3987281497087987
  0.0831875787725234  0.6674377242218681  0.3995387262961543
  0.0838231974699840  0.7928373204784432  0.3999151696549337
  0.0841348687870955  0.9180647553425431  0.3998402297459243
  0.2093561675298745  0.0435407461056269  0.4000058147068304
  0.2101650162575084  0.1694601857602214  0.4005484814090872
  0.2087776110549898  0.2936033999003925  0.4006580373384955
  0.2057718231522085  0.4175273063846011  0.3999754794451637
  0.2057786116301329  0.5420297247581065  0.3985935331254525
  0.2073967045687825  0.6674829870299122  0.3988948952682305
  0.2083326533544315  0.7927984670133578  0.3994537872968039
  0.2088685926050815  0.9181035999259073  0.3997130697052459
  0.3339082066120793  0.0430570944435373  0.3996382805457590
  0.3347176647826891  0.1689796849773565  0.4005970094161782
  0.3366259455041338  0.2965211876610189  0.4041092571154621
  0.3302406201684854  0.4197141554345191  0.4082328031775965
  0.3299214150088015  0.5442285461709588  0.4037395566475996
  0.3316600198349104  0.6676016901735103  0.3998014342185501
  0.3329128502352987  0.7924973741617632  0.3991393984965855
  0.3334724645843380  0.9176417030516384  0.3994081557271265
  0.4585458073899911  0.0418164709180098  0.3995323820105969
  0.4591157406829487  0.1671930869522274  0.3995928246128909
  0.4603597447001102  0.2927830557314656  0.4007190574207617
  0.4543551578470369  0.6637962052039506  0.4033113269374517
  0.4574500123450244  0.7909643790803365  0.3995513390356639
  0.4580337371825922  0.9164479645679580  0.3993748385131079
  0.5831549151199088  0.0407455388860716  0.3997963780093259
  0.5836461376172291  0.1659839046461602  0.3996311857911234
  0.5845859887574952  0.2909965256758438  0.3993180313640202
  0.5865353982758007  0.4157794062517664  0.3990444708477569
  0.5869036081923816  0.5410388736011763  0.3991665479930584
  0.5827712572449154  0.6633126682702832  0.4000062589669321
  0.5809718004918125  0.7881361496509739  0.4001978650140152
  0.5825903540108709  0.9151206062506733  0.3997693256629410
  0.7077675815627221  0.0403522634931558  0.3998742204943446
  0.7082367844520738  0.1657206231834578  0.3998879652208691
  0.7089211117791829  0.2910342484360722  0.3995533208293276
  0.7100744069987077  0.4163174046912126  0.3986642246651533
  0.7109358106837570  0.5415036838007378  0.3977169447996819
  0.7092772414406281  0.6661265810565350  0.3975185630214449
  0.7079391502069114  0.7903892475571846  0.3985585465559693
  0.7071750947834620  0.9147231086291610  0.3995149316437163
  0.8328068486966541  0.0406960411413249  0.3996495060976367
  0.8328967639410718  0.1657657165796599  0.3996954117874214
  0.8332211421656115  0.2909960659027114  0.3996575966113353
  0.8338892523298039  0.4163528342362032  0.3995545535183442
  0.8346255676229929  0.5418022834350192  0.3990945408182463
  0.8345347160316449  0.6671337000459518  0.3986747792697305
  0.8338847419682217  0.7917765980237189  0.3987544321388079
  0.8331968114681521  0.9161997342339863  0.3992881960479243
  0.9585379661785016  0.0418810478604028  0.3994717360533428
  0.9579788734641795  0.1663389452450020  0.3992133295621958
  0.9576582934875154  0.2911478370313432  0.3990042107522603
  0.9577243963655180  0.4164072124595606  0.3991697469938800
  0.9584809520438494  0.5419352387005194  0.3996337986660741
  0.9590050080933448  0.6673643850574354  0.3997106148817569
  0.9591249891185203  0.7925789665440378  0.3995873632967814
  0.9590066145271501  0.9174533923400370  0.3995896243839104
  0.4098667905692027  0.5835340825415612  0.4077578435170050
  0.4658692752792577  0.4175599659339345  0.4061076116936359
  0.4484349830060831  0.5124213257538942  0.5029855079155195
 
  0.00000000E+00  0.00000000E+00  0.00000000E+00
  0.00000000E+00  0.00000000E+00  0.00000000E+00
  0.00000000E+00  0.00000000E+00  0.00000000E+00
  0.00000000E+00  0.00000000E+00  0.00000000E+00
  0.00000000E+00  0.00000000E+00  0.00000000E+00
  0.00000000E+00  0.00000000E+00  0.00000000E+00
  0.00000000E+00  0.00000000E+00  0.00000000E+00
  0.00000000E+00  0.00000000E+00  0.00000000E+00
  0.00000000E+00  0.00000000E+00  0.00000000E+00
  0.00000000E+00  0.00000000E+00  0.00000000E+00
  0.00000000E+00  0.00000000E+00  0.00000000E+00
  0.00000000E+00  0.00000000E+00  0.00000000E+00
  0.00000000E+00  0.00000000E+00  0.00000000E+00
  0.00000000E+00  0.00000000E+00  0.00000000E+00
  0.00000000E+00  0.00000000E+00  0.00000000E+00
  0.00000000E+00  0.00000000E+00  0.00000000E+00
  0.00000000E+00  0.00000000E+00  0.00000000E+00
  0.00000000E+00  0.00000000E+00  0.00000000E+00
  0.00000000E+00  0.00000000E+00  0.00000000E+00
  0.00000000E+00  0.00000000E+00  0.00000000E+00
  0.00000000E+00  0.00000000E+00  0.00000000E+00
  0.00000000E+00  0.00000000E+00  0.00000000E+00
  0.00000000E+00  0.00000000E+00  0.00000000E+00
  0.00000000E+00  0.00000000E+00  0.00000000E+00
  0.00000000E+00  0.00000000E+00  0.00000000E+00
  0.00000000E+00  0.00000000E+00  0.00000000E+00
  0.00000000E+00  0.00000000E+00  0.00000000E+00
  0.00000000E+00  0.00000000E+00  0.00000000E+00
  0.00000000E+00  0.00000000E+00  0.00000000E+00
  0.00000000E+00  0.00000000E+00  0.00000000E+00
  0.00000000E+00  0.00000000E+00  0.00000000E+00
  0.00000000E+00  0.00000000E+00  0.00000000E+00
  0.00000000E+00  0.00000000E+00  0.00000000E+00
  0.00000000E+00  0.00000000E+00  0.00000000E+00
  0.00000000E+00  0.00000000E+00  0.00000000E+00
  0.00000000E+00  0.00000000E+00  0.00000000E+00
  0.00000000E+00  0.00000000E+00  0.00000000E+00
  0.00000000E+00  0.00000000E+00  0.00000000E+00
  0.00000000E+00  0.00000000E+00  0.00000000E+00
  0.00000000E+00  0.00000000E+00  0.00000000E+00
  0.00000000E+00  0.00000000E+00  0.00000000E+00
  0.00000000E+00  0.00000000E+00  0.00000000E+00
  0.00000000E+00  0.00000000E+00  0.00000000E+00
  0.00000000E+00  0.00000000E+00  0.00000000E+00
  0.00000000E+00  0.00000000E+00  0.00000000E+00
  0.00000000E+00  0.00000000E+00  0.00000000E+00
  0.00000000E+00  0.00000000E+00  0.00000000E+00
  0.00000000E+00  0.00000000E+00  0.00000000E+00
  0.00000000E+00  0.00000000E+00  0.00000000E+00
  0.00000000E+00  0.00000000E+00  0.00000000E+00
  0.00000000E+00  0.00000000E+00  0.00000000E+00
  0.00000000E+00  0.00000000E+00  0.00000000E+00
  0.00000000E+00  0.00000000E+00  0.00000000E+00
  0.00000000E+00  0.00000000E+00  0.00000000E+00
  0.00000000E+00  0.00000000E+00  0.00000000E+00
  0.00000000E+00  0.00000000E+00  0.00000000E+00
  0.00000000E+00  0.00000000E+00  0.00000000E+00
  0.00000000E+00  0.00000000E+00  0.00000000E+00
  0.00000000E+00  0.00000000E+00  0.00000000E+00
  0.00000000E+00  0.00000000E+00  0.00000000E+00
  0.00000000E+00  0.00000000E+00  0.00000000E+00
  0.00000000E+00  0.00000000E+00  0.00000000E+00
  0.00000000E+00  0.00000000E+00  0.00000000E+00
  0.00000000E+00  0.00000000E+00  0.00000000E+00
  0.00000000E+00  0.00000000E+00  0.00000000E+00
  0.00000000E+00  0.00000000E+00  0.00000000E+00
  0.00000000E+00  0.00000000E+00  0.00000000E+00
  0.00000000E+00  0.00000000E+00  0.00000000E+00
  0.00000000E+00  0.00000000E+00  0.00000000E+00
  0.00000000E+00  0.00000000E+00  0.00000000E+00
  0.00000000E+00  0.00000000E+00  0.00000000E+00
  0.00000000E+00  0.00000000E+00  0.00000000E+00
  0.00000000E+00  0.00000000E+00  0.00000000E+00
  0.00000000E+00  0.00000000E+00  0.00000000E+00
  0.00000000E+00  0.00000000E+00  0.00000000E+00
  0.00000000E+00  0.00000000E+00  0.00000000E+00
  0.00000000E+00  0.00000000E+00  0.00000000E+00
  0.00000000E+00  0.00000000E+00  0.00000000E+00
  0.00000000E+00  0.00000000E+00  0.00000000E+00
  0.00000000E+00  0.00000000E+00  0.00000000E+00
  0.00000000E+00  0.00000000E+00  0.00000000E+00
  0.00000000E+00  0.00000000E+00  0.00000000E+00
  0.00000000E+00  0.00000000E+00  0.00000000E+00
  0.00000000E+00  0.00000000E+00  0.00000000E+00
  0.00000000E+00  0.00000000E+00  0.00000000E+00
  0.00000000E+00  0.00000000E+00  0.00000000E+00
  0.00000000E+00  0.00000000E+00  0.00000000E+00
  0.00000000E+00  0.00000000E+00  0.00000000E+00
  0.00000000E+00  0.00000000E+00  0.00000000E+00
  0.00000000E+00  0.00000000E+00  0.00000000E+00
  0.00000000E+00  0.00000000E+00  0.00000000E+00
  0.00000000E+00  0.00000000E+00  0.00000000E+00
  0.00000000E+00  0.00000000E+00  0.00000000E+00
  0.00000000E+00  0.00000000E+00  0.00000000E+00
  0.00000000E+00  0.00000000E+00  0.00000000E+00
  0.00000000E+00  0.00000000E+00  0.00000000E+00
  0.00000000E+00  0.00000000E+00  0.00000000E+00
  0.00000000E+00  0.00000000E+00  0.00000000E+00
  0.00000000E+00  0.00000000E+00  0.00000000E+00
  0.00000000E+00  0.00000000E+00  0.00000000E+00
  0.00000000E+00  0.00000000E+00  0.00000000E+00
  0.00000000E+00  0.00000000E+00  0.00000000E+00
  0.00000000E+00  0.00000000E+00  0.00000000E+00
  0.00000000E+00  0.00000000E+00  0.00000000E+00
  0.00000000E+00  0.00000000E+00  0.00000000E+00
  0.00000000E+00  0.00000000E+00  0.00000000E+00
  0.00000000E+00  0.00000000E+00  0.00000000E+00
  0.00000000E+00  0.00000000E+00  0.00000000E+00
  0.00000000E+00  0.00000000E+00  0.00000000E+00
  0.00000000E+00  0.00000000E+00  0.00000000E+00
  0.00000000E+00  0.00000000E+00  0.00000000E+00
  0.00000000E+00  0.00000000E+00  0.00000000E+00
  0.00000000E+00  0.00000000E+00  0.00000000E+00
  0.00000000E+00  0.00000000E+00  0.00000000E+00
  0.00000000E+00  0.00000000E+00  0.00000000E+00
  0.00000000E+00  0.00000000E+00  0.00000000E+00
  0.00000000E+00  0.00000000E+00  0.00000000E+00
  0.00000000E+00  0.00000000E+00  0.00000000E+00
  0.00000000E+00  0.00000000E+00  0.00000000E+00
  0.00000000E+00  0.00000000E+00  0.00000000E+00
  0.00000000E+00  0.00000000E+00  0.00000000E+00
  0.00000000E+00  0.00000000E+00  0.00000000E+00
  0.00000000E+00  0.00000000E+00  0.00000000E+00
  0.00000000E+00  0.00000000E+00  0.00000000E+00
  0.00000000E+00  0.00000000E+00  0.00000000E+00
  0.00000000E+00  0.00000000E+00  0.00000000E+00
  0.00000000E+00  0.00000000E+00  0.00000000E+00
  0.00000000E+00  0.00000000E+00  0.00000000E+00
  0.00000000E+00  0.00000000E+00  0.00000000E+00
