Ti1 C122 N4 O1                          
   1.00000000000000     
    19.8017151369301594   -0.0000313737389873   -0.0629962233752917
    -9.9009383710245871   17.0347447749319407   -0.0245211340260183
    -0.0948777640659984   -0.0980997661606703   29.8313651973657485
   Ti   C    N    O 
     1   122     4     1
Direct
  0.4376300187448195  0.5008528377426229  0.4301513983685638
  0.0421585377068915  0.0841460578426701  0.3994890217855110
  0.0413042897559647  0.2083483999431651  0.3995669332265637
  0.0405700861481539  0.3330693114361661  0.3997454532957229
  0.0406700611715153  0.4582691492933390  0.3998333989489706
  0.0414200634099836  0.5837496038302031  0.3998530488348060
  0.0421401291566822  0.7091863817877708  0.3995876736175047
  0.0424119470955858  0.8344056024771620  0.3995021444143591
  0.0425363852705367  0.9595731045524666  0.3994978605303858
  0.1681593425554635  0.0856535266543382  0.3998050904177075
  0.1675783786868400  0.2101951064881936  0.3999055550259895
  0.1655013826814979  0.3337694350710095  0.3999817956806735
  0.1645873643229888  0.4585322245080461  0.3995688361586780
  0.1653960738770161  0.5836830934195402  0.3996709080440636
  0.1664481869515951  0.7089312763972345  0.3999656078608025
  0.1670979831681788  0.8343886226016075  0.3997857504352364
  0.1675423845770402  0.9599237659457776  0.3996980629291297
  0.2926464703716101  0.0856744510682330  0.4000272757190456
  0.2940558654458963  0.2129804402581718  0.4012853528171986
  0.2925542087343970  0.3383628602649213  0.4024397539733189
  0.2883212993008392  0.4579497531651806  0.4013444761819748
  0.2889798810473089  0.5830087183388168  0.3998628853591052
  0.2907998702545112  0.7084044786564094  0.3996317599890747
  0.2917030311572884  0.8339024402019232  0.3997485602664039
  0.2922216769928698  0.9595825753385654  0.3997280263730043
  0.4171652638402693  0.0841348647304033  0.3997481183032824
  0.4177570130419758  0.2102164521798920  0.4004714535079495
  0.4209781523535430  0.3383724864367967  0.4031225267733013
  0.4150166198675314  0.7064465880865405  0.3999775893126276
  0.4162335350950568  0.8324090321516976  0.3995544423020013
  0.4167723953005121  0.9583013836841388  0.3995769604510181
  0.5417045167807528  0.0827049286016866  0.3995643255052174
  0.5421823552994759  0.2083617988573437  0.3998566394979678
  0.5434305850248790  0.3338127523854769  0.4007472503516808
  0.5447975647823183  0.4579747114414253  0.4026578522321521
  0.5387706040229742  0.7023930652808767  0.4022153196468126
  0.5407154573429667  0.8305461012029680  0.4001167621256968
  0.5412810727889458  0.9568577370766095  0.3996073774712005
  0.6663097592528933  0.0821291146586739  0.3995697064801138
  0.6666859121342718  0.2075463005988332  0.3994836343699603
  0.6676049253184705  0.3330474250243605  0.3996793946454636
  0.6690849889079666  0.4585490381426246  0.4000299492582775
  0.6691688371770297  0.5830110159028434  0.4007417198723633
  0.6665669481194556  0.7064539229900202  0.4006469632159453
  0.6649429089500574  0.8305554511335566  0.4003914920521962
  0.6658557431238664  0.9565311963854227  0.3999301424406322
  0.7910302038996679  0.0821503817589935  0.3997791567379552
  0.7913125450131320  0.2074859322126926  0.3995982232228852
  0.7918200947573893  0.3328338011070029  0.3993082788407404
  0.7926879287247975  0.4582496708963170  0.3993064547445432
  0.7933924099911804  0.5836719246238202  0.3995555391830192
  0.7927219341134120  0.7084133280044714  0.3999371766098325
  0.7913137686681304  0.8324259128480064  0.3999281482725857
  0.7907365584795135  0.9568570260265138  0.3998561067119780
  0.9161956769503081  0.0827337524747409  0.3996584670020938
  0.9160241061236895  0.2076145756204755  0.3998431228264608
  0.9161372443973176  0.3328893066983483  0.3998435023687675
  0.9167069827124551  0.4583305213647406  0.3995074185341951
  0.9174108536214771  0.5837626909801147  0.3993123035040109
  0.9175902696386931  0.7089899407718359  0.3994791714866291
  0.9173287271440285  0.8339340518882403  0.3996667594807566
  0.9167462743816328  0.9583470637091925  0.3996441491689551
  0.0844842689662516  0.0432626691017934  0.3995027662496560
  0.0839109715973160  0.1677177047122323  0.3995271643853192
  0.0824693833691638  0.2916988823698796  0.3996695724646014
  0.0817792752003992  0.4164169828896885  0.3996575363400193
  0.0824496963199780  0.5418445558552845  0.3998488044541140
  0.0832975271149932  0.6672500800957906  0.3998903311193169
  0.0838667394476650  0.7926360897177857  0.3995982989540866
  0.0842110565458932  0.9179709021634591  0.3995414146683865
  0.2093779115683976  0.0435931977321862  0.3998560652118548
  0.2102567687522021  0.1695891101617222  0.4003092175880452
  0.2086765715397715  0.2937081741085139  0.4003690611047889
  0.2060402201028695  0.4171072638964178  0.4000406639525569
  0.2061045565567945  0.5415745560198322  0.3995436343205717
  0.2075296260650007  0.6670345547303217  0.3997675419431760
  0.2084593586376122  0.7925002016660629  0.3999040639080608
  0.2089358950087813  0.9179752692528582  0.3997586394163897
  0.3339390157868701  0.0432847633501368  0.3997803821943641
  0.3344679325743642  0.1696093902250905  0.4006322104512158
  0.3365000851337424  0.2978386148282743  0.4028569408471805
  0.3304588196694345  0.5422177222014737  0.4011075903020573
  0.3317704688246828  0.6663452804447858  0.3997504599044357
  0.3329943438853171  0.7917631096863199  0.3996194981460919
  0.3335199138396385  0.9173954146291625  0.3996769013760940
  0.4584663545789090  0.0417991184319555  0.3995958329197265
  0.4589552762351315  0.1677283887416743  0.3999802826565733
  0.4601965893473077  0.2937412276527149  0.4011173509618549
  0.4542985489244863  0.6618735692554241  0.4018158084196877
  0.4574240430987546  0.7899421275753661  0.3997084294220132
  0.4580628322737217  0.9159803070375965  0.3995752573610209
  0.5830280472864994  0.0405423632478441  0.3995514298949522
  0.5834648712347426  0.1661920026409649  0.3996026828377426
  0.5843578333132957  0.2917129244668220  0.4000529341774218
  0.5862334275067718  0.4171619136039224  0.4009677555566383
  0.5869462211724965  0.5422630558354338  0.4024228423166192
  0.5827458297607689  0.6618955680176236  0.4025064874321702
  0.5811588698509835  0.7872044463568068  0.4008799003986905
  0.5825663243437511  0.9144703037127899  0.3998425637189885
  0.7076911530023912  0.0401895158313883  0.3997576790660842
  0.7080813473826887  0.1656948231008329  0.3994849504060841
  0.7086517301304901  0.2911059384762465  0.3994297197894291
  0.7097463954800166  0.4164069388614688  0.3995803352294077
  0.7106023274545135  0.5415766855095434  0.3999820968176744
  0.7097129761982871  0.6663576499209682  0.4004376704152861
  0.7076378750871264  0.7899592571241913  0.4001850322993536
  0.7070559521336267  0.9144681557661130  0.4000332033074586
  0.8327109232936221  0.0405456319476123  0.3997758842273296
  0.8327779167268812  0.1657292076861132  0.3997745538233182
  0.8330319625024646  0.2909413178644646  0.3995508648655302
  0.8337054892611723  0.4163413947758540  0.3992739496406459
  0.8344771341776294  0.5418218945450395  0.3993191968439529
  0.8346063518313106  0.6670398853880316  0.3996577117128425
  0.8338859873274341  0.7917668039753279  0.3998376441946682
  0.8331161880889575  0.9160113506919584  0.3998273481075447
  0.9585476515039630  0.0418360458473137  0.3995603155020435
  0.9578743721581298  0.1662200301484653  0.3996620872417889
  0.9575949933855693  0.2911853074194508  0.3999088361637885
  0.9577445026987058  0.4163804759566292  0.3998168050549680
  0.9584345834110576  0.5417930097544109  0.3995354978248732
  0.9590365255346301  0.6672754132247409  0.3993657377071597
  0.9591710613035718  0.7925569060158829  0.3995486836649061
  0.9590567194691905  0.9174217815447006  0.3995868665913760
  0.4107694377593309  0.5818416237139837  0.4033207653858066
  0.5463029854256812  0.5818965893278953  0.4045611958665432
  0.3290603726392152  0.4184364069023553  0.4039515250869829
  0.4645715451389917  0.4184392432350831  0.4051444044138420
  0.4370434083311288  0.5031314438066948  0.4855168926077229
 
  0.00000000E+00  0.00000000E+00  0.00000000E+00
  0.00000000E+00  0.00000000E+00  0.00000000E+00
  0.00000000E+00  0.00000000E+00  0.00000000E+00
  0.00000000E+00  0.00000000E+00  0.00000000E+00
  0.00000000E+00  0.00000000E+00  0.00000000E+00
  0.00000000E+00  0.00000000E+00  0.00000000E+00
  0.00000000E+00  0.00000000E+00  0.00000000E+00
  0.00000000E+00  0.00000000E+00  0.00000000E+00
  0.00000000E+00  0.00000000E+00  0.00000000E+00
  0.00000000E+00  0.00000000E+00  0.00000000E+00
  0.00000000E+00  0.00000000E+00  0.00000000E+00
  0.00000000E+00  0.00000000E+00  0.00000000E+00
  0.00000000E+00  0.00000000E+00  0.00000000E+00
  0.00000000E+00  0.00000000E+00  0.00000000E+00
  0.00000000E+00  0.00000000E+00  0.00000000E+00
  0.00000000E+00  0.00000000E+00  0.00000000E+00
  0.00000000E+00  0.00000000E+00  0.00000000E+00
  0.00000000E+00  0.00000000E+00  0.00000000E+00
  0.00000000E+00  0.00000000E+00  0.00000000E+00
  0.00000000E+00  0.00000000E+00  0.00000000E+00
  0.00000000E+00  0.00000000E+00  0.00000000E+00
  0.00000000E+00  0.00000000E+00  0.00000000E+00
  0.00000000E+00  0.00000000E+00  0.00000000E+00
  0.00000000E+00  0.00000000E+00  0.00000000E+00
  0.00000000E+00  0.00000000E+00  0.00000000E+00
  0.00000000E+00  0.00000000E+00  0.00000000E+00
  0.00000000E+00  0.00000000E+00  0.00000000E+00
  0.00000000E+00  0.00000000E+00  0.00000000E+00
  0.00000000E+00  0.00000000E+00  0.00000000E+00
  0.00000000E+00  0.00000000E+00  0.00000000E+00
  0.00000000E+00  0.00000000E+00  0.00000000E+00
  0.00000000E+00  0.00000000E+00  0.00000000E+00
  0.00000000E+00  0.00000000E+00  0.00000000E+00
  0.00000000E+00  0.00000000E+00  0.00000000E+00
  0.00000000E+00  0.00000000E+00  0.00000000E+00
  0.00000000E+00  0.00000000E+00  0.00000000E+00
  0.00000000E+00  0.00000000E+00  0.00000000E+00
  0.00000000E+00  0.00000000E+00  0.00000000E+00
  0.00000000E+00  0.00000000E+00  0.00000000E+00
  0.00000000E+00  0.00000000E+00  0.00000000E+00
  0.00000000E+00  0.00000000E+00  0.00000000E+00
  0.00000000E+00  0.00000000E+00  0.00000000E+00
  0.00000000E+00  0.00000000E+00  0.00000000E+00
  0.00000000E+00  0.00000000E+00  0.00000000E+00
  0.00000000E+00  0.00000000E+00  0.00000000E+00
  0.00000000E+00  0.00000000E+00  0.00000000E+00
  0.00000000E+00  0.00000000E+00  0.00000000E+00
  0.00000000E+00  0.00000000E+00  0.00000000E+00
  0.00000000E+00  0.00000000E+00  0.00000000E+00
  0.00000000E+00  0.00000000E+00  0.00000000E+00
  0.00000000E+00  0.00000000E+00  0.00000000E+00
  0.00000000E+00  0.00000000E+00  0.00000000E+00
  0.00000000E+00  0.00000000E+00  0.00000000E+00
  0.00000000E+00  0.00000000E+00  0.00000000E+00
  0.00000000E+00  0.00000000E+00  0.00000000E+00
  0.00000000E+00  0.00000000E+00  0.00000000E+00
  0.00000000E+00  0.00000000E+00  0.00000000E+00
  0.00000000E+00  0.00000000E+00  0.00000000E+00
  0.00000000E+00  0.00000000E+00  0.00000000E+00
  0.00000000E+00  0.00000000E+00  0.00000000E+00
  0.00000000E+00  0.00000000E+00  0.00000000E+00
  0.00000000E+00  0.00000000E+00  0.00000000E+00
  0.00000000E+00  0.00000000E+00  0.00000000E+00
  0.00000000E+00  0.00000000E+00  0.00000000E+00
  0.00000000E+00  0.00000000E+00  0.00000000E+00
  0.00000000E+00  0.00000000E+00  0.00000000E+00
  0.00000000E+00  0.00000000E+00  0.00000000E+00
  0.00000000E+00  0.00000000E+00  0.00000000E+00
  0.00000000E+00  0.00000000E+00  0.00000000E+00
  0.00000000E+00  0.00000000E+00  0.00000000E+00
  0.00000000E+00  0.00000000E+00  0.00000000E+00
  0.00000000E+00  0.00000000E+00  0.00000000E+00
  0.00000000E+00  0.00000000E+00  0.00000000E+00
  0.00000000E+00  0.00000000E+00  0.00000000E+00
  0.00000000E+00  0.00000000E+00  0.00000000E+00
  0.00000000E+00  0.00000000E+00  0.00000000E+00
  0.00000000E+00  0.00000000E+00  0.00000000E+00
  0.00000000E+00  0.00000000E+00  0.00000000E+00
  0.00000000E+00  0.00000000E+00  0.00000000E+00
  0.00000000E+00  0.00000000E+00  0.00000000E+00
  0.00000000E+00  0.00000000E+00  0.00000000E+00
  0.00000000E+00  0.00000000E+00  0.00000000E+00
  0.00000000E+00  0.00000000E+00  0.00000000E+00
  0.00000000E+00  0.00000000E+00  0.00000000E+00
  0.00000000E+00  0.00000000E+00  0.00000000E+00
  0.00000000E+00  0.00000000E+00  0.00000000E+00
  0.00000000E+00  0.00000000E+00  0.00000000E+00
  0.00000000E+00  0.00000000E+00  0.00000000E+00
  0.00000000E+00  0.00000000E+00  0.00000000E+00
  0.00000000E+00  0.00000000E+00  0.00000000E+00
  0.00000000E+00  0.00000000E+00  0.00000000E+00
  0.00000000E+00  0.00000000E+00  0.00000000E+00
  0.00000000E+00  0.00000000E+00  0.00000000E+00
  0.00000000E+00  0.00000000E+00  0.00000000E+00
  0.00000000E+00  0.00000000E+00  0.00000000E+00
  0.00000000E+00  0.00000000E+00  0.00000000E+00
  0.00000000E+00  0.00000000E+00  0.00000000E+00
  0.00000000E+00  0.00000000E+00  0.00000000E+00
  0.00000000E+00  0.00000000E+00  0.00000000E+00
  0.00000000E+00  0.00000000E+00  0.00000000E+00
  0.00000000E+00  0.00000000E+00  0.00000000E+00
  0.00000000E+00  0.00000000E+00  0.00000000E+00
  0.00000000E+00  0.00000000E+00  0.00000000E+00
  0.00000000E+00  0.00000000E+00  0.00000000E+00
  0.00000000E+00  0.00000000E+00  0.00000000E+00
  0.00000000E+00  0.00000000E+00  0.00000000E+00
  0.00000000E+00  0.00000000E+00  0.00000000E+00
  0.00000000E+00  0.00000000E+00  0.00000000E+00
  0.00000000E+00  0.00000000E+00  0.00000000E+00
  0.00000000E+00  0.00000000E+00  0.00000000E+00
  0.00000000E+00  0.00000000E+00  0.00000000E+00
  0.00000000E+00  0.00000000E+00  0.00000000E+00
  0.00000000E+00  0.00000000E+00  0.00000000E+00
  0.00000000E+00  0.00000000E+00  0.00000000E+00
  0.00000000E+00  0.00000000E+00  0.00000000E+00
  0.00000000E+00  0.00000000E+00  0.00000000E+00
  0.00000000E+00  0.00000000E+00  0.00000000E+00
  0.00000000E+00  0.00000000E+00  0.00000000E+00
  0.00000000E+00  0.00000000E+00  0.00000000E+00
  0.00000000E+00  0.00000000E+00  0.00000000E+00
  0.00000000E+00  0.00000000E+00  0.00000000E+00
  0.00000000E+00  0.00000000E+00  0.00000000E+00
  0.00000000E+00  0.00000000E+00  0.00000000E+00
  0.00000000E+00  0.00000000E+00  0.00000000E+00
  0.00000000E+00  0.00000000E+00  0.00000000E+00
  0.00000000E+00  0.00000000E+00  0.00000000E+00
  0.00000000E+00  0.00000000E+00  0.00000000E+00
  0.00000000E+00  0.00000000E+00  0.00000000E+00
