H1 Os1 C122 N4 O1                       
   1.00000000000000     
    19.8448145327291954    0.0033060467403343    0.0096182864650906
    -9.9195170213769117   17.0168343277373069    0.0153246522773715
     0.0143521973754685    0.0352488738366293   29.7944110011894914
   H    Os   C    N    O 
     1     1   122     4     1
Direct
  0.4879978886009382  0.5386738006967455  0.4979549965889521
  0.4371971107370428  0.4998186932496528  0.4207582977960381
  0.0420926998696374  0.0842986534319825  0.3997484642142541
  0.0406186407184446  0.2079841374658922  0.3997465619024685
  0.0395640885681337  0.3326088031393176  0.3992297713085857
  0.0397736694957906  0.4580869995576252  0.3986053661349124
  0.0411316094410152  0.5838982401840938  0.3986642013791570
  0.0423761142045276  0.7095621671178600  0.3990860640646341
  0.0427837182387555  0.8348866530941136  0.3994122345224041
  0.0428301347998810  0.9600192579106714  0.3995718035030718
  0.1684776043818226  0.0864044162125497  0.4006176898258298
  0.1674883347359628  0.2106682236362402  0.4013553884556761
  0.1641329990683572  0.3334285393471244  0.4015794027317658
  0.1627462140329715  0.4583027126819787  0.4000007742149503
  0.1643431280121501  0.5837429574340559  0.3990554814705186
  0.1663011691429243  0.7092613015434729  0.3990360243832450
  0.1672788675454363  0.8348567054779141  0.3994207014513992
  0.1678611051172591  0.9605526249849893  0.3999079543421066
  0.2929884331455060  0.0864141678994635  0.4005575592041175
  0.2945244701511914  0.2141250816709960  0.4030007195121557
  0.2917512449157877  0.3388349949036962  0.4062280499623129
  0.2846571691071806  0.4580189628663909  0.4053218324973998
  0.2869273624053485  0.5830211208613990  0.4014760634871183
  0.2902593058448056  0.7084186072092322  0.3997895464583771
  0.2916448893471692  0.8341085575315912  0.3993635916602181
  0.2923542317179107  0.9600303130807205  0.3996548920292609
  0.4172876738965781  0.0843961760913350  0.3998301913576912
  0.4181137220311836  0.2108593780752226  0.4011232571669488
  0.4217031092643334  0.3390078192763447  0.4056459931109557
  0.4140985162427408  0.7053479408230811  0.4021426598525458
  0.4158618261640084  0.8319115771733498  0.4002278601485509
  0.4166679511078545  0.9581826817570029  0.3995697989809529
  0.5415313971706559  0.0823172361707757  0.3995041486508668
  0.5422941948982642  0.2081493617416642  0.3996263770509591
  0.5441470442084466  0.3337169882085635  0.4009640721472456
  0.5485018724488481  0.4585736738183396  0.4053296102347790
  0.5377139437742109  0.7003107990306885  0.4059584122325806
  0.5400146183052158  0.8292399506234154  0.4018420557087272
  0.5409243698948142  0.9560798454000490  0.3999746081366362
  0.6658570356062415  0.0813616587497901  0.3996491470323769
  0.6665829223909766  0.2071017070477408  0.3994108094539719
  0.6679313362324867  0.3327890091126869  0.3991127588270149
  0.6705345108799006  0.4585484324333535  0.3997293204203928
  0.6714653698716113  0.5833844179954730  0.4022133789311154
  0.6666115659085977  0.7055681251004763  0.4031296309975605
  0.6643566563026120  0.8292966143978572  0.4020487556385889
  0.6652698312601951  0.9554841927051339  0.4004385154533605
  0.7904694702119074  0.0813261183881295  0.3995903015576467
  0.7908474257520678  0.2068264684195986  0.3994337734708692
  0.7917215888928126  0.3324574158443236  0.3990660324289628
  0.7932677960328425  0.4581925295787940  0.3986408978252698
  0.7945673054071173  0.5839028598701080  0.3989787354871191
  0.7934858586567256  0.7085920114939283  0.4001249412398837
  0.7912434076320281  0.8319719242149678  0.4003537842406155
  0.7902214828666073  0.9560598901804036  0.3999519392675620
  0.9157337598404266  0.0822128864353734  0.3993364553772246
  0.9153390280148814  0.2069884368906562  0.3991660558197677
  0.9155537159351643  0.3323979897768797  0.3988556790426333
  0.9165436459032571  0.4581739799139327  0.3986799950234983
  0.9178401963695563  0.5839413969842392  0.3986765450177346
  0.9181941159897486  0.7093279474987023  0.3990606816419683
  0.9176855675813866  0.8341469625408122  0.3993524883267467
  0.9166404339695563  0.9581530851347722  0.3993917843975749
  0.0847859903602862  0.0438181520308314  0.3999303586096656
  0.0837647910302696  0.1679182855158784  0.4001838409673357
  0.0815612138796545  0.2913519610970949  0.4000293408155651
  0.0804158019506206  0.4160539365623666  0.3990513125886300
  0.0816629430040506  0.5417809743763704  0.3986346186151901
  0.0832924744853658  0.6675380382638660  0.3988994821303096
  0.0841881106624798  0.7931464664396404  0.3993640515879566
  0.0845851068304222  0.9185934109229540  0.3996436561379307
  0.2097781664166552  0.0444161458875157  0.4004120727244913
  0.2106263687517186  0.1705680796243907  0.4017025299801141
  0.2083992561446947  0.2943288143300977  0.4026611612094030
  0.2036735691802749  0.4166097789788017  0.4018885901673102
  0.2043470783945419  0.5413902437835307  0.3999650735855649
  0.2070339790473749  0.6671978269248853  0.3992031887170522
  0.2084656989694361  0.7928939264934091  0.3992369204518665
  0.2092120149787424  0.9185892033353960  0.3996753508615569
  0.3341320681647105  0.0438482769891229  0.3999518309303006
  0.3349389852083201  0.1706157744368466  0.4015988655163708
  0.3371456822817461  0.2994598543810613  0.4057235177618174
  0.3265622825017718  0.5414606812619438  0.4046612169158944
  0.3307357777403121  0.6662111437827785  0.4009941478592948
  0.3327005459420624  0.7918321351068389  0.3996939688342256
  0.3335685055430190  0.9176783463331070  0.3994880312493708
  0.4584414415192998  0.0418118490535715  0.3995724874201605
  0.4591564808483451  0.1680731696852642  0.4000838501591943
  0.4607397574093965  0.2946106011395462  0.4021515731305633
  0.4529272839334569  0.6606458697785685  0.4052426859016352
  0.4568316611567022  0.7890824325699700  0.4013562603183670
  0.4577870323462916  0.9155669187068928  0.3998728268567472
  0.5827294559475694  0.0399268708670264  0.3996273131503645
  0.5834028896244772  0.1658928660768738  0.3994214437962358
  0.5846678567969585  0.2915814708064608  0.3996576316823818
  0.5879049050564342  0.4169495021214146  0.4015104249598114
  0.5903677073937446  0.5418846201032603  0.4061383652954696
  0.5831861408572347  0.6609224987657469  0.4067887508429782
  0.5803481177246966  0.7855909073480964  0.4033531328118631
  0.5820197829239716  0.9134435968105038  0.4006678833978660
  0.7071750196520928  0.0393460795378820  0.3998446017301753
  0.7077457848416097  0.1651042976023773  0.3995346068607085
  0.7086945054974958  0.2907445452616166  0.3991784527605755
  0.7105713765096048  0.4162228703547875  0.3988676749156859
  0.7122147849172474  0.5416401215318790  0.3999108165598898
  0.7108709848240712  0.6664815940036344  0.4018691094317201
  0.7074790401664347  0.7892026045835377  0.4017092949041248
  0.7065170121063650  0.9134496456679482  0.4007332055819614
  0.8322037931064095  0.0398647645603073  0.3995337413135590
  0.8322280965620040  0.1650525767843690  0.3993723423087194
  0.8326358002064789  0.2904094966410156  0.3991670215940706
  0.8338261754225074  0.4161024449083720  0.3987762952133459
  0.8351979902481426  0.5418888923545930  0.3986071563131923
  0.8354120520375194  0.6673126198313162  0.3992645992057783
  0.8343792776711274  0.7919210019347125  0.3998538881342729
  0.8329384351209561  0.9155845666220680  0.3998135192466526
  0.9584044146583275  0.0417253437065697  0.3993780935384594
  0.9573206755808872  0.1657501545591767  0.3992920325824800
  0.9568136652810854  0.2906171173750652  0.3989620550797624
  0.9571355325420980  0.4160326647985739  0.3986414205180369
  0.9584314295029740  0.5418131474408283  0.3986511808537549
  0.9594571130164994  0.6675765468990792  0.3989112239800391
  0.9596601774917897  0.7929235888175660  0.3992614616132472
  0.9592986341547195  0.9176721309330635  0.3993592221594863
  0.4068723220393787  0.5795343165895714  0.4077020095513927
  0.5481674396569773  0.5799806303322197  0.4109352258564442
  0.3269954907413706  0.4198940979533461  0.4102003530901151
  0.4676866596036340  0.4205718874181122  0.4094156759728157
  0.4357219215712450  0.5159144382167333  0.4852020763888340
 
  0.00000000E+00  0.00000000E+00  0.00000000E+00
  0.00000000E+00  0.00000000E+00  0.00000000E+00
  0.00000000E+00  0.00000000E+00  0.00000000E+00
  0.00000000E+00  0.00000000E+00  0.00000000E+00
  0.00000000E+00  0.00000000E+00  0.00000000E+00
  0.00000000E+00  0.00000000E+00  0.00000000E+00
  0.00000000E+00  0.00000000E+00  0.00000000E+00
  0.00000000E+00  0.00000000E+00  0.00000000E+00
  0.00000000E+00  0.00000000E+00  0.00000000E+00
  0.00000000E+00  0.00000000E+00  0.00000000E+00
  0.00000000E+00  0.00000000E+00  0.00000000E+00
  0.00000000E+00  0.00000000E+00  0.00000000E+00
  0.00000000E+00  0.00000000E+00  0.00000000E+00
  0.00000000E+00  0.00000000E+00  0.00000000E+00
  0.00000000E+00  0.00000000E+00  0.00000000E+00
  0.00000000E+00  0.00000000E+00  0.00000000E+00
  0.00000000E+00  0.00000000E+00  0.00000000E+00
  0.00000000E+00  0.00000000E+00  0.00000000E+00
  0.00000000E+00  0.00000000E+00  0.00000000E+00
  0.00000000E+00  0.00000000E+00  0.00000000E+00
  0.00000000E+00  0.00000000E+00  0.00000000E+00
  0.00000000E+00  0.00000000E+00  0.00000000E+00
  0.00000000E+00  0.00000000E+00  0.00000000E+00
  0.00000000E+00  0.00000000E+00  0.00000000E+00
  0.00000000E+00  0.00000000E+00  0.00000000E+00
  0.00000000E+00  0.00000000E+00  0.00000000E+00
  0.00000000E+00  0.00000000E+00  0.00000000E+00
  0.00000000E+00  0.00000000E+00  0.00000000E+00
  0.00000000E+00  0.00000000E+00  0.00000000E+00
  0.00000000E+00  0.00000000E+00  0.00000000E+00
  0.00000000E+00  0.00000000E+00  0.00000000E+00
  0.00000000E+00  0.00000000E+00  0.00000000E+00
  0.00000000E+00  0.00000000E+00  0.00000000E+00
  0.00000000E+00  0.00000000E+00  0.00000000E+00
  0.00000000E+00  0.00000000E+00  0.00000000E+00
  0.00000000E+00  0.00000000E+00  0.00000000E+00
  0.00000000E+00  0.00000000E+00  0.00000000E+00
  0.00000000E+00  0.00000000E+00  0.00000000E+00
  0.00000000E+00  0.00000000E+00  0.00000000E+00
  0.00000000E+00  0.00000000E+00  0.00000000E+00
  0.00000000E+00  0.00000000E+00  0.00000000E+00
  0.00000000E+00  0.00000000E+00  0.00000000E+00
  0.00000000E+00  0.00000000E+00  0.00000000E+00
  0.00000000E+00  0.00000000E+00  0.00000000E+00
  0.00000000E+00  0.00000000E+00  0.00000000E+00
  0.00000000E+00  0.00000000E+00  0.00000000E+00
  0.00000000E+00  0.00000000E+00  0.00000000E+00
  0.00000000E+00  0.00000000E+00  0.00000000E+00
  0.00000000E+00  0.00000000E+00  0.00000000E+00
  0.00000000E+00  0.00000000E+00  0.00000000E+00
  0.00000000E+00  0.00000000E+00  0.00000000E+00
  0.00000000E+00  0.00000000E+00  0.00000000E+00
  0.00000000E+00  0.00000000E+00  0.00000000E+00
  0.00000000E+00  0.00000000E+00  0.00000000E+00
  0.00000000E+00  0.00000000E+00  0.00000000E+00
  0.00000000E+00  0.00000000E+00  0.00000000E+00
  0.00000000E+00  0.00000000E+00  0.00000000E+00
  0.00000000E+00  0.00000000E+00  0.00000000E+00
  0.00000000E+00  0.00000000E+00  0.00000000E+00
  0.00000000E+00  0.00000000E+00  0.00000000E+00
  0.00000000E+00  0.00000000E+00  0.00000000E+00
  0.00000000E+00  0.00000000E+00  0.00000000E+00
  0.00000000E+00  0.00000000E+00  0.00000000E+00
  0.00000000E+00  0.00000000E+00  0.00000000E+00
  0.00000000E+00  0.00000000E+00  0.00000000E+00
  0.00000000E+00  0.00000000E+00  0.00000000E+00
  0.00000000E+00  0.00000000E+00  0.00000000E+00
  0.00000000E+00  0.00000000E+00  0.00000000E+00
  0.00000000E+00  0.00000000E+00  0.00000000E+00
  0.00000000E+00  0.00000000E+00  0.00000000E+00
  0.00000000E+00  0.00000000E+00  0.00000000E+00
  0.00000000E+00  0.00000000E+00  0.00000000E+00
  0.00000000E+00  0.00000000E+00  0.00000000E+00
  0.00000000E+00  0.00000000E+00  0.00000000E+00
  0.00000000E+00  0.00000000E+00  0.00000000E+00
  0.00000000E+00  0.00000000E+00  0.00000000E+00
  0.00000000E+00  0.00000000E+00  0.00000000E+00
  0.00000000E+00  0.00000000E+00  0.00000000E+00
  0.00000000E+00  0.00000000E+00  0.00000000E+00
  0.00000000E+00  0.00000000E+00  0.00000000E+00
  0.00000000E+00  0.00000000E+00  0.00000000E+00
  0.00000000E+00  0.00000000E+00  0.00000000E+00
  0.00000000E+00  0.00000000E+00  0.00000000E+00
  0.00000000E+00  0.00000000E+00  0.00000000E+00
  0.00000000E+00  0.00000000E+00  0.00000000E+00
  0.00000000E+00  0.00000000E+00  0.00000000E+00
  0.00000000E+00  0.00000000E+00  0.00000000E+00
  0.00000000E+00  0.00000000E+00  0.00000000E+00
  0.00000000E+00  0.00000000E+00  0.00000000E+00
  0.00000000E+00  0.00000000E+00  0.00000000E+00
  0.00000000E+00  0.00000000E+00  0.00000000E+00
  0.00000000E+00  0.00000000E+00  0.00000000E+00
  0.00000000E+00  0.00000000E+00  0.00000000E+00
  0.00000000E+00  0.00000000E+00  0.00000000E+00
  0.00000000E+00  0.00000000E+00  0.00000000E+00
  0.00000000E+00  0.00000000E+00  0.00000000E+00
  0.00000000E+00  0.00000000E+00  0.00000000E+00
  0.00000000E+00  0.00000000E+00  0.00000000E+00
  0.00000000E+00  0.00000000E+00  0.00000000E+00
  0.00000000E+00  0.00000000E+00  0.00000000E+00
  0.00000000E+00  0.00000000E+00  0.00000000E+00
  0.00000000E+00  0.00000000E+00  0.00000000E+00
  0.00000000E+00  0.00000000E+00  0.00000000E+00
  0.00000000E+00  0.00000000E+00  0.00000000E+00
  0.00000000E+00  0.00000000E+00  0.00000000E+00
  0.00000000E+00  0.00000000E+00  0.00000000E+00
  0.00000000E+00  0.00000000E+00  0.00000000E+00
  0.00000000E+00  0.00000000E+00  0.00000000E+00
  0.00000000E+00  0.00000000E+00  0.00000000E+00
  0.00000000E+00  0.00000000E+00  0.00000000E+00
  0.00000000E+00  0.00000000E+00  0.00000000E+00
  0.00000000E+00  0.00000000E+00  0.00000000E+00
  0.00000000E+00  0.00000000E+00  0.00000000E+00
  0.00000000E+00  0.00000000E+00  0.00000000E+00
  0.00000000E+00  0.00000000E+00  0.00000000E+00
  0.00000000E+00  0.00000000E+00  0.00000000E+00
  0.00000000E+00  0.00000000E+00  0.00000000E+00
  0.00000000E+00  0.00000000E+00  0.00000000E+00
  0.00000000E+00  0.00000000E+00  0.00000000E+00
  0.00000000E+00  0.00000000E+00  0.00000000E+00
  0.00000000E+00  0.00000000E+00  0.00000000E+00
  0.00000000E+00  0.00000000E+00  0.00000000E+00
  0.00000000E+00  0.00000000E+00  0.00000000E+00
  0.00000000E+00  0.00000000E+00  0.00000000E+00
  0.00000000E+00  0.00000000E+00  0.00000000E+00
  0.00000000E+00  0.00000000E+00  0.00000000E+00
  0.00000000E+00  0.00000000E+00  0.00000000E+00
  0.00000000E+00  0.00000000E+00  0.00000000E+00
  0.00000000E+00  0.00000000E+00  0.00000000E+00
