Fe1 H1 C126 O1                          
   1.00000000000000     
    19.7694566533206242    0.0001404475243283   -0.0328340334563186
    -9.8846233452306613   17.0756136155926512   -0.0012852306730078
    -0.0495121925787540   -0.0309299865291838   29.8078663347777422
   Fe   H    C    O 
     1     1   126     1
Direct
  0.4381864998154122  0.5008692244361933  0.4251095205717442
  0.4778055229075610  0.5518231535505483  0.4996287854668688
  0.0419134736462387  0.0837156670030976  0.3998773958128030
  0.0414941166523225  0.2082648228499986  0.3997543975928646
  0.0413148118636019  0.3330723333387968  0.3995574797331486
  0.0413439171736122  0.4582826348530794  0.3996424074842559
  0.0415561140570955  0.5834071924074018  0.3999276490492273
  0.0417953827386603  0.7085401544659338  0.4000129569842727
  0.0419532024358396  0.8337634499120610  0.3999388447894547
  0.0419886724956754  0.9588157680453415  0.3998837289115335
  0.1671435787953391  0.0842602176871366  0.4000985445133195
  0.1672178957532671  0.2092470772786209  0.4002782253797647
  0.1663341762322708  0.3333329879153744  0.3999726795817751
  0.1658479870247025  0.4582753572192044  0.3993635643523744
  0.1662028701978687  0.5833045487769053  0.3994070550397446
  0.1666429824777178  0.7085612007473648  0.3998268913066019
  0.1668513654141332  0.8337604214903701  0.3999746684165790
  0.1670368967738757  0.9590350247182228  0.3999486626260618
  0.2921562960223286  0.0842594804111275  0.4000843736092511
  0.2925661857437376  0.2100768981488008  0.4011670239809906
  0.2930660975656710  0.3358862812446097  0.4025382902927698
  0.2901321136562083  0.4578033428683395  0.4010654166763307
  0.2907661444286140  0.5835961210109158  0.3997021365936729
  0.2914308854928721  0.7085372796709984  0.3995450794831800
  0.2916728459666207  0.8335619155260658  0.3998333202978153
  0.2918564609490845  0.9588121346260711  0.3998935842574172
  0.4168334467441904  0.0836970462315038  0.3998418380607588
  0.4170702337020393  0.2092317713787125  0.4002138321434390
  0.4178767294608636  0.3358358108947888  0.4026556012726242
  0.4142090921156950  0.5816834561285554  0.4034905570557762
  0.4161277218624639  0.7072554386392347  0.4005255074216205
  0.4165160827971972  0.8329456941756398  0.3998633553026690
  0.4166584158051738  0.9583091098938827  0.3998453438663221
  0.5416118350648128  0.0830757205476710  0.3998505409827584
  0.5418077937783174  0.2082585752770782  0.3996589979312153
  0.5420448367825111  0.3333263724338255  0.3997685494924069
  0.5427768529149407  0.4578098153554239  0.4010590030905475
  0.5428891448211940  0.5818288344532501  0.4041681439220066
  0.5410007655878334  0.7069001699538116  0.4024277800510209
  0.5411682017264650  0.8323701811447780  0.4004499452380261
  0.5414707575898269  0.9577886838017025  0.3999518610524369
  0.6664558025703325  0.0828229244866164  0.3999289598789282
  0.6666238666542822  0.2080210651382235  0.3998423594406585
  0.6667983856894398  0.3330706094451894  0.3994284364495747
  0.6674857428619522  0.4582777209857266  0.3990356871811307
  0.6679176653808342  0.5836088089706825  0.3994547057143941
  0.6662556090021368  0.7073069667411622  0.4005846834217036
  0.6662643763124918  0.8323842078524707  0.4004720723196590
  0.6663295934918595  0.9576144803891761  0.4000658615641710
  0.7914119035496683  0.0828247522464008  0.3999298746381027
  0.7914835930006305  0.2079154181223345  0.3999810909487040
  0.7916796225996067  0.3331130570901833  0.3998909980882140
  0.7919886860846027  0.4582937855592258  0.3995226638275545
  0.7921726048264487  0.5833134322759290  0.3992497554051389
  0.7921694887807735  0.7085398579100789  0.3994759383635136
  0.7914992159982451  0.8329697067437801  0.3998177027494016
  0.7913607340139290  0.9578024748132807  0.3999207188633915
  0.9164950864189781  0.0830886544999217  0.3998636873900345
  0.9164498335966780  0.2080315540261913  0.3999048923492962
  0.9164764311009640  0.3331091224822804  0.3999534804393184
  0.9166256943518822  0.4582076152028733  0.3999736902459716
  0.9169080935133430  0.5834131785882956  0.3998495935147510
  0.9169675467888785  0.7085612309491054  0.3997412766129882
  0.9169264750559528  0.8335663121543908  0.3997911664665522
  0.9166908676895504  0.9583390292716810  0.3998278351728132
  0.0837303633242527  0.0422681328361472  0.3999307571965815
  0.0836515320071559  0.1671279460214926  0.3998755206892974
  0.0829231931276266  0.2914948386433475  0.3996014801678043
  0.0828862836620503  0.4166579067719306  0.3994211251993812
  0.0830316787125311  0.5416617443401343  0.3996479524138803
  0.0833366960061598  0.6668377411891430  0.3999674188343454
  0.0835536663348631  0.7920733631768618  0.3999915527448329
  0.0836440422004321  0.9172078514460138  0.3999208306832478
  0.2087437595117560  0.0424505447082969  0.4000478428135009
  0.2088467861117648  0.1677399071895638  0.4004801983702734
  0.2089512004857065  0.2928678553087384  0.4007283209317110
  0.2071643626742393  0.4164111933076632  0.3998785931990386
  0.2075423870997678  0.5416918134080322  0.3993286960714537
  0.2082143939295109  0.6669064616686963  0.3995331557750750
  0.2083981719793048  0.7919548995223671  0.3998999515684833
  0.2085928495842121  0.9172039096802627  0.3999380092243689
  0.3335764591273640  0.0422745588978997  0.3999070816314673
  0.3339342653466127  0.1677375278565757  0.4004728499235415
  0.3341485530105769  0.2932405800842030  0.4026551927906263
  0.3325049729419941  0.4184305692404615  0.4040077993289821
  0.3323177153291965  0.5422327265468925  0.4008528683715837
  0.3330153190317595  0.6667280301339604  0.3998011949004072
  0.3332171979558538  0.7917599221650965  0.3997349742201987
  0.3333906693143567  0.9169362331953794  0.3998594570029513
  0.4583526868681703  0.0417191899669381  0.3998379194325010
  0.4585279484440052  0.1671162084643987  0.3997858419302510
  0.4589747020963525  0.2928403382281362  0.4006673587991314
  0.4611749046987826  0.4182803753155116  0.4043938002697811
  0.4572869084884888  0.6642931245774326  0.4021759417625618
  0.4579819308570239  0.7908555056813101  0.4002055253731402
  0.4581982945164983  0.9163538263787635  0.3998875831961137
  0.5831660251896027  0.0412099826466491  0.3999027903592115
  0.5833390625029363  0.1664568882772976  0.3997879556233356
  0.5836089254012310  0.2914866320949413  0.3994586291689645
  0.5843019678592495  0.4163948856430789  0.3995291579672103
  0.5850329748165146  0.5422147636917913  0.4009505194289129
  0.5821891740551873  0.6643779528563953  0.4024587274574104
  0.5825864556170786  0.7901023092553012  0.4010912199248555
  0.5829175492967266  0.9158231144320922  0.4001071022233479
  0.7080142125200912  0.0410006835798266  0.3999552312055229
  0.7081855253972857  0.1662429770612975  0.3999379726446390
  0.7083637466914237  0.2914189193973202  0.3997307141313176
  0.7088125601611761  0.4166503081305160  0.3992387474125153
  0.7092221742885407  0.5417099021296413  0.3990239346569857
  0.7087979363755529  0.6667446239674989  0.3997235508791848
  0.7079542513629890  0.7908974765550758  0.4002057779681322
  0.7079457230725141  0.9158307011237558  0.4001000416505097
  0.8330853923388033  0.0412189950873247  0.3998930853379624
  0.8331045365475099  0.1662493680161954  0.3999599783208221
  0.8332365472551226  0.2914297073141963  0.3999995045587888
  0.8334628784315056  0.4165468677865952  0.3998510099072669
  0.8336891246588840  0.5416685374336033  0.3995253344072619
  0.8337523732483171  0.6669226564794658  0.3994482245873796
  0.8336025881328872  0.7917834768042404  0.3996901009911381
  0.8332082229829569  0.9163770922245011  0.3998554629466955
  0.9584110302865546  0.0417417235137706  0.3998438036980365
  0.9581676953760357  0.1664733725381695  0.3998457262297747
  0.9580934616457852  0.2914227201906455  0.3998294557885099
  0.9581298126012596  0.4165432289672253  0.3999159041488728
  0.9583977987111862  0.5417501545611463  0.3999788608146617
  0.9585504768906029  0.6668525379704224  0.3998994955388407
  0.9586056027620653  0.7919757137436634  0.3998389451168389
  0.9585766749772757  0.9169543455731125  0.3998308324610286
  0.4452072973994347  0.5009652185440266  0.4853347368941300
 
  0.00000000E+00  0.00000000E+00  0.00000000E+00
  0.00000000E+00  0.00000000E+00  0.00000000E+00
  0.00000000E+00  0.00000000E+00  0.00000000E+00
  0.00000000E+00  0.00000000E+00  0.00000000E+00
  0.00000000E+00  0.00000000E+00  0.00000000E+00
  0.00000000E+00  0.00000000E+00  0.00000000E+00
  0.00000000E+00  0.00000000E+00  0.00000000E+00
  0.00000000E+00  0.00000000E+00  0.00000000E+00
  0.00000000E+00  0.00000000E+00  0.00000000E+00
  0.00000000E+00  0.00000000E+00  0.00000000E+00
  0.00000000E+00  0.00000000E+00  0.00000000E+00
  0.00000000E+00  0.00000000E+00  0.00000000E+00
  0.00000000E+00  0.00000000E+00  0.00000000E+00
  0.00000000E+00  0.00000000E+00  0.00000000E+00
  0.00000000E+00  0.00000000E+00  0.00000000E+00
  0.00000000E+00  0.00000000E+00  0.00000000E+00
  0.00000000E+00  0.00000000E+00  0.00000000E+00
  0.00000000E+00  0.00000000E+00  0.00000000E+00
  0.00000000E+00  0.00000000E+00  0.00000000E+00
  0.00000000E+00  0.00000000E+00  0.00000000E+00
  0.00000000E+00  0.00000000E+00  0.00000000E+00
  0.00000000E+00  0.00000000E+00  0.00000000E+00
  0.00000000E+00  0.00000000E+00  0.00000000E+00
  0.00000000E+00  0.00000000E+00  0.00000000E+00
  0.00000000E+00  0.00000000E+00  0.00000000E+00
  0.00000000E+00  0.00000000E+00  0.00000000E+00
  0.00000000E+00  0.00000000E+00  0.00000000E+00
  0.00000000E+00  0.00000000E+00  0.00000000E+00
  0.00000000E+00  0.00000000E+00  0.00000000E+00
  0.00000000E+00  0.00000000E+00  0.00000000E+00
  0.00000000E+00  0.00000000E+00  0.00000000E+00
  0.00000000E+00  0.00000000E+00  0.00000000E+00
  0.00000000E+00  0.00000000E+00  0.00000000E+00
  0.00000000E+00  0.00000000E+00  0.00000000E+00
  0.00000000E+00  0.00000000E+00  0.00000000E+00
  0.00000000E+00  0.00000000E+00  0.00000000E+00
  0.00000000E+00  0.00000000E+00  0.00000000E+00
  0.00000000E+00  0.00000000E+00  0.00000000E+00
  0.00000000E+00  0.00000000E+00  0.00000000E+00
  0.00000000E+00  0.00000000E+00  0.00000000E+00
  0.00000000E+00  0.00000000E+00  0.00000000E+00
  0.00000000E+00  0.00000000E+00  0.00000000E+00
  0.00000000E+00  0.00000000E+00  0.00000000E+00
  0.00000000E+00  0.00000000E+00  0.00000000E+00
  0.00000000E+00  0.00000000E+00  0.00000000E+00
  0.00000000E+00  0.00000000E+00  0.00000000E+00
  0.00000000E+00  0.00000000E+00  0.00000000E+00
  0.00000000E+00  0.00000000E+00  0.00000000E+00
  0.00000000E+00  0.00000000E+00  0.00000000E+00
  0.00000000E+00  0.00000000E+00  0.00000000E+00
  0.00000000E+00  0.00000000E+00  0.00000000E+00
  0.00000000E+00  0.00000000E+00  0.00000000E+00
  0.00000000E+00  0.00000000E+00  0.00000000E+00
  0.00000000E+00  0.00000000E+00  0.00000000E+00
  0.00000000E+00  0.00000000E+00  0.00000000E+00
  0.00000000E+00  0.00000000E+00  0.00000000E+00
  0.00000000E+00  0.00000000E+00  0.00000000E+00
  0.00000000E+00  0.00000000E+00  0.00000000E+00
  0.00000000E+00  0.00000000E+00  0.00000000E+00
  0.00000000E+00  0.00000000E+00  0.00000000E+00
  0.00000000E+00  0.00000000E+00  0.00000000E+00
  0.00000000E+00  0.00000000E+00  0.00000000E+00
  0.00000000E+00  0.00000000E+00  0.00000000E+00
  0.00000000E+00  0.00000000E+00  0.00000000E+00
  0.00000000E+00  0.00000000E+00  0.00000000E+00
  0.00000000E+00  0.00000000E+00  0.00000000E+00
  0.00000000E+00  0.00000000E+00  0.00000000E+00
  0.00000000E+00  0.00000000E+00  0.00000000E+00
  0.00000000E+00  0.00000000E+00  0.00000000E+00
  0.00000000E+00  0.00000000E+00  0.00000000E+00
  0.00000000E+00  0.00000000E+00  0.00000000E+00
  0.00000000E+00  0.00000000E+00  0.00000000E+00
  0.00000000E+00  0.00000000E+00  0.00000000E+00
  0.00000000E+00  0.00000000E+00  0.00000000E+00
  0.00000000E+00  0.00000000E+00  0.00000000E+00
  0.00000000E+00  0.00000000E+00  0.00000000E+00
  0.00000000E+00  0.00000000E+00  0.00000000E+00
  0.00000000E+00  0.00000000E+00  0.00000000E+00
  0.00000000E+00  0.00000000E+00  0.00000000E+00
  0.00000000E+00  0.00000000E+00  0.00000000E+00
  0.00000000E+00  0.00000000E+00  0.00000000E+00
  0.00000000E+00  0.00000000E+00  0.00000000E+00
  0.00000000E+00  0.00000000E+00  0.00000000E+00
  0.00000000E+00  0.00000000E+00  0.00000000E+00
  0.00000000E+00  0.00000000E+00  0.00000000E+00
  0.00000000E+00  0.00000000E+00  0.00000000E+00
  0.00000000E+00  0.00000000E+00  0.00000000E+00
  0.00000000E+00  0.00000000E+00  0.00000000E+00
  0.00000000E+00  0.00000000E+00  0.00000000E+00
  0.00000000E+00  0.00000000E+00  0.00000000E+00
  0.00000000E+00  0.00000000E+00  0.00000000E+00
  0.00000000E+00  0.00000000E+00  0.00000000E+00
  0.00000000E+00  0.00000000E+00  0.00000000E+00
  0.00000000E+00  0.00000000E+00  0.00000000E+00
  0.00000000E+00  0.00000000E+00  0.00000000E+00
  0.00000000E+00  0.00000000E+00  0.00000000E+00
  0.00000000E+00  0.00000000E+00  0.00000000E+00
  0.00000000E+00  0.00000000E+00  0.00000000E+00
  0.00000000E+00  0.00000000E+00  0.00000000E+00
  0.00000000E+00  0.00000000E+00  0.00000000E+00
  0.00000000E+00  0.00000000E+00  0.00000000E+00
  0.00000000E+00  0.00000000E+00  0.00000000E+00
  0.00000000E+00  0.00000000E+00  0.00000000E+00
  0.00000000E+00  0.00000000E+00  0.00000000E+00
  0.00000000E+00  0.00000000E+00  0.00000000E+00
  0.00000000E+00  0.00000000E+00  0.00000000E+00
  0.00000000E+00  0.00000000E+00  0.00000000E+00
  0.00000000E+00  0.00000000E+00  0.00000000E+00
  0.00000000E+00  0.00000000E+00  0.00000000E+00
  0.00000000E+00  0.00000000E+00  0.00000000E+00
  0.00000000E+00  0.00000000E+00  0.00000000E+00
  0.00000000E+00  0.00000000E+00  0.00000000E+00
  0.00000000E+00  0.00000000E+00  0.00000000E+00
  0.00000000E+00  0.00000000E+00  0.00000000E+00
  0.00000000E+00  0.00000000E+00  0.00000000E+00
  0.00000000E+00  0.00000000E+00  0.00000000E+00
  0.00000000E+00  0.00000000E+00  0.00000000E+00
  0.00000000E+00  0.00000000E+00  0.00000000E+00
  0.00000000E+00  0.00000000E+00  0.00000000E+00
  0.00000000E+00  0.00000000E+00  0.00000000E+00
  0.00000000E+00  0.00000000E+00  0.00000000E+00
  0.00000000E+00  0.00000000E+00  0.00000000E+00
  0.00000000E+00  0.00000000E+00  0.00000000E+00
  0.00000000E+00  0.00000000E+00  0.00000000E+00
  0.00000000E+00  0.00000000E+00  0.00000000E+00
  0.00000000E+00  0.00000000E+00  0.00000000E+00
  0.00000000E+00  0.00000000E+00  0.00000000E+00
  0.00000000E+00  0.00000000E+00  0.00000000E+00
  0.00000000E+00  0.00000000E+00  0.00000000E+00
