H1 Au1 C122 N4 O2                       
   1.00000000000000     
    19.7824848213253972   -0.0054311655446413    0.3684519165510177
    -9.8948930868233305   17.0319431609761374   -0.2072379333259382
     0.5549349881803105   -0.0403843000609665   29.8797759528219231
   H    Au   C    N    O 
     1     1   122     4     2
Direct
  0.5736005934371317  0.5762107306552362  0.5302410312894199
  0.4174505929854070  0.4835432875038433  0.4575464298667217
  0.0421581285010434  0.0843799111003826  0.3996652830092708
  0.0413219885720649  0.2084751781911602  0.3989389623359608
  0.0408364686813570  0.3331152782699032  0.3978289270084728
  0.0409074471846834  0.4583355806186394  0.3980054455776587
  0.0412674204748108  0.5837497095884637  0.3992207741340464
  0.0419048904395391  0.7091765173044809  0.3999485794903538
  0.0423230406592378  0.8345671874721110  0.4001183687925696
  0.0424756508447905  0.9597924218312097  0.4000586020525246
  0.1681100872351686  0.0860757763275515  0.4003477241064674
  0.1676107931618896  0.2104613884715253  0.3998369107652876
  0.1658063958519130  0.3340145326955142  0.3988494043398633
  0.1653381756624512  0.4586240989858240  0.3963443129454932
  0.1655185342324729  0.5836367837507241  0.3978446923122987
  0.1663000078541694  0.7090983075674787  0.3993926160822674
  0.1669268168711736  0.8345864263955775  0.4000074229050192
  0.1674934907379534  0.9602562893760400  0.4001622138130625
  0.2926682381051958  0.0859905539905481  0.4002949070758773
  0.2941656925329830  0.2137122862567902  0.4016718245377885
  0.2921023340594859  0.3387778510772180  0.4053074649233571
  0.2890591466759569  0.4577603187734343  0.4028612567246465
  0.2892912641802550  0.5833786938485960  0.3986442365380968
  0.2905510511712554  0.7086857523333410  0.3990434542784179
  0.2914799187237037  0.8340874418090707  0.3998029059200058
  0.2920563899950800  0.9597917837319765  0.4000701662363280
  0.4170426260859524  0.0841719104483217  0.4001409018560413
  0.4176510849802270  0.2100516636462160  0.4005940563766657
  0.4214263292657836  0.3386354789251735  0.4012481883602710
  0.4144529455393054  0.7066289927086312  0.4002371194992522
  0.4159514935656151  0.8326390671797304  0.3998950322315943
  0.4165471409567615  0.9584004238816100  0.4000328047840863
  0.5415099767316912  0.0826620452839789  0.4001236331848395
  0.5420850277340243  0.2083324651867193  0.4000755423372078
  0.5431069865416419  0.3338359878229034  0.3997520524084044
  0.5419268320489510  0.4569494093814144  0.3979468250659309
  0.5381073098016077  0.7017377262957162  0.4003267776487339
  0.5400611559940446  0.8301351225122362  0.4003516443191364
  0.5409823015477135  0.9566945644214337  0.4002006377297614
  0.6660503011702882  0.0819652507434512  0.4002281819244611
  0.6665744959320691  0.2075800092049171  0.4000527501225635
  0.6672451243097522  0.3330241938511393  0.3997569781043819
  0.6680810448340283  0.4584075466270693  0.3991963063794686
  0.6681823665090734  0.5830492078017614  0.3987375520265702
  0.6664405932962499  0.7063969747404687  0.3997737312245852
  0.6646603483779027  0.8301191539438239  0.4002815526390342
  0.6654774066449012  0.9561908557181925  0.4003069147331124
  0.7908009743794940  0.0819893897888934  0.4001019359117277
  0.7911172805642062  0.2073482088971662  0.3999488851169827
  0.7916383647964452  0.3328410400403585  0.3999018010213851
  0.7922442034921442  0.4583070302479557  0.3997677908343497
  0.7926523475808978  0.5835142254282392  0.3995938511235613
  0.7925775782023599  0.7084566957835876  0.3997998750273012
  0.7912563240088487  0.8325126030382697  0.4002433704860986
  0.7904881233801164  0.9567176526014212  0.4002430121400628
  0.9160708950414383  0.0827006210694194  0.3997851135920159
  0.9159686968443012  0.2076358912778479  0.3993447527292748
  0.9160845516470116  0.3328861694173828  0.3991657292303858
  0.9164999606765900  0.4582525565370203  0.3996148025780976
  0.9170645132652833  0.5837094977371443  0.3999472006402275
  0.9173893896588966  0.7090343841918215  0.3999978536067338
  0.9172387893761145  0.8340117612786589  0.4001147357482656
  0.9166578988930043  0.9584197185593144  0.4001200039523220
  0.0844312284648857  0.0434967388875517  0.3999889650105269
  0.0839192047748136  0.1678945106075710  0.3992185156911898
  0.0825409906984292  0.2917851917146508  0.3983123153181315
  0.0823720552729292  0.4166843180754644  0.3970472943098867
  0.0824899802886528  0.5418626645179072  0.3982313098683666
  0.0831348837349434  0.6673326672140161  0.3995446855733358
  0.0837399680461963  0.7928413905609586  0.4000566802924416
  0.0840914206986948  0.9181777934727056  0.4001396977479346
  0.2093378152954678  0.0439356264980369  0.4003073408948859
  0.2101392121755639  0.1700287976685850  0.4008368755345121
  0.2088057331989411  0.2941414185750966  0.4005582143452533
  0.2069240960048933  0.4171817128417764  0.3976416970433602
  0.2065712795018707  0.5418671786899110  0.3971568128292499
  0.2075206443631184  0.6672370911111823  0.3987515213656980
  0.2082573943882813  0.7926604559971169  0.3997759317881116
  0.2088039571895805  0.9182045612487015  0.4000934603958018
  0.3338090341242169  0.0434250703104108  0.4001215016751603
  0.3346006538342211  0.1699345942796337  0.4007171959441928
  0.3364954957326741  0.2982119643516021  0.4034388599400426
  0.3321824280099376  0.5437515596181587  0.4013866058654795
  0.3316250283184169  0.6665573972204950  0.3992319372511873
  0.3327104649752365  0.7919665198841492  0.3996006436270958
  0.3333623811774506  0.9175907956600813  0.4000009284794134
  0.4583115627251073  0.0418249584463944  0.4000859566420265
  0.4588374816021030  0.1675720823424213  0.4002675176394487
  0.4600921509825277  0.2935419575666311  0.4005180721743239
  0.4529491636046241  0.6611510369438423  0.4011519053609531
  0.4569741924996097  0.7900738374105176  0.4001500422603817
  0.4577891730401958  0.9160604255342504  0.4000325262176079
  0.5827890190509908  0.0404007680084268  0.4002048153168939
  0.5833437700073266  0.1661671568523295  0.4000712311500625
  0.5841934397609133  0.2916907351323535  0.3998219270889825
  0.5850343158319574  0.4170358667482070  0.3991801257585427
  0.5849899759833654  0.5432076785730413  0.3975103245287920
  0.5823718227180352  0.6607730532802925  0.3995043758668665
  0.5804023261591919  0.7862165113551599  0.4003486675641387
  0.5820598633487899  0.9140987409351170  0.4002971404701483
  0.7073788312939367  0.0399348963382214  0.4002512625740703
  0.7078600128092872  0.1655930599710194  0.4001167089003556
  0.7084458387679943  0.2911185518922523  0.3999581917344465
  0.7091572014838358  0.4166206379420109  0.3995599330294963
  0.7097727971627414  0.5417222084702819  0.3991206566323516
  0.7092418598604021  0.6662214663543718  0.3994010728378780
  0.7075224773660548  0.7898860437976919  0.4002054289382810
  0.7067243907129269  0.9140847872340352  0.4002974670512727
  0.8324423074231373  0.0404298227361581  0.4000754223086287
  0.8325769646742619  0.1656065571497833  0.3998602570539313
  0.8329220951111377  0.2910104994468990  0.3997602256128424
  0.8334542010636384  0.4164547308942759  0.3998534919095955
  0.8339558091965906  0.5418204435849057  0.3998219109749141
  0.8342289894204039  0.6671100903044566  0.3997862822276356
  0.8337646508335861  0.7917873975861934  0.4001081090583606
  0.8329603706216203  0.9159844426648448  0.4002517761012659
  0.9584258095406274  0.0419116538316605  0.3998676726198706
  0.9577947111953126  0.1662408650947193  0.3993298856843051
  0.9575948146343954  0.2912019183508165  0.3987406892434234
  0.9577900029903257  0.4164552295975362  0.3989978407163755
  0.9582630739082876  0.5419014994931087  0.3996792028347003
  0.9587937378779370  0.6673311420809415  0.4000040591141645
  0.9590149379794530  0.7926015774332720  0.4000755009737967
  0.9589254919454402  0.9175268400874386  0.4000939844481148
  0.4103131337147752  0.5817711242400199  0.4026833551006959
  0.5450817240795883  0.5813989338258256  0.3977404081326416
  0.3270448231703995  0.4185596943472197  0.4120589403280376
  0.4633694178570982  0.4182951855343340  0.3988865849764079
  0.5293795468356993  0.5225532082639945  0.5284102920531882
  0.4703070263790738  0.5402300791709204  0.5126499542423986
 
  0.00000000E+00  0.00000000E+00  0.00000000E+00
  0.00000000E+00  0.00000000E+00  0.00000000E+00
  0.00000000E+00  0.00000000E+00  0.00000000E+00
  0.00000000E+00  0.00000000E+00  0.00000000E+00
  0.00000000E+00  0.00000000E+00  0.00000000E+00
  0.00000000E+00  0.00000000E+00  0.00000000E+00
  0.00000000E+00  0.00000000E+00  0.00000000E+00
  0.00000000E+00  0.00000000E+00  0.00000000E+00
  0.00000000E+00  0.00000000E+00  0.00000000E+00
  0.00000000E+00  0.00000000E+00  0.00000000E+00
  0.00000000E+00  0.00000000E+00  0.00000000E+00
  0.00000000E+00  0.00000000E+00  0.00000000E+00
  0.00000000E+00  0.00000000E+00  0.00000000E+00
  0.00000000E+00  0.00000000E+00  0.00000000E+00
  0.00000000E+00  0.00000000E+00  0.00000000E+00
  0.00000000E+00  0.00000000E+00  0.00000000E+00
  0.00000000E+00  0.00000000E+00  0.00000000E+00
  0.00000000E+00  0.00000000E+00  0.00000000E+00
  0.00000000E+00  0.00000000E+00  0.00000000E+00
  0.00000000E+00  0.00000000E+00  0.00000000E+00
  0.00000000E+00  0.00000000E+00  0.00000000E+00
  0.00000000E+00  0.00000000E+00  0.00000000E+00
  0.00000000E+00  0.00000000E+00  0.00000000E+00
  0.00000000E+00  0.00000000E+00  0.00000000E+00
  0.00000000E+00  0.00000000E+00  0.00000000E+00
  0.00000000E+00  0.00000000E+00  0.00000000E+00
  0.00000000E+00  0.00000000E+00  0.00000000E+00
  0.00000000E+00  0.00000000E+00  0.00000000E+00
  0.00000000E+00  0.00000000E+00  0.00000000E+00
  0.00000000E+00  0.00000000E+00  0.00000000E+00
  0.00000000E+00  0.00000000E+00  0.00000000E+00
  0.00000000E+00  0.00000000E+00  0.00000000E+00
  0.00000000E+00  0.00000000E+00  0.00000000E+00
  0.00000000E+00  0.00000000E+00  0.00000000E+00
  0.00000000E+00  0.00000000E+00  0.00000000E+00
  0.00000000E+00  0.00000000E+00  0.00000000E+00
  0.00000000E+00  0.00000000E+00  0.00000000E+00
  0.00000000E+00  0.00000000E+00  0.00000000E+00
  0.00000000E+00  0.00000000E+00  0.00000000E+00
  0.00000000E+00  0.00000000E+00  0.00000000E+00
  0.00000000E+00  0.00000000E+00  0.00000000E+00
  0.00000000E+00  0.00000000E+00  0.00000000E+00
  0.00000000E+00  0.00000000E+00  0.00000000E+00
  0.00000000E+00  0.00000000E+00  0.00000000E+00
  0.00000000E+00  0.00000000E+00  0.00000000E+00
  0.00000000E+00  0.00000000E+00  0.00000000E+00
  0.00000000E+00  0.00000000E+00  0.00000000E+00
  0.00000000E+00  0.00000000E+00  0.00000000E+00
  0.00000000E+00  0.00000000E+00  0.00000000E+00
  0.00000000E+00  0.00000000E+00  0.00000000E+00
  0.00000000E+00  0.00000000E+00  0.00000000E+00
  0.00000000E+00  0.00000000E+00  0.00000000E+00
  0.00000000E+00  0.00000000E+00  0.00000000E+00
  0.00000000E+00  0.00000000E+00  0.00000000E+00
  0.00000000E+00  0.00000000E+00  0.00000000E+00
  0.00000000E+00  0.00000000E+00  0.00000000E+00
  0.00000000E+00  0.00000000E+00  0.00000000E+00
  0.00000000E+00  0.00000000E+00  0.00000000E+00
  0.00000000E+00  0.00000000E+00  0.00000000E+00
  0.00000000E+00  0.00000000E+00  0.00000000E+00
  0.00000000E+00  0.00000000E+00  0.00000000E+00
  0.00000000E+00  0.00000000E+00  0.00000000E+00
  0.00000000E+00  0.00000000E+00  0.00000000E+00
  0.00000000E+00  0.00000000E+00  0.00000000E+00
  0.00000000E+00  0.00000000E+00  0.00000000E+00
  0.00000000E+00  0.00000000E+00  0.00000000E+00
  0.00000000E+00  0.00000000E+00  0.00000000E+00
  0.00000000E+00  0.00000000E+00  0.00000000E+00
  0.00000000E+00  0.00000000E+00  0.00000000E+00
  0.00000000E+00  0.00000000E+00  0.00000000E+00
  0.00000000E+00  0.00000000E+00  0.00000000E+00
  0.00000000E+00  0.00000000E+00  0.00000000E+00
  0.00000000E+00  0.00000000E+00  0.00000000E+00
  0.00000000E+00  0.00000000E+00  0.00000000E+00
  0.00000000E+00  0.00000000E+00  0.00000000E+00
  0.00000000E+00  0.00000000E+00  0.00000000E+00
  0.00000000E+00  0.00000000E+00  0.00000000E+00
  0.00000000E+00  0.00000000E+00  0.00000000E+00
  0.00000000E+00  0.00000000E+00  0.00000000E+00
  0.00000000E+00  0.00000000E+00  0.00000000E+00
  0.00000000E+00  0.00000000E+00  0.00000000E+00
  0.00000000E+00  0.00000000E+00  0.00000000E+00
  0.00000000E+00  0.00000000E+00  0.00000000E+00
  0.00000000E+00  0.00000000E+00  0.00000000E+00
  0.00000000E+00  0.00000000E+00  0.00000000E+00
  0.00000000E+00  0.00000000E+00  0.00000000E+00
  0.00000000E+00  0.00000000E+00  0.00000000E+00
  0.00000000E+00  0.00000000E+00  0.00000000E+00
  0.00000000E+00  0.00000000E+00  0.00000000E+00
  0.00000000E+00  0.00000000E+00  0.00000000E+00
  0.00000000E+00  0.00000000E+00  0.00000000E+00
  0.00000000E+00  0.00000000E+00  0.00000000E+00
  0.00000000E+00  0.00000000E+00  0.00000000E+00
  0.00000000E+00  0.00000000E+00  0.00000000E+00
  0.00000000E+00  0.00000000E+00  0.00000000E+00
  0.00000000E+00  0.00000000E+00  0.00000000E+00
  0.00000000E+00  0.00000000E+00  0.00000000E+00
  0.00000000E+00  0.00000000E+00  0.00000000E+00
  0.00000000E+00  0.00000000E+00  0.00000000E+00
  0.00000000E+00  0.00000000E+00  0.00000000E+00
  0.00000000E+00  0.00000000E+00  0.00000000E+00
  0.00000000E+00  0.00000000E+00  0.00000000E+00
  0.00000000E+00  0.00000000E+00  0.00000000E+00
  0.00000000E+00  0.00000000E+00  0.00000000E+00
  0.00000000E+00  0.00000000E+00  0.00000000E+00
  0.00000000E+00  0.00000000E+00  0.00000000E+00
  0.00000000E+00  0.00000000E+00  0.00000000E+00
  0.00000000E+00  0.00000000E+00  0.00000000E+00
  0.00000000E+00  0.00000000E+00  0.00000000E+00
  0.00000000E+00  0.00000000E+00  0.00000000E+00
  0.00000000E+00  0.00000000E+00  0.00000000E+00
  0.00000000E+00  0.00000000E+00  0.00000000E+00
  0.00000000E+00  0.00000000E+00  0.00000000E+00
  0.00000000E+00  0.00000000E+00  0.00000000E+00
  0.00000000E+00  0.00000000E+00  0.00000000E+00
  0.00000000E+00  0.00000000E+00  0.00000000E+00
  0.00000000E+00  0.00000000E+00  0.00000000E+00
  0.00000000E+00  0.00000000E+00  0.00000000E+00
  0.00000000E+00  0.00000000E+00  0.00000000E+00
  0.00000000E+00  0.00000000E+00  0.00000000E+00
  0.00000000E+00  0.00000000E+00  0.00000000E+00
  0.00000000E+00  0.00000000E+00  0.00000000E+00
  0.00000000E+00  0.00000000E+00  0.00000000E+00
  0.00000000E+00  0.00000000E+00  0.00000000E+00
  0.00000000E+00  0.00000000E+00  0.00000000E+00
  0.00000000E+00  0.00000000E+00  0.00000000E+00
  0.00000000E+00  0.00000000E+00  0.00000000E+00
  0.00000000E+00  0.00000000E+00  0.00000000E+00
  0.00000000E+00  0.00000000E+00  0.00000000E+00
  0.00000000E+00  0.00000000E+00  0.00000000E+00
