H1 Au1 C124 N2                          
   1.00000000000000     
    19.8501366182010237   -0.0084058564939619    0.0035720637717409
    -9.9326483666838161   17.0491971323900913    0.0008466797350244
     0.0053337492161488    0.0045815561559345   29.7400569033310269
   H    Au   C    N 
     1     1   124     2
Direct
  0.4374229015117653  0.4999857441309488  0.4763755332462604
  0.4374526304550917  0.4999859215585610  0.4201196597528922
  0.0419626266848541  0.0840895818014118  0.3996759717474166
  0.0407484671027090  0.2080648910121995  0.3995237136787599
  0.0398327546535194  0.3326752653847279  0.3991050075933066
  0.0398451920556927  0.4582293468334447  0.3988749699856247
  0.0410943941009283  0.5839102594916777  0.3990016527484433
  0.0421577460401469  0.7094603132667421  0.3992957740648035
  0.0425765293965260  0.8347587314133031  0.3995551325941906
  0.0426643665318171  0.9598519899181149  0.3996779838228227
  0.1682436384821134  0.0860044390628674  0.4002636696842495
  0.1671389839004895  0.2100939272506102  0.4006961597132620
  0.1646670837183827  0.3336479870580819  0.4008751078360728
  0.1628163631817061  0.4584246675496145  0.3995717274852787
  0.1643986062428276  0.5839500255593756  0.3993651095552914
  0.1661304421009238  0.7093829145700979  0.3993460111876197
  0.1670551464166448  0.8348056274325637  0.3995429925192133
  0.1676783418368795  0.9603226128064601  0.3997895551424971
  0.2928302588356007  0.0857131890102716  0.4002897253454878
  0.2944834380206709  0.2129355629534490  0.4025707218940207
  0.2917958270167693  0.3372620490351111  0.4066734441702401
  0.2853310031566195  0.4590201896572681  0.4051931545123522
  0.2872628039312909  0.5843286025698623  0.4017862158662107
  0.2901237359491060  0.7091500631642094  0.4002021683678280
  0.2914442069570058  0.8343168899741218  0.3996334064429158
  0.2921483513187987  0.9597934307416547  0.3996893824951395
  0.4172134302505016  0.0839682833142307  0.3998760971724815
  0.4180210964206713  0.2098070903989841  0.4014773131877700
  0.4214946379457468  0.3376223963961326  0.4051016413871195
  0.4141370960097127  0.7066536024591482  0.4027250730638188
  0.4158034788930648  0.8326216434012788  0.4003653604256679
  0.4165621171202266  0.9582912770456801  0.3996615701477253
  0.5415908949890350  0.0822970616100996  0.3996471130444778
  0.5423867006145889  0.2076468714715599  0.4000343393368470
  0.5440928820098798  0.3327241435816020  0.4015758993268322
  0.5476855640524800  0.4569625189599654  0.4042167153322312
  0.5486684022800637  0.5810140108627350  0.4116043719893925
  0.5382048813707779  0.7026334888199248  0.4054110034834162
  0.5400784296612938  0.8304556958344632  0.4013641460667239
  0.5410004165318174  0.9566325232156522  0.3999125984578372
  0.6660329230362467  0.0815839122056112  0.3996986877103980
  0.6667416477175442  0.2070749568834329  0.3994801630699403
  0.6680007293092275  0.3325138934711845  0.3995782736204211
  0.6703913543143092  0.4581327411175885  0.4002198369210320
  0.6712913693105763  0.5831100722014213  0.4012861691163664
  0.6668666348641210  0.7064190068239573  0.4022728856690770
  0.6647284542687759  0.8301099332021168  0.4012674070462638
  0.6654583138571049  0.9560024413838588  0.4001281358779327
  0.7906761172235524  0.0815933016621526  0.3996813587155740
  0.7910289947962179  0.2069024315947504  0.3994808321218059
  0.7919006872639238  0.3324381190022719  0.3991856662177306
  0.7933045175417938  0.4581174292054205  0.3989829417571331
  0.7944580118788771  0.5837499484120922  0.3990055308457240
  0.7932774055313006  0.7085701986589054  0.3996668542785968
  0.7915253527819438  0.8324300539757812  0.3997849661193471
  0.7904733885776498  0.9564710287377286  0.3998215240841120
  0.9158883372818291  0.0823990541974231  0.3995836720246445
  0.9155591096956707  0.2071507543206558  0.3994166821543464
  0.9157626006235237  0.3324664697370234  0.3991508629536787
  0.9165808717111850  0.4581455994938005  0.3989619624386800
  0.9177549227149300  0.5838756468110421  0.3990065974034295
  0.9179905790509332  0.7092804686837715  0.3992016363301569
  0.9175724595313421  0.8340711728551948  0.3994741777137203
  0.9166888006500222  0.9582546659704120  0.3996359903726516
  0.0845458292685229  0.0435325177126184  0.3998176102523350
  0.0834811720749073  0.1675622755907062  0.3997411573931153
  0.0817005943845232  0.2914111937533608  0.3995952866130816
  0.0804988443595390  0.4162401138491957  0.3989192603244878
  0.0816525973311702  0.5418711842587896  0.3989424855436157
  0.0831118904930455  0.6675565064854448  0.3991977054207744
  0.0839816363471021  0.7930829396328176  0.3994808264839456
  0.0843656957252987  0.9183924687619108  0.3996915709688961
  0.2095676722822408  0.0440044218347356  0.4001015616064825
  0.2102770863838671  0.1699061014634322  0.4011991700650809
  0.2080997836713636  0.2935683478763201  0.4021835472694885
  0.2036845029306081  0.4168968390012219  0.4011205056348491
  0.2045715490658563  0.5418680848366574  0.4001093456740425
  0.2069922104251553  0.6675048801530489  0.3995594068642992
  0.2082662273136736  0.7929384017242960  0.3994893189250230
  0.2090239825208237  0.9184303538063980  0.3996854877172163
  0.3340241069111852  0.0433832481014851  0.3998833579322899
  0.3349269006621977  0.1695611394976123  0.4013593124109563
  0.3367692189210157  0.2973744936162892  0.4053571598062954
  0.3262769270600206  0.4189776887472054  0.4115194031831311
  0.3272596415689709  0.5430273733176387  0.4041198155259197
  0.3308910441956211  0.6672865211658469  0.4015201027032580
  0.3326279874654045  0.7923847305410201  0.4000198550399446
  0.3334662643874037  0.9177252291216218  0.3996382208944536
  0.4585008012105206  0.0417258056210130  0.3996663649985577
  0.4592275075508007  0.1673979476016040  0.4003710193382818
  0.4608428032218462  0.2933483911777784  0.4027545626789636
  0.4534693691633911  0.6623757892458295  0.4050997434511428
  0.4569771251277793  0.7901995081307879  0.4014533244256938
  0.4578272662026948  0.9160430769419660  0.3998843191256245
  0.5829068105180982  0.0402217590517734  0.3997095049561763
  0.5835764100405904  0.1657110807052925  0.3996334530118319
  0.5848821235442777  0.2908803124666205  0.4002336645047285
  0.5877038490548001  0.4156761727366882  0.4018806208369728
  0.5896324782163700  0.5409629276215879  0.4053380562986893
  0.5831565351908178  0.6627299795823316  0.4067587599651359
  0.5805182378220817  0.7870759899433293  0.4026203825534460
  0.5821851782050935  0.9142971330589948  0.4003190585032806
  0.7073737969059158  0.0396826541267242  0.3997985824086482
  0.7079576144400568  0.1652053186758162  0.3995420440856199
  0.7088871524774017  0.2906372574802411  0.3993379523111455
  0.7105762207902515  0.4160592573457073  0.3994258569030913
  0.7121548369949021  0.5415801288944248  0.3997036442265514
  0.7103173115778314  0.6663519038695414  0.4009931505116262
  0.7078464890178148  0.7898903077456894  0.4007711850286458
  0.7067727029832221  0.9140056380999303  0.4002857227172812
  0.8323865876392191  0.0401473479190243  0.3996728977686588
  0.8324379021111101  0.1652254263139085  0.3995509038861171
  0.8328658105195726  0.2905352940303113  0.3992924879196914
  0.8338802648455506  0.4160835290928260  0.3990006340429313
  0.8351189535722005  0.5417643693307782  0.3989221237824601
  0.8351480916695651  0.6673023514816141  0.3991647177096171
  0.8342538516711049  0.7919257181656708  0.3995688673400941
  0.8330605243950726  0.9159045974328408  0.3996926729312714
  0.9583480638381666  0.0417269516581024  0.3996323538510042
  0.9574437490983263  0.1659116056185369  0.3994561380158261
  0.9570034741737873  0.2906981977237589  0.3991810710053804
  0.9572123401978921  0.4161130360413598  0.3989826140625125
  0.9583987629774535  0.5418448175311877  0.3989718219272860
  0.9592453221523848  0.6675180733248435  0.3991684967100735
  0.9594446504135747  0.7928204968944575  0.3994304824409185
  0.9591545811934322  0.9175822409455665  0.3995889158072005
  0.4070638552059588  0.5816337066798171  0.4056075654852913
  0.4678877770381696  0.4183557136562264  0.4056497797822602
 
  0.00000000E+00  0.00000000E+00  0.00000000E+00
  0.00000000E+00  0.00000000E+00  0.00000000E+00
  0.00000000E+00  0.00000000E+00  0.00000000E+00
  0.00000000E+00  0.00000000E+00  0.00000000E+00
  0.00000000E+00  0.00000000E+00  0.00000000E+00
  0.00000000E+00  0.00000000E+00  0.00000000E+00
  0.00000000E+00  0.00000000E+00  0.00000000E+00
  0.00000000E+00  0.00000000E+00  0.00000000E+00
  0.00000000E+00  0.00000000E+00  0.00000000E+00
  0.00000000E+00  0.00000000E+00  0.00000000E+00
  0.00000000E+00  0.00000000E+00  0.00000000E+00
  0.00000000E+00  0.00000000E+00  0.00000000E+00
  0.00000000E+00  0.00000000E+00  0.00000000E+00
  0.00000000E+00  0.00000000E+00  0.00000000E+00
  0.00000000E+00  0.00000000E+00  0.00000000E+00
  0.00000000E+00  0.00000000E+00  0.00000000E+00
  0.00000000E+00  0.00000000E+00  0.00000000E+00
  0.00000000E+00  0.00000000E+00  0.00000000E+00
  0.00000000E+00  0.00000000E+00  0.00000000E+00
  0.00000000E+00  0.00000000E+00  0.00000000E+00
  0.00000000E+00  0.00000000E+00  0.00000000E+00
  0.00000000E+00  0.00000000E+00  0.00000000E+00
  0.00000000E+00  0.00000000E+00  0.00000000E+00
  0.00000000E+00  0.00000000E+00  0.00000000E+00
  0.00000000E+00  0.00000000E+00  0.00000000E+00
  0.00000000E+00  0.00000000E+00  0.00000000E+00
  0.00000000E+00  0.00000000E+00  0.00000000E+00
  0.00000000E+00  0.00000000E+00  0.00000000E+00
  0.00000000E+00  0.00000000E+00  0.00000000E+00
  0.00000000E+00  0.00000000E+00  0.00000000E+00
  0.00000000E+00  0.00000000E+00  0.00000000E+00
  0.00000000E+00  0.00000000E+00  0.00000000E+00
  0.00000000E+00  0.00000000E+00  0.00000000E+00
  0.00000000E+00  0.00000000E+00  0.00000000E+00
  0.00000000E+00  0.00000000E+00  0.00000000E+00
  0.00000000E+00  0.00000000E+00  0.00000000E+00
  0.00000000E+00  0.00000000E+00  0.00000000E+00
  0.00000000E+00  0.00000000E+00  0.00000000E+00
  0.00000000E+00  0.00000000E+00  0.00000000E+00
  0.00000000E+00  0.00000000E+00  0.00000000E+00
  0.00000000E+00  0.00000000E+00  0.00000000E+00
  0.00000000E+00  0.00000000E+00  0.00000000E+00
  0.00000000E+00  0.00000000E+00  0.00000000E+00
  0.00000000E+00  0.00000000E+00  0.00000000E+00
  0.00000000E+00  0.00000000E+00  0.00000000E+00
  0.00000000E+00  0.00000000E+00  0.00000000E+00
  0.00000000E+00  0.00000000E+00  0.00000000E+00
  0.00000000E+00  0.00000000E+00  0.00000000E+00
  0.00000000E+00  0.00000000E+00  0.00000000E+00
  0.00000000E+00  0.00000000E+00  0.00000000E+00
  0.00000000E+00  0.00000000E+00  0.00000000E+00
  0.00000000E+00  0.00000000E+00  0.00000000E+00
  0.00000000E+00  0.00000000E+00  0.00000000E+00
  0.00000000E+00  0.00000000E+00  0.00000000E+00
  0.00000000E+00  0.00000000E+00  0.00000000E+00
  0.00000000E+00  0.00000000E+00  0.00000000E+00
  0.00000000E+00  0.00000000E+00  0.00000000E+00
  0.00000000E+00  0.00000000E+00  0.00000000E+00
  0.00000000E+00  0.00000000E+00  0.00000000E+00
  0.00000000E+00  0.00000000E+00  0.00000000E+00
  0.00000000E+00  0.00000000E+00  0.00000000E+00
  0.00000000E+00  0.00000000E+00  0.00000000E+00
  0.00000000E+00  0.00000000E+00  0.00000000E+00
  0.00000000E+00  0.00000000E+00  0.00000000E+00
  0.00000000E+00  0.00000000E+00  0.00000000E+00
  0.00000000E+00  0.00000000E+00  0.00000000E+00
  0.00000000E+00  0.00000000E+00  0.00000000E+00
  0.00000000E+00  0.00000000E+00  0.00000000E+00
  0.00000000E+00  0.00000000E+00  0.00000000E+00
  0.00000000E+00  0.00000000E+00  0.00000000E+00
  0.00000000E+00  0.00000000E+00  0.00000000E+00
  0.00000000E+00  0.00000000E+00  0.00000000E+00
  0.00000000E+00  0.00000000E+00  0.00000000E+00
  0.00000000E+00  0.00000000E+00  0.00000000E+00
  0.00000000E+00  0.00000000E+00  0.00000000E+00
  0.00000000E+00  0.00000000E+00  0.00000000E+00
  0.00000000E+00  0.00000000E+00  0.00000000E+00
  0.00000000E+00  0.00000000E+00  0.00000000E+00
  0.00000000E+00  0.00000000E+00  0.00000000E+00
  0.00000000E+00  0.00000000E+00  0.00000000E+00
  0.00000000E+00  0.00000000E+00  0.00000000E+00
  0.00000000E+00  0.00000000E+00  0.00000000E+00
  0.00000000E+00  0.00000000E+00  0.00000000E+00
  0.00000000E+00  0.00000000E+00  0.00000000E+00
  0.00000000E+00  0.00000000E+00  0.00000000E+00
  0.00000000E+00  0.00000000E+00  0.00000000E+00
  0.00000000E+00  0.00000000E+00  0.00000000E+00
  0.00000000E+00  0.00000000E+00  0.00000000E+00
  0.00000000E+00  0.00000000E+00  0.00000000E+00
  0.00000000E+00  0.00000000E+00  0.00000000E+00
  0.00000000E+00  0.00000000E+00  0.00000000E+00
  0.00000000E+00  0.00000000E+00  0.00000000E+00
  0.00000000E+00  0.00000000E+00  0.00000000E+00
  0.00000000E+00  0.00000000E+00  0.00000000E+00
  0.00000000E+00  0.00000000E+00  0.00000000E+00
  0.00000000E+00  0.00000000E+00  0.00000000E+00
  0.00000000E+00  0.00000000E+00  0.00000000E+00
  0.00000000E+00  0.00000000E+00  0.00000000E+00
  0.00000000E+00  0.00000000E+00  0.00000000E+00
  0.00000000E+00  0.00000000E+00  0.00000000E+00
  0.00000000E+00  0.00000000E+00  0.00000000E+00
  0.00000000E+00  0.00000000E+00  0.00000000E+00
  0.00000000E+00  0.00000000E+00  0.00000000E+00
  0.00000000E+00  0.00000000E+00  0.00000000E+00
  0.00000000E+00  0.00000000E+00  0.00000000E+00
  0.00000000E+00  0.00000000E+00  0.00000000E+00
  0.00000000E+00  0.00000000E+00  0.00000000E+00
  0.00000000E+00  0.00000000E+00  0.00000000E+00
  0.00000000E+00  0.00000000E+00  0.00000000E+00
  0.00000000E+00  0.00000000E+00  0.00000000E+00
  0.00000000E+00  0.00000000E+00  0.00000000E+00
  0.00000000E+00  0.00000000E+00  0.00000000E+00
  0.00000000E+00  0.00000000E+00  0.00000000E+00
  0.00000000E+00  0.00000000E+00  0.00000000E+00
  0.00000000E+00  0.00000000E+00  0.00000000E+00
  0.00000000E+00  0.00000000E+00  0.00000000E+00
  0.00000000E+00  0.00000000E+00  0.00000000E+00
  0.00000000E+00  0.00000000E+00  0.00000000E+00
  0.00000000E+00  0.00000000E+00  0.00000000E+00
  0.00000000E+00  0.00000000E+00  0.00000000E+00
  0.00000000E+00  0.00000000E+00  0.00000000E+00
  0.00000000E+00  0.00000000E+00  0.00000000E+00
  0.00000000E+00  0.00000000E+00  0.00000000E+00
  0.00000000E+00  0.00000000E+00  0.00000000E+00
  0.00000000E+00  0.00000000E+00  0.00000000E+00
  0.00000000E+00  0.00000000E+00  0.00000000E+00
  0.00000000E+00  0.00000000E+00  0.00000000E+00
  0.00000000E+00  0.00000000E+00  0.00000000E+00
