Ta1 C125 N1                             
   1.00000000000000     
    19.8038124960975388   -0.0116601848814376    0.0059937017927785
    -9.9120457955655965   17.0719608199753097   -0.0059283225841123
     0.0090820011936430   -0.0051845524932686   29.7727127432180652
   Ta   C    N 
     1   125     1
Direct
  0.4386813534154674  0.4999526648033527  0.4310671483135465
  0.0419221414084383  0.0839550542643348  0.3999252205109273
  0.0415157985213707  0.2084975463484359  0.3997360534011199
  0.0409919326099465  0.3331786526175797  0.3998211160387657
  0.0408577879813213  0.4583329222115529  0.3998086917377432
  0.0413592294768127  0.5836626896944433  0.3999722294696119
  0.0418511840659819  0.7089359912190467  0.4000813159102840
  0.0420416463041046  0.8340840994045566  0.4000596210462866
  0.0420490003787981  0.9591293229840300  0.4000401203432982
  0.1673165593453600  0.0846476397902024  0.3998338031024458
  0.1673694922285190  0.2097728839591744  0.3995317601240188
  0.1663508191871082  0.3341421712676048  0.3998991409588684
  0.1650071615338913  0.4586329553754850  0.4001442664984394
  0.1654665837104251  0.5837744722581850  0.3996974220553756
  0.1662724672626573  0.7089115816842141  0.3998782132863841
  0.1667727121390855  0.8341158725266481  0.4000642844522909
  0.1670900064194840  0.9593801327045882  0.3999949140824346
  0.2922076808820284  0.0845492515045863  0.3998401293473229
  0.2927734692305548  0.2104606842865459  0.3998238373884819
  0.2931577325648464  0.3364788292192130  0.4003555593291959
  0.2896548128082217  0.4596776716319375  0.4020396994337304
  0.2892994010967168  0.5842639338109723  0.4006606873551656
  0.2907358612048335  0.7089104433982331  0.3996968063060403
  0.2914852176755205  0.8339063912487015  0.3998761706405542
  0.2918455577361021  0.9590687276362116  0.4000084301378986
  0.4169180894604813  0.0835883256003584  0.3998997507830162
  0.4173495549607232  0.2090368350139699  0.3995814004007960
  0.4184324294148155  0.3352200247577471  0.4011409859466383
  0.4150469523567972  0.7070957496186629  0.3999130487058807
  0.4160947267697576  0.8327919938237976  0.3996202300205183
  0.4165769521065175  0.9582157816578197  0.4000362224291799
  0.5416151881373134  0.0826787905472663  0.4000306623288389
  0.5420664746436360  0.2079101143628703  0.3996773548943358
  0.5428787304150535  0.3329688690516808  0.4002799331408571
  0.5451910476066034  0.4575177219892521  0.4028305999237297
  0.5435024103235387  0.5806536738069562  0.4017456701249123
  0.5388354111535638  0.7044699720632206  0.4007730609031639
  0.5406386073396232  0.8315888626560237  0.3998497146111921
  0.5412475555993861  0.9573174202459086  0.3999326173920846
  0.6663414945172867  0.0823309935243726  0.4000423193507112
  0.6667314602480490  0.2075679954542277  0.3999520373694114
  0.6674068683742113  0.3327926543307148  0.3997210404216020
  0.6689134582935733  0.4581457272423638  0.4002759937983426
  0.6694007861793373  0.5834236412010323  0.4005747733592113
  0.6661215985301665  0.7068287432049150  0.3995923474957991
  0.6651194830029132  0.8312582156889392  0.3998400750878113
  0.6658909031548618  0.9569758570226209  0.3999233461154668
  0.7911394996057162  0.0823776298927400  0.4000090802216657
  0.7913975034219052  0.2075437641571119  0.4000962999232635
  0.7918896165240378  0.3328233310158216  0.3999598069419364
  0.7926981089641449  0.4581835811821468  0.3996954512571019
  0.7931721576730645  0.5835087322221126  0.3997661191122484
  0.7924825499334132  0.7085376835479262  0.3996883180743363
  0.7912225260487458  0.8326507253989289  0.3997390879191662
  0.7908322915160451  0.9571972207159348  0.3999105710774441
  0.9162876607200786  0.0829066460061126  0.3999884987956277
  0.9162213843636667  0.2077744097018359  0.3999604943211388
  0.9163232938620723  0.3328955272800002  0.4000258504788393
  0.9167502825729983  0.4582249568045731  0.4000457804457426
  0.9172750545500750  0.5836093971678249  0.3999467262600402
  0.9172831153307197  0.7088342305583184  0.3998824337020114
  0.9170244815118802  0.8337479390470874  0.3999203779422022
  0.9165545011762160  0.9582989370871366  0.4000306436534399
  0.0838461383880381  0.0426359343569924  0.3999502128675492
  0.0837131628167006  0.1674688301988229  0.3997108193762085
  0.0829779895885259  0.2919086375586353  0.3997383871652375
  0.0821198471995824  0.4165764828465480  0.3997926692778212
  0.0824646123946625  0.5418332709486345  0.3997723518735688
  0.0831338162318080  0.6671546168843447  0.4000022759292594
  0.0835508647223287  0.7924198126376928  0.4000940488145180
  0.0837440163356879  0.9175675544718824  0.4000394925536887
  0.2088271362586444  0.0428175486580544  0.3998975616010293
  0.2091485944226155  0.1682236797721010  0.3996833925284347
  0.2091850555228789  0.2934861849717503  0.3995394064015886
  0.2066368613945802  0.4174639427778077  0.4006965230743151
  0.2063618730124795  0.5419325835083442  0.4000511036653513
  0.2074851510207284  0.6671696709604795  0.3997341052340835
  0.2082075375837199  0.7923874329056128  0.3999610195461880
  0.2085969270438152  0.9175827836091504  0.4000348654268370
  0.3336324535100854  0.0425082479027128  0.3999182186937849
  0.3340259484938280  0.1680089084914425  0.3997352624800997
  0.3346310611140649  0.2940409466901618  0.4005689455418653
  0.3329829048180979  0.4201539384578813  0.4029444542451760
  0.3304747239142027  0.5436259540833990  0.4024013511377016
  0.3318421805347149  0.6672547003599771  0.4000312734967393
  0.3329074121997455  0.7921248976311651  0.3996711612711963
  0.3333365367749530  0.9172232971198871  0.3999988923138138
  0.4583851464972214  0.0415895785576232  0.4000592035321457
  0.4587496780467769  0.1669375721745536  0.3996629827199525
  0.4594494970132085  0.2924563105656796  0.3999326830942932
  0.4626195825721876  0.4180782237197430  0.4044814045528627
  0.4550201216153045  0.6635079632579641  0.4013316885196967
  0.4574752806054047  0.7905894435983238  0.3995732005322299
  0.4579809879431360  0.9161994204677217  0.3998716380462263
  0.5830581957035293  0.0407816170918229  0.4000319432174283
  0.5834619693715866  0.1660593503176984  0.3998747283671191
  0.5841276268539999  0.2911310642422996  0.3997536211436309
  0.5860284453283957  0.4160952121652594  0.4012433209314606
  0.5870847872561087  0.5417103188749739  0.4016157574615518
  0.5818665941428762  0.6633884126797052  0.4002605654520292
  0.5812129105672517  0.7886995311646908  0.4000517138047899
  0.5826078876996216  0.9152608548081912  0.3998857467619447
  0.7077745766377067  0.0405117035241015  0.3999842055901695
  0.7081669016211987  0.1658058945955754  0.4000765568768858
  0.7086486820618630  0.2910273791349204  0.3998459797928161
  0.7097267545734027  0.4162963808231250  0.3996792477253056
  0.7105076430438380  0.5415872482127982  0.4002237130309715
  0.7092532815841679  0.6665652478396182  0.3997990136210137
  0.7075339323559395  0.7903043652516758  0.3996518338355889
  0.7071901631954636  0.9149561629653910  0.3998720174873168
  0.8327839686115076  0.0407942407418840  0.3999780761008593
  0.8329342663768646  0.1658803935414264  0.4000442171041816
  0.8331788354114226  0.2910273755697668  0.4000746186612026
  0.8337488185645625  0.4163158837595848  0.3999107887280779
  0.8343328048662478  0.5416931806113934  0.3997500869626567
  0.8342450178874580  0.6670278011067121  0.3997624081297241
  0.8336567431232021  0.7917737873537373  0.3997351231424919
  0.8329649096920220  0.9161248448175504  0.3999090117345724
  0.9583605220194502  0.0417740284457075  0.4000287576418251
  0.9580648493188438  0.1663931598823691  0.3999019065245392
  0.9578385512144255  0.2912368005107420  0.3999163022563715
  0.9578892008846340  0.4163902830279416  0.3999967843773019
  0.9583986204608537  0.5417525546337596  0.4000472266498342
  0.9587565902163302  0.6671147837420667  0.3999922594691331
  0.9588062034143496  0.7923149248292688  0.3999594319804843
  0.9586323787989340  0.9171692300639344  0.4000340913614743
  0.4111964480016669  0.5821943530250303  0.4044699825618731
 
  0.00000000E+00  0.00000000E+00  0.00000000E+00
  0.00000000E+00  0.00000000E+00  0.00000000E+00
  0.00000000E+00  0.00000000E+00  0.00000000E+00
  0.00000000E+00  0.00000000E+00  0.00000000E+00
  0.00000000E+00  0.00000000E+00  0.00000000E+00
  0.00000000E+00  0.00000000E+00  0.00000000E+00
  0.00000000E+00  0.00000000E+00  0.00000000E+00
  0.00000000E+00  0.00000000E+00  0.00000000E+00
  0.00000000E+00  0.00000000E+00  0.00000000E+00
  0.00000000E+00  0.00000000E+00  0.00000000E+00
  0.00000000E+00  0.00000000E+00  0.00000000E+00
  0.00000000E+00  0.00000000E+00  0.00000000E+00
  0.00000000E+00  0.00000000E+00  0.00000000E+00
  0.00000000E+00  0.00000000E+00  0.00000000E+00
  0.00000000E+00  0.00000000E+00  0.00000000E+00
  0.00000000E+00  0.00000000E+00  0.00000000E+00
  0.00000000E+00  0.00000000E+00  0.00000000E+00
  0.00000000E+00  0.00000000E+00  0.00000000E+00
  0.00000000E+00  0.00000000E+00  0.00000000E+00
  0.00000000E+00  0.00000000E+00  0.00000000E+00
  0.00000000E+00  0.00000000E+00  0.00000000E+00
  0.00000000E+00  0.00000000E+00  0.00000000E+00
  0.00000000E+00  0.00000000E+00  0.00000000E+00
  0.00000000E+00  0.00000000E+00  0.00000000E+00
  0.00000000E+00  0.00000000E+00  0.00000000E+00
  0.00000000E+00  0.00000000E+00  0.00000000E+00
  0.00000000E+00  0.00000000E+00  0.00000000E+00
  0.00000000E+00  0.00000000E+00  0.00000000E+00
  0.00000000E+00  0.00000000E+00  0.00000000E+00
  0.00000000E+00  0.00000000E+00  0.00000000E+00
  0.00000000E+00  0.00000000E+00  0.00000000E+00
  0.00000000E+00  0.00000000E+00  0.00000000E+00
  0.00000000E+00  0.00000000E+00  0.00000000E+00
  0.00000000E+00  0.00000000E+00  0.00000000E+00
  0.00000000E+00  0.00000000E+00  0.00000000E+00
  0.00000000E+00  0.00000000E+00  0.00000000E+00
  0.00000000E+00  0.00000000E+00  0.00000000E+00
  0.00000000E+00  0.00000000E+00  0.00000000E+00
  0.00000000E+00  0.00000000E+00  0.00000000E+00
  0.00000000E+00  0.00000000E+00  0.00000000E+00
  0.00000000E+00  0.00000000E+00  0.00000000E+00
  0.00000000E+00  0.00000000E+00  0.00000000E+00
  0.00000000E+00  0.00000000E+00  0.00000000E+00
  0.00000000E+00  0.00000000E+00  0.00000000E+00
  0.00000000E+00  0.00000000E+00  0.00000000E+00
  0.00000000E+00  0.00000000E+00  0.00000000E+00
  0.00000000E+00  0.00000000E+00  0.00000000E+00
  0.00000000E+00  0.00000000E+00  0.00000000E+00
  0.00000000E+00  0.00000000E+00  0.00000000E+00
  0.00000000E+00  0.00000000E+00  0.00000000E+00
  0.00000000E+00  0.00000000E+00  0.00000000E+00
  0.00000000E+00  0.00000000E+00  0.00000000E+00
  0.00000000E+00  0.00000000E+00  0.00000000E+00
  0.00000000E+00  0.00000000E+00  0.00000000E+00
  0.00000000E+00  0.00000000E+00  0.00000000E+00
  0.00000000E+00  0.00000000E+00  0.00000000E+00
  0.00000000E+00  0.00000000E+00  0.00000000E+00
  0.00000000E+00  0.00000000E+00  0.00000000E+00
  0.00000000E+00  0.00000000E+00  0.00000000E+00
  0.00000000E+00  0.00000000E+00  0.00000000E+00
  0.00000000E+00  0.00000000E+00  0.00000000E+00
  0.00000000E+00  0.00000000E+00  0.00000000E+00
  0.00000000E+00  0.00000000E+00  0.00000000E+00
  0.00000000E+00  0.00000000E+00  0.00000000E+00
  0.00000000E+00  0.00000000E+00  0.00000000E+00
  0.00000000E+00  0.00000000E+00  0.00000000E+00
  0.00000000E+00  0.00000000E+00  0.00000000E+00
  0.00000000E+00  0.00000000E+00  0.00000000E+00
  0.00000000E+00  0.00000000E+00  0.00000000E+00
  0.00000000E+00  0.00000000E+00  0.00000000E+00
  0.00000000E+00  0.00000000E+00  0.00000000E+00
  0.00000000E+00  0.00000000E+00  0.00000000E+00
  0.00000000E+00  0.00000000E+00  0.00000000E+00
  0.00000000E+00  0.00000000E+00  0.00000000E+00
  0.00000000E+00  0.00000000E+00  0.00000000E+00
  0.00000000E+00  0.00000000E+00  0.00000000E+00
  0.00000000E+00  0.00000000E+00  0.00000000E+00
  0.00000000E+00  0.00000000E+00  0.00000000E+00
  0.00000000E+00  0.00000000E+00  0.00000000E+00
  0.00000000E+00  0.00000000E+00  0.00000000E+00
  0.00000000E+00  0.00000000E+00  0.00000000E+00
  0.00000000E+00  0.00000000E+00  0.00000000E+00
  0.00000000E+00  0.00000000E+00  0.00000000E+00
  0.00000000E+00  0.00000000E+00  0.00000000E+00
  0.00000000E+00  0.00000000E+00  0.00000000E+00
  0.00000000E+00  0.00000000E+00  0.00000000E+00
  0.00000000E+00  0.00000000E+00  0.00000000E+00
  0.00000000E+00  0.00000000E+00  0.00000000E+00
  0.00000000E+00  0.00000000E+00  0.00000000E+00
  0.00000000E+00  0.00000000E+00  0.00000000E+00
  0.00000000E+00  0.00000000E+00  0.00000000E+00
  0.00000000E+00  0.00000000E+00  0.00000000E+00
  0.00000000E+00  0.00000000E+00  0.00000000E+00
  0.00000000E+00  0.00000000E+00  0.00000000E+00
  0.00000000E+00  0.00000000E+00  0.00000000E+00
  0.00000000E+00  0.00000000E+00  0.00000000E+00
  0.00000000E+00  0.00000000E+00  0.00000000E+00
  0.00000000E+00  0.00000000E+00  0.00000000E+00
  0.00000000E+00  0.00000000E+00  0.00000000E+00
  0.00000000E+00  0.00000000E+00  0.00000000E+00
  0.00000000E+00  0.00000000E+00  0.00000000E+00
  0.00000000E+00  0.00000000E+00  0.00000000E+00
  0.00000000E+00  0.00000000E+00  0.00000000E+00
  0.00000000E+00  0.00000000E+00  0.00000000E+00
  0.00000000E+00  0.00000000E+00  0.00000000E+00
  0.00000000E+00  0.00000000E+00  0.00000000E+00
  0.00000000E+00  0.00000000E+00  0.00000000E+00
  0.00000000E+00  0.00000000E+00  0.00000000E+00
  0.00000000E+00  0.00000000E+00  0.00000000E+00
  0.00000000E+00  0.00000000E+00  0.00000000E+00
  0.00000000E+00  0.00000000E+00  0.00000000E+00
  0.00000000E+00  0.00000000E+00  0.00000000E+00
  0.00000000E+00  0.00000000E+00  0.00000000E+00
  0.00000000E+00  0.00000000E+00  0.00000000E+00
  0.00000000E+00  0.00000000E+00  0.00000000E+00
  0.00000000E+00  0.00000000E+00  0.00000000E+00
  0.00000000E+00  0.00000000E+00  0.00000000E+00
  0.00000000E+00  0.00000000E+00  0.00000000E+00
  0.00000000E+00  0.00000000E+00  0.00000000E+00
  0.00000000E+00  0.00000000E+00  0.00000000E+00
  0.00000000E+00  0.00000000E+00  0.00000000E+00
  0.00000000E+00  0.00000000E+00  0.00000000E+00
  0.00000000E+00  0.00000000E+00  0.00000000E+00
  0.00000000E+00  0.00000000E+00  0.00000000E+00
  0.00000000E+00  0.00000000E+00  0.00000000E+00
  0.00000000E+00  0.00000000E+00  0.00000000E+00
  0.00000000E+00  0.00000000E+00  0.00000000E+00
