Cu1 H1 C122 N4 O1                       
   1.00000000000000     
    19.8093472530488235   -0.0028863596195374   -0.0338502942925252
    -9.9071142727651189   17.0286994374131631   -0.0202928652408985
    -0.0510118997150740   -0.0653103083032363   29.8325644677436266
   Cu   H    C    N    O 
     1     1   122     4     1
Direct
  0.4376748762597900  0.4997780964335790  0.4214138772675090
  0.4754021044389183  0.5481292177716666  0.4968684044851448
  0.0421742029689471  0.0842721713278287  0.4002305705133790
  0.0410172753100366  0.2082163086472355  0.4004365486904996
  0.0402294118050022  0.3328928315683468  0.4000439703500384
  0.0404492384456466  0.4582559167611900  0.3995263883985656
  0.0413685765550611  0.5838175341626806  0.3992641970079989
  0.0422065774164096  0.7093265854140731  0.3993208321393293
  0.0426047222014052  0.8347605748084279  0.3995177343544689
  0.0428050073577644  0.9600111465773347  0.3998359925247679
  0.1684340931644224  0.0863065590476466  0.4008962969689477
  0.1675278978752855  0.2105749076909837  0.4020205138758845
  0.1650967954594544  0.3337256756690570  0.4019523213304808
  0.1641544289660200  0.4584247363843259  0.4007474597770366
  0.1650934912017815  0.5836713391631216  0.4000884478936174
  0.1663877025744887  0.7091550680855131  0.3995549072102219
  0.1672383160203267  0.8347661357103420  0.3994690297733309
  0.1678210573998832  0.9605206647845348  0.3998571371016250
  0.2930009938326276  0.0863130791982412  0.4008554143379753
  0.2947182382969493  0.2142989574217441  0.4026868657337071
  0.2925704361445154  0.3395279402648316  0.4039785961915048
  0.2876759150187655  0.4574399331362238  0.4032207162094433
  0.2885209961848603  0.5831970223141424  0.4019212744061548
  0.2904708637977402  0.7085546366770805  0.4007571392257160
  0.2916456510873074  0.8341105293748037  0.3997571044191393
  0.2923336636115798  0.9600023400635028  0.3997768380009684
  0.4172380091144465  0.0842730184046644  0.4002733884430031
  0.4181650823759094  0.2105750587102969  0.4019917863589129
  0.4220729875385905  0.3395056700538043  0.4036303829641720
  0.4144414051049009  0.7059862613555071  0.4029457894566016
  0.4160408588438370  0.8323021332469268  0.4007239993858890
  0.4167229709208095  0.9583214510109873  0.3998147163472339
  0.5416355927064161  0.0824263114029895  0.3997936815137324
  0.5423178135242833  0.2082260199506935  0.4005055396704084
  0.5436975087818506  0.3336959532899169  0.4017026610531156
  0.5448029723379367  0.4574024805673378  0.4024626815656791
  0.5380156794766414  0.7009420785418606  0.4037003242695061
  0.5401733150478547  0.8297634712157927  0.4018561389219468
  0.5410776921487829  0.9564138213306853  0.4002084470130600
  0.6660382135093302  0.0816246205546068  0.3996657256246953
  0.6666436645326427  0.2073380669475135  0.3996037998803580
  0.6677146450112172  0.3328871033707669  0.3999929312463278
  0.6693482726152278  0.4584062154275442  0.4004450051239880
  0.6697233827340247  0.5831663046980673  0.4015284471432295
  0.6666472981220767  0.7059857882288473  0.4028713564952996
  0.6647063976493830  0.8297695069893491  0.4018566362557127
  0.6654884382208353  0.9558525987079479  0.4003958857192249
  0.7907093938780527  0.0816149539558215  0.3996362725551132
  0.7910907903667762  0.2070920804428104  0.3993938941401381
  0.7917901756856530  0.3326447769747589  0.3992965960039627
  0.7928430341380749  0.4582485668480019  0.3994532349456602
  0.7936262492978097  0.5836533071589775  0.3999284365652864
  0.7931446278606087  0.7085719537031309  0.4007159317498754
  0.7913694089751815  0.8323045702897214  0.4007986703469151
  0.7904556187658436  0.9564181843242722  0.4002065680430571
  0.9159201502142753  0.0824369049705940  0.3997249564853405
  0.9157729506412819  0.2073441103618811  0.3995266194776743
  0.9159439941656493  0.3326592543559761  0.3992735874649440
  0.9166170268444152  0.4581901006610177  0.3991388634775269
  0.9174884854271789  0.5838219248460700  0.3992365808077160
  0.9178289232524870  0.7091596459644048  0.3995675586175002
  0.9175568700991057  0.8341132526117824  0.3998658354273900
  0.9167382112604963  0.9583274131083839  0.3998704014616636
  0.0847213970121416  0.0436998634903436  0.4002871985193147
  0.0838001932482091  0.1678019628662034  0.4008102352115835
  0.0819767524575344  0.2915422709848549  0.4007642262573429
  0.0814621575829965  0.4164182249575254  0.4000705180232142
  0.0822292807835895  0.5418450758852377  0.3995383045954500
  0.0833134811092917  0.6674281894454528  0.3993227113582249
  0.0840306882857554  0.7929870018700662  0.3994252659772037
  0.0844488134821950  0.9184667109151708  0.3996920233715590
  0.2096744194872062  0.0442339896314691  0.4004851579289180
  0.2104822851255540  0.1703712531096779  0.4019757582478043
  0.2085219649061115  0.2941433162975366  0.4030012426475248
  0.2053747347892349  0.4169059580699888  0.4018567610990504
  0.2057626995236329  0.5416806305016848  0.4007622996736431
  0.2073616167066293  0.6671985640374437  0.4000696104735060
  0.2084618352380721  0.7927473787840402  0.3995413546352437
  0.2091287699656888  0.9184756505692163  0.3996612467832258
  0.3340898926408657  0.0436867681070598  0.4002525489364688
  0.3349987526827698  0.1703652335726739  0.4019227557137950
  0.3371512412079606  0.2991787499978578  0.4036354499674010
  0.3302769212662152  0.5426500919162515  0.4032898521030147
  0.3314145537320516  0.6663991919311149  0.4019580703420555
  0.3328312270795065  0.7918829122381355  0.4003895618432871
  0.3335363678192483  0.9176690718463090  0.3997115413216309
  0.4584681780216822  0.0417912795236463  0.3998667462185995
  0.4591285175691012  0.1678196775857020  0.4008770454319520
  0.4607152044677595  0.2941244213749715  0.4028216159134085
  0.4530961850707547  0.6605959709383098  0.4040172490807755
  0.4570037350347132  0.7895405396046024  0.4019047236651530
  0.4579453090693913  0.9158386859328707  0.4001629454033053
  0.5828338489664487  0.0400818305747657  0.3997991770938170
  0.5834875841047584  0.1659832834748758  0.3998823644457442
  0.5846185442174681  0.2915288611941574  0.4006937157787593
  0.5865974443279155  0.4168845884858506  0.4014268841355745
  0.5874191231434859  0.5426001143153319  0.4026544189682618
  0.5826141508718398  0.6606059571424814  0.4038687560639568
  0.5804743513696360  0.7858505087975263  0.4026320982731179
  0.5821685890273161  0.9138032756583339  0.4007818470827507
  0.7073473875940991  0.0395750375095708  0.3998120815605948
  0.7078770493181783  0.1653259719396142  0.3994917721604302
  0.7087021332213138  0.2909221605701526  0.3995571468247475
  0.7099930913353218  0.4164079811936471  0.3999324822488359
  0.7109517732257860  0.5416523875258054  0.4004568298966857
  0.7100273050416520  0.6663753051135454  0.4017929712437396
  0.7076432451577209  0.7895350291185067  0.4019209257195876
  0.7067424780961618  0.9138092795680997  0.4007653947001497
  0.8323866470631105  0.0400994809581064  0.3997577884002521
  0.8325125591065281  0.1653138260860627  0.3994499046264073
  0.8329160684576742  0.2907469972740460  0.3992731113502229
  0.8337031951240559  0.4162607881754304  0.3992248011200071
  0.8346259804131594  0.5418219361364062  0.3994554247438808
  0.8348687966833451  0.6671912416513825  0.4000047532658292
  0.8341287229783887  0.7918771234367569  0.4004717416823627
  0.8330103201151816  0.9158437885284525  0.4002248423627013
  0.9584590974887104  0.0417963566004163  0.3998478660097497
  0.9575950738699480  0.1659973251827495  0.3997842372748336
  0.9572657041627514  0.2909271036338971  0.3995163062220655
  0.9575840628372448  0.4162599247810422  0.3992363994525413
  0.9584595038090729  0.5418913583480867  0.3991509899649655
  0.9591728179061147  0.6674393323191420  0.3993224701372870
  0.9593454216294146  0.7927487795920379  0.3996115418780489
  0.9592525745998037  0.9176646853548683  0.3997893920032687
  0.4091932736117161  0.5806546953956986  0.4045926339928179
  0.5465830843968043  0.5806615887140912  0.4041618521965979
  0.3285360607045435  0.4194349895872070  0.4044583407091780
  0.4659459056703031  0.4193691871500589  0.4035744206938855
  0.4383912104022618  0.4959974398841854  0.4852023847633976
 
  0.00000000E+00  0.00000000E+00  0.00000000E+00
  0.00000000E+00  0.00000000E+00  0.00000000E+00
  0.00000000E+00  0.00000000E+00  0.00000000E+00
  0.00000000E+00  0.00000000E+00  0.00000000E+00
  0.00000000E+00  0.00000000E+00  0.00000000E+00
  0.00000000E+00  0.00000000E+00  0.00000000E+00
  0.00000000E+00  0.00000000E+00  0.00000000E+00
  0.00000000E+00  0.00000000E+00  0.00000000E+00
  0.00000000E+00  0.00000000E+00  0.00000000E+00
  0.00000000E+00  0.00000000E+00  0.00000000E+00
  0.00000000E+00  0.00000000E+00  0.00000000E+00
  0.00000000E+00  0.00000000E+00  0.00000000E+00
  0.00000000E+00  0.00000000E+00  0.00000000E+00
  0.00000000E+00  0.00000000E+00  0.00000000E+00
  0.00000000E+00  0.00000000E+00  0.00000000E+00
  0.00000000E+00  0.00000000E+00  0.00000000E+00
  0.00000000E+00  0.00000000E+00  0.00000000E+00
  0.00000000E+00  0.00000000E+00  0.00000000E+00
  0.00000000E+00  0.00000000E+00  0.00000000E+00
  0.00000000E+00  0.00000000E+00  0.00000000E+00
  0.00000000E+00  0.00000000E+00  0.00000000E+00
  0.00000000E+00  0.00000000E+00  0.00000000E+00
  0.00000000E+00  0.00000000E+00  0.00000000E+00
  0.00000000E+00  0.00000000E+00  0.00000000E+00
  0.00000000E+00  0.00000000E+00  0.00000000E+00
  0.00000000E+00  0.00000000E+00  0.00000000E+00
  0.00000000E+00  0.00000000E+00  0.00000000E+00
  0.00000000E+00  0.00000000E+00  0.00000000E+00
  0.00000000E+00  0.00000000E+00  0.00000000E+00
  0.00000000E+00  0.00000000E+00  0.00000000E+00
  0.00000000E+00  0.00000000E+00  0.00000000E+00
  0.00000000E+00  0.00000000E+00  0.00000000E+00
  0.00000000E+00  0.00000000E+00  0.00000000E+00
  0.00000000E+00  0.00000000E+00  0.00000000E+00
  0.00000000E+00  0.00000000E+00  0.00000000E+00
  0.00000000E+00  0.00000000E+00  0.00000000E+00
  0.00000000E+00  0.00000000E+00  0.00000000E+00
  0.00000000E+00  0.00000000E+00  0.00000000E+00
  0.00000000E+00  0.00000000E+00  0.00000000E+00
  0.00000000E+00  0.00000000E+00  0.00000000E+00
  0.00000000E+00  0.00000000E+00  0.00000000E+00
  0.00000000E+00  0.00000000E+00  0.00000000E+00
  0.00000000E+00  0.00000000E+00  0.00000000E+00
  0.00000000E+00  0.00000000E+00  0.00000000E+00
  0.00000000E+00  0.00000000E+00  0.00000000E+00
  0.00000000E+00  0.00000000E+00  0.00000000E+00
  0.00000000E+00  0.00000000E+00  0.00000000E+00
  0.00000000E+00  0.00000000E+00  0.00000000E+00
  0.00000000E+00  0.00000000E+00  0.00000000E+00
  0.00000000E+00  0.00000000E+00  0.00000000E+00
  0.00000000E+00  0.00000000E+00  0.00000000E+00
  0.00000000E+00  0.00000000E+00  0.00000000E+00
  0.00000000E+00  0.00000000E+00  0.00000000E+00
  0.00000000E+00  0.00000000E+00  0.00000000E+00
  0.00000000E+00  0.00000000E+00  0.00000000E+00
  0.00000000E+00  0.00000000E+00  0.00000000E+00
  0.00000000E+00  0.00000000E+00  0.00000000E+00
  0.00000000E+00  0.00000000E+00  0.00000000E+00
  0.00000000E+00  0.00000000E+00  0.00000000E+00
  0.00000000E+00  0.00000000E+00  0.00000000E+00
  0.00000000E+00  0.00000000E+00  0.00000000E+00
  0.00000000E+00  0.00000000E+00  0.00000000E+00
  0.00000000E+00  0.00000000E+00  0.00000000E+00
  0.00000000E+00  0.00000000E+00  0.00000000E+00
  0.00000000E+00  0.00000000E+00  0.00000000E+00
  0.00000000E+00  0.00000000E+00  0.00000000E+00
  0.00000000E+00  0.00000000E+00  0.00000000E+00
  0.00000000E+00  0.00000000E+00  0.00000000E+00
  0.00000000E+00  0.00000000E+00  0.00000000E+00
  0.00000000E+00  0.00000000E+00  0.00000000E+00
  0.00000000E+00  0.00000000E+00  0.00000000E+00
  0.00000000E+00  0.00000000E+00  0.00000000E+00
  0.00000000E+00  0.00000000E+00  0.00000000E+00
  0.00000000E+00  0.00000000E+00  0.00000000E+00
  0.00000000E+00  0.00000000E+00  0.00000000E+00
  0.00000000E+00  0.00000000E+00  0.00000000E+00
  0.00000000E+00  0.00000000E+00  0.00000000E+00
  0.00000000E+00  0.00000000E+00  0.00000000E+00
  0.00000000E+00  0.00000000E+00  0.00000000E+00
  0.00000000E+00  0.00000000E+00  0.00000000E+00
  0.00000000E+00  0.00000000E+00  0.00000000E+00
  0.00000000E+00  0.00000000E+00  0.00000000E+00
  0.00000000E+00  0.00000000E+00  0.00000000E+00
  0.00000000E+00  0.00000000E+00  0.00000000E+00
  0.00000000E+00  0.00000000E+00  0.00000000E+00
  0.00000000E+00  0.00000000E+00  0.00000000E+00
  0.00000000E+00  0.00000000E+00  0.00000000E+00
  0.00000000E+00  0.00000000E+00  0.00000000E+00
  0.00000000E+00  0.00000000E+00  0.00000000E+00
  0.00000000E+00  0.00000000E+00  0.00000000E+00
  0.00000000E+00  0.00000000E+00  0.00000000E+00
  0.00000000E+00  0.00000000E+00  0.00000000E+00
  0.00000000E+00  0.00000000E+00  0.00000000E+00
  0.00000000E+00  0.00000000E+00  0.00000000E+00
  0.00000000E+00  0.00000000E+00  0.00000000E+00
  0.00000000E+00  0.00000000E+00  0.00000000E+00
  0.00000000E+00  0.00000000E+00  0.00000000E+00
  0.00000000E+00  0.00000000E+00  0.00000000E+00
  0.00000000E+00  0.00000000E+00  0.00000000E+00
  0.00000000E+00  0.00000000E+00  0.00000000E+00
  0.00000000E+00  0.00000000E+00  0.00000000E+00
  0.00000000E+00  0.00000000E+00  0.00000000E+00
  0.00000000E+00  0.00000000E+00  0.00000000E+00
  0.00000000E+00  0.00000000E+00  0.00000000E+00
  0.00000000E+00  0.00000000E+00  0.00000000E+00
  0.00000000E+00  0.00000000E+00  0.00000000E+00
  0.00000000E+00  0.00000000E+00  0.00000000E+00
  0.00000000E+00  0.00000000E+00  0.00000000E+00
  0.00000000E+00  0.00000000E+00  0.00000000E+00
  0.00000000E+00  0.00000000E+00  0.00000000E+00
  0.00000000E+00  0.00000000E+00  0.00000000E+00
  0.00000000E+00  0.00000000E+00  0.00000000E+00
  0.00000000E+00  0.00000000E+00  0.00000000E+00
  0.00000000E+00  0.00000000E+00  0.00000000E+00
  0.00000000E+00  0.00000000E+00  0.00000000E+00
  0.00000000E+00  0.00000000E+00  0.00000000E+00
  0.00000000E+00  0.00000000E+00  0.00000000E+00
  0.00000000E+00  0.00000000E+00  0.00000000E+00
  0.00000000E+00  0.00000000E+00  0.00000000E+00
  0.00000000E+00  0.00000000E+00  0.00000000E+00
  0.00000000E+00  0.00000000E+00  0.00000000E+00
  0.00000000E+00  0.00000000E+00  0.00000000E+00
  0.00000000E+00  0.00000000E+00  0.00000000E+00
  0.00000000E+00  0.00000000E+00  0.00000000E+00
  0.00000000E+00  0.00000000E+00  0.00000000E+00
  0.00000000E+00  0.00000000E+00  0.00000000E+00
  0.00000000E+00  0.00000000E+00  0.00000000E+00
  0.00000000E+00  0.00000000E+00  0.00000000E+00
  0.00000000E+00  0.00000000E+00  0.00000000E+00
