Mn1 H1 C124 N2 O2                       
   1.00000000000000     
    19.7874586434264685   -0.0273839799182912    0.2041115247100820
    -9.9170970252639723   17.0489957255842981   -0.1278528996250675
     0.3077312165883651   -0.0444989976187208   29.8545229453598253
   Mn   H    C    N    O 
     1     1   124     2     2
Direct
  0.4366726943362631  0.5010303731121072  0.4236792792273999
  0.5298732314024298  0.5417776760880847  0.5249871019752606
  0.0422276384944011  0.0842877997042849  0.3997875133004425
  0.0419086823966945  0.2087920914541694  0.3994847158803093
  0.0413101396733125  0.3333205720563059  0.3992327525848126
  0.0408987764035538  0.4583620582870633  0.3991829985882357
  0.0411494291934432  0.5836330392346409  0.3992601516579677
  0.0414879678223984  0.7088554991065449  0.3993896771996449
  0.0416849491735310  0.8340469148093451  0.3995004149421392
  0.0419835779419767  0.9592939242740292  0.3996841813743007
  0.1679303273255614  0.0855625968887065  0.4003363644374897
  0.1683900779118719  0.2108964968177608  0.4002869307389648
  0.1670056393019016  0.3346570126568005  0.3996294663000495
  0.1651768813711980  0.4588742690475434  0.3997433266474923
  0.1653183560825081  0.5837678935676857  0.3995378527685871
  0.1660294501051450  0.7089175271273415  0.3995317244330893
  0.1665594854835392  0.8341856549985014  0.3997100582117463
  0.1670368189094683  0.9596284346824293  0.3999952279011583
  0.2923656537720420  0.0851168374415177  0.4005974893040387
  0.2942319111779205  0.2123502765896760  0.4018027000785113
  0.2952781087314672  0.3391826365520832  0.4011256376814176
  0.2900729009666708  0.4604198410174750  0.4001154247170181
  0.2891826921330860  0.5845165145595418  0.4006720226351459
  0.2904455851403994  0.7090259520771320  0.4001186274882390
  0.2913097847888355  0.8340190903003075  0.3997692033947581
  0.2917388480179887  0.9592724064377764  0.3999199097354965
  0.4168453458282165  0.0838541730641373  0.4000165725229079
  0.4175231009586942  0.2098009986194057  0.4012050553592902
  0.4206482906105268  0.3378151241414451  0.4047532518801720
  0.4145241753914428  0.7068388340112423  0.4013799672137390
  0.4159104218673518  0.8327303034148958  0.4001551822579725
  0.4164200814795130  0.9583042797445793  0.3997847715374662
  0.5414838086931633  0.0826404989696592  0.3997721036378592
  0.5419591466819509  0.2078291445434006  0.4002543540796718
  0.5430155977891393  0.3326783366382647  0.4018258949150745
  0.5437842031489464  0.4560125081563410  0.4036972025263653
  0.5408670982274452  0.5776740625842544  0.4029818091010219
  0.5377646734321853  0.7033210893766408  0.4027300897059611
  0.5401928791388908  0.8310901876580650  0.4010471230403728
  0.5410853073943699  0.9571744379642276  0.4000685530612576
  0.6662284336243188  0.0822317143767841  0.3999434169735815
  0.6666717685223970  0.2075418474241043  0.3998031440181796
  0.6673606601318666  0.3327350392583179  0.4001011495838855
  0.6682654584412756  0.4578500856862123  0.4003517381472983
  0.6675145275917891  0.5819684208775627  0.4004201738916244
  0.6641695710764907  0.7050982285233659  0.4005775449441732
  0.6643618084364303  0.8304653561067966  0.4009091023827511
  0.6656935325812084  0.9566857260140401  0.4004223241511467
  0.7911430688735960  0.0823262981111232  0.3998125685413166
  0.7914329711457501  0.2075482402487480  0.3995679800387439
  0.7918432301013643  0.3328120136615626  0.3995006625870508
  0.7923253380576308  0.4580680334783001  0.3995533205200890
  0.7924007911756890  0.5831666761840051  0.3995773717228996
  0.7912487277186832  0.7077150001153366  0.3996431818334618
  0.7902725172611222  0.8318690154160445  0.3999820675296620
  0.7905465532754035  0.9569057858646643  0.4000792380127635
  0.9163644371070315  0.0829400791840092  0.3996218106475845
  0.9164406578518015  0.2078917192490418  0.3993795034577536
  0.9164325175724657  0.3329789253085939  0.3992406482989039
  0.9165791407482159  0.4581822957886937  0.3992360477303855
  0.9168277925989281  0.5834773894555157  0.3993182563920810
  0.9166387835051574  0.7085424822613814  0.3993736967637444
  0.9164147725649961  0.8334106984587596  0.3994789233663300
  0.9162670475162176  0.9581149859294444  0.3996676243943899
  0.0841804555962702  0.0430892016953616  0.3999086979117496
  0.0844098808741588  0.1680837837123360  0.3998506471215487
  0.0833990499858029  0.2921899490048128  0.3993737681784348
  0.0823196648329090  0.4167868035744504  0.3993122363731125
  0.0823315771232028  0.5418506972335818  0.3992595748981076
  0.0828297665639523  0.6671334893905111  0.3993626624593162
  0.0832666743727022  0.7923970784678930  0.3995469727979634
  0.0835787124548161  0.9176773193946612  0.3997102642083377
  0.2090249706805613  0.0433386144342757  0.4003588222076712
  0.2103046470244641  0.1695700257891299  0.4007667405797671
  0.2104998778507268  0.2948817875832688  0.4001265422189844
  0.2071087548557247  0.4179273366118951  0.3998757428108888
  0.2062883026885315  0.5420963892718303  0.3998479330606917
  0.2072598967979426  0.6672190338877984  0.3997045787752119
  0.2079918699745115  0.7924300070837066  0.3996819356964905
  0.2084440751837782  0.9177501765839714  0.3999101899506055
  0.3335588909517860  0.0428355955968835  0.4001488314850617
  0.3344177311124493  0.1689661564174877  0.4013347680278878
  0.3368496249421089  0.2967346905105704  0.4030522762725587
  0.3343349195604584  0.4224742201864275  0.4003717895355814
  0.3305974556347405  0.5440469087402355  0.4015630358957203
  0.3315341512397419  0.6673715004596306  0.4008217567612896
  0.3326673113150393  0.7921957279092346  0.3999846585674106
  0.3331828667631808  0.9173804197951897  0.3997936214271024
  0.4582235898846448  0.0417333966347074  0.3997916551396178
  0.4587127266231444  0.1673501091203851  0.4003696801371244
  0.4599998877117035  0.2934192522901119  0.4024617003582728
  0.4537162305622600  0.6624118110842943  0.4032075829343296
  0.4570779910913098  0.7903859318003896  0.4007596035878599
  0.4578045992757087  0.9162013870050766  0.3999326171453801
  0.5829351751846739  0.0407359194441996  0.3998972545263004
  0.5833385659410169  0.1660053612367656  0.3998687092401502
  0.5841258362130609  0.2910097074616728  0.4006641540259749
  0.5852563941041640  0.4155066952249087  0.4017726254325102
  0.5846094826542874  0.5392875580352959  0.4017983407062135
  0.5794032471438434  0.6609782899998757  0.4018306525388785
  0.5803883957850740  0.7877298751788194  0.4016474407901397
  0.5823025918983591  0.9149125258040681  0.4005044479364386
  0.7076768867323625  0.0403845188798119  0.4000669528068381
  0.7081086852109786  0.1657811426149157  0.3997825604259281
  0.7086220553316828  0.2910552520226828  0.3997695569388144
  0.7093005673731868  0.4161661939623097  0.3999197001911182
  0.7094918919411947  0.5410511050152719  0.4000546245431084
  0.7076748984316698  0.6652544263292972  0.4000858368959624
  0.7062685996976082  0.7891100555845830  0.4004787752732084
  0.7067914060097420  0.9144907588457116  0.4004844665852957
  0.8327368476222449  0.0407105255786065  0.3998201814705595
  0.8330142518229472  0.1659285260294473  0.3995479443003107
  0.8332070145689220  0.2910945342911563  0.3994042578672347
  0.8335278498516856  0.4163068170054591  0.3994229649752046
  0.8337986760381908  0.5415685101132499  0.3994666444380903
  0.8334012727625832  0.6666109410503502  0.3994647558366373
  0.8327797130036346  0.7911435869631116  0.3996391140075409
  0.8324562882201950  0.9156510480402122  0.3999118989655522
  0.9584060995899992  0.0418154709254050  0.3996476827298006
  0.9582803792751772  0.1665412813198321  0.3994647768595428
  0.9580657892395700  0.2914275335561936  0.3992453407942603
  0.9578796118346304  0.4164566813876743  0.3991553954881686
  0.9581166249205828  0.5417429176492502  0.3992248080743584
  0.9582757624939292  0.6669929937118340  0.3993469938659474
  0.9582825666296612  0.7920774241705141  0.3994064103721617
  0.9583584050402559  0.9170154303531773  0.3995612881352579
  0.4103041727163725  0.5816945339397810  0.4047311220073260
  0.4638410242962712  0.4187641559069178  0.4077378429821089
  0.4981717673185055  0.4936945243238396  0.5076725199867761
  0.4506732033941482  0.5174369520158990  0.4829268914895374
 
  0.00000000E+00  0.00000000E+00  0.00000000E+00
  0.00000000E+00  0.00000000E+00  0.00000000E+00
  0.00000000E+00  0.00000000E+00  0.00000000E+00
  0.00000000E+00  0.00000000E+00  0.00000000E+00
  0.00000000E+00  0.00000000E+00  0.00000000E+00
  0.00000000E+00  0.00000000E+00  0.00000000E+00
  0.00000000E+00  0.00000000E+00  0.00000000E+00
  0.00000000E+00  0.00000000E+00  0.00000000E+00
  0.00000000E+00  0.00000000E+00  0.00000000E+00
  0.00000000E+00  0.00000000E+00  0.00000000E+00
  0.00000000E+00  0.00000000E+00  0.00000000E+00
  0.00000000E+00  0.00000000E+00  0.00000000E+00
  0.00000000E+00  0.00000000E+00  0.00000000E+00
  0.00000000E+00  0.00000000E+00  0.00000000E+00
  0.00000000E+00  0.00000000E+00  0.00000000E+00
  0.00000000E+00  0.00000000E+00  0.00000000E+00
  0.00000000E+00  0.00000000E+00  0.00000000E+00
  0.00000000E+00  0.00000000E+00  0.00000000E+00
  0.00000000E+00  0.00000000E+00  0.00000000E+00
  0.00000000E+00  0.00000000E+00  0.00000000E+00
  0.00000000E+00  0.00000000E+00  0.00000000E+00
  0.00000000E+00  0.00000000E+00  0.00000000E+00
  0.00000000E+00  0.00000000E+00  0.00000000E+00
  0.00000000E+00  0.00000000E+00  0.00000000E+00
  0.00000000E+00  0.00000000E+00  0.00000000E+00
  0.00000000E+00  0.00000000E+00  0.00000000E+00
  0.00000000E+00  0.00000000E+00  0.00000000E+00
  0.00000000E+00  0.00000000E+00  0.00000000E+00
  0.00000000E+00  0.00000000E+00  0.00000000E+00
  0.00000000E+00  0.00000000E+00  0.00000000E+00
  0.00000000E+00  0.00000000E+00  0.00000000E+00
  0.00000000E+00  0.00000000E+00  0.00000000E+00
  0.00000000E+00  0.00000000E+00  0.00000000E+00
  0.00000000E+00  0.00000000E+00  0.00000000E+00
  0.00000000E+00  0.00000000E+00  0.00000000E+00
  0.00000000E+00  0.00000000E+00  0.00000000E+00
  0.00000000E+00  0.00000000E+00  0.00000000E+00
  0.00000000E+00  0.00000000E+00  0.00000000E+00
  0.00000000E+00  0.00000000E+00  0.00000000E+00
  0.00000000E+00  0.00000000E+00  0.00000000E+00
  0.00000000E+00  0.00000000E+00  0.00000000E+00
  0.00000000E+00  0.00000000E+00  0.00000000E+00
  0.00000000E+00  0.00000000E+00  0.00000000E+00
  0.00000000E+00  0.00000000E+00  0.00000000E+00
  0.00000000E+00  0.00000000E+00  0.00000000E+00
  0.00000000E+00  0.00000000E+00  0.00000000E+00
  0.00000000E+00  0.00000000E+00  0.00000000E+00
  0.00000000E+00  0.00000000E+00  0.00000000E+00
  0.00000000E+00  0.00000000E+00  0.00000000E+00
  0.00000000E+00  0.00000000E+00  0.00000000E+00
  0.00000000E+00  0.00000000E+00  0.00000000E+00
  0.00000000E+00  0.00000000E+00  0.00000000E+00
  0.00000000E+00  0.00000000E+00  0.00000000E+00
  0.00000000E+00  0.00000000E+00  0.00000000E+00
  0.00000000E+00  0.00000000E+00  0.00000000E+00
  0.00000000E+00  0.00000000E+00  0.00000000E+00
  0.00000000E+00  0.00000000E+00  0.00000000E+00
  0.00000000E+00  0.00000000E+00  0.00000000E+00
  0.00000000E+00  0.00000000E+00  0.00000000E+00
  0.00000000E+00  0.00000000E+00  0.00000000E+00
  0.00000000E+00  0.00000000E+00  0.00000000E+00
  0.00000000E+00  0.00000000E+00  0.00000000E+00
  0.00000000E+00  0.00000000E+00  0.00000000E+00
  0.00000000E+00  0.00000000E+00  0.00000000E+00
  0.00000000E+00  0.00000000E+00  0.00000000E+00
  0.00000000E+00  0.00000000E+00  0.00000000E+00
  0.00000000E+00  0.00000000E+00  0.00000000E+00
  0.00000000E+00  0.00000000E+00  0.00000000E+00
  0.00000000E+00  0.00000000E+00  0.00000000E+00
  0.00000000E+00  0.00000000E+00  0.00000000E+00
  0.00000000E+00  0.00000000E+00  0.00000000E+00
  0.00000000E+00  0.00000000E+00  0.00000000E+00
  0.00000000E+00  0.00000000E+00  0.00000000E+00
  0.00000000E+00  0.00000000E+00  0.00000000E+00
  0.00000000E+00  0.00000000E+00  0.00000000E+00
  0.00000000E+00  0.00000000E+00  0.00000000E+00
  0.00000000E+00  0.00000000E+00  0.00000000E+00
  0.00000000E+00  0.00000000E+00  0.00000000E+00
  0.00000000E+00  0.00000000E+00  0.00000000E+00
  0.00000000E+00  0.00000000E+00  0.00000000E+00
  0.00000000E+00  0.00000000E+00  0.00000000E+00
  0.00000000E+00  0.00000000E+00  0.00000000E+00
  0.00000000E+00  0.00000000E+00  0.00000000E+00
  0.00000000E+00  0.00000000E+00  0.00000000E+00
  0.00000000E+00  0.00000000E+00  0.00000000E+00
  0.00000000E+00  0.00000000E+00  0.00000000E+00
  0.00000000E+00  0.00000000E+00  0.00000000E+00
  0.00000000E+00  0.00000000E+00  0.00000000E+00
  0.00000000E+00  0.00000000E+00  0.00000000E+00
  0.00000000E+00  0.00000000E+00  0.00000000E+00
  0.00000000E+00  0.00000000E+00  0.00000000E+00
  0.00000000E+00  0.00000000E+00  0.00000000E+00
  0.00000000E+00  0.00000000E+00  0.00000000E+00
  0.00000000E+00  0.00000000E+00  0.00000000E+00
  0.00000000E+00  0.00000000E+00  0.00000000E+00
  0.00000000E+00  0.00000000E+00  0.00000000E+00
  0.00000000E+00  0.00000000E+00  0.00000000E+00
  0.00000000E+00  0.00000000E+00  0.00000000E+00
  0.00000000E+00  0.00000000E+00  0.00000000E+00
  0.00000000E+00  0.00000000E+00  0.00000000E+00
  0.00000000E+00  0.00000000E+00  0.00000000E+00
  0.00000000E+00  0.00000000E+00  0.00000000E+00
  0.00000000E+00  0.00000000E+00  0.00000000E+00
  0.00000000E+00  0.00000000E+00  0.00000000E+00
  0.00000000E+00  0.00000000E+00  0.00000000E+00
  0.00000000E+00  0.00000000E+00  0.00000000E+00
  0.00000000E+00  0.00000000E+00  0.00000000E+00
  0.00000000E+00  0.00000000E+00  0.00000000E+00
  0.00000000E+00  0.00000000E+00  0.00000000E+00
  0.00000000E+00  0.00000000E+00  0.00000000E+00
  0.00000000E+00  0.00000000E+00  0.00000000E+00
  0.00000000E+00  0.00000000E+00  0.00000000E+00
  0.00000000E+00  0.00000000E+00  0.00000000E+00
  0.00000000E+00  0.00000000E+00  0.00000000E+00
  0.00000000E+00  0.00000000E+00  0.00000000E+00
  0.00000000E+00  0.00000000E+00  0.00000000E+00
  0.00000000E+00  0.00000000E+00  0.00000000E+00
  0.00000000E+00  0.00000000E+00  0.00000000E+00
  0.00000000E+00  0.00000000E+00  0.00000000E+00
  0.00000000E+00  0.00000000E+00  0.00000000E+00
  0.00000000E+00  0.00000000E+00  0.00000000E+00
  0.00000000E+00  0.00000000E+00  0.00000000E+00
  0.00000000E+00  0.00000000E+00  0.00000000E+00
  0.00000000E+00  0.00000000E+00  0.00000000E+00
  0.00000000E+00  0.00000000E+00  0.00000000E+00
  0.00000000E+00  0.00000000E+00  0.00000000E+00
  0.00000000E+00  0.00000000E+00  0.00000000E+00
  0.00000000E+00  0.00000000E+00  0.00000000E+00
  0.00000000E+00  0.00000000E+00  0.00000000E+00
  0.00000000E+00  0.00000000E+00  0.00000000E+00
