H1 Pd1 C126                             
   1.00000000000000     
    19.8379657893823804   -0.0045897880099275    0.2647177744030367
    -9.9241785969245484   17.0709896305987812    0.0989744133039844
     0.3986241348856795    0.4029738198208015   29.7277613197298898
   H    Pd   C 
     1     1   126
Direct
  0.5081940071431250  0.5620464179160076  0.4530245682102858
  0.4328578068641909  0.4959054194310360  0.4171762374720735
  0.0413920681379261  0.0835159426481737  0.3996098964250863
  0.0401935711925920  0.2075332856530882  0.3993344605520163
  0.0395185856585027  0.3323231807416706  0.3992587230302285
  0.0394957500889054  0.4578734033526238  0.3997100594433178
  0.0405238869350733  0.5834181158373577  0.3997394855125322
  0.0415641806584608  0.7088141330123663  0.3995280443924327
  0.0419666628427214  0.8341357765954440  0.3995909506885218
  0.0420258514022003  0.9591456549585775  0.3996680714472208
  0.1671954969100973  0.0848377134243201  0.3998044830175024
  0.1663532599903471  0.2091776636849744  0.3993311253057974
  0.1642432243207889  0.3326704615638991  0.3980434148120143
  0.1627821091969200  0.4579573936317524  0.3982858838983035
  0.1639991549644645  0.5833832670126053  0.3992729875422948
  0.1657736342974822  0.7088054604298587  0.3997904214897771
  0.1665527318427586  0.8341029185666541  0.3998798356726164
  0.1670012688914227  0.9594701447185443  0.3998673511631132
  0.2921700709439575  0.0846683620689581  0.4000796451316340
  0.2929312575115021  0.2111011309485022  0.4010993546525462
  0.2914502641266311  0.3360011779964538  0.4005051799013815
  0.2852699117308341  0.4576945665968299  0.3977636475908949
  0.2872601990051879  0.5837021514137472  0.3987529357207912
  0.2901473883266162  0.7086434273658703  0.3995097356635204
  0.2910101757440023  0.8336718390219052  0.3997619876424904
  0.2915886505072806  0.9590096363352973  0.3997443802925071
  0.4166645172391404  0.0832933520639304  0.3995146710895133
  0.4173300944677941  0.2087542678244556  0.4009154702219094
  0.4190119574426702  0.3348836230341951  0.4073885866097795
  0.4086746873627903  0.5804420626692574  0.4038311962019221
  0.4145531745498520  0.7068098231432614  0.4013206308733726
  0.4155736612532051  0.8325464766718363  0.4000760658272578
  0.4161841748551292  0.9579281694380659  0.3995335462170168
  0.5412324312050604  0.0822014941658042  0.3991761856403134
  0.5418641793704011  0.2074541553202216  0.3992095427655085
  0.5429102430115519  0.3324552737413915  0.4022928374192808
  0.5461374462349825  0.4561551486057391  0.4129835025567226
  0.5514834101131383  0.5842786693551835  0.4227157921611702
  0.5392896551595352  0.7044741028651779  0.4074780960524047
  0.5400310632797322  0.8308791359086856  0.4013517131921973
  0.5407294775732461  0.9567242885739673  0.3997032969389001
  0.6657365786979229  0.0816852619463684  0.3995794802391036
  0.6662829523401133  0.2070163330473765  0.3990089153961447
  0.6672280775148981  0.3323003331999251  0.3986252362455245
  0.6691841090707544  0.4577247368495095  0.3998965869565997
  0.6700871862891391  0.5831479646170038  0.4026429319686232
  0.6672126424671093  0.7072848813333611  0.4030535809249731
  0.6654001672229527  0.8310998850293573  0.4015966661972891
  0.6654087316013954  0.9563764039453244  0.4002750293429682
  0.7904766107336518  0.0817241181573947  0.3999721426369115
  0.7906422032050332  0.2068755544946367  0.3997430283849774
  0.7913291609659797  0.3323146075917503  0.3989476530043436
  0.7926004206253019  0.4579145101910025  0.3977021310542335
  0.7934343502402178  0.5833769925165940  0.3972003958850598
  0.7929291215508946  0.7086023977188157  0.3985158515747581
  0.7916571812850640  0.8328067570323319  0.3990641729349442
  0.7906178259471744  0.9568825490495000  0.3998129477082955
  0.9155868626487734  0.0823024935222374  0.3997693669569524
  0.9152008100832411  0.2070223967433777  0.3999295058436579
  0.9153286402841817  0.3322924986066549  0.3998743374092079
  0.9159889190468254  0.4578123652734623  0.3993251688829352
  0.9170138352010877  0.5834577303858425  0.3984752082727872
  0.9173934733296265  0.7088256577979744  0.3983170585442725
  0.9171961316349632  0.8337696607247107  0.3989094889441602
  0.9164655765793315  0.9581326251927097  0.3994833479698588
  0.0836939619453306  0.0426295967733904  0.3996889776527962
  0.0828183781837525  0.1668624389176782  0.3993658721809580
  0.0812122364467492  0.2907175232470795  0.3987967881670076
  0.0803509706252439  0.4159647543142723  0.3991304893431664
  0.0811934855439352  0.5414106133820337  0.3996831801206761
  0.0826355495661674  0.6669775511942585  0.3997610984737249
  0.0833834109105362  0.7924034902430186  0.3997428128389596
  0.0836947518362015  0.9176365416084307  0.3997684501512841
  0.2087872567552251  0.0429854206481195  0.3999367168406954
  0.2089421861354505  0.1684379303477153  0.3998672985699211
  0.2075740301038625  0.2926055927142461  0.3987591229145321
  0.2035013442348802  0.4158099079468073  0.3975007054037432
  0.2044302195455091  0.5414935673904788  0.3985767008740534
  0.2068116434467359  0.6670131829124673  0.3994737350400524
  0.2078036228704307  0.7922794978794495  0.3998308289534021
  0.2084185765257509  0.9176105123279042  0.3998665574402066
  0.3334468508316968  0.0424686900723432  0.3997714977139157
  0.3340975578443693  0.1682269347040802  0.4008358466591527
  0.3347987936950741  0.2945919316808351  0.4033039521102489
  0.3278335978527760  0.4182852555510512  0.4003610852665842
  0.3273706515005222  0.5421936244085643  0.3989683934954729
  0.3311791151091780  0.6668068124671083  0.3997060340458627
  0.3323097060310653  0.7918613858035538  0.3997953958818988
  0.3329684394722783  0.9170303005979830  0.3996821616083990
  0.4580456444931594  0.0412535332664006  0.3993346274142969
  0.4585863041211479  0.1665918117552251  0.3996859115859668
  0.4594940312893508  0.2919530306713273  0.4033524792089312
  0.4636391766018246  0.4157050181591190  0.4161096162952706
  0.4544914819073090  0.6630190497138920  0.4045715986106651
  0.4567542435581304  0.7902364274869385  0.4009789004521334
  0.4575365300521174  0.9158711466798701  0.3997327814410382
  0.5825869734161089  0.0402096024170549  0.3993920638134410
  0.5831411033764955  0.1656135134077606  0.3989767885271900
  0.5839832947043252  0.2907173095545906  0.3995518694296161
  0.5864029619524206  0.4155473250329321  0.4044853508751110
  0.5895829847474507  0.5411650132877175  0.4136592084074556
  0.5843199115286273  0.6649375068641361  0.4110042811802312
  0.5812912345839905  0.7881510886782257  0.4033333484164790
  0.5820031848048618  0.9145413017593724  0.4002807315768233
  0.7071821398618638  0.0398703326169847  0.3999243782466524
  0.7075172188505190  0.1651866862949283  0.3994296418683654
  0.7082562207986838  0.2905037541404608  0.3986766301235004
  0.7097739949803067  0.4159340037872950  0.3981189934813890
  0.7108542713652640  0.5412293056086328  0.3988147230659908
  0.7099286603246648  0.6665627605264816  0.4010878241136191
  0.7081870143217790  0.7906718194011688  0.4004724332815325
  0.7070999176582287  0.9146683580280153  0.4004386685435919
  0.8322283210818940  0.0403284689523273  0.3998628981376162
  0.8320961041712810  0.1651801761026017  0.3999703141161253
  0.8324017340075062  0.2904722500121656  0.3996270519004795
  0.8332730218518798  0.4158828071608797  0.3986022706132985
  0.8343144374262018  0.5414653822406698  0.3974975081298235
  0.8345330468194087  0.6669854189115059  0.3976897402773704
  0.8340445904782218  0.7918892775547656  0.3986217781639839
  0.8330271659667807  0.9160960812878425  0.3993794249232065
  0.9579320995074703  0.0414217096952980  0.3996619998045863
  0.9569881160815985  0.1656446112872310  0.3997606785616777
  0.9566320883995598  0.2904918874575098  0.3998379916663480
  0.9567693463812752  0.4158463653583419  0.3998153705632397
  0.9577646101186392  0.5414817383165422  0.3992915243032330
  0.9586239601520518  0.6669976385770606  0.3987635294390189
  0.9588732231384338  0.7922894071139273  0.3989980400471726
  0.9586793871885519  0.9171556204250043  0.3993960939300626
 
  0.00000000E+00  0.00000000E+00  0.00000000E+00
  0.00000000E+00  0.00000000E+00  0.00000000E+00
  0.00000000E+00  0.00000000E+00  0.00000000E+00
  0.00000000E+00  0.00000000E+00  0.00000000E+00
  0.00000000E+00  0.00000000E+00  0.00000000E+00
  0.00000000E+00  0.00000000E+00  0.00000000E+00
  0.00000000E+00  0.00000000E+00  0.00000000E+00
  0.00000000E+00  0.00000000E+00  0.00000000E+00
  0.00000000E+00  0.00000000E+00  0.00000000E+00
  0.00000000E+00  0.00000000E+00  0.00000000E+00
  0.00000000E+00  0.00000000E+00  0.00000000E+00
  0.00000000E+00  0.00000000E+00  0.00000000E+00
  0.00000000E+00  0.00000000E+00  0.00000000E+00
  0.00000000E+00  0.00000000E+00  0.00000000E+00
  0.00000000E+00  0.00000000E+00  0.00000000E+00
  0.00000000E+00  0.00000000E+00  0.00000000E+00
  0.00000000E+00  0.00000000E+00  0.00000000E+00
  0.00000000E+00  0.00000000E+00  0.00000000E+00
  0.00000000E+00  0.00000000E+00  0.00000000E+00
  0.00000000E+00  0.00000000E+00  0.00000000E+00
  0.00000000E+00  0.00000000E+00  0.00000000E+00
  0.00000000E+00  0.00000000E+00  0.00000000E+00
  0.00000000E+00  0.00000000E+00  0.00000000E+00
  0.00000000E+00  0.00000000E+00  0.00000000E+00
  0.00000000E+00  0.00000000E+00  0.00000000E+00
  0.00000000E+00  0.00000000E+00  0.00000000E+00
  0.00000000E+00  0.00000000E+00  0.00000000E+00
  0.00000000E+00  0.00000000E+00  0.00000000E+00
  0.00000000E+00  0.00000000E+00  0.00000000E+00
  0.00000000E+00  0.00000000E+00  0.00000000E+00
  0.00000000E+00  0.00000000E+00  0.00000000E+00
  0.00000000E+00  0.00000000E+00  0.00000000E+00
  0.00000000E+00  0.00000000E+00  0.00000000E+00
  0.00000000E+00  0.00000000E+00  0.00000000E+00
  0.00000000E+00  0.00000000E+00  0.00000000E+00
  0.00000000E+00  0.00000000E+00  0.00000000E+00
  0.00000000E+00  0.00000000E+00  0.00000000E+00
  0.00000000E+00  0.00000000E+00  0.00000000E+00
  0.00000000E+00  0.00000000E+00  0.00000000E+00
  0.00000000E+00  0.00000000E+00  0.00000000E+00
  0.00000000E+00  0.00000000E+00  0.00000000E+00
  0.00000000E+00  0.00000000E+00  0.00000000E+00
  0.00000000E+00  0.00000000E+00  0.00000000E+00
  0.00000000E+00  0.00000000E+00  0.00000000E+00
  0.00000000E+00  0.00000000E+00  0.00000000E+00
  0.00000000E+00  0.00000000E+00  0.00000000E+00
  0.00000000E+00  0.00000000E+00  0.00000000E+00
  0.00000000E+00  0.00000000E+00  0.00000000E+00
  0.00000000E+00  0.00000000E+00  0.00000000E+00
  0.00000000E+00  0.00000000E+00  0.00000000E+00
  0.00000000E+00  0.00000000E+00  0.00000000E+00
  0.00000000E+00  0.00000000E+00  0.00000000E+00
  0.00000000E+00  0.00000000E+00  0.00000000E+00
  0.00000000E+00  0.00000000E+00  0.00000000E+00
  0.00000000E+00  0.00000000E+00  0.00000000E+00
  0.00000000E+00  0.00000000E+00  0.00000000E+00
  0.00000000E+00  0.00000000E+00  0.00000000E+00
  0.00000000E+00  0.00000000E+00  0.00000000E+00
  0.00000000E+00  0.00000000E+00  0.00000000E+00
  0.00000000E+00  0.00000000E+00  0.00000000E+00
  0.00000000E+00  0.00000000E+00  0.00000000E+00
  0.00000000E+00  0.00000000E+00  0.00000000E+00
  0.00000000E+00  0.00000000E+00  0.00000000E+00
  0.00000000E+00  0.00000000E+00  0.00000000E+00
  0.00000000E+00  0.00000000E+00  0.00000000E+00
  0.00000000E+00  0.00000000E+00  0.00000000E+00
  0.00000000E+00  0.00000000E+00  0.00000000E+00
  0.00000000E+00  0.00000000E+00  0.00000000E+00
  0.00000000E+00  0.00000000E+00  0.00000000E+00
  0.00000000E+00  0.00000000E+00  0.00000000E+00
  0.00000000E+00  0.00000000E+00  0.00000000E+00
  0.00000000E+00  0.00000000E+00  0.00000000E+00
  0.00000000E+00  0.00000000E+00  0.00000000E+00
  0.00000000E+00  0.00000000E+00  0.00000000E+00
  0.00000000E+00  0.00000000E+00  0.00000000E+00
  0.00000000E+00  0.00000000E+00  0.00000000E+00
  0.00000000E+00  0.00000000E+00  0.00000000E+00
  0.00000000E+00  0.00000000E+00  0.00000000E+00
  0.00000000E+00  0.00000000E+00  0.00000000E+00
  0.00000000E+00  0.00000000E+00  0.00000000E+00
  0.00000000E+00  0.00000000E+00  0.00000000E+00
  0.00000000E+00  0.00000000E+00  0.00000000E+00
  0.00000000E+00  0.00000000E+00  0.00000000E+00
  0.00000000E+00  0.00000000E+00  0.00000000E+00
  0.00000000E+00  0.00000000E+00  0.00000000E+00
  0.00000000E+00  0.00000000E+00  0.00000000E+00
  0.00000000E+00  0.00000000E+00  0.00000000E+00
  0.00000000E+00  0.00000000E+00  0.00000000E+00
  0.00000000E+00  0.00000000E+00  0.00000000E+00
  0.00000000E+00  0.00000000E+00  0.00000000E+00
  0.00000000E+00  0.00000000E+00  0.00000000E+00
  0.00000000E+00  0.00000000E+00  0.00000000E+00
  0.00000000E+00  0.00000000E+00  0.00000000E+00
  0.00000000E+00  0.00000000E+00  0.00000000E+00
  0.00000000E+00  0.00000000E+00  0.00000000E+00
  0.00000000E+00  0.00000000E+00  0.00000000E+00
  0.00000000E+00  0.00000000E+00  0.00000000E+00
  0.00000000E+00  0.00000000E+00  0.00000000E+00
  0.00000000E+00  0.00000000E+00  0.00000000E+00
  0.00000000E+00  0.00000000E+00  0.00000000E+00
  0.00000000E+00  0.00000000E+00  0.00000000E+00
  0.00000000E+00  0.00000000E+00  0.00000000E+00
  0.00000000E+00  0.00000000E+00  0.00000000E+00
  0.00000000E+00  0.00000000E+00  0.00000000E+00
  0.00000000E+00  0.00000000E+00  0.00000000E+00
  0.00000000E+00  0.00000000E+00  0.00000000E+00
  0.00000000E+00  0.00000000E+00  0.00000000E+00
  0.00000000E+00  0.00000000E+00  0.00000000E+00
  0.00000000E+00  0.00000000E+00  0.00000000E+00
  0.00000000E+00  0.00000000E+00  0.00000000E+00
  0.00000000E+00  0.00000000E+00  0.00000000E+00
  0.00000000E+00  0.00000000E+00  0.00000000E+00
  0.00000000E+00  0.00000000E+00  0.00000000E+00
  0.00000000E+00  0.00000000E+00  0.00000000E+00
  0.00000000E+00  0.00000000E+00  0.00000000E+00
  0.00000000E+00  0.00000000E+00  0.00000000E+00
  0.00000000E+00  0.00000000E+00  0.00000000E+00
  0.00000000E+00  0.00000000E+00  0.00000000E+00
  0.00000000E+00  0.00000000E+00  0.00000000E+00
  0.00000000E+00  0.00000000E+00  0.00000000E+00
  0.00000000E+00  0.00000000E+00  0.00000000E+00
  0.00000000E+00  0.00000000E+00  0.00000000E+00
  0.00000000E+00  0.00000000E+00  0.00000000E+00
  0.00000000E+00  0.00000000E+00  0.00000000E+00
  0.00000000E+00  0.00000000E+00  0.00000000E+00
  0.00000000E+00  0.00000000E+00  0.00000000E+00
  0.00000000E+00  0.00000000E+00  0.00000000E+00
  0.00000000E+00  0.00000000E+00  0.00000000E+00
