Os1 C125 N1                             
   1.00000000000000     
    19.8193421455506069   -0.0268375584314836    0.0084299328138035
    -9.9330126466799804   17.0513257477035225   -0.0090920291109549
     0.0128426033499169   -0.0084835563927164   29.7987150771396649
   Os   C    N 
     1   125     1
Direct
  0.4382921577198819  0.4987881814362211  0.4289144308621589
  0.0422863940065653  0.0844690118602708  0.3998431792046840
  0.0416862582113583  0.2087044227748342  0.3996557078683317
  0.0409823248487712  0.3331849481979247  0.3995014899461769
  0.0406659503068553  0.4584564727432799  0.3996968660682542
  0.0411900762522373  0.5839134858656460  0.4000074990004146
  0.0417606054996966  0.7092992815564069  0.4001441651978077
  0.0420422425376982  0.8345384478692878  0.4000964463312568
  0.0422132742122934  0.9596536815673214  0.3999519580981309
  0.1679130995000912  0.0857942959662035  0.3997430237733489
  0.1683061722255825  0.2110893397124815  0.3997836288769339
  0.1666431643085435  0.3347639737312916  0.3991205137113004
  0.1644432196624630  0.4589839364827094  0.3988742838447707
  0.1648652951645067  0.5840954788541725  0.3991609104947668
  0.1660110034882767  0.7094068885565132  0.3997811068981204
  0.1667426001287198  0.8347150544245121  0.4000653796663992
  0.1673316457470907  0.9601395132242379  0.3999558520859387
  0.2926696600552692  0.0854409509401289  0.3997953114357838
  0.2939559091397715  0.2121955148430613  0.4005103868149151
  0.2950064766841111  0.3391884014441548  0.4016103208808099
  0.2886924247042123  0.4604929827260024  0.4004175160583834
  0.2882779027289853  0.5848743748512497  0.3992831946856334
  0.2901541848347227  0.7094630738244266  0.3994694949385664
  0.2912934368208518  0.8344050258931901  0.3998359092521134
  0.2919296056361006  0.9597001324938459  0.3999011506017249
  0.4171296897342547  0.0838890734992848  0.3996627876725084
  0.4179733707580393  0.2096778871982732  0.3998075573983730
  0.4200637971284719  0.3364880563359094  0.4043936674595944
  0.4141219454020506  0.7070150592834989  0.4004652048978079
  0.4157839222404789  0.8328678407513479  0.3996864658448856
  0.4165110802471403  0.9583624373035583  0.3998877235158841
  0.5416800089709726  0.0823717802377191  0.3998404874412134
  0.5423608099689130  0.2075757702244959  0.3994719053176676
  0.5436881235791915  0.3325689550316407  0.4000683823044242
  0.5472622944608964  0.4568402655196650  0.4032416774292112
  0.5422796916114179  0.5765839637566729  0.4036954331421484
  0.5374104364755439  0.7025143861247477  0.4020953576197211
  0.5399681908181515  0.8305703177942031  0.4002154614862060
  0.5410256079224932  0.9567724831352590  0.3999136811110084
  0.6662741130672697  0.0817050324619635  0.4000492152850463
  0.6669377858052588  0.2070949935998009  0.3998138709877092
  0.6679268696948646  0.3323449231138417  0.3992539871832482
  0.6698596714394882  0.4576901964842530  0.3986287459558289
  0.6698585310641475  0.5826760102093027  0.3986358100083465
  0.6645090458789397  0.7047729859198946  0.3996885887593730
  0.6642359096725556  0.8298792608999884  0.4001230760916740
  0.6655134959413195  0.9560772154735837  0.4000108814188238
  0.7909849584547777  0.0817608262489484  0.4000047268184894
  0.7915039629185364  0.2070608660994039  0.4001187527567373
  0.7921710405491346  0.3324720562237453  0.3999409398943019
  0.7932205677806878  0.4580098529501270  0.3994756347687246
  0.7935927104062225  0.5832887170452279  0.3991160894062046
  0.7921453649594418  0.7080908834067692  0.3991553842515221
  0.7904279978711577  0.8317152796739673  0.3997713342316831
  0.7903748682017139  0.9564317486246007  0.3999128070096790
  0.9162241302012362  0.0826505855521459  0.3999253948196851
  0.9162776139572576  0.2075258169672072  0.3999484448113928
  0.9163891931046679  0.3327009393063388  0.4001183538341385
  0.9168724316999067  0.4581443210101163  0.4001572845372835
  0.9174288057345971  0.5836833656112520  0.4000343364764776
  0.9172724616384631  0.7089674517910207  0.3998834084430213
  0.9168615097795028  0.8337418872410528  0.3999542512083070
  0.9163554222292855  0.9581148032888296  0.3999865163101086
  0.0842651464012264  0.0433587447864940  0.3998235107115052
  0.0843731434624641  0.1682292342685089  0.3997166887560146
  0.0830954412527572  0.2921675912973137  0.3993117974985439
  0.0818542640607953  0.4168020013259590  0.3993076237024500
  0.0820863052200452  0.5420474013362352  0.3996277802629666
  0.0829045867248880  0.6675005462625468  0.3999960489462643
  0.0835195407595673  0.7928859451936457  0.4001272353500760
  0.0839010495020693  0.9181830637908168  0.4000126441182409
  0.2092633779931423  0.0437853508251911  0.3998295447290270
  0.2100419582933912  0.1696502596036159  0.3998591083092261
  0.2103964692672945  0.2952124136643364  0.3998388105193595
  0.2062077495499418  0.4179989632315017  0.3989074820552161
  0.2055461849810167  0.5423207807785942  0.3987599934162921
  0.2070732352013638  0.6676484527729400  0.3994123721832857
  0.2080406959353834  0.7928960459009022  0.3999189334508064
  0.2086736906576464  0.9182676267375008  0.4000092079566478
  0.3338414886235856  0.0431555330019005  0.3997597546986608
  0.3347630580256882  0.1691577297583289  0.4000323690683776
  0.3364641961376146  0.2961436027143796  0.4026466333771259
  0.3335355303781252  0.4234189724429761  0.4034958199066682
  0.3294479908250629  0.5445704797301456  0.4017192642586571
  0.3311161992612739  0.6676658517297012  0.3997501924602915
  0.3325673944053236  0.7925525107253669  0.3996669597185061
  0.3332906220733315  0.9176862515956050  0.3998953996001178
  0.4584665151225757  0.0417148526405576  0.3998289622405894
  0.4591143407226351  0.1671968004756576  0.3994751911045410
  0.4603064125657125  0.2931013130689060  0.4008558003386158
  0.4656921843370892  0.4196174338613856  0.4114705240312210
  0.4531500295753959  0.6625208600219998  0.4030495069909111
  0.4568867953696432  0.7904174153395461  0.3999092945262768
  0.4577695151867583  0.9161474751823360  0.3998238753321244
  0.5830079439371361  0.0403092263885523  0.3999592879378261
  0.5837221133980982  0.1657288374817022  0.3996878074471764
  0.5846245900651070  0.2908096351556256  0.3993829635603919
  0.5871487956428896  0.4155931345948499  0.3998340946712067
  0.5879262196456165  0.5401489918997937  0.4008435628344061
  0.5795473124717186  0.6603071838670503  0.4012159827895223
  0.5801199673173392  0.7869545768432937  0.4006787460070172
  0.5821553923268238  0.9143729660066043  0.4000030040289154
  0.7075664901250819  0.0397756852684405  0.4000290888791463
  0.7082464028219512  0.1652980071141222  0.4000536075282664
  0.7089512994467866  0.2906175604546591  0.3996619369515044
  0.7104344833609392  0.4159137647080459  0.3989547392850071
  0.7111463993008501  0.5411306396817346  0.3986248033373523
  0.7087806029506213  0.6656916380146136  0.3988304450983404
  0.7063199896470693  0.7887184114565418  0.3998523725856842
  0.7065675619271081  0.9138564174262829  0.3999574578498639
  0.8325697425240574  0.0402426014277697  0.3999368435081516
  0.8328918959755954  0.1654355159666070  0.4000498270439497
  0.8333213858162859  0.2906612426490126  0.4001461494389981
  0.8340675383796645  0.4160648856061038  0.3999408127279858
  0.8346576089973586  0.5415505240852779  0.3995836907393332
  0.8342312962434851  0.6669183343989968  0.3993677189894662
  0.8333289580953498  0.7914364279787882  0.3996625595716531
  0.8324651087833079  0.9154435977172550  0.3999289062747539
  0.9584160277495913  0.0418130945166676  0.3999459860545181
  0.9581308525756490  0.1662890370567557  0.3998560836257616
  0.9578539400261598  0.2910863129470891  0.3999097439301323
  0.9578154171650043  0.4163137071795732  0.4000806842177037
  0.9584185255887181  0.5418439116724471  0.4001568569487317
  0.9587483316247614  0.6673031178717340  0.4000779522667428
  0.9587237643202409  0.7924884148760970  0.4000062612888157
  0.9586115661768292  0.9172771141397813  0.4000128773619220
  0.4084978479069202  0.5821208122442112  0.4066574610959439
 
  0.00000000E+00  0.00000000E+00  0.00000000E+00
  0.00000000E+00  0.00000000E+00  0.00000000E+00
  0.00000000E+00  0.00000000E+00  0.00000000E+00
  0.00000000E+00  0.00000000E+00  0.00000000E+00
  0.00000000E+00  0.00000000E+00  0.00000000E+00
  0.00000000E+00  0.00000000E+00  0.00000000E+00
  0.00000000E+00  0.00000000E+00  0.00000000E+00
  0.00000000E+00  0.00000000E+00  0.00000000E+00
  0.00000000E+00  0.00000000E+00  0.00000000E+00
  0.00000000E+00  0.00000000E+00  0.00000000E+00
  0.00000000E+00  0.00000000E+00  0.00000000E+00
  0.00000000E+00  0.00000000E+00  0.00000000E+00
  0.00000000E+00  0.00000000E+00  0.00000000E+00
  0.00000000E+00  0.00000000E+00  0.00000000E+00
  0.00000000E+00  0.00000000E+00  0.00000000E+00
  0.00000000E+00  0.00000000E+00  0.00000000E+00
  0.00000000E+00  0.00000000E+00  0.00000000E+00
  0.00000000E+00  0.00000000E+00  0.00000000E+00
  0.00000000E+00  0.00000000E+00  0.00000000E+00
  0.00000000E+00  0.00000000E+00  0.00000000E+00
  0.00000000E+00  0.00000000E+00  0.00000000E+00
  0.00000000E+00  0.00000000E+00  0.00000000E+00
  0.00000000E+00  0.00000000E+00  0.00000000E+00
  0.00000000E+00  0.00000000E+00  0.00000000E+00
  0.00000000E+00  0.00000000E+00  0.00000000E+00
  0.00000000E+00  0.00000000E+00  0.00000000E+00
  0.00000000E+00  0.00000000E+00  0.00000000E+00
  0.00000000E+00  0.00000000E+00  0.00000000E+00
  0.00000000E+00  0.00000000E+00  0.00000000E+00
  0.00000000E+00  0.00000000E+00  0.00000000E+00
  0.00000000E+00  0.00000000E+00  0.00000000E+00
  0.00000000E+00  0.00000000E+00  0.00000000E+00
  0.00000000E+00  0.00000000E+00  0.00000000E+00
  0.00000000E+00  0.00000000E+00  0.00000000E+00
  0.00000000E+00  0.00000000E+00  0.00000000E+00
  0.00000000E+00  0.00000000E+00  0.00000000E+00
  0.00000000E+00  0.00000000E+00  0.00000000E+00
  0.00000000E+00  0.00000000E+00  0.00000000E+00
  0.00000000E+00  0.00000000E+00  0.00000000E+00
  0.00000000E+00  0.00000000E+00  0.00000000E+00
  0.00000000E+00  0.00000000E+00  0.00000000E+00
  0.00000000E+00  0.00000000E+00  0.00000000E+00
  0.00000000E+00  0.00000000E+00  0.00000000E+00
  0.00000000E+00  0.00000000E+00  0.00000000E+00
  0.00000000E+00  0.00000000E+00  0.00000000E+00
  0.00000000E+00  0.00000000E+00  0.00000000E+00
  0.00000000E+00  0.00000000E+00  0.00000000E+00
  0.00000000E+00  0.00000000E+00  0.00000000E+00
  0.00000000E+00  0.00000000E+00  0.00000000E+00
  0.00000000E+00  0.00000000E+00  0.00000000E+00
  0.00000000E+00  0.00000000E+00  0.00000000E+00
  0.00000000E+00  0.00000000E+00  0.00000000E+00
  0.00000000E+00  0.00000000E+00  0.00000000E+00
  0.00000000E+00  0.00000000E+00  0.00000000E+00
  0.00000000E+00  0.00000000E+00  0.00000000E+00
  0.00000000E+00  0.00000000E+00  0.00000000E+00
  0.00000000E+00  0.00000000E+00  0.00000000E+00
  0.00000000E+00  0.00000000E+00  0.00000000E+00
  0.00000000E+00  0.00000000E+00  0.00000000E+00
  0.00000000E+00  0.00000000E+00  0.00000000E+00
  0.00000000E+00  0.00000000E+00  0.00000000E+00
  0.00000000E+00  0.00000000E+00  0.00000000E+00
  0.00000000E+00  0.00000000E+00  0.00000000E+00
  0.00000000E+00  0.00000000E+00  0.00000000E+00
  0.00000000E+00  0.00000000E+00  0.00000000E+00
  0.00000000E+00  0.00000000E+00  0.00000000E+00
  0.00000000E+00  0.00000000E+00  0.00000000E+00
  0.00000000E+00  0.00000000E+00  0.00000000E+00
  0.00000000E+00  0.00000000E+00  0.00000000E+00
  0.00000000E+00  0.00000000E+00  0.00000000E+00
  0.00000000E+00  0.00000000E+00  0.00000000E+00
  0.00000000E+00  0.00000000E+00  0.00000000E+00
  0.00000000E+00  0.00000000E+00  0.00000000E+00
  0.00000000E+00  0.00000000E+00  0.00000000E+00
  0.00000000E+00  0.00000000E+00  0.00000000E+00
  0.00000000E+00  0.00000000E+00  0.00000000E+00
  0.00000000E+00  0.00000000E+00  0.00000000E+00
  0.00000000E+00  0.00000000E+00  0.00000000E+00
  0.00000000E+00  0.00000000E+00  0.00000000E+00
  0.00000000E+00  0.00000000E+00  0.00000000E+00
  0.00000000E+00  0.00000000E+00  0.00000000E+00
  0.00000000E+00  0.00000000E+00  0.00000000E+00
  0.00000000E+00  0.00000000E+00  0.00000000E+00
  0.00000000E+00  0.00000000E+00  0.00000000E+00
  0.00000000E+00  0.00000000E+00  0.00000000E+00
  0.00000000E+00  0.00000000E+00  0.00000000E+00
  0.00000000E+00  0.00000000E+00  0.00000000E+00
  0.00000000E+00  0.00000000E+00  0.00000000E+00
  0.00000000E+00  0.00000000E+00  0.00000000E+00
  0.00000000E+00  0.00000000E+00  0.00000000E+00
  0.00000000E+00  0.00000000E+00  0.00000000E+00
  0.00000000E+00  0.00000000E+00  0.00000000E+00
  0.00000000E+00  0.00000000E+00  0.00000000E+00
  0.00000000E+00  0.00000000E+00  0.00000000E+00
  0.00000000E+00  0.00000000E+00  0.00000000E+00
  0.00000000E+00  0.00000000E+00  0.00000000E+00
  0.00000000E+00  0.00000000E+00  0.00000000E+00
  0.00000000E+00  0.00000000E+00  0.00000000E+00
  0.00000000E+00  0.00000000E+00  0.00000000E+00
  0.00000000E+00  0.00000000E+00  0.00000000E+00
  0.00000000E+00  0.00000000E+00  0.00000000E+00
  0.00000000E+00  0.00000000E+00  0.00000000E+00
  0.00000000E+00  0.00000000E+00  0.00000000E+00
  0.00000000E+00  0.00000000E+00  0.00000000E+00
  0.00000000E+00  0.00000000E+00  0.00000000E+00
  0.00000000E+00  0.00000000E+00  0.00000000E+00
  0.00000000E+00  0.00000000E+00  0.00000000E+00
  0.00000000E+00  0.00000000E+00  0.00000000E+00
  0.00000000E+00  0.00000000E+00  0.00000000E+00
  0.00000000E+00  0.00000000E+00  0.00000000E+00
  0.00000000E+00  0.00000000E+00  0.00000000E+00
  0.00000000E+00  0.00000000E+00  0.00000000E+00
  0.00000000E+00  0.00000000E+00  0.00000000E+00
  0.00000000E+00  0.00000000E+00  0.00000000E+00
  0.00000000E+00  0.00000000E+00  0.00000000E+00
  0.00000000E+00  0.00000000E+00  0.00000000E+00
  0.00000000E+00  0.00000000E+00  0.00000000E+00
  0.00000000E+00  0.00000000E+00  0.00000000E+00
  0.00000000E+00  0.00000000E+00  0.00000000E+00
  0.00000000E+00  0.00000000E+00  0.00000000E+00
  0.00000000E+00  0.00000000E+00  0.00000000E+00
  0.00000000E+00  0.00000000E+00  0.00000000E+00
  0.00000000E+00  0.00000000E+00  0.00000000E+00
  0.00000000E+00  0.00000000E+00  0.00000000E+00
  0.00000000E+00  0.00000000E+00  0.00000000E+00
  0.00000000E+00  0.00000000E+00  0.00000000E+00
  0.00000000E+00  0.00000000E+00  0.00000000E+00
