Y1 H1 C125 N1 O1                        
   1.00000000000000     
    19.7764531490830642   -0.0100702680132467   -0.0670039951150939
    -9.8972896758399447   17.0889923566017288    0.1116030305819245
    -0.1005646216772994    0.1359891805201504   29.7837475149333635
   Y    H    C    N    O 
     1     1   125     1     1
Direct
  0.4371653515549345  0.5076006011373597  0.4561657904388257
  0.5086866468488024  0.5707554547172886  0.5457462692777183
  0.0417085489129139  0.0835388751257231  0.3992871620933543
  0.0415467435788937  0.2083409984389832  0.3991819059475156
  0.0413481028463763  0.3330653907685608  0.3985520054835638
  0.0413034116386374  0.4582233312658007  0.3977521002406104
  0.0413723383587704  0.5834001219478460  0.3976372638438080
  0.0416691546709612  0.7085700520853127  0.3978679840837459
  0.0418875897555653  0.8337618816723148  0.3983012041271971
  0.0419310840728207  0.9587996612026811  0.3988592946345847
  0.1670096175315701  0.0840215682038648  0.3998312454132827
  0.1668072110690213  0.2087464780193468  0.4002600173256157
  0.1668307113277938  0.3338901525528009  0.3996960983402645
  0.1660513058760911  0.4584348207747042  0.3986486076667709
  0.1658089594272017  0.5834915932428433  0.3976795030981538
  0.1662540909727495  0.7086752696572322  0.3980917978774913
  0.1666892807920574  0.8338274960611967  0.3986511621116538
  0.1669255641956473  0.9589358639071567  0.3991992527940906
  0.2920330124824083  0.0838618664477824  0.4001970211569476
  0.2925032299232401  0.2094679485695551  0.4019649240064171
  0.2923826660924250  0.3348262890652133  0.4026393055848800
  0.2923419467948803  0.4590530995724672  0.4016307304139354
  0.2899900444756054  0.5843428136052815  0.3990317016067179
  0.2908623756691690  0.7090486216836090  0.3984683102825694
  0.2914650456654456  0.8338069894285288  0.3986475673676680
  0.2917135525554135  0.9587409201293573  0.3991734526663098
  0.4168319751178407  0.0832807507932918  0.3994214385898398
  0.4170592003936234  0.2082368510599341  0.4011093555578831
  0.4181522697458245  0.3339963665819869  0.4065838121841443
  0.4154508053968904  0.7083027147998244  0.4008478078904847
  0.4162472672804037  0.8333104235714849  0.3990547187307119
  0.4165520255603790  0.9582841282972934  0.3988965804979458
  0.5416218350927132  0.0827390374701688  0.3987530548714302
  0.5419381948009311  0.2078098855133354  0.3992021207124779
  0.5422990405702293  0.3328084129154176  0.4011722149587534
  0.5426879201460884  0.4573986654847845  0.4062960489686857
  0.5461622189785457  0.5827287132593517  0.4131996506523440
  0.5397647321297552  0.7052064404215124  0.4062082726980504
  0.5408411377194767  0.8319668654419899  0.4008122914765073
  0.5413686748987486  0.9575178710576665  0.3990508707275443
  0.6664180385928146  0.0824638811626975  0.3986753299984984
  0.6667235285263846  0.2076649678992039  0.3982682029734031
  0.6669328881291704  0.3327076798762342  0.3982837541674400
  0.6675158887753553  0.4579056471513727  0.3988517981821499
  0.6687271942097385  0.5834301721618985  0.4000534302287498
  0.6667456288144874  0.7075161403575991  0.4009962031647744
  0.6655813944410230  0.8315659509402338  0.4008588653809793
  0.6661291517439161  0.9571991947485285  0.3996274140943705
  0.7912971800429578  0.0825069486950519  0.3989178128285963
  0.7914844209297635  0.2076288445653283  0.3982157751403934
  0.7917375924010349  0.3328245262379959  0.3976081979736315
  0.7920650160694211  0.4580491652723516  0.3972390799837582
  0.7925246946385900  0.5832468573274500  0.3970479388522686
  0.7923658244042953  0.7084653150240603  0.3978060925843990
  0.7915915219219060  0.8329526299556100  0.3986936201917881
  0.7910313211339697  0.9573647986539644  0.3992023674078845
  0.9163765710514481  0.0828854796366753  0.3990383520318542
  0.9163836278261891  0.2078600344685181  0.3986569369315257
  0.9164735938943701  0.3329409056791208  0.3979208351258923
  0.9166335861420140  0.4580499054863761  0.3973575822287722
  0.9169442441993298  0.5833145933742584  0.3972076850345841
  0.9170780838262877  0.7086139686042340  0.3973462979060656
  0.9169744905935809  0.8335681610088402  0.3980033485992464
  0.9166100975593581  0.9582119415342512  0.3987650015155311
  0.0836079389807531  0.0421873428770798  0.3993030866479418
  0.0833583665795531  0.1668656904746836  0.3995397816629098
  0.0831292480704259  0.2917451670110910  0.3990270253016363
  0.0829215642550815  0.4166160206784733  0.3982335007888861
  0.0827091353371813  0.5416512568920990  0.3976508633763030
  0.0830587585158373  0.6668609710169763  0.3978783773468209
  0.0834538952241983  0.7921176388416428  0.3982772246688258
  0.0835566703015773  0.9171954518818807  0.3987951819734822
  0.2086186839264910  0.0422225532222978  0.3997816102817764
  0.2086730953807549  0.1673856265435607  0.4005734205328507
  0.2084847746966117  0.2922372878809291  0.4006277636776789
  0.2080946809051483  0.4172996950489653  0.3998976852764168
  0.2070690153565384  0.5419161275793085  0.3980273319938873
  0.2077156622008784  0.6670855927392666  0.3979563705309985
  0.2081623730231354  0.7921097297671573  0.3984922877541610
  0.2084847845765080  0.9171947011944160  0.3990459409299949
  0.3335166428340126  0.0420238700628677  0.3996020940709332
  0.3338850266363849  0.1670974002068295  0.4012759579017772
  0.3341066360205470  0.2922248719943756  0.4042447128993611
  0.3321097981771433  0.4167510890154296  0.4031873625261803
  0.3329968860892714  0.5449093090898822  0.4023136954820802
  0.3323083430048641  0.6674934133409708  0.3993152270048573
  0.3329851675040374  0.7922216016901864  0.3986929651471935
  0.3333076259330390  0.9170618592349780  0.3988935666036069
  0.4584002319742297  0.0415206713904121  0.3989802011939807
  0.4586315891909881  0.1664742157730812  0.3997786045736707
  0.4590589377516107  0.2914833232883850  0.4027464717969155
  0.4610626831021868  0.4154070037513675  0.4120925060421869
  0.4549136841316871  0.6646562831427977  0.4053220527186344
  0.4577692030310027  0.7914952379869192  0.4000510726628732
  0.4580790949352893  0.9164830416221268  0.3989508897133824
  0.5831653204688783  0.0409170548316437  0.3987497155379678
  0.5834463393773133  0.1660964798883123  0.3986701867295552
  0.5838110734063580  0.2910880971894278  0.3993128416371231
  0.5843008454186230  0.4159792315695917  0.4014039588955940
  0.5864946036982976  0.5426777158386898  0.4061778864138830
  0.5835392384264568  0.6642639629640754  0.4067875968660756
  0.5814641717980861  0.7887536627102506  0.4025850706121787
  0.5827673160827369  0.9154641891212871  0.3997251454766510
  0.7079113638867112  0.0406278832850314  0.3990195819872482
  0.7082270001068083  0.1659185595020102  0.3983169011885230
  0.7084670448859866  0.2910663210807211  0.3979291706991075
  0.7088327029749019  0.4162936684143376  0.3978978751737570
  0.7096966760281308  0.5415838579448814  0.3981247130376478
  0.7091895934368642  0.6666343670416151  0.3993371824691660
  0.7080489985035034  0.7908255871285362  0.3998654102541219
  0.7074441410519852  0.9151609405397604  0.3998231720457149
  0.8328687448333685  0.0408716536574727  0.3990569224576376
  0.8330272208719735  0.1659732545480289  0.3985955420877950
  0.8332588466747138  0.2911812085581732  0.3978634693796876
  0.8334870710697466  0.4163195676538785  0.3973079694723792
  0.8338421166233954  0.5414817670918705  0.3970167453745515
  0.8339286271786855  0.6668824739806279  0.3971657930057551
  0.8337089283091595  0.7917711857365066  0.3980001491569043
  0.8331392998866859  0.9162265800886165  0.3988621874571209
  0.9582464421210155  0.0415747414924328  0.3990352436945974
  0.9581290785336699  0.1663631772758199  0.3989819310874887
  0.9580333031866610  0.2912743612003305  0.3983723395814571
  0.9581020076736746  0.4163958445245868  0.3976355091108983
  0.9583119133083452  0.5416229444134569  0.3973908513356011
  0.9585284506180461  0.6668526126903559  0.3974340188489446
  0.9586578273523559  0.7920162916503340  0.3978361526794394
  0.9585304609462172  0.9169280088533744  0.3985181456888616
  0.4112953113424227  0.5849308658679573  0.4081870878305844
  0.4773512574829828  0.5481848406528748  0.5193188607167787
 
  0.00000000E+00  0.00000000E+00  0.00000000E+00
  0.00000000E+00  0.00000000E+00  0.00000000E+00
  0.00000000E+00  0.00000000E+00  0.00000000E+00
  0.00000000E+00  0.00000000E+00  0.00000000E+00
  0.00000000E+00  0.00000000E+00  0.00000000E+00
  0.00000000E+00  0.00000000E+00  0.00000000E+00
  0.00000000E+00  0.00000000E+00  0.00000000E+00
  0.00000000E+00  0.00000000E+00  0.00000000E+00
  0.00000000E+00  0.00000000E+00  0.00000000E+00
  0.00000000E+00  0.00000000E+00  0.00000000E+00
  0.00000000E+00  0.00000000E+00  0.00000000E+00
  0.00000000E+00  0.00000000E+00  0.00000000E+00
  0.00000000E+00  0.00000000E+00  0.00000000E+00
  0.00000000E+00  0.00000000E+00  0.00000000E+00
  0.00000000E+00  0.00000000E+00  0.00000000E+00
  0.00000000E+00  0.00000000E+00  0.00000000E+00
  0.00000000E+00  0.00000000E+00  0.00000000E+00
  0.00000000E+00  0.00000000E+00  0.00000000E+00
  0.00000000E+00  0.00000000E+00  0.00000000E+00
  0.00000000E+00  0.00000000E+00  0.00000000E+00
  0.00000000E+00  0.00000000E+00  0.00000000E+00
  0.00000000E+00  0.00000000E+00  0.00000000E+00
  0.00000000E+00  0.00000000E+00  0.00000000E+00
  0.00000000E+00  0.00000000E+00  0.00000000E+00
  0.00000000E+00  0.00000000E+00  0.00000000E+00
  0.00000000E+00  0.00000000E+00  0.00000000E+00
  0.00000000E+00  0.00000000E+00  0.00000000E+00
  0.00000000E+00  0.00000000E+00  0.00000000E+00
  0.00000000E+00  0.00000000E+00  0.00000000E+00
  0.00000000E+00  0.00000000E+00  0.00000000E+00
  0.00000000E+00  0.00000000E+00  0.00000000E+00
  0.00000000E+00  0.00000000E+00  0.00000000E+00
  0.00000000E+00  0.00000000E+00  0.00000000E+00
  0.00000000E+00  0.00000000E+00  0.00000000E+00
  0.00000000E+00  0.00000000E+00  0.00000000E+00
  0.00000000E+00  0.00000000E+00  0.00000000E+00
  0.00000000E+00  0.00000000E+00  0.00000000E+00
  0.00000000E+00  0.00000000E+00  0.00000000E+00
  0.00000000E+00  0.00000000E+00  0.00000000E+00
  0.00000000E+00  0.00000000E+00  0.00000000E+00
  0.00000000E+00  0.00000000E+00  0.00000000E+00
  0.00000000E+00  0.00000000E+00  0.00000000E+00
  0.00000000E+00  0.00000000E+00  0.00000000E+00
  0.00000000E+00  0.00000000E+00  0.00000000E+00
  0.00000000E+00  0.00000000E+00  0.00000000E+00
  0.00000000E+00  0.00000000E+00  0.00000000E+00
  0.00000000E+00  0.00000000E+00  0.00000000E+00
  0.00000000E+00  0.00000000E+00  0.00000000E+00
  0.00000000E+00  0.00000000E+00  0.00000000E+00
  0.00000000E+00  0.00000000E+00  0.00000000E+00
  0.00000000E+00  0.00000000E+00  0.00000000E+00
  0.00000000E+00  0.00000000E+00  0.00000000E+00
  0.00000000E+00  0.00000000E+00  0.00000000E+00
  0.00000000E+00  0.00000000E+00  0.00000000E+00
  0.00000000E+00  0.00000000E+00  0.00000000E+00
  0.00000000E+00  0.00000000E+00  0.00000000E+00
  0.00000000E+00  0.00000000E+00  0.00000000E+00
  0.00000000E+00  0.00000000E+00  0.00000000E+00
  0.00000000E+00  0.00000000E+00  0.00000000E+00
  0.00000000E+00  0.00000000E+00  0.00000000E+00
  0.00000000E+00  0.00000000E+00  0.00000000E+00
  0.00000000E+00  0.00000000E+00  0.00000000E+00
  0.00000000E+00  0.00000000E+00  0.00000000E+00
  0.00000000E+00  0.00000000E+00  0.00000000E+00
  0.00000000E+00  0.00000000E+00  0.00000000E+00
  0.00000000E+00  0.00000000E+00  0.00000000E+00
  0.00000000E+00  0.00000000E+00  0.00000000E+00
  0.00000000E+00  0.00000000E+00  0.00000000E+00
  0.00000000E+00  0.00000000E+00  0.00000000E+00
  0.00000000E+00  0.00000000E+00  0.00000000E+00
  0.00000000E+00  0.00000000E+00  0.00000000E+00
  0.00000000E+00  0.00000000E+00  0.00000000E+00
  0.00000000E+00  0.00000000E+00  0.00000000E+00
  0.00000000E+00  0.00000000E+00  0.00000000E+00
  0.00000000E+00  0.00000000E+00  0.00000000E+00
  0.00000000E+00  0.00000000E+00  0.00000000E+00
  0.00000000E+00  0.00000000E+00  0.00000000E+00
  0.00000000E+00  0.00000000E+00  0.00000000E+00
  0.00000000E+00  0.00000000E+00  0.00000000E+00
  0.00000000E+00  0.00000000E+00  0.00000000E+00
  0.00000000E+00  0.00000000E+00  0.00000000E+00
  0.00000000E+00  0.00000000E+00  0.00000000E+00
  0.00000000E+00  0.00000000E+00  0.00000000E+00
  0.00000000E+00  0.00000000E+00  0.00000000E+00
  0.00000000E+00  0.00000000E+00  0.00000000E+00
  0.00000000E+00  0.00000000E+00  0.00000000E+00
  0.00000000E+00  0.00000000E+00  0.00000000E+00
  0.00000000E+00  0.00000000E+00  0.00000000E+00
  0.00000000E+00  0.00000000E+00  0.00000000E+00
  0.00000000E+00  0.00000000E+00  0.00000000E+00
  0.00000000E+00  0.00000000E+00  0.00000000E+00
  0.00000000E+00  0.00000000E+00  0.00000000E+00
  0.00000000E+00  0.00000000E+00  0.00000000E+00
  0.00000000E+00  0.00000000E+00  0.00000000E+00
  0.00000000E+00  0.00000000E+00  0.00000000E+00
  0.00000000E+00  0.00000000E+00  0.00000000E+00
  0.00000000E+00  0.00000000E+00  0.00000000E+00
  0.00000000E+00  0.00000000E+00  0.00000000E+00
  0.00000000E+00  0.00000000E+00  0.00000000E+00
  0.00000000E+00  0.00000000E+00  0.00000000E+00
  0.00000000E+00  0.00000000E+00  0.00000000E+00
  0.00000000E+00  0.00000000E+00  0.00000000E+00
  0.00000000E+00  0.00000000E+00  0.00000000E+00
  0.00000000E+00  0.00000000E+00  0.00000000E+00
  0.00000000E+00  0.00000000E+00  0.00000000E+00
  0.00000000E+00  0.00000000E+00  0.00000000E+00
  0.00000000E+00  0.00000000E+00  0.00000000E+00
  0.00000000E+00  0.00000000E+00  0.00000000E+00
  0.00000000E+00  0.00000000E+00  0.00000000E+00
  0.00000000E+00  0.00000000E+00  0.00000000E+00
  0.00000000E+00  0.00000000E+00  0.00000000E+00
  0.00000000E+00  0.00000000E+00  0.00000000E+00
  0.00000000E+00  0.00000000E+00  0.00000000E+00
  0.00000000E+00  0.00000000E+00  0.00000000E+00
  0.00000000E+00  0.00000000E+00  0.00000000E+00
  0.00000000E+00  0.00000000E+00  0.00000000E+00
  0.00000000E+00  0.00000000E+00  0.00000000E+00
  0.00000000E+00  0.00000000E+00  0.00000000E+00
  0.00000000E+00  0.00000000E+00  0.00000000E+00
  0.00000000E+00  0.00000000E+00  0.00000000E+00
  0.00000000E+00  0.00000000E+00  0.00000000E+00
  0.00000000E+00  0.00000000E+00  0.00000000E+00
  0.00000000E+00  0.00000000E+00  0.00000000E+00
  0.00000000E+00  0.00000000E+00  0.00000000E+00
  0.00000000E+00  0.00000000E+00  0.00000000E+00
  0.00000000E+00  0.00000000E+00  0.00000000E+00
  0.00000000E+00  0.00000000E+00  0.00000000E+00
  0.00000000E+00  0.00000000E+00  0.00000000E+00
  0.00000000E+00  0.00000000E+00  0.00000000E+00
