Cu1 H1 C123 N3 O2                       
   1.00000000000000     
    19.8023475110843812    0.0060243031816047    0.0628495776783987
    -9.8959359437839058   17.0217748811388923   -0.0314456968673128
     0.0944488139370372    0.0005835551773691   29.8475091422956247
   Cu   H    C    N    O 
     1     1   123     3     2
Direct
  0.4369731126454722  0.4993910771378006  0.4098701476009489
  0.5251002339043594  0.5482327335616731  0.5161457093189664
  0.0419253564549539  0.0841462809913509  0.4000664754860055
  0.0410632150293974  0.2082407085639255  0.4001854180618976
  0.0404311885685742  0.3329557749081883  0.4001022897333177
  0.0406081282980640  0.4581715702906826  0.3997057920409882
  0.0413511553712485  0.5837127840340991  0.3994480588686341
  0.0421404534421419  0.7091929912289033  0.3994976068558804
  0.0424061112708495  0.8344820258097442  0.3996469487742213
  0.0423514614487631  0.9595484865816409  0.3998042715672270
  0.1677382925550732  0.0855325759901385  0.4003431726929227
  0.1674895759671167  0.2104319342861589  0.4011675623791119
  0.1653308705210971  0.3337744272871794  0.4011683343447893
  0.1645952770686213  0.4584501685486182  0.4009752948894694
  0.1651979839027221  0.5835779312165796  0.3999469882906477
  0.1663959600529707  0.7089445060744943  0.3995109167457117
  0.1670972878306730  0.8344834318348454  0.3996257545173733
  0.1674842971877739  0.9600628857073858  0.3997921422922941
  0.2926008593066510  0.0858882250365645  0.4006238989549106
  0.2932046350607547  0.2127395197155524  0.4020365059031618
  0.2929219851254035  0.3387803830971285  0.4019452578842765
  0.2884955103760222  0.4581712898049856  0.4019767991049589
  0.2885938666161961  0.5829513418053288  0.4015020919389148
  0.2906127425429920  0.7083126623405841  0.4004855854109791
  0.2916699200554407  0.8339078328726116  0.3997151636310621
  0.2921698523075243  0.9596691974973538  0.3997761100505126
  0.4170532904706273  0.0843665288333094  0.4002522789499989
  0.4176556531427108  0.2107261635298275  0.4019032898250400
  0.4192221228322530  0.3386374345824251  0.4046758557247691
  0.4145346078649602  0.7055798980213205  0.4023193401515862
  0.4160870830469055  0.8320309682905055  0.4004690316247660
  0.4166923492932731  0.9582496690260561  0.3998359970547913
  0.5415083853938655  0.0826112505396979  0.3998173200474295
  0.5420846564658707  0.2085081449727171  0.4005449913146135
  0.5430610467717665  0.3341606262075559  0.4023568060122606
  0.5463750600102391  0.4597997419858190  0.4041325291251692
  0.5380077350589013  0.7011428132447437  0.4034828250974071
  0.5403027176459528  0.8298205290745172  0.4015880112524138
  0.5410542438325996  0.9565205750632054  0.4001056169180500
  0.6660460955608146  0.0818707012218584  0.3997916370823908
  0.6664847894889274  0.2074397379287935  0.3996805407112702
  0.6673196669339428  0.3329521345647215  0.4000738448792599
  0.6692448478129940  0.4585588361778750  0.4010218340018852
  0.6703638422459894  0.5839723506218338  0.4022999573780266
  0.6659789417282711  0.7056687234594773  0.4020895135709711
  0.6644600783581470  0.8298673742309086  0.4014085890711542
  0.6654608054930831  0.9560230911832841  0.4002989484284543
  0.7907045404759196  0.0818244171201347  0.3998451763803639
  0.7910530098496145  0.2072422955231509  0.3996794188323847
  0.7916674159659954  0.3327075772305309  0.3994601761800234
  0.7927673029151989  0.4582285444049187  0.3994913195144464
  0.7935954795457150  0.5836672050223397  0.3998991584196065
  0.7931066338843344  0.7087576930612034  0.4002768686752448
  0.7909444615066885  0.8321303200998212  0.4005474153817342
  0.7903360416408041  0.9565040416245417  0.4001561689131451
  0.9158939479708078  0.0825252902617133  0.3999016774257929
  0.9157696625258469  0.2074108521280756  0.3998081772387762
  0.9159513820211118  0.3327025510640105  0.3996592635978941
  0.9166767187576057  0.4582034458262249  0.3993896218041596
  0.9174943472914326  0.5837377474424730  0.3993124557600437
  0.9176756750892782  0.7090324871118984  0.3995282140667227
  0.9173327230454726  0.8340025737484429  0.3997653970720597
  0.9164331930316335  0.9581687726608836  0.3999361242188286
  0.0841942212070306  0.0432033227059886  0.4000021706341840
  0.0837266920077581  0.1677898363328615  0.4004618809281843
  0.0823432534204634  0.2916574764516179  0.4004035184561311
  0.0817725938896039  0.4163540789870660  0.4002208481443536
  0.0823166839626386  0.5417555231231945  0.3996268347682806
  0.0832884525407857  0.6672756167786310  0.3994391940789029
  0.0838616450242937  0.7927377775241938  0.3996091011225429
  0.0841198888928091  0.9180649071447844  0.3997251825207196
  0.2092195523176781  0.0437379773664919  0.4001755196548543
  0.2095708902015984  0.1694155825567080  0.4011150483624413
  0.2088592976853232  0.2942514134340218  0.4016482136494078
  0.2061197406003950  0.4169856969177903  0.4016938174418152
  0.2058580617534873  0.5414789881577702  0.4006502987904885
  0.2074058083797350  0.6669833259040793  0.3998432676882229
  0.2084365151566026  0.7925487832035869  0.3995797634485050
  0.2089208190649950  0.9180856222225839  0.3997208296157781
  0.3338615029535018  0.0434280054269124  0.4001598236689875
  0.3342927202273800  0.1697638213043008  0.4017145882787158
  0.3349531426574153  0.2969559757418126  0.4030379926725988
  0.3297317708381707  0.5418883067907394  0.4029644158072641
  0.3314113493513883  0.6660880297712295  0.4015938918136067
  0.3328765801500929  0.7916458654393206  0.4001634146347898
  0.3334523044699276  0.9174100119793775  0.3997315508087125
  0.4583107625876781  0.0418164609420608  0.3999078758636671
  0.4587729993281234  0.1680076956319338  0.4008422311108069
  0.4598414295557180  0.2944579513727895  0.4031273479291013
  0.4647842939633112  0.4204980303349254  0.4072720043770446
  0.4534431080595702  0.6603382642759338  0.4040764100359419
  0.4570735464927118  0.7892303515506662  0.4014550033581984
  0.4578720164687794  0.9157126576619339  0.4000702197049621
  0.5827808635754426  0.0402989673047027  0.3998167721277949
  0.5833060519516524  0.1661909588054903  0.3998972269787404
  0.5841332028700664  0.2917783751934626  0.4009785964679496
  0.5864199197693186  0.4172474426208201  0.4022940366877393
  0.5886847376728644  0.5430851095345353  0.4033590571333892
  0.5816391126214067  0.6603771255887853  0.4030057790633759
  0.5805486445898332  0.7861912919908024  0.4022963693971547
  0.5821890474588596  0.9139184687599246  0.4006102249539649
  0.7073547158989845  0.0398255158366766  0.3999084193993931
  0.7078430130498392  0.1654761521248040  0.3996784393190266
  0.7084568355379189  0.2910184892450693  0.3995981394528530
  0.7098533473916397  0.4164538653331624  0.4000544988983995
  0.7110680488028409  0.5417146489083079  0.4011082318304792
  0.7101924987442442  0.6668104275521016  0.4014734368597346
  0.7071202103516296  0.7893852660233759  0.4013836496271257
  0.7066416463025584  0.9139521714233537  0.4005329089062671
  0.8323560404877151  0.0402868640290080  0.3999186889436174
  0.8325229100895988  0.1654875839464452  0.3997606450891537
  0.8328571565624509  0.2907986166524912  0.3995874010441962
  0.8337085354640382  0.4162557244997870  0.3993804632098493
  0.8346187573014991  0.5417911428998285  0.3994040428429873
  0.8347620714944280  0.6671807726150231  0.3997732978687786
  0.8339811560535905  0.7919257179342359  0.4000972256891421
  0.8327250333715200  0.9157318811899039  0.4001807254618613
  0.9582737245737991  0.0417311879918801  0.3999238720624145
  0.9576436480157943  0.1660600602809493  0.3998941236937609
  0.9574176074138766  0.2910259209608599  0.3998228128097346
  0.9576867358306890  0.4162594455489688  0.3995408454497585
  0.9584566752103612  0.5417708506674150  0.3993653012996649
  0.9591065250866273  0.6672872593032837  0.3994385039242482
  0.9591615160255849  0.7926112112667015  0.3996263135412538
  0.9588832183380480  0.9174486555701743  0.3998283976321197
  0.4094283126991467  0.5802706865911185  0.4059425613115260
  0.5457776132034922  0.5798618281240761  0.4024798159836299
  0.3306016163041606  0.4197975277506054  0.4002515264003591
  0.4902502872198943  0.4937210937461126  0.5068567992214569
  0.4313254315751854  0.4987314818361151  0.4832439010057823
 
  0.00000000E+00  0.00000000E+00  0.00000000E+00
  0.00000000E+00  0.00000000E+00  0.00000000E+00
  0.00000000E+00  0.00000000E+00  0.00000000E+00
  0.00000000E+00  0.00000000E+00  0.00000000E+00
  0.00000000E+00  0.00000000E+00  0.00000000E+00
  0.00000000E+00  0.00000000E+00  0.00000000E+00
  0.00000000E+00  0.00000000E+00  0.00000000E+00
  0.00000000E+00  0.00000000E+00  0.00000000E+00
  0.00000000E+00  0.00000000E+00  0.00000000E+00
  0.00000000E+00  0.00000000E+00  0.00000000E+00
  0.00000000E+00  0.00000000E+00  0.00000000E+00
  0.00000000E+00  0.00000000E+00  0.00000000E+00
  0.00000000E+00  0.00000000E+00  0.00000000E+00
  0.00000000E+00  0.00000000E+00  0.00000000E+00
  0.00000000E+00  0.00000000E+00  0.00000000E+00
  0.00000000E+00  0.00000000E+00  0.00000000E+00
  0.00000000E+00  0.00000000E+00  0.00000000E+00
  0.00000000E+00  0.00000000E+00  0.00000000E+00
  0.00000000E+00  0.00000000E+00  0.00000000E+00
  0.00000000E+00  0.00000000E+00  0.00000000E+00
  0.00000000E+00  0.00000000E+00  0.00000000E+00
  0.00000000E+00  0.00000000E+00  0.00000000E+00
  0.00000000E+00  0.00000000E+00  0.00000000E+00
  0.00000000E+00  0.00000000E+00  0.00000000E+00
  0.00000000E+00  0.00000000E+00  0.00000000E+00
  0.00000000E+00  0.00000000E+00  0.00000000E+00
  0.00000000E+00  0.00000000E+00  0.00000000E+00
  0.00000000E+00  0.00000000E+00  0.00000000E+00
  0.00000000E+00  0.00000000E+00  0.00000000E+00
  0.00000000E+00  0.00000000E+00  0.00000000E+00
  0.00000000E+00  0.00000000E+00  0.00000000E+00
  0.00000000E+00  0.00000000E+00  0.00000000E+00
  0.00000000E+00  0.00000000E+00  0.00000000E+00
  0.00000000E+00  0.00000000E+00  0.00000000E+00
  0.00000000E+00  0.00000000E+00  0.00000000E+00
  0.00000000E+00  0.00000000E+00  0.00000000E+00
  0.00000000E+00  0.00000000E+00  0.00000000E+00
  0.00000000E+00  0.00000000E+00  0.00000000E+00
  0.00000000E+00  0.00000000E+00  0.00000000E+00
  0.00000000E+00  0.00000000E+00  0.00000000E+00
  0.00000000E+00  0.00000000E+00  0.00000000E+00
  0.00000000E+00  0.00000000E+00  0.00000000E+00
  0.00000000E+00  0.00000000E+00  0.00000000E+00
  0.00000000E+00  0.00000000E+00  0.00000000E+00
  0.00000000E+00  0.00000000E+00  0.00000000E+00
  0.00000000E+00  0.00000000E+00  0.00000000E+00
  0.00000000E+00  0.00000000E+00  0.00000000E+00
  0.00000000E+00  0.00000000E+00  0.00000000E+00
  0.00000000E+00  0.00000000E+00  0.00000000E+00
  0.00000000E+00  0.00000000E+00  0.00000000E+00
  0.00000000E+00  0.00000000E+00  0.00000000E+00
  0.00000000E+00  0.00000000E+00  0.00000000E+00
  0.00000000E+00  0.00000000E+00  0.00000000E+00
  0.00000000E+00  0.00000000E+00  0.00000000E+00
  0.00000000E+00  0.00000000E+00  0.00000000E+00
  0.00000000E+00  0.00000000E+00  0.00000000E+00
  0.00000000E+00  0.00000000E+00  0.00000000E+00
  0.00000000E+00  0.00000000E+00  0.00000000E+00
  0.00000000E+00  0.00000000E+00  0.00000000E+00
  0.00000000E+00  0.00000000E+00  0.00000000E+00
  0.00000000E+00  0.00000000E+00  0.00000000E+00
  0.00000000E+00  0.00000000E+00  0.00000000E+00
  0.00000000E+00  0.00000000E+00  0.00000000E+00
  0.00000000E+00  0.00000000E+00  0.00000000E+00
  0.00000000E+00  0.00000000E+00  0.00000000E+00
  0.00000000E+00  0.00000000E+00  0.00000000E+00
  0.00000000E+00  0.00000000E+00  0.00000000E+00
  0.00000000E+00  0.00000000E+00  0.00000000E+00
  0.00000000E+00  0.00000000E+00  0.00000000E+00
  0.00000000E+00  0.00000000E+00  0.00000000E+00
  0.00000000E+00  0.00000000E+00  0.00000000E+00
  0.00000000E+00  0.00000000E+00  0.00000000E+00
  0.00000000E+00  0.00000000E+00  0.00000000E+00
  0.00000000E+00  0.00000000E+00  0.00000000E+00
  0.00000000E+00  0.00000000E+00  0.00000000E+00
  0.00000000E+00  0.00000000E+00  0.00000000E+00
  0.00000000E+00  0.00000000E+00  0.00000000E+00
  0.00000000E+00  0.00000000E+00  0.00000000E+00
  0.00000000E+00  0.00000000E+00  0.00000000E+00
  0.00000000E+00  0.00000000E+00  0.00000000E+00
  0.00000000E+00  0.00000000E+00  0.00000000E+00
  0.00000000E+00  0.00000000E+00  0.00000000E+00
  0.00000000E+00  0.00000000E+00  0.00000000E+00
  0.00000000E+00  0.00000000E+00  0.00000000E+00
  0.00000000E+00  0.00000000E+00  0.00000000E+00
  0.00000000E+00  0.00000000E+00  0.00000000E+00
  0.00000000E+00  0.00000000E+00  0.00000000E+00
  0.00000000E+00  0.00000000E+00  0.00000000E+00
  0.00000000E+00  0.00000000E+00  0.00000000E+00
  0.00000000E+00  0.00000000E+00  0.00000000E+00
  0.00000000E+00  0.00000000E+00  0.00000000E+00
  0.00000000E+00  0.00000000E+00  0.00000000E+00
  0.00000000E+00  0.00000000E+00  0.00000000E+00
  0.00000000E+00  0.00000000E+00  0.00000000E+00
  0.00000000E+00  0.00000000E+00  0.00000000E+00
  0.00000000E+00  0.00000000E+00  0.00000000E+00
  0.00000000E+00  0.00000000E+00  0.00000000E+00
  0.00000000E+00  0.00000000E+00  0.00000000E+00
  0.00000000E+00  0.00000000E+00  0.00000000E+00
  0.00000000E+00  0.00000000E+00  0.00000000E+00
  0.00000000E+00  0.00000000E+00  0.00000000E+00
  0.00000000E+00  0.00000000E+00  0.00000000E+00
  0.00000000E+00  0.00000000E+00  0.00000000E+00
  0.00000000E+00  0.00000000E+00  0.00000000E+00
  0.00000000E+00  0.00000000E+00  0.00000000E+00
  0.00000000E+00  0.00000000E+00  0.00000000E+00
  0.00000000E+00  0.00000000E+00  0.00000000E+00
  0.00000000E+00  0.00000000E+00  0.00000000E+00
  0.00000000E+00  0.00000000E+00  0.00000000E+00
  0.00000000E+00  0.00000000E+00  0.00000000E+00
  0.00000000E+00  0.00000000E+00  0.00000000E+00
  0.00000000E+00  0.00000000E+00  0.00000000E+00
  0.00000000E+00  0.00000000E+00  0.00000000E+00
  0.00000000E+00  0.00000000E+00  0.00000000E+00
  0.00000000E+00  0.00000000E+00  0.00000000E+00
  0.00000000E+00  0.00000000E+00  0.00000000E+00
  0.00000000E+00  0.00000000E+00  0.00000000E+00
  0.00000000E+00  0.00000000E+00  0.00000000E+00
  0.00000000E+00  0.00000000E+00  0.00000000E+00
  0.00000000E+00  0.00000000E+00  0.00000000E+00
  0.00000000E+00  0.00000000E+00  0.00000000E+00
  0.00000000E+00  0.00000000E+00  0.00000000E+00
  0.00000000E+00  0.00000000E+00  0.00000000E+00
  0.00000000E+00  0.00000000E+00  0.00000000E+00
  0.00000000E+00  0.00000000E+00  0.00000000E+00
  0.00000000E+00  0.00000000E+00  0.00000000E+00
  0.00000000E+00  0.00000000E+00  0.00000000E+00
  0.00000000E+00  0.00000000E+00  0.00000000E+00
  0.00000000E+00  0.00000000E+00  0.00000000E+00
  0.00000000E+00  0.00000000E+00  0.00000000E+00
