Os1 C126                                
   1.00000000000000     
    19.8168992186503594    0.0000101882257439   -0.0007935014576847
    -9.9084407627132656   17.0477705739421879    0.0002756567296490
    -0.0011925114597749   -0.0002081754463758   29.7850710122352886
   Os   C 
     1   126
Direct
  0.4375137557878048  0.5000007689660819  0.4295545047162435
  0.0420144851737234  0.0840517886035173  0.3999234842508272
  0.0409946847716753  0.2080823025833354  0.3997467570127355
  0.0403865821554916  0.3327830362448410  0.3996942682639499
  0.0403853896983293  0.4582366546020964  0.3998876932081927
  0.0412774672691043  0.5837424763690962  0.4000924813369338
  0.0420548513652577  0.7090994756439883  0.4000863788671936
  0.0423790625752076  0.8344227507502282  0.4000680541492656
  0.0423909219470247  0.9594542737587801  0.4000439472974762
  0.1676812929784575  0.0852607703552337  0.3998748265443623
  0.1674849026928982  0.2101521432703564  0.3997100212288558
  0.1652969458240889  0.3333369819313177  0.3995051708502402
  0.1638934914351537  0.4582722745146555  0.3993465129495632
  0.1650260100885177  0.5836168839920006  0.3995879955135848
  0.1664391854078247  0.7090416079076078  0.3999556141144964
  0.1670323489125636  0.8344161688865981  0.4000481828448912
  0.1674316609650788  0.9598474737774012  0.3999791092995579
  0.2925713613262459  0.0852597372948551  0.3998546885508887
  0.2933511480389441  0.2117439811295583  0.4001509661062954
  0.2935184300722682  0.3377214934261801  0.4015188838969195
  0.2866922323581989  0.4581162534081997  0.4014119791151458
  0.2884300084270208  0.5836878562896217  0.3995267448339135
  0.2908244552725279  0.7087145697487642  0.3995389693375344
  0.2916124297232656  0.8339230383338290  0.3999631725155410
  0.2920912467158701  0.9594464437248220  0.4000072162887918
  0.4170610325316488  0.0840435309482288  0.3999117531715584
  0.4176357899034429  0.2101512207061447  0.3997130078209779
  0.4191726134704439  0.3377169280203205  0.4015261636594971
  0.4102268630189840  0.5787825937633357  0.4053030035628993
  0.4151702574257641  0.7060914315704494  0.3998852576388288
  0.4161571272504148  0.8324405796915357  0.3997267940300873
  0.4166394272916421  0.9582524594695201  0.4000399112416630
  0.5415744309674935  0.0826617576156252  0.4000738474775360
  0.5420836236098054  0.2080820341978082  0.3997554402889207
  0.5430386014829551  0.3333490953308029  0.3995009127523304
  0.5464198843337016  0.4581276909579586  0.4014081507350156
  0.5435631711568050  0.5787923551132792  0.4053014700942299
  0.5397269786114762  0.7044686643442688  0.4013496119004287
  0.5405249953422882  0.8310038986827450  0.3998738332361143
  0.5411398762787769  0.9569988154104294  0.3999496182988267
  0.6661491859375062  0.0820726579600048  0.4000327527554788
  0.6665895449577803  0.2074887179138329  0.4000359408908665
  0.6673845711553241  0.3327948483256122  0.3996878708955620
  0.6693917279006243  0.4582928384727865  0.3993380249056599
  0.6702535102356038  0.5836797132017963  0.3995230869678466
  0.6659127025852811  0.7060856587637119  0.3998907913326661
  0.6654563795011299  0.8310066995828436  0.3998739811026866
  0.6657902390573938  0.9565637462576078  0.3999067395600946
  0.7909494393256580  0.0820745401046707  0.4000209270712816
  0.7911578382319036  0.2073036085820803  0.4000547265157977
  0.7917332367726075  0.3327378919283532  0.4000582114852307
  0.7928470298737267  0.4582582560018551  0.3998636132657296
  0.7935857158378710  0.5836112927931865  0.3995737478464960
  0.7928790606208835  0.7087011343515428  0.3995355084228294
  0.7912823419138775  0.8324342904660043  0.3997229281778019
  0.7908566248468034  0.9569954243433187  0.3999117475648646
  0.9161110005529096  0.0826747037350657  0.4000290443371810
  0.9158947342879458  0.2074886813467742  0.4000116843115649
  0.9160213527947860  0.3327295616223438  0.4000670617673165
  0.9166031329087332  0.4581956780342367  0.4001571998794020
  0.9174505443169068  0.5837407021838459  0.4000762860911067
  0.9176043680199371  0.7090402881032603  0.3999648835546026
  0.9173272650295061  0.8339250698884797  0.3999921431452549
  0.9166536109417578  0.9582586870187768  0.4000510865075242
  0.0841370168333455  0.0429986716186832  0.3999496147613755
  0.0837162060904788  0.1675597805571414  0.3997263477020354
  0.0821075898827530  0.2912822472699759  0.3995396972469578
  0.0814061382939713  0.4163805562678320  0.3995887737972978
  0.0821468738511228  0.5417623307850974  0.3998873830308440
  0.0832908716944303  0.6672716487117825  0.4000668649748746
  0.0838552244224715  0.7926980528968244  0.4000548388251133
  0.0840766725258675  0.9179261302274426  0.4000339397095019
  0.2092274213651706  0.0434365372342000  0.3999067443560165
  0.2095223411820015  0.1689972822404684  0.3998722754681339
  0.2090779199541757  0.2939082772054533  0.3998844269963300
  0.2047433875765137  0.4163134065974177  0.3995257583091245
  0.2056198690932902  0.5417276462188596  0.3993464872299910
  0.2076013198075444  0.6672180330905348  0.3996932866606357
  0.2084056597923336  0.7925117928071401  0.4000104687302226
  0.2088755254919761  0.9179250481670493  0.4000216959391878
  0.3338601115318127  0.0430053223942224  0.3999123121995538
  0.3344525257738553  0.1689919690973554  0.3998732386110859
  0.3352593127999839  0.2955323817168107  0.4013469445076367
  0.3314436651749801  0.4212176157505496  0.4053024433291412
  0.3285761850276074  0.5418832805409011  0.4014125878073429
  0.3319573439860122  0.6666625419160397  0.3995060806952893
  0.3329111794624282  0.7919180569861979  0.3997462960739071
  0.3334357304484143  0.9173236011218009  0.4000283365624711
  0.4583947686539673  0.0417423151461591  0.4000517160077521
  0.4588468691166057  0.1675646894249638  0.3997229738688617
  0.4598253136890591  0.2939123397846544  0.3998899012041690
  0.4647683645113077  0.4212063657969622  0.4053014527065599
  0.4557979511567751  0.6622800976002452  0.4015207448151443
  0.4573316376596068  0.7898475004521757  0.3997115095669770
  0.4579582459103477  0.9159473646652287  0.3999232247337332
  0.5829366092840758  0.0405502072673443  0.4000433967975852
  0.5834035713106687  0.1660736372797587  0.3999928876852223
  0.5841759066268679  0.2912960145665693  0.3995363257659079
  0.5865740246631788  0.4163177893651309  0.3995224513124853
  0.5882914058917592  0.5418752007023926  0.4014085007654202
  0.5814561912766081  0.6622850024857030  0.4015275116976298
  0.5816093957322295  0.7882559629214470  0.4001526380295388
  0.5824194252584363  0.9147401652621809  0.3998755468366326
  0.7075845780240257  0.0401531456699615  0.3999780655281242
  0.7079550533342527  0.1655773596677079  0.4000670586203015
  0.7085637777083917  0.2909598612684192  0.3999646897520392
  0.7099762812974006  0.4163862808536436  0.3995737405083375
  0.7111028947089011  0.5417082444506320  0.3993382140773747
  0.7096917974908550  0.6666543304804335  0.3995010423524405
  0.7074866514660911  0.7898511469980178  0.3997139405470307
  0.7073116489671776  0.9147400328858879  0.3998546190582388
  0.8326455969891171  0.0405541063496315  0.4000067702606742
  0.8326163467269296  0.1655837641466817  0.4000479466149471
  0.8329540417134496  0.2908986477758688  0.4000859808073756
  0.8337079096886058  0.4162575779187492  0.4000753059885938
  0.8345890104334046  0.5417410767746276  0.3998638139219892
  0.8345907828984735  0.6672062038757360  0.3996876408676044
  0.8340042399371796  0.7919213516015873  0.3997546294683048
  0.8330176405922103  0.9159567763764827  0.3999113352191372
  0.9583860117688872  0.0417472774128882  0.4000402682464639
  0.9576900397556400  0.1660781278492180  0.3999638302308384
  0.9573955241701597  0.2909558752334078  0.3999565986835734
  0.9575339171781962  0.4162553431686220  0.4000922313562967
  0.9584066945235676  0.5418047066227913  0.4001578125929299
  0.9589951799350018  0.6672629645292290  0.4000590097768040
  0.9591001552994811  0.7925113155481256  0.4000361165405124
  0.9589122713239320  0.9173376660835260  0.4000733263052041
 
  0.00000000E+00  0.00000000E+00  0.00000000E+00
  0.00000000E+00  0.00000000E+00  0.00000000E+00
  0.00000000E+00  0.00000000E+00  0.00000000E+00
  0.00000000E+00  0.00000000E+00  0.00000000E+00
  0.00000000E+00  0.00000000E+00  0.00000000E+00
  0.00000000E+00  0.00000000E+00  0.00000000E+00
  0.00000000E+00  0.00000000E+00  0.00000000E+00
  0.00000000E+00  0.00000000E+00  0.00000000E+00
  0.00000000E+00  0.00000000E+00  0.00000000E+00
  0.00000000E+00  0.00000000E+00  0.00000000E+00
  0.00000000E+00  0.00000000E+00  0.00000000E+00
  0.00000000E+00  0.00000000E+00  0.00000000E+00
  0.00000000E+00  0.00000000E+00  0.00000000E+00
  0.00000000E+00  0.00000000E+00  0.00000000E+00
  0.00000000E+00  0.00000000E+00  0.00000000E+00
  0.00000000E+00  0.00000000E+00  0.00000000E+00
  0.00000000E+00  0.00000000E+00  0.00000000E+00
  0.00000000E+00  0.00000000E+00  0.00000000E+00
  0.00000000E+00  0.00000000E+00  0.00000000E+00
  0.00000000E+00  0.00000000E+00  0.00000000E+00
  0.00000000E+00  0.00000000E+00  0.00000000E+00
  0.00000000E+00  0.00000000E+00  0.00000000E+00
  0.00000000E+00  0.00000000E+00  0.00000000E+00
  0.00000000E+00  0.00000000E+00  0.00000000E+00
  0.00000000E+00  0.00000000E+00  0.00000000E+00
  0.00000000E+00  0.00000000E+00  0.00000000E+00
  0.00000000E+00  0.00000000E+00  0.00000000E+00
  0.00000000E+00  0.00000000E+00  0.00000000E+00
  0.00000000E+00  0.00000000E+00  0.00000000E+00
  0.00000000E+00  0.00000000E+00  0.00000000E+00
  0.00000000E+00  0.00000000E+00  0.00000000E+00
  0.00000000E+00  0.00000000E+00  0.00000000E+00
  0.00000000E+00  0.00000000E+00  0.00000000E+00
  0.00000000E+00  0.00000000E+00  0.00000000E+00
  0.00000000E+00  0.00000000E+00  0.00000000E+00
  0.00000000E+00  0.00000000E+00  0.00000000E+00
  0.00000000E+00  0.00000000E+00  0.00000000E+00
  0.00000000E+00  0.00000000E+00  0.00000000E+00
  0.00000000E+00  0.00000000E+00  0.00000000E+00
  0.00000000E+00  0.00000000E+00  0.00000000E+00
  0.00000000E+00  0.00000000E+00  0.00000000E+00
  0.00000000E+00  0.00000000E+00  0.00000000E+00
  0.00000000E+00  0.00000000E+00  0.00000000E+00
  0.00000000E+00  0.00000000E+00  0.00000000E+00
  0.00000000E+00  0.00000000E+00  0.00000000E+00
  0.00000000E+00  0.00000000E+00  0.00000000E+00
  0.00000000E+00  0.00000000E+00  0.00000000E+00
  0.00000000E+00  0.00000000E+00  0.00000000E+00
  0.00000000E+00  0.00000000E+00  0.00000000E+00
  0.00000000E+00  0.00000000E+00  0.00000000E+00
  0.00000000E+00  0.00000000E+00  0.00000000E+00
  0.00000000E+00  0.00000000E+00  0.00000000E+00
  0.00000000E+00  0.00000000E+00  0.00000000E+00
  0.00000000E+00  0.00000000E+00  0.00000000E+00
  0.00000000E+00  0.00000000E+00  0.00000000E+00
  0.00000000E+00  0.00000000E+00  0.00000000E+00
  0.00000000E+00  0.00000000E+00  0.00000000E+00
  0.00000000E+00  0.00000000E+00  0.00000000E+00
  0.00000000E+00  0.00000000E+00  0.00000000E+00
  0.00000000E+00  0.00000000E+00  0.00000000E+00
  0.00000000E+00  0.00000000E+00  0.00000000E+00
  0.00000000E+00  0.00000000E+00  0.00000000E+00
  0.00000000E+00  0.00000000E+00  0.00000000E+00
  0.00000000E+00  0.00000000E+00  0.00000000E+00
  0.00000000E+00  0.00000000E+00  0.00000000E+00
  0.00000000E+00  0.00000000E+00  0.00000000E+00
  0.00000000E+00  0.00000000E+00  0.00000000E+00
  0.00000000E+00  0.00000000E+00  0.00000000E+00
  0.00000000E+00  0.00000000E+00  0.00000000E+00
  0.00000000E+00  0.00000000E+00  0.00000000E+00
  0.00000000E+00  0.00000000E+00  0.00000000E+00
  0.00000000E+00  0.00000000E+00  0.00000000E+00
  0.00000000E+00  0.00000000E+00  0.00000000E+00
  0.00000000E+00  0.00000000E+00  0.00000000E+00
  0.00000000E+00  0.00000000E+00  0.00000000E+00
  0.00000000E+00  0.00000000E+00  0.00000000E+00
  0.00000000E+00  0.00000000E+00  0.00000000E+00
  0.00000000E+00  0.00000000E+00  0.00000000E+00
  0.00000000E+00  0.00000000E+00  0.00000000E+00
  0.00000000E+00  0.00000000E+00  0.00000000E+00
  0.00000000E+00  0.00000000E+00  0.00000000E+00
  0.00000000E+00  0.00000000E+00  0.00000000E+00
  0.00000000E+00  0.00000000E+00  0.00000000E+00
  0.00000000E+00  0.00000000E+00  0.00000000E+00
  0.00000000E+00  0.00000000E+00  0.00000000E+00
  0.00000000E+00  0.00000000E+00  0.00000000E+00
  0.00000000E+00  0.00000000E+00  0.00000000E+00
  0.00000000E+00  0.00000000E+00  0.00000000E+00
  0.00000000E+00  0.00000000E+00  0.00000000E+00
  0.00000000E+00  0.00000000E+00  0.00000000E+00
  0.00000000E+00  0.00000000E+00  0.00000000E+00
  0.00000000E+00  0.00000000E+00  0.00000000E+00
  0.00000000E+00  0.00000000E+00  0.00000000E+00
  0.00000000E+00  0.00000000E+00  0.00000000E+00
  0.00000000E+00  0.00000000E+00  0.00000000E+00
  0.00000000E+00  0.00000000E+00  0.00000000E+00
  0.00000000E+00  0.00000000E+00  0.00000000E+00
  0.00000000E+00  0.00000000E+00  0.00000000E+00
  0.00000000E+00  0.00000000E+00  0.00000000E+00
  0.00000000E+00  0.00000000E+00  0.00000000E+00
  0.00000000E+00  0.00000000E+00  0.00000000E+00
  0.00000000E+00  0.00000000E+00  0.00000000E+00
  0.00000000E+00  0.00000000E+00  0.00000000E+00
  0.00000000E+00  0.00000000E+00  0.00000000E+00
  0.00000000E+00  0.00000000E+00  0.00000000E+00
  0.00000000E+00  0.00000000E+00  0.00000000E+00
  0.00000000E+00  0.00000000E+00  0.00000000E+00
  0.00000000E+00  0.00000000E+00  0.00000000E+00
  0.00000000E+00  0.00000000E+00  0.00000000E+00
  0.00000000E+00  0.00000000E+00  0.00000000E+00
  0.00000000E+00  0.00000000E+00  0.00000000E+00
  0.00000000E+00  0.00000000E+00  0.00000000E+00
  0.00000000E+00  0.00000000E+00  0.00000000E+00
  0.00000000E+00  0.00000000E+00  0.00000000E+00
  0.00000000E+00  0.00000000E+00  0.00000000E+00
  0.00000000E+00  0.00000000E+00  0.00000000E+00
  0.00000000E+00  0.00000000E+00  0.00000000E+00
  0.00000000E+00  0.00000000E+00  0.00000000E+00
  0.00000000E+00  0.00000000E+00  0.00000000E+00
  0.00000000E+00  0.00000000E+00  0.00000000E+00
  0.00000000E+00  0.00000000E+00  0.00000000E+00
  0.00000000E+00  0.00000000E+00  0.00000000E+00
  0.00000000E+00  0.00000000E+00  0.00000000E+00
  0.00000000E+00  0.00000000E+00  0.00000000E+00
  0.00000000E+00  0.00000000E+00  0.00000000E+00
  0.00000000E+00  0.00000000E+00  0.00000000E+00
  0.00000000E+00  0.00000000E+00  0.00000000E+00
