ALGO = Fast
ISYM = 0
ENCUT = 520
IBRION = 2
ISIF = 4
ISMEAR = -5 
ISPIN = 2
LASPH = True
LCHARG = False
LMAXMIX = 6
LORBIT = 11
LREAL = Auto
LVTOT = False
LWAVE = False
MAGMOM = 127*0.6
NELM = 200
NSW = 0
PREC = Accurate
SIGMA = 0.05
EDIFF = 1e-4
AMIX = 0.1
BMIX = 0.01
LVDW = .TRUE.
SYMPREC = 1e-9
EMAX = 15
EMIN = -15
NEDOS = 3000
