La1 C123 N3 O1                          
   1.00000000000000     
    19.7945519583357168    0.0204121289479078   -0.0882033167823285
    -9.8798104050889428   17.0396840854823495    0.0800391317431143
    -0.1329979009035687    0.0627959560221058   29.8157556682434546
   La   C    N    O 
     1   123     3     1
Direct
  0.4463046201192194  0.4964685788486304  0.4610337346969530
  0.0415074156661773  0.0836590445498473  0.3995511916472949
  0.0406092763141031  0.2078907742804407  0.3991821763767282
  0.0402638787021716  0.3327652430362830  0.3986287837430615
  0.0408191964693940  0.4580831694571156  0.3986649309029919
  0.0416659411319298  0.5835341732766446  0.3992660730691454
  0.0423506139543116  0.7089678278076685  0.3996373164930170
  0.0425854150852114  0.8343266402802063  0.3996968377377516
  0.0423946105663134  0.9593588415383961  0.3996642280058357
  0.1674166337294324  0.0849992821765040  0.4003418203910072
  0.1663016189911401  0.2090957628508262  0.4001128548494788
  0.1648248699963559  0.3331608422955477  0.3993937848145323
  0.1649544351237728  0.4580362600904905  0.3979651008737510
  0.1658070200696196  0.5832328694961623  0.3984004805941381
  0.1666795203700467  0.7087090828942874  0.3992847007491418
  0.1672338227560177  0.8342274486490117  0.3997255000139516
  0.1674673010002858  0.9597358631110008  0.3999214179347876
  0.2924404734808757  0.0854100305749682  0.4001599877796460
  0.2927602097703159  0.2119778900594141  0.4017818339325946
  0.2903082315303143  0.3365665781429955  0.4042746065106143
  0.2890901481343797  0.4562841200758470  0.4030695319717695
  0.2897179431571490  0.5825332494321468  0.3995138762831544
  0.2909706909191619  0.7081046334028183  0.3989316056064555
  0.2917872332571675  0.8336690441238231  0.3993720230163981
  0.2921555303388451  0.9594058768220396  0.3997101482762541
  0.4169770610293782  0.0840925752422121  0.3997059164313644
  0.4173767964449861  0.2101042861654639  0.4000233535829593
  0.4187724374405868  0.3377738935647384  0.3999195368480320
  0.4151204559818787  0.7061066080475314  0.4004354264600388
  0.4162582261334739  0.8322482775588643  0.3993909249491456
  0.4166821127415865  0.9582098070010727  0.3994841780780000
  0.5414521578190228  0.0827403836789105  0.3995307563521613
  0.5419273323116676  0.2085826232602722  0.3996318215312687
  0.5427178758600568  0.3343945914186300  0.3994044880166789
  0.5444076155893723  0.4598637048640786  0.3978926379004489
  0.5391866145327323  0.7023272576808548  0.4033297460522534
  0.5405370364746859  0.8302895095394521  0.4005594265410302
  0.5411073912941350  0.9567371869762202  0.3996701128922446
  0.6659695409444401  0.0820692515270530  0.3997113687850406
  0.6663892782324663  0.2076542221424481  0.3995765222816190
  0.6671037947834975  0.3331525980574236  0.3996033261329980
  0.6687274548456426  0.4587718993926038  0.3995914284550265
  0.6705049050333244  0.5846284075887607  0.3983537400867694
  0.6678336515202539  0.7075643763893780  0.3996899127590960
  0.6651933837170770  0.8306043082138257  0.4005086910397571
  0.6656151142278010  0.9563906489222593  0.4000734580500319
  0.7906566399481111  0.0819929713725152  0.3997970464491815
  0.7909321135289352  0.2073606816397117  0.3996530245987294
  0.7915293727503844  0.3328401424255563  0.3995523744300302
  0.7925685879528009  0.4583542641008196  0.3993546554302860
  0.7935612709175448  0.5837938243291297  0.3991057914076644
  0.7937113373457945  0.7091897581899212  0.3991003311937815
  0.7918945374603928  0.8329608328501281  0.3994644929104634
  0.7905979643253480  0.9568645317570575  0.3997491462257431
  0.9157896319658034  0.0825241682240593  0.3995077598776898
  0.9155889247516872  0.2074355649819084  0.3994140277582924
  0.9158825596733497  0.3327459663238678  0.3993036229240012
  0.9166675648515510  0.4581638022063271  0.3994016558163573
  0.9175777838949181  0.5836770997887505  0.3995055123595981
  0.9179705137998254  0.7090748581530232  0.3993743304198061
  0.9176957048274811  0.8341087665282771  0.3994116503070572
  0.9166625513515899  0.9583021779095577  0.3995147231789118
  0.0839662585282566  0.0428334371436749  0.3997987558626207
  0.0829193442165321  0.1669857985604143  0.3994325233762180
  0.0818290011448125  0.2912470779199563  0.3988979918713357
  0.0820436874974770  0.4162576461605243  0.3981913437520120
  0.0827664236328928  0.5415868853642486  0.3987062992072065
  0.0835777715858968  0.6670736025203555  0.3994513550738246
  0.0840819159287528  0.7925491778167831  0.3997249601971496
  0.0841803377180863  0.9178477431820535  0.3997872071608738
  0.2090811716661115  0.0432984138144736  0.4002134836586236
  0.2089564135488362  0.1686336331481618  0.4010181628745177
  0.2071425969069013  0.2924426618292831  0.4006242761057256
  0.2063723888766358  0.4164897868568123  0.3990130401654832
  0.2067630965975411  0.5412658432604193  0.3982464815531030
  0.2078796483641708  0.6667617146355623  0.3988272492408865
  0.2086135000434720  0.7922603191753786  0.3995030063719340
  0.2089565885568946  0.9177959534129284  0.3998018005680148
  0.3337680518711871  0.0430620161468689  0.3998022268613786
  0.3341006430370106  0.1691984353364155  0.4005405224649702
  0.3342269259255757  0.2958692226944177  0.4030076505336633
  0.3324690141008416  0.5422702769977737  0.4030301305381064
  0.3320713262514687  0.6658492318943877  0.3994627339122717
  0.3330515770826469  0.7914657174781221  0.3991713024059113
  0.3335041854820265  0.9171880880106620  0.3995273243581450
  0.4582853250925921  0.0417144341805038  0.3995392556142707
  0.4586616036505997  0.1676451123181597  0.3998928871753604
  0.4593256850337186  0.2937324895517642  0.3993613449611346
  0.4628153326905614  0.4198311200106806  0.3956187110427045
  0.4538985669358370  0.6608859721745128  0.4034429479217002
  0.4574070278936879  0.7896958975809643  0.3999553535939711
  0.4579428033595386  0.9157953598955784  0.3994757433828094
  0.5827848720182550  0.0404650485820728  0.3996252809801888
  0.5832056446970846  0.1663360851231721  0.3995304549897670
  0.5839060360600363  0.2920225718564622  0.3995684347374001
  0.5857691831854018  0.4178033095064988  0.3996835430472717
  0.5882699865541603  0.5450919638313788  0.3983610782754696
  0.5843001693846639  0.6627014144976543  0.4019939008634941
  0.5811037367708426  0.7867398922070870  0.4015110288433099
  0.5823077740250410  0.9142059679588497  0.4000558430488053
  0.7073580024143941  0.0400301716033670  0.3998675342541543
  0.7077568680021928  0.1656740189412844  0.3996435425762745
  0.7083155566372019  0.2911852620948617  0.3996140833965895
  0.7095241820693455  0.4166942620397200  0.3994814846702158
  0.7109438377831578  0.5421608807449858  0.3989215708818923
  0.7108653415960897  0.6675564013954818  0.3989424394000103
  0.7084329480007346  0.7907572645415595  0.3998247205421857
  0.7069906120693764  0.9144340888305400  0.4000844590344496
  0.8323433159241359  0.0404500832733881  0.3996912675518164
  0.8323770232381179  0.1655802932661329  0.3996816495397981
  0.8327731587715033  0.2909314453913303  0.3995477584006736
  0.8336241070698590  0.4163750302724887  0.3994467107915212
  0.8346155385854892  0.5418687430655332  0.3993513706890761
  0.8350280985112434  0.6673708138368324  0.3991108340253313
  0.8345201828505523  0.7923038954399922  0.3993198091096831
  0.8332077093000396  0.9162234375212490  0.3995662825224100
  0.9580928827768588  0.0416137770957409  0.3995045892367702
  0.9573532777218580  0.1659539482459496  0.3993371412636998
  0.9572436189127321  0.2909669300265000  0.3991015292573299
  0.9577703228755696  0.4162659065059746  0.3992030833923607
  0.9586684686590206  0.5417631506198287  0.3994445486307784
  0.9592994730861926  0.6672147443223030  0.3995424786108225
  0.9594174528633738  0.7925640547189071  0.3994842056565007
  0.9590551757615280  0.9174475252588523  0.3995028369761468
  0.4112074091003022  0.5814012185842489  0.4062905172335848
  0.5481394104111217  0.5833948713060542  0.4023371238813304
  0.3277694282668487  0.4161477555663325  0.4084701334848991
  0.4661930338878453  0.5457237475697984  0.5185651936140478
 
  0.00000000E+00  0.00000000E+00  0.00000000E+00
  0.00000000E+00  0.00000000E+00  0.00000000E+00
  0.00000000E+00  0.00000000E+00  0.00000000E+00
  0.00000000E+00  0.00000000E+00  0.00000000E+00
  0.00000000E+00  0.00000000E+00  0.00000000E+00
  0.00000000E+00  0.00000000E+00  0.00000000E+00
  0.00000000E+00  0.00000000E+00  0.00000000E+00
  0.00000000E+00  0.00000000E+00  0.00000000E+00
  0.00000000E+00  0.00000000E+00  0.00000000E+00
  0.00000000E+00  0.00000000E+00  0.00000000E+00
  0.00000000E+00  0.00000000E+00  0.00000000E+00
  0.00000000E+00  0.00000000E+00  0.00000000E+00
  0.00000000E+00  0.00000000E+00  0.00000000E+00
  0.00000000E+00  0.00000000E+00  0.00000000E+00
  0.00000000E+00  0.00000000E+00  0.00000000E+00
  0.00000000E+00  0.00000000E+00  0.00000000E+00
  0.00000000E+00  0.00000000E+00  0.00000000E+00
  0.00000000E+00  0.00000000E+00  0.00000000E+00
  0.00000000E+00  0.00000000E+00  0.00000000E+00
  0.00000000E+00  0.00000000E+00  0.00000000E+00
  0.00000000E+00  0.00000000E+00  0.00000000E+00
  0.00000000E+00  0.00000000E+00  0.00000000E+00
  0.00000000E+00  0.00000000E+00  0.00000000E+00
  0.00000000E+00  0.00000000E+00  0.00000000E+00
  0.00000000E+00  0.00000000E+00  0.00000000E+00
  0.00000000E+00  0.00000000E+00  0.00000000E+00
  0.00000000E+00  0.00000000E+00  0.00000000E+00
  0.00000000E+00  0.00000000E+00  0.00000000E+00
  0.00000000E+00  0.00000000E+00  0.00000000E+00
  0.00000000E+00  0.00000000E+00  0.00000000E+00
  0.00000000E+00  0.00000000E+00  0.00000000E+00
  0.00000000E+00  0.00000000E+00  0.00000000E+00
  0.00000000E+00  0.00000000E+00  0.00000000E+00
  0.00000000E+00  0.00000000E+00  0.00000000E+00
  0.00000000E+00  0.00000000E+00  0.00000000E+00
  0.00000000E+00  0.00000000E+00  0.00000000E+00
  0.00000000E+00  0.00000000E+00  0.00000000E+00
  0.00000000E+00  0.00000000E+00  0.00000000E+00
  0.00000000E+00  0.00000000E+00  0.00000000E+00
  0.00000000E+00  0.00000000E+00  0.00000000E+00
  0.00000000E+00  0.00000000E+00  0.00000000E+00
  0.00000000E+00  0.00000000E+00  0.00000000E+00
  0.00000000E+00  0.00000000E+00  0.00000000E+00
  0.00000000E+00  0.00000000E+00  0.00000000E+00
  0.00000000E+00  0.00000000E+00  0.00000000E+00
  0.00000000E+00  0.00000000E+00  0.00000000E+00
  0.00000000E+00  0.00000000E+00  0.00000000E+00
  0.00000000E+00  0.00000000E+00  0.00000000E+00
  0.00000000E+00  0.00000000E+00  0.00000000E+00
  0.00000000E+00  0.00000000E+00  0.00000000E+00
  0.00000000E+00  0.00000000E+00  0.00000000E+00
  0.00000000E+00  0.00000000E+00  0.00000000E+00
  0.00000000E+00  0.00000000E+00  0.00000000E+00
  0.00000000E+00  0.00000000E+00  0.00000000E+00
  0.00000000E+00  0.00000000E+00  0.00000000E+00
  0.00000000E+00  0.00000000E+00  0.00000000E+00
  0.00000000E+00  0.00000000E+00  0.00000000E+00
  0.00000000E+00  0.00000000E+00  0.00000000E+00
  0.00000000E+00  0.00000000E+00  0.00000000E+00
  0.00000000E+00  0.00000000E+00  0.00000000E+00
  0.00000000E+00  0.00000000E+00  0.00000000E+00
  0.00000000E+00  0.00000000E+00  0.00000000E+00
  0.00000000E+00  0.00000000E+00  0.00000000E+00
  0.00000000E+00  0.00000000E+00  0.00000000E+00
  0.00000000E+00  0.00000000E+00  0.00000000E+00
  0.00000000E+00  0.00000000E+00  0.00000000E+00
  0.00000000E+00  0.00000000E+00  0.00000000E+00
  0.00000000E+00  0.00000000E+00  0.00000000E+00
  0.00000000E+00  0.00000000E+00  0.00000000E+00
  0.00000000E+00  0.00000000E+00  0.00000000E+00
  0.00000000E+00  0.00000000E+00  0.00000000E+00
  0.00000000E+00  0.00000000E+00  0.00000000E+00
  0.00000000E+00  0.00000000E+00  0.00000000E+00
  0.00000000E+00  0.00000000E+00  0.00000000E+00
  0.00000000E+00  0.00000000E+00  0.00000000E+00
  0.00000000E+00  0.00000000E+00  0.00000000E+00
  0.00000000E+00  0.00000000E+00  0.00000000E+00
  0.00000000E+00  0.00000000E+00  0.00000000E+00
  0.00000000E+00  0.00000000E+00  0.00000000E+00
  0.00000000E+00  0.00000000E+00  0.00000000E+00
  0.00000000E+00  0.00000000E+00  0.00000000E+00
  0.00000000E+00  0.00000000E+00  0.00000000E+00
  0.00000000E+00  0.00000000E+00  0.00000000E+00
  0.00000000E+00  0.00000000E+00  0.00000000E+00
  0.00000000E+00  0.00000000E+00  0.00000000E+00
  0.00000000E+00  0.00000000E+00  0.00000000E+00
  0.00000000E+00  0.00000000E+00  0.00000000E+00
  0.00000000E+00  0.00000000E+00  0.00000000E+00
  0.00000000E+00  0.00000000E+00  0.00000000E+00
  0.00000000E+00  0.00000000E+00  0.00000000E+00
  0.00000000E+00  0.00000000E+00  0.00000000E+00
  0.00000000E+00  0.00000000E+00  0.00000000E+00
  0.00000000E+00  0.00000000E+00  0.00000000E+00
  0.00000000E+00  0.00000000E+00  0.00000000E+00
  0.00000000E+00  0.00000000E+00  0.00000000E+00
  0.00000000E+00  0.00000000E+00  0.00000000E+00
  0.00000000E+00  0.00000000E+00  0.00000000E+00
  0.00000000E+00  0.00000000E+00  0.00000000E+00
  0.00000000E+00  0.00000000E+00  0.00000000E+00
  0.00000000E+00  0.00000000E+00  0.00000000E+00
  0.00000000E+00  0.00000000E+00  0.00000000E+00
  0.00000000E+00  0.00000000E+00  0.00000000E+00
  0.00000000E+00  0.00000000E+00  0.00000000E+00
  0.00000000E+00  0.00000000E+00  0.00000000E+00
  0.00000000E+00  0.00000000E+00  0.00000000E+00
  0.00000000E+00  0.00000000E+00  0.00000000E+00
  0.00000000E+00  0.00000000E+00  0.00000000E+00
  0.00000000E+00  0.00000000E+00  0.00000000E+00
  0.00000000E+00  0.00000000E+00  0.00000000E+00
  0.00000000E+00  0.00000000E+00  0.00000000E+00
  0.00000000E+00  0.00000000E+00  0.00000000E+00
  0.00000000E+00  0.00000000E+00  0.00000000E+00
  0.00000000E+00  0.00000000E+00  0.00000000E+00
  0.00000000E+00  0.00000000E+00  0.00000000E+00
  0.00000000E+00  0.00000000E+00  0.00000000E+00
  0.00000000E+00  0.00000000E+00  0.00000000E+00
  0.00000000E+00  0.00000000E+00  0.00000000E+00
  0.00000000E+00  0.00000000E+00  0.00000000E+00
  0.00000000E+00  0.00000000E+00  0.00000000E+00
  0.00000000E+00  0.00000000E+00  0.00000000E+00
  0.00000000E+00  0.00000000E+00  0.00000000E+00
  0.00000000E+00  0.00000000E+00  0.00000000E+00
  0.00000000E+00  0.00000000E+00  0.00000000E+00
  0.00000000E+00  0.00000000E+00  0.00000000E+00
  0.00000000E+00  0.00000000E+00  0.00000000E+00
  0.00000000E+00  0.00000000E+00  0.00000000E+00
  0.00000000E+00  0.00000000E+00  0.00000000E+00
  0.00000000E+00  0.00000000E+00  0.00000000E+00
