Cr1 C126                                
   1.00000000000000     
    19.8065160144020176   -0.0000335679587193   -0.0025122265439346
    -9.9032872987892073   17.0801301314301739    0.0012609835066597
    -0.0037783176149881    0.0000082516631507   29.7442650321756545
   Cr   C 
     1   126
Direct
  0.4374825245071132  0.4999998144585978  0.4255137132865058
  0.0417060255516558  0.0836323302703051  0.3998442137946093
  0.0409906404792975  0.2079998965894774  0.3996586522434002
  0.0406655412628135  0.3328409831105730  0.3996886032094206
  0.0407342360882822  0.4582685064651350  0.3997893720117773
  0.0413747530466584  0.5836031676704387  0.3999059338287588
  0.0419204754348609  0.7088394105776646  0.4000091807552069
  0.0421775542488610  0.8341096882628862  0.4000139907501221
  0.0421587322297360  0.9590974756101799  0.3999552379611677
  0.1672494113908576  0.0845254892767267  0.3999007228708177
  0.1667059024797115  0.2090459186190659  0.3997704727045976
  0.1653934401919737  0.3330857343338797  0.3999527378787249
  0.1645302253973952  0.4582082878301488  0.3998912826169192
  0.1654331987582468  0.5835331228851767  0.3996993664040787
  0.1664786477694784  0.7088656967215003  0.3998329731207156
  0.1669149486137849  0.8341022089038082  0.3999958606935644
  0.1671852254693348  0.9593907103691544  0.3999953995151212
  0.2922615731939580  0.0845187991022779  0.3998907077193335
  0.2927437187125849  0.2104849393796958  0.4002315003598532
  0.2920626815770450  0.3356245588923102  0.4017486773070150
  0.2880019943999980  0.4575588515185255  0.4020400100457732
  0.2892720149544250  0.5838161948059106  0.4003422139194211
  0.2909604965588084  0.7087838585758379  0.3996425562608270
  0.2915677916800733  0.8337884158388567  0.3998067261745120
  0.2919158390469427  0.9590843468764784  0.3999379586053855
  0.4169099253237761  0.0836249295581231  0.3998342987099536
  0.4173437037314002  0.2090451015976262  0.3997688102497504
  0.4185827055400116  0.3356236444407540  0.4017718145327603
  0.4119999380041736  0.5819930996051440  0.4045064833522073
  0.4156093473023636  0.7074848519542484  0.4001561550312137
  0.4162616203643585  0.8330279821879615  0.3996814479951095
  0.4166002167006021  0.9583275778367636  0.3998957780619760
  0.5415791084551872  0.0828123571787215  0.3999109247247343
  0.5420002887656273  0.2079919305981671  0.3996713872864892
  0.5427035493518840  0.3330823816917104  0.3999732082922180
  0.5445705309870954  0.4575508409449371  0.4020793307576499
  0.5450114829211274  0.5819877324184377  0.4045546440083529
  0.5406283387637715  0.7062397569216688  0.4014201800337443
  0.5408925721997877  0.8320142201086992  0.3999377039880762
  0.5413088972644987  0.9574741350202196  0.3999006591536883
  0.6662688052392761  0.0824214431600587  0.4000074496352142
  0.6666164397544101  0.2076964123323801  0.3999054652317435
  0.6671833679351581  0.3328436573419248  0.3996853826212686
  0.6686852617512224  0.4582042538075632  0.3998926433799846
  0.6695542884120980  0.5838166862444978  0.4003651049200460
  0.6668903203011498  0.7074884607772092  0.4001736123838742
  0.6661259137964846  0.8320168895695251  0.3999299661982757
  0.6660813971904221  0.9571774009228858  0.3999470197748967
  0.7911368692533663  0.0824305914660392  0.3999851648062146
  0.7912723043572339  0.2075544259784453  0.4000340086252259
  0.7916983141890439  0.3328684496587853  0.3999346129513309
  0.7925433641530704  0.4582722390379692  0.3997603232259200
  0.7931057085063687  0.5835292225987474  0.3996804518286223
  0.7928312728495033  0.7087877644625098  0.3996518634327520
  0.7917633804010736  0.8330342446005649  0.3996770248937189
  0.7911610431648537  0.9574827683680103  0.3998882307448560
  0.9162293590557151  0.0828245450295879  0.3998970454067768
  0.9160801562512683  0.2077064282962884  0.3998884808084552
  0.9161733795921767  0.3328687908571764  0.3999362259205785
  0.9165864994282534  0.4581727480733727  0.3999349889486315
  0.9172375538620624  0.5836053464051368  0.3998954449443052
  0.9173913987959172  0.7088680257956061  0.3998365491468637
  0.9172171129058075  0.8337986929363160  0.3998322510616303
  0.9167148214541251  0.9583267691095693  0.3998945875871456
  0.0838347120644883  0.0425257076878972  0.3998999867683390
  0.0832337492518297  0.1669717526439732  0.3996808012010841
  0.0821769327732460  0.2912163040170853  0.3996421979981153
  0.0819002134329040  0.4164669939052738  0.3996992541962584
  0.0824655054779724  0.5417312076463973  0.3997892693577964
  0.0833044669392505  0.6671307938220704  0.3999355595345259
  0.0837176228217087  0.7924450412845175  0.4000337800164346
  0.0838478294515289  0.9175790738718894  0.4000075236701199
  0.2089037978545728  0.0428222954901076  0.3999473710454354
  0.2088783194907910  0.1679854153372248  0.3999375568954690
  0.2081247249807425  0.2925150598174076  0.4001555273639797
  0.2054559074239741  0.4161838620119187  0.4003414994064063
  0.2063217901757067  0.5417916257673951  0.3998915779905904
  0.2078247175053591  0.6671589418076702  0.3996884875271132
  0.2083739369301889  0.7922940992714187  0.3998880345163336
  0.2087068218498430  0.9175703977062798  0.3999854606082259
  0.3336779833225432  0.0425169356637905  0.3998892077097674
  0.3341089319441919  0.1679825607681433  0.3999301010961295
  0.3343888219788820  0.2937598609698772  0.4014200880367478
  0.3300068245093122  0.4180066043098037  0.4045059785406622
  0.3304428476708660  0.5424409222236966  0.4020403309669554
  0.3323073900458550  0.6669141729369160  0.3999535039663890
  0.3329903318764161  0.7920003011496204  0.3996588716926059
  0.3334047914214873  0.9171754986178885  0.3998975347797397
  0.4583878511060708  0.0416729937511001  0.3998949817849635
  0.4587292538789453  0.1669653496074020  0.3996770991725379
  0.4594020307193190  0.2925111083370825  0.4001735922930646
  0.4630237465938130  0.4180116973587418  0.4045549350943356
  0.4564375212074918  0.6643750632707150  0.4017490863784858
  0.4576595205361181  0.7909539344753589  0.3997709845291549
  0.4580736901423104  0.9163676481937946  0.3998450153053171
  0.5830607846847794  0.0409022953545057  0.3999554086856582
  0.5834184419289430  0.1662019339842190  0.3998322958173903
  0.5840434969979040  0.2912121295610002  0.3996518818528458
  0.5857377441262595  0.4161827983001410  0.4003651057637071
  0.5870190350780120  0.5424485341774413  0.4020792732887024
  0.5829582448706329  0.6643760341199143  0.4017716774213610
  0.5822582163723674  0.7895145831242694  0.4002315187159625
  0.5827237649753350  0.9154744447716308  0.3999009244713856
  0.7077943735096887  0.0406092076407552  0.3999951279995084
  0.7080669105761704  0.1658919134636883  0.4000139993228797
  0.7085240883162883  0.2911341451652931  0.3998363831108351
  0.7095767925044257  0.4164712852558817  0.3996803996540363
  0.7104810253387319  0.5417953695601443  0.3998926382031429
  0.7096210888120620  0.6669171992357699  0.3999732085081269
  0.7082979085944674  0.7909544645216663  0.3997689158830345
  0.7077424429406056  0.9154810937711727  0.3998899578716460
  0.8328314376165818  0.0409158997247616  0.3999371069266023
  0.8328126923284220  0.1658983765244652  0.3999960260349296
  0.8330811880247992  0.2911607119495495  0.4000106616181426
  0.8336317990892145  0.4163947002334428  0.3998951975475031
  0.8342719029351766  0.5417291465300542  0.3997603995876415
  0.8343401637344174  0.6671567480537757  0.3996854894961894
  0.8340078852627276  0.7920074303446265  0.3996713580399259
  0.8332850564364358  0.9163751691896419  0.3998333132575855
  0.9582724695819516  0.0416722591840461  0.3998949004396074
  0.9577797191110687  0.1662115847553182  0.3998068602872665
  0.9576127515944730  0.2911348652680408  0.3998334543882450
  0.9577710704897193  0.4163974235666673  0.3999061776452070
  0.9584139215188242  0.5418281191883811  0.3999349048727866
  0.9588295583022047  0.6671313710998359  0.3999347587597988
  0.9589201702800531  0.7923038951579278  0.3999042423364350
  0.9587661173699199  0.9171874376615623  0.3999114440549448
 
  0.00000000E+00  0.00000000E+00  0.00000000E+00
  0.00000000E+00  0.00000000E+00  0.00000000E+00
  0.00000000E+00  0.00000000E+00  0.00000000E+00
  0.00000000E+00  0.00000000E+00  0.00000000E+00
  0.00000000E+00  0.00000000E+00  0.00000000E+00
  0.00000000E+00  0.00000000E+00  0.00000000E+00
  0.00000000E+00  0.00000000E+00  0.00000000E+00
  0.00000000E+00  0.00000000E+00  0.00000000E+00
  0.00000000E+00  0.00000000E+00  0.00000000E+00
  0.00000000E+00  0.00000000E+00  0.00000000E+00
  0.00000000E+00  0.00000000E+00  0.00000000E+00
  0.00000000E+00  0.00000000E+00  0.00000000E+00
  0.00000000E+00  0.00000000E+00  0.00000000E+00
  0.00000000E+00  0.00000000E+00  0.00000000E+00
  0.00000000E+00  0.00000000E+00  0.00000000E+00
  0.00000000E+00  0.00000000E+00  0.00000000E+00
  0.00000000E+00  0.00000000E+00  0.00000000E+00
  0.00000000E+00  0.00000000E+00  0.00000000E+00
  0.00000000E+00  0.00000000E+00  0.00000000E+00
  0.00000000E+00  0.00000000E+00  0.00000000E+00
  0.00000000E+00  0.00000000E+00  0.00000000E+00
  0.00000000E+00  0.00000000E+00  0.00000000E+00
  0.00000000E+00  0.00000000E+00  0.00000000E+00
  0.00000000E+00  0.00000000E+00  0.00000000E+00
  0.00000000E+00  0.00000000E+00  0.00000000E+00
  0.00000000E+00  0.00000000E+00  0.00000000E+00
  0.00000000E+00  0.00000000E+00  0.00000000E+00
  0.00000000E+00  0.00000000E+00  0.00000000E+00
  0.00000000E+00  0.00000000E+00  0.00000000E+00
  0.00000000E+00  0.00000000E+00  0.00000000E+00
  0.00000000E+00  0.00000000E+00  0.00000000E+00
  0.00000000E+00  0.00000000E+00  0.00000000E+00
  0.00000000E+00  0.00000000E+00  0.00000000E+00
  0.00000000E+00  0.00000000E+00  0.00000000E+00
  0.00000000E+00  0.00000000E+00  0.00000000E+00
  0.00000000E+00  0.00000000E+00  0.00000000E+00
  0.00000000E+00  0.00000000E+00  0.00000000E+00
  0.00000000E+00  0.00000000E+00  0.00000000E+00
  0.00000000E+00  0.00000000E+00  0.00000000E+00
  0.00000000E+00  0.00000000E+00  0.00000000E+00
  0.00000000E+00  0.00000000E+00  0.00000000E+00
  0.00000000E+00  0.00000000E+00  0.00000000E+00
  0.00000000E+00  0.00000000E+00  0.00000000E+00
  0.00000000E+00  0.00000000E+00  0.00000000E+00
  0.00000000E+00  0.00000000E+00  0.00000000E+00
  0.00000000E+00  0.00000000E+00  0.00000000E+00
  0.00000000E+00  0.00000000E+00  0.00000000E+00
  0.00000000E+00  0.00000000E+00  0.00000000E+00
  0.00000000E+00  0.00000000E+00  0.00000000E+00
  0.00000000E+00  0.00000000E+00  0.00000000E+00
  0.00000000E+00  0.00000000E+00  0.00000000E+00
  0.00000000E+00  0.00000000E+00  0.00000000E+00
  0.00000000E+00  0.00000000E+00  0.00000000E+00
  0.00000000E+00  0.00000000E+00  0.00000000E+00
  0.00000000E+00  0.00000000E+00  0.00000000E+00
  0.00000000E+00  0.00000000E+00  0.00000000E+00
  0.00000000E+00  0.00000000E+00  0.00000000E+00
  0.00000000E+00  0.00000000E+00  0.00000000E+00
  0.00000000E+00  0.00000000E+00  0.00000000E+00
  0.00000000E+00  0.00000000E+00  0.00000000E+00
  0.00000000E+00  0.00000000E+00  0.00000000E+00
  0.00000000E+00  0.00000000E+00  0.00000000E+00
  0.00000000E+00  0.00000000E+00  0.00000000E+00
  0.00000000E+00  0.00000000E+00  0.00000000E+00
  0.00000000E+00  0.00000000E+00  0.00000000E+00
  0.00000000E+00  0.00000000E+00  0.00000000E+00
  0.00000000E+00  0.00000000E+00  0.00000000E+00
  0.00000000E+00  0.00000000E+00  0.00000000E+00
  0.00000000E+00  0.00000000E+00  0.00000000E+00
  0.00000000E+00  0.00000000E+00  0.00000000E+00
  0.00000000E+00  0.00000000E+00  0.00000000E+00
  0.00000000E+00  0.00000000E+00  0.00000000E+00
  0.00000000E+00  0.00000000E+00  0.00000000E+00
  0.00000000E+00  0.00000000E+00  0.00000000E+00
  0.00000000E+00  0.00000000E+00  0.00000000E+00
  0.00000000E+00  0.00000000E+00  0.00000000E+00
  0.00000000E+00  0.00000000E+00  0.00000000E+00
  0.00000000E+00  0.00000000E+00  0.00000000E+00
  0.00000000E+00  0.00000000E+00  0.00000000E+00
  0.00000000E+00  0.00000000E+00  0.00000000E+00
  0.00000000E+00  0.00000000E+00  0.00000000E+00
  0.00000000E+00  0.00000000E+00  0.00000000E+00
  0.00000000E+00  0.00000000E+00  0.00000000E+00
  0.00000000E+00  0.00000000E+00  0.00000000E+00
  0.00000000E+00  0.00000000E+00  0.00000000E+00
  0.00000000E+00  0.00000000E+00  0.00000000E+00
  0.00000000E+00  0.00000000E+00  0.00000000E+00
  0.00000000E+00  0.00000000E+00  0.00000000E+00
  0.00000000E+00  0.00000000E+00  0.00000000E+00
  0.00000000E+00  0.00000000E+00  0.00000000E+00
  0.00000000E+00  0.00000000E+00  0.00000000E+00
  0.00000000E+00  0.00000000E+00  0.00000000E+00
  0.00000000E+00  0.00000000E+00  0.00000000E+00
  0.00000000E+00  0.00000000E+00  0.00000000E+00
  0.00000000E+00  0.00000000E+00  0.00000000E+00
  0.00000000E+00  0.00000000E+00  0.00000000E+00
  0.00000000E+00  0.00000000E+00  0.00000000E+00
  0.00000000E+00  0.00000000E+00  0.00000000E+00
  0.00000000E+00  0.00000000E+00  0.00000000E+00
  0.00000000E+00  0.00000000E+00  0.00000000E+00
  0.00000000E+00  0.00000000E+00  0.00000000E+00
  0.00000000E+00  0.00000000E+00  0.00000000E+00
  0.00000000E+00  0.00000000E+00  0.00000000E+00
  0.00000000E+00  0.00000000E+00  0.00000000E+00
  0.00000000E+00  0.00000000E+00  0.00000000E+00
  0.00000000E+00  0.00000000E+00  0.00000000E+00
  0.00000000E+00  0.00000000E+00  0.00000000E+00
  0.00000000E+00  0.00000000E+00  0.00000000E+00
  0.00000000E+00  0.00000000E+00  0.00000000E+00
  0.00000000E+00  0.00000000E+00  0.00000000E+00
  0.00000000E+00  0.00000000E+00  0.00000000E+00
  0.00000000E+00  0.00000000E+00  0.00000000E+00
  0.00000000E+00  0.00000000E+00  0.00000000E+00
  0.00000000E+00  0.00000000E+00  0.00000000E+00
  0.00000000E+00  0.00000000E+00  0.00000000E+00
  0.00000000E+00  0.00000000E+00  0.00000000E+00
  0.00000000E+00  0.00000000E+00  0.00000000E+00
  0.00000000E+00  0.00000000E+00  0.00000000E+00
  0.00000000E+00  0.00000000E+00  0.00000000E+00
  0.00000000E+00  0.00000000E+00  0.00000000E+00
  0.00000000E+00  0.00000000E+00  0.00000000E+00
  0.00000000E+00  0.00000000E+00  0.00000000E+00
  0.00000000E+00  0.00000000E+00  0.00000000E+00
  0.00000000E+00  0.00000000E+00  0.00000000E+00
  0.00000000E+00  0.00000000E+00  0.00000000E+00
  0.00000000E+00  0.00000000E+00  0.00000000E+00
  0.00000000E+00  0.00000000E+00  0.00000000E+00
