Sc1 H1 C122 N4 O1                       
   1.00000000000000     
    19.8035411775844565   -0.0000480022730551   -0.0424950495943445
    -9.9019224348764787   17.0352614435465632   -0.0269117619711756
    -0.0639665271352966   -0.0842852344487340   29.8274745898027085
   Sc   H    C    N    O 
     1     1   122     4     1
Direct
  0.4402075709157374  0.5026425338715185  0.4352555814545817
  0.4789536766300309  0.5450591264989594  0.5262423503861468
  0.0420808641073959  0.0841020489701989  0.3996899402973992
  0.0412388710824741  0.2082985701023644  0.3993952967184874
  0.0404836407359696  0.3329938897143908  0.3991116170210395
  0.0405914980757808  0.4581918556421776  0.3991663264476009
  0.0413665148910754  0.5836789742529180  0.3996514648823343
  0.0421119351500063  0.7091199334586005  0.3999508667748494
  0.0423861103719482  0.8343617647392743  0.3999910873443505
  0.0424714816506743  0.9595522899612897  0.3998117629161657
  0.1681269977181991  0.0856663120168156  0.3999542487327498
  0.1675032562137785  0.2101627702796427  0.3998858929588799
  0.1654288085347105  0.3337346547164096  0.3997668030417392
  0.1645103975206676  0.4584700188898357  0.3987344256888349
  0.1653176506537494  0.5836132400574660  0.3988416008707716
  0.1664084996100647  0.7088867950792384  0.3995543479420718
  0.1670300314188254  0.8343426428750372  0.3999416523112794
  0.1674760440916534  0.9598984850749493  0.3999667153587497
  0.2925833475113021  0.0856668760787372  0.3999478238122204
  0.2940646249608305  0.2130679783620549  0.4011234890193722
  0.2924218845397123  0.3384681330408435  0.4030225120825324
  0.2882919575953348  0.4578058217405313  0.4020156282499162
  0.2889020396870247  0.5829122668640392  0.3993254702157973
  0.2907236449586421  0.7083546043578151  0.3991360905378826
  0.2916389712851586  0.8338629695435944  0.3995922245658284
  0.2921304161919961  0.9595375478877364  0.3997984349711199
  0.4170651900150907  0.0840822826298022  0.3997365908990662
  0.4176949882503223  0.2101636835139166  0.3997592453675770
  0.4211441576881786  0.3384822045816892  0.4022892663980747
  0.4149143230653373  0.7064790222049260  0.3996232362701144
  0.4161592519483487  0.8323935396605315  0.3995177267543633
  0.4166768102091495  0.9582697237093917  0.3997850855035056
  0.5415922672704692  0.0826368444684456  0.3997690954239880
  0.5421071757980008  0.2082920148433345  0.3994456340864108
  0.5433906461455152  0.3337248558950148  0.3992792712710914
  0.5446522635620923  0.4578027630920606  0.4004983356349897
  0.5386567232772433  0.7022434754755648  0.4013320263143134
  0.5406306967058037  0.8304710623634015  0.3999783192633379
  0.5411689237641251  0.9567813971993544  0.3998348055434509
  0.6662027345594532  0.0820657180680549  0.3999802883300732
  0.6666172284462275  0.2074931001386162  0.3997554416406092
  0.6675829424834475  0.3329964423346107  0.3991893697352601
  0.6690763113605729  0.4584868908818751  0.3983874115584900
  0.6691473110886176  0.5829250803429745  0.3985092053023695
  0.6666166513936720  0.7064648590506712  0.3991855678534421
  0.6648569480413516  0.8304770483663709  0.3999008939964159
  0.6657539278389500  0.9564581499468854  0.4000106052108965
  0.7909306418355132  0.0820819651331986  0.3999464339583770
  0.7912276425740378  0.2074082881665832  0.3999853171360105
  0.7917978921911268  0.3327783828804258  0.3997576475496902
  0.7926861805834008  0.4582150982650825  0.3993308979699763
  0.7933925605410407  0.5836332884746455  0.3988816411950860
  0.7927308063407089  0.7083796044603782  0.3990549835355286
  0.7912800970699307  0.8323945005880160  0.3995261786658154
  0.7906482786249618  0.9567932034075812  0.3998202290400530
  0.9161109407362757  0.0826564681725070  0.3997013745439222
  0.9159383284460758  0.2075219216484541  0.3996288596170174
  0.9160497426082829  0.3327870908608102  0.3996599614969760
  0.9166605916746687  0.4582451727111561  0.3998197918119633
  0.9173865435792976  0.5836913698382509  0.3997776361101100
  0.9175824457257942  0.7089235215958360  0.3996572197150343
  0.9172997382441955  0.8338941617151390  0.3996817213618519
  0.9166565596873314  0.9582903913201692  0.3998051433274751
  0.0844397654101347  0.0432580319042975  0.3997639170241031
  0.0838409374987675  0.1676692741888712  0.3995555329646071
  0.0824015572252875  0.2916497770401578  0.3992598769335462
  0.0816946468750838  0.4163390795740048  0.3988273657772681
  0.0823719867946258  0.5417580486755685  0.3991938398924108
  0.0832634668838707  0.6671897476812008  0.3997534111126413
  0.0838262312657255  0.7925847703330233  0.4000212241884417
  0.0841509059856134  0.9179520870116862  0.3999481917289321
  0.2093216400171271  0.0435836057188431  0.3999959770193295
  0.2102373773411438  0.1696169384995964  0.4003209691299858
  0.2085688115940725  0.2936578296640633  0.4004008917318922
  0.2060328842706533  0.4171133304209240  0.3997335939615681
  0.2060061988368937  0.5415002095072020  0.3986911255684317
  0.2074728648840753  0.6669798434436459  0.3991414275373395
  0.2083988786798270  0.7924642469629992  0.3997138082598418
  0.2088471083949938  0.9179308979469988  0.3999195959932189
  0.3338530520685009  0.0432444293066928  0.3997851936382234
  0.3344211140394180  0.1696118668845710  0.4002672592622621
  0.3365187255327121  0.2979290391362460  0.4028058630988379
  0.3305107300852749  0.5422663864908449  0.4013553827505733
  0.3316802096603239  0.6662911498539974  0.3992678855100348
  0.3329130722143582  0.7917089483500948  0.3993821087998543
  0.3334315044828404  0.9173553979045966  0.3997385005145164
  0.4583558753884201  0.0417530636085558  0.3997832534657968
  0.4588748681130481  0.1676666754451771  0.3995666650654993
  0.4601558254386995  0.2936628531161377  0.3999084040642257
  0.4540492857466950  0.6617875805660933  0.4014738357885495
  0.4573413385825321  0.7899396418608756  0.3995354400483672
  0.4579675678081455  0.9159519272482041  0.3997478101963709
  0.5829108589520061  0.0404741345812038  0.3998633426250226
  0.5833825624436059  0.1661222190221093  0.3996433452105349
  0.5843185900059946  0.2916338206229911  0.3991896170202355
  0.5862092435860546  0.4170945714464489  0.3989181219251089
  0.5868683377321030  0.5422519362958318  0.3998242214250066
  0.5827868976072647  0.6617534216084677  0.4007470922726939
  0.5810380523925943  0.7870557855722035  0.4003684097609315
  0.5824743729805173  0.9143967802371356  0.3999385974637549
  0.7075870692945684  0.0401235683915169  0.4000210861710822
  0.7080046449963101  0.1656336354903497  0.3999715295318080
  0.7086245387301208  0.2910665219457747  0.3995971068047464
  0.7097386824589661  0.4163527873276498  0.3988640183507258
  0.7105920314207161  0.5415019766340629  0.3983385416764981
  0.7097114424339728  0.6663060994184137  0.3987970138823971
  0.7076145827931288  0.7899362170091425  0.3994238220700598
  0.7069524493477212  0.9143901061334972  0.3998989509052978
  0.8326217832325759  0.0404869367388590  0.3998211489359439
  0.8326883497684054  0.1656574151103318  0.3999075094584530
  0.8329651065511741  0.2908558781541249  0.3998750061068156
  0.8336816617442038  0.4162902701549450  0.3997263591818286
  0.8344602074335837  0.5417667046987888  0.3993696940114160
  0.8346006868296368  0.6669952189727021  0.3991827024538726
  0.8338546523720035  0.7917319968379799  0.3994242084166837
  0.8330367948624525  0.9159668641426992  0.3997793562647198
  0.9584657517226273  0.0417733032429406  0.3997485462608286
  0.9577977728286219  0.1661415103963484  0.3995210794968326
  0.9575092061302378  0.2910887332021480  0.3994459471067647
  0.9576715130624219  0.4162906547170031  0.3995984904262039
  0.9584066125903509  0.5417337153875057  0.3998411940627364
  0.9590294300630063  0.6672060351466671  0.3998367637773801
  0.9591423713335810  0.7925014221048141  0.3997972851700854
  0.9589917682440207  0.9173845815810995  0.3997810667317314
  0.4106544565566527  0.5819420767488719  0.4038087813750491
  0.5463719282261237  0.5818601272794411  0.4021530522731518
  0.3288918341223236  0.4183873841478648  0.4057865927725004
  0.4646866410639200  0.4184548107371636  0.4042004061444898
  0.4571404834902468  0.5214774083335405  0.4976065274545149
 
  0.00000000E+00  0.00000000E+00  0.00000000E+00
  0.00000000E+00  0.00000000E+00  0.00000000E+00
  0.00000000E+00  0.00000000E+00  0.00000000E+00
  0.00000000E+00  0.00000000E+00  0.00000000E+00
  0.00000000E+00  0.00000000E+00  0.00000000E+00
  0.00000000E+00  0.00000000E+00  0.00000000E+00
  0.00000000E+00  0.00000000E+00  0.00000000E+00
  0.00000000E+00  0.00000000E+00  0.00000000E+00
  0.00000000E+00  0.00000000E+00  0.00000000E+00
  0.00000000E+00  0.00000000E+00  0.00000000E+00
  0.00000000E+00  0.00000000E+00  0.00000000E+00
  0.00000000E+00  0.00000000E+00  0.00000000E+00
  0.00000000E+00  0.00000000E+00  0.00000000E+00
  0.00000000E+00  0.00000000E+00  0.00000000E+00
  0.00000000E+00  0.00000000E+00  0.00000000E+00
  0.00000000E+00  0.00000000E+00  0.00000000E+00
  0.00000000E+00  0.00000000E+00  0.00000000E+00
  0.00000000E+00  0.00000000E+00  0.00000000E+00
  0.00000000E+00  0.00000000E+00  0.00000000E+00
  0.00000000E+00  0.00000000E+00  0.00000000E+00
  0.00000000E+00  0.00000000E+00  0.00000000E+00
  0.00000000E+00  0.00000000E+00  0.00000000E+00
  0.00000000E+00  0.00000000E+00  0.00000000E+00
  0.00000000E+00  0.00000000E+00  0.00000000E+00
  0.00000000E+00  0.00000000E+00  0.00000000E+00
  0.00000000E+00  0.00000000E+00  0.00000000E+00
  0.00000000E+00  0.00000000E+00  0.00000000E+00
  0.00000000E+00  0.00000000E+00  0.00000000E+00
  0.00000000E+00  0.00000000E+00  0.00000000E+00
  0.00000000E+00  0.00000000E+00  0.00000000E+00
  0.00000000E+00  0.00000000E+00  0.00000000E+00
  0.00000000E+00  0.00000000E+00  0.00000000E+00
  0.00000000E+00  0.00000000E+00  0.00000000E+00
  0.00000000E+00  0.00000000E+00  0.00000000E+00
  0.00000000E+00  0.00000000E+00  0.00000000E+00
  0.00000000E+00  0.00000000E+00  0.00000000E+00
  0.00000000E+00  0.00000000E+00  0.00000000E+00
  0.00000000E+00  0.00000000E+00  0.00000000E+00
  0.00000000E+00  0.00000000E+00  0.00000000E+00
  0.00000000E+00  0.00000000E+00  0.00000000E+00
  0.00000000E+00  0.00000000E+00  0.00000000E+00
  0.00000000E+00  0.00000000E+00  0.00000000E+00
  0.00000000E+00  0.00000000E+00  0.00000000E+00
  0.00000000E+00  0.00000000E+00  0.00000000E+00
  0.00000000E+00  0.00000000E+00  0.00000000E+00
  0.00000000E+00  0.00000000E+00  0.00000000E+00
  0.00000000E+00  0.00000000E+00  0.00000000E+00
  0.00000000E+00  0.00000000E+00  0.00000000E+00
  0.00000000E+00  0.00000000E+00  0.00000000E+00
  0.00000000E+00  0.00000000E+00  0.00000000E+00
  0.00000000E+00  0.00000000E+00  0.00000000E+00
  0.00000000E+00  0.00000000E+00  0.00000000E+00
  0.00000000E+00  0.00000000E+00  0.00000000E+00
  0.00000000E+00  0.00000000E+00  0.00000000E+00
  0.00000000E+00  0.00000000E+00  0.00000000E+00
  0.00000000E+00  0.00000000E+00  0.00000000E+00
  0.00000000E+00  0.00000000E+00  0.00000000E+00
  0.00000000E+00  0.00000000E+00  0.00000000E+00
  0.00000000E+00  0.00000000E+00  0.00000000E+00
  0.00000000E+00  0.00000000E+00  0.00000000E+00
  0.00000000E+00  0.00000000E+00  0.00000000E+00
  0.00000000E+00  0.00000000E+00  0.00000000E+00
  0.00000000E+00  0.00000000E+00  0.00000000E+00
  0.00000000E+00  0.00000000E+00  0.00000000E+00
  0.00000000E+00  0.00000000E+00  0.00000000E+00
  0.00000000E+00  0.00000000E+00  0.00000000E+00
  0.00000000E+00  0.00000000E+00  0.00000000E+00
  0.00000000E+00  0.00000000E+00  0.00000000E+00
  0.00000000E+00  0.00000000E+00  0.00000000E+00
  0.00000000E+00  0.00000000E+00  0.00000000E+00
  0.00000000E+00  0.00000000E+00  0.00000000E+00
  0.00000000E+00  0.00000000E+00  0.00000000E+00
  0.00000000E+00  0.00000000E+00  0.00000000E+00
  0.00000000E+00  0.00000000E+00  0.00000000E+00
  0.00000000E+00  0.00000000E+00  0.00000000E+00
  0.00000000E+00  0.00000000E+00  0.00000000E+00
  0.00000000E+00  0.00000000E+00  0.00000000E+00
  0.00000000E+00  0.00000000E+00  0.00000000E+00
  0.00000000E+00  0.00000000E+00  0.00000000E+00
  0.00000000E+00  0.00000000E+00  0.00000000E+00
  0.00000000E+00  0.00000000E+00  0.00000000E+00
  0.00000000E+00  0.00000000E+00  0.00000000E+00
  0.00000000E+00  0.00000000E+00  0.00000000E+00
  0.00000000E+00  0.00000000E+00  0.00000000E+00
  0.00000000E+00  0.00000000E+00  0.00000000E+00
  0.00000000E+00  0.00000000E+00  0.00000000E+00
  0.00000000E+00  0.00000000E+00  0.00000000E+00
  0.00000000E+00  0.00000000E+00  0.00000000E+00
  0.00000000E+00  0.00000000E+00  0.00000000E+00
  0.00000000E+00  0.00000000E+00  0.00000000E+00
  0.00000000E+00  0.00000000E+00  0.00000000E+00
  0.00000000E+00  0.00000000E+00  0.00000000E+00
  0.00000000E+00  0.00000000E+00  0.00000000E+00
  0.00000000E+00  0.00000000E+00  0.00000000E+00
  0.00000000E+00  0.00000000E+00  0.00000000E+00
  0.00000000E+00  0.00000000E+00  0.00000000E+00
  0.00000000E+00  0.00000000E+00  0.00000000E+00
  0.00000000E+00  0.00000000E+00  0.00000000E+00
  0.00000000E+00  0.00000000E+00  0.00000000E+00
  0.00000000E+00  0.00000000E+00  0.00000000E+00
  0.00000000E+00  0.00000000E+00  0.00000000E+00
  0.00000000E+00  0.00000000E+00  0.00000000E+00
  0.00000000E+00  0.00000000E+00  0.00000000E+00
  0.00000000E+00  0.00000000E+00  0.00000000E+00
  0.00000000E+00  0.00000000E+00  0.00000000E+00
  0.00000000E+00  0.00000000E+00  0.00000000E+00
  0.00000000E+00  0.00000000E+00  0.00000000E+00
  0.00000000E+00  0.00000000E+00  0.00000000E+00
  0.00000000E+00  0.00000000E+00  0.00000000E+00
  0.00000000E+00  0.00000000E+00  0.00000000E+00
  0.00000000E+00  0.00000000E+00  0.00000000E+00
  0.00000000E+00  0.00000000E+00  0.00000000E+00
  0.00000000E+00  0.00000000E+00  0.00000000E+00
  0.00000000E+00  0.00000000E+00  0.00000000E+00
  0.00000000E+00  0.00000000E+00  0.00000000E+00
  0.00000000E+00  0.00000000E+00  0.00000000E+00
  0.00000000E+00  0.00000000E+00  0.00000000E+00
  0.00000000E+00  0.00000000E+00  0.00000000E+00
  0.00000000E+00  0.00000000E+00  0.00000000E+00
  0.00000000E+00  0.00000000E+00  0.00000000E+00
  0.00000000E+00  0.00000000E+00  0.00000000E+00
  0.00000000E+00  0.00000000E+00  0.00000000E+00
  0.00000000E+00  0.00000000E+00  0.00000000E+00
  0.00000000E+00  0.00000000E+00  0.00000000E+00
  0.00000000E+00  0.00000000E+00  0.00000000E+00
  0.00000000E+00  0.00000000E+00  0.00000000E+00
  0.00000000E+00  0.00000000E+00  0.00000000E+00
  0.00000000E+00  0.00000000E+00  0.00000000E+00
  0.00000000E+00  0.00000000E+00  0.00000000E+00
