La1 H1 C122 N4 O2                       
   1.00000000000000     
    19.8029676610176857    0.0001281871130627   -0.0837329009868524
    -9.9018260583832109   17.0440421193347014    0.0236545274481909
    -0.1259171245536826   -0.0318932787444894   29.8130075340783911
   La   H    C    N    O 
     1     1   122     4     2
Direct
  0.4397508376262149  0.5027430123003087  0.4535666101137940
  0.5614621664929679  0.5774838828802209  0.5344880721039417
  0.0420138055570253  0.0839022157878801  0.3995896950255874
  0.0412392169526351  0.2082243226567409  0.3992394099006085
  0.0405443092150545  0.3330073976366165  0.3991527921980852
  0.0406504385081425  0.4581838936577778  0.3994106373487223
  0.0414049695743757  0.5836476616836497  0.4000820887785048
  0.0420992036876714  0.7090419474064436  0.4001726530260983
  0.0423401684069875  0.8342190376642040  0.4000665988658212
  0.0424565218447122  0.9593929930175148  0.3999802194751223
  0.1680393593917167  0.0854061116016648  0.3996806782483547
  0.1672218045010177  0.2097420746850871  0.3992153942161427
  0.1653714644412383  0.3336003110938771  0.3990644652713346
  0.1645952985203144  0.4584474078639968  0.3984018021220770
  0.1653795996096074  0.5836017131515033  0.3988492073545646
  0.1664262270043219  0.7088243645269398  0.3997985332549143
  0.1670150102970031  0.8342143416717348  0.4000753128700295
  0.1674384751926799  0.9597159270257291  0.3999715732502885
  0.2925098756833189  0.0853860205527371  0.3996790204604174
  0.2939081005065656  0.2126758998007157  0.4005487102886904
  0.2919397735750363  0.3378187318335425  0.4020473667038606
  0.2885529933545387  0.4575182702428651  0.4011976511417983
  0.2890347062427528  0.5829319732769270  0.3988049896581739
  0.2907553401532258  0.7083937948647615  0.3990042053993302
  0.2916632989982963  0.8338316969089706  0.3997855543984395
  0.2921136282540225  0.9593794707003684  0.3999889491198185
  0.4170556420541845  0.0838978357564503  0.3996524815097147
  0.4176186362520969  0.2097348290217314  0.3991643169198476
  0.4211108296391736  0.3379245711390040  0.4016190375976927
  0.4149998710228444  0.7069362211269475  0.3990858208823728
  0.4162264394288520  0.8326016351552681  0.3992796238609773
  0.4167418875375475  0.9582965807625780  0.3999542794954884
  0.5416704307853727  0.0826903581049149  0.4000046816925333
  0.5421192229178041  0.2082233170775110  0.3993549694495431
  0.5433335107188992  0.3335674177674957  0.3987956383194331
  0.5440711382842701  0.4574991067583960  0.4002193522034401
  0.5389645556316784  0.7027910944283421  0.4014669783385926
  0.5407968156573140  0.8307996878224899  0.3997669447497551
  0.5412948377076578  0.9569600984302647  0.3998400583202225
  0.6663239437805446  0.0822186398562542  0.4000322857355033
  0.6666940646773529  0.2075795678319824  0.3999559985364501
  0.6675966071890522  0.3330164759138580  0.3992784517753451
  0.6689281129260628  0.4584368973633528  0.3982723872053859
  0.6689810440626621  0.5829311725657825  0.3983220757771093
  0.6670014079923929  0.7069266808808399  0.3988523890250465
  0.6651169778071330  0.8308206782253826  0.3997249880189503
  0.6659262908359056  0.9566935108965778  0.3999255897264031
  0.7910712271264388  0.0822235673794939  0.4000524329708052
  0.7913365452158704  0.2075119445233853  0.4001048257053529
  0.7918620910273907  0.3328334342624892  0.4000931729224477
  0.7926510614059158  0.4581905126464434  0.3995497014875092
  0.7932864433771832  0.5835648925269434  0.3989715716257861
  0.7927578964864812  0.7084005443572061  0.3990431452139767
  0.7914943300882809  0.8326037711522599  0.3993256471510301
  0.7908307722299620  0.9569740698446293  0.3998430289561410
  0.9162198706454049  0.0827023568045351  0.3999440606522854
  0.9160369843674434  0.2075773272382397  0.3999099490399069
  0.9161427514127762  0.3328211498400234  0.4000673105693535
  0.9167184830662047  0.4582657059489106  0.4002824648208064
  0.9173663944870400  0.5836377914777705  0.4001264161442641
  0.9175246969479098  0.7088080325512511  0.3998755991727946
  0.9173185004416335  0.8338354287041875  0.3998622001758388
  0.9167532246595745  0.9582985515363396  0.3999868320276937
  0.0843770758275783  0.0430461606055994  0.3997130394912171
  0.0836758978604476  0.1674031108483242  0.3991708863470093
  0.0823818717822296  0.2915731951845004  0.3989861385636716
  0.0817642284946821  0.4163454713780594  0.3988065175187023
  0.0824321389062071  0.5417517569410379  0.3994410102178618
  0.0832827462772735  0.6671276284667101  0.4000971497262187
  0.0837933325554534  0.7924450171512261  0.4000854901216092
  0.0841030018059889  0.9177608177661374  0.4000323143958266
  0.2092359529395183  0.0433135279252870  0.3998140084465915
  0.2100532663114724  0.1692483207199302  0.3997869901498525
  0.2081519556238661  0.2931164911065433  0.3994550714296870
  0.2060966239240734  0.4170455516545032  0.3990416498819732
  0.2061310289066573  0.5415191297135349  0.3983860069864092
  0.2074955994733865  0.6669510350758773  0.3992157485171976
  0.2084197221470105  0.7923929251147785  0.3999366520072402
  0.2088230009330568  0.9177558092275681  0.4000556597993987
  0.3338300901244386  0.0430381681531489  0.3997407343291218
  0.3343045154556668  0.1692215956923096  0.3997456233964888
  0.3362547929011723  0.2973249302519688  0.4021794839141848
  0.3310006907988925  0.5424424575688754  0.4008025211852938
  0.3317342761309633  0.6663910811695249  0.3988296252861447
  0.3329659204393884  0.7917546382313461  0.3993309669888366
  0.3334788442850437  0.9172948767758964  0.3999630192946475
  0.4584185183072016  0.0417072578788578  0.3999581191424141
  0.4588574608724802  0.1674046326464720  0.3992407030635336
  0.4600789293923134  0.2931212408857780  0.3991962832031925
  0.4541766550538947  0.6623482560514695  0.4012133421171728
  0.4574550408603178  0.7902965965447877  0.3991658015531876
  0.4580716021491718  0.9161054790033019  0.3997102903084346
  0.5830394996157744  0.0406087464985524  0.4000280024306072
  0.5834548030312383  0.1661524973516893  0.3998242734863913
  0.5843278639002105  0.2915581248265533  0.3990301293005957
  0.5860382164133668  0.4170143933739396  0.3985243123488452
  0.5865478987447126  0.5424338278892504  0.3998946386680726
  0.5832442889673243  0.6622484122362524  0.4008819661722718
  0.5812732897711477  0.7874312536913565  0.4003018630553617
  0.5826254907156465  0.9146267839877550  0.3998113233935081
  0.7077267409480387  0.0402828151327252  0.3999955325347708
  0.7081003695200713  0.1657482821628152  0.4000662360367016
  0.7086947594868946  0.2911458026780118  0.3998359774555404
  0.7096900744664560  0.4163633383525253  0.3989398505840268
  0.7104500255997366  0.5414858960939749  0.3982484559270130
  0.7097583786515750  0.6664033018263172  0.3986011149875446
  0.7079308907643060  0.7903070530846810  0.3991118504052086
  0.7071612041472009  0.9146439481625316  0.3997966831999137
  0.8327666741529428  0.0406233243115996  0.4000178699122664
  0.8328066851924367  0.1657556468708243  0.4000738254586494
  0.8330418140825300  0.2909078670313151  0.4001804296624098
  0.8337065045044841  0.4163040548944164  0.4001008719852345
  0.8344213364762952  0.5417376925808745  0.3995731455540421
  0.8345562916468628  0.6669246075352130  0.3993271022886974
  0.8339140805846676  0.7917581521271528  0.3994179235373606
  0.8332054125072338  0.9161146583505425  0.3997562502256418
  0.9584906764532332  0.0417097007724856  0.3999152327837363
  0.9578623993815905  0.1661545304435276  0.3997237839122253
  0.9576019054089611  0.2911331759815320  0.3997469855365486
  0.9577349326183938  0.4162905084387943  0.4000491997302631
  0.9584129250858090  0.5416730861473945  0.4002930036771909
  0.9589964490744659  0.6671162459302511  0.4001132277034687
  0.9591084876022262  0.7923863639311260  0.3999731135038890
  0.9590080983203674  0.9173070580727418  0.4000037947011265
  0.4110952876321957  0.5828034008761488  0.4039281164086069
  0.5468252448135932  0.5826542165887293  0.4031502314424967
  0.3283452639189268  0.4173472352569348  0.4050305895930810
  0.4642677853667553  0.4174811854414469  0.4039951367906613
  0.5201995848992674  0.5258403347157130  0.5246094001300347
  0.4500084515075125  0.5349253844466629  0.5281188097225524
 
  0.00000000E+00  0.00000000E+00  0.00000000E+00
  0.00000000E+00  0.00000000E+00  0.00000000E+00
  0.00000000E+00  0.00000000E+00  0.00000000E+00
  0.00000000E+00  0.00000000E+00  0.00000000E+00
  0.00000000E+00  0.00000000E+00  0.00000000E+00
  0.00000000E+00  0.00000000E+00  0.00000000E+00
  0.00000000E+00  0.00000000E+00  0.00000000E+00
  0.00000000E+00  0.00000000E+00  0.00000000E+00
  0.00000000E+00  0.00000000E+00  0.00000000E+00
  0.00000000E+00  0.00000000E+00  0.00000000E+00
  0.00000000E+00  0.00000000E+00  0.00000000E+00
  0.00000000E+00  0.00000000E+00  0.00000000E+00
  0.00000000E+00  0.00000000E+00  0.00000000E+00
  0.00000000E+00  0.00000000E+00  0.00000000E+00
  0.00000000E+00  0.00000000E+00  0.00000000E+00
  0.00000000E+00  0.00000000E+00  0.00000000E+00
  0.00000000E+00  0.00000000E+00  0.00000000E+00
  0.00000000E+00  0.00000000E+00  0.00000000E+00
  0.00000000E+00  0.00000000E+00  0.00000000E+00
  0.00000000E+00  0.00000000E+00  0.00000000E+00
  0.00000000E+00  0.00000000E+00  0.00000000E+00
  0.00000000E+00  0.00000000E+00  0.00000000E+00
  0.00000000E+00  0.00000000E+00  0.00000000E+00
  0.00000000E+00  0.00000000E+00  0.00000000E+00
  0.00000000E+00  0.00000000E+00  0.00000000E+00
  0.00000000E+00  0.00000000E+00  0.00000000E+00
  0.00000000E+00  0.00000000E+00  0.00000000E+00
  0.00000000E+00  0.00000000E+00  0.00000000E+00
  0.00000000E+00  0.00000000E+00  0.00000000E+00
  0.00000000E+00  0.00000000E+00  0.00000000E+00
  0.00000000E+00  0.00000000E+00  0.00000000E+00
  0.00000000E+00  0.00000000E+00  0.00000000E+00
  0.00000000E+00  0.00000000E+00  0.00000000E+00
  0.00000000E+00  0.00000000E+00  0.00000000E+00
  0.00000000E+00  0.00000000E+00  0.00000000E+00
  0.00000000E+00  0.00000000E+00  0.00000000E+00
  0.00000000E+00  0.00000000E+00  0.00000000E+00
  0.00000000E+00  0.00000000E+00  0.00000000E+00
  0.00000000E+00  0.00000000E+00  0.00000000E+00
  0.00000000E+00  0.00000000E+00  0.00000000E+00
  0.00000000E+00  0.00000000E+00  0.00000000E+00
  0.00000000E+00  0.00000000E+00  0.00000000E+00
  0.00000000E+00  0.00000000E+00  0.00000000E+00
  0.00000000E+00  0.00000000E+00  0.00000000E+00
  0.00000000E+00  0.00000000E+00  0.00000000E+00
  0.00000000E+00  0.00000000E+00  0.00000000E+00
  0.00000000E+00  0.00000000E+00  0.00000000E+00
  0.00000000E+00  0.00000000E+00  0.00000000E+00
  0.00000000E+00  0.00000000E+00  0.00000000E+00
  0.00000000E+00  0.00000000E+00  0.00000000E+00
  0.00000000E+00  0.00000000E+00  0.00000000E+00
  0.00000000E+00  0.00000000E+00  0.00000000E+00
  0.00000000E+00  0.00000000E+00  0.00000000E+00
  0.00000000E+00  0.00000000E+00  0.00000000E+00
  0.00000000E+00  0.00000000E+00  0.00000000E+00
  0.00000000E+00  0.00000000E+00  0.00000000E+00
  0.00000000E+00  0.00000000E+00  0.00000000E+00
  0.00000000E+00  0.00000000E+00  0.00000000E+00
  0.00000000E+00  0.00000000E+00  0.00000000E+00
  0.00000000E+00  0.00000000E+00  0.00000000E+00
  0.00000000E+00  0.00000000E+00  0.00000000E+00
  0.00000000E+00  0.00000000E+00  0.00000000E+00
  0.00000000E+00  0.00000000E+00  0.00000000E+00
  0.00000000E+00  0.00000000E+00  0.00000000E+00
  0.00000000E+00  0.00000000E+00  0.00000000E+00
  0.00000000E+00  0.00000000E+00  0.00000000E+00
  0.00000000E+00  0.00000000E+00  0.00000000E+00
  0.00000000E+00  0.00000000E+00  0.00000000E+00
  0.00000000E+00  0.00000000E+00  0.00000000E+00
  0.00000000E+00  0.00000000E+00  0.00000000E+00
  0.00000000E+00  0.00000000E+00  0.00000000E+00
  0.00000000E+00  0.00000000E+00  0.00000000E+00
  0.00000000E+00  0.00000000E+00  0.00000000E+00
  0.00000000E+00  0.00000000E+00  0.00000000E+00
  0.00000000E+00  0.00000000E+00  0.00000000E+00
  0.00000000E+00  0.00000000E+00  0.00000000E+00
  0.00000000E+00  0.00000000E+00  0.00000000E+00
  0.00000000E+00  0.00000000E+00  0.00000000E+00
  0.00000000E+00  0.00000000E+00  0.00000000E+00
  0.00000000E+00  0.00000000E+00  0.00000000E+00
  0.00000000E+00  0.00000000E+00  0.00000000E+00
  0.00000000E+00  0.00000000E+00  0.00000000E+00
  0.00000000E+00  0.00000000E+00  0.00000000E+00
  0.00000000E+00  0.00000000E+00  0.00000000E+00
  0.00000000E+00  0.00000000E+00  0.00000000E+00
  0.00000000E+00  0.00000000E+00  0.00000000E+00
  0.00000000E+00  0.00000000E+00  0.00000000E+00
  0.00000000E+00  0.00000000E+00  0.00000000E+00
  0.00000000E+00  0.00000000E+00  0.00000000E+00
  0.00000000E+00  0.00000000E+00  0.00000000E+00
  0.00000000E+00  0.00000000E+00  0.00000000E+00
  0.00000000E+00  0.00000000E+00  0.00000000E+00
  0.00000000E+00  0.00000000E+00  0.00000000E+00
  0.00000000E+00  0.00000000E+00  0.00000000E+00
  0.00000000E+00  0.00000000E+00  0.00000000E+00
  0.00000000E+00  0.00000000E+00  0.00000000E+00
  0.00000000E+00  0.00000000E+00  0.00000000E+00
  0.00000000E+00  0.00000000E+00  0.00000000E+00
  0.00000000E+00  0.00000000E+00  0.00000000E+00
  0.00000000E+00  0.00000000E+00  0.00000000E+00
  0.00000000E+00  0.00000000E+00  0.00000000E+00
  0.00000000E+00  0.00000000E+00  0.00000000E+00
  0.00000000E+00  0.00000000E+00  0.00000000E+00
  0.00000000E+00  0.00000000E+00  0.00000000E+00
  0.00000000E+00  0.00000000E+00  0.00000000E+00
  0.00000000E+00  0.00000000E+00  0.00000000E+00
  0.00000000E+00  0.00000000E+00  0.00000000E+00
  0.00000000E+00  0.00000000E+00  0.00000000E+00
  0.00000000E+00  0.00000000E+00  0.00000000E+00
  0.00000000E+00  0.00000000E+00  0.00000000E+00
  0.00000000E+00  0.00000000E+00  0.00000000E+00
  0.00000000E+00  0.00000000E+00  0.00000000E+00
  0.00000000E+00  0.00000000E+00  0.00000000E+00
  0.00000000E+00  0.00000000E+00  0.00000000E+00
  0.00000000E+00  0.00000000E+00  0.00000000E+00
  0.00000000E+00  0.00000000E+00  0.00000000E+00
  0.00000000E+00  0.00000000E+00  0.00000000E+00
  0.00000000E+00  0.00000000E+00  0.00000000E+00
  0.00000000E+00  0.00000000E+00  0.00000000E+00
  0.00000000E+00  0.00000000E+00  0.00000000E+00
  0.00000000E+00  0.00000000E+00  0.00000000E+00
  0.00000000E+00  0.00000000E+00  0.00000000E+00
  0.00000000E+00  0.00000000E+00  0.00000000E+00
  0.00000000E+00  0.00000000E+00  0.00000000E+00
  0.00000000E+00  0.00000000E+00  0.00000000E+00
  0.00000000E+00  0.00000000E+00  0.00000000E+00
  0.00000000E+00  0.00000000E+00  0.00000000E+00
  0.00000000E+00  0.00000000E+00  0.00000000E+00
  0.00000000E+00  0.00000000E+00  0.00000000E+00
  0.00000000E+00  0.00000000E+00  0.00000000E+00
