V1 C126                                 
   1.00000000000000     
    19.7971214696153055   -0.0000087067685578   -0.0009182038645057
    -9.8985683507957702   17.0820702531734163    0.0005201589766726
    -0.0013827378191888    0.0001064363024810   29.7549782964569332
   V    C 
     1   126
Direct
  0.4375008434552390  0.4999998666100319  0.4273228208114111
  0.0417595824637703  0.0836631373549269  0.3999084091443227
  0.0411408442792721  0.2080704317729319  0.3997267250951248
  0.0408953677674522  0.3328957976754963  0.3997409508598335
  0.0409642750190065  0.4582771730399821  0.3998099315260835
  0.0414483490987422  0.5835524050728007  0.3999614921775348
  0.0418844364452441  0.7087666498118796  0.4000582306700932
  0.0421050955166774  0.8339802889879517  0.4000369508548899
  0.0420828294023446  0.9589629112516423  0.3999999909719578
  0.1671954775912816  0.0843782811531356  0.3998569588377306
  0.1667754561355019  0.2089588791669603  0.3997784484690788
  0.1656714608306642  0.3331222023591688  0.4000466373662505
  0.1649701877873730  0.4582054918289826  0.4000946491246180
  0.1657412334614379  0.5834645606192932  0.3997654356348763
  0.1665252498678720  0.7087825708543648  0.3998650993683124
  0.1668746642694040  0.8339816312476946  0.4000264455756832
  0.1671010480374523  0.9592038037577163  0.3999822701351448
  0.2921830714382416  0.0843783758206110  0.3998431953247575
  0.2926317458663515  0.2102622639536642  0.4001763907765074
  0.2921270162623989  0.3354184971831290  0.4014228353912294
  0.2886071633256654  0.4574819047696612  0.4018600375983280
  0.2897007346402932  0.5837971291625497  0.4005409252707281
  0.2911109626864207  0.7086972598223426  0.3997324486313369
  0.2915901974311275  0.8337234531051065  0.3998757914236311
  0.2918679993740655  0.9589620300844479  0.3999662277460887
  0.4168982005758419  0.0836619793799689  0.3998879506148452
  0.4171803527446860  0.2089572527724128  0.3997752787384092
  0.4182958988870093  0.3354244535256470  0.4014151142767323
  0.4128517780615267  0.5820179872249058  0.4034493456949336
  0.4157937117188678  0.7075605985988394  0.4001169768530566
  0.4163305414982102  0.8330129229608780  0.3997320929453446
  0.4166041432631266  0.9582969877937929  0.3999888174441468
  0.5415890075029954  0.0828860896671714  0.3999938541763177
  0.5419298828330497  0.2080684841906120  0.3997372687555849
  0.5424492881943882  0.3331184117960300  0.4000601359607366
  0.5438802696425037  0.4574753632179697  0.4018526462348956
  0.5441642754539101  0.5820087613790553  0.4034325494741897
  0.5408020076635340  0.7065991864947940  0.4011969497346681
  0.5409951691094496  0.8321544377218719  0.3998997032290635
  0.5413561132305468  0.9575980135676264  0.3999219027432041
  0.6663373003348667  0.0825704673552545  0.4000167763080684
  0.6666312801563470  0.2077963577146840  0.3999437473058365
  0.6669994865762464  0.3328932217717413  0.3997412354654614
  0.6682423820209772  0.4582030629280588  0.4001054724431037
  0.6691046399619848  0.5837989583379036  0.4005541042651646
  0.6667668953400925  0.7075615451455635  0.4001213437313394
  0.6661602296230965  0.8321569896915677  0.3998913939863003
  0.6661966019589221  0.9573964607672847  0.3998916873109289
  0.7912312573509828  0.0825777994270053  0.3999982226040339
  0.7913361433263292  0.2076633042306331  0.4000575018298939
  0.7916866222424898  0.3329271345763630  0.3999729632460607
  0.7923189502881181  0.4582770173993805  0.3997866428457892
  0.7927313482950272  0.5834649967194185  0.3997584131238262
  0.7925843090045753  0.7086977047767519  0.3997436104716131
  0.7916740256162415  0.8330108662990325  0.3997267238684338
  0.7912398455190962  0.9575982313875464  0.3998912528188877
  0.9162935361500119  0.0828919244037572  0.3999650971157974
  0.9161699288940091  0.2078051844577912  0.3999330943396558
  0.9162437437019911  0.3329310766612553  0.3999840525663428
  0.9165907924993746  0.4581747003259283  0.4000266616426019
  0.9171110230838817  0.5835491575318403  0.3999422544702226
  0.9172619642627321  0.7087908440043958  0.3998586115590359
  0.9171335664063963  0.8337240061012394  0.3998984210851960
  0.9166901698587119  0.9583000035289638  0.3999917473695498
  0.0837573364204094  0.0424012909066332  0.3999221605282109
  0.0833183822876226  0.1669870263171072  0.3997318792167542
  0.0824137744514099  0.2913033397195356  0.3997333899029634
  0.0822769686200357  0.4165355742102457  0.3997649293915119
  0.0826872680243854  0.5417230507700902  0.3998100390800443
  0.0833122984207425  0.6670689653983282  0.3999840783925128
  0.0836720369502140  0.7923366729947425  0.4000572803056810
  0.0837667840549260  0.9174292249928753  0.4000164320226518
  0.2087989350224734  0.0426022501084379  0.3998919644970398
  0.2088399609240306  0.1678448724306397  0.3998999596397010
  0.2082323965495487  0.2924396879316803  0.4001169742130397
  0.2059031156483045  0.4162029737665560  0.4005404823128415
  0.2067643774070209  0.5417948202188947  0.4000946348389494
  0.2079977599928296  0.6671026712794428  0.3997411512799655
  0.2083643660267835  0.7921948545318557  0.3999334956319240
  0.2086531946467563  0.9174217764992185  0.3999979705682241
  0.3336381377217064  0.0424014292805944  0.3998898661336364
  0.3340029120356571  0.1678431810015746  0.3998915127754230
  0.3342036640194203  0.2934015932286093  0.4011977123765076
  0.3308337549596966  0.4179824447922332  0.4034493414545475
  0.3311248906317570  0.5425184846492752  0.4018600846006823
  0.3325491297987821  0.6668774576980190  0.4000467473302625
  0.3330690048781715  0.7919276139584248  0.3997271108403932
  0.3334019113355658  0.9171082837236648  0.3999650790102336
  0.4583879254788493  0.0417017756708287  0.3999930060799151
  0.4586639475088209  0.1669900436494123  0.3997267992892151
  0.4592048293132146  0.2924392370555046  0.4001214464698609
  0.4621549707990667  0.4179909293354332  0.4034325744579449
  0.4567091774272173  0.6645820805751490  0.4014225687874924
  0.4578169760371156  0.7910414310939730  0.3997782304330527
  0.4580971845919762  0.9163374029516395  0.3999084128530916
  0.5831195332888701  0.0410369127463340  0.3999998429063791
  0.5834097241964018  0.1662756441358108  0.3998984125667359
  0.5838857233633200  0.2913024966881905  0.3997436440978275
  0.5853062731805271  0.4162018765407179  0.4005543075989020
  0.5864039808239052  0.5425244721530342  0.4018525216438667
  0.5828716614672927  0.6645750782842186  0.4014147470397167
  0.5823691985196934  0.7897375168968334  0.4001759576229723
  0.5828160279668683  0.9156209406396291  0.3998566773885655
  0.7078973712197835  0.0407960685803369  0.3999823293044768
  0.7081238924759199  0.1660186742689916  0.4000373056542439
  0.7084695793615795  0.2912087336674315  0.3998587060898044
  0.7092645642949178  0.4165345339448860  0.3997589550105852
  0.7100385535750140  0.5417972742312299  0.4001053214076239
  0.7093304218387644  0.6668814236394974  0.4000600629935965
  0.7082221629878057  0.7910430886008872  0.3997753523158438
  0.7078039432039097  0.9156211180098771  0.3998430218402893
  0.8329062408124152  0.0410383772856029  0.3999668584953279
  0.8328927992043159  0.1660194272663584  0.4000265437459176
  0.8331166901023938  0.2912325958032886  0.4000584450728132
  0.8335604214286600  0.4164504415294488  0.3999427471756712
  0.8340390785877744  0.5417232285893909  0.3997857752797417
  0.8341047166078790  0.6671061572629615  0.3997398537770310
  0.8338608298025476  0.7919312651476356  0.3997373622003386
  0.8332355261291916  0.9163388413127889  0.3998877494681544
  0.9583062584625547  0.0417032063809317  0.3999886880019685
  0.9578652948249539  0.1662763516644578  0.3998752225278365
  0.9577425392965921  0.2912173228655070  0.3998647847505142
  0.9578962981123597  0.4164477814329618  0.3999615143175646
  0.9584152082587962  0.5418257930932510  0.4000266550252415
  0.9587579028394727  0.6670726069530658  0.3999726994136232
  0.9588327384191644  0.7922031888679660  0.3999437030289908
  0.9587014980564016  0.9171131784744574  0.3999940000886717
 
  0.00000000E+00  0.00000000E+00  0.00000000E+00
  0.00000000E+00  0.00000000E+00  0.00000000E+00
  0.00000000E+00  0.00000000E+00  0.00000000E+00
  0.00000000E+00  0.00000000E+00  0.00000000E+00
  0.00000000E+00  0.00000000E+00  0.00000000E+00
  0.00000000E+00  0.00000000E+00  0.00000000E+00
  0.00000000E+00  0.00000000E+00  0.00000000E+00
  0.00000000E+00  0.00000000E+00  0.00000000E+00
  0.00000000E+00  0.00000000E+00  0.00000000E+00
  0.00000000E+00  0.00000000E+00  0.00000000E+00
  0.00000000E+00  0.00000000E+00  0.00000000E+00
  0.00000000E+00  0.00000000E+00  0.00000000E+00
  0.00000000E+00  0.00000000E+00  0.00000000E+00
  0.00000000E+00  0.00000000E+00  0.00000000E+00
  0.00000000E+00  0.00000000E+00  0.00000000E+00
  0.00000000E+00  0.00000000E+00  0.00000000E+00
  0.00000000E+00  0.00000000E+00  0.00000000E+00
  0.00000000E+00  0.00000000E+00  0.00000000E+00
  0.00000000E+00  0.00000000E+00  0.00000000E+00
  0.00000000E+00  0.00000000E+00  0.00000000E+00
  0.00000000E+00  0.00000000E+00  0.00000000E+00
  0.00000000E+00  0.00000000E+00  0.00000000E+00
  0.00000000E+00  0.00000000E+00  0.00000000E+00
  0.00000000E+00  0.00000000E+00  0.00000000E+00
  0.00000000E+00  0.00000000E+00  0.00000000E+00
  0.00000000E+00  0.00000000E+00  0.00000000E+00
  0.00000000E+00  0.00000000E+00  0.00000000E+00
  0.00000000E+00  0.00000000E+00  0.00000000E+00
  0.00000000E+00  0.00000000E+00  0.00000000E+00
  0.00000000E+00  0.00000000E+00  0.00000000E+00
  0.00000000E+00  0.00000000E+00  0.00000000E+00
  0.00000000E+00  0.00000000E+00  0.00000000E+00
  0.00000000E+00  0.00000000E+00  0.00000000E+00
  0.00000000E+00  0.00000000E+00  0.00000000E+00
  0.00000000E+00  0.00000000E+00  0.00000000E+00
  0.00000000E+00  0.00000000E+00  0.00000000E+00
  0.00000000E+00  0.00000000E+00  0.00000000E+00
  0.00000000E+00  0.00000000E+00  0.00000000E+00
  0.00000000E+00  0.00000000E+00  0.00000000E+00
  0.00000000E+00  0.00000000E+00  0.00000000E+00
  0.00000000E+00  0.00000000E+00  0.00000000E+00
  0.00000000E+00  0.00000000E+00  0.00000000E+00
  0.00000000E+00  0.00000000E+00  0.00000000E+00
  0.00000000E+00  0.00000000E+00  0.00000000E+00
  0.00000000E+00  0.00000000E+00  0.00000000E+00
  0.00000000E+00  0.00000000E+00  0.00000000E+00
  0.00000000E+00  0.00000000E+00  0.00000000E+00
  0.00000000E+00  0.00000000E+00  0.00000000E+00
  0.00000000E+00  0.00000000E+00  0.00000000E+00
  0.00000000E+00  0.00000000E+00  0.00000000E+00
  0.00000000E+00  0.00000000E+00  0.00000000E+00
  0.00000000E+00  0.00000000E+00  0.00000000E+00
  0.00000000E+00  0.00000000E+00  0.00000000E+00
  0.00000000E+00  0.00000000E+00  0.00000000E+00
  0.00000000E+00  0.00000000E+00  0.00000000E+00
  0.00000000E+00  0.00000000E+00  0.00000000E+00
  0.00000000E+00  0.00000000E+00  0.00000000E+00
  0.00000000E+00  0.00000000E+00  0.00000000E+00
  0.00000000E+00  0.00000000E+00  0.00000000E+00
  0.00000000E+00  0.00000000E+00  0.00000000E+00
  0.00000000E+00  0.00000000E+00  0.00000000E+00
  0.00000000E+00  0.00000000E+00  0.00000000E+00
  0.00000000E+00  0.00000000E+00  0.00000000E+00
  0.00000000E+00  0.00000000E+00  0.00000000E+00
  0.00000000E+00  0.00000000E+00  0.00000000E+00
  0.00000000E+00  0.00000000E+00  0.00000000E+00
  0.00000000E+00  0.00000000E+00  0.00000000E+00
  0.00000000E+00  0.00000000E+00  0.00000000E+00
  0.00000000E+00  0.00000000E+00  0.00000000E+00
  0.00000000E+00  0.00000000E+00  0.00000000E+00
  0.00000000E+00  0.00000000E+00  0.00000000E+00
  0.00000000E+00  0.00000000E+00  0.00000000E+00
  0.00000000E+00  0.00000000E+00  0.00000000E+00
  0.00000000E+00  0.00000000E+00  0.00000000E+00
  0.00000000E+00  0.00000000E+00  0.00000000E+00
  0.00000000E+00  0.00000000E+00  0.00000000E+00
  0.00000000E+00  0.00000000E+00  0.00000000E+00
  0.00000000E+00  0.00000000E+00  0.00000000E+00
  0.00000000E+00  0.00000000E+00  0.00000000E+00
  0.00000000E+00  0.00000000E+00  0.00000000E+00
  0.00000000E+00  0.00000000E+00  0.00000000E+00
  0.00000000E+00  0.00000000E+00  0.00000000E+00
  0.00000000E+00  0.00000000E+00  0.00000000E+00
  0.00000000E+00  0.00000000E+00  0.00000000E+00
  0.00000000E+00  0.00000000E+00  0.00000000E+00
  0.00000000E+00  0.00000000E+00  0.00000000E+00
  0.00000000E+00  0.00000000E+00  0.00000000E+00
  0.00000000E+00  0.00000000E+00  0.00000000E+00
  0.00000000E+00  0.00000000E+00  0.00000000E+00
  0.00000000E+00  0.00000000E+00  0.00000000E+00
  0.00000000E+00  0.00000000E+00  0.00000000E+00
  0.00000000E+00  0.00000000E+00  0.00000000E+00
  0.00000000E+00  0.00000000E+00  0.00000000E+00
  0.00000000E+00  0.00000000E+00  0.00000000E+00
  0.00000000E+00  0.00000000E+00  0.00000000E+00
  0.00000000E+00  0.00000000E+00  0.00000000E+00
  0.00000000E+00  0.00000000E+00  0.00000000E+00
  0.00000000E+00  0.00000000E+00  0.00000000E+00
  0.00000000E+00  0.00000000E+00  0.00000000E+00
  0.00000000E+00  0.00000000E+00  0.00000000E+00
  0.00000000E+00  0.00000000E+00  0.00000000E+00
  0.00000000E+00  0.00000000E+00  0.00000000E+00
  0.00000000E+00  0.00000000E+00  0.00000000E+00
  0.00000000E+00  0.00000000E+00  0.00000000E+00
  0.00000000E+00  0.00000000E+00  0.00000000E+00
  0.00000000E+00  0.00000000E+00  0.00000000E+00
  0.00000000E+00  0.00000000E+00  0.00000000E+00
  0.00000000E+00  0.00000000E+00  0.00000000E+00
  0.00000000E+00  0.00000000E+00  0.00000000E+00
  0.00000000E+00  0.00000000E+00  0.00000000E+00
  0.00000000E+00  0.00000000E+00  0.00000000E+00
  0.00000000E+00  0.00000000E+00  0.00000000E+00
  0.00000000E+00  0.00000000E+00  0.00000000E+00
  0.00000000E+00  0.00000000E+00  0.00000000E+00
  0.00000000E+00  0.00000000E+00  0.00000000E+00
  0.00000000E+00  0.00000000E+00  0.00000000E+00
  0.00000000E+00  0.00000000E+00  0.00000000E+00
  0.00000000E+00  0.00000000E+00  0.00000000E+00
  0.00000000E+00  0.00000000E+00  0.00000000E+00
  0.00000000E+00  0.00000000E+00  0.00000000E+00
  0.00000000E+00  0.00000000E+00  0.00000000E+00
  0.00000000E+00  0.00000000E+00  0.00000000E+00
  0.00000000E+00  0.00000000E+00  0.00000000E+00
  0.00000000E+00  0.00000000E+00  0.00000000E+00
  0.00000000E+00  0.00000000E+00  0.00000000E+00
  0.00000000E+00  0.00000000E+00  0.00000000E+00
  0.00000000E+00  0.00000000E+00  0.00000000E+00
