Zn1 C125 N1 O1                          
   1.00000000000000     
    19.8061513488241800   -0.0066321421741389   -0.0740089260641956
    -9.9089313026636052   17.0617551864007631    0.0775262609676469
    -0.1112881627649047    0.0702751814529802   29.7831898252534870
   Zn   C    N    O 
     1   125     1     1
Direct
  0.4383278092054033  0.4999491075713826  0.4227871453775505
  0.0418202428174952  0.0838339573442077  0.4000931191420308
  0.0412801525966149  0.2082894724585004  0.4002224747968108
  0.0409336061778599  0.3329787316302376  0.3996652027431017
  0.0410114318273083  0.4582810669181944  0.3991236205582216
  0.0414492657558834  0.5836286836495418  0.3989251146395286
  0.0419718675363799  0.7089574945651045  0.3991097514027477
  0.0422268568078772  0.8342621527468139  0.3993489735621583
  0.0422383317859552  0.9592693973090231  0.3996669797826394
  0.1674603441843458  0.0848974905158885  0.4007711437704202
  0.1670877131823183  0.2095476051102457  0.4016205874820417
  0.1661642305925680  0.3339073070101188  0.4012908863908264
  0.1651605991150403  0.4585024740022188  0.3997049023177197
  0.1654999819742049  0.5836541136983378  0.3993437570988689
  0.1663236826780808  0.7089971353079318  0.3992130299474901
  0.1668881950075810  0.8343275690774120  0.3993669978174106
  0.1673297757124724  0.9596813627451812  0.3998262079637399
  0.2925012420238625  0.0849698820952680  0.4006391011520706
  0.2930855363175382  0.2110161557171197  0.4026462136472723
  0.2926081439026488  0.3362600188633762  0.4054922337223146
  0.2899252844460390  0.4594889124718825  0.4032974522447392
  0.2892081874663632  0.5843607865871597  0.4007792468974327
  0.2906315297023508  0.7090589144609719  0.4000723295323822
  0.2914804722652720  0.8340647841670153  0.3996144187588446
  0.2919569316696055  0.9593570364947877  0.3997905397718002
  0.4170677780123138  0.0839331839144809  0.3999230272609977
  0.4175310404433412  0.2095975702598454  0.4010935968132542
  0.4187491570013428  0.3364975971376443  0.4034255028438816
  0.4148014351763384  0.7071584966977918  0.4019842953419895
  0.4160302757543837  0.8328624784015005  0.4004543100748579
  0.4165659901736562  0.9583697232494136  0.3996577924234745
  0.5416049365579402  0.0825977913965504  0.3995858013445640
  0.5421498220195189  0.2079725829309939  0.3998997315417210
  0.5429421461466545  0.3331277047525779  0.4005067523394372
  0.5458315005819226  0.4582769716427090  0.4022623269255759
  0.5467722739373698  0.5806235537096432  0.4090255890793414
  0.5385793284050535  0.7035102182215739  0.4048930550190440
  0.5403298110169654  0.8309977464981645  0.4017572356560694
  0.5411292141514454  0.9570185241893895  0.4001090102758514
  0.6662218557106518  0.0819997859349835  0.3996501668228133
  0.6667092341224156  0.2073996349746863  0.3993975482374028
  0.6673715477884302  0.3326571451489345  0.3996213704006817
  0.6690671962514390  0.4581304645722770  0.3998790268486838
  0.6705712971869437  0.5837994317016116  0.4011388113364764
  0.6663165453865092  0.7064060976253537  0.4028195701281967
  0.6649565335607730  0.8305799964645677  0.4020295771068790
  0.6657129238756041  0.9564854107523155  0.4004736045944142
  0.7910026602579975  0.0820255496300327  0.3994976071540254
  0.7913053388318357  0.2072597642139233  0.3992277607099079
  0.7918582777801839  0.3326293525800699  0.3991272216226713
  0.7928155905684257  0.4581316849204480  0.3993333616997881
  0.7936022798708211  0.5835176486067037  0.3996516070087560
  0.7929637930830495  0.7086605004617467  0.4005510614136363
  0.7912668217374730  0.8324348038087438  0.4006348054811557
  0.7906176452086199  0.9567920434373548  0.4001047300796816
  0.9161246474038472  0.0826332397990453  0.3996782947803664
  0.9161155641634373  0.2075818089966539  0.3996044804330735
  0.9162987721164764  0.3327480434799109  0.3992612428102870
  0.9168019521594711  0.4580636761572676  0.3989982667938983
  0.9174711390818187  0.5835628481641584  0.3992375860825432
  0.9175955306370921  0.7089658026670784  0.3996701636290544
  0.9172478050423473  0.8338105161843878  0.3998431742355016
  0.9165114542058551  0.9581192148530678  0.3997054437740933
  0.0839608703090722  0.0427903725782424  0.4001327334525241
  0.0834877865630245  0.1672763280714671  0.4005471653341713
  0.0826811102226839  0.2916728253825330  0.4002728856343166
  0.0823408318430903  0.4165707872436031  0.3994111422564580
  0.0825298316189334  0.5417755346076885  0.3990263245273503
  0.0832364351499260  0.6671921255628295  0.3989651825633612
  0.0837296046333800  0.7926141459929602  0.3992138974290999
  0.0839670175647879  0.9178371349372760  0.3995147011539831
  0.2090965484479387  0.0431874396727684  0.4004581084646353
  0.2091689774444655  0.1684743446508473  0.4018371832616281
  0.2085376776366205  0.2931244691301552  0.4026904606025045
  0.2067123589039676  0.4171389929369627  0.4008417136740269
  0.2063900224397351  0.5419179302616735  0.3998047405947565
  0.2075734082592180  0.6672587235493016  0.3995160100164979
  0.2082709351137463  0.7924991948503798  0.3993753942013843
  0.2087876681817449  0.9178535677184927  0.3996958554887231
  0.3338210895126102  0.0428466614138046  0.4000853132648557
  0.3343656274968688  0.1684946389211218  0.4014522971050181
  0.3346719120293559  0.2942237042983017  0.4044176630763518
  0.3298813516313062  0.4180553788512414  0.4078834976661025
  0.3311828779519018  0.5441295687206501  0.4023213336297946
  0.3317896341916629  0.6672628412070968  0.4008429958952374
  0.3328316906312339  0.7922412296963230  0.4000296508986420
  0.3333950756396404  0.9174400664561820  0.3996379379583578
  0.4584611151515617  0.0417834409678682  0.3996240932456094
  0.4589021964524401  0.1673104446495423  0.4002233717922944
  0.4597884480367694  0.2931232206720105  0.4015657412272174
  0.4643474988102294  0.4183512530350778  0.4036892966266306
  0.4539547882329377  0.6625847504350945  0.4037366777989392
  0.4573202477076527  0.7905971548680918  0.4014604543549757
  0.4579218425897982  0.9162249574028674  0.4000145361168831
  0.5830184968959169  0.0405608713776810  0.3997405265099423
  0.5835154255944234  0.1660320583996051  0.3995736214409719
  0.5842627900716476  0.2911625679388690  0.3999416687935136
  0.5860712146621618  0.4159788487823045  0.4005271360947629
  0.5885377946465379  0.5419096666914029  0.4038567086176396
  0.5819899620132361  0.6624264400692880  0.4059836954289793
  0.5807598634403720  0.7875345041695210  0.4030064037173164
  0.5823972387920553  0.9147423605076602  0.4007427420438596
  0.7076257186483633  0.0400959137705889  0.3997889350297274
  0.7081034503154875  0.1655698892945776  0.3993625991199299
  0.7086425299655493  0.2908720763699862  0.3993432180287259
  0.7097922753074616  0.4162618982933167  0.3995629830930804
  0.7111206931862261  0.5416622790590944  0.3998630928479588
  0.7098175978693061  0.6666703396174866  0.4015666076626656
  0.7075076742569399  0.7899229388565483  0.4017355513574585
  0.7069670938741599  0.9143808607251078  0.4008231268366487
  0.8325749760807361  0.0404555463478143  0.3996388580424605
  0.8328146351797288  0.1656252331032633  0.3993478645973442
  0.8331847133604120  0.2909209770897268  0.3991536502336354
  0.8338376627700479  0.4162260164696154  0.3991274733933459
  0.8345932070486075  0.5416177147883509  0.3993924761199503
  0.8345740585120839  0.6671613147288780  0.3999198344805757
  0.8339407043472035  0.7918562356746696  0.4003696051028082
  0.8328785494660333  0.9158603512528828  0.4000843192527832
  0.9582283528510014  0.0416148996861350  0.3997156449464264
  0.9578803732137626  0.1661829218898106  0.3998171132680721
  0.9577570964527213  0.2910783492002662  0.3995301941433853
  0.9579962670008053  0.4163171016673312  0.3990859855238577
  0.9585641818137973  0.5417492701275991  0.3989896566057017
  0.9589709483586590  0.6671808014505137  0.3993465775901846
  0.9590248150528390  0.7924340050440573  0.3996385569418007
  0.9587666160806492  0.9172477135782332  0.3996712631633907
  0.4099788862051395  0.5826872405037269  0.4035177575403555
  0.4300891261068304  0.5058403440761278  0.4860032524741616
 
  0.00000000E+00  0.00000000E+00  0.00000000E+00
  0.00000000E+00  0.00000000E+00  0.00000000E+00
  0.00000000E+00  0.00000000E+00  0.00000000E+00
  0.00000000E+00  0.00000000E+00  0.00000000E+00
  0.00000000E+00  0.00000000E+00  0.00000000E+00
  0.00000000E+00  0.00000000E+00  0.00000000E+00
  0.00000000E+00  0.00000000E+00  0.00000000E+00
  0.00000000E+00  0.00000000E+00  0.00000000E+00
  0.00000000E+00  0.00000000E+00  0.00000000E+00
  0.00000000E+00  0.00000000E+00  0.00000000E+00
  0.00000000E+00  0.00000000E+00  0.00000000E+00
  0.00000000E+00  0.00000000E+00  0.00000000E+00
  0.00000000E+00  0.00000000E+00  0.00000000E+00
  0.00000000E+00  0.00000000E+00  0.00000000E+00
  0.00000000E+00  0.00000000E+00  0.00000000E+00
  0.00000000E+00  0.00000000E+00  0.00000000E+00
  0.00000000E+00  0.00000000E+00  0.00000000E+00
  0.00000000E+00  0.00000000E+00  0.00000000E+00
  0.00000000E+00  0.00000000E+00  0.00000000E+00
  0.00000000E+00  0.00000000E+00  0.00000000E+00
  0.00000000E+00  0.00000000E+00  0.00000000E+00
  0.00000000E+00  0.00000000E+00  0.00000000E+00
  0.00000000E+00  0.00000000E+00  0.00000000E+00
  0.00000000E+00  0.00000000E+00  0.00000000E+00
  0.00000000E+00  0.00000000E+00  0.00000000E+00
  0.00000000E+00  0.00000000E+00  0.00000000E+00
  0.00000000E+00  0.00000000E+00  0.00000000E+00
  0.00000000E+00  0.00000000E+00  0.00000000E+00
  0.00000000E+00  0.00000000E+00  0.00000000E+00
  0.00000000E+00  0.00000000E+00  0.00000000E+00
  0.00000000E+00  0.00000000E+00  0.00000000E+00
  0.00000000E+00  0.00000000E+00  0.00000000E+00
  0.00000000E+00  0.00000000E+00  0.00000000E+00
  0.00000000E+00  0.00000000E+00  0.00000000E+00
  0.00000000E+00  0.00000000E+00  0.00000000E+00
  0.00000000E+00  0.00000000E+00  0.00000000E+00
  0.00000000E+00  0.00000000E+00  0.00000000E+00
  0.00000000E+00  0.00000000E+00  0.00000000E+00
  0.00000000E+00  0.00000000E+00  0.00000000E+00
  0.00000000E+00  0.00000000E+00  0.00000000E+00
  0.00000000E+00  0.00000000E+00  0.00000000E+00
  0.00000000E+00  0.00000000E+00  0.00000000E+00
  0.00000000E+00  0.00000000E+00  0.00000000E+00
  0.00000000E+00  0.00000000E+00  0.00000000E+00
  0.00000000E+00  0.00000000E+00  0.00000000E+00
  0.00000000E+00  0.00000000E+00  0.00000000E+00
  0.00000000E+00  0.00000000E+00  0.00000000E+00
  0.00000000E+00  0.00000000E+00  0.00000000E+00
  0.00000000E+00  0.00000000E+00  0.00000000E+00
  0.00000000E+00  0.00000000E+00  0.00000000E+00
  0.00000000E+00  0.00000000E+00  0.00000000E+00
  0.00000000E+00  0.00000000E+00  0.00000000E+00
  0.00000000E+00  0.00000000E+00  0.00000000E+00
  0.00000000E+00  0.00000000E+00  0.00000000E+00
  0.00000000E+00  0.00000000E+00  0.00000000E+00
  0.00000000E+00  0.00000000E+00  0.00000000E+00
  0.00000000E+00  0.00000000E+00  0.00000000E+00
  0.00000000E+00  0.00000000E+00  0.00000000E+00
  0.00000000E+00  0.00000000E+00  0.00000000E+00
  0.00000000E+00  0.00000000E+00  0.00000000E+00
  0.00000000E+00  0.00000000E+00  0.00000000E+00
  0.00000000E+00  0.00000000E+00  0.00000000E+00
  0.00000000E+00  0.00000000E+00  0.00000000E+00
  0.00000000E+00  0.00000000E+00  0.00000000E+00
  0.00000000E+00  0.00000000E+00  0.00000000E+00
  0.00000000E+00  0.00000000E+00  0.00000000E+00
  0.00000000E+00  0.00000000E+00  0.00000000E+00
  0.00000000E+00  0.00000000E+00  0.00000000E+00
  0.00000000E+00  0.00000000E+00  0.00000000E+00
  0.00000000E+00  0.00000000E+00  0.00000000E+00
  0.00000000E+00  0.00000000E+00  0.00000000E+00
  0.00000000E+00  0.00000000E+00  0.00000000E+00
  0.00000000E+00  0.00000000E+00  0.00000000E+00
  0.00000000E+00  0.00000000E+00  0.00000000E+00
  0.00000000E+00  0.00000000E+00  0.00000000E+00
  0.00000000E+00  0.00000000E+00  0.00000000E+00
  0.00000000E+00  0.00000000E+00  0.00000000E+00
  0.00000000E+00  0.00000000E+00  0.00000000E+00
  0.00000000E+00  0.00000000E+00  0.00000000E+00
  0.00000000E+00  0.00000000E+00  0.00000000E+00
  0.00000000E+00  0.00000000E+00  0.00000000E+00
  0.00000000E+00  0.00000000E+00  0.00000000E+00
  0.00000000E+00  0.00000000E+00  0.00000000E+00
  0.00000000E+00  0.00000000E+00  0.00000000E+00
  0.00000000E+00  0.00000000E+00  0.00000000E+00
  0.00000000E+00  0.00000000E+00  0.00000000E+00
  0.00000000E+00  0.00000000E+00  0.00000000E+00
  0.00000000E+00  0.00000000E+00  0.00000000E+00
  0.00000000E+00  0.00000000E+00  0.00000000E+00
  0.00000000E+00  0.00000000E+00  0.00000000E+00
  0.00000000E+00  0.00000000E+00  0.00000000E+00
  0.00000000E+00  0.00000000E+00  0.00000000E+00
  0.00000000E+00  0.00000000E+00  0.00000000E+00
  0.00000000E+00  0.00000000E+00  0.00000000E+00
  0.00000000E+00  0.00000000E+00  0.00000000E+00
  0.00000000E+00  0.00000000E+00  0.00000000E+00
  0.00000000E+00  0.00000000E+00  0.00000000E+00
  0.00000000E+00  0.00000000E+00  0.00000000E+00
  0.00000000E+00  0.00000000E+00  0.00000000E+00
  0.00000000E+00  0.00000000E+00  0.00000000E+00
  0.00000000E+00  0.00000000E+00  0.00000000E+00
  0.00000000E+00  0.00000000E+00  0.00000000E+00
  0.00000000E+00  0.00000000E+00  0.00000000E+00
  0.00000000E+00  0.00000000E+00  0.00000000E+00
  0.00000000E+00  0.00000000E+00  0.00000000E+00
  0.00000000E+00  0.00000000E+00  0.00000000E+00
  0.00000000E+00  0.00000000E+00  0.00000000E+00
  0.00000000E+00  0.00000000E+00  0.00000000E+00
  0.00000000E+00  0.00000000E+00  0.00000000E+00
  0.00000000E+00  0.00000000E+00  0.00000000E+00
  0.00000000E+00  0.00000000E+00  0.00000000E+00
  0.00000000E+00  0.00000000E+00  0.00000000E+00
  0.00000000E+00  0.00000000E+00  0.00000000E+00
  0.00000000E+00  0.00000000E+00  0.00000000E+00
  0.00000000E+00  0.00000000E+00  0.00000000E+00
  0.00000000E+00  0.00000000E+00  0.00000000E+00
  0.00000000E+00  0.00000000E+00  0.00000000E+00
  0.00000000E+00  0.00000000E+00  0.00000000E+00
  0.00000000E+00  0.00000000E+00  0.00000000E+00
  0.00000000E+00  0.00000000E+00  0.00000000E+00
  0.00000000E+00  0.00000000E+00  0.00000000E+00
  0.00000000E+00  0.00000000E+00  0.00000000E+00
  0.00000000E+00  0.00000000E+00  0.00000000E+00
  0.00000000E+00  0.00000000E+00  0.00000000E+00
  0.00000000E+00  0.00000000E+00  0.00000000E+00
  0.00000000E+00  0.00000000E+00  0.00000000E+00
  0.00000000E+00  0.00000000E+00  0.00000000E+00
  0.00000000E+00  0.00000000E+00  0.00000000E+00
