H1 Ru1 C124 N2 O1                       
   1.00000000000000     
    19.7991141475208359   -0.0310961567972836   -0.5504166107863048
    -9.9302824973224872   17.0422102156184643    0.5598947937117128
    -0.8271193436314429    0.4962786813163840   29.8801232630089331
   H    Ru   C    N    O 
     1     1   124     2     1
Direct
  0.4455895465165920  0.5734439676702835  0.4978269159789480
  0.4401129984555571  0.4987838099551604  0.4304815443019148
  0.0429066004721656  0.0844429636425178  0.3993881502894656
  0.0424718140274068  0.2087621435812690  0.3990840724036271
  0.0416202472039595  0.3331645959233813  0.3987399194609870
  0.0410097571103427  0.4582895954527905  0.3982748812123927
  0.0412632835852404  0.5836887061845764  0.3980604884844730
  0.0417630696304001  0.7090212720967655  0.3985379542851285
  0.0420840895812234  0.8341784789423469  0.3991493551284591
  0.0425127214187356  0.9594423924117647  0.3994090908172558
  0.1686771685807909  0.0858206044968247  0.4001441862624239
  0.1693927152629256  0.2113350490665010  0.4001832924135189
  0.1676305313137998  0.3348909585552314  0.3995262737941414
  0.1651778332734122  0.4589317390978789  0.3996349126779629
  0.1652179576639337  0.5839085580342485  0.3993487441209092
  0.1661094281053642  0.7091075792164970  0.3989833247877374
  0.1668302351149553  0.8343933962385433  0.3991434220286491
  0.1675397329698040  0.9598402688531308  0.3996996729169434
  0.2930165782608443  0.0852068272730453  0.4003810154731379
  0.2952818647835114  0.2125141154003101  0.4018892680468755
  0.2967645254270993  0.3397710417462385  0.4026174178856090
  0.2900538860282688  0.4608436577669162  0.4020186502382933
  0.2888978745993038  0.5845841285246538  0.4022686463787338
  0.2904425704217870  0.7090474937681108  0.4011693894501488
  0.2914790770871723  0.8340813900733914  0.3996943029165839
  0.2921513897081484  0.9594049875330591  0.3995495700939480
  0.4174061255791406  0.0835942000691734  0.3996780765750008
  0.4183808880528387  0.2093638859682707  0.4008677980417857
  0.4222817103624094  0.3370037839998232  0.4052387954135191
  0.4145907554068313  0.7064646368320757  0.4042228074788737
  0.4160957425666878  0.8324322651860461  0.4013655888640642
  0.4167575157440740  0.9580477873171999  0.3997784151902655
  0.5419747656550647  0.0820306117674536  0.3995920225511193
  0.5426670324967182  0.2072096472962274  0.3996807448523609
  0.5441388700226708  0.3319336814000597  0.4008011110975769
  0.5458650830736694  0.4551892136134769  0.4025710490067384
  0.5413066526554120  0.5753263613731667  0.4032010363394695
  0.5378719833349409  0.7018983312185052  0.4050717857837181
  0.5404458409323440  0.8301629232253063  0.4029270566467921
  0.5414076706916680  0.9564324541879193  0.4007725178193752
  0.6666401189992827  0.0814427082431003  0.3998610404561230
  0.6672275292312666  0.2068379246016463  0.3990982312684283
  0.6681657112782822  0.3321167977407400  0.3988309087072876
  0.6694058301413588  0.4573725557147072  0.3983051292904409
  0.6684932601803019  0.5814550156142695  0.3981101547437305
  0.6639836284695848  0.7038913259977597  0.3999184465391534
  0.6644572952728487  0.8293646907723466  0.4014201372878269
  0.6659291487582080  0.9557506743814991  0.4009738542806896
  0.7914349068991925  0.0815460972198306  0.3995246865393705
  0.7918618058907384  0.2068759018540280  0.3989220843158159
  0.7923815243599647  0.3322697499733867  0.3982121432661413
  0.7930243798801313  0.4576940943357293  0.3978681532406784
  0.7931416363121205  0.5829136979485359  0.3979709465945902
  0.7915550647201821  0.7073253959520679  0.3983578006088377
  0.7903216191321764  0.8311259810807594  0.3993953091347412
  0.7906923898202177  0.9560983301174792  0.3998123482126971
  0.9167307852463593  0.0825290044212018  0.3991509087513106
  0.9167794825865740  0.2073967848899398  0.3987933214048446
  0.9167735809817611  0.3325558399863414  0.3982265240503962
  0.9169607697308300  0.4579794302356865  0.3977316730885236
  0.9172922554853877  0.5834339005275868  0.3979646047055721
  0.9170469696722996  0.7085291809959093  0.3985886735019205
  0.9167715947216978  0.8332879733189704  0.3989834844181387
  0.9165988341874342  0.9578287700066089  0.3992184180069022
  0.0848623854325107  0.0433173687415000  0.3996118467654473
  0.0852448456003959  0.1683285567960524  0.3994805258400808
  0.0839831144701040  0.2922574591592803  0.3989973965268984
  0.0823820086894978  0.4166735568355364  0.3988074841079170
  0.0823044433378918  0.5418770838905977  0.3983695605522557
  0.0829483655009972  0.6672582218440909  0.3983999605122575
  0.0835702648090677  0.7925924795811822  0.3989706002231561
  0.0840541253552451  0.9178497241410766  0.3994410868338586
  0.2096620724592600  0.0435591926648495  0.4001534846066771
  0.2112597777053529  0.1699139122769148  0.4007130873706515
  0.2117115824273768  0.2954965433424790  0.4004524241470424
  0.2072777516460314  0.4181556027047487  0.4000232851403160
  0.2060745641645544  0.5421627260840794  0.4001422053608590
  0.2072444750543400  0.6673490741324267  0.3997661264343042
  0.2081588650996722  0.7926164212094146  0.3992019233065618
  0.2088398601244903  0.9179586831994750  0.3995012466592463
  0.3341186687954272  0.0429171488970554  0.3998270633223944
  0.3352611972058562  0.1689939508490951  0.4011782683528883
  0.3383063633001992  0.2969936313568558  0.4038552032900679
  0.3354154774300883  0.4237413038958250  0.4038515737977930
  0.3301428420166706  0.5439452805164638  0.4046950292884857
  0.3314858916469199  0.6672892740778696  0.4029321275499460
  0.3328010662855196  0.7921856532889070  0.4007434567536302
  0.3334907078044503  0.9174306770047753  0.3995835300319758
  0.4587058654514403  0.0414228769624655  0.3995607857080586
  0.4594475344563773  0.1669780093884774  0.3999733580907437
  0.4611459335260730  0.2927711361685433  0.4019666135002126
  0.4538423900943472  0.6618458761012692  0.4070977363833191
  0.4573001490603357  0.7899687871903738  0.4028690129144953
  0.4580959974645454  0.9158331195951462  0.4005510082645068
  0.5833388697703790  0.0400134365547891  0.4000217392678426
  0.5839410619394069  0.1653839340390593  0.3993761039337296
  0.5850066858838330  0.2903597667705529  0.3997057158216472
  0.5866381224346979  0.4148159392346747  0.4000052852164343
  0.5860529038142428  0.5385038588262476  0.4000499554581673
  0.5791604176381819  0.6593122119209681  0.4023397599629544
  0.5805658587494735  0.7865403309600093  0.4033046439590187
  0.5825779028877193  0.9140363815110834  0.4016477458458145
  0.7079754003022977  0.0395132077689760  0.4001281489425295
  0.7085759506943868  0.1650631732293988  0.3992682402190436
  0.7092440039269476  0.2904003829779038  0.3986604475816197
  0.7101544944304966  0.4156161804461768  0.3982223096433098
  0.7104287487777811  0.5406154522697286  0.3979396976182229
  0.7079737284145348  0.6646836430881137  0.3984093595186353
  0.7062241203551758  0.7880423207086351  0.4002108129982539
  0.7069351831364878  0.9135146881007805  0.4007348889127593
  0.8330064290784983  0.0399964011554169  0.3994553092049461
  0.8333645215138145  0.1652573488643636  0.3990481174851762
  0.8336232209374215  0.2905015505426947  0.3983979784996950
  0.8340374772234913  0.4158709575457269  0.3978510598153043
  0.8343859084635452  0.5412842825370378  0.3978956779788266
  0.8338573915167250  0.6663977142033426  0.3982643434680907
  0.8330526652086875  0.7907627802409831  0.3988526410407831
  0.8326327968707747  0.9150086460512427  0.3994524295229722
  0.9589267287224966  0.0416453934481047  0.3992041482098563
  0.9587428710468395  0.1662349995636503  0.3989597659867015
  0.9583875956769317  0.2910111991632282  0.3985425173995351
  0.9580843988350505  0.4161760983586165  0.3979391726806666
  0.9583577748280793  0.5416124627162689  0.3978034025306322
  0.9586215056428632  0.6670070596832844  0.3983675008881886
  0.9586804603761195  0.7921067857361626  0.3989331688394540
  0.9587859367570807  0.9169606951284542  0.3991946271017469
  0.4096285611030117  0.5811791891442855  0.4105795554219060
  0.4667396127099003  0.4175814525101239  0.4093186994106610
  0.4487238487821923  0.5269984122128050  0.4915987680557523
 
  0.00000000E+00  0.00000000E+00  0.00000000E+00
  0.00000000E+00  0.00000000E+00  0.00000000E+00
  0.00000000E+00  0.00000000E+00  0.00000000E+00
  0.00000000E+00  0.00000000E+00  0.00000000E+00
  0.00000000E+00  0.00000000E+00  0.00000000E+00
  0.00000000E+00  0.00000000E+00  0.00000000E+00
  0.00000000E+00  0.00000000E+00  0.00000000E+00
  0.00000000E+00  0.00000000E+00  0.00000000E+00
  0.00000000E+00  0.00000000E+00  0.00000000E+00
  0.00000000E+00  0.00000000E+00  0.00000000E+00
  0.00000000E+00  0.00000000E+00  0.00000000E+00
  0.00000000E+00  0.00000000E+00  0.00000000E+00
  0.00000000E+00  0.00000000E+00  0.00000000E+00
  0.00000000E+00  0.00000000E+00  0.00000000E+00
  0.00000000E+00  0.00000000E+00  0.00000000E+00
  0.00000000E+00  0.00000000E+00  0.00000000E+00
  0.00000000E+00  0.00000000E+00  0.00000000E+00
  0.00000000E+00  0.00000000E+00  0.00000000E+00
  0.00000000E+00  0.00000000E+00  0.00000000E+00
  0.00000000E+00  0.00000000E+00  0.00000000E+00
  0.00000000E+00  0.00000000E+00  0.00000000E+00
  0.00000000E+00  0.00000000E+00  0.00000000E+00
  0.00000000E+00  0.00000000E+00  0.00000000E+00
  0.00000000E+00  0.00000000E+00  0.00000000E+00
  0.00000000E+00  0.00000000E+00  0.00000000E+00
  0.00000000E+00  0.00000000E+00  0.00000000E+00
  0.00000000E+00  0.00000000E+00  0.00000000E+00
  0.00000000E+00  0.00000000E+00  0.00000000E+00
  0.00000000E+00  0.00000000E+00  0.00000000E+00
  0.00000000E+00  0.00000000E+00  0.00000000E+00
  0.00000000E+00  0.00000000E+00  0.00000000E+00
  0.00000000E+00  0.00000000E+00  0.00000000E+00
  0.00000000E+00  0.00000000E+00  0.00000000E+00
  0.00000000E+00  0.00000000E+00  0.00000000E+00
  0.00000000E+00  0.00000000E+00  0.00000000E+00
  0.00000000E+00  0.00000000E+00  0.00000000E+00
  0.00000000E+00  0.00000000E+00  0.00000000E+00
  0.00000000E+00  0.00000000E+00  0.00000000E+00
  0.00000000E+00  0.00000000E+00  0.00000000E+00
  0.00000000E+00  0.00000000E+00  0.00000000E+00
  0.00000000E+00  0.00000000E+00  0.00000000E+00
  0.00000000E+00  0.00000000E+00  0.00000000E+00
  0.00000000E+00  0.00000000E+00  0.00000000E+00
  0.00000000E+00  0.00000000E+00  0.00000000E+00
  0.00000000E+00  0.00000000E+00  0.00000000E+00
  0.00000000E+00  0.00000000E+00  0.00000000E+00
  0.00000000E+00  0.00000000E+00  0.00000000E+00
  0.00000000E+00  0.00000000E+00  0.00000000E+00
  0.00000000E+00  0.00000000E+00  0.00000000E+00
  0.00000000E+00  0.00000000E+00  0.00000000E+00
  0.00000000E+00  0.00000000E+00  0.00000000E+00
  0.00000000E+00  0.00000000E+00  0.00000000E+00
  0.00000000E+00  0.00000000E+00  0.00000000E+00
  0.00000000E+00  0.00000000E+00  0.00000000E+00
  0.00000000E+00  0.00000000E+00  0.00000000E+00
  0.00000000E+00  0.00000000E+00  0.00000000E+00
  0.00000000E+00  0.00000000E+00  0.00000000E+00
  0.00000000E+00  0.00000000E+00  0.00000000E+00
  0.00000000E+00  0.00000000E+00  0.00000000E+00
  0.00000000E+00  0.00000000E+00  0.00000000E+00
  0.00000000E+00  0.00000000E+00  0.00000000E+00
  0.00000000E+00  0.00000000E+00  0.00000000E+00
  0.00000000E+00  0.00000000E+00  0.00000000E+00
  0.00000000E+00  0.00000000E+00  0.00000000E+00
  0.00000000E+00  0.00000000E+00  0.00000000E+00
  0.00000000E+00  0.00000000E+00  0.00000000E+00
  0.00000000E+00  0.00000000E+00  0.00000000E+00
  0.00000000E+00  0.00000000E+00  0.00000000E+00
  0.00000000E+00  0.00000000E+00  0.00000000E+00
  0.00000000E+00  0.00000000E+00  0.00000000E+00
  0.00000000E+00  0.00000000E+00  0.00000000E+00
  0.00000000E+00  0.00000000E+00  0.00000000E+00
  0.00000000E+00  0.00000000E+00  0.00000000E+00
  0.00000000E+00  0.00000000E+00  0.00000000E+00
  0.00000000E+00  0.00000000E+00  0.00000000E+00
  0.00000000E+00  0.00000000E+00  0.00000000E+00
  0.00000000E+00  0.00000000E+00  0.00000000E+00
  0.00000000E+00  0.00000000E+00  0.00000000E+00
  0.00000000E+00  0.00000000E+00  0.00000000E+00
  0.00000000E+00  0.00000000E+00  0.00000000E+00
  0.00000000E+00  0.00000000E+00  0.00000000E+00
  0.00000000E+00  0.00000000E+00  0.00000000E+00
  0.00000000E+00  0.00000000E+00  0.00000000E+00
  0.00000000E+00  0.00000000E+00  0.00000000E+00
  0.00000000E+00  0.00000000E+00  0.00000000E+00
  0.00000000E+00  0.00000000E+00  0.00000000E+00
  0.00000000E+00  0.00000000E+00  0.00000000E+00
  0.00000000E+00  0.00000000E+00  0.00000000E+00
  0.00000000E+00  0.00000000E+00  0.00000000E+00
  0.00000000E+00  0.00000000E+00  0.00000000E+00
  0.00000000E+00  0.00000000E+00  0.00000000E+00
  0.00000000E+00  0.00000000E+00  0.00000000E+00
  0.00000000E+00  0.00000000E+00  0.00000000E+00
  0.00000000E+00  0.00000000E+00  0.00000000E+00
  0.00000000E+00  0.00000000E+00  0.00000000E+00
  0.00000000E+00  0.00000000E+00  0.00000000E+00
  0.00000000E+00  0.00000000E+00  0.00000000E+00
  0.00000000E+00  0.00000000E+00  0.00000000E+00
  0.00000000E+00  0.00000000E+00  0.00000000E+00
  0.00000000E+00  0.00000000E+00  0.00000000E+00
  0.00000000E+00  0.00000000E+00  0.00000000E+00
  0.00000000E+00  0.00000000E+00  0.00000000E+00
  0.00000000E+00  0.00000000E+00  0.00000000E+00
  0.00000000E+00  0.00000000E+00  0.00000000E+00
  0.00000000E+00  0.00000000E+00  0.00000000E+00
  0.00000000E+00  0.00000000E+00  0.00000000E+00
  0.00000000E+00  0.00000000E+00  0.00000000E+00
  0.00000000E+00  0.00000000E+00  0.00000000E+00
  0.00000000E+00  0.00000000E+00  0.00000000E+00
  0.00000000E+00  0.00000000E+00  0.00000000E+00
  0.00000000E+00  0.00000000E+00  0.00000000E+00
  0.00000000E+00  0.00000000E+00  0.00000000E+00
  0.00000000E+00  0.00000000E+00  0.00000000E+00
  0.00000000E+00  0.00000000E+00  0.00000000E+00
  0.00000000E+00  0.00000000E+00  0.00000000E+00
  0.00000000E+00  0.00000000E+00  0.00000000E+00
  0.00000000E+00  0.00000000E+00  0.00000000E+00
  0.00000000E+00  0.00000000E+00  0.00000000E+00
  0.00000000E+00  0.00000000E+00  0.00000000E+00
  0.00000000E+00  0.00000000E+00  0.00000000E+00
  0.00000000E+00  0.00000000E+00  0.00000000E+00
  0.00000000E+00  0.00000000E+00  0.00000000E+00
  0.00000000E+00  0.00000000E+00  0.00000000E+00
  0.00000000E+00  0.00000000E+00  0.00000000E+00
  0.00000000E+00  0.00000000E+00  0.00000000E+00
  0.00000000E+00  0.00000000E+00  0.00000000E+00
  0.00000000E+00  0.00000000E+00  0.00000000E+00
  0.00000000E+00  0.00000000E+00  0.00000000E+00
  0.00000000E+00  0.00000000E+00  0.00000000E+00
