Cu1 C126                                
   1.00000000000000     
    19.8411701271668477   -0.0000729671362185    0.0096824604816491
    -9.9206470004185459   17.0512718658959805   -0.0048424316477109
     0.0145148543397025   -0.0000033247455403   29.7426095320311568
   Cu   C 
     1   126
Direct
  0.4374856253828112  0.4999997670501076  0.4052027715663584
  0.0418899463428261  0.0839912287816240  0.4000508143487035
  0.0406428084642644  0.2079371936321991  0.4002633938743553
  0.0399844706973409  0.3326351439348269  0.4000466696346263
  0.0401043240948124  0.4582119287964641  0.3994591879065342
  0.0412053111017485  0.5838191848726538  0.3990597602529822
  0.0421318057725563  0.7092557829643800  0.3992454664393781
  0.0425104030459464  0.8346460796563691  0.3994324085879796
  0.0425272467910735  0.9596266087805451  0.3995866792230064
  0.1677649549618361  0.0855655445964761  0.4006008891921060
  0.1669990300039343  0.2099874539056732  0.4015594543900977
  0.1646860282542862  0.3331322738275000  0.4019615240926551
  0.1633541474999892  0.4582474457508400  0.4013198317498869
  0.1646446875210391  0.5836655800017629  0.4001796176726122
  0.1663444537272276  0.7092267501317335  0.3994887055536725
  0.1671446932373291  0.8346616963089876  0.3994421330082191
  0.1675877542463506  0.9601281520853313  0.3998440167680980
  0.2928247513290764  0.0855715943207574  0.4005871400677740
  0.2935904761863101  0.2121929796806770  0.4021700194350087
  0.2924959619025028  0.3377048831965103  0.4036566492019651
  0.2859243868904740  0.4578671638705540  0.4038881355863292
  0.2879649204208577  0.5838558382155241  0.4024854112024586
  0.2905757702938507  0.7089134076273285  0.4007174492515852
  0.2915045000103211  0.8340865669450598  0.3996038351971056
  0.2921575428212934  0.9596424009489789  0.3995636299437101
  0.4171420512007254  0.0840048091076988  0.4000257881326291
  0.4179813708165657  0.2099983641163033  0.4015602102642117
  0.4201737277693106  0.3377045245148355  0.4036449941375255
  0.4098239923801543  0.5796031038471862  0.4045787941963429
  0.4147529509149941  0.7064561901281563  0.4024883444554480
  0.4159975895146382  0.8325998350894627  0.4006444381257784
  0.4166499164667545  0.9583128273499726  0.3996022470498494
  0.5416323755556577  0.0825083439984513  0.3994830168001348
  0.5423017206597568  0.2079438631905705  0.4002385286410662
  0.5434204686615085  0.3331361700777049  0.4019568331258728
  0.5468992205973325  0.4578574101611407  0.4038170184075610
  0.5447521224767984  0.5796063196808310  0.4045059950261184
  0.5395506778847015  0.7041247915809249  0.4033322868771389
  0.5402846943421638  0.8307767363235918  0.4014820989667779
  0.5410442786809445  0.9568122182488936  0.4000269654706387
  0.6660683942129076  0.0817975294656508  0.3996105685953125
  0.6666483105523567  0.2072652599796783  0.3994198832426287
  0.6676334395405221  0.3326579439868812  0.3999942592666982
  0.6698547349477302  0.4582459151342849  0.4012647807205974
  0.6708603760702925  0.5838638600799563  0.4024517408526997
  0.6666770844991575  0.7064494069426656  0.4024933587562537
  0.6654881921996393  0.8307723010505201  0.4014830788727228
  0.6656606640586934  0.9562850009706927  0.4003554731719877
  0.7907753808193415  0.0817821685543996  0.3995928447544798
  0.7910471497329816  0.2070888436706609  0.3994082130576252
  0.7917652333339115  0.3326009797002779  0.3991914006122471
  0.7930682992363849  0.4582203572390127  0.3994130818055541
  0.7939746267983049  0.5836594685289769  0.4001162611027002
  0.7933193592865686  0.7089095451843006  0.4006839759041840
  0.7916099965459151  0.8325864846286232  0.4006159087645036
  0.7907968852551009  0.9568127443776150  0.4000017950375419
  0.9159230211541691  0.0824973805298247  0.3994876907598158
  0.9156133457396414  0.2072403184026966  0.3994631208802887
  0.9158304332288062  0.3325939145377601  0.3992110519580033
  0.9165553013280500  0.4581347415727725  0.3988807561390563
  0.9175725045493472  0.5838120936130595  0.3990416708391289
  0.9178632632337782  0.7092163353079584  0.3994404173970608
  0.9175982059000424  0.8340773275798643  0.3995775552824642
  0.9167155093267015  0.9583015851585948  0.3995966402669048
  0.0842348388269651  0.0431908384503054  0.4000267206187668
  0.0834015479716914  0.1674031179177371  0.4006435949451853
  0.0816653032760236  0.2910908628288550  0.4007155404973777
  0.0809818767501425  0.4163357849884565  0.4001759678185759
  0.0818995407485236  0.5417866784755400  0.3994601992312430
  0.0832389370449669  0.6674025327557944  0.3992110215972159
  0.0839574738581168  0.7929080305983371  0.3994104842220626
  0.0842704644609813  0.9182017913384153  0.3996112326775149
  0.2093782281888823  0.0437174734292066  0.4003549052421768
  0.2095123051268666  0.1692271266650566  0.4014816229643739
  0.2082986080688631  0.2935470870175762  0.4024871398200016
  0.2041100568918111  0.4161463885117033  0.4024830587858263
  0.2051097476743360  0.5417531320594099  0.4013224707264005
  0.2073523016178816  0.6673632891601159  0.4000489227594251
  0.2083744834719280  0.7927577643317876  0.3994610011182542
  0.2089957806260117  0.9182170887870177  0.3995913893890087
  0.3339878733880685  0.0431891542332338  0.4000016207481232
  0.3347188623515561  0.1692290454514065  0.4014850185261184
  0.3354275316648426  0.2958770765580580  0.4033317107201008
  0.3302209432572753  0.4203978364888583  0.4045779682368987
  0.3280598446773570  0.5421338662439349  0.4038890596464209
  0.3315554472135684  0.6668670745347054  0.4019644345762401
  0.3327067094796754  0.7920608544465177  0.4002626372326453
  0.3334274544950505  0.9175035380789786  0.3994846161391038
  0.4584154784108219  0.0416995962511515  0.3995953297255966
  0.4590249227008632  0.1674135779116856  0.4006139913123336
  0.4602286368593492  0.2935492911747362  0.4024931868257705
  0.4651450639393237  0.4203935908064405  0.4045069588130631
  0.4547928187484030  0.6622954325522290  0.4036570296131015
  0.4570141059399225  0.7900118434254851  0.4015613797327475
  0.4579001427603177  0.9160071278394480  0.4000507120748046
  0.5829013782165223  0.0403725517492907  0.3995864549038449
  0.5835233089564412  0.1659234740266364  0.3995750647038322
  0.5844113395631277  0.2910877412843864  0.4006828244021104
  0.5869958393414970  0.4161295664941179  0.4024507951152400
  0.5890423019030750  0.5421439978499552  0.4038163808077111
  0.5824696603725127  0.6622962186694835  0.4036449600307448
  0.5814003110972514  0.7878083322023474  0.4021692925438981
  0.5822024928789540  0.9144343885624123  0.4006018747901622
  0.7074631573379822  0.0398711680145404  0.3998457026328386
  0.7078651349390044  0.1653530598078433  0.3994300000643963
  0.7086491280090809  0.2907821960221333  0.3994390891651887
  0.7103197491918233  0.4163363582684137  0.4001159571442022
  0.7116129830471996  0.5417541143565729  0.4012654285800214
  0.7102879615942874  0.6668692703727708  0.4019576685976721
  0.7079862693993731  0.7900032772825805  0.4015601124071993
  0.7072574471852684  0.9144282741238978  0.4005855028393758
  0.8325188152378687  0.0403577507615196  0.3995652539308750
  0.8324864023246000  0.1653392280706557  0.3994437289324317
  0.8328780276063318  0.2907450846157777  0.3992445408363069
  0.8337643177280470  0.4161886162244356  0.3990400569205088
  0.8348506987137752  0.5417760362745626  0.3994132869246316
  0.8349755607750512  0.6673403863660530  0.3999944132762751
  0.8343568806430591  0.7920548209111055  0.4002407109442502
  0.8331384248538323  0.9159936883346869  0.4000275824632399
  0.9583379644986055  0.0416860533174285  0.3996041142203843
  0.9574206958751161  0.1659142806433846  0.3996068669494736
  0.9571192799186611  0.2907742245389439  0.3994887375032327
  0.9573921024216249  0.4161841357149863  0.3990602923762104
  0.9584252665094317  0.5418653771505982  0.3988808261721392
  0.9591639888472966  0.6673967193880815  0.3991928912593700
  0.9593800849149449  0.7927319481576516  0.3994227793967026
  0.9591228251355292  0.9174901036352470  0.3994842009642349
 
  0.00000000E+00  0.00000000E+00  0.00000000E+00
  0.00000000E+00  0.00000000E+00  0.00000000E+00
  0.00000000E+00  0.00000000E+00  0.00000000E+00
  0.00000000E+00  0.00000000E+00  0.00000000E+00
  0.00000000E+00  0.00000000E+00  0.00000000E+00
  0.00000000E+00  0.00000000E+00  0.00000000E+00
  0.00000000E+00  0.00000000E+00  0.00000000E+00
  0.00000000E+00  0.00000000E+00  0.00000000E+00
  0.00000000E+00  0.00000000E+00  0.00000000E+00
  0.00000000E+00  0.00000000E+00  0.00000000E+00
  0.00000000E+00  0.00000000E+00  0.00000000E+00
  0.00000000E+00  0.00000000E+00  0.00000000E+00
  0.00000000E+00  0.00000000E+00  0.00000000E+00
  0.00000000E+00  0.00000000E+00  0.00000000E+00
  0.00000000E+00  0.00000000E+00  0.00000000E+00
  0.00000000E+00  0.00000000E+00  0.00000000E+00
  0.00000000E+00  0.00000000E+00  0.00000000E+00
  0.00000000E+00  0.00000000E+00  0.00000000E+00
  0.00000000E+00  0.00000000E+00  0.00000000E+00
  0.00000000E+00  0.00000000E+00  0.00000000E+00
  0.00000000E+00  0.00000000E+00  0.00000000E+00
  0.00000000E+00  0.00000000E+00  0.00000000E+00
  0.00000000E+00  0.00000000E+00  0.00000000E+00
  0.00000000E+00  0.00000000E+00  0.00000000E+00
  0.00000000E+00  0.00000000E+00  0.00000000E+00
  0.00000000E+00  0.00000000E+00  0.00000000E+00
  0.00000000E+00  0.00000000E+00  0.00000000E+00
  0.00000000E+00  0.00000000E+00  0.00000000E+00
  0.00000000E+00  0.00000000E+00  0.00000000E+00
  0.00000000E+00  0.00000000E+00  0.00000000E+00
  0.00000000E+00  0.00000000E+00  0.00000000E+00
  0.00000000E+00  0.00000000E+00  0.00000000E+00
  0.00000000E+00  0.00000000E+00  0.00000000E+00
  0.00000000E+00  0.00000000E+00  0.00000000E+00
  0.00000000E+00  0.00000000E+00  0.00000000E+00
  0.00000000E+00  0.00000000E+00  0.00000000E+00
  0.00000000E+00  0.00000000E+00  0.00000000E+00
  0.00000000E+00  0.00000000E+00  0.00000000E+00
  0.00000000E+00  0.00000000E+00  0.00000000E+00
  0.00000000E+00  0.00000000E+00  0.00000000E+00
  0.00000000E+00  0.00000000E+00  0.00000000E+00
  0.00000000E+00  0.00000000E+00  0.00000000E+00
  0.00000000E+00  0.00000000E+00  0.00000000E+00
  0.00000000E+00  0.00000000E+00  0.00000000E+00
  0.00000000E+00  0.00000000E+00  0.00000000E+00
  0.00000000E+00  0.00000000E+00  0.00000000E+00
  0.00000000E+00  0.00000000E+00  0.00000000E+00
  0.00000000E+00  0.00000000E+00  0.00000000E+00
  0.00000000E+00  0.00000000E+00  0.00000000E+00
  0.00000000E+00  0.00000000E+00  0.00000000E+00
  0.00000000E+00  0.00000000E+00  0.00000000E+00
  0.00000000E+00  0.00000000E+00  0.00000000E+00
  0.00000000E+00  0.00000000E+00  0.00000000E+00
  0.00000000E+00  0.00000000E+00  0.00000000E+00
  0.00000000E+00  0.00000000E+00  0.00000000E+00
  0.00000000E+00  0.00000000E+00  0.00000000E+00
  0.00000000E+00  0.00000000E+00  0.00000000E+00
  0.00000000E+00  0.00000000E+00  0.00000000E+00
  0.00000000E+00  0.00000000E+00  0.00000000E+00
  0.00000000E+00  0.00000000E+00  0.00000000E+00
  0.00000000E+00  0.00000000E+00  0.00000000E+00
  0.00000000E+00  0.00000000E+00  0.00000000E+00
  0.00000000E+00  0.00000000E+00  0.00000000E+00
  0.00000000E+00  0.00000000E+00  0.00000000E+00
  0.00000000E+00  0.00000000E+00  0.00000000E+00
  0.00000000E+00  0.00000000E+00  0.00000000E+00
  0.00000000E+00  0.00000000E+00  0.00000000E+00
  0.00000000E+00  0.00000000E+00  0.00000000E+00
  0.00000000E+00  0.00000000E+00  0.00000000E+00
  0.00000000E+00  0.00000000E+00  0.00000000E+00
  0.00000000E+00  0.00000000E+00  0.00000000E+00
  0.00000000E+00  0.00000000E+00  0.00000000E+00
  0.00000000E+00  0.00000000E+00  0.00000000E+00
  0.00000000E+00  0.00000000E+00  0.00000000E+00
  0.00000000E+00  0.00000000E+00  0.00000000E+00
  0.00000000E+00  0.00000000E+00  0.00000000E+00
  0.00000000E+00  0.00000000E+00  0.00000000E+00
  0.00000000E+00  0.00000000E+00  0.00000000E+00
  0.00000000E+00  0.00000000E+00  0.00000000E+00
  0.00000000E+00  0.00000000E+00  0.00000000E+00
  0.00000000E+00  0.00000000E+00  0.00000000E+00
  0.00000000E+00  0.00000000E+00  0.00000000E+00
  0.00000000E+00  0.00000000E+00  0.00000000E+00
  0.00000000E+00  0.00000000E+00  0.00000000E+00
  0.00000000E+00  0.00000000E+00  0.00000000E+00
  0.00000000E+00  0.00000000E+00  0.00000000E+00
  0.00000000E+00  0.00000000E+00  0.00000000E+00
  0.00000000E+00  0.00000000E+00  0.00000000E+00
  0.00000000E+00  0.00000000E+00  0.00000000E+00
  0.00000000E+00  0.00000000E+00  0.00000000E+00
  0.00000000E+00  0.00000000E+00  0.00000000E+00
  0.00000000E+00  0.00000000E+00  0.00000000E+00
  0.00000000E+00  0.00000000E+00  0.00000000E+00
  0.00000000E+00  0.00000000E+00  0.00000000E+00
  0.00000000E+00  0.00000000E+00  0.00000000E+00
  0.00000000E+00  0.00000000E+00  0.00000000E+00
  0.00000000E+00  0.00000000E+00  0.00000000E+00
  0.00000000E+00  0.00000000E+00  0.00000000E+00
  0.00000000E+00  0.00000000E+00  0.00000000E+00
  0.00000000E+00  0.00000000E+00  0.00000000E+00
  0.00000000E+00  0.00000000E+00  0.00000000E+00
  0.00000000E+00  0.00000000E+00  0.00000000E+00
  0.00000000E+00  0.00000000E+00  0.00000000E+00
  0.00000000E+00  0.00000000E+00  0.00000000E+00
  0.00000000E+00  0.00000000E+00  0.00000000E+00
  0.00000000E+00  0.00000000E+00  0.00000000E+00
  0.00000000E+00  0.00000000E+00  0.00000000E+00
  0.00000000E+00  0.00000000E+00  0.00000000E+00
  0.00000000E+00  0.00000000E+00  0.00000000E+00
  0.00000000E+00  0.00000000E+00  0.00000000E+00
  0.00000000E+00  0.00000000E+00  0.00000000E+00
  0.00000000E+00  0.00000000E+00  0.00000000E+00
  0.00000000E+00  0.00000000E+00  0.00000000E+00
  0.00000000E+00  0.00000000E+00  0.00000000E+00
  0.00000000E+00  0.00000000E+00  0.00000000E+00
  0.00000000E+00  0.00000000E+00  0.00000000E+00
  0.00000000E+00  0.00000000E+00  0.00000000E+00
  0.00000000E+00  0.00000000E+00  0.00000000E+00
  0.00000000E+00  0.00000000E+00  0.00000000E+00
  0.00000000E+00  0.00000000E+00  0.00000000E+00
  0.00000000E+00  0.00000000E+00  0.00000000E+00
  0.00000000E+00  0.00000000E+00  0.00000000E+00
  0.00000000E+00  0.00000000E+00  0.00000000E+00
  0.00000000E+00  0.00000000E+00  0.00000000E+00
  0.00000000E+00  0.00000000E+00  0.00000000E+00
  0.00000000E+00  0.00000000E+00  0.00000000E+00
  0.00000000E+00  0.00000000E+00  0.00000000E+00
