Y1 H1 C126 O1                           
   1.00000000000000     
    19.7469566030934409   -0.0037777058184616    0.0528293659325441
    -9.8766046583332194   17.1192041770458090   -0.0152970653104635
     0.0792346539117018    0.0192307491095693   29.7693623790603432
   Y    H    C    O 
     1     1   126     1
Direct
  0.4395077137524898  0.5046659129013116  0.4527513990787467
  0.5048114874795646  0.5658054852090958  0.5435898069374168
  0.0414575478581676  0.0831151741185556  0.3997387495453872
  0.0414445679247366  0.2081183943944555  0.3994477810430805
  0.0415800785149441  0.3331155004902438  0.3992847108008333
  0.0416836069376157  0.4583009157782443  0.3994131860010925
  0.0415726430242901  0.5832557132302162  0.3997864156320798
  0.0415537515271047  0.7082416202512452  0.3999992080447665
  0.0416312654374774  0.8333159697754170  0.4000038100410787
  0.0416028984871852  0.9582408660338755  0.3999153082615999
  0.1664934235793792  0.0831527531367572  0.3998567890742767
  0.1662474175757391  0.2077382651642430  0.3997658792931938
  0.1665349159222239  0.3330515455865322  0.3992251730434333
  0.1666654601407284  0.4581927647035311  0.3987136263714248
  0.1666689861468918  0.5833010469459738  0.3988599322622476
  0.1665419144679265  0.7083829931978382  0.3995636805087349
  0.1665257891768781  0.8333173164424624  0.3999683708169872
  0.1665969225499078  0.9583080157156564  0.3999733311995067
  0.2916057673228133  0.0830787386051215  0.3999121389512977
  0.2916585562935288  0.2081336012005572  0.4007145857140192
  0.2914301431196974  0.3329913529834142  0.4011618839670576
  0.2922515264597398  0.4573935305528677  0.3996369629236547
  0.2917328758380462  0.5838284651416172  0.3981910268403107
  0.2914671946462125  0.7086384804015867  0.3988815389704856
  0.2915201170774097  0.8334287317277914  0.3996447062651723
  0.2915327528590028  0.9582492143288351  0.3998668072579019
  0.4166336972784731  0.0830936977179817  0.3996216495948413
  0.4165357558022333  0.2076174778913162  0.3997085053805036
  0.4168613899049087  0.3327410844048210  0.4029422209380715
  0.4162745653014246  0.5860564150778462  0.4033908480307719
  0.4165992342075352  0.7092550613655925  0.3992052396305318
  0.4165637766341842  0.8337904793209410  0.3993816282893619
  0.4165422236342847  0.9583815828194863  0.3998217599390353
  0.5416145775670328  0.0832205304966841  0.3998125948885857
  0.5417052641745670  0.2080236218332665  0.3992409890734676
  0.5416148630745053  0.3328717849745129  0.3990620304796911
  0.5401285626440541  0.4569642789819470  0.4002472780968688
  0.5438790584193521  0.5852681190916217  0.4010495675279280
  0.5420511800713322  0.7094133110951215  0.4006846924129672
  0.5415667700164739  0.8337499009983509  0.3997898404886264
  0.5416270374656194  0.9584685731994147  0.3999221400372319
  0.6666055814841457  0.0832700815425105  0.4000546788316652
  0.6667019192155408  0.2082172142262492  0.3996807854795938
  0.6666065039495908  0.3330562630948950  0.3988786718565938
  0.6664905256624232  0.4580627825768361  0.3981145375722274
  0.6668486303840265  0.5835714051287491  0.3984319256655941
  0.6671010978433161  0.7088144938509029  0.3990136367512910
  0.6669820570485127  0.8336456309567533  0.3996610977300366
  0.6667009534251133  0.9584639309349958  0.3999902805654834
  0.7916410568786455  0.0832588937189178  0.4000001968830847
  0.7916148885254223  0.2081944312797797  0.3999851466142723
  0.7916732938291938  0.3332314239923934  0.3997235245531962
  0.7916053138938219  0.4582720606568734  0.3992591986551285
  0.7914919540771594  0.5832219541259032  0.3988686127408745
  0.7918922804720017  0.7084725214933446  0.3989547775771580
  0.7919121163953969  0.8335658706285404  0.3994717040147086
  0.7917255998090065  0.9583999249061643  0.3998462619057042
  0.9165991396447789  0.0832286827005071  0.3998221411063823
  0.9165804098034617  0.2082356210480633  0.3997487964391149
  0.9166180666707048  0.3332408496715598  0.3998264174782142
  0.9165933365419907  0.4581834076350699  0.3998809744423966
  0.9165978164679073  0.5832519086382042  0.3997668250357014
  0.9166597573345340  0.7083400923738444  0.3996578732244530
  0.9167002271563642  0.8333505799657264  0.3997365891010867
  0.9166905132947422  0.9583060186751264  0.3998548234314457
  0.0831703948988575  0.0414826289688109  0.3998130155878646
  0.0829784870732273  0.1662857850150312  0.3995893851516800
  0.0830038895583828  0.2913822255071167  0.3991935964829071
  0.0834142459827451  0.4166487844752615  0.3990763678525017
  0.0832799918630250  0.5415957370980005  0.3993938472537505
  0.0832207688604712  0.6666385343455592  0.3998306090114602
  0.0832447469670495  0.7916700089375558  0.4000411375373599
  0.0832323705382784  0.9166234649772280  0.3999810870096804
  0.2082068327556293  0.0414491015048286  0.3999430949405898
  0.2079573453136634  0.1662657315042581  0.4000129167687656
  0.2077926656017105  0.2910167595133156  0.3997609516363220
  0.2081024544587956  0.4162832499191269  0.3990507448663115
  0.2083815923549330  0.5418176258619930  0.3983593905671163
  0.2082965620136984  0.6668395490916910  0.3990377645635726
  0.2081750056895525  0.7916783343625097  0.3997487989462286
  0.2082642110041366  0.9166301788871097  0.3999739554128550
  0.3332589036251860  0.0414611981958948  0.3997720592594158
  0.3333673619557306  0.1661915558636448  0.4001758520226812
  0.3329904991355336  0.2905514573418239  0.4022007892875649
  0.3312185127531825  0.4145622187186041  0.4015861972904993
  0.3347248646933371  0.5429008903852435  0.3993686388577500
  0.3333012669938804  0.6670826711098151  0.3986535679378148
  0.3332007511280942  0.7919222045323739  0.3992854865683265
  0.3332666736329423  0.9166984356298140  0.3998010710067955
  0.4583370350729611  0.0415816637145537  0.3997787553867715
  0.4583594567882688  0.1662150529167057  0.3993568240460033
  0.4583268407706165  0.2908652378484906  0.4001386972422574
  0.4586003411928208  0.4143756167037785  0.4061163226278245
  0.4582242709440969  0.6675414428572696  0.4008964580002021
  0.4584095582849942  0.7924426948811271  0.3993514572399900
  0.4582720298920349  0.9168954850458546  0.3997579620444360
  0.5833382095510459  0.0416633116973641  0.3999898325710831
  0.5833593324762821  0.1664910827978220  0.3995722440092599
  0.5834417022579017  0.2913096227425840  0.3988927099435285
  0.5830977235712917  0.4160974785384705  0.3983770282238862
  0.5828034299819305  0.5424157902686968  0.3992758176089130
  0.5835138908126895  0.6668713538084152  0.4000153043000823
  0.5833305431392951  0.7918306739483688  0.3999527665143990
  0.5832883153233871  0.9168488009167125  0.3999126371171329
  0.7082739220863266  0.0415887869449274  0.4000624044008023
  0.7083333882451298  0.1665745482770935  0.3999704607588893
  0.7083420983075801  0.2915022915462120  0.3994262556450048
  0.7082162063968239  0.4165867678632906  0.3986530650359470
  0.7082674031972177  0.5416645396486521  0.3983289029250990
  0.7083838317571246  0.6667949642775529  0.3986577674158149
  0.7086451077059265  0.7921103796297403  0.3993384333645245
  0.7084221227759063  0.9167672085047118  0.3998270907837447
  0.8332786603460414  0.0416404121983690  0.3999230343119797
  0.8332492837767007  0.1665590742715160  0.3999364973610927
  0.8333328218413538  0.2916216795672612  0.3999189838532419
  0.8333013047080262  0.4166043635685420  0.3997090893548288
  0.8332264813021369  0.5415697094586378  0.3993232767611694
  0.8333247854133130  0.6667507376635659  0.3991586464041743
  0.8334502485168398  0.7917465458504857  0.3993792768901369
  0.8334115332066577  0.9167327251065113  0.3997661984679153
  0.9581790557429652  0.0415420889179213  0.3998204082236565
  0.9581899367765173  0.1665182738593598  0.3996654455095216
  0.9582270258133087  0.2915266129844546  0.3996463089661579
  0.9582953731654142  0.4166055346625793  0.3997754007814864
  0.9582973865184033  0.5416648120186062  0.3998990925087749
  0.9582803427990074  0.6666330416198682  0.3998585213745571
  0.9583057577965871  0.7916330616822354  0.3998237409938785
  0.9582873754834068  0.9166417006913185  0.3998799126483456
  0.4775101472861406  0.5409621676455414  0.5163563712540121
 
  0.00000000E+00  0.00000000E+00  0.00000000E+00
  0.00000000E+00  0.00000000E+00  0.00000000E+00
  0.00000000E+00  0.00000000E+00  0.00000000E+00
  0.00000000E+00  0.00000000E+00  0.00000000E+00
  0.00000000E+00  0.00000000E+00  0.00000000E+00
  0.00000000E+00  0.00000000E+00  0.00000000E+00
  0.00000000E+00  0.00000000E+00  0.00000000E+00
  0.00000000E+00  0.00000000E+00  0.00000000E+00
  0.00000000E+00  0.00000000E+00  0.00000000E+00
  0.00000000E+00  0.00000000E+00  0.00000000E+00
  0.00000000E+00  0.00000000E+00  0.00000000E+00
  0.00000000E+00  0.00000000E+00  0.00000000E+00
  0.00000000E+00  0.00000000E+00  0.00000000E+00
  0.00000000E+00  0.00000000E+00  0.00000000E+00
  0.00000000E+00  0.00000000E+00  0.00000000E+00
  0.00000000E+00  0.00000000E+00  0.00000000E+00
  0.00000000E+00  0.00000000E+00  0.00000000E+00
  0.00000000E+00  0.00000000E+00  0.00000000E+00
  0.00000000E+00  0.00000000E+00  0.00000000E+00
  0.00000000E+00  0.00000000E+00  0.00000000E+00
  0.00000000E+00  0.00000000E+00  0.00000000E+00
  0.00000000E+00  0.00000000E+00  0.00000000E+00
  0.00000000E+00  0.00000000E+00  0.00000000E+00
  0.00000000E+00  0.00000000E+00  0.00000000E+00
  0.00000000E+00  0.00000000E+00  0.00000000E+00
  0.00000000E+00  0.00000000E+00  0.00000000E+00
  0.00000000E+00  0.00000000E+00  0.00000000E+00
  0.00000000E+00  0.00000000E+00  0.00000000E+00
  0.00000000E+00  0.00000000E+00  0.00000000E+00
  0.00000000E+00  0.00000000E+00  0.00000000E+00
  0.00000000E+00  0.00000000E+00  0.00000000E+00
  0.00000000E+00  0.00000000E+00  0.00000000E+00
  0.00000000E+00  0.00000000E+00  0.00000000E+00
  0.00000000E+00  0.00000000E+00  0.00000000E+00
  0.00000000E+00  0.00000000E+00  0.00000000E+00
  0.00000000E+00  0.00000000E+00  0.00000000E+00
  0.00000000E+00  0.00000000E+00  0.00000000E+00
  0.00000000E+00  0.00000000E+00  0.00000000E+00
  0.00000000E+00  0.00000000E+00  0.00000000E+00
  0.00000000E+00  0.00000000E+00  0.00000000E+00
  0.00000000E+00  0.00000000E+00  0.00000000E+00
  0.00000000E+00  0.00000000E+00  0.00000000E+00
  0.00000000E+00  0.00000000E+00  0.00000000E+00
  0.00000000E+00  0.00000000E+00  0.00000000E+00
  0.00000000E+00  0.00000000E+00  0.00000000E+00
  0.00000000E+00  0.00000000E+00  0.00000000E+00
  0.00000000E+00  0.00000000E+00  0.00000000E+00
  0.00000000E+00  0.00000000E+00  0.00000000E+00
  0.00000000E+00  0.00000000E+00  0.00000000E+00
  0.00000000E+00  0.00000000E+00  0.00000000E+00
  0.00000000E+00  0.00000000E+00  0.00000000E+00
  0.00000000E+00  0.00000000E+00  0.00000000E+00
  0.00000000E+00  0.00000000E+00  0.00000000E+00
  0.00000000E+00  0.00000000E+00  0.00000000E+00
  0.00000000E+00  0.00000000E+00  0.00000000E+00
  0.00000000E+00  0.00000000E+00  0.00000000E+00
  0.00000000E+00  0.00000000E+00  0.00000000E+00
  0.00000000E+00  0.00000000E+00  0.00000000E+00
  0.00000000E+00  0.00000000E+00  0.00000000E+00
  0.00000000E+00  0.00000000E+00  0.00000000E+00
  0.00000000E+00  0.00000000E+00  0.00000000E+00
  0.00000000E+00  0.00000000E+00  0.00000000E+00
  0.00000000E+00  0.00000000E+00  0.00000000E+00
  0.00000000E+00  0.00000000E+00  0.00000000E+00
  0.00000000E+00  0.00000000E+00  0.00000000E+00
  0.00000000E+00  0.00000000E+00  0.00000000E+00
  0.00000000E+00  0.00000000E+00  0.00000000E+00
  0.00000000E+00  0.00000000E+00  0.00000000E+00
  0.00000000E+00  0.00000000E+00  0.00000000E+00
  0.00000000E+00  0.00000000E+00  0.00000000E+00
  0.00000000E+00  0.00000000E+00  0.00000000E+00
  0.00000000E+00  0.00000000E+00  0.00000000E+00
  0.00000000E+00  0.00000000E+00  0.00000000E+00
  0.00000000E+00  0.00000000E+00  0.00000000E+00
  0.00000000E+00  0.00000000E+00  0.00000000E+00
  0.00000000E+00  0.00000000E+00  0.00000000E+00
  0.00000000E+00  0.00000000E+00  0.00000000E+00
  0.00000000E+00  0.00000000E+00  0.00000000E+00
  0.00000000E+00  0.00000000E+00  0.00000000E+00
  0.00000000E+00  0.00000000E+00  0.00000000E+00
  0.00000000E+00  0.00000000E+00  0.00000000E+00
  0.00000000E+00  0.00000000E+00  0.00000000E+00
  0.00000000E+00  0.00000000E+00  0.00000000E+00
  0.00000000E+00  0.00000000E+00  0.00000000E+00
  0.00000000E+00  0.00000000E+00  0.00000000E+00
  0.00000000E+00  0.00000000E+00  0.00000000E+00
  0.00000000E+00  0.00000000E+00  0.00000000E+00
  0.00000000E+00  0.00000000E+00  0.00000000E+00
  0.00000000E+00  0.00000000E+00  0.00000000E+00
  0.00000000E+00  0.00000000E+00  0.00000000E+00
  0.00000000E+00  0.00000000E+00  0.00000000E+00
  0.00000000E+00  0.00000000E+00  0.00000000E+00
  0.00000000E+00  0.00000000E+00  0.00000000E+00
  0.00000000E+00  0.00000000E+00  0.00000000E+00
  0.00000000E+00  0.00000000E+00  0.00000000E+00
  0.00000000E+00  0.00000000E+00  0.00000000E+00
  0.00000000E+00  0.00000000E+00  0.00000000E+00
  0.00000000E+00  0.00000000E+00  0.00000000E+00
  0.00000000E+00  0.00000000E+00  0.00000000E+00
  0.00000000E+00  0.00000000E+00  0.00000000E+00
  0.00000000E+00  0.00000000E+00  0.00000000E+00
  0.00000000E+00  0.00000000E+00  0.00000000E+00
  0.00000000E+00  0.00000000E+00  0.00000000E+00
  0.00000000E+00  0.00000000E+00  0.00000000E+00
  0.00000000E+00  0.00000000E+00  0.00000000E+00
  0.00000000E+00  0.00000000E+00  0.00000000E+00
  0.00000000E+00  0.00000000E+00  0.00000000E+00
  0.00000000E+00  0.00000000E+00  0.00000000E+00
  0.00000000E+00  0.00000000E+00  0.00000000E+00
  0.00000000E+00  0.00000000E+00  0.00000000E+00
  0.00000000E+00  0.00000000E+00  0.00000000E+00
  0.00000000E+00  0.00000000E+00  0.00000000E+00
  0.00000000E+00  0.00000000E+00  0.00000000E+00
  0.00000000E+00  0.00000000E+00  0.00000000E+00
  0.00000000E+00  0.00000000E+00  0.00000000E+00
  0.00000000E+00  0.00000000E+00  0.00000000E+00
  0.00000000E+00  0.00000000E+00  0.00000000E+00
  0.00000000E+00  0.00000000E+00  0.00000000E+00
  0.00000000E+00  0.00000000E+00  0.00000000E+00
  0.00000000E+00  0.00000000E+00  0.00000000E+00
  0.00000000E+00  0.00000000E+00  0.00000000E+00
  0.00000000E+00  0.00000000E+00  0.00000000E+00
  0.00000000E+00  0.00000000E+00  0.00000000E+00
  0.00000000E+00  0.00000000E+00  0.00000000E+00
  0.00000000E+00  0.00000000E+00  0.00000000E+00
  0.00000000E+00  0.00000000E+00  0.00000000E+00
  0.00000000E+00  0.00000000E+00  0.00000000E+00
  0.00000000E+00  0.00000000E+00  0.00000000E+00
  0.00000000E+00  0.00000000E+00  0.00000000E+00
