Pd1 C126 O1                             
   1.00000000000000     
    19.7819039347344798    0.0006240949776113   -0.0316802986234695
    -9.8909692392185917   17.0638431842534821    0.2725262632563358
    -0.0476831642555639    0.4477673114552642   29.8159339667835113
   Pd   C    O 
     1   126     1
Direct
  0.4377423934664113  0.4996984524430080  0.4318845946122409
  0.0417646715549025  0.0835034669534096  0.3997130197467090
  0.0410773526174940  0.2078217274366777  0.3993725912309705
  0.0407170866613633  0.3325799735452408  0.3990585719203904
  0.0407661193671490  0.4579387965449104  0.3991298673418387
  0.0412633173159754  0.5832827144016109  0.3995093990055971
  0.0418177496424763  0.7085577363235516  0.3996846667543934
  0.0420790306437142  0.8338079945044398  0.3998307032756058
  0.0420633353541723  0.9588071725254740  0.3998929042402013
  0.1671818771720888  0.0842847345401490  0.4000065188857147
  0.1671059610377515  0.2091799553872313  0.3998265259701518
  0.1657453769499611  0.3330000668816614  0.3992059803182199
  0.1649388179199585  0.4579829497847452  0.3983574097476854
  0.1654553347608002  0.5832836467167544  0.3984618531300136
  0.1663485687544393  0.7085832536121281  0.3992751218204831
  0.1667570283282273  0.8338026605058056  0.3998459530772270
  0.1670641875586965  0.9590933915417876  0.4000517413682310
  0.2921175898865945  0.0842831083299837  0.4000322115849330
  0.2925902115251016  0.2101449066009318  0.4008078560135724
  0.2930750599769392  0.3359370683707340  0.4024582365221782
  0.2888549203010167  0.4574950120689192  0.4012512497681169
  0.2892572272207695  0.5835450090413945  0.3990334653359833
  0.2908044850201617  0.7084128088796411  0.3991225164579058
  0.2914345641433088  0.8334876336923841  0.3994629750885353
  0.2917876528432129  0.9588097883610469  0.3998424160874188
  0.4167666653159439  0.0834987729636849  0.3997263822675285
  0.4170992935354583  0.2091680348678127  0.3999947887402405
  0.4179178628133323  0.3358654592866546  0.4026992674208927
  0.4097701966779431  0.5815366018481616  0.4079302493719554
  0.4152185592685196  0.7065264289523362  0.4017855392123804
  0.4160906820413420  0.8324360513022089  0.3998506156201190
  0.4164521910207166  0.9579613657767992  0.3996654062045340
  0.5413974707079587  0.0824771416075365  0.3996512074480504
  0.5417668840384930  0.2078126557995312  0.3993915842144116
  0.5423193468581129  0.3329897299433965  0.3994398616270535
  0.5438080602069563  0.4575182524371521  0.4014674332141418
  0.5470626560255119  0.5816443889661895  0.4078053361829886
  0.5402202738277088  0.7053167023059379  0.4062720665400131
  0.5405960184035294  0.8312661598271011  0.4017142462087029
  0.5410990751099952  0.9569928061430605  0.3998869270982865
  0.6660750914720196  0.0820125419344647  0.3997936642679287
  0.6664312305576533  0.2073677400275748  0.3996376898438201
  0.6669045666244817  0.3325913042181859  0.3989488439634503
  0.6681111028336651  0.4579848618870499  0.3982864169356264
  0.6694258822512159  0.5835738767792777  0.3988911239816093
  0.6664389485647206  0.7065487718658535  0.4016967764098345
  0.6657185251204460  0.8312659318305122  0.4016908694231632
  0.6658434283549653  0.9566727698467876  0.4003083973574280
  0.7909567999361019  0.0820156929800150  0.3998341230755600
  0.7910921421299774  0.2071808823345282  0.3999523965339010
  0.7915341712351787  0.3325393798672576  0.3996730846165821
  0.7922440381529912  0.4579590884080901  0.3988607589417458
  0.7929120224836335  0.5833056739410736  0.3982225703557999
  0.7927001263799403  0.7084617029669171  0.3989879742740103
  0.7914000345574881  0.8324537644576908  0.3998166799631069
  0.7909130401327942  0.9570042441650285  0.3999070530127914
  0.9161048309970942  0.0824913413868849  0.3997121004999744
  0.9159547045192422  0.2073625969938851  0.3997595675680990
  0.9160505601331350  0.3325311976699933  0.3998475260596350
  0.9164513670627068  0.4578266643444973  0.3997378072416699
  0.9170918759311539  0.5833156232823418  0.3993774578658106
  0.9172994959390803  0.7086053785144959  0.3991202751998350
  0.9171052587053081  0.8335055350153715  0.3994441711242682
  0.9165612924423926  0.9579747571771661  0.3997151587379200
  0.0837589317957135  0.0422566124992958  0.3998798757255532
  0.0834497430915709  0.1669352257591016  0.3995459476263701
  0.0823824316567617  0.2910762575918354  0.3989902191948994
  0.0821319943372734  0.4162117141846922  0.3987094020276494
  0.0824319354433272  0.5414327746991877  0.3990306237732075
  0.0831607616148736  0.6668085063134684  0.3995310518287970
  0.0835830629779352  0.7921275849546093  0.3998444697826470
  0.0837368038097038  0.9172719667078413  0.3999804658174006
  0.2087657779591273  0.0425135813062169  0.4000780986991654
  0.2088945569009000  0.1677989111625115  0.4001791951894905
  0.2088256500595911  0.2928834539782260  0.4001921847676952
  0.2062012073474329  0.4160597741385046  0.3990227049391636
  0.2064483995364184  0.5415396553100538  0.3981228982926944
  0.2077149909632875  0.6668735612736233  0.3988039292100960
  0.2082067841620454  0.7919975759383088  0.3995373550790204
  0.2085712742632575  0.9172718413797379  0.3999540985138956
  0.3335269497729018  0.0422548736675202  0.3998693502512793
  0.3339267564429960  0.1677949372542313  0.4002725170831462
  0.3342391791924634  0.2934018637502201  0.4023716021386773
  0.3316382145183010  0.4184698541275783  0.4046919339203839
  0.3298435083488088  0.5414322495805988  0.4019552032397933
  0.3321781453578073  0.6664436347195637  0.3998367534130864
  0.3328379572458855  0.7915992891528786  0.3994190028497347
  0.3332629596707928  0.9168686967589651  0.3996527598903323
  0.4582047892054626  0.0413908416625368  0.3996772424504699
  0.4585226552000074  0.1669342368310322  0.3996249532134727
  0.4591246879801552  0.2928530005683211  0.4004529127103814
  0.4620270045992749  0.4183422803162311  0.4050922003177860
  0.4563203283502737  0.6633139816246854  0.4057473492652993
  0.4574653785207905  0.7901437004572225  0.4010310386075206
  0.4578660314522857  0.9158334123195372  0.3997580852262730
  0.5828552598406314  0.0404837520763917  0.3997245066090617
  0.5832010341369636  0.1659083927202836  0.3995507182981679
  0.5837344829390606  0.2910693129370901  0.3990623958220220
  0.5849509201731896  0.4160541063671129  0.3991963211934115
  0.5867747457892528  0.5414779631736605  0.4019835167361919
  0.5821825550002347  0.6633683620665167  0.4056923908973291
  0.5818456801711558  0.7886416133788061  0.4033345069424238
  0.5824410394380611  0.9148490398695615  0.4005147512497644
  0.7075829617065953  0.0401615289613484  0.3998931966316694
  0.7078681357724802  0.1655177767140049  0.3998260853454442
  0.7082973930592613  0.2908249206123246  0.3994313353084120
  0.7091459879698466  0.4162250126160315  0.3985279387702505
  0.7101685288600658  0.5415352598642188  0.3979546875821917
  0.7093799722468015  0.6664668321278976  0.3996888402406381
  0.7077352712380270  0.7901537805716048  0.4009916850445726
  0.7074193068431344  0.9148424778921392  0.4004916917570197
  0.8326624485200074  0.0404990658238806  0.3997747178999932
  0.8326599605062549  0.1655258369677041  0.3998908828538633
  0.8329264734516747  0.2907928521618015  0.3999536596954905
  0.8334176501259765  0.4160616432188532  0.3994884823240962
  0.8340771409266012  0.5414619064861991  0.3987730551534948
  0.8342278621221940  0.6668972998575392  0.3986065395644971
  0.8338165371928946  0.7916201384201151  0.3993649448845729
  0.8330144501381772  0.9158574841190381  0.3997654869370670
  0.9582318924038884  0.0414039355152665  0.3997166209123313
  0.9577387049815458  0.1659142179079980  0.3996283374724997
  0.9575626516202765  0.2908206861238206  0.3996257876101700
  0.9577023564417225  0.4160493389428282  0.3996937502314887
  0.9582737771344052  0.5414935934176022  0.3996557976163722
  0.9587277443340532  0.6668344186781359  0.3994219335064874
  0.9588378615410951  0.7920173449108804  0.3994671712837586
  0.9586638430919860  0.9168852644394515  0.3997090412436257
  0.4675378261134495  0.5549680881554303  0.4828290494070453
 
  0.00000000E+00  0.00000000E+00  0.00000000E+00
  0.00000000E+00  0.00000000E+00  0.00000000E+00
  0.00000000E+00  0.00000000E+00  0.00000000E+00
  0.00000000E+00  0.00000000E+00  0.00000000E+00
  0.00000000E+00  0.00000000E+00  0.00000000E+00
  0.00000000E+00  0.00000000E+00  0.00000000E+00
  0.00000000E+00  0.00000000E+00  0.00000000E+00
  0.00000000E+00  0.00000000E+00  0.00000000E+00
  0.00000000E+00  0.00000000E+00  0.00000000E+00
  0.00000000E+00  0.00000000E+00  0.00000000E+00
  0.00000000E+00  0.00000000E+00  0.00000000E+00
  0.00000000E+00  0.00000000E+00  0.00000000E+00
  0.00000000E+00  0.00000000E+00  0.00000000E+00
  0.00000000E+00  0.00000000E+00  0.00000000E+00
  0.00000000E+00  0.00000000E+00  0.00000000E+00
  0.00000000E+00  0.00000000E+00  0.00000000E+00
  0.00000000E+00  0.00000000E+00  0.00000000E+00
  0.00000000E+00  0.00000000E+00  0.00000000E+00
  0.00000000E+00  0.00000000E+00  0.00000000E+00
  0.00000000E+00  0.00000000E+00  0.00000000E+00
  0.00000000E+00  0.00000000E+00  0.00000000E+00
  0.00000000E+00  0.00000000E+00  0.00000000E+00
  0.00000000E+00  0.00000000E+00  0.00000000E+00
  0.00000000E+00  0.00000000E+00  0.00000000E+00
  0.00000000E+00  0.00000000E+00  0.00000000E+00
  0.00000000E+00  0.00000000E+00  0.00000000E+00
  0.00000000E+00  0.00000000E+00  0.00000000E+00
  0.00000000E+00  0.00000000E+00  0.00000000E+00
  0.00000000E+00  0.00000000E+00  0.00000000E+00
  0.00000000E+00  0.00000000E+00  0.00000000E+00
  0.00000000E+00  0.00000000E+00  0.00000000E+00
  0.00000000E+00  0.00000000E+00  0.00000000E+00
  0.00000000E+00  0.00000000E+00  0.00000000E+00
  0.00000000E+00  0.00000000E+00  0.00000000E+00
  0.00000000E+00  0.00000000E+00  0.00000000E+00
  0.00000000E+00  0.00000000E+00  0.00000000E+00
  0.00000000E+00  0.00000000E+00  0.00000000E+00
  0.00000000E+00  0.00000000E+00  0.00000000E+00
  0.00000000E+00  0.00000000E+00  0.00000000E+00
  0.00000000E+00  0.00000000E+00  0.00000000E+00
  0.00000000E+00  0.00000000E+00  0.00000000E+00
  0.00000000E+00  0.00000000E+00  0.00000000E+00
  0.00000000E+00  0.00000000E+00  0.00000000E+00
  0.00000000E+00  0.00000000E+00  0.00000000E+00
  0.00000000E+00  0.00000000E+00  0.00000000E+00
  0.00000000E+00  0.00000000E+00  0.00000000E+00
  0.00000000E+00  0.00000000E+00  0.00000000E+00
  0.00000000E+00  0.00000000E+00  0.00000000E+00
  0.00000000E+00  0.00000000E+00  0.00000000E+00
  0.00000000E+00  0.00000000E+00  0.00000000E+00
  0.00000000E+00  0.00000000E+00  0.00000000E+00
  0.00000000E+00  0.00000000E+00  0.00000000E+00
  0.00000000E+00  0.00000000E+00  0.00000000E+00
  0.00000000E+00  0.00000000E+00  0.00000000E+00
  0.00000000E+00  0.00000000E+00  0.00000000E+00
  0.00000000E+00  0.00000000E+00  0.00000000E+00
  0.00000000E+00  0.00000000E+00  0.00000000E+00
  0.00000000E+00  0.00000000E+00  0.00000000E+00
  0.00000000E+00  0.00000000E+00  0.00000000E+00
  0.00000000E+00  0.00000000E+00  0.00000000E+00
  0.00000000E+00  0.00000000E+00  0.00000000E+00
  0.00000000E+00  0.00000000E+00  0.00000000E+00
  0.00000000E+00  0.00000000E+00  0.00000000E+00
  0.00000000E+00  0.00000000E+00  0.00000000E+00
  0.00000000E+00  0.00000000E+00  0.00000000E+00
  0.00000000E+00  0.00000000E+00  0.00000000E+00
  0.00000000E+00  0.00000000E+00  0.00000000E+00
  0.00000000E+00  0.00000000E+00  0.00000000E+00
  0.00000000E+00  0.00000000E+00  0.00000000E+00
  0.00000000E+00  0.00000000E+00  0.00000000E+00
  0.00000000E+00  0.00000000E+00  0.00000000E+00
  0.00000000E+00  0.00000000E+00  0.00000000E+00
  0.00000000E+00  0.00000000E+00  0.00000000E+00
  0.00000000E+00  0.00000000E+00  0.00000000E+00
  0.00000000E+00  0.00000000E+00  0.00000000E+00
  0.00000000E+00  0.00000000E+00  0.00000000E+00
  0.00000000E+00  0.00000000E+00  0.00000000E+00
  0.00000000E+00  0.00000000E+00  0.00000000E+00
  0.00000000E+00  0.00000000E+00  0.00000000E+00
  0.00000000E+00  0.00000000E+00  0.00000000E+00
  0.00000000E+00  0.00000000E+00  0.00000000E+00
  0.00000000E+00  0.00000000E+00  0.00000000E+00
  0.00000000E+00  0.00000000E+00  0.00000000E+00
  0.00000000E+00  0.00000000E+00  0.00000000E+00
  0.00000000E+00  0.00000000E+00  0.00000000E+00
  0.00000000E+00  0.00000000E+00  0.00000000E+00
  0.00000000E+00  0.00000000E+00  0.00000000E+00
  0.00000000E+00  0.00000000E+00  0.00000000E+00
  0.00000000E+00  0.00000000E+00  0.00000000E+00
  0.00000000E+00  0.00000000E+00  0.00000000E+00
  0.00000000E+00  0.00000000E+00  0.00000000E+00
  0.00000000E+00  0.00000000E+00  0.00000000E+00
  0.00000000E+00  0.00000000E+00  0.00000000E+00
  0.00000000E+00  0.00000000E+00  0.00000000E+00
  0.00000000E+00  0.00000000E+00  0.00000000E+00
  0.00000000E+00  0.00000000E+00  0.00000000E+00
  0.00000000E+00  0.00000000E+00  0.00000000E+00
  0.00000000E+00  0.00000000E+00  0.00000000E+00
  0.00000000E+00  0.00000000E+00  0.00000000E+00
  0.00000000E+00  0.00000000E+00  0.00000000E+00
  0.00000000E+00  0.00000000E+00  0.00000000E+00
  0.00000000E+00  0.00000000E+00  0.00000000E+00
  0.00000000E+00  0.00000000E+00  0.00000000E+00
  0.00000000E+00  0.00000000E+00  0.00000000E+00
  0.00000000E+00  0.00000000E+00  0.00000000E+00
  0.00000000E+00  0.00000000E+00  0.00000000E+00
  0.00000000E+00  0.00000000E+00  0.00000000E+00
  0.00000000E+00  0.00000000E+00  0.00000000E+00
  0.00000000E+00  0.00000000E+00  0.00000000E+00
  0.00000000E+00  0.00000000E+00  0.00000000E+00
  0.00000000E+00  0.00000000E+00  0.00000000E+00
  0.00000000E+00  0.00000000E+00  0.00000000E+00
  0.00000000E+00  0.00000000E+00  0.00000000E+00
  0.00000000E+00  0.00000000E+00  0.00000000E+00
  0.00000000E+00  0.00000000E+00  0.00000000E+00
  0.00000000E+00  0.00000000E+00  0.00000000E+00
  0.00000000E+00  0.00000000E+00  0.00000000E+00
  0.00000000E+00  0.00000000E+00  0.00000000E+00
  0.00000000E+00  0.00000000E+00  0.00000000E+00
  0.00000000E+00  0.00000000E+00  0.00000000E+00
  0.00000000E+00  0.00000000E+00  0.00000000E+00
  0.00000000E+00  0.00000000E+00  0.00000000E+00
  0.00000000E+00  0.00000000E+00  0.00000000E+00
  0.00000000E+00  0.00000000E+00  0.00000000E+00
  0.00000000E+00  0.00000000E+00  0.00000000E+00
  0.00000000E+00  0.00000000E+00  0.00000000E+00
  0.00000000E+00  0.00000000E+00  0.00000000E+00
  0.00000000E+00  0.00000000E+00  0.00000000E+00
