H1 Os1 C125 N1 O2                       
   1.00000000000000     
    19.8090866277758657   -0.0080914528531668    0.4846950135382559
    -9.9045815690153827   17.0350565852602820   -0.7339983556263485
     0.7277340678641075   -0.8586934859646026   29.8687380172670771
   H    Os   C    N    O 
     1     1   125     1     2
Direct
  0.5442204934823279  0.5394465832811545  0.5329176486503782
  0.4371886695480248  0.5047325122192959  0.4330744829154617
  0.0420380600269238  0.0846820421435460  0.3995050038128062
  0.0411603868614115  0.2086949151270739  0.3989932789037716
  0.0404952518383743  0.3330874681767961  0.3978678264505752
  0.0403923854804583  0.4584275542558466  0.3975525609467487
  0.0412041292842941  0.5840267717946563  0.3981581577099485
  0.0419021644796841  0.7095061771517643  0.3988565531134850
  0.0422412967507437  0.8349122933694311  0.3992834408558036
  0.0423074810655325  0.9600319680160928  0.3994467498500377
  0.1677973163234028  0.0862292606395431  0.4004752957494529
  0.1676572544588520  0.2111429126202533  0.4004915557018475
  0.1658611061801757  0.3344252450710175  0.3987884711108776
  0.1640862425802097  0.4586455526456900  0.3970045699945929
  0.1649632510393650  0.5838906662384844  0.3973072784881215
  0.1661780227557912  0.7094388992698403  0.3985092397193398
  0.1669252469157385  0.8350112671283437  0.3993056890881126
  0.1674227940022721  0.9605941923842150  0.3999000343757208
  0.2926301357375897  0.0861766859592396  0.4009434860218475
  0.2936330929829489  0.2131471041142133  0.4032117219027962
  0.2936710088402714  0.3394225708845198  0.4040612960678560
  0.2877640269314315  0.4598182987669881  0.4002790735188694
  0.2884462131429980  0.5844098072739113  0.3979908221833411
  0.2904486266510162  0.7093054408677573  0.3984367379224274
  0.2914538468631582  0.8345507899232417  0.3990926184364029
  0.2919891175416514  0.9601301815804760  0.3997175722188773
  0.4170489420962825  0.0846134968789430  0.4001223689176555
  0.4177426034624516  0.2108780033878701  0.4020573975809397
  0.4196205115549183  0.3387935859601471  0.4072564834875211
  0.4143878401844617  0.7066623261279339  0.4000804303378485
  0.4158306994251006  0.8328603264487173  0.3993960863685056
  0.4164965589217920  0.9587272893097926  0.3995205819746812
  0.5414767025174053  0.0829063342064881  0.3996069118296121
  0.5421375045413667  0.2084165859713795  0.4001135181093474
  0.5432215840465427  0.3337651706128276  0.4016858892286577
  0.5467628599233023  0.4587801824622283  0.4053628597397855
  0.5443352230539420  0.5800544635056978  0.4081560001824406
  0.5378025276484226  0.7033997746717298  0.4031598499299111
  0.5400003611167785  0.8309920507792539  0.4004103267107562
  0.5409225503590165  0.9571721288243936  0.3996620427843108
  0.6660022296739430  0.0821574735100281  0.3995473985503166
  0.6666028807716491  0.2076105916861185  0.3993813184702205
  0.6674558245623138  0.3329181657565363  0.3991434596718386
  0.6693809168659974  0.4583094746616905  0.3988860678609902
  0.6701311372745953  0.5836735337442812  0.3993820302719672
  0.6653832609142296  0.7061037416258916  0.4004618417961091
  0.6643999540410735  0.8305822382573157  0.4005137256761664
  0.6653851779656306  0.9565687374082064  0.3999146213487513
  0.7907078352578916  0.0821182546902616  0.3993930898575714
  0.7910892716813455  0.2073703452460681  0.3991393315781364
  0.7917437645440576  0.3327997672010623  0.3987563026676837
  0.7928603637101181  0.4583388837533414  0.3982448388325838
  0.7935536387980661  0.5836949389463041  0.3979788590536936
  0.7926072536623328  0.7087450850344544  0.3985049054278351
  0.7908060721737576  0.8324310247690121  0.3991245255351643
  0.7903228774564720  0.9568987758007680  0.3994732539667144
  0.9159391010503044  0.0828755680576934  0.3991792989791968
  0.9158346207586071  0.2076746858510803  0.3988201147221213
  0.9159791994163218  0.3328594578680976  0.3984282500395035
  0.9165694956643200  0.4583432778619016  0.3983221511603175
  0.9173940809517652  0.5839689732047383  0.3983985132408437
  0.9174728172973193  0.7093466495998642  0.3986038573515587
  0.9171076862645809  0.8342092062776405  0.3989498047263774
  0.9163865058903772  0.9585196991615870  0.3991460742069857
  0.0842095315715452  0.0437403766130216  0.3997311723734238
  0.0838683361745794  0.1682940915734213  0.3995649675719652
  0.0824109765113343  0.2919679387394773  0.3983985803864048
  0.0814826516344647  0.4166353920496050  0.3972534710633716
  0.0820860327965809  0.5420328045902240  0.3975556458130953
  0.0830706870329802  0.6676637732426990  0.3985234421902077
  0.0837256243955727  0.7932267147559876  0.3991822256221193
  0.0840158222188572  0.9185674410457435  0.3995749070695012
  0.2092702200363701  0.0443095752366488  0.4004762064903024
  0.2097588261349767  0.1701574873889951  0.4013988895559678
  0.2094219871164939  0.2950481444986162  0.4006690727523298
  0.2054729882030494  0.4175077656114438  0.3979035715109841
  0.2055932151985937  0.5419864009186480  0.3970506121815365
  0.2072832616137259  0.6675805733441964  0.3979682927999275
  0.2082347645337614  0.7930869145529347  0.3989912524956374
  0.2088061141748842  0.9186429162838926  0.3996596061046714
  0.3338171783471122  0.0437489694557369  0.4002293327522259
  0.3345731849692188  0.1700688153107548  0.4022839986102741
  0.3356607435412224  0.2972386992494582  0.4058211278827563
  0.3316822593702668  0.4231176104215099  0.4056240609271643
  0.3291560068612801  0.5438385199714200  0.4001922090916304
  0.3314181413442374  0.6674648975595715  0.3987494588307198
  0.3327081057567295  0.7925712187968029  0.3989854781730082
  0.3333327072171416  0.9180053375893874  0.3994205607963835
  0.4583320742079977  0.0422210634093063  0.3996978150755766
  0.4589071073510422  0.1681249350723526  0.4006144441913515
  0.4600100847089575  0.2946779091910435  0.4034729913685683
  0.4656727952956414  0.4223543161456680  0.4120534336792304
  0.4536204809223805  0.6623651497515489  0.4025609430954679
  0.4569683611176730  0.7903503042213559  0.3998837517367989
  0.4577438530286556  0.9163788911645435  0.3995285903192892
  0.5827983352159538  0.0407626982614786  0.3995691496282291
  0.5834134376334179  0.1663478644485280  0.3996345590261853
  0.5842966061935471  0.2916310105011647  0.4001375128476695
  0.5866619992107911  0.4166360139238253  0.4012120472496137
  0.5884290005315606  0.5422206793328209  0.4036911800081932
  0.5808879359130712  0.6622911799276441  0.4036713643834345
  0.5802698249997211  0.7876571854566153  0.4013339466400211
  0.5820926145446077  0.9148318421591839  0.3999743378216328
  0.7073496550867319  0.0402150152696607  0.3996174365193368
  0.7079168277365460  0.1657357239023807  0.3993790862181517
  0.7085850073383256  0.2910892385689604  0.3990459609194517
  0.7100064134333005  0.4164661329709404  0.3985285431703222
  0.7110873537464676  0.5417626071292296  0.3983478890857843
  0.7093556948919627  0.6666445749918752  0.3991528433527272
  0.7068923081694656  0.7897578933627961  0.3998667121341709
  0.7065963077602966  0.9144760832912407  0.3999609087995815
  0.8323472459530280  0.0405898769055353  0.3993315957959805
  0.8325257429513003  0.1656957308104409  0.3991281245404112
  0.8329314188468464  0.2910141938947511  0.3988204880069767
  0.8337185680018675  0.4164273666714239  0.3984579384891167
  0.8345854554695039  0.5419157325631911  0.3981220714694407
  0.8344528952080043  0.6673729303587964  0.3982284979926672
  0.8336908269264558  0.7920293769315312  0.3988107570765523
  0.8326369970593686  0.9160216725420571  0.3992067980595906
  0.9582750722892310  0.0421054457063816  0.3992449558867404
  0.9576860606410367  0.1664138555388006  0.3989646655914066
  0.9574143102774876  0.2911770942196928  0.3983521311893429
  0.9575290918292261  0.4164621740988775  0.3981396251157233
  0.9583579486827710  0.5420957850443170  0.3983257608751740
  0.9588938917193693  0.6676491395786388  0.3986654706040408
  0.9589770344595884  0.7929198140600947  0.3989708062647869
  0.9587559126125090  0.9177221639200199  0.3991452653101656
  0.4086095101420814  0.5811221236591885  0.4042724962436887
  0.5095566682177700  0.4835230961831727  0.5248435048269501
  0.4507628456559598  0.5054613060339922  0.4904069084607576
 
  0.00000000E+00  0.00000000E+00  0.00000000E+00
  0.00000000E+00  0.00000000E+00  0.00000000E+00
  0.00000000E+00  0.00000000E+00  0.00000000E+00
  0.00000000E+00  0.00000000E+00  0.00000000E+00
  0.00000000E+00  0.00000000E+00  0.00000000E+00
  0.00000000E+00  0.00000000E+00  0.00000000E+00
  0.00000000E+00  0.00000000E+00  0.00000000E+00
  0.00000000E+00  0.00000000E+00  0.00000000E+00
  0.00000000E+00  0.00000000E+00  0.00000000E+00
  0.00000000E+00  0.00000000E+00  0.00000000E+00
  0.00000000E+00  0.00000000E+00  0.00000000E+00
  0.00000000E+00  0.00000000E+00  0.00000000E+00
  0.00000000E+00  0.00000000E+00  0.00000000E+00
  0.00000000E+00  0.00000000E+00  0.00000000E+00
  0.00000000E+00  0.00000000E+00  0.00000000E+00
  0.00000000E+00  0.00000000E+00  0.00000000E+00
  0.00000000E+00  0.00000000E+00  0.00000000E+00
  0.00000000E+00  0.00000000E+00  0.00000000E+00
  0.00000000E+00  0.00000000E+00  0.00000000E+00
  0.00000000E+00  0.00000000E+00  0.00000000E+00
  0.00000000E+00  0.00000000E+00  0.00000000E+00
  0.00000000E+00  0.00000000E+00  0.00000000E+00
  0.00000000E+00  0.00000000E+00  0.00000000E+00
  0.00000000E+00  0.00000000E+00  0.00000000E+00
  0.00000000E+00  0.00000000E+00  0.00000000E+00
  0.00000000E+00  0.00000000E+00  0.00000000E+00
  0.00000000E+00  0.00000000E+00  0.00000000E+00
  0.00000000E+00  0.00000000E+00  0.00000000E+00
  0.00000000E+00  0.00000000E+00  0.00000000E+00
  0.00000000E+00  0.00000000E+00  0.00000000E+00
  0.00000000E+00  0.00000000E+00  0.00000000E+00
  0.00000000E+00  0.00000000E+00  0.00000000E+00
  0.00000000E+00  0.00000000E+00  0.00000000E+00
  0.00000000E+00  0.00000000E+00  0.00000000E+00
  0.00000000E+00  0.00000000E+00  0.00000000E+00
  0.00000000E+00  0.00000000E+00  0.00000000E+00
  0.00000000E+00  0.00000000E+00  0.00000000E+00
  0.00000000E+00  0.00000000E+00  0.00000000E+00
  0.00000000E+00  0.00000000E+00  0.00000000E+00
  0.00000000E+00  0.00000000E+00  0.00000000E+00
  0.00000000E+00  0.00000000E+00  0.00000000E+00
  0.00000000E+00  0.00000000E+00  0.00000000E+00
  0.00000000E+00  0.00000000E+00  0.00000000E+00
  0.00000000E+00  0.00000000E+00  0.00000000E+00
  0.00000000E+00  0.00000000E+00  0.00000000E+00
  0.00000000E+00  0.00000000E+00  0.00000000E+00
  0.00000000E+00  0.00000000E+00  0.00000000E+00
  0.00000000E+00  0.00000000E+00  0.00000000E+00
  0.00000000E+00  0.00000000E+00  0.00000000E+00
  0.00000000E+00  0.00000000E+00  0.00000000E+00
  0.00000000E+00  0.00000000E+00  0.00000000E+00
  0.00000000E+00  0.00000000E+00  0.00000000E+00
  0.00000000E+00  0.00000000E+00  0.00000000E+00
  0.00000000E+00  0.00000000E+00  0.00000000E+00
  0.00000000E+00  0.00000000E+00  0.00000000E+00
  0.00000000E+00  0.00000000E+00  0.00000000E+00
  0.00000000E+00  0.00000000E+00  0.00000000E+00
  0.00000000E+00  0.00000000E+00  0.00000000E+00
  0.00000000E+00  0.00000000E+00  0.00000000E+00
  0.00000000E+00  0.00000000E+00  0.00000000E+00
  0.00000000E+00  0.00000000E+00  0.00000000E+00
  0.00000000E+00  0.00000000E+00  0.00000000E+00
  0.00000000E+00  0.00000000E+00  0.00000000E+00
  0.00000000E+00  0.00000000E+00  0.00000000E+00
  0.00000000E+00  0.00000000E+00  0.00000000E+00
  0.00000000E+00  0.00000000E+00  0.00000000E+00
  0.00000000E+00  0.00000000E+00  0.00000000E+00
  0.00000000E+00  0.00000000E+00  0.00000000E+00
  0.00000000E+00  0.00000000E+00  0.00000000E+00
  0.00000000E+00  0.00000000E+00  0.00000000E+00
  0.00000000E+00  0.00000000E+00  0.00000000E+00
  0.00000000E+00  0.00000000E+00  0.00000000E+00
  0.00000000E+00  0.00000000E+00  0.00000000E+00
  0.00000000E+00  0.00000000E+00  0.00000000E+00
  0.00000000E+00  0.00000000E+00  0.00000000E+00
  0.00000000E+00  0.00000000E+00  0.00000000E+00
  0.00000000E+00  0.00000000E+00  0.00000000E+00
  0.00000000E+00  0.00000000E+00  0.00000000E+00
  0.00000000E+00  0.00000000E+00  0.00000000E+00
  0.00000000E+00  0.00000000E+00  0.00000000E+00
  0.00000000E+00  0.00000000E+00  0.00000000E+00
  0.00000000E+00  0.00000000E+00  0.00000000E+00
  0.00000000E+00  0.00000000E+00  0.00000000E+00
  0.00000000E+00  0.00000000E+00  0.00000000E+00
  0.00000000E+00  0.00000000E+00  0.00000000E+00
  0.00000000E+00  0.00000000E+00  0.00000000E+00
  0.00000000E+00  0.00000000E+00  0.00000000E+00
  0.00000000E+00  0.00000000E+00  0.00000000E+00
  0.00000000E+00  0.00000000E+00  0.00000000E+00
  0.00000000E+00  0.00000000E+00  0.00000000E+00
  0.00000000E+00  0.00000000E+00  0.00000000E+00
  0.00000000E+00  0.00000000E+00  0.00000000E+00
  0.00000000E+00  0.00000000E+00  0.00000000E+00
  0.00000000E+00  0.00000000E+00  0.00000000E+00
  0.00000000E+00  0.00000000E+00  0.00000000E+00
  0.00000000E+00  0.00000000E+00  0.00000000E+00
  0.00000000E+00  0.00000000E+00  0.00000000E+00
  0.00000000E+00  0.00000000E+00  0.00000000E+00
  0.00000000E+00  0.00000000E+00  0.00000000E+00
  0.00000000E+00  0.00000000E+00  0.00000000E+00
  0.00000000E+00  0.00000000E+00  0.00000000E+00
  0.00000000E+00  0.00000000E+00  0.00000000E+00
  0.00000000E+00  0.00000000E+00  0.00000000E+00
  0.00000000E+00  0.00000000E+00  0.00000000E+00
  0.00000000E+00  0.00000000E+00  0.00000000E+00
  0.00000000E+00  0.00000000E+00  0.00000000E+00
  0.00000000E+00  0.00000000E+00  0.00000000E+00
  0.00000000E+00  0.00000000E+00  0.00000000E+00
  0.00000000E+00  0.00000000E+00  0.00000000E+00
  0.00000000E+00  0.00000000E+00  0.00000000E+00
  0.00000000E+00  0.00000000E+00  0.00000000E+00
  0.00000000E+00  0.00000000E+00  0.00000000E+00
  0.00000000E+00  0.00000000E+00  0.00000000E+00
  0.00000000E+00  0.00000000E+00  0.00000000E+00
  0.00000000E+00  0.00000000E+00  0.00000000E+00
  0.00000000E+00  0.00000000E+00  0.00000000E+00
  0.00000000E+00  0.00000000E+00  0.00000000E+00
  0.00000000E+00  0.00000000E+00  0.00000000E+00
  0.00000000E+00  0.00000000E+00  0.00000000E+00
  0.00000000E+00  0.00000000E+00  0.00000000E+00
  0.00000000E+00  0.00000000E+00  0.00000000E+00
  0.00000000E+00  0.00000000E+00  0.00000000E+00
  0.00000000E+00  0.00000000E+00  0.00000000E+00
  0.00000000E+00  0.00000000E+00  0.00000000E+00
  0.00000000E+00  0.00000000E+00  0.00000000E+00
  0.00000000E+00  0.00000000E+00  0.00000000E+00
  0.00000000E+00  0.00000000E+00  0.00000000E+00
  0.00000000E+00  0.00000000E+00  0.00000000E+00
  0.00000000E+00  0.00000000E+00  0.00000000E+00
  0.00000000E+00  0.00000000E+00  0.00000000E+00
