Co1 C124 N2                             
   1.00000000000000     
    19.8208151665030812   -0.0048818145118003    0.0070546955691313
    -9.9149761295297729   17.0349587590219578   -0.0028007643913307
     0.0106117010145382    0.0012790982528503   29.8058701975517906
   Co   C    N 
     1   124     2
Direct
  0.4374968390667887  0.4999954866043750  0.4072458498284667
  0.0420550890931994  0.0841780554843178  0.3998885070682108
  0.0410408821610422  0.2082044440023941  0.3998000767255136
  0.0403953856276881  0.3328111082198994  0.3995698190171634
  0.0403612870190771  0.4582641029515919  0.3993157620224145
  0.0412701073166828  0.5837114023547602  0.3992666193019034
  0.0419868811947755  0.7090961336221246  0.3993214692750268
  0.0423982878754844  0.8344530950318021  0.3995834160077351
  0.0425486846168992  0.9596399796786007  0.3998396030298322
  0.1681635065928699  0.0859421452095595  0.4006481368545469
  0.1675131998173052  0.2103539472501355  0.4011702986127408
  0.1653778058920190  0.3338379637373354  0.4011101187602231
  0.1638015031782106  0.4583680262337564  0.4003202673186331
  0.1650335227056463  0.5836632705203878  0.3998376874978737
  0.1662770776071839  0.7091065501659797  0.3996014318704779
  0.1669990350232727  0.8345260762463970  0.3996108872270200
  0.1675717209447029  0.9601110495587979  0.4000578396616210
  0.2928489153595019  0.0857428145925580  0.4007312701496409
  0.2946756210037940  0.2133550184811785  0.4023370953840228
  0.2928444394669631  0.3384030390195970  0.4041424513490942
  0.2871705882901286  0.4585970971299899  0.4039167433472455
  0.2884640888872818  0.5841364095028417  0.4018842238775381
  0.2905163199258640  0.7089533354341243  0.4005155910603420
  0.2915730263850981  0.8341132225273274  0.3997566350937313
  0.2920249489395552  0.9595947627156108  0.3998570484831659
  0.4171566151680487  0.0841512257142235  0.4000639812060821
  0.4178827721179241  0.2102958879766540  0.4016387751029129
  0.4217242694648665  0.3392457357828725  0.4041576303490055
  0.4145603381017984  0.7058801403342261  0.4025778196769028
  0.4159822348734369  0.8323313098591166  0.4005738000932200
  0.4165775157133231  0.9582265643373553  0.3997010417993067
  0.5415359355802025  0.0824455207582738  0.3997323038340035
  0.5421988364157775  0.2078495110253893  0.4002478564843600
  0.5435322042894408  0.3330465101787765  0.4016355646093301
  0.5455903313514728  0.4569169945337315  0.4038056223203778
  0.5435575926786390  0.5784587970593817  0.4055774789969369
  0.5383320692026751  0.7023650355886123  0.4039455165827385
  0.5400774832345087  0.8303201647914166  0.4015648751674630
  0.5411046734057896  0.9567204499314766  0.4001989693471972
  0.6661011481820456  0.0818710888497316  0.3998580083826032
  0.6666847683989272  0.2073342915604006  0.3996299209762966
  0.6675483965334488  0.3326848671586494  0.3999257195397103
  0.6693710932724126  0.4581675042509482  0.4004311904333467
  0.6700334140045227  0.5830168726997184  0.4016206030628839
  0.6660480996968601  0.7059012447229680  0.4021644649684545
  0.6647286507744878  0.8300143247958384  0.4013539678793691
  0.6655512453199324  0.9561478427882214  0.4005306224987547
  0.7908215330122951  0.0818756835088962  0.3998348446408346
  0.7911446777359117  0.2071999526813792  0.3995147708271842
  0.7918202050346654  0.3326745776931729  0.3993357054610345
  0.7928369689540642  0.4581965435543266  0.3993513939152811
  0.7936310590447198  0.5835097596063911  0.3995024912912124
  0.7927461896304459  0.7084038333192892  0.3999324144862436
  0.7912778673450955  0.8323439589299547  0.4001363702286646
  0.7905244041041398  0.9566101043434118  0.4001231315102118
  0.9160645178779790  0.0826019269745742  0.3996365356587333
  0.9158140485378121  0.2074392995430271  0.3995105940107442
  0.9159937882224728  0.3326605519844532  0.3992880843629568
  0.9165446906675248  0.4581111515137563  0.3991444282426522
  0.9174690460533383  0.5837063114415273  0.3991949198807044
  0.9176129228824539  0.7090469759565645  0.3994242119475003
  0.9172821007684270  0.8338415296547297  0.3995887610932154
  0.9166176484022798  0.9582041219427772  0.3996451916811746
  0.0844756689193305  0.0433928769669512  0.4001270252399354
  0.0837266249040539  0.1676611325105391  0.4001395319732306
  0.0822592716028817  0.2915981564308854  0.3999473858139579
  0.0813745835658874  0.4164991461980575  0.3995508457054441
  0.0821618480674133  0.5418085998869110  0.3994047359995379
  0.0831734521191514  0.6673131780291973  0.3993584758560069
  0.0838564554558392  0.7927975283633345  0.3995079276931017
  0.0841871424299294  0.9181313843082828  0.3998306306461608
  0.2094558091098764  0.0438583247141480  0.4005242944502423
  0.2102726808941384  0.1699849036830529  0.4013728796071667
  0.2089517461438924  0.2941016601284315  0.4021891201957862
  0.2049761190098030  0.4169851390920768  0.4016742798775005
  0.2056281754044053  0.5418304461594500  0.4005041672010131
  0.2074529465424224  0.6673226776411658  0.3999525650996723
  0.2083115790400961  0.7926633788997531  0.3996188821310151
  0.2088980447493438  0.9181336888061981  0.3998390296973188
  0.3338953614237579  0.0432733251835874  0.4001872814491831
  0.3349165682317811  0.1696731890039355  0.4015769987174852
  0.3366616786079185  0.2976292227147101  0.4039803371968378
  0.3314310073866517  0.4215358273459177  0.4056013497325748
  0.3294084133974279  0.5430799528760656  0.4038308223908302
  0.3314618571627861  0.6669520255443635  0.4016553526226721
  0.3327983269648319  0.7921439646458410  0.4002367042375989
  0.3334650075146071  0.9175533793332615  0.3997049657443134
  0.4584231830883693  0.0417743757727602  0.3997133325296579
  0.4590127256437703  0.1676638721371689  0.4005839920902458
  0.4604300613522647  0.2941103991118994  0.4025865980930904
  0.4532715070663018  0.6607488164164728  0.4041394360321434
  0.4571111971158521  0.7897043580404893  0.4016274437304295
  0.4578409945140287  0.9158474253849909  0.4000617060503712
  0.5829749984878400  0.0404008100557595  0.3998765214116667
  0.5834257497184070  0.1658819308156362  0.3997799728060026
  0.5844874167512035  0.2910450002041725  0.4005011349885220
  0.5865309668309461  0.4158638733895373  0.4018409311858444
  0.5878302970276785  0.5413996567508869  0.4038756624631687
  0.5821541515149050  0.6615964556482589  0.4041119215502464
  0.5803196016356863  0.7866406303026331  0.4023120029686346
  0.5821579022172314  0.9142555247019218  0.4007266161720460
  0.7074288149798392  0.0398910635404250  0.4000685695188081
  0.7080006770302667  0.1654741105847836  0.3996218829997664
  0.7087235656579978  0.2908967378524335  0.3995836828481905
  0.7099695711686081  0.4163421022154605  0.3997772223489780
  0.7112049629189772  0.5416331629117910  0.4002571735963520
  0.7096215741250975  0.6661647741490764  0.4010829665987888
  0.7074809581691860  0.7896482586446851  0.4011574634179941
  0.7068394190620461  0.9140600192185643  0.4006482806204014
  0.8324499442864961  0.0403632818197276  0.3998410034182726
  0.8326083611402849  0.1655464106121573  0.3995781558899888
  0.8330132018314141  0.2908987206760034  0.3993165594258641
  0.8337216369071662  0.4162828889808674  0.3992374531325686
  0.8346404694457042  0.5417339616009568  0.3992723307530522
  0.8346111805860211  0.6671931302893870  0.3995462544541949
  0.8339649152157949  0.7917927317524686  0.3998031590597443
  0.8329454166750829  0.9158300136401328  0.3998890063224302
  0.9583815750515674  0.0418050422006819  0.3996385498067643
  0.9577267689682500  0.1661614062974995  0.3995775443310728
  0.9573897013874331  0.2909621347230028  0.3994272484050195
  0.9575314895570397  0.4162947781755990  0.3992071437240646
  0.9584478442324819  0.5418830966063459  0.3991476448386441
  0.9590051559307314  0.6673366223480075  0.3992864381832730
  0.9591987326470988  0.7925697847839910  0.3995116382083468
  0.9589355146630910  0.9174053426280480  0.3996409659800594
  0.4086552641613118  0.5796249807321524  0.4051988626928798
  0.4663400425431195  0.4203715021953713  0.4052075067000574
 
  0.00000000E+00  0.00000000E+00  0.00000000E+00
  0.00000000E+00  0.00000000E+00  0.00000000E+00
  0.00000000E+00  0.00000000E+00  0.00000000E+00
  0.00000000E+00  0.00000000E+00  0.00000000E+00
  0.00000000E+00  0.00000000E+00  0.00000000E+00
  0.00000000E+00  0.00000000E+00  0.00000000E+00
  0.00000000E+00  0.00000000E+00  0.00000000E+00
  0.00000000E+00  0.00000000E+00  0.00000000E+00
  0.00000000E+00  0.00000000E+00  0.00000000E+00
  0.00000000E+00  0.00000000E+00  0.00000000E+00
  0.00000000E+00  0.00000000E+00  0.00000000E+00
  0.00000000E+00  0.00000000E+00  0.00000000E+00
  0.00000000E+00  0.00000000E+00  0.00000000E+00
  0.00000000E+00  0.00000000E+00  0.00000000E+00
  0.00000000E+00  0.00000000E+00  0.00000000E+00
  0.00000000E+00  0.00000000E+00  0.00000000E+00
  0.00000000E+00  0.00000000E+00  0.00000000E+00
  0.00000000E+00  0.00000000E+00  0.00000000E+00
  0.00000000E+00  0.00000000E+00  0.00000000E+00
  0.00000000E+00  0.00000000E+00  0.00000000E+00
  0.00000000E+00  0.00000000E+00  0.00000000E+00
  0.00000000E+00  0.00000000E+00  0.00000000E+00
  0.00000000E+00  0.00000000E+00  0.00000000E+00
  0.00000000E+00  0.00000000E+00  0.00000000E+00
  0.00000000E+00  0.00000000E+00  0.00000000E+00
  0.00000000E+00  0.00000000E+00  0.00000000E+00
  0.00000000E+00  0.00000000E+00  0.00000000E+00
  0.00000000E+00  0.00000000E+00  0.00000000E+00
  0.00000000E+00  0.00000000E+00  0.00000000E+00
  0.00000000E+00  0.00000000E+00  0.00000000E+00
  0.00000000E+00  0.00000000E+00  0.00000000E+00
  0.00000000E+00  0.00000000E+00  0.00000000E+00
  0.00000000E+00  0.00000000E+00  0.00000000E+00
  0.00000000E+00  0.00000000E+00  0.00000000E+00
  0.00000000E+00  0.00000000E+00  0.00000000E+00
  0.00000000E+00  0.00000000E+00  0.00000000E+00
  0.00000000E+00  0.00000000E+00  0.00000000E+00
  0.00000000E+00  0.00000000E+00  0.00000000E+00
  0.00000000E+00  0.00000000E+00  0.00000000E+00
  0.00000000E+00  0.00000000E+00  0.00000000E+00
  0.00000000E+00  0.00000000E+00  0.00000000E+00
  0.00000000E+00  0.00000000E+00  0.00000000E+00
  0.00000000E+00  0.00000000E+00  0.00000000E+00
  0.00000000E+00  0.00000000E+00  0.00000000E+00
  0.00000000E+00  0.00000000E+00  0.00000000E+00
  0.00000000E+00  0.00000000E+00  0.00000000E+00
  0.00000000E+00  0.00000000E+00  0.00000000E+00
  0.00000000E+00  0.00000000E+00  0.00000000E+00
  0.00000000E+00  0.00000000E+00  0.00000000E+00
  0.00000000E+00  0.00000000E+00  0.00000000E+00
  0.00000000E+00  0.00000000E+00  0.00000000E+00
  0.00000000E+00  0.00000000E+00  0.00000000E+00
  0.00000000E+00  0.00000000E+00  0.00000000E+00
  0.00000000E+00  0.00000000E+00  0.00000000E+00
  0.00000000E+00  0.00000000E+00  0.00000000E+00
  0.00000000E+00  0.00000000E+00  0.00000000E+00
  0.00000000E+00  0.00000000E+00  0.00000000E+00
  0.00000000E+00  0.00000000E+00  0.00000000E+00
  0.00000000E+00  0.00000000E+00  0.00000000E+00
  0.00000000E+00  0.00000000E+00  0.00000000E+00
  0.00000000E+00  0.00000000E+00  0.00000000E+00
  0.00000000E+00  0.00000000E+00  0.00000000E+00
  0.00000000E+00  0.00000000E+00  0.00000000E+00
  0.00000000E+00  0.00000000E+00  0.00000000E+00
  0.00000000E+00  0.00000000E+00  0.00000000E+00
  0.00000000E+00  0.00000000E+00  0.00000000E+00
  0.00000000E+00  0.00000000E+00  0.00000000E+00
  0.00000000E+00  0.00000000E+00  0.00000000E+00
  0.00000000E+00  0.00000000E+00  0.00000000E+00
  0.00000000E+00  0.00000000E+00  0.00000000E+00
  0.00000000E+00  0.00000000E+00  0.00000000E+00
  0.00000000E+00  0.00000000E+00  0.00000000E+00
  0.00000000E+00  0.00000000E+00  0.00000000E+00
  0.00000000E+00  0.00000000E+00  0.00000000E+00
  0.00000000E+00  0.00000000E+00  0.00000000E+00
  0.00000000E+00  0.00000000E+00  0.00000000E+00
  0.00000000E+00  0.00000000E+00  0.00000000E+00
  0.00000000E+00  0.00000000E+00  0.00000000E+00
  0.00000000E+00  0.00000000E+00  0.00000000E+00
  0.00000000E+00  0.00000000E+00  0.00000000E+00
  0.00000000E+00  0.00000000E+00  0.00000000E+00
  0.00000000E+00  0.00000000E+00  0.00000000E+00
  0.00000000E+00  0.00000000E+00  0.00000000E+00
  0.00000000E+00  0.00000000E+00  0.00000000E+00
  0.00000000E+00  0.00000000E+00  0.00000000E+00
  0.00000000E+00  0.00000000E+00  0.00000000E+00
  0.00000000E+00  0.00000000E+00  0.00000000E+00
  0.00000000E+00  0.00000000E+00  0.00000000E+00
  0.00000000E+00  0.00000000E+00  0.00000000E+00
  0.00000000E+00  0.00000000E+00  0.00000000E+00
  0.00000000E+00  0.00000000E+00  0.00000000E+00
  0.00000000E+00  0.00000000E+00  0.00000000E+00
  0.00000000E+00  0.00000000E+00  0.00000000E+00
  0.00000000E+00  0.00000000E+00  0.00000000E+00
  0.00000000E+00  0.00000000E+00  0.00000000E+00
  0.00000000E+00  0.00000000E+00  0.00000000E+00
  0.00000000E+00  0.00000000E+00  0.00000000E+00
  0.00000000E+00  0.00000000E+00  0.00000000E+00
  0.00000000E+00  0.00000000E+00  0.00000000E+00
  0.00000000E+00  0.00000000E+00  0.00000000E+00
  0.00000000E+00  0.00000000E+00  0.00000000E+00
  0.00000000E+00  0.00000000E+00  0.00000000E+00
  0.00000000E+00  0.00000000E+00  0.00000000E+00
  0.00000000E+00  0.00000000E+00  0.00000000E+00
  0.00000000E+00  0.00000000E+00  0.00000000E+00
  0.00000000E+00  0.00000000E+00  0.00000000E+00
  0.00000000E+00  0.00000000E+00  0.00000000E+00
  0.00000000E+00  0.00000000E+00  0.00000000E+00
  0.00000000E+00  0.00000000E+00  0.00000000E+00
  0.00000000E+00  0.00000000E+00  0.00000000E+00
  0.00000000E+00  0.00000000E+00  0.00000000E+00
  0.00000000E+00  0.00000000E+00  0.00000000E+00
  0.00000000E+00  0.00000000E+00  0.00000000E+00
  0.00000000E+00  0.00000000E+00  0.00000000E+00
  0.00000000E+00  0.00000000E+00  0.00000000E+00
  0.00000000E+00  0.00000000E+00  0.00000000E+00
  0.00000000E+00  0.00000000E+00  0.00000000E+00
  0.00000000E+00  0.00000000E+00  0.00000000E+00
  0.00000000E+00  0.00000000E+00  0.00000000E+00
  0.00000000E+00  0.00000000E+00  0.00000000E+00
  0.00000000E+00  0.00000000E+00  0.00000000E+00
  0.00000000E+00  0.00000000E+00  0.00000000E+00
  0.00000000E+00  0.00000000E+00  0.00000000E+00
  0.00000000E+00  0.00000000E+00  0.00000000E+00
  0.00000000E+00  0.00000000E+00  0.00000000E+00
  0.00000000E+00  0.00000000E+00  0.00000000E+00
  0.00000000E+00  0.00000000E+00  0.00000000E+00
