Pd1 C122 N4 O1                          
   1.00000000000000     
    19.8315248591409699    0.0000238744324850    0.0062298433189306
    -9.9157423564211040   17.0182862716362848   -0.0030637807667689
     0.0093582302325005    0.0000863222731467   29.8146619288121215
   Pd   C    N    O 
     1   122     4     1
Direct
  0.4374705047822181  0.4999997681128956  0.4111094308952487
  0.0421236467624897  0.0842973015051836  0.3998945664022282
  0.0408836256282427  0.2081564906349146  0.3999425771906091
  0.0399277673448220  0.3328248134213403  0.3996622249886951
  0.0400218526826695  0.4581879006121137  0.3992567819618501
  0.0411614426252692  0.5838673313089543  0.3992658625034659
  0.0422189769506813  0.7094374973904808  0.3995279855328495
  0.0426064003085401  0.8347403220543522  0.3996856188925965
  0.0427097594363847  0.9599274034790625  0.3997627064933869
  0.1684158430531990  0.0862699582810188  0.4004549206260070
  0.1675951625200763  0.2106270659381350  0.4013896157657557
  0.1646248342936098  0.3336522547749231  0.4017167715617754
  0.1632892349149359  0.4584499466041570  0.4008800596150817
  0.1646021184165876  0.5837909514386149  0.3996938556836309
  0.1662595489798769  0.7092055919715182  0.3994565077055470
  0.1671506757811461  0.8347423643681716  0.3996767441144833
  0.1677349752705558  0.9604163036392666  0.3998779167193582
  0.2928820821448316  0.0862542711711889  0.4004595014009518
  0.2944802088052973  0.2139389803911101  0.4025460268500720
  0.2923920301618682  0.3391061173399090  0.4046206489369538
  0.2858937883688429  0.4581463238178052  0.4048477659269309
  0.2874442006193564  0.5831928609674220  0.4025089479744335
  0.2903056397698818  0.7085265292606564  0.4002311874841771
  0.2915854631333283  0.8340901145799590  0.3996070286363356
  0.2922692019567608  0.9599140886527062  0.3997400325135326
  0.4172132360305021  0.0842837407857538  0.3999073004536234
  0.4180372742064491  0.2106201665947538  0.4014235153778912
  0.4216941177168227  0.3391099791921302  0.4046581426621357
  0.4142328310292074  0.7057982725446563  0.4025853197290370
  0.4159285361438185  0.8321044922570198  0.4002929685410022
  0.4166474260472487  0.9582174692598051  0.3996806654064650
  0.5415664689528282  0.0823834632660359  0.3996630351485780
  0.5422817189456850  0.2081420047787222  0.3999512051473340
  0.5439978772270569  0.3336375893736664  0.4017077932451178
  0.5472139238689864  0.4581414134796373  0.4048668386991480
  0.5379461937315066  0.7009002654260832  0.4044129662921773
  0.5402087215597066  0.8296463496929970  0.4014632265402265
  0.5409962199839096  0.9563154595002666  0.3999804111105409
  0.6660022772225582  0.0815882430203285  0.3997794706578923
  0.6666363768892228  0.2072031435657556  0.3995610085643474
  0.6678657619239936  0.3328087522209254  0.3996315309239239
  0.6701192889704377  0.4584492567700699  0.4008374223361713
  0.6707255438994268  0.5832204150101375  0.4024878430443532
  0.6665455047785556  0.7058012013081779  0.4026146462543586
  0.6644723986918312  0.8296678638120275  0.4014986475353939
  0.6654221383216784  0.9558003434462681  0.4002289789191079
  0.7906310661811463  0.0815858348054218  0.3997670550587530
  0.7910046045549880  0.2070083283997699  0.3996823597204792
  0.7917914397019660  0.3325457467969595  0.3993982891762484
  0.7931172202399416  0.4581916317543641  0.3992276342924544
  0.7941280106363728  0.5837828886709755  0.3996524821165754
  0.7932053291423152  0.7085316987260207  0.4002134825062220
  0.7912010473594407  0.8321092824828044  0.4003203885235546
  0.7903617858213268  0.9563272536437288  0.3999778038510541
  0.9158761496338653  0.0823945089181687  0.3996419928192859
  0.9155766098248611  0.2072114158171893  0.3995609904684141
  0.9157417849231949  0.3325555385823814  0.3994127749256705
  0.9165830140569016  0.4582090118276008  0.3992481364559132
  0.9176508749947322  0.5838654982258983  0.3992518091713206
  0.9179211207356925  0.7091972818952501  0.3994375961803095
  0.9175344487337915  0.8340963299949999  0.3996251793189901
  0.9166307416569985  0.9582274373339355  0.3996934321813103
  0.0846810912725682  0.0436844542137096  0.3999805815327799
  0.0838238046128848  0.1678949613257370  0.4002925801329305
  0.0817793325106143  0.2914750962534005  0.4002312578000319
  0.0808134039732801  0.4162134383334269  0.3996939587498906
  0.0818341754034334  0.5418114790583743  0.3992567513856077
  0.0831852007055439  0.6674423174937208  0.3994129702249356
  0.0839963797600791  0.7929918076820166  0.3996827226374352
  0.0844140111579777  0.9184121297926725  0.3997796410419425
  0.2096221722953482  0.0441995689149068  0.4002287751686105
  0.2105624547427500  0.1703530061802012  0.4014630162892410
  0.2084336378785661  0.2942011761029779  0.4025844373098588
  0.2042475012681201  0.4168075708841300  0.4025086502238314
  0.2048364460705143  0.5415487603415284  0.4008800676233806
  0.2071017793069455  0.6671711975089591  0.3996619641786228
  0.2083660442101896  0.7927886692505133  0.3995611092684225
  0.2090454312699744  0.9184145438006239  0.3997670550103863
  0.3340343419016048  0.0436725938999424  0.3999771347435397
  0.3348037577413508  0.1703313550032097  0.4014983360617888
  0.3370453802158894  0.2990992288827369  0.4044125004469972
  0.3277448381464358  0.5418543785794543  0.4048478568969519
  0.3309711703923807  0.6663454324884319  0.4017172349059867
  0.3327271486300049  0.7918426646145545  0.3999427450697243
  0.3334824367413849  0.9176063882332200  0.3996412478504465
  0.4584029591730669  0.0417721514890353  0.3996918833143491
  0.4590900772875675  0.1678894519170478  0.4003196699234232
  0.4607430305217980  0.2941977364040224  0.4026146356404017
  0.4532857314030871  0.6608948101544533  0.4046212797134032
  0.4569684629544022  0.7893733511126858  0.4013900235585731
  0.4578263347875489  0.9157026899092431  0.3998939420013934
  0.5827815381301602  0.0400721015468418  0.3997624633374145
  0.5834370221046422  0.1659026951481112  0.3996234547423544
  0.5846728447593572  0.2914673869727717  0.4002130803324181
  0.5875055298621720  0.4167797149981324  0.4024885978220515
  0.5890730436694105  0.5418587057891046  0.4048666274875323
  0.5825846544838064  0.6608906210379644  0.4046581428287144
  0.5805423222886082  0.7860622905968805  0.4025465321189281
  0.5821459131337572  0.9137300307630146  0.4004551315721741
  0.7073179833593369  0.0395837480363756  0.3998779465052413
  0.7078655736448596  0.1652595948979597  0.3996848734111060
  0.7087241601596560  0.2908028705619422  0.3994372036129931
  0.7103465841017979  0.4162183514426108  0.3996525992725810
  0.7116710765468255  0.5415507196623873  0.4008368292336497
  0.7103605116186238  0.6663626845316787  0.4017075734042885
  0.7074176843776966  0.7893809978702389  0.4014236731726388
  0.7066281525443043  0.9137460354080995  0.4004599042038104
  0.8323548856447887  0.0400850856363017  0.3997403985995260
  0.8324076567427497  0.1652571867426526  0.3996767064616904
  0.8327812979591201  0.2905628631634454  0.3995273869884239
  0.8337857601531504  0.4161356793860733  0.3992516123913509
  0.8349261292295863  0.5418076266628525  0.3992276407797737
  0.8350572048374915  0.6671905766800524  0.3996320495982139
  0.8341404104607349  0.7918591803519361  0.3999523671371573
  0.8329299699383315  0.9157161987566843  0.3999080777767183
  0.9584300118342290  0.0417819394602728  0.3996819498547481
  0.9574952471092125  0.1659089861361772  0.3996071579347552
  0.9570552930301385  0.2907962187263999  0.3994566143206680
  0.9572953624781674  0.4161351877889953  0.3992656951581354
  0.9583732476953480  0.5417905017798790  0.3992485245264369
  0.9592454674384600  0.6674530194130982  0.3993984902177392
  0.9594337975556224  0.7927977647769175  0.3995621250825241
  0.9591834262968927  0.9176172805080437  0.3996643576261714
  0.4077341846643748  0.5807933779107548  0.4054994263056702
  0.5480257085404328  0.5807921997794991  0.4055312109807877
  0.3269400981847710  0.4192068827857114  0.4054985347463346
  0.4672335813338674  0.4192083954057650  0.4055312504375990
  0.4373860587017646  0.4999987641628686  0.4767301315814680
 
  0.00000000E+00  0.00000000E+00  0.00000000E+00
  0.00000000E+00  0.00000000E+00  0.00000000E+00
  0.00000000E+00  0.00000000E+00  0.00000000E+00
  0.00000000E+00  0.00000000E+00  0.00000000E+00
  0.00000000E+00  0.00000000E+00  0.00000000E+00
  0.00000000E+00  0.00000000E+00  0.00000000E+00
  0.00000000E+00  0.00000000E+00  0.00000000E+00
  0.00000000E+00  0.00000000E+00  0.00000000E+00
  0.00000000E+00  0.00000000E+00  0.00000000E+00
  0.00000000E+00  0.00000000E+00  0.00000000E+00
  0.00000000E+00  0.00000000E+00  0.00000000E+00
  0.00000000E+00  0.00000000E+00  0.00000000E+00
  0.00000000E+00  0.00000000E+00  0.00000000E+00
  0.00000000E+00  0.00000000E+00  0.00000000E+00
  0.00000000E+00  0.00000000E+00  0.00000000E+00
  0.00000000E+00  0.00000000E+00  0.00000000E+00
  0.00000000E+00  0.00000000E+00  0.00000000E+00
  0.00000000E+00  0.00000000E+00  0.00000000E+00
  0.00000000E+00  0.00000000E+00  0.00000000E+00
  0.00000000E+00  0.00000000E+00  0.00000000E+00
  0.00000000E+00  0.00000000E+00  0.00000000E+00
  0.00000000E+00  0.00000000E+00  0.00000000E+00
  0.00000000E+00  0.00000000E+00  0.00000000E+00
  0.00000000E+00  0.00000000E+00  0.00000000E+00
  0.00000000E+00  0.00000000E+00  0.00000000E+00
  0.00000000E+00  0.00000000E+00  0.00000000E+00
  0.00000000E+00  0.00000000E+00  0.00000000E+00
  0.00000000E+00  0.00000000E+00  0.00000000E+00
  0.00000000E+00  0.00000000E+00  0.00000000E+00
  0.00000000E+00  0.00000000E+00  0.00000000E+00
  0.00000000E+00  0.00000000E+00  0.00000000E+00
  0.00000000E+00  0.00000000E+00  0.00000000E+00
  0.00000000E+00  0.00000000E+00  0.00000000E+00
  0.00000000E+00  0.00000000E+00  0.00000000E+00
  0.00000000E+00  0.00000000E+00  0.00000000E+00
  0.00000000E+00  0.00000000E+00  0.00000000E+00
  0.00000000E+00  0.00000000E+00  0.00000000E+00
  0.00000000E+00  0.00000000E+00  0.00000000E+00
  0.00000000E+00  0.00000000E+00  0.00000000E+00
  0.00000000E+00  0.00000000E+00  0.00000000E+00
  0.00000000E+00  0.00000000E+00  0.00000000E+00
  0.00000000E+00  0.00000000E+00  0.00000000E+00
  0.00000000E+00  0.00000000E+00  0.00000000E+00
  0.00000000E+00  0.00000000E+00  0.00000000E+00
  0.00000000E+00  0.00000000E+00  0.00000000E+00
  0.00000000E+00  0.00000000E+00  0.00000000E+00
  0.00000000E+00  0.00000000E+00  0.00000000E+00
  0.00000000E+00  0.00000000E+00  0.00000000E+00
  0.00000000E+00  0.00000000E+00  0.00000000E+00
  0.00000000E+00  0.00000000E+00  0.00000000E+00
  0.00000000E+00  0.00000000E+00  0.00000000E+00
  0.00000000E+00  0.00000000E+00  0.00000000E+00
  0.00000000E+00  0.00000000E+00  0.00000000E+00
  0.00000000E+00  0.00000000E+00  0.00000000E+00
  0.00000000E+00  0.00000000E+00  0.00000000E+00
  0.00000000E+00  0.00000000E+00  0.00000000E+00
  0.00000000E+00  0.00000000E+00  0.00000000E+00
  0.00000000E+00  0.00000000E+00  0.00000000E+00
  0.00000000E+00  0.00000000E+00  0.00000000E+00
  0.00000000E+00  0.00000000E+00  0.00000000E+00
  0.00000000E+00  0.00000000E+00  0.00000000E+00
  0.00000000E+00  0.00000000E+00  0.00000000E+00
  0.00000000E+00  0.00000000E+00  0.00000000E+00
  0.00000000E+00  0.00000000E+00  0.00000000E+00
  0.00000000E+00  0.00000000E+00  0.00000000E+00
  0.00000000E+00  0.00000000E+00  0.00000000E+00
  0.00000000E+00  0.00000000E+00  0.00000000E+00
  0.00000000E+00  0.00000000E+00  0.00000000E+00
  0.00000000E+00  0.00000000E+00  0.00000000E+00
  0.00000000E+00  0.00000000E+00  0.00000000E+00
  0.00000000E+00  0.00000000E+00  0.00000000E+00
  0.00000000E+00  0.00000000E+00  0.00000000E+00
  0.00000000E+00  0.00000000E+00  0.00000000E+00
  0.00000000E+00  0.00000000E+00  0.00000000E+00
  0.00000000E+00  0.00000000E+00  0.00000000E+00
  0.00000000E+00  0.00000000E+00  0.00000000E+00
  0.00000000E+00  0.00000000E+00  0.00000000E+00
  0.00000000E+00  0.00000000E+00  0.00000000E+00
  0.00000000E+00  0.00000000E+00  0.00000000E+00
  0.00000000E+00  0.00000000E+00  0.00000000E+00
  0.00000000E+00  0.00000000E+00  0.00000000E+00
  0.00000000E+00  0.00000000E+00  0.00000000E+00
  0.00000000E+00  0.00000000E+00  0.00000000E+00
  0.00000000E+00  0.00000000E+00  0.00000000E+00
  0.00000000E+00  0.00000000E+00  0.00000000E+00
  0.00000000E+00  0.00000000E+00  0.00000000E+00
  0.00000000E+00  0.00000000E+00  0.00000000E+00
  0.00000000E+00  0.00000000E+00  0.00000000E+00
  0.00000000E+00  0.00000000E+00  0.00000000E+00
  0.00000000E+00  0.00000000E+00  0.00000000E+00
  0.00000000E+00  0.00000000E+00  0.00000000E+00
  0.00000000E+00  0.00000000E+00  0.00000000E+00
  0.00000000E+00  0.00000000E+00  0.00000000E+00
  0.00000000E+00  0.00000000E+00  0.00000000E+00
  0.00000000E+00  0.00000000E+00  0.00000000E+00
  0.00000000E+00  0.00000000E+00  0.00000000E+00
  0.00000000E+00  0.00000000E+00  0.00000000E+00
  0.00000000E+00  0.00000000E+00  0.00000000E+00
  0.00000000E+00  0.00000000E+00  0.00000000E+00
  0.00000000E+00  0.00000000E+00  0.00000000E+00
  0.00000000E+00  0.00000000E+00  0.00000000E+00
  0.00000000E+00  0.00000000E+00  0.00000000E+00
  0.00000000E+00  0.00000000E+00  0.00000000E+00
  0.00000000E+00  0.00000000E+00  0.00000000E+00
  0.00000000E+00  0.00000000E+00  0.00000000E+00
  0.00000000E+00  0.00000000E+00  0.00000000E+00
  0.00000000E+00  0.00000000E+00  0.00000000E+00
  0.00000000E+00  0.00000000E+00  0.00000000E+00
  0.00000000E+00  0.00000000E+00  0.00000000E+00
  0.00000000E+00  0.00000000E+00  0.00000000E+00
  0.00000000E+00  0.00000000E+00  0.00000000E+00
  0.00000000E+00  0.00000000E+00  0.00000000E+00
  0.00000000E+00  0.00000000E+00  0.00000000E+00
  0.00000000E+00  0.00000000E+00  0.00000000E+00
  0.00000000E+00  0.00000000E+00  0.00000000E+00
  0.00000000E+00  0.00000000E+00  0.00000000E+00
  0.00000000E+00  0.00000000E+00  0.00000000E+00
  0.00000000E+00  0.00000000E+00  0.00000000E+00
  0.00000000E+00  0.00000000E+00  0.00000000E+00
  0.00000000E+00  0.00000000E+00  0.00000000E+00
  0.00000000E+00  0.00000000E+00  0.00000000E+00
  0.00000000E+00  0.00000000E+00  0.00000000E+00
  0.00000000E+00  0.00000000E+00  0.00000000E+00
  0.00000000E+00  0.00000000E+00  0.00000000E+00
  0.00000000E+00  0.00000000E+00  0.00000000E+00
  0.00000000E+00  0.00000000E+00  0.00000000E+00
  0.00000000E+00  0.00000000E+00  0.00000000E+00
  0.00000000E+00  0.00000000E+00  0.00000000E+00
