V1 C123 N3 O1                           
   1.00000000000000     
    19.8007257872661526    0.0065729051570286   -0.0426968488333931
    -9.8944965283405271   17.0335882499149633   -0.0569944728792454
    -0.0642355895279904   -0.1371163183412864   29.8292476707586545
   V    C    N    O 
     1   123     3     1
Direct
  0.4365117044306532  0.5011079031083823  0.4272866613153055
  0.0419485291520936  0.0840915618996063  0.3998154713636896
  0.0411651060191614  0.2082783766151250  0.3998722726204056
  0.0406491666629776  0.3330917537114441  0.3998954992167373
  0.0408452167416497  0.4583263959831086  0.3995662084172280
  0.0415619274241367  0.5837569644752987  0.3995047532344830
  0.0422094853149089  0.7091461951941588  0.3997826528224879
  0.0424474887105605  0.8344205095346870  0.3998976229848171
  0.0423824546064193  0.9594698482951928  0.3997899985629288
  0.1677195623509462  0.0853427354898376  0.4001383893862530
  0.1673555012919869  0.2100709159775563  0.4004975854483050
  0.1654380223741962  0.3337285264541539  0.4009934993184857
  0.1648083529906469  0.4585124682381787  0.4006440928709539
  0.1655677053908905  0.5836513688980302  0.3998110079559961
  0.1665882092070644  0.7089565765333401  0.3995680715896447
  0.1671717142490298  0.8343948501083785  0.3997911998631475
  0.1675053738612398  0.9599427696502990  0.3999124756050495
  0.2926345278803172  0.0856826004722376  0.4000412403352597
  0.2932141171566973  0.2124398617256723  0.4012430906429047
  0.2923613128296551  0.3378607321259055  0.4026046080539781
  0.2886059451042856  0.4576966979032183  0.4024267807876727
  0.2891254752093477  0.5830246088613990  0.4007947539094674
  0.2909596931601539  0.7083866567016138  0.3997297490257489
  0.2917993120816584  0.8338963196521092  0.3996683644855621
  0.2921951495525309  0.9595536926068771  0.3997866164406406
  0.4171230055995299  0.0842415310059955  0.3996593980143524
  0.4176998833651901  0.2103875895168406  0.3999133939235019
  0.4196295310653901  0.3381810911211170  0.4022815745186661
  0.4151194825805934  0.7061545656257199  0.3999861125764094
  0.4163057173061891  0.8323320118151338  0.3997569653739531
  0.4167954419027237  0.9583203624507571  0.3997971273616978
  0.5416621952409458  0.0827984823073232  0.3997659656573802
  0.5421639613348367  0.2085267788247556  0.3994265581682020
  0.5430907112101104  0.3341684833380498  0.3999551914557097
  0.5455403405614581  0.4591896511517654  0.4024831128505925
  0.5387860092916690  0.7022035734387420  0.4014440216039120
  0.5406924294985496  0.8304419991601180  0.4001479242513858
  0.5412855619617577  0.9568823584528056  0.4000064511531329
  0.6662603459245673  0.0821824419890718  0.4000567440868865
  0.6666679864482404  0.2076685388932978  0.3997292304413509
  0.6673820068676374  0.3330617674892587  0.3994456394260777
  0.6691738178188740  0.4585952677208219  0.3997896165344103
  0.6700784627179598  0.5840518792689126  0.4005917101370564
  0.6665440677516394  0.7064098684130508  0.4003920411656444
  0.6649555053821558  0.8305144406320161  0.4002511745348385
  0.6657797712692332  0.9565101692975485  0.4001598253757316
  0.7909533201906649  0.0821601926383746  0.3999072362182067
  0.7912671641295067  0.2075027998920835  0.3998566883959740
  0.7917926095467067  0.3328879971712347  0.3996738080555602
  0.7927987585022181  0.4583537212719216  0.3995176808814946
  0.7934881324508469  0.5837170643883551  0.3996477397606030
  0.7931561723887431  0.7088739540676969  0.3998044414338162
  0.7912668261026752  0.8325027472525857  0.3997665144819875
  0.7906652904155880  0.9569131784859123  0.3999176395178201
  0.9160946956668953  0.0827427923030056  0.3996885835177579
  0.9159901238654451  0.2076530299299164  0.3996245684973436
  0.9161554091251493  0.3328904896014756  0.3995645144912949
  0.9167801574719234  0.4583074410901187  0.3995566591272807
  0.9175303918361913  0.5837886165686960  0.3997138463704117
  0.9176979607426221  0.7090489873733354  0.3998510364165718
  0.9173880906046440  0.8340361159478382  0.3997645054784635
  0.9166003308915095  0.9583142588607676  0.3997308781480473
  0.0841910808671506  0.0430677585656357  0.3998630911223686
  0.0836966301567396  0.1676489638152992  0.3999958967355258
  0.0824599674125806  0.2916814203621243  0.4002092762387443
  0.0820078431313780  0.4165055714353315  0.3999628111569704
  0.0826168812220746  0.5418467525448785  0.3995525007972391
  0.0834590654382897  0.6672865601727107  0.3995837563962701
  0.0839247795510514  0.7926652140765130  0.3998629027647103
  0.0841294814370992  0.9179628500566276  0.3998656419102293
  0.2092207433654777  0.0435241876623909  0.4000549576089498
  0.2095355952053658  0.1691599988296833  0.4006534426915502
  0.2086978215969495  0.2937613050568618  0.4011106708979247
  0.2061345097324454  0.4169666218980272  0.4014544013074893
  0.2063100490130362  0.5416026648060779  0.4004875575284338
  0.2077243206526281  0.6670560111833334  0.3996678059870497
  0.2085519586995124  0.7925036365579448  0.3996512091461534
  0.2089494979779877  0.9179679838876351  0.3998372018079663
  0.3339027944371338  0.0432569707897185  0.3997773620179056
  0.3343822572548937  0.1695263589317511  0.4004139272186060
  0.3351363167968334  0.2965806269600985  0.4025286157257639
  0.3306839339614117  0.5421257898946589  0.4015880087749468
  0.3318796972783227  0.6662298422636981  0.4000875554874012
  0.3331142069624228  0.7917549358690037  0.3996558554637786
  0.3335629666074401  0.9173729985127084  0.3997508462694480
  0.4584600880049254  0.0418647843020224  0.3997272765182374
  0.4588507378265207  0.1678045233289647  0.3995503046064661
  0.4597918694164577  0.2940914536738450  0.4002513403491929
  0.4638755819620091  0.4205855491886240  0.4049245693708967
  0.4543946925854278  0.6615012608597926  0.4009850236253109
  0.4574953401791507  0.7897494995551146  0.3998529496253647
  0.4580815614286524  0.9159438464504328  0.3998599424482896
  0.5830071613419926  0.0405856579979456  0.3999913194438389
  0.5834565397401461  0.1663515573910476  0.3995823443068376
  0.5841754166325862  0.2918425552317832  0.3994716901730622
  0.5863732641244204  0.4173842165732266  0.4004449333451036
  0.5882521676798237  0.5434565873707354  0.4024267888191433
  0.5826326326323120  0.6615606769957744  0.4020062628172239
  0.5811327293125484  0.7870459289869398  0.4005744049907861
  0.5825245269989782  0.9144269559522977  0.4001063260105707
  0.7076330319053323  0.0402018532840872  0.4000879752717967
  0.7080591009530667  0.1657540397593356  0.3999420161938094
  0.7085870014098555  0.2911811438199525  0.3996055576367036
  0.7098689155316605  0.4165752056407750  0.3994453037830561
  0.7109052692925516  0.5418293133673704  0.3998884319476026
  0.7102306576624865  0.6669853615212457  0.4002182933543492
  0.7075899090886323  0.7899980602808728  0.3999718410563115
  0.7070327565403767  0.9144781424702315  0.4001108704392984
  0.8325986578321535  0.0406082650157027  0.3998264661730223
  0.8327570078798401  0.1657734209941156  0.3997766302522668
  0.8330533898804963  0.2910385472439743  0.3997020757112588
  0.8338084231297553  0.4164091406882762  0.3996105116644825
  0.8346185070283325  0.5418762161308752  0.3996154557891356
  0.8347660339587731  0.6672467705116717  0.3997651306207177
  0.8340762395924204  0.7920551982890968  0.3997400693344703
  0.8329913613362896  0.9160325335795939  0.3997991389935806
  0.9583689434762152  0.0418219179004874  0.3997228244825225
  0.9578191255341307  0.1662230977430149  0.3996436194607905
  0.9576174933424560  0.2912048925801888  0.3996040447932913
  0.9578861985620050  0.4164298445688354  0.3995051539206619
  0.9585975696892941  0.5418744395287812  0.3995825735509775
  0.9591485701469505  0.6673012411243167  0.3998300591931811
  0.9591983815278284  0.7925980566362855  0.3998657169738992
  0.9589351474359458  0.9174524966398844  0.3997373548678507
  0.4108918024796253  0.5811999003205843  0.4021038337901549
  0.5464017620970328  0.5814195489107088  0.4043302024687046
  0.3298770316039768  0.4187959722213329  0.4042915621600034
  0.4383992796745026  0.4997591722648680  0.4813387289496227
 
  0.00000000E+00  0.00000000E+00  0.00000000E+00
  0.00000000E+00  0.00000000E+00  0.00000000E+00
  0.00000000E+00  0.00000000E+00  0.00000000E+00
  0.00000000E+00  0.00000000E+00  0.00000000E+00
  0.00000000E+00  0.00000000E+00  0.00000000E+00
  0.00000000E+00  0.00000000E+00  0.00000000E+00
  0.00000000E+00  0.00000000E+00  0.00000000E+00
  0.00000000E+00  0.00000000E+00  0.00000000E+00
  0.00000000E+00  0.00000000E+00  0.00000000E+00
  0.00000000E+00  0.00000000E+00  0.00000000E+00
  0.00000000E+00  0.00000000E+00  0.00000000E+00
  0.00000000E+00  0.00000000E+00  0.00000000E+00
  0.00000000E+00  0.00000000E+00  0.00000000E+00
  0.00000000E+00  0.00000000E+00  0.00000000E+00
  0.00000000E+00  0.00000000E+00  0.00000000E+00
  0.00000000E+00  0.00000000E+00  0.00000000E+00
  0.00000000E+00  0.00000000E+00  0.00000000E+00
  0.00000000E+00  0.00000000E+00  0.00000000E+00
  0.00000000E+00  0.00000000E+00  0.00000000E+00
  0.00000000E+00  0.00000000E+00  0.00000000E+00
  0.00000000E+00  0.00000000E+00  0.00000000E+00
  0.00000000E+00  0.00000000E+00  0.00000000E+00
  0.00000000E+00  0.00000000E+00  0.00000000E+00
  0.00000000E+00  0.00000000E+00  0.00000000E+00
  0.00000000E+00  0.00000000E+00  0.00000000E+00
  0.00000000E+00  0.00000000E+00  0.00000000E+00
  0.00000000E+00  0.00000000E+00  0.00000000E+00
  0.00000000E+00  0.00000000E+00  0.00000000E+00
  0.00000000E+00  0.00000000E+00  0.00000000E+00
  0.00000000E+00  0.00000000E+00  0.00000000E+00
  0.00000000E+00  0.00000000E+00  0.00000000E+00
  0.00000000E+00  0.00000000E+00  0.00000000E+00
  0.00000000E+00  0.00000000E+00  0.00000000E+00
  0.00000000E+00  0.00000000E+00  0.00000000E+00
  0.00000000E+00  0.00000000E+00  0.00000000E+00
  0.00000000E+00  0.00000000E+00  0.00000000E+00
  0.00000000E+00  0.00000000E+00  0.00000000E+00
  0.00000000E+00  0.00000000E+00  0.00000000E+00
  0.00000000E+00  0.00000000E+00  0.00000000E+00
  0.00000000E+00  0.00000000E+00  0.00000000E+00
  0.00000000E+00  0.00000000E+00  0.00000000E+00
  0.00000000E+00  0.00000000E+00  0.00000000E+00
  0.00000000E+00  0.00000000E+00  0.00000000E+00
  0.00000000E+00  0.00000000E+00  0.00000000E+00
  0.00000000E+00  0.00000000E+00  0.00000000E+00
  0.00000000E+00  0.00000000E+00  0.00000000E+00
  0.00000000E+00  0.00000000E+00  0.00000000E+00
  0.00000000E+00  0.00000000E+00  0.00000000E+00
  0.00000000E+00  0.00000000E+00  0.00000000E+00
  0.00000000E+00  0.00000000E+00  0.00000000E+00
  0.00000000E+00  0.00000000E+00  0.00000000E+00
  0.00000000E+00  0.00000000E+00  0.00000000E+00
  0.00000000E+00  0.00000000E+00  0.00000000E+00
  0.00000000E+00  0.00000000E+00  0.00000000E+00
  0.00000000E+00  0.00000000E+00  0.00000000E+00
  0.00000000E+00  0.00000000E+00  0.00000000E+00
  0.00000000E+00  0.00000000E+00  0.00000000E+00
  0.00000000E+00  0.00000000E+00  0.00000000E+00
  0.00000000E+00  0.00000000E+00  0.00000000E+00
  0.00000000E+00  0.00000000E+00  0.00000000E+00
  0.00000000E+00  0.00000000E+00  0.00000000E+00
  0.00000000E+00  0.00000000E+00  0.00000000E+00
  0.00000000E+00  0.00000000E+00  0.00000000E+00
  0.00000000E+00  0.00000000E+00  0.00000000E+00
  0.00000000E+00  0.00000000E+00  0.00000000E+00
  0.00000000E+00  0.00000000E+00  0.00000000E+00
  0.00000000E+00  0.00000000E+00  0.00000000E+00
  0.00000000E+00  0.00000000E+00  0.00000000E+00
  0.00000000E+00  0.00000000E+00  0.00000000E+00
  0.00000000E+00  0.00000000E+00  0.00000000E+00
  0.00000000E+00  0.00000000E+00  0.00000000E+00
  0.00000000E+00  0.00000000E+00  0.00000000E+00
  0.00000000E+00  0.00000000E+00  0.00000000E+00
  0.00000000E+00  0.00000000E+00  0.00000000E+00
  0.00000000E+00  0.00000000E+00  0.00000000E+00
  0.00000000E+00  0.00000000E+00  0.00000000E+00
  0.00000000E+00  0.00000000E+00  0.00000000E+00
  0.00000000E+00  0.00000000E+00  0.00000000E+00
  0.00000000E+00  0.00000000E+00  0.00000000E+00
  0.00000000E+00  0.00000000E+00  0.00000000E+00
  0.00000000E+00  0.00000000E+00  0.00000000E+00
  0.00000000E+00  0.00000000E+00  0.00000000E+00
  0.00000000E+00  0.00000000E+00  0.00000000E+00
  0.00000000E+00  0.00000000E+00  0.00000000E+00
  0.00000000E+00  0.00000000E+00  0.00000000E+00
  0.00000000E+00  0.00000000E+00  0.00000000E+00
  0.00000000E+00  0.00000000E+00  0.00000000E+00
  0.00000000E+00  0.00000000E+00  0.00000000E+00
  0.00000000E+00  0.00000000E+00  0.00000000E+00
  0.00000000E+00  0.00000000E+00  0.00000000E+00
  0.00000000E+00  0.00000000E+00  0.00000000E+00
  0.00000000E+00  0.00000000E+00  0.00000000E+00
  0.00000000E+00  0.00000000E+00  0.00000000E+00
  0.00000000E+00  0.00000000E+00  0.00000000E+00
  0.00000000E+00  0.00000000E+00  0.00000000E+00
  0.00000000E+00  0.00000000E+00  0.00000000E+00
  0.00000000E+00  0.00000000E+00  0.00000000E+00
  0.00000000E+00  0.00000000E+00  0.00000000E+00
  0.00000000E+00  0.00000000E+00  0.00000000E+00
  0.00000000E+00  0.00000000E+00  0.00000000E+00
  0.00000000E+00  0.00000000E+00  0.00000000E+00
  0.00000000E+00  0.00000000E+00  0.00000000E+00
  0.00000000E+00  0.00000000E+00  0.00000000E+00
  0.00000000E+00  0.00000000E+00  0.00000000E+00
  0.00000000E+00  0.00000000E+00  0.00000000E+00
  0.00000000E+00  0.00000000E+00  0.00000000E+00
  0.00000000E+00  0.00000000E+00  0.00000000E+00
  0.00000000E+00  0.00000000E+00  0.00000000E+00
  0.00000000E+00  0.00000000E+00  0.00000000E+00
  0.00000000E+00  0.00000000E+00  0.00000000E+00
  0.00000000E+00  0.00000000E+00  0.00000000E+00
  0.00000000E+00  0.00000000E+00  0.00000000E+00
  0.00000000E+00  0.00000000E+00  0.00000000E+00
  0.00000000E+00  0.00000000E+00  0.00000000E+00
  0.00000000E+00  0.00000000E+00  0.00000000E+00
  0.00000000E+00  0.00000000E+00  0.00000000E+00
  0.00000000E+00  0.00000000E+00  0.00000000E+00
  0.00000000E+00  0.00000000E+00  0.00000000E+00
  0.00000000E+00  0.00000000E+00  0.00000000E+00
  0.00000000E+00  0.00000000E+00  0.00000000E+00
  0.00000000E+00  0.00000000E+00  0.00000000E+00
  0.00000000E+00  0.00000000E+00  0.00000000E+00
  0.00000000E+00  0.00000000E+00  0.00000000E+00
  0.00000000E+00  0.00000000E+00  0.00000000E+00
  0.00000000E+00  0.00000000E+00  0.00000000E+00
  0.00000000E+00  0.00000000E+00  0.00000000E+00
  0.00000000E+00  0.00000000E+00  0.00000000E+00
  0.00000000E+00  0.00000000E+00  0.00000000E+00
