Fe1 H1 C125 N1 O1                       
   1.00000000000000     
    19.8048330524367486   -0.0075228756631174   -0.0850956711643945
    -9.9096798693657924   17.0614418119888960    0.0920321485523312
    -0.1276491438784534    0.0870411467788802   29.7867188712494801
   Fe   H    C    N    O 
     1     1   125     1     1
Direct
  0.4383270326925121  0.4994228215669820  0.4233158054610955
  0.4774625855522069  0.5540657853945921  0.4974729421836127
  0.0419585283197406  0.0838847101627944  0.3996547921768827
  0.0414626675578498  0.2083433278712963  0.3995293228497475
  0.0411144765998028  0.3330099403315034  0.3991900477803692
  0.0410706268166797  0.4582467001148069  0.3990656757334708
  0.0414987572815727  0.5835285179874178  0.3992740146847376
  0.0418775929558016  0.7087499037397825  0.3994209428565127
  0.0421007198663055  0.8340205064996882  0.3995333064995918
  0.0421741902114809  0.9591224638571720  0.3996301832695046
  0.1674912060682948  0.0848584405135331  0.4002319061255571
  0.1673447282226968  0.2097217019815270  0.4006228451541509
  0.1663375991788568  0.3339277952164854  0.4003820036012152
  0.1652051562765216  0.4584534330901687  0.3993555593868315
  0.1656133624119467  0.5835244416080023  0.3992336456780503
  0.1663981302110928  0.7087945155416712  0.3994739229658144
  0.1669024857185700  0.8340879724292660  0.3995688906643426
  0.1672340563330323  0.9594547096013931  0.3998115678911349
  0.2924502671559210  0.0848261342582033  0.4003209142146479
  0.2932045335083585  0.2110755728435975  0.4018984484376931
  0.2929885996251336  0.3366700868528711  0.4041661690511927
  0.2897997200298046  0.4591329201762471  0.4028011003048393
  0.2894064285808686  0.5841686200033805  0.4004008037737532
  0.2908182468140605  0.7088983963949375  0.3999495045594527
  0.2915879394147572  0.8338604259414764  0.3997128624512769
  0.2919231157756756  0.9591525518700980  0.3997268675632861
  0.4169904553156338  0.0837703589720604  0.3998410785159339
  0.4175202229143545  0.2095041219481719  0.4007674339403213
  0.4191031427925543  0.3364894575855115  0.4042232683790850
  0.4149686225708689  0.7069025728610645  0.4015995647126287
  0.4161766638878767  0.8327354807494232  0.4002199495318849
  0.4166212431465212  0.9582633116418930  0.3997526600325817
  0.5416177796292314  0.0826836356781771  0.3997147498256507
  0.5420766932356826  0.2079432292439158  0.3998917066397195
  0.5428503029765278  0.3329959991789760  0.4006872544821208
  0.5452540988827208  0.4576488241526909  0.4030568093818315
  0.5447712817916148  0.5801444127626879  0.4056936086335028
  0.5387282379927069  0.7036327050107304  0.4037115849169372
  0.5404830789632975  0.8311166751399635  0.4011969673708082
  0.5412607775234310  0.9571530041453954  0.4001068562076987
  0.6663087101151782  0.0822193693932814  0.3998578863118648
  0.6667116485931962  0.2075344440191627  0.3996656587878666
  0.6672698374783627  0.3326773019247368  0.3997256376965947
  0.6687785673302095  0.4579975101086137  0.3997910305982725
  0.6698659513065574  0.5835404836076838  0.4004410338650281
  0.6661732236298937  0.7064998161796652  0.4012324762502423
  0.6650586951188331  0.8307734545090641  0.4011545794079892
  0.6658139106095856  0.9566581581717950  0.4004733726907391
  0.7911409725765580  0.0822474683324832  0.3997965770015192
  0.7914045597786622  0.2074581587956676  0.3995321702594988
  0.7918602584919179  0.3327587743325198  0.3995183007893528
  0.7926381151223127  0.4581128486187631  0.3994737169280952
  0.7932171161241629  0.5833391098113535  0.3994020412623528
  0.7926573082309317  0.7085325797641606  0.3997313246860590
  0.7912762237810178  0.8325100187833575  0.4000904360072746
  0.7907621528667171  0.9569799951560201  0.4001221150637416
  0.9162828979808663  0.0827787260583221  0.3995597031451406
  0.9162747099121691  0.2077253858781928  0.3993526030422856
  0.9163987325928512  0.3328591883113599  0.3992431647830888
  0.9167631231480716  0.4580843796715333  0.3993371625933373
  0.9173144093379186  0.5834776615262395  0.3993844380861373
  0.9173161484576101  0.7087459048740588  0.3994290016032697
  0.9170812233086215  0.8336525447191020  0.3995817085520718
  0.9165733132563044  0.9581798334830146  0.3996638312509331
  0.0839806111251912  0.0426805397060150  0.3998035690447605
  0.0837171970466034  0.1673717618531060  0.3997992751104826
  0.0829276620244373  0.2917414709023806  0.3995313908449968
  0.0824185998065571  0.4165966235044032  0.3990653109029467
  0.0826535708670853  0.5417170606095292  0.3991403316396906
  0.0832357470065511  0.6670296984804075  0.3993654877346877
  0.0836589901241304  0.7923711946496778  0.3995160823192549
  0.0838294645650383  0.9175637139161940  0.3996598836061233
  0.2090216650856934  0.0430089692069601  0.4001601658273927
  0.2093220212749104  0.1685293784878256  0.4009130668979040
  0.2090575561423187  0.2934486489076757  0.4014636168956535
  0.2068411627554358  0.4171998904844701  0.4004019526380875
  0.2065318262691240  0.5417982304029804  0.3994101930596178
  0.2077178243218978  0.6670942834463391  0.3995149309174827
  0.2083384129826431  0.7922886099823043  0.3995728894936525
  0.2087079326016579  0.9175878778585145  0.3997048092066414
  0.3337285468630513  0.0426452497819703  0.3999288689847482
  0.3343430972779984  0.1684096561047277  0.4009880262273733
  0.3349870616482252  0.2945450044945636  0.4040529845961476
  0.3319230297275700  0.4194418498700055  0.4064622112836990
  0.3311185709356505  0.5437743327269990  0.4026557950431311
  0.3319591586351220  0.6670888989428381  0.4006010720700502
  0.3329908369550777  0.7920636329295262  0.3999732980095940
  0.3334201324018474  0.9172341775128188  0.3996935461894830
  0.4584183774367437  0.0416803559875949  0.3997092559592491
  0.4588048789050949  0.1671833353950808  0.4000463736029605
  0.4596711904958450  0.2930785037030030  0.4015907234506277
  0.4635880334412996  0.4191105375005189  0.4064369597214678
  0.4542208830933623  0.6624590327097138  0.4037787638493479
  0.4574337634823922  0.7904210382806380  0.4009320486586442
  0.4580152540868486  0.9161422405935810  0.3999826476632983
  0.5830774136302682  0.0406920344910193  0.3998633008182941
  0.5834797839706990  0.1660938809493195  0.3997058393180640
  0.5841373679596440  0.2911364956216566  0.3999783260567447
  0.5858111336562707  0.4159567781025785  0.4007833886351336
  0.5877549992326431  0.5418386477135606  0.4026263338946763
  0.5819431698747326  0.6625283326478495  0.4035734190797661
  0.5809156543689786  0.7877803129738350  0.4019974485357652
  0.5824862487810982  0.9148712908644042  0.4005763447200777
  0.7077264804753135  0.0402927185248228  0.4000458332579281
  0.7081754823819059  0.1657454204294428  0.3996611270228134
  0.7086382683354090  0.2910139183399092  0.3996420845891048
  0.7096585121843126  0.4163055348569585  0.3995687386678397
  0.7106747677282168  0.5415439241700272  0.3996727204411570
  0.7094588768356278  0.6665486589164723  0.4003272310860330
  0.7075501893525432  0.7900530177965668  0.4007706404985663
  0.7070973755608714  0.9145888657221291  0.4005961849649081
  0.8327115244304016  0.0406351643695619  0.3998139111051717
  0.8329348370158387  0.1658068117152370  0.3995254735083648
  0.8332635039328136  0.2910845549691904  0.3994132200683139
  0.8337783038917189  0.4163007933268222  0.3994675974810926
  0.8343787644679822  0.5415910426825761  0.3994008566076513
  0.8342569203029995  0.6669734002666037  0.3994555118056330
  0.8337686023057894  0.7917530000091758  0.3997756393259231
  0.8329503487137260  0.9159687870997953  0.3999481581864635
  0.9583554411262278  0.0416904752837731  0.3995752837879909
  0.9580588929551271  0.1663165787118260  0.3994076369874152
  0.9579433244445162  0.2912314380721808  0.3991973702049716
  0.9580271297734707  0.4163858744599928  0.3992006519484216
  0.9585245446897882  0.5417416576806035  0.3993387649914904
  0.9587972660456038  0.6670210311718467  0.3993974728776520
  0.9588392684095570  0.7922038415970359  0.3995082504967825
  0.9586780015558058  0.9170940764077961  0.3995904299914172
  0.4102473039724410  0.5820616407386071  0.4054047021444456
  0.4372730743011556  0.5044498994347023  0.4848230668925236
 
  0.00000000E+00  0.00000000E+00  0.00000000E+00
  0.00000000E+00  0.00000000E+00  0.00000000E+00
  0.00000000E+00  0.00000000E+00  0.00000000E+00
  0.00000000E+00  0.00000000E+00  0.00000000E+00
  0.00000000E+00  0.00000000E+00  0.00000000E+00
  0.00000000E+00  0.00000000E+00  0.00000000E+00
  0.00000000E+00  0.00000000E+00  0.00000000E+00
  0.00000000E+00  0.00000000E+00  0.00000000E+00
  0.00000000E+00  0.00000000E+00  0.00000000E+00
  0.00000000E+00  0.00000000E+00  0.00000000E+00
  0.00000000E+00  0.00000000E+00  0.00000000E+00
  0.00000000E+00  0.00000000E+00  0.00000000E+00
  0.00000000E+00  0.00000000E+00  0.00000000E+00
  0.00000000E+00  0.00000000E+00  0.00000000E+00
  0.00000000E+00  0.00000000E+00  0.00000000E+00
  0.00000000E+00  0.00000000E+00  0.00000000E+00
  0.00000000E+00  0.00000000E+00  0.00000000E+00
  0.00000000E+00  0.00000000E+00  0.00000000E+00
  0.00000000E+00  0.00000000E+00  0.00000000E+00
  0.00000000E+00  0.00000000E+00  0.00000000E+00
  0.00000000E+00  0.00000000E+00  0.00000000E+00
  0.00000000E+00  0.00000000E+00  0.00000000E+00
  0.00000000E+00  0.00000000E+00  0.00000000E+00
  0.00000000E+00  0.00000000E+00  0.00000000E+00
  0.00000000E+00  0.00000000E+00  0.00000000E+00
  0.00000000E+00  0.00000000E+00  0.00000000E+00
  0.00000000E+00  0.00000000E+00  0.00000000E+00
  0.00000000E+00  0.00000000E+00  0.00000000E+00
  0.00000000E+00  0.00000000E+00  0.00000000E+00
  0.00000000E+00  0.00000000E+00  0.00000000E+00
  0.00000000E+00  0.00000000E+00  0.00000000E+00
  0.00000000E+00  0.00000000E+00  0.00000000E+00
  0.00000000E+00  0.00000000E+00  0.00000000E+00
  0.00000000E+00  0.00000000E+00  0.00000000E+00
  0.00000000E+00  0.00000000E+00  0.00000000E+00
  0.00000000E+00  0.00000000E+00  0.00000000E+00
  0.00000000E+00  0.00000000E+00  0.00000000E+00
  0.00000000E+00  0.00000000E+00  0.00000000E+00
  0.00000000E+00  0.00000000E+00  0.00000000E+00
  0.00000000E+00  0.00000000E+00  0.00000000E+00
  0.00000000E+00  0.00000000E+00  0.00000000E+00
  0.00000000E+00  0.00000000E+00  0.00000000E+00
  0.00000000E+00  0.00000000E+00  0.00000000E+00
  0.00000000E+00  0.00000000E+00  0.00000000E+00
  0.00000000E+00  0.00000000E+00  0.00000000E+00
  0.00000000E+00  0.00000000E+00  0.00000000E+00
  0.00000000E+00  0.00000000E+00  0.00000000E+00
  0.00000000E+00  0.00000000E+00  0.00000000E+00
  0.00000000E+00  0.00000000E+00  0.00000000E+00
  0.00000000E+00  0.00000000E+00  0.00000000E+00
  0.00000000E+00  0.00000000E+00  0.00000000E+00
  0.00000000E+00  0.00000000E+00  0.00000000E+00
  0.00000000E+00  0.00000000E+00  0.00000000E+00
  0.00000000E+00  0.00000000E+00  0.00000000E+00
  0.00000000E+00  0.00000000E+00  0.00000000E+00
  0.00000000E+00  0.00000000E+00  0.00000000E+00
  0.00000000E+00  0.00000000E+00  0.00000000E+00
  0.00000000E+00  0.00000000E+00  0.00000000E+00
  0.00000000E+00  0.00000000E+00  0.00000000E+00
  0.00000000E+00  0.00000000E+00  0.00000000E+00
  0.00000000E+00  0.00000000E+00  0.00000000E+00
  0.00000000E+00  0.00000000E+00  0.00000000E+00
  0.00000000E+00  0.00000000E+00  0.00000000E+00
  0.00000000E+00  0.00000000E+00  0.00000000E+00
  0.00000000E+00  0.00000000E+00  0.00000000E+00
  0.00000000E+00  0.00000000E+00  0.00000000E+00
  0.00000000E+00  0.00000000E+00  0.00000000E+00
  0.00000000E+00  0.00000000E+00  0.00000000E+00
  0.00000000E+00  0.00000000E+00  0.00000000E+00
  0.00000000E+00  0.00000000E+00  0.00000000E+00
  0.00000000E+00  0.00000000E+00  0.00000000E+00
  0.00000000E+00  0.00000000E+00  0.00000000E+00
  0.00000000E+00  0.00000000E+00  0.00000000E+00
  0.00000000E+00  0.00000000E+00  0.00000000E+00
  0.00000000E+00  0.00000000E+00  0.00000000E+00
  0.00000000E+00  0.00000000E+00  0.00000000E+00
  0.00000000E+00  0.00000000E+00  0.00000000E+00
  0.00000000E+00  0.00000000E+00  0.00000000E+00
  0.00000000E+00  0.00000000E+00  0.00000000E+00
  0.00000000E+00  0.00000000E+00  0.00000000E+00
  0.00000000E+00  0.00000000E+00  0.00000000E+00
  0.00000000E+00  0.00000000E+00  0.00000000E+00
  0.00000000E+00  0.00000000E+00  0.00000000E+00
  0.00000000E+00  0.00000000E+00  0.00000000E+00
  0.00000000E+00  0.00000000E+00  0.00000000E+00
  0.00000000E+00  0.00000000E+00  0.00000000E+00
  0.00000000E+00  0.00000000E+00  0.00000000E+00
  0.00000000E+00  0.00000000E+00  0.00000000E+00
  0.00000000E+00  0.00000000E+00  0.00000000E+00
  0.00000000E+00  0.00000000E+00  0.00000000E+00
  0.00000000E+00  0.00000000E+00  0.00000000E+00
  0.00000000E+00  0.00000000E+00  0.00000000E+00
  0.00000000E+00  0.00000000E+00  0.00000000E+00
  0.00000000E+00  0.00000000E+00  0.00000000E+00
  0.00000000E+00  0.00000000E+00  0.00000000E+00
  0.00000000E+00  0.00000000E+00  0.00000000E+00
  0.00000000E+00  0.00000000E+00  0.00000000E+00
  0.00000000E+00  0.00000000E+00  0.00000000E+00
  0.00000000E+00  0.00000000E+00  0.00000000E+00
  0.00000000E+00  0.00000000E+00  0.00000000E+00
  0.00000000E+00  0.00000000E+00  0.00000000E+00
  0.00000000E+00  0.00000000E+00  0.00000000E+00
  0.00000000E+00  0.00000000E+00  0.00000000E+00
  0.00000000E+00  0.00000000E+00  0.00000000E+00
  0.00000000E+00  0.00000000E+00  0.00000000E+00
  0.00000000E+00  0.00000000E+00  0.00000000E+00
  0.00000000E+00  0.00000000E+00  0.00000000E+00
  0.00000000E+00  0.00000000E+00  0.00000000E+00
  0.00000000E+00  0.00000000E+00  0.00000000E+00
  0.00000000E+00  0.00000000E+00  0.00000000E+00
  0.00000000E+00  0.00000000E+00  0.00000000E+00
  0.00000000E+00  0.00000000E+00  0.00000000E+00
  0.00000000E+00  0.00000000E+00  0.00000000E+00
  0.00000000E+00  0.00000000E+00  0.00000000E+00
  0.00000000E+00  0.00000000E+00  0.00000000E+00
  0.00000000E+00  0.00000000E+00  0.00000000E+00
  0.00000000E+00  0.00000000E+00  0.00000000E+00
  0.00000000E+00  0.00000000E+00  0.00000000E+00
  0.00000000E+00  0.00000000E+00  0.00000000E+00
  0.00000000E+00  0.00000000E+00  0.00000000E+00
  0.00000000E+00  0.00000000E+00  0.00000000E+00
  0.00000000E+00  0.00000000E+00  0.00000000E+00
  0.00000000E+00  0.00000000E+00  0.00000000E+00
  0.00000000E+00  0.00000000E+00  0.00000000E+00
  0.00000000E+00  0.00000000E+00  0.00000000E+00
  0.00000000E+00  0.00000000E+00  0.00000000E+00
  0.00000000E+00  0.00000000E+00  0.00000000E+00
  0.00000000E+00  0.00000000E+00  0.00000000E+00
  0.00000000E+00  0.00000000E+00  0.00000000E+00
