Cu1 C126 O1                             
   1.00000000000000     
    19.8110250790800109   -0.0000972983159108    0.0044765006391277
    -9.9055958081413866   17.0583292799261805   -0.0022173998955326
     0.0067000720124451    0.0000356661602463   29.7755594519189728
   Cu   C    O 
     1   126     1
Direct
  0.4374788410438257  0.4999998666816283  0.4216304715081131
  0.0418934513342518  0.0838972276764001  0.3999089854078203
  0.0409984095258562  0.2081279366108301  0.3999797354228161
  0.0405288226332584  0.3328859700533294  0.3997934048965217
  0.0406037745356283  0.4582335907605607  0.3994801042156276
  0.0413710844947774  0.5836857243688868  0.3993351764987238
  0.0420233459697147  0.7090334822486204  0.3994582163530442
  0.0422735041663416  0.8343371905103487  0.3996134462060902
  0.0423046315369597  0.9593460509903424  0.3997324504647721
  0.1674923773256428  0.0850548701214547  0.4003302036078112
  0.1670891618013229  0.2097132642154161  0.4010331483158109
  0.1653935538052554  0.3332371141389306  0.4012471046391295
  0.1644631336691684  0.4583258590414895  0.4005701225753146
  0.1653043299283677  0.5835789047479601  0.3998669060850892
  0.1664677589767307  0.7089492822372389  0.3995036879475089
  0.1670599571786429  0.8343297911835057  0.3996093007017623
  0.1673583168766249  0.9596953681849647  0.3998168986424562
  0.2925793059462324  0.0850782177879252  0.4003110528880400
  0.2930985262714883  0.2112131796493128  0.4021415100150508
  0.2927419428434570  0.3368590382334133  0.4043988949514469
  0.2878031438683276  0.4581219582266841  0.4034355598242187
  0.2892338683085754  0.5837293168521966  0.4015048468534893
  0.2909543910093359  0.7087096108369426  0.4002287359885706
  0.2915406706525349  0.8338445941067449  0.3996666970165370
  0.2920702551003238  0.9593427483757510  0.3997246478896018
  0.4170236255454521  0.0839067642167761  0.3998880828567589
  0.4176363353803542  0.2097474893334522  0.4010350016190966
  0.4191095944357059  0.3368701484154192  0.4043944686539436
  0.4114978311703010  0.5808327639436263  0.4062330525646982
  0.4152703313552261  0.7067439011992307  0.4020277126011637
  0.4161891237072892  0.8326637095343029  0.4002032166619830
  0.4166625659443824  0.9583141225454106  0.3997441443899167
  0.5416580062680905  0.0827438572999307  0.3996827930622650
  0.5421358765024888  0.2081428341365420  0.3999701194646988
  0.5428366526185130  0.3332547097981936  0.4012112971591294
  0.5453047365780049  0.4581312928428228  0.4034268400501802
  0.5443107730156318  0.5808249737317537  0.4062411963170638
  0.5401559796425490  0.7053274402892030  0.4041805150074641
  0.5406462027936616  0.8313948019095417  0.4011619455840326
  0.5411634939056985  0.9571458440758388  0.3999449919623835
  0.6661972411432201  0.0821760347274871  0.3997139622936188
  0.6666164633953440  0.2075550856659521  0.3995622958339461
  0.6673474837944334  0.3329012342281404  0.3997560282201486
  0.6688439975773037  0.4583387871070411  0.4005124824838555
  0.6694713963883452  0.5837245082194139  0.4014604993922094
  0.6664518929205654  0.7067192220589424  0.4020178806288289
  0.6657387780764262  0.8313794314742481  0.4011542463555573
  0.6659024309157514  0.9567761279910618  0.4001474698515549
  0.7910177769682037  0.0821836648895189  0.3997106722831459
  0.7912026683713907  0.2074068700398621  0.3995945333149996
  0.7917064672224376  0.3327923056360217  0.3993815778852300
  0.7926036813346711  0.4582434846369676  0.3994121453445610
  0.7932351544552202  0.5835568720682034  0.3997983081853844
  0.7927410230741163  0.7086989687875374  0.4002109095656388
  0.7914745899225893  0.8326494974009558  0.4001883957659453
  0.7909914899029654  0.9571417189501389  0.3999172905986361
  0.9161157108747376  0.0827488582464367  0.3996868461802322
  0.9159378529154191  0.2075582945901367  0.3995554312433197
  0.9160912026754292  0.3327957044403683  0.3994026768763507
  0.9165890092651496  0.4581964897697912  0.3992710197092182
  0.9172884755812062  0.5836822227049290  0.3992915973991917
  0.9174796474680256  0.7089514074081084  0.3994911525385818
  0.9173174248109521  0.8338515146488292  0.3996645589051085
  0.9166771861795781  0.9583121980610767  0.3997390283975109
  0.0840184478789754  0.0428551849292377  0.3999457825088215
  0.0835289640401011  0.1673392459921478  0.4002034290109103
  0.0822487574977970  0.2912916120835536  0.4002303744685138
  0.0817296500647886  0.4164222550109614  0.3998679285412434
  0.0823739850295027  0.5417664938940057  0.3994799491425349
  0.0832981809393000  0.6672036966007774  0.3994034837650945
  0.0837971517449501  0.7925924275810842  0.3995954261083316
  0.0840217504365425  0.9178225177486394  0.3997147285869559
  0.2091257189170007  0.0432225597153829  0.4001483268563218
  0.2092521246136024  0.1686051184489154  0.4011611587015901
  0.2085268001231644  0.2932569386009766  0.4020285715380648
  0.2055049567187360  0.4162705832821198  0.4015058559060112
  0.2061394523938579  0.5416743020119437  0.4005692677456871
  0.2076450052825645  0.6671128047785175  0.3997924414183527
  0.2083821483049310  0.7924410840504493  0.3995552920262679
  0.2088351609734922  0.9178148161831721  0.3997116189018536
  0.3338531209184062  0.0428567562478268  0.3999174341475497
  0.3343599806241065  0.1686200416959391  0.4011542846785343
  0.3348283534416537  0.2946722102151149  0.4041805113042835
  0.3306650868667828  0.4191669743210823  0.4062330037823788
  0.3296800825192723  0.5418767107703316  0.4034354287945042
  0.3321569270253334  0.6667617557878595  0.4012459021400156
  0.3328703241875636  0.7918683103404430  0.3999790764242769
  0.3333695669474048  0.9172490976520074  0.3996869628594177
  0.4583675189823867  0.0416852846549976  0.3997389929503197
  0.4588279475265293  0.1673481502372093  0.4001892759888777
  0.4597347431274275  0.2932802865814301  0.4020188153317893
  0.4634853551826295  0.4191745147559319  0.4062411713764636
  0.4558828811415503  0.6631405876960688  0.4043988342860040
  0.4573750361334394  0.7902856489230248  0.4010332157371257
  0.4579964981979067  0.9161011332689936  0.3999080342053198
  0.5829627225937750  0.0406540165451945  0.3997331330378626
  0.5834686407347697  0.1661455290933285  0.3996653692800110
  0.5840479024274504  0.2912992942728485  0.4002120231908859
  0.5857480396093645  0.4162742665279943  0.4014613112160637
  0.5871736985462912  0.5418682117328945  0.4034267258836080
  0.5822393132854482  0.6631289035832392  0.4043943609273279
  0.5818849238823135  0.7887856782854543  0.4021416383742683
  0.5824375417207803  0.9149433684709618  0.4003301190750046
  0.7076658477116570  0.0403043605802205  0.3998157685014800
  0.7079402556367900  0.1656633201363279  0.3996134293247811
  0.7085332805285383  0.2910469866073201  0.3994927333037627
  0.7096842933814527  0.4164434335656628  0.3997991875381577
  0.7105080614189554  0.5416618253049897  0.4005122333060159
  0.7095837978905093  0.6667459598921420  0.4012101512395279
  0.7078911385325786  0.7902529147367469  0.4010339834551407
  0.7075040186616500  0.9149225027924442  0.4003109824573677
  0.8327324659661862  0.0406589530131935  0.3997229852220843
  0.8327339951050572  0.1656713169280386  0.3996083103954999
  0.8329952680789676  0.2909673279866158  0.3994579899316676
  0.8336143619406825  0.4163189690194393  0.3992922830944555
  0.8343686417602294  0.5417583383385594  0.3994121450961102
  0.8344516075061906  0.6671015908728142  0.3997543433840653
  0.8339984976956096  0.7918607883931030  0.3999688510256201
  0.8331245999128571  0.9160967438996449  0.3998877639085884
  0.9583527005199401  0.0416876152409478  0.3997447395999461
  0.9577014087618434  0.1661569718880231  0.3996668545248344
  0.9575246404043908  0.2910523403025615  0.3995028902382649
  0.9576909108468893  0.4163158863491586  0.3993358701345218
  0.9583984652439264  0.5418025694464229  0.3992708165814677
  0.9589180464160431  0.6672073951795541  0.3993812625197142
  0.9590643390711866  0.7924449032126382  0.3995604313198449
  0.9589167803983167  0.9172573078616294  0.3996818199367986
  0.4374093831281640  0.4999999910156722  0.4830182176188979
 
  0.00000000E+00  0.00000000E+00  0.00000000E+00
  0.00000000E+00  0.00000000E+00  0.00000000E+00
  0.00000000E+00  0.00000000E+00  0.00000000E+00
  0.00000000E+00  0.00000000E+00  0.00000000E+00
  0.00000000E+00  0.00000000E+00  0.00000000E+00
  0.00000000E+00  0.00000000E+00  0.00000000E+00
  0.00000000E+00  0.00000000E+00  0.00000000E+00
  0.00000000E+00  0.00000000E+00  0.00000000E+00
  0.00000000E+00  0.00000000E+00  0.00000000E+00
  0.00000000E+00  0.00000000E+00  0.00000000E+00
  0.00000000E+00  0.00000000E+00  0.00000000E+00
  0.00000000E+00  0.00000000E+00  0.00000000E+00
  0.00000000E+00  0.00000000E+00  0.00000000E+00
  0.00000000E+00  0.00000000E+00  0.00000000E+00
  0.00000000E+00  0.00000000E+00  0.00000000E+00
  0.00000000E+00  0.00000000E+00  0.00000000E+00
  0.00000000E+00  0.00000000E+00  0.00000000E+00
  0.00000000E+00  0.00000000E+00  0.00000000E+00
  0.00000000E+00  0.00000000E+00  0.00000000E+00
  0.00000000E+00  0.00000000E+00  0.00000000E+00
  0.00000000E+00  0.00000000E+00  0.00000000E+00
  0.00000000E+00  0.00000000E+00  0.00000000E+00
  0.00000000E+00  0.00000000E+00  0.00000000E+00
  0.00000000E+00  0.00000000E+00  0.00000000E+00
  0.00000000E+00  0.00000000E+00  0.00000000E+00
  0.00000000E+00  0.00000000E+00  0.00000000E+00
  0.00000000E+00  0.00000000E+00  0.00000000E+00
  0.00000000E+00  0.00000000E+00  0.00000000E+00
  0.00000000E+00  0.00000000E+00  0.00000000E+00
  0.00000000E+00  0.00000000E+00  0.00000000E+00
  0.00000000E+00  0.00000000E+00  0.00000000E+00
  0.00000000E+00  0.00000000E+00  0.00000000E+00
  0.00000000E+00  0.00000000E+00  0.00000000E+00
  0.00000000E+00  0.00000000E+00  0.00000000E+00
  0.00000000E+00  0.00000000E+00  0.00000000E+00
  0.00000000E+00  0.00000000E+00  0.00000000E+00
  0.00000000E+00  0.00000000E+00  0.00000000E+00
  0.00000000E+00  0.00000000E+00  0.00000000E+00
  0.00000000E+00  0.00000000E+00  0.00000000E+00
  0.00000000E+00  0.00000000E+00  0.00000000E+00
  0.00000000E+00  0.00000000E+00  0.00000000E+00
  0.00000000E+00  0.00000000E+00  0.00000000E+00
  0.00000000E+00  0.00000000E+00  0.00000000E+00
  0.00000000E+00  0.00000000E+00  0.00000000E+00
  0.00000000E+00  0.00000000E+00  0.00000000E+00
  0.00000000E+00  0.00000000E+00  0.00000000E+00
  0.00000000E+00  0.00000000E+00  0.00000000E+00
  0.00000000E+00  0.00000000E+00  0.00000000E+00
  0.00000000E+00  0.00000000E+00  0.00000000E+00
  0.00000000E+00  0.00000000E+00  0.00000000E+00
  0.00000000E+00  0.00000000E+00  0.00000000E+00
  0.00000000E+00  0.00000000E+00  0.00000000E+00
  0.00000000E+00  0.00000000E+00  0.00000000E+00
  0.00000000E+00  0.00000000E+00  0.00000000E+00
  0.00000000E+00  0.00000000E+00  0.00000000E+00
  0.00000000E+00  0.00000000E+00  0.00000000E+00
  0.00000000E+00  0.00000000E+00  0.00000000E+00
  0.00000000E+00  0.00000000E+00  0.00000000E+00
  0.00000000E+00  0.00000000E+00  0.00000000E+00
  0.00000000E+00  0.00000000E+00  0.00000000E+00
  0.00000000E+00  0.00000000E+00  0.00000000E+00
  0.00000000E+00  0.00000000E+00  0.00000000E+00
  0.00000000E+00  0.00000000E+00  0.00000000E+00
  0.00000000E+00  0.00000000E+00  0.00000000E+00
  0.00000000E+00  0.00000000E+00  0.00000000E+00
  0.00000000E+00  0.00000000E+00  0.00000000E+00
  0.00000000E+00  0.00000000E+00  0.00000000E+00
  0.00000000E+00  0.00000000E+00  0.00000000E+00
  0.00000000E+00  0.00000000E+00  0.00000000E+00
  0.00000000E+00  0.00000000E+00  0.00000000E+00
  0.00000000E+00  0.00000000E+00  0.00000000E+00
  0.00000000E+00  0.00000000E+00  0.00000000E+00
  0.00000000E+00  0.00000000E+00  0.00000000E+00
  0.00000000E+00  0.00000000E+00  0.00000000E+00
  0.00000000E+00  0.00000000E+00  0.00000000E+00
  0.00000000E+00  0.00000000E+00  0.00000000E+00
  0.00000000E+00  0.00000000E+00  0.00000000E+00
  0.00000000E+00  0.00000000E+00  0.00000000E+00
  0.00000000E+00  0.00000000E+00  0.00000000E+00
  0.00000000E+00  0.00000000E+00  0.00000000E+00
  0.00000000E+00  0.00000000E+00  0.00000000E+00
  0.00000000E+00  0.00000000E+00  0.00000000E+00
  0.00000000E+00  0.00000000E+00  0.00000000E+00
  0.00000000E+00  0.00000000E+00  0.00000000E+00
  0.00000000E+00  0.00000000E+00  0.00000000E+00
  0.00000000E+00  0.00000000E+00  0.00000000E+00
  0.00000000E+00  0.00000000E+00  0.00000000E+00
  0.00000000E+00  0.00000000E+00  0.00000000E+00
  0.00000000E+00  0.00000000E+00  0.00000000E+00
  0.00000000E+00  0.00000000E+00  0.00000000E+00
  0.00000000E+00  0.00000000E+00  0.00000000E+00
  0.00000000E+00  0.00000000E+00  0.00000000E+00
  0.00000000E+00  0.00000000E+00  0.00000000E+00
  0.00000000E+00  0.00000000E+00  0.00000000E+00
  0.00000000E+00  0.00000000E+00  0.00000000E+00
  0.00000000E+00  0.00000000E+00  0.00000000E+00
  0.00000000E+00  0.00000000E+00  0.00000000E+00
  0.00000000E+00  0.00000000E+00  0.00000000E+00
  0.00000000E+00  0.00000000E+00  0.00000000E+00
  0.00000000E+00  0.00000000E+00  0.00000000E+00
  0.00000000E+00  0.00000000E+00  0.00000000E+00
  0.00000000E+00  0.00000000E+00  0.00000000E+00
  0.00000000E+00  0.00000000E+00  0.00000000E+00
  0.00000000E+00  0.00000000E+00  0.00000000E+00
  0.00000000E+00  0.00000000E+00  0.00000000E+00
  0.00000000E+00  0.00000000E+00  0.00000000E+00
  0.00000000E+00  0.00000000E+00  0.00000000E+00
  0.00000000E+00  0.00000000E+00  0.00000000E+00
  0.00000000E+00  0.00000000E+00  0.00000000E+00
  0.00000000E+00  0.00000000E+00  0.00000000E+00
  0.00000000E+00  0.00000000E+00  0.00000000E+00
  0.00000000E+00  0.00000000E+00  0.00000000E+00
  0.00000000E+00  0.00000000E+00  0.00000000E+00
  0.00000000E+00  0.00000000E+00  0.00000000E+00
  0.00000000E+00  0.00000000E+00  0.00000000E+00
  0.00000000E+00  0.00000000E+00  0.00000000E+00
  0.00000000E+00  0.00000000E+00  0.00000000E+00
  0.00000000E+00  0.00000000E+00  0.00000000E+00
  0.00000000E+00  0.00000000E+00  0.00000000E+00
  0.00000000E+00  0.00000000E+00  0.00000000E+00
  0.00000000E+00  0.00000000E+00  0.00000000E+00
  0.00000000E+00  0.00000000E+00  0.00000000E+00
  0.00000000E+00  0.00000000E+00  0.00000000E+00
  0.00000000E+00  0.00000000E+00  0.00000000E+00
  0.00000000E+00  0.00000000E+00  0.00000000E+00
  0.00000000E+00  0.00000000E+00  0.00000000E+00
  0.00000000E+00  0.00000000E+00  0.00000000E+00
  0.00000000E+00  0.00000000E+00  0.00000000E+00
