Cd1 C122 N4 O1                          
   1.00000000000000     
    19.8057177276727074    0.0001902717546031   -0.0025044408363823
    -9.9026943033817165   17.0289518213683770   -0.0031653727694956
    -0.0037975863527745   -0.0077655384987082   29.8346654774280466
   Cd   C    N    O 
     1   122     4     1
Direct
  0.4376421792662903  0.4999120056579103  0.4466548674253309
  0.0419741361825047  0.0841132700686267  0.3998462311201039
  0.0409042091786572  0.2081366540211720  0.3995689157079438
  0.0402334648320223  0.3328416413614014  0.3991798565927019
  0.0404426230407585  0.4582060353170132  0.3993412801803078
  0.0412877011284253  0.5837476564478877  0.3998862881232122
  0.0421233924865812  0.7092282375172519  0.4000760814072745
  0.0425356757377659  0.8346318094844530  0.4000448009525661
  0.0426353238809906  0.9597908725041586  0.3999564607754377
  0.1682551307426284  0.0860811336031803  0.4001820671976900
  0.1672063859576066  0.2101365640653664  0.3999222167922553
  0.1650625659984280  0.3336169283364676  0.3990763385154134
  0.1642303170556182  0.4584067062505978  0.3978645455731486
  0.1651223974210538  0.5835905574449501  0.3987684947009610
  0.1663429050884339  0.7090815127722567  0.3997558161044576
  0.1671016851031450  0.8346286578534499  0.4000466524701051
  0.1676576484434852  0.9602926004390570  0.4000920092821217
  0.2928100489321800  0.0860663309637542  0.4001590910836350
  0.2944387127088096  0.2138828140557581  0.4011394532057325
  0.2920150242996341  0.3388855292338706  0.4024044272263092
  0.2879944616006235  0.4571331851862463  0.4004997426911097
  0.2886478343735740  0.5831664474738754  0.3983775102732259
  0.2904688214282828  0.7085919509804370  0.3992451418013274
  0.2915484654242614  0.8340368125346452  0.3997905981986818
  0.2921776119813886  0.9597838471107830  0.3999395663826992
  0.4171467443804768  0.0840887130189513  0.3998510126336448
  0.4179152882604563  0.2100884832545445  0.3999971711059457
  0.4219379673482616  0.3388749312055518  0.4019371384532849
  0.4144665093105422  0.7064238192770654  0.3999025160027100
  0.4159787315676941  0.8324321484755612  0.3997768970405632
  0.4166177394610768  0.9582737033587558  0.3998769756315914
  0.5415761904422879  0.0824424890062670  0.3998851158618220
  0.5422417228472806  0.2081343436907053  0.3996278457839028
  0.5435522081091579  0.3335952542807180  0.3990966975793311
  0.5440044555789284  0.4570728519180405  0.3996769925124863
  0.5382365145998321  0.7014677452032325  0.4017096371532415
  0.5402027302341558  0.8299399735411871  0.4004612315751238
  0.5410274323877572  0.9564817819303798  0.4000109055544312
  0.6660437405572366  0.0817245394973848  0.4000407638366323
  0.6666152279945503  0.2073224342499926  0.3998886195230791
  0.6676024214384055  0.3328448905090302  0.3992519462887814
  0.6691378377414725  0.4583969461063692  0.3980591724607834
  0.6694533677220389  0.5831529991853318  0.3983129300438463
  0.6669469752681187  0.7064142354225733  0.3998358473083723
  0.6647429289677248  0.8299474190886506  0.4004590671258226
  0.6655026853839958  0.9559864245895165  0.4002053050665468
  0.7907118951002089  0.0817253188207617  0.4000368274869686
  0.7910610139538221  0.2071217065843037  0.4000991670268322
  0.7917631297730162  0.3326563100916961  0.3999357613205813
  0.7927221382409814  0.4582126858870904  0.3993887144282170
  0.7934062141778471  0.5835659998422452  0.3989241930716231
  0.7931136963235064  0.7085783699680750  0.3993447829165402
  0.7914636443402319  0.8324310361384403  0.3998421084374797
  0.7904627139187280  0.9564849150397312  0.4000037498519887
  0.9159010822845718  0.0824524489868600  0.3998642796720555
  0.9157107810237272  0.2073233184226904  0.3998919192870242
  0.9159003984219125  0.3326544438083174  0.3999541944483214
  0.9165646162167943  0.4581566047291631  0.4000346723886177
  0.9174144454148837  0.5837404943795556  0.3998789927845388
  0.9177351428594070  0.7090764612457809  0.3997673643496221
  0.9174947421235565  0.8340302046588540  0.3998251900297062
  0.9166922864843176  0.9582799413228916  0.3998913508207197
  0.0845398598948243  0.0434996227825458  0.3999705535389800
  0.0835746552875458  0.1675845521046491  0.3996857420400028
  0.0819286429220673  0.2914329993667236  0.3991788759944450
  0.0815714814663960  0.4164237327329436  0.3986917176961778
  0.0822267328637821  0.5417913127288742  0.3993503785329500
  0.0832401874304936  0.6673363323979580  0.3999502012365881
  0.0839350190593129  0.7928641402937305  0.4000926532955852
  0.0843133436227614  0.9182541619280553  0.4000444131318892
  0.2094958085061097  0.0439861871348555  0.4001830689732271
  0.2102685021417613  0.1700425227282919  0.4004629984178085
  0.2081203864392475  0.2936320920354462  0.3999744634622898
  0.2055976149914849  0.4169035181910456  0.3982774410108038
  0.2058210047763173  0.5416339706946764  0.3979755957978749
  0.2073871232719897  0.6671712330703088  0.3992400041074940
  0.2083766495808939  0.7926710174721079  0.3998938017370418
  0.2089720568054500  0.9182559769265007  0.4000396739822962
  0.3339589048893827  0.0434908308030729  0.3999428229572670
  0.3347593866064534  0.1700175880768376  0.4004540348033904
  0.3367766384362462  0.2985209785147954  0.4024853291730225
  0.3309661053129444  0.5430493638786199  0.4001744911124572
  0.3314355036562798  0.6664224740795519  0.3991064916536455
  0.3327543813542879  0.7918735401985337  0.3996198513581405
  0.3334383704274416  0.9175406945504564  0.3998662700715981
  0.4583941696731214  0.0417072795604861  0.3998731136000164
  0.4590178297332675  0.1675553701795893  0.3997453405228632
  0.4605232273172407  0.2935705229739790  0.3999519263104820
  0.4530760480681716  0.6611166511937008  0.4015791956403001
  0.4570565257915312  0.7898890010720060  0.3999943515075938
  0.4578513954280337  0.9158862667413700  0.3998947582822875
  0.5828325237022660  0.0401896749717234  0.3999678321473136
  0.5834476920196631  0.1659544424783974  0.3998006113508661
  0.5845232960869534  0.2914217301127260  0.3992691450840806
  0.5862837597002108  0.4168731404470868  0.3982669741656015
  0.5869511220670762  0.5430477135952029  0.3993595520458818
  0.5830307768444600  0.6610672520863531  0.4011453173633565
  0.5805297682116051  0.7860585090364823  0.4009258159593775
  0.5821605754283068  0.9138909155968501  0.4002240631153320
  0.7073559215314729  0.0396771401585003  0.4000884313110072
  0.7078884666981907  0.1653495123190065  0.4000493021589959
  0.7086476596387103  0.2909184691089965  0.3997372083766282
  0.7098306029822662  0.4164345267722857  0.3988396445614372
  0.7107602007344567  0.5416223861314867  0.3981517051025238
  0.7099634823455577  0.6664047949453502  0.3991003078759670
  0.7078302238521982  0.7898850516875385  0.4000513398816646
  0.7067408916135887  0.9138942885384136  0.4002218081002370
  0.8323935922727980  0.0401960269337288  0.3999540728081828
  0.8324765711150000  0.1653583123124618  0.4000454817773512
  0.8328918208184213  0.2907611127840605  0.4000859554787192
  0.8336663727677328  0.4162488774799946  0.3998777869606879
  0.8345125420099903  0.5417814335592436  0.3994066105148018
  0.8347679057471485  0.6671575465019440  0.3993375128204443
  0.8341191378634252  0.7918574944176204  0.3996951466949407
  0.8330608518278768  0.9158905246075886  0.3999141304923129
  0.9583575901417702  0.0417196745941004  0.3998687224303583
  0.9575284001118815  0.1659598601555098  0.3997760316990560
  0.9572789528471697  0.2909206858229094  0.3997403778368684
  0.9575482081577557  0.4162433797550799  0.3998938969444751
  0.9584010475241439  0.5418289129851407  0.4000299158713927
  0.9591089819515206  0.6673339063160746  0.3999373708765401
  0.9592966841197107  0.7926633917390069  0.3998946067718303
  0.9591349117475715  0.9175418869994776  0.3998897399498114
  0.4094429639702223  0.5816429060732398  0.4030174661639068
  0.5470367102036374  0.5816234881294702  0.4017156656417020
  0.3277511613695724  0.4184317363998202  0.4045929007573892
  0.4655238345132876  0.4183881032966595  0.4031120801654613
  0.4650531571554483  0.5275611093179400  0.5124643981484256
 
  0.00000000E+00  0.00000000E+00  0.00000000E+00
  0.00000000E+00  0.00000000E+00  0.00000000E+00
  0.00000000E+00  0.00000000E+00  0.00000000E+00
  0.00000000E+00  0.00000000E+00  0.00000000E+00
  0.00000000E+00  0.00000000E+00  0.00000000E+00
  0.00000000E+00  0.00000000E+00  0.00000000E+00
  0.00000000E+00  0.00000000E+00  0.00000000E+00
  0.00000000E+00  0.00000000E+00  0.00000000E+00
  0.00000000E+00  0.00000000E+00  0.00000000E+00
  0.00000000E+00  0.00000000E+00  0.00000000E+00
  0.00000000E+00  0.00000000E+00  0.00000000E+00
  0.00000000E+00  0.00000000E+00  0.00000000E+00
  0.00000000E+00  0.00000000E+00  0.00000000E+00
  0.00000000E+00  0.00000000E+00  0.00000000E+00
  0.00000000E+00  0.00000000E+00  0.00000000E+00
  0.00000000E+00  0.00000000E+00  0.00000000E+00
  0.00000000E+00  0.00000000E+00  0.00000000E+00
  0.00000000E+00  0.00000000E+00  0.00000000E+00
  0.00000000E+00  0.00000000E+00  0.00000000E+00
  0.00000000E+00  0.00000000E+00  0.00000000E+00
  0.00000000E+00  0.00000000E+00  0.00000000E+00
  0.00000000E+00  0.00000000E+00  0.00000000E+00
  0.00000000E+00  0.00000000E+00  0.00000000E+00
  0.00000000E+00  0.00000000E+00  0.00000000E+00
  0.00000000E+00  0.00000000E+00  0.00000000E+00
  0.00000000E+00  0.00000000E+00  0.00000000E+00
  0.00000000E+00  0.00000000E+00  0.00000000E+00
  0.00000000E+00  0.00000000E+00  0.00000000E+00
  0.00000000E+00  0.00000000E+00  0.00000000E+00
  0.00000000E+00  0.00000000E+00  0.00000000E+00
  0.00000000E+00  0.00000000E+00  0.00000000E+00
  0.00000000E+00  0.00000000E+00  0.00000000E+00
  0.00000000E+00  0.00000000E+00  0.00000000E+00
  0.00000000E+00  0.00000000E+00  0.00000000E+00
  0.00000000E+00  0.00000000E+00  0.00000000E+00
  0.00000000E+00  0.00000000E+00  0.00000000E+00
  0.00000000E+00  0.00000000E+00  0.00000000E+00
  0.00000000E+00  0.00000000E+00  0.00000000E+00
  0.00000000E+00  0.00000000E+00  0.00000000E+00
  0.00000000E+00  0.00000000E+00  0.00000000E+00
  0.00000000E+00  0.00000000E+00  0.00000000E+00
  0.00000000E+00  0.00000000E+00  0.00000000E+00
  0.00000000E+00  0.00000000E+00  0.00000000E+00
  0.00000000E+00  0.00000000E+00  0.00000000E+00
  0.00000000E+00  0.00000000E+00  0.00000000E+00
  0.00000000E+00  0.00000000E+00  0.00000000E+00
  0.00000000E+00  0.00000000E+00  0.00000000E+00
  0.00000000E+00  0.00000000E+00  0.00000000E+00
  0.00000000E+00  0.00000000E+00  0.00000000E+00
  0.00000000E+00  0.00000000E+00  0.00000000E+00
  0.00000000E+00  0.00000000E+00  0.00000000E+00
  0.00000000E+00  0.00000000E+00  0.00000000E+00
  0.00000000E+00  0.00000000E+00  0.00000000E+00
  0.00000000E+00  0.00000000E+00  0.00000000E+00
  0.00000000E+00  0.00000000E+00  0.00000000E+00
  0.00000000E+00  0.00000000E+00  0.00000000E+00
  0.00000000E+00  0.00000000E+00  0.00000000E+00
  0.00000000E+00  0.00000000E+00  0.00000000E+00
  0.00000000E+00  0.00000000E+00  0.00000000E+00
  0.00000000E+00  0.00000000E+00  0.00000000E+00
  0.00000000E+00  0.00000000E+00  0.00000000E+00
  0.00000000E+00  0.00000000E+00  0.00000000E+00
  0.00000000E+00  0.00000000E+00  0.00000000E+00
  0.00000000E+00  0.00000000E+00  0.00000000E+00
  0.00000000E+00  0.00000000E+00  0.00000000E+00
  0.00000000E+00  0.00000000E+00  0.00000000E+00
  0.00000000E+00  0.00000000E+00  0.00000000E+00
  0.00000000E+00  0.00000000E+00  0.00000000E+00
  0.00000000E+00  0.00000000E+00  0.00000000E+00
  0.00000000E+00  0.00000000E+00  0.00000000E+00
  0.00000000E+00  0.00000000E+00  0.00000000E+00
  0.00000000E+00  0.00000000E+00  0.00000000E+00
  0.00000000E+00  0.00000000E+00  0.00000000E+00
  0.00000000E+00  0.00000000E+00  0.00000000E+00
  0.00000000E+00  0.00000000E+00  0.00000000E+00
  0.00000000E+00  0.00000000E+00  0.00000000E+00
  0.00000000E+00  0.00000000E+00  0.00000000E+00
  0.00000000E+00  0.00000000E+00  0.00000000E+00
  0.00000000E+00  0.00000000E+00  0.00000000E+00
  0.00000000E+00  0.00000000E+00  0.00000000E+00
  0.00000000E+00  0.00000000E+00  0.00000000E+00
  0.00000000E+00  0.00000000E+00  0.00000000E+00
  0.00000000E+00  0.00000000E+00  0.00000000E+00
  0.00000000E+00  0.00000000E+00  0.00000000E+00
  0.00000000E+00  0.00000000E+00  0.00000000E+00
  0.00000000E+00  0.00000000E+00  0.00000000E+00
  0.00000000E+00  0.00000000E+00  0.00000000E+00
  0.00000000E+00  0.00000000E+00  0.00000000E+00
  0.00000000E+00  0.00000000E+00  0.00000000E+00
  0.00000000E+00  0.00000000E+00  0.00000000E+00
  0.00000000E+00  0.00000000E+00  0.00000000E+00
  0.00000000E+00  0.00000000E+00  0.00000000E+00
  0.00000000E+00  0.00000000E+00  0.00000000E+00
  0.00000000E+00  0.00000000E+00  0.00000000E+00
  0.00000000E+00  0.00000000E+00  0.00000000E+00
  0.00000000E+00  0.00000000E+00  0.00000000E+00
  0.00000000E+00  0.00000000E+00  0.00000000E+00
  0.00000000E+00  0.00000000E+00  0.00000000E+00
  0.00000000E+00  0.00000000E+00  0.00000000E+00
  0.00000000E+00  0.00000000E+00  0.00000000E+00
  0.00000000E+00  0.00000000E+00  0.00000000E+00
  0.00000000E+00  0.00000000E+00  0.00000000E+00
  0.00000000E+00  0.00000000E+00  0.00000000E+00
  0.00000000E+00  0.00000000E+00  0.00000000E+00
  0.00000000E+00  0.00000000E+00  0.00000000E+00
  0.00000000E+00  0.00000000E+00  0.00000000E+00
  0.00000000E+00  0.00000000E+00  0.00000000E+00
  0.00000000E+00  0.00000000E+00  0.00000000E+00
  0.00000000E+00  0.00000000E+00  0.00000000E+00
  0.00000000E+00  0.00000000E+00  0.00000000E+00
  0.00000000E+00  0.00000000E+00  0.00000000E+00
  0.00000000E+00  0.00000000E+00  0.00000000E+00
  0.00000000E+00  0.00000000E+00  0.00000000E+00
  0.00000000E+00  0.00000000E+00  0.00000000E+00
  0.00000000E+00  0.00000000E+00  0.00000000E+00
  0.00000000E+00  0.00000000E+00  0.00000000E+00
  0.00000000E+00  0.00000000E+00  0.00000000E+00
  0.00000000E+00  0.00000000E+00  0.00000000E+00
  0.00000000E+00  0.00000000E+00  0.00000000E+00
  0.00000000E+00  0.00000000E+00  0.00000000E+00
  0.00000000E+00  0.00000000E+00  0.00000000E+00
  0.00000000E+00  0.00000000E+00  0.00000000E+00
  0.00000000E+00  0.00000000E+00  0.00000000E+00
  0.00000000E+00  0.00000000E+00  0.00000000E+00
  0.00000000E+00  0.00000000E+00  0.00000000E+00
  0.00000000E+00  0.00000000E+00  0.00000000E+00
  0.00000000E+00  0.00000000E+00  0.00000000E+00
  0.00000000E+00  0.00000000E+00  0.00000000E+00
