Ti1 H1 C122 N4                          
   1.00000000000000     
    19.7922669007719030   -0.0002992362457759   -0.1512440949028551
    -9.8964269663866933   17.0309493144481188    0.0197489989308134
    -0.2278227521755517   -0.0978356771641915   29.8539284201687529
   Ti   H    C    N 
     1     1   122     4
Direct
  0.4327921712089078  0.5006773928561541  0.4277901550258905
  0.4274430366661963  0.5031451049980751  0.4861960775507048
  0.0421624944133461  0.0840035707863900  0.3994640538622382
  0.0413775023826910  0.2082930782141691  0.3996272307978648
  0.0407449020674186  0.3330941041779317  0.4000437920246940
  0.0408203297384378  0.4582839973535370  0.3999955105363261
  0.0415864609421266  0.5837393379760402  0.3997676059832637
  0.0422524484805407  0.7091450010687820  0.3995493306699347
  0.0424452295030385  0.8343146131907356  0.3994875788718689
  0.0425609058011571  0.9594510468894405  0.3994682827495601
  0.1682001141240672  0.0855828506235315  0.3997314913757436
  0.1676105912697501  0.2100052518173507  0.3997028452060372
  0.1656571930071003  0.3338424364353537  0.4001153579508273
  0.1648053837391218  0.4585128028778766  0.4006075549709453
  0.1655918008052250  0.5836954417769239  0.4001942132606042
  0.1666246748637002  0.7089643672888316  0.3999443835820645
  0.1672437152896665  0.8343680072178380  0.3996725899205060
  0.1676489031063708  0.9599009862677915  0.3996155666515999
  0.2927901876373830  0.0856964876402248  0.4000973917361300
  0.2942266478256594  0.2129270623955171  0.4009702780005058
  0.2924159401909489  0.3375795030189030  0.4011516763037408
  0.2887529497165651  0.4581658374873403  0.4010568020004843
  0.2891996042368136  0.5830605129167205  0.4005828466277461
  0.2909935114064386  0.7083329069835090  0.3997832570383538
  0.2919176246674373  0.8339129368227668  0.3997279196094099
  0.2923587805724512  0.9596506382298132  0.3996963073080007
  0.4173341606433634  0.0844158641566786  0.3997996570216354
  0.4178963263730123  0.2107194200359578  0.4006145980693462
  0.4212909987271503  0.3393552680584165  0.4038256549378443
  0.4153371696537880  0.7065425242368035  0.3993953635790688
  0.4164264994184637  0.8325525693600275  0.3994751410925247
  0.4169088760616421  0.9584506902657691  0.3995703150545113
  0.5418299377351742  0.0828676920543928  0.3995981042828665
  0.5422916133210099  0.2085263303638335  0.4000027445205249
  0.5436138982870378  0.3339977537235845  0.4008179716949876
  0.5455269833816991  0.4584465964756029  0.4030784800482032
  0.5389307420500402  0.7022915517414622  0.4018142120550606
  0.5408205433051164  0.8305517951346045  0.3998124323771317
  0.5414435382836366  0.9569565608972137  0.3995560249761450
  0.6663844290107154  0.0821888960899330  0.3995073710835209
  0.6668447861028186  0.2076919352492378  0.3995542864581837
  0.6677452183176565  0.3331887129274598  0.3995977582311145
  0.6691945350974770  0.4585926343515633  0.3993738526395985
  0.6691819698826730  0.5829218040187457  0.4004026518120196
  0.6659094827471184  0.7056965513399701  0.4012307399057987
  0.6649870691365878  0.8304172638738050  0.4004658655120863
  0.6659316986118721  0.9564994863998523  0.3998990001499613
  0.7911126445860953  0.0820965261049936  0.3997106111692027
  0.7914338927729999  0.2075095738153842  0.3995008776888009
  0.7919486547699501  0.3328867386916559  0.3993617193578747
  0.7928288233388874  0.4582990706541593  0.3991808093873848
  0.7934672951214369  0.5836431975255124  0.3992311261993484
  0.7925748834869895  0.7082144263194027  0.4000085370167439
  0.7910676064017397  0.8320527408233822  0.4000400551152651
  0.7907444964625873  0.9567525804682665  0.3999102693794588
  0.9162761989996625  0.0826349660044941  0.3996349358170662
  0.9161207963077905  0.2075997853758940  0.3997655965648784
  0.9162594400120685  0.3328571285959930  0.3996952277033970
  0.9168466893024697  0.4583165971561962  0.3994580494635956
  0.9175345004490297  0.5837478752207348  0.3993271746910199
  0.9176111016835966  0.7088718234427309  0.3995148764705540
  0.9172613513961630  0.8337568629907409  0.3997205984547235
  0.9166216614998504  0.9580836513424966  0.3996290134325123
  0.0845547806896316  0.0431609706576788  0.3994729977565025
  0.0839464108207363  0.1675762974926531  0.3995211394322831
  0.0827256122134665  0.2917851921381009  0.3998973368308703
  0.0819525049254905  0.4164229548239948  0.4002144360298765
  0.0825952532161878  0.5418317734392183  0.4000175358435401
  0.0834766838897431  0.6672704572338217  0.3997848880247129
  0.0840073173511939  0.7926154109650601  0.3995352265872278
  0.0842685808283698  0.9179322094466369  0.3994790275917890
  0.2095032953883013  0.0436222057249098  0.3998403701469158
  0.2103572498179795  0.1695798024976981  0.4000405929713070
  0.2088966823839328  0.2935929159124102  0.3998436032857627
  0.2062148962382523  0.4170746470764954  0.4008207391624534
  0.2063659754380808  0.5416180788710904  0.4005487186202402
  0.2077102817456424  0.6670172700073609  0.4000387789920981
  0.2085919291997920  0.7925110222664986  0.3998259280803279
  0.2090811377301968  0.9180280795861935  0.3996578070748241
  0.3340650865243062  0.0433732884779121  0.3998337045415324
  0.3346614926316793  0.1697436869938094  0.4006533776181065
  0.3367693411085952  0.2979162731495606  0.4023344629612465
  0.3306535500482465  0.5419753231320704  0.4008582721911803
  0.3318583734926286  0.6662698670871302  0.3997962679206886
  0.3331495861814575  0.7918257913701707  0.3996225742047437
  0.3336996988283698  0.9174772540036930  0.3996446229333331
  0.4586082823272804  0.0420546501422684  0.3996197064192712
  0.4590908802607025  0.1681050843762007  0.4000753220397006
  0.4603053826824022  0.2945050376031541  0.4015388748080260
  0.4549036512636810  0.6626027707652884  0.4006193164909883
  0.4576494746755013  0.7901207804405185  0.3994241527770971
  0.4582203759170586  0.9161210963471235  0.3995306552053194
  0.5831681679167979  0.0406670720930318  0.3995316278522879
  0.5835604095039804  0.1663641443381327  0.3997078641564111
  0.5844318950811430  0.2919263484935629  0.4000918119977919
  0.5863346552059275  0.4172344777096609  0.4005506981470066
  0.5871977938827754  0.5417909771138799  0.4029480535291066
  0.5820667114413147  0.6609205284274476  0.4034054994857763
  0.5813605616171305  0.7872416205752593  0.4006091936888463
  0.5826637842175676  0.9145379047635767  0.3997359264549155
  0.7077989662331091  0.0402203469204535  0.3996790831792782
  0.7081834473718069  0.1658140458529723  0.3994636212605902
  0.7088036666418800  0.2912549032803367  0.3994837020461697
  0.7098883229487536  0.4164780281935400  0.3992578430939517
  0.7106705452445474  0.5415231567715295  0.3993293529106812
  0.7097017170722051  0.6661689811588578  0.4006158001744088
  0.7072645687713300  0.7894552217404044  0.4004190791934524
  0.7071506569330761  0.9144393312925769  0.4001022157201599
  0.8327678498801258  0.0404712437881758  0.3997512698398985
  0.8329219667092980  0.1657630849641592  0.3996611614823761
  0.8331609892963080  0.2909869242687856  0.3994769162066386
  0.8338516938478390  0.4163860332387557  0.3992991178679408
  0.8346135389021961  0.5418324888948045  0.3991822830418272
  0.8346347987257428  0.6669458756482733  0.3995726931689844
  0.8338393298622813  0.7916112596159415  0.3999793045594825
  0.8329891234192284  0.9157288346012118  0.3998547959276677
  0.9585346554967924  0.0416845542186296  0.3995366572373026
  0.9580548007579467  0.1662081595054529  0.3996649595401997
  0.9577092270952174  0.2911554961617329  0.3998674150811809
  0.9578991812132150  0.4163822970173501  0.3997065468741019
  0.9586023274615121  0.5418152605557923  0.3994852940137167
  0.9591430682251894  0.6672383889213545  0.3994094247159272
  0.9592328031755283  0.7924312561392296  0.3995926385327448
  0.9590272824548168  0.9172528986341123  0.3995797686861048
  0.4118012948644526  0.5820158349242973  0.4021016345643392
  0.5449272327299155  0.5799096562495819  0.4070449252740899
  0.3299052910102181  0.4181967347655798  0.4025490110476719
  0.4652092905680280  0.4204717145343098  0.4073455698760312
 
  0.00000000E+00  0.00000000E+00  0.00000000E+00
  0.00000000E+00  0.00000000E+00  0.00000000E+00
  0.00000000E+00  0.00000000E+00  0.00000000E+00
  0.00000000E+00  0.00000000E+00  0.00000000E+00
  0.00000000E+00  0.00000000E+00  0.00000000E+00
  0.00000000E+00  0.00000000E+00  0.00000000E+00
  0.00000000E+00  0.00000000E+00  0.00000000E+00
  0.00000000E+00  0.00000000E+00  0.00000000E+00
  0.00000000E+00  0.00000000E+00  0.00000000E+00
  0.00000000E+00  0.00000000E+00  0.00000000E+00
  0.00000000E+00  0.00000000E+00  0.00000000E+00
  0.00000000E+00  0.00000000E+00  0.00000000E+00
  0.00000000E+00  0.00000000E+00  0.00000000E+00
  0.00000000E+00  0.00000000E+00  0.00000000E+00
  0.00000000E+00  0.00000000E+00  0.00000000E+00
  0.00000000E+00  0.00000000E+00  0.00000000E+00
  0.00000000E+00  0.00000000E+00  0.00000000E+00
  0.00000000E+00  0.00000000E+00  0.00000000E+00
  0.00000000E+00  0.00000000E+00  0.00000000E+00
  0.00000000E+00  0.00000000E+00  0.00000000E+00
  0.00000000E+00  0.00000000E+00  0.00000000E+00
  0.00000000E+00  0.00000000E+00  0.00000000E+00
  0.00000000E+00  0.00000000E+00  0.00000000E+00
  0.00000000E+00  0.00000000E+00  0.00000000E+00
  0.00000000E+00  0.00000000E+00  0.00000000E+00
  0.00000000E+00  0.00000000E+00  0.00000000E+00
  0.00000000E+00  0.00000000E+00  0.00000000E+00
  0.00000000E+00  0.00000000E+00  0.00000000E+00
  0.00000000E+00  0.00000000E+00  0.00000000E+00
  0.00000000E+00  0.00000000E+00  0.00000000E+00
  0.00000000E+00  0.00000000E+00  0.00000000E+00
  0.00000000E+00  0.00000000E+00  0.00000000E+00
  0.00000000E+00  0.00000000E+00  0.00000000E+00
  0.00000000E+00  0.00000000E+00  0.00000000E+00
  0.00000000E+00  0.00000000E+00  0.00000000E+00
  0.00000000E+00  0.00000000E+00  0.00000000E+00
  0.00000000E+00  0.00000000E+00  0.00000000E+00
  0.00000000E+00  0.00000000E+00  0.00000000E+00
  0.00000000E+00  0.00000000E+00  0.00000000E+00
  0.00000000E+00  0.00000000E+00  0.00000000E+00
  0.00000000E+00  0.00000000E+00  0.00000000E+00
  0.00000000E+00  0.00000000E+00  0.00000000E+00
  0.00000000E+00  0.00000000E+00  0.00000000E+00
  0.00000000E+00  0.00000000E+00  0.00000000E+00
  0.00000000E+00  0.00000000E+00  0.00000000E+00
  0.00000000E+00  0.00000000E+00  0.00000000E+00
  0.00000000E+00  0.00000000E+00  0.00000000E+00
  0.00000000E+00  0.00000000E+00  0.00000000E+00
  0.00000000E+00  0.00000000E+00  0.00000000E+00
  0.00000000E+00  0.00000000E+00  0.00000000E+00
  0.00000000E+00  0.00000000E+00  0.00000000E+00
  0.00000000E+00  0.00000000E+00  0.00000000E+00
  0.00000000E+00  0.00000000E+00  0.00000000E+00
  0.00000000E+00  0.00000000E+00  0.00000000E+00
  0.00000000E+00  0.00000000E+00  0.00000000E+00
  0.00000000E+00  0.00000000E+00  0.00000000E+00
  0.00000000E+00  0.00000000E+00  0.00000000E+00
  0.00000000E+00  0.00000000E+00  0.00000000E+00
  0.00000000E+00  0.00000000E+00  0.00000000E+00
  0.00000000E+00  0.00000000E+00  0.00000000E+00
  0.00000000E+00  0.00000000E+00  0.00000000E+00
  0.00000000E+00  0.00000000E+00  0.00000000E+00
  0.00000000E+00  0.00000000E+00  0.00000000E+00
  0.00000000E+00  0.00000000E+00  0.00000000E+00
  0.00000000E+00  0.00000000E+00  0.00000000E+00
  0.00000000E+00  0.00000000E+00  0.00000000E+00
  0.00000000E+00  0.00000000E+00  0.00000000E+00
  0.00000000E+00  0.00000000E+00  0.00000000E+00
  0.00000000E+00  0.00000000E+00  0.00000000E+00
  0.00000000E+00  0.00000000E+00  0.00000000E+00
  0.00000000E+00  0.00000000E+00  0.00000000E+00
  0.00000000E+00  0.00000000E+00  0.00000000E+00
  0.00000000E+00  0.00000000E+00  0.00000000E+00
  0.00000000E+00  0.00000000E+00  0.00000000E+00
  0.00000000E+00  0.00000000E+00  0.00000000E+00
  0.00000000E+00  0.00000000E+00  0.00000000E+00
  0.00000000E+00  0.00000000E+00  0.00000000E+00
  0.00000000E+00  0.00000000E+00  0.00000000E+00
  0.00000000E+00  0.00000000E+00  0.00000000E+00
  0.00000000E+00  0.00000000E+00  0.00000000E+00
  0.00000000E+00  0.00000000E+00  0.00000000E+00
  0.00000000E+00  0.00000000E+00  0.00000000E+00
  0.00000000E+00  0.00000000E+00  0.00000000E+00
  0.00000000E+00  0.00000000E+00  0.00000000E+00
  0.00000000E+00  0.00000000E+00  0.00000000E+00
  0.00000000E+00  0.00000000E+00  0.00000000E+00
  0.00000000E+00  0.00000000E+00  0.00000000E+00
  0.00000000E+00  0.00000000E+00  0.00000000E+00
  0.00000000E+00  0.00000000E+00  0.00000000E+00
  0.00000000E+00  0.00000000E+00  0.00000000E+00
  0.00000000E+00  0.00000000E+00  0.00000000E+00
  0.00000000E+00  0.00000000E+00  0.00000000E+00
  0.00000000E+00  0.00000000E+00  0.00000000E+00
  0.00000000E+00  0.00000000E+00  0.00000000E+00
  0.00000000E+00  0.00000000E+00  0.00000000E+00
  0.00000000E+00  0.00000000E+00  0.00000000E+00
  0.00000000E+00  0.00000000E+00  0.00000000E+00
  0.00000000E+00  0.00000000E+00  0.00000000E+00
  0.00000000E+00  0.00000000E+00  0.00000000E+00
  0.00000000E+00  0.00000000E+00  0.00000000E+00
  0.00000000E+00  0.00000000E+00  0.00000000E+00
  0.00000000E+00  0.00000000E+00  0.00000000E+00
  0.00000000E+00  0.00000000E+00  0.00000000E+00
  0.00000000E+00  0.00000000E+00  0.00000000E+00
  0.00000000E+00  0.00000000E+00  0.00000000E+00
  0.00000000E+00  0.00000000E+00  0.00000000E+00
  0.00000000E+00  0.00000000E+00  0.00000000E+00
  0.00000000E+00  0.00000000E+00  0.00000000E+00
  0.00000000E+00  0.00000000E+00  0.00000000E+00
  0.00000000E+00  0.00000000E+00  0.00000000E+00
  0.00000000E+00  0.00000000E+00  0.00000000E+00
  0.00000000E+00  0.00000000E+00  0.00000000E+00
  0.00000000E+00  0.00000000E+00  0.00000000E+00
  0.00000000E+00  0.00000000E+00  0.00000000E+00
  0.00000000E+00  0.00000000E+00  0.00000000E+00
  0.00000000E+00  0.00000000E+00  0.00000000E+00
  0.00000000E+00  0.00000000E+00  0.00000000E+00
  0.00000000E+00  0.00000000E+00  0.00000000E+00
  0.00000000E+00  0.00000000E+00  0.00000000E+00
  0.00000000E+00  0.00000000E+00  0.00000000E+00
  0.00000000E+00  0.00000000E+00  0.00000000E+00
  0.00000000E+00  0.00000000E+00  0.00000000E+00
  0.00000000E+00  0.00000000E+00  0.00000000E+00
  0.00000000E+00  0.00000000E+00  0.00000000E+00
  0.00000000E+00  0.00000000E+00  0.00000000E+00
  0.00000000E+00  0.00000000E+00  0.00000000E+00
  0.00000000E+00  0.00000000E+00  0.00000000E+00
  0.00000000E+00  0.00000000E+00  0.00000000E+00
