Cd1 H1 C126                             
   1.00000000000000     
    19.8542495011908855   -0.0000123001159063   -0.0079052796967677
    -9.9271356024862012   17.0739656496747862   -0.0032337220150906
    -0.0118187013667495   -0.0124846635963668   29.6834596389921117
   Cd   H    C 
     1     1   126
Direct
  0.4376707678235646  0.5001234293618390  0.4305643871556895
  0.4406622775322368  0.5030839046027467  0.4901202404005509
  0.0416479418665228  0.0836567317564619  0.3995348671334034
  0.0404719556954531  0.2077686050376733  0.3993189721160308
  0.0398655329116404  0.3326300530881301  0.3987953936975789
  0.0400215873201407  0.4582041208426123  0.3985552506393856
  0.0411594868304852  0.5837967493095285  0.3988671967447259
  0.0421241805414547  0.7092169456862923  0.3993054890535046
  0.0424336220974147  0.8344917066835157  0.3995581195608375
  0.0424040542059895  0.9594076020765095  0.3995550863077696
  0.1674364204062450  0.0849818469642182  0.4002757778281826
  0.1663528011338020  0.2090870112131267  0.4006730978391385
  0.1643588733535664  0.3327968316664184  0.4002226438449368
  0.1631612660678172  0.4582769244453427  0.3986590164027873
  0.1645343965542939  0.5837947224763788  0.3984551498594465
  0.1662795370605658  0.7091928323659613  0.3990703420437579
  0.1670479969151738  0.8345027275257123  0.3995987702489791
  0.1673870340535566  0.9597713281742762  0.3998876322273225
  0.2925493367667030  0.0849959094224053  0.4002503976648628
  0.2930680847011841  0.2111342156126869  0.4025255280052846
  0.2909317758309661  0.3355768704269215  0.4059691125145831
  0.2853235142763002  0.4579727931497052  0.4041244003182384
  0.2877509786532915  0.5840442489567688  0.4001725267342499
  0.2905506458826435  0.7090787640494393  0.3992230976705070
  0.2914092579530696  0.8340931700213522  0.3992944649315364
  0.2920246196472960  0.9594034999754738  0.3995958398218797
  0.4170219328130893  0.0836336802739898  0.3995114072998036
  0.4177436640252939  0.2090774011156167  0.4006110877937665
  0.4196664480905052  0.3355542407401777  0.4058506703447192
  0.4087428291037009  0.5831295250291406  0.4095617598588763
  0.4149061011275527  0.7076977138952006  0.4017012551125688
  0.4160436619820904  0.8330744747031725  0.3996965851536777
  0.4166367871109578  0.9583998113337241  0.3993782223554739
  0.5416910131423927  0.0825873223115608  0.3993413074823885
  0.5422961615392413  0.2077691227035444  0.3992648492849027
  0.5434472588603442  0.3327870927914530  0.4001694772855806
  0.5476368034292824  0.4579645286682095  0.4039391705596228
  0.5494080778928816  0.5831425843800075  0.4092767577720740
  0.5402721627821159  0.7055280525688734  0.4054806859435481
  0.5406129501875313  0.8315578408579812  0.4011799467520249
  0.5411493563477888  0.9571733936155895  0.3997316789083211
  0.6661971572155452  0.0820922377157359  0.3997016699639366
  0.6667146980059542  0.2073352057089066  0.3992579392536359
  0.6677804311390365  0.3326454834803629  0.3987585026447852
  0.6701020642310210  0.4582774755038340  0.3986926253960416
  0.6712868235767830  0.5840519826666034  0.4001280609415238
  0.6678246283485478  0.7077045700408188  0.4015970370132427
  0.6659389700060439  0.8315472326680879  0.4011302870534591
  0.6659053104631844  0.9567930408771821  0.4001993910251150
  0.7909151695403959  0.0820819206349074  0.3997329834181095
  0.7911268505785440  0.2072602013494352  0.3995619213783763
  0.7918212383650554  0.3326479601017612  0.3990650139966528
  0.7931638109295601  0.4582095236560219  0.3985437442908663
  0.7942293508194601  0.5837844776156857  0.3984721592502115
  0.7935224149512506  0.7090705077648540  0.3991794964750207
  0.7920553478836441  0.8331011107105846  0.3996477568186118
  0.7910390267497805  0.9571800153030092  0.3997327664954235
  0.9159265880433931  0.0825777614000393  0.3994025941553217
  0.9156007611422584  0.2073123704861354  0.3993282787358230
  0.9158481705835306  0.3326456126920244  0.3990972321984799
  0.9165959935017929  0.4581978298560921  0.3988727373886251
  0.9176177322205910  0.5838022900962992  0.3988363407112653
  0.9179177611686841  0.7091784625161527  0.3990101381267997
  0.9176801067466518  0.8340928957613205  0.3992201937082469
  0.9168086820936752  0.9584120137366138  0.3993569482107906
  0.0839866645970520  0.0428411579887388  0.3997188915123671
  0.0829872410241438  0.1669466288790976  0.3996752164032624
  0.0814850913184191  0.2909337254744615  0.3992031296867322
  0.0807512574781244  0.4162121506451384  0.3984383841728058
  0.0818166394269444  0.5417987377917173  0.3985609625683650
  0.0832057741627987  0.6673656969023780  0.3991003181891076
  0.0838711942406276  0.7927539017233971  0.3995621615982173
  0.0841103632943988  0.9179143596224844  0.3997078478469003
  0.2091221350640687  0.0432236984235047  0.4001887282727153
  0.2090779333128430  0.1684708610274077  0.4011755528393547
  0.2072397418326075  0.2923427487523517  0.4017505257048054
  0.2037333390497029  0.4159827209421128  0.4001855333493270
  0.2048897217560861  0.5417317201341550  0.3986676921790555
  0.2072315095647151  0.6673810401318692  0.3988185179510227
  0.2082881503773516  0.7926982075807477  0.3993306847162825
  0.2088345464935114  0.9179270072639607  0.3997390102514122
  0.3338526619008579  0.0428360633641760  0.3997215250517893
  0.3343981483426576  0.1684766662264394  0.4011286082759898
  0.3347651349762063  0.2945144822454004  0.4056259164564444
  0.3256427556967546  0.4169428362751376  0.4097989476194158
  0.3273592321353416  0.5420534228055027  0.4040638085209130
  0.3315617966022154  0.6672213041656750  0.4002084223278352
  0.3326992499688561  0.7922478434071218  0.3993411970610632
  0.3333435836433947  0.9174334125442626  0.3994036002979737
  0.4583928498857082  0.0415987199368151  0.3993538343200943
  0.4589497184538754  0.1669174796091049  0.3996273149897955
  0.4601277224709213  0.2923248583414954  0.4016645846507551
  0.4663047524424757  0.4169223296054095  0.4095464133387683
  0.4553771095700371  0.6644674043438153  0.4058157120779161
  0.4572770877597423  0.7909452413915621  0.4006728183732389
  0.4579893923321884  0.9163633602738935  0.3995487759802560
  0.5830014767149566  0.0406104222509159  0.3995535646515255
  0.5835867593254572  0.1659162242711658  0.3992132630239674
  0.5844545389043766  0.2909439298878504  0.3991635273009064
  0.5872326291080863  0.4159645926086740  0.4001442060714313
  0.5896889905133843  0.5420623200332503  0.4038701468328643
  0.5841311803491247  0.6644884285353596  0.4056714053307475
  0.5819542786321000  0.7889020709276866  0.4024920355346251
  0.5824659477843125  0.9150441837860647  0.4002937344824067
  0.7076299369719986  0.0402482443831097  0.3998817440742832
  0.7079371395584325  0.1655095903055225  0.3995550516438099
  0.7087363506234811  0.2908277910056967  0.3990000979811448
  0.7104423888672300  0.4162222267395935  0.3984586529304340
  0.7118316453190892  0.5417280614694154  0.3987051245884519
  0.7106742973579186  0.6672259764634384  0.4001431162887228
  0.7086861845982361  0.7909495585477122  0.4006092466164523
  0.7075678316198708  0.9150276922684724  0.4002671691744275
  0.8326309891317574  0.0406118906423164  0.3995943639525719
  0.8325477670430529  0.1655022770508924  0.3995978680120708
  0.8329049857061951  0.2907843281919117  0.3993083871278556
  0.8338168926783167  0.4162054893954615  0.3988357631907852
  0.8349570460632747  0.5417979126064913  0.3985468966178071
  0.8351402044312880  0.6673610422488531  0.3987790824923925
  0.8345375937223961  0.7922393067226234  0.3992838450259431
  0.8334020889047876  0.9163874471009972  0.3995231404150315
  0.9582494917399459  0.0416184006409401  0.3993764521718688
  0.9573245271253227  0.1659176759423617  0.3992861828182946
  0.9570863113455661  0.2908039387960066  0.3990598209120099
  0.9573636180646976  0.4162053916973531  0.3988637289769047
  0.9583960534190095  0.5418070512272318  0.3988718002218188
  0.9591791300005222  0.6673656480386769  0.3990633116274850
  0.9593869480566461  0.7926785054039033  0.3992629149480693
  0.9591140343240052  0.9174250807685012  0.3993412370560325
 
  0.00000000E+00  0.00000000E+00  0.00000000E+00
  0.00000000E+00  0.00000000E+00  0.00000000E+00
  0.00000000E+00  0.00000000E+00  0.00000000E+00
  0.00000000E+00  0.00000000E+00  0.00000000E+00
  0.00000000E+00  0.00000000E+00  0.00000000E+00
  0.00000000E+00  0.00000000E+00  0.00000000E+00
  0.00000000E+00  0.00000000E+00  0.00000000E+00
  0.00000000E+00  0.00000000E+00  0.00000000E+00
  0.00000000E+00  0.00000000E+00  0.00000000E+00
  0.00000000E+00  0.00000000E+00  0.00000000E+00
  0.00000000E+00  0.00000000E+00  0.00000000E+00
  0.00000000E+00  0.00000000E+00  0.00000000E+00
  0.00000000E+00  0.00000000E+00  0.00000000E+00
  0.00000000E+00  0.00000000E+00  0.00000000E+00
  0.00000000E+00  0.00000000E+00  0.00000000E+00
  0.00000000E+00  0.00000000E+00  0.00000000E+00
  0.00000000E+00  0.00000000E+00  0.00000000E+00
  0.00000000E+00  0.00000000E+00  0.00000000E+00
  0.00000000E+00  0.00000000E+00  0.00000000E+00
  0.00000000E+00  0.00000000E+00  0.00000000E+00
  0.00000000E+00  0.00000000E+00  0.00000000E+00
  0.00000000E+00  0.00000000E+00  0.00000000E+00
  0.00000000E+00  0.00000000E+00  0.00000000E+00
  0.00000000E+00  0.00000000E+00  0.00000000E+00
  0.00000000E+00  0.00000000E+00  0.00000000E+00
  0.00000000E+00  0.00000000E+00  0.00000000E+00
  0.00000000E+00  0.00000000E+00  0.00000000E+00
  0.00000000E+00  0.00000000E+00  0.00000000E+00
  0.00000000E+00  0.00000000E+00  0.00000000E+00
  0.00000000E+00  0.00000000E+00  0.00000000E+00
  0.00000000E+00  0.00000000E+00  0.00000000E+00
  0.00000000E+00  0.00000000E+00  0.00000000E+00
  0.00000000E+00  0.00000000E+00  0.00000000E+00
  0.00000000E+00  0.00000000E+00  0.00000000E+00
  0.00000000E+00  0.00000000E+00  0.00000000E+00
  0.00000000E+00  0.00000000E+00  0.00000000E+00
  0.00000000E+00  0.00000000E+00  0.00000000E+00
  0.00000000E+00  0.00000000E+00  0.00000000E+00
  0.00000000E+00  0.00000000E+00  0.00000000E+00
  0.00000000E+00  0.00000000E+00  0.00000000E+00
  0.00000000E+00  0.00000000E+00  0.00000000E+00
  0.00000000E+00  0.00000000E+00  0.00000000E+00
  0.00000000E+00  0.00000000E+00  0.00000000E+00
  0.00000000E+00  0.00000000E+00  0.00000000E+00
  0.00000000E+00  0.00000000E+00  0.00000000E+00
  0.00000000E+00  0.00000000E+00  0.00000000E+00
  0.00000000E+00  0.00000000E+00  0.00000000E+00
  0.00000000E+00  0.00000000E+00  0.00000000E+00
  0.00000000E+00  0.00000000E+00  0.00000000E+00
  0.00000000E+00  0.00000000E+00  0.00000000E+00
  0.00000000E+00  0.00000000E+00  0.00000000E+00
  0.00000000E+00  0.00000000E+00  0.00000000E+00
  0.00000000E+00  0.00000000E+00  0.00000000E+00
  0.00000000E+00  0.00000000E+00  0.00000000E+00
  0.00000000E+00  0.00000000E+00  0.00000000E+00
  0.00000000E+00  0.00000000E+00  0.00000000E+00
  0.00000000E+00  0.00000000E+00  0.00000000E+00
  0.00000000E+00  0.00000000E+00  0.00000000E+00
  0.00000000E+00  0.00000000E+00  0.00000000E+00
  0.00000000E+00  0.00000000E+00  0.00000000E+00
  0.00000000E+00  0.00000000E+00  0.00000000E+00
  0.00000000E+00  0.00000000E+00  0.00000000E+00
  0.00000000E+00  0.00000000E+00  0.00000000E+00
  0.00000000E+00  0.00000000E+00  0.00000000E+00
  0.00000000E+00  0.00000000E+00  0.00000000E+00
  0.00000000E+00  0.00000000E+00  0.00000000E+00
  0.00000000E+00  0.00000000E+00  0.00000000E+00
  0.00000000E+00  0.00000000E+00  0.00000000E+00
  0.00000000E+00  0.00000000E+00  0.00000000E+00
  0.00000000E+00  0.00000000E+00  0.00000000E+00
  0.00000000E+00  0.00000000E+00  0.00000000E+00
  0.00000000E+00  0.00000000E+00  0.00000000E+00
  0.00000000E+00  0.00000000E+00  0.00000000E+00
  0.00000000E+00  0.00000000E+00  0.00000000E+00
  0.00000000E+00  0.00000000E+00  0.00000000E+00
  0.00000000E+00  0.00000000E+00  0.00000000E+00
  0.00000000E+00  0.00000000E+00  0.00000000E+00
  0.00000000E+00  0.00000000E+00  0.00000000E+00
  0.00000000E+00  0.00000000E+00  0.00000000E+00
  0.00000000E+00  0.00000000E+00  0.00000000E+00
  0.00000000E+00  0.00000000E+00  0.00000000E+00
  0.00000000E+00  0.00000000E+00  0.00000000E+00
  0.00000000E+00  0.00000000E+00  0.00000000E+00
  0.00000000E+00  0.00000000E+00  0.00000000E+00
  0.00000000E+00  0.00000000E+00  0.00000000E+00
  0.00000000E+00  0.00000000E+00  0.00000000E+00
  0.00000000E+00  0.00000000E+00  0.00000000E+00
  0.00000000E+00  0.00000000E+00  0.00000000E+00
  0.00000000E+00  0.00000000E+00  0.00000000E+00
  0.00000000E+00  0.00000000E+00  0.00000000E+00
  0.00000000E+00  0.00000000E+00  0.00000000E+00
  0.00000000E+00  0.00000000E+00  0.00000000E+00
  0.00000000E+00  0.00000000E+00  0.00000000E+00
  0.00000000E+00  0.00000000E+00  0.00000000E+00
  0.00000000E+00  0.00000000E+00  0.00000000E+00
  0.00000000E+00  0.00000000E+00  0.00000000E+00
  0.00000000E+00  0.00000000E+00  0.00000000E+00
  0.00000000E+00  0.00000000E+00  0.00000000E+00
  0.00000000E+00  0.00000000E+00  0.00000000E+00
  0.00000000E+00  0.00000000E+00  0.00000000E+00
  0.00000000E+00  0.00000000E+00  0.00000000E+00
  0.00000000E+00  0.00000000E+00  0.00000000E+00
  0.00000000E+00  0.00000000E+00  0.00000000E+00
  0.00000000E+00  0.00000000E+00  0.00000000E+00
  0.00000000E+00  0.00000000E+00  0.00000000E+00
  0.00000000E+00  0.00000000E+00  0.00000000E+00
  0.00000000E+00  0.00000000E+00  0.00000000E+00
  0.00000000E+00  0.00000000E+00  0.00000000E+00
  0.00000000E+00  0.00000000E+00  0.00000000E+00
  0.00000000E+00  0.00000000E+00  0.00000000E+00
  0.00000000E+00  0.00000000E+00  0.00000000E+00
  0.00000000E+00  0.00000000E+00  0.00000000E+00
  0.00000000E+00  0.00000000E+00  0.00000000E+00
  0.00000000E+00  0.00000000E+00  0.00000000E+00
  0.00000000E+00  0.00000000E+00  0.00000000E+00
  0.00000000E+00  0.00000000E+00  0.00000000E+00
  0.00000000E+00  0.00000000E+00  0.00000000E+00
  0.00000000E+00  0.00000000E+00  0.00000000E+00
  0.00000000E+00  0.00000000E+00  0.00000000E+00
  0.00000000E+00  0.00000000E+00  0.00000000E+00
  0.00000000E+00  0.00000000E+00  0.00000000E+00
  0.00000000E+00  0.00000000E+00  0.00000000E+00
  0.00000000E+00  0.00000000E+00  0.00000000E+00
  0.00000000E+00  0.00000000E+00  0.00000000E+00
  0.00000000E+00  0.00000000E+00  0.00000000E+00
  0.00000000E+00  0.00000000E+00  0.00000000E+00
  0.00000000E+00  0.00000000E+00  0.00000000E+00
  0.00000000E+00  0.00000000E+00  0.00000000E+00
