Cd1 H1 C123 N3                          
   1.00000000000000     
    19.7865994916263972    0.0148422326138138   -0.4263716884001869
    -9.8813366717071034   17.0344238679822908    0.2413158224658515
    -0.6411570965701195    0.0495561723349033   29.8549791162358460
   Cd   H    C    N 
     1     1   123     3
Direct
  0.4384424063686215  0.4952757533194302  0.4549617372630498
  0.4219725706163350  0.5320401693523721  0.5014636200931486
  0.0419744127041862  0.0838738584045833  0.3998346761372190
  0.0409645333038935  0.2080053715325908  0.3999140814371805
  0.0405821156880721  0.3327829757558450  0.3996186054018987
  0.0409923202631011  0.4581145975513373  0.3993352436923651
  0.0418468640214577  0.5835717624324280  0.3993726528365165
  0.0425660334785509  0.7090214785582526  0.3993975874508098
  0.0429002091520193  0.8344607328753871  0.3995802291640603
  0.0428187968405543  0.9595754018331927  0.3997723541510950
  0.1680420179819717  0.0854545034831839  0.4002289340069692
  0.1669102118593498  0.2094404749380597  0.4005211862504366
  0.1653314306544336  0.3333415172639201  0.3995081456351665
  0.1650347286256874  0.4580964949916430  0.3987760286450908
  0.1659545899804562  0.5832728454266179  0.3989842505232286
  0.1668920737614052  0.7088049442513227  0.3995851636967478
  0.1675029965229653  0.8343432591338499  0.3997690135059527
  0.1678573300479886  0.9599342829835901  0.3998956141949884
  0.2928670065112959  0.0855667516000990  0.4002725345950505
  0.2938092680543870  0.2126265830097720  0.4020471506483679
  0.2916146118166643  0.3376224054008994  0.4015809283669953
  0.2893242372158610  0.4562748163365809  0.3980148269904047
  0.2897805197502162  0.5828281600523665  0.3978915318581996
  0.2910988170620479  0.7082667654364583  0.3992098615719982
  0.2919704266150854  0.8337302820423245  0.3996941986545429
  0.2924103169176469  0.9595090027433335  0.3997268682054252
  0.4172263141269362  0.0841101650862359  0.3992535503345041
  0.4178259063593510  0.2101829831654990  0.4003833809627815
  0.4205498635274377  0.3374748367692436  0.4083769897023197
  0.4152498513805539  0.7061824695351553  0.3998666667643596
  0.4164451014474534  0.8323326019923033  0.3997453151307992
  0.4168474002311472  0.9581956177968339  0.3995515836940175
  0.5416485627831357  0.0826734417545230  0.3992863791027097
  0.5421159005032359  0.2084556916061579  0.3984493741943927
  0.5431161432498530  0.3341719692369696  0.3996613085919982
  0.5453768084124663  0.4589918248275742  0.4067258037307350
  0.5393350201463425  0.7018544043976789  0.4029796946996889
  0.5406813428595368  0.8301064785852057  0.4006811193328015
  0.5413041496656165  0.9566323358964042  0.3999028823379484
  0.6661496294498686  0.0819555330807096  0.3997715692849495
  0.6665942265584259  0.2075896909143830  0.3988148304974676
  0.6672177211124882  0.3330936403076517  0.3971511290006715
  0.6684155480066296  0.4585675704980686  0.3964286243112841
  0.6703744132273128  0.5842925944281160  0.3994211212285920
  0.6679816482053645  0.7072367963363313  0.4009301030019864
  0.6654091641050495  0.8303952726262439  0.4008799343687040
  0.6658375200587612  0.9562634601317589  0.4004044452630124
  0.7909124865904366  0.0819412454622017  0.4000281383780008
  0.7911457995946978  0.2072911171675978  0.3995190773338558
  0.7916825311956380  0.3327903010763337  0.3985327853034399
  0.7925856708013004  0.4583423855918757  0.3970469037471408
  0.7935008492646849  0.5837706371623651  0.3968257608976249
  0.7937946888490149  0.7090603584210944  0.3984201953414034
  0.7920673113584183  0.8328774253489043  0.3994305369507178
  0.7908328008153308  0.9568161782232607  0.4000521779209741
  0.9160897837986033  0.0825445813789685  0.3999039383885823
  0.9158927797090671  0.2074552284064106  0.3998512152864478
  0.9161114994176407  0.3327519381985431  0.3994781790389844
  0.9167982456829253  0.4581444678720660  0.3988644708000035
  0.9176999552724825  0.5837018407431570  0.3982917390422652
  0.9181657842041588  0.7091186911010972  0.3985665864790999
  0.9179290848508390  0.8341479499431412  0.3992039061288018
  0.9169580148418353  0.9583718226072414  0.3994604078731303
  0.0844659376025207  0.0430940946165421  0.3999237382994698
  0.0834205982301632  0.1671824767415893  0.4000697332039265
  0.0820790538605735  0.2912568003475909  0.3996639420407948
  0.0822547317578024  0.4163581619064717  0.3992897302624316
  0.0829275460283032  0.5416311012576011  0.3993239816663758
  0.0837864918477164  0.6671237207300332  0.3995125712592174
  0.0843633146390330  0.7926643850673156  0.3996163519880079
  0.0845096299770365  0.9179959734833627  0.3997928962350429
  0.2095785708441943  0.0435480216723977  0.4001765963964601
  0.2097679273470541  0.1691778920826992  0.4007115520172622
  0.2078569263016901  0.2928009793211573  0.4004008219894989
  0.2063454463872994  0.4164931241120356  0.3988838050772146
  0.2068659886589289  0.5414249462559499  0.3983338862530845
  0.2080998276920617  0.6668962247798716  0.3992318794015671
  0.2088321312649426  0.7923294105411437  0.3997358680562815
  0.2092471900349136  0.9179224148703314  0.3998144628216577
  0.3340731794126057  0.0431436604541886  0.3996973421141619
  0.3347474313519991  0.1694444291828790  0.4011786693117574
  0.3360311333415267  0.2966692509786853  0.4047448244931550
  0.3329190653650362  0.5428753998356528  0.3977965887282870
  0.3322140655998765  0.6660228260368927  0.3988895943117991
  0.3332266895516747  0.7915852456779763  0.3995725666335844
  0.3337388509241530  0.9172595583027751  0.3996687586118180
  0.4585140090077391  0.0417271768081681  0.3993108606690995
  0.4589524854565847  0.1676198357058483  0.3989949743378550
  0.4600393000048741  0.2937780312341110  0.4022104831939806
  0.4666488456015105  0.4190008837109717  0.4179080193347977
  0.4539509074492754  0.6607471561761825  0.4013013540294827
  0.4575932655435897  0.7897675250804247  0.4001513999002703
  0.4581464360244242  0.9158067247339543  0.3997231759072440
  0.5829957015658158  0.0403762178840076  0.3996903014805229
  0.5834132023715694  0.1662593495881397  0.3987703896600902
  0.5841036917866507  0.2919823561767791  0.3979752431691295
  0.5856811322794397  0.4175916789259586  0.3990705842029747
  0.5886343704477197  0.5445535824908625  0.4051579314772552
  0.5846719730760938  0.6621427372751201  0.4043134282437942
  0.5812687263265574  0.7863812497316633  0.4015449559307260
  0.5825053193450538  0.9140953437239329  0.4003326272516414
  0.7075895916288084  0.0399450904101733  0.4000820259280439
  0.7079671214092407  0.1656270629012087  0.3994362952766820
  0.7084677276461941  0.2911429335464603  0.3980658087917144
  0.7094359209438376  0.4166729955639389  0.3963822106719072
  0.7107492301009857  0.5420545086149754  0.3969031711915206
  0.7108474492775146  0.6671638185623088  0.3993933963418067
  0.7085627966197006  0.7905105930891081  0.4001937348453476
  0.7072028889808872  0.9142809844093005  0.4004731236089811
  0.8326027515548965  0.0404260404057026  0.4000543035012048
  0.8326044610586768  0.1655474236819281  0.3998037842234801
  0.8330013851492545  0.2909325888950440  0.3992676651354470
  0.8337357713120411  0.4164008312987629  0.3981918755796004
  0.8346491394102801  0.5418787833140537  0.3971427460002816
  0.8350944679867821  0.6673352826496199  0.3978272127247844
  0.8346853342439672  0.7922471784974000  0.3989790701147040
  0.8334356765129172  0.9161698246443710  0.3995748553165075
  0.9584351175947453  0.0417076231717376  0.3996611459994983
  0.9576565793743941  0.1659932276849792  0.3999278673503407
  0.9575055660924437  0.2909798127039693  0.3997387712154190
  0.9579608077465211  0.4162926260369173  0.3993008846754467
  0.9588488980621080  0.5418307027688325  0.3989103176393514
  0.9595022717799380  0.6672904478348809  0.3987600848247853
  0.9596590950862932  0.7926129609626008  0.3991871646115562
  0.9593696510982301  0.9175240056865694  0.3994947523975421
  0.4111410774342375  0.5812035647686493  0.4004910881625190
  0.5493284349252032  0.5831636050318066  0.4085907435294589
  0.3284323251836213  0.4169787969766958  0.3989531609572280
 
  0.00000000E+00  0.00000000E+00  0.00000000E+00
  0.00000000E+00  0.00000000E+00  0.00000000E+00
  0.00000000E+00  0.00000000E+00  0.00000000E+00
  0.00000000E+00  0.00000000E+00  0.00000000E+00
  0.00000000E+00  0.00000000E+00  0.00000000E+00
  0.00000000E+00  0.00000000E+00  0.00000000E+00
  0.00000000E+00  0.00000000E+00  0.00000000E+00
  0.00000000E+00  0.00000000E+00  0.00000000E+00
  0.00000000E+00  0.00000000E+00  0.00000000E+00
  0.00000000E+00  0.00000000E+00  0.00000000E+00
  0.00000000E+00  0.00000000E+00  0.00000000E+00
  0.00000000E+00  0.00000000E+00  0.00000000E+00
  0.00000000E+00  0.00000000E+00  0.00000000E+00
  0.00000000E+00  0.00000000E+00  0.00000000E+00
  0.00000000E+00  0.00000000E+00  0.00000000E+00
  0.00000000E+00  0.00000000E+00  0.00000000E+00
  0.00000000E+00  0.00000000E+00  0.00000000E+00
  0.00000000E+00  0.00000000E+00  0.00000000E+00
  0.00000000E+00  0.00000000E+00  0.00000000E+00
  0.00000000E+00  0.00000000E+00  0.00000000E+00
  0.00000000E+00  0.00000000E+00  0.00000000E+00
  0.00000000E+00  0.00000000E+00  0.00000000E+00
  0.00000000E+00  0.00000000E+00  0.00000000E+00
  0.00000000E+00  0.00000000E+00  0.00000000E+00
  0.00000000E+00  0.00000000E+00  0.00000000E+00
  0.00000000E+00  0.00000000E+00  0.00000000E+00
  0.00000000E+00  0.00000000E+00  0.00000000E+00
  0.00000000E+00  0.00000000E+00  0.00000000E+00
  0.00000000E+00  0.00000000E+00  0.00000000E+00
  0.00000000E+00  0.00000000E+00  0.00000000E+00
  0.00000000E+00  0.00000000E+00  0.00000000E+00
  0.00000000E+00  0.00000000E+00  0.00000000E+00
  0.00000000E+00  0.00000000E+00  0.00000000E+00
  0.00000000E+00  0.00000000E+00  0.00000000E+00
  0.00000000E+00  0.00000000E+00  0.00000000E+00
  0.00000000E+00  0.00000000E+00  0.00000000E+00
  0.00000000E+00  0.00000000E+00  0.00000000E+00
  0.00000000E+00  0.00000000E+00  0.00000000E+00
  0.00000000E+00  0.00000000E+00  0.00000000E+00
  0.00000000E+00  0.00000000E+00  0.00000000E+00
  0.00000000E+00  0.00000000E+00  0.00000000E+00
  0.00000000E+00  0.00000000E+00  0.00000000E+00
  0.00000000E+00  0.00000000E+00  0.00000000E+00
  0.00000000E+00  0.00000000E+00  0.00000000E+00
  0.00000000E+00  0.00000000E+00  0.00000000E+00
  0.00000000E+00  0.00000000E+00  0.00000000E+00
  0.00000000E+00  0.00000000E+00  0.00000000E+00
  0.00000000E+00  0.00000000E+00  0.00000000E+00
  0.00000000E+00  0.00000000E+00  0.00000000E+00
  0.00000000E+00  0.00000000E+00  0.00000000E+00
  0.00000000E+00  0.00000000E+00  0.00000000E+00
  0.00000000E+00  0.00000000E+00  0.00000000E+00
  0.00000000E+00  0.00000000E+00  0.00000000E+00
  0.00000000E+00  0.00000000E+00  0.00000000E+00
  0.00000000E+00  0.00000000E+00  0.00000000E+00
  0.00000000E+00  0.00000000E+00  0.00000000E+00
  0.00000000E+00  0.00000000E+00  0.00000000E+00
  0.00000000E+00  0.00000000E+00  0.00000000E+00
  0.00000000E+00  0.00000000E+00  0.00000000E+00
  0.00000000E+00  0.00000000E+00  0.00000000E+00
  0.00000000E+00  0.00000000E+00  0.00000000E+00
  0.00000000E+00  0.00000000E+00  0.00000000E+00
  0.00000000E+00  0.00000000E+00  0.00000000E+00
  0.00000000E+00  0.00000000E+00  0.00000000E+00
  0.00000000E+00  0.00000000E+00  0.00000000E+00
  0.00000000E+00  0.00000000E+00  0.00000000E+00
  0.00000000E+00  0.00000000E+00  0.00000000E+00
  0.00000000E+00  0.00000000E+00  0.00000000E+00
  0.00000000E+00  0.00000000E+00  0.00000000E+00
  0.00000000E+00  0.00000000E+00  0.00000000E+00
  0.00000000E+00  0.00000000E+00  0.00000000E+00
  0.00000000E+00  0.00000000E+00  0.00000000E+00
  0.00000000E+00  0.00000000E+00  0.00000000E+00
  0.00000000E+00  0.00000000E+00  0.00000000E+00
  0.00000000E+00  0.00000000E+00  0.00000000E+00
  0.00000000E+00  0.00000000E+00  0.00000000E+00
  0.00000000E+00  0.00000000E+00  0.00000000E+00
  0.00000000E+00  0.00000000E+00  0.00000000E+00
  0.00000000E+00  0.00000000E+00  0.00000000E+00
  0.00000000E+00  0.00000000E+00  0.00000000E+00
  0.00000000E+00  0.00000000E+00  0.00000000E+00
  0.00000000E+00  0.00000000E+00  0.00000000E+00
  0.00000000E+00  0.00000000E+00  0.00000000E+00
  0.00000000E+00  0.00000000E+00  0.00000000E+00
  0.00000000E+00  0.00000000E+00  0.00000000E+00
  0.00000000E+00  0.00000000E+00  0.00000000E+00
  0.00000000E+00  0.00000000E+00  0.00000000E+00
  0.00000000E+00  0.00000000E+00  0.00000000E+00
  0.00000000E+00  0.00000000E+00  0.00000000E+00
  0.00000000E+00  0.00000000E+00  0.00000000E+00
  0.00000000E+00  0.00000000E+00  0.00000000E+00
  0.00000000E+00  0.00000000E+00  0.00000000E+00
  0.00000000E+00  0.00000000E+00  0.00000000E+00
  0.00000000E+00  0.00000000E+00  0.00000000E+00
  0.00000000E+00  0.00000000E+00  0.00000000E+00
  0.00000000E+00  0.00000000E+00  0.00000000E+00
  0.00000000E+00  0.00000000E+00  0.00000000E+00
  0.00000000E+00  0.00000000E+00  0.00000000E+00
  0.00000000E+00  0.00000000E+00  0.00000000E+00
  0.00000000E+00  0.00000000E+00  0.00000000E+00
  0.00000000E+00  0.00000000E+00  0.00000000E+00
  0.00000000E+00  0.00000000E+00  0.00000000E+00
  0.00000000E+00  0.00000000E+00  0.00000000E+00
  0.00000000E+00  0.00000000E+00  0.00000000E+00
  0.00000000E+00  0.00000000E+00  0.00000000E+00
  0.00000000E+00  0.00000000E+00  0.00000000E+00
  0.00000000E+00  0.00000000E+00  0.00000000E+00
  0.00000000E+00  0.00000000E+00  0.00000000E+00
  0.00000000E+00  0.00000000E+00  0.00000000E+00
  0.00000000E+00  0.00000000E+00  0.00000000E+00
  0.00000000E+00  0.00000000E+00  0.00000000E+00
  0.00000000E+00  0.00000000E+00  0.00000000E+00
  0.00000000E+00  0.00000000E+00  0.00000000E+00
  0.00000000E+00  0.00000000E+00  0.00000000E+00
  0.00000000E+00  0.00000000E+00  0.00000000E+00
  0.00000000E+00  0.00000000E+00  0.00000000E+00
  0.00000000E+00  0.00000000E+00  0.00000000E+00
  0.00000000E+00  0.00000000E+00  0.00000000E+00
  0.00000000E+00  0.00000000E+00  0.00000000E+00
  0.00000000E+00  0.00000000E+00  0.00000000E+00
  0.00000000E+00  0.00000000E+00  0.00000000E+00
  0.00000000E+00  0.00000000E+00  0.00000000E+00
  0.00000000E+00  0.00000000E+00  0.00000000E+00
  0.00000000E+00  0.00000000E+00  0.00000000E+00
  0.00000000E+00  0.00000000E+00  0.00000000E+00
  0.00000000E+00  0.00000000E+00  0.00000000E+00
  0.00000000E+00  0.00000000E+00  0.00000000E+00
  0.00000000E+00  0.00000000E+00  0.00000000E+00
