Y1 H1 C125 N1 O2                        
   1.00000000000000     
    19.7737808104221280   -0.0065961805059738   -0.3530192990846392
    -9.8952201823273409   17.0857163880522691    0.0243769214502681
    -0.5306941520313245   -0.2649965374553526   29.8013295623359191
   Y    H    C    N    O 
     1     1   125     1     2
Direct
  0.4400879309815900  0.5083240635585429  0.4583009473144432
  0.5589269564320914  0.5748486201840950  0.5329833234009171
  0.0419002586006415  0.0836930778221365  0.3991453908558193
  0.0416392986283373  0.2084164121142881  0.3989647389013882
  0.0414040980964793  0.3331392984839929  0.3981749792719400
  0.0413639684291637  0.4582962287768790  0.3972291594828083
  0.0415082112270961  0.5834764824334535  0.3969846738034952
  0.0418802648640232  0.7086938786857019  0.3974482761882150
  0.0421015227711220  0.8339122624969163  0.3981510408879450
  0.0421644152926944  0.9589634771205633  0.3987176440175849
  0.1673088789083411  0.0842859673292883  0.4001027156265611
  0.1670179259581710  0.2089392973725418  0.4008384702436619
  0.1669031060152578  0.3339828307602115  0.4004110628592164
  0.1661143299948793  0.4585199553928817  0.3987192898625263
  0.1659723627779000  0.5835436583802863  0.3973994517800035
  0.1664592190669901  0.7087738218558112  0.3975996990320108
  0.1669261280695546  0.8339938580133606  0.3983587616921584
  0.1672305230163314  0.9591920968402035  0.3991639319456723
  0.2923957361511683  0.0842238005160932  0.4002603425007995
  0.2929472118267607  0.2099436975854634  0.4028243326216883
  0.2925318798224844  0.3350686054865329  0.4053895150902062
  0.2922901105618781  0.4591399726004728  0.4040684750255847
  0.2902784674101981  0.5843979413463383  0.4001737775011197
  0.2911193488737756  0.7090783936550471  0.3985056885466871
  0.2916618035344929  0.8338948684810805  0.3983803888371001
  0.2919677244860518  0.9589435580581057  0.3989666205397753
  0.4171077790730324  0.0835478089963138  0.3993084158875734
  0.4174554981662816  0.2086292878808297  0.4013863526442337
  0.4189035185509659  0.3346170073890040  0.4071877018184532
  0.4158762196531949  0.7082631583486206  0.4018000329433597
  0.4164724156204287  0.8333086399162395  0.3991954663560034
  0.4167645986106462  0.9584019089202103  0.3987343242267961
  0.5418108316906997  0.0828830359397746  0.3987316199998150
  0.5421981586711816  0.2080732744777609  0.3992334967097375
  0.5427448655789522  0.3332696274415813  0.4014725950575040
  0.5438982701310757  0.4582923215001268  0.4073274517166468
  0.5487958723877938  0.5844769140833990  0.4169152432645570
  0.5407427801931626  0.7057347597588289  0.4075609493788531
  0.5411719647692069  0.8320781902730048  0.4011574303545337
  0.5415752408035313  0.9576076106734813  0.3991420131828908
  0.6665613342764309  0.0825770387748593  0.3988061606921537
  0.6668575792445350  0.2077992227104752  0.3984028323099322
  0.6671469935388329  0.3329198695682431  0.3984157222173405
  0.6678795262418474  0.4581924939562742  0.3990266194274766
  0.6690752531432154  0.5837723845565136  0.4003047994599254
  0.6674092041517062  0.7079612801677070  0.4016421266417670
  0.6659664391750986  0.8318204312548995  0.4010956037241794
  0.6663476598324317  0.9573439750823268  0.3997159401418922
  0.7914316106868132  0.0826184942440146  0.3987833229809729
  0.7915757475761084  0.2077054709616945  0.3982427698973364
  0.7918383180695163  0.3329024100333460  0.3976942886689137
  0.7922189201740694  0.4581796197463618  0.3971490568102820
  0.7926352523315318  0.5833773153928771  0.3967483862069435
  0.7926005983705467  0.7086381393005898  0.3976183085165502
  0.7918344356858129  0.8331379029833330  0.3984699632071212
  0.7912202425695503  0.9575312277926827  0.3990071192458660
  0.9165049177466263  0.0830170997769007  0.3986405353097915
  0.9164655623290181  0.2079447938852094  0.3982773459713509
  0.9165368469478713  0.3329892349467272  0.3976300509457289
  0.9167142264448652  0.4581054285421354  0.3970452202198268
  0.9170743480380946  0.5834110608993136  0.3968219484459101
  0.9172497594287442  0.7087300297474105  0.3970503686310533
  0.9171666270006614  0.8336892144803260  0.3977671772330433
  0.9168003386191278  0.9583653709239573  0.3984676217261619
  0.0838469344755974  0.0423714681623280  0.3993031393438838
  0.0835078270319915  0.1670062264437176  0.3995354880032690
  0.0832410510257186  0.2918542183292890  0.3989944816735160
  0.0830032087931909  0.4167056254060932  0.3978511959144776
  0.0828497084495087  0.5417421196100597  0.3970346107417767
  0.0832474967698773  0.6669655434872226  0.3972933569010065
  0.0836725827540739  0.7922544786477327  0.3980108445910158
  0.0838269316561446  0.9174001715441710  0.3987124163664784
  0.2089297298058289  0.0425153560348480  0.3999011357902865
  0.2089867088591778  0.1677024049482289  0.4012613889632842
  0.2086767302654759  0.2924477500685267  0.4018894713166817
  0.2081763046918219  0.4174151429561719  0.4006355963732918
  0.2072563974586926  0.5419583162042633  0.3983750839692723
  0.2079269581409712  0.6671493505152505  0.3976568383225295
  0.2083710820940613  0.7922282586831024  0.3981084526540398
  0.2087542472977841  0.9174012257459409  0.3988734568968295
  0.3337940362632963  0.0422817219767645  0.3994873535586202
  0.3343000150023530  0.1675353990128991  0.4015915530831279
  0.3345937764031863  0.2927722599989638  0.4057840033814050
  0.3321155590299270  0.4170527425029102  0.4082113283619041
  0.3333925182022343  0.5450358063055798  0.4043551476240358
  0.3326396415133688  0.6674993476415435  0.4000100100875021
  0.3331929723543369  0.7922583035388254  0.3986156815511155
  0.3335097959391297  0.9171894539177655  0.3986692773997633
  0.4586123373827986  0.0416912637839228  0.3988380262628708
  0.4589241132640370  0.1667918033981927  0.3998240981584096
  0.4596067760924024  0.2919777129467683  0.4031448200817632
  0.4627019938708227  0.4161699051231891  0.4122157619360637
  0.4556700485971928  0.6647379423449007  0.4067288673896897
  0.4580465806750578  0.7914601537045082  0.4005390593490807
  0.4582726562275332  0.9165292275623079  0.3989427087614839
  0.5833303476691676  0.0410177200369373  0.3988340564560595
  0.5836302136634332  0.1662688564141766  0.3987006657855729
  0.5840907977906699  0.2913810817996237  0.3994154272167957
  0.5849685270723941  0.4164560381271454  0.4020186133441838
  0.5876902290900892  0.5436105367433662  0.4078047469855535
  0.5850025417094665  0.6652486003637939  0.4087650608863035
  0.5819841406867008  0.7890217937118855  0.4031519466698349
  0.5829796514334020  0.9155488968047162  0.3998893645990615
  0.7080725252196524  0.0407548665828249  0.3990791106804125
  0.7083538018614750  0.1660281576660410  0.3984554321099852
  0.7086238379645953  0.2912019323336961  0.3980905551372694
  0.7090797889219640  0.4165005781070183  0.3979509149323032
  0.7098996206980731  0.5418024059337809  0.3979927073053323
  0.7096171197453405  0.6669514590543062  0.3995296355724440
  0.7084490581979997  0.7911488489180102  0.3999712665060040
  0.7077069093556946  0.9153623015614923  0.3998447987162112
  0.8330226726646904  0.0410060161846433  0.3987651382900139
  0.8331406311349504  0.1660811979681248  0.3984097012502477
  0.8333493193967145  0.2912485400370342  0.3978334991605206
  0.8336015049316333  0.4163974774019267  0.3972371034868476
  0.8339848489724762  0.5416172521125954  0.3967507867469769
  0.8341066346041671  0.6670138829246368  0.3968481501593093
  0.8339100101444610  0.7919404930987131  0.3977632558239619
  0.8333464999760425  0.9163988977689784  0.3985979084681546
  0.9584274354241512  0.0417412234114803  0.3987142992484735
  0.9582331313540556  0.1664781803671476  0.3985543522931550
  0.9581209157196975  0.2913593449105928  0.3979487297153532
  0.9581692274408936  0.4164547013611355  0.3972406788246698
  0.9584398435737108  0.5417203684548924  0.3969033177951404
  0.9587200887718563  0.6669673463533065  0.3970581038359005
  0.9588556444628777  0.7921445584821938  0.3976431422157277
  0.9587431561239412  0.9170909944191817  0.3982761601156717
  0.4122362855305993  0.5851057204501043  0.4097712632861595
  0.5137193094451180  0.5232505688272946  0.5258928157486924
  0.4472245715395811  0.5388022800835773  0.5292785558214448
 
  0.00000000E+00  0.00000000E+00  0.00000000E+00
  0.00000000E+00  0.00000000E+00  0.00000000E+00
  0.00000000E+00  0.00000000E+00  0.00000000E+00
  0.00000000E+00  0.00000000E+00  0.00000000E+00
  0.00000000E+00  0.00000000E+00  0.00000000E+00
  0.00000000E+00  0.00000000E+00  0.00000000E+00
  0.00000000E+00  0.00000000E+00  0.00000000E+00
  0.00000000E+00  0.00000000E+00  0.00000000E+00
  0.00000000E+00  0.00000000E+00  0.00000000E+00
  0.00000000E+00  0.00000000E+00  0.00000000E+00
  0.00000000E+00  0.00000000E+00  0.00000000E+00
  0.00000000E+00  0.00000000E+00  0.00000000E+00
  0.00000000E+00  0.00000000E+00  0.00000000E+00
  0.00000000E+00  0.00000000E+00  0.00000000E+00
  0.00000000E+00  0.00000000E+00  0.00000000E+00
  0.00000000E+00  0.00000000E+00  0.00000000E+00
  0.00000000E+00  0.00000000E+00  0.00000000E+00
  0.00000000E+00  0.00000000E+00  0.00000000E+00
  0.00000000E+00  0.00000000E+00  0.00000000E+00
  0.00000000E+00  0.00000000E+00  0.00000000E+00
  0.00000000E+00  0.00000000E+00  0.00000000E+00
  0.00000000E+00  0.00000000E+00  0.00000000E+00
  0.00000000E+00  0.00000000E+00  0.00000000E+00
  0.00000000E+00  0.00000000E+00  0.00000000E+00
  0.00000000E+00  0.00000000E+00  0.00000000E+00
  0.00000000E+00  0.00000000E+00  0.00000000E+00
  0.00000000E+00  0.00000000E+00  0.00000000E+00
  0.00000000E+00  0.00000000E+00  0.00000000E+00
  0.00000000E+00  0.00000000E+00  0.00000000E+00
  0.00000000E+00  0.00000000E+00  0.00000000E+00
  0.00000000E+00  0.00000000E+00  0.00000000E+00
  0.00000000E+00  0.00000000E+00  0.00000000E+00
  0.00000000E+00  0.00000000E+00  0.00000000E+00
  0.00000000E+00  0.00000000E+00  0.00000000E+00
  0.00000000E+00  0.00000000E+00  0.00000000E+00
  0.00000000E+00  0.00000000E+00  0.00000000E+00
  0.00000000E+00  0.00000000E+00  0.00000000E+00
  0.00000000E+00  0.00000000E+00  0.00000000E+00
  0.00000000E+00  0.00000000E+00  0.00000000E+00
  0.00000000E+00  0.00000000E+00  0.00000000E+00
  0.00000000E+00  0.00000000E+00  0.00000000E+00
  0.00000000E+00  0.00000000E+00  0.00000000E+00
  0.00000000E+00  0.00000000E+00  0.00000000E+00
  0.00000000E+00  0.00000000E+00  0.00000000E+00
  0.00000000E+00  0.00000000E+00  0.00000000E+00
  0.00000000E+00  0.00000000E+00  0.00000000E+00
  0.00000000E+00  0.00000000E+00  0.00000000E+00
  0.00000000E+00  0.00000000E+00  0.00000000E+00
  0.00000000E+00  0.00000000E+00  0.00000000E+00
  0.00000000E+00  0.00000000E+00  0.00000000E+00
  0.00000000E+00  0.00000000E+00  0.00000000E+00
  0.00000000E+00  0.00000000E+00  0.00000000E+00
  0.00000000E+00  0.00000000E+00  0.00000000E+00
  0.00000000E+00  0.00000000E+00  0.00000000E+00
  0.00000000E+00  0.00000000E+00  0.00000000E+00
  0.00000000E+00  0.00000000E+00  0.00000000E+00
  0.00000000E+00  0.00000000E+00  0.00000000E+00
  0.00000000E+00  0.00000000E+00  0.00000000E+00
  0.00000000E+00  0.00000000E+00  0.00000000E+00
  0.00000000E+00  0.00000000E+00  0.00000000E+00
  0.00000000E+00  0.00000000E+00  0.00000000E+00
  0.00000000E+00  0.00000000E+00  0.00000000E+00
  0.00000000E+00  0.00000000E+00  0.00000000E+00
  0.00000000E+00  0.00000000E+00  0.00000000E+00
  0.00000000E+00  0.00000000E+00  0.00000000E+00
  0.00000000E+00  0.00000000E+00  0.00000000E+00
  0.00000000E+00  0.00000000E+00  0.00000000E+00
  0.00000000E+00  0.00000000E+00  0.00000000E+00
  0.00000000E+00  0.00000000E+00  0.00000000E+00
  0.00000000E+00  0.00000000E+00  0.00000000E+00
  0.00000000E+00  0.00000000E+00  0.00000000E+00
  0.00000000E+00  0.00000000E+00  0.00000000E+00
  0.00000000E+00  0.00000000E+00  0.00000000E+00
  0.00000000E+00  0.00000000E+00  0.00000000E+00
  0.00000000E+00  0.00000000E+00  0.00000000E+00
  0.00000000E+00  0.00000000E+00  0.00000000E+00
  0.00000000E+00  0.00000000E+00  0.00000000E+00
  0.00000000E+00  0.00000000E+00  0.00000000E+00
  0.00000000E+00  0.00000000E+00  0.00000000E+00
  0.00000000E+00  0.00000000E+00  0.00000000E+00
  0.00000000E+00  0.00000000E+00  0.00000000E+00
  0.00000000E+00  0.00000000E+00  0.00000000E+00
  0.00000000E+00  0.00000000E+00  0.00000000E+00
  0.00000000E+00  0.00000000E+00  0.00000000E+00
  0.00000000E+00  0.00000000E+00  0.00000000E+00
  0.00000000E+00  0.00000000E+00  0.00000000E+00
  0.00000000E+00  0.00000000E+00  0.00000000E+00
  0.00000000E+00  0.00000000E+00  0.00000000E+00
  0.00000000E+00  0.00000000E+00  0.00000000E+00
  0.00000000E+00  0.00000000E+00  0.00000000E+00
  0.00000000E+00  0.00000000E+00  0.00000000E+00
  0.00000000E+00  0.00000000E+00  0.00000000E+00
  0.00000000E+00  0.00000000E+00  0.00000000E+00
  0.00000000E+00  0.00000000E+00  0.00000000E+00
  0.00000000E+00  0.00000000E+00  0.00000000E+00
  0.00000000E+00  0.00000000E+00  0.00000000E+00
  0.00000000E+00  0.00000000E+00  0.00000000E+00
  0.00000000E+00  0.00000000E+00  0.00000000E+00
  0.00000000E+00  0.00000000E+00  0.00000000E+00
  0.00000000E+00  0.00000000E+00  0.00000000E+00
  0.00000000E+00  0.00000000E+00  0.00000000E+00
  0.00000000E+00  0.00000000E+00  0.00000000E+00
  0.00000000E+00  0.00000000E+00  0.00000000E+00
  0.00000000E+00  0.00000000E+00  0.00000000E+00
  0.00000000E+00  0.00000000E+00  0.00000000E+00
  0.00000000E+00  0.00000000E+00  0.00000000E+00
  0.00000000E+00  0.00000000E+00  0.00000000E+00
  0.00000000E+00  0.00000000E+00  0.00000000E+00
  0.00000000E+00  0.00000000E+00  0.00000000E+00
  0.00000000E+00  0.00000000E+00  0.00000000E+00
  0.00000000E+00  0.00000000E+00  0.00000000E+00
  0.00000000E+00  0.00000000E+00  0.00000000E+00
  0.00000000E+00  0.00000000E+00  0.00000000E+00
  0.00000000E+00  0.00000000E+00  0.00000000E+00
  0.00000000E+00  0.00000000E+00  0.00000000E+00
  0.00000000E+00  0.00000000E+00  0.00000000E+00
  0.00000000E+00  0.00000000E+00  0.00000000E+00
  0.00000000E+00  0.00000000E+00  0.00000000E+00
  0.00000000E+00  0.00000000E+00  0.00000000E+00
  0.00000000E+00  0.00000000E+00  0.00000000E+00
  0.00000000E+00  0.00000000E+00  0.00000000E+00
  0.00000000E+00  0.00000000E+00  0.00000000E+00
  0.00000000E+00  0.00000000E+00  0.00000000E+00
  0.00000000E+00  0.00000000E+00  0.00000000E+00
  0.00000000E+00  0.00000000E+00  0.00000000E+00
  0.00000000E+00  0.00000000E+00  0.00000000E+00
  0.00000000E+00  0.00000000E+00  0.00000000E+00
  0.00000000E+00  0.00000000E+00  0.00000000E+00
  0.00000000E+00  0.00000000E+00  0.00000000E+00
  0.00000000E+00  0.00000000E+00  0.00000000E+00
