H1 Au1 C125 N1 O2                       
   1.00000000000000     
    19.8818993905643815   -0.0005920144160981    0.1846576626393305
    -9.9442142110821248   17.0724697307387565    0.0066682362286471
     0.0876021167890224    0.1196714917160012   29.6468373639361467
   H    Au   C    N    O 
     1     1   125     1     2
Direct
  0.5313501241587432  0.5688535023404824  0.4737800367884428
  0.4371492315337930  0.4990554265399252  0.3982034741842917
  0.0414313172802084  0.0837814546920947  0.4002927340008456
  0.0400665489567639  0.2076825715151560  0.4000334941357879
  0.0393206232790178  0.3323372866432972  0.3999397851503910
  0.0396014057362139  0.4581016954014102  0.4001217677032411
  0.0410237557434269  0.5838823507753672  0.4001353174528247
  0.0421815366195600  0.7094212408066070  0.4001233796721237
  0.0426475091936831  0.8348749743976224  0.4003217483414748
  0.0425340745560327  0.9597816247182056  0.4004042632318622
  0.1676380492015669  0.0856065015183925  0.3998488258676647
  0.1661434159004518  0.2093611077177989  0.3994342287437477
  0.1639444422976749  0.3332219071090898  0.3991802553007578
  0.1622929956026948  0.4581338802921689  0.3996562593924095
  0.1640682178266527  0.5837853438668940  0.3999545224149516
  0.1660049084014825  0.7094186312945328  0.3999494622905507
  0.1670851189993230  0.8349066804958292  0.4000323060309016
  0.1676226462857609  0.9603692992629170  0.4001019216083417
  0.2927548735585673  0.0856601858927656  0.3998480986488128
  0.2935362656075687  0.2122674182722278  0.3990631744934222
  0.2904962115745429  0.3360834630930143  0.3976899070301568
  0.2848527068581718  0.4582813797198639  0.3975605710080644
  0.2866925543368914  0.5844420121772639  0.3993052446038698
  0.2898875157117977  0.7093376134292716  0.3998619156442526
  0.2913156753599403  0.8344090753500358  0.4001565028943358
  0.2920327347178531  0.9598159628961411  0.4002167140167492
  0.4171083068758479  0.0839169921941458  0.4003495630746344
  0.4179607819326880  0.2095958022218880  0.3996631582387796
  0.4203170470513261  0.3367620132047240  0.3987938042174252
  0.4138581169178378  0.7071492448555818  0.3994379625737822
  0.4156016129328226  0.8328386068679109  0.4000680539905603
  0.4164254889887838  0.9583599075560365  0.4005267225297747
  0.5414605110416598  0.0822241083635470  0.4005727127978271
  0.5423791093387732  0.2075657054533454  0.4004009712841611
  0.5439575388620815  0.3327186481731698  0.4001376565312402
  0.5489629930778390  0.4575748517073370  0.4003876871765234
  0.5494702473362940  0.5813483417946534  0.4014483440856837
  0.5381432240263910  0.7027051062596555  0.3997211185359426
  0.5398397443290648  0.8304681937713019  0.3997509369434477
  0.5408362792563504  0.9566142005857720  0.4002728801414596
  0.6658133060867144  0.0814176992244028  0.4002526049382898
  0.6665995764494965  0.2068784612538673  0.4005021088883636
  0.6678825860103825  0.3322081454902315  0.4006523373416205
  0.6709443829887720  0.4579718249331939  0.4009044130620350
  0.6729776341361723  0.5841717699463377  0.4010037910816324
  0.6676647207874583  0.7070744306624454  0.4005028177798056
  0.6647812928853550  0.8301614739125186  0.4000447815029048
  0.6652714946573894  0.9559167739459445  0.3999812365440186
  0.7903888728122184  0.0813997838302860  0.4000460231138549
  0.7907477356998203  0.2066636838681307  0.4001193375632423
  0.7917662781056818  0.3322423196735216  0.4004948766096804
  0.7935718926133271  0.4580734260997387  0.4008706254370066
  0.7949530250247175  0.5837859389331758  0.4010238069594856
  0.7941039416688691  0.7091883489285646  0.4008958041645798
  0.7918291247129760  0.8327337519761350  0.4005379416338212
  0.7903190781175168  0.9564223944888385  0.4002572939255382
  0.9154836245002466  0.0821651990201651  0.4002980544991030
  0.9151419556621898  0.2069326151632054  0.4000543715283465
  0.9154537455890911  0.3322702027171313  0.4001384733045971
  0.9165222674821468  0.4579799209841994  0.4004128986810446
  0.9179569385641988  0.5838793686962975  0.4006760772857402
  0.9183033472672628  0.7094902487894637  0.4007170401779077
  0.9178170616791862  0.8342752530433654  0.4007142005383141
  0.9165810468809200  0.9582179594932690  0.4006482255570192
  0.0840837775051334  0.0432551334888411  0.4002549175198677
  0.0826531595586663  0.1670348372525624  0.3999944708819057
  0.0809551462112688  0.2909997791572387  0.3997900865905410
  0.0801742551473862  0.4160848168350887  0.4000010734225787
  0.0814155946560335  0.5417438888726860  0.4000560089464587
  0.0830687981467977  0.6675449427461734  0.4000501500026134
  0.0840157135802489  0.7931891637904855  0.4000850604717538
  0.0843182287752569  0.9184540577829523  0.4002618086235547
  0.2093377358329684  0.0438920745039297  0.3999030728119289
  0.2092506089346455  0.1692611373410846  0.3993954201955865
  0.2068986692556587  0.2927331057785509  0.3987550103422119
  0.2029389201740700  0.4164475287345207  0.3988976625249532
  0.2040999344065901  0.5417407159322956  0.3997018501312192
  0.2068476013638767  0.6675467469004353  0.3999121987966562
  0.2081941292294167  0.7929670126341475  0.4000035512434194
  0.2090018261956379  0.9184745696464441  0.4000960512472018
  0.3339346073425729  0.0433088930590877  0.4001990287531683
  0.3347739604818136  0.1692822853533059  0.3995163297219470
  0.3352130966615158  0.2957878941283317  0.3983113520011114
  0.3257060017867410  0.4179850170015503  0.3964667658692625
  0.3272298699219385  0.5436748379496519  0.3981219125287683
  0.3306453614699364  0.6674301248715627  0.3995750912686749
  0.3324535118932987  0.7924992585121926  0.4000606419231768
  0.3333392166378558  0.9177592922495115  0.4003196532502906
  0.4584226553751938  0.0417011565843433  0.4006021028705396
  0.4591441507821906  0.1672012291645259  0.4001675039071634
  0.4606028813175072  0.2930486952165630  0.3994721876176560
  0.4678812315342693  0.4188418702862199  0.3991786480166086
  0.4529567111826766  0.6627736284031510  0.3989766915119832
  0.4568167200210583  0.7905372669219550  0.3997832668267950
  0.4576671816218027  0.9161199526527780  0.4003179988381282
  0.5827330425261246  0.0401032804111305  0.4003927575767554
  0.5835105884765011  0.1655893267829287  0.4005778590574388
  0.5848570349657651  0.2907297806548149  0.4004128526774544
  0.5883953354579116  0.4156580435485036  0.4005372771027947
  0.5917841571485150  0.5425310815952286  0.4011431230254693
  0.5837336498961431  0.6630731226622313  0.4005597186879926
  0.5802838343718848  0.7868551834024158  0.3997860869131394
  0.5819763231976751  0.9142099090831346  0.3999621538588050
  0.7071062572224092  0.0394639768001354  0.4000883911940361
  0.7077458703605324  0.1649687455192056  0.4003104258599377
  0.7087321511806989  0.2903707500293377  0.4005890671703690
  0.7109336186903217  0.4159921615477150  0.4008659198870480
  0.7130200033407303  0.5417687947397639  0.4009968182813449
  0.7112681548460084  0.6672062839279831  0.4008836402638118
  0.7082532060568292  0.7903538914621124  0.4003059736539215
  0.7066356950259500  0.9139284663097499  0.4000367427086080
  0.8320455216358161  0.0399893308961869  0.4001663921784781
  0.8320712821066993  0.1649875604301765  0.4000244686700525
  0.8326756578992022  0.2903833681584211  0.4001673153101216
  0.8339469680278643  0.4159375071890721  0.4006396413065015
  0.8354550385817257  0.5417217660496263  0.4009202743467245
  0.8355917889961351  0.6676137208726216  0.4009357681009139
  0.8347022585244885  0.7923250007749398  0.4007542709260385
  0.8330352267098471  0.9159756424008578  0.4004927382668677
  0.9579283310519057  0.0415431810414141  0.4005061723495548
  0.9569058562053924  0.1656113729247384  0.4001871466255664
  0.9565621806688215  0.2904369101059123  0.4000391996151473
  0.9570284598193258  0.4159563567945983  0.4002295227069230
  0.9584764311719712  0.5418579887070595  0.4003824639036169
  0.9594102923256722  0.6675866454843619  0.4005177053564157
  0.9595919085834798  0.7929648658410162  0.4005964240444703
  0.9591082954467655  0.9176422209092286  0.4006047968760409
  0.4061214901829726  0.5828586125968095  0.3978087254349943
  0.5171665240555152  0.5553458357600786  0.5065029850815762
  0.4410125832568117  0.5011730925324154  0.5070409874339621
 
  0.00000000E+00  0.00000000E+00  0.00000000E+00
  0.00000000E+00  0.00000000E+00  0.00000000E+00
  0.00000000E+00  0.00000000E+00  0.00000000E+00
  0.00000000E+00  0.00000000E+00  0.00000000E+00
  0.00000000E+00  0.00000000E+00  0.00000000E+00
  0.00000000E+00  0.00000000E+00  0.00000000E+00
  0.00000000E+00  0.00000000E+00  0.00000000E+00
  0.00000000E+00  0.00000000E+00  0.00000000E+00
  0.00000000E+00  0.00000000E+00  0.00000000E+00
  0.00000000E+00  0.00000000E+00  0.00000000E+00
  0.00000000E+00  0.00000000E+00  0.00000000E+00
  0.00000000E+00  0.00000000E+00  0.00000000E+00
  0.00000000E+00  0.00000000E+00  0.00000000E+00
  0.00000000E+00  0.00000000E+00  0.00000000E+00
  0.00000000E+00  0.00000000E+00  0.00000000E+00
  0.00000000E+00  0.00000000E+00  0.00000000E+00
  0.00000000E+00  0.00000000E+00  0.00000000E+00
  0.00000000E+00  0.00000000E+00  0.00000000E+00
  0.00000000E+00  0.00000000E+00  0.00000000E+00
  0.00000000E+00  0.00000000E+00  0.00000000E+00
  0.00000000E+00  0.00000000E+00  0.00000000E+00
  0.00000000E+00  0.00000000E+00  0.00000000E+00
  0.00000000E+00  0.00000000E+00  0.00000000E+00
  0.00000000E+00  0.00000000E+00  0.00000000E+00
  0.00000000E+00  0.00000000E+00  0.00000000E+00
  0.00000000E+00  0.00000000E+00  0.00000000E+00
  0.00000000E+00  0.00000000E+00  0.00000000E+00
  0.00000000E+00  0.00000000E+00  0.00000000E+00
  0.00000000E+00  0.00000000E+00  0.00000000E+00
  0.00000000E+00  0.00000000E+00  0.00000000E+00
  0.00000000E+00  0.00000000E+00  0.00000000E+00
  0.00000000E+00  0.00000000E+00  0.00000000E+00
  0.00000000E+00  0.00000000E+00  0.00000000E+00
  0.00000000E+00  0.00000000E+00  0.00000000E+00
  0.00000000E+00  0.00000000E+00  0.00000000E+00
  0.00000000E+00  0.00000000E+00  0.00000000E+00
  0.00000000E+00  0.00000000E+00  0.00000000E+00
  0.00000000E+00  0.00000000E+00  0.00000000E+00
  0.00000000E+00  0.00000000E+00  0.00000000E+00
  0.00000000E+00  0.00000000E+00  0.00000000E+00
  0.00000000E+00  0.00000000E+00  0.00000000E+00
  0.00000000E+00  0.00000000E+00  0.00000000E+00
  0.00000000E+00  0.00000000E+00  0.00000000E+00
  0.00000000E+00  0.00000000E+00  0.00000000E+00
  0.00000000E+00  0.00000000E+00  0.00000000E+00
  0.00000000E+00  0.00000000E+00  0.00000000E+00
  0.00000000E+00  0.00000000E+00  0.00000000E+00
  0.00000000E+00  0.00000000E+00  0.00000000E+00
  0.00000000E+00  0.00000000E+00  0.00000000E+00
  0.00000000E+00  0.00000000E+00  0.00000000E+00
  0.00000000E+00  0.00000000E+00  0.00000000E+00
  0.00000000E+00  0.00000000E+00  0.00000000E+00
  0.00000000E+00  0.00000000E+00  0.00000000E+00
  0.00000000E+00  0.00000000E+00  0.00000000E+00
  0.00000000E+00  0.00000000E+00  0.00000000E+00
  0.00000000E+00  0.00000000E+00  0.00000000E+00
  0.00000000E+00  0.00000000E+00  0.00000000E+00
  0.00000000E+00  0.00000000E+00  0.00000000E+00
  0.00000000E+00  0.00000000E+00  0.00000000E+00
  0.00000000E+00  0.00000000E+00  0.00000000E+00
  0.00000000E+00  0.00000000E+00  0.00000000E+00
  0.00000000E+00  0.00000000E+00  0.00000000E+00
  0.00000000E+00  0.00000000E+00  0.00000000E+00
  0.00000000E+00  0.00000000E+00  0.00000000E+00
  0.00000000E+00  0.00000000E+00  0.00000000E+00
  0.00000000E+00  0.00000000E+00  0.00000000E+00
  0.00000000E+00  0.00000000E+00  0.00000000E+00
  0.00000000E+00  0.00000000E+00  0.00000000E+00
  0.00000000E+00  0.00000000E+00  0.00000000E+00
  0.00000000E+00  0.00000000E+00  0.00000000E+00
  0.00000000E+00  0.00000000E+00  0.00000000E+00
  0.00000000E+00  0.00000000E+00  0.00000000E+00
  0.00000000E+00  0.00000000E+00  0.00000000E+00
  0.00000000E+00  0.00000000E+00  0.00000000E+00
  0.00000000E+00  0.00000000E+00  0.00000000E+00
  0.00000000E+00  0.00000000E+00  0.00000000E+00
  0.00000000E+00  0.00000000E+00  0.00000000E+00
  0.00000000E+00  0.00000000E+00  0.00000000E+00
  0.00000000E+00  0.00000000E+00  0.00000000E+00
  0.00000000E+00  0.00000000E+00  0.00000000E+00
  0.00000000E+00  0.00000000E+00  0.00000000E+00
  0.00000000E+00  0.00000000E+00  0.00000000E+00
  0.00000000E+00  0.00000000E+00  0.00000000E+00
  0.00000000E+00  0.00000000E+00  0.00000000E+00
  0.00000000E+00  0.00000000E+00  0.00000000E+00
  0.00000000E+00  0.00000000E+00  0.00000000E+00
  0.00000000E+00  0.00000000E+00  0.00000000E+00
  0.00000000E+00  0.00000000E+00  0.00000000E+00
  0.00000000E+00  0.00000000E+00  0.00000000E+00
  0.00000000E+00  0.00000000E+00  0.00000000E+00
  0.00000000E+00  0.00000000E+00  0.00000000E+00
  0.00000000E+00  0.00000000E+00  0.00000000E+00
  0.00000000E+00  0.00000000E+00  0.00000000E+00
  0.00000000E+00  0.00000000E+00  0.00000000E+00
  0.00000000E+00  0.00000000E+00  0.00000000E+00
  0.00000000E+00  0.00000000E+00  0.00000000E+00
  0.00000000E+00  0.00000000E+00  0.00000000E+00
  0.00000000E+00  0.00000000E+00  0.00000000E+00
  0.00000000E+00  0.00000000E+00  0.00000000E+00
  0.00000000E+00  0.00000000E+00  0.00000000E+00
  0.00000000E+00  0.00000000E+00  0.00000000E+00
  0.00000000E+00  0.00000000E+00  0.00000000E+00
  0.00000000E+00  0.00000000E+00  0.00000000E+00
  0.00000000E+00  0.00000000E+00  0.00000000E+00
  0.00000000E+00  0.00000000E+00  0.00000000E+00
  0.00000000E+00  0.00000000E+00  0.00000000E+00
  0.00000000E+00  0.00000000E+00  0.00000000E+00
  0.00000000E+00  0.00000000E+00  0.00000000E+00
  0.00000000E+00  0.00000000E+00  0.00000000E+00
  0.00000000E+00  0.00000000E+00  0.00000000E+00
  0.00000000E+00  0.00000000E+00  0.00000000E+00
  0.00000000E+00  0.00000000E+00  0.00000000E+00
  0.00000000E+00  0.00000000E+00  0.00000000E+00
  0.00000000E+00  0.00000000E+00  0.00000000E+00
  0.00000000E+00  0.00000000E+00  0.00000000E+00
  0.00000000E+00  0.00000000E+00  0.00000000E+00
  0.00000000E+00  0.00000000E+00  0.00000000E+00
  0.00000000E+00  0.00000000E+00  0.00000000E+00
  0.00000000E+00  0.00000000E+00  0.00000000E+00
  0.00000000E+00  0.00000000E+00  0.00000000E+00
  0.00000000E+00  0.00000000E+00  0.00000000E+00
  0.00000000E+00  0.00000000E+00  0.00000000E+00
  0.00000000E+00  0.00000000E+00  0.00000000E+00
  0.00000000E+00  0.00000000E+00  0.00000000E+00
  0.00000000E+00  0.00000000E+00  0.00000000E+00
  0.00000000E+00  0.00000000E+00  0.00000000E+00
  0.00000000E+00  0.00000000E+00  0.00000000E+00
  0.00000000E+00  0.00000000E+00  0.00000000E+00
  0.00000000E+00  0.00000000E+00  0.00000000E+00
  0.00000000E+00  0.00000000E+00  0.00000000E+00
