Ir1 C122 N4 O1                          
   1.00000000000000     
    19.8453489004885348    0.0000710233518219    0.0066771197629677
    -9.9226154435685636   17.0199242801219768   -0.0031743364468799
     0.0100151940109191    0.0002875106706720   29.7909849572476766
   Ir   C    N    O 
     1   122     4     1
Direct
  0.4374725798045553  0.5000011561408469  0.4153339878035412
  0.0421290420455905  0.0843351999159145  0.3999279937658654
  0.0407250769069495  0.2080760313129492  0.3998507849605833
  0.0396799037489695  0.3327293701239961  0.3995474229747125
  0.0398026305875328  0.4581526424031214  0.3991913015455614
  0.0410830060091574  0.5838973752497031  0.3992350227030335
  0.0422596576010190  0.7095229066733086  0.3994424587921693
  0.0426685774924691  0.8348271285552555  0.3996214704874730
  0.0427812096719095  0.9599912905367557  0.3998005539013444
  0.1684648767692583  0.0863753043639177  0.4003833314128746
  0.1675743226085389  0.2107116109643752  0.4011226405409858
  0.1642914197204846  0.3335900693693445  0.4013282888157713
  0.1628243994497579  0.4584390025220856  0.4004326959978927
  0.1643259372635920  0.5838450377273513  0.3994930046404608
  0.1662014604536740  0.7092839698846567  0.3994546154734250
  0.1671621086041748  0.8348299708772999  0.3996281614821650
  0.1677740294694184  0.9605064477057038  0.3998316141040919
  0.2929316461606102  0.0863489681643727  0.4004056523297013
  0.2945686229236755  0.2141160245859063  0.4025720711009033
  0.2920638123588883  0.3390134091564286  0.4047297898137027
  0.2849313499451966  0.4582656008957126  0.4047275887109998
  0.2869311004042117  0.5832594573704821  0.4019857781774011
  0.2901872978753771  0.7085614523292116  0.4000416711800406
  0.2915456820219611  0.8341380091823056  0.3996618933720226
  0.2922633306236672  0.9599820705146505  0.3997833617524123
  0.4172415521188392  0.0843103605539491  0.3999319449266128
  0.4181275787940401  0.2106881073754007  0.4011915256115353
  0.4219376319947043  0.3390049849427163  0.4047965896566247
  0.4140907009446471  0.7056083937134063  0.4021163121574981
  0.4158530496409600  0.8320436973474834  0.4001984781337812
  0.4166272726653746  0.9582027779871982  0.3997991322710605
  0.5415524702251855  0.0823142432403862  0.3997758566968638
  0.5423477598353100  0.2080598094285384  0.3998527459532221
  0.5442687507601196  0.3335724361030987  0.4013686979695048
  0.5483120769777633  0.4582677702147822  0.4048059997735252
  0.5377745874951949  0.7005543321275592  0.4046804392716184
  0.5400876787677096  0.8294554909360273  0.4013783201504454
  0.5409466720893024  0.9562063971370883  0.3999512874489272
  0.6659447371570064  0.0814688235532847  0.3997420212316495
  0.6666592727036912  0.2071069740463546  0.3995877778222877
  0.6680166811865262  0.3327209363632360  0.3995418908226102
  0.6705848714591948  0.4584404796171869  0.4004847788243201
  0.6713177171487535  0.5832771002746411  0.4020320727420708
  0.6665210078161243  0.7056314458992685  0.4022046443217565
  0.6644004785054981  0.8294832374989478  0.4014376594838843
  0.6653507530271636  0.9556654847330506  0.4001809926063818
  0.7905708563642765  0.0814712770245578  0.3997405251843301
  0.7909554551320017  0.2069040260743633  0.3995528843569455
  0.7918096168402138  0.3324572389303443  0.3993712664569546
  0.7932977196546043  0.4581545654143731  0.3991914447416648
  0.7944759235906235  0.5838539421552105  0.3995121190013501
  0.7933606264262792  0.7085690629676802  0.4000383119461560
  0.7912230095040063  0.8320597931180469  0.4002211058767174
  0.7903008158662904  0.9562267073899641  0.3999547200903625
  0.9158213201718056  0.0823203320137243  0.3997607073248649
  0.9154468135445036  0.2070981078941516  0.3995975212018649
  0.9156396984288258  0.3324631864690883  0.3993752594459509
  0.9165630437000437  0.4581747866622078  0.3992017373091410
  0.9177609377983867  0.5839070510045782  0.3992291770454883
  0.9180589855840593  0.7092715320827107  0.3994479592692879
  0.9176145386531538  0.8341342963055578  0.3996625919208732
  0.9166438639194900  0.9582109786917203  0.3998019597859982
  0.0847386834881742  0.0437931580224253  0.3999522977184921
  0.0838078165980108  0.1679546783758934  0.4001994653999172
  0.0816213290004167  0.2914358072050226  0.4000418734818132
  0.0804764073528652  0.4161544601169899  0.3994911525685854
  0.0816446381889677  0.5418479590957275  0.3991930485498442
  0.0831755419072860  0.6675394299810395  0.3993769022272554
  0.0840498176904741  0.7930959033496890  0.3995545667159390
  0.0844731417325687  0.9185307200386583  0.3997440518396831
  0.2096830342052761  0.0443339854131439  0.4001821400580616
  0.2106319243359333  0.1705436571833099  0.4013803249903523
  0.2084816894715270  0.2943906502491382  0.4021174628520532
  0.2036682502735557  0.4167392429467478  0.4019849000258963
  0.2043796424371513  0.5415606087717202  0.4004328758667398
  0.2069472544723164  0.6672720855656261  0.3995476656526266
  0.2083474008077961  0.7929040071558381  0.3995966843137834
  0.2090960050216145  0.9185271816890146  0.3997406981703399
  0.3340711713919119  0.0437722506379115  0.3999558032572956
  0.3349138561561366  0.1705177267571554  0.4014397062725660
  0.3372209176452959  0.2994467996462428  0.4046815579626414
  0.3266637443673219  0.5417344169669566  0.4047274906767184
  0.3306996816087823  0.6664106617299719  0.4013274814489707
  0.3326467813996394  0.7919265359104337  0.3998498874876309
  0.3334996198117967  0.9176808069346298  0.3997609490384251
  0.4584313746093904  0.0417893767909931  0.3998010913336883
  0.4591594604729223  0.1679397821306571  0.4002220468006907
  0.4608864079745667  0.2943718053366959  0.4022060337040226
  0.4530519667779083  0.6609878237004670  0.4047287521720930
  0.4568636346669699  0.7892910761180602  0.4011206873715864
  0.4577936534118786  0.9156677588811343  0.3999279320239222
  0.5827888332522498  0.0400093563706285  0.3997985373322318
  0.5834786857932617  0.1658632469349625  0.3996620717861598
  0.5847880254272897  0.2914288113947096  0.4000412992009627
  0.5880263183639718  0.4167251669659807  0.4020339571073889
  0.5900326225713838  0.5417290611929256  0.4048069661581813
  0.5829292989335353  0.6609936818686838  0.4047959610809184
  0.5804524900931282  0.7858835094733811  0.4025700788697997
  0.5820907513336301  0.9136249165401840  0.4003821875014986
  0.7072683229352076  0.0394934490888082  0.3998305885076921
  0.7078412337641097  0.1651717208107048  0.3996195039832915
  0.7087889461586210  0.2907264378778023  0.3994478972271182
  0.7106214678888678  0.4161473689153102  0.3995121979173830
  0.7121362528715088  0.5415597460642356  0.4004849201521118
  0.7106861146011856  0.6664238076777104  0.4013662051351650
  0.7074371423922778  0.7893106776930195  0.4011904390101418
  0.7065832845659554  0.9136498741969926  0.4004037360438946
  0.8322820330020686  0.0400180588689611  0.3997829355113161
  0.8323324042093059  0.1651697369769800  0.3996280751298472
  0.8327369535422916  0.2904761598249443  0.3994418689641598
  0.8338564960911545  0.4160932410213976  0.3992272536937533
  0.8351483978997558  0.5418455855468156  0.3991923240576179
  0.8352951251408007  0.6672803371402189  0.3995408193018009
  0.8342893055921116  0.7919425673545349  0.3998516685440470
  0.8329333095284454  0.9156898762041271  0.3999318824335999
  0.9584236075242325  0.0417955997692741  0.3997984134623772
  0.9574049710804468  0.1658602088906245  0.3996618684858404
  0.9569123329364945  0.2907166805736934  0.3994546000355602
  0.9571838100691559  0.4161046128847156  0.3992335762714900
  0.9583900024234758  0.5418267391171171  0.3992033575833270
  0.9593551191315118  0.6675437154214819  0.3993727121009988
  0.9595532885461409  0.7928940241357701  0.3995880283175051
  0.9592380604953843  0.9176852011200773  0.3997778688573110
  0.4069807159248243  0.5801288782049994  0.4068257185895473
  0.5481271445758880  0.5801347235319044  0.4068780963899807
  0.3268527170616137  0.4198709264909312  0.4068266006804950
  0.4679914644867390  0.4198673956663281  0.4068774635132772
  0.4374004955011954  0.4999988676702208  0.4774291764073083
 
  0.00000000E+00  0.00000000E+00  0.00000000E+00
  0.00000000E+00  0.00000000E+00  0.00000000E+00
  0.00000000E+00  0.00000000E+00  0.00000000E+00
  0.00000000E+00  0.00000000E+00  0.00000000E+00
  0.00000000E+00  0.00000000E+00  0.00000000E+00
  0.00000000E+00  0.00000000E+00  0.00000000E+00
  0.00000000E+00  0.00000000E+00  0.00000000E+00
  0.00000000E+00  0.00000000E+00  0.00000000E+00
  0.00000000E+00  0.00000000E+00  0.00000000E+00
  0.00000000E+00  0.00000000E+00  0.00000000E+00
  0.00000000E+00  0.00000000E+00  0.00000000E+00
  0.00000000E+00  0.00000000E+00  0.00000000E+00
  0.00000000E+00  0.00000000E+00  0.00000000E+00
  0.00000000E+00  0.00000000E+00  0.00000000E+00
  0.00000000E+00  0.00000000E+00  0.00000000E+00
  0.00000000E+00  0.00000000E+00  0.00000000E+00
  0.00000000E+00  0.00000000E+00  0.00000000E+00
  0.00000000E+00  0.00000000E+00  0.00000000E+00
  0.00000000E+00  0.00000000E+00  0.00000000E+00
  0.00000000E+00  0.00000000E+00  0.00000000E+00
  0.00000000E+00  0.00000000E+00  0.00000000E+00
  0.00000000E+00  0.00000000E+00  0.00000000E+00
  0.00000000E+00  0.00000000E+00  0.00000000E+00
  0.00000000E+00  0.00000000E+00  0.00000000E+00
  0.00000000E+00  0.00000000E+00  0.00000000E+00
  0.00000000E+00  0.00000000E+00  0.00000000E+00
  0.00000000E+00  0.00000000E+00  0.00000000E+00
  0.00000000E+00  0.00000000E+00  0.00000000E+00
  0.00000000E+00  0.00000000E+00  0.00000000E+00
  0.00000000E+00  0.00000000E+00  0.00000000E+00
  0.00000000E+00  0.00000000E+00  0.00000000E+00
  0.00000000E+00  0.00000000E+00  0.00000000E+00
  0.00000000E+00  0.00000000E+00  0.00000000E+00
  0.00000000E+00  0.00000000E+00  0.00000000E+00
  0.00000000E+00  0.00000000E+00  0.00000000E+00
  0.00000000E+00  0.00000000E+00  0.00000000E+00
  0.00000000E+00  0.00000000E+00  0.00000000E+00
  0.00000000E+00  0.00000000E+00  0.00000000E+00
  0.00000000E+00  0.00000000E+00  0.00000000E+00
  0.00000000E+00  0.00000000E+00  0.00000000E+00
  0.00000000E+00  0.00000000E+00  0.00000000E+00
  0.00000000E+00  0.00000000E+00  0.00000000E+00
  0.00000000E+00  0.00000000E+00  0.00000000E+00
  0.00000000E+00  0.00000000E+00  0.00000000E+00
  0.00000000E+00  0.00000000E+00  0.00000000E+00
  0.00000000E+00  0.00000000E+00  0.00000000E+00
  0.00000000E+00  0.00000000E+00  0.00000000E+00
  0.00000000E+00  0.00000000E+00  0.00000000E+00
  0.00000000E+00  0.00000000E+00  0.00000000E+00
  0.00000000E+00  0.00000000E+00  0.00000000E+00
  0.00000000E+00  0.00000000E+00  0.00000000E+00
  0.00000000E+00  0.00000000E+00  0.00000000E+00
  0.00000000E+00  0.00000000E+00  0.00000000E+00
  0.00000000E+00  0.00000000E+00  0.00000000E+00
  0.00000000E+00  0.00000000E+00  0.00000000E+00
  0.00000000E+00  0.00000000E+00  0.00000000E+00
  0.00000000E+00  0.00000000E+00  0.00000000E+00
  0.00000000E+00  0.00000000E+00  0.00000000E+00
  0.00000000E+00  0.00000000E+00  0.00000000E+00
  0.00000000E+00  0.00000000E+00  0.00000000E+00
  0.00000000E+00  0.00000000E+00  0.00000000E+00
  0.00000000E+00  0.00000000E+00  0.00000000E+00
  0.00000000E+00  0.00000000E+00  0.00000000E+00
  0.00000000E+00  0.00000000E+00  0.00000000E+00
  0.00000000E+00  0.00000000E+00  0.00000000E+00
  0.00000000E+00  0.00000000E+00  0.00000000E+00
  0.00000000E+00  0.00000000E+00  0.00000000E+00
  0.00000000E+00  0.00000000E+00  0.00000000E+00
  0.00000000E+00  0.00000000E+00  0.00000000E+00
  0.00000000E+00  0.00000000E+00  0.00000000E+00
  0.00000000E+00  0.00000000E+00  0.00000000E+00
  0.00000000E+00  0.00000000E+00  0.00000000E+00
  0.00000000E+00  0.00000000E+00  0.00000000E+00
  0.00000000E+00  0.00000000E+00  0.00000000E+00
  0.00000000E+00  0.00000000E+00  0.00000000E+00
  0.00000000E+00  0.00000000E+00  0.00000000E+00
  0.00000000E+00  0.00000000E+00  0.00000000E+00
  0.00000000E+00  0.00000000E+00  0.00000000E+00
  0.00000000E+00  0.00000000E+00  0.00000000E+00
  0.00000000E+00  0.00000000E+00  0.00000000E+00
  0.00000000E+00  0.00000000E+00  0.00000000E+00
  0.00000000E+00  0.00000000E+00  0.00000000E+00
  0.00000000E+00  0.00000000E+00  0.00000000E+00
  0.00000000E+00  0.00000000E+00  0.00000000E+00
  0.00000000E+00  0.00000000E+00  0.00000000E+00
  0.00000000E+00  0.00000000E+00  0.00000000E+00
  0.00000000E+00  0.00000000E+00  0.00000000E+00
  0.00000000E+00  0.00000000E+00  0.00000000E+00
  0.00000000E+00  0.00000000E+00  0.00000000E+00
  0.00000000E+00  0.00000000E+00  0.00000000E+00
  0.00000000E+00  0.00000000E+00  0.00000000E+00
  0.00000000E+00  0.00000000E+00  0.00000000E+00
  0.00000000E+00  0.00000000E+00  0.00000000E+00
  0.00000000E+00  0.00000000E+00  0.00000000E+00
  0.00000000E+00  0.00000000E+00  0.00000000E+00
  0.00000000E+00  0.00000000E+00  0.00000000E+00
  0.00000000E+00  0.00000000E+00  0.00000000E+00
  0.00000000E+00  0.00000000E+00  0.00000000E+00
  0.00000000E+00  0.00000000E+00  0.00000000E+00
  0.00000000E+00  0.00000000E+00  0.00000000E+00
  0.00000000E+00  0.00000000E+00  0.00000000E+00
  0.00000000E+00  0.00000000E+00  0.00000000E+00
  0.00000000E+00  0.00000000E+00  0.00000000E+00
  0.00000000E+00  0.00000000E+00  0.00000000E+00
  0.00000000E+00  0.00000000E+00  0.00000000E+00
  0.00000000E+00  0.00000000E+00  0.00000000E+00
  0.00000000E+00  0.00000000E+00  0.00000000E+00
  0.00000000E+00  0.00000000E+00  0.00000000E+00
  0.00000000E+00  0.00000000E+00  0.00000000E+00
  0.00000000E+00  0.00000000E+00  0.00000000E+00
  0.00000000E+00  0.00000000E+00  0.00000000E+00
  0.00000000E+00  0.00000000E+00  0.00000000E+00
  0.00000000E+00  0.00000000E+00  0.00000000E+00
  0.00000000E+00  0.00000000E+00  0.00000000E+00
  0.00000000E+00  0.00000000E+00  0.00000000E+00
  0.00000000E+00  0.00000000E+00  0.00000000E+00
  0.00000000E+00  0.00000000E+00  0.00000000E+00
  0.00000000E+00  0.00000000E+00  0.00000000E+00
  0.00000000E+00  0.00000000E+00  0.00000000E+00
  0.00000000E+00  0.00000000E+00  0.00000000E+00
  0.00000000E+00  0.00000000E+00  0.00000000E+00
  0.00000000E+00  0.00000000E+00  0.00000000E+00
  0.00000000E+00  0.00000000E+00  0.00000000E+00
  0.00000000E+00  0.00000000E+00  0.00000000E+00
  0.00000000E+00  0.00000000E+00  0.00000000E+00
  0.00000000E+00  0.00000000E+00  0.00000000E+00
  0.00000000E+00  0.00000000E+00  0.00000000E+00
  0.00000000E+00  0.00000000E+00  0.00000000E+00
