La1 C124 N2 O1                          
   1.00000000000000     
    19.8012096959898862   -0.0259777364008935    0.0958931234717880
    -9.9229182501892907   17.0768845301107284    0.0014141579394898
     0.1440294809834897    0.0862036289484272   29.7815118513364006
   La   C    N    O 
     1   124     2     1
Direct
  0.4312485770749100  0.4989159055116392  0.4616170714329199
  0.0420593686626644  0.0840095308816153  0.3999752463188871
  0.0416974388941066  0.2085688129336543  0.3995197413563720
  0.0411908293548532  0.3332103181978192  0.3990929415433178
  0.0408662642231062  0.4584513905453503  0.3993230362801776
  0.0410519280733326  0.5837067302752663  0.3998775175683078
  0.0414331204195613  0.7089159223080482  0.4001061941675585
  0.0417315774532061  0.8340977737597285  0.4000726973983341
  0.0421149934721341  0.9593028728062069  0.4000970828291924
  0.1678109422575892  0.0852268522017755  0.4002091228954470
  0.1674830659739139  0.2097511527317520  0.3996601607886203
  0.1666760854885527  0.3343797720770532  0.3982339076147276
  0.1650907667506347  0.4589172712110896  0.3976334322751239
  0.1652522176045533  0.5839743516219146  0.3984654858266494
  0.1659194757933377  0.7091528425549882  0.3995382694684063
  0.1665005089125878  0.8343048155106073  0.4000014570624081
  0.1670983804429462  0.9596246286487922  0.4001910883210206
  0.2924341915945979  0.0847842280618516  0.4001400578772412
  0.2942076092562784  0.2117232142099373  0.4008825029403936
  0.2932702372889582  0.3366539729204656  0.4007250389460687
  0.2902649783009913  0.4600552905705255  0.3980890498435653
  0.2891639404140330  0.5850734259235103  0.3979105364072287
  0.2903445965271642  0.7095326967035828  0.3988717199454788
  0.2911987140025847  0.8342048198985426  0.3996295828619613
  0.2917220089146606  0.9592479541830871  0.3999903192417892
  0.4170251373130386  0.0834197493691862  0.3997007602153223
  0.4177126629656685  0.2085576863898249  0.3995746429482152
  0.4215283032782274  0.3360228763906655  0.4026856558629147
  0.4147519561501546  0.7082443629100118  0.3999024166529568
  0.4159445540116533  0.8333298500638961  0.3995249821234146
  0.4164444545978249  0.9583280932733697  0.3997941626969060
  0.5417078412819258  0.0824173539519617  0.3998116189834831
  0.5423219508722305  0.2074672673423132  0.3992373006811721
  0.5434296747982039  0.3323573586417433  0.3988538482242690
  0.5426677885285961  0.4550637657926288  0.4020983111917765
  0.5437725931965792  0.5802908385435779  0.4100344592277564
  0.5388321722621183  0.7040325082523902  0.4039478472737461
  0.5403756382464762  0.8313853698080017  0.4004999163193114
  0.5412225637283942  0.9571645314837544  0.3998599611237081
  0.6664149811383153  0.0820621646508925  0.3999927899504024
  0.6669465110281571  0.2073265753828118  0.3997572855612953
  0.6676129817192965  0.3325004768010397  0.3989033187290172
  0.6683651782558075  0.4577006112046748  0.3977048561729237
  0.6677589931801104  0.5822031238187073  0.3979580384892147
  0.6657420295111839  0.7063828756465260  0.3995660547530772
  0.6650482387438035  0.8307867511611817  0.4002987008141564
  0.6659282569458477  0.9566906058133731  0.4001173948724341
  0.7912751653340433  0.0821951082268563  0.3999901343715326
  0.7915913357558740  0.2073673951695641  0.4000099352117316
  0.7920239882358017  0.3326620180872998  0.3998494797074427
  0.7924370523402779  0.4580020303800427  0.3991087793602586
  0.7924938291222380  0.5831609200843705  0.3981144229186978
  0.7917209469801006  0.7078845251177736  0.3982316638487169
  0.7911554746865483  0.8324828280178045  0.3988784125113563
  0.7908230056549073  0.9570022873822320  0.3997067806353408
  0.9164408092684247  0.0828552284002523  0.3999405519629833
  0.9164397090907849  0.2077758592238297  0.3999247366824993
  0.9164873009544742  0.3328739247210298  0.3999847855407584
  0.9165734346006195  0.4581086205871820  0.4001151623967674
  0.9168244567130022  0.5834573082871052  0.3998767634663777
  0.9168275606983346  0.7086912243325681  0.3994112901567911
  0.9166857414932358  0.8335356946731192  0.3994172410035104
  0.9165399380561347  0.9582079486343202  0.3997495483617793
  0.0841473829335460  0.0429410198650052  0.4001100205249197
  0.0838148791706523  0.1674577358920118  0.3996727490079479
  0.0831069056030846  0.2920240659219281  0.3988941299026333
  0.0822954025215636  0.4168622394545922  0.3986500672595640
  0.0822629425441424  0.5419830974671467  0.3992119470126539
  0.0827514797368428  0.6672225804166914  0.3999024184756713
  0.0832572616125082  0.7925063209641137  0.4000981941447286
  0.0836514786160613  0.9177137265994396  0.4001622553486923
  0.2090340653154175  0.0431256813510833  0.4002604204559508
  0.2099207844143654  0.1689902225476609  0.4002331868518456
  0.2089840582976058  0.2933198982833517  0.3991152072587248
  0.2068427082816872  0.4178575300402533  0.3973443576070544
  0.2063321294825763  0.5424818936719186  0.3976440400430554
  0.2072658653896791  0.6675721452863659  0.3988966254396167
  0.2078907528944521  0.7925814793151926  0.3997285090898118
  0.2084599994253137  0.9177748026448965  0.4000759648030958
  0.3336690712977921  0.0426262763071592  0.3999352283533771
  0.3345907636892305  0.1682967159304581  0.4002711048910838
  0.3365934885354324  0.2954107528624032  0.4022104043420132
  0.3289969823345908  0.4182354850308126  0.4006985519482493
  0.3322548898846229  0.5458356370836770  0.3991083599555708
  0.3316621408186476  0.6679571263232918  0.3987595879671672
  0.3326227040230024  0.7925760372912493  0.3993364118973637
  0.3332037602263999  0.9174780571445327  0.3998343907967343
  0.4584509440622585  0.0415361315686847  0.3997954471926609
  0.4590325724013566  0.1665803529645644  0.3993575179996924
  0.4603310013794436  0.2917045809437217  0.3997692049659996
  0.4536036040834653  0.6638118370066729  0.4026626281298195
  0.4572899442985708  0.7913564689621028  0.3999225426327400
  0.4579154092639940  0.9164614813808200  0.3997001105540047
  0.5831716179861185  0.0405818859449699  0.3999097762988271
  0.5836793020364600  0.1657415695292857  0.3996379013614657
  0.5845992367975458  0.2906182024973419  0.3987940747264526
  0.5854634977860956  0.4152608907010070  0.3985413187370843
  0.5847083673527466  0.5408602489765290  0.4024094418446573
  0.5820915236164984  0.6625999987025520  0.4042730737859807
  0.5807696378962677  0.7878319513755770  0.4014657045829855
  0.5824731833836260  0.9149432092881397  0.4001099242225726
  0.7078264834459931  0.0402148511196634  0.4000137767477850
  0.7083186649491472  0.1655626530487606  0.3999677556506673
  0.7088986568105112  0.2907887148792290  0.3995458783390934
  0.7094635432552208  0.4160985510799291  0.3984159387900023
  0.7096873382740253  0.5412846058463439  0.3973563526100532
  0.7083769817338619  0.6656538102110515  0.3982587854803118
  0.7073977237988373  0.7900197384189647  0.3992269159078800
  0.7071468079320967  0.9146196256017973  0.3999936728126423
  0.8328212060620899  0.0406122555002682  0.3998907315734660
  0.8331052324743127  0.1657681233645854  0.4000173827550516
  0.8333614408106003  0.2909781953107808  0.4000374634437253
  0.8336211735835580  0.4162213872729304  0.3998253331620077
  0.8338538107621054  0.5415031069429765  0.3990864831610390
  0.8337062840497891  0.6667587795146857  0.3985020477793424
  0.8332865183413840  0.7914379314579539  0.3987585904053277
  0.8329140201320459  0.9159258796903923  0.3994267453539484
  0.9584171380204143  0.0417404526621737  0.3999569247257458
  0.9582369685411444  0.1664247983966447  0.3998653951373348
  0.9580037632438663  0.2912475819078037  0.3997525955028720
  0.9578623721342728  0.4164240853840588  0.3999632181272055
  0.9580931533133348  0.5417631650586798  0.4001278126292891
  0.9583177235067851  0.6670504847561072  0.3999011788805351
  0.9584814272847836  0.7921819839572778  0.3996956410598654
  0.9585299358239273  0.9171066894924635  0.3997997378847445
  0.4102252215628863  0.5844960972137594  0.4031513601583526
  0.4641114022622241  0.4152428384976247  0.4058629331354136
  0.4911622406074310  0.5445900116091720  0.5153462761585983
 
  0.00000000E+00  0.00000000E+00  0.00000000E+00
  0.00000000E+00  0.00000000E+00  0.00000000E+00
  0.00000000E+00  0.00000000E+00  0.00000000E+00
  0.00000000E+00  0.00000000E+00  0.00000000E+00
  0.00000000E+00  0.00000000E+00  0.00000000E+00
  0.00000000E+00  0.00000000E+00  0.00000000E+00
  0.00000000E+00  0.00000000E+00  0.00000000E+00
  0.00000000E+00  0.00000000E+00  0.00000000E+00
  0.00000000E+00  0.00000000E+00  0.00000000E+00
  0.00000000E+00  0.00000000E+00  0.00000000E+00
  0.00000000E+00  0.00000000E+00  0.00000000E+00
  0.00000000E+00  0.00000000E+00  0.00000000E+00
  0.00000000E+00  0.00000000E+00  0.00000000E+00
  0.00000000E+00  0.00000000E+00  0.00000000E+00
  0.00000000E+00  0.00000000E+00  0.00000000E+00
  0.00000000E+00  0.00000000E+00  0.00000000E+00
  0.00000000E+00  0.00000000E+00  0.00000000E+00
  0.00000000E+00  0.00000000E+00  0.00000000E+00
  0.00000000E+00  0.00000000E+00  0.00000000E+00
  0.00000000E+00  0.00000000E+00  0.00000000E+00
  0.00000000E+00  0.00000000E+00  0.00000000E+00
  0.00000000E+00  0.00000000E+00  0.00000000E+00
  0.00000000E+00  0.00000000E+00  0.00000000E+00
  0.00000000E+00  0.00000000E+00  0.00000000E+00
  0.00000000E+00  0.00000000E+00  0.00000000E+00
  0.00000000E+00  0.00000000E+00  0.00000000E+00
  0.00000000E+00  0.00000000E+00  0.00000000E+00
  0.00000000E+00  0.00000000E+00  0.00000000E+00
  0.00000000E+00  0.00000000E+00  0.00000000E+00
  0.00000000E+00  0.00000000E+00  0.00000000E+00
  0.00000000E+00  0.00000000E+00  0.00000000E+00
  0.00000000E+00  0.00000000E+00  0.00000000E+00
  0.00000000E+00  0.00000000E+00  0.00000000E+00
  0.00000000E+00  0.00000000E+00  0.00000000E+00
  0.00000000E+00  0.00000000E+00  0.00000000E+00
  0.00000000E+00  0.00000000E+00  0.00000000E+00
  0.00000000E+00  0.00000000E+00  0.00000000E+00
  0.00000000E+00  0.00000000E+00  0.00000000E+00
  0.00000000E+00  0.00000000E+00  0.00000000E+00
  0.00000000E+00  0.00000000E+00  0.00000000E+00
  0.00000000E+00  0.00000000E+00  0.00000000E+00
  0.00000000E+00  0.00000000E+00  0.00000000E+00
  0.00000000E+00  0.00000000E+00  0.00000000E+00
  0.00000000E+00  0.00000000E+00  0.00000000E+00
  0.00000000E+00  0.00000000E+00  0.00000000E+00
  0.00000000E+00  0.00000000E+00  0.00000000E+00
  0.00000000E+00  0.00000000E+00  0.00000000E+00
  0.00000000E+00  0.00000000E+00  0.00000000E+00
  0.00000000E+00  0.00000000E+00  0.00000000E+00
  0.00000000E+00  0.00000000E+00  0.00000000E+00
  0.00000000E+00  0.00000000E+00  0.00000000E+00
  0.00000000E+00  0.00000000E+00  0.00000000E+00
  0.00000000E+00  0.00000000E+00  0.00000000E+00
  0.00000000E+00  0.00000000E+00  0.00000000E+00
  0.00000000E+00  0.00000000E+00  0.00000000E+00
  0.00000000E+00  0.00000000E+00  0.00000000E+00
  0.00000000E+00  0.00000000E+00  0.00000000E+00
  0.00000000E+00  0.00000000E+00  0.00000000E+00
  0.00000000E+00  0.00000000E+00  0.00000000E+00
  0.00000000E+00  0.00000000E+00  0.00000000E+00
  0.00000000E+00  0.00000000E+00  0.00000000E+00
  0.00000000E+00  0.00000000E+00  0.00000000E+00
  0.00000000E+00  0.00000000E+00  0.00000000E+00
  0.00000000E+00  0.00000000E+00  0.00000000E+00
  0.00000000E+00  0.00000000E+00  0.00000000E+00
  0.00000000E+00  0.00000000E+00  0.00000000E+00
  0.00000000E+00  0.00000000E+00  0.00000000E+00
  0.00000000E+00  0.00000000E+00  0.00000000E+00
  0.00000000E+00  0.00000000E+00  0.00000000E+00
  0.00000000E+00  0.00000000E+00  0.00000000E+00
  0.00000000E+00  0.00000000E+00  0.00000000E+00
  0.00000000E+00  0.00000000E+00  0.00000000E+00
  0.00000000E+00  0.00000000E+00  0.00000000E+00
  0.00000000E+00  0.00000000E+00  0.00000000E+00
  0.00000000E+00  0.00000000E+00  0.00000000E+00
  0.00000000E+00  0.00000000E+00  0.00000000E+00
  0.00000000E+00  0.00000000E+00  0.00000000E+00
  0.00000000E+00  0.00000000E+00  0.00000000E+00
  0.00000000E+00  0.00000000E+00  0.00000000E+00
  0.00000000E+00  0.00000000E+00  0.00000000E+00
  0.00000000E+00  0.00000000E+00  0.00000000E+00
  0.00000000E+00  0.00000000E+00  0.00000000E+00
  0.00000000E+00  0.00000000E+00  0.00000000E+00
  0.00000000E+00  0.00000000E+00  0.00000000E+00
  0.00000000E+00  0.00000000E+00  0.00000000E+00
  0.00000000E+00  0.00000000E+00  0.00000000E+00
  0.00000000E+00  0.00000000E+00  0.00000000E+00
  0.00000000E+00  0.00000000E+00  0.00000000E+00
  0.00000000E+00  0.00000000E+00  0.00000000E+00
  0.00000000E+00  0.00000000E+00  0.00000000E+00
  0.00000000E+00  0.00000000E+00  0.00000000E+00
  0.00000000E+00  0.00000000E+00  0.00000000E+00
  0.00000000E+00  0.00000000E+00  0.00000000E+00
  0.00000000E+00  0.00000000E+00  0.00000000E+00
  0.00000000E+00  0.00000000E+00  0.00000000E+00
  0.00000000E+00  0.00000000E+00  0.00000000E+00
  0.00000000E+00  0.00000000E+00  0.00000000E+00
  0.00000000E+00  0.00000000E+00  0.00000000E+00
  0.00000000E+00  0.00000000E+00  0.00000000E+00
  0.00000000E+00  0.00000000E+00  0.00000000E+00
  0.00000000E+00  0.00000000E+00  0.00000000E+00
  0.00000000E+00  0.00000000E+00  0.00000000E+00
  0.00000000E+00  0.00000000E+00  0.00000000E+00
  0.00000000E+00  0.00000000E+00  0.00000000E+00
  0.00000000E+00  0.00000000E+00  0.00000000E+00
  0.00000000E+00  0.00000000E+00  0.00000000E+00
  0.00000000E+00  0.00000000E+00  0.00000000E+00
  0.00000000E+00  0.00000000E+00  0.00000000E+00
  0.00000000E+00  0.00000000E+00  0.00000000E+00
  0.00000000E+00  0.00000000E+00  0.00000000E+00
  0.00000000E+00  0.00000000E+00  0.00000000E+00
  0.00000000E+00  0.00000000E+00  0.00000000E+00
  0.00000000E+00  0.00000000E+00  0.00000000E+00
  0.00000000E+00  0.00000000E+00  0.00000000E+00
  0.00000000E+00  0.00000000E+00  0.00000000E+00
  0.00000000E+00  0.00000000E+00  0.00000000E+00
  0.00000000E+00  0.00000000E+00  0.00000000E+00
  0.00000000E+00  0.00000000E+00  0.00000000E+00
  0.00000000E+00  0.00000000E+00  0.00000000E+00
  0.00000000E+00  0.00000000E+00  0.00000000E+00
  0.00000000E+00  0.00000000E+00  0.00000000E+00
  0.00000000E+00  0.00000000E+00  0.00000000E+00
  0.00000000E+00  0.00000000E+00  0.00000000E+00
  0.00000000E+00  0.00000000E+00  0.00000000E+00
  0.00000000E+00  0.00000000E+00  0.00000000E+00
  0.00000000E+00  0.00000000E+00  0.00000000E+00
  0.00000000E+00  0.00000000E+00  0.00000000E+00
  0.00000000E+00  0.00000000E+00  0.00000000E+00
