H1 Pd1 C126 O2                          
   1.00000000000000     
    19.7958561184943953   -0.0184508256306288    0.5266575720385146
    -9.9115697559931863   17.0763778255790086   -0.0888342199610056
     0.7902478399100048    0.3037348827578557   29.8070474638815988
   H    Pd   C    O 
     1     1   126     2
Direct
  0.5580569717919400  0.5601765810037913  0.5241107395295755
  0.4326656973770704  0.4990085397366224  0.4283564498887404
  0.0416267312197141  0.0837672089841033  0.3993530417275541
  0.0410192648028303  0.2081254304884230  0.3989229330737303
  0.0405702533452141  0.3328387729844190  0.3987267320062969
  0.0404039579797023  0.4581773711718642  0.3991017452571051
  0.0407838044240500  0.5835043013505943  0.3995251327946303
  0.0413075776599301  0.7087369097695290  0.3997217351552270
  0.0415986524260467  0.8339592804782074  0.3997069933436289
  0.0417008625836349  0.9589857951845462  0.3995558746009805
  0.1670618399747203  0.0846719736040635  0.3993989469882163
  0.1671503119109541  0.2096667744296249  0.3988610395508833
  0.1658288313925602  0.3334596502458614  0.3975645402975982
  0.1645207953899331  0.4583773559983373  0.3977553593917454
  0.1648964878750617  0.5835810997262200  0.3986400162062590
  0.1658397553283854  0.7088287985914907  0.3995649736868121
  0.1663424699255218  0.8340346228960399  0.3999020492752072
  0.1667276498739710  0.9592951088981613  0.3997669587163377
  0.2918948224645803  0.0844555782536644  0.3999005696322828
  0.2925973805777130  0.2105677291357243  0.4006839419729072
  0.2933587128854419  0.3369643742657448  0.3998725627349632
  0.2884214934673819  0.4584282812599699  0.3974696146976376
  0.2887138527711943  0.5840542239451109  0.3982172485458366
  0.2903687591175413  0.7088502853475847  0.3991045382010233
  0.2909929381748810  0.8337931286560113  0.3997042965827992
  0.2914480577646900  0.9589982589121551  0.3997857869767872
  0.4165664110911486  0.0834462666602025  0.3995598969771547
  0.4169712626780208  0.2087793867591021  0.4005152183050273
  0.4177949665378531  0.3348050021824910  0.4060479618238223
  0.4098963330936868  0.5821612524875208  0.4050064794477379
  0.4147206473838563  0.7075128242435784  0.4001651948464957
  0.4156872801498714  0.8329763997573487  0.3996130622672406
  0.4161590723155904  0.9582038649411666  0.3996449670829564
  0.5412867050327830  0.0825565171556098  0.3994288669026504
  0.5417258234293437  0.2076529537752896  0.3994940301006746
  0.5422892785985126  0.3324769633899144  0.4015000936848369
  0.5437039665206975  0.4565253359492989  0.4061442605927408
  0.5438280173002791  0.5807184787382241  0.4072931776871168
  0.5390653062380324  0.7055950968785412  0.4034829742829742
  0.5401532042617909  0.8316458661968196  0.4005036862604821
  0.5408367343539977  0.9572451311812185  0.3997358531507152
  0.6659352013158495  0.0821477105014114  0.3998304009597468
  0.6663939968981262  0.2073848700086716  0.3994588133860114
  0.6669763270525754  0.3325230929847322  0.3992989321791439
  0.6681267342089861  0.4577545861378112  0.3997143914597254
  0.6683014278788059  0.5830085538976958  0.4003951361915207
  0.6653122835076694  0.7062194112313338  0.4009365653705165
  0.6651586115960010  0.8313973128555048  0.4007466349356096
  0.6655389041556218  0.9568375756943552  0.4002068823138473
  0.7907563562826968  0.0821711961212646  0.4000811360070470
  0.7909963561721645  0.2073281039596412  0.3998907851749205
  0.7914477214735481  0.3326310513712858  0.3995249376123783
  0.7921485107938322  0.4579836805161679  0.3990538661073846
  0.7924530476492833  0.5832262483544491  0.3988446819159965
  0.7918929400585002  0.7082321619407018  0.3990837047123512
  0.7907631862803545  0.8323485925955130  0.3996419857519065
  0.7905964086912622  0.9571035628098656  0.4000525572181191
  0.9158948980447399  0.0826545602031785  0.3997742618100805
  0.9158108588390507  0.2075307448339214  0.3997006631391084
  0.9158820186424759  0.3327101236254962  0.3996960693701744
  0.9162015505907980  0.4580090997704852  0.3995882302616780
  0.9166620073054587  0.5834069563253156  0.3993685495346808
  0.9167565196620708  0.7086392535454611  0.3992107222231744
  0.9165812974888026  0.8335030534072225  0.3994046487500181
  0.9161688474844195  0.9580672020214152  0.3997077266452611
  0.0835475820896337  0.0425209666234241  0.3993749547407969
  0.0834528237536832  0.1672767505671002  0.3989792875597751
  0.0823579628528805  0.2913633116054481  0.3982726583468041
  0.0817249189247855  0.4164328355408999  0.3985045519006589
  0.0819080122822204  0.5416602217793900  0.3991102615872423
  0.0826229622322479  0.6670046545318811  0.3996459238483851
  0.0831015527019825  0.7922890421437205  0.3998338060970700
  0.0833546069929665  0.9174349893957549  0.3997057828327441
  0.2085355469961504  0.0427689157145480  0.3997026655952548
  0.2089288706434899  0.1682470530050633  0.3994040819737439
  0.2089996142526426  0.2934259046821712  0.3983175081363916
  0.2058387057249265  0.4165355130040534  0.3971553754208565
  0.2058271131601873  0.5418414370109447  0.3979593299198967
  0.2071486253285874  0.6671380139754309  0.3990570571430814
  0.2077424772916921  0.7922631135751406  0.3997793747682661
  0.2081871981592473  0.9174831710128080  0.3998699489298365
  0.3332834228968048  0.0423991696309350  0.3997313130284207
  0.3337595441336120  0.1679255691183054  0.4005083957340652
  0.3343569403042219  0.2938999539006540  0.4027345273469933
  0.3317794330346824  0.4199285946136298  0.3996167987295167
  0.3294849256386124  0.5426032534860191  0.3989514166361228
  0.3316181407734981  0.6670804789361340  0.3991430516595311
  0.3324154385711353  0.7920320754309170  0.3994916228102838
  0.3328980589893777  0.9171203582821006  0.3997479874221683
  0.4580242328866220  0.0415028060791760  0.3995104299557382
  0.4584395280245805  0.1667339408590680  0.3996498591033810
  0.4590021944344008  0.2920346683294603  0.4023921445216116
  0.4620517249249116  0.4160553284560225  0.4128472242235495
  0.4551831991663869  0.6643090050626156  0.4028234056799601
  0.4569964310573190  0.7908654585933309  0.3999586207237295
  0.4575969336875900  0.9162421544235618  0.3996622310761690
  0.5827034004537062  0.0406512861876488  0.3996280040845488
  0.5831710513390270  0.1658982503672190  0.3993444250043983
  0.5837108775897233  0.2908454412981667  0.3998372560736568
  0.5850326602537472  0.4155233418186748  0.4018732753404519
  0.5853728304933267  0.5407231508973167  0.4043507859260899
  0.5806129421453227  0.6628758217252247  0.4037972933124883
  0.5812614917520001  0.7890031965094635  0.4015074046305716
  0.5821447914617003  0.9151521025800714  0.4000865388456336
  0.7073694855477387  0.0403124090067204  0.4000710647857529
  0.7077613285227939  0.1656071625070830  0.3997364933325622
  0.7082640657205334  0.2908221780895134  0.3993391462246872
  0.7091621812513783  0.4160652799898844  0.3990761188780784
  0.7095915319119601  0.5412222710569886  0.3993737200065666
  0.7084244244602562  0.6660833099247294  0.3998501474618415
  0.7069959576119014  0.7899686494802330  0.4002762989209789
  0.7070560895172553  0.9149627994823325  0.4003056768001687
  0.8324275810181858  0.0406184534179249  0.4000158249360197
  0.8324951855048455  0.1656401982466443  0.3999735780286960
  0.8327580632188465  0.2908889550334077  0.3997913999729729
  0.8332416251544015  0.4161413519622933  0.3994128722283324
  0.8336993202621630  0.5414637267733925  0.3990187446756471
  0.8336444191429599  0.6667848744894225  0.3989089688737753
  0.8331882034299108  0.7914740542211208  0.3992929912004146
  0.8325440028418367  0.9158459484072869  0.3998161536130905
  0.9579877617344120  0.0415287083279373  0.3996425756593165
  0.9575739240801258  0.1660972938373867  0.3995251739800270
  0.9573924899107096  0.2909991462412803  0.3994740807336604
  0.9573934949280932  0.4162161831024009  0.3995478860898068
  0.9578178557391837  0.5415993985947917  0.3995583205191626
  0.9581972492869629  0.6669142705289474  0.3994542175888479
  0.9583214898094136  0.7920758296034389  0.3994415797847690
  0.9582479526713957  0.9169320914649607  0.3995793539663345
  0.5181601105405461  0.5103907285537826  0.5121106943856529
  0.4698134852193311  0.5344999465754873  0.4913535094051356
 
  0.00000000E+00  0.00000000E+00  0.00000000E+00
  0.00000000E+00  0.00000000E+00  0.00000000E+00
  0.00000000E+00  0.00000000E+00  0.00000000E+00
  0.00000000E+00  0.00000000E+00  0.00000000E+00
  0.00000000E+00  0.00000000E+00  0.00000000E+00
  0.00000000E+00  0.00000000E+00  0.00000000E+00
  0.00000000E+00  0.00000000E+00  0.00000000E+00
  0.00000000E+00  0.00000000E+00  0.00000000E+00
  0.00000000E+00  0.00000000E+00  0.00000000E+00
  0.00000000E+00  0.00000000E+00  0.00000000E+00
  0.00000000E+00  0.00000000E+00  0.00000000E+00
  0.00000000E+00  0.00000000E+00  0.00000000E+00
  0.00000000E+00  0.00000000E+00  0.00000000E+00
  0.00000000E+00  0.00000000E+00  0.00000000E+00
  0.00000000E+00  0.00000000E+00  0.00000000E+00
  0.00000000E+00  0.00000000E+00  0.00000000E+00
  0.00000000E+00  0.00000000E+00  0.00000000E+00
  0.00000000E+00  0.00000000E+00  0.00000000E+00
  0.00000000E+00  0.00000000E+00  0.00000000E+00
  0.00000000E+00  0.00000000E+00  0.00000000E+00
  0.00000000E+00  0.00000000E+00  0.00000000E+00
  0.00000000E+00  0.00000000E+00  0.00000000E+00
  0.00000000E+00  0.00000000E+00  0.00000000E+00
  0.00000000E+00  0.00000000E+00  0.00000000E+00
  0.00000000E+00  0.00000000E+00  0.00000000E+00
  0.00000000E+00  0.00000000E+00  0.00000000E+00
  0.00000000E+00  0.00000000E+00  0.00000000E+00
  0.00000000E+00  0.00000000E+00  0.00000000E+00
  0.00000000E+00  0.00000000E+00  0.00000000E+00
  0.00000000E+00  0.00000000E+00  0.00000000E+00
  0.00000000E+00  0.00000000E+00  0.00000000E+00
  0.00000000E+00  0.00000000E+00  0.00000000E+00
  0.00000000E+00  0.00000000E+00  0.00000000E+00
  0.00000000E+00  0.00000000E+00  0.00000000E+00
  0.00000000E+00  0.00000000E+00  0.00000000E+00
  0.00000000E+00  0.00000000E+00  0.00000000E+00
  0.00000000E+00  0.00000000E+00  0.00000000E+00
  0.00000000E+00  0.00000000E+00  0.00000000E+00
  0.00000000E+00  0.00000000E+00  0.00000000E+00
  0.00000000E+00  0.00000000E+00  0.00000000E+00
  0.00000000E+00  0.00000000E+00  0.00000000E+00
  0.00000000E+00  0.00000000E+00  0.00000000E+00
  0.00000000E+00  0.00000000E+00  0.00000000E+00
  0.00000000E+00  0.00000000E+00  0.00000000E+00
  0.00000000E+00  0.00000000E+00  0.00000000E+00
  0.00000000E+00  0.00000000E+00  0.00000000E+00
  0.00000000E+00  0.00000000E+00  0.00000000E+00
  0.00000000E+00  0.00000000E+00  0.00000000E+00
  0.00000000E+00  0.00000000E+00  0.00000000E+00
  0.00000000E+00  0.00000000E+00  0.00000000E+00
  0.00000000E+00  0.00000000E+00  0.00000000E+00
  0.00000000E+00  0.00000000E+00  0.00000000E+00
  0.00000000E+00  0.00000000E+00  0.00000000E+00
  0.00000000E+00  0.00000000E+00  0.00000000E+00
  0.00000000E+00  0.00000000E+00  0.00000000E+00
  0.00000000E+00  0.00000000E+00  0.00000000E+00
  0.00000000E+00  0.00000000E+00  0.00000000E+00
  0.00000000E+00  0.00000000E+00  0.00000000E+00
  0.00000000E+00  0.00000000E+00  0.00000000E+00
  0.00000000E+00  0.00000000E+00  0.00000000E+00
  0.00000000E+00  0.00000000E+00  0.00000000E+00
  0.00000000E+00  0.00000000E+00  0.00000000E+00
  0.00000000E+00  0.00000000E+00  0.00000000E+00
  0.00000000E+00  0.00000000E+00  0.00000000E+00
  0.00000000E+00  0.00000000E+00  0.00000000E+00
  0.00000000E+00  0.00000000E+00  0.00000000E+00
  0.00000000E+00  0.00000000E+00  0.00000000E+00
  0.00000000E+00  0.00000000E+00  0.00000000E+00
  0.00000000E+00  0.00000000E+00  0.00000000E+00
  0.00000000E+00  0.00000000E+00  0.00000000E+00
  0.00000000E+00  0.00000000E+00  0.00000000E+00
  0.00000000E+00  0.00000000E+00  0.00000000E+00
  0.00000000E+00  0.00000000E+00  0.00000000E+00
  0.00000000E+00  0.00000000E+00  0.00000000E+00
  0.00000000E+00  0.00000000E+00  0.00000000E+00
  0.00000000E+00  0.00000000E+00  0.00000000E+00
  0.00000000E+00  0.00000000E+00  0.00000000E+00
  0.00000000E+00  0.00000000E+00  0.00000000E+00
  0.00000000E+00  0.00000000E+00  0.00000000E+00
  0.00000000E+00  0.00000000E+00  0.00000000E+00
  0.00000000E+00  0.00000000E+00  0.00000000E+00
  0.00000000E+00  0.00000000E+00  0.00000000E+00
  0.00000000E+00  0.00000000E+00  0.00000000E+00
  0.00000000E+00  0.00000000E+00  0.00000000E+00
  0.00000000E+00  0.00000000E+00  0.00000000E+00
  0.00000000E+00  0.00000000E+00  0.00000000E+00
  0.00000000E+00  0.00000000E+00  0.00000000E+00
  0.00000000E+00  0.00000000E+00  0.00000000E+00
  0.00000000E+00  0.00000000E+00  0.00000000E+00
  0.00000000E+00  0.00000000E+00  0.00000000E+00
  0.00000000E+00  0.00000000E+00  0.00000000E+00
  0.00000000E+00  0.00000000E+00  0.00000000E+00
  0.00000000E+00  0.00000000E+00  0.00000000E+00
  0.00000000E+00  0.00000000E+00  0.00000000E+00
  0.00000000E+00  0.00000000E+00  0.00000000E+00
  0.00000000E+00  0.00000000E+00  0.00000000E+00
  0.00000000E+00  0.00000000E+00  0.00000000E+00
  0.00000000E+00  0.00000000E+00  0.00000000E+00
  0.00000000E+00  0.00000000E+00  0.00000000E+00
  0.00000000E+00  0.00000000E+00  0.00000000E+00
  0.00000000E+00  0.00000000E+00  0.00000000E+00
  0.00000000E+00  0.00000000E+00  0.00000000E+00
  0.00000000E+00  0.00000000E+00  0.00000000E+00
  0.00000000E+00  0.00000000E+00  0.00000000E+00
  0.00000000E+00  0.00000000E+00  0.00000000E+00
  0.00000000E+00  0.00000000E+00  0.00000000E+00
  0.00000000E+00  0.00000000E+00  0.00000000E+00
  0.00000000E+00  0.00000000E+00  0.00000000E+00
  0.00000000E+00  0.00000000E+00  0.00000000E+00
  0.00000000E+00  0.00000000E+00  0.00000000E+00
  0.00000000E+00  0.00000000E+00  0.00000000E+00
  0.00000000E+00  0.00000000E+00  0.00000000E+00
  0.00000000E+00  0.00000000E+00  0.00000000E+00
  0.00000000E+00  0.00000000E+00  0.00000000E+00
  0.00000000E+00  0.00000000E+00  0.00000000E+00
  0.00000000E+00  0.00000000E+00  0.00000000E+00
  0.00000000E+00  0.00000000E+00  0.00000000E+00
  0.00000000E+00  0.00000000E+00  0.00000000E+00
  0.00000000E+00  0.00000000E+00  0.00000000E+00
  0.00000000E+00  0.00000000E+00  0.00000000E+00
  0.00000000E+00  0.00000000E+00  0.00000000E+00
  0.00000000E+00  0.00000000E+00  0.00000000E+00
  0.00000000E+00  0.00000000E+00  0.00000000E+00
  0.00000000E+00  0.00000000E+00  0.00000000E+00
  0.00000000E+00  0.00000000E+00  0.00000000E+00
  0.00000000E+00  0.00000000E+00  0.00000000E+00
  0.00000000E+00  0.00000000E+00  0.00000000E+00
  0.00000000E+00  0.00000000E+00  0.00000000E+00
  0.00000000E+00  0.00000000E+00  0.00000000E+00
  0.00000000E+00  0.00000000E+00  0.00000000E+00
