Zr1 H1 C123 N3 O1                       
   1.00000000000000     
    19.8028309967192691    0.0085836596467205   -0.0672758878715349
    -9.8935758301578129   17.0436071035931818   -0.1924717375276778
    -0.1008715743948085   -0.3946138728650099   29.8115983179512760
   Zr   H    C    N    O 
     1     1   123     3     1
Direct
  0.4380352389863438  0.5042289324676509  0.4378684366343297
  0.4753209625714689  0.5392078150544644  0.5318145770497930
  0.0418375975572496  0.0839558919880538  0.3995564218311194
  0.0410656527432731  0.2082074501407347  0.3996393849675512
  0.0405351525040036  0.3330970634733162  0.3995361821352424
  0.0407304676020694  0.4583070125210532  0.3993074935590174
  0.0415533920373512  0.5837916182794171  0.3996120325410217
  0.0422882457294637  0.7092265400293220  0.3998275740887014
  0.0424932554970103  0.8343807337383862  0.3997936690720589
  0.0423871764641540  0.9594201431987963  0.3996137500315498
  0.1675915427450315  0.0850611318343168  0.3999044814649466
  0.1670533996125770  0.2096899349586287  0.4000305336063825
  0.1652531721526057  0.3335940780410243  0.4003732488877162
  0.1646751430218928  0.4584508214085393  0.3993342906161354
  0.1655149891975856  0.5837024464623871  0.3991066654071830
  0.1665737271777721  0.7089635240805936  0.3995878115385291
  0.1671819437509169  0.8343526036910133  0.3998017663960858
  0.1674392421505206  0.9597846005170232  0.3998546749891360
  0.2925122373383076  0.0854659448716513  0.3998900627187949
  0.2929537897281967  0.2119692929842326  0.4012831217498928
  0.2916944452127248  0.3368959039853265  0.4034456856227158
  0.2884517541758070  0.4579101942884672  0.4020689771881650
  0.2890792660715480  0.5829477039427189  0.3991679072456128
  0.2909373170934201  0.7083234839460274  0.3989002079004579
  0.2918072285056219  0.8339166943518938  0.3993795161121462
  0.2921966724824510  0.9594977668146581  0.3996511657435341
  0.4171138009061141  0.0841991749286330  0.3994570430165497
  0.4176333695950101  0.2101635288260084  0.3996995724494353
  0.4195638664175693  0.3376892493458825  0.4034195814156534
  0.4152928096324678  0.7066623986724413  0.3986027217406735
  0.4163371790224170  0.8325458982030564  0.3988795587499473
  0.4168196278269039  0.9584208363165180  0.3994019330744930
  0.5416978704634643  0.0829319399545696  0.3995306413236774
  0.5421921376591680  0.2086155108206260  0.3992124913139667
  0.5431328744707224  0.3342211863304051  0.3995806566883333
  0.5457571541288270  0.4595238102154273  0.4025167736329980
  0.5392298557170131  0.7030543507410504  0.4007112638041155
  0.5409360881681821  0.8309334052117942  0.3992049520390115
  0.5413617773735597  0.9571626232982774  0.3994097046256515
  0.6663422572533899  0.0824204233761278  0.3997479117947166
  0.6666922756705250  0.2077991649942356  0.3995236016197536
  0.6674938493507575  0.3332042174770691  0.3989875684291895
  0.6692771397833447  0.4587503941008041  0.3987549357329159
  0.6702669251446989  0.5841856253265764  0.3993808316248143
  0.6671655239389185  0.7071679473579637  0.3993462461981013
  0.6652593431898219  0.8310768940793184  0.3994316107997162
  0.6659381607351924  0.9568828978756380  0.3996162491914339
  0.7910183597648190  0.0823573114176953  0.3997532658135248
  0.7912816053509860  0.2076578605868877  0.3997266000116337
  0.7918419141140426  0.3330016820193708  0.3994481900827939
  0.7928517479060934  0.4584156354325253  0.3989667272338308
  0.7936534282817880  0.5838585411543352  0.3987741945094090
  0.7933116959391782  0.7090021066773952  0.3989570006154831
  0.7915672047753336  0.8328410362802431  0.3990424915723741
  0.7908515306909050  0.9571894358942152  0.3994685927834555
  0.9161182030779053  0.0828328294865656  0.3996376494483365
  0.9159345806608113  0.2077117830898551  0.3997163594765785
  0.9161300513445056  0.3329518613789388  0.3995669295360689
  0.9168175279704794  0.4584208628641898  0.3994853154777349
  0.9176206287062535  0.5838750748316819  0.3994560035936061
  0.9178162346528237  0.7090950258255705  0.3994398478996206
  0.9175230006273450  0.8341072925421397  0.3993603213916367
  0.9167251328191856  0.9584236368861420  0.3994192902453158
  0.0841034328700939  0.0429335876565895  0.3996293240655309
  0.0834681769467337  0.1674481424668583  0.3996098671593466
  0.0824223899437611  0.2916865112832471  0.3997631546817544
  0.0818066216677789  0.4163927031747442  0.3992723275907082
  0.0825692854735272  0.5418682484477984  0.3993444704044256
  0.0834826525827209  0.6673089353424723  0.3997423671311671
  0.0839534222457408  0.7926447433993840  0.3998578901784818
  0.0841331232183222  0.9178886563266304  0.3997786792891314
  0.2091049911538519  0.0433151290356869  0.3999338335748176
  0.2093765748580772  0.1688270490030404  0.4003763509104769
  0.2082831242425854  0.2932363164615225  0.4007913807770294
  0.2059986306929486  0.4169774329418006  0.4003642991980161
  0.2062723591029771  0.5415851959396822  0.3990824929296527
  0.2076359102817218  0.6670054104432844  0.3992061155094223
  0.2085523118897059  0.7924965838734512  0.3996273143921436
  0.2089318394187110  0.9178829386985368  0.3997999860659568
  0.3338830207352921  0.0431687786675974  0.3996324377949578
  0.3341995063735925  0.1692346013230038  0.4002931454445382
  0.3348500878309742  0.2961936044733096  0.4033543372638271
  0.3304267465666164  0.5418187306649236  0.4004919632023750
  0.3318378279348250  0.6662561133560587  0.3987252927941696
  0.3331327273300397  0.7917882892790082  0.3990014047064071
  0.3335577723342485  0.9173714389661284  0.3994634133969219
  0.4584779706065703  0.0419100542651671  0.3994715146334487
  0.4588488033927880  0.1677483251967995  0.3993232413953698
  0.4597341416330783  0.2937674280293334  0.4002237043611047
  0.4639164321297703  0.4200160427749565  0.4067454631039861
  0.4549039402230272  0.6626096459028498  0.4001694472844742
  0.4576098696310383  0.7901172052554347  0.3986873177611034
  0.4581270181573268  0.9161456764750151  0.3992288432541996
  0.5830583969142010  0.0408037525003192  0.3996138114547568
  0.5834908038826229  0.1664563704150851  0.3994176768130371
  0.5842247283437134  0.2919358430852440  0.3990884047778845
  0.5865050009380480  0.4176049340027136  0.3997651613854253
  0.5886582477190964  0.5437054195235460  0.4018321220699820
  0.5835453168300687  0.6628913006096675  0.4014497324099942
  0.5815329034014416  0.7878638463505132  0.3996893064972691
  0.5827072912492234  0.9148650093253909  0.3994069784439049
  0.7077410613148323  0.0405213379057606  0.3997488432352614
  0.7080893925232218  0.1659247864131095  0.3997197421848119
  0.7086487690531671  0.2913083364418170  0.3993228041205782
  0.7099362565712428  0.4166557472768773  0.3986997524588759
  0.7110685376760737  0.5419520506951994  0.3987249004744064
  0.7105053918871946  0.6672697633512670  0.3991355769670508
  0.7080124264433519  0.7905761463491215  0.3990298234010873
  0.7072611466390031  0.9149258394314647  0.3994988725636587
  0.8326966811114411  0.0408060226358584  0.3996467934919780
  0.8327744090049021  0.1659150552986136  0.3997642373650711
  0.8330494226512521  0.2910877359773502  0.3996119270444039
  0.8338362320081761  0.4164621715630661  0.3993472168281346
  0.8347285807747322  0.5419721632375462  0.3990277668957981
  0.8349273472577559  0.6673306264981507  0.3990379719526496
  0.8342574029957606  0.7922245026362131  0.3990804047559181
  0.8331951981307383  0.9163133697907699  0.3993128119061556
  0.9583665205503661  0.0418389132976792  0.3995369656990860
  0.9577622031575903  0.1662630144898933  0.3996560513685860
  0.9575450982585519  0.2912278325341609  0.3996004066055394
  0.9578391265215526  0.4164621769058635  0.3994705410621989
  0.9586142016198265  0.5418687197638582  0.3995709655089575
  0.9592479833256006  0.6673431573803746  0.3996322221884671
  0.9593066523949620  0.7926325448352382  0.3995789125571236
  0.9590141295410813  0.9175007131156997  0.3994403852846382
  0.4116100474101966  0.5823268669936404  0.4023462347473001
  0.5475972651860553  0.5830100019644401  0.4047043863152397
  0.3291535290335969  0.4179694866057770  0.4066045331778297
  0.4578298409709856  0.5133721407844963  0.5027561076776682
 
  0.00000000E+00  0.00000000E+00  0.00000000E+00
  0.00000000E+00  0.00000000E+00  0.00000000E+00
  0.00000000E+00  0.00000000E+00  0.00000000E+00
  0.00000000E+00  0.00000000E+00  0.00000000E+00
  0.00000000E+00  0.00000000E+00  0.00000000E+00
  0.00000000E+00  0.00000000E+00  0.00000000E+00
  0.00000000E+00  0.00000000E+00  0.00000000E+00
  0.00000000E+00  0.00000000E+00  0.00000000E+00
  0.00000000E+00  0.00000000E+00  0.00000000E+00
  0.00000000E+00  0.00000000E+00  0.00000000E+00
  0.00000000E+00  0.00000000E+00  0.00000000E+00
  0.00000000E+00  0.00000000E+00  0.00000000E+00
  0.00000000E+00  0.00000000E+00  0.00000000E+00
  0.00000000E+00  0.00000000E+00  0.00000000E+00
  0.00000000E+00  0.00000000E+00  0.00000000E+00
  0.00000000E+00  0.00000000E+00  0.00000000E+00
  0.00000000E+00  0.00000000E+00  0.00000000E+00
  0.00000000E+00  0.00000000E+00  0.00000000E+00
  0.00000000E+00  0.00000000E+00  0.00000000E+00
  0.00000000E+00  0.00000000E+00  0.00000000E+00
  0.00000000E+00  0.00000000E+00  0.00000000E+00
  0.00000000E+00  0.00000000E+00  0.00000000E+00
  0.00000000E+00  0.00000000E+00  0.00000000E+00
  0.00000000E+00  0.00000000E+00  0.00000000E+00
  0.00000000E+00  0.00000000E+00  0.00000000E+00
  0.00000000E+00  0.00000000E+00  0.00000000E+00
  0.00000000E+00  0.00000000E+00  0.00000000E+00
  0.00000000E+00  0.00000000E+00  0.00000000E+00
  0.00000000E+00  0.00000000E+00  0.00000000E+00
  0.00000000E+00  0.00000000E+00  0.00000000E+00
  0.00000000E+00  0.00000000E+00  0.00000000E+00
  0.00000000E+00  0.00000000E+00  0.00000000E+00
  0.00000000E+00  0.00000000E+00  0.00000000E+00
  0.00000000E+00  0.00000000E+00  0.00000000E+00
  0.00000000E+00  0.00000000E+00  0.00000000E+00
  0.00000000E+00  0.00000000E+00  0.00000000E+00
  0.00000000E+00  0.00000000E+00  0.00000000E+00
  0.00000000E+00  0.00000000E+00  0.00000000E+00
  0.00000000E+00  0.00000000E+00  0.00000000E+00
  0.00000000E+00  0.00000000E+00  0.00000000E+00
  0.00000000E+00  0.00000000E+00  0.00000000E+00
  0.00000000E+00  0.00000000E+00  0.00000000E+00
  0.00000000E+00  0.00000000E+00  0.00000000E+00
  0.00000000E+00  0.00000000E+00  0.00000000E+00
  0.00000000E+00  0.00000000E+00  0.00000000E+00
  0.00000000E+00  0.00000000E+00  0.00000000E+00
  0.00000000E+00  0.00000000E+00  0.00000000E+00
  0.00000000E+00  0.00000000E+00  0.00000000E+00
  0.00000000E+00  0.00000000E+00  0.00000000E+00
  0.00000000E+00  0.00000000E+00  0.00000000E+00
  0.00000000E+00  0.00000000E+00  0.00000000E+00
  0.00000000E+00  0.00000000E+00  0.00000000E+00
  0.00000000E+00  0.00000000E+00  0.00000000E+00
  0.00000000E+00  0.00000000E+00  0.00000000E+00
  0.00000000E+00  0.00000000E+00  0.00000000E+00
  0.00000000E+00  0.00000000E+00  0.00000000E+00
  0.00000000E+00  0.00000000E+00  0.00000000E+00
  0.00000000E+00  0.00000000E+00  0.00000000E+00
  0.00000000E+00  0.00000000E+00  0.00000000E+00
  0.00000000E+00  0.00000000E+00  0.00000000E+00
  0.00000000E+00  0.00000000E+00  0.00000000E+00
  0.00000000E+00  0.00000000E+00  0.00000000E+00
  0.00000000E+00  0.00000000E+00  0.00000000E+00
  0.00000000E+00  0.00000000E+00  0.00000000E+00
  0.00000000E+00  0.00000000E+00  0.00000000E+00
  0.00000000E+00  0.00000000E+00  0.00000000E+00
  0.00000000E+00  0.00000000E+00  0.00000000E+00
  0.00000000E+00  0.00000000E+00  0.00000000E+00
  0.00000000E+00  0.00000000E+00  0.00000000E+00
  0.00000000E+00  0.00000000E+00  0.00000000E+00
  0.00000000E+00  0.00000000E+00  0.00000000E+00
  0.00000000E+00  0.00000000E+00  0.00000000E+00
  0.00000000E+00  0.00000000E+00  0.00000000E+00
  0.00000000E+00  0.00000000E+00  0.00000000E+00
  0.00000000E+00  0.00000000E+00  0.00000000E+00
  0.00000000E+00  0.00000000E+00  0.00000000E+00
  0.00000000E+00  0.00000000E+00  0.00000000E+00
  0.00000000E+00  0.00000000E+00  0.00000000E+00
  0.00000000E+00  0.00000000E+00  0.00000000E+00
  0.00000000E+00  0.00000000E+00  0.00000000E+00
  0.00000000E+00  0.00000000E+00  0.00000000E+00
  0.00000000E+00  0.00000000E+00  0.00000000E+00
  0.00000000E+00  0.00000000E+00  0.00000000E+00
  0.00000000E+00  0.00000000E+00  0.00000000E+00
  0.00000000E+00  0.00000000E+00  0.00000000E+00
  0.00000000E+00  0.00000000E+00  0.00000000E+00
  0.00000000E+00  0.00000000E+00  0.00000000E+00
  0.00000000E+00  0.00000000E+00  0.00000000E+00
  0.00000000E+00  0.00000000E+00  0.00000000E+00
  0.00000000E+00  0.00000000E+00  0.00000000E+00
  0.00000000E+00  0.00000000E+00  0.00000000E+00
  0.00000000E+00  0.00000000E+00  0.00000000E+00
  0.00000000E+00  0.00000000E+00  0.00000000E+00
  0.00000000E+00  0.00000000E+00  0.00000000E+00
  0.00000000E+00  0.00000000E+00  0.00000000E+00
  0.00000000E+00  0.00000000E+00  0.00000000E+00
  0.00000000E+00  0.00000000E+00  0.00000000E+00
  0.00000000E+00  0.00000000E+00  0.00000000E+00
  0.00000000E+00  0.00000000E+00  0.00000000E+00
  0.00000000E+00  0.00000000E+00  0.00000000E+00
  0.00000000E+00  0.00000000E+00  0.00000000E+00
  0.00000000E+00  0.00000000E+00  0.00000000E+00
  0.00000000E+00  0.00000000E+00  0.00000000E+00
  0.00000000E+00  0.00000000E+00  0.00000000E+00
  0.00000000E+00  0.00000000E+00  0.00000000E+00
  0.00000000E+00  0.00000000E+00  0.00000000E+00
  0.00000000E+00  0.00000000E+00  0.00000000E+00
  0.00000000E+00  0.00000000E+00  0.00000000E+00
  0.00000000E+00  0.00000000E+00  0.00000000E+00
  0.00000000E+00  0.00000000E+00  0.00000000E+00
  0.00000000E+00  0.00000000E+00  0.00000000E+00
  0.00000000E+00  0.00000000E+00  0.00000000E+00
  0.00000000E+00  0.00000000E+00  0.00000000E+00
  0.00000000E+00  0.00000000E+00  0.00000000E+00
  0.00000000E+00  0.00000000E+00  0.00000000E+00
  0.00000000E+00  0.00000000E+00  0.00000000E+00
  0.00000000E+00  0.00000000E+00  0.00000000E+00
  0.00000000E+00  0.00000000E+00  0.00000000E+00
  0.00000000E+00  0.00000000E+00  0.00000000E+00
  0.00000000E+00  0.00000000E+00  0.00000000E+00
  0.00000000E+00  0.00000000E+00  0.00000000E+00
  0.00000000E+00  0.00000000E+00  0.00000000E+00
  0.00000000E+00  0.00000000E+00  0.00000000E+00
  0.00000000E+00  0.00000000E+00  0.00000000E+00
  0.00000000E+00  0.00000000E+00  0.00000000E+00
  0.00000000E+00  0.00000000E+00  0.00000000E+00
  0.00000000E+00  0.00000000E+00  0.00000000E+00
  0.00000000E+00  0.00000000E+00  0.00000000E+00
  0.00000000E+00  0.00000000E+00  0.00000000E+00
