Sc1 C123 N3                             
   1.00000000000000     
    19.8104060533312243    0.0102321123572244   -0.0001186692329500
    -9.8963157375769946   17.0458462952088432   -0.0020274131945145
    -0.0001586309973055   -0.0037196769599536   29.7892756445818350
   Sc   C    N 
     1   123     3
Direct
  0.4366227942514278  0.4999005004444554  0.4325509175860370
  0.0417312638338530  0.0838562417829232  0.3998178357162098
  0.0409115073120383  0.2080808476170233  0.3996974238308584
  0.0403321709405505  0.3329338166099822  0.3996939175851111
  0.0405523684919663  0.4581532634857288  0.3997554249823642
  0.0414270224378749  0.5836591158839618  0.4000196371912348
  0.0421773466778331  0.7090898461822043  0.4001042282354498
  0.0424017277173488  0.8342804744890678  0.4001002815682960
  0.0422905629040969  0.9593344307504458  0.3999970375043682
  0.1674987573259403  0.0849823420505738  0.3998538700383582
  0.1668896724995302  0.2095642680414318  0.3996757083567602
  0.1649840199213253  0.3333897722968489  0.3999936535646542
  0.1644388929114693  0.4583312328515358  0.3995476587435342
  0.1653675564792282  0.5835743615687303  0.3996369132617183
  0.1664776617900416  0.7088262356784468  0.3999168603701925
  0.1670671976843177  0.8342234794577505  0.4000579248104891
  0.1673559958739530  0.9596963164097567  0.3999834341194862
  0.2924027580347026  0.0853467208438349  0.3998300227554017
  0.2927841177917561  0.2118280325808311  0.4003683408081373
  0.2914960625863807  0.3369204388598064  0.4020396921191827
  0.2880204748707629  0.4575650763332183  0.4017361913829895
  0.2888913852189843  0.5827336733803494  0.3997700450697941
  0.2908290267039982  0.7081837154546401  0.3996388889144971
  0.2917011125245652  0.8337512349359523  0.3999077580747858
  0.2921026489799919  0.9593614831779622  0.3999608258673282
  0.4169993757332962  0.0839835297517146  0.3998555998838539
  0.4175337044253822  0.2099200233057148  0.3996118918882572
  0.4193024004958097  0.3373471974670254  0.4014172860354193
  0.4150962145293151  0.7063098428434714  0.3996985878725393
  0.4162074254939859  0.8322898531620812  0.3997338091628181
  0.4167154829595504  0.9581955508101985  0.4000032121566152
  0.5415643673391078  0.0826890907224796  0.4000007675292312
  0.5420956866176355  0.2084406820304907  0.3996863215714592
  0.5430551182100254  0.3340607759440024  0.3995868816432542
  0.5454805354568403  0.4592605227595573  0.4015904924261765
  0.5389126547719025  0.7025458620853938  0.4014491279165425
  0.5407300183000079  0.8305833855845182  0.3999610624446132
  0.5411999741725216  0.9568688055582371  0.3999363903594718
  0.6661788535459287  0.0821634567806707  0.4000305725856420
  0.6665522544704260  0.2075872949775085  0.3999689524607525
  0.6674038928006180  0.3330554544999916  0.3996612864602694
  0.6692552365983998  0.4586417810215518  0.3995625467801546
  0.6702168633726149  0.5840522015381825  0.4001178460358426
  0.6671587028371888  0.7070720309586872  0.4000043464154507
  0.6650566545600451  0.8307843376544655  0.3999692073956587
  0.6657433291852900  0.9565940883061008  0.3999513637395469
  0.7908568019658890  0.0821431795478180  0.4000220934384932
  0.7911249426373941  0.2074491006623879  0.4001328966498917
  0.7917166885173241  0.3328383681906864  0.4000076285007434
  0.7927621510998509  0.4582883812072406  0.3997330032228255
  0.7936065004870125  0.5837533885670697  0.3995283733928333
  0.7932765659074810  0.7089228465294569  0.3996369321406656
  0.7914993288539695  0.8327277996970223  0.3996481830263513
  0.7906774060699516  0.9569628046365776  0.3998724970452333
  0.9159735535082020  0.0826612135011515  0.3999378099891856
  0.9157773862893521  0.2075225676062835  0.3999445254321432
  0.9159729711618083  0.3327695261598478  0.4000031282823194
  0.9166807854008399  0.4582566103059547  0.4000793846564666
  0.9175063609156681  0.5837232288041643  0.3999721872633616
  0.9177237248171055  0.7089806687026811  0.3998868897177957
  0.9174332265244493  0.8340120527216688  0.3999035403178033
  0.9166245994835300  0.9583093046972505  0.3999827602254195
  0.0840189577867244  0.0428580864411884  0.3998762147836732
  0.0833363775632837  0.1673326490631490  0.3996335425234004
  0.0822151944972682  0.2915093616698768  0.3997001075466199
  0.0816079914169497  0.4162519415525180  0.3995573079897078
  0.0824242608715882  0.5417305409018858  0.3998005416302026
  0.0833800737839157  0.6671757102093278  0.4000385561801569
  0.0838556481929421  0.7925304928408362  0.4001280459543567
  0.0840623538852901  0.9178095224206827  0.4000387997140448
  0.2090122576805185  0.0432351763939828  0.3999045356832305
  0.2092357765639443  0.1687147012910263  0.3999256518530200
  0.2080756268530400  0.2931062688046297  0.4001155788432580
  0.2057600044416578  0.4168221547911934  0.4001553883066427
  0.2060339383259125  0.5414103228661258  0.3995494953524240
  0.2075245565676694  0.6668715035297151  0.3997437145642095
  0.2084501606532795  0.7923695280280578  0.3999599795063615
  0.2088392770967760  0.9177750997914679  0.4000124396696412
  0.3337821100391844  0.0430470862529003  0.3998642619812608
  0.3340674192574064  0.1690982402334785  0.3998828961637023
  0.3345932138097452  0.2959915238734190  0.4016462191626405
  0.3301565225516851  0.5416900569048768  0.4009054082963636
  0.3317017648703974  0.6661085922667440  0.3995959952706155
  0.3329996430572187  0.7915979923556951  0.3997551443913335
  0.3334421566445404  0.9172081877927832  0.3999747860289948
  0.4583477036875035  0.0416765651150229  0.3999988747706563
  0.4587482009818730  0.1675425361942419  0.3996659159634100
  0.4596002775904465  0.2934916354643038  0.3996956610769165
  0.4633038384986965  0.4196410896297632  0.4035420459515858
  0.4544067759957706  0.6617599322439579  0.4010082492230669
  0.4574301348854845  0.7898108209791534  0.3996827938240435
  0.4579917106425703  0.9159008913556272  0.3999080526806831
  0.5828958510193883  0.0405283828741829  0.4000035085188234
  0.5833713535009245  0.1662572037444812  0.3998992879102080
  0.5841398476037678  0.2917729299067960  0.3995488381077794
  0.5864394978692625  0.4175021241848017  0.3999596265439113
  0.5885790124497553  0.5436600209421668  0.4018851741104305
  0.5834252787056466  0.6625322021402509  0.4018644242362051
  0.5812812473648229  0.7874578482495528  0.4003883783492325
  0.5825188170476310  0.9145246834835562  0.3999169394645056
  0.7075653699961456  0.0402499071318194  0.3999948965793571
  0.7079322299722072  0.1656949059395264  0.4000865208337823
  0.7085200734413641  0.2911187114251279  0.3998915623367217
  0.7098785017423652  0.4165183862453979  0.3995420065775144
  0.7110470341008061  0.5418187356225775  0.3995494129866408
  0.7105057492785237  0.6671968383199460  0.3998628588811178
  0.7079803128968070  0.7904669921414376  0.3996592907447926
  0.7070693866071569  0.9146474527724043  0.3998874461707286
  0.8325445237799362  0.0405769604834376  0.3999581430239362
  0.8325981346432390  0.1656951037717284  0.4000672502211676
  0.8328811367224569  0.2908955372232764  0.4001031527571993
  0.8337160976345671  0.4163157137640364  0.3999780823922002
  0.8346460688879641  0.5418447699690725  0.3997192255901656
  0.8348883510352395  0.6672303371887967  0.3996719060664277
  0.8342046972204890  0.7921220350558765  0.3997008826332493
  0.8331126534938905  0.9161834820208595  0.3998377248120970
  0.9582741264193675  0.0417061621184153  0.3999605253553314
  0.9576142329562132  0.1660832974074000  0.3998524043901727
  0.9573834050088594  0.2910513865569955  0.3998714471312176
  0.9576781397471249  0.4162905719155499  0.3999893284759383
  0.9584926755204475  0.5417259084198437  0.4000843654486141
  0.9591492856791026  0.6672062478828475  0.4000002966253469
  0.9592294750912710  0.7925355933680124  0.3999843434277276
  0.9589467007815756  0.9174034746955408  0.3999992917576428
  0.4110138444200838  0.5813491515923398  0.4026632147522073
  0.5472729077858962  0.5826108255073309  0.4045337926603148
  0.3288682056028048  0.4178271742102448  0.4050773667187739
 
  0.00000000E+00  0.00000000E+00  0.00000000E+00
  0.00000000E+00  0.00000000E+00  0.00000000E+00
  0.00000000E+00  0.00000000E+00  0.00000000E+00
  0.00000000E+00  0.00000000E+00  0.00000000E+00
  0.00000000E+00  0.00000000E+00  0.00000000E+00
  0.00000000E+00  0.00000000E+00  0.00000000E+00
  0.00000000E+00  0.00000000E+00  0.00000000E+00
  0.00000000E+00  0.00000000E+00  0.00000000E+00
  0.00000000E+00  0.00000000E+00  0.00000000E+00
  0.00000000E+00  0.00000000E+00  0.00000000E+00
  0.00000000E+00  0.00000000E+00  0.00000000E+00
  0.00000000E+00  0.00000000E+00  0.00000000E+00
  0.00000000E+00  0.00000000E+00  0.00000000E+00
  0.00000000E+00  0.00000000E+00  0.00000000E+00
  0.00000000E+00  0.00000000E+00  0.00000000E+00
  0.00000000E+00  0.00000000E+00  0.00000000E+00
  0.00000000E+00  0.00000000E+00  0.00000000E+00
  0.00000000E+00  0.00000000E+00  0.00000000E+00
  0.00000000E+00  0.00000000E+00  0.00000000E+00
  0.00000000E+00  0.00000000E+00  0.00000000E+00
  0.00000000E+00  0.00000000E+00  0.00000000E+00
  0.00000000E+00  0.00000000E+00  0.00000000E+00
  0.00000000E+00  0.00000000E+00  0.00000000E+00
  0.00000000E+00  0.00000000E+00  0.00000000E+00
  0.00000000E+00  0.00000000E+00  0.00000000E+00
  0.00000000E+00  0.00000000E+00  0.00000000E+00
  0.00000000E+00  0.00000000E+00  0.00000000E+00
  0.00000000E+00  0.00000000E+00  0.00000000E+00
  0.00000000E+00  0.00000000E+00  0.00000000E+00
  0.00000000E+00  0.00000000E+00  0.00000000E+00
  0.00000000E+00  0.00000000E+00  0.00000000E+00
  0.00000000E+00  0.00000000E+00  0.00000000E+00
  0.00000000E+00  0.00000000E+00  0.00000000E+00
  0.00000000E+00  0.00000000E+00  0.00000000E+00
  0.00000000E+00  0.00000000E+00  0.00000000E+00
  0.00000000E+00  0.00000000E+00  0.00000000E+00
  0.00000000E+00  0.00000000E+00  0.00000000E+00
  0.00000000E+00  0.00000000E+00  0.00000000E+00
  0.00000000E+00  0.00000000E+00  0.00000000E+00
  0.00000000E+00  0.00000000E+00  0.00000000E+00
  0.00000000E+00  0.00000000E+00  0.00000000E+00
  0.00000000E+00  0.00000000E+00  0.00000000E+00
  0.00000000E+00  0.00000000E+00  0.00000000E+00
  0.00000000E+00  0.00000000E+00  0.00000000E+00
  0.00000000E+00  0.00000000E+00  0.00000000E+00
  0.00000000E+00  0.00000000E+00  0.00000000E+00
  0.00000000E+00  0.00000000E+00  0.00000000E+00
  0.00000000E+00  0.00000000E+00  0.00000000E+00
  0.00000000E+00  0.00000000E+00  0.00000000E+00
  0.00000000E+00  0.00000000E+00  0.00000000E+00
  0.00000000E+00  0.00000000E+00  0.00000000E+00
  0.00000000E+00  0.00000000E+00  0.00000000E+00
  0.00000000E+00  0.00000000E+00  0.00000000E+00
  0.00000000E+00  0.00000000E+00  0.00000000E+00
  0.00000000E+00  0.00000000E+00  0.00000000E+00
  0.00000000E+00  0.00000000E+00  0.00000000E+00
  0.00000000E+00  0.00000000E+00  0.00000000E+00
  0.00000000E+00  0.00000000E+00  0.00000000E+00
  0.00000000E+00  0.00000000E+00  0.00000000E+00
  0.00000000E+00  0.00000000E+00  0.00000000E+00
  0.00000000E+00  0.00000000E+00  0.00000000E+00
  0.00000000E+00  0.00000000E+00  0.00000000E+00
  0.00000000E+00  0.00000000E+00  0.00000000E+00
  0.00000000E+00  0.00000000E+00  0.00000000E+00
  0.00000000E+00  0.00000000E+00  0.00000000E+00
  0.00000000E+00  0.00000000E+00  0.00000000E+00
  0.00000000E+00  0.00000000E+00  0.00000000E+00
  0.00000000E+00  0.00000000E+00  0.00000000E+00
  0.00000000E+00  0.00000000E+00  0.00000000E+00
  0.00000000E+00  0.00000000E+00  0.00000000E+00
  0.00000000E+00  0.00000000E+00  0.00000000E+00
  0.00000000E+00  0.00000000E+00  0.00000000E+00
  0.00000000E+00  0.00000000E+00  0.00000000E+00
  0.00000000E+00  0.00000000E+00  0.00000000E+00
  0.00000000E+00  0.00000000E+00  0.00000000E+00
  0.00000000E+00  0.00000000E+00  0.00000000E+00
  0.00000000E+00  0.00000000E+00  0.00000000E+00
  0.00000000E+00  0.00000000E+00  0.00000000E+00
  0.00000000E+00  0.00000000E+00  0.00000000E+00
  0.00000000E+00  0.00000000E+00  0.00000000E+00
  0.00000000E+00  0.00000000E+00  0.00000000E+00
  0.00000000E+00  0.00000000E+00  0.00000000E+00
  0.00000000E+00  0.00000000E+00  0.00000000E+00
  0.00000000E+00  0.00000000E+00  0.00000000E+00
  0.00000000E+00  0.00000000E+00  0.00000000E+00
  0.00000000E+00  0.00000000E+00  0.00000000E+00
  0.00000000E+00  0.00000000E+00  0.00000000E+00
  0.00000000E+00  0.00000000E+00  0.00000000E+00
  0.00000000E+00  0.00000000E+00  0.00000000E+00
  0.00000000E+00  0.00000000E+00  0.00000000E+00
  0.00000000E+00  0.00000000E+00  0.00000000E+00
  0.00000000E+00  0.00000000E+00  0.00000000E+00
  0.00000000E+00  0.00000000E+00  0.00000000E+00
  0.00000000E+00  0.00000000E+00  0.00000000E+00
  0.00000000E+00  0.00000000E+00  0.00000000E+00
  0.00000000E+00  0.00000000E+00  0.00000000E+00
  0.00000000E+00  0.00000000E+00  0.00000000E+00
  0.00000000E+00  0.00000000E+00  0.00000000E+00
  0.00000000E+00  0.00000000E+00  0.00000000E+00
  0.00000000E+00  0.00000000E+00  0.00000000E+00
  0.00000000E+00  0.00000000E+00  0.00000000E+00
  0.00000000E+00  0.00000000E+00  0.00000000E+00
  0.00000000E+00  0.00000000E+00  0.00000000E+00
  0.00000000E+00  0.00000000E+00  0.00000000E+00
  0.00000000E+00  0.00000000E+00  0.00000000E+00
  0.00000000E+00  0.00000000E+00  0.00000000E+00
  0.00000000E+00  0.00000000E+00  0.00000000E+00
  0.00000000E+00  0.00000000E+00  0.00000000E+00
  0.00000000E+00  0.00000000E+00  0.00000000E+00
  0.00000000E+00  0.00000000E+00  0.00000000E+00
  0.00000000E+00  0.00000000E+00  0.00000000E+00
  0.00000000E+00  0.00000000E+00  0.00000000E+00
  0.00000000E+00  0.00000000E+00  0.00000000E+00
  0.00000000E+00  0.00000000E+00  0.00000000E+00
  0.00000000E+00  0.00000000E+00  0.00000000E+00
  0.00000000E+00  0.00000000E+00  0.00000000E+00
  0.00000000E+00  0.00000000E+00  0.00000000E+00
  0.00000000E+00  0.00000000E+00  0.00000000E+00
  0.00000000E+00  0.00000000E+00  0.00000000E+00
  0.00000000E+00  0.00000000E+00  0.00000000E+00
  0.00000000E+00  0.00000000E+00  0.00000000E+00
  0.00000000E+00  0.00000000E+00  0.00000000E+00
  0.00000000E+00  0.00000000E+00  0.00000000E+00
  0.00000000E+00  0.00000000E+00  0.00000000E+00
  0.00000000E+00  0.00000000E+00  0.00000000E+00
  0.00000000E+00  0.00000000E+00  0.00000000E+00
  0.00000000E+00  0.00000000E+00  0.00000000E+00
