Y1 C125 N1 O1                           
   1.00000000000000     
    19.6003075955320547    0.0061912776692176   -0.8030964319282564
    -9.7994607660139099   17.1075883795267067    0.6591270849742380
    -1.2226619481060419    0.4480950838842038   30.0603431049330219
   Y    C    N    O 
     1   125     1     1
Direct
  0.4367151395338027  0.5105898628795910  0.4687573740272954
  0.0422584559488199  0.0830452099476518  0.3990561626868814
  0.0437993309500206  0.2090931608029754  0.3994798838400701
  0.0445700586689941  0.3338842613284577  0.3990460076295144
  0.0441549018522004  0.4581648793249889  0.3979243201628889
  0.0419759889681031  0.5825730954538235  0.3967316853347413
  0.0410705381990701  0.7072787541263963  0.3961847564301300
  0.0408841863982643  0.8320756570084908  0.3969188285725846
  0.0411441765377222  0.9571282865980202  0.3981265394786128
  0.1659352965415575  0.0812992901470414  0.3986691918808089
  0.1678265491415684  0.2076098785848442  0.3992729680101513
  0.1712646796742063  0.3343699850451736  0.3995158885084960
  0.1725379777527932  0.4584177102678951  0.3990524082864668
  0.1685417448771186  0.5826179523376889  0.3979606361492539
  0.1668781605113583  0.7073488038893554  0.3969851767658159
  0.1663093606124632  0.8321029775045135  0.3969777379002311
  0.1661530359389310  0.9567568932556743  0.3977911999316487
  0.2911338481017363  0.0811754469691919  0.3987441760938471
  0.2903157855417875  0.2045710252624869  0.3990625941928787
  0.2946477034601698  0.3316003803999726  0.3998586299878901
  0.3050016985504179  0.4593869035028483  0.3993924383188009
  0.2949416231990952  0.5833355573800162  0.4000825443094950
  0.2926553655089049  0.7079379872987341  0.3989964657574165
  0.2919666789557906  0.8325649934132129  0.3982780646258263
  0.2915178937939392  0.9570122155709133  0.3983914884495465
  0.4166186697760557  0.0827553373311204  0.3993238097494413
  0.4156204889208925  0.2072466438999714  0.3993900502202729
  0.4132629892930214  0.3312557312172603  0.3999553180114042
  0.4182327327497493  0.7088330191092739  0.4024478589900100
  0.4175426293421896  0.8333879663518838  0.4004249126281352
  0.4170493152350722  0.9580793901228377  0.3994558302995879
  0.5420262204017541  0.0836627332077286  0.3997302824866876
  0.5411675931807317  0.2087041955217978  0.3993979246286788
  0.5390539282595391  0.3337389274801598  0.3993503875351089
  0.5309735793987226  0.4582035551373404  0.4031999717231682
  0.5480686740950502  0.5855592175399728  0.4240017286065991
  0.5436751986761970  0.7083087524389772  0.4103070164244175
  0.5428206621719533  0.8336615349489018  0.4030897716917344
  0.5424584871720918  0.9587088514210860  0.4004707988763127
  0.6673995956450429  0.0840622688185001  0.3997858143211994
  0.6667257438259662  0.2089727608571345  0.3992494709451888
  0.6651389372239661  0.3337128152686926  0.3988805973026285
  0.6616565820642215  0.4581864572735069  0.3989693149005937
  0.6636443788221686  0.5828670883396970  0.4015302072412735
  0.6678387387431726  0.7089886030083644  0.4063981485375093
  0.6677740620183574  0.8337251788810853  0.4043889669403045
  0.6677101560676213  0.9590046405527033  0.4013738400794716
  0.7927562397913314  0.0841269692291724  0.3999128292554338
  0.7924891870045526  0.2090631591566423  0.3990942105585760
  0.7914986676679715  0.3337059262969297  0.3985152413842105
  0.7895384991551769  0.4581262870874526  0.3978422982245143
  0.7892174900821727  0.5826060056174405  0.3974198515206721
  0.7905723808447676  0.7076139712977709  0.3995852168195568
  0.7920526502572079  0.8335630907049492  0.4004691446486373
  0.7925083846238239  0.9588507892239083  0.4006978204059439
  0.9178481591980540  0.0839212970411678  0.3995915432649292
  0.9182950077381049  0.2091569432264299  0.3992997966759217
  0.9179528958130539  0.3337776852914107  0.3984617151388825
  0.9167446391511261  0.4580593888823256  0.3975204593130842
  0.9155653901123287  0.5825418121465551  0.3966874857668943
  0.9154518132026104  0.7073885991534192  0.3966970308588122
  0.9160269919257558  0.8325732329870903  0.3980902288403456
  0.9170005020525092  0.9582832832035862  0.3990821566480610
  0.0828339804302796  0.0402735032818732  0.3986315023210735
  0.0844695145953598  0.1664591028693203  0.3993143869958428
  0.0866639112058009  0.2926232103570473  0.3994177517024273
  0.0876651041086546  0.4171449567433962  0.3986590850271239
  0.0848172451775338  0.5412558203528932  0.3974103229147583
  0.0832400486969285  0.6657365877509739  0.3964199028751337
  0.0827243603986786  0.7904590437754663  0.3965082358543454
  0.0826197438990248  0.9152599715834202  0.3975564967708400
  0.2076556016857465  0.0396473048521624  0.3983889266292893
  0.2073338819704542  0.1640742491488830  0.3990033360467887
  0.2109996920907657  0.2913558697408569  0.3995622898823746
  0.2173618081854329  0.4178789119685400  0.3995050964333211
  0.2116422692308928  0.5414580311335345  0.3989480141113877
  0.2092676916667933  0.6659212687537769  0.3978454338745079
  0.2083305485317775  0.7905749155811644  0.3972444628709323
  0.2079737723386275  0.9151833984533617  0.3976351798009063
  0.3331016374170977  0.0400889749051802  0.3988677591286195
  0.3325098384205000  0.1638872218500437  0.3990757406334873
  0.3310714130400087  0.2859526165959587  0.3993833003287625
  0.3471212164246640  0.4136168045298243  0.4000627722754427
  0.3410039595046193  0.5448645047394822  0.4004377758294626
  0.3350567668479693  0.6664908332504028  0.4003230114199025
  0.3340105555135006  0.7911179793532978  0.3991931821478831
  0.3335194710328546  0.9157191129743243  0.3987196307039492
  0.4585778204592491  0.0413652293552683  0.3995525023714935
  0.4578308291703514  0.1661170232387393  0.3994137632289061
  0.4562920035967378  0.2908207784654798  0.3997092911865229
  0.4437484487505476  0.4131136004201005  0.4012340278111386
  0.4590855998204878  0.6659125058990218  0.4057885798088933
  0.4595552586552708  0.7919197280055404  0.4021855201956491
  0.4589928233733881  0.9166210885554325  0.4001019344026619
  0.5839431145685094  0.0420644717032595  0.3999633729757495
  0.5832523864007227  0.1670802600912112  0.3995199083660493
  0.5818192476412279  0.2921816949496803  0.3991079307842697
  0.5764661785006645  0.4169833397912185  0.3999797621792701
  0.5800923545501914  0.5423916363848945  0.4084061233789006
  0.5864342861130036  0.6671635657960011  0.4144360190323226
  0.5842589353126090  0.7912701546039033  0.4059752309429803
  0.5842093698341539  0.9169125447132734  0.4015261730856102
  0.7092157063686134  0.0422955370195166  0.4002383555483450
  0.7088249420724528  0.1673470788008536  0.3993116187347058
  0.7077922161850159  0.2922583135436005  0.3988975699028061
  0.7051916387824179  0.4170043075357732  0.3985114669161851
  0.7051059746662914  0.5414390545886861  0.3984355084336257
  0.7075508490514479  0.6661894879774880  0.4027825963799647
  0.7091481837796518  0.7921489600253633  0.4034314206701138
  0.7092234365326068  0.9170706275055565  0.4021307235404934
  0.8342995089559742  0.0422210329820606  0.4000299491052970
  0.8344990257932933  0.1674488011334092  0.3993775528379565
  0.8340680640459391  0.2923759034800224  0.3986641320155671
  0.8326236771315026  0.4168726562854891  0.3979353771415137
  0.8315763316975137  0.5412138473831420  0.3972071367107163
  0.8318536690688008  0.6658830599459147  0.3975459864261205
  0.8327853128497186  0.7911162565317486  0.3992992072795994
  0.8337784631643120  0.9168135146199234  0.3999825601591231
  0.9588997649161478  0.0416421671155259  0.3992270283521875
  0.9600252350539891  0.1673910898108478  0.3995048179458922
  0.9603970673228072  0.2924267359335183  0.3989280990971745
  0.9598108561977832  0.4168900513669190  0.3978825954591754
  0.9581526428550914  0.5412346965163263  0.3968871287587236
  0.9573868770484496  0.6657900110679777  0.3962815082369691
  0.9574284056654940  0.7906237060341955  0.3971139520939849
  0.9578532231218385  0.9158298872362057  0.3983569199308840
  0.4201515655660461  0.5870428915418651  0.4032182497881662
  0.4278972320227853  0.5648922299256506  0.5138195834102141
 
  0.00000000E+00  0.00000000E+00  0.00000000E+00
  0.00000000E+00  0.00000000E+00  0.00000000E+00
  0.00000000E+00  0.00000000E+00  0.00000000E+00
  0.00000000E+00  0.00000000E+00  0.00000000E+00
  0.00000000E+00  0.00000000E+00  0.00000000E+00
  0.00000000E+00  0.00000000E+00  0.00000000E+00
  0.00000000E+00  0.00000000E+00  0.00000000E+00
  0.00000000E+00  0.00000000E+00  0.00000000E+00
  0.00000000E+00  0.00000000E+00  0.00000000E+00
  0.00000000E+00  0.00000000E+00  0.00000000E+00
  0.00000000E+00  0.00000000E+00  0.00000000E+00
  0.00000000E+00  0.00000000E+00  0.00000000E+00
  0.00000000E+00  0.00000000E+00  0.00000000E+00
  0.00000000E+00  0.00000000E+00  0.00000000E+00
  0.00000000E+00  0.00000000E+00  0.00000000E+00
  0.00000000E+00  0.00000000E+00  0.00000000E+00
  0.00000000E+00  0.00000000E+00  0.00000000E+00
  0.00000000E+00  0.00000000E+00  0.00000000E+00
  0.00000000E+00  0.00000000E+00  0.00000000E+00
  0.00000000E+00  0.00000000E+00  0.00000000E+00
  0.00000000E+00  0.00000000E+00  0.00000000E+00
  0.00000000E+00  0.00000000E+00  0.00000000E+00
  0.00000000E+00  0.00000000E+00  0.00000000E+00
  0.00000000E+00  0.00000000E+00  0.00000000E+00
  0.00000000E+00  0.00000000E+00  0.00000000E+00
  0.00000000E+00  0.00000000E+00  0.00000000E+00
  0.00000000E+00  0.00000000E+00  0.00000000E+00
  0.00000000E+00  0.00000000E+00  0.00000000E+00
  0.00000000E+00  0.00000000E+00  0.00000000E+00
  0.00000000E+00  0.00000000E+00  0.00000000E+00
  0.00000000E+00  0.00000000E+00  0.00000000E+00
  0.00000000E+00  0.00000000E+00  0.00000000E+00
  0.00000000E+00  0.00000000E+00  0.00000000E+00
  0.00000000E+00  0.00000000E+00  0.00000000E+00
  0.00000000E+00  0.00000000E+00  0.00000000E+00
  0.00000000E+00  0.00000000E+00  0.00000000E+00
  0.00000000E+00  0.00000000E+00  0.00000000E+00
  0.00000000E+00  0.00000000E+00  0.00000000E+00
  0.00000000E+00  0.00000000E+00  0.00000000E+00
  0.00000000E+00  0.00000000E+00  0.00000000E+00
  0.00000000E+00  0.00000000E+00  0.00000000E+00
  0.00000000E+00  0.00000000E+00  0.00000000E+00
  0.00000000E+00  0.00000000E+00  0.00000000E+00
  0.00000000E+00  0.00000000E+00  0.00000000E+00
  0.00000000E+00  0.00000000E+00  0.00000000E+00
  0.00000000E+00  0.00000000E+00  0.00000000E+00
  0.00000000E+00  0.00000000E+00  0.00000000E+00
  0.00000000E+00  0.00000000E+00  0.00000000E+00
  0.00000000E+00  0.00000000E+00  0.00000000E+00
  0.00000000E+00  0.00000000E+00  0.00000000E+00
  0.00000000E+00  0.00000000E+00  0.00000000E+00
  0.00000000E+00  0.00000000E+00  0.00000000E+00
  0.00000000E+00  0.00000000E+00  0.00000000E+00
  0.00000000E+00  0.00000000E+00  0.00000000E+00
  0.00000000E+00  0.00000000E+00  0.00000000E+00
  0.00000000E+00  0.00000000E+00  0.00000000E+00
  0.00000000E+00  0.00000000E+00  0.00000000E+00
  0.00000000E+00  0.00000000E+00  0.00000000E+00
  0.00000000E+00  0.00000000E+00  0.00000000E+00
  0.00000000E+00  0.00000000E+00  0.00000000E+00
  0.00000000E+00  0.00000000E+00  0.00000000E+00
  0.00000000E+00  0.00000000E+00  0.00000000E+00
  0.00000000E+00  0.00000000E+00  0.00000000E+00
  0.00000000E+00  0.00000000E+00  0.00000000E+00
  0.00000000E+00  0.00000000E+00  0.00000000E+00
  0.00000000E+00  0.00000000E+00  0.00000000E+00
  0.00000000E+00  0.00000000E+00  0.00000000E+00
  0.00000000E+00  0.00000000E+00  0.00000000E+00
  0.00000000E+00  0.00000000E+00  0.00000000E+00
  0.00000000E+00  0.00000000E+00  0.00000000E+00
  0.00000000E+00  0.00000000E+00  0.00000000E+00
  0.00000000E+00  0.00000000E+00  0.00000000E+00
  0.00000000E+00  0.00000000E+00  0.00000000E+00
  0.00000000E+00  0.00000000E+00  0.00000000E+00
  0.00000000E+00  0.00000000E+00  0.00000000E+00
  0.00000000E+00  0.00000000E+00  0.00000000E+00
  0.00000000E+00  0.00000000E+00  0.00000000E+00
  0.00000000E+00  0.00000000E+00  0.00000000E+00
  0.00000000E+00  0.00000000E+00  0.00000000E+00
  0.00000000E+00  0.00000000E+00  0.00000000E+00
  0.00000000E+00  0.00000000E+00  0.00000000E+00
  0.00000000E+00  0.00000000E+00  0.00000000E+00
  0.00000000E+00  0.00000000E+00  0.00000000E+00
  0.00000000E+00  0.00000000E+00  0.00000000E+00
  0.00000000E+00  0.00000000E+00  0.00000000E+00
  0.00000000E+00  0.00000000E+00  0.00000000E+00
  0.00000000E+00  0.00000000E+00  0.00000000E+00
  0.00000000E+00  0.00000000E+00  0.00000000E+00
  0.00000000E+00  0.00000000E+00  0.00000000E+00
  0.00000000E+00  0.00000000E+00  0.00000000E+00
  0.00000000E+00  0.00000000E+00  0.00000000E+00
  0.00000000E+00  0.00000000E+00  0.00000000E+00
  0.00000000E+00  0.00000000E+00  0.00000000E+00
  0.00000000E+00  0.00000000E+00  0.00000000E+00
  0.00000000E+00  0.00000000E+00  0.00000000E+00
  0.00000000E+00  0.00000000E+00  0.00000000E+00
  0.00000000E+00  0.00000000E+00  0.00000000E+00
  0.00000000E+00  0.00000000E+00  0.00000000E+00
  0.00000000E+00  0.00000000E+00  0.00000000E+00
  0.00000000E+00  0.00000000E+00  0.00000000E+00
  0.00000000E+00  0.00000000E+00  0.00000000E+00
  0.00000000E+00  0.00000000E+00  0.00000000E+00
  0.00000000E+00  0.00000000E+00  0.00000000E+00
  0.00000000E+00  0.00000000E+00  0.00000000E+00
  0.00000000E+00  0.00000000E+00  0.00000000E+00
  0.00000000E+00  0.00000000E+00  0.00000000E+00
  0.00000000E+00  0.00000000E+00  0.00000000E+00
  0.00000000E+00  0.00000000E+00  0.00000000E+00
  0.00000000E+00  0.00000000E+00  0.00000000E+00
  0.00000000E+00  0.00000000E+00  0.00000000E+00
  0.00000000E+00  0.00000000E+00  0.00000000E+00
  0.00000000E+00  0.00000000E+00  0.00000000E+00
  0.00000000E+00  0.00000000E+00  0.00000000E+00
  0.00000000E+00  0.00000000E+00  0.00000000E+00
  0.00000000E+00  0.00000000E+00  0.00000000E+00
  0.00000000E+00  0.00000000E+00  0.00000000E+00
  0.00000000E+00  0.00000000E+00  0.00000000E+00
  0.00000000E+00  0.00000000E+00  0.00000000E+00
  0.00000000E+00  0.00000000E+00  0.00000000E+00
  0.00000000E+00  0.00000000E+00  0.00000000E+00
  0.00000000E+00  0.00000000E+00  0.00000000E+00
  0.00000000E+00  0.00000000E+00  0.00000000E+00
  0.00000000E+00  0.00000000E+00  0.00000000E+00
  0.00000000E+00  0.00000000E+00  0.00000000E+00
  0.00000000E+00  0.00000000E+00  0.00000000E+00
  0.00000000E+00  0.00000000E+00  0.00000000E+00
  0.00000000E+00  0.00000000E+00  0.00000000E+00
  0.00000000E+00  0.00000000E+00  0.00000000E+00
