Cu1 H1 C125 N1                          
   1.00000000000000     
    19.8096057749890946   -0.0070994455022276    0.2785584542056656
    -9.9128569839511602   17.0587335476995143    0.0883136522004071
     0.4169806557839822    0.3954091458238717   29.7942465299958066
   Cu   H    C    N 
     1     1   125     1
Direct
  0.4356344632938545  0.4979570073657374  0.4051267690069162
  0.5097203539106334  0.5616093426945320  0.4508335896411257
  0.0412571809355349  0.0835027600830321  0.4006920077240996
  0.0406000157821263  0.2078545133905686  0.4002630470593938
  0.0401639738620167  0.3325039659772103  0.3995106868403877
  0.0402112603509153  0.4578363023470044  0.3991940320418965
  0.0408726313702726  0.5832901024220680  0.3990719133195916
  0.0414636619150479  0.7086475088194960  0.3991951493695698
  0.0416199530600484  0.8338670491508716  0.3997482025229862
  0.0416238415375953  0.9588922997694227  0.4003858753887347
  0.1669223286961113  0.0846274943819964  0.4008564740751936
  0.1665209145815294  0.2093090240777764  0.4010824307173954
  0.1653063278065330  0.3334446784852742  0.4003459332758131
  0.1640868317812418  0.4580843821509616  0.3995669547329356
  0.1647538106605085  0.5832569477662077  0.3994317119944820
  0.1658098446877942  0.7085989088046286  0.3993617366135503
  0.1664024456291677  0.8339526102332558  0.3996302462614943
  0.1667620437561118  0.9593381498429822  0.4002161912272058
  0.2919278914021278  0.0846628945463874  0.4008936845195173
  0.2926590665800896  0.2109986808063642  0.4016927887040500
  0.2921030711847611  0.3363645642376444  0.4023355090147526
  0.2882486299833643  0.4587382610558455  0.4013928497834867
  0.2883404144670734  0.5836452166879103  0.4009620086798822
  0.2900849435989947  0.7084905044057357  0.4003290404499897
  0.2910153503294036  0.8336002337394154  0.4000311447314279
  0.2914756345951450  0.9589573306004763  0.4003030118915518
  0.4165028787926962  0.0835020065073401  0.4006960288183425
  0.4170525548825184  0.2093674750695721  0.4016649597837679
  0.4185634880746490  0.3367305423074733  0.4033088253558831
  0.4141510714569595  0.7060083574401195  0.4025807891388725
  0.4155331878855753  0.8320879101791324  0.4010349214143803
  0.4160915245729789  0.9578454518476780  0.4004022170987969
  0.5411033622793718  0.0821806770525156  0.4001401681332407
  0.5416406280063308  0.2075795582361885  0.4004830823517141
  0.5425069110097698  0.3327043503762431  0.4025545945961622
  0.5452810802900562  0.4574197209019575  0.4077205861303307
  0.5451875750437916  0.5801563049644105  0.4186539525520144
  0.5381787973026485  0.7029014583539706  0.4060766711370497
  0.5398822052878749  0.8305351462911709  0.4019826375682390
  0.5406034782763307  0.9565528469929928  0.4004526947182502
  0.6657001310545869  0.0816572683446897  0.3998502124476896
  0.6662223252357032  0.2069942518477811  0.3996858137493897
  0.6669660069473606  0.3321852803878457  0.4001429060122886
  0.6686159907584268  0.4574586803219653  0.4018945297528635
  0.6692527665886405  0.5825254788736037  0.4038814416490931
  0.6654658709587242  0.7062171570064802  0.4037139471943922
  0.6642879890839762  0.8303621459091698  0.4020838992426499
  0.6651885010543009  0.9561761390180999  0.4006412968002490
  0.7904144391218124  0.0816699807385544  0.4000047858589468
  0.7907741624939639  0.2068800601170607  0.3995473731107462
  0.7913824561086442  0.3322054933047659  0.3993467511100482
  0.7923611171976601  0.4576347932822120  0.3992385048171089
  0.7929940547146650  0.5829767392146764  0.3994560064864723
  0.7919173425916478  0.7079765243162996  0.4008224382306861
  0.7906777811621575  0.8321234745821114  0.4006924219167575
  0.7901043558169204  0.9565289888600231  0.4005916558506243
  0.9155345177624353  0.0822471660360104  0.4003473070505171
  0.9154702305112016  0.2071232737095065  0.3997578138691880
  0.9156666591261010  0.3322955484532336  0.3993105427492546
  0.9162490117577187  0.4576863016980589  0.3990978328762533
  0.9169758089996563  0.5832244522485336  0.3990280505676806
  0.9168667662237694  0.7084375864270878  0.3993753897795537
  0.9165613298836202  0.8333911459493271  0.4001135570673515
  0.9159428791314771  0.9577995999337597  0.4005470531564616
  0.0834191124853543  0.0424476821196024  0.4006754278226854
  0.0829475104664166  0.1669579134539281  0.4006641985105944
  0.0819366490799467  0.2912043157557921  0.3999730120885769
  0.0813541477853408  0.4160568222006387  0.3993521218581702
  0.0818414452163595  0.5413697321643647  0.3991386012036313
  0.0826769276269362  0.6668338671720300  0.3991359449575814
  0.0831949306487925  0.7921924217976325  0.3994710440047293
  0.0833452562798848  0.9173970713726863  0.4000983870926707
  0.2084908412734804  0.0428068382408570  0.4006428820709406
  0.2086874128732797  0.1682501552537144  0.4012646396139552
  0.2080267609395147  0.2929564286102138  0.4012071753006290
  0.2055227286865900  0.4166963488849513  0.4000126097100370
  0.2054213564998149  0.5413705005905969  0.3998619816249753
  0.2069387313968921  0.6668200276680769  0.3996036266577823
  0.2077979918924453  0.7921200622222281  0.3996031973543689
  0.2082361552396047  0.9174390583791592  0.4000253006447264
  0.3332374243042026  0.0424713836172652  0.4006704052014949
  0.3337754483598210  0.1682285194569041  0.4014619421905885
  0.3343170829191115  0.2943663859550298  0.4024129066861318
  0.3299387531578553  0.4186517491596328  0.4034199429144399
  0.3295491488700606  0.5430356726084093  0.4017497591636153
  0.3311226143798759  0.6665837284944852  0.4012352785522676
  0.3322938054496598  0.7916308316912034  0.4004685531924757
  0.3328715009922656  0.9169663167549562  0.4002542346314486
  0.4578639440227083  0.0412644046489503  0.4004062866105177
  0.4583166886099718  0.1669414498393601  0.4009850822068198
  0.4591848654360750  0.2929420425598487  0.4026245926729486
  0.4633680254137848  0.4191710706927870  0.4051231304250033
  0.4532067776253721  0.6611406518547971  0.4043288210792089
  0.4566517336347459  0.7896667351563295  0.4020404105313769
  0.4573931883231752  0.9156071245595662  0.4006017700144123
  0.5824572502571665  0.0401432248310291  0.4000713407905936
  0.5829693129272578  0.1655977747119817  0.4000050491418463
  0.5837456063103149  0.2907202238620911  0.4008332221936444
  0.5857203106872507  0.4154449387421190  0.4044947650625388
  0.5881784041151465  0.5404927594021164  0.4104733596352466
  0.5818720402845426  0.6633873675080513  0.4089220973054324
  0.5803549242548424  0.7874777223880826  0.4032749634130334
  0.5818463465290904  0.9143150495286425  0.4008648519417485
  0.7071027469414780  0.0398091496422365  0.4000756358040218
  0.7075633916499827  0.1651599068450407  0.3996127438361334
  0.7081934959143855  0.2904408933749690  0.3996201802577197
  0.7094266089021667  0.4156712859475065  0.4000955539974267
  0.7104261966875877  0.5408258235395786  0.4009795446557290
  0.7090174304904832  0.6660644577664396  0.4030211901008504
  0.7069416802457767  0.7897813065762792  0.4016139520776786
  0.7064665155220919  0.9142732202312902  0.4010187456703452
  0.8320208689775856  0.0401300758362967  0.4002834954076728
  0.8321924811951245  0.1652076886769440  0.3997346713227005
  0.8325994169079549  0.2904182271563094  0.3993874086272350
  0.8333391259668841  0.4157640666010742  0.3991427037398920
  0.8341340222087451  0.5411976023513895  0.3990925325728211
  0.8339491967651970  0.6665440407738989  0.3997144690901690
  0.8331986898513649  0.7914104352047077  0.4004635889642901
  0.8323928560834822  0.9156089958894816  0.4005884208023767
  0.9576655436093434  0.0412458167559534  0.4005798606196732
  0.9572325504884586  0.1657536588125456  0.4001159978604359
  0.9570888106937501  0.2906078031221647  0.3994845986134125
  0.9572806867879220  0.4158393510787645  0.3991835413337538
  0.9579900234137152  0.5413303430255326  0.3990516199703614
  0.9584324913041025  0.6667733428239017  0.3991162929247208
  0.9584195944393467  0.7919965894998593  0.3997536671705724
  0.9581571114343704  0.9168080363680077  0.4003581062845709
  0.4091551850590476  0.5807944372453048  0.4030969124917965
 
  0.00000000E+00  0.00000000E+00  0.00000000E+00
  0.00000000E+00  0.00000000E+00  0.00000000E+00
  0.00000000E+00  0.00000000E+00  0.00000000E+00
  0.00000000E+00  0.00000000E+00  0.00000000E+00
  0.00000000E+00  0.00000000E+00  0.00000000E+00
  0.00000000E+00  0.00000000E+00  0.00000000E+00
  0.00000000E+00  0.00000000E+00  0.00000000E+00
  0.00000000E+00  0.00000000E+00  0.00000000E+00
  0.00000000E+00  0.00000000E+00  0.00000000E+00
  0.00000000E+00  0.00000000E+00  0.00000000E+00
  0.00000000E+00  0.00000000E+00  0.00000000E+00
  0.00000000E+00  0.00000000E+00  0.00000000E+00
  0.00000000E+00  0.00000000E+00  0.00000000E+00
  0.00000000E+00  0.00000000E+00  0.00000000E+00
  0.00000000E+00  0.00000000E+00  0.00000000E+00
  0.00000000E+00  0.00000000E+00  0.00000000E+00
  0.00000000E+00  0.00000000E+00  0.00000000E+00
  0.00000000E+00  0.00000000E+00  0.00000000E+00
  0.00000000E+00  0.00000000E+00  0.00000000E+00
  0.00000000E+00  0.00000000E+00  0.00000000E+00
  0.00000000E+00  0.00000000E+00  0.00000000E+00
  0.00000000E+00  0.00000000E+00  0.00000000E+00
  0.00000000E+00  0.00000000E+00  0.00000000E+00
  0.00000000E+00  0.00000000E+00  0.00000000E+00
  0.00000000E+00  0.00000000E+00  0.00000000E+00
  0.00000000E+00  0.00000000E+00  0.00000000E+00
  0.00000000E+00  0.00000000E+00  0.00000000E+00
  0.00000000E+00  0.00000000E+00  0.00000000E+00
  0.00000000E+00  0.00000000E+00  0.00000000E+00
  0.00000000E+00  0.00000000E+00  0.00000000E+00
  0.00000000E+00  0.00000000E+00  0.00000000E+00
  0.00000000E+00  0.00000000E+00  0.00000000E+00
  0.00000000E+00  0.00000000E+00  0.00000000E+00
  0.00000000E+00  0.00000000E+00  0.00000000E+00
  0.00000000E+00  0.00000000E+00  0.00000000E+00
  0.00000000E+00  0.00000000E+00  0.00000000E+00
  0.00000000E+00  0.00000000E+00  0.00000000E+00
  0.00000000E+00  0.00000000E+00  0.00000000E+00
  0.00000000E+00  0.00000000E+00  0.00000000E+00
  0.00000000E+00  0.00000000E+00  0.00000000E+00
  0.00000000E+00  0.00000000E+00  0.00000000E+00
  0.00000000E+00  0.00000000E+00  0.00000000E+00
  0.00000000E+00  0.00000000E+00  0.00000000E+00
  0.00000000E+00  0.00000000E+00  0.00000000E+00
  0.00000000E+00  0.00000000E+00  0.00000000E+00
  0.00000000E+00  0.00000000E+00  0.00000000E+00
  0.00000000E+00  0.00000000E+00  0.00000000E+00
  0.00000000E+00  0.00000000E+00  0.00000000E+00
  0.00000000E+00  0.00000000E+00  0.00000000E+00
  0.00000000E+00  0.00000000E+00  0.00000000E+00
  0.00000000E+00  0.00000000E+00  0.00000000E+00
  0.00000000E+00  0.00000000E+00  0.00000000E+00
  0.00000000E+00  0.00000000E+00  0.00000000E+00
  0.00000000E+00  0.00000000E+00  0.00000000E+00
  0.00000000E+00  0.00000000E+00  0.00000000E+00
  0.00000000E+00  0.00000000E+00  0.00000000E+00
  0.00000000E+00  0.00000000E+00  0.00000000E+00
  0.00000000E+00  0.00000000E+00  0.00000000E+00
  0.00000000E+00  0.00000000E+00  0.00000000E+00
  0.00000000E+00  0.00000000E+00  0.00000000E+00
  0.00000000E+00  0.00000000E+00  0.00000000E+00
  0.00000000E+00  0.00000000E+00  0.00000000E+00
  0.00000000E+00  0.00000000E+00  0.00000000E+00
  0.00000000E+00  0.00000000E+00  0.00000000E+00
  0.00000000E+00  0.00000000E+00  0.00000000E+00
  0.00000000E+00  0.00000000E+00  0.00000000E+00
  0.00000000E+00  0.00000000E+00  0.00000000E+00
  0.00000000E+00  0.00000000E+00  0.00000000E+00
  0.00000000E+00  0.00000000E+00  0.00000000E+00
  0.00000000E+00  0.00000000E+00  0.00000000E+00
  0.00000000E+00  0.00000000E+00  0.00000000E+00
  0.00000000E+00  0.00000000E+00  0.00000000E+00
  0.00000000E+00  0.00000000E+00  0.00000000E+00
  0.00000000E+00  0.00000000E+00  0.00000000E+00
  0.00000000E+00  0.00000000E+00  0.00000000E+00
  0.00000000E+00  0.00000000E+00  0.00000000E+00
  0.00000000E+00  0.00000000E+00  0.00000000E+00
  0.00000000E+00  0.00000000E+00  0.00000000E+00
  0.00000000E+00  0.00000000E+00  0.00000000E+00
  0.00000000E+00  0.00000000E+00  0.00000000E+00
  0.00000000E+00  0.00000000E+00  0.00000000E+00
  0.00000000E+00  0.00000000E+00  0.00000000E+00
  0.00000000E+00  0.00000000E+00  0.00000000E+00
  0.00000000E+00  0.00000000E+00  0.00000000E+00
  0.00000000E+00  0.00000000E+00  0.00000000E+00
  0.00000000E+00  0.00000000E+00  0.00000000E+00
  0.00000000E+00  0.00000000E+00  0.00000000E+00
  0.00000000E+00  0.00000000E+00  0.00000000E+00
  0.00000000E+00  0.00000000E+00  0.00000000E+00
  0.00000000E+00  0.00000000E+00  0.00000000E+00
  0.00000000E+00  0.00000000E+00  0.00000000E+00
  0.00000000E+00  0.00000000E+00  0.00000000E+00
  0.00000000E+00  0.00000000E+00  0.00000000E+00
  0.00000000E+00  0.00000000E+00  0.00000000E+00
  0.00000000E+00  0.00000000E+00  0.00000000E+00
  0.00000000E+00  0.00000000E+00  0.00000000E+00
  0.00000000E+00  0.00000000E+00  0.00000000E+00
  0.00000000E+00  0.00000000E+00  0.00000000E+00
  0.00000000E+00  0.00000000E+00  0.00000000E+00
  0.00000000E+00  0.00000000E+00  0.00000000E+00
  0.00000000E+00  0.00000000E+00  0.00000000E+00
  0.00000000E+00  0.00000000E+00  0.00000000E+00
  0.00000000E+00  0.00000000E+00  0.00000000E+00
  0.00000000E+00  0.00000000E+00  0.00000000E+00
  0.00000000E+00  0.00000000E+00  0.00000000E+00
  0.00000000E+00  0.00000000E+00  0.00000000E+00
  0.00000000E+00  0.00000000E+00  0.00000000E+00
  0.00000000E+00  0.00000000E+00  0.00000000E+00
  0.00000000E+00  0.00000000E+00  0.00000000E+00
  0.00000000E+00  0.00000000E+00  0.00000000E+00
  0.00000000E+00  0.00000000E+00  0.00000000E+00
  0.00000000E+00  0.00000000E+00  0.00000000E+00
  0.00000000E+00  0.00000000E+00  0.00000000E+00
  0.00000000E+00  0.00000000E+00  0.00000000E+00
  0.00000000E+00  0.00000000E+00  0.00000000E+00
  0.00000000E+00  0.00000000E+00  0.00000000E+00
  0.00000000E+00  0.00000000E+00  0.00000000E+00
  0.00000000E+00  0.00000000E+00  0.00000000E+00
  0.00000000E+00  0.00000000E+00  0.00000000E+00
  0.00000000E+00  0.00000000E+00  0.00000000E+00
  0.00000000E+00  0.00000000E+00  0.00000000E+00
  0.00000000E+00  0.00000000E+00  0.00000000E+00
  0.00000000E+00  0.00000000E+00  0.00000000E+00
  0.00000000E+00  0.00000000E+00  0.00000000E+00
  0.00000000E+00  0.00000000E+00  0.00000000E+00
  0.00000000E+00  0.00000000E+00  0.00000000E+00
  0.00000000E+00  0.00000000E+00  0.00000000E+00
  0.00000000E+00  0.00000000E+00  0.00000000E+00
