Mo1 H1 C122 N4                          
   1.00000000000000     
    19.8255423930550094    0.0004504556554214   -0.0068057620781327
    -9.9123842735152898   17.0370250063730211    0.0004362115524015
    -0.0102154469789980   -0.0051770889834785   29.7904834668717591
   Mo   H    C    N 
     1     1   122     4
Direct
  0.4379584093138467  0.5003372670437659  0.4269784173740291
  0.4501204885115085  0.5134289118752958  0.4839828866132325
  0.0419962032557885  0.0841056566392881  0.3995444344117338
  0.0409006089391526  0.2081171850357439  0.3992752726591960
  0.0400070092806445  0.3328367225272489  0.3989245828619948
  0.0401436158720901  0.4581773291154573  0.3989485206653858
  0.0412059997864106  0.5838182187327824  0.3996062322595301
  0.0421915149138984  0.7093535815127848  0.4000104582655419
  0.0425133258366461  0.8345846115754846  0.4000384398452004
  0.0425849159918631  0.9597144033092718  0.3998061243777745
  0.1681646684284333  0.0858507901848885  0.3999729850327554
  0.1673221773947367  0.2101545629592851  0.3998228469724087
  0.1647027860704298  0.3335506107829319  0.3996337970334872
  0.1635508345799376  0.4584741201362821  0.3982928769272154
  0.1647525329943695  0.5837685531243257  0.3984798083695704
  0.1662899541662754  0.7091185505475799  0.3994770038860845
  0.1670949006862214  0.8345884977337618  0.4000197948727281
  0.1675983415462373  0.9601508772353854  0.4000301904795658
  0.2926831346751097  0.0858417730727063  0.3999698042638066
  0.2940950337978573  0.2132035120357780  0.4013136397104594
  0.2916853841926930  0.3379196419353060  0.4038900096766420
  0.2862770606348349  0.4580716325782849  0.4028126690469653
  0.2878429765979644  0.5831238998462823  0.3995295508852199
  0.2904420761900819  0.7084856718455184  0.3990713489285579
  0.2915953817996360  0.8340266695922465  0.3995134916657918
  0.2921789466049723  0.9597235232294765  0.3997863408616447
  0.4171416338799562  0.0841292900058877  0.3995465103519418
  0.4178198881952230  0.2101729189497528  0.3998583827047431
  0.4212111438408351  0.3379202720767751  0.4038381524169647
  0.4145632875210029  0.7062709061537227  0.4004534502544624
  0.4160089863282016  0.8323311861975740  0.3993888371373668
  0.4166465912457724  0.9582494178643775  0.3995885044636085
  0.5415730092353043  0.0824880462271282  0.3996467065825753
  0.5422370303487516  0.2081315901664422  0.3993186601507189
  0.5438508686770688  0.3335521093517575  0.3996648547763978
  0.5468454148207257  0.4580960560964073  0.4026965443625715
  0.5383962845153567  0.7017889515049682  0.4036159328868439
  0.5403784112022531  0.8301113374292646  0.4003634541568015
  0.5410727608667990  0.9565537111104190  0.3997359803467670
  0.6660621456576191  0.0817692550187566  0.3999996721934591
  0.6666566205882111  0.2072965873810570  0.3997362044319716
  0.6678416999244652  0.3328552039554368  0.3989983498803411
  0.6699424976161368  0.4584864403477191  0.3983575852195015
  0.6703275526227798  0.5831541715089837  0.3995283620520521
  0.6667198502210238  0.7062763609452698  0.4004709535329236
  0.6647338908066194  0.8301302638059201  0.4003877627656516
  0.6655628812864819  0.9561129976732931  0.4000340861130990
  0.7907485167461856  0.0817614203754604  0.3999921608812698
  0.7910748239762542  0.2071240975416088  0.4001107595115012
  0.7918084437991343  0.3326069077793993  0.3997804901856753
  0.7930418212030157  0.4581921331843953  0.3990083958060343
  0.7940223396416500  0.5837655553453637  0.3985711187615272
  0.7930759468004971  0.7084906524375790  0.3991379231105745
  0.7913397094781178  0.8323263403191408  0.3994198775022913
  0.7904958119117274  0.9565510379007961  0.3997248123065672
  0.9159508494583003  0.0824695444349175  0.3996347213698565
  0.9156569317824906  0.2072838882645724  0.3997105805973250
  0.9158247435050888  0.3326136008923316  0.3997545490323091
  0.9166136711914331  0.4582185305512493  0.3998190066800816
  0.9176161840480778  0.5838269352560982  0.3996356035934953
  0.9178394514680418  0.7091132343807122  0.3995186077336311
  0.9174596966474112  0.8340103898517299  0.3995354308492804
  0.9166400751583800  0.9582283819780312  0.3995910576672539
  0.0845114224911966  0.0434302732424944  0.3997354659158779
  0.0836784050037302  0.1676557392656051  0.3993882824996769
  0.0819884315122653  0.2915231492111509  0.3990694903080027
  0.0810059576223821  0.4162475224352952  0.3984810694866631
  0.0819688957202443  0.5418354836201056  0.3989473269632753
  0.0832167829342928  0.6674093602740926  0.3997547794392919
  0.0839545924489689  0.7928905681021929  0.4001113621810671
  0.0842937876881917  0.9182329455666625  0.4000010478624465
  0.2094411149070731  0.0438761297355681  0.4000329831072743
  0.2102637926595345  0.1698633793584804  0.4003559109523113
  0.2082911502053421  0.2937050198330658  0.4004855840142500
  0.2047683132253078  0.4169203310116081  0.3995089752391622
  0.2050931814323817  0.5415513899556378  0.3982972352086733
  0.2071690800830000  0.6671822630702546  0.3989268987323559
  0.2083625687664899  0.7927246014045425  0.3997109965985120
  0.2089769602299636  0.9182405750213088  0.3999921582796356
  0.3339326062192712  0.0434375793281594  0.3997262073926567
  0.3345734976322307  0.1698552479436136  0.4003777731992452
  0.3365961051014995  0.2982118985134004  0.4035977912828506
  0.3282222602464989  0.5419620669171011  0.4028303073078857
  0.3311343754782436  0.6664592510074875  0.3996286851422403
  0.3327657162891884  0.7918891866855542  0.3992757828395352
  0.3334715050921403  0.9175342637191234  0.3996331175646662
  0.4583944612459434  0.0417692288124028  0.3995912432405667
  0.4589920602632154  0.1676806264134149  0.3994196224311167
  0.4604028472968174  0.2937303021232567  0.4004895307936079
  0.4537423750975040  0.6620680656234790  0.4038687623700375
  0.4571525041314491  0.7898274786884234  0.3998159624142769
  0.4578748031688019  0.9158806788346331  0.3995445903825972
  0.5828553067508544  0.0402755866700954  0.3998050602715787
  0.5834251746976854  0.1659884777071600  0.3995364904930788
  0.5845422267431503  0.2915345711488340  0.3991385009339178
  0.5871444605064403  0.4169108163332398  0.3995075688445501
  0.5887748130603297  0.5419683330513301  0.4026852569322419
  0.5833386609249845  0.6620796111817806  0.4037983802527936
  0.5808653122322444  0.7867392293500549  0.4013370735126414
  0.5822910048793976  0.9141188246192907  0.3999761606000055
  0.7074302960481803  0.0398275781110245  0.4000304297393573
  0.7079150189521938  0.1654093769242795  0.4000371228657930
  0.7086972387325056  0.2908934689107429  0.3995189279062054
  0.7102302106791865  0.4162603135844292  0.3985669598442114
  0.7114539863075136  0.5415453629585865  0.3983705554486160
  0.7103302994217277  0.6664656709482222  0.3996589444853083
  0.7076606206293696  0.7898280588394713  0.3998616544901913
  0.7068320426185497  0.9141314100098701  0.3999713026221876
  0.8324548017264098  0.0402715712519217  0.3997872494404653
  0.8325053148366576  0.1654067042333161  0.4000182182098372
  0.8328316877614680  0.2906465739151877  0.4000105911089218
  0.8337786611630463  0.4161819450096598  0.3996372093237189
  0.8348482840255625  0.5418250822838059  0.3990070223527947
  0.8350001169618938  0.6671651306975055  0.3990004321765459
  0.8341318860156144  0.7918836816400135  0.3993168238756214
  0.8330176511275226  0.9158676279110577  0.3995459238950011
  0.9584014995519882  0.0417463371354985  0.3995889741222641
  0.9575770141144430  0.1659690508476960  0.3995141020095904
  0.9571882801426616  0.2908861004206761  0.3994761424965931
  0.9573874949832868  0.4161870652782689  0.3996061624994852
  0.9583992509603454  0.5418000630253559  0.3998191717045460
  0.9592121883729315  0.6674132419226381  0.3997792897238495
  0.9593746884746192  0.7927153891578653  0.3997363774572728
  0.9590978319428857  0.9175215092742732  0.3996470201314554
  0.4086232159885729  0.5816644641062546  0.4084268881255416
  0.5480611671938330  0.5816336466589033  0.4081371583830175
  0.3269712745752226  0.4183312841654253  0.4084230529915641
  0.4663957144255143  0.4184027365266678  0.4082922872635340
 
  0.00000000E+00  0.00000000E+00  0.00000000E+00
  0.00000000E+00  0.00000000E+00  0.00000000E+00
  0.00000000E+00  0.00000000E+00  0.00000000E+00
  0.00000000E+00  0.00000000E+00  0.00000000E+00
  0.00000000E+00  0.00000000E+00  0.00000000E+00
  0.00000000E+00  0.00000000E+00  0.00000000E+00
  0.00000000E+00  0.00000000E+00  0.00000000E+00
  0.00000000E+00  0.00000000E+00  0.00000000E+00
  0.00000000E+00  0.00000000E+00  0.00000000E+00
  0.00000000E+00  0.00000000E+00  0.00000000E+00
  0.00000000E+00  0.00000000E+00  0.00000000E+00
  0.00000000E+00  0.00000000E+00  0.00000000E+00
  0.00000000E+00  0.00000000E+00  0.00000000E+00
  0.00000000E+00  0.00000000E+00  0.00000000E+00
  0.00000000E+00  0.00000000E+00  0.00000000E+00
  0.00000000E+00  0.00000000E+00  0.00000000E+00
  0.00000000E+00  0.00000000E+00  0.00000000E+00
  0.00000000E+00  0.00000000E+00  0.00000000E+00
  0.00000000E+00  0.00000000E+00  0.00000000E+00
  0.00000000E+00  0.00000000E+00  0.00000000E+00
  0.00000000E+00  0.00000000E+00  0.00000000E+00
  0.00000000E+00  0.00000000E+00  0.00000000E+00
  0.00000000E+00  0.00000000E+00  0.00000000E+00
  0.00000000E+00  0.00000000E+00  0.00000000E+00
  0.00000000E+00  0.00000000E+00  0.00000000E+00
  0.00000000E+00  0.00000000E+00  0.00000000E+00
  0.00000000E+00  0.00000000E+00  0.00000000E+00
  0.00000000E+00  0.00000000E+00  0.00000000E+00
  0.00000000E+00  0.00000000E+00  0.00000000E+00
  0.00000000E+00  0.00000000E+00  0.00000000E+00
  0.00000000E+00  0.00000000E+00  0.00000000E+00
  0.00000000E+00  0.00000000E+00  0.00000000E+00
  0.00000000E+00  0.00000000E+00  0.00000000E+00
  0.00000000E+00  0.00000000E+00  0.00000000E+00
  0.00000000E+00  0.00000000E+00  0.00000000E+00
  0.00000000E+00  0.00000000E+00  0.00000000E+00
  0.00000000E+00  0.00000000E+00  0.00000000E+00
  0.00000000E+00  0.00000000E+00  0.00000000E+00
  0.00000000E+00  0.00000000E+00  0.00000000E+00
  0.00000000E+00  0.00000000E+00  0.00000000E+00
  0.00000000E+00  0.00000000E+00  0.00000000E+00
  0.00000000E+00  0.00000000E+00  0.00000000E+00
  0.00000000E+00  0.00000000E+00  0.00000000E+00
  0.00000000E+00  0.00000000E+00  0.00000000E+00
  0.00000000E+00  0.00000000E+00  0.00000000E+00
  0.00000000E+00  0.00000000E+00  0.00000000E+00
  0.00000000E+00  0.00000000E+00  0.00000000E+00
  0.00000000E+00  0.00000000E+00  0.00000000E+00
  0.00000000E+00  0.00000000E+00  0.00000000E+00
  0.00000000E+00  0.00000000E+00  0.00000000E+00
  0.00000000E+00  0.00000000E+00  0.00000000E+00
  0.00000000E+00  0.00000000E+00  0.00000000E+00
  0.00000000E+00  0.00000000E+00  0.00000000E+00
  0.00000000E+00  0.00000000E+00  0.00000000E+00
  0.00000000E+00  0.00000000E+00  0.00000000E+00
  0.00000000E+00  0.00000000E+00  0.00000000E+00
  0.00000000E+00  0.00000000E+00  0.00000000E+00
  0.00000000E+00  0.00000000E+00  0.00000000E+00
  0.00000000E+00  0.00000000E+00  0.00000000E+00
  0.00000000E+00  0.00000000E+00  0.00000000E+00
  0.00000000E+00  0.00000000E+00  0.00000000E+00
  0.00000000E+00  0.00000000E+00  0.00000000E+00
  0.00000000E+00  0.00000000E+00  0.00000000E+00
  0.00000000E+00  0.00000000E+00  0.00000000E+00
  0.00000000E+00  0.00000000E+00  0.00000000E+00
  0.00000000E+00  0.00000000E+00  0.00000000E+00
  0.00000000E+00  0.00000000E+00  0.00000000E+00
  0.00000000E+00  0.00000000E+00  0.00000000E+00
  0.00000000E+00  0.00000000E+00  0.00000000E+00
  0.00000000E+00  0.00000000E+00  0.00000000E+00
  0.00000000E+00  0.00000000E+00  0.00000000E+00
  0.00000000E+00  0.00000000E+00  0.00000000E+00
  0.00000000E+00  0.00000000E+00  0.00000000E+00
  0.00000000E+00  0.00000000E+00  0.00000000E+00
  0.00000000E+00  0.00000000E+00  0.00000000E+00
  0.00000000E+00  0.00000000E+00  0.00000000E+00
  0.00000000E+00  0.00000000E+00  0.00000000E+00
  0.00000000E+00  0.00000000E+00  0.00000000E+00
  0.00000000E+00  0.00000000E+00  0.00000000E+00
  0.00000000E+00  0.00000000E+00  0.00000000E+00
  0.00000000E+00  0.00000000E+00  0.00000000E+00
  0.00000000E+00  0.00000000E+00  0.00000000E+00
  0.00000000E+00  0.00000000E+00  0.00000000E+00
  0.00000000E+00  0.00000000E+00  0.00000000E+00
  0.00000000E+00  0.00000000E+00  0.00000000E+00
  0.00000000E+00  0.00000000E+00  0.00000000E+00
  0.00000000E+00  0.00000000E+00  0.00000000E+00
  0.00000000E+00  0.00000000E+00  0.00000000E+00
  0.00000000E+00  0.00000000E+00  0.00000000E+00
  0.00000000E+00  0.00000000E+00  0.00000000E+00
  0.00000000E+00  0.00000000E+00  0.00000000E+00
  0.00000000E+00  0.00000000E+00  0.00000000E+00
  0.00000000E+00  0.00000000E+00  0.00000000E+00
  0.00000000E+00  0.00000000E+00  0.00000000E+00
  0.00000000E+00  0.00000000E+00  0.00000000E+00
  0.00000000E+00  0.00000000E+00  0.00000000E+00
  0.00000000E+00  0.00000000E+00  0.00000000E+00
  0.00000000E+00  0.00000000E+00  0.00000000E+00
  0.00000000E+00  0.00000000E+00  0.00000000E+00
  0.00000000E+00  0.00000000E+00  0.00000000E+00
  0.00000000E+00  0.00000000E+00  0.00000000E+00
  0.00000000E+00  0.00000000E+00  0.00000000E+00
  0.00000000E+00  0.00000000E+00  0.00000000E+00
  0.00000000E+00  0.00000000E+00  0.00000000E+00
  0.00000000E+00  0.00000000E+00  0.00000000E+00
  0.00000000E+00  0.00000000E+00  0.00000000E+00
  0.00000000E+00  0.00000000E+00  0.00000000E+00
  0.00000000E+00  0.00000000E+00  0.00000000E+00
  0.00000000E+00  0.00000000E+00  0.00000000E+00
  0.00000000E+00  0.00000000E+00  0.00000000E+00
  0.00000000E+00  0.00000000E+00  0.00000000E+00
  0.00000000E+00  0.00000000E+00  0.00000000E+00
  0.00000000E+00  0.00000000E+00  0.00000000E+00
  0.00000000E+00  0.00000000E+00  0.00000000E+00
  0.00000000E+00  0.00000000E+00  0.00000000E+00
  0.00000000E+00  0.00000000E+00  0.00000000E+00
  0.00000000E+00  0.00000000E+00  0.00000000E+00
  0.00000000E+00  0.00000000E+00  0.00000000E+00
  0.00000000E+00  0.00000000E+00  0.00000000E+00
  0.00000000E+00  0.00000000E+00  0.00000000E+00
  0.00000000E+00  0.00000000E+00  0.00000000E+00
  0.00000000E+00  0.00000000E+00  0.00000000E+00
  0.00000000E+00  0.00000000E+00  0.00000000E+00
  0.00000000E+00  0.00000000E+00  0.00000000E+00
  0.00000000E+00  0.00000000E+00  0.00000000E+00
  0.00000000E+00  0.00000000E+00  0.00000000E+00
  0.00000000E+00  0.00000000E+00  0.00000000E+00
  0.00000000E+00  0.00000000E+00  0.00000000E+00
