La1 C124 N2                             
   1.00000000000000     
    19.8200107054089507   -0.0237808849358235   -0.0014468037907206
    -9.9305878393604363   17.0782177096833365    0.0003974424271546
    -0.0021688696059923   -0.0005697969648139   29.7480671857708145
   La   C    N 
     1   124     2
Direct
  0.4375185171400043  0.4999905701970362  0.4497737628404512
  0.0420495580992067  0.0840879723138241  0.3998964308892006
  0.0415218463998681  0.2085514703379079  0.3995651662667405
  0.0408926246553141  0.3331407201312989  0.3994927590413726
  0.0407303519770697  0.4584116858785017  0.3997638002689592
  0.0412074703663538  0.5838212501173655  0.4001122073415346
  0.0417442889150461  0.7091584314882747  0.4001605904257725
  0.0420728957958298  0.8344035337756956  0.4000911562159348
  0.0422682965012517  0.9594895560690878  0.4000496320067081
  0.1679390479522475  0.0854902400724794  0.3999184393833896
  0.1674286385100588  0.2099815583983384  0.3994233435918046
  0.1662877996978866  0.3342635488793458  0.3988613789268010
  0.1646706724209514  0.4587906981038078  0.3987277092732548
  0.1651630050910584  0.5839521097222216  0.3992208126450415
  0.1660856308740057  0.7092125935167189  0.3998878548662843
  0.1667356737485283  0.8344991968794699  0.4000986851549689
  0.1672837092169938  0.9598716889947492  0.4000280472300573
  0.2925002302822010  0.0850238938046195  0.3998954707103506
  0.2941770295290914  0.2119513589941968  0.4006236928572068
  0.2930818698140547  0.3374023547705509  0.4012438859580791
  0.2893491132875510  0.4594479245511510  0.4002735128295784
  0.2888663171710373  0.5845929874586085  0.3989515584733660
  0.2904026474063803  0.7093289713987750  0.3993447786047098
  0.2913253280651736  0.8342639835454290  0.3998978518661007
  0.2918912256655398  0.9594520651005297  0.4000194329716797
  0.4170839406728141  0.0835920728246371  0.3998337873136426
  0.4177224866698034  0.2088236605337994  0.3995035299428765
  0.4210369532036682  0.3360279092248094  0.4021007152624964
  0.4146576813995059  0.7079607591827192  0.3996244998720484
  0.4159009632593068  0.8331827950337461  0.3995327325482536
  0.4165270454205308  0.9583863551564010  0.4000366201969729
  0.5417078409556544  0.0824418770065192  0.4000307474483014
  0.5423234604138638  0.2075177831251003  0.3995719323025511
  0.5434990554436286  0.3322840506953588  0.3992346264203872
  0.5442410529346215  0.4553576592226206  0.4007495271224149
  0.5436793373060185  0.5803299938609651  0.4032142057575808
  0.5385271493346467  0.7041756247592785  0.4021068482625598
  0.5403947609863137  0.8314301161656868  0.3999957092116136
  0.5411721667119352  0.9571176789578554  0.3999237547640260
  0.6663523614245631  0.0819939471060083  0.4000567988159556
  0.6669140631929471  0.2072630318032758  0.3999860532588814
  0.6677868642844744  0.3325172534656713  0.3994687609369333
  0.6690697281202740  0.4578580105570551  0.3986845744297599
  0.6686013708224676  0.5822600916793981  0.3987316575818256
  0.6659984220183967  0.7064538092965651  0.3990880419318708
  0.6649702764316933  0.8308208011238281  0.3999070365505259
  0.6658181791306330  0.9566359334155199  0.3999747151320153
  0.7911420749589534  0.0820777325710122  0.4000590369186998
  0.7914935400606146  0.2072858157028724  0.4001267311791592
  0.7920713238548563  0.3326333662062990  0.4000899863639713
  0.7927638345790310  0.4580370857172944  0.3997360569025332
  0.7930957214919740  0.5833187766073239  0.3992622458287730
  0.7921536152486346  0.7080816012660783  0.3992402681628510
  0.7911698972688581  0.8323995615983905  0.3995869534971539
  0.7907511198751960  0.9568592817172477  0.3999201743883315
  0.9162895303589679  0.0827684864962202  0.4000228250716700
  0.9162410826245817  0.2076134585179363  0.3999821531799528
  0.9163571474784125  0.3328061528500471  0.4001167504939538
  0.9167203018126003  0.4581950299777962  0.4002635720413320
  0.9172030897336537  0.5836388878923745  0.4001380836715889
  0.9172089990924429  0.7088734980937119  0.3999235753671118
  0.9169636510291918  0.8337070310121847  0.3999243535081959
  0.9166021651092106  0.9582723341609635  0.4000621363666998
  0.0842466306704778  0.0431366315418272  0.3999370025035167
  0.0838252787971657  0.1675828831789738  0.3995790576849215
  0.0828638017588034  0.2919237262316918  0.3992418543798599
  0.0819338869032606  0.4167017370167453  0.3992682518902878
  0.0822393014173114  0.5419811529360834  0.3997277728570839
  0.0829387433497687  0.6673622871315248  0.4000840624305294
  0.0835097833383317  0.7927040802237035  0.4001222215884778
  0.0838829058887360  0.9179212873371502  0.4000597492947138
  0.2091707438013650  0.0433550938314413  0.3999816805229869
  0.2100024520042161  0.1691843413603648  0.3999495001733903
  0.2089622341973269  0.2935153491628774  0.3991210610268404
  0.2064260757771990  0.4177399853100091  0.3987513384120717
  0.2059506007659937  0.5421523897003602  0.3987000271690067
  0.2072124816609609  0.6674986099505715  0.3994748699344431
  0.2080744671816389  0.7927443942173498  0.3999951107713558
  0.2086527828395885  0.9179947830076762  0.4000587849128698
  0.3337992223882729  0.0428781969915481  0.3998806162778807
  0.3345701332061944  0.1685636333264899  0.4000042266621950
  0.3364351037565099  0.2958118560787977  0.4021422527838745
  0.3313284724681470  0.4196464985973309  0.4032183257480486
  0.3307670031132949  0.5446375774756527  0.4007640280514368
  0.3314937089900445  0.6677269847685808  0.3992373082656053
  0.3326598251022271  0.7925028124556380  0.3995858478086182
  0.3332967421242504  0.9175645824644934  0.4000201579595989
  0.4584734570693027  0.0416206536597102  0.4000376970350936
  0.4590859225805711  0.1668196708100775  0.3995237368032578
  0.4603240100065999  0.2920335039584538  0.3996446304409398
  0.4539353132219519  0.6639584478878675  0.4020830505018135
  0.4572545145180634  0.7911730198640069  0.3994891166623917
  0.4578922976727691  0.9164020598763418  0.3998559748521252
  0.5831140590405243  0.0405510471087214  0.4000391978808376
  0.5836601252584558  0.1657459987319226  0.3998848264657136
  0.5845854583334199  0.2906892045544925  0.3993349475094322
  0.5861511870356256  0.4154164996275044  0.3989217701066758
  0.5856821198524875  0.5405487363266152  0.4002543584918415
  0.5818813894129619  0.6625729922188347  0.4012224587459195
  0.5807872679136408  0.7880394155497592  0.4005821656772187
  0.5824709856586835  0.9149812424981623  0.3999232662823220
  0.7077234887560720  0.0401194426456289  0.4000235916018156
  0.7082530141792381  0.1654905648128372  0.4000980384571017
  0.7089133099561604  0.2907917681574872  0.3998882535838840
  0.7098458249407231  0.4160690588030017  0.3992197366978138
  0.7103523360445687  0.5412126160388357  0.3987146889500465
  0.7087133695656654  0.6657294787574057  0.3988347676706707
  0.7075289708023269  0.7899971370266418  0.3993940911215757
  0.7070463548287377  0.9145111829102439  0.3998854623634996
  0.8327582325076687  0.0405127871742541  0.4000327960103099
  0.8329456886817043  0.1656033827758261  0.4000844946164852
  0.8332632076229950  0.2908267431858124  0.4001636828978412
  0.8337806820284001  0.4161744142534228  0.4001240164718667
  0.8342685027252010  0.5415964986100666  0.3997607362940667
  0.8341313545627514  0.6668819879764524  0.3994970743990986
  0.8334912861381963  0.7914461854686529  0.3995872308366348
  0.8329583832034586  0.9159004790981738  0.3999038250907361
  0.9584210813071345  0.0417242263976008  0.4000470354550043
  0.9580608328805001  0.1663026450295592  0.3998875417786787
  0.9578197713320685  0.2911504834351327  0.3999094514455181
  0.9577967696620633  0.4163583101474723  0.4001481335873416
  0.9582814052165830  0.5417983895173080  0.4002557048549414
  0.9586595549171242  0.6671940919779898  0.4001071931862483
  0.9587931316856751  0.7924084341287785  0.4000025211071847
  0.9587399550787851  0.9172388762641995  0.4000605621228973
  0.4101016262472730  0.5841387478641226  0.4047722479197765
  0.4649043327551558  0.4158550214891534  0.4047660762689586
 
  0.00000000E+00  0.00000000E+00  0.00000000E+00
  0.00000000E+00  0.00000000E+00  0.00000000E+00
  0.00000000E+00  0.00000000E+00  0.00000000E+00
  0.00000000E+00  0.00000000E+00  0.00000000E+00
  0.00000000E+00  0.00000000E+00  0.00000000E+00
  0.00000000E+00  0.00000000E+00  0.00000000E+00
  0.00000000E+00  0.00000000E+00  0.00000000E+00
  0.00000000E+00  0.00000000E+00  0.00000000E+00
  0.00000000E+00  0.00000000E+00  0.00000000E+00
  0.00000000E+00  0.00000000E+00  0.00000000E+00
  0.00000000E+00  0.00000000E+00  0.00000000E+00
  0.00000000E+00  0.00000000E+00  0.00000000E+00
  0.00000000E+00  0.00000000E+00  0.00000000E+00
  0.00000000E+00  0.00000000E+00  0.00000000E+00
  0.00000000E+00  0.00000000E+00  0.00000000E+00
  0.00000000E+00  0.00000000E+00  0.00000000E+00
  0.00000000E+00  0.00000000E+00  0.00000000E+00
  0.00000000E+00  0.00000000E+00  0.00000000E+00
  0.00000000E+00  0.00000000E+00  0.00000000E+00
  0.00000000E+00  0.00000000E+00  0.00000000E+00
  0.00000000E+00  0.00000000E+00  0.00000000E+00
  0.00000000E+00  0.00000000E+00  0.00000000E+00
  0.00000000E+00  0.00000000E+00  0.00000000E+00
  0.00000000E+00  0.00000000E+00  0.00000000E+00
  0.00000000E+00  0.00000000E+00  0.00000000E+00
  0.00000000E+00  0.00000000E+00  0.00000000E+00
  0.00000000E+00  0.00000000E+00  0.00000000E+00
  0.00000000E+00  0.00000000E+00  0.00000000E+00
  0.00000000E+00  0.00000000E+00  0.00000000E+00
  0.00000000E+00  0.00000000E+00  0.00000000E+00
  0.00000000E+00  0.00000000E+00  0.00000000E+00
  0.00000000E+00  0.00000000E+00  0.00000000E+00
  0.00000000E+00  0.00000000E+00  0.00000000E+00
  0.00000000E+00  0.00000000E+00  0.00000000E+00
  0.00000000E+00  0.00000000E+00  0.00000000E+00
  0.00000000E+00  0.00000000E+00  0.00000000E+00
  0.00000000E+00  0.00000000E+00  0.00000000E+00
  0.00000000E+00  0.00000000E+00  0.00000000E+00
  0.00000000E+00  0.00000000E+00  0.00000000E+00
  0.00000000E+00  0.00000000E+00  0.00000000E+00
  0.00000000E+00  0.00000000E+00  0.00000000E+00
  0.00000000E+00  0.00000000E+00  0.00000000E+00
  0.00000000E+00  0.00000000E+00  0.00000000E+00
  0.00000000E+00  0.00000000E+00  0.00000000E+00
  0.00000000E+00  0.00000000E+00  0.00000000E+00
  0.00000000E+00  0.00000000E+00  0.00000000E+00
  0.00000000E+00  0.00000000E+00  0.00000000E+00
  0.00000000E+00  0.00000000E+00  0.00000000E+00
  0.00000000E+00  0.00000000E+00  0.00000000E+00
  0.00000000E+00  0.00000000E+00  0.00000000E+00
  0.00000000E+00  0.00000000E+00  0.00000000E+00
  0.00000000E+00  0.00000000E+00  0.00000000E+00
  0.00000000E+00  0.00000000E+00  0.00000000E+00
  0.00000000E+00  0.00000000E+00  0.00000000E+00
  0.00000000E+00  0.00000000E+00  0.00000000E+00
  0.00000000E+00  0.00000000E+00  0.00000000E+00
  0.00000000E+00  0.00000000E+00  0.00000000E+00
  0.00000000E+00  0.00000000E+00  0.00000000E+00
  0.00000000E+00  0.00000000E+00  0.00000000E+00
  0.00000000E+00  0.00000000E+00  0.00000000E+00
  0.00000000E+00  0.00000000E+00  0.00000000E+00
  0.00000000E+00  0.00000000E+00  0.00000000E+00
  0.00000000E+00  0.00000000E+00  0.00000000E+00
  0.00000000E+00  0.00000000E+00  0.00000000E+00
  0.00000000E+00  0.00000000E+00  0.00000000E+00
  0.00000000E+00  0.00000000E+00  0.00000000E+00
  0.00000000E+00  0.00000000E+00  0.00000000E+00
  0.00000000E+00  0.00000000E+00  0.00000000E+00
  0.00000000E+00  0.00000000E+00  0.00000000E+00
  0.00000000E+00  0.00000000E+00  0.00000000E+00
  0.00000000E+00  0.00000000E+00  0.00000000E+00
  0.00000000E+00  0.00000000E+00  0.00000000E+00
  0.00000000E+00  0.00000000E+00  0.00000000E+00
  0.00000000E+00  0.00000000E+00  0.00000000E+00
  0.00000000E+00  0.00000000E+00  0.00000000E+00
  0.00000000E+00  0.00000000E+00  0.00000000E+00
  0.00000000E+00  0.00000000E+00  0.00000000E+00
  0.00000000E+00  0.00000000E+00  0.00000000E+00
  0.00000000E+00  0.00000000E+00  0.00000000E+00
  0.00000000E+00  0.00000000E+00  0.00000000E+00
  0.00000000E+00  0.00000000E+00  0.00000000E+00
  0.00000000E+00  0.00000000E+00  0.00000000E+00
  0.00000000E+00  0.00000000E+00  0.00000000E+00
  0.00000000E+00  0.00000000E+00  0.00000000E+00
  0.00000000E+00  0.00000000E+00  0.00000000E+00
  0.00000000E+00  0.00000000E+00  0.00000000E+00
  0.00000000E+00  0.00000000E+00  0.00000000E+00
  0.00000000E+00  0.00000000E+00  0.00000000E+00
  0.00000000E+00  0.00000000E+00  0.00000000E+00
  0.00000000E+00  0.00000000E+00  0.00000000E+00
  0.00000000E+00  0.00000000E+00  0.00000000E+00
  0.00000000E+00  0.00000000E+00  0.00000000E+00
  0.00000000E+00  0.00000000E+00  0.00000000E+00
  0.00000000E+00  0.00000000E+00  0.00000000E+00
  0.00000000E+00  0.00000000E+00  0.00000000E+00
  0.00000000E+00  0.00000000E+00  0.00000000E+00
  0.00000000E+00  0.00000000E+00  0.00000000E+00
  0.00000000E+00  0.00000000E+00  0.00000000E+00
  0.00000000E+00  0.00000000E+00  0.00000000E+00
  0.00000000E+00  0.00000000E+00  0.00000000E+00
  0.00000000E+00  0.00000000E+00  0.00000000E+00
  0.00000000E+00  0.00000000E+00  0.00000000E+00
  0.00000000E+00  0.00000000E+00  0.00000000E+00
  0.00000000E+00  0.00000000E+00  0.00000000E+00
  0.00000000E+00  0.00000000E+00  0.00000000E+00
  0.00000000E+00  0.00000000E+00  0.00000000E+00
  0.00000000E+00  0.00000000E+00  0.00000000E+00
  0.00000000E+00  0.00000000E+00  0.00000000E+00
  0.00000000E+00  0.00000000E+00  0.00000000E+00
  0.00000000E+00  0.00000000E+00  0.00000000E+00
  0.00000000E+00  0.00000000E+00  0.00000000E+00
  0.00000000E+00  0.00000000E+00  0.00000000E+00
  0.00000000E+00  0.00000000E+00  0.00000000E+00
  0.00000000E+00  0.00000000E+00  0.00000000E+00
  0.00000000E+00  0.00000000E+00  0.00000000E+00
  0.00000000E+00  0.00000000E+00  0.00000000E+00
  0.00000000E+00  0.00000000E+00  0.00000000E+00
  0.00000000E+00  0.00000000E+00  0.00000000E+00
  0.00000000E+00  0.00000000E+00  0.00000000E+00
  0.00000000E+00  0.00000000E+00  0.00000000E+00
  0.00000000E+00  0.00000000E+00  0.00000000E+00
  0.00000000E+00  0.00000000E+00  0.00000000E+00
  0.00000000E+00  0.00000000E+00  0.00000000E+00
  0.00000000E+00  0.00000000E+00  0.00000000E+00
  0.00000000E+00  0.00000000E+00  0.00000000E+00
  0.00000000E+00  0.00000000E+00  0.00000000E+00
  0.00000000E+00  0.00000000E+00  0.00000000E+00
