Ag1 H1 C124 N2 O1                       
   1.00000000000000     
    19.8426525763042925   -0.0131771888976140   -0.0470048964316781
    -9.9329181293812461   17.0581169934070793   -0.1358721767015153
    -0.0702221660978534   -0.2775504355876796   29.7426443806115870
   Ag   H    C    N    O 
     1     1   124     2     1
Direct
  0.4383462259975693  0.5008471160515323  0.4187144619172578
  0.5011549135397295  0.5633912405315274  0.4991197539304251
  0.0421132936510395  0.0842618605255196  0.3997459393292902
  0.0410397199259045  0.2082854031678106  0.3995257913191751
  0.0402459065693404  0.3328711691375091  0.3986770173896918
  0.0402197619651885  0.4583574840302070  0.3981196048900839
  0.0412031396987705  0.5839492052136400  0.3982534623828240
  0.0420895366309141  0.7094610431730414  0.3987360228947447
  0.0425225047960729  0.8347683280269192  0.3991602752298875
  0.0426724413888178  0.9598827152796144  0.3994757373547655
  0.1682710194248622  0.0860529138510004  0.4007018804980738
  0.1673685245725053  0.2102787843488260  0.4014686555891305
  0.1653025589539397  0.3340070006078980  0.4012284545766310
  0.1635462895970906  0.4586104690546206  0.3992754156140959
  0.1647676376065954  0.5840044992489751  0.3987128925680598
  0.1661801096205930  0.7094617075299601  0.3987962010343731
  0.1670260082687184  0.8348478477336049  0.3991874651074359
  0.1676447716432340  0.9603364016761796  0.3997410446404362
  0.2929049328237982  0.0857755862392524  0.4006124864884681
  0.2946605886220046  0.2131364590908832  0.4031305136619113
  0.2922272564571654  0.3374612394452134  0.4071006633636242
  0.2866271443323383  0.4594334087239379  0.4055687149475090
  0.2879080492523915  0.5846630019215371  0.4014483815957488
  0.2902921296937861  0.7093568847671694  0.3997565617439385
  0.2914955232378886  0.8344384860785370  0.3993055925483569
  0.2921478799575274  0.9598362956061121  0.3995481246055306
  0.4172803618767907  0.0840460368163913  0.3998928000769299
  0.4180995581157834  0.2098377485398238  0.4015880595031738
  0.4217643286226924  0.3377679488042645  0.4048553164575608
  0.4144125569981057  0.7071762147633298  0.4025828955959946
  0.4159340117281379  0.8328938656011474  0.4003752461425830
  0.4166281428780607  0.9584431188339996  0.3995055905570356
  0.5417190504168885  0.0824414379189069  0.3995055567500120
  0.5424640765442703  0.2077362578327503  0.3998639384177211
  0.5439730004148028  0.3328416994101083  0.4011003855375150
  0.5465786030805728  0.4566070029054915  0.4037055666965517
  0.5487955504705221  0.5819414241931630  0.4098740419877704
  0.5385075533038500  0.7033488086448156  0.4055102359606005
  0.5402344464218639  0.8308289226022925  0.4018500139825985
  0.5411692631543555  0.9569105656745225  0.4000698112653773
  0.6662126579540604  0.0818253580747967  0.3996134678694959
  0.6668892702462446  0.2072475333544777  0.3991713324902260
  0.6679805236833070  0.3326144617376616  0.3991342166923607
  0.6699781791379799  0.4581608855620373  0.3997422213470974
  0.6707619058495166  0.5831590987298214  0.4012307208443124
  0.6669357687860102  0.7067525352988534  0.4026311442238792
  0.6649717705317135  0.8304328928272795  0.4018774750414141
  0.6657021086858701  0.9563384994263378  0.4004786647915528
  0.7908973929361455  0.0818315053947133  0.3994952659863734
  0.7912366058161340  0.2071089450860075  0.3990464049108199
  0.7920307174464916  0.3326078401653947  0.3985886977970822
  0.7931936343339560  0.4581907195370550  0.3984057605729985
  0.7940496450583485  0.5836964785178752  0.3987131156496346
  0.7930898651700630  0.7086071985418978  0.3996912800861197
  0.7915578647769234  0.8325940947259123  0.4000692350804911
  0.7906840002457631  0.9567324668995684  0.3999117049973807
  0.9161094216457707  0.0826267634071953  0.3992747136434142
  0.9158323680605442  0.2073831648696929  0.3989263642572464
  0.9160128571170354  0.3326549997027034  0.3984231655063903
  0.9166761490763785  0.4582346074245421  0.3981985569646870
  0.9176640512955452  0.5838943623040316  0.3983395931697909
  0.9178719129996898  0.7093040224108405  0.3987824323485090
  0.9175334492765793  0.8341147610149736  0.3991798895306217
  0.9167860172216266  0.9583925719920601  0.3993850559289909
  0.0845577493408809  0.0435567455124963  0.3999336701199169
  0.0836808224747583  0.1677245744012388  0.4000870448360902
  0.0821420817177392  0.2916772879991233  0.3995703054636336
  0.0811167629761562  0.4164951450312764  0.3984016839122811
  0.0819455196681614  0.5419778614304427  0.3982023652443556
  0.0831212267557198  0.6675980034947515  0.3985532061385316
  0.0839190721141290  0.7931169913842888  0.3990586711584329
  0.0843016735882799  0.9183811287069602  0.3994457004517578
  0.2095481380780864  0.0440009368850761  0.4003897262182470
  0.2103173702564289  0.1700047627336356  0.4019356987526099
  0.2084189853397540  0.2937517548767717  0.4029551802280477
  0.2045734963983528  0.4172306143321696  0.4013058010332400
  0.2051998750583380  0.5421161882819876  0.3996108186930269
  0.2071993130159938  0.6676490811833724  0.3989883456578284
  0.2082834578352523  0.7929968194505087  0.3990715622333801
  0.2089866521467094  0.9184316809787457  0.3994995004569104
  0.3340406847075697  0.0433880238437975  0.3999652169532525
  0.3350402602247992  0.1696111315106547  0.4017424132680494
  0.3368503681619162  0.2973292649891091  0.4056861959631777
  0.3270404671208270  0.4191193597205968  0.4115081304561197
  0.3286904929886934  0.5439062220772517  0.4043648943332803
  0.3312205511949554  0.6675125489748471  0.4011095993418284
  0.3327196515791139  0.7925494899486630  0.3997554271846028
  0.3334899001580453  0.9178050039869207  0.3993928910642360
  0.4585824827479444  0.0418177066202857  0.3995413217518458
  0.4592649620442247  0.1674272186180840  0.4003968378597505
  0.4608484759385540  0.2932818016146365  0.4025133281846968
  0.4535813308211640  0.6628507254719331  0.4050044897313408
  0.4571516011945851  0.7905729328232940  0.4016159392156017
  0.4579243428345843  0.9162374074047955  0.3999158017713558
  0.5830716186725580  0.0404314904694847  0.3996734632898075
  0.5836827559174910  0.1658033365302327  0.3994238424429313
  0.5848943190196455  0.2909376708310449  0.3998572186722202
  0.5873048726175104  0.4157100500424898  0.4013161727270051
  0.5888284774674768  0.5411284246383411  0.4047458448621989
  0.5832702782464279  0.6633518035945435  0.4065095373131604
  0.5806581889451875  0.7873841506912947  0.4031430797009606
  0.5823577308408364  0.9146001711181627  0.4007429715572724
  0.7075504813243456  0.0399196316336587  0.3998367950136788
  0.7081304677700598  0.1653829247361392  0.3992558443328920
  0.7089974035316386  0.2907809769632262  0.3988983080628187
  0.7103932173118934  0.4162321340752336  0.3989074728257985
  0.7116811401036103  0.5416454875307637  0.3994969805469205
  0.7099668280478908  0.6663724972550635  0.4011405930211370
  0.7079238061842611  0.7901306567506629  0.4013338216200107
  0.7070082143926329  0.9143138226840881  0.4007117638630329
  0.8325769390319424  0.0403757586033648  0.3994734674811087
  0.8326628354950765  0.1654406257920789  0.3991395456716856
  0.8330770104372786  0.2907594429910768  0.3986743981203245
  0.8339269820975241  0.4162223221241096  0.3983331026829703
  0.8349192620734230  0.5418066058407702  0.3983813604711772
  0.8349366475261304  0.6673440193271416  0.3989351311862430
  0.8341849377076028  0.7919874398125807  0.3995744767590969
  0.8331361795798752  0.9160414908566493  0.3997249299082258
  0.9584647274696118  0.0418741884723101  0.3993928044573361
  0.9576926687988100  0.1661196283001770  0.3991366529849391
  0.9573131789852928  0.2909074715308681  0.3985688985520729
  0.9574841678735523  0.4163070471871183  0.3981837607505421
  0.9584585931052915  0.5419565782314791  0.3982142829475576
  0.9591554593820741  0.6675489322071883  0.3985864254855310
  0.9593646209042195  0.7928306215783834  0.3990307844353625
  0.9591366664165996  0.9176347892804401  0.3992699540181294
  0.4079761004025430  0.5828561789268024  0.4056079447690812
  0.4673352605331270  0.4177769885727552  0.4050028402650444
  0.4541796836986579  0.5133908559247917  0.4923907076405012
 
  0.00000000E+00  0.00000000E+00  0.00000000E+00
  0.00000000E+00  0.00000000E+00  0.00000000E+00
  0.00000000E+00  0.00000000E+00  0.00000000E+00
  0.00000000E+00  0.00000000E+00  0.00000000E+00
  0.00000000E+00  0.00000000E+00  0.00000000E+00
  0.00000000E+00  0.00000000E+00  0.00000000E+00
  0.00000000E+00  0.00000000E+00  0.00000000E+00
  0.00000000E+00  0.00000000E+00  0.00000000E+00
  0.00000000E+00  0.00000000E+00  0.00000000E+00
  0.00000000E+00  0.00000000E+00  0.00000000E+00
  0.00000000E+00  0.00000000E+00  0.00000000E+00
  0.00000000E+00  0.00000000E+00  0.00000000E+00
  0.00000000E+00  0.00000000E+00  0.00000000E+00
  0.00000000E+00  0.00000000E+00  0.00000000E+00
  0.00000000E+00  0.00000000E+00  0.00000000E+00
  0.00000000E+00  0.00000000E+00  0.00000000E+00
  0.00000000E+00  0.00000000E+00  0.00000000E+00
  0.00000000E+00  0.00000000E+00  0.00000000E+00
  0.00000000E+00  0.00000000E+00  0.00000000E+00
  0.00000000E+00  0.00000000E+00  0.00000000E+00
  0.00000000E+00  0.00000000E+00  0.00000000E+00
  0.00000000E+00  0.00000000E+00  0.00000000E+00
  0.00000000E+00  0.00000000E+00  0.00000000E+00
  0.00000000E+00  0.00000000E+00  0.00000000E+00
  0.00000000E+00  0.00000000E+00  0.00000000E+00
  0.00000000E+00  0.00000000E+00  0.00000000E+00
  0.00000000E+00  0.00000000E+00  0.00000000E+00
  0.00000000E+00  0.00000000E+00  0.00000000E+00
  0.00000000E+00  0.00000000E+00  0.00000000E+00
  0.00000000E+00  0.00000000E+00  0.00000000E+00
  0.00000000E+00  0.00000000E+00  0.00000000E+00
  0.00000000E+00  0.00000000E+00  0.00000000E+00
  0.00000000E+00  0.00000000E+00  0.00000000E+00
  0.00000000E+00  0.00000000E+00  0.00000000E+00
  0.00000000E+00  0.00000000E+00  0.00000000E+00
  0.00000000E+00  0.00000000E+00  0.00000000E+00
  0.00000000E+00  0.00000000E+00  0.00000000E+00
  0.00000000E+00  0.00000000E+00  0.00000000E+00
  0.00000000E+00  0.00000000E+00  0.00000000E+00
  0.00000000E+00  0.00000000E+00  0.00000000E+00
  0.00000000E+00  0.00000000E+00  0.00000000E+00
  0.00000000E+00  0.00000000E+00  0.00000000E+00
  0.00000000E+00  0.00000000E+00  0.00000000E+00
  0.00000000E+00  0.00000000E+00  0.00000000E+00
  0.00000000E+00  0.00000000E+00  0.00000000E+00
  0.00000000E+00  0.00000000E+00  0.00000000E+00
  0.00000000E+00  0.00000000E+00  0.00000000E+00
  0.00000000E+00  0.00000000E+00  0.00000000E+00
  0.00000000E+00  0.00000000E+00  0.00000000E+00
  0.00000000E+00  0.00000000E+00  0.00000000E+00
  0.00000000E+00  0.00000000E+00  0.00000000E+00
  0.00000000E+00  0.00000000E+00  0.00000000E+00
  0.00000000E+00  0.00000000E+00  0.00000000E+00
  0.00000000E+00  0.00000000E+00  0.00000000E+00
  0.00000000E+00  0.00000000E+00  0.00000000E+00
  0.00000000E+00  0.00000000E+00  0.00000000E+00
  0.00000000E+00  0.00000000E+00  0.00000000E+00
  0.00000000E+00  0.00000000E+00  0.00000000E+00
  0.00000000E+00  0.00000000E+00  0.00000000E+00
  0.00000000E+00  0.00000000E+00  0.00000000E+00
  0.00000000E+00  0.00000000E+00  0.00000000E+00
  0.00000000E+00  0.00000000E+00  0.00000000E+00
  0.00000000E+00  0.00000000E+00  0.00000000E+00
  0.00000000E+00  0.00000000E+00  0.00000000E+00
  0.00000000E+00  0.00000000E+00  0.00000000E+00
  0.00000000E+00  0.00000000E+00  0.00000000E+00
  0.00000000E+00  0.00000000E+00  0.00000000E+00
  0.00000000E+00  0.00000000E+00  0.00000000E+00
  0.00000000E+00  0.00000000E+00  0.00000000E+00
  0.00000000E+00  0.00000000E+00  0.00000000E+00
  0.00000000E+00  0.00000000E+00  0.00000000E+00
  0.00000000E+00  0.00000000E+00  0.00000000E+00
  0.00000000E+00  0.00000000E+00  0.00000000E+00
  0.00000000E+00  0.00000000E+00  0.00000000E+00
  0.00000000E+00  0.00000000E+00  0.00000000E+00
  0.00000000E+00  0.00000000E+00  0.00000000E+00
  0.00000000E+00  0.00000000E+00  0.00000000E+00
  0.00000000E+00  0.00000000E+00  0.00000000E+00
  0.00000000E+00  0.00000000E+00  0.00000000E+00
  0.00000000E+00  0.00000000E+00  0.00000000E+00
  0.00000000E+00  0.00000000E+00  0.00000000E+00
  0.00000000E+00  0.00000000E+00  0.00000000E+00
  0.00000000E+00  0.00000000E+00  0.00000000E+00
  0.00000000E+00  0.00000000E+00  0.00000000E+00
  0.00000000E+00  0.00000000E+00  0.00000000E+00
  0.00000000E+00  0.00000000E+00  0.00000000E+00
  0.00000000E+00  0.00000000E+00  0.00000000E+00
  0.00000000E+00  0.00000000E+00  0.00000000E+00
  0.00000000E+00  0.00000000E+00  0.00000000E+00
  0.00000000E+00  0.00000000E+00  0.00000000E+00
  0.00000000E+00  0.00000000E+00  0.00000000E+00
  0.00000000E+00  0.00000000E+00  0.00000000E+00
  0.00000000E+00  0.00000000E+00  0.00000000E+00
  0.00000000E+00  0.00000000E+00  0.00000000E+00
  0.00000000E+00  0.00000000E+00  0.00000000E+00
  0.00000000E+00  0.00000000E+00  0.00000000E+00
  0.00000000E+00  0.00000000E+00  0.00000000E+00
  0.00000000E+00  0.00000000E+00  0.00000000E+00
  0.00000000E+00  0.00000000E+00  0.00000000E+00
  0.00000000E+00  0.00000000E+00  0.00000000E+00
  0.00000000E+00  0.00000000E+00  0.00000000E+00
  0.00000000E+00  0.00000000E+00  0.00000000E+00
  0.00000000E+00  0.00000000E+00  0.00000000E+00
  0.00000000E+00  0.00000000E+00  0.00000000E+00
  0.00000000E+00  0.00000000E+00  0.00000000E+00
  0.00000000E+00  0.00000000E+00  0.00000000E+00
  0.00000000E+00  0.00000000E+00  0.00000000E+00
  0.00000000E+00  0.00000000E+00  0.00000000E+00
  0.00000000E+00  0.00000000E+00  0.00000000E+00
  0.00000000E+00  0.00000000E+00  0.00000000E+00
  0.00000000E+00  0.00000000E+00  0.00000000E+00
  0.00000000E+00  0.00000000E+00  0.00000000E+00
  0.00000000E+00  0.00000000E+00  0.00000000E+00
  0.00000000E+00  0.00000000E+00  0.00000000E+00
  0.00000000E+00  0.00000000E+00  0.00000000E+00
  0.00000000E+00  0.00000000E+00  0.00000000E+00
  0.00000000E+00  0.00000000E+00  0.00000000E+00
  0.00000000E+00  0.00000000E+00  0.00000000E+00
  0.00000000E+00  0.00000000E+00  0.00000000E+00
  0.00000000E+00  0.00000000E+00  0.00000000E+00
  0.00000000E+00  0.00000000E+00  0.00000000E+00
  0.00000000E+00  0.00000000E+00  0.00000000E+00
  0.00000000E+00  0.00000000E+00  0.00000000E+00
  0.00000000E+00  0.00000000E+00  0.00000000E+00
  0.00000000E+00  0.00000000E+00  0.00000000E+00
  0.00000000E+00  0.00000000E+00  0.00000000E+00
  0.00000000E+00  0.00000000E+00  0.00000000E+00
  0.00000000E+00  0.00000000E+00  0.00000000E+00
  0.00000000E+00  0.00000000E+00  0.00000000E+00
