Zn1 H1 C125 N1 O1                       
   1.00000000000000     
    19.8062939358972550   -0.0056054752820200   -0.1154259766026721
    -9.9080182534045047   17.0604217952778576    0.0761713599420981
    -0.1735536944393362    0.0317781917754299   29.7848711448060328
   Zn   H    C    N    O 
     1     1   125     1     1
Direct
  0.4384994919703507  0.5003209737543493  0.4232604439241605
  0.4787940939206297  0.5464384098179863  0.4996114648716004
  0.0418585347575880  0.0838583570595335  0.4000298858621936
  0.0412711272167044  0.2082640161820243  0.4001652861839505
  0.0409292087452018  0.3329566167366151  0.3995868392925566
  0.0409941133642847  0.4582860787208234  0.3989261011151710
  0.0415033303749205  0.5836828069377816  0.3988184696223782
  0.0420734664382744  0.7090398911453690  0.3992325109490131
  0.0423247764225774  0.8343176150536288  0.3995263618524749
  0.0422814403213556  0.9593167579185335  0.3996595427729334
  0.1675174735906629  0.0849525272635874  0.4007547729386906
  0.1671084458803245  0.2095459627175962  0.4018391806879967
  0.1661297814147120  0.3338789417919058  0.4016413939193476
  0.1651008307731838  0.4584657096155916  0.3999895138394524
  0.1654841545487937  0.5836676469782980  0.3992228011971158
  0.1663784404157853  0.7090524529588305  0.3990400706853715
  0.1670139086252425  0.8343969200860124  0.3993797144467142
  0.1674009060826005  0.9597361660906686  0.3997915224480618
  0.2925626103365861  0.0850200798796877  0.4006532149483977
  0.2931839633001495  0.2111037435119079  0.4029224060201964
  0.2925867899126160  0.3362928421647009  0.4057998737050857
  0.2898489827088032  0.4593838114281502  0.4039955015420572
  0.2891553024239709  0.5843388582487535  0.4013681527977991
  0.2906542564543959  0.7090758657523829  0.4000657451065410
  0.2915802273362960  0.8341045612844085  0.3994740980462119
  0.2920600330297824  0.9594147869541524  0.3997157804125216
  0.4171319315484964  0.0839591550333957  0.3998835376739743
  0.4175980972712228  0.2096533647952163  0.4013199830176869
  0.4188330840295277  0.3366633575661140  0.4040005847865407
  0.4148490206731077  0.7071343034914025  0.4025648750699737
  0.4161167977132810  0.8328824136235810  0.4004388512701162
  0.4166637217057662  0.9583964418146887  0.3995648110538348
  0.5416953181964594  0.0826489686967819  0.3995524255097405
  0.5422107952119498  0.2080088404152113  0.3998840537405740
  0.5429932717650465  0.3331726783346419  0.4007338021914387
  0.5459165644328725  0.4583599067044394  0.4027240243994597
  0.5467523673498521  0.5805843614229745  0.4091662345046963
  0.5387069505640779  0.7035156206072113  0.4054714808573046
  0.5404200913769376  0.8309990629695960  0.4019506297368663
  0.5412511611469996  0.9570538241720163  0.4000613195981753
  0.6662928293477668  0.0820464536459735  0.3995932663570929
  0.6667685671230906  0.2074545928987862  0.3993638934407431
  0.6674116683039377  0.3326861505308358  0.3994779555991170
  0.6690972412276787  0.4581370079506454  0.3998851944476298
  0.6706781002926185  0.5838459050548646  0.4013833056371255
  0.6664640755631703  0.7064787538282131  0.4030904485982391
  0.6650308826638693  0.8306008731761608  0.4021651960930006
  0.6657773970974066  0.9564992360106984  0.4004463271476994
  0.7910220974058854  0.0820209520368660  0.3996066826493517
  0.7913423276481562  0.2072846431817803  0.3993568331604053
  0.7919205845846131  0.3326861454953815  0.3991911872581628
  0.7928377776796732  0.4581691009905259  0.3992357847169838
  0.7936694192437299  0.5835333916544115  0.3995089325742506
  0.7930685445029808  0.7087009091044137  0.4004373058945179
  0.7913424156469464  0.8324539246042655  0.4005998946737018
  0.7906665100728697  0.9567964891975782  0.4001048038272721
  0.9161459956472682  0.0826278904313639  0.3996174778401563
  0.9161146655724971  0.2075664353461384  0.3995015553125083
  0.9163443920032889  0.3327690475615404  0.3991612142158364
  0.9168402052767934  0.4581366814138672  0.3990257287923383
  0.9175554813506488  0.5836515862903587  0.3992692356792792
  0.9176598110397596  0.7090119617781743  0.3995918528421514
  0.9173223575016090  0.8338481106099972  0.3997791122972507
  0.9165549766971228  0.9581408219782005  0.3997301615291082
  0.0840054977209827  0.0428110473187306  0.4000777063123083
  0.0834928570977737  0.1672856594442223  0.4005559256702195
  0.0826648227444105  0.2916616279396620  0.4003293301212538
  0.0823137745251334  0.4165657734895419  0.3993258304628872
  0.0825707128223856  0.5418060925684678  0.3988114852907219
  0.0833069754043998  0.6672398394462202  0.3989634008996841
  0.0838476498817163  0.7926716263659002  0.3993843826563395
  0.0840247945252575  0.9178536888538171  0.3995990796037618
  0.2091464376421067  0.0432140424084075  0.4004106234801221
  0.2092315569516121  0.1685133285935435  0.4019804718781515
  0.2085186573741540  0.2931209785399687  0.4030623318530845
  0.2066667889645344  0.4171239104721016  0.4014267387582969
  0.2063937168131847  0.5419210013644237  0.4000358474538494
  0.2076329313732592  0.6672854952920068  0.3993047419458862
  0.2083682260251387  0.7925484993955659  0.3992636180705843
  0.2088798138350463  0.9179105931503728  0.3996370842563660
  0.3338921370605224  0.0428977777217207  0.4000377617762316
  0.3344485125831434  0.1685460115885182  0.4016431432404496
  0.3347505032673156  0.2943211658550035  0.4048465928386611
  0.3299905258849019  0.4180918898701730  0.4080821127885520
  0.3310731025539795  0.5440595657534941  0.4032880960108291
  0.3318326191790896  0.6672455356210194  0.4012882634191252
  0.3329316386153014  0.7922530609690532  0.3999286267652644
  0.3334964683674058  0.9174701693798513  0.3995577763667052
  0.4585462881745072  0.0418154227167181  0.3995645770803824
  0.4589656315782421  0.1673545730492574  0.4002817613490198
  0.4598344935236013  0.2932253403935393  0.4019454048047866
  0.4644520416644234  0.4185927074115831  0.4045028796570399
  0.4540030275417211  0.6625597629053017  0.4045597091712357
  0.4573807485898790  0.7905684790225224  0.4017058149128788
  0.4580010272665747  0.9162136722494076  0.3999344444544080
  0.5830816226897025  0.0405788474417018  0.3996780319633941
  0.5835734652378205  0.1660621603423427  0.3995284375842240
  0.5843027901754997  0.2911975791046763  0.3999202377718912
  0.5861077426838879  0.4160211518457614  0.4007472417910063
  0.5886983793928905  0.5420247735840987  0.4041381153308573
  0.5821730094222423  0.6624636058748654  0.4063636008777593
  0.5808276113091335  0.7875204191197321  0.4033426246455448
  0.5824468919023755  0.9147175083698389  0.4007499423660832
  0.7076645526624802  0.0400992270607426  0.3997834664004033
  0.7081615881729986  0.1655962756822512  0.3993903607803954
  0.7087209457494197  0.2909186906230994  0.3992839303738293
  0.7098486984170924  0.4163163678405696  0.3994504928132844
  0.7111931176115096  0.5417213819603889  0.3998996902956102
  0.7099349308176461  0.6667247883820335  0.4016806370988342
  0.7076141300252142  0.7899777535900664  0.4018815503163246
  0.7070235890626042  0.9143929965701876  0.4008224633259138
  0.8326099030400913  0.0404433133670341  0.3996676745049054
  0.8328118934431181  0.1656052946199347  0.3994558412867034
  0.8332312285314345  0.2909286737768570  0.3992220949669203
  0.8338712455995847  0.4162597292710570  0.3991264156727461
  0.8346740293466820  0.5416807016703625  0.3992999504383312
  0.8346537486405581  0.6671882257309886  0.3997839385292942
  0.8340332821052366  0.7918814233498007  0.4002576424603873
  0.8329335281513445  0.9158748097662259  0.4000689891096760
  0.9582659748628501  0.0416250706386862  0.3996972564859562
  0.9578769290659536  0.1661720643112163  0.3996813480222376
  0.9577726524686317  0.2910688189851418  0.3993687818271238
  0.9579913342804596  0.4163355110943107  0.3990068519300305
  0.9586281347054832  0.5418116405607081  0.3990174275668192
  0.9590497403242835  0.6672414233904821  0.3993599139367208
  0.9591151495289538  0.7924614248842068  0.3996390477593898
  0.9588139468910994  0.9172499613263343  0.3996589274332957
  0.4098903564653250  0.5826256730089735  0.4047048707785671
  0.4294456908199355  0.5053146092335817  0.4873470270241996
 
  0.00000000E+00  0.00000000E+00  0.00000000E+00
  0.00000000E+00  0.00000000E+00  0.00000000E+00
  0.00000000E+00  0.00000000E+00  0.00000000E+00
  0.00000000E+00  0.00000000E+00  0.00000000E+00
  0.00000000E+00  0.00000000E+00  0.00000000E+00
  0.00000000E+00  0.00000000E+00  0.00000000E+00
  0.00000000E+00  0.00000000E+00  0.00000000E+00
  0.00000000E+00  0.00000000E+00  0.00000000E+00
  0.00000000E+00  0.00000000E+00  0.00000000E+00
  0.00000000E+00  0.00000000E+00  0.00000000E+00
  0.00000000E+00  0.00000000E+00  0.00000000E+00
  0.00000000E+00  0.00000000E+00  0.00000000E+00
  0.00000000E+00  0.00000000E+00  0.00000000E+00
  0.00000000E+00  0.00000000E+00  0.00000000E+00
  0.00000000E+00  0.00000000E+00  0.00000000E+00
  0.00000000E+00  0.00000000E+00  0.00000000E+00
  0.00000000E+00  0.00000000E+00  0.00000000E+00
  0.00000000E+00  0.00000000E+00  0.00000000E+00
  0.00000000E+00  0.00000000E+00  0.00000000E+00
  0.00000000E+00  0.00000000E+00  0.00000000E+00
  0.00000000E+00  0.00000000E+00  0.00000000E+00
  0.00000000E+00  0.00000000E+00  0.00000000E+00
  0.00000000E+00  0.00000000E+00  0.00000000E+00
  0.00000000E+00  0.00000000E+00  0.00000000E+00
  0.00000000E+00  0.00000000E+00  0.00000000E+00
  0.00000000E+00  0.00000000E+00  0.00000000E+00
  0.00000000E+00  0.00000000E+00  0.00000000E+00
  0.00000000E+00  0.00000000E+00  0.00000000E+00
  0.00000000E+00  0.00000000E+00  0.00000000E+00
  0.00000000E+00  0.00000000E+00  0.00000000E+00
  0.00000000E+00  0.00000000E+00  0.00000000E+00
  0.00000000E+00  0.00000000E+00  0.00000000E+00
  0.00000000E+00  0.00000000E+00  0.00000000E+00
  0.00000000E+00  0.00000000E+00  0.00000000E+00
  0.00000000E+00  0.00000000E+00  0.00000000E+00
  0.00000000E+00  0.00000000E+00  0.00000000E+00
  0.00000000E+00  0.00000000E+00  0.00000000E+00
  0.00000000E+00  0.00000000E+00  0.00000000E+00
  0.00000000E+00  0.00000000E+00  0.00000000E+00
  0.00000000E+00  0.00000000E+00  0.00000000E+00
  0.00000000E+00  0.00000000E+00  0.00000000E+00
  0.00000000E+00  0.00000000E+00  0.00000000E+00
  0.00000000E+00  0.00000000E+00  0.00000000E+00
  0.00000000E+00  0.00000000E+00  0.00000000E+00
  0.00000000E+00  0.00000000E+00  0.00000000E+00
  0.00000000E+00  0.00000000E+00  0.00000000E+00
  0.00000000E+00  0.00000000E+00  0.00000000E+00
  0.00000000E+00  0.00000000E+00  0.00000000E+00
  0.00000000E+00  0.00000000E+00  0.00000000E+00
  0.00000000E+00  0.00000000E+00  0.00000000E+00
  0.00000000E+00  0.00000000E+00  0.00000000E+00
  0.00000000E+00  0.00000000E+00  0.00000000E+00
  0.00000000E+00  0.00000000E+00  0.00000000E+00
  0.00000000E+00  0.00000000E+00  0.00000000E+00
  0.00000000E+00  0.00000000E+00  0.00000000E+00
  0.00000000E+00  0.00000000E+00  0.00000000E+00
  0.00000000E+00  0.00000000E+00  0.00000000E+00
  0.00000000E+00  0.00000000E+00  0.00000000E+00
  0.00000000E+00  0.00000000E+00  0.00000000E+00
  0.00000000E+00  0.00000000E+00  0.00000000E+00
  0.00000000E+00  0.00000000E+00  0.00000000E+00
  0.00000000E+00  0.00000000E+00  0.00000000E+00
  0.00000000E+00  0.00000000E+00  0.00000000E+00
  0.00000000E+00  0.00000000E+00  0.00000000E+00
  0.00000000E+00  0.00000000E+00  0.00000000E+00
  0.00000000E+00  0.00000000E+00  0.00000000E+00
  0.00000000E+00  0.00000000E+00  0.00000000E+00
  0.00000000E+00  0.00000000E+00  0.00000000E+00
  0.00000000E+00  0.00000000E+00  0.00000000E+00
  0.00000000E+00  0.00000000E+00  0.00000000E+00
  0.00000000E+00  0.00000000E+00  0.00000000E+00
  0.00000000E+00  0.00000000E+00  0.00000000E+00
  0.00000000E+00  0.00000000E+00  0.00000000E+00
  0.00000000E+00  0.00000000E+00  0.00000000E+00
  0.00000000E+00  0.00000000E+00  0.00000000E+00
  0.00000000E+00  0.00000000E+00  0.00000000E+00
  0.00000000E+00  0.00000000E+00  0.00000000E+00
  0.00000000E+00  0.00000000E+00  0.00000000E+00
  0.00000000E+00  0.00000000E+00  0.00000000E+00
  0.00000000E+00  0.00000000E+00  0.00000000E+00
  0.00000000E+00  0.00000000E+00  0.00000000E+00
  0.00000000E+00  0.00000000E+00  0.00000000E+00
  0.00000000E+00  0.00000000E+00  0.00000000E+00
  0.00000000E+00  0.00000000E+00  0.00000000E+00
  0.00000000E+00  0.00000000E+00  0.00000000E+00
  0.00000000E+00  0.00000000E+00  0.00000000E+00
  0.00000000E+00  0.00000000E+00  0.00000000E+00
  0.00000000E+00  0.00000000E+00  0.00000000E+00
  0.00000000E+00  0.00000000E+00  0.00000000E+00
  0.00000000E+00  0.00000000E+00  0.00000000E+00
  0.00000000E+00  0.00000000E+00  0.00000000E+00
  0.00000000E+00  0.00000000E+00  0.00000000E+00
  0.00000000E+00  0.00000000E+00  0.00000000E+00
  0.00000000E+00  0.00000000E+00  0.00000000E+00
  0.00000000E+00  0.00000000E+00  0.00000000E+00
  0.00000000E+00  0.00000000E+00  0.00000000E+00
  0.00000000E+00  0.00000000E+00  0.00000000E+00
  0.00000000E+00  0.00000000E+00  0.00000000E+00
  0.00000000E+00  0.00000000E+00  0.00000000E+00
  0.00000000E+00  0.00000000E+00  0.00000000E+00
  0.00000000E+00  0.00000000E+00  0.00000000E+00
  0.00000000E+00  0.00000000E+00  0.00000000E+00
  0.00000000E+00  0.00000000E+00  0.00000000E+00
  0.00000000E+00  0.00000000E+00  0.00000000E+00
  0.00000000E+00  0.00000000E+00  0.00000000E+00
  0.00000000E+00  0.00000000E+00  0.00000000E+00
  0.00000000E+00  0.00000000E+00  0.00000000E+00
  0.00000000E+00  0.00000000E+00  0.00000000E+00
  0.00000000E+00  0.00000000E+00  0.00000000E+00
  0.00000000E+00  0.00000000E+00  0.00000000E+00
  0.00000000E+00  0.00000000E+00  0.00000000E+00
  0.00000000E+00  0.00000000E+00  0.00000000E+00
  0.00000000E+00  0.00000000E+00  0.00000000E+00
  0.00000000E+00  0.00000000E+00  0.00000000E+00
  0.00000000E+00  0.00000000E+00  0.00000000E+00
  0.00000000E+00  0.00000000E+00  0.00000000E+00
  0.00000000E+00  0.00000000E+00  0.00000000E+00
  0.00000000E+00  0.00000000E+00  0.00000000E+00
  0.00000000E+00  0.00000000E+00  0.00000000E+00
  0.00000000E+00  0.00000000E+00  0.00000000E+00
  0.00000000E+00  0.00000000E+00  0.00000000E+00
  0.00000000E+00  0.00000000E+00  0.00000000E+00
  0.00000000E+00  0.00000000E+00  0.00000000E+00
  0.00000000E+00  0.00000000E+00  0.00000000E+00
  0.00000000E+00  0.00000000E+00  0.00000000E+00
  0.00000000E+00  0.00000000E+00  0.00000000E+00
  0.00000000E+00  0.00000000E+00  0.00000000E+00
  0.00000000E+00  0.00000000E+00  0.00000000E+00
  0.00000000E+00  0.00000000E+00  0.00000000E+00
