H1 Ru1 C126                             
   1.00000000000000     
    19.7966616563560507    0.0013311134617356   -0.0584684156291277
    -9.8972263076838551   17.0511359113963934    0.2673837181656266
    -0.0879772165965260    0.4154807436348251   29.8145448452453401
   H    Ru   C 
     1     1   126
Direct
  0.4690168923367735  0.5589122079639924  0.4758552658976343
  0.4388263341751397  0.5019598128399878  0.4319948805859348
  0.0418644404882637  0.0836630888010194  0.3996872677327600
  0.0409897951163542  0.2078453380795466  0.3995770361201005
  0.0404912503987586  0.3324952740082046  0.3997016916800602
  0.0405219272476213  0.4578196081603653  0.3996701926190641
  0.0412309942349110  0.5832335302596238  0.3994910468811837
  0.0418793236327703  0.7085587953573361  0.3996083716936165
  0.0421297365633585  0.8339178887408587  0.3998064855927813
  0.0421700141785281  0.9589588459658992  0.3998293552825261
  0.1673759141953983  0.0846868794840614  0.3998879600604914
  0.1672713400051977  0.2096111433124736  0.3993924645100315
  0.1655580391884348  0.3330866236586809  0.3996734549002037
  0.1644691775565233  0.4578720893578598  0.4000296472020808
  0.1652248760707355  0.5830912485246665  0.3997993129298898
  0.1664128794499767  0.7085067074413599  0.3996016735159751
  0.1669573794425707  0.8339014209603511  0.3997933853026032
  0.1672340010923175  0.9593034960883069  0.4001551233667668
  0.2924042291117581  0.0846940921372177  0.3999128108927742
  0.2929890580932897  0.2109349435154250  0.3999364418442802
  0.2933359511089313  0.3369283680422437  0.4012866864365656
  0.2880990712055103  0.4575212924302272  0.4021926911421992
  0.2890994450053538  0.5830986664269254  0.4009098776097118
  0.2909942786269789  0.7082556298576187  0.3999289478892954
  0.2915473631328657  0.8334783210120751  0.3994814302921920
  0.2919429495211533  0.9589489074213674  0.3998008938594085
  0.4169032421583052  0.0837060974667939  0.3997679157638222
  0.4173842968679706  0.2097021506623240  0.3995182775983071
  0.4186175680872012  0.3370496382270003  0.4013618289331841
  0.4111273749660534  0.5791165095971883  0.4081497915874055
  0.4153728736818072  0.7060836239308881  0.4016642714866924
  0.4161735016319876  0.8322312143752982  0.3997361532657691
  0.4166032957331505  0.9579937263899226  0.3994600981825643
  0.5414805605959397  0.0824707110479889  0.3996679157656443
  0.5419121339399909  0.2079079304617696  0.3996237806054528
  0.5425776916705047  0.3331810037138264  0.3996790369953482
  0.5445934958443758  0.4576587650718681  0.4022797454298961
  0.5434143983001922  0.5792437868854949  0.4084876901896072
  0.5399337344496248  0.7046093615356943  0.4042550543574911
  0.5406970007111646  0.8310728944720372  0.4007236524850998
  0.5411314186520710  0.9569121019919441  0.3995047333747550
  0.6661032041953184  0.0819475002711110  0.3996655259661146
  0.6664396922245210  0.2072891709628299  0.3998788693637987
  0.6670489583731449  0.3325671352268799  0.3995480069505964
  0.6685143759202045  0.4579732572572596  0.3998542166632297
  0.6692285320519152  0.5831710333143665  0.4009613358669959
  0.6659560718221234  0.7061415412993475  0.4018089400269855
  0.6655229219814077  0.8310819266976148  0.4007725284024134
  0.6658228403805815  0.9565414197053183  0.3997471848326214
  0.7909017574027444  0.0819495204139162  0.3996400746875401
  0.7910541473955697  0.2070959472861494  0.3998756099864901
  0.7915168129195291  0.3324296757152180  0.3996819936259903
  0.7923850099163120  0.4578808266788770  0.3993892611162509
  0.7930500405658562  0.5831733311933509  0.3995474365823021
  0.7924687238970892  0.7083280633626843  0.3998565793144062
  0.7912389306954080  0.8322747232457788  0.3997000667051587
  0.7908873321967615  0.9569377709428746  0.3994741996035305
  0.9160539703693703  0.0824575205515335  0.3995878144564264
  0.9158591965563381  0.2072577886144148  0.3998504555330234
  0.9159391337833932  0.3324081610971171  0.3997704392301160
  0.9164185648562463  0.4577692120388369  0.3994129739215063
  0.9171480216578163  0.5832838111713747  0.3993673775166499
  0.9172924340269992  0.7085590584475535  0.3994594157088144
  0.9171251597407711  0.8335250368354173  0.3994021158125450
  0.9165281452511120  0.9580058603080094  0.3993847173128812
  0.0839158244727487  0.0424874577621907  0.3998543703086359
  0.0835634288474565  0.1671262898473027  0.3995195280240278
  0.0822032234260720  0.2910289907890303  0.3995107863463391
  0.0817081987902286  0.4160368365309573  0.3997272497761011
  0.0822503164836476  0.5413221247697072  0.3996414961504189
  0.0831740772182851  0.6667560538999362  0.3995771778811966
  0.0836690427479669  0.7921575691077297  0.3997936396237041
  0.0838614346091939  0.9174114524411184  0.4000099034298968
  0.2089557829725392  0.0428031456402635  0.4000931610743135
  0.2091361536213599  0.1682884978110019  0.3996483337477056
  0.2089480903678533  0.2933142756156422  0.3997230747700267
  0.2056050014690701  0.4159795067255977  0.4003399152673038
  0.2060181996495397  0.5412213835881164  0.4001265858336535
  0.2076186162313888  0.6667125025333647  0.3997226916813957
  0.2083324575311357  0.7920469723650698  0.3996013598309149
  0.2087162390147136  0.9174054558690722  0.3999631636142628
  0.3336794382592825  0.0424910714992086  0.3998755623231662
  0.3341990793302694  0.1683018453202977  0.3997185236998588
  0.3346355283009254  0.2942681557148495  0.4009428363278097
  0.3323049150869459  0.4197550356362988  0.4041226023433204
  0.3293783863112363  0.5413732693537042  0.4028038914079904
  0.3321818970629101  0.6663328287967873  0.4008388511923501
  0.3329357923151589  0.7915206976703054  0.3996402266794372
  0.3333175775452665  0.9169001384147583  0.3995138991712721
  0.4582751288552645  0.0414432867562215  0.3996362552979374
  0.4586299302691977  0.1671997608964254  0.3996084537521686
  0.4594039036703761  0.2934396711686159  0.3998264037375325
  0.4626161930499316  0.4199163070077792  0.4042078966185387
  0.4561705790354507  0.6625781211750579  0.4045005915921497
  0.4573968104691744  0.7898032463237530  0.4005967473666282
  0.4579481109794056  0.9157808185175728  0.3994693682336888
  0.5828473413499686  0.0404185674638484  0.3995503433173442
  0.5832519463812967  0.1658862196988966  0.3997982097599566
  0.5838677530590429  0.2911021293480584  0.3994819186878448
  0.5854835402088263  0.4160870816115608  0.4003027715775606
  0.5872770883982016  0.5414859878700240  0.4030026249394024
  0.5817382861036041  0.6626641854426275  0.4046788315591007
  0.5818902224550742  0.7886139992132197  0.4018041356683212
  0.5824852352736580  0.9147561929186928  0.3998559560562942
  0.7075870994078042  0.0401146624564514  0.3996112933984440
  0.7078412811850995  0.1654194839079438  0.3998584389917136
  0.7083183645670815  0.2907361953599866  0.3997482019099746
  0.7094050004444479  0.4161235414172009  0.3994638526284764
  0.7103956721312794  0.5413046016123273  0.3999706288217872
  0.7093905895963158  0.6663994570220477  0.4009220640014041
  0.7075864991475714  0.7898357350451674  0.4006582752802541
  0.7073804690831265  0.9147583489320930  0.3998617230553104
  0.8326389277181049  0.0404296485762504  0.3994972944846576
  0.8325857279478224  0.1654134243026687  0.3998162639073902
  0.8328293207455166  0.2906323329465845  0.3998143094815151
  0.8334310616577087  0.4159454892024977  0.3994378350512698
  0.8342001745310830  0.5413829231502750  0.3993933395675983
  0.8342822259966440  0.6667822367654022  0.3995363505451948
  0.8337809390511656  0.7915776328959669  0.3995565459509173
  0.8329777733652080  0.9158146058471924  0.3993857442013143
  0.9582461207385996  0.0414304888065812  0.3995572084017178
  0.9576475101126503  0.1658479986674410  0.3997395124578926
  0.9574016490298715  0.2906867860414331  0.3998301465794447
  0.9575275515719570  0.4159130216112559  0.3996107909602708
  0.9582407131345232  0.5413946267510531  0.3993542145306717
  0.9587707019478582  0.6667970578037083  0.3994766172109020
  0.9589006428097049  0.7920865023676240  0.3995307798370544
  0.9587529862048730  0.9169340370806291  0.3994807490276619
 
  0.00000000E+00  0.00000000E+00  0.00000000E+00
  0.00000000E+00  0.00000000E+00  0.00000000E+00
  0.00000000E+00  0.00000000E+00  0.00000000E+00
  0.00000000E+00  0.00000000E+00  0.00000000E+00
  0.00000000E+00  0.00000000E+00  0.00000000E+00
  0.00000000E+00  0.00000000E+00  0.00000000E+00
  0.00000000E+00  0.00000000E+00  0.00000000E+00
  0.00000000E+00  0.00000000E+00  0.00000000E+00
  0.00000000E+00  0.00000000E+00  0.00000000E+00
  0.00000000E+00  0.00000000E+00  0.00000000E+00
  0.00000000E+00  0.00000000E+00  0.00000000E+00
  0.00000000E+00  0.00000000E+00  0.00000000E+00
  0.00000000E+00  0.00000000E+00  0.00000000E+00
  0.00000000E+00  0.00000000E+00  0.00000000E+00
  0.00000000E+00  0.00000000E+00  0.00000000E+00
  0.00000000E+00  0.00000000E+00  0.00000000E+00
  0.00000000E+00  0.00000000E+00  0.00000000E+00
  0.00000000E+00  0.00000000E+00  0.00000000E+00
  0.00000000E+00  0.00000000E+00  0.00000000E+00
  0.00000000E+00  0.00000000E+00  0.00000000E+00
  0.00000000E+00  0.00000000E+00  0.00000000E+00
  0.00000000E+00  0.00000000E+00  0.00000000E+00
  0.00000000E+00  0.00000000E+00  0.00000000E+00
  0.00000000E+00  0.00000000E+00  0.00000000E+00
  0.00000000E+00  0.00000000E+00  0.00000000E+00
  0.00000000E+00  0.00000000E+00  0.00000000E+00
  0.00000000E+00  0.00000000E+00  0.00000000E+00
  0.00000000E+00  0.00000000E+00  0.00000000E+00
  0.00000000E+00  0.00000000E+00  0.00000000E+00
  0.00000000E+00  0.00000000E+00  0.00000000E+00
  0.00000000E+00  0.00000000E+00  0.00000000E+00
  0.00000000E+00  0.00000000E+00  0.00000000E+00
  0.00000000E+00  0.00000000E+00  0.00000000E+00
  0.00000000E+00  0.00000000E+00  0.00000000E+00
  0.00000000E+00  0.00000000E+00  0.00000000E+00
  0.00000000E+00  0.00000000E+00  0.00000000E+00
  0.00000000E+00  0.00000000E+00  0.00000000E+00
  0.00000000E+00  0.00000000E+00  0.00000000E+00
  0.00000000E+00  0.00000000E+00  0.00000000E+00
  0.00000000E+00  0.00000000E+00  0.00000000E+00
  0.00000000E+00  0.00000000E+00  0.00000000E+00
  0.00000000E+00  0.00000000E+00  0.00000000E+00
  0.00000000E+00  0.00000000E+00  0.00000000E+00
  0.00000000E+00  0.00000000E+00  0.00000000E+00
  0.00000000E+00  0.00000000E+00  0.00000000E+00
  0.00000000E+00  0.00000000E+00  0.00000000E+00
  0.00000000E+00  0.00000000E+00  0.00000000E+00
  0.00000000E+00  0.00000000E+00  0.00000000E+00
  0.00000000E+00  0.00000000E+00  0.00000000E+00
  0.00000000E+00  0.00000000E+00  0.00000000E+00
  0.00000000E+00  0.00000000E+00  0.00000000E+00
  0.00000000E+00  0.00000000E+00  0.00000000E+00
  0.00000000E+00  0.00000000E+00  0.00000000E+00
  0.00000000E+00  0.00000000E+00  0.00000000E+00
  0.00000000E+00  0.00000000E+00  0.00000000E+00
  0.00000000E+00  0.00000000E+00  0.00000000E+00
  0.00000000E+00  0.00000000E+00  0.00000000E+00
  0.00000000E+00  0.00000000E+00  0.00000000E+00
  0.00000000E+00  0.00000000E+00  0.00000000E+00
  0.00000000E+00  0.00000000E+00  0.00000000E+00
  0.00000000E+00  0.00000000E+00  0.00000000E+00
  0.00000000E+00  0.00000000E+00  0.00000000E+00
  0.00000000E+00  0.00000000E+00  0.00000000E+00
  0.00000000E+00  0.00000000E+00  0.00000000E+00
  0.00000000E+00  0.00000000E+00  0.00000000E+00
  0.00000000E+00  0.00000000E+00  0.00000000E+00
  0.00000000E+00  0.00000000E+00  0.00000000E+00
  0.00000000E+00  0.00000000E+00  0.00000000E+00
  0.00000000E+00  0.00000000E+00  0.00000000E+00
  0.00000000E+00  0.00000000E+00  0.00000000E+00
  0.00000000E+00  0.00000000E+00  0.00000000E+00
  0.00000000E+00  0.00000000E+00  0.00000000E+00
  0.00000000E+00  0.00000000E+00  0.00000000E+00
  0.00000000E+00  0.00000000E+00  0.00000000E+00
  0.00000000E+00  0.00000000E+00  0.00000000E+00
  0.00000000E+00  0.00000000E+00  0.00000000E+00
  0.00000000E+00  0.00000000E+00  0.00000000E+00
  0.00000000E+00  0.00000000E+00  0.00000000E+00
  0.00000000E+00  0.00000000E+00  0.00000000E+00
  0.00000000E+00  0.00000000E+00  0.00000000E+00
  0.00000000E+00  0.00000000E+00  0.00000000E+00
  0.00000000E+00  0.00000000E+00  0.00000000E+00
  0.00000000E+00  0.00000000E+00  0.00000000E+00
  0.00000000E+00  0.00000000E+00  0.00000000E+00
  0.00000000E+00  0.00000000E+00  0.00000000E+00
  0.00000000E+00  0.00000000E+00  0.00000000E+00
  0.00000000E+00  0.00000000E+00  0.00000000E+00
  0.00000000E+00  0.00000000E+00  0.00000000E+00
  0.00000000E+00  0.00000000E+00  0.00000000E+00
  0.00000000E+00  0.00000000E+00  0.00000000E+00
  0.00000000E+00  0.00000000E+00  0.00000000E+00
  0.00000000E+00  0.00000000E+00  0.00000000E+00
  0.00000000E+00  0.00000000E+00  0.00000000E+00
  0.00000000E+00  0.00000000E+00  0.00000000E+00
  0.00000000E+00  0.00000000E+00  0.00000000E+00
  0.00000000E+00  0.00000000E+00  0.00000000E+00
  0.00000000E+00  0.00000000E+00  0.00000000E+00
  0.00000000E+00  0.00000000E+00  0.00000000E+00
  0.00000000E+00  0.00000000E+00  0.00000000E+00
  0.00000000E+00  0.00000000E+00  0.00000000E+00
  0.00000000E+00  0.00000000E+00  0.00000000E+00
  0.00000000E+00  0.00000000E+00  0.00000000E+00
  0.00000000E+00  0.00000000E+00  0.00000000E+00
  0.00000000E+00  0.00000000E+00  0.00000000E+00
  0.00000000E+00  0.00000000E+00  0.00000000E+00
  0.00000000E+00  0.00000000E+00  0.00000000E+00
  0.00000000E+00  0.00000000E+00  0.00000000E+00
  0.00000000E+00  0.00000000E+00  0.00000000E+00
  0.00000000E+00  0.00000000E+00  0.00000000E+00
  0.00000000E+00  0.00000000E+00  0.00000000E+00
  0.00000000E+00  0.00000000E+00  0.00000000E+00
  0.00000000E+00  0.00000000E+00  0.00000000E+00
  0.00000000E+00  0.00000000E+00  0.00000000E+00
  0.00000000E+00  0.00000000E+00  0.00000000E+00
  0.00000000E+00  0.00000000E+00  0.00000000E+00
  0.00000000E+00  0.00000000E+00  0.00000000E+00
  0.00000000E+00  0.00000000E+00  0.00000000E+00
  0.00000000E+00  0.00000000E+00  0.00000000E+00
  0.00000000E+00  0.00000000E+00  0.00000000E+00
  0.00000000E+00  0.00000000E+00  0.00000000E+00
  0.00000000E+00  0.00000000E+00  0.00000000E+00
  0.00000000E+00  0.00000000E+00  0.00000000E+00
  0.00000000E+00  0.00000000E+00  0.00000000E+00
  0.00000000E+00  0.00000000E+00  0.00000000E+00
  0.00000000E+00  0.00000000E+00  0.00000000E+00
  0.00000000E+00  0.00000000E+00  0.00000000E+00
  0.00000000E+00  0.00000000E+00  0.00000000E+00
  0.00000000E+00  0.00000000E+00  0.00000000E+00
