Hf1 H1 C125 N1                          
   1.00000000000000     
    19.8249733566449358   -0.0083759508519215   -0.1066687211859556
    -9.9197328924088541   17.0745520987676187   -0.1197921934862799
    -0.1597726166711498   -0.3012217476054867   29.7374666887221188
   Hf   H    C    N 
     1     1   125     1
Direct
  0.4386491260074170  0.5022978728983378  0.4409583062253820
  0.4411928018609690  0.5020253318822385  0.5044410274967983
  0.0418895313346446  0.0840204674270440  0.3993845055999358
  0.0410954942624361  0.2083167275984469  0.3992223568290196
  0.0405898187249556  0.3329738971268943  0.3985997926881651
  0.0406290349473609  0.4584082851622714  0.3982445876485884
  0.0414062943583615  0.5838613886437722  0.3986889967830673
  0.0421033242707729  0.7092104062412712  0.3993322312206301
  0.0424397370558780  0.8345449184465022  0.3991642095501780
  0.0424648877233980  0.9595683333706777  0.3990646574469984
  0.1676765566279508  0.0852354452083067  0.3999966555601886
  0.1668982414175569  0.2095859119063830  0.4005780199854015
  0.1656730310308279  0.3338978433307895  0.4002648126864556
  0.1642783632911349  0.4585378991220515  0.3989781891642811
  0.1652496678659187  0.5838251042178264  0.3983204421204857
  0.1663411903354271  0.7092001459541134  0.3987648256684430
  0.1670791417989128  0.8345833598644655  0.3991461274624539
  0.1675140503213097  0.9599338695462369  0.3993130440902938
  0.2926956887399693  0.0851714346329314  0.4000862422818600
  0.2935357473894554  0.2115896911956235  0.4024091886648364
  0.2919396979696118  0.3364310909045206  0.4050510664980830
  0.2881705582953238  0.4587553616120738  0.4040282871089628
  0.2888429702209891  0.5845554990814534  0.4003071174382447
  0.2907059909833473  0.7093440304379951  0.3989655022548985
  0.2915855703673022  0.8342521921601430  0.3988939120387671
  0.2920674973286747  0.9595206537153023  0.3992550542295692
  0.4171885970303087  0.0837659223390357  0.3994058569071017
  0.4178706721830527  0.2091399308965735  0.4005233863838728
  0.4201602882193358  0.3357411572591243  0.4063900220872729
  0.4150355044254614  0.7077748104276961  0.4009551853313205
  0.4161755393688749  0.8331584037437957  0.3990993385101813
  0.4166394493431615  0.9584192488426839  0.3990688881866591
  0.5417110353318362  0.0826141213538757  0.3991182488309878
  0.5424195833232955  0.2078382431432130  0.3990672109227106
  0.5434647379343848  0.3329446938333654  0.4002797371044808
  0.5462530089145992  0.4572216296625106  0.4055877234750540
  0.5471346410094884  0.5824555785348073  0.4091336497275733
  0.5392611300341054  0.7043822850910556  0.4041097875288565
  0.5406264614494685  0.8314778905646699  0.4001477799137842
  0.5413041580919424  0.9572547904449935  0.3992042166590594
  0.6663642824640625  0.0821809097909427  0.3994554262284482
  0.6668702173752366  0.2074506629329821  0.3990675709150756
  0.6676630354341379  0.3326495478812788  0.3986195978936022
  0.6694936606790776  0.4580832265087649  0.3985602184193052
  0.6704132350129315  0.5838239342598669  0.3996778648113524
  0.6671950107441758  0.7074798272372279  0.4002300230727067
  0.6653532335967584  0.8311441436407117  0.4000011213318521
  0.6659498822958730  0.9568294895120615  0.3995153475890438
  0.7911145073328096  0.0822592252316890  0.3992177301347540
  0.7913601404473927  0.2073995370625638  0.3991332292638416
  0.7919807590663031  0.3327630668114316  0.3988942900386801
  0.7930476714315785  0.4583041734061170  0.3985139263372750
  0.7936549168602310  0.5836440706600448  0.3980234862501348
  0.7931471031506144  0.7089130259805192  0.3981651870388939
  0.7917743359139220  0.8330163981131032  0.3986208901957495
  0.7908880589932833  0.9571577539545432  0.3990163856923360
  0.9161961885441295  0.0828152168083181  0.3989644570963601
  0.9160345581465945  0.2076700999608233  0.3987589467989581
  0.9162103531917769  0.3328569151721010  0.3985397932297368
  0.9167681206368232  0.4582381426174360  0.3987908169433598
  0.9175722421969167  0.5838120246132140  0.3989454271409689
  0.9177707597093415  0.7092272035019390  0.3987997604838498
  0.9174823327134912  0.8340804277083288  0.3985896779456297
  0.9167838525801225  0.9584552291918923  0.3988056855845800
  0.0841593713197699  0.0430863368716525  0.3994272510015415
  0.0833870811815904  0.1673589174089518  0.3996560263178799
  0.0823283900180252  0.2916700469745936  0.3992011677462207
  0.0816969465517407  0.4166225583579261  0.3983618475624740
  0.0823449827341861  0.5419490260141528  0.3982713307128336
  0.0832639309732228  0.6674064067039540  0.3989568592554342
  0.0839024421995862  0.7928772461487225  0.3993161192281045
  0.0841529140531822  0.9180850622295752  0.3991402453944044
  0.2092725601605429  0.0434353381253068  0.3998195072410580
  0.2094043140299868  0.1688688316509952  0.4009851063314279
  0.2082842647368725  0.2931114401980653  0.4014428410525460
  0.2055066531846475  0.4172356131312805  0.4005509251459378
  0.2059521094067728  0.5420399550391299  0.3988651177561690
  0.2075442581623860  0.6674739095006975  0.3986014802615346
  0.2083777467264471  0.7927056862627589  0.3989389932708936
  0.2089311529919146  0.9180602580995149  0.3991840455993796
  0.3339507964384310  0.0429714068960407  0.3995823969336179
  0.3346889544932473  0.1686891606688611  0.4010620773720095
  0.3353664232194399  0.2949275717305272  0.4055850100317983
  0.3297166593907925  0.4190806266155970  0.4080863840049583
  0.3303999348216846  0.5444756724656784  0.4039683155252029
  0.3318654937634830  0.6676525361799751  0.3999946273113701
  0.3329814049232821  0.7924883722099439  0.3989319301667025
  0.3334641140571714  0.9175582596471986  0.3990696947010579
  0.4585719476186954  0.0417195231620842  0.3991589077265636
  0.4591457822874344  0.1669925363593357  0.3994825366986264
  0.4601729587141417  0.2924546405564993  0.4017928487839558
  0.4655482792513251  0.4179324702159891  0.4113760575837045
  0.4544799954349507  0.6639082268923695  0.4044328496402385
  0.4575644965525208  0.7910870541157161  0.3998395709182862
  0.4580741869552501  0.9164180484229982  0.3990313543762319
  0.5831837746247498  0.0407157035680572  0.3992590035233173
  0.5836955579784022  0.1659824443668103  0.3990168667521415
  0.5845970962057064  0.2910560367901455  0.3990165688002081
  0.5868558423305796  0.4160372568764147  0.4005731901288168
  0.5887844015721662  0.5428233242434469  0.4047091701463409
  0.5837204546023991  0.6640575053888181  0.4043754731060639
  0.5811366234243015  0.7881650802363156  0.4012489848781293
  0.5826334804384232  0.9151083604697827  0.3995218361376181
  0.7077912974295948  0.0403542323023531  0.3994546251364405
  0.7082385938598469  0.1656708977926982  0.3993195878484179
  0.7088362525986918  0.2908931887094884  0.3988458204840304
  0.7101612163827041  0.4163643524950621  0.3982968000452349
  0.7112167691824783  0.5418279750427852  0.3982857856638622
  0.7100066307314460  0.6669544509253867  0.3989910327656825
  0.7082079080718178  0.7907489653967309  0.3993613383435965
  0.7072567210650461  0.9148289908451503  0.3994203036557367
  0.8327057866097797  0.0407157254900398  0.3990217307381646
  0.8328045285793899  0.1657577547207026  0.3990433792330789
  0.8332043658920720  0.2910187631422700  0.3988624125674911
  0.8339279924058940  0.4163618006632621  0.3988496032847031
  0.8347135956060449  0.5418319025887259  0.3984604635673917
  0.8347403412447697  0.6674011775841505  0.3982174888966702
  0.8342002071794046  0.7921451597623889  0.3983502899821292
  0.8332395047720143  0.9163135433706808  0.3987606282286010
  0.9583637953711863  0.0418471574167116  0.3990382324833950
  0.9577913902261890  0.1662780903119410  0.3989172346833164
  0.9575602874428517  0.2911156133030117  0.3985115185328518
  0.9577784076300060  0.4164153979292731  0.3985010984692401
  0.9585707668848639  0.5419783033877885  0.3988863110655646
  0.9591137369095101  0.6674490489317337  0.3991752587573207
  0.9592300251814541  0.7926790511878498  0.3988789778503982
  0.9589971470893340  0.9174930794465391  0.3987834703128841
  0.4097046744173660  0.5837688060744067  0.4080830375316203
 
  0.00000000E+00  0.00000000E+00  0.00000000E+00
  0.00000000E+00  0.00000000E+00  0.00000000E+00
  0.00000000E+00  0.00000000E+00  0.00000000E+00
  0.00000000E+00  0.00000000E+00  0.00000000E+00
  0.00000000E+00  0.00000000E+00  0.00000000E+00
  0.00000000E+00  0.00000000E+00  0.00000000E+00
  0.00000000E+00  0.00000000E+00  0.00000000E+00
  0.00000000E+00  0.00000000E+00  0.00000000E+00
  0.00000000E+00  0.00000000E+00  0.00000000E+00
  0.00000000E+00  0.00000000E+00  0.00000000E+00
  0.00000000E+00  0.00000000E+00  0.00000000E+00
  0.00000000E+00  0.00000000E+00  0.00000000E+00
  0.00000000E+00  0.00000000E+00  0.00000000E+00
  0.00000000E+00  0.00000000E+00  0.00000000E+00
  0.00000000E+00  0.00000000E+00  0.00000000E+00
  0.00000000E+00  0.00000000E+00  0.00000000E+00
  0.00000000E+00  0.00000000E+00  0.00000000E+00
  0.00000000E+00  0.00000000E+00  0.00000000E+00
  0.00000000E+00  0.00000000E+00  0.00000000E+00
  0.00000000E+00  0.00000000E+00  0.00000000E+00
  0.00000000E+00  0.00000000E+00  0.00000000E+00
  0.00000000E+00  0.00000000E+00  0.00000000E+00
  0.00000000E+00  0.00000000E+00  0.00000000E+00
  0.00000000E+00  0.00000000E+00  0.00000000E+00
  0.00000000E+00  0.00000000E+00  0.00000000E+00
  0.00000000E+00  0.00000000E+00  0.00000000E+00
  0.00000000E+00  0.00000000E+00  0.00000000E+00
  0.00000000E+00  0.00000000E+00  0.00000000E+00
  0.00000000E+00  0.00000000E+00  0.00000000E+00
  0.00000000E+00  0.00000000E+00  0.00000000E+00
  0.00000000E+00  0.00000000E+00  0.00000000E+00
  0.00000000E+00  0.00000000E+00  0.00000000E+00
  0.00000000E+00  0.00000000E+00  0.00000000E+00
  0.00000000E+00  0.00000000E+00  0.00000000E+00
  0.00000000E+00  0.00000000E+00  0.00000000E+00
  0.00000000E+00  0.00000000E+00  0.00000000E+00
  0.00000000E+00  0.00000000E+00  0.00000000E+00
  0.00000000E+00  0.00000000E+00  0.00000000E+00
  0.00000000E+00  0.00000000E+00  0.00000000E+00
  0.00000000E+00  0.00000000E+00  0.00000000E+00
  0.00000000E+00  0.00000000E+00  0.00000000E+00
  0.00000000E+00  0.00000000E+00  0.00000000E+00
  0.00000000E+00  0.00000000E+00  0.00000000E+00
  0.00000000E+00  0.00000000E+00  0.00000000E+00
  0.00000000E+00  0.00000000E+00  0.00000000E+00
  0.00000000E+00  0.00000000E+00  0.00000000E+00
  0.00000000E+00  0.00000000E+00  0.00000000E+00
  0.00000000E+00  0.00000000E+00  0.00000000E+00
  0.00000000E+00  0.00000000E+00  0.00000000E+00
  0.00000000E+00  0.00000000E+00  0.00000000E+00
  0.00000000E+00  0.00000000E+00  0.00000000E+00
  0.00000000E+00  0.00000000E+00  0.00000000E+00
  0.00000000E+00  0.00000000E+00  0.00000000E+00
  0.00000000E+00  0.00000000E+00  0.00000000E+00
  0.00000000E+00  0.00000000E+00  0.00000000E+00
  0.00000000E+00  0.00000000E+00  0.00000000E+00
  0.00000000E+00  0.00000000E+00  0.00000000E+00
  0.00000000E+00  0.00000000E+00  0.00000000E+00
  0.00000000E+00  0.00000000E+00  0.00000000E+00
  0.00000000E+00  0.00000000E+00  0.00000000E+00
  0.00000000E+00  0.00000000E+00  0.00000000E+00
  0.00000000E+00  0.00000000E+00  0.00000000E+00
  0.00000000E+00  0.00000000E+00  0.00000000E+00
  0.00000000E+00  0.00000000E+00  0.00000000E+00
  0.00000000E+00  0.00000000E+00  0.00000000E+00
  0.00000000E+00  0.00000000E+00  0.00000000E+00
  0.00000000E+00  0.00000000E+00  0.00000000E+00
  0.00000000E+00  0.00000000E+00  0.00000000E+00
  0.00000000E+00  0.00000000E+00  0.00000000E+00
  0.00000000E+00  0.00000000E+00  0.00000000E+00
  0.00000000E+00  0.00000000E+00  0.00000000E+00
  0.00000000E+00  0.00000000E+00  0.00000000E+00
  0.00000000E+00  0.00000000E+00  0.00000000E+00
  0.00000000E+00  0.00000000E+00  0.00000000E+00
  0.00000000E+00  0.00000000E+00  0.00000000E+00
  0.00000000E+00  0.00000000E+00  0.00000000E+00
  0.00000000E+00  0.00000000E+00  0.00000000E+00
  0.00000000E+00  0.00000000E+00  0.00000000E+00
  0.00000000E+00  0.00000000E+00  0.00000000E+00
  0.00000000E+00  0.00000000E+00  0.00000000E+00
  0.00000000E+00  0.00000000E+00  0.00000000E+00
  0.00000000E+00  0.00000000E+00  0.00000000E+00
  0.00000000E+00  0.00000000E+00  0.00000000E+00
  0.00000000E+00  0.00000000E+00  0.00000000E+00
  0.00000000E+00  0.00000000E+00  0.00000000E+00
  0.00000000E+00  0.00000000E+00  0.00000000E+00
  0.00000000E+00  0.00000000E+00  0.00000000E+00
  0.00000000E+00  0.00000000E+00  0.00000000E+00
  0.00000000E+00  0.00000000E+00  0.00000000E+00
  0.00000000E+00  0.00000000E+00  0.00000000E+00
  0.00000000E+00  0.00000000E+00  0.00000000E+00
  0.00000000E+00  0.00000000E+00  0.00000000E+00
  0.00000000E+00  0.00000000E+00  0.00000000E+00
  0.00000000E+00  0.00000000E+00  0.00000000E+00
  0.00000000E+00  0.00000000E+00  0.00000000E+00
  0.00000000E+00  0.00000000E+00  0.00000000E+00
  0.00000000E+00  0.00000000E+00  0.00000000E+00
  0.00000000E+00  0.00000000E+00  0.00000000E+00
  0.00000000E+00  0.00000000E+00  0.00000000E+00
  0.00000000E+00  0.00000000E+00  0.00000000E+00
  0.00000000E+00  0.00000000E+00  0.00000000E+00
  0.00000000E+00  0.00000000E+00  0.00000000E+00
  0.00000000E+00  0.00000000E+00  0.00000000E+00
  0.00000000E+00  0.00000000E+00  0.00000000E+00
  0.00000000E+00  0.00000000E+00  0.00000000E+00
  0.00000000E+00  0.00000000E+00  0.00000000E+00
  0.00000000E+00  0.00000000E+00  0.00000000E+00
  0.00000000E+00  0.00000000E+00  0.00000000E+00
  0.00000000E+00  0.00000000E+00  0.00000000E+00
  0.00000000E+00  0.00000000E+00  0.00000000E+00
  0.00000000E+00  0.00000000E+00  0.00000000E+00
  0.00000000E+00  0.00000000E+00  0.00000000E+00
  0.00000000E+00  0.00000000E+00  0.00000000E+00
  0.00000000E+00  0.00000000E+00  0.00000000E+00
  0.00000000E+00  0.00000000E+00  0.00000000E+00
  0.00000000E+00  0.00000000E+00  0.00000000E+00
  0.00000000E+00  0.00000000E+00  0.00000000E+00
  0.00000000E+00  0.00000000E+00  0.00000000E+00
  0.00000000E+00  0.00000000E+00  0.00000000E+00
  0.00000000E+00  0.00000000E+00  0.00000000E+00
  0.00000000E+00  0.00000000E+00  0.00000000E+00
  0.00000000E+00  0.00000000E+00  0.00000000E+00
  0.00000000E+00  0.00000000E+00  0.00000000E+00
  0.00000000E+00  0.00000000E+00  0.00000000E+00
  0.00000000E+00  0.00000000E+00  0.00000000E+00
  0.00000000E+00  0.00000000E+00  0.00000000E+00
  0.00000000E+00  0.00000000E+00  0.00000000E+00
  0.00000000E+00  0.00000000E+00  0.00000000E+00
