V1 H1 C122 N4 O1                        
   1.00000000000000     
    19.8023835163798623    0.0038790879281206    0.1082190922698239
    -9.8976197431422310   17.0200502243963925   -0.1452394083793746
     0.1629877254124822   -0.1597019057462812   29.8538041064362325
   V    H    C    N    O 
     1     1   122     4     1
Direct
  0.4375436716850868  0.5013678227037807  0.4254931747665485
  0.4873698233170303  0.5289460052072900  0.5035246150670060
  0.0420712644849454  0.0842170715392739  0.3997466937120068
  0.0411716286386152  0.2083372643160949  0.3996100328428730
  0.0403835110055983  0.3330604046278930  0.3992599392347272
  0.0405032478269397  0.4582364897388079  0.3990839739239927
  0.0413248595951793  0.5836807026595657  0.3994018062451501
  0.0420413509975257  0.7090833789374688  0.3996545466308070
  0.0422606773373830  0.8343051351187575  0.3997370609736360
  0.0424131053730124  0.9595617488395126  0.3997471068793477
  0.1680743984363313  0.0858008626135826  0.4002098215239483
  0.1676998934504274  0.2105653616613746  0.4003279671905745
  0.1652087565993073  0.3338066016599343  0.4000225529185073
  0.1642786097861872  0.4584462140443926  0.3985860480869650
  0.1652651752629627  0.5836082152773403  0.3986992522949799
  0.1664291733856774  0.7088387522299624  0.3994009906491933
  0.1670344906884428  0.8342958631968838  0.3998032920149007
  0.1674467310928789  0.9599700980285786  0.3999354577519266
  0.2925622948640396  0.0858341309730598  0.4002137415912209
  0.2940631392557030  0.2134746307870641  0.4015915520093271
  0.2926486154001413  0.3390964996873550  0.4034162927507746
  0.2876001188257362  0.4581671039554621  0.4016834676701571
  0.2887352688454722  0.5828155129286394  0.3987902336870930
  0.2908380252676551  0.7082016393889284  0.3990114697466402
  0.2917005930471579  0.8337958471973420  0.3995939564989820
  0.2920725892151075  0.9595600790592943  0.3998816231528172
  0.4169885888349987  0.0843415235404708  0.3997968505284520
  0.4176055961926640  0.2107902980993915  0.4003424190394700
  0.4209238672557793  0.3395008059527458  0.4032472695370454
  0.4149612661209298  0.7056524582892628  0.3997363422225973
  0.4162185348800498  0.8321632472790825  0.3996218465105839
  0.4166339610988862  0.9582519071010738  0.3998048360845299
  0.5414752043825802  0.0827774640164899  0.3997364788912613
  0.5419239250380256  0.2084600745181105  0.3994711229120252
  0.5433013886577545  0.3340778593100540  0.4000127748795901
  0.5454576007693076  0.4586757698177043  0.4022763047502935
  0.5382850440066720  0.7016324398068225  0.4024393873963895
  0.5405010611845726  0.8302176187464396  0.4003494058396154
  0.5411647133998227  0.9568133807974465  0.3999790583879881
  0.6660710044689010  0.0821356339373518  0.3999287040053897
  0.6665046197321705  0.2076823878619009  0.3995206215855014
  0.6673762324805440  0.3331364332648524  0.3990753626887021
  0.6690547165546401  0.4586346382582159  0.3989807457718627
  0.6693875573096547  0.5831702171830168  0.3999494936938546
  0.6659216094829459  0.7058800356339643  0.4006091175257970
  0.6646467581304539  0.8302455873846569  0.4005153297968365
  0.6656245563511384  0.9564171560088887  0.4001891181450862
  0.7908266588146229  0.0821113279371658  0.3998840693080325
  0.7911171349702258  0.2075314720252080  0.3997312155043973
  0.7916211455213850  0.3328855475334809  0.3994024293123891
  0.7925693786735504  0.4582730376370735  0.3989778663127302
  0.7934177278014419  0.5837339014272037  0.3988468236563295
  0.7925770799579833  0.7083869185686761  0.3994563947320864
  0.7910052537256905  0.8322664719944800  0.3997242269941312
  0.7905097288470635  0.9568075197849534  0.3999155606489047
  0.9160566587356926  0.0827277578410996  0.3996798414098355
  0.9158621540891826  0.2076250592329985  0.3996257239627216
  0.9159609790200978  0.3328617813171734  0.3995137060114292
  0.9165487458813465  0.4582986787758411  0.3994418774379656
  0.9173113968427324  0.5837096400118376  0.3993359450818081
  0.9174938633789936  0.7089180415478035  0.3993867917157634
  0.9171475413934829  0.8338648906844927  0.3995386462400539
  0.9165226692034129  0.9582538651687086  0.3996517018546870
  0.0844389568914327  0.0433352251976614  0.3998644154644688
  0.0839401655565236  0.1678774635162036  0.3997969668296032
  0.0824073221139747  0.2917591044235496  0.3995500759276109
  0.0815476284043705  0.4163703576722076  0.3988538262695107
  0.0823483217606302  0.5418034203122818  0.3990450423699416
  0.0832887587687214  0.6672106690530046  0.3995240919565247
  0.0837995087418496  0.7925890044362884  0.3997635831427403
  0.0841133623839612  0.9180049014387870  0.3998094438277991
  0.2093158280644614  0.0437636929501507  0.4001415737349752
  0.2102786325453845  0.1699518656196140  0.4007529595945906
  0.2089992545457472  0.2942984541956407  0.4007824587341601
  0.2056520917317773  0.4170307268093345  0.3995904446936535
  0.2058651605883251  0.5414460924318302  0.3984119041611360
  0.2075243974600133  0.6669364423540745  0.3989901598765734
  0.2084119494386060  0.7924263786557632  0.3996190760095891
  0.2088730891143179  0.9180181514717023  0.3998847256747103
  0.3337767942148578  0.0433836471611877  0.3999409356687026
  0.3344518544647682  0.1700291752180967  0.4007349375118155
  0.3365780990013908  0.2986983650236336  0.4033527664932632
  0.3295275951824930  0.5415976837371962  0.4006633956784059
  0.3316357929872949  0.6660858156816108  0.3989874551983681
  0.3330114796833126  0.7916735795570065  0.3993855525351399
  0.3334495839394255  0.9173724469120386  0.3997824234697536
  0.4583058305676399  0.0419426505836920  0.3997741083315881
  0.4587152314707982  0.1680494763353480  0.3997666780680494
  0.4599623291123339  0.2946819803840807  0.4008660695688741
  0.4539784432848581  0.6608881875882900  0.4017132091995643
  0.4573487238593641  0.7894779585789297  0.3998166579244295
  0.4579476919147829  0.9158723362849547  0.3998294634929767
  0.5828584467638642  0.0406008779692682  0.3999109162063544
  0.5832155696593488  0.1663446029019745  0.3995216155431262
  0.5840809347866006  0.2919232209443925  0.3993658432793644
  0.5862142035588872  0.4172939858761424  0.4000188162034131
  0.5874206768638048  0.5420882403902842  0.4024115859753457
  0.5822757812922602  0.6613007074748287  0.4030277403603448
  0.5808444601272881  0.7867735543816096  0.4010508280495075
  0.5823803945048841  0.9143568782280865  0.4001650734809008
  0.7074876694133402  0.0401794983825151  0.4000238975313525
  0.7079011123431349  0.1658450121404862  0.3997515218123455
  0.7084701503716516  0.2912390273650821  0.3992929351117965
  0.7096483231944687  0.4164745188554234  0.3988289122823101
  0.7106970368391314  0.5416585253476233  0.3989317837575618
  0.7097590617147415  0.6663561739055349  0.4000053323886704
  0.7072406386971875  0.7896251864660431  0.4001223601186675
  0.7068761869512711  0.9143802160356935  0.4002001502545465
  0.8325400483336537  0.0405678521565231  0.3998183299137983
  0.8326773747631325  0.1658061340391465  0.3997642624595844
  0.8328719306040510  0.2910325049841270  0.3995797681126535
  0.8335763169114981  0.4164138729202269  0.3993090141086073
  0.8344246582760804  0.5418412297874292  0.3989854792206362
  0.8345581912884724  0.6670594050985467  0.3991678771636158
  0.8338107977918680  0.7918213845567303  0.3995468387878185
  0.8328707414340556  0.9159152216877937  0.3997337548322970
  0.9584496422569718  0.0418845132171969  0.3996710139084258
  0.9578048083264000  0.1662451058808051  0.3995853656912774
  0.9574603019014115  0.2911931701093366  0.3994717536670139
  0.9576078254649065  0.4163891662572112  0.3994174346834939
  0.9583730305274519  0.5418057466347682  0.3994472867045231
  0.9589540983190757  0.6672446478725225  0.3994694008427256
  0.9590707599174296  0.7924787840023364  0.3995597028530188
  0.9589054338046836  0.9174114688023282  0.3996316216481680
  0.4100057292476597  0.5799342327947312  0.4035115690807174
  0.5453550903422008  0.5805197268998008  0.4065654451247677
  0.3294492033411027  0.4198742541422465  0.4065088255960586
  0.4649454931593242  0.4207542872715789  0.4056364972818035
  0.4399120622393404  0.5094875259616627  0.4858749643646472
 
  0.00000000E+00  0.00000000E+00  0.00000000E+00
  0.00000000E+00  0.00000000E+00  0.00000000E+00
  0.00000000E+00  0.00000000E+00  0.00000000E+00
  0.00000000E+00  0.00000000E+00  0.00000000E+00
  0.00000000E+00  0.00000000E+00  0.00000000E+00
  0.00000000E+00  0.00000000E+00  0.00000000E+00
  0.00000000E+00  0.00000000E+00  0.00000000E+00
  0.00000000E+00  0.00000000E+00  0.00000000E+00
  0.00000000E+00  0.00000000E+00  0.00000000E+00
  0.00000000E+00  0.00000000E+00  0.00000000E+00
  0.00000000E+00  0.00000000E+00  0.00000000E+00
  0.00000000E+00  0.00000000E+00  0.00000000E+00
  0.00000000E+00  0.00000000E+00  0.00000000E+00
  0.00000000E+00  0.00000000E+00  0.00000000E+00
  0.00000000E+00  0.00000000E+00  0.00000000E+00
  0.00000000E+00  0.00000000E+00  0.00000000E+00
  0.00000000E+00  0.00000000E+00  0.00000000E+00
  0.00000000E+00  0.00000000E+00  0.00000000E+00
  0.00000000E+00  0.00000000E+00  0.00000000E+00
  0.00000000E+00  0.00000000E+00  0.00000000E+00
  0.00000000E+00  0.00000000E+00  0.00000000E+00
  0.00000000E+00  0.00000000E+00  0.00000000E+00
  0.00000000E+00  0.00000000E+00  0.00000000E+00
  0.00000000E+00  0.00000000E+00  0.00000000E+00
  0.00000000E+00  0.00000000E+00  0.00000000E+00
  0.00000000E+00  0.00000000E+00  0.00000000E+00
  0.00000000E+00  0.00000000E+00  0.00000000E+00
  0.00000000E+00  0.00000000E+00  0.00000000E+00
  0.00000000E+00  0.00000000E+00  0.00000000E+00
  0.00000000E+00  0.00000000E+00  0.00000000E+00
  0.00000000E+00  0.00000000E+00  0.00000000E+00
  0.00000000E+00  0.00000000E+00  0.00000000E+00
  0.00000000E+00  0.00000000E+00  0.00000000E+00
  0.00000000E+00  0.00000000E+00  0.00000000E+00
  0.00000000E+00  0.00000000E+00  0.00000000E+00
  0.00000000E+00  0.00000000E+00  0.00000000E+00
  0.00000000E+00  0.00000000E+00  0.00000000E+00
  0.00000000E+00  0.00000000E+00  0.00000000E+00
  0.00000000E+00  0.00000000E+00  0.00000000E+00
  0.00000000E+00  0.00000000E+00  0.00000000E+00
  0.00000000E+00  0.00000000E+00  0.00000000E+00
  0.00000000E+00  0.00000000E+00  0.00000000E+00
  0.00000000E+00  0.00000000E+00  0.00000000E+00
  0.00000000E+00  0.00000000E+00  0.00000000E+00
  0.00000000E+00  0.00000000E+00  0.00000000E+00
  0.00000000E+00  0.00000000E+00  0.00000000E+00
  0.00000000E+00  0.00000000E+00  0.00000000E+00
  0.00000000E+00  0.00000000E+00  0.00000000E+00
  0.00000000E+00  0.00000000E+00  0.00000000E+00
  0.00000000E+00  0.00000000E+00  0.00000000E+00
  0.00000000E+00  0.00000000E+00  0.00000000E+00
  0.00000000E+00  0.00000000E+00  0.00000000E+00
  0.00000000E+00  0.00000000E+00  0.00000000E+00
  0.00000000E+00  0.00000000E+00  0.00000000E+00
  0.00000000E+00  0.00000000E+00  0.00000000E+00
  0.00000000E+00  0.00000000E+00  0.00000000E+00
  0.00000000E+00  0.00000000E+00  0.00000000E+00
  0.00000000E+00  0.00000000E+00  0.00000000E+00
  0.00000000E+00  0.00000000E+00  0.00000000E+00
  0.00000000E+00  0.00000000E+00  0.00000000E+00
  0.00000000E+00  0.00000000E+00  0.00000000E+00
  0.00000000E+00  0.00000000E+00  0.00000000E+00
  0.00000000E+00  0.00000000E+00  0.00000000E+00
  0.00000000E+00  0.00000000E+00  0.00000000E+00
  0.00000000E+00  0.00000000E+00  0.00000000E+00
  0.00000000E+00  0.00000000E+00  0.00000000E+00
  0.00000000E+00  0.00000000E+00  0.00000000E+00
  0.00000000E+00  0.00000000E+00  0.00000000E+00
  0.00000000E+00  0.00000000E+00  0.00000000E+00
  0.00000000E+00  0.00000000E+00  0.00000000E+00
  0.00000000E+00  0.00000000E+00  0.00000000E+00
  0.00000000E+00  0.00000000E+00  0.00000000E+00
  0.00000000E+00  0.00000000E+00  0.00000000E+00
  0.00000000E+00  0.00000000E+00  0.00000000E+00
  0.00000000E+00  0.00000000E+00  0.00000000E+00
  0.00000000E+00  0.00000000E+00  0.00000000E+00
  0.00000000E+00  0.00000000E+00  0.00000000E+00
  0.00000000E+00  0.00000000E+00  0.00000000E+00
  0.00000000E+00  0.00000000E+00  0.00000000E+00
  0.00000000E+00  0.00000000E+00  0.00000000E+00
  0.00000000E+00  0.00000000E+00  0.00000000E+00
  0.00000000E+00  0.00000000E+00  0.00000000E+00
  0.00000000E+00  0.00000000E+00  0.00000000E+00
  0.00000000E+00  0.00000000E+00  0.00000000E+00
  0.00000000E+00  0.00000000E+00  0.00000000E+00
  0.00000000E+00  0.00000000E+00  0.00000000E+00
  0.00000000E+00  0.00000000E+00  0.00000000E+00
  0.00000000E+00  0.00000000E+00  0.00000000E+00
  0.00000000E+00  0.00000000E+00  0.00000000E+00
  0.00000000E+00  0.00000000E+00  0.00000000E+00
  0.00000000E+00  0.00000000E+00  0.00000000E+00
  0.00000000E+00  0.00000000E+00  0.00000000E+00
  0.00000000E+00  0.00000000E+00  0.00000000E+00
  0.00000000E+00  0.00000000E+00  0.00000000E+00
  0.00000000E+00  0.00000000E+00  0.00000000E+00
  0.00000000E+00  0.00000000E+00  0.00000000E+00
  0.00000000E+00  0.00000000E+00  0.00000000E+00
  0.00000000E+00  0.00000000E+00  0.00000000E+00
  0.00000000E+00  0.00000000E+00  0.00000000E+00
  0.00000000E+00  0.00000000E+00  0.00000000E+00
  0.00000000E+00  0.00000000E+00  0.00000000E+00
  0.00000000E+00  0.00000000E+00  0.00000000E+00
  0.00000000E+00  0.00000000E+00  0.00000000E+00
  0.00000000E+00  0.00000000E+00  0.00000000E+00
  0.00000000E+00  0.00000000E+00  0.00000000E+00
  0.00000000E+00  0.00000000E+00  0.00000000E+00
  0.00000000E+00  0.00000000E+00  0.00000000E+00
  0.00000000E+00  0.00000000E+00  0.00000000E+00
  0.00000000E+00  0.00000000E+00  0.00000000E+00
  0.00000000E+00  0.00000000E+00  0.00000000E+00
  0.00000000E+00  0.00000000E+00  0.00000000E+00
  0.00000000E+00  0.00000000E+00  0.00000000E+00
  0.00000000E+00  0.00000000E+00  0.00000000E+00
  0.00000000E+00  0.00000000E+00  0.00000000E+00
  0.00000000E+00  0.00000000E+00  0.00000000E+00
  0.00000000E+00  0.00000000E+00  0.00000000E+00
  0.00000000E+00  0.00000000E+00  0.00000000E+00
  0.00000000E+00  0.00000000E+00  0.00000000E+00
  0.00000000E+00  0.00000000E+00  0.00000000E+00
  0.00000000E+00  0.00000000E+00  0.00000000E+00
  0.00000000E+00  0.00000000E+00  0.00000000E+00
  0.00000000E+00  0.00000000E+00  0.00000000E+00
  0.00000000E+00  0.00000000E+00  0.00000000E+00
  0.00000000E+00  0.00000000E+00  0.00000000E+00
  0.00000000E+00  0.00000000E+00  0.00000000E+00
  0.00000000E+00  0.00000000E+00  0.00000000E+00
  0.00000000E+00  0.00000000E+00  0.00000000E+00
  0.00000000E+00  0.00000000E+00  0.00000000E+00
  0.00000000E+00  0.00000000E+00  0.00000000E+00
