Sc1 H1 C126 O2                          
   1.00000000000000     
    19.7470674531591364   -0.0009076808785431   -0.2239910290313577
    -9.8744992371336302   17.1163217306197595   -0.0452105921901480
    -0.3378263938733329   -0.2734196381421381   29.7778332983058256
   Sc   H    C    O 
     1     1   126     2
Direct
  0.4419059723124438  0.5039818250513679  0.4466529432999679
  0.5469208442310938  0.5659312720605579  0.5221049613324792
  0.0417962802289892  0.0833858735721964  0.3996084819457890
  0.0416791543854207  0.2082929931078491  0.3994137452464127
  0.0417867773155746  0.3332737718442189  0.3992203253919741
  0.0419105706625477  0.4584394781244716  0.3993529614126645
  0.0418517139623827  0.5834045557289911  0.3997347097084302
  0.0418703348278100  0.7084019420392349  0.3999460018722933
  0.0419571867430022  0.8335084453504508  0.3999216319379968
  0.0419424040827651  0.9584801539040061  0.3997887211736979
  0.1667798184492142  0.0833847644073281  0.3998961423981430
  0.1666072557162171  0.2080684789929302  0.4002105324133652
  0.1667421286715338  0.3332168746426017  0.4000832961980978
  0.1668435884232091  0.4582845212237100  0.3991356320835241
  0.1668921040188212  0.5833594935767963  0.3991216002093722
  0.1668492406740645  0.7084905039510297  0.3996036201102833
  0.1668695011568622  0.8334869974330092  0.3999044490592562
  0.1669007233599913  0.9585141426727586  0.3998357573988462
  0.2918906418269389  0.0833525269358465  0.3998453160909435
  0.2919722994166579  0.2085282441788946  0.4013769858144519
  0.2917484717081280  0.3333736923672232  0.4041377213170436
  0.2922578627144763  0.4574354488617930  0.4024444575270698
  0.2919865732372561  0.5838226998422461  0.3997418177936555
  0.2917600844023215  0.7086529841551691  0.3992357121061090
  0.2918325115969176  0.8335252585395342  0.3995999028302198
  0.2918235216757479  0.9584268577043444  0.3997356739705675
  0.4168649641348250  0.0833013479779867  0.3995963302382994
  0.4167721810325054  0.2079483357246641  0.4001060087162690
  0.4171544825847497  0.3331737771416151  0.4034627896794685
  0.4167391529163450  0.5857819926018761  0.4049352272338773
  0.4169552923336527  0.7090392589037255  0.4002944228674654
  0.4168473438314752  0.8337445204638914  0.3995136862394362
  0.4168191694292195  0.9584860155187673  0.3996482251437240
  0.5418399695366521  0.0833755758714831  0.3997562326649880
  0.5418815577472561  0.2082333413019051  0.3994443471303399
  0.5417771965968369  0.3331617573686588  0.3996556852236444
  0.5406418808700447  0.4574657802075046  0.4010453191685288
  0.5450549057495542  0.5859880388376628  0.4043686790466786
  0.5425389677155145  0.7095700172931346  0.4020713496220784
  0.5418575730597834  0.8338012869823966  0.4000457877112459
  0.5418797611041422  0.9585646976406698  0.3998040356462805
  0.6668482649978206  0.0834325343061756  0.3999751757568733
  0.6668884245473666  0.2083659711912523  0.3997449372610223
  0.6667396234932877  0.3332154041840110  0.3992095079119338
  0.6666937059266508  0.4582546952920347  0.3987267999882296
  0.6671164782528881  0.5837999139228185  0.3989143056666284
  0.6675785226855238  0.7091684060622764  0.3999201756270659
  0.6673053139022856  0.8338399920349184  0.3999877616890365
  0.6669624967036548  0.9586252812944823  0.3999258722870613
  0.7919182575188196  0.0834648286904456  0.3999381349110189
  0.7918531682735989  0.2083726832119001  0.3999338557745800
  0.7918787972227597  0.3333993115495102  0.3997425530119912
  0.7918077932284810  0.4584181997757354  0.3994020347413163
  0.7917300408554228  0.5833677355930112  0.3990138285470572
  0.7922220820034808  0.7087012833441088  0.3991170590194894
  0.7922872701018318  0.8338420621578084  0.3995106704514974
  0.7920201322935740  0.9586118889197494  0.3997889325652451
  0.9168779724238084  0.0834390426284803  0.3996875078657294
  0.9168270405171355  0.2084243328734006  0.3997008394159904
  0.9168446159916265  0.3334204517026568  0.3996979549221091
  0.9168400412466919  0.4583563821704966  0.3997773871347050
  0.9168635224575583  0.5834100938369413  0.3997630341995960
  0.9169643191992500  0.7085166193231032  0.3996663756949376
  0.9170362581803925  0.8335795513501986  0.3996782254127805
  0.9170439330009185  0.9585671724461532  0.3996995506158952
  0.0834834266089874  0.0417244049134606  0.3997305883029343
  0.0832908805226195  0.1665311459946998  0.3995559156539509
  0.0832424147248651  0.2915525981951176  0.3993248927517410
  0.0836453548067832  0.4168112605467723  0.3990948336707928
  0.0835322507073187  0.5417139345039694  0.3994034348058126
  0.0835114947539039  0.6667697952879293  0.3997994099538361
  0.0836014434800240  0.7918593551709312  0.3999624612650849
  0.0835485289981470  0.9168188181754650  0.3998638624028068
  0.2084901346951144  0.0416899381655912  0.3998495844582107
  0.2082632941232811  0.1665635916819319  0.4004655514843563
  0.2081897030025255  0.2913616618599407  0.4011396592902062
  0.2083393154115871  0.4164135241486873  0.4000701746031924
  0.2086139304792980  0.5418747014938207  0.3991071912711511
  0.2085837789148175  0.6669076926314914  0.3992529073903246
  0.2084962229213267  0.7918006934565778  0.3997345638022354
  0.2085700407061469  0.9167992175656930  0.3998566518910267
  0.3335173022098447  0.0416767924096419  0.3996809408494988
  0.3336182969057884  0.1665228967057420  0.4003662944266290
  0.3332711207766351  0.2909986094730531  0.4036505055324335
  0.3315111762143404  0.4150902404583505  0.4070535866547931
  0.3349369919876528  0.5428814005999378  0.4018095984310862
  0.3336196519350821  0.6670309195908262  0.3996332477676031
  0.3334768408513124  0.7919322680639059  0.3994061932768274
  0.3335355444640751  0.9168068323884943  0.3996638598220039
  0.4585645460830829  0.0417052186487714  0.3996568455355461
  0.4585364677237618  0.1664462313949661  0.3995576446010584
  0.4585577231752934  0.2912133052588309  0.4007307868236513
  0.4595405612978479  0.4147804738973240  0.4056291426391042
  0.4586544505956837  0.6672420047592784  0.4023665720358475
  0.4586736914701572  0.7922880810325366  0.3998137517748555
  0.4585116269697600  0.9168889233110727  0.3996430550946370
  0.5835714195906831  0.0417892580704570  0.3998855622739291
  0.5835403753083449  0.1666518628038280  0.3996337553105065
  0.5835802170436448  0.2914970115072176  0.3992396245056835
  0.5834007735669449  0.4163804803411368  0.3993051288176830
  0.5833456978262285  0.5428584373588544  0.4005205135951844
  0.5842545467378496  0.6674133510745192  0.4020025797320723
  0.5836533562024027  0.7919126240966662  0.4005513890923845
  0.5835385567239614  0.9169299155281543  0.3998631374881651
  0.7085473526943586  0.0417718954955071  0.3999777756082069
  0.7085581510127399  0.1667286587329135  0.3999334440241157
  0.7085127917761901  0.2916689570425202  0.3995864625410956
  0.7084149961115970  0.4167607491828747  0.3990285211896176
  0.7085146748985756  0.5418521742804454  0.3986595392186054
  0.7087656676492127  0.6670626195709493  0.3991829281804770
  0.7090347386761088  0.7923969936338884  0.3997041790914336
  0.7087119463336901  0.9169580071229895  0.3998633993297562
  0.8335569356863477  0.0418313618891364  0.3998310740282086
  0.8335236493095172  0.1667608635149745  0.3999134964376285
  0.8335663701762565  0.2918161024651091  0.3998507118448658
  0.8335297938393484  0.4167632624975603  0.3996965831452256
  0.8334633615461563  0.5417195037260273  0.3994273060357227
  0.8336328552643230  0.6669361358377961  0.3992064792175746
  0.8337989280261359  0.7920024847942396  0.3994331161528755
  0.8337437643713745  0.9169724090549495  0.3996855710091544
  0.9585099742136045  0.0417884374798497  0.3996469110419680
  0.9584484434858913  0.1667042233361610  0.3995695489024819
  0.9584724693463367  0.2917108786494809  0.3995215325085958
  0.9585455822899334  0.4167747772634782  0.3996427156204426
  0.9585652986167266  0.5418169894986770  0.3998222229336308
  0.9585781459630982  0.6667814471640453  0.3998404875855641
  0.9586432757979049  0.7918437550217335  0.3997918025492824
  0.9586251111870326  0.9168789479812917  0.3997424082515536
  0.5068303336513581  0.5142075905165969  0.5109106241854132
  0.4344911980912753  0.5202819197149845  0.5126820528408904
 
  0.00000000E+00  0.00000000E+00  0.00000000E+00
  0.00000000E+00  0.00000000E+00  0.00000000E+00
  0.00000000E+00  0.00000000E+00  0.00000000E+00
  0.00000000E+00  0.00000000E+00  0.00000000E+00
  0.00000000E+00  0.00000000E+00  0.00000000E+00
  0.00000000E+00  0.00000000E+00  0.00000000E+00
  0.00000000E+00  0.00000000E+00  0.00000000E+00
  0.00000000E+00  0.00000000E+00  0.00000000E+00
  0.00000000E+00  0.00000000E+00  0.00000000E+00
  0.00000000E+00  0.00000000E+00  0.00000000E+00
  0.00000000E+00  0.00000000E+00  0.00000000E+00
  0.00000000E+00  0.00000000E+00  0.00000000E+00
  0.00000000E+00  0.00000000E+00  0.00000000E+00
  0.00000000E+00  0.00000000E+00  0.00000000E+00
  0.00000000E+00  0.00000000E+00  0.00000000E+00
  0.00000000E+00  0.00000000E+00  0.00000000E+00
  0.00000000E+00  0.00000000E+00  0.00000000E+00
  0.00000000E+00  0.00000000E+00  0.00000000E+00
  0.00000000E+00  0.00000000E+00  0.00000000E+00
  0.00000000E+00  0.00000000E+00  0.00000000E+00
  0.00000000E+00  0.00000000E+00  0.00000000E+00
  0.00000000E+00  0.00000000E+00  0.00000000E+00
  0.00000000E+00  0.00000000E+00  0.00000000E+00
  0.00000000E+00  0.00000000E+00  0.00000000E+00
  0.00000000E+00  0.00000000E+00  0.00000000E+00
  0.00000000E+00  0.00000000E+00  0.00000000E+00
  0.00000000E+00  0.00000000E+00  0.00000000E+00
  0.00000000E+00  0.00000000E+00  0.00000000E+00
  0.00000000E+00  0.00000000E+00  0.00000000E+00
  0.00000000E+00  0.00000000E+00  0.00000000E+00
  0.00000000E+00  0.00000000E+00  0.00000000E+00
  0.00000000E+00  0.00000000E+00  0.00000000E+00
  0.00000000E+00  0.00000000E+00  0.00000000E+00
  0.00000000E+00  0.00000000E+00  0.00000000E+00
  0.00000000E+00  0.00000000E+00  0.00000000E+00
  0.00000000E+00  0.00000000E+00  0.00000000E+00
  0.00000000E+00  0.00000000E+00  0.00000000E+00
  0.00000000E+00  0.00000000E+00  0.00000000E+00
  0.00000000E+00  0.00000000E+00  0.00000000E+00
  0.00000000E+00  0.00000000E+00  0.00000000E+00
  0.00000000E+00  0.00000000E+00  0.00000000E+00
  0.00000000E+00  0.00000000E+00  0.00000000E+00
  0.00000000E+00  0.00000000E+00  0.00000000E+00
  0.00000000E+00  0.00000000E+00  0.00000000E+00
  0.00000000E+00  0.00000000E+00  0.00000000E+00
  0.00000000E+00  0.00000000E+00  0.00000000E+00
  0.00000000E+00  0.00000000E+00  0.00000000E+00
  0.00000000E+00  0.00000000E+00  0.00000000E+00
  0.00000000E+00  0.00000000E+00  0.00000000E+00
  0.00000000E+00  0.00000000E+00  0.00000000E+00
  0.00000000E+00  0.00000000E+00  0.00000000E+00
  0.00000000E+00  0.00000000E+00  0.00000000E+00
  0.00000000E+00  0.00000000E+00  0.00000000E+00
  0.00000000E+00  0.00000000E+00  0.00000000E+00
  0.00000000E+00  0.00000000E+00  0.00000000E+00
  0.00000000E+00  0.00000000E+00  0.00000000E+00
  0.00000000E+00  0.00000000E+00  0.00000000E+00
  0.00000000E+00  0.00000000E+00  0.00000000E+00
  0.00000000E+00  0.00000000E+00  0.00000000E+00
  0.00000000E+00  0.00000000E+00  0.00000000E+00
  0.00000000E+00  0.00000000E+00  0.00000000E+00
  0.00000000E+00  0.00000000E+00  0.00000000E+00
  0.00000000E+00  0.00000000E+00  0.00000000E+00
  0.00000000E+00  0.00000000E+00  0.00000000E+00
  0.00000000E+00  0.00000000E+00  0.00000000E+00
  0.00000000E+00  0.00000000E+00  0.00000000E+00
  0.00000000E+00  0.00000000E+00  0.00000000E+00
  0.00000000E+00  0.00000000E+00  0.00000000E+00
  0.00000000E+00  0.00000000E+00  0.00000000E+00
  0.00000000E+00  0.00000000E+00  0.00000000E+00
  0.00000000E+00  0.00000000E+00  0.00000000E+00
  0.00000000E+00  0.00000000E+00  0.00000000E+00
  0.00000000E+00  0.00000000E+00  0.00000000E+00
  0.00000000E+00  0.00000000E+00  0.00000000E+00
  0.00000000E+00  0.00000000E+00  0.00000000E+00
  0.00000000E+00  0.00000000E+00  0.00000000E+00
  0.00000000E+00  0.00000000E+00  0.00000000E+00
  0.00000000E+00  0.00000000E+00  0.00000000E+00
  0.00000000E+00  0.00000000E+00  0.00000000E+00
  0.00000000E+00  0.00000000E+00  0.00000000E+00
  0.00000000E+00  0.00000000E+00  0.00000000E+00
  0.00000000E+00  0.00000000E+00  0.00000000E+00
  0.00000000E+00  0.00000000E+00  0.00000000E+00
  0.00000000E+00  0.00000000E+00  0.00000000E+00
  0.00000000E+00  0.00000000E+00  0.00000000E+00
  0.00000000E+00  0.00000000E+00  0.00000000E+00
  0.00000000E+00  0.00000000E+00  0.00000000E+00
  0.00000000E+00  0.00000000E+00  0.00000000E+00
  0.00000000E+00  0.00000000E+00  0.00000000E+00
  0.00000000E+00  0.00000000E+00  0.00000000E+00
  0.00000000E+00  0.00000000E+00  0.00000000E+00
  0.00000000E+00  0.00000000E+00  0.00000000E+00
  0.00000000E+00  0.00000000E+00  0.00000000E+00
  0.00000000E+00  0.00000000E+00  0.00000000E+00
  0.00000000E+00  0.00000000E+00  0.00000000E+00
  0.00000000E+00  0.00000000E+00  0.00000000E+00
  0.00000000E+00  0.00000000E+00  0.00000000E+00
  0.00000000E+00  0.00000000E+00  0.00000000E+00
  0.00000000E+00  0.00000000E+00  0.00000000E+00
  0.00000000E+00  0.00000000E+00  0.00000000E+00
  0.00000000E+00  0.00000000E+00  0.00000000E+00
  0.00000000E+00  0.00000000E+00  0.00000000E+00
  0.00000000E+00  0.00000000E+00  0.00000000E+00
  0.00000000E+00  0.00000000E+00  0.00000000E+00
  0.00000000E+00  0.00000000E+00  0.00000000E+00
  0.00000000E+00  0.00000000E+00  0.00000000E+00
  0.00000000E+00  0.00000000E+00  0.00000000E+00
  0.00000000E+00  0.00000000E+00  0.00000000E+00
  0.00000000E+00  0.00000000E+00  0.00000000E+00
  0.00000000E+00  0.00000000E+00  0.00000000E+00
  0.00000000E+00  0.00000000E+00  0.00000000E+00
  0.00000000E+00  0.00000000E+00  0.00000000E+00
  0.00000000E+00  0.00000000E+00  0.00000000E+00
  0.00000000E+00  0.00000000E+00  0.00000000E+00
  0.00000000E+00  0.00000000E+00  0.00000000E+00
  0.00000000E+00  0.00000000E+00  0.00000000E+00
  0.00000000E+00  0.00000000E+00  0.00000000E+00
  0.00000000E+00  0.00000000E+00  0.00000000E+00
  0.00000000E+00  0.00000000E+00  0.00000000E+00
  0.00000000E+00  0.00000000E+00  0.00000000E+00
  0.00000000E+00  0.00000000E+00  0.00000000E+00
  0.00000000E+00  0.00000000E+00  0.00000000E+00
  0.00000000E+00  0.00000000E+00  0.00000000E+00
  0.00000000E+00  0.00000000E+00  0.00000000E+00
  0.00000000E+00  0.00000000E+00  0.00000000E+00
  0.00000000E+00  0.00000000E+00  0.00000000E+00
  0.00000000E+00  0.00000000E+00  0.00000000E+00
  0.00000000E+00  0.00000000E+00  0.00000000E+00
  0.00000000E+00  0.00000000E+00  0.00000000E+00
  0.00000000E+00  0.00000000E+00  0.00000000E+00
