Nb1 H1 C124 N2 O1                       
   1.00000000000000     
    19.7926340134613845   -0.0221609399075514   -0.0762352868279076
    -9.9156919974161006   17.0692573891296782   -0.0485075485703811
    -0.1148410679526117   -0.1513293866236894   29.8046527686190714
   Nb   H    C    N    O 
     1     1   124     2     1
Direct
  0.4451304209593839  0.5022876237122451  0.4316276520919298
  0.4856530623980172  0.5503391835799265  0.5179993296014243
  0.0424123586116307  0.0843322919249435  0.3994936504904298
  0.0419506281796197  0.2088418521803953  0.3995638671433008
  0.0412107826645894  0.3333610184538827  0.3998770806773029
  0.0408693366553975  0.4584317649251004  0.3995428697816002
  0.0412828740484003  0.5837582586475425  0.3994791409241524
  0.0417684669066205  0.7090191879647053  0.3997722508447036
  0.0420110549339812  0.8341672103654040  0.3998255193339570
  0.0422792334330839  0.9593682872201409  0.3996957807776331
  0.1679478153475447  0.0853050701881622  0.3995621682206847
  0.1681380204822730  0.2105287554499947  0.3995087442371205
  0.1668735063615126  0.3346008814286529  0.4007414884484247
  0.1651243151204097  0.4589101829972769  0.4012820605307857
  0.1654839882540687  0.5839004772384090  0.4001803551189547
  0.1662628848252866  0.7090221157797684  0.3997068512759772
  0.1667860002300414  0.8342310527067249  0.3997900596901572
  0.1672373698264316  0.9595875380635548  0.3996948269193922
  0.2923759837066472  0.0847199151079226  0.3995488830474258
  0.2938538200059218  0.2114037274228229  0.3998897501491402
  0.2944293136375196  0.3381244791804007  0.4015867068147948
  0.2899824051119883  0.4601344684242798  0.4038262240738233
  0.2895742994111191  0.5844618401937800  0.4020974736778594
  0.2907654116185806  0.7090489067433140  0.4001449289751160
  0.2915328095295158  0.8340211188997854  0.3996623545099781
  0.2919395334145248  0.9592102767247064  0.3997355505987074
  0.4170595935267891  0.0835940385238546  0.3995393281185782
  0.4174997214644461  0.2089996300381116  0.3993742888594910
  0.4196694311095108  0.3354230100257001  0.4003338176114407
  0.4150945145812822  0.7072061643182352  0.4002594107100282
  0.4161732348929722  0.8328751653036389  0.3994495458664295
  0.4166677746651945  0.9582822376846764  0.3996613291420807
  0.5417564244280637  0.0826660755471099  0.3997298797253855
  0.5421656079405558  0.2077070839884015  0.3997774552752025
  0.5431850996735398  0.3325236633182227  0.4006855346605735
  0.5439987886016481  0.4558863164867634  0.4008705412248520
  0.5426215895298111  0.5810945312290841  0.3974385252414126
  0.5387284354324891  0.7047277082987400  0.3994232371260417
  0.5406987698220114  0.8317475982691107  0.3994778500585104
  0.5413618736593067  0.9573669270613956  0.3996167166979437
  0.6664910737840307  0.0823644069059945  0.3997925457390636
  0.6668912902308544  0.2075537983691886  0.3998433627629596
  0.6675732685053933  0.3327720103139675  0.4004681078305536
  0.6685581793733998  0.4579548799942086  0.4015957994601315
  0.6680125416448540  0.5824030656019588  0.4008258087161559
  0.6657171564765186  0.7067288826836156  0.3980357568027533
  0.6650632988400778  0.8313039111237984  0.3989906441553655
  0.6660323822697142  0.9570635746815793  0.3996428636836822
  0.7913574873301423  0.0824744865723599  0.3998259192159596
  0.7916036946206771  0.2076210920740212  0.3998021110234812
  0.7919802669594678  0.3328473339206673  0.3998495162914871
  0.7925262036048111  0.4581625233324741  0.4003017591324610
  0.7927545511336979  0.5834424533978411  0.4007349470222230
  0.7917849704017800  0.7080225534886886  0.3999681719542859
  0.7911362848216711  0.8325430699011674  0.3994483322345776
  0.7909699118062776  0.9572530794611768  0.3996362991343216
  0.9165898021572403  0.0830401017493709  0.3996628700365871
  0.9164769755337623  0.2078634845293704  0.3996363169102967
  0.9164547978975562  0.3329778440379344  0.3995458259261096
  0.9166919719856138  0.4583104255925396  0.3995349534360141
  0.9170339549010101  0.5835999576206966  0.3998589412624507
  0.9170537357537891  0.7087572626835267  0.4000706046588417
  0.9168738431494432  0.8336583529763478  0.3998774434044833
  0.9167428849607865  0.9584282123434219  0.3997739523141113
  0.0843207941525126  0.0430361239906250  0.3995466164552208
  0.0843801486948256  0.1679763211108840  0.3994278597990369
  0.0833274693201742  0.2922071618905432  0.3999834008360653
  0.0822143544570460  0.4167964902608277  0.4000952822294290
  0.0824321876799148  0.5419667772407540  0.3995986822385678
  0.0830343536831265  0.6672209090902715  0.3996325366042120
  0.0835246841876352  0.7924668173916692  0.3998306509938669
  0.0838398650200847  0.9176798635493256  0.3997153199647119
  0.2091438725374059  0.0431167144224413  0.3996365347952498
  0.2100869784170888  0.1690473781641612  0.3996369105988712
  0.2099819182929174  0.2942676553304192  0.4001953353399895
  0.2069673949035672  0.4179186915134919  0.4021167977521817
  0.2064523222462599  0.5421418364025367  0.4012652893048815
  0.2074763812792950  0.6673177287592491  0.4000163445331933
  0.2082373492404452  0.7925381364232247  0.3997181560995500
  0.2086577054778651  0.9177351608751448  0.3997675954974915
  0.3337467271719857  0.0426536591623719  0.3995955525000198
  0.3343453826438804  0.1683462311052429  0.3995007411763423
  0.3363242893649027  0.2955503402674168  0.4007106798072307
  0.3333067636697820  0.4209126271625407  0.4046597609412781
  0.3309676601640624  0.5440578244019492  0.4039802703267923
  0.3319347051689301  0.6674628751779774  0.4009205424943685
  0.3329316416712275  0.7922406958436758  0.3996573100314690
  0.3334307820548006  0.9173652419045536  0.3997014140897873
  0.4585111622430612  0.0416511255865599  0.3996784843309133
  0.4589508882684923  0.1669386833070810  0.3994849449157266
  0.4598503360883180  0.2923266503123320  0.3997057711285670
  0.4550203926412278  0.6635453565241505  0.4014681596167609
  0.4575244134469705  0.7907226541851542  0.3994320296893415
  0.4580827998945411  0.9162838494602752  0.3995313755599060
  0.5832277333603724  0.0408401632909726  0.3997451060429321
  0.5836071463396788  0.1660009371738922  0.3997589541853479
  0.5843084645870718  0.2909947443016226  0.4003538241701673
  0.5856735294505079  0.4155910345066343  0.4016750594430796
  0.5845519546815554  0.5399376497469307  0.3994912835245267
  0.5815534037464786  0.6635561984412685  0.3975139268788755
  0.5812360630931548  0.7888555572836251  0.3992188190995161
  0.5827339501899417  0.9153756721442446  0.3995795817079255
  0.7079560005422557  0.0405712119340257  0.3997877841069422
  0.7083446444774717  0.1658745698880907  0.3998177330686122
  0.7088039089772028  0.2910495001377743  0.4000238156468793
  0.7095152598915645  0.4161891431780076  0.4008331087533098
  0.7097747419554340  0.5413851050362850  0.4014468978013379
  0.7082899622325959  0.6657298166088754  0.3994850168719504
  0.7073755189414435  0.7901563596464332  0.3987702916766189
  0.7072689401206239  0.9149950757992485  0.3994492231898820
  0.8330144662282400  0.0408556366988439  0.3997680575264899
  0.8331361780283867  0.1659461343935153  0.3997770939238919
  0.8332805963694488  0.2910568244693746  0.3996982880204560
  0.8336568217527865  0.4163713946109397  0.3998558828807644
  0.8340131035920796  0.5416902593154416  0.4003007544949898
  0.8338261325638331  0.6668022238955515  0.4003672703236685
  0.8333111066168787  0.7914534924028812  0.3997376788960382
  0.8330769808663318  0.9161126107582233  0.3996672776337837
  0.9587163079798063  0.0419499710145995  0.3996518303780793
  0.9583901480015832  0.1665582196710848  0.3995726355408550
  0.9580432039983259  0.2913816516148703  0.3995981835795058
  0.9578507600159186  0.4164505387304852  0.3994146294902376
  0.9582106066141315  0.5417712824503610  0.3995500513869968
  0.9585597822901589  0.6671208728942793  0.3998957695786438
  0.9586938100994331  0.7922506659370306  0.3999166945299531
  0.9587404743790232  0.9171802116374803  0.3998044227784280
  0.4117052851494909  0.5827495038308814  0.4056317213866968
  0.4631168632142413  0.4163417998052832  0.4018220198058618
  0.4472863424258826  0.5136579869612576  0.4965870806446080
 
  0.00000000E+00  0.00000000E+00  0.00000000E+00
  0.00000000E+00  0.00000000E+00  0.00000000E+00
  0.00000000E+00  0.00000000E+00  0.00000000E+00
  0.00000000E+00  0.00000000E+00  0.00000000E+00
  0.00000000E+00  0.00000000E+00  0.00000000E+00
  0.00000000E+00  0.00000000E+00  0.00000000E+00
  0.00000000E+00  0.00000000E+00  0.00000000E+00
  0.00000000E+00  0.00000000E+00  0.00000000E+00
  0.00000000E+00  0.00000000E+00  0.00000000E+00
  0.00000000E+00  0.00000000E+00  0.00000000E+00
  0.00000000E+00  0.00000000E+00  0.00000000E+00
  0.00000000E+00  0.00000000E+00  0.00000000E+00
  0.00000000E+00  0.00000000E+00  0.00000000E+00
  0.00000000E+00  0.00000000E+00  0.00000000E+00
  0.00000000E+00  0.00000000E+00  0.00000000E+00
  0.00000000E+00  0.00000000E+00  0.00000000E+00
  0.00000000E+00  0.00000000E+00  0.00000000E+00
  0.00000000E+00  0.00000000E+00  0.00000000E+00
  0.00000000E+00  0.00000000E+00  0.00000000E+00
  0.00000000E+00  0.00000000E+00  0.00000000E+00
  0.00000000E+00  0.00000000E+00  0.00000000E+00
  0.00000000E+00  0.00000000E+00  0.00000000E+00
  0.00000000E+00  0.00000000E+00  0.00000000E+00
  0.00000000E+00  0.00000000E+00  0.00000000E+00
  0.00000000E+00  0.00000000E+00  0.00000000E+00
  0.00000000E+00  0.00000000E+00  0.00000000E+00
  0.00000000E+00  0.00000000E+00  0.00000000E+00
  0.00000000E+00  0.00000000E+00  0.00000000E+00
  0.00000000E+00  0.00000000E+00  0.00000000E+00
  0.00000000E+00  0.00000000E+00  0.00000000E+00
  0.00000000E+00  0.00000000E+00  0.00000000E+00
  0.00000000E+00  0.00000000E+00  0.00000000E+00
  0.00000000E+00  0.00000000E+00  0.00000000E+00
  0.00000000E+00  0.00000000E+00  0.00000000E+00
  0.00000000E+00  0.00000000E+00  0.00000000E+00
  0.00000000E+00  0.00000000E+00  0.00000000E+00
  0.00000000E+00  0.00000000E+00  0.00000000E+00
  0.00000000E+00  0.00000000E+00  0.00000000E+00
  0.00000000E+00  0.00000000E+00  0.00000000E+00
  0.00000000E+00  0.00000000E+00  0.00000000E+00
  0.00000000E+00  0.00000000E+00  0.00000000E+00
  0.00000000E+00  0.00000000E+00  0.00000000E+00
  0.00000000E+00  0.00000000E+00  0.00000000E+00
  0.00000000E+00  0.00000000E+00  0.00000000E+00
  0.00000000E+00  0.00000000E+00  0.00000000E+00
  0.00000000E+00  0.00000000E+00  0.00000000E+00
  0.00000000E+00  0.00000000E+00  0.00000000E+00
  0.00000000E+00  0.00000000E+00  0.00000000E+00
  0.00000000E+00  0.00000000E+00  0.00000000E+00
  0.00000000E+00  0.00000000E+00  0.00000000E+00
  0.00000000E+00  0.00000000E+00  0.00000000E+00
  0.00000000E+00  0.00000000E+00  0.00000000E+00
  0.00000000E+00  0.00000000E+00  0.00000000E+00
  0.00000000E+00  0.00000000E+00  0.00000000E+00
  0.00000000E+00  0.00000000E+00  0.00000000E+00
  0.00000000E+00  0.00000000E+00  0.00000000E+00
  0.00000000E+00  0.00000000E+00  0.00000000E+00
  0.00000000E+00  0.00000000E+00  0.00000000E+00
  0.00000000E+00  0.00000000E+00  0.00000000E+00
  0.00000000E+00  0.00000000E+00  0.00000000E+00
  0.00000000E+00  0.00000000E+00  0.00000000E+00
  0.00000000E+00  0.00000000E+00  0.00000000E+00
  0.00000000E+00  0.00000000E+00  0.00000000E+00
  0.00000000E+00  0.00000000E+00  0.00000000E+00
  0.00000000E+00  0.00000000E+00  0.00000000E+00
  0.00000000E+00  0.00000000E+00  0.00000000E+00
  0.00000000E+00  0.00000000E+00  0.00000000E+00
  0.00000000E+00  0.00000000E+00  0.00000000E+00
  0.00000000E+00  0.00000000E+00  0.00000000E+00
  0.00000000E+00  0.00000000E+00  0.00000000E+00
  0.00000000E+00  0.00000000E+00  0.00000000E+00
  0.00000000E+00  0.00000000E+00  0.00000000E+00
  0.00000000E+00  0.00000000E+00  0.00000000E+00
  0.00000000E+00  0.00000000E+00  0.00000000E+00
  0.00000000E+00  0.00000000E+00  0.00000000E+00
  0.00000000E+00  0.00000000E+00  0.00000000E+00
  0.00000000E+00  0.00000000E+00  0.00000000E+00
  0.00000000E+00  0.00000000E+00  0.00000000E+00
  0.00000000E+00  0.00000000E+00  0.00000000E+00
  0.00000000E+00  0.00000000E+00  0.00000000E+00
  0.00000000E+00  0.00000000E+00  0.00000000E+00
  0.00000000E+00  0.00000000E+00  0.00000000E+00
  0.00000000E+00  0.00000000E+00  0.00000000E+00
  0.00000000E+00  0.00000000E+00  0.00000000E+00
  0.00000000E+00  0.00000000E+00  0.00000000E+00
  0.00000000E+00  0.00000000E+00  0.00000000E+00
  0.00000000E+00  0.00000000E+00  0.00000000E+00
  0.00000000E+00  0.00000000E+00  0.00000000E+00
  0.00000000E+00  0.00000000E+00  0.00000000E+00
  0.00000000E+00  0.00000000E+00  0.00000000E+00
  0.00000000E+00  0.00000000E+00  0.00000000E+00
  0.00000000E+00  0.00000000E+00  0.00000000E+00
  0.00000000E+00  0.00000000E+00  0.00000000E+00
  0.00000000E+00  0.00000000E+00  0.00000000E+00
  0.00000000E+00  0.00000000E+00  0.00000000E+00
  0.00000000E+00  0.00000000E+00  0.00000000E+00
  0.00000000E+00  0.00000000E+00  0.00000000E+00
  0.00000000E+00  0.00000000E+00  0.00000000E+00
  0.00000000E+00  0.00000000E+00  0.00000000E+00
  0.00000000E+00  0.00000000E+00  0.00000000E+00
  0.00000000E+00  0.00000000E+00  0.00000000E+00
  0.00000000E+00  0.00000000E+00  0.00000000E+00
  0.00000000E+00  0.00000000E+00  0.00000000E+00
  0.00000000E+00  0.00000000E+00  0.00000000E+00
  0.00000000E+00  0.00000000E+00  0.00000000E+00
  0.00000000E+00  0.00000000E+00  0.00000000E+00
  0.00000000E+00  0.00000000E+00  0.00000000E+00
  0.00000000E+00  0.00000000E+00  0.00000000E+00
  0.00000000E+00  0.00000000E+00  0.00000000E+00
  0.00000000E+00  0.00000000E+00  0.00000000E+00
  0.00000000E+00  0.00000000E+00  0.00000000E+00
  0.00000000E+00  0.00000000E+00  0.00000000E+00
  0.00000000E+00  0.00000000E+00  0.00000000E+00
  0.00000000E+00  0.00000000E+00  0.00000000E+00
  0.00000000E+00  0.00000000E+00  0.00000000E+00
  0.00000000E+00  0.00000000E+00  0.00000000E+00
  0.00000000E+00  0.00000000E+00  0.00000000E+00
  0.00000000E+00  0.00000000E+00  0.00000000E+00
  0.00000000E+00  0.00000000E+00  0.00000000E+00
  0.00000000E+00  0.00000000E+00  0.00000000E+00
  0.00000000E+00  0.00000000E+00  0.00000000E+00
  0.00000000E+00  0.00000000E+00  0.00000000E+00
  0.00000000E+00  0.00000000E+00  0.00000000E+00
  0.00000000E+00  0.00000000E+00  0.00000000E+00
  0.00000000E+00  0.00000000E+00  0.00000000E+00
  0.00000000E+00  0.00000000E+00  0.00000000E+00
  0.00000000E+00  0.00000000E+00  0.00000000E+00
  0.00000000E+00  0.00000000E+00  0.00000000E+00
  0.00000000E+00  0.00000000E+00  0.00000000E+00
