Y1 C122 N4                              
   1.00000000000000     
    19.8089903007189569   -0.0000129968572455    0.0028649557703062
    -9.9045065631075886   17.0498158892720539   -0.0014334738832122
     0.0043066160372570   -0.0000019920764359   29.7934103095097740
   Y    C    N 
     1   122     4
Direct
  0.4375542296457391  0.4999999340949098  0.4390820317752517
  0.0418976607165077  0.0839783455754009  0.3998481967302419
  0.0410648435269679  0.2081985638000728  0.3996551411741342
  0.0403921562009726  0.3330591391411448  0.3996997350238793
  0.0404753111214933  0.4582591975031918  0.3997608877432493
  0.0413056291290054  0.5836768934452035  0.3999843940752304
  0.0420467438397701  0.7090760400343351  0.4000951356386400
  0.0422331609665747  0.8342143795535849  0.4001088255995632
  0.0423719516331855  0.9594057566989511  0.4000175606400957
  0.1678105702300298  0.0852660756516729  0.3998584757923782
  0.1672874848827954  0.2098419077125771  0.3994253461253275
  0.1651316448227971  0.3336918650288641  0.3996562018025981
  0.1643180146283221  0.4584093375723057  0.3995161788129118
  0.1652069450729284  0.5837220939814804  0.3995698159975095
  0.1663113653286624  0.7089112154294406  0.3998983153251390
  0.1669501072855101  0.8342046742451736  0.4000689856014366
  0.1673267041667992  0.9596701529329542  0.4000315302421757
  0.2924232913207794  0.0852542170957909  0.3998157713570958
  0.2936080040054515  0.2122635452456068  0.4001489523473900
  0.2918287308798277  0.3374149905681067  0.4012689644612233
  0.2881240575142590  0.4580635622566847  0.4014186413102778
  0.2886651925666218  0.5830645297861935  0.3999314134280208
  0.2906587435915778  0.7082784849969048  0.3995977221986861
  0.2916277758048298  0.8337983135144807  0.3998567090886022
  0.2920178370710948  0.9593908470622943  0.3999631721759074
  0.4170594511336188  0.0839591183505457  0.3998229987844664
  0.4175149558425547  0.2098277331713865  0.3994224862335272
  0.4205751597783717  0.3374088702003894  0.4012396850328040
  0.4151220282726459  0.7067539053602229  0.3995695098782229
  0.4161586875870509  0.8325492988488292  0.3995780697669294
  0.4166159171581445  0.9581924311716074  0.3999816165608914
  0.5415790621861122  0.0827114369005690  0.4000006583307535
  0.5421178154706612  0.2081866423975581  0.3996819633307174
  0.5435749789803389  0.3336817615107319  0.3996528234270291
  0.5449698605863826  0.4580559349503922  0.4013572565474407
  0.5389272718831840  0.7028696212616684  0.4012339872649014
  0.5407139209427335  0.8308206767756898  0.3997762455898048
  0.5412725542983068  0.9570066504810130  0.3999110906004968
  0.6662009409932952  0.0821755062971978  0.4000663124635535
  0.6667624389761747  0.2076221302409705  0.4000118821896900
  0.6676799297838840  0.3330667711220583  0.3997275139800223
  0.6691312507914061  0.4584184282130637  0.3994912876661612
  0.6694547986198776  0.5830769347601180  0.3998956843169427
  0.6666409136346044  0.7067634394802899  0.3995621545872440
  0.6650769506158367  0.8308374237571678  0.3997588912152083
  0.6658322235146681  0.9566822982891839  0.3999411469192427
  0.7909594992864500  0.0821865154477766  0.4000431119737273
  0.7912357406815406  0.2074932550021941  0.4001247238300219
  0.7918088669909028  0.3328302869218960  0.4000176406778908
  0.7927933481839267  0.4582688245621916  0.3997466879859560
  0.7935267942821281  0.5837078706427745  0.3995679270244653
  0.7926479276337455  0.7082891881769252  0.3996210750487295
  0.7913865619587559  0.8325573657280020  0.3995749965603060
  0.7907155243152120  0.9570169627354950  0.3998527313009103
  0.9161394509235007  0.0827357219094349  0.3999452908112786
  0.9158484204935460  0.2076374967738573  0.3999555457336774
  0.9160417401986732  0.3328308229701628  0.4000112297831506
  0.9166524986027610  0.4582837806254147  0.4000492818628013
  0.9173724264537378  0.5836703044822794  0.3999697831332175
  0.9176083053911718  0.7089148739293315  0.3999426857897259
  0.9171718854791405  0.8338182380276901  0.3999139693354635
  0.9165832741922236  0.9582141764216164  0.3999897727030038
  0.0842655441361648  0.0429935645236574  0.3999101492286147
  0.0836086473226302  0.1674505437265241  0.3995772596071375
  0.0823799569088773  0.2917212693761150  0.3995986139409561
  0.0814883799148748  0.4162787847856479  0.3995695310115221
  0.0822189638069957  0.5417417178405981  0.3997614299246393
  0.0832132062724079  0.6671699267952180  0.4000122243793953
  0.0837440530446193  0.7925074560592443  0.4001252383412520
  0.0840261908645211  0.9178252194366616  0.4000657068575949
  0.2091502472590825  0.0433182657976931  0.3999404164849356
  0.2098924904603242  0.1691787312330622  0.3997758222704414
  0.2083674107778015  0.2932458705018430  0.3995693291246563
  0.2055997958576013  0.4169349517027480  0.3999317481429943
  0.2059095398182042  0.5415902402681424  0.3995160851825105
  0.2073349394944440  0.6669408130277545  0.3996990149817694
  0.2082125168897048  0.7923626461255259  0.3999555582599482
  0.2087740756688825  0.9178142784059904  0.4000421089385646
  0.3336986959173944  0.0429824874242784  0.3998524517787360
  0.3342396787224427  0.1691625999940813  0.3997587805072817
  0.3360572985634894  0.2971303787821856  0.4012339380217160
  0.3300600623280270  0.5419358307311294  0.4014184169802170
  0.3314401509470674  0.6663079208238477  0.3996556947701572
  0.3328683521156292  0.7918034113900773  0.3996550956417197
  0.3334050517533163  0.9172643069452465  0.3999455484081186
  0.4583692217329055  0.0417846876000110  0.3999899187332940
  0.4588288090782349  0.1674414749974124  0.3995750099708276
  0.4598771916390358  0.2932362875601855  0.3995631975976912
  0.4544137534607190  0.6625851134694950  0.4012694372984605
  0.4574461547535524  0.7901580638800988  0.3994260498129340
  0.4579201082406431  0.9160215101272792  0.3998493686745000
  0.5829660758513194  0.0405940812354807  0.4000178807814415
  0.5833528232485300  0.1661802591658131  0.3999139682598045
  0.5843577290804933  0.2917098688408069  0.3996210872680391
  0.5863762625710819  0.4169220714806166  0.3998962750844350
  0.5869134507179526  0.5419438835262039  0.4013569537660364
  0.5831663979729809  0.6625910125077267  0.4012389862797839
  0.5813450699156738  0.7877365698890260  0.4001492493846978
  0.5825451363673255  0.9147339524676700  0.3998591215207690
  0.7076565026420200  0.0403296787544903  0.4000323428417681
  0.7080185163707383  0.1657853603061570  0.4001088972444943
  0.7086927467760524  0.2910837854021887  0.3999420544349905
  0.7098179798960583  0.4162911028631561  0.3995674712994245
  0.7107118553301228  0.5415813963983441  0.3994914972150939
  0.7098930773183341  0.6663184723072563  0.3996522581437111
  0.7076874830798652  0.7901718968428809  0.3994218639921394
  0.7071694817642489  0.9147458213578215  0.3998161721183672
  0.8326271264888170  0.0406089293718484  0.3999637175045159
  0.8327451650074920  0.1657949890715333  0.4000695225347385
  0.8329714496777231  0.2909239540296986  0.4000938014914192
  0.8337027379321336  0.4163293309862197  0.3999694098160522
  0.8345251023167242  0.5417321917075127  0.3997468089773951
  0.8346132726173444  0.6669339676298900  0.3997283107705757
  0.8339316198865058  0.7918139720122315  0.3996821733233752
  0.8331009920367857  0.9160411991883425  0.3998231997357116
  0.9584238870125481  0.0418071240279353  0.3999808949290782
  0.9578289359175551  0.1662006626551666  0.3998563311535627
  0.9574009047836651  0.2910886628249804  0.3998985941291584
  0.9576307183622107  0.4163234571128424  0.3999837415488218
  0.9583706221401316  0.5417167187136650  0.4000491228692845
  0.9589798500099025  0.6671709321558749  0.4000184177794813
  0.9591412088705801  0.7923792643822439  0.4000120607456468
  0.9588680972948249  0.9172892137870512  0.4000009530588678
  0.4109430362957153  0.5822709231026701  0.4041618083761368
  0.5463492808648635  0.5822705303044983  0.4040920754348518
  0.3286718165219901  0.4177284365111147  0.4041615987134538
  0.4640785672403183  0.4177292129222873  0.4040924098929966
 
  0.00000000E+00  0.00000000E+00  0.00000000E+00
  0.00000000E+00  0.00000000E+00  0.00000000E+00
  0.00000000E+00  0.00000000E+00  0.00000000E+00
  0.00000000E+00  0.00000000E+00  0.00000000E+00
  0.00000000E+00  0.00000000E+00  0.00000000E+00
  0.00000000E+00  0.00000000E+00  0.00000000E+00
  0.00000000E+00  0.00000000E+00  0.00000000E+00
  0.00000000E+00  0.00000000E+00  0.00000000E+00
  0.00000000E+00  0.00000000E+00  0.00000000E+00
  0.00000000E+00  0.00000000E+00  0.00000000E+00
  0.00000000E+00  0.00000000E+00  0.00000000E+00
  0.00000000E+00  0.00000000E+00  0.00000000E+00
  0.00000000E+00  0.00000000E+00  0.00000000E+00
  0.00000000E+00  0.00000000E+00  0.00000000E+00
  0.00000000E+00  0.00000000E+00  0.00000000E+00
  0.00000000E+00  0.00000000E+00  0.00000000E+00
  0.00000000E+00  0.00000000E+00  0.00000000E+00
  0.00000000E+00  0.00000000E+00  0.00000000E+00
  0.00000000E+00  0.00000000E+00  0.00000000E+00
  0.00000000E+00  0.00000000E+00  0.00000000E+00
  0.00000000E+00  0.00000000E+00  0.00000000E+00
  0.00000000E+00  0.00000000E+00  0.00000000E+00
  0.00000000E+00  0.00000000E+00  0.00000000E+00
  0.00000000E+00  0.00000000E+00  0.00000000E+00
  0.00000000E+00  0.00000000E+00  0.00000000E+00
  0.00000000E+00  0.00000000E+00  0.00000000E+00
  0.00000000E+00  0.00000000E+00  0.00000000E+00
  0.00000000E+00  0.00000000E+00  0.00000000E+00
  0.00000000E+00  0.00000000E+00  0.00000000E+00
  0.00000000E+00  0.00000000E+00  0.00000000E+00
  0.00000000E+00  0.00000000E+00  0.00000000E+00
  0.00000000E+00  0.00000000E+00  0.00000000E+00
  0.00000000E+00  0.00000000E+00  0.00000000E+00
  0.00000000E+00  0.00000000E+00  0.00000000E+00
  0.00000000E+00  0.00000000E+00  0.00000000E+00
  0.00000000E+00  0.00000000E+00  0.00000000E+00
  0.00000000E+00  0.00000000E+00  0.00000000E+00
  0.00000000E+00  0.00000000E+00  0.00000000E+00
  0.00000000E+00  0.00000000E+00  0.00000000E+00
  0.00000000E+00  0.00000000E+00  0.00000000E+00
  0.00000000E+00  0.00000000E+00  0.00000000E+00
  0.00000000E+00  0.00000000E+00  0.00000000E+00
  0.00000000E+00  0.00000000E+00  0.00000000E+00
  0.00000000E+00  0.00000000E+00  0.00000000E+00
  0.00000000E+00  0.00000000E+00  0.00000000E+00
  0.00000000E+00  0.00000000E+00  0.00000000E+00
  0.00000000E+00  0.00000000E+00  0.00000000E+00
  0.00000000E+00  0.00000000E+00  0.00000000E+00
  0.00000000E+00  0.00000000E+00  0.00000000E+00
  0.00000000E+00  0.00000000E+00  0.00000000E+00
  0.00000000E+00  0.00000000E+00  0.00000000E+00
  0.00000000E+00  0.00000000E+00  0.00000000E+00
  0.00000000E+00  0.00000000E+00  0.00000000E+00
  0.00000000E+00  0.00000000E+00  0.00000000E+00
  0.00000000E+00  0.00000000E+00  0.00000000E+00
  0.00000000E+00  0.00000000E+00  0.00000000E+00
  0.00000000E+00  0.00000000E+00  0.00000000E+00
  0.00000000E+00  0.00000000E+00  0.00000000E+00
  0.00000000E+00  0.00000000E+00  0.00000000E+00
  0.00000000E+00  0.00000000E+00  0.00000000E+00
  0.00000000E+00  0.00000000E+00  0.00000000E+00
  0.00000000E+00  0.00000000E+00  0.00000000E+00
  0.00000000E+00  0.00000000E+00  0.00000000E+00
  0.00000000E+00  0.00000000E+00  0.00000000E+00
  0.00000000E+00  0.00000000E+00  0.00000000E+00
  0.00000000E+00  0.00000000E+00  0.00000000E+00
  0.00000000E+00  0.00000000E+00  0.00000000E+00
  0.00000000E+00  0.00000000E+00  0.00000000E+00
  0.00000000E+00  0.00000000E+00  0.00000000E+00
  0.00000000E+00  0.00000000E+00  0.00000000E+00
  0.00000000E+00  0.00000000E+00  0.00000000E+00
  0.00000000E+00  0.00000000E+00  0.00000000E+00
  0.00000000E+00  0.00000000E+00  0.00000000E+00
  0.00000000E+00  0.00000000E+00  0.00000000E+00
  0.00000000E+00  0.00000000E+00  0.00000000E+00
  0.00000000E+00  0.00000000E+00  0.00000000E+00
  0.00000000E+00  0.00000000E+00  0.00000000E+00
  0.00000000E+00  0.00000000E+00  0.00000000E+00
  0.00000000E+00  0.00000000E+00  0.00000000E+00
  0.00000000E+00  0.00000000E+00  0.00000000E+00
  0.00000000E+00  0.00000000E+00  0.00000000E+00
  0.00000000E+00  0.00000000E+00  0.00000000E+00
  0.00000000E+00  0.00000000E+00  0.00000000E+00
  0.00000000E+00  0.00000000E+00  0.00000000E+00
  0.00000000E+00  0.00000000E+00  0.00000000E+00
  0.00000000E+00  0.00000000E+00  0.00000000E+00
  0.00000000E+00  0.00000000E+00  0.00000000E+00
  0.00000000E+00  0.00000000E+00  0.00000000E+00
  0.00000000E+00  0.00000000E+00  0.00000000E+00
  0.00000000E+00  0.00000000E+00  0.00000000E+00
  0.00000000E+00  0.00000000E+00  0.00000000E+00
  0.00000000E+00  0.00000000E+00  0.00000000E+00
  0.00000000E+00  0.00000000E+00  0.00000000E+00
  0.00000000E+00  0.00000000E+00  0.00000000E+00
  0.00000000E+00  0.00000000E+00  0.00000000E+00
  0.00000000E+00  0.00000000E+00  0.00000000E+00
  0.00000000E+00  0.00000000E+00  0.00000000E+00
  0.00000000E+00  0.00000000E+00  0.00000000E+00
  0.00000000E+00  0.00000000E+00  0.00000000E+00
  0.00000000E+00  0.00000000E+00  0.00000000E+00
  0.00000000E+00  0.00000000E+00  0.00000000E+00
  0.00000000E+00  0.00000000E+00  0.00000000E+00
  0.00000000E+00  0.00000000E+00  0.00000000E+00
  0.00000000E+00  0.00000000E+00  0.00000000E+00
  0.00000000E+00  0.00000000E+00  0.00000000E+00
  0.00000000E+00  0.00000000E+00  0.00000000E+00
  0.00000000E+00  0.00000000E+00  0.00000000E+00
  0.00000000E+00  0.00000000E+00  0.00000000E+00
  0.00000000E+00  0.00000000E+00  0.00000000E+00
  0.00000000E+00  0.00000000E+00  0.00000000E+00
  0.00000000E+00  0.00000000E+00  0.00000000E+00
  0.00000000E+00  0.00000000E+00  0.00000000E+00
  0.00000000E+00  0.00000000E+00  0.00000000E+00
  0.00000000E+00  0.00000000E+00  0.00000000E+00
  0.00000000E+00  0.00000000E+00  0.00000000E+00
  0.00000000E+00  0.00000000E+00  0.00000000E+00
  0.00000000E+00  0.00000000E+00  0.00000000E+00
  0.00000000E+00  0.00000000E+00  0.00000000E+00
  0.00000000E+00  0.00000000E+00  0.00000000E+00
  0.00000000E+00  0.00000000E+00  0.00000000E+00
  0.00000000E+00  0.00000000E+00  0.00000000E+00
  0.00000000E+00  0.00000000E+00  0.00000000E+00
  0.00000000E+00  0.00000000E+00  0.00000000E+00
  0.00000000E+00  0.00000000E+00  0.00000000E+00
  0.00000000E+00  0.00000000E+00  0.00000000E+00
  0.00000000E+00  0.00000000E+00  0.00000000E+00
  0.00000000E+00  0.00000000E+00  0.00000000E+00
