W1 C125 N1 O1                           
   1.00000000000000     
    19.8151483087717288   -0.0076420020029029   -0.1018692548977025
    -9.9134505137622924   17.0588545739080821   -0.0520538048362237
    -0.1522461503462630   -0.1792491119346023   29.7768971556578101
   W    C    N    O 
     1   125     1     1
Direct
  0.4371486550343917  0.5018956585536003  0.4391954172940160
  0.0420164630616000  0.0841136510411076  0.3991468907590203
  0.0411955507312385  0.2083216598102595  0.3988372723866576
  0.0406196046545162  0.3329136060069260  0.3980569604262527
  0.0405962427324909  0.4583134488291307  0.3977714139380524
  0.0413908495882040  0.5837937708777190  0.3981353886605987
  0.0420419274889952  0.7091309313207717  0.3984270128202567
  0.0424096853291331  0.8345034871749490  0.3987085845375447
  0.0424482342030856  0.9595523469693106  0.3990037132692805
  0.1678472560964934  0.0855393149264074  0.4003288333621313
  0.1672964358712150  0.2100334700378141  0.4007370636602090
  0.1658431069033526  0.3339473504009902  0.3996114485473328
  0.1642391114121082  0.4584564333918593  0.3978637751613263
  0.1652114526224224  0.5836907675533212  0.3979063152739570
  0.1663802623692945  0.7091270865216259  0.3987687312054433
  0.1670836816943506  0.8345490561271731  0.3992683740236629
  0.1675349450794101  0.9600240946107519  0.3996794378875563
  0.2927791571376872  0.0854469345492817  0.4005339359354920
  0.2938504171847356  0.2121556581298449  0.4035917086322556
  0.2925260418217093  0.3370325085977726  0.4063964680808283
  0.2879236579265196  0.4588082501313551  0.4038869944537637
  0.2887475046246024  0.5842469787658970  0.3999232205598915
  0.2907702012663194  0.7090907191749025  0.3991412670889645
  0.2916581027593637  0.8341692289198051  0.3991535529090484
  0.2920601796141327  0.9595183280448509  0.3993985192781508
  0.4171349211906232  0.0839711556945133  0.3991698818294438
  0.4178895756446721  0.2098203935713201  0.4012054366258013
  0.4204281723573899  0.3368933980797166  0.4090114954792554
  0.4149662780064673  0.7070901712762847  0.4019734253440888
  0.4162093886121596  0.8328321244590668  0.3996458298160874
  0.4166837470097704  0.9583816908314802  0.3990459721454584
  0.5416654169533786  0.0826440050611339  0.3987110299886112
  0.5422206881652798  0.2079470870598570  0.3984797372494597
  0.5433519376726039  0.3331610556757525  0.4004919768364701
  0.5470439017164495  0.4575353118038166  0.4077370066829360
  0.5473336400217903  0.5813484865719047  0.4127505282769235
  0.5390176673774221  0.7037162379200126  0.4062175728669573
  0.5405124253602764  0.8310274281051377  0.4013500011278524
  0.5413034423324277  0.9571355113396862  0.3995333956675395
  0.6662977653277480  0.0821458976449350  0.3992620708648076
  0.6667407728419192  0.2074325378258592  0.3982119018109955
  0.6674463678735307  0.3326092642974459  0.3970225712670015
  0.6693573888593463  0.4580987902396956  0.3971659686294871
  0.6704454027001177  0.5836965519458559  0.3996899101338798
  0.6666322675915382  0.7067308920570241  0.4014538859026828
  0.6651035263658045  0.8307384750270117  0.4011590012168327
  0.6658167468937464  0.9566347016516801  0.4001471666264464
  0.7910124479083294  0.0821839985996533  0.3994163887939308
  0.7912936028124875  0.2073708432715975  0.3988746759587727
  0.7918475351313319  0.3326926907761845  0.3976521314065948
  0.7928831906958891  0.4581945476216234  0.3961815323068620
  0.7935541119077030  0.5835568465065535  0.3959194534446482
  0.7929397348252607  0.7087874518317463  0.3972294162159500
  0.7913886617466233  0.8326570551522465  0.3985836260476177
  0.7907418004563098  0.9570128590140143  0.3993589591520745
  0.9161524412189976  0.0827674841068600  0.3989701723225565
  0.9160152596489795  0.2076249082262720  0.3988546660511219
  0.9161465420284784  0.3327926327638124  0.3983504232140049
  0.9166757176183893  0.4581582739713070  0.3976624720763908
  0.9175042165559688  0.5837376705689863  0.3970399648641276
  0.9176795276341281  0.7091465995889266  0.3971508536247867
  0.9173739711683027  0.8340001370767141  0.3979155363982088
  0.9166538811285747  0.9583390098103095  0.3986352576147496
  0.0842435783606277  0.0431350836388518  0.3994340558933303
  0.0836641467573855  0.1675589379575015  0.3993787169393173
  0.0824527493571665  0.2916612515191659  0.3985175661632709
  0.0816783439883011  0.4165450979046383  0.3976183952991832
  0.0822970691662306  0.5418590900094529  0.3978814645093323
  0.0832440859979897  0.6673471494934944  0.3985252169673927
  0.0838680540227585  0.7928096248536036  0.3989105146227558
  0.0841371007682596  0.9180678951898287  0.3991849283082018
  0.2093266717455293  0.0435873869403380  0.4002792336855023
  0.2097076080880100  0.1692828954027235  0.4015287353702703
  0.2087991405619007  0.2936434647519945  0.4016933485725858
  0.2055221749339111  0.4171506820606936  0.3995391391475991
  0.2058483569561318  0.5418493044946189  0.3980632483317237
  0.2075580877047472  0.6673633849241725  0.3985350823801568
  0.2084236605954430  0.7926985013594035  0.3991251020247617
  0.2089123169327394  0.9180762278916035  0.3995115488892651
  0.3339017731787521  0.0430471056961252  0.3996233744171676
  0.3347770463715918  0.1691012165806995  0.4019316813164409
  0.3357280817527126  0.2955452731735448  0.4075285187990119
  0.3299361566533179  0.4196895924510500  0.4095397650537436
  0.3298889902997715  0.5439332325081168  0.4040391638227234
  0.3318268566244242  0.6672990015943157  0.4002368092116981
  0.3330368161456363  0.7923221093491648  0.3992917833199030
  0.3335055482660039  0.9175473219361407  0.3991714429176056
  0.4585149846015071  0.0417959307806939  0.3988570154399298
  0.4589789711237415  0.1673549642161447  0.3993560610958440
  0.4602426967573123  0.2933435995617160  0.4031231530097585
  0.4665288726142052  0.4192582356224577  0.4150802917292609
  0.4545112887947553  0.6632530191959560  0.4059788003265297
  0.4574800681682589  0.7905493624473081  0.4008647880654905
  0.4580672975746651  0.9162211752782241  0.3993137196343781
  0.5831270362035426  0.0406833527203361  0.3991196267157662
  0.5835473706098782  0.1660414948957722  0.3983215880451496
  0.5843803700172856  0.2911445308724296  0.3981993500903585
  0.5868170219237427  0.4161435312535247  0.4007362479492826
  0.5894785098536062  0.5425477963717071  0.4067266437576720
  0.5831346898508016  0.6630613906416656  0.4069730874837845
  0.5809687088486299  0.7876525023967602  0.4028553573293792
  0.5825069760763526  0.9147967332665630  0.4002881402520089
  0.7076806315697368  0.0402387056068818  0.3996505084895574
  0.7081538172769228  0.1656655697692599  0.3988264468205855
  0.7086803218828308  0.2908725786931612  0.3974791833331679
  0.7099710903254675  0.4163185857047367  0.3962157312239114
  0.7111536123814588  0.5417179635345235  0.3968652631060507
  0.7098034581010282  0.6667458643838557  0.3990518180313600
  0.7077668464431284  0.7901892345481230  0.4001143233233080
  0.7070860306414133  0.9145470596437661  0.4001724023788569
  0.8326353957096018  0.0406483673289628  0.3992441287241562
  0.8327592580987542  0.1657202471800900  0.3991399056656988
  0.8331158872747366  0.2909945841235597  0.3984193052426548
  0.8338008496562708  0.4162757467578970  0.3971199110585246
  0.8346391189877451  0.5417450470807808  0.3960956326310523
  0.8346439496926905  0.6673451247540569  0.3965053525428672
  0.8340285444582207  0.7920290827551071  0.3977241061379715
  0.8330168761408672  0.9160920950713489  0.3987912820610475
  0.9583710806199477  0.0418215408637224  0.3988612238235092
  0.9578284114118176  0.1662528979310665  0.3988418377282699
  0.9575389606435678  0.2910790032664821  0.3984393104257720
  0.9577081221811667  0.4163518962815900  0.3980315260148828
  0.9585037693336034  0.5419010708919458  0.3976650338573720
  0.9590459497174280  0.6673661624234057  0.3975117651019389
  0.9591834934542405  0.7926367055599215  0.3979063173077790
  0.9589408186556057  0.9174460036382541  0.3984889567352425
  0.4093186419739254  0.5826469577813569  0.4091814384282699
  0.4360059745525646  0.4985065357302432  0.4971969868855979
 
  0.00000000E+00  0.00000000E+00  0.00000000E+00
  0.00000000E+00  0.00000000E+00  0.00000000E+00
  0.00000000E+00  0.00000000E+00  0.00000000E+00
  0.00000000E+00  0.00000000E+00  0.00000000E+00
  0.00000000E+00  0.00000000E+00  0.00000000E+00
  0.00000000E+00  0.00000000E+00  0.00000000E+00
  0.00000000E+00  0.00000000E+00  0.00000000E+00
  0.00000000E+00  0.00000000E+00  0.00000000E+00
  0.00000000E+00  0.00000000E+00  0.00000000E+00
  0.00000000E+00  0.00000000E+00  0.00000000E+00
  0.00000000E+00  0.00000000E+00  0.00000000E+00
  0.00000000E+00  0.00000000E+00  0.00000000E+00
  0.00000000E+00  0.00000000E+00  0.00000000E+00
  0.00000000E+00  0.00000000E+00  0.00000000E+00
  0.00000000E+00  0.00000000E+00  0.00000000E+00
  0.00000000E+00  0.00000000E+00  0.00000000E+00
  0.00000000E+00  0.00000000E+00  0.00000000E+00
  0.00000000E+00  0.00000000E+00  0.00000000E+00
  0.00000000E+00  0.00000000E+00  0.00000000E+00
  0.00000000E+00  0.00000000E+00  0.00000000E+00
  0.00000000E+00  0.00000000E+00  0.00000000E+00
  0.00000000E+00  0.00000000E+00  0.00000000E+00
  0.00000000E+00  0.00000000E+00  0.00000000E+00
  0.00000000E+00  0.00000000E+00  0.00000000E+00
  0.00000000E+00  0.00000000E+00  0.00000000E+00
  0.00000000E+00  0.00000000E+00  0.00000000E+00
  0.00000000E+00  0.00000000E+00  0.00000000E+00
  0.00000000E+00  0.00000000E+00  0.00000000E+00
  0.00000000E+00  0.00000000E+00  0.00000000E+00
  0.00000000E+00  0.00000000E+00  0.00000000E+00
  0.00000000E+00  0.00000000E+00  0.00000000E+00
  0.00000000E+00  0.00000000E+00  0.00000000E+00
  0.00000000E+00  0.00000000E+00  0.00000000E+00
  0.00000000E+00  0.00000000E+00  0.00000000E+00
  0.00000000E+00  0.00000000E+00  0.00000000E+00
  0.00000000E+00  0.00000000E+00  0.00000000E+00
  0.00000000E+00  0.00000000E+00  0.00000000E+00
  0.00000000E+00  0.00000000E+00  0.00000000E+00
  0.00000000E+00  0.00000000E+00  0.00000000E+00
  0.00000000E+00  0.00000000E+00  0.00000000E+00
  0.00000000E+00  0.00000000E+00  0.00000000E+00
  0.00000000E+00  0.00000000E+00  0.00000000E+00
  0.00000000E+00  0.00000000E+00  0.00000000E+00
  0.00000000E+00  0.00000000E+00  0.00000000E+00
  0.00000000E+00  0.00000000E+00  0.00000000E+00
  0.00000000E+00  0.00000000E+00  0.00000000E+00
  0.00000000E+00  0.00000000E+00  0.00000000E+00
  0.00000000E+00  0.00000000E+00  0.00000000E+00
  0.00000000E+00  0.00000000E+00  0.00000000E+00
  0.00000000E+00  0.00000000E+00  0.00000000E+00
  0.00000000E+00  0.00000000E+00  0.00000000E+00
  0.00000000E+00  0.00000000E+00  0.00000000E+00
  0.00000000E+00  0.00000000E+00  0.00000000E+00
  0.00000000E+00  0.00000000E+00  0.00000000E+00
  0.00000000E+00  0.00000000E+00  0.00000000E+00
  0.00000000E+00  0.00000000E+00  0.00000000E+00
  0.00000000E+00  0.00000000E+00  0.00000000E+00
  0.00000000E+00  0.00000000E+00  0.00000000E+00
  0.00000000E+00  0.00000000E+00  0.00000000E+00
  0.00000000E+00  0.00000000E+00  0.00000000E+00
  0.00000000E+00  0.00000000E+00  0.00000000E+00
  0.00000000E+00  0.00000000E+00  0.00000000E+00
  0.00000000E+00  0.00000000E+00  0.00000000E+00
  0.00000000E+00  0.00000000E+00  0.00000000E+00
  0.00000000E+00  0.00000000E+00  0.00000000E+00
  0.00000000E+00  0.00000000E+00  0.00000000E+00
  0.00000000E+00  0.00000000E+00  0.00000000E+00
  0.00000000E+00  0.00000000E+00  0.00000000E+00
  0.00000000E+00  0.00000000E+00  0.00000000E+00
  0.00000000E+00  0.00000000E+00  0.00000000E+00
  0.00000000E+00  0.00000000E+00  0.00000000E+00
  0.00000000E+00  0.00000000E+00  0.00000000E+00
  0.00000000E+00  0.00000000E+00  0.00000000E+00
  0.00000000E+00  0.00000000E+00  0.00000000E+00
  0.00000000E+00  0.00000000E+00  0.00000000E+00
  0.00000000E+00  0.00000000E+00  0.00000000E+00
  0.00000000E+00  0.00000000E+00  0.00000000E+00
  0.00000000E+00  0.00000000E+00  0.00000000E+00
  0.00000000E+00  0.00000000E+00  0.00000000E+00
  0.00000000E+00  0.00000000E+00  0.00000000E+00
  0.00000000E+00  0.00000000E+00  0.00000000E+00
  0.00000000E+00  0.00000000E+00  0.00000000E+00
  0.00000000E+00  0.00000000E+00  0.00000000E+00
  0.00000000E+00  0.00000000E+00  0.00000000E+00
  0.00000000E+00  0.00000000E+00  0.00000000E+00
  0.00000000E+00  0.00000000E+00  0.00000000E+00
  0.00000000E+00  0.00000000E+00  0.00000000E+00
  0.00000000E+00  0.00000000E+00  0.00000000E+00
  0.00000000E+00  0.00000000E+00  0.00000000E+00
  0.00000000E+00  0.00000000E+00  0.00000000E+00
  0.00000000E+00  0.00000000E+00  0.00000000E+00
  0.00000000E+00  0.00000000E+00  0.00000000E+00
  0.00000000E+00  0.00000000E+00  0.00000000E+00
  0.00000000E+00  0.00000000E+00  0.00000000E+00
  0.00000000E+00  0.00000000E+00  0.00000000E+00
  0.00000000E+00  0.00000000E+00  0.00000000E+00
  0.00000000E+00  0.00000000E+00  0.00000000E+00
  0.00000000E+00  0.00000000E+00  0.00000000E+00
  0.00000000E+00  0.00000000E+00  0.00000000E+00
  0.00000000E+00  0.00000000E+00  0.00000000E+00
  0.00000000E+00  0.00000000E+00  0.00000000E+00
  0.00000000E+00  0.00000000E+00  0.00000000E+00
  0.00000000E+00  0.00000000E+00  0.00000000E+00
  0.00000000E+00  0.00000000E+00  0.00000000E+00
  0.00000000E+00  0.00000000E+00  0.00000000E+00
  0.00000000E+00  0.00000000E+00  0.00000000E+00
  0.00000000E+00  0.00000000E+00  0.00000000E+00
  0.00000000E+00  0.00000000E+00  0.00000000E+00
  0.00000000E+00  0.00000000E+00  0.00000000E+00
  0.00000000E+00  0.00000000E+00  0.00000000E+00
  0.00000000E+00  0.00000000E+00  0.00000000E+00
  0.00000000E+00  0.00000000E+00  0.00000000E+00
  0.00000000E+00  0.00000000E+00  0.00000000E+00
  0.00000000E+00  0.00000000E+00  0.00000000E+00
  0.00000000E+00  0.00000000E+00  0.00000000E+00
  0.00000000E+00  0.00000000E+00  0.00000000E+00
  0.00000000E+00  0.00000000E+00  0.00000000E+00
  0.00000000E+00  0.00000000E+00  0.00000000E+00
  0.00000000E+00  0.00000000E+00  0.00000000E+00
  0.00000000E+00  0.00000000E+00  0.00000000E+00
  0.00000000E+00  0.00000000E+00  0.00000000E+00
  0.00000000E+00  0.00000000E+00  0.00000000E+00
  0.00000000E+00  0.00000000E+00  0.00000000E+00
  0.00000000E+00  0.00000000E+00  0.00000000E+00
  0.00000000E+00  0.00000000E+00  0.00000000E+00
  0.00000000E+00  0.00000000E+00  0.00000000E+00
  0.00000000E+00  0.00000000E+00  0.00000000E+00
  0.00000000E+00  0.00000000E+00  0.00000000E+00
