Nb1 H1 C122 N4 O1                       
   1.00000000000000     
    19.7889556671500877    0.0000282536595509    0.1992037040154468
    -9.8936505198987916   17.0343016960080149   -0.1626460094870506
     0.2999089171381074   -0.1104014637790072   29.8541270276504065
   Nb   H    C    N    O 
     1     1   122     4     1
Direct
  0.4474869068615240  0.5021287806614498  0.4322130121648806
  0.4807085638375173  0.5463679926607732  0.5200609075669246
  0.0421527111056265  0.0845170805947624  0.3999352662885076
  0.0413218458950071  0.2086053524466245  0.3999149344882003
  0.0404949102406293  0.3332212322681050  0.3988218856799414
  0.0404772757165065  0.4582525807880575  0.3982435500850479
  0.0411224633539953  0.5836321311083191  0.3989689513383107
  0.0417611506915883  0.7090279586110140  0.3996429350543781
  0.0420304446827617  0.8342498233827339  0.3997846087150210
  0.0422291997471640  0.9595885714678669  0.3998142984618795
  0.1677988308551605  0.0855851185504574  0.4001721266328099
  0.1679520012850476  0.2108803597009169  0.4010335135581922
  0.1654034097180113  0.3340756246361867  0.4010995951315451
  0.1645207438621009  0.4585491650525654  0.3981334547196133
  0.1652085466426267  0.5835894684204986  0.3980421621480587
  0.1661784319920110  0.7087397791249195  0.3990396624344457
  0.1667632432023653  0.8341481841299448  0.3995629005070994
  0.1671229777786617  0.9597332654132690  0.3996939399172026
  0.2922521085075857  0.0853491183361180  0.3995612534954813
  0.2935044149086483  0.2127656274547417  0.4008549279153005
  0.2931665854881176  0.3394901464834467  0.4053461232809709
  0.2878592766017665  0.4587374432479735  0.4037457764783024
  0.2888159058310163  0.5828481875015789  0.3999717837729796
  0.2906155277914000  0.7080390573889823  0.3997155017905521
  0.2914131963058302  0.8335928530902584  0.3995708799047790
  0.2917925276633059  0.9592493723905872  0.3995223090875901
  0.4167352748282310  0.0838447468131599  0.3995083537132356
  0.4171481017297717  0.2097309146035219  0.3990439720022884
  0.4196808770382676  0.3368048456752863  0.3993059701796866
  0.4147647074866680  0.7054429582683646  0.4021839822458401
  0.4159244650245486  0.8319102227941561  0.4000727115133385
  0.4164218923839028  0.9579069973406162  0.3997225210254765
  0.5412768427892592  0.0825714231612408  0.3996712438974917
  0.5418077034864901  0.2082058276603942  0.3993897072105396
  0.5430887526984766  0.3338741516585821  0.3992403660800750
  0.5442414854174720  0.4580546047610512  0.3985628080956041
  0.5382172244155091  0.7023336768979549  0.4013575056828019
  0.5403526876708543  0.8304128181095112  0.4006070027228437
  0.5409765135258500  0.9567613764315303  0.3999433255802019
  0.6659908202599087  0.0821265424989300  0.3997748504900646
  0.6664166175253018  0.2076190437398520  0.3997321258435047
  0.6671709061458032  0.3330556256824106  0.4000797134100626
  0.6685407105967883  0.4584455505704049  0.4008442594896378
  0.6690217289157029  0.5833202010122716  0.3993440869648272
  0.6659629656819501  0.7066380057989123  0.3975206875301247
  0.6648048844102585  0.8307500110049266  0.3992996892262708
  0.6655515316116821  0.9566023225385165  0.3998015261438979
  0.7909002117936295  0.0823072857142968  0.3996354421046072
  0.7910311209733095  0.2075321689138891  0.3996578843766222
  0.7915120645735432  0.3328509194947480  0.3999024895309253
  0.7923842093028634  0.4583100846511584  0.4004048512616844
  0.7929162468702360  0.5836406017788651  0.4004970507568411
  0.7922494924084881  0.7083519947044120  0.3991989752220245
  0.7910420952686693  0.8326710112455570  0.3991322294818196
  0.7905813293436580  0.9571098507366719  0.3995006558477305
  0.9161790205900524  0.0830253764003549  0.3996511528682730
  0.9158867995449066  0.2078040546446723  0.3994042144137058
  0.9159454692108400  0.3329123345207575  0.3991239255321641
  0.9163990175493969  0.4582876418758519  0.3995326076964786
  0.9170132700256750  0.5836575754663439  0.4000157668700779
  0.9172239460553535  0.7089403268834553  0.3999065338620744
  0.9168637773719371  0.8338639651234094  0.3995828425297390
  0.9166107831273433  0.9585329360792411  0.3997321685462850
  0.0842691441241496  0.0433204126289891  0.3999788432956234
  0.0841075675447770  0.1681990411683488  0.4001983945849794
  0.0826496246392523  0.2920516583432002  0.3998121145429119
  0.0816518780729328  0.4164376011113643  0.3980830210503514
  0.0822159791223811  0.5417615955745779  0.3982515300674467
  0.0830192682983798  0.6671183898098597  0.3991630005767894
  0.0834959029445719  0.7925222199030630  0.3996977919116482
  0.0838782760280288  0.9179440986553590  0.3997891298113284
  0.2089844291138583  0.0434855608479175  0.3997948501798952
  0.2099964930577206  0.1697051508945479  0.4008571048976814
  0.2094579449135099  0.2947638164365304  0.4025434381173697
  0.2060148739773092  0.4172369312325024  0.4001999314818753
  0.2059625965848407  0.5414928117449207  0.3980474589294810
  0.2072512174423580  0.6668318847810319  0.3987842193249092
  0.2080741096457039  0.7922596953420130  0.3994072275787484
  0.2085981164043355  0.9177595580434537  0.3995748154907332
  0.3334959129811819  0.0429745734943644  0.3994736525861602
  0.3340864665594676  0.1693730692156932  0.3996408214306612
  0.3359377508071349  0.2978384945993176  0.4022599183041775
  0.3290529359022428  0.5414072815833488  0.4035806969449802
  0.3313487471538372  0.6660666593342714  0.4008925307461545
  0.3327234215084708  0.7914963097802340  0.3998433398835676
  0.3331661267703695  0.9170625637422968  0.3995951064893127
  0.4581087466161893  0.0415547845638335  0.3996786021188004
  0.4584099107096760  0.1674000480587487  0.3992866434467132
  0.4593517518860887  0.2934303233186902  0.3984312415983924
  0.4538953148976189  0.6609532719559891  0.4047970202547554
  0.4571187880166499  0.7892821084050873  0.4007520796274563
  0.4576703409341960  0.9155920434464790  0.3998785611601650
  0.5826830575930577  0.0404785376084889  0.3997762724829302
  0.5830426680071815  0.1661889625795840  0.3995929040804295
  0.5839352819086340  0.2916969153840706  0.3995669305733451
  0.5857391506524581  0.4167556033556362  0.4000958162275174
  0.5862529503799959  0.5419695930309670  0.3977011600215957
  0.5829667125776967  0.6632999007603703  0.3978980339271438
  0.5808471912631124  0.7873988911988558  0.4003408450998721
  0.5822574313042297  0.9145153815270645  0.4001151933450115
  0.7074403213879655  0.0403337497463512  0.3997491235674862
  0.7078173854882541  0.1657985223164427  0.3997445847711135
  0.7083360566521341  0.2911108196013328  0.3999301714826848
  0.7093212443659027  0.4164408335192351  0.4005879433452665
  0.7101334567820130  0.5416572124687536  0.4006773736331309
  0.7092477465668601  0.6661839068632017  0.3984322177081517
  0.7074806175921088  0.7903769212908798  0.3986294436409629
  0.7069737189564393  0.9147637266862524  0.3994969045428799
  0.8326109585246755  0.0408398969852284  0.3995923692727697
  0.8326712781370842  0.1659010298502509  0.3995665035737001
  0.8327788548066597  0.2910121457591743  0.3995831089081425
  0.8333952178435449  0.4163866680676305  0.3999983377004840
  0.8340969067377506  0.5417506515069822  0.4004074741906858
  0.8341247350212060  0.6670056573713029  0.3999138139637164
  0.8336288689108454  0.7918467323381053  0.3992267661505861
  0.8329332386305086  0.9162294038835869  0.3995237524042201
  0.9585843303379603  0.0421822707225292  0.3997706403202634
  0.9579003844828918  0.1664840891821648  0.3995967719522621
  0.9574803168406479  0.2913002075354496  0.3990272456102148
  0.9575122834243577  0.4163918873657577  0.3989474459298750
  0.9581185526091296  0.5417447971165946  0.3995440020184968
  0.9586580335424555  0.6671965264246247  0.3999342414235989
  0.9588036910766135  0.7924405438645870  0.3997467154668120
  0.9587304290482850  0.9174983260291807  0.3997170797240926
  0.4092943575573706  0.5792870985271479  0.4103937929177884
  0.5453133112484171  0.5822213544655959  0.3976935866257966
  0.3304365960256118  0.4212345429226471  0.4101967417670339
  0.4630555262102953  0.4178339535614085  0.3998093422588243
  0.4756337526298683  0.5138265103991092  0.4942358023711837
 
  0.00000000E+00  0.00000000E+00  0.00000000E+00
  0.00000000E+00  0.00000000E+00  0.00000000E+00
  0.00000000E+00  0.00000000E+00  0.00000000E+00
  0.00000000E+00  0.00000000E+00  0.00000000E+00
  0.00000000E+00  0.00000000E+00  0.00000000E+00
  0.00000000E+00  0.00000000E+00  0.00000000E+00
  0.00000000E+00  0.00000000E+00  0.00000000E+00
  0.00000000E+00  0.00000000E+00  0.00000000E+00
  0.00000000E+00  0.00000000E+00  0.00000000E+00
  0.00000000E+00  0.00000000E+00  0.00000000E+00
  0.00000000E+00  0.00000000E+00  0.00000000E+00
  0.00000000E+00  0.00000000E+00  0.00000000E+00
  0.00000000E+00  0.00000000E+00  0.00000000E+00
  0.00000000E+00  0.00000000E+00  0.00000000E+00
  0.00000000E+00  0.00000000E+00  0.00000000E+00
  0.00000000E+00  0.00000000E+00  0.00000000E+00
  0.00000000E+00  0.00000000E+00  0.00000000E+00
  0.00000000E+00  0.00000000E+00  0.00000000E+00
  0.00000000E+00  0.00000000E+00  0.00000000E+00
  0.00000000E+00  0.00000000E+00  0.00000000E+00
  0.00000000E+00  0.00000000E+00  0.00000000E+00
  0.00000000E+00  0.00000000E+00  0.00000000E+00
  0.00000000E+00  0.00000000E+00  0.00000000E+00
  0.00000000E+00  0.00000000E+00  0.00000000E+00
  0.00000000E+00  0.00000000E+00  0.00000000E+00
  0.00000000E+00  0.00000000E+00  0.00000000E+00
  0.00000000E+00  0.00000000E+00  0.00000000E+00
  0.00000000E+00  0.00000000E+00  0.00000000E+00
  0.00000000E+00  0.00000000E+00  0.00000000E+00
  0.00000000E+00  0.00000000E+00  0.00000000E+00
  0.00000000E+00  0.00000000E+00  0.00000000E+00
  0.00000000E+00  0.00000000E+00  0.00000000E+00
  0.00000000E+00  0.00000000E+00  0.00000000E+00
  0.00000000E+00  0.00000000E+00  0.00000000E+00
  0.00000000E+00  0.00000000E+00  0.00000000E+00
  0.00000000E+00  0.00000000E+00  0.00000000E+00
  0.00000000E+00  0.00000000E+00  0.00000000E+00
  0.00000000E+00  0.00000000E+00  0.00000000E+00
  0.00000000E+00  0.00000000E+00  0.00000000E+00
  0.00000000E+00  0.00000000E+00  0.00000000E+00
  0.00000000E+00  0.00000000E+00  0.00000000E+00
  0.00000000E+00  0.00000000E+00  0.00000000E+00
  0.00000000E+00  0.00000000E+00  0.00000000E+00
  0.00000000E+00  0.00000000E+00  0.00000000E+00
  0.00000000E+00  0.00000000E+00  0.00000000E+00
  0.00000000E+00  0.00000000E+00  0.00000000E+00
  0.00000000E+00  0.00000000E+00  0.00000000E+00
  0.00000000E+00  0.00000000E+00  0.00000000E+00
  0.00000000E+00  0.00000000E+00  0.00000000E+00
  0.00000000E+00  0.00000000E+00  0.00000000E+00
  0.00000000E+00  0.00000000E+00  0.00000000E+00
  0.00000000E+00  0.00000000E+00  0.00000000E+00
  0.00000000E+00  0.00000000E+00  0.00000000E+00
  0.00000000E+00  0.00000000E+00  0.00000000E+00
  0.00000000E+00  0.00000000E+00  0.00000000E+00
  0.00000000E+00  0.00000000E+00  0.00000000E+00
  0.00000000E+00  0.00000000E+00  0.00000000E+00
  0.00000000E+00  0.00000000E+00  0.00000000E+00
  0.00000000E+00  0.00000000E+00  0.00000000E+00
  0.00000000E+00  0.00000000E+00  0.00000000E+00
  0.00000000E+00  0.00000000E+00  0.00000000E+00
  0.00000000E+00  0.00000000E+00  0.00000000E+00
  0.00000000E+00  0.00000000E+00  0.00000000E+00
  0.00000000E+00  0.00000000E+00  0.00000000E+00
  0.00000000E+00  0.00000000E+00  0.00000000E+00
  0.00000000E+00  0.00000000E+00  0.00000000E+00
  0.00000000E+00  0.00000000E+00  0.00000000E+00
  0.00000000E+00  0.00000000E+00  0.00000000E+00
  0.00000000E+00  0.00000000E+00  0.00000000E+00
  0.00000000E+00  0.00000000E+00  0.00000000E+00
  0.00000000E+00  0.00000000E+00  0.00000000E+00
  0.00000000E+00  0.00000000E+00  0.00000000E+00
  0.00000000E+00  0.00000000E+00  0.00000000E+00
  0.00000000E+00  0.00000000E+00  0.00000000E+00
  0.00000000E+00  0.00000000E+00  0.00000000E+00
  0.00000000E+00  0.00000000E+00  0.00000000E+00
  0.00000000E+00  0.00000000E+00  0.00000000E+00
  0.00000000E+00  0.00000000E+00  0.00000000E+00
  0.00000000E+00  0.00000000E+00  0.00000000E+00
  0.00000000E+00  0.00000000E+00  0.00000000E+00
  0.00000000E+00  0.00000000E+00  0.00000000E+00
  0.00000000E+00  0.00000000E+00  0.00000000E+00
  0.00000000E+00  0.00000000E+00  0.00000000E+00
  0.00000000E+00  0.00000000E+00  0.00000000E+00
  0.00000000E+00  0.00000000E+00  0.00000000E+00
  0.00000000E+00  0.00000000E+00  0.00000000E+00
  0.00000000E+00  0.00000000E+00  0.00000000E+00
  0.00000000E+00  0.00000000E+00  0.00000000E+00
  0.00000000E+00  0.00000000E+00  0.00000000E+00
  0.00000000E+00  0.00000000E+00  0.00000000E+00
  0.00000000E+00  0.00000000E+00  0.00000000E+00
  0.00000000E+00  0.00000000E+00  0.00000000E+00
  0.00000000E+00  0.00000000E+00  0.00000000E+00
  0.00000000E+00  0.00000000E+00  0.00000000E+00
  0.00000000E+00  0.00000000E+00  0.00000000E+00
  0.00000000E+00  0.00000000E+00  0.00000000E+00
  0.00000000E+00  0.00000000E+00  0.00000000E+00
  0.00000000E+00  0.00000000E+00  0.00000000E+00
  0.00000000E+00  0.00000000E+00  0.00000000E+00
  0.00000000E+00  0.00000000E+00  0.00000000E+00
  0.00000000E+00  0.00000000E+00  0.00000000E+00
  0.00000000E+00  0.00000000E+00  0.00000000E+00
  0.00000000E+00  0.00000000E+00  0.00000000E+00
  0.00000000E+00  0.00000000E+00  0.00000000E+00
  0.00000000E+00  0.00000000E+00  0.00000000E+00
  0.00000000E+00  0.00000000E+00  0.00000000E+00
  0.00000000E+00  0.00000000E+00  0.00000000E+00
  0.00000000E+00  0.00000000E+00  0.00000000E+00
  0.00000000E+00  0.00000000E+00  0.00000000E+00
  0.00000000E+00  0.00000000E+00  0.00000000E+00
  0.00000000E+00  0.00000000E+00  0.00000000E+00
  0.00000000E+00  0.00000000E+00  0.00000000E+00
  0.00000000E+00  0.00000000E+00  0.00000000E+00
  0.00000000E+00  0.00000000E+00  0.00000000E+00
  0.00000000E+00  0.00000000E+00  0.00000000E+00
  0.00000000E+00  0.00000000E+00  0.00000000E+00
  0.00000000E+00  0.00000000E+00  0.00000000E+00
  0.00000000E+00  0.00000000E+00  0.00000000E+00
  0.00000000E+00  0.00000000E+00  0.00000000E+00
  0.00000000E+00  0.00000000E+00  0.00000000E+00
  0.00000000E+00  0.00000000E+00  0.00000000E+00
  0.00000000E+00  0.00000000E+00  0.00000000E+00
  0.00000000E+00  0.00000000E+00  0.00000000E+00
  0.00000000E+00  0.00000000E+00  0.00000000E+00
  0.00000000E+00  0.00000000E+00  0.00000000E+00
  0.00000000E+00  0.00000000E+00  0.00000000E+00
  0.00000000E+00  0.00000000E+00  0.00000000E+00
  0.00000000E+00  0.00000000E+00  0.00000000E+00
  0.00000000E+00  0.00000000E+00  0.00000000E+00
