V1 C125 N1 O1                           
   1.00000000000000     
    19.8081298892307167   -0.0079271336318483   -0.0488882612180726
    -9.9109277703990806   17.0673716875275723   -0.0735543039054678
    -0.0734978024038034   -0.1707878614437248   29.7721272129995498
   V    C    N    O 
     1   125     1     1
Direct
  0.4375074003275141  0.5016392890250535  0.4288184639285970
  0.0419350535496947  0.0839595212463278  0.3997159541163633
  0.0413293700877709  0.2083768243377440  0.3995649991807655
  0.0409308179090288  0.3330400021605467  0.3993590228040685
  0.0409530288073163  0.4583517045021720  0.3993398260709708
  0.0415073605368116  0.5837106276423819  0.3996597742544463
  0.0419819730403107  0.7089514989402463  0.3998358998382459
  0.0422521211337498  0.8342546906011779  0.3998434317249133
  0.0422831315176646  0.9593023017916763  0.3997856431994739
  0.1675615763922874  0.0850080734449217  0.4001880150391900
  0.1671312898418466  0.2096449930842708  0.4003476050659819
  0.1661296031033434  0.3339469629376616  0.4000353091197944
  0.1649422771365831  0.4584809368771234  0.3992835930749725
  0.1655585363490492  0.5836446652702747  0.3992940387311359
  0.1664452713338101  0.7089854915439054  0.3996614629317052
  0.1670239444339502  0.8343223444458771  0.3998128916801161
  0.1673784652966015  0.9596767388760189  0.3999502754492205
  0.2925612452661701  0.0849773262589081  0.4001425866514067
  0.2933724120306275  0.2113870304428029  0.4017514817137206
  0.2924878154296335  0.3365627947347264  0.4034378229969559
  0.2894646933771668  0.4590279930168225  0.4018677194981872
  0.2893310889200348  0.5844229582504097  0.3999321153777170
  0.2908569998108149  0.7091801510650713  0.3996677798045420
  0.2916444192279895  0.8340924296714201  0.3996515442191766
  0.2920189373776826  0.9593299181830193  0.3996897301382750
  0.4171041251720265  0.0838543894456782  0.3995676358848783
  0.4176339031522906  0.2093989391177726  0.4003723239591205
  0.4195745372623045  0.3363765087759329  0.4044528418511802
  0.4151340782394863  0.7075082021046279  0.4007538485984373
  0.4162467311008066  0.8330984846692340  0.3997960916332362
  0.4166928107366493  0.9584603052293591  0.3995739089734451
  0.5417258288538669  0.0828273526466017  0.3995994293508494
  0.5422261915550161  0.2080182470979287  0.3995046074127895
  0.5430156242075894  0.3330802169055193  0.4002620664633939
  0.5452353874437187  0.4575347879571796  0.4028874217290560
  0.5453959928195153  0.5812432400762615  0.4054289889131028
  0.5391025089359999  0.7042970946163327  0.4028314058954494
  0.5406498877509829  0.8315303041967064  0.4005513671116900
  0.5413752346419991  0.9574027856823143  0.3998911729492478
  0.6663829128823093  0.0823575287022116  0.3999102072859031
  0.6668089394151899  0.2076671180472853  0.3996664722810976
  0.6673881868036103  0.3327940641211264  0.3993312656911601
  0.6689088012635513  0.4581167137318853  0.3990458255176704
  0.6699091215158752  0.5838324898434610  0.3993786068845430
  0.6665578097438628  0.7070561187819316  0.4001749920408377
  0.6653104619238533  0.8311771974102399  0.4004006528442171
  0.6660010444367520  0.9569782555330162  0.4001379544689934
  0.7911703802343488  0.0823697168570967  0.3998982030442568
  0.7914279352741019  0.2075519302494260  0.3998334424042159
  0.7918869322839719  0.3328697599849294  0.3996588452422488
  0.7927393334541578  0.4582943008630206  0.3993294643726090
  0.7932771635314001  0.5835430402885000  0.3989952288449653
  0.7928478379255670  0.7087988271294984  0.3990893792942995
  0.7915440574896124  0.8328846811264700  0.3994267092557233
  0.7909158995010848  0.9572389044463820  0.3997802432367490
  0.9162950158414630  0.0828975266790568  0.3996283162243331
  0.9162272411644827  0.2078008179616864  0.3996301381206238
  0.9163526690507446  0.3329293430302142  0.3996267001543239
  0.9167794622009160  0.4582216020803306  0.3996890778580618
  0.9173848072525349  0.5836707170520063  0.3996543026969873
  0.9174989402615578  0.7090070225339070  0.3995104117575884
  0.9172548573336524  0.8338719946582975  0.3994770721956240
  0.9167058408859629  0.9583810569401962  0.3995580188561290
  0.0840354197629624  0.0428204862093686  0.3998656599095057
  0.0835610711525102  0.1673697091678891  0.3997651317426087
  0.0826812174902506  0.2917344211793059  0.3995359070162840
  0.0822179154663091  0.4166508299259554  0.3991800668409951
  0.0825912861344318  0.5418539916737467  0.3993993077202987
  0.0833056825494659  0.6672277334076526  0.3997338886270406
  0.0837883502400035  0.7925992603920485  0.3998674579419043
  0.0839867438016120  0.9177960777505965  0.3998888293825655
  0.2091282367352104  0.0431699754487327  0.4001366783337924
  0.2093415400727965  0.1686770066844002  0.4007161240332353
  0.2086787824822589  0.2932644662553001  0.4008563566134974
  0.2063954877300194  0.4172091456529462  0.4000355498704232
  0.2064203178412010  0.5419297318217930  0.3992939014343772
  0.2077336273861366  0.6673030585597226  0.3995060004236328
  0.2084176932068349  0.7924959532927873  0.3997227098077854
  0.2088412981056637  0.9178150601128020  0.3998216064437939
  0.3338355454466898  0.0427916851753582  0.3997381198675908
  0.3344818422879249  0.1685554264826440  0.4007644801261495
  0.3351662513619765  0.2947717947024328  0.4040160816646435
  0.3310193354380006  0.4190829368741786  0.4049825097541192
  0.3311764672338285  0.5442791402670125  0.4018049444674363
  0.3320777164924844  0.6674842545522808  0.4000680456167334
  0.3330597993169890  0.7923635226936128  0.3996819115508587
  0.3335031132970526  0.9174396009836528  0.3996043101598634
  0.4585503869977700  0.0418368707274793  0.3995257446352728
  0.4589358044699924  0.1671746616739025  0.3996501058506246
  0.4598300895391700  0.2928875721908186  0.4012849194310050
  0.4641490771444184  0.4188135425280209  0.4073113538691805
  0.4546344473540544  0.6634563573518294  0.4027871443987738
  0.4576150705693789  0.7909669162677714  0.4002704083501187
  0.4581122058741633  0.9164382465010922  0.3997244869069789
  0.5831841593695862  0.0408850094786757  0.3997832689608857
  0.5835989148009297  0.1661952924242040  0.3995434652048596
  0.5843031807800220  0.2912150391488401  0.3995230726665057
  0.5860460817741799  0.4160681306657517  0.4001540876786760
  0.5877463406847072  0.5423909440029685  0.4021378129749641
  0.5825952311250020  0.6632830353846211  0.4027668560090858
  0.5811193748386730  0.7882080800864498  0.4012104772445282
  0.5826745628791903  0.9152218563719866  0.4001757371070653
  0.7078230344838934  0.0404908054116963  0.3999968481557415
  0.7082356343681412  0.1658752413594635  0.3998283164175856
  0.7086981881214736  0.2910973243727057  0.3995436388624746
  0.7097729565614591  0.4164604386985271  0.3990920550969070
  0.7107507330373446  0.5417986530068668  0.3988424331669391
  0.7096204466830766  0.6668766077405952  0.3993548592838843
  0.7078761460008653  0.7905339838409366  0.3998389237236269
  0.7072897323409016  0.9149252191361512  0.4000826622976571
  0.8327802660092891  0.0408135881203716  0.3997628609844207
  0.8329377686465945  0.1659021776013419  0.3998102090286118
  0.8332540809448867  0.2911766050257069  0.3997374605300498
  0.8338225957630815  0.4164360804051233  0.3996234911214700
  0.8344501286893964  0.5417727693660060  0.3993457105639320
  0.8344375081178943  0.6672638671372838  0.3991345603337501
  0.8339753507019277  0.7920204587998853  0.3992690602153918
  0.8331406384340043  0.9162541151808576  0.3995627039079568
  0.9583866077740576  0.0418345018227134  0.3996058194362917
  0.9579799814105401  0.1663788249081126  0.3995653314982008
  0.9578053002052500  0.2912392665319253  0.3995281702463157
  0.9579586543268321  0.4164625682975900  0.3995761063269022
  0.9585634501676032  0.5419188248166298  0.3997188269555659
  0.9589215240406856  0.6672583048470119  0.3997120341272259
  0.9590027540688765  0.7924406879294336  0.3996352894977995
  0.9588131839171773  0.9172984533582360  0.3995952223897090
  0.4104045915279605  0.5831299893261764  0.4044098611172060
  0.4372037486426647  0.4972099639637761  0.4828703961677268
 
  0.00000000E+00  0.00000000E+00  0.00000000E+00
  0.00000000E+00  0.00000000E+00  0.00000000E+00
  0.00000000E+00  0.00000000E+00  0.00000000E+00
  0.00000000E+00  0.00000000E+00  0.00000000E+00
  0.00000000E+00  0.00000000E+00  0.00000000E+00
  0.00000000E+00  0.00000000E+00  0.00000000E+00
  0.00000000E+00  0.00000000E+00  0.00000000E+00
  0.00000000E+00  0.00000000E+00  0.00000000E+00
  0.00000000E+00  0.00000000E+00  0.00000000E+00
  0.00000000E+00  0.00000000E+00  0.00000000E+00
  0.00000000E+00  0.00000000E+00  0.00000000E+00
  0.00000000E+00  0.00000000E+00  0.00000000E+00
  0.00000000E+00  0.00000000E+00  0.00000000E+00
  0.00000000E+00  0.00000000E+00  0.00000000E+00
  0.00000000E+00  0.00000000E+00  0.00000000E+00
  0.00000000E+00  0.00000000E+00  0.00000000E+00
  0.00000000E+00  0.00000000E+00  0.00000000E+00
  0.00000000E+00  0.00000000E+00  0.00000000E+00
  0.00000000E+00  0.00000000E+00  0.00000000E+00
  0.00000000E+00  0.00000000E+00  0.00000000E+00
  0.00000000E+00  0.00000000E+00  0.00000000E+00
  0.00000000E+00  0.00000000E+00  0.00000000E+00
  0.00000000E+00  0.00000000E+00  0.00000000E+00
  0.00000000E+00  0.00000000E+00  0.00000000E+00
  0.00000000E+00  0.00000000E+00  0.00000000E+00
  0.00000000E+00  0.00000000E+00  0.00000000E+00
  0.00000000E+00  0.00000000E+00  0.00000000E+00
  0.00000000E+00  0.00000000E+00  0.00000000E+00
  0.00000000E+00  0.00000000E+00  0.00000000E+00
  0.00000000E+00  0.00000000E+00  0.00000000E+00
  0.00000000E+00  0.00000000E+00  0.00000000E+00
  0.00000000E+00  0.00000000E+00  0.00000000E+00
  0.00000000E+00  0.00000000E+00  0.00000000E+00
  0.00000000E+00  0.00000000E+00  0.00000000E+00
  0.00000000E+00  0.00000000E+00  0.00000000E+00
  0.00000000E+00  0.00000000E+00  0.00000000E+00
  0.00000000E+00  0.00000000E+00  0.00000000E+00
  0.00000000E+00  0.00000000E+00  0.00000000E+00
  0.00000000E+00  0.00000000E+00  0.00000000E+00
  0.00000000E+00  0.00000000E+00  0.00000000E+00
  0.00000000E+00  0.00000000E+00  0.00000000E+00
  0.00000000E+00  0.00000000E+00  0.00000000E+00
  0.00000000E+00  0.00000000E+00  0.00000000E+00
  0.00000000E+00  0.00000000E+00  0.00000000E+00
  0.00000000E+00  0.00000000E+00  0.00000000E+00
  0.00000000E+00  0.00000000E+00  0.00000000E+00
  0.00000000E+00  0.00000000E+00  0.00000000E+00
  0.00000000E+00  0.00000000E+00  0.00000000E+00
  0.00000000E+00  0.00000000E+00  0.00000000E+00
  0.00000000E+00  0.00000000E+00  0.00000000E+00
  0.00000000E+00  0.00000000E+00  0.00000000E+00
  0.00000000E+00  0.00000000E+00  0.00000000E+00
  0.00000000E+00  0.00000000E+00  0.00000000E+00
  0.00000000E+00  0.00000000E+00  0.00000000E+00
  0.00000000E+00  0.00000000E+00  0.00000000E+00
  0.00000000E+00  0.00000000E+00  0.00000000E+00
  0.00000000E+00  0.00000000E+00  0.00000000E+00
  0.00000000E+00  0.00000000E+00  0.00000000E+00
  0.00000000E+00  0.00000000E+00  0.00000000E+00
  0.00000000E+00  0.00000000E+00  0.00000000E+00
  0.00000000E+00  0.00000000E+00  0.00000000E+00
  0.00000000E+00  0.00000000E+00  0.00000000E+00
  0.00000000E+00  0.00000000E+00  0.00000000E+00
  0.00000000E+00  0.00000000E+00  0.00000000E+00
  0.00000000E+00  0.00000000E+00  0.00000000E+00
  0.00000000E+00  0.00000000E+00  0.00000000E+00
  0.00000000E+00  0.00000000E+00  0.00000000E+00
  0.00000000E+00  0.00000000E+00  0.00000000E+00
  0.00000000E+00  0.00000000E+00  0.00000000E+00
  0.00000000E+00  0.00000000E+00  0.00000000E+00
  0.00000000E+00  0.00000000E+00  0.00000000E+00
  0.00000000E+00  0.00000000E+00  0.00000000E+00
  0.00000000E+00  0.00000000E+00  0.00000000E+00
  0.00000000E+00  0.00000000E+00  0.00000000E+00
  0.00000000E+00  0.00000000E+00  0.00000000E+00
  0.00000000E+00  0.00000000E+00  0.00000000E+00
  0.00000000E+00  0.00000000E+00  0.00000000E+00
  0.00000000E+00  0.00000000E+00  0.00000000E+00
  0.00000000E+00  0.00000000E+00  0.00000000E+00
  0.00000000E+00  0.00000000E+00  0.00000000E+00
  0.00000000E+00  0.00000000E+00  0.00000000E+00
  0.00000000E+00  0.00000000E+00  0.00000000E+00
  0.00000000E+00  0.00000000E+00  0.00000000E+00
  0.00000000E+00  0.00000000E+00  0.00000000E+00
  0.00000000E+00  0.00000000E+00  0.00000000E+00
  0.00000000E+00  0.00000000E+00  0.00000000E+00
  0.00000000E+00  0.00000000E+00  0.00000000E+00
  0.00000000E+00  0.00000000E+00  0.00000000E+00
  0.00000000E+00  0.00000000E+00  0.00000000E+00
  0.00000000E+00  0.00000000E+00  0.00000000E+00
  0.00000000E+00  0.00000000E+00  0.00000000E+00
  0.00000000E+00  0.00000000E+00  0.00000000E+00
  0.00000000E+00  0.00000000E+00  0.00000000E+00
  0.00000000E+00  0.00000000E+00  0.00000000E+00
  0.00000000E+00  0.00000000E+00  0.00000000E+00
  0.00000000E+00  0.00000000E+00  0.00000000E+00
  0.00000000E+00  0.00000000E+00  0.00000000E+00
  0.00000000E+00  0.00000000E+00  0.00000000E+00
  0.00000000E+00  0.00000000E+00  0.00000000E+00
  0.00000000E+00  0.00000000E+00  0.00000000E+00
  0.00000000E+00  0.00000000E+00  0.00000000E+00
  0.00000000E+00  0.00000000E+00  0.00000000E+00
  0.00000000E+00  0.00000000E+00  0.00000000E+00
  0.00000000E+00  0.00000000E+00  0.00000000E+00
  0.00000000E+00  0.00000000E+00  0.00000000E+00
  0.00000000E+00  0.00000000E+00  0.00000000E+00
  0.00000000E+00  0.00000000E+00  0.00000000E+00
  0.00000000E+00  0.00000000E+00  0.00000000E+00
  0.00000000E+00  0.00000000E+00  0.00000000E+00
  0.00000000E+00  0.00000000E+00  0.00000000E+00
  0.00000000E+00  0.00000000E+00  0.00000000E+00
  0.00000000E+00  0.00000000E+00  0.00000000E+00
  0.00000000E+00  0.00000000E+00  0.00000000E+00
  0.00000000E+00  0.00000000E+00  0.00000000E+00
  0.00000000E+00  0.00000000E+00  0.00000000E+00
  0.00000000E+00  0.00000000E+00  0.00000000E+00
  0.00000000E+00  0.00000000E+00  0.00000000E+00
  0.00000000E+00  0.00000000E+00  0.00000000E+00
  0.00000000E+00  0.00000000E+00  0.00000000E+00
  0.00000000E+00  0.00000000E+00  0.00000000E+00
  0.00000000E+00  0.00000000E+00  0.00000000E+00
  0.00000000E+00  0.00000000E+00  0.00000000E+00
  0.00000000E+00  0.00000000E+00  0.00000000E+00
  0.00000000E+00  0.00000000E+00  0.00000000E+00
  0.00000000E+00  0.00000000E+00  0.00000000E+00
  0.00000000E+00  0.00000000E+00  0.00000000E+00
  0.00000000E+00  0.00000000E+00  0.00000000E+00
  0.00000000E+00  0.00000000E+00  0.00000000E+00
