Mo1 C124 N2                             
   1.00000000000000     
    19.8251466485706267   -0.0395358093462029   -0.0003633201095669
    -9.9468093527714796   17.0742771579644348    0.0007155051837380
    -0.0005438591578719    0.0009299770156622   29.7610450325554119
   Mo   C    N 
     1   124     2
Direct
  0.4375109330542025  0.5000029469844778  0.4305424502994672
  0.0422968011842368  0.0842309507443818  0.3998443183242709
  0.0419031738385797  0.2087190186350558  0.3995634065717728
  0.0411769134470297  0.3332687389833235  0.3995270838928000
  0.0406875934125494  0.4584662889372532  0.3996593119670895
  0.0410417319708317  0.5838387274380852  0.3998833300524061
  0.0415241636282505  0.7090948460403391  0.4000219757881390
  0.0418227195390825  0.8341974975400019  0.4000161955727135
  0.0420992274142775  0.9593210439968803  0.3999627729407157
  0.1679992674656204  0.0854301703017143  0.3999341861015873
  0.1682345373535931  0.2105641618007089  0.3997386547232797
  0.1668296452867048  0.3346645600326055  0.3991418729232282
  0.1645163383193401  0.4591257526615848  0.3992201651223413
  0.1648199854284030  0.5841672658017790  0.3991995836939355
  0.1658229975998034  0.7092793973000977  0.3997774890137969
  0.1665001959645638  0.8343839902770892  0.4000378535503388
  0.1670535184692334  0.9596123282258845  0.4000450335769288
  0.2924265162548588  0.0848010416666469  0.3999337756130034
  0.2944518491229800  0.2119734384565278  0.4006936177092809
  0.2947376680877510  0.3384857534380548  0.4010040075890645
  0.2889832477887250  0.4607404544299643  0.4010722996300965
  0.2882812064017547  0.5852627471236010  0.3998730768730757
  0.2901391055304045  0.7097200426077100  0.3994898926253033
  0.2912007043854566  0.8343774110641079  0.3997494604307049
  0.2917188195560505  0.9592538801723447  0.3999111893108566
  0.4170059605320450  0.0833656976709314  0.3995898333067145
  0.4177874867308354  0.2085088896044542  0.3995330813510563
  0.4216042214397907  0.3355618858145788  0.4039166560057735
  0.4143141884107805  0.7083384859902522  0.4004465367283632
  0.4159168024019851  0.8334369738706260  0.3993378614268934
  0.4165293280092551  0.9583968704219814  0.3997513861415086
  0.5417754113825682  0.0823945927210546  0.3998186151369298
  0.5424164282620272  0.2071871894357651  0.3994747941206794
  0.5438633824415936  0.3317228109517786  0.3999737101524618
  0.5454019848075233  0.4547060134423368  0.4030375816311758
  0.5429073571414589  0.5783688849419132  0.4018660394533484
  0.5378088194909727  0.7038261472646159  0.4023610137119147
  0.5404034520590196  0.8315757328984851  0.4000850234673356
  0.5413127871420295  0.9573333174607871  0.3998138640331472
  0.6665649938106880  0.0821731569636041  0.4000379691949565
  0.6671131300696312  0.2072141512136261  0.3999142475096823
  0.6680868708741214  0.3322943415589773  0.3994245439290403
  0.6695220674270652  0.4575637356205378  0.3989659007000865
  0.6686324794291216  0.5818304609405316  0.3993897127177956
  0.6648587843530641  0.7055217906852604  0.3995873415419002
  0.6646526448439901  0.8306545350108679  0.4000178117299715
  0.6659472817572695  0.9568153531318088  0.4000323204069621
  0.7913527033225453  0.0822701369386631  0.3999970045163708
  0.7917175580717950  0.2074014427368009  0.4000466067168257
  0.7923214486366400  0.3326398032555392  0.3999225649035827
  0.7930142500655898  0.4579630009546813  0.3995666653584309
  0.7931254287673718  0.5831968676072117  0.3994004667116235
  0.7916893946337029  0.7078681659925478  0.3992871331536813
  0.7906377969811689  0.8320834361987539  0.3996667821124396
  0.7907529147836316  0.9569318759267975  0.3998894343110230
  0.9164632307692905  0.0828567729027124  0.3998912493380774
  0.9164892625941545  0.2077407199482628  0.3998943707410810
  0.9165207607382880  0.3328522067332336  0.3999624458741093
  0.9167976938851943  0.4582041611120239  0.3999489253025468
  0.9171824743982331  0.5836083275802609  0.3999081499353282
  0.9169603845086038  0.7087385502805005  0.3998553378288368
  0.9166893437557363  0.8335728999753965  0.3998095601299916
  0.9164615772949714  0.9581813850131394  0.3998763287747807
  0.0842405005399638  0.0430862153222277  0.3999041160424758
  0.0843605318397387  0.1679217903953618  0.3996782223103146
  0.0833060341448065  0.2921291926734888  0.3992944037631679
  0.0818725737315829  0.4168013406470462  0.3994160984735448
  0.0819866165923257  0.5420347316133025  0.3995791050108742
  0.0826800945658855  0.6673587971498418  0.3999198906390828
  0.0832781854234351  0.7925974859491574  0.4000513301006380
  0.0836471180084746  0.9177361150125214  0.4000162994161535
  0.2090554082277283  0.0431898785442782  0.4000319196256649
  0.2103447150871145  0.1693502573059761  0.4000349803799651
  0.2101400706674929  0.2944809783687058  0.3996110854097694
  0.2063636251255074  0.4181614549186934  0.3994249478088312
  0.2054755777702185  0.5424313259057242  0.3990019929972426
  0.2069131316351467  0.6677014157819794  0.3994390566994668
  0.2078885314329910  0.7927836446359600  0.3999055851146934
  0.2084371387162867  0.9178256131173897  0.4000263514269122
  0.3336830497426410  0.0426552472943447  0.3998030941977670
  0.3345985920291765  0.1684276617541517  0.4000713431929165
  0.3371949456725745  0.2961808888316798  0.4023676205581127
  0.3320910477731134  0.4216360034959927  0.4018913468070782
  0.3295945689303378  0.5452925911417531  0.4030700832176334
  0.3311377556914274  0.6682742604337117  0.4000035781891240
  0.3325820032967046  0.7928056517576415  0.3994835455708245
  0.3332224460555171  0.9175967314066658  0.3998107931601035
  0.4584722860273883  0.0415939603144114  0.3997503745246641
  0.4590811223725790  0.1665658283856513  0.3993243746174462
  0.4606882711890714  0.2916633251035681  0.4004257403695975
  0.4534024743025076  0.6644456858085647  0.4039252897302611
  0.4572109894888595  0.7914895932470395  0.3995458864864249
  0.4579932734320924  0.9166252389736622  0.3996022597772777
  0.5832804027483853  0.0407414509799099  0.3999239806753728
  0.5837922693182235  0.1656116432452311  0.3997538456853151
  0.5848610111106122  0.2902750882485052  0.3994691110493808
  0.5867128647416394  0.4147321580857051  0.3998423759009446
  0.5860124691555512  0.5392580945120394  0.4010363013756828
  0.5802640272959346  0.6615160158207714  0.4009798986170630
  0.5805508739655828  0.7880261613040351  0.4006896789140654
  0.5825737230228204  0.9151966453928526  0.3999476892560555
  0.7079492551260889  0.0403894436757701  0.4000429051248554
  0.7084940446087850  0.1656160122622388  0.4000415434308905
  0.7091745633116685  0.2907179312604374  0.3997778146497850
  0.7101785461431080  0.4158305528852027  0.3991766268179671
  0.7104846023290310  0.5408719612828480  0.3991876796927887
  0.7081703665109920  0.6653327999742871  0.3991165843397718
  0.7067687594814723  0.7894387583302950  0.3997248778055628
  0.7070100678315767  0.9145722019939458  0.3999189061100263
  0.8329062913786751  0.0406801233549876  0.3999411712280984
  0.8331752609765544  0.1658015778607492  0.3999951290539732
  0.8334716898522536  0.2909041549118040  0.4000228552514820
  0.8339547873136132  0.4161625555103106  0.3998810816053507
  0.8343115546798691  0.5415329841588343  0.3996482329079984
  0.8338218893831134  0.6667345215834984  0.3995242133851433
  0.8330961404235790  0.7912887870540263  0.3995617925313704
  0.8327104022296086  0.9157669929441795  0.3998339385470983
  0.9585411729992805  0.0418227792971412  0.3998762805076883
  0.9583158572893014  0.1664319635809728  0.3997959548281918
  0.9580398852344784  0.2912616062314367  0.3998474966653134
  0.9578182463852556  0.4163950364548228  0.3999109899540232
  0.9582033671401533  0.5417989165610939  0.3999481657566396
  0.9584792461171012  0.6671481804702970  0.3999629652762097
  0.9585096400069778  0.7922632826118983  0.3999062592375738
  0.9585376395178431  0.9171515847996269  0.3999046631311247
  0.4087493257171114  0.5849830939238233  0.4091406486528305
  0.4662531306131191  0.4150168087144144  0.4091207524137079
 
  0.00000000E+00  0.00000000E+00  0.00000000E+00
  0.00000000E+00  0.00000000E+00  0.00000000E+00
  0.00000000E+00  0.00000000E+00  0.00000000E+00
  0.00000000E+00  0.00000000E+00  0.00000000E+00
  0.00000000E+00  0.00000000E+00  0.00000000E+00
  0.00000000E+00  0.00000000E+00  0.00000000E+00
  0.00000000E+00  0.00000000E+00  0.00000000E+00
  0.00000000E+00  0.00000000E+00  0.00000000E+00
  0.00000000E+00  0.00000000E+00  0.00000000E+00
  0.00000000E+00  0.00000000E+00  0.00000000E+00
  0.00000000E+00  0.00000000E+00  0.00000000E+00
  0.00000000E+00  0.00000000E+00  0.00000000E+00
  0.00000000E+00  0.00000000E+00  0.00000000E+00
  0.00000000E+00  0.00000000E+00  0.00000000E+00
  0.00000000E+00  0.00000000E+00  0.00000000E+00
  0.00000000E+00  0.00000000E+00  0.00000000E+00
  0.00000000E+00  0.00000000E+00  0.00000000E+00
  0.00000000E+00  0.00000000E+00  0.00000000E+00
  0.00000000E+00  0.00000000E+00  0.00000000E+00
  0.00000000E+00  0.00000000E+00  0.00000000E+00
  0.00000000E+00  0.00000000E+00  0.00000000E+00
  0.00000000E+00  0.00000000E+00  0.00000000E+00
  0.00000000E+00  0.00000000E+00  0.00000000E+00
  0.00000000E+00  0.00000000E+00  0.00000000E+00
  0.00000000E+00  0.00000000E+00  0.00000000E+00
  0.00000000E+00  0.00000000E+00  0.00000000E+00
  0.00000000E+00  0.00000000E+00  0.00000000E+00
  0.00000000E+00  0.00000000E+00  0.00000000E+00
  0.00000000E+00  0.00000000E+00  0.00000000E+00
  0.00000000E+00  0.00000000E+00  0.00000000E+00
  0.00000000E+00  0.00000000E+00  0.00000000E+00
  0.00000000E+00  0.00000000E+00  0.00000000E+00
  0.00000000E+00  0.00000000E+00  0.00000000E+00
  0.00000000E+00  0.00000000E+00  0.00000000E+00
  0.00000000E+00  0.00000000E+00  0.00000000E+00
  0.00000000E+00  0.00000000E+00  0.00000000E+00
  0.00000000E+00  0.00000000E+00  0.00000000E+00
  0.00000000E+00  0.00000000E+00  0.00000000E+00
  0.00000000E+00  0.00000000E+00  0.00000000E+00
  0.00000000E+00  0.00000000E+00  0.00000000E+00
  0.00000000E+00  0.00000000E+00  0.00000000E+00
  0.00000000E+00  0.00000000E+00  0.00000000E+00
  0.00000000E+00  0.00000000E+00  0.00000000E+00
  0.00000000E+00  0.00000000E+00  0.00000000E+00
  0.00000000E+00  0.00000000E+00  0.00000000E+00
  0.00000000E+00  0.00000000E+00  0.00000000E+00
  0.00000000E+00  0.00000000E+00  0.00000000E+00
  0.00000000E+00  0.00000000E+00  0.00000000E+00
  0.00000000E+00  0.00000000E+00  0.00000000E+00
  0.00000000E+00  0.00000000E+00  0.00000000E+00
  0.00000000E+00  0.00000000E+00  0.00000000E+00
  0.00000000E+00  0.00000000E+00  0.00000000E+00
  0.00000000E+00  0.00000000E+00  0.00000000E+00
  0.00000000E+00  0.00000000E+00  0.00000000E+00
  0.00000000E+00  0.00000000E+00  0.00000000E+00
  0.00000000E+00  0.00000000E+00  0.00000000E+00
  0.00000000E+00  0.00000000E+00  0.00000000E+00
  0.00000000E+00  0.00000000E+00  0.00000000E+00
  0.00000000E+00  0.00000000E+00  0.00000000E+00
  0.00000000E+00  0.00000000E+00  0.00000000E+00
  0.00000000E+00  0.00000000E+00  0.00000000E+00
  0.00000000E+00  0.00000000E+00  0.00000000E+00
  0.00000000E+00  0.00000000E+00  0.00000000E+00
  0.00000000E+00  0.00000000E+00  0.00000000E+00
  0.00000000E+00  0.00000000E+00  0.00000000E+00
  0.00000000E+00  0.00000000E+00  0.00000000E+00
  0.00000000E+00  0.00000000E+00  0.00000000E+00
  0.00000000E+00  0.00000000E+00  0.00000000E+00
  0.00000000E+00  0.00000000E+00  0.00000000E+00
  0.00000000E+00  0.00000000E+00  0.00000000E+00
  0.00000000E+00  0.00000000E+00  0.00000000E+00
  0.00000000E+00  0.00000000E+00  0.00000000E+00
  0.00000000E+00  0.00000000E+00  0.00000000E+00
  0.00000000E+00  0.00000000E+00  0.00000000E+00
  0.00000000E+00  0.00000000E+00  0.00000000E+00
  0.00000000E+00  0.00000000E+00  0.00000000E+00
  0.00000000E+00  0.00000000E+00  0.00000000E+00
  0.00000000E+00  0.00000000E+00  0.00000000E+00
  0.00000000E+00  0.00000000E+00  0.00000000E+00
  0.00000000E+00  0.00000000E+00  0.00000000E+00
  0.00000000E+00  0.00000000E+00  0.00000000E+00
  0.00000000E+00  0.00000000E+00  0.00000000E+00
  0.00000000E+00  0.00000000E+00  0.00000000E+00
  0.00000000E+00  0.00000000E+00  0.00000000E+00
  0.00000000E+00  0.00000000E+00  0.00000000E+00
  0.00000000E+00  0.00000000E+00  0.00000000E+00
  0.00000000E+00  0.00000000E+00  0.00000000E+00
  0.00000000E+00  0.00000000E+00  0.00000000E+00
  0.00000000E+00  0.00000000E+00  0.00000000E+00
  0.00000000E+00  0.00000000E+00  0.00000000E+00
  0.00000000E+00  0.00000000E+00  0.00000000E+00
  0.00000000E+00  0.00000000E+00  0.00000000E+00
  0.00000000E+00  0.00000000E+00  0.00000000E+00
  0.00000000E+00  0.00000000E+00  0.00000000E+00
  0.00000000E+00  0.00000000E+00  0.00000000E+00
  0.00000000E+00  0.00000000E+00  0.00000000E+00
  0.00000000E+00  0.00000000E+00  0.00000000E+00
  0.00000000E+00  0.00000000E+00  0.00000000E+00
  0.00000000E+00  0.00000000E+00  0.00000000E+00
  0.00000000E+00  0.00000000E+00  0.00000000E+00
  0.00000000E+00  0.00000000E+00  0.00000000E+00
  0.00000000E+00  0.00000000E+00  0.00000000E+00
  0.00000000E+00  0.00000000E+00  0.00000000E+00
  0.00000000E+00  0.00000000E+00  0.00000000E+00
  0.00000000E+00  0.00000000E+00  0.00000000E+00
  0.00000000E+00  0.00000000E+00  0.00000000E+00
  0.00000000E+00  0.00000000E+00  0.00000000E+00
  0.00000000E+00  0.00000000E+00  0.00000000E+00
  0.00000000E+00  0.00000000E+00  0.00000000E+00
  0.00000000E+00  0.00000000E+00  0.00000000E+00
  0.00000000E+00  0.00000000E+00  0.00000000E+00
  0.00000000E+00  0.00000000E+00  0.00000000E+00
  0.00000000E+00  0.00000000E+00  0.00000000E+00
  0.00000000E+00  0.00000000E+00  0.00000000E+00
  0.00000000E+00  0.00000000E+00  0.00000000E+00
  0.00000000E+00  0.00000000E+00  0.00000000E+00
  0.00000000E+00  0.00000000E+00  0.00000000E+00
  0.00000000E+00  0.00000000E+00  0.00000000E+00
  0.00000000E+00  0.00000000E+00  0.00000000E+00
  0.00000000E+00  0.00000000E+00  0.00000000E+00
  0.00000000E+00  0.00000000E+00  0.00000000E+00
  0.00000000E+00  0.00000000E+00  0.00000000E+00
  0.00000000E+00  0.00000000E+00  0.00000000E+00
  0.00000000E+00  0.00000000E+00  0.00000000E+00
  0.00000000E+00  0.00000000E+00  0.00000000E+00
  0.00000000E+00  0.00000000E+00  0.00000000E+00
  0.00000000E+00  0.00000000E+00  0.00000000E+00
