Os1 C126 O1                             
   1.00000000000000     
    19.8226931286150077   -0.0001939234586799   -0.0712443052914501
    -9.9115030082980375   17.0554603812792323   -0.0748975967351660
    -0.1068594361294315   -0.1926859621526468   29.7647497739457947
   Os   C    O 
     1   126     1
Direct
  0.4382178303249880  0.5005823862224875  0.4328011936858416
  0.0420395529010939  0.0841468128341750  0.3997551156309899
  0.0408550805495829  0.2080313513993988  0.3995010142434532
  0.0402510942097120  0.3326898615325475  0.3989427692943278
  0.0403564287986972  0.4583556657953652  0.3989038309208629
  0.0413516642125222  0.5839379220946391  0.3994919462679558
  0.0422389045994680  0.7093202810676763  0.3999525884447201
  0.0426131869863090  0.8347030365180325  0.3998600832758211
  0.0426255359858284  0.9596938232427505  0.3997532495917193
  0.1678409319671453  0.0855236315028559  0.4004678613114116
  0.1673181275375870  0.2100659732979988  0.4004524379315207
  0.1650945225477669  0.3332575912816055  0.3996024828697198
  0.1636362326781647  0.4583142464362125  0.3982773697910674
  0.1649338132077524  0.5836975140930668  0.3983873612759353
  0.1665333128392805  0.7093147118293524  0.3993128509520273
  0.1672357428996135  0.8347143392445100  0.3997332367656928
  0.1676522036424014  0.9601441056005180  0.3999927665281308
  0.2927860657321070  0.0855086626514924  0.4003836996108567
  0.2936362865647542  0.2121272253997062  0.4019961261860210
  0.2930515909511860  0.3375752340241296  0.4040123684873722
  0.2861191340460082  0.4578440873060245  0.4027199611269208
  0.2882669518437099  0.5839057644762324  0.3993402046916960
  0.2908110989174559  0.7090147547108535  0.3989084285646822
  0.2916969304852760  0.8341464699894656  0.3992455744449055
  0.2922279918429831  0.9596834255489720  0.3996394059617222
  0.4172284386080196  0.0841506363067385  0.3996716783374100
  0.4178390476808170  0.2100750365822099  0.4003294685394672
  0.4197547509389591  0.3375897792755841  0.4039357022116261
  0.4095661941143752  0.5799250622589356  0.4078219324548783
  0.4152089008481982  0.7064771396843192  0.4009054651100458
  0.4162283603675384  0.8326708026405736  0.3992798885452315
  0.4166970925633211  0.9583618558077835  0.3993490374921206
  0.5416597040768883  0.0826367141400101  0.3996380012058628
  0.5422602284089892  0.2080390853943427  0.3993170439409202
  0.5432594585981088  0.3332846633830815  0.3992211191115002
  0.5468511714216132  0.4578587416005541  0.4024252991064303
  0.5456538628679031  0.5799209522472050  0.4077414951725505
  0.5399259560132627  0.7046015065638860  0.4042049934470545
  0.5405727396535805  0.8310659036846383  0.4006066191858182
  0.5412565837337556  0.9570444398530150  0.3996072191202554
  0.6662186702779778  0.0820407925738930  0.3999875597596232
  0.6667081875209317  0.2074510663660520  0.3997271467360445
  0.6674997094355519  0.3326987427041209  0.3988033066267378
  0.6697154637244382  0.4583089175784330  0.3977751706208087
  0.6706812260845435  0.5838721874677346  0.3988464610905896
  0.6664250451214139  0.7064635111592855  0.4006915110869062
  0.6656431257281641  0.8310651314242941  0.4005632473117706
  0.6658606020169113  0.9565927095406483  0.4000232501116551
  0.7909597912691367  0.0820337209212939  0.3998595169814840
  0.7911750890268093  0.2072605771773962  0.3998545956703682
  0.7918535056917332  0.3327622311288611  0.3997266786041280
  0.7930441718061242  0.4583544642089251  0.3988954281896132
  0.7938051989068303  0.5836832100990712  0.3981317882062936
  0.7932976409369195  0.7089938165210232  0.3985611503759587
  0.7915850188779644  0.8326751717558423  0.3991609920834852
  0.7908977203391990  0.9570450238462499  0.3995632829178788
  0.9161152712366037  0.0826488832916479  0.3995994228816936
  0.9158191328452141  0.2074477397676666  0.3995726949531981
  0.9159993121854402  0.3327724353136906  0.3995392845027663
  0.9166484098892094  0.4582311201088201  0.3996974436335233
  0.9176665156326133  0.5839493436148103  0.3995761140804319
  0.9178869623030166  0.7093088063894902  0.3993442179204650
  0.9175953343043192  0.8341621769716698  0.3991932304755865
  0.9168066498917387  0.9583800362185212  0.3993194129053712
  0.0843221739080255  0.0432156917336220  0.3999801380381343
  0.0835870200438501  0.1675450511927557  0.3997707235022647
  0.0818550018998348  0.2911987058152491  0.3991742699252547
  0.0813322783269262  0.4165117946331600  0.3985075983720148
  0.0821397785152021  0.5419080254317502  0.3988580259558170
  0.0834043688957562  0.6675401225356042  0.3996622283611438
  0.0841016745252657  0.7930569761589681  0.3999146774228077
  0.0843093718108375  0.9182360914583247  0.3998997378543652
  0.2093877137832852  0.0436613947362234  0.4003409365426293
  0.2095717914609217  0.1691930525923424  0.4010396394179297
  0.2087973647265640  0.2937802863091020  0.4009219632806407
  0.2044210753744887  0.4163027081638233  0.3992969629201834
  0.2054448305174577  0.5418824613748102  0.3982241500006077
  0.2076979245111368  0.6675263338283374  0.3987706308859055
  0.2085445342086175  0.7928040564800296  0.3994644797114456
  0.2090985175711891  0.9182472783298685  0.3997673479045797
  0.3340116654050051  0.0432155072839434  0.3998789301712500
  0.3347240280071305  0.1691846422300218  0.4009984546004595
  0.3354794362807554  0.2957240434773811  0.4040676005948078
  0.3298720045987120  0.4205430218201450  0.4074497822030639
  0.3284291838716957  0.5424537999380508  0.4028732024582571
  0.3319983268253956  0.6669579719371795  0.3995203135452239
  0.3330030367419615  0.7921818653968635  0.3990905287825082
  0.3335826802566159  0.9175597950435074  0.3993636602320852
  0.4585355121280364  0.0418245524570668  0.3995213171141018
  0.4590608931081883  0.1675592446660302  0.3996252109078775
  0.4601144688012753  0.2937917352679022  0.4007137296956936
  0.4659480924819813  0.4205675394078283  0.4073597661166410
  0.4556458242464850  0.6627529634606301  0.4043102299912083
  0.4574484134455056  0.7901710623389482  0.4001023750182854
  0.4580412970493883  0.9160805060670110  0.3993175273812374
  0.5830723012870562  0.0405749829287872  0.3997590053897258
  0.5835488282693509  0.1660612299899614  0.3995668497912187
  0.5844115170471096  0.2911998722108644  0.3988713141840179
  0.5869307421354966  0.4163259978794288  0.3988289272386215
  0.5891587672884938  0.5424568875287080  0.4025658923598194
  0.5823545430465534  0.6627498102312356  0.4042167489273835
  0.5816425932342191  0.7881009327156113  0.4017034356647745
  0.5824641407062481  0.9147324396837485  0.3999925129919905
  0.7076277389391472  0.0401087510793526  0.3999815678982431
  0.7080488315692659  0.1655776017002835  0.3999461908503341
  0.7086970075276501  0.2909486203243987  0.3994947079632136
  0.7102311050409315  0.4165164361662612  0.3982746338676104
  0.7114816070935663  0.5418660640720426  0.3977145609126539
  0.7100641522568336  0.6669300899410394  0.3991211175307606
  0.7078625668474647  0.7901712085661877  0.3999919859571859
  0.7073879926049117  0.9147335722644895  0.3999617163262502
  0.8326401415301362  0.0405724379859278  0.3996570611661339
  0.8326168635434890  0.1655715554068966  0.3997814074837717
  0.8330564723510550  0.2910070319741121  0.3997727908200620
  0.8338703377088434  0.4163661762844377  0.3996124618317770
  0.8348336607290773  0.5419091170203653  0.3988270425062888
  0.8349200554317138  0.6675239553116846  0.3985713879249225
  0.8343168901212479  0.7921895687770406  0.3988872260091716
  0.8331716761384285  0.9160933607409030  0.3992643737362205
  0.9584243515871654  0.0418317123378128  0.3995412521728763
  0.9576070255969151  0.1660696991151984  0.3995709864528678
  0.9573231654404467  0.2909461275198042  0.3993418709002421
  0.9575633164255132  0.4163760459459712  0.3994713322298891
  0.9585926635827384  0.5421015047725046  0.3997057504573638
  0.9592768790086161  0.6675564735075591  0.3997676682256465
  0.9593893282151961  0.7928046361639950  0.3995254636245568
  0.9591407479533396  0.9175894170285733  0.3993797467252727
  0.4390672451948042  0.5010993875859572  0.4900970724077769
 
  0.00000000E+00  0.00000000E+00  0.00000000E+00
  0.00000000E+00  0.00000000E+00  0.00000000E+00
  0.00000000E+00  0.00000000E+00  0.00000000E+00
  0.00000000E+00  0.00000000E+00  0.00000000E+00
  0.00000000E+00  0.00000000E+00  0.00000000E+00
  0.00000000E+00  0.00000000E+00  0.00000000E+00
  0.00000000E+00  0.00000000E+00  0.00000000E+00
  0.00000000E+00  0.00000000E+00  0.00000000E+00
  0.00000000E+00  0.00000000E+00  0.00000000E+00
  0.00000000E+00  0.00000000E+00  0.00000000E+00
  0.00000000E+00  0.00000000E+00  0.00000000E+00
  0.00000000E+00  0.00000000E+00  0.00000000E+00
  0.00000000E+00  0.00000000E+00  0.00000000E+00
  0.00000000E+00  0.00000000E+00  0.00000000E+00
  0.00000000E+00  0.00000000E+00  0.00000000E+00
  0.00000000E+00  0.00000000E+00  0.00000000E+00
  0.00000000E+00  0.00000000E+00  0.00000000E+00
  0.00000000E+00  0.00000000E+00  0.00000000E+00
  0.00000000E+00  0.00000000E+00  0.00000000E+00
  0.00000000E+00  0.00000000E+00  0.00000000E+00
  0.00000000E+00  0.00000000E+00  0.00000000E+00
  0.00000000E+00  0.00000000E+00  0.00000000E+00
  0.00000000E+00  0.00000000E+00  0.00000000E+00
  0.00000000E+00  0.00000000E+00  0.00000000E+00
  0.00000000E+00  0.00000000E+00  0.00000000E+00
  0.00000000E+00  0.00000000E+00  0.00000000E+00
  0.00000000E+00  0.00000000E+00  0.00000000E+00
  0.00000000E+00  0.00000000E+00  0.00000000E+00
  0.00000000E+00  0.00000000E+00  0.00000000E+00
  0.00000000E+00  0.00000000E+00  0.00000000E+00
  0.00000000E+00  0.00000000E+00  0.00000000E+00
  0.00000000E+00  0.00000000E+00  0.00000000E+00
  0.00000000E+00  0.00000000E+00  0.00000000E+00
  0.00000000E+00  0.00000000E+00  0.00000000E+00
  0.00000000E+00  0.00000000E+00  0.00000000E+00
  0.00000000E+00  0.00000000E+00  0.00000000E+00
  0.00000000E+00  0.00000000E+00  0.00000000E+00
  0.00000000E+00  0.00000000E+00  0.00000000E+00
  0.00000000E+00  0.00000000E+00  0.00000000E+00
  0.00000000E+00  0.00000000E+00  0.00000000E+00
  0.00000000E+00  0.00000000E+00  0.00000000E+00
  0.00000000E+00  0.00000000E+00  0.00000000E+00
  0.00000000E+00  0.00000000E+00  0.00000000E+00
  0.00000000E+00  0.00000000E+00  0.00000000E+00
  0.00000000E+00  0.00000000E+00  0.00000000E+00
  0.00000000E+00  0.00000000E+00  0.00000000E+00
  0.00000000E+00  0.00000000E+00  0.00000000E+00
  0.00000000E+00  0.00000000E+00  0.00000000E+00
  0.00000000E+00  0.00000000E+00  0.00000000E+00
  0.00000000E+00  0.00000000E+00  0.00000000E+00
  0.00000000E+00  0.00000000E+00  0.00000000E+00
  0.00000000E+00  0.00000000E+00  0.00000000E+00
  0.00000000E+00  0.00000000E+00  0.00000000E+00
  0.00000000E+00  0.00000000E+00  0.00000000E+00
  0.00000000E+00  0.00000000E+00  0.00000000E+00
  0.00000000E+00  0.00000000E+00  0.00000000E+00
  0.00000000E+00  0.00000000E+00  0.00000000E+00
  0.00000000E+00  0.00000000E+00  0.00000000E+00
  0.00000000E+00  0.00000000E+00  0.00000000E+00
  0.00000000E+00  0.00000000E+00  0.00000000E+00
  0.00000000E+00  0.00000000E+00  0.00000000E+00
  0.00000000E+00  0.00000000E+00  0.00000000E+00
  0.00000000E+00  0.00000000E+00  0.00000000E+00
  0.00000000E+00  0.00000000E+00  0.00000000E+00
  0.00000000E+00  0.00000000E+00  0.00000000E+00
  0.00000000E+00  0.00000000E+00  0.00000000E+00
  0.00000000E+00  0.00000000E+00  0.00000000E+00
  0.00000000E+00  0.00000000E+00  0.00000000E+00
  0.00000000E+00  0.00000000E+00  0.00000000E+00
  0.00000000E+00  0.00000000E+00  0.00000000E+00
  0.00000000E+00  0.00000000E+00  0.00000000E+00
  0.00000000E+00  0.00000000E+00  0.00000000E+00
  0.00000000E+00  0.00000000E+00  0.00000000E+00
  0.00000000E+00  0.00000000E+00  0.00000000E+00
  0.00000000E+00  0.00000000E+00  0.00000000E+00
  0.00000000E+00  0.00000000E+00  0.00000000E+00
  0.00000000E+00  0.00000000E+00  0.00000000E+00
  0.00000000E+00  0.00000000E+00  0.00000000E+00
  0.00000000E+00  0.00000000E+00  0.00000000E+00
  0.00000000E+00  0.00000000E+00  0.00000000E+00
  0.00000000E+00  0.00000000E+00  0.00000000E+00
  0.00000000E+00  0.00000000E+00  0.00000000E+00
  0.00000000E+00  0.00000000E+00  0.00000000E+00
  0.00000000E+00  0.00000000E+00  0.00000000E+00
  0.00000000E+00  0.00000000E+00  0.00000000E+00
  0.00000000E+00  0.00000000E+00  0.00000000E+00
  0.00000000E+00  0.00000000E+00  0.00000000E+00
  0.00000000E+00  0.00000000E+00  0.00000000E+00
  0.00000000E+00  0.00000000E+00  0.00000000E+00
  0.00000000E+00  0.00000000E+00  0.00000000E+00
  0.00000000E+00  0.00000000E+00  0.00000000E+00
  0.00000000E+00  0.00000000E+00  0.00000000E+00
  0.00000000E+00  0.00000000E+00  0.00000000E+00
  0.00000000E+00  0.00000000E+00  0.00000000E+00
  0.00000000E+00  0.00000000E+00  0.00000000E+00
  0.00000000E+00  0.00000000E+00  0.00000000E+00
  0.00000000E+00  0.00000000E+00  0.00000000E+00
  0.00000000E+00  0.00000000E+00  0.00000000E+00
  0.00000000E+00  0.00000000E+00  0.00000000E+00
  0.00000000E+00  0.00000000E+00  0.00000000E+00
  0.00000000E+00  0.00000000E+00  0.00000000E+00
  0.00000000E+00  0.00000000E+00  0.00000000E+00
  0.00000000E+00  0.00000000E+00  0.00000000E+00
  0.00000000E+00  0.00000000E+00  0.00000000E+00
  0.00000000E+00  0.00000000E+00  0.00000000E+00
  0.00000000E+00  0.00000000E+00  0.00000000E+00
  0.00000000E+00  0.00000000E+00  0.00000000E+00
  0.00000000E+00  0.00000000E+00  0.00000000E+00
  0.00000000E+00  0.00000000E+00  0.00000000E+00
  0.00000000E+00  0.00000000E+00  0.00000000E+00
  0.00000000E+00  0.00000000E+00  0.00000000E+00
  0.00000000E+00  0.00000000E+00  0.00000000E+00
  0.00000000E+00  0.00000000E+00  0.00000000E+00
  0.00000000E+00  0.00000000E+00  0.00000000E+00
  0.00000000E+00  0.00000000E+00  0.00000000E+00
  0.00000000E+00  0.00000000E+00  0.00000000E+00
  0.00000000E+00  0.00000000E+00  0.00000000E+00
  0.00000000E+00  0.00000000E+00  0.00000000E+00
  0.00000000E+00  0.00000000E+00  0.00000000E+00
  0.00000000E+00  0.00000000E+00  0.00000000E+00
  0.00000000E+00  0.00000000E+00  0.00000000E+00
  0.00000000E+00  0.00000000E+00  0.00000000E+00
  0.00000000E+00  0.00000000E+00  0.00000000E+00
  0.00000000E+00  0.00000000E+00  0.00000000E+00
  0.00000000E+00  0.00000000E+00  0.00000000E+00
  0.00000000E+00  0.00000000E+00  0.00000000E+00
  0.00000000E+00  0.00000000E+00  0.00000000E+00
  0.00000000E+00  0.00000000E+00  0.00000000E+00
