H1 W1 C122 N4                           
   1.00000000000000     
    19.8163825117591159   -0.0003747964387250   -0.0583344255429992
    -9.9084407008884146   17.0314491005031314   -0.0529237298943700
    -0.0876369770714830   -0.1434943009676111   29.8156803899743359
   H    W    C    N 
     1     1   122     4
Direct
  0.4371425298269517  0.4993272936755527  0.4872532726969895
  0.4378743888601012  0.5003191261497133  0.4295112146202969
  0.0421831166695376  0.0842867781247826  0.3993871363365155
  0.0411629732324001  0.2083164095296811  0.3993768307037154
  0.0403526593480592  0.3330834257365665  0.3987943325589376
  0.0403530722256505  0.4583163535518250  0.3980856419612556
  0.0413129753888087  0.5838461514696816  0.3984149327859939
  0.0421991699097529  0.7093108747866685  0.3991652037757705
  0.0423989733921846  0.8344841326024076  0.3994508202286545
  0.0425721172964407  0.9596713056175020  0.3993444483203344
  0.1681611371268608  0.0857945329295233  0.3999148155856264
  0.1677655570945448  0.2104778937118885  0.4000389792991498
  0.1650978015724708  0.3338606115127155  0.4003388789631470
  0.1639018443514594  0.4586038247709776  0.3986373689716197
  0.1649849339727591  0.5838585372445946  0.3982027036888413
  0.1664166659221459  0.7090892845870144  0.3987768338162976
  0.1671610872681442  0.8344845220929051  0.3992723911233845
  0.1675912689313194  0.9600570588905807  0.3996659872557518
  0.2927317994555617  0.0857663504611187  0.3998877098247976
  0.2941426672996492  0.2131289809554138  0.4014880281716952
  0.2921725504798657  0.3379355661169106  0.4049264794359280
  0.2865766197510055  0.4588858433457093  0.4041367150015877
  0.2881511530191725  0.5831919646894242  0.4006289207109893
  0.2907669291022995  0.7083858455580028  0.3992038281971951
  0.2917628180308089  0.8339299140070277  0.3989407513194373
  0.2922102972668314  0.9596503809960293  0.3993330179416278
  0.4172188722036991  0.0842636486726167  0.3993500220282989
  0.4178119381938332  0.2104576871812530  0.4000190031776662
  0.4209643938724796  0.3379178186635929  0.4050225614874925
  0.4150185598736179  0.7059312637142622  0.4013431396495337
  0.4161977440789808  0.8322600324744044  0.3991374013671620
  0.4167393335864887  0.9582490349007655  0.3990750581355525
  0.5416358155908796  0.0826697674870481  0.3992082502352476
  0.5422549835085863  0.2083011172755033  0.3992097564123508
  0.5438688064807591  0.3338148996477347  0.4001853953267315
  0.5474409181335886  0.4588442550681525  0.4041402833942508
  0.5385779366595111  0.7019628507311400  0.4048050230250757
  0.5405274746833125  0.8302525267568964  0.4003005880648663
  0.5412483409367933  0.9567380770985270  0.3992763224276649
  0.6661869712022249  0.0820097301496569  0.3995801808996760
  0.6667742990407199  0.2075405066648491  0.3993107355796234
  0.6678077078978049  0.3330697161718226  0.3986759189286205
  0.6697210870498612  0.4585755024859994  0.3982412814102905
  0.6700469231143548  0.5831478938620120  0.4002829060882941
  0.6659728142489806  0.7058962099393399  0.4012379400910597
  0.6647986984393006  0.8302683237949018  0.4002514936987385
  0.6657273466007382  0.9563523432233082  0.3996860912755409
  0.7909346002050919  0.0820041703809864  0.3994552562916348
  0.7912597376517320  0.2074167544533239  0.3993282963462114
  0.7918584356425401  0.3328137229329612  0.3989520383318296
  0.7929822469959177  0.4583083440181233  0.3981290787141702
  0.7938586138039931  0.5838182137305601  0.3979057286413448
  0.7926424398982840  0.7083522915209683  0.3989016405671084
  0.7911101450877579  0.8322392984912875  0.3989659278614912
  0.7905746468304348  0.9567344279398965  0.3991889279539190
  0.9161613116260816  0.0826803114098949  0.3992051360319511
  0.9158746781368298  0.2075564835814253  0.3991682570522682
  0.9160500962410703  0.3328231120290346  0.3987076678275016
  0.9166935269717682  0.4583444291585194  0.3984578709843956
  0.9175528096156101  0.5838460421815634  0.3986096801016601
  0.9177183859833197  0.7090810673558363  0.3989360533791908
  0.9172393765784193  0.8339359263162155  0.3988865282768003
  0.9166193559430761  0.9582535553114505  0.3989622746066244
  0.0845735401406888  0.0434427914486071  0.3995163144540545
  0.0840009417988695  0.1679307547253225  0.3995066282153308
  0.0824790205929378  0.2918323643862389  0.3993804053421985
  0.0812587700302378  0.4163777782063899  0.3982338126515207
  0.0821499240339261  0.5419086821554717  0.3980755975938124
  0.0833084416671328  0.6673767092865911  0.3987778976514048
  0.0839311018092661  0.7927999951818897  0.3993733643027877
  0.0842657273020517  0.9181927454402458  0.3995290410044397
  0.2094744726702913  0.0438280842910821  0.3999069473835636
  0.2103578511453144  0.1699276457334906  0.4004390720771194
  0.2092018663176640  0.2943137049951314  0.4010959395499981
  0.2050920057093018  0.4170903156083839  0.4004099335180257
  0.2054208886489643  0.5416300175382075  0.3986768566780721
  0.2073697597454785  0.6671318374205779  0.3986652606837957
  0.2084127606860652  0.7926451643001832  0.3990074638740611
  0.2090372181599782  0.9182020861344391  0.3994480324805091
  0.3339687591609249  0.0434213519066556  0.3995002230615541
  0.3346731944710337  0.1698993233575623  0.4004420142195650
  0.3367821848064406  0.2983342131095251  0.4043526843752263
  0.3278730895034813  0.5415030071160936  0.4043631857373176
  0.3313611823227539  0.6664065246170893  0.4004934268846171
  0.3329667268656702  0.7918823731800634  0.3989983427446674
  0.3335796193292222  0.9174806375173151  0.3990844630709925
  0.4584848762238689  0.0418951475833308  0.3991784593984249
  0.4590260180734678  0.1679048913705126  0.3994200534854294
  0.4602402377979577  0.2942909598936581  0.4010978309915256
  0.4543825186937945  0.6624122207399724  0.4054423290674013
  0.4573889485007144  0.7897091747545377  0.3999302117040981
  0.4580108855837423  0.9158876199283612  0.3990663962051892
  0.5830162274331392  0.0405012485238112  0.3993475860883988
  0.5834339571367690  0.1662253685505136  0.3991983924749270
  0.5844350935493032  0.2917960797709948  0.3991547233655489
  0.5870390116527454  0.4170284379020809  0.4001921755928076
  0.5887407938584822  0.5414400653584392  0.4043065949272315
  0.5831705530226882  0.6623660869907606  0.4054675014669983
  0.5810829681440132  0.7870626717149950  0.4015758488217832
  0.5824527276740131  0.9143750383225518  0.3996387541318466
  0.7076200179567215  0.0401273055235497  0.3996265123657534
  0.7080428761719101  0.1657117404031517  0.3994900859282007
  0.7087702678546166  0.2911227850653620  0.3990381523266440
  0.7101550554657123  0.4163531174649376  0.3980302077866060
  0.7112142731272161  0.5415822112200919  0.3981984980320885
  0.7100984574429710  0.6663838469504855  0.4002077099166998
  0.7073537438163998  0.7896867220153777  0.3998095438646821
  0.7070065164134842  0.9143864755765095  0.3995786957077908
  0.8326035711992750  0.0405077650051773  0.3992482389685584
  0.8327759485903440  0.1657150138501621  0.3993311916512263
  0.8330140149409168  0.2909083508162819  0.3990382621896262
  0.8338205750713418  0.4163550199328042  0.3985820143251909
  0.8347668865154330  0.5418853179611399  0.3980959886734072
  0.8347905831673307  0.6671098057927962  0.3984649247157999
  0.8339661164762947  0.7918573542552682  0.3987995538675370
  0.8329680506849986  0.9158771924867787  0.3989451579890754
  0.9585388804067952  0.0419124042354311  0.3991665290753934
  0.9579158699400229  0.1662449657919593  0.3992403251832627
  0.9574604831629815  0.2911189857479601  0.3988698867050868
  0.9575932285699631  0.4163700645754612  0.3983847208698742
  0.9584455691607465  0.5418567252426084  0.3984897963645629
  0.9591321433071387  0.6673899814106724  0.3990184277735331
  0.9592936654410514  0.7926454710672787  0.3991810561698856
  0.9590111560603845  0.9174789292669605  0.3989974448237060
  0.4092052532920436  0.5808439791071770  0.4117834163130935
  0.5469270196897572  0.5807872228360175  0.4118958576319320
  0.3286791341948970  0.4197116145449101  0.4112956822008816
  0.4663492982136564  0.4196841929025462  0.4114953943362998
 
  0.00000000E+00  0.00000000E+00  0.00000000E+00
  0.00000000E+00  0.00000000E+00  0.00000000E+00
  0.00000000E+00  0.00000000E+00  0.00000000E+00
  0.00000000E+00  0.00000000E+00  0.00000000E+00
  0.00000000E+00  0.00000000E+00  0.00000000E+00
  0.00000000E+00  0.00000000E+00  0.00000000E+00
  0.00000000E+00  0.00000000E+00  0.00000000E+00
  0.00000000E+00  0.00000000E+00  0.00000000E+00
  0.00000000E+00  0.00000000E+00  0.00000000E+00
  0.00000000E+00  0.00000000E+00  0.00000000E+00
  0.00000000E+00  0.00000000E+00  0.00000000E+00
  0.00000000E+00  0.00000000E+00  0.00000000E+00
  0.00000000E+00  0.00000000E+00  0.00000000E+00
  0.00000000E+00  0.00000000E+00  0.00000000E+00
  0.00000000E+00  0.00000000E+00  0.00000000E+00
  0.00000000E+00  0.00000000E+00  0.00000000E+00
  0.00000000E+00  0.00000000E+00  0.00000000E+00
  0.00000000E+00  0.00000000E+00  0.00000000E+00
  0.00000000E+00  0.00000000E+00  0.00000000E+00
  0.00000000E+00  0.00000000E+00  0.00000000E+00
  0.00000000E+00  0.00000000E+00  0.00000000E+00
  0.00000000E+00  0.00000000E+00  0.00000000E+00
  0.00000000E+00  0.00000000E+00  0.00000000E+00
  0.00000000E+00  0.00000000E+00  0.00000000E+00
  0.00000000E+00  0.00000000E+00  0.00000000E+00
  0.00000000E+00  0.00000000E+00  0.00000000E+00
  0.00000000E+00  0.00000000E+00  0.00000000E+00
  0.00000000E+00  0.00000000E+00  0.00000000E+00
  0.00000000E+00  0.00000000E+00  0.00000000E+00
  0.00000000E+00  0.00000000E+00  0.00000000E+00
  0.00000000E+00  0.00000000E+00  0.00000000E+00
  0.00000000E+00  0.00000000E+00  0.00000000E+00
  0.00000000E+00  0.00000000E+00  0.00000000E+00
  0.00000000E+00  0.00000000E+00  0.00000000E+00
  0.00000000E+00  0.00000000E+00  0.00000000E+00
  0.00000000E+00  0.00000000E+00  0.00000000E+00
  0.00000000E+00  0.00000000E+00  0.00000000E+00
  0.00000000E+00  0.00000000E+00  0.00000000E+00
  0.00000000E+00  0.00000000E+00  0.00000000E+00
  0.00000000E+00  0.00000000E+00  0.00000000E+00
  0.00000000E+00  0.00000000E+00  0.00000000E+00
  0.00000000E+00  0.00000000E+00  0.00000000E+00
  0.00000000E+00  0.00000000E+00  0.00000000E+00
  0.00000000E+00  0.00000000E+00  0.00000000E+00
  0.00000000E+00  0.00000000E+00  0.00000000E+00
  0.00000000E+00  0.00000000E+00  0.00000000E+00
  0.00000000E+00  0.00000000E+00  0.00000000E+00
  0.00000000E+00  0.00000000E+00  0.00000000E+00
  0.00000000E+00  0.00000000E+00  0.00000000E+00
  0.00000000E+00  0.00000000E+00  0.00000000E+00
  0.00000000E+00  0.00000000E+00  0.00000000E+00
  0.00000000E+00  0.00000000E+00  0.00000000E+00
  0.00000000E+00  0.00000000E+00  0.00000000E+00
  0.00000000E+00  0.00000000E+00  0.00000000E+00
  0.00000000E+00  0.00000000E+00  0.00000000E+00
  0.00000000E+00  0.00000000E+00  0.00000000E+00
  0.00000000E+00  0.00000000E+00  0.00000000E+00
  0.00000000E+00  0.00000000E+00  0.00000000E+00
  0.00000000E+00  0.00000000E+00  0.00000000E+00
  0.00000000E+00  0.00000000E+00  0.00000000E+00
  0.00000000E+00  0.00000000E+00  0.00000000E+00
  0.00000000E+00  0.00000000E+00  0.00000000E+00
  0.00000000E+00  0.00000000E+00  0.00000000E+00
  0.00000000E+00  0.00000000E+00  0.00000000E+00
  0.00000000E+00  0.00000000E+00  0.00000000E+00
  0.00000000E+00  0.00000000E+00  0.00000000E+00
  0.00000000E+00  0.00000000E+00  0.00000000E+00
  0.00000000E+00  0.00000000E+00  0.00000000E+00
  0.00000000E+00  0.00000000E+00  0.00000000E+00
  0.00000000E+00  0.00000000E+00  0.00000000E+00
  0.00000000E+00  0.00000000E+00  0.00000000E+00
  0.00000000E+00  0.00000000E+00  0.00000000E+00
  0.00000000E+00  0.00000000E+00  0.00000000E+00
  0.00000000E+00  0.00000000E+00  0.00000000E+00
  0.00000000E+00  0.00000000E+00  0.00000000E+00
  0.00000000E+00  0.00000000E+00  0.00000000E+00
  0.00000000E+00  0.00000000E+00  0.00000000E+00
  0.00000000E+00  0.00000000E+00  0.00000000E+00
  0.00000000E+00  0.00000000E+00  0.00000000E+00
  0.00000000E+00  0.00000000E+00  0.00000000E+00
  0.00000000E+00  0.00000000E+00  0.00000000E+00
  0.00000000E+00  0.00000000E+00  0.00000000E+00
  0.00000000E+00  0.00000000E+00  0.00000000E+00
  0.00000000E+00  0.00000000E+00  0.00000000E+00
  0.00000000E+00  0.00000000E+00  0.00000000E+00
  0.00000000E+00  0.00000000E+00  0.00000000E+00
  0.00000000E+00  0.00000000E+00  0.00000000E+00
  0.00000000E+00  0.00000000E+00  0.00000000E+00
  0.00000000E+00  0.00000000E+00  0.00000000E+00
  0.00000000E+00  0.00000000E+00  0.00000000E+00
  0.00000000E+00  0.00000000E+00  0.00000000E+00
  0.00000000E+00  0.00000000E+00  0.00000000E+00
  0.00000000E+00  0.00000000E+00  0.00000000E+00
  0.00000000E+00  0.00000000E+00  0.00000000E+00
  0.00000000E+00  0.00000000E+00  0.00000000E+00
  0.00000000E+00  0.00000000E+00  0.00000000E+00
  0.00000000E+00  0.00000000E+00  0.00000000E+00
  0.00000000E+00  0.00000000E+00  0.00000000E+00
  0.00000000E+00  0.00000000E+00  0.00000000E+00
  0.00000000E+00  0.00000000E+00  0.00000000E+00
  0.00000000E+00  0.00000000E+00  0.00000000E+00
  0.00000000E+00  0.00000000E+00  0.00000000E+00
  0.00000000E+00  0.00000000E+00  0.00000000E+00
  0.00000000E+00  0.00000000E+00  0.00000000E+00
  0.00000000E+00  0.00000000E+00  0.00000000E+00
  0.00000000E+00  0.00000000E+00  0.00000000E+00
  0.00000000E+00  0.00000000E+00  0.00000000E+00
  0.00000000E+00  0.00000000E+00  0.00000000E+00
  0.00000000E+00  0.00000000E+00  0.00000000E+00
  0.00000000E+00  0.00000000E+00  0.00000000E+00
  0.00000000E+00  0.00000000E+00  0.00000000E+00
  0.00000000E+00  0.00000000E+00  0.00000000E+00
  0.00000000E+00  0.00000000E+00  0.00000000E+00
  0.00000000E+00  0.00000000E+00  0.00000000E+00
  0.00000000E+00  0.00000000E+00  0.00000000E+00
  0.00000000E+00  0.00000000E+00  0.00000000E+00
  0.00000000E+00  0.00000000E+00  0.00000000E+00
  0.00000000E+00  0.00000000E+00  0.00000000E+00
  0.00000000E+00  0.00000000E+00  0.00000000E+00
  0.00000000E+00  0.00000000E+00  0.00000000E+00
  0.00000000E+00  0.00000000E+00  0.00000000E+00
  0.00000000E+00  0.00000000E+00  0.00000000E+00
  0.00000000E+00  0.00000000E+00  0.00000000E+00
  0.00000000E+00  0.00000000E+00  0.00000000E+00
  0.00000000E+00  0.00000000E+00  0.00000000E+00
  0.00000000E+00  0.00000000E+00  0.00000000E+00
  0.00000000E+00  0.00000000E+00  0.00000000E+00
  0.00000000E+00  0.00000000E+00  0.00000000E+00
