Mn1 H1 C123 N3                          
   1.00000000000000     
    19.8061411117913408    0.0049183856552282    0.0448063652803304
    -9.8987042502137044   17.0294383226596615   -0.0972368100142412
     0.0674795177967672   -0.1308823117565114   29.8297612824323792
   Mn   H    C    N 
     1     1   123     3
Direct
  0.4368824198073301  0.4993454221866688  0.4179348472238681
  0.4408679431981745  0.4924175338967863  0.4700712749625785
  0.0419668812357081  0.0842024782738396  0.4001866731981786
  0.0411204012826007  0.2083203102532794  0.4005278844434528
  0.0404573596498875  0.3330504862712289  0.4000644017798506
  0.0405949607033111  0.4582616875289318  0.3992659723259466
  0.0413826781597706  0.5837895634669257  0.3989180147402763
  0.0421737059827352  0.7092625178592760  0.3990648895789795
  0.0424191577321694  0.8345063352463755  0.3993162133034890
  0.0423709931182042  0.9596102036763252  0.3995628166838866
  0.1677418210882987  0.0854947860422031  0.4009694313979845
  0.1674777523385960  0.2103966517262618  0.4022240452370162
  0.1652991711270033  0.3338366830942254  0.4021952394513600
  0.1644741950500731  0.4585711845713910  0.4007375445298847
  0.1651855920391023  0.5837460049064401  0.3996935510043149
  0.1664191342284831  0.7090526081059400  0.3993226110283088
  0.1671034225423613  0.8345039253400930  0.3992787547987592
  0.1674652171166150  0.9600427789122357  0.3997940866501563
  0.2925810378356477  0.0857972189093050  0.4009223766097014
  0.2931443928218444  0.2124708969458130  0.4033356898218419
  0.2926205629706910  0.3383215006423193  0.4049224406818429
  0.2880972305131791  0.4584304693469392  0.4033242292327701
  0.2885402070970057  0.5831177618935467  0.4013890006649924
  0.2906697815910225  0.7084341940107399  0.4003330002875349
  0.2916814321311663  0.8339731830668388  0.3995081103787783
  0.2921841550053853  0.9596717888705977  0.3994883433822331
  0.4170680253275900  0.0842709419420275  0.4000383116000599
  0.4177033665741393  0.2104574635110179  0.4020514122400359
  0.4194151839561833  0.3379726833854550  0.4053796982369544
  0.4147583971780209  0.7061069902247521  0.4021751734802080
  0.4161390024021394  0.8322931278534975  0.4005401927741686
  0.4167159602083376  0.9583166115381676  0.3995074259580904
  0.5415621699456398  0.0826838680584423  0.3993860181825290
  0.5421176202546109  0.2085135378822183  0.4003155156496548
  0.5431811954192336  0.3341377583693378  0.4023115362401060
  0.5465626814474835  0.4596560143573304  0.4046764208827909
  0.5382883200559097  0.7017555150439443  0.4043113276745278
  0.5404866873344747  0.8302284053415629  0.4018732705587737
  0.5411076352193362  0.9567067464295592  0.4000910449245222
  0.6661260263800071  0.0820023374708147  0.3995305501668284
  0.6665539198353988  0.2075338486573376  0.3992856970187016
  0.6674516549317218  0.3330572167804268  0.3999266594350718
  0.6694759134828152  0.4586817239368421  0.4011971413187416
  0.6704137927140076  0.5840299556565458  0.4026696097670992
  0.6662863831555729  0.7061593499664381  0.4029397897861200
  0.6646956318032602  0.8302900137554196  0.4020115215602781
  0.6655802666703131  0.9562973124494295  0.4005876079954045
  0.7907889259522959  0.0819720945270425  0.3996389812107480
  0.7911290413004909  0.2073429180263348  0.3992072612399978
  0.7917454289101893  0.3327861985474995  0.3989676102809935
  0.7928520647915582  0.4583026711841937  0.3991973951579663
  0.7937192019717656  0.5838074571631090  0.3999778834584654
  0.7931224818510058  0.7088591764015787  0.4007595737879854
  0.7911048102485695  0.8323636368663669  0.4007552035521729
  0.7904880863471697  0.9567248757303088  0.4001678863688010
  0.9159893236757444  0.0826608943378665  0.3995903949437226
  0.9158379816689940  0.2075156905849613  0.3995114411432438
  0.9160228801373393  0.3327682526304148  0.3990958614850479
  0.9167325554035511  0.4582803816421336  0.3986637770715731
  0.9175485673292968  0.5838188495036873  0.3988406686121958
  0.9177039324227168  0.7091070883241359  0.3993763986548375
  0.9173736066167247  0.8340870111195190  0.3995709128736769
  0.9165407701899481  0.9583073311501670  0.3996210830679655
  0.0842087828173163  0.0432399463250840  0.4001592386892375
  0.0837688797946761  0.1678434244957298  0.4009627216129429
  0.0824447279335681  0.2917701654354011  0.4009177915269176
  0.0816892010099556  0.4164030600189345  0.3999558580817464
  0.0823121245862204  0.5418493597397707  0.3992135597238713
  0.0833068263847525  0.6673412100592361  0.3990554223360243
  0.0838790032181509  0.7927772872007706  0.3992307541655170
  0.0841499098648050  0.9181154003567167  0.3995246015639765
  0.2092073466825550  0.0437141715744103  0.4005692525122584
  0.2096191041922403  0.1693785501770166  0.4022712678444776
  0.2088594483947498  0.2941941553998211  0.4032053320943564
  0.2059959612027401  0.4171618961412172  0.4020951586997021
  0.2057936317602465  0.5416109416978394  0.4004784995461681
  0.2074163263633537  0.6670925679604210  0.3997056953853622
  0.2084500864720453  0.7926324438053823  0.3993300892835407
  0.2089067899612508  0.9181175951778812  0.3994804527309018
  0.3338786407611990  0.0433855829263667  0.4000636384680797
  0.3342864718398891  0.1696527546166756  0.4022211818133561
  0.3351437239157474  0.2969456196112407  0.4050374761156000
  0.3295071384965969  0.5420408234071765  0.4029067120111319
  0.3314726741831853  0.6663327556843616  0.4013166799524424
  0.3329366348985766  0.7917972886761071  0.4001008391228389
  0.3334717658993909  0.9174615986902711  0.3993870096793937
  0.4583567879922301  0.0418394913592751  0.3995133558796796
  0.4588267337914275  0.1678826335084629  0.4007784176228049
  0.4597994255899036  0.2940939495971746  0.4031648081040872
  0.4642016385552864  0.4206920753361665  0.4072643615977621
  0.4538597906406399  0.6613639972132822  0.4039679721593713
  0.4572386662166185  0.7896685868346227  0.4015548486429563
  0.4579376480034895  0.9159019622954417  0.4000037293880303
  0.5828465315024101  0.0404375221456138  0.3995331338066461
  0.5833641257080896  0.1662534192424624  0.3995143809431646
  0.5841923404302981  0.2918673419777865  0.4007887382701990
  0.5867004223617382  0.4175058433400020  0.4026790782232791
  0.5889181858988320  0.5431570781094572  0.4044870482562284
  0.5822253397337347  0.6612586975613848  0.4047248345168880
  0.5808754776736872  0.7868497545095141  0.4028782139445004
  0.5823405079329276  0.9142448671700205  0.4008562149090231
  0.7074915817414921  0.0400639342276196  0.3998889537951751
  0.7079270366082204  0.1656264851691362  0.3992485247850924
  0.7085525371796302  0.2911186611027206  0.3992949694473746
  0.7100066212902902  0.4165269902670995  0.3999642027023420
  0.7111905602025619  0.5418310318081289  0.4012163167243094
  0.7103114461906928  0.6670127387688605  0.4022046145629401
  0.7073734201689728  0.7897745799408081  0.4019021444986974
  0.7068305579069325  0.9142844584811042  0.4009058536358632
  0.8324891914207593  0.0404478263699554  0.3996729660328895
  0.8326170077640881  0.1656276014347964  0.3993949133203159
  0.8329273452761401  0.2908825404971849  0.3990160948937957
  0.8337625910814448  0.4163165566708488  0.3988149224014457
  0.8347001073933564  0.5418790761762422  0.3991997225956804
  0.8348198639793589  0.6672637652605302  0.3999534034288700
  0.8340460018340881  0.7920685102645559  0.4003025180800708
  0.8328743547128622  0.9159431287916541  0.4001101358177451
  0.9583662596223179  0.0418420117439934  0.3996800189221763
  0.9577400753645325  0.1661776496899473  0.3997489663635265
  0.9574764049220131  0.2911041938394566  0.3995001507860015
  0.9576932069766175  0.4163288220071333  0.3989242544591777
  0.9584692977206140  0.5418075569972378  0.3986847259346704
  0.9591327641298982  0.6673483039047279  0.3990453492980860
  0.9592022876359972  0.7926876793110674  0.3993817043615542
  0.9589341776040609  0.9175289017311197  0.3994588301021515
  0.4099142042705078  0.5808561440378477  0.4050988854017535
  0.5460660245697980  0.5806453910401052  0.4062156661946381
  0.3306321502882890  0.4199895156932000  0.4055131204711202
 
  0.00000000E+00  0.00000000E+00  0.00000000E+00
  0.00000000E+00  0.00000000E+00  0.00000000E+00
  0.00000000E+00  0.00000000E+00  0.00000000E+00
  0.00000000E+00  0.00000000E+00  0.00000000E+00
  0.00000000E+00  0.00000000E+00  0.00000000E+00
  0.00000000E+00  0.00000000E+00  0.00000000E+00
  0.00000000E+00  0.00000000E+00  0.00000000E+00
  0.00000000E+00  0.00000000E+00  0.00000000E+00
  0.00000000E+00  0.00000000E+00  0.00000000E+00
  0.00000000E+00  0.00000000E+00  0.00000000E+00
  0.00000000E+00  0.00000000E+00  0.00000000E+00
  0.00000000E+00  0.00000000E+00  0.00000000E+00
  0.00000000E+00  0.00000000E+00  0.00000000E+00
  0.00000000E+00  0.00000000E+00  0.00000000E+00
  0.00000000E+00  0.00000000E+00  0.00000000E+00
  0.00000000E+00  0.00000000E+00  0.00000000E+00
  0.00000000E+00  0.00000000E+00  0.00000000E+00
  0.00000000E+00  0.00000000E+00  0.00000000E+00
  0.00000000E+00  0.00000000E+00  0.00000000E+00
  0.00000000E+00  0.00000000E+00  0.00000000E+00
  0.00000000E+00  0.00000000E+00  0.00000000E+00
  0.00000000E+00  0.00000000E+00  0.00000000E+00
  0.00000000E+00  0.00000000E+00  0.00000000E+00
  0.00000000E+00  0.00000000E+00  0.00000000E+00
  0.00000000E+00  0.00000000E+00  0.00000000E+00
  0.00000000E+00  0.00000000E+00  0.00000000E+00
  0.00000000E+00  0.00000000E+00  0.00000000E+00
  0.00000000E+00  0.00000000E+00  0.00000000E+00
  0.00000000E+00  0.00000000E+00  0.00000000E+00
  0.00000000E+00  0.00000000E+00  0.00000000E+00
  0.00000000E+00  0.00000000E+00  0.00000000E+00
  0.00000000E+00  0.00000000E+00  0.00000000E+00
  0.00000000E+00  0.00000000E+00  0.00000000E+00
  0.00000000E+00  0.00000000E+00  0.00000000E+00
  0.00000000E+00  0.00000000E+00  0.00000000E+00
  0.00000000E+00  0.00000000E+00  0.00000000E+00
  0.00000000E+00  0.00000000E+00  0.00000000E+00
  0.00000000E+00  0.00000000E+00  0.00000000E+00
  0.00000000E+00  0.00000000E+00  0.00000000E+00
  0.00000000E+00  0.00000000E+00  0.00000000E+00
  0.00000000E+00  0.00000000E+00  0.00000000E+00
  0.00000000E+00  0.00000000E+00  0.00000000E+00
  0.00000000E+00  0.00000000E+00  0.00000000E+00
  0.00000000E+00  0.00000000E+00  0.00000000E+00
  0.00000000E+00  0.00000000E+00  0.00000000E+00
  0.00000000E+00  0.00000000E+00  0.00000000E+00
  0.00000000E+00  0.00000000E+00  0.00000000E+00
  0.00000000E+00  0.00000000E+00  0.00000000E+00
  0.00000000E+00  0.00000000E+00  0.00000000E+00
  0.00000000E+00  0.00000000E+00  0.00000000E+00
  0.00000000E+00  0.00000000E+00  0.00000000E+00
  0.00000000E+00  0.00000000E+00  0.00000000E+00
  0.00000000E+00  0.00000000E+00  0.00000000E+00
  0.00000000E+00  0.00000000E+00  0.00000000E+00
  0.00000000E+00  0.00000000E+00  0.00000000E+00
  0.00000000E+00  0.00000000E+00  0.00000000E+00
  0.00000000E+00  0.00000000E+00  0.00000000E+00
  0.00000000E+00  0.00000000E+00  0.00000000E+00
  0.00000000E+00  0.00000000E+00  0.00000000E+00
  0.00000000E+00  0.00000000E+00  0.00000000E+00
  0.00000000E+00  0.00000000E+00  0.00000000E+00
  0.00000000E+00  0.00000000E+00  0.00000000E+00
  0.00000000E+00  0.00000000E+00  0.00000000E+00
  0.00000000E+00  0.00000000E+00  0.00000000E+00
  0.00000000E+00  0.00000000E+00  0.00000000E+00
  0.00000000E+00  0.00000000E+00  0.00000000E+00
  0.00000000E+00  0.00000000E+00  0.00000000E+00
  0.00000000E+00  0.00000000E+00  0.00000000E+00
  0.00000000E+00  0.00000000E+00  0.00000000E+00
  0.00000000E+00  0.00000000E+00  0.00000000E+00
  0.00000000E+00  0.00000000E+00  0.00000000E+00
  0.00000000E+00  0.00000000E+00  0.00000000E+00
  0.00000000E+00  0.00000000E+00  0.00000000E+00
  0.00000000E+00  0.00000000E+00  0.00000000E+00
  0.00000000E+00  0.00000000E+00  0.00000000E+00
  0.00000000E+00  0.00000000E+00  0.00000000E+00
  0.00000000E+00  0.00000000E+00  0.00000000E+00
  0.00000000E+00  0.00000000E+00  0.00000000E+00
  0.00000000E+00  0.00000000E+00  0.00000000E+00
  0.00000000E+00  0.00000000E+00  0.00000000E+00
  0.00000000E+00  0.00000000E+00  0.00000000E+00
  0.00000000E+00  0.00000000E+00  0.00000000E+00
  0.00000000E+00  0.00000000E+00  0.00000000E+00
  0.00000000E+00  0.00000000E+00  0.00000000E+00
  0.00000000E+00  0.00000000E+00  0.00000000E+00
  0.00000000E+00  0.00000000E+00  0.00000000E+00
  0.00000000E+00  0.00000000E+00  0.00000000E+00
  0.00000000E+00  0.00000000E+00  0.00000000E+00
  0.00000000E+00  0.00000000E+00  0.00000000E+00
  0.00000000E+00  0.00000000E+00  0.00000000E+00
  0.00000000E+00  0.00000000E+00  0.00000000E+00
  0.00000000E+00  0.00000000E+00  0.00000000E+00
  0.00000000E+00  0.00000000E+00  0.00000000E+00
  0.00000000E+00  0.00000000E+00  0.00000000E+00
  0.00000000E+00  0.00000000E+00  0.00000000E+00
  0.00000000E+00  0.00000000E+00  0.00000000E+00
  0.00000000E+00  0.00000000E+00  0.00000000E+00
  0.00000000E+00  0.00000000E+00  0.00000000E+00
  0.00000000E+00  0.00000000E+00  0.00000000E+00
  0.00000000E+00  0.00000000E+00  0.00000000E+00
  0.00000000E+00  0.00000000E+00  0.00000000E+00
  0.00000000E+00  0.00000000E+00  0.00000000E+00
  0.00000000E+00  0.00000000E+00  0.00000000E+00
  0.00000000E+00  0.00000000E+00  0.00000000E+00
  0.00000000E+00  0.00000000E+00  0.00000000E+00
  0.00000000E+00  0.00000000E+00  0.00000000E+00
  0.00000000E+00  0.00000000E+00  0.00000000E+00
  0.00000000E+00  0.00000000E+00  0.00000000E+00
  0.00000000E+00  0.00000000E+00  0.00000000E+00
  0.00000000E+00  0.00000000E+00  0.00000000E+00
  0.00000000E+00  0.00000000E+00  0.00000000E+00
  0.00000000E+00  0.00000000E+00  0.00000000E+00
  0.00000000E+00  0.00000000E+00  0.00000000E+00
  0.00000000E+00  0.00000000E+00  0.00000000E+00
  0.00000000E+00  0.00000000E+00  0.00000000E+00
  0.00000000E+00  0.00000000E+00  0.00000000E+00
  0.00000000E+00  0.00000000E+00  0.00000000E+00
  0.00000000E+00  0.00000000E+00  0.00000000E+00
  0.00000000E+00  0.00000000E+00  0.00000000E+00
  0.00000000E+00  0.00000000E+00  0.00000000E+00
  0.00000000E+00  0.00000000E+00  0.00000000E+00
  0.00000000E+00  0.00000000E+00  0.00000000E+00
  0.00000000E+00  0.00000000E+00  0.00000000E+00
  0.00000000E+00  0.00000000E+00  0.00000000E+00
  0.00000000E+00  0.00000000E+00  0.00000000E+00
  0.00000000E+00  0.00000000E+00  0.00000000E+00
  0.00000000E+00  0.00000000E+00  0.00000000E+00
  0.00000000E+00  0.00000000E+00  0.00000000E+00
