Fe1 C126                                
   1.00000000000000     
    19.8117404128093924   -0.0000407677346130   -0.0011510499771828
    -9.9059053682622142   17.0831040552681159    0.0004958471601608
    -0.0017402332123062   -0.0001403337992925   29.7312499639589234
   Fe   C 
     1   126
Direct
  0.4374965474826921  0.5000003716237233  0.4176421259277951
  0.0416912118711207  0.0835267259027628  0.3997916505710544
  0.0409672825342782  0.2079361984300950  0.3997523322723104
  0.0406170146968679  0.3327907352544226  0.3997709137452027
  0.0407326803537512  0.4582749603838776  0.3998626153082008
  0.0413614349238415  0.5835889088076714  0.3999362495574349
  0.0418815298187351  0.7087649654236775  0.3999903816461277
  0.0421305908266468  0.8339319336899546  0.3999795401806658
  0.0421248629587073  0.9589094231853197  0.3999251948418235
  0.1671674231123727  0.0842757978353787  0.3998974980098193
  0.1666230181581985  0.2088096187868418  0.4001030989900715
  0.1652678524755545  0.3329548624892430  0.4001195299318558
  0.1644163784635506  0.4581752528905177  0.3996513300627292
  0.1654279622420332  0.5835642943721134  0.3997143138531894
  0.1664543703630410  0.7088641618224909  0.3999181544504440
  0.1668031911884716  0.8339372321691795  0.3999741756950547
  0.1670681528323416  0.9591398171077351  0.3999634612283379
  0.2921095140859928  0.0842740193760451  0.3998884409330285
  0.2926476468488006  0.2102877218556325  0.4006580275122060
  0.2918097477661616  0.3353450204929525  0.4023908817349537
  0.2876596292727032  0.4575322306791473  0.4018953569755176
  0.2891575143152424  0.5839203269714746  0.4001903156204885
  0.2909437951422660  0.7088543101294865  0.3997070377791082
  0.2915244257808659  0.8337773933610275  0.3998962399353242
  0.2917835381202319  0.9589099760159547  0.3999209471154158
  0.4168325257209983  0.0835215610556480  0.3997835739052723
  0.4171901587622209  0.2088100134408600  0.4000910891978763
  0.4185365504894994  0.3353384994928875  0.4024004676238063
  0.4116513653948327  0.5824117820367810  0.4042621746110260
  0.4156216941356066  0.7077035572904911  0.4007282361822548
  0.4163328257366191  0.8331676281836303  0.3997495263477050
  0.4165966804424195  0.9583282311034467  0.3998566164008652
  0.5416359143904659  0.0828685929536040  0.3999156510756186
  0.5419690992487006  0.2079359694745208  0.3997412522506828
  0.5426844401752831  0.3329518124932661  0.4001162894092593
  0.5448732937118063  0.4575291925695862  0.4019146799070236
  0.5457707925492058  0.5824192042948919  0.4043021807758166
  0.5407588568117417  0.7065180770988404  0.4021624946010980
  0.5410254931704205  0.8322572349613404  0.4001185496379337
  0.5414436171517515  0.9576838161563143  0.3998690261997602
  0.6664171619169303  0.0826436862081855  0.3999627759596233
  0.6666933573228384  0.2077702203792428  0.3999564483202092
  0.6671737759571803  0.3327942776933359  0.3997445443573657
  0.6687557100178633  0.4581732761363833  0.3996273885586064
  0.6697677679481274  0.5839255725053110  0.4001886399420296
  0.6670815558799088  0.7077064454431298  0.4007274956210189
  0.6662373299454438  0.8322582633601010  0.4001103022616619
  0.6662450948130677  0.9574911325365153  0.3999361872069306
  0.7912246274780701  0.0826399221980762  0.3999523542894420
  0.7913477732821312  0.2076947336349907  0.3999872339588392
  0.7917165386371050  0.3328972347350943  0.3999452536883557
  0.7925402991466837  0.4582751151872844  0.3998323563443931
  0.7931347842365657  0.5835632863250438  0.3996792027642633
  0.7929119529474070  0.7088571197161230  0.3996898000079009
  0.7918364856710779  0.8331705416241314  0.3997398520116763
  0.7912423960608980  0.9576850736334527  0.3998596815472575
  0.9162351781032463  0.0828720770443865  0.3999119784951987
  0.9160754155740102  0.2077668724528461  0.3999563966048323
  0.9161756703295443  0.3328941487443454  0.3999594981976799
  0.9165841099596568  0.4581722862283090  0.3999235817203509
  0.9172225179155697  0.5835856512308413  0.3999212654208373
  0.9174085385099825  0.7088628609976880  0.3999041422020986
  0.9172519289971436  0.8337774044941325  0.3998963414176201
  0.9167323354147978  0.9583334960296882  0.3998567124249617
  0.0837603255068753  0.0423161911272743  0.3998697708014958
  0.0831665938572474  0.1668323309162211  0.3997508882660485
  0.0820880780463379  0.2911438116765271  0.3997085930236373
  0.0818633480723410  0.4164355165954704  0.3997146079860705
  0.0824581622375234  0.5417250489450830  0.3998621732852593
  0.0832810725477649  0.6671052824620721  0.3999592597426884
  0.0836532095046807  0.7923055669363077  0.3999868568516109
  0.0837731118578460  0.9173562817367252  0.3999616679451877
  0.2087532693106662  0.0425092901460686  0.3999366085983947
  0.2087682473549924  0.1677434689644667  0.4001182098194826
  0.2079193918659079  0.2922971523781611  0.4007285854814748
  0.2052365027007220  0.4160788137203233  0.4001912153355223
  0.2062426608716666  0.5418253358760979  0.3996511869732174
  0.2078264941463671  0.6672095251495211  0.3997691075853465
  0.2083073551751514  0.7922332021257750  0.3999552670065286
  0.2085849898971287  0.9173615325478349  0.3999532203502446
  0.3335576085970460  0.0423163399018779  0.3998589840082198
  0.3339791589638167  0.1677415260580508  0.4001120981613269
  0.3342424963459735  0.2934819687197734  0.4021619408700211
  0.3292384203187333  0.4175876480791655  0.4042633558787861
  0.3301286531124281  0.5424674478799855  0.4018947431312599
  0.3323133994650348  0.6670472182347084  0.4001196004612754
  0.3330301261024911  0.7920636501331916  0.3997506394263058
  0.3333624655637647  0.9171287102344403  0.3999111979502684
  0.4583981274135640  0.0416667213084489  0.3998571043307497
  0.4586661513063595  0.1668293046841709  0.3997407623986950
  0.4593767479826443  0.2922938294314646  0.4007265660293340
  0.4633521539292976  0.4175819193278095  0.4042997113630888
  0.4564640260591513  0.6646547063893484  0.4023916338115007
  0.4578126373324597  0.7911904758536561  0.4001017667581317
  0.4581632459323181  0.9164729411788675  0.3997915550927709
  0.5832152488246218  0.0410898789081645  0.3999259889784849
  0.5834739818673640  0.1662214993890168  0.3998964485709675
  0.5840547620065581  0.2911417905861482  0.3996902000755471
  0.5858421714020379  0.4160743711358149  0.4001889815688571
  0.5873451883062224  0.5424706278221931  0.4019153451571035
  0.5831966879552490  0.6646610705779973  0.4023999006790564
  0.5823589649956789  0.7897127934066652  0.4006564754810318
  0.5828916122322678  0.9157244889352679  0.3998964385619740
  0.7079284074283437  0.0408599391748029  0.3999642257522588
  0.7081989625555823  0.1660679821184604  0.3999798507745453
  0.7085450183516764  0.2911373523621648  0.3999053255925135
  0.7095707145356107  0.4164357450795607  0.3996799199333523
  0.7105817930520609  0.5418253102744841  0.3996273042344093
  0.7097317178288616  0.6670479921906722  0.4001160731854734
  0.7083799125741709  0.7911913682236954  0.4000900166994796
  0.7078358154037877  0.9157260874405959  0.3998877747692499
  0.8328731617570994  0.0410905249627331  0.3999213101654902
  0.8328668162904243  0.1660640671100879  0.3999747497276525
  0.8331167036217398  0.2912354331875189  0.3999900873612611
  0.8336362985057245  0.4164141218922210  0.3999209859033385
  0.8342661150487019  0.5417254027052950  0.3998320083677455
  0.8343787376497676  0.6672051595377398  0.3997438843385527
  0.8340321384345581  0.7920637176619844  0.3997409771707283
  0.8333106377795039  0.9164782389831913  0.3997829749703842
  0.9582682744532809  0.0416708967904283  0.3998566679080359
  0.9577475638297815  0.1662225267414262  0.3998974404014212
  0.9575902604534275  0.2911357481749013  0.3999193939121149
  0.9577710291403267  0.4164100504041134  0.3999365918535015
  0.9584123304685092  0.5418261889000338  0.3999238481939733
  0.9588193910909122  0.6671020081884720  0.3999452999803099
  0.9589223075281584  0.7922285800341849  0.3999562409743729
  0.9587661136584065  0.9171301481795580  0.3999153347055857
 
  0.00000000E+00  0.00000000E+00  0.00000000E+00
  0.00000000E+00  0.00000000E+00  0.00000000E+00
  0.00000000E+00  0.00000000E+00  0.00000000E+00
  0.00000000E+00  0.00000000E+00  0.00000000E+00
  0.00000000E+00  0.00000000E+00  0.00000000E+00
  0.00000000E+00  0.00000000E+00  0.00000000E+00
  0.00000000E+00  0.00000000E+00  0.00000000E+00
  0.00000000E+00  0.00000000E+00  0.00000000E+00
  0.00000000E+00  0.00000000E+00  0.00000000E+00
  0.00000000E+00  0.00000000E+00  0.00000000E+00
  0.00000000E+00  0.00000000E+00  0.00000000E+00
  0.00000000E+00  0.00000000E+00  0.00000000E+00
  0.00000000E+00  0.00000000E+00  0.00000000E+00
  0.00000000E+00  0.00000000E+00  0.00000000E+00
  0.00000000E+00  0.00000000E+00  0.00000000E+00
  0.00000000E+00  0.00000000E+00  0.00000000E+00
  0.00000000E+00  0.00000000E+00  0.00000000E+00
  0.00000000E+00  0.00000000E+00  0.00000000E+00
  0.00000000E+00  0.00000000E+00  0.00000000E+00
  0.00000000E+00  0.00000000E+00  0.00000000E+00
  0.00000000E+00  0.00000000E+00  0.00000000E+00
  0.00000000E+00  0.00000000E+00  0.00000000E+00
  0.00000000E+00  0.00000000E+00  0.00000000E+00
  0.00000000E+00  0.00000000E+00  0.00000000E+00
  0.00000000E+00  0.00000000E+00  0.00000000E+00
  0.00000000E+00  0.00000000E+00  0.00000000E+00
  0.00000000E+00  0.00000000E+00  0.00000000E+00
  0.00000000E+00  0.00000000E+00  0.00000000E+00
  0.00000000E+00  0.00000000E+00  0.00000000E+00
  0.00000000E+00  0.00000000E+00  0.00000000E+00
  0.00000000E+00  0.00000000E+00  0.00000000E+00
  0.00000000E+00  0.00000000E+00  0.00000000E+00
  0.00000000E+00  0.00000000E+00  0.00000000E+00
  0.00000000E+00  0.00000000E+00  0.00000000E+00
  0.00000000E+00  0.00000000E+00  0.00000000E+00
  0.00000000E+00  0.00000000E+00  0.00000000E+00
  0.00000000E+00  0.00000000E+00  0.00000000E+00
  0.00000000E+00  0.00000000E+00  0.00000000E+00
  0.00000000E+00  0.00000000E+00  0.00000000E+00
  0.00000000E+00  0.00000000E+00  0.00000000E+00
  0.00000000E+00  0.00000000E+00  0.00000000E+00
  0.00000000E+00  0.00000000E+00  0.00000000E+00
  0.00000000E+00  0.00000000E+00  0.00000000E+00
  0.00000000E+00  0.00000000E+00  0.00000000E+00
  0.00000000E+00  0.00000000E+00  0.00000000E+00
  0.00000000E+00  0.00000000E+00  0.00000000E+00
  0.00000000E+00  0.00000000E+00  0.00000000E+00
  0.00000000E+00  0.00000000E+00  0.00000000E+00
  0.00000000E+00  0.00000000E+00  0.00000000E+00
  0.00000000E+00  0.00000000E+00  0.00000000E+00
  0.00000000E+00  0.00000000E+00  0.00000000E+00
  0.00000000E+00  0.00000000E+00  0.00000000E+00
  0.00000000E+00  0.00000000E+00  0.00000000E+00
  0.00000000E+00  0.00000000E+00  0.00000000E+00
  0.00000000E+00  0.00000000E+00  0.00000000E+00
  0.00000000E+00  0.00000000E+00  0.00000000E+00
  0.00000000E+00  0.00000000E+00  0.00000000E+00
  0.00000000E+00  0.00000000E+00  0.00000000E+00
  0.00000000E+00  0.00000000E+00  0.00000000E+00
  0.00000000E+00  0.00000000E+00  0.00000000E+00
  0.00000000E+00  0.00000000E+00  0.00000000E+00
  0.00000000E+00  0.00000000E+00  0.00000000E+00
  0.00000000E+00  0.00000000E+00  0.00000000E+00
  0.00000000E+00  0.00000000E+00  0.00000000E+00
  0.00000000E+00  0.00000000E+00  0.00000000E+00
  0.00000000E+00  0.00000000E+00  0.00000000E+00
  0.00000000E+00  0.00000000E+00  0.00000000E+00
  0.00000000E+00  0.00000000E+00  0.00000000E+00
  0.00000000E+00  0.00000000E+00  0.00000000E+00
  0.00000000E+00  0.00000000E+00  0.00000000E+00
  0.00000000E+00  0.00000000E+00  0.00000000E+00
  0.00000000E+00  0.00000000E+00  0.00000000E+00
  0.00000000E+00  0.00000000E+00  0.00000000E+00
  0.00000000E+00  0.00000000E+00  0.00000000E+00
  0.00000000E+00  0.00000000E+00  0.00000000E+00
  0.00000000E+00  0.00000000E+00  0.00000000E+00
  0.00000000E+00  0.00000000E+00  0.00000000E+00
  0.00000000E+00  0.00000000E+00  0.00000000E+00
  0.00000000E+00  0.00000000E+00  0.00000000E+00
  0.00000000E+00  0.00000000E+00  0.00000000E+00
  0.00000000E+00  0.00000000E+00  0.00000000E+00
  0.00000000E+00  0.00000000E+00  0.00000000E+00
  0.00000000E+00  0.00000000E+00  0.00000000E+00
  0.00000000E+00  0.00000000E+00  0.00000000E+00
  0.00000000E+00  0.00000000E+00  0.00000000E+00
  0.00000000E+00  0.00000000E+00  0.00000000E+00
  0.00000000E+00  0.00000000E+00  0.00000000E+00
  0.00000000E+00  0.00000000E+00  0.00000000E+00
  0.00000000E+00  0.00000000E+00  0.00000000E+00
  0.00000000E+00  0.00000000E+00  0.00000000E+00
  0.00000000E+00  0.00000000E+00  0.00000000E+00
  0.00000000E+00  0.00000000E+00  0.00000000E+00
  0.00000000E+00  0.00000000E+00  0.00000000E+00
  0.00000000E+00  0.00000000E+00  0.00000000E+00
  0.00000000E+00  0.00000000E+00  0.00000000E+00
  0.00000000E+00  0.00000000E+00  0.00000000E+00
  0.00000000E+00  0.00000000E+00  0.00000000E+00
  0.00000000E+00  0.00000000E+00  0.00000000E+00
  0.00000000E+00  0.00000000E+00  0.00000000E+00
  0.00000000E+00  0.00000000E+00  0.00000000E+00
  0.00000000E+00  0.00000000E+00  0.00000000E+00
  0.00000000E+00  0.00000000E+00  0.00000000E+00
  0.00000000E+00  0.00000000E+00  0.00000000E+00
  0.00000000E+00  0.00000000E+00  0.00000000E+00
  0.00000000E+00  0.00000000E+00  0.00000000E+00
  0.00000000E+00  0.00000000E+00  0.00000000E+00
  0.00000000E+00  0.00000000E+00  0.00000000E+00
  0.00000000E+00  0.00000000E+00  0.00000000E+00
  0.00000000E+00  0.00000000E+00  0.00000000E+00
  0.00000000E+00  0.00000000E+00  0.00000000E+00
  0.00000000E+00  0.00000000E+00  0.00000000E+00
  0.00000000E+00  0.00000000E+00  0.00000000E+00
  0.00000000E+00  0.00000000E+00  0.00000000E+00
  0.00000000E+00  0.00000000E+00  0.00000000E+00
  0.00000000E+00  0.00000000E+00  0.00000000E+00
  0.00000000E+00  0.00000000E+00  0.00000000E+00
  0.00000000E+00  0.00000000E+00  0.00000000E+00
  0.00000000E+00  0.00000000E+00  0.00000000E+00
  0.00000000E+00  0.00000000E+00  0.00000000E+00
  0.00000000E+00  0.00000000E+00  0.00000000E+00
  0.00000000E+00  0.00000000E+00  0.00000000E+00
  0.00000000E+00  0.00000000E+00  0.00000000E+00
  0.00000000E+00  0.00000000E+00  0.00000000E+00
  0.00000000E+00  0.00000000E+00  0.00000000E+00
  0.00000000E+00  0.00000000E+00  0.00000000E+00
  0.00000000E+00  0.00000000E+00  0.00000000E+00
  0.00000000E+00  0.00000000E+00  0.00000000E+00
