Re1 H1 C126                             
   1.00000000000000     
    19.8047437109299302   -0.0001652153758106   -0.0443564502635918
    -9.9025538258943175   17.0618057011888062   -0.0602439589603589
    -0.0666396818729061   -0.1437163204893980   29.7798330162242948
   Re   H    C 
     1     1   126
Direct
  0.4391848977341641  0.5010391827747539  0.4307173960062115
  0.4425240799789005  0.5044818768998963  0.4879349171964016
  0.0420581984374756  0.0840658567402329  0.3996145779874638
  0.0411757249762113  0.2082013450853083  0.3995986416743497
  0.0406101231447661  0.3328845260706905  0.3997949463521418
  0.0405862483513242  0.4583078157319423  0.3995384494665539
  0.0413922280684739  0.5837791091537645  0.3994546565093373
  0.0420961848569680  0.7091086597263621  0.3997693687526665
  0.0423688713527789  0.8343811419248364  0.3999191995815151
  0.0423905677084425  0.9593985411249301  0.3997642961989005
  0.1675967181629742  0.0850480430272812  0.3997154245163824
  0.1674328310257922  0.2099241426321733  0.3997363075168343
  0.1655718196887002  0.3334257160383017  0.4007040967315293
  0.1642856456541171  0.4583879106056138  0.4009939385802275
  0.1652826944733245  0.5836179285840083  0.3999420922680566
  0.1665651548485060  0.7090562534917373  0.3996486217346102
  0.1670957444777903  0.8343883167331670  0.3999102994920858
  0.1674070128002874  0.9597221879985252  0.3998998096162903
  0.2925144697796934  0.0850211453961765  0.3996664649958209
  0.2931078122264087  0.2111924596724147  0.3998638858142407
  0.2933603303244221  0.3369896775260878  0.4016918045967938
  0.2873256409557418  0.4581259093810944  0.4036430348673394
  0.2889374852868788  0.5837565123520271  0.4017552618787080
  0.2910342467473198  0.7087922640100106  0.3998262737458730
  0.2917109968392622  0.8339531472580898  0.3996179738393323
  0.2921102813371979  0.9593855080991425  0.3997780138812675
  0.4170976606917590  0.0840063756295933  0.3996044485435964
  0.4175126941097300  0.2098450352854631  0.3994890699194653
  0.4186062647118364  0.3367584744233198  0.4010384882017828
  0.4116569316019025  0.5802205797244272  0.4054245541784663
  0.4155514776555197  0.7066110153356189  0.4000612789317995
  0.4163052201044652  0.8326915338594723  0.3994657691010420
  0.4167496560841338  0.9583683145616547  0.3996580695075688
  0.5416619586465594  0.0828006097776957  0.3996973099402392
  0.5420711208498753  0.2081349319715119  0.3996266526578052
  0.5429175797349532  0.3333655760833174  0.4004328502660614
  0.5458498498905948  0.4580737150071767  0.4026302620958833
  0.5437924179453633  0.5803739896771339  0.4042094803302873
  0.5402486465457574  0.7054713714984728  0.4003063064080249
  0.5408226656691185  0.8315669860227310  0.3994743029893651
  0.5413321447399857  0.9572963073243573  0.3996786510989357
  0.6663023721127328  0.0823153030769245  0.3998976020111649
  0.6666741416824248  0.2076253366831282  0.3997392499438415
  0.6673271619221830  0.3328659573138608  0.3999732430866755
  0.6691632155902958  0.4583553088539667  0.4011413011527009
  0.6699383828220554  0.5837539797807688  0.4013659395111440
  0.6661928091196252  0.7066787532546820  0.3995961285949029
  0.6657976641882738  0.8315745876720848  0.3993482094265388
  0.6660262728288842  0.9569643410829207  0.3997435829725875
  0.7911261357493552  0.0823316472097537  0.3999096328595121
  0.7912767665336148  0.2074754378403711  0.3999232370122155
  0.7917913071138032  0.3328425734923362  0.3996410692884792
  0.7927569924464334  0.4583138330550395  0.3998064027291838
  0.7934110247735152  0.5836143045891692  0.4002162358828131
  0.7928639572938384  0.7088075891532614  0.3998530451644370
  0.7915124022213668  0.8327436622812379  0.3994556157139071
  0.7910722395112697  0.9573380374538781  0.3996687503179605
  0.9162966441923639  0.0828601300335804  0.3996838313886140
  0.9160348429838214  0.2076405186657176  0.3996846514129781
  0.9161212491250649  0.3328495533040950  0.3995684027025315
  0.9166241268697799  0.4582179538839209  0.3994109416244039
  0.9174259748622597  0.5837776615603355  0.3995546108871583
  0.9175849006794463  0.7090721329984119  0.3997426615618695
  0.9173469855357108  0.8339825462653883  0.3996934628241283
  0.9167763186821357  0.9584275469323230  0.3996963846179796
  0.0841236507387821  0.0428794013690432  0.3996915050999488
  0.0837363828303623  0.1675115080676143  0.3995863239989766
  0.0823437210729750  0.2914225915447738  0.3999143819660982
  0.0817533247276708  0.4165760592242849  0.3999652508463735
  0.0823569123419131  0.5418605687879068  0.3995457884181193
  0.0833525831799519  0.6672803734190554  0.3996176152387654
  0.0838967844249782  0.7927050807969582  0.3999550104879870
  0.0840758006111325  0.9178653892936642  0.3998871569185691
  0.2091378200983375  0.0431984424217138  0.3997921547356236
  0.2093434392980030  0.1686406312257203  0.3997383836718821
  0.2090922452924137  0.2936485093425879  0.4004127708241720
  0.2053524147092243  0.4165577866776662  0.4018928196317967
  0.2060176597124735  0.5418437279302558  0.4009640196410854
  0.2078120564019983  0.6672919912503394  0.3997734341627620
  0.2084864407045985  0.7925459076843652  0.3997204460637813
  0.2088828417875884  0.9178503260968557  0.3999000419832422
  0.3338194257816825  0.0428479793126914  0.3996852581533253
  0.3343193278646363  0.1686204155435694  0.3995812266676214
  0.3349165962566733  0.2948216196238431  0.4008195711303691
  0.3316831730290040  0.4202795071738381  0.4056868468052167
  0.3293780014837155  0.5422327766732649  0.4034995080415957
  0.3322789913518487  0.6668299885950318  0.4004947680020534
  0.3330783685910137  0.7920084590293640  0.3995426992433765
  0.3335191385029346  0.9173381856893011  0.3996786067810433
  0.4584595493288592  0.0417779271636088  0.3996750275414786
  0.4588379595377912  0.1674410020823633  0.3995140059649779
  0.4595861077508235  0.2935359614457546  0.3999325425673386
  0.4636258639478214  0.4200352084387324  0.4045287823152354
  0.4565370852393080  0.6633515779233573  0.4012330916379667
  0.4575993129230376  0.7902902337369362  0.3994621320739934
  0.4580717723083509  0.9161268206942831  0.3995812490216433
  0.5830679589142621  0.0407775786735215  0.3997753021470020
  0.5834257123844243  0.1661716820119903  0.3996616647142760
  0.5841250276237717  0.2913670235113434  0.3999458628407346
  0.5862970700980586  0.4165032888078729  0.4015645898032627
  0.5878934599755663  0.5422001080440886  0.4024477521240252
  0.5819838692151359  0.6635371045047633  0.4005543913277639
  0.5820432731790124  0.7890490179084562  0.3994977976735973
  0.5826433560213667  0.9151596073417324  0.3996301660725514
  0.7077868561493925  0.0404499127596848  0.3999087039068730
  0.7080879811543991  0.1657978426170289  0.3998968378150545
  0.7085875498035630  0.2910889861591966  0.3997223119545982
  0.7098717611767076  0.4165472342299077  0.4002439619775979
  0.7108984507093183  0.5418362132942129  0.4010892735194643
  0.7096411283091310  0.6668387830548743  0.4002069277018864
  0.7077894109211196  0.7903381595029836  0.3992808889491051
  0.7076036935570353  0.9151765415313086  0.3995761166811396
  0.8328485519729731  0.0408176372447471  0.3997849851797653
  0.8327908438584490  0.1658057732192372  0.3998899375358115
  0.8330722648761955  0.2910590032850717  0.3997134508205630
  0.8337480208423270  0.4163834902261588  0.3995476863272006
  0.8345381425670089  0.5418386874209904  0.3998062893601999
  0.8345414532783541  0.6672783001605925  0.3999387005370036
  0.8340232314182556  0.7920406594581653  0.3995991816518389
  0.8331911088193479  0.9161833334464304  0.3996119558608073
  0.9584906675351405  0.0418419682582232  0.3996732713204590
  0.9578675101964149  0.1662309201104287  0.3996025197634694
  0.9575854737558812  0.2911227756993792  0.3996019091761221
  0.9576876419102058  0.4163891066202642  0.3994237083238502
  0.9584848654347549  0.5419155761453865  0.3994296277515420
  0.9590322826846818  0.6672946700177185  0.3996751902771080
  0.9591502572623100  0.7925536645735838  0.3997712557803504
  0.9589491855057944  0.9173937012442773  0.3997099208295869
 
  0.00000000E+00  0.00000000E+00  0.00000000E+00
  0.00000000E+00  0.00000000E+00  0.00000000E+00
  0.00000000E+00  0.00000000E+00  0.00000000E+00
  0.00000000E+00  0.00000000E+00  0.00000000E+00
  0.00000000E+00  0.00000000E+00  0.00000000E+00
  0.00000000E+00  0.00000000E+00  0.00000000E+00
  0.00000000E+00  0.00000000E+00  0.00000000E+00
  0.00000000E+00  0.00000000E+00  0.00000000E+00
  0.00000000E+00  0.00000000E+00  0.00000000E+00
  0.00000000E+00  0.00000000E+00  0.00000000E+00
  0.00000000E+00  0.00000000E+00  0.00000000E+00
  0.00000000E+00  0.00000000E+00  0.00000000E+00
  0.00000000E+00  0.00000000E+00  0.00000000E+00
  0.00000000E+00  0.00000000E+00  0.00000000E+00
  0.00000000E+00  0.00000000E+00  0.00000000E+00
  0.00000000E+00  0.00000000E+00  0.00000000E+00
  0.00000000E+00  0.00000000E+00  0.00000000E+00
  0.00000000E+00  0.00000000E+00  0.00000000E+00
  0.00000000E+00  0.00000000E+00  0.00000000E+00
  0.00000000E+00  0.00000000E+00  0.00000000E+00
  0.00000000E+00  0.00000000E+00  0.00000000E+00
  0.00000000E+00  0.00000000E+00  0.00000000E+00
  0.00000000E+00  0.00000000E+00  0.00000000E+00
  0.00000000E+00  0.00000000E+00  0.00000000E+00
  0.00000000E+00  0.00000000E+00  0.00000000E+00
  0.00000000E+00  0.00000000E+00  0.00000000E+00
  0.00000000E+00  0.00000000E+00  0.00000000E+00
  0.00000000E+00  0.00000000E+00  0.00000000E+00
  0.00000000E+00  0.00000000E+00  0.00000000E+00
  0.00000000E+00  0.00000000E+00  0.00000000E+00
  0.00000000E+00  0.00000000E+00  0.00000000E+00
  0.00000000E+00  0.00000000E+00  0.00000000E+00
  0.00000000E+00  0.00000000E+00  0.00000000E+00
  0.00000000E+00  0.00000000E+00  0.00000000E+00
  0.00000000E+00  0.00000000E+00  0.00000000E+00
  0.00000000E+00  0.00000000E+00  0.00000000E+00
  0.00000000E+00  0.00000000E+00  0.00000000E+00
  0.00000000E+00  0.00000000E+00  0.00000000E+00
  0.00000000E+00  0.00000000E+00  0.00000000E+00
  0.00000000E+00  0.00000000E+00  0.00000000E+00
  0.00000000E+00  0.00000000E+00  0.00000000E+00
  0.00000000E+00  0.00000000E+00  0.00000000E+00
  0.00000000E+00  0.00000000E+00  0.00000000E+00
  0.00000000E+00  0.00000000E+00  0.00000000E+00
  0.00000000E+00  0.00000000E+00  0.00000000E+00
  0.00000000E+00  0.00000000E+00  0.00000000E+00
  0.00000000E+00  0.00000000E+00  0.00000000E+00
  0.00000000E+00  0.00000000E+00  0.00000000E+00
  0.00000000E+00  0.00000000E+00  0.00000000E+00
  0.00000000E+00  0.00000000E+00  0.00000000E+00
  0.00000000E+00  0.00000000E+00  0.00000000E+00
  0.00000000E+00  0.00000000E+00  0.00000000E+00
  0.00000000E+00  0.00000000E+00  0.00000000E+00
  0.00000000E+00  0.00000000E+00  0.00000000E+00
  0.00000000E+00  0.00000000E+00  0.00000000E+00
  0.00000000E+00  0.00000000E+00  0.00000000E+00
  0.00000000E+00  0.00000000E+00  0.00000000E+00
  0.00000000E+00  0.00000000E+00  0.00000000E+00
  0.00000000E+00  0.00000000E+00  0.00000000E+00
  0.00000000E+00  0.00000000E+00  0.00000000E+00
  0.00000000E+00  0.00000000E+00  0.00000000E+00
  0.00000000E+00  0.00000000E+00  0.00000000E+00
  0.00000000E+00  0.00000000E+00  0.00000000E+00
  0.00000000E+00  0.00000000E+00  0.00000000E+00
  0.00000000E+00  0.00000000E+00  0.00000000E+00
  0.00000000E+00  0.00000000E+00  0.00000000E+00
  0.00000000E+00  0.00000000E+00  0.00000000E+00
  0.00000000E+00  0.00000000E+00  0.00000000E+00
  0.00000000E+00  0.00000000E+00  0.00000000E+00
  0.00000000E+00  0.00000000E+00  0.00000000E+00
  0.00000000E+00  0.00000000E+00  0.00000000E+00
  0.00000000E+00  0.00000000E+00  0.00000000E+00
  0.00000000E+00  0.00000000E+00  0.00000000E+00
  0.00000000E+00  0.00000000E+00  0.00000000E+00
  0.00000000E+00  0.00000000E+00  0.00000000E+00
  0.00000000E+00  0.00000000E+00  0.00000000E+00
  0.00000000E+00  0.00000000E+00  0.00000000E+00
  0.00000000E+00  0.00000000E+00  0.00000000E+00
  0.00000000E+00  0.00000000E+00  0.00000000E+00
  0.00000000E+00  0.00000000E+00  0.00000000E+00
  0.00000000E+00  0.00000000E+00  0.00000000E+00
  0.00000000E+00  0.00000000E+00  0.00000000E+00
  0.00000000E+00  0.00000000E+00  0.00000000E+00
  0.00000000E+00  0.00000000E+00  0.00000000E+00
  0.00000000E+00  0.00000000E+00  0.00000000E+00
  0.00000000E+00  0.00000000E+00  0.00000000E+00
  0.00000000E+00  0.00000000E+00  0.00000000E+00
  0.00000000E+00  0.00000000E+00  0.00000000E+00
  0.00000000E+00  0.00000000E+00  0.00000000E+00
  0.00000000E+00  0.00000000E+00  0.00000000E+00
  0.00000000E+00  0.00000000E+00  0.00000000E+00
  0.00000000E+00  0.00000000E+00  0.00000000E+00
  0.00000000E+00  0.00000000E+00  0.00000000E+00
  0.00000000E+00  0.00000000E+00  0.00000000E+00
  0.00000000E+00  0.00000000E+00  0.00000000E+00
  0.00000000E+00  0.00000000E+00  0.00000000E+00
  0.00000000E+00  0.00000000E+00  0.00000000E+00
  0.00000000E+00  0.00000000E+00  0.00000000E+00
  0.00000000E+00  0.00000000E+00  0.00000000E+00
  0.00000000E+00  0.00000000E+00  0.00000000E+00
  0.00000000E+00  0.00000000E+00  0.00000000E+00
  0.00000000E+00  0.00000000E+00  0.00000000E+00
  0.00000000E+00  0.00000000E+00  0.00000000E+00
  0.00000000E+00  0.00000000E+00  0.00000000E+00
  0.00000000E+00  0.00000000E+00  0.00000000E+00
  0.00000000E+00  0.00000000E+00  0.00000000E+00
  0.00000000E+00  0.00000000E+00  0.00000000E+00
  0.00000000E+00  0.00000000E+00  0.00000000E+00
  0.00000000E+00  0.00000000E+00  0.00000000E+00
  0.00000000E+00  0.00000000E+00  0.00000000E+00
  0.00000000E+00  0.00000000E+00  0.00000000E+00
  0.00000000E+00  0.00000000E+00  0.00000000E+00
  0.00000000E+00  0.00000000E+00  0.00000000E+00
  0.00000000E+00  0.00000000E+00  0.00000000E+00
  0.00000000E+00  0.00000000E+00  0.00000000E+00
  0.00000000E+00  0.00000000E+00  0.00000000E+00
  0.00000000E+00  0.00000000E+00  0.00000000E+00
  0.00000000E+00  0.00000000E+00  0.00000000E+00
  0.00000000E+00  0.00000000E+00  0.00000000E+00
  0.00000000E+00  0.00000000E+00  0.00000000E+00
  0.00000000E+00  0.00000000E+00  0.00000000E+00
  0.00000000E+00  0.00000000E+00  0.00000000E+00
  0.00000000E+00  0.00000000E+00  0.00000000E+00
  0.00000000E+00  0.00000000E+00  0.00000000E+00
  0.00000000E+00  0.00000000E+00  0.00000000E+00
  0.00000000E+00  0.00000000E+00  0.00000000E+00
  0.00000000E+00  0.00000000E+00  0.00000000E+00
  0.00000000E+00  0.00000000E+00  0.00000000E+00
