Os1 C123 N3                             
   1.00000000000000     
    19.8386346187646900    0.0150413672164225    0.0059264457899962
    -9.9062029883640950   17.0194947773773890   -0.0127690588069902
     0.0091568991982432   -0.0173362081608275   29.7887444523249627
   Os   C    N 
     1   123     3
Direct
  0.4372883124275360  0.4993724331037370  0.4210844699050062
  0.0418474684584628  0.0841641641552742  0.3998014475741182
  0.0403919335934015  0.2079014396521865  0.3996826882614779
  0.0395384297405872  0.3325926638543290  0.3994679953485453
  0.0399886706323506  0.4580533943596687  0.3996207794552759
  0.0413269823957589  0.5838011743873158  0.4000882601010433
  0.0424708051856738  0.7094306747657850  0.4001933615360994
  0.0427652887147463  0.8348008783985749  0.4001292671501672
  0.0426725866338402  0.9598594801076403  0.3999719738522762
  0.1679283638710241  0.0859352562637760  0.3998649529341787
  0.1670961322238519  0.2103800268736050  0.3996789254523829
  0.1639608577753756  0.3332347995325755  0.3997843246773607
  0.1630980360705736  0.4581328724316435  0.3985629193042821
  0.1646417737152671  0.5835372801066956  0.3992342732251218
  0.1664512387002306  0.7090946805452938  0.3999045657436269
  0.1673028074748858  0.8346869087842766  0.4000830955939140
  0.1677381034160394  0.9603543198880863  0.3999368175613809
  0.2927876406340831  0.0860893351748917  0.3998280525198907
  0.2935114697328003  0.2132001648685019  0.4006165954926201
  0.2913384522453052  0.3383546417554215  0.4039227712160738
  0.2852829253117218  0.4574720497658259  0.4025220836962188
  0.2875036651658277  0.5827408141428557  0.3990506604185601
  0.2905472605834539  0.7082883510607371  0.3993432110601201
  0.2916852432839839  0.8339547353597371  0.3999182800496773
  0.2922422827391621  0.9598332455329340  0.3999519864766455
  0.4171555538694056  0.0843429776887083  0.3998564191895649
  0.4178120233131197  0.2107050733215246  0.3999221756363631
  0.4196878292383345  0.3383270492940124  0.4018588728795291
  0.4144849366399080  0.7054271782175938  0.3996323126406034
  0.4159576562276430  0.8319997273690596  0.3997745168399893
  0.4166182275414373  0.9582027629710288  0.3999759568630982
  0.5414370491621205  0.0824939481597168  0.3999806932603100
  0.5421317432589253  0.2083756398213893  0.3996530722575052
  0.5436314897180676  0.3342322786093968  0.3993327769899470
  0.5490400115612818  0.4602905062522659  0.4013055093862678
  0.5380597637400035  0.7006426815042249  0.4025887453995330
  0.5401103571792145  0.8295234694919051  0.4000648884337327
  0.5409408297002188  0.9563193597544544  0.3999144552557328
  0.6657945555390525  0.0815591424100440  0.4000455133892513
  0.6664530206085171  0.2072992616437555  0.3999543737662036
  0.6676983879860243  0.3329868862054060  0.3994404016682943
  0.6706848378542175  0.4588148720281181  0.3988245061470957
  0.6721368953531738  0.5844507887431014  0.3994213287904291
  0.6667742487720704  0.7058696672764792  0.4003762478648571
  0.6644933063709819  0.8296054105860500  0.4001578074444810
  0.6652946906882555  0.9557556275757443  0.3999527382475880
  0.7904143563658191  0.0814939751015210  0.4000257215833396
  0.7907343274555473  0.2069412722784040  0.4001622356119015
  0.7916396293470517  0.3325717406893314  0.4000526450018150
  0.7933881010578485  0.4583056460454153  0.3996029452537810
  0.7947384975701216  0.5840216682894955  0.3989792358653031
  0.7939161994643461  0.7091082789091487  0.3994083605678518
  0.7913507633491129  0.8322204287253784  0.3995533936023814
  0.7902431025513180  0.9562887318910324  0.3998473180360574
  0.9156384983389788  0.0822881014241361  0.3999316059240446
  0.9152459977773526  0.2070572446242736  0.3999869587453339
  0.9155641468742112  0.3324617292969739  0.4000707892960603
  0.9166530313031067  0.4581579829298179  0.4002308973185784
  0.9179769307047275  0.5839374571797225  0.4000375189191707
  0.9183311951510106  0.7093601079852582  0.3998318251598253
  0.9177905291441877  0.8342554199071655  0.3998843012012841
  0.9165844709075541  0.9582294118139254  0.3999593709136986
  0.0844303010848739  0.0435133950203129  0.3998578420701659
  0.0834629269353721  0.1677235575777735  0.3995846428370206
  0.0814277345310815  0.2912292077643645  0.3995171636592839
  0.0806851031865158  0.4160321512388647  0.3990726245708746
  0.0819306359542740  0.5417101636309232  0.3996551861066129
  0.0834585794565229  0.6674009830799247  0.4001007637274551
  0.0842557688944165  0.7930246819241602  0.4001700455767045
  0.0844991523541678  0.9184518159621137  0.4000181841037459
  0.2095224915805157  0.0441039021359925  0.3998760461075753
  0.2097812110337982  0.1698546298753185  0.4000366008056019
  0.2081554039965946  0.2941527645336732  0.4003999171036060
  0.2040257358563544  0.4163087010097432  0.3994028598561132
  0.2047584714663268  0.5411907390920763  0.3988138368832673
  0.2073071480636336  0.6670374865180110  0.3994999970512953
  0.2085522561133494  0.7927018366143479  0.3999911912503358
  0.2091819366318692  0.9184096896295495  0.3999896867905938
  0.3339885771598473  0.0435882698909160  0.3998523211817064
  0.3346234850280928  0.1701648771738304  0.4000242888304268
  0.3356509698504326  0.2978078686662855  0.4026362369701095
  0.3273884121514927  0.5410550473370536  0.4008527998318788
  0.3311728850213810  0.6660965336361750  0.3991193170750157
  0.3328466088377631  0.7917612424414715  0.3996979545705769
  0.3335499796015814  0.9175245750312986  0.3999862147167941
  0.4583794936723625  0.0418107350066719  0.3999546288704846
  0.4589358224703492  0.1679649766248409  0.3997614507124707
  0.4599373943160878  0.2945834763577773  0.4000372077145310
  0.4663269847960792  0.4226055868874791  0.4051143355169877
  0.4535508801117775  0.6607584557720454  0.4013080744704355
  0.4570483464643630  0.7892938420043237  0.3997969381865804
  0.4578167121798452  0.9156627764981168  0.3999103042186407
  0.5827135174476092  0.0401179660666099  0.4000015464751711
  0.5832817430058332  0.1661096042448249  0.3998706604882424
  0.5843256945734013  0.2919081478090799  0.3993354541606607
  0.5880284445795471  0.4176749315193944  0.3992562559354198
  0.5913755698755787  0.5433470135027266  0.4029040546060323
  0.5833899406739208  0.6610246090313039  0.4039579190556599
  0.5805039242715028  0.7858453562047699  0.4007744603774458
  0.5820611590889133  0.9137003915821368  0.3999023953135918
  0.7071535375754663  0.0395402245725291  0.3999987061143442
  0.7076914481226660  0.1653019821923561  0.4000999856749725
  0.7085517638904433  0.2909025728145692  0.3998431333343053
  0.7106864674197395  0.4164797450198076  0.3991998693765947
  0.7124610275813210  0.5419767414636110  0.3985393904023072
  0.7114537482832457  0.6672368491539197  0.3997094466601356
  0.7075967679124030  0.7894864499435417  0.3996964328888989
  0.7065854964518780  0.9137125238666083  0.3999223085345071
  0.8321501922550173  0.0400069594570032  0.3999346746569348
  0.8321864304827390  0.1651922097978300  0.4000996693238391
  0.8326159842733394  0.2905398861822759  0.4001728066665362
  0.8339312522914979  0.4161830118950000  0.4000429955265324
  0.8353522033418241  0.5419532728279832  0.3995451769900603
  0.8356237571808961  0.6674925173164986  0.3993640224898206
  0.8346404855383696  0.7922661440130111  0.3996157282271898
  0.8329330468487015  0.9157493188819661  0.3997882268601455
  0.9582431739439781  0.0416977518660454  0.3999482670900910
  0.9571867228333399  0.1657733652645878  0.3998819221318691
  0.9568038772952425  0.2906704324732470  0.3998738934157945
  0.9572947515076280  0.4160570264242333  0.4000823626070650
  0.9586282698573011  0.5418309664782284  0.4002376994442284
  0.9595836130372845  0.6675320308310648  0.4000475367380593
  0.9597297729908105  0.7929323643967252  0.3999985769053513
  0.9592549205977321  0.9176740736085279  0.3999791004125271
  0.4078036553087628  0.5793315745231672  0.4028853897655636
  0.5484282331767388  0.5804960278315009  0.4097846800245889
  0.3275840752740158  0.4195426971215185  0.4098283960017256
 
  0.00000000E+00  0.00000000E+00  0.00000000E+00
  0.00000000E+00  0.00000000E+00  0.00000000E+00
  0.00000000E+00  0.00000000E+00  0.00000000E+00
  0.00000000E+00  0.00000000E+00  0.00000000E+00
  0.00000000E+00  0.00000000E+00  0.00000000E+00
  0.00000000E+00  0.00000000E+00  0.00000000E+00
  0.00000000E+00  0.00000000E+00  0.00000000E+00
  0.00000000E+00  0.00000000E+00  0.00000000E+00
  0.00000000E+00  0.00000000E+00  0.00000000E+00
  0.00000000E+00  0.00000000E+00  0.00000000E+00
  0.00000000E+00  0.00000000E+00  0.00000000E+00
  0.00000000E+00  0.00000000E+00  0.00000000E+00
  0.00000000E+00  0.00000000E+00  0.00000000E+00
  0.00000000E+00  0.00000000E+00  0.00000000E+00
  0.00000000E+00  0.00000000E+00  0.00000000E+00
  0.00000000E+00  0.00000000E+00  0.00000000E+00
  0.00000000E+00  0.00000000E+00  0.00000000E+00
  0.00000000E+00  0.00000000E+00  0.00000000E+00
  0.00000000E+00  0.00000000E+00  0.00000000E+00
  0.00000000E+00  0.00000000E+00  0.00000000E+00
  0.00000000E+00  0.00000000E+00  0.00000000E+00
  0.00000000E+00  0.00000000E+00  0.00000000E+00
  0.00000000E+00  0.00000000E+00  0.00000000E+00
  0.00000000E+00  0.00000000E+00  0.00000000E+00
  0.00000000E+00  0.00000000E+00  0.00000000E+00
  0.00000000E+00  0.00000000E+00  0.00000000E+00
  0.00000000E+00  0.00000000E+00  0.00000000E+00
  0.00000000E+00  0.00000000E+00  0.00000000E+00
  0.00000000E+00  0.00000000E+00  0.00000000E+00
  0.00000000E+00  0.00000000E+00  0.00000000E+00
  0.00000000E+00  0.00000000E+00  0.00000000E+00
  0.00000000E+00  0.00000000E+00  0.00000000E+00
  0.00000000E+00  0.00000000E+00  0.00000000E+00
  0.00000000E+00  0.00000000E+00  0.00000000E+00
  0.00000000E+00  0.00000000E+00  0.00000000E+00
  0.00000000E+00  0.00000000E+00  0.00000000E+00
  0.00000000E+00  0.00000000E+00  0.00000000E+00
  0.00000000E+00  0.00000000E+00  0.00000000E+00
  0.00000000E+00  0.00000000E+00  0.00000000E+00
  0.00000000E+00  0.00000000E+00  0.00000000E+00
  0.00000000E+00  0.00000000E+00  0.00000000E+00
  0.00000000E+00  0.00000000E+00  0.00000000E+00
  0.00000000E+00  0.00000000E+00  0.00000000E+00
  0.00000000E+00  0.00000000E+00  0.00000000E+00
  0.00000000E+00  0.00000000E+00  0.00000000E+00
  0.00000000E+00  0.00000000E+00  0.00000000E+00
  0.00000000E+00  0.00000000E+00  0.00000000E+00
  0.00000000E+00  0.00000000E+00  0.00000000E+00
  0.00000000E+00  0.00000000E+00  0.00000000E+00
  0.00000000E+00  0.00000000E+00  0.00000000E+00
  0.00000000E+00  0.00000000E+00  0.00000000E+00
  0.00000000E+00  0.00000000E+00  0.00000000E+00
  0.00000000E+00  0.00000000E+00  0.00000000E+00
  0.00000000E+00  0.00000000E+00  0.00000000E+00
  0.00000000E+00  0.00000000E+00  0.00000000E+00
  0.00000000E+00  0.00000000E+00  0.00000000E+00
  0.00000000E+00  0.00000000E+00  0.00000000E+00
  0.00000000E+00  0.00000000E+00  0.00000000E+00
  0.00000000E+00  0.00000000E+00  0.00000000E+00
  0.00000000E+00  0.00000000E+00  0.00000000E+00
  0.00000000E+00  0.00000000E+00  0.00000000E+00
  0.00000000E+00  0.00000000E+00  0.00000000E+00
  0.00000000E+00  0.00000000E+00  0.00000000E+00
  0.00000000E+00  0.00000000E+00  0.00000000E+00
  0.00000000E+00  0.00000000E+00  0.00000000E+00
  0.00000000E+00  0.00000000E+00  0.00000000E+00
  0.00000000E+00  0.00000000E+00  0.00000000E+00
  0.00000000E+00  0.00000000E+00  0.00000000E+00
  0.00000000E+00  0.00000000E+00  0.00000000E+00
  0.00000000E+00  0.00000000E+00  0.00000000E+00
  0.00000000E+00  0.00000000E+00  0.00000000E+00
  0.00000000E+00  0.00000000E+00  0.00000000E+00
  0.00000000E+00  0.00000000E+00  0.00000000E+00
  0.00000000E+00  0.00000000E+00  0.00000000E+00
  0.00000000E+00  0.00000000E+00  0.00000000E+00
  0.00000000E+00  0.00000000E+00  0.00000000E+00
  0.00000000E+00  0.00000000E+00  0.00000000E+00
  0.00000000E+00  0.00000000E+00  0.00000000E+00
  0.00000000E+00  0.00000000E+00  0.00000000E+00
  0.00000000E+00  0.00000000E+00  0.00000000E+00
  0.00000000E+00  0.00000000E+00  0.00000000E+00
  0.00000000E+00  0.00000000E+00  0.00000000E+00
  0.00000000E+00  0.00000000E+00  0.00000000E+00
  0.00000000E+00  0.00000000E+00  0.00000000E+00
  0.00000000E+00  0.00000000E+00  0.00000000E+00
  0.00000000E+00  0.00000000E+00  0.00000000E+00
  0.00000000E+00  0.00000000E+00  0.00000000E+00
  0.00000000E+00  0.00000000E+00  0.00000000E+00
  0.00000000E+00  0.00000000E+00  0.00000000E+00
  0.00000000E+00  0.00000000E+00  0.00000000E+00
  0.00000000E+00  0.00000000E+00  0.00000000E+00
  0.00000000E+00  0.00000000E+00  0.00000000E+00
  0.00000000E+00  0.00000000E+00  0.00000000E+00
  0.00000000E+00  0.00000000E+00  0.00000000E+00
  0.00000000E+00  0.00000000E+00  0.00000000E+00
  0.00000000E+00  0.00000000E+00  0.00000000E+00
  0.00000000E+00  0.00000000E+00  0.00000000E+00
  0.00000000E+00  0.00000000E+00  0.00000000E+00
  0.00000000E+00  0.00000000E+00  0.00000000E+00
  0.00000000E+00  0.00000000E+00  0.00000000E+00
  0.00000000E+00  0.00000000E+00  0.00000000E+00
  0.00000000E+00  0.00000000E+00  0.00000000E+00
  0.00000000E+00  0.00000000E+00  0.00000000E+00
  0.00000000E+00  0.00000000E+00  0.00000000E+00
  0.00000000E+00  0.00000000E+00  0.00000000E+00
  0.00000000E+00  0.00000000E+00  0.00000000E+00
  0.00000000E+00  0.00000000E+00  0.00000000E+00
  0.00000000E+00  0.00000000E+00  0.00000000E+00
  0.00000000E+00  0.00000000E+00  0.00000000E+00
  0.00000000E+00  0.00000000E+00  0.00000000E+00
  0.00000000E+00  0.00000000E+00  0.00000000E+00
  0.00000000E+00  0.00000000E+00  0.00000000E+00
  0.00000000E+00  0.00000000E+00  0.00000000E+00
  0.00000000E+00  0.00000000E+00  0.00000000E+00
  0.00000000E+00  0.00000000E+00  0.00000000E+00
  0.00000000E+00  0.00000000E+00  0.00000000E+00
  0.00000000E+00  0.00000000E+00  0.00000000E+00
  0.00000000E+00  0.00000000E+00  0.00000000E+00
  0.00000000E+00  0.00000000E+00  0.00000000E+00
  0.00000000E+00  0.00000000E+00  0.00000000E+00
  0.00000000E+00  0.00000000E+00  0.00000000E+00
  0.00000000E+00  0.00000000E+00  0.00000000E+00
  0.00000000E+00  0.00000000E+00  0.00000000E+00
  0.00000000E+00  0.00000000E+00  0.00000000E+00
  0.00000000E+00  0.00000000E+00  0.00000000E+00
  0.00000000E+00  0.00000000E+00  0.00000000E+00
  0.00000000E+00  0.00000000E+00  0.00000000E+00
