Zn1 H1 C122 N4 O2                       
   1.00000000000000     
    19.8178104266653818   -0.0001080197365971    0.2143942494114841
    -9.9089586015665585   17.0252337980091966   -0.0700296164044999
     0.3223864545760488    0.0650565289450317   29.8268616205489465
   Zn   H    C    N    O 
     1     1   122     4     2
Direct
  0.4360810781130395  0.4994406107569448  0.4273470340298090
  0.5298617685940789  0.5460596603609817  0.5227888305497153
  0.0418720541573868  0.0841688358329531  0.4001973971361171
  0.0407539401035540  0.2081320870886519  0.4000216748626115
  0.0399998510040773  0.3328044498129136  0.3995051946654599
  0.0402001530862051  0.4581732548938416  0.3992952589508234
  0.0411215578150295  0.5837463702501292  0.3994491891283392
  0.0420108235235246  0.7092600846586251  0.3992497314141417
  0.0424214040774940  0.8346492185399110  0.3994039951227831
  0.0424849372862226  0.9598125424895197  0.4000400105561443
  0.1681724751211433  0.0861779162972970  0.4005817664021441
  0.1671893697342965  0.2103296005473958  0.4008702761949163
  0.1647855245520313  0.3335961624464261  0.4001575980281539
  0.1638427779816902  0.4584041718118529  0.3990260367058359
  0.1648659782034494  0.5836036931005554  0.3992271773928702
  0.1661732857067546  0.7090661146649022  0.3995814909142887
  0.1669530446490582  0.8346323604939622  0.3994935487412609
  0.1675342481571839  0.9603397553047774  0.3998108463164426
  0.2926685470675005  0.0861630591435672  0.4005555978855821
  0.2943204010523661  0.2140571656139161  0.4021675734329938
  0.2920045725536415  0.3392200700421860  0.4030967152907018
  0.2871248531536664  0.4572348510842879  0.4014183838990455
  0.2881787598222083  0.5830642118050162  0.3998369314181998
  0.2902908950823023  0.7085195582360455  0.3999176993986135
  0.2913980113122364  0.8340174088472659  0.3999971668399028
  0.2920195814127469  0.9597921601857623  0.3999899220760052
  0.4169762731441939  0.0841463571993741  0.4001623484220875
  0.4177914596921716  0.2103147778383823  0.4010947199340677
  0.4217520054022647  0.3391887708700196  0.4035374555750116
  0.4141808603981601  0.7060094503030415  0.4013352866035392
  0.4158137218076311  0.8322316955738688  0.4003378608324663
  0.4164636172012860  0.9582204096804564  0.4001632584465352
  0.5413882929690894  0.0824057357043257  0.4000506960557932
  0.5420851169073759  0.2081313007671623  0.4001123351586410
  0.5435165621245356  0.3336001213924232  0.4008582285340309
  0.5446707379328305  0.4571990062633958  0.4026674393190663
  0.5377450048400605  0.7010023503154161  0.4035021862147995
  0.5399858913482151  0.8297458347082352  0.4013443608348258
  0.5408282332974685  0.9563779223074186  0.4002575683111892
  0.6658637128025842  0.0816739997501117  0.3996859954225898
  0.6664408679248210  0.2072655408010104  0.3995786635184170
  0.6675303709576506  0.3328057777585824  0.3995922449996210
  0.6693139746138561  0.4583924896885633  0.3998045870060072
  0.6696194209113668  0.5830743630116106  0.4008653302277305
  0.6665000407131505  0.7060595051657835  0.4017961605078556
  0.6643917059945378  0.8297736130600258  0.4014068184034817
  0.6652726600483956  0.9558831088408850  0.4002951140382761
  0.7905212987511250  0.0816822776491253  0.3996589980964704
  0.7909082192498779  0.2070877660627070  0.3992777366702520
  0.7916334491809935  0.3326011281475811  0.3992778785415562
  0.7927413725918723  0.4581923255880190  0.3991684238141005
  0.7934971667862962  0.5835867198552818  0.3994049385965692
  0.7929557207169813  0.7085189195345692  0.4001384479967665
  0.7911474401865825  0.8322738230330099  0.4003944130602476
  0.7902481472841549  0.9564174564276150  0.4001966771670106
  0.9157232402779020  0.0824276449444683  0.4000708818608784
  0.9155267406710611  0.2072771417587550  0.3997060941581565
  0.9157147828754290  0.3326029029524712  0.3994236361087491
  0.9164505909784821  0.4581482973183304  0.3994113641938744
  0.9173785008789066  0.5837545762939825  0.3992611982029485
  0.9176391013542231  0.7090766387903888  0.3993993333764442
  0.9173453309759125  0.8340453911876656  0.3998959659945760
  0.9164870271794270  0.9582615329970989  0.4001391871146196
  0.0844336423857158  0.0435705030226730  0.4002557460152367
  0.0835353008003343  0.1676861073068026  0.4002482899149701
  0.0817246001712932  0.2914000882178484  0.3998051020120186
  0.0812292054477636  0.4163402369832992  0.3991825450202289
  0.0820033644462921  0.5417709173669560  0.3993059410150676
  0.0830932289198344  0.6673404169922421  0.3994108570571259
  0.0838131222832848  0.7928724656829156  0.3992521307715862
  0.0841777600205832  0.9182869420937257  0.3997321981941496
  0.2093787338860439  0.0440632845196712  0.4003225841503950
  0.2102079052446331  0.1701754200140511  0.4012904362891279
  0.2080912555209292  0.2938616964325563  0.4011687589169833
  0.2050487984940394  0.4168402200624153  0.3996922811882418
  0.2054148249380521  0.5415436884553760  0.3990790255798873
  0.2071783829035313  0.6671420811034510  0.3995630118840341
  0.2082432433156278  0.7926727260068069  0.3997082853289602
  0.2088313058058077  0.9182693382969982  0.3997124181744914
  0.3338102199701117  0.0435345689413905  0.4001913643801039
  0.3345912203894890  0.1701528415982771  0.4013614323674438
  0.3366943566237771  0.2988701313222506  0.4034686907085481
  0.3298276221157691  0.5426270254919217  0.4015113047575055
  0.3311510509806417  0.6663198878189794  0.4003273722573737
  0.3325900048337537  0.7917988643434862  0.4001004588055606
  0.3332786821102163  0.9175204685199141  0.4000881825360797
  0.4581905648460130  0.0416752218679707  0.4001289493140501
  0.4588386840089162  0.1676590464027232  0.4003439158905078
  0.4604107697437580  0.2938444707423605  0.4017181863670365
  0.4527088949847968  0.6606065271650313  0.4032156190897252
  0.4568122095947290  0.7895744143181616  0.4009802671746304
  0.4576726762418850  0.9157661932232168  0.4002318285797960
  0.5826375166128133  0.0401359920704599  0.4000097884754564
  0.5832701586986138  0.1659030375326906  0.3999102690909030
  0.5843991592311302  0.2913989134385860  0.4001096898339621
  0.5864914447601520  0.4168202546423878  0.4007658501716808
  0.5873802003456178  0.5426478885069623  0.4027206884439461
  0.5824634377340323  0.6606569103043861  0.4035566090294240
  0.5802228889013451  0.7858668954134881  0.4022178267493230
  0.5819562488870991  0.9137656346199822  0.4005868898340489
  0.7071591566453452  0.0396109049360855  0.3997562596366147
  0.7077399894958439  0.1653020432613952  0.3994148595889455
  0.7085317470061946  0.2908646352404273  0.3994199189769814
  0.7098752267049618  0.4163479602747448  0.3993882820447711
  0.7108862689514012  0.5415319082159125  0.3998393415093896
  0.7098756058584449  0.6663143825462829  0.4009283867964951
  0.7074359975920047  0.7896126111025547  0.4011625145369634
  0.7064811992537359  0.9137896080903251  0.4005726539502805
  0.8322014828622493  0.0401547681741448  0.3999552319240451
  0.8322871751132156  0.1653103478870482  0.3994866372370490
  0.8327217889369561  0.2906933692368005  0.3992877393974599
  0.8335940506845632  0.4161935345534948  0.3992674573226697
  0.8345390852280210  0.5417644824096907  0.3991706289086523
  0.8347071132580657  0.6671343958098890  0.3996062235156519
  0.8339300951104058  0.7918138422541680  0.4001325926545666
  0.8328071603284855  0.9158058414324488  0.4001936195758336
  0.9582054865188681  0.0417215756232469  0.4001534128254239
  0.9573472866070772  0.1659232546339137  0.3999700507112287
  0.9570810197147116  0.2908803493047784  0.3995757490536336
  0.9573434679021663  0.4161913912603303  0.3994457169406046
  0.9582771154514187  0.5417903020304947  0.3994094308944182
  0.9590178141224818  0.6673526382356020  0.3992536280886649
  0.9591662831976764  0.7926934038790093  0.3995405336309781
  0.9589660188967005  0.9175501907994864  0.4000569289967262
  0.4085217818683779  0.5808593883669039  0.4042401324505151
  0.5468392312277439  0.5809467534860631  0.4047423388344978
  0.3274807806537976  0.4189074084225599  0.4041566458938057
  0.4658616818975357  0.4188510924533759  0.4048323694191520
  0.5000712150716794  0.4955943477465260  0.5076560689249605
  0.4340694333477038  0.5024138996390300  0.4924139697172496
 
  0.00000000E+00  0.00000000E+00  0.00000000E+00
  0.00000000E+00  0.00000000E+00  0.00000000E+00
  0.00000000E+00  0.00000000E+00  0.00000000E+00
  0.00000000E+00  0.00000000E+00  0.00000000E+00
  0.00000000E+00  0.00000000E+00  0.00000000E+00
  0.00000000E+00  0.00000000E+00  0.00000000E+00
  0.00000000E+00  0.00000000E+00  0.00000000E+00
  0.00000000E+00  0.00000000E+00  0.00000000E+00
  0.00000000E+00  0.00000000E+00  0.00000000E+00
  0.00000000E+00  0.00000000E+00  0.00000000E+00
  0.00000000E+00  0.00000000E+00  0.00000000E+00
  0.00000000E+00  0.00000000E+00  0.00000000E+00
  0.00000000E+00  0.00000000E+00  0.00000000E+00
  0.00000000E+00  0.00000000E+00  0.00000000E+00
  0.00000000E+00  0.00000000E+00  0.00000000E+00
  0.00000000E+00  0.00000000E+00  0.00000000E+00
  0.00000000E+00  0.00000000E+00  0.00000000E+00
  0.00000000E+00  0.00000000E+00  0.00000000E+00
  0.00000000E+00  0.00000000E+00  0.00000000E+00
  0.00000000E+00  0.00000000E+00  0.00000000E+00
  0.00000000E+00  0.00000000E+00  0.00000000E+00
  0.00000000E+00  0.00000000E+00  0.00000000E+00
  0.00000000E+00  0.00000000E+00  0.00000000E+00
  0.00000000E+00  0.00000000E+00  0.00000000E+00
  0.00000000E+00  0.00000000E+00  0.00000000E+00
  0.00000000E+00  0.00000000E+00  0.00000000E+00
  0.00000000E+00  0.00000000E+00  0.00000000E+00
  0.00000000E+00  0.00000000E+00  0.00000000E+00
  0.00000000E+00  0.00000000E+00  0.00000000E+00
  0.00000000E+00  0.00000000E+00  0.00000000E+00
  0.00000000E+00  0.00000000E+00  0.00000000E+00
  0.00000000E+00  0.00000000E+00  0.00000000E+00
  0.00000000E+00  0.00000000E+00  0.00000000E+00
  0.00000000E+00  0.00000000E+00  0.00000000E+00
  0.00000000E+00  0.00000000E+00  0.00000000E+00
  0.00000000E+00  0.00000000E+00  0.00000000E+00
  0.00000000E+00  0.00000000E+00  0.00000000E+00
  0.00000000E+00  0.00000000E+00  0.00000000E+00
  0.00000000E+00  0.00000000E+00  0.00000000E+00
  0.00000000E+00  0.00000000E+00  0.00000000E+00
  0.00000000E+00  0.00000000E+00  0.00000000E+00
  0.00000000E+00  0.00000000E+00  0.00000000E+00
  0.00000000E+00  0.00000000E+00  0.00000000E+00
  0.00000000E+00  0.00000000E+00  0.00000000E+00
  0.00000000E+00  0.00000000E+00  0.00000000E+00
  0.00000000E+00  0.00000000E+00  0.00000000E+00
  0.00000000E+00  0.00000000E+00  0.00000000E+00
  0.00000000E+00  0.00000000E+00  0.00000000E+00
  0.00000000E+00  0.00000000E+00  0.00000000E+00
  0.00000000E+00  0.00000000E+00  0.00000000E+00
  0.00000000E+00  0.00000000E+00  0.00000000E+00
  0.00000000E+00  0.00000000E+00  0.00000000E+00
  0.00000000E+00  0.00000000E+00  0.00000000E+00
  0.00000000E+00  0.00000000E+00  0.00000000E+00
  0.00000000E+00  0.00000000E+00  0.00000000E+00
  0.00000000E+00  0.00000000E+00  0.00000000E+00
  0.00000000E+00  0.00000000E+00  0.00000000E+00
  0.00000000E+00  0.00000000E+00  0.00000000E+00
  0.00000000E+00  0.00000000E+00  0.00000000E+00
  0.00000000E+00  0.00000000E+00  0.00000000E+00
  0.00000000E+00  0.00000000E+00  0.00000000E+00
  0.00000000E+00  0.00000000E+00  0.00000000E+00
  0.00000000E+00  0.00000000E+00  0.00000000E+00
  0.00000000E+00  0.00000000E+00  0.00000000E+00
  0.00000000E+00  0.00000000E+00  0.00000000E+00
  0.00000000E+00  0.00000000E+00  0.00000000E+00
  0.00000000E+00  0.00000000E+00  0.00000000E+00
  0.00000000E+00  0.00000000E+00  0.00000000E+00
  0.00000000E+00  0.00000000E+00  0.00000000E+00
  0.00000000E+00  0.00000000E+00  0.00000000E+00
  0.00000000E+00  0.00000000E+00  0.00000000E+00
  0.00000000E+00  0.00000000E+00  0.00000000E+00
  0.00000000E+00  0.00000000E+00  0.00000000E+00
  0.00000000E+00  0.00000000E+00  0.00000000E+00
  0.00000000E+00  0.00000000E+00  0.00000000E+00
  0.00000000E+00  0.00000000E+00  0.00000000E+00
  0.00000000E+00  0.00000000E+00  0.00000000E+00
  0.00000000E+00  0.00000000E+00  0.00000000E+00
  0.00000000E+00  0.00000000E+00  0.00000000E+00
  0.00000000E+00  0.00000000E+00  0.00000000E+00
  0.00000000E+00  0.00000000E+00  0.00000000E+00
  0.00000000E+00  0.00000000E+00  0.00000000E+00
  0.00000000E+00  0.00000000E+00  0.00000000E+00
  0.00000000E+00  0.00000000E+00  0.00000000E+00
  0.00000000E+00  0.00000000E+00  0.00000000E+00
  0.00000000E+00  0.00000000E+00  0.00000000E+00
  0.00000000E+00  0.00000000E+00  0.00000000E+00
  0.00000000E+00  0.00000000E+00  0.00000000E+00
  0.00000000E+00  0.00000000E+00  0.00000000E+00
  0.00000000E+00  0.00000000E+00  0.00000000E+00
  0.00000000E+00  0.00000000E+00  0.00000000E+00
  0.00000000E+00  0.00000000E+00  0.00000000E+00
  0.00000000E+00  0.00000000E+00  0.00000000E+00
  0.00000000E+00  0.00000000E+00  0.00000000E+00
  0.00000000E+00  0.00000000E+00  0.00000000E+00
  0.00000000E+00  0.00000000E+00  0.00000000E+00
  0.00000000E+00  0.00000000E+00  0.00000000E+00
  0.00000000E+00  0.00000000E+00  0.00000000E+00
  0.00000000E+00  0.00000000E+00  0.00000000E+00
  0.00000000E+00  0.00000000E+00  0.00000000E+00
  0.00000000E+00  0.00000000E+00  0.00000000E+00
  0.00000000E+00  0.00000000E+00  0.00000000E+00
  0.00000000E+00  0.00000000E+00  0.00000000E+00
  0.00000000E+00  0.00000000E+00  0.00000000E+00
  0.00000000E+00  0.00000000E+00  0.00000000E+00
  0.00000000E+00  0.00000000E+00  0.00000000E+00
  0.00000000E+00  0.00000000E+00  0.00000000E+00
  0.00000000E+00  0.00000000E+00  0.00000000E+00
  0.00000000E+00  0.00000000E+00  0.00000000E+00
  0.00000000E+00  0.00000000E+00  0.00000000E+00
  0.00000000E+00  0.00000000E+00  0.00000000E+00
  0.00000000E+00  0.00000000E+00  0.00000000E+00
  0.00000000E+00  0.00000000E+00  0.00000000E+00
  0.00000000E+00  0.00000000E+00  0.00000000E+00
  0.00000000E+00  0.00000000E+00  0.00000000E+00
  0.00000000E+00  0.00000000E+00  0.00000000E+00
  0.00000000E+00  0.00000000E+00  0.00000000E+00
  0.00000000E+00  0.00000000E+00  0.00000000E+00
  0.00000000E+00  0.00000000E+00  0.00000000E+00
  0.00000000E+00  0.00000000E+00  0.00000000E+00
  0.00000000E+00  0.00000000E+00  0.00000000E+00
  0.00000000E+00  0.00000000E+00  0.00000000E+00
  0.00000000E+00  0.00000000E+00  0.00000000E+00
  0.00000000E+00  0.00000000E+00  0.00000000E+00
  0.00000000E+00  0.00000000E+00  0.00000000E+00
  0.00000000E+00  0.00000000E+00  0.00000000E+00
  0.00000000E+00  0.00000000E+00  0.00000000E+00
  0.00000000E+00  0.00000000E+00  0.00000000E+00
  0.00000000E+00  0.00000000E+00  0.00000000E+00
  0.00000000E+00  0.00000000E+00  0.00000000E+00
