Cu1 C123 N3 O1                          
   1.00000000000000     
    19.8047500893897315    0.0084726030377687    0.3009847121153530
    -9.8942135936235847   17.0259267999955064   -0.4567540363630718
     0.4534959152225881   -0.5364899513142340   29.8507187615147487
   Cu   C    N    O 
     1   123     3     1
Direct
  0.4380878644524131  0.5017765732834860  0.4070312826534348
  0.0418226034207123  0.0845624001891210  0.4004802351452099
  0.0407827832960166  0.2086097993251173  0.4005818834771446
  0.0402283224549507  0.3332607441484896  0.3999201381596080
  0.0405092816309534  0.4585162881170604  0.3994534860311703
  0.0413827378921283  0.5840686886297632  0.3994576132743077
  0.0422147216058519  0.7095707883712734  0.3994635651495884
  0.0424563436029928  0.8349584671593959  0.3995757120682200
  0.0423796239031446  0.9600676540011932  0.4000162748576699
  0.1677487850138206  0.0860891284936471  0.4006191531239125
  0.1671492393557301  0.2107344565955884  0.4019133929903163
  0.1650896606894179  0.3340445696149601  0.4009378897196214
  0.1644220444021016  0.4586769706368230  0.3998198396558763
  0.1651791625163384  0.5838491346480907  0.3992275230238462
  0.1663688228897371  0.7093257510493629  0.3996230037883421
  0.1670142715902543  0.8348400944977072  0.3997103891720641
  0.1674324980958843  0.9604190397484658  0.3999345553593940
  0.2924043570696853  0.0859751035156222  0.4008439849002627
  0.2932253772021198  0.2129616664095551  0.4024123412218756
  0.2924050968477871  0.3394486568583872  0.4026446510657706
  0.2883149168130998  0.4578142222775980  0.4005823494606986
  0.2885132386595686  0.5834312744472427  0.3996855664694081
  0.2905124174286442  0.7088391188665497  0.3999390597997632
  0.2914706081245200  0.8342755940118778  0.4001082046231161
  0.2919888084168889  0.9599815344428961  0.4001285278088460
  0.4168802565016989  0.0845231249918328  0.4003952165117113
  0.4173684580828692  0.2106624389342713  0.4018703299378146
  0.4181975255786341  0.3367245806366981  0.4096075126856391
  0.4144286084669062  0.7065972525416484  0.4011898316736762
  0.4158994930786832  0.8327126839167676  0.4004403595911299
  0.4164336885272988  0.9586286131854678  0.4003597742971223
  0.5413164113030007  0.0830473907614433  0.4001210903278150
  0.5418395760825305  0.2088426845756999  0.4006766344816626
  0.5431099049342194  0.3347295464624835  0.4041317423782473
  0.5476729680590395  0.4615930541032895  0.4095816462192090
  0.5380573307229497  0.7017915298875224  0.4023357236830947
  0.5401463579254298  0.8304238174447036  0.4012480011306607
  0.5408297237382342  0.9569706298772331  0.4005248791462677
  0.6658087207224455  0.0822455440465859  0.4000186349425121
  0.6663590291922574  0.2078557357202584  0.3997563506609652
  0.6672903457423232  0.3335014651385819  0.3999767402365180
  0.6692693406730612  0.4592029127761279  0.4007165056096653
  0.6708190896645547  0.5846516032995481  0.4020344228877875
  0.6665020985393966  0.7066554181889373  0.4010972573957474
  0.6644884151679733  0.8304936038001642  0.4010590888689336
  0.6653318551846255  0.9565479394265211  0.4006267781950257
  0.7905319391807168  0.0822515832434405  0.4000416481696405
  0.7909021305060477  0.2076020068222064  0.3995331034208931
  0.7914831557322231  0.3330578130034709  0.3992458306508198
  0.7927412994336436  0.4586689849179351  0.3991839610230414
  0.7939507272961137  0.5843044081969353  0.3997962202337177
  0.7933358043194474  0.7093004962848042  0.4000493166791372
  0.7911545978240042  0.8327934599445044  0.4006118828887466
  0.7902699619200675  0.9570275544104661  0.4004827860724234
  0.9157285578157186  0.0829100376777774  0.4002139817919428
  0.9155884088095547  0.2078014410807398  0.3998038646965227
  0.9157788605849504  0.3330584359990709  0.3994101151893688
  0.9166115443379681  0.4585632309137395  0.3992984904675154
  0.9175982953678385  0.5841496757095612  0.3993607826554211
  0.9179177830740457  0.7095774168190090  0.3996565147717206
  0.9174658908258380  0.8345529970349546  0.3999693225481664
  0.9164454909333273  0.9587020167765203  0.4002147668504250
  0.0841877060589411  0.0437162753012430  0.4003367139438367
  0.0835793806816056  0.1681598456922728  0.4010329182476440
  0.0819129158011549  0.2918763139880483  0.4004044079666471
  0.0816592509470055  0.4167264518814662  0.3997246801420857
  0.0823096811730935  0.5420980091947811  0.3993974187626677
  0.0833258090331697  0.6676355321281520  0.3995048169977977
  0.0839252386161817  0.7931575528653809  0.3994912769331620
  0.0841488078196022  0.9185451650076573  0.3997913672498328
  0.2092640545518236  0.0441373739294306  0.4004259105500267
  0.2095952264269627  0.1699070228761030  0.4014537528661037
  0.2084780716462333  0.2944961339543610  0.4022541937943771
  0.2057804259929981  0.4171633655357354  0.4006075976273067
  0.2058216024011728  0.5417926907828914  0.3991437406046359
  0.2074379045181374  0.6673806526150869  0.3994993651801266
  0.2083371660869417  0.7928907789079105  0.3998558696907324
  0.2088261040685495  0.9184738870538425  0.3998808874764990
  0.3337097874442776  0.0436315885709675  0.4004163917268713
  0.3342538297469204  0.1700365541109150  0.4018719542794642
  0.3358803383952846  0.2977171287897136  0.4050582510516278
  0.3300979510329825  0.5429718341561127  0.4017940895338583
  0.3314350799250434  0.6667163050975162  0.4003759714153006
  0.3327277109968207  0.7921522138027726  0.4001716592936617
  0.3333108560696658  0.9177856667791957  0.4002194787210342
  0.4581595108399981  0.0421742940613186  0.4002750708117304
  0.4586924407072459  0.1681240489042679  0.4007953849785295
  0.4593438855802177  0.2945056108889403  0.4046586928296207
  0.4659195478268074  0.4199478340853346  0.4263915795125612
  0.4532967905881904  0.6616794240541637  0.4032774970987560
  0.4570130692057930  0.7901572672496968  0.4008903016107581
  0.4577066535445056  0.9162450478266209  0.4004884434480545
  0.5825954337671675  0.0407289575697831  0.4001979610725215
  0.5831399703405324  0.1666455582178017  0.4000522458393618
  0.5838497862227641  0.2926079591687696  0.4014275333868014
  0.5863499920201605  0.4185190597585375  0.4041431774979216
  0.5886587609647123  0.5436669611485314  0.4046401783462059
  0.5823239894165155  0.6611094904323807  0.4014955127766981
  0.5805333474545336  0.7867056988220256  0.4015499320788365
  0.5820583154032519  0.9144627626620405  0.4008240653174440
  0.7072239355607408  0.0402663452106609  0.4002143990048239
  0.7076580998810797  0.1659532364856702  0.3997037271533017
  0.7082712481957785  0.2914892280321055  0.3995030757573730
  0.7097540926091810  0.4169214821460727  0.3995576110370251
  0.7113115905648328  0.5424180700865335  0.4008878224767827
  0.7104146511897440  0.6673247644035030  0.4006674979339024
  0.7073487726922139  0.7900939479670726  0.4010019827116054
  0.7065477249750032  0.9144553954032091  0.4007135176929495
  0.8322264729913087  0.0407072757556293  0.4002402392604338
  0.8323025639464561  0.1658543547938010  0.3997159089180258
  0.8326841242430234  0.2911650552080687  0.3993349965104400
  0.8336208125499809  0.4166736406224274  0.3991891600317174
  0.8347686110604329  0.5422828142567155  0.3993465496622406
  0.8349767698936219  0.6677057181766344  0.3998496049041904
  0.8341259117171305  0.7924831447459724  0.4001724243533431
  0.8328035124897468  0.9162998083978522  0.4004556366454395
  0.9581741666223138  0.0421674410644073  0.4002410027994969
  0.9574248022153995  0.1664223744542639  0.4001637856603253
  0.9571942487903584  0.2913776829183803  0.3996876428216538
  0.9575693782533321  0.4166240502032252  0.3993809011403755
  0.9585080926849230  0.5421718383778256  0.3993686354086918
  0.9592239328599987  0.6677533964421443  0.3994848088859868
  0.9592891432049768  0.7930960441333497  0.3997084015282724
  0.9589722562320588  0.9179551680543838  0.4000627146804590
  0.4087501278571324  0.5820630979031520  0.4064193971779346
  0.5468637230931250  0.5811936785007177  0.4012759711491753
  0.3296952061127527  0.4192880911419437  0.3990952237195984
  0.4479094009720157  0.4425246893522683  0.4639933383431583
 
  0.00000000E+00  0.00000000E+00  0.00000000E+00
  0.00000000E+00  0.00000000E+00  0.00000000E+00
  0.00000000E+00  0.00000000E+00  0.00000000E+00
  0.00000000E+00  0.00000000E+00  0.00000000E+00
  0.00000000E+00  0.00000000E+00  0.00000000E+00
  0.00000000E+00  0.00000000E+00  0.00000000E+00
  0.00000000E+00  0.00000000E+00  0.00000000E+00
  0.00000000E+00  0.00000000E+00  0.00000000E+00
  0.00000000E+00  0.00000000E+00  0.00000000E+00
  0.00000000E+00  0.00000000E+00  0.00000000E+00
  0.00000000E+00  0.00000000E+00  0.00000000E+00
  0.00000000E+00  0.00000000E+00  0.00000000E+00
  0.00000000E+00  0.00000000E+00  0.00000000E+00
  0.00000000E+00  0.00000000E+00  0.00000000E+00
  0.00000000E+00  0.00000000E+00  0.00000000E+00
  0.00000000E+00  0.00000000E+00  0.00000000E+00
  0.00000000E+00  0.00000000E+00  0.00000000E+00
  0.00000000E+00  0.00000000E+00  0.00000000E+00
  0.00000000E+00  0.00000000E+00  0.00000000E+00
  0.00000000E+00  0.00000000E+00  0.00000000E+00
  0.00000000E+00  0.00000000E+00  0.00000000E+00
  0.00000000E+00  0.00000000E+00  0.00000000E+00
  0.00000000E+00  0.00000000E+00  0.00000000E+00
  0.00000000E+00  0.00000000E+00  0.00000000E+00
  0.00000000E+00  0.00000000E+00  0.00000000E+00
  0.00000000E+00  0.00000000E+00  0.00000000E+00
  0.00000000E+00  0.00000000E+00  0.00000000E+00
  0.00000000E+00  0.00000000E+00  0.00000000E+00
  0.00000000E+00  0.00000000E+00  0.00000000E+00
  0.00000000E+00  0.00000000E+00  0.00000000E+00
  0.00000000E+00  0.00000000E+00  0.00000000E+00
  0.00000000E+00  0.00000000E+00  0.00000000E+00
  0.00000000E+00  0.00000000E+00  0.00000000E+00
  0.00000000E+00  0.00000000E+00  0.00000000E+00
  0.00000000E+00  0.00000000E+00  0.00000000E+00
  0.00000000E+00  0.00000000E+00  0.00000000E+00
  0.00000000E+00  0.00000000E+00  0.00000000E+00
  0.00000000E+00  0.00000000E+00  0.00000000E+00
  0.00000000E+00  0.00000000E+00  0.00000000E+00
  0.00000000E+00  0.00000000E+00  0.00000000E+00
  0.00000000E+00  0.00000000E+00  0.00000000E+00
  0.00000000E+00  0.00000000E+00  0.00000000E+00
  0.00000000E+00  0.00000000E+00  0.00000000E+00
  0.00000000E+00  0.00000000E+00  0.00000000E+00
  0.00000000E+00  0.00000000E+00  0.00000000E+00
  0.00000000E+00  0.00000000E+00  0.00000000E+00
  0.00000000E+00  0.00000000E+00  0.00000000E+00
  0.00000000E+00  0.00000000E+00  0.00000000E+00
  0.00000000E+00  0.00000000E+00  0.00000000E+00
  0.00000000E+00  0.00000000E+00  0.00000000E+00
  0.00000000E+00  0.00000000E+00  0.00000000E+00
  0.00000000E+00  0.00000000E+00  0.00000000E+00
  0.00000000E+00  0.00000000E+00  0.00000000E+00
  0.00000000E+00  0.00000000E+00  0.00000000E+00
  0.00000000E+00  0.00000000E+00  0.00000000E+00
  0.00000000E+00  0.00000000E+00  0.00000000E+00
  0.00000000E+00  0.00000000E+00  0.00000000E+00
  0.00000000E+00  0.00000000E+00  0.00000000E+00
  0.00000000E+00  0.00000000E+00  0.00000000E+00
  0.00000000E+00  0.00000000E+00  0.00000000E+00
  0.00000000E+00  0.00000000E+00  0.00000000E+00
  0.00000000E+00  0.00000000E+00  0.00000000E+00
  0.00000000E+00  0.00000000E+00  0.00000000E+00
  0.00000000E+00  0.00000000E+00  0.00000000E+00
  0.00000000E+00  0.00000000E+00  0.00000000E+00
  0.00000000E+00  0.00000000E+00  0.00000000E+00
  0.00000000E+00  0.00000000E+00  0.00000000E+00
  0.00000000E+00  0.00000000E+00  0.00000000E+00
  0.00000000E+00  0.00000000E+00  0.00000000E+00
  0.00000000E+00  0.00000000E+00  0.00000000E+00
  0.00000000E+00  0.00000000E+00  0.00000000E+00
  0.00000000E+00  0.00000000E+00  0.00000000E+00
  0.00000000E+00  0.00000000E+00  0.00000000E+00
  0.00000000E+00  0.00000000E+00  0.00000000E+00
  0.00000000E+00  0.00000000E+00  0.00000000E+00
  0.00000000E+00  0.00000000E+00  0.00000000E+00
  0.00000000E+00  0.00000000E+00  0.00000000E+00
  0.00000000E+00  0.00000000E+00  0.00000000E+00
  0.00000000E+00  0.00000000E+00  0.00000000E+00
  0.00000000E+00  0.00000000E+00  0.00000000E+00
  0.00000000E+00  0.00000000E+00  0.00000000E+00
  0.00000000E+00  0.00000000E+00  0.00000000E+00
  0.00000000E+00  0.00000000E+00  0.00000000E+00
  0.00000000E+00  0.00000000E+00  0.00000000E+00
  0.00000000E+00  0.00000000E+00  0.00000000E+00
  0.00000000E+00  0.00000000E+00  0.00000000E+00
  0.00000000E+00  0.00000000E+00  0.00000000E+00
  0.00000000E+00  0.00000000E+00  0.00000000E+00
  0.00000000E+00  0.00000000E+00  0.00000000E+00
  0.00000000E+00  0.00000000E+00  0.00000000E+00
  0.00000000E+00  0.00000000E+00  0.00000000E+00
  0.00000000E+00  0.00000000E+00  0.00000000E+00
  0.00000000E+00  0.00000000E+00  0.00000000E+00
  0.00000000E+00  0.00000000E+00  0.00000000E+00
  0.00000000E+00  0.00000000E+00  0.00000000E+00
  0.00000000E+00  0.00000000E+00  0.00000000E+00
  0.00000000E+00  0.00000000E+00  0.00000000E+00
  0.00000000E+00  0.00000000E+00  0.00000000E+00
  0.00000000E+00  0.00000000E+00  0.00000000E+00
  0.00000000E+00  0.00000000E+00  0.00000000E+00
  0.00000000E+00  0.00000000E+00  0.00000000E+00
  0.00000000E+00  0.00000000E+00  0.00000000E+00
  0.00000000E+00  0.00000000E+00  0.00000000E+00
  0.00000000E+00  0.00000000E+00  0.00000000E+00
  0.00000000E+00  0.00000000E+00  0.00000000E+00
  0.00000000E+00  0.00000000E+00  0.00000000E+00
  0.00000000E+00  0.00000000E+00  0.00000000E+00
  0.00000000E+00  0.00000000E+00  0.00000000E+00
  0.00000000E+00  0.00000000E+00  0.00000000E+00
  0.00000000E+00  0.00000000E+00  0.00000000E+00
  0.00000000E+00  0.00000000E+00  0.00000000E+00
  0.00000000E+00  0.00000000E+00  0.00000000E+00
  0.00000000E+00  0.00000000E+00  0.00000000E+00
  0.00000000E+00  0.00000000E+00  0.00000000E+00
  0.00000000E+00  0.00000000E+00  0.00000000E+00
  0.00000000E+00  0.00000000E+00  0.00000000E+00
  0.00000000E+00  0.00000000E+00  0.00000000E+00
  0.00000000E+00  0.00000000E+00  0.00000000E+00
  0.00000000E+00  0.00000000E+00  0.00000000E+00
  0.00000000E+00  0.00000000E+00  0.00000000E+00
  0.00000000E+00  0.00000000E+00  0.00000000E+00
  0.00000000E+00  0.00000000E+00  0.00000000E+00
  0.00000000E+00  0.00000000E+00  0.00000000E+00
  0.00000000E+00  0.00000000E+00  0.00000000E+00
  0.00000000E+00  0.00000000E+00  0.00000000E+00
  0.00000000E+00  0.00000000E+00  0.00000000E+00
  0.00000000E+00  0.00000000E+00  0.00000000E+00
  0.00000000E+00  0.00000000E+00  0.00000000E+00
