Zn1 C123 N3 O1                          
   1.00000000000000     
    19.8082011898962911    0.0154623931561502   -0.2596534839644312
    -9.8905926295859867   17.0285442322738838    0.2441019571463245
    -0.3905479408526136    0.2001396433246960   29.8247519203713374
   Zn   C    N    O 
     1   123     3     1
Direct
  0.4386594912664948  0.4957957246421260  0.4359885478000297
  0.0418379859701578  0.0838444256531402  0.3999984044458672
  0.0405862519918122  0.2077917475971297  0.3997807428310438
  0.0400793057330862  0.3325621334740745  0.3990613714779350
  0.0405378363245344  0.4580493621789272  0.3988286933022073
  0.0416337597808271  0.5836020823147158  0.3991372620903641
  0.0425132718676268  0.7090960146209802  0.3994554432733220
  0.0429002356265679  0.8345777254902619  0.3996000745797797
  0.0428023032625987  0.9596573448718942  0.3998048002375229
  0.1680349777578116  0.0856488702462288  0.4004643046804494
  0.1667332785143930  0.2095314684210454  0.4011439327162328
  0.1647293534589369  0.3331187383325236  0.4002538490045033
  0.1642529966492437  0.4579938894288567  0.3988909721764748
  0.1655197564886799  0.5832657108930702  0.3987665878990964
  0.1667106033119198  0.7088759921765966  0.3993138986815438
  0.1674603061105504  0.8344760564024407  0.3996840149693622
  0.1678747758215887  0.9601355212850260  0.3999257017582548
  0.2929057048268700  0.0858332783616140  0.4006372440410197
  0.2937721976690280  0.2130307215736520  0.4024878634332303
  0.2912491946767027  0.3378707286965709  0.4033263782113244
  0.2878409260776865  0.4561877513549563  0.4006691170190211
  0.2891613572730780  0.5827751918196130  0.3994018791414795
  0.2908257253581463  0.7082189157067291  0.3996178716686646
  0.2918533007074014  0.8337673816145464  0.3998530603318103
  0.2923940968593078  0.9596358961968942  0.4000213132887977
  0.4172504267039276  0.0841163236541033  0.3999825465945779
  0.4178823689175871  0.2103263689143202  0.4006990971162656
  0.4205400388856948  0.3379599235887377  0.4068208740934451
  0.4148554903928460  0.7056163473327488  0.4012431665374704
  0.4162240730410884  0.8320222386753331  0.4004085644493069
  0.4167805200931257  0.9580805475022891  0.4001335368924085
  0.5415948032287273  0.0824548020328215  0.3999074785009387
  0.5421598960765383  0.2082867605635952  0.3993076095802079
  0.5432962929361002  0.3340508338740659  0.3996268652903326
  0.5459324785097510  0.4588415345704466  0.4044986742422623
  0.5387977941340416  0.7010790611173909  0.4036609803720198
  0.5403557937594974  0.8295859220041611  0.4014167787535379
  0.5411248436096360  0.9562883823218064  0.4004138918024460
  0.6659836451452282  0.0816236150344282  0.3999814318089621
  0.6665341044456647  0.2073391756104523  0.3994592599430283
  0.6673735503191154  0.3329181584867030  0.3983836028676034
  0.6691328009925396  0.4585119498491921  0.3974664406581409
  0.6709213231733459  0.5843621996192717  0.3998078464875371
  0.6677462556984973  0.7068180866794779  0.4017964785171466
  0.6650463598860470  0.8298674014862442  0.4015557220429333
  0.6655643774635137  0.9558369357649064  0.4005358229400295
  0.7906223735233089  0.0815874153915853  0.3997248138041617
  0.7909248558733568  0.2070024678214253  0.3994861703547010
  0.7916192616252016  0.3325847298088108  0.3991791313890174
  0.7928440359965683  0.4582863116092513  0.3985140606685850
  0.7938353879378502  0.5837534237973884  0.3983923773322009
  0.7939622644074478  0.7090706180128025  0.3995405458728785
  0.7919409511853667  0.8326270531916660  0.4003384765735776
  0.7905652524220309  0.9564447724504200  0.4002070317462584
  0.9158013879393695  0.0822685375221118  0.3996450153604018
  0.9155194118518696  0.2071681651832906  0.3992771067651635
  0.9158095976779248  0.3325315954237720  0.3991449750898348
  0.9166659454109055  0.4580564252191948  0.3991978455433848
  0.9177506071125676  0.5837107125384003  0.3991897643347370
  0.9182546248671629  0.7091795432184967  0.3993620862221449
  0.9179675970039656  0.8341546942907903  0.3996791436679900
  0.9168365568584350  0.9582172461540654  0.3998333631248446
  0.0844564596190422  0.0432340800385818  0.4000467327462288
  0.0832318142257718  0.1671838725874757  0.4003018190656069
  0.0815750457650878  0.2910570304772227  0.3995961265695921
  0.0816202905937020  0.4162276170563693  0.3987838376501963
  0.0825610661020269  0.5416026616043255  0.3988405286648296
  0.0836544025390473  0.6672075663665981  0.3992903663153333
  0.0843609595235534  0.7928146539844656  0.3995684142351844
  0.0845609819251475  0.9181873816078724  0.3997304111781627
  0.2096251142676363  0.0438118297764522  0.4003514663809947
  0.2097202282202687  0.1694156669704088  0.4012894228576986
  0.2075720410730090  0.2929344872423483  0.4015048439520811
  0.2052491468119782  0.4162731682119529  0.3998190731730337
  0.2062923482229508  0.5413397994959054  0.3987543108112290
  0.2078510299220580  0.6669262148048899  0.3991299726384915
  0.2087421794151404  0.7924384838226937  0.3996294540009520
  0.2092703914063229  0.9181308685735978  0.3998856660849726
  0.3340978310977116  0.0433252533953419  0.4002042594523424
  0.3347777070840453  0.1697940375129260  0.4014740883560042
  0.3359600316531669  0.2971615641912163  0.4049514555527328
  0.3316560416686300  0.5425175372537316  0.4005716380088880
  0.3319015218756874  0.6659383218511321  0.4000295879186226
  0.3330739151127080  0.7915321347438440  0.3999775495802852
  0.3337128624217970  0.9173339387250127  0.4000077093268725
  0.4585108701141493  0.0416446196366547  0.4000078767896718
  0.4590008609199945  0.1676526534648893  0.3997306587999151
  0.4600973023798778  0.2939589941903503  0.4017900535672233
  0.4663290240501697  0.4202137572307498  0.4133396375462516
  0.4534813569488808  0.6600657553422408  0.4029501202339132
  0.4573247835483265  0.7893131425783094  0.4010436439750763
  0.4580125382191711  0.9155550936306726  0.4003258604719860
  0.5828554779965611  0.0400681245109687  0.4001198761690576
  0.5833992592719598  0.1660588720089572  0.3995297235474182
  0.5842726227430739  0.2917930415188537  0.3987764968460930
  0.5864527949299745  0.4174033644877510  0.3989448950156333
  0.5889695129223057  0.5442185201874540  0.4035597534045456
  0.5841623759270332  0.6614949629214300  0.4042288967902385
  0.5808624574182979  0.7857675738346607  0.4022908878095607
  0.5822597471392355  0.9136539915671503  0.4007791277217401
  0.7073490680239434  0.0395672668130590  0.4000406310891618
  0.7078047371487247  0.1653353432459143  0.3996918122703771
  0.7084875197115447  0.2909199737200435  0.3990071418620121
  0.7098792597405842  0.4165821826774780  0.3978509753405128
  0.7112806143981364  0.5420580676408514  0.3980648424956694
  0.7110533150687718  0.6671740313252930  0.4002702399925551
  0.7083529860957171  0.7901295387132675  0.4012265307049262
  0.7069048391709214  0.9138524919469184  0.4007291057008662
  0.8323227943678820  0.0400897313877297  0.3998012090845937
  0.8323184414247352  0.1652359060035470  0.3994507238808783
  0.8328090651880968  0.2907177066700875  0.3993275219332469
  0.8337610787032693  0.4162672101768455  0.3990604411876946
  0.8348587478801892  0.5418522095854117  0.3986464191435111
  0.8352756049805954  0.6673834442947709  0.3990699047808565
  0.8347609051171411  0.7922188288702139  0.3998680013610452
  0.8332985449023015  0.9159352029517049  0.4001164142412785
  0.9582955451261057  0.0415889704421463  0.3997629801387779
  0.9573101549696704  0.1657459034459269  0.3994643382348781
  0.9571017355873990  0.2907357831663298  0.3990965868310179
  0.9576335876780666  0.4161504117359297  0.3990807681058675
  0.9587349594732862  0.5417926768272922  0.3992266389155214
  0.9595343200107251  0.6673534393748684  0.3993731000117977
  0.9597255225478298  0.7926990586702989  0.3995464475679343
  0.9593886093260641  0.9175620950918035  0.3997737826523906
  0.4098852525863546  0.5802048310135280  0.4029939051386844
  0.5487345799967319  0.5820874533660427  0.4064300159509576
  0.3271068683787683  0.4174175843818754  0.4026037218257884
  0.4194846048300237  0.5220550653857667  0.4912696499487418
 
  0.00000000E+00  0.00000000E+00  0.00000000E+00
  0.00000000E+00  0.00000000E+00  0.00000000E+00
  0.00000000E+00  0.00000000E+00  0.00000000E+00
  0.00000000E+00  0.00000000E+00  0.00000000E+00
  0.00000000E+00  0.00000000E+00  0.00000000E+00
  0.00000000E+00  0.00000000E+00  0.00000000E+00
  0.00000000E+00  0.00000000E+00  0.00000000E+00
  0.00000000E+00  0.00000000E+00  0.00000000E+00
  0.00000000E+00  0.00000000E+00  0.00000000E+00
  0.00000000E+00  0.00000000E+00  0.00000000E+00
  0.00000000E+00  0.00000000E+00  0.00000000E+00
  0.00000000E+00  0.00000000E+00  0.00000000E+00
  0.00000000E+00  0.00000000E+00  0.00000000E+00
  0.00000000E+00  0.00000000E+00  0.00000000E+00
  0.00000000E+00  0.00000000E+00  0.00000000E+00
  0.00000000E+00  0.00000000E+00  0.00000000E+00
  0.00000000E+00  0.00000000E+00  0.00000000E+00
  0.00000000E+00  0.00000000E+00  0.00000000E+00
  0.00000000E+00  0.00000000E+00  0.00000000E+00
  0.00000000E+00  0.00000000E+00  0.00000000E+00
  0.00000000E+00  0.00000000E+00  0.00000000E+00
  0.00000000E+00  0.00000000E+00  0.00000000E+00
  0.00000000E+00  0.00000000E+00  0.00000000E+00
  0.00000000E+00  0.00000000E+00  0.00000000E+00
  0.00000000E+00  0.00000000E+00  0.00000000E+00
  0.00000000E+00  0.00000000E+00  0.00000000E+00
  0.00000000E+00  0.00000000E+00  0.00000000E+00
  0.00000000E+00  0.00000000E+00  0.00000000E+00
  0.00000000E+00  0.00000000E+00  0.00000000E+00
  0.00000000E+00  0.00000000E+00  0.00000000E+00
  0.00000000E+00  0.00000000E+00  0.00000000E+00
  0.00000000E+00  0.00000000E+00  0.00000000E+00
  0.00000000E+00  0.00000000E+00  0.00000000E+00
  0.00000000E+00  0.00000000E+00  0.00000000E+00
  0.00000000E+00  0.00000000E+00  0.00000000E+00
  0.00000000E+00  0.00000000E+00  0.00000000E+00
  0.00000000E+00  0.00000000E+00  0.00000000E+00
  0.00000000E+00  0.00000000E+00  0.00000000E+00
  0.00000000E+00  0.00000000E+00  0.00000000E+00
  0.00000000E+00  0.00000000E+00  0.00000000E+00
  0.00000000E+00  0.00000000E+00  0.00000000E+00
  0.00000000E+00  0.00000000E+00  0.00000000E+00
  0.00000000E+00  0.00000000E+00  0.00000000E+00
  0.00000000E+00  0.00000000E+00  0.00000000E+00
  0.00000000E+00  0.00000000E+00  0.00000000E+00
  0.00000000E+00  0.00000000E+00  0.00000000E+00
  0.00000000E+00  0.00000000E+00  0.00000000E+00
  0.00000000E+00  0.00000000E+00  0.00000000E+00
  0.00000000E+00  0.00000000E+00  0.00000000E+00
  0.00000000E+00  0.00000000E+00  0.00000000E+00
  0.00000000E+00  0.00000000E+00  0.00000000E+00
  0.00000000E+00  0.00000000E+00  0.00000000E+00
  0.00000000E+00  0.00000000E+00  0.00000000E+00
  0.00000000E+00  0.00000000E+00  0.00000000E+00
  0.00000000E+00  0.00000000E+00  0.00000000E+00
  0.00000000E+00  0.00000000E+00  0.00000000E+00
  0.00000000E+00  0.00000000E+00  0.00000000E+00
  0.00000000E+00  0.00000000E+00  0.00000000E+00
  0.00000000E+00  0.00000000E+00  0.00000000E+00
  0.00000000E+00  0.00000000E+00  0.00000000E+00
  0.00000000E+00  0.00000000E+00  0.00000000E+00
  0.00000000E+00  0.00000000E+00  0.00000000E+00
  0.00000000E+00  0.00000000E+00  0.00000000E+00
  0.00000000E+00  0.00000000E+00  0.00000000E+00
  0.00000000E+00  0.00000000E+00  0.00000000E+00
  0.00000000E+00  0.00000000E+00  0.00000000E+00
  0.00000000E+00  0.00000000E+00  0.00000000E+00
  0.00000000E+00  0.00000000E+00  0.00000000E+00
  0.00000000E+00  0.00000000E+00  0.00000000E+00
  0.00000000E+00  0.00000000E+00  0.00000000E+00
  0.00000000E+00  0.00000000E+00  0.00000000E+00
  0.00000000E+00  0.00000000E+00  0.00000000E+00
  0.00000000E+00  0.00000000E+00  0.00000000E+00
  0.00000000E+00  0.00000000E+00  0.00000000E+00
  0.00000000E+00  0.00000000E+00  0.00000000E+00
  0.00000000E+00  0.00000000E+00  0.00000000E+00
  0.00000000E+00  0.00000000E+00  0.00000000E+00
  0.00000000E+00  0.00000000E+00  0.00000000E+00
  0.00000000E+00  0.00000000E+00  0.00000000E+00
  0.00000000E+00  0.00000000E+00  0.00000000E+00
  0.00000000E+00  0.00000000E+00  0.00000000E+00
  0.00000000E+00  0.00000000E+00  0.00000000E+00
  0.00000000E+00  0.00000000E+00  0.00000000E+00
  0.00000000E+00  0.00000000E+00  0.00000000E+00
  0.00000000E+00  0.00000000E+00  0.00000000E+00
  0.00000000E+00  0.00000000E+00  0.00000000E+00
  0.00000000E+00  0.00000000E+00  0.00000000E+00
  0.00000000E+00  0.00000000E+00  0.00000000E+00
  0.00000000E+00  0.00000000E+00  0.00000000E+00
  0.00000000E+00  0.00000000E+00  0.00000000E+00
  0.00000000E+00  0.00000000E+00  0.00000000E+00
  0.00000000E+00  0.00000000E+00  0.00000000E+00
  0.00000000E+00  0.00000000E+00  0.00000000E+00
  0.00000000E+00  0.00000000E+00  0.00000000E+00
  0.00000000E+00  0.00000000E+00  0.00000000E+00
  0.00000000E+00  0.00000000E+00  0.00000000E+00
  0.00000000E+00  0.00000000E+00  0.00000000E+00
  0.00000000E+00  0.00000000E+00  0.00000000E+00
  0.00000000E+00  0.00000000E+00  0.00000000E+00
  0.00000000E+00  0.00000000E+00  0.00000000E+00
  0.00000000E+00  0.00000000E+00  0.00000000E+00
  0.00000000E+00  0.00000000E+00  0.00000000E+00
  0.00000000E+00  0.00000000E+00  0.00000000E+00
  0.00000000E+00  0.00000000E+00  0.00000000E+00
  0.00000000E+00  0.00000000E+00  0.00000000E+00
  0.00000000E+00  0.00000000E+00  0.00000000E+00
  0.00000000E+00  0.00000000E+00  0.00000000E+00
  0.00000000E+00  0.00000000E+00  0.00000000E+00
  0.00000000E+00  0.00000000E+00  0.00000000E+00
  0.00000000E+00  0.00000000E+00  0.00000000E+00
  0.00000000E+00  0.00000000E+00  0.00000000E+00
  0.00000000E+00  0.00000000E+00  0.00000000E+00
  0.00000000E+00  0.00000000E+00  0.00000000E+00
  0.00000000E+00  0.00000000E+00  0.00000000E+00
  0.00000000E+00  0.00000000E+00  0.00000000E+00
  0.00000000E+00  0.00000000E+00  0.00000000E+00
  0.00000000E+00  0.00000000E+00  0.00000000E+00
  0.00000000E+00  0.00000000E+00  0.00000000E+00
  0.00000000E+00  0.00000000E+00  0.00000000E+00
  0.00000000E+00  0.00000000E+00  0.00000000E+00
  0.00000000E+00  0.00000000E+00  0.00000000E+00
  0.00000000E+00  0.00000000E+00  0.00000000E+00
  0.00000000E+00  0.00000000E+00  0.00000000E+00
  0.00000000E+00  0.00000000E+00  0.00000000E+00
  0.00000000E+00  0.00000000E+00  0.00000000E+00
  0.00000000E+00  0.00000000E+00  0.00000000E+00
  0.00000000E+00  0.00000000E+00  0.00000000E+00
  0.00000000E+00  0.00000000E+00  0.00000000E+00
