Mn1 H1 C122 N4                          
   1.00000000000000     
    19.8087685480375839    0.0001661470792339   -0.0015350359635001
    -9.9042351611883372   17.0170754126797021   -0.0232182484356607
    -0.0023854138573406   -0.0421178938387029   29.8509693700020335
   Mn   H    C    N 
     1     1   122     4
Direct
  0.4375346972835594  0.5000712737543714  0.4110472025707507
  0.4376360224323841  0.5002159066088169  0.4621400724123179
  0.0422599872096845  0.0844074141099516  0.4001288453624794
  0.0411928681976756  0.2083466769754606  0.4003464758827054
  0.0403041461385102  0.3329669805530155  0.4000033314482396
  0.0403973273612617  0.4582239004430613  0.3992882418529018
  0.0413020403743181  0.5837933845657357  0.3989290236007001
  0.0421786131372807  0.7093216166632100  0.3991866424742639
  0.0424973472942765  0.8346069501022793  0.3994318935136041
  0.0426491614558602  0.9598323552067085  0.3996514176158791
  0.1683679075270770  0.0861624278114024  0.4009842922766262
  0.1679552863464635  0.2108738785844433  0.4021000350956696
  0.1652066070865809  0.3338730620499901  0.4023086680119544
  0.1640655184278420  0.4585493509242660  0.4013373240998206
  0.1650757958211467  0.5837403831376875  0.4000841579212709
  0.1663951503562849  0.7090655976412159  0.3994298986035036
  0.1671573499105863  0.8346096267141876  0.3994149063292112
  0.1676850973770385  0.9602910965678639  0.3998966818706876
  0.2928488403691155  0.0861381334120316  0.4009401036481233
  0.2943967220732036  0.2137392191860585  0.4031543886604411
  0.2931544019234042  0.3394536554088113  0.4048085501902369
  0.2872840836799026  0.4584582539460246  0.4045821005057408
  0.2883798364873235  0.5830158160394684  0.4027742653222998
  0.2906389389959350  0.7083345745956886  0.4008056390313575
  0.2916879400549022  0.8339564642965431  0.3996112770622681
  0.2922733239226107  0.9598185839839232  0.3996038478342670
  0.4172323200678887  0.0843902884190562  0.4001204295838710
  0.4179661475504675  0.2108539771217351  0.4021064463345390
  0.4213104928932469  0.3394483221622334  0.4047892028182138
  0.4146281658033271  0.7054420575034563  0.4030371165928243
  0.4160669726186020  0.8319767395817051  0.4008093332435630
  0.4167051398960244  0.9582119173496449  0.3995999193306593
  0.5415900069107979  0.0825313326312852  0.3995340277532932
  0.5422214635620930  0.2083450308686134  0.4003887172122755
  0.5436695503494069  0.3338570975013204  0.4022964496485035
  0.5461599388864492  0.4584602068570960  0.4044692668577735
  0.5380962702387014  0.7011630891900692  0.4045846126031137
  0.5403559692236390  0.8298113717513611  0.4021108662665316
  0.5410784652589876  0.9564305874490203  0.4001819982449125
  0.6660698553540443  0.0817555433145796  0.3996263268875836
  0.6666326721697771  0.2073704097678984  0.3994382927376707
  0.6676832545841637  0.3329858728886866  0.4000067087600255
  0.6694682378058082  0.4585531279553773  0.4012463980569153
  0.6696268789032186  0.5830301781408507  0.4026861700986714
  0.6658354274439345  0.7054569344261528  0.4030312020553805
  0.6645332604446937  0.8298355398158860  0.4020818759094810
  0.6655329746365058  0.9559886479084688  0.4006114049815771
  0.7907583925293927  0.0817497245203587  0.3995993366292207
  0.7911199724578565  0.2071945701835258  0.3993748337964757
  0.7917791920542743  0.3326941188132025  0.3991230528379158
  0.7928148308688363  0.4582264049097330  0.3992517684242842
  0.7936431845761820  0.5837201476452868  0.4000077208123701
  0.7927159911969909  0.7083524581560158  0.4007973151430108
  0.7909779859590840  0.8319905253653921  0.4008254769890740
  0.7904406239233408  0.9564524429244500  0.4001419092830999
  0.9160444622096843  0.0825525437254816  0.3995018572091202
  0.9157845213582576  0.2073702484248436  0.3994229235140923
  0.9159527335295367  0.3326954696551124  0.3990963594021701
  0.9166330728619957  0.4582611921632634  0.3987248557169852
  0.9174742302102390  0.5837931895399135  0.3989126839575838
  0.9176828598034774  0.7090676728871296  0.3994389055632833
  0.9173407448255493  0.8339751114598321  0.3996530916645779
  0.9166149598717712  0.9582352568248247  0.3996262995230473
  0.0846803321515327  0.0436313116642535  0.4001954539343184
  0.0841281532492129  0.1680935363956218  0.4008407630714521
  0.0823398831100843  0.2917320350236334  0.4008170365837192
  0.0813644797934488  0.4163246587393608  0.4000819241974478
  0.0821914781683603  0.5418369132616545  0.3992937005720466
  0.0832655721568155  0.6673540750833996  0.3991245334641986
  0.0839489435582011  0.7928556169314847  0.3993874009025160
  0.0843494707993895  0.9183033367288415  0.3996210184985260
  0.2095775971975075  0.0440816841889461  0.4006253628530624
  0.2105830813259332  0.1702720070637783  0.4021834274230334
  0.2092254893501401  0.2946488210832537  0.4031091460157357
  0.2054030677849658  0.4170716948044986  0.4027975489216227
  0.2055558690515107  0.5415306183390750  0.4013310836952234
  0.2073574097941766  0.6670962782537297  0.4000121640999257
  0.2084333117048175  0.7926860315799013  0.3994378897386685
  0.2090419884501052  0.9183080411539304  0.3995995162845503
  0.3340245054312490  0.0436158878989078  0.4001458216645454
  0.3347413799887964  0.1702454585383849  0.4021500609563234
  0.3369835067133046  0.2989370839450419  0.4046870320001675
  0.3288798814944827  0.5416441947985482  0.4045654738017167
  0.3313814804298286  0.6662174666651154  0.4022696604666905
  0.3328720066907309  0.7917205210530844  0.4003314278125761
  0.3335208091373799  0.9175115598473231  0.3994875383647853
  0.4584150885359530  0.0418363996852346  0.3996224787177476
  0.4590357023423712  0.1680899260789872  0.4008636396937886
  0.4604321605370171  0.2946330453307273  0.4031142460438227
  0.4537528656118543  0.6606427235635232  0.4047286645335628
  0.4571234500017883  0.7892095534659486  0.4020303922898473
  0.4578783992658975  0.9156555318276296  0.4001054083713722
  0.5828427567089284  0.0402272287889720  0.3996512779873782
  0.5834055220534257  0.1660932843468017  0.3996447311846488
  0.5844119414410089  0.2917249336269792  0.4008281507230303
  0.5866464486701234  0.4170641940112081  0.4027187220567942
  0.5877545836455267  0.5416462607041700  0.4044456811739849
  0.5819061012160287  0.6606470397965685  0.4047054434296921
  0.5807031586694902  0.7863521142964979  0.4030607125102648
  0.5822466262292628  0.9139151192400460  0.4009547047001367
  0.7074225342789996  0.0397778277750059  0.3999006078441176
  0.7079163411347984  0.1654497964641143  0.3994214801630928
  0.7086499242020177  0.2909927876012101  0.3994318711365778
  0.7099534600309139  0.4163500258902816  0.4000274012720417
  0.7109589580725979  0.5415345643877215  0.4012300559933200
  0.7098489916245792  0.6662301011833071  0.4022420476577203
  0.7071493739739138  0.7892295625904089  0.4020338431687135
  0.7067494628900928  0.9139397966196721  0.4009100989178526
  0.8324839290823224  0.0402462535848048  0.3996110678485448
  0.8325763842465181  0.1654476756273519  0.3994066525593909
  0.8328879209204226  0.2907306494756668  0.3991648442189472
  0.8337016305006182  0.4162493030447165  0.3989122759086229
  0.8346106646356345  0.5418232908885630  0.3992458065479595
  0.8347280707076374  0.6670811250432994  0.3999873466283856
  0.8339043707740351  0.7917262150203535  0.4003698575197469
  0.8328747234108246  0.9156846423785376  0.4001116955011316
  0.9585276045747818  0.0418564566982199  0.3996202783689238
  0.9577627224146221  0.1661035945653861  0.3996092620171095
  0.9573621382782829  0.2909888194160950  0.3994042837957094
  0.9575324042247909  0.4162521001895135  0.3989105720730365
  0.9583847399629392  0.5417806242837964  0.3987322886652532
  0.9591038831294604  0.6673583986593161  0.3991328938896002
  0.9592885685557780  0.7926872822984673  0.3994567738500185
  0.9590862713722581  0.9175305238574619  0.3995356915012819
  0.4096379226520968  0.5795285797067982  0.4059132715252188
  0.5448869291028108  0.5795312695542222  0.4058472490340558
  0.3301561818342204  0.4205790441587721  0.4059517684326928
  0.4654151568689208  0.4205775681467542  0.4058890355809834
 
  0.00000000E+00  0.00000000E+00  0.00000000E+00
  0.00000000E+00  0.00000000E+00  0.00000000E+00
  0.00000000E+00  0.00000000E+00  0.00000000E+00
  0.00000000E+00  0.00000000E+00  0.00000000E+00
  0.00000000E+00  0.00000000E+00  0.00000000E+00
  0.00000000E+00  0.00000000E+00  0.00000000E+00
  0.00000000E+00  0.00000000E+00  0.00000000E+00
  0.00000000E+00  0.00000000E+00  0.00000000E+00
  0.00000000E+00  0.00000000E+00  0.00000000E+00
  0.00000000E+00  0.00000000E+00  0.00000000E+00
  0.00000000E+00  0.00000000E+00  0.00000000E+00
  0.00000000E+00  0.00000000E+00  0.00000000E+00
  0.00000000E+00  0.00000000E+00  0.00000000E+00
  0.00000000E+00  0.00000000E+00  0.00000000E+00
  0.00000000E+00  0.00000000E+00  0.00000000E+00
  0.00000000E+00  0.00000000E+00  0.00000000E+00
  0.00000000E+00  0.00000000E+00  0.00000000E+00
  0.00000000E+00  0.00000000E+00  0.00000000E+00
  0.00000000E+00  0.00000000E+00  0.00000000E+00
  0.00000000E+00  0.00000000E+00  0.00000000E+00
  0.00000000E+00  0.00000000E+00  0.00000000E+00
  0.00000000E+00  0.00000000E+00  0.00000000E+00
  0.00000000E+00  0.00000000E+00  0.00000000E+00
  0.00000000E+00  0.00000000E+00  0.00000000E+00
  0.00000000E+00  0.00000000E+00  0.00000000E+00
  0.00000000E+00  0.00000000E+00  0.00000000E+00
  0.00000000E+00  0.00000000E+00  0.00000000E+00
  0.00000000E+00  0.00000000E+00  0.00000000E+00
  0.00000000E+00  0.00000000E+00  0.00000000E+00
  0.00000000E+00  0.00000000E+00  0.00000000E+00
  0.00000000E+00  0.00000000E+00  0.00000000E+00
  0.00000000E+00  0.00000000E+00  0.00000000E+00
  0.00000000E+00  0.00000000E+00  0.00000000E+00
  0.00000000E+00  0.00000000E+00  0.00000000E+00
  0.00000000E+00  0.00000000E+00  0.00000000E+00
  0.00000000E+00  0.00000000E+00  0.00000000E+00
  0.00000000E+00  0.00000000E+00  0.00000000E+00
  0.00000000E+00  0.00000000E+00  0.00000000E+00
  0.00000000E+00  0.00000000E+00  0.00000000E+00
  0.00000000E+00  0.00000000E+00  0.00000000E+00
  0.00000000E+00  0.00000000E+00  0.00000000E+00
  0.00000000E+00  0.00000000E+00  0.00000000E+00
  0.00000000E+00  0.00000000E+00  0.00000000E+00
  0.00000000E+00  0.00000000E+00  0.00000000E+00
  0.00000000E+00  0.00000000E+00  0.00000000E+00
  0.00000000E+00  0.00000000E+00  0.00000000E+00
  0.00000000E+00  0.00000000E+00  0.00000000E+00
  0.00000000E+00  0.00000000E+00  0.00000000E+00
  0.00000000E+00  0.00000000E+00  0.00000000E+00
  0.00000000E+00  0.00000000E+00  0.00000000E+00
  0.00000000E+00  0.00000000E+00  0.00000000E+00
  0.00000000E+00  0.00000000E+00  0.00000000E+00
  0.00000000E+00  0.00000000E+00  0.00000000E+00
  0.00000000E+00  0.00000000E+00  0.00000000E+00
  0.00000000E+00  0.00000000E+00  0.00000000E+00
  0.00000000E+00  0.00000000E+00  0.00000000E+00
  0.00000000E+00  0.00000000E+00  0.00000000E+00
  0.00000000E+00  0.00000000E+00  0.00000000E+00
  0.00000000E+00  0.00000000E+00  0.00000000E+00
  0.00000000E+00  0.00000000E+00  0.00000000E+00
  0.00000000E+00  0.00000000E+00  0.00000000E+00
  0.00000000E+00  0.00000000E+00  0.00000000E+00
  0.00000000E+00  0.00000000E+00  0.00000000E+00
  0.00000000E+00  0.00000000E+00  0.00000000E+00
  0.00000000E+00  0.00000000E+00  0.00000000E+00
  0.00000000E+00  0.00000000E+00  0.00000000E+00
  0.00000000E+00  0.00000000E+00  0.00000000E+00
  0.00000000E+00  0.00000000E+00  0.00000000E+00
  0.00000000E+00  0.00000000E+00  0.00000000E+00
  0.00000000E+00  0.00000000E+00  0.00000000E+00
  0.00000000E+00  0.00000000E+00  0.00000000E+00
  0.00000000E+00  0.00000000E+00  0.00000000E+00
  0.00000000E+00  0.00000000E+00  0.00000000E+00
  0.00000000E+00  0.00000000E+00  0.00000000E+00
  0.00000000E+00  0.00000000E+00  0.00000000E+00
  0.00000000E+00  0.00000000E+00  0.00000000E+00
  0.00000000E+00  0.00000000E+00  0.00000000E+00
  0.00000000E+00  0.00000000E+00  0.00000000E+00
  0.00000000E+00  0.00000000E+00  0.00000000E+00
  0.00000000E+00  0.00000000E+00  0.00000000E+00
  0.00000000E+00  0.00000000E+00  0.00000000E+00
  0.00000000E+00  0.00000000E+00  0.00000000E+00
  0.00000000E+00  0.00000000E+00  0.00000000E+00
  0.00000000E+00  0.00000000E+00  0.00000000E+00
  0.00000000E+00  0.00000000E+00  0.00000000E+00
  0.00000000E+00  0.00000000E+00  0.00000000E+00
  0.00000000E+00  0.00000000E+00  0.00000000E+00
  0.00000000E+00  0.00000000E+00  0.00000000E+00
  0.00000000E+00  0.00000000E+00  0.00000000E+00
  0.00000000E+00  0.00000000E+00  0.00000000E+00
  0.00000000E+00  0.00000000E+00  0.00000000E+00
  0.00000000E+00  0.00000000E+00  0.00000000E+00
  0.00000000E+00  0.00000000E+00  0.00000000E+00
  0.00000000E+00  0.00000000E+00  0.00000000E+00
  0.00000000E+00  0.00000000E+00  0.00000000E+00
  0.00000000E+00  0.00000000E+00  0.00000000E+00
  0.00000000E+00  0.00000000E+00  0.00000000E+00
  0.00000000E+00  0.00000000E+00  0.00000000E+00
  0.00000000E+00  0.00000000E+00  0.00000000E+00
  0.00000000E+00  0.00000000E+00  0.00000000E+00
  0.00000000E+00  0.00000000E+00  0.00000000E+00
  0.00000000E+00  0.00000000E+00  0.00000000E+00
  0.00000000E+00  0.00000000E+00  0.00000000E+00
  0.00000000E+00  0.00000000E+00  0.00000000E+00
  0.00000000E+00  0.00000000E+00  0.00000000E+00
  0.00000000E+00  0.00000000E+00  0.00000000E+00
  0.00000000E+00  0.00000000E+00  0.00000000E+00
  0.00000000E+00  0.00000000E+00  0.00000000E+00
  0.00000000E+00  0.00000000E+00  0.00000000E+00
  0.00000000E+00  0.00000000E+00  0.00000000E+00
  0.00000000E+00  0.00000000E+00  0.00000000E+00
  0.00000000E+00  0.00000000E+00  0.00000000E+00
  0.00000000E+00  0.00000000E+00  0.00000000E+00
  0.00000000E+00  0.00000000E+00  0.00000000E+00
  0.00000000E+00  0.00000000E+00  0.00000000E+00
  0.00000000E+00  0.00000000E+00  0.00000000E+00
  0.00000000E+00  0.00000000E+00  0.00000000E+00
  0.00000000E+00  0.00000000E+00  0.00000000E+00
  0.00000000E+00  0.00000000E+00  0.00000000E+00
  0.00000000E+00  0.00000000E+00  0.00000000E+00
  0.00000000E+00  0.00000000E+00  0.00000000E+00
  0.00000000E+00  0.00000000E+00  0.00000000E+00
  0.00000000E+00  0.00000000E+00  0.00000000E+00
  0.00000000E+00  0.00000000E+00  0.00000000E+00
  0.00000000E+00  0.00000000E+00  0.00000000E+00
  0.00000000E+00  0.00000000E+00  0.00000000E+00
  0.00000000E+00  0.00000000E+00  0.00000000E+00
  0.00000000E+00  0.00000000E+00  0.00000000E+00
