Ta1 H1 C125 N1                          
   1.00000000000000     
    19.8116230317816928   -0.0083492447247967   -0.0025362062416417
    -9.9131237215025649   17.0719723932707730   -0.1202833192234483
    -0.0038073418389233   -0.2118394055551537   29.7595688808945233
   Ta   H    C    N 
     1     1   125     1
Direct
  0.4398168244242683  0.5015557870864207  0.4320070205241407
  0.4457052211550136  0.5003715160229787  0.4923724466073540
  0.0419035695792072  0.0840530257452359  0.3995366047433230
  0.0412798354585815  0.2084433789459719  0.3995887155854239
  0.0407617764567220  0.3331028149741069  0.3996522807257787
  0.0407592881565419  0.4584051671538496  0.3996042884411733
  0.0414547312187390  0.5838779178240784  0.3998053434298096
  0.0420423047509137  0.7091881927559522  0.3998938373493048
  0.0422670675003018  0.8343900613996076  0.3999824846243213
  0.0422556042879667  0.9593896949115699  0.3997609302735931
  0.1674633764939242  0.0849844184072825  0.3996207297633628
  0.1671439851484591  0.2097756387437479  0.3998935001121338
  0.1660205970719038  0.3340629135254210  0.4004159956854712
  0.1646550755286173  0.4586426295117374  0.4000607739156652
  0.1653633780850854  0.5838104578801607  0.3996079893217883
  0.1663851659331135  0.7091097219180851  0.3998444964575332
  0.1669900833021195  0.8344154257224178  0.3999505295780687
  0.1673154818760670  0.9596999564688669  0.3997754081070257
  0.2924312822360551  0.0849060936660661  0.3996574762099201
  0.2930486883550993  0.2110397489175862  0.4006724102685379
  0.2926611554384922  0.3365497503959972  0.4024321507177633
  0.2889721919578703  0.4594510963193292  0.4025022142289426
  0.2891028118952113  0.5842866468213364  0.4005110645688424
  0.2907839805600876  0.7090835864236144  0.3997585879095064
  0.2916114391150935  0.8341325984794309  0.3998241718313972
  0.2920126611253626  0.9593616620012809  0.3997310475499308
  0.4170722514283882  0.0837910381825135  0.3995845142692158
  0.4175347527728197  0.2092415605233498  0.3999620656332127
  0.4188715498925227  0.3356537492096970  0.4023583402362937
  0.4150586640495975  0.7072770980019585  0.4000183803508267
  0.4161588098218013  0.8329315546856736  0.3995862011803828
  0.4166882989553460  0.9584015848570705  0.3997381327185333
  0.5416902900998399  0.0827115195258646  0.3997621808296468
  0.5421999957925091  0.2079567762431632  0.3997637799846802
  0.5430566483426157  0.3330748518993656  0.4005698530176021
  0.5456595488988017  0.4576305100484135  0.4020509944143468
  0.5449267024825395  0.5814035270760592  0.4019449560643833
  0.5388981129733766  0.7044728908634896  0.4008046501399071
  0.5406465479486642  0.8315732817379013  0.3997218635424307
  0.5412995287648519  0.9573271203578854  0.3997801339662705
  0.6663456538428988  0.0823001166278880  0.3998992957788493
  0.6667630094370770  0.2075388897000467  0.3998518030666675
  0.6674800829397795  0.3327716136291439  0.3999037319470796
  0.6692427913977008  0.4582391198011154  0.4002150773461744
  0.6699510648882829  0.5836532783538965  0.3999573817667926
  0.6665833964366218  0.7071265420870645  0.3992357688352489
  0.6651915857528634  0.8312575202281075  0.3995708611908795
  0.6658934996392502  0.9569466329246719  0.3998588160877791
  0.7910747903908254  0.0823377833856091  0.3999644234470530
  0.7913581452182389  0.2075357465412940  0.3999940125506739
  0.7919171168734741  0.3328720166632247  0.3998366708114554
  0.7928581061206901  0.4583095088635724  0.3998047770209210
  0.7934625999334380  0.5836209610081050  0.3997768520194253
  0.7928551967147673  0.7088151191531494  0.3996036291068235
  0.7914396111855492  0.8328477199636203  0.3996059039627571
  0.7908404261403932  0.9572105420159307  0.3998448836901288
  0.9162003363706854  0.0828970198440991  0.3997791253501826
  0.9160740230730899  0.2077261699831575  0.3998188655404741
  0.9162565274239245  0.3329453471149855  0.3997957921681524
  0.9167872953297083  0.4583546350341443  0.3998055957261531
  0.9174824380106504  0.5838393965205936  0.3998447521808876
  0.9175206861826478  0.7090823703455750  0.3998847694189548
  0.9172569763734907  0.8339752867888950  0.3999351222552694
  0.9166761060133070  0.9584559294397482  0.3998556441305836
  0.0839900950909777  0.0429017708179856  0.3995496799326658
  0.0835784255778319  0.1675090957516563  0.3995465005589097
  0.0826503067145779  0.2918156568203738  0.3997798991181028
  0.0818860780914016  0.4166234954097492  0.3996263645430552
  0.0824205665698702  0.5419500283077681  0.3996363635407243
  0.0832425071467969  0.6673622572650042  0.3998682694087699
  0.0837699016201905  0.7927191165751484  0.3999409653383013
  0.0839634015811732  0.9178638032958809  0.3998828000025572
  0.2090279035566462  0.0431465863140208  0.3996420387444677
  0.2092159118793624  0.1685462169504862  0.4000236493135843
  0.2087822157296275  0.2934157846346840  0.4005922542756435
  0.2061654400020204  0.4174248993904776  0.4009210723615087
  0.2061137503642840  0.5419559100369653  0.3999314668795679
  0.2075123036991542  0.6673433639589691  0.3997100870283937
  0.2083517846193566  0.7926230603744281  0.3999222323468964
  0.2088071726944535  0.9178884773319678  0.3998528187390786
  0.3338113937603740  0.0428241449611110  0.3995961121060992
  0.3342857285052048  0.1684023843691796  0.4000443358548622
  0.3348349700415649  0.2944685289212721  0.4022366299487672
  0.3315347700763773  0.4196843429752542  0.4047604956422533
  0.3302060739687773  0.5438300551131776  0.4022704041466616
  0.3318579107985268  0.6674311367503633  0.4000736855339820
  0.3329878079634063  0.7923135972884571  0.3997086198333623
  0.3334603636603268  0.9174535121329136  0.3997650109916939
  0.4585223238140141  0.0417627848446763  0.3996994687732960
  0.4589229481973143  0.1671181918867909  0.3996515526838496
  0.4596873842775105  0.2926828259939239  0.4006377795717397
  0.4635959730152879  0.4184706035453654  0.4046399635844254
  0.4549844029393529  0.6637053692810366  0.4016097598978912
  0.4575244935557536  0.7907481398411319  0.3995351245922484
  0.4580540797177091  0.9163250077904290  0.3997051618110315
  0.5831138783444952  0.0407882672156235  0.3998298377142423
  0.5835599430637890  0.1661043188531440  0.3997598092341100
  0.5842795136383233  0.2911786624269921  0.4000150989718933
  0.5863853196476434  0.4162235974884689  0.4009724204124028
  0.5879030299741803  0.5421890759563358  0.4008553558303729
  0.5824833534238083  0.6637010452187124  0.4003702473046113
  0.5811839979162677  0.7885608888228305  0.3998648428118792
  0.5826211440800958  0.9152235300381559  0.3997874574395420
  0.7077438050151599  0.0404517004131435  0.3999155691978049
  0.7081789003710899  0.1657837696801309  0.3999432375165670
  0.7086891936974808  0.2910223588368703  0.3998297456130241
  0.7099360105911842  0.4163972372538913  0.3998839951795850
  0.7109447853156088  0.5417293501045946  0.4000017500890438
  0.7096402354211385  0.6668276117427394  0.3994283287264407
  0.7078278953014417  0.7905443688175249  0.3993200217645179
  0.7071945365356629  0.9149213994338796  0.3997622143645947
  0.8327209657410796  0.0407942841995869  0.3999101480629354
  0.8328193990943117  0.1658465695846842  0.3999835567274106
  0.8331706134475917  0.2910941847273372  0.3999009060770283
  0.8338366993792682  0.4164028477244704  0.3998132530319011
  0.8345740587383627  0.5418439136349993  0.3998066658907928
  0.8345352610475453  0.6672679873663014  0.3997585466979547
  0.8339183781528940  0.7920105890256490  0.3997187207154727
  0.8330909203000998  0.9162700132523582  0.3998199656447953
  0.9583646234897432  0.0418790429425531  0.3997251213480134
  0.9578878354956283  0.1663712530826135  0.3996702199105616
  0.9576750378552744  0.2912224808895341  0.3997108954288477
  0.9578109015734363  0.4164650790195348  0.3997360401725086
  0.9585368804968967  0.5419820832189006  0.3998454826978615
  0.9589917353613917  0.6673499354900968  0.3998738977751997
  0.9590283131992734  0.7925628268314252  0.3999752247897765
  0.9588426903199362  0.9174068637929303  0.3998842756442455
  0.4107600097168163  0.5826344827311958  0.4047724798324461
 
  0.00000000E+00  0.00000000E+00  0.00000000E+00
  0.00000000E+00  0.00000000E+00  0.00000000E+00
  0.00000000E+00  0.00000000E+00  0.00000000E+00
  0.00000000E+00  0.00000000E+00  0.00000000E+00
  0.00000000E+00  0.00000000E+00  0.00000000E+00
  0.00000000E+00  0.00000000E+00  0.00000000E+00
  0.00000000E+00  0.00000000E+00  0.00000000E+00
  0.00000000E+00  0.00000000E+00  0.00000000E+00
  0.00000000E+00  0.00000000E+00  0.00000000E+00
  0.00000000E+00  0.00000000E+00  0.00000000E+00
  0.00000000E+00  0.00000000E+00  0.00000000E+00
  0.00000000E+00  0.00000000E+00  0.00000000E+00
  0.00000000E+00  0.00000000E+00  0.00000000E+00
  0.00000000E+00  0.00000000E+00  0.00000000E+00
  0.00000000E+00  0.00000000E+00  0.00000000E+00
  0.00000000E+00  0.00000000E+00  0.00000000E+00
  0.00000000E+00  0.00000000E+00  0.00000000E+00
  0.00000000E+00  0.00000000E+00  0.00000000E+00
  0.00000000E+00  0.00000000E+00  0.00000000E+00
  0.00000000E+00  0.00000000E+00  0.00000000E+00
  0.00000000E+00  0.00000000E+00  0.00000000E+00
  0.00000000E+00  0.00000000E+00  0.00000000E+00
  0.00000000E+00  0.00000000E+00  0.00000000E+00
  0.00000000E+00  0.00000000E+00  0.00000000E+00
  0.00000000E+00  0.00000000E+00  0.00000000E+00
  0.00000000E+00  0.00000000E+00  0.00000000E+00
  0.00000000E+00  0.00000000E+00  0.00000000E+00
  0.00000000E+00  0.00000000E+00  0.00000000E+00
  0.00000000E+00  0.00000000E+00  0.00000000E+00
  0.00000000E+00  0.00000000E+00  0.00000000E+00
  0.00000000E+00  0.00000000E+00  0.00000000E+00
  0.00000000E+00  0.00000000E+00  0.00000000E+00
  0.00000000E+00  0.00000000E+00  0.00000000E+00
  0.00000000E+00  0.00000000E+00  0.00000000E+00
  0.00000000E+00  0.00000000E+00  0.00000000E+00
  0.00000000E+00  0.00000000E+00  0.00000000E+00
  0.00000000E+00  0.00000000E+00  0.00000000E+00
  0.00000000E+00  0.00000000E+00  0.00000000E+00
  0.00000000E+00  0.00000000E+00  0.00000000E+00
  0.00000000E+00  0.00000000E+00  0.00000000E+00
  0.00000000E+00  0.00000000E+00  0.00000000E+00
  0.00000000E+00  0.00000000E+00  0.00000000E+00
  0.00000000E+00  0.00000000E+00  0.00000000E+00
  0.00000000E+00  0.00000000E+00  0.00000000E+00
  0.00000000E+00  0.00000000E+00  0.00000000E+00
  0.00000000E+00  0.00000000E+00  0.00000000E+00
  0.00000000E+00  0.00000000E+00  0.00000000E+00
  0.00000000E+00  0.00000000E+00  0.00000000E+00
  0.00000000E+00  0.00000000E+00  0.00000000E+00
  0.00000000E+00  0.00000000E+00  0.00000000E+00
  0.00000000E+00  0.00000000E+00  0.00000000E+00
  0.00000000E+00  0.00000000E+00  0.00000000E+00
  0.00000000E+00  0.00000000E+00  0.00000000E+00
  0.00000000E+00  0.00000000E+00  0.00000000E+00
  0.00000000E+00  0.00000000E+00  0.00000000E+00
  0.00000000E+00  0.00000000E+00  0.00000000E+00
  0.00000000E+00  0.00000000E+00  0.00000000E+00
  0.00000000E+00  0.00000000E+00  0.00000000E+00
  0.00000000E+00  0.00000000E+00  0.00000000E+00
  0.00000000E+00  0.00000000E+00  0.00000000E+00
  0.00000000E+00  0.00000000E+00  0.00000000E+00
  0.00000000E+00  0.00000000E+00  0.00000000E+00
  0.00000000E+00  0.00000000E+00  0.00000000E+00
  0.00000000E+00  0.00000000E+00  0.00000000E+00
  0.00000000E+00  0.00000000E+00  0.00000000E+00
  0.00000000E+00  0.00000000E+00  0.00000000E+00
  0.00000000E+00  0.00000000E+00  0.00000000E+00
  0.00000000E+00  0.00000000E+00  0.00000000E+00
  0.00000000E+00  0.00000000E+00  0.00000000E+00
  0.00000000E+00  0.00000000E+00  0.00000000E+00
  0.00000000E+00  0.00000000E+00  0.00000000E+00
  0.00000000E+00  0.00000000E+00  0.00000000E+00
  0.00000000E+00  0.00000000E+00  0.00000000E+00
  0.00000000E+00  0.00000000E+00  0.00000000E+00
  0.00000000E+00  0.00000000E+00  0.00000000E+00
  0.00000000E+00  0.00000000E+00  0.00000000E+00
  0.00000000E+00  0.00000000E+00  0.00000000E+00
  0.00000000E+00  0.00000000E+00  0.00000000E+00
  0.00000000E+00  0.00000000E+00  0.00000000E+00
  0.00000000E+00  0.00000000E+00  0.00000000E+00
  0.00000000E+00  0.00000000E+00  0.00000000E+00
  0.00000000E+00  0.00000000E+00  0.00000000E+00
  0.00000000E+00  0.00000000E+00  0.00000000E+00
  0.00000000E+00  0.00000000E+00  0.00000000E+00
  0.00000000E+00  0.00000000E+00  0.00000000E+00
  0.00000000E+00  0.00000000E+00  0.00000000E+00
  0.00000000E+00  0.00000000E+00  0.00000000E+00
  0.00000000E+00  0.00000000E+00  0.00000000E+00
  0.00000000E+00  0.00000000E+00  0.00000000E+00
  0.00000000E+00  0.00000000E+00  0.00000000E+00
  0.00000000E+00  0.00000000E+00  0.00000000E+00
  0.00000000E+00  0.00000000E+00  0.00000000E+00
  0.00000000E+00  0.00000000E+00  0.00000000E+00
  0.00000000E+00  0.00000000E+00  0.00000000E+00
  0.00000000E+00  0.00000000E+00  0.00000000E+00
  0.00000000E+00  0.00000000E+00  0.00000000E+00
  0.00000000E+00  0.00000000E+00  0.00000000E+00
  0.00000000E+00  0.00000000E+00  0.00000000E+00
  0.00000000E+00  0.00000000E+00  0.00000000E+00
  0.00000000E+00  0.00000000E+00  0.00000000E+00
  0.00000000E+00  0.00000000E+00  0.00000000E+00
  0.00000000E+00  0.00000000E+00  0.00000000E+00
  0.00000000E+00  0.00000000E+00  0.00000000E+00
  0.00000000E+00  0.00000000E+00  0.00000000E+00
  0.00000000E+00  0.00000000E+00  0.00000000E+00
  0.00000000E+00  0.00000000E+00  0.00000000E+00
  0.00000000E+00  0.00000000E+00  0.00000000E+00
  0.00000000E+00  0.00000000E+00  0.00000000E+00
  0.00000000E+00  0.00000000E+00  0.00000000E+00
  0.00000000E+00  0.00000000E+00  0.00000000E+00
  0.00000000E+00  0.00000000E+00  0.00000000E+00
  0.00000000E+00  0.00000000E+00  0.00000000E+00
  0.00000000E+00  0.00000000E+00  0.00000000E+00
  0.00000000E+00  0.00000000E+00  0.00000000E+00
  0.00000000E+00  0.00000000E+00  0.00000000E+00
  0.00000000E+00  0.00000000E+00  0.00000000E+00
  0.00000000E+00  0.00000000E+00  0.00000000E+00
  0.00000000E+00  0.00000000E+00  0.00000000E+00
  0.00000000E+00  0.00000000E+00  0.00000000E+00
  0.00000000E+00  0.00000000E+00  0.00000000E+00
  0.00000000E+00  0.00000000E+00  0.00000000E+00
  0.00000000E+00  0.00000000E+00  0.00000000E+00
  0.00000000E+00  0.00000000E+00  0.00000000E+00
  0.00000000E+00  0.00000000E+00  0.00000000E+00
  0.00000000E+00  0.00000000E+00  0.00000000E+00
  0.00000000E+00  0.00000000E+00  0.00000000E+00
  0.00000000E+00  0.00000000E+00  0.00000000E+00
  0.00000000E+00  0.00000000E+00  0.00000000E+00
