Ir1 C123 N3                             
   1.00000000000000     
    19.8607537850590781   -0.0003618559078351    0.0169251476992761
    -9.9305249729084686   17.0358620257095978   -0.0287060901421473
     0.0258162482919882   -0.0355666766553982   29.7404650888203150
   Ir   C    N 
     1   123     3
Direct
  0.4371208534141174  0.4988969219751488  0.4094009485133855
  0.0418871883227554  0.0842125671875815  0.3999266199782253
  0.0404909226118284  0.2079828423024896  0.4001327228443640
  0.0395571720836133  0.3325747506132283  0.3997772129524355
  0.0399107823628192  0.4580852503331370  0.3991714227701568
  0.0411952411194471  0.5838933830930454  0.3989300979451887
  0.0423561017086118  0.7094906325480217  0.3992067184586106
  0.0426930736133517  0.8349280150972352  0.3993721069376449
  0.0426684082603265  0.9599494691390815  0.3994389022616288
  0.1680097653293944  0.0861456159676686  0.4004196291460209
  0.1671386395597572  0.2104951313523878  0.4014391562420765
  0.1641472807292217  0.3334454140506598  0.4017282971377734
  0.1628838126041242  0.4583379173929241  0.4005235051854942
  0.1642214289488227  0.5837240924308207  0.3994562221174545
  0.1662223445936090  0.7093452477330418  0.3992209189442757
  0.1672326448110165  0.8349215815630476  0.3994409950425220
  0.1677352088646873  0.9605214692193115  0.3997214099085987
  0.2928503532268202  0.0861285264837494  0.4004269595589225
  0.2937461207919073  0.2132937141753720  0.4023589418998959
  0.2916191987802791  0.3386888689362397  0.4044974762712503
  0.2851416210340592  0.4579019993649364  0.4041217190687645
  0.2867500916334471  0.5834440770093269  0.4016597729951709
  0.2900994840851385  0.7089011590363492  0.3998663987616832
  0.2915081419219099  0.8342812530046685  0.3993334542140361
  0.2922075316188374  0.9599874944361988  0.3995192265136503
  0.4171870166550995  0.0841355747223505  0.3998861445303281
  0.4180728873605241  0.2102201487609506  0.4014910016772070
  0.4203945177858885  0.3372718828267322  0.4048083125711778
  0.4138719702851793  0.7065595888969529  0.4018488069157917
  0.4157764223383971  0.8324543804932031  0.4000735304055577
  0.4165860856656563  0.9583107647384174  0.3994691134396036
  0.5415205927949152  0.0822988612942080  0.3994413430686337
  0.5423192155848715  0.2079602265971573  0.3999644910074394
  0.5441565794581608  0.3335422963483530  0.4020082190294049
  0.5497720041316396  0.4591074350386187  0.4053764711922657
  0.5377049250267989  0.7006056028016435  0.4040457984110363
  0.5399849786018779  0.8295767699906005  0.4012171223449301
  0.5409044985329621  0.9562341623023630  0.3998453648823888
  0.6658680500011818  0.0814043808782452  0.3997048423210727
  0.6666464116550339  0.2070103307025542  0.3993475162898171
  0.6680716035963778  0.3326218788735985  0.3995234250535123
  0.6711555140563443  0.4583757776304621  0.4008816471016544
  0.6724410635819810  0.5840473879018218  0.4026898356982423
  0.6667900896490987  0.7058182273501280  0.4028864275016506
  0.6643964415804835  0.8294682461479942  0.4015919974306592
  0.6653007580730284  0.9556296894022716  0.4003020578650970
  0.7904488270259147  0.0813733577402556  0.3996691779438831
  0.7909001707404011  0.2067985389485854  0.3994372873187827
  0.7918625771038105  0.3323784403623031  0.3989685509552202
  0.7936637218981114  0.4581465237925892  0.3988726956626980
  0.7948870619564102  0.5838451086200803  0.3995790402950530
  0.7938499310819694  0.7090025331323331  0.4004279256442190
  0.7913145892925071  0.8321431546404772  0.4005288989633025
  0.7901935626862369  0.9561663921079873  0.4000212452675669
  0.9156480129447563  0.0822077798377986  0.3994921447809752
  0.9153133444442774  0.2069687639897780  0.3994660311683967
  0.9156260099116432  0.3323776625731055  0.3991784210659329
  0.9167616514734064  0.4581113080806655  0.3987347836187645
  0.9180095771370863  0.5839244424745356  0.3987434731485603
  0.9182790982400602  0.7093613356097994  0.3992099675153008
  0.9177344657869586  0.8342618086232219  0.3994521783410270
  0.9165428064751467  0.9582072062325458  0.3995259840184137
  0.0844373770868656  0.0436269904542828  0.3998609332900955
  0.0835088926802986  0.1677675279033445  0.4004664899738345
  0.0814062543220078  0.2912898786609797  0.4004358328125778
  0.0805792568686805  0.4161044097164247  0.3996731889818283
  0.0816419524015581  0.5417642659414832  0.3990924135205681
  0.0832474672800749  0.6675212388142135  0.3991186502324689
  0.0841411349835268  0.7931460070077246  0.3993979209778216
  0.0844475174685440  0.9185595285486667  0.3994830049339362
  0.2095961036949571  0.0442750398733933  0.4001723763760108
  0.2098882818617025  0.1700264932637318  0.4014026911808694
  0.2080883441884491  0.2942105063863265  0.4025318398690940
  0.2039623985003720  0.4166770960508833  0.4020426835662655
  0.2041922298294684  0.5414485002487105  0.4003962556437778
  0.2069648512917859  0.6673433032039872  0.3994025397437825
  0.2083941700233103  0.7929706618570156  0.3992970162614265
  0.2091044446873316  0.9185933363689827  0.3995889373538550
  0.3340398576042592  0.0436553625763499  0.3998805057664083
  0.3348788799941467  0.1701841218057452  0.4014459268398534
  0.3363605616386167  0.2978718308976183  0.4042471456589298
  0.3272160630726634  0.5426825657075419  0.4037985487683434
  0.3307275996431110  0.6668253029574357  0.4010696134746021
  0.3325932451726532  0.7921658414936159  0.3996668223300979
  0.3334922461404372  0.9177811960537964  0.3993734972228685
  0.4584303414482332  0.0417806328666919  0.3995244830427780
  0.4591583592501397  0.1676095091744274  0.4003890184764597
  0.4604986335871692  0.2938093808898911  0.4028025016279672
  0.4667551339813798  0.4212319206169292  0.4072872562911205
  0.4525133256265006  0.6616734458558268  0.4037843546679053
  0.4568088547961030  0.7899541185190260  0.4009771575817311
  0.4577915554280162  0.9159058621191175  0.3997427999529972
  0.5827633248897467  0.0400096983348238  0.3995808851432272
  0.5834716513969745  0.1658332940268908  0.3994492095085886
  0.5846777584303736  0.2914869020897717  0.4003416113920300
  0.5886245865547277  0.4170473888009431  0.4027428299788489
  0.5915300282672380  0.5425658457142776  0.4053936020733617
  0.5830225730554183  0.6606421602670323  0.4049122412620615
  0.5802709708527297  0.7855726135235352  0.4023487170857351
  0.5820169710408387  0.9135795015180957  0.4003985178996533
  0.7071581965090360  0.0393504893766203  0.3998936564370392
  0.7077956785042161  0.1651000353468769  0.3994971864047433
  0.7087641609572752  0.2906523331697698  0.3991543657663827
  0.7110578154120123  0.4161361807146780  0.3995238199754594
  0.7126697225027528  0.5415896501129502  0.4008788629509932
  0.7112864058229086  0.6669947357069359  0.4020578340322820
  0.7075557176259050  0.7893711130392871  0.4016237061432064
  0.7064809160140509  0.9135380577274593  0.4005835856105604
  0.8321420918531345  0.0398975026127379  0.3996125638159345
  0.8322017475276863  0.1650525575615034  0.3994945453682422
  0.8327210198304821  0.2903836369627269  0.3991821243573338
  0.8340945644534520  0.4160261218907295  0.3987230762215863
  0.8354660063075096  0.5418197778081070  0.3988943434869994
  0.8355283030226265  0.6673715169315071  0.3996145841258325
  0.8345252610426281  0.7921696740225094  0.4000614269584435
  0.8328939519691244  0.9156725428263052  0.3999740485833247
  0.9582196179495481  0.0416928182132942  0.3995579848731409
  0.9572092557462826  0.1657204511758097  0.3995881085909940
  0.9568490309481830  0.2905999698294976  0.3994289294703001
  0.9572750964645722  0.4159935146416208  0.3989930445172802
  0.9585635784548392  0.5418158816181086  0.3987380931441874
  0.9595003510154952  0.6675537079008640  0.3990172017526758
  0.9596295755398828  0.7929506844446873  0.3993158333927714
  0.9592336650786422  0.9176908851222739  0.3993841196716687
  0.4065202507882177  0.5821251358085807  0.4051914926970304
  0.5488768847916203  0.5802843529270650  0.4073430995438481
  0.3276974881834041  0.4197530274876168  0.4063432312291662
 
  0.00000000E+00  0.00000000E+00  0.00000000E+00
  0.00000000E+00  0.00000000E+00  0.00000000E+00
  0.00000000E+00  0.00000000E+00  0.00000000E+00
  0.00000000E+00  0.00000000E+00  0.00000000E+00
  0.00000000E+00  0.00000000E+00  0.00000000E+00
  0.00000000E+00  0.00000000E+00  0.00000000E+00
  0.00000000E+00  0.00000000E+00  0.00000000E+00
  0.00000000E+00  0.00000000E+00  0.00000000E+00
  0.00000000E+00  0.00000000E+00  0.00000000E+00
  0.00000000E+00  0.00000000E+00  0.00000000E+00
  0.00000000E+00  0.00000000E+00  0.00000000E+00
  0.00000000E+00  0.00000000E+00  0.00000000E+00
  0.00000000E+00  0.00000000E+00  0.00000000E+00
  0.00000000E+00  0.00000000E+00  0.00000000E+00
  0.00000000E+00  0.00000000E+00  0.00000000E+00
  0.00000000E+00  0.00000000E+00  0.00000000E+00
  0.00000000E+00  0.00000000E+00  0.00000000E+00
  0.00000000E+00  0.00000000E+00  0.00000000E+00
  0.00000000E+00  0.00000000E+00  0.00000000E+00
  0.00000000E+00  0.00000000E+00  0.00000000E+00
  0.00000000E+00  0.00000000E+00  0.00000000E+00
  0.00000000E+00  0.00000000E+00  0.00000000E+00
  0.00000000E+00  0.00000000E+00  0.00000000E+00
  0.00000000E+00  0.00000000E+00  0.00000000E+00
  0.00000000E+00  0.00000000E+00  0.00000000E+00
  0.00000000E+00  0.00000000E+00  0.00000000E+00
  0.00000000E+00  0.00000000E+00  0.00000000E+00
  0.00000000E+00  0.00000000E+00  0.00000000E+00
  0.00000000E+00  0.00000000E+00  0.00000000E+00
  0.00000000E+00  0.00000000E+00  0.00000000E+00
  0.00000000E+00  0.00000000E+00  0.00000000E+00
  0.00000000E+00  0.00000000E+00  0.00000000E+00
  0.00000000E+00  0.00000000E+00  0.00000000E+00
  0.00000000E+00  0.00000000E+00  0.00000000E+00
  0.00000000E+00  0.00000000E+00  0.00000000E+00
  0.00000000E+00  0.00000000E+00  0.00000000E+00
  0.00000000E+00  0.00000000E+00  0.00000000E+00
  0.00000000E+00  0.00000000E+00  0.00000000E+00
  0.00000000E+00  0.00000000E+00  0.00000000E+00
  0.00000000E+00  0.00000000E+00  0.00000000E+00
  0.00000000E+00  0.00000000E+00  0.00000000E+00
  0.00000000E+00  0.00000000E+00  0.00000000E+00
  0.00000000E+00  0.00000000E+00  0.00000000E+00
  0.00000000E+00  0.00000000E+00  0.00000000E+00
  0.00000000E+00  0.00000000E+00  0.00000000E+00
  0.00000000E+00  0.00000000E+00  0.00000000E+00
  0.00000000E+00  0.00000000E+00  0.00000000E+00
  0.00000000E+00  0.00000000E+00  0.00000000E+00
  0.00000000E+00  0.00000000E+00  0.00000000E+00
  0.00000000E+00  0.00000000E+00  0.00000000E+00
  0.00000000E+00  0.00000000E+00  0.00000000E+00
  0.00000000E+00  0.00000000E+00  0.00000000E+00
  0.00000000E+00  0.00000000E+00  0.00000000E+00
  0.00000000E+00  0.00000000E+00  0.00000000E+00
  0.00000000E+00  0.00000000E+00  0.00000000E+00
  0.00000000E+00  0.00000000E+00  0.00000000E+00
  0.00000000E+00  0.00000000E+00  0.00000000E+00
  0.00000000E+00  0.00000000E+00  0.00000000E+00
  0.00000000E+00  0.00000000E+00  0.00000000E+00
  0.00000000E+00  0.00000000E+00  0.00000000E+00
  0.00000000E+00  0.00000000E+00  0.00000000E+00
  0.00000000E+00  0.00000000E+00  0.00000000E+00
  0.00000000E+00  0.00000000E+00  0.00000000E+00
  0.00000000E+00  0.00000000E+00  0.00000000E+00
  0.00000000E+00  0.00000000E+00  0.00000000E+00
  0.00000000E+00  0.00000000E+00  0.00000000E+00
  0.00000000E+00  0.00000000E+00  0.00000000E+00
  0.00000000E+00  0.00000000E+00  0.00000000E+00
  0.00000000E+00  0.00000000E+00  0.00000000E+00
  0.00000000E+00  0.00000000E+00  0.00000000E+00
  0.00000000E+00  0.00000000E+00  0.00000000E+00
  0.00000000E+00  0.00000000E+00  0.00000000E+00
  0.00000000E+00  0.00000000E+00  0.00000000E+00
  0.00000000E+00  0.00000000E+00  0.00000000E+00
  0.00000000E+00  0.00000000E+00  0.00000000E+00
  0.00000000E+00  0.00000000E+00  0.00000000E+00
  0.00000000E+00  0.00000000E+00  0.00000000E+00
  0.00000000E+00  0.00000000E+00  0.00000000E+00
  0.00000000E+00  0.00000000E+00  0.00000000E+00
  0.00000000E+00  0.00000000E+00  0.00000000E+00
  0.00000000E+00  0.00000000E+00  0.00000000E+00
  0.00000000E+00  0.00000000E+00  0.00000000E+00
  0.00000000E+00  0.00000000E+00  0.00000000E+00
  0.00000000E+00  0.00000000E+00  0.00000000E+00
  0.00000000E+00  0.00000000E+00  0.00000000E+00
  0.00000000E+00  0.00000000E+00  0.00000000E+00
  0.00000000E+00  0.00000000E+00  0.00000000E+00
  0.00000000E+00  0.00000000E+00  0.00000000E+00
  0.00000000E+00  0.00000000E+00  0.00000000E+00
  0.00000000E+00  0.00000000E+00  0.00000000E+00
  0.00000000E+00  0.00000000E+00  0.00000000E+00
  0.00000000E+00  0.00000000E+00  0.00000000E+00
  0.00000000E+00  0.00000000E+00  0.00000000E+00
  0.00000000E+00  0.00000000E+00  0.00000000E+00
  0.00000000E+00  0.00000000E+00  0.00000000E+00
  0.00000000E+00  0.00000000E+00  0.00000000E+00
  0.00000000E+00  0.00000000E+00  0.00000000E+00
  0.00000000E+00  0.00000000E+00  0.00000000E+00
  0.00000000E+00  0.00000000E+00  0.00000000E+00
  0.00000000E+00  0.00000000E+00  0.00000000E+00
  0.00000000E+00  0.00000000E+00  0.00000000E+00
  0.00000000E+00  0.00000000E+00  0.00000000E+00
  0.00000000E+00  0.00000000E+00  0.00000000E+00
  0.00000000E+00  0.00000000E+00  0.00000000E+00
  0.00000000E+00  0.00000000E+00  0.00000000E+00
  0.00000000E+00  0.00000000E+00  0.00000000E+00
  0.00000000E+00  0.00000000E+00  0.00000000E+00
  0.00000000E+00  0.00000000E+00  0.00000000E+00
  0.00000000E+00  0.00000000E+00  0.00000000E+00
  0.00000000E+00  0.00000000E+00  0.00000000E+00
  0.00000000E+00  0.00000000E+00  0.00000000E+00
  0.00000000E+00  0.00000000E+00  0.00000000E+00
  0.00000000E+00  0.00000000E+00  0.00000000E+00
  0.00000000E+00  0.00000000E+00  0.00000000E+00
  0.00000000E+00  0.00000000E+00  0.00000000E+00
  0.00000000E+00  0.00000000E+00  0.00000000E+00
  0.00000000E+00  0.00000000E+00  0.00000000E+00
  0.00000000E+00  0.00000000E+00  0.00000000E+00
  0.00000000E+00  0.00000000E+00  0.00000000E+00
  0.00000000E+00  0.00000000E+00  0.00000000E+00
  0.00000000E+00  0.00000000E+00  0.00000000E+00
  0.00000000E+00  0.00000000E+00  0.00000000E+00
  0.00000000E+00  0.00000000E+00  0.00000000E+00
  0.00000000E+00  0.00000000E+00  0.00000000E+00
  0.00000000E+00  0.00000000E+00  0.00000000E+00
  0.00000000E+00  0.00000000E+00  0.00000000E+00
  0.00000000E+00  0.00000000E+00  0.00000000E+00
