H1 W1 C123 N3                           
   1.00000000000000     
    19.8120213182188607    0.0196661565094911    0.0546467925389953
    -9.8888339862499013   17.0264487876006818   -0.1524104560722791
     0.0825039523597167   -0.2189962938294495   29.8143734484681708
   H    W    C    N 
     1     1   123     3
Direct
  0.4513389854749567  0.4973523091303128  0.4886003727931051
  0.4379218826140300  0.5009951592358259  0.4312281795701698
  0.0417554805581043  0.0840619171459723  0.3994639005422881
  0.0406220230066597  0.2080640002973093  0.3996076881364573
  0.0399394559486945  0.3328911626974868  0.3993014999172545
  0.0403235568479159  0.4582221580997697  0.3990189269376812
  0.0414885181294507  0.5838096084042326  0.3994525891503872
  0.0424495209030713  0.7093373338278482  0.3997416891257496
  0.0426325622873033  0.8345720780099204  0.3998022108676837
  0.0424722721997979  0.9596293152585373  0.3995432399425765
  0.1676342681464934  0.0853732836804492  0.3998545068648420
  0.1669545137949264  0.2099632841773235  0.4001589180783103
  0.1643861787884781  0.3333187749754302  0.4005644020518135
  0.1638470559570216  0.4581932026067735  0.3985982489302178
  0.1652132445864888  0.5835677709590754  0.3987208240988534
  0.1666441814177575  0.7089547759418103  0.3994982473454392
  0.1672917434323436  0.8344515485569843  0.3998446480099650
  0.1675476362408882  0.9599911789826422  0.3997913082511171
  0.2925188642848709  0.0857489651039437  0.3998790430636894
  0.2928973448727858  0.2123722107377013  0.4013860311828860
  0.2911756689791179  0.3372680611935400  0.4047163857726079
  0.2865746644846515  0.4576340387827494  0.4026045002169333
  0.2884637559023028  0.5825111357999199  0.3987129613287739
  0.2909215592286696  0.7080500951070299  0.3990646287295634
  0.2918677348530858  0.8338108601235991  0.3996388396733557
  0.2922270706818418  0.9596128380629211  0.3997091352264792
  0.4170284590050296  0.0843975466033905  0.3995548032950234
  0.4175081626947305  0.2107637035158324  0.4002767576339124
  0.4189215139647539  0.3383311148502849  0.4031374965518142
  0.4151523179850318  0.7054200094848208  0.3996378063669263
  0.4162523418380268  0.8320300929527281  0.3996460738383597
  0.4167104257072032  0.9582613351828760  0.3996891508471722
  0.5414298790797223  0.0828496476666104  0.3996317533996285
  0.5419534983638032  0.2087728012156140  0.3994181485849983
  0.5430664059822853  0.3346616472766502  0.3999452320503570
  0.5472922213606662  0.4607443745213646  0.4024995839393486
  0.5388723473031046  0.7019444112121793  0.4026904911719602
  0.5405725959865983  0.8301890532195321  0.4001622216710216
  0.5410909779008636  0.9567780022702630  0.3998742672598158
  0.6659451144810070  0.0821600407749118  0.3999367360438320
  0.6663875893333084  0.2077543092288502  0.3995463637342067
  0.6673440482810471  0.3333494308640511  0.3990934075642273
  0.6697251175685285  0.4590916289516855  0.3990672581518121
  0.6712163610288721  0.5845707732770863  0.4002015212911245
  0.6671107652548929  0.7067849045048715  0.4006620542392060
  0.6649447749713480  0.8305304710156247  0.4002542337085327
  0.6655471468513717  0.9564395261027651  0.4000677375856858
  0.7906305335632163  0.0820838563988552  0.3998634872635710
  0.7908925337093773  0.2074896989465610  0.3998592853310265
  0.7915568540803221  0.3329542296112101  0.3994782386248876
  0.7929240690073032  0.4585027771376839  0.3989948064083924
  0.7941895898451865  0.5841130787686307  0.3987449919238888
  0.7936730618891528  0.7091882708849618  0.3994374409653213
  0.7915376677912220  0.8327329493370884  0.3993984619708857
  0.7905087976076400  0.9568960406332833  0.3996981438708437
  0.9157907941835824  0.0826470364658978  0.3995607599301153
  0.9154905970686437  0.2075048396733220  0.3996738130067597
  0.9157365386797736  0.3328319363096124  0.3995407418664916
  0.9166392961605460  0.4584079194484038  0.3994628237354185
  0.9177586493416147  0.5839667598580386  0.3993846065568840
  0.9181050394784454  0.7092834182134454  0.3994179167453761
  0.9176725380621639  0.8342774901421235  0.3994654791715070
  0.9166241384615336  0.9584154247865199  0.3994522781551492
  0.0841705823069128  0.0432046707584548  0.3995351529233241
  0.0833531164004973  0.1675768835931385  0.3995829126812495
  0.0818097262816604  0.2914594817471534  0.3997312575573254
  0.0811763716257763  0.4161921094567633  0.3988153627712516
  0.0822991086792897  0.5417834192385231  0.3990358896193562
  0.0835544906083986  0.6673428856209986  0.3996077774814777
  0.0841494770707934  0.7928114742939074  0.3998399138863784
  0.0842949618794735  0.9181536471795654  0.3997543705813033
  0.2092233710032858  0.0436641904769975  0.3998216735618285
  0.2094263137942134  0.1692463417682152  0.4004786327093482
  0.2080807502071093  0.2936223128680302  0.4012757711009301
  0.2048880765554019  0.4164883313934257  0.3999707004894245
  0.2056462452933250  0.5412376882267729  0.3984620444422565
  0.2076121359583102  0.6668677843090047  0.3990726821385876
  0.2086213486989297  0.7924974119139039  0.3996847517158940
  0.2090702934297696  0.9180907898788948  0.3998326313098077
  0.3338665995547549  0.0433881586917065  0.3996447410387458
  0.3341886928670453  0.1697348751422820  0.4004882123758305
  0.3347713656640230  0.2969890988007965  0.4035592600617364
  0.3287035196643947  0.5406919541315863  0.4005348678325675
  0.3316629671690650  0.6657785695960234  0.3988927546547524
  0.3331022386557785  0.7915531403298258  0.3994751504287658
  0.3335731295452039  0.9173662260142380  0.3996912559272030
  0.4583300165302389  0.0419394898012867  0.3995940466556765
  0.4586972296079911  0.1681174268186500  0.3996456658582053
  0.4594682450392562  0.2946475447842953  0.4008172491998496
  0.4644609703018873  0.4220572325895942  0.4062062015049521
  0.4546240549371185  0.6611403483209307  0.4016358783337125
  0.4574337834704355  0.7893009460219694  0.3997343158148931
  0.4579607733182599  0.9157810393583069  0.3997707044220614
  0.5827744340255062  0.0405816339684926  0.3998372382947180
  0.5831917254322704  0.1664813371775604  0.3994594789414145
  0.5840038447665269  0.2922601332129439  0.3993192889606151
  0.5869276267970714  0.4181013397879899  0.4000876169758646
  0.5902565575918479  0.5438905304886240  0.4035889954129145
  0.5839088320353014  0.6627734766313534  0.4042488344315488
  0.5811850163539125  0.7870804084073710  0.4008628918113974
  0.5823664178419744  0.9143484765448460  0.4000246091390954
  0.7073687232322632  0.0402105714474104  0.3999863109800791
  0.7077563933003919  0.1658287004637258  0.3998428256537828
  0.7083923894630292  0.2913312002604768  0.3993308888043276
  0.7100873867781932  0.4167731795962230  0.3988775982333341
  0.7117328497880830  0.5421859473959628  0.3988589020985771
  0.7112070104828778  0.6675576047446447  0.4002138646872210
  0.7079204487761444  0.7902931792855798  0.3997346782558160
  0.7069350643494945  0.9145153861138247  0.3999980106342710
  0.8323645992927176  0.0405630618451086  0.3996921773718037
  0.8323921769395387  0.1657285664874581  0.3998443469971287
  0.8327065636776610  0.2910212741439636  0.3996922828446855
  0.8337483651514438  0.4164967398263151  0.3993525699645890
  0.8349987845798282  0.5420768014125269  0.3989675799676047
  0.8353607965036352  0.6675318513139420  0.3991227320962455
  0.8345097699489483  0.7924020179791761  0.3993869603751309
  0.8330742004680604  0.9161983729547112  0.3994962190556745
  0.9582705820247992  0.0418690886737045  0.3994752618530626
  0.9573900802547139  0.1660889339818189  0.3995719351804234
  0.9570784595924113  0.2910698720081723  0.3995024339479841
  0.9575048567003568  0.4163984002292210  0.3993913375835496
  0.9586232958068400  0.5419297437036891  0.3995066404116031
  0.9594728900355820  0.6674767332640719  0.3995415045866225
  0.9595610762797725  0.7928274573825286  0.3996111257573858
  0.9591070928044376  0.9176682403136521  0.3994530117257503
  0.4098788909505111  0.5792683484755430  0.4034086627841192
  0.5484161692931538  0.5825048318468804  0.4107342098516304
  0.3280541650684602  0.4188134672985281  0.4106128449876354
 
  0.00000000E+00  0.00000000E+00  0.00000000E+00
  0.00000000E+00  0.00000000E+00  0.00000000E+00
  0.00000000E+00  0.00000000E+00  0.00000000E+00
  0.00000000E+00  0.00000000E+00  0.00000000E+00
  0.00000000E+00  0.00000000E+00  0.00000000E+00
  0.00000000E+00  0.00000000E+00  0.00000000E+00
  0.00000000E+00  0.00000000E+00  0.00000000E+00
  0.00000000E+00  0.00000000E+00  0.00000000E+00
  0.00000000E+00  0.00000000E+00  0.00000000E+00
  0.00000000E+00  0.00000000E+00  0.00000000E+00
  0.00000000E+00  0.00000000E+00  0.00000000E+00
  0.00000000E+00  0.00000000E+00  0.00000000E+00
  0.00000000E+00  0.00000000E+00  0.00000000E+00
  0.00000000E+00  0.00000000E+00  0.00000000E+00
  0.00000000E+00  0.00000000E+00  0.00000000E+00
  0.00000000E+00  0.00000000E+00  0.00000000E+00
  0.00000000E+00  0.00000000E+00  0.00000000E+00
  0.00000000E+00  0.00000000E+00  0.00000000E+00
  0.00000000E+00  0.00000000E+00  0.00000000E+00
  0.00000000E+00  0.00000000E+00  0.00000000E+00
  0.00000000E+00  0.00000000E+00  0.00000000E+00
  0.00000000E+00  0.00000000E+00  0.00000000E+00
  0.00000000E+00  0.00000000E+00  0.00000000E+00
  0.00000000E+00  0.00000000E+00  0.00000000E+00
  0.00000000E+00  0.00000000E+00  0.00000000E+00
  0.00000000E+00  0.00000000E+00  0.00000000E+00
  0.00000000E+00  0.00000000E+00  0.00000000E+00
  0.00000000E+00  0.00000000E+00  0.00000000E+00
  0.00000000E+00  0.00000000E+00  0.00000000E+00
  0.00000000E+00  0.00000000E+00  0.00000000E+00
  0.00000000E+00  0.00000000E+00  0.00000000E+00
  0.00000000E+00  0.00000000E+00  0.00000000E+00
  0.00000000E+00  0.00000000E+00  0.00000000E+00
  0.00000000E+00  0.00000000E+00  0.00000000E+00
  0.00000000E+00  0.00000000E+00  0.00000000E+00
  0.00000000E+00  0.00000000E+00  0.00000000E+00
  0.00000000E+00  0.00000000E+00  0.00000000E+00
  0.00000000E+00  0.00000000E+00  0.00000000E+00
  0.00000000E+00  0.00000000E+00  0.00000000E+00
  0.00000000E+00  0.00000000E+00  0.00000000E+00
  0.00000000E+00  0.00000000E+00  0.00000000E+00
  0.00000000E+00  0.00000000E+00  0.00000000E+00
  0.00000000E+00  0.00000000E+00  0.00000000E+00
  0.00000000E+00  0.00000000E+00  0.00000000E+00
  0.00000000E+00  0.00000000E+00  0.00000000E+00
  0.00000000E+00  0.00000000E+00  0.00000000E+00
  0.00000000E+00  0.00000000E+00  0.00000000E+00
  0.00000000E+00  0.00000000E+00  0.00000000E+00
  0.00000000E+00  0.00000000E+00  0.00000000E+00
  0.00000000E+00  0.00000000E+00  0.00000000E+00
  0.00000000E+00  0.00000000E+00  0.00000000E+00
  0.00000000E+00  0.00000000E+00  0.00000000E+00
  0.00000000E+00  0.00000000E+00  0.00000000E+00
  0.00000000E+00  0.00000000E+00  0.00000000E+00
  0.00000000E+00  0.00000000E+00  0.00000000E+00
  0.00000000E+00  0.00000000E+00  0.00000000E+00
  0.00000000E+00  0.00000000E+00  0.00000000E+00
  0.00000000E+00  0.00000000E+00  0.00000000E+00
  0.00000000E+00  0.00000000E+00  0.00000000E+00
  0.00000000E+00  0.00000000E+00  0.00000000E+00
  0.00000000E+00  0.00000000E+00  0.00000000E+00
  0.00000000E+00  0.00000000E+00  0.00000000E+00
  0.00000000E+00  0.00000000E+00  0.00000000E+00
  0.00000000E+00  0.00000000E+00  0.00000000E+00
  0.00000000E+00  0.00000000E+00  0.00000000E+00
  0.00000000E+00  0.00000000E+00  0.00000000E+00
  0.00000000E+00  0.00000000E+00  0.00000000E+00
  0.00000000E+00  0.00000000E+00  0.00000000E+00
  0.00000000E+00  0.00000000E+00  0.00000000E+00
  0.00000000E+00  0.00000000E+00  0.00000000E+00
  0.00000000E+00  0.00000000E+00  0.00000000E+00
  0.00000000E+00  0.00000000E+00  0.00000000E+00
  0.00000000E+00  0.00000000E+00  0.00000000E+00
  0.00000000E+00  0.00000000E+00  0.00000000E+00
  0.00000000E+00  0.00000000E+00  0.00000000E+00
  0.00000000E+00  0.00000000E+00  0.00000000E+00
  0.00000000E+00  0.00000000E+00  0.00000000E+00
  0.00000000E+00  0.00000000E+00  0.00000000E+00
  0.00000000E+00  0.00000000E+00  0.00000000E+00
  0.00000000E+00  0.00000000E+00  0.00000000E+00
  0.00000000E+00  0.00000000E+00  0.00000000E+00
  0.00000000E+00  0.00000000E+00  0.00000000E+00
  0.00000000E+00  0.00000000E+00  0.00000000E+00
  0.00000000E+00  0.00000000E+00  0.00000000E+00
  0.00000000E+00  0.00000000E+00  0.00000000E+00
  0.00000000E+00  0.00000000E+00  0.00000000E+00
  0.00000000E+00  0.00000000E+00  0.00000000E+00
  0.00000000E+00  0.00000000E+00  0.00000000E+00
  0.00000000E+00  0.00000000E+00  0.00000000E+00
  0.00000000E+00  0.00000000E+00  0.00000000E+00
  0.00000000E+00  0.00000000E+00  0.00000000E+00
  0.00000000E+00  0.00000000E+00  0.00000000E+00
  0.00000000E+00  0.00000000E+00  0.00000000E+00
  0.00000000E+00  0.00000000E+00  0.00000000E+00
  0.00000000E+00  0.00000000E+00  0.00000000E+00
  0.00000000E+00  0.00000000E+00  0.00000000E+00
  0.00000000E+00  0.00000000E+00  0.00000000E+00
  0.00000000E+00  0.00000000E+00  0.00000000E+00
  0.00000000E+00  0.00000000E+00  0.00000000E+00
  0.00000000E+00  0.00000000E+00  0.00000000E+00
  0.00000000E+00  0.00000000E+00  0.00000000E+00
  0.00000000E+00  0.00000000E+00  0.00000000E+00
  0.00000000E+00  0.00000000E+00  0.00000000E+00
  0.00000000E+00  0.00000000E+00  0.00000000E+00
  0.00000000E+00  0.00000000E+00  0.00000000E+00
  0.00000000E+00  0.00000000E+00  0.00000000E+00
  0.00000000E+00  0.00000000E+00  0.00000000E+00
  0.00000000E+00  0.00000000E+00  0.00000000E+00
  0.00000000E+00  0.00000000E+00  0.00000000E+00
  0.00000000E+00  0.00000000E+00  0.00000000E+00
  0.00000000E+00  0.00000000E+00  0.00000000E+00
  0.00000000E+00  0.00000000E+00  0.00000000E+00
  0.00000000E+00  0.00000000E+00  0.00000000E+00
  0.00000000E+00  0.00000000E+00  0.00000000E+00
  0.00000000E+00  0.00000000E+00  0.00000000E+00
  0.00000000E+00  0.00000000E+00  0.00000000E+00
  0.00000000E+00  0.00000000E+00  0.00000000E+00
  0.00000000E+00  0.00000000E+00  0.00000000E+00
  0.00000000E+00  0.00000000E+00  0.00000000E+00
  0.00000000E+00  0.00000000E+00  0.00000000E+00
  0.00000000E+00  0.00000000E+00  0.00000000E+00
  0.00000000E+00  0.00000000E+00  0.00000000E+00
  0.00000000E+00  0.00000000E+00  0.00000000E+00
  0.00000000E+00  0.00000000E+00  0.00000000E+00
  0.00000000E+00  0.00000000E+00  0.00000000E+00
  0.00000000E+00  0.00000000E+00  0.00000000E+00
  0.00000000E+00  0.00000000E+00  0.00000000E+00
  0.00000000E+00  0.00000000E+00  0.00000000E+00
