H1 Pd1 C122 N4                          
   1.00000000000000     
    19.8406054228190598   -0.0002572132207510    0.0106637729532822
    -9.9205238847740027   17.0229547356894315   -0.0053484161106330
     0.0160114548766163   -0.0000310381660864   29.7930947263696027
   H    Pd   C    N 
     1     1   122     4
Direct
  0.4374405120664693  0.5000000055734761  0.4714733501173327
  0.4374636976318327  0.5000005832730838  0.4117866386937557
  0.0420929270220694  0.0842604400580610  0.3999365096903056
  0.0408032447504065  0.2081244888966479  0.4000299468092421
  0.0398108436418375  0.3327908001405279  0.3996791783185686
  0.0399442836762792  0.4581683349777764  0.3991732118395865
  0.0411357653754966  0.5838781167752172  0.3991173920053730
  0.0422403489503906  0.7094747676729971  0.3994143897162843
  0.0426349775647065  0.8347629809418883  0.3995788286693370
  0.0427063946736687  0.9599144719848186  0.3996759347486002
  0.1684269157480273  0.0862628328196873  0.4006507445767243
  0.1674679416046324  0.2105366655017128  0.4016544682342271
  0.1644705626803760  0.3335738399267427  0.4018556586375308
  0.1631381746124229  0.4584769467282174  0.4007306744725820
  0.1645019809621899  0.5837989296270757  0.3996709362286586
  0.1662243093054603  0.7092059690170945  0.3993740680763661
  0.1671422417405863  0.8347620589350556  0.3995805612854765
  0.1677388601356974  0.9604219496059446  0.3998377121016988
  0.2928672248947209  0.0862559566522192  0.4006213438548051
  0.2944798171265615  0.2139481318541033  0.4029371352772955
  0.2922050512022721  0.3390881777700680  0.4048841755170131
  0.2856906196333599  0.4580938451605364  0.4044737614384285
  0.2872985106214607  0.5832157497598928  0.4022870743428292
  0.2902383513884252  0.7085876904662046  0.4003817266147944
  0.2915514648422609  0.8341205195308901  0.3995551491148866
  0.2922613164983801  0.9599075260754579  0.3996698052924494
  0.4172058699710118  0.0842528988578966  0.3999506445804549
  0.4180738938293015  0.2105394309434167  0.4016701123050538
  0.4218547407113287  0.3390900985051926  0.4049095999563038
  0.4141274204188760  0.7059051876274859  0.4027785667843541
  0.4159083099655727  0.8321323940151211  0.4004507141613777
  0.4166598526089914  0.9582455078231538  0.3996013979492099
  0.5415885169904529  0.0823639696762648  0.3995633120319788
  0.5423272555602576  0.2081209169996913  0.4000279525210383
  0.5440781799555336  0.3335676008884756  0.4018410193828248
  0.5473482669894226  0.4580861022331639  0.4044777995973829
  0.5379795773342431  0.7009753426335564  0.4047638827184750
  0.5402379965148078  0.8297020203441673  0.4018153847134366
  0.5409893628307519  0.9563070677687123  0.4000222872562514
  0.6660254392963955  0.0816025661438478  0.3996846671617843
  0.6666416545161566  0.2071717359706150  0.3994649344255176
  0.6679488546457499  0.3327795692047721  0.3996309196900769
  0.6702960691168207  0.4584736074725832  0.4006875982249169
  0.6708823866018749  0.5832296123724179  0.4022578045408293
  0.6667557786037410  0.7059030460612592  0.4028036858314916
  0.6644875978073865  0.8297126832879806  0.4018109942525103
  0.6654422164882601  0.9558394553234796  0.4003366955800042
  0.7906310001134489  0.0815999359871057  0.3996767505362289
  0.7910142092236302  0.2070174462420502  0.3995962847389694
  0.7918201926173501  0.3325313379836071  0.3992630897162167
  0.7931691738975077  0.4581677676228309  0.3991441534803391
  0.7942465759551496  0.5838042418840247  0.3996224301193281
  0.7933344766851100  0.7085975802057480  0.4003474872861751
  0.7912409521998361  0.8321324094864686  0.4004711889493319
  0.7903569710171833  0.9563157167292616  0.4000130528860577
  0.9158323077249565  0.0823686726476665  0.3995553008941879
  0.9155398866536103  0.2071711764727134  0.3994709764853940
  0.9157046400349977  0.3325378699039111  0.3992788520301678
  0.9165846281909994  0.4582161648778991  0.3990838870418683
  0.9176933190928214  0.5838819316437622  0.3991079233058398
  0.9179699132232143  0.7092048858285623  0.3993420395081986
  0.9175979760186536  0.8341263182900363  0.3995591983680030
  0.9166452402242429  0.9582490836648891  0.3996127395524373
  0.0846827134901774  0.0436932320841220  0.4000231530996574
  0.0837762027330055  0.1678670109160441  0.4004508993916436
  0.0816515176326220  0.2914121390575639  0.4003821766155969
  0.0807042518356492  0.4162008752007217  0.3996700972000884
  0.0817760907083831  0.5418304785893835  0.3991733956566486
  0.0831667935597744  0.6674614894557369  0.3992808188794191
  0.0839978030675622  0.7929821985852937  0.3995993431506377
  0.0844243483099561  0.9183986640177197  0.3996865457699347
  0.2096048429141636  0.0441609740418421  0.4003367274725195
  0.2105365236648463  0.1702976372996582  0.4018156784480361
  0.2082219148144628  0.2940944039913731  0.4027793523279775
  0.2040834460639684  0.4167843877211644  0.4022863021712950
  0.2046620234567845  0.5415226483889122  0.4007310831360563
  0.2070194280142975  0.6672076050934105  0.3996797679400805
  0.2083695567953568  0.7928292798082840  0.3994731862654202
  0.2090321186578578  0.9184005438092163  0.3996777977405819
  0.3340417617613076  0.0436845308052613  0.4000118325226484
  0.3347756929052967  0.1702879499049661  0.4018108998877770
  0.3370049999884835  0.2990249337819262  0.4047646774279854
  0.3275972459818997  0.5419057325410168  0.4044743861164366
  0.3308975520229702  0.6664258783937347  0.4018549477423513
  0.3326791181811940  0.7918750845199114  0.4000293396590229
  0.3334633645447495  0.9176314100627878  0.3995535410865461
  0.4583972737997136  0.0417515650317351  0.3996108302120572
  0.4591085676862685  0.1678682436438254  0.4004712658804764
  0.4608535184945243  0.2940980844310359  0.4028042418702018
  0.4531175290897370  0.6609113809043893  0.4048836289601592
  0.4569322708022041  0.7894632006565745  0.4016544992929408
  0.4578333238712494  0.9157392708601197  0.3999360362665095
  0.5827931997908720  0.0400859566880077  0.3996742994035397
  0.5834719035295700  0.1658733559890165  0.3995582219315249
  0.5847367034922656  0.2914018932968753  0.4003463956816911
  0.5876548662857232  0.4167716515338777  0.4022580964378718
  0.5892639209473171  0.5419161575492706  0.4044775588739170
  0.5827658790629394  0.6609111264548222  0.4049091954361561
  0.5805323606304086  0.7860528219343706  0.4029366293263700
  0.5821643631080349  0.9137368198702320  0.4006501565893709
  0.7073174346554830  0.0395781213401146  0.3998363599932472
  0.7078725847524976  0.1652365350027403  0.3995768494266514
  0.7087657613186843  0.2907945773983042  0.3993402705172892
  0.7104426554278201  0.4161949103088622  0.3996209235019105
  0.7118238113954454  0.5415275723679945  0.4006878071807358
  0.7105118223059835  0.6664334276579503  0.4018411350426560
  0.7075358202639275  0.7894613641449096  0.4016695208565647
  0.7066119488681718  0.9137441730256377  0.4006223229159264
  0.8323541679686580  0.0400928621337499  0.3996709468563207
  0.8323808718306508  0.1652387237578114  0.3995778924823065
  0.8327670090361134  0.2905249177205637  0.3994120149918571
  0.8338116476489982  0.4161165794605818  0.3991067539215923
  0.8350016248920898  0.5418312758076036  0.3991448048319755
  0.8351696369467270  0.6672186399867998  0.3996325400809182
  0.8342071728032755  0.7918788231344241  0.4000286354042472
  0.8329539758523979  0.9157473496341134  0.3999512891890625
  0.9584151285880214  0.0417548835790943  0.3996033785859285
  0.9574313460669377  0.1658796743135218  0.3995548125998534
  0.9570201509335525  0.2907946082116534  0.3993723469307794
  0.9572591328665901  0.4161222543453341  0.3991160993956214
  0.9583692709559682  0.5417834276655501  0.3990845938071000
  0.9592884297958425  0.6674673005170498  0.3992651437405008
  0.9594697976149141  0.7928275644517999  0.3994652967097509
  0.9592252492830112  0.9176366356486467  0.3995641207137755
  0.4076106834547312  0.5809859858376634  0.4064453542881198
  0.5483255384978545  0.5809882604720250  0.4064619648744322
  0.3266249005661576  0.4190136528561558  0.4064451894256390
  0.4673383917342459  0.4190131489560099  0.4064619216259552
 
  0.00000000E+00  0.00000000E+00  0.00000000E+00
  0.00000000E+00  0.00000000E+00  0.00000000E+00
  0.00000000E+00  0.00000000E+00  0.00000000E+00
  0.00000000E+00  0.00000000E+00  0.00000000E+00
  0.00000000E+00  0.00000000E+00  0.00000000E+00
  0.00000000E+00  0.00000000E+00  0.00000000E+00
  0.00000000E+00  0.00000000E+00  0.00000000E+00
  0.00000000E+00  0.00000000E+00  0.00000000E+00
  0.00000000E+00  0.00000000E+00  0.00000000E+00
  0.00000000E+00  0.00000000E+00  0.00000000E+00
  0.00000000E+00  0.00000000E+00  0.00000000E+00
  0.00000000E+00  0.00000000E+00  0.00000000E+00
  0.00000000E+00  0.00000000E+00  0.00000000E+00
  0.00000000E+00  0.00000000E+00  0.00000000E+00
  0.00000000E+00  0.00000000E+00  0.00000000E+00
  0.00000000E+00  0.00000000E+00  0.00000000E+00
  0.00000000E+00  0.00000000E+00  0.00000000E+00
  0.00000000E+00  0.00000000E+00  0.00000000E+00
  0.00000000E+00  0.00000000E+00  0.00000000E+00
  0.00000000E+00  0.00000000E+00  0.00000000E+00
  0.00000000E+00  0.00000000E+00  0.00000000E+00
  0.00000000E+00  0.00000000E+00  0.00000000E+00
  0.00000000E+00  0.00000000E+00  0.00000000E+00
  0.00000000E+00  0.00000000E+00  0.00000000E+00
  0.00000000E+00  0.00000000E+00  0.00000000E+00
  0.00000000E+00  0.00000000E+00  0.00000000E+00
  0.00000000E+00  0.00000000E+00  0.00000000E+00
  0.00000000E+00  0.00000000E+00  0.00000000E+00
  0.00000000E+00  0.00000000E+00  0.00000000E+00
  0.00000000E+00  0.00000000E+00  0.00000000E+00
  0.00000000E+00  0.00000000E+00  0.00000000E+00
  0.00000000E+00  0.00000000E+00  0.00000000E+00
  0.00000000E+00  0.00000000E+00  0.00000000E+00
  0.00000000E+00  0.00000000E+00  0.00000000E+00
  0.00000000E+00  0.00000000E+00  0.00000000E+00
  0.00000000E+00  0.00000000E+00  0.00000000E+00
  0.00000000E+00  0.00000000E+00  0.00000000E+00
  0.00000000E+00  0.00000000E+00  0.00000000E+00
  0.00000000E+00  0.00000000E+00  0.00000000E+00
  0.00000000E+00  0.00000000E+00  0.00000000E+00
  0.00000000E+00  0.00000000E+00  0.00000000E+00
  0.00000000E+00  0.00000000E+00  0.00000000E+00
  0.00000000E+00  0.00000000E+00  0.00000000E+00
  0.00000000E+00  0.00000000E+00  0.00000000E+00
  0.00000000E+00  0.00000000E+00  0.00000000E+00
  0.00000000E+00  0.00000000E+00  0.00000000E+00
  0.00000000E+00  0.00000000E+00  0.00000000E+00
  0.00000000E+00  0.00000000E+00  0.00000000E+00
  0.00000000E+00  0.00000000E+00  0.00000000E+00
  0.00000000E+00  0.00000000E+00  0.00000000E+00
  0.00000000E+00  0.00000000E+00  0.00000000E+00
  0.00000000E+00  0.00000000E+00  0.00000000E+00
  0.00000000E+00  0.00000000E+00  0.00000000E+00
  0.00000000E+00  0.00000000E+00  0.00000000E+00
  0.00000000E+00  0.00000000E+00  0.00000000E+00
  0.00000000E+00  0.00000000E+00  0.00000000E+00
  0.00000000E+00  0.00000000E+00  0.00000000E+00
  0.00000000E+00  0.00000000E+00  0.00000000E+00
  0.00000000E+00  0.00000000E+00  0.00000000E+00
  0.00000000E+00  0.00000000E+00  0.00000000E+00
  0.00000000E+00  0.00000000E+00  0.00000000E+00
  0.00000000E+00  0.00000000E+00  0.00000000E+00
  0.00000000E+00  0.00000000E+00  0.00000000E+00
  0.00000000E+00  0.00000000E+00  0.00000000E+00
  0.00000000E+00  0.00000000E+00  0.00000000E+00
  0.00000000E+00  0.00000000E+00  0.00000000E+00
  0.00000000E+00  0.00000000E+00  0.00000000E+00
  0.00000000E+00  0.00000000E+00  0.00000000E+00
  0.00000000E+00  0.00000000E+00  0.00000000E+00
  0.00000000E+00  0.00000000E+00  0.00000000E+00
  0.00000000E+00  0.00000000E+00  0.00000000E+00
  0.00000000E+00  0.00000000E+00  0.00000000E+00
  0.00000000E+00  0.00000000E+00  0.00000000E+00
  0.00000000E+00  0.00000000E+00  0.00000000E+00
  0.00000000E+00  0.00000000E+00  0.00000000E+00
  0.00000000E+00  0.00000000E+00  0.00000000E+00
  0.00000000E+00  0.00000000E+00  0.00000000E+00
  0.00000000E+00  0.00000000E+00  0.00000000E+00
  0.00000000E+00  0.00000000E+00  0.00000000E+00
  0.00000000E+00  0.00000000E+00  0.00000000E+00
  0.00000000E+00  0.00000000E+00  0.00000000E+00
  0.00000000E+00  0.00000000E+00  0.00000000E+00
  0.00000000E+00  0.00000000E+00  0.00000000E+00
  0.00000000E+00  0.00000000E+00  0.00000000E+00
  0.00000000E+00  0.00000000E+00  0.00000000E+00
  0.00000000E+00  0.00000000E+00  0.00000000E+00
  0.00000000E+00  0.00000000E+00  0.00000000E+00
  0.00000000E+00  0.00000000E+00  0.00000000E+00
  0.00000000E+00  0.00000000E+00  0.00000000E+00
  0.00000000E+00  0.00000000E+00  0.00000000E+00
  0.00000000E+00  0.00000000E+00  0.00000000E+00
  0.00000000E+00  0.00000000E+00  0.00000000E+00
  0.00000000E+00  0.00000000E+00  0.00000000E+00
  0.00000000E+00  0.00000000E+00  0.00000000E+00
  0.00000000E+00  0.00000000E+00  0.00000000E+00
  0.00000000E+00  0.00000000E+00  0.00000000E+00
  0.00000000E+00  0.00000000E+00  0.00000000E+00
  0.00000000E+00  0.00000000E+00  0.00000000E+00
  0.00000000E+00  0.00000000E+00  0.00000000E+00
  0.00000000E+00  0.00000000E+00  0.00000000E+00
  0.00000000E+00  0.00000000E+00  0.00000000E+00
  0.00000000E+00  0.00000000E+00  0.00000000E+00
  0.00000000E+00  0.00000000E+00  0.00000000E+00
  0.00000000E+00  0.00000000E+00  0.00000000E+00
  0.00000000E+00  0.00000000E+00  0.00000000E+00
  0.00000000E+00  0.00000000E+00  0.00000000E+00
  0.00000000E+00  0.00000000E+00  0.00000000E+00
  0.00000000E+00  0.00000000E+00  0.00000000E+00
  0.00000000E+00  0.00000000E+00  0.00000000E+00
  0.00000000E+00  0.00000000E+00  0.00000000E+00
  0.00000000E+00  0.00000000E+00  0.00000000E+00
  0.00000000E+00  0.00000000E+00  0.00000000E+00
  0.00000000E+00  0.00000000E+00  0.00000000E+00
  0.00000000E+00  0.00000000E+00  0.00000000E+00
  0.00000000E+00  0.00000000E+00  0.00000000E+00
  0.00000000E+00  0.00000000E+00  0.00000000E+00
  0.00000000E+00  0.00000000E+00  0.00000000E+00
  0.00000000E+00  0.00000000E+00  0.00000000E+00
  0.00000000E+00  0.00000000E+00  0.00000000E+00
  0.00000000E+00  0.00000000E+00  0.00000000E+00
  0.00000000E+00  0.00000000E+00  0.00000000E+00
  0.00000000E+00  0.00000000E+00  0.00000000E+00
  0.00000000E+00  0.00000000E+00  0.00000000E+00
  0.00000000E+00  0.00000000E+00  0.00000000E+00
  0.00000000E+00  0.00000000E+00  0.00000000E+00
  0.00000000E+00  0.00000000E+00  0.00000000E+00
  0.00000000E+00  0.00000000E+00  0.00000000E+00
  0.00000000E+00  0.00000000E+00  0.00000000E+00
