Sc1 C124 N2                             
   1.00000000000000     
    19.8219450227264282   -0.0188626361774578    0.0007114725287396
    -9.9273441804850897   17.0720893079347071   -0.0000012504684646
     0.0010669943480832    0.0006185491779747   29.7515449463985746
   Sc   C    N 
     1   124     2
Direct
  0.4375005296640236  0.4999888934186826  0.4336006867458160
  0.0420143942947493  0.0840047599172176  0.3999028451244981
  0.0413902018754412  0.2084401272080148  0.3997175500962446
  0.0407328032174135  0.3330536189350361  0.3996821873872987
  0.0405937039572117  0.4583563190490528  0.3997978191286161
  0.0412271693072441  0.5837505487079964  0.4000419344865788
  0.0418316701922595  0.7090531600882833  0.4000999818929774
  0.0421568488945219  0.8343049579544026  0.4000683243993862
  0.0423108955882763  0.9594177770645371  0.4000216522856110
  0.1679052248365930  0.0853808710702982  0.3998707242006721
  0.1673119063975690  0.2098594746266622  0.3996075281065186
  0.1660391990852085  0.3340955746832694  0.3993720397579877
  0.1644005117790835  0.4586914963558631  0.3993642310795578
  0.1651298687621288  0.5838529746723938  0.3994621413345694
  0.1661765101468631  0.7090880941160937  0.3999060094209308
  0.1667978088623070  0.8343636781991315  0.4000700541743989
  0.1672972241126765  0.9597408989373786  0.3999713611917380
  0.2924612313430395  0.0849563710427135  0.3998592038153833
  0.2941206269719436  0.2119491997789388  0.4004055111196552
  0.2928909239503512  0.3373015111522223  0.4011746126076864
  0.2887676318798612  0.4592722722132808  0.4010660739649303
  0.2887609682320949  0.5844483781373143  0.3998212314052388
  0.2905119138218472  0.7092110845462054  0.3995856686964842
  0.2914245294691136  0.8341559088995835  0.3999214099099789
  0.2919043356758285  0.9593491213176824  0.3999939451421235
  0.4170211141983526  0.0836191489145954  0.3998372667343835
  0.4176275200459234  0.2090179152329626  0.3996092560015971
  0.4209014600687576  0.3364319130988641  0.4023549489965669
  0.4147470303772838  0.7076175776338668  0.4000563390542264
  0.4160050886316358  0.8330566664703616  0.3995964797658844
  0.4165616138656682  0.9583548378977543  0.4000383676389890
  0.5416442077011004  0.0825237916586875  0.4000447799136401
  0.5421890477313936  0.2075994345656161  0.3996809599848941
  0.5434209674660617  0.3324320828573961  0.3997723348878813
  0.5446499282258305  0.4557174111640200  0.4019050538147547
  0.5440691434627238  0.5803978252432089  0.4028650839875929
  0.5385952311516434  0.7040444188368559  0.4017512894800027
  0.5404501020256273  0.8313928455803361  0.3999489672353198
  0.5412100143388328  0.9571804111548913  0.3999068137953631
  0.6662909096996055  0.0821301362266990  0.4000298404347121
  0.6667909086150008  0.2073815165286156  0.3999995202037085
  0.6676966105460990  0.3326213631275427  0.3996344668730716
  0.6692012931863472  0.4580194589563470  0.3993007213392918
  0.6690131904232723  0.5824772784133916  0.3995571419139948
  0.6662227357286249  0.7065764088720394  0.3995575945606447
  0.6650245320243758  0.8308690940119291  0.3998957584145743
  0.6658285846181187  0.9567235421000877  0.3999134396441192
  0.7910922715041409  0.0821907262184492  0.4000294960068431
  0.7913714080507258  0.2073890163392197  0.4000917741876565
  0.7919804391047460  0.3327330218510406  0.4000430014661251
  0.7928085148829487  0.4581379175855762  0.3997531877565497
  0.7932875408309901  0.5834086235516739  0.3995388040197266
  0.7923693751655478  0.7082118334148394  0.3995230640293592
  0.7912809380146132  0.8325088987798027  0.3996894657705040
  0.7907639594300226  0.9569412751274295  0.3998932183511778
  0.9162493347911713  0.0827765031605717  0.4000006973934346
  0.9161369467924183  0.2076291764451110  0.3999616193732705
  0.9162358972603779  0.3328126284918967  0.4000502801378464
  0.9166734896650308  0.4581992205978210  0.4001473766568193
  0.9173033274773098  0.5836464776377021  0.4000367078704286
  0.9173400179710141  0.7088817910732936  0.3999057200642957
  0.9170783255432690  0.8337310107343717  0.3999434415172790
  0.9166431546821745  0.9582903678913959  0.4000392617777495
  0.0842362813888982  0.0430531039470926  0.3999205379905548
  0.0837312315758891  0.1674889495362775  0.3996937859133730
  0.0826506740482151  0.2917955608017498  0.3995270933034571
  0.0817271707145882  0.4166036995835448  0.3995527526592269
  0.0821909671936319  0.5418806362373483  0.3997595789379868
  0.0830313709129934  0.6672692055029141  0.4000435828770815
  0.0836050255529033  0.7925975275088518  0.4000892514531855
  0.0839189416318819  0.9178124361653217  0.4000331810833256
  0.2091708198633837  0.0432658426900123  0.3999122061006747
  0.2099554340852214  0.1691297689160234  0.3999016298642472
  0.2087791203728163  0.2934148289492803  0.3995569569563621
  0.2060067277488608  0.4175296135639120  0.3995530701822423
  0.2058188946924527  0.5420072238094948  0.3992971140394665
  0.2073054028443862  0.6673993389370881  0.3996356761292029
  0.2081809262592030  0.7926197204257794  0.3999968035722830
  0.2086904130253032  0.9178555736978351  0.4000261846633013
  0.3337654791386819  0.0428033635202150  0.3998682339217345
  0.3345118797816925  0.1685903332692950  0.3999466117414950
  0.3363819796405806  0.2959378258324168  0.4017574770583501
  0.3309317983828997  0.4195984257992452  0.4028737743154858
  0.3303465105903897  0.5442866191968936  0.4019015750346464
  0.3315765014520364  0.6675816542169392  0.3997786605659011
  0.3327911707836523  0.7924100861099258  0.3996841851634224
  0.3333578253317093  0.9174673189635968  0.4000145892846600
  0.4584393196306620  0.0416336299379628  0.4000453860942480
  0.4589767137700803  0.1669372406884018  0.3995863430086091
  0.4602349885495721  0.2923735279537475  0.4000544213291168
  0.4540748248986486  0.6635355285682990  0.4023529649961791
  0.4573449911777750  0.7909663690937093  0.3996143988764717
  0.4579600555482150  0.9163528059134730  0.3998538769516567
  0.5830919130881058  0.0406357087757125  0.4000247515520111
  0.5835522829352912  0.1658454676530487  0.3999261802029155
  0.5844785334730358  0.2908101387968652  0.3995805105754415
  0.5862519044383424  0.4155728156313426  0.3998204127369984
  0.5862478852794489  0.5407403518256184  0.4010619743321280
  0.5821096536378865  0.6626926410289500  0.4011735581200016
  0.5808418969453305  0.7880354474330084  0.4003965644751125
  0.5825202372504314  0.9150359112399304  0.3998803582708239
  0.7077090391498289  0.0402538654196768  0.3999760058592365
  0.7081702136005990  0.1656227215599636  0.4000832710568076
  0.7088329611632592  0.2909194321147095  0.3999073771405814
  0.7098855318448387  0.4161835560831674  0.3994582083391904
  0.7106248021085330  0.5413296699370365  0.3993709255178287
  0.7089860222173199  0.6659088714699432  0.3993711273434558
  0.7076670050021693  0.7901335387200682  0.3996046268597717
  0.7070836086527819  0.9146206401762604  0.3998554187915620
  0.8327078066761583  0.0405882551380464  0.3999919279188469
  0.8328492571653388  0.1657027505765739  0.4000528027439852
  0.8331816021115620  0.2909374203871837  0.4001036043964931
  0.8337702360392647  0.4162544580372861  0.4000359420924192
  0.8344022146917776  0.5416486808434405  0.3997799029577165
  0.8342913838628117  0.6669572081333024  0.3996724239469329
  0.8336313457696221  0.7915560086510911  0.3997216086637314
  0.8330039065798863  0.9159994382386029  0.3998917246280912
  0.9583853609596688  0.0417206220194626  0.4000299335528353
  0.9579466604655963  0.1662857301198963  0.3999137738278168
  0.9576872722247622  0.2911341676364054  0.3999070256163398
  0.9576891013948785  0.4163356023997809  0.4000583214633001
  0.9583357942703954  0.5417932135430156  0.4001409712236139
  0.9587790899153968  0.6671781898171846  0.4000292466624296
  0.9588833581669205  0.7923802738568904  0.3999809059194704
  0.9587819954128343  0.9172427039613578  0.4000406409361734
  0.4099502715821237  0.5833708889344016  0.4055139224308258
  0.4650386037201752  0.4166082109655790  0.4055178772479857
 
  0.00000000E+00  0.00000000E+00  0.00000000E+00
  0.00000000E+00  0.00000000E+00  0.00000000E+00
  0.00000000E+00  0.00000000E+00  0.00000000E+00
  0.00000000E+00  0.00000000E+00  0.00000000E+00
  0.00000000E+00  0.00000000E+00  0.00000000E+00
  0.00000000E+00  0.00000000E+00  0.00000000E+00
  0.00000000E+00  0.00000000E+00  0.00000000E+00
  0.00000000E+00  0.00000000E+00  0.00000000E+00
  0.00000000E+00  0.00000000E+00  0.00000000E+00
  0.00000000E+00  0.00000000E+00  0.00000000E+00
  0.00000000E+00  0.00000000E+00  0.00000000E+00
  0.00000000E+00  0.00000000E+00  0.00000000E+00
  0.00000000E+00  0.00000000E+00  0.00000000E+00
  0.00000000E+00  0.00000000E+00  0.00000000E+00
  0.00000000E+00  0.00000000E+00  0.00000000E+00
  0.00000000E+00  0.00000000E+00  0.00000000E+00
  0.00000000E+00  0.00000000E+00  0.00000000E+00
  0.00000000E+00  0.00000000E+00  0.00000000E+00
  0.00000000E+00  0.00000000E+00  0.00000000E+00
  0.00000000E+00  0.00000000E+00  0.00000000E+00
  0.00000000E+00  0.00000000E+00  0.00000000E+00
  0.00000000E+00  0.00000000E+00  0.00000000E+00
  0.00000000E+00  0.00000000E+00  0.00000000E+00
  0.00000000E+00  0.00000000E+00  0.00000000E+00
  0.00000000E+00  0.00000000E+00  0.00000000E+00
  0.00000000E+00  0.00000000E+00  0.00000000E+00
  0.00000000E+00  0.00000000E+00  0.00000000E+00
  0.00000000E+00  0.00000000E+00  0.00000000E+00
  0.00000000E+00  0.00000000E+00  0.00000000E+00
  0.00000000E+00  0.00000000E+00  0.00000000E+00
  0.00000000E+00  0.00000000E+00  0.00000000E+00
  0.00000000E+00  0.00000000E+00  0.00000000E+00
  0.00000000E+00  0.00000000E+00  0.00000000E+00
  0.00000000E+00  0.00000000E+00  0.00000000E+00
  0.00000000E+00  0.00000000E+00  0.00000000E+00
  0.00000000E+00  0.00000000E+00  0.00000000E+00
  0.00000000E+00  0.00000000E+00  0.00000000E+00
  0.00000000E+00  0.00000000E+00  0.00000000E+00
  0.00000000E+00  0.00000000E+00  0.00000000E+00
  0.00000000E+00  0.00000000E+00  0.00000000E+00
  0.00000000E+00  0.00000000E+00  0.00000000E+00
  0.00000000E+00  0.00000000E+00  0.00000000E+00
  0.00000000E+00  0.00000000E+00  0.00000000E+00
  0.00000000E+00  0.00000000E+00  0.00000000E+00
  0.00000000E+00  0.00000000E+00  0.00000000E+00
  0.00000000E+00  0.00000000E+00  0.00000000E+00
  0.00000000E+00  0.00000000E+00  0.00000000E+00
  0.00000000E+00  0.00000000E+00  0.00000000E+00
  0.00000000E+00  0.00000000E+00  0.00000000E+00
  0.00000000E+00  0.00000000E+00  0.00000000E+00
  0.00000000E+00  0.00000000E+00  0.00000000E+00
  0.00000000E+00  0.00000000E+00  0.00000000E+00
  0.00000000E+00  0.00000000E+00  0.00000000E+00
  0.00000000E+00  0.00000000E+00  0.00000000E+00
  0.00000000E+00  0.00000000E+00  0.00000000E+00
  0.00000000E+00  0.00000000E+00  0.00000000E+00
  0.00000000E+00  0.00000000E+00  0.00000000E+00
  0.00000000E+00  0.00000000E+00  0.00000000E+00
  0.00000000E+00  0.00000000E+00  0.00000000E+00
  0.00000000E+00  0.00000000E+00  0.00000000E+00
  0.00000000E+00  0.00000000E+00  0.00000000E+00
  0.00000000E+00  0.00000000E+00  0.00000000E+00
  0.00000000E+00  0.00000000E+00  0.00000000E+00
  0.00000000E+00  0.00000000E+00  0.00000000E+00
  0.00000000E+00  0.00000000E+00  0.00000000E+00
  0.00000000E+00  0.00000000E+00  0.00000000E+00
  0.00000000E+00  0.00000000E+00  0.00000000E+00
  0.00000000E+00  0.00000000E+00  0.00000000E+00
  0.00000000E+00  0.00000000E+00  0.00000000E+00
  0.00000000E+00  0.00000000E+00  0.00000000E+00
  0.00000000E+00  0.00000000E+00  0.00000000E+00
  0.00000000E+00  0.00000000E+00  0.00000000E+00
  0.00000000E+00  0.00000000E+00  0.00000000E+00
  0.00000000E+00  0.00000000E+00  0.00000000E+00
  0.00000000E+00  0.00000000E+00  0.00000000E+00
  0.00000000E+00  0.00000000E+00  0.00000000E+00
  0.00000000E+00  0.00000000E+00  0.00000000E+00
  0.00000000E+00  0.00000000E+00  0.00000000E+00
  0.00000000E+00  0.00000000E+00  0.00000000E+00
  0.00000000E+00  0.00000000E+00  0.00000000E+00
  0.00000000E+00  0.00000000E+00  0.00000000E+00
  0.00000000E+00  0.00000000E+00  0.00000000E+00
  0.00000000E+00  0.00000000E+00  0.00000000E+00
  0.00000000E+00  0.00000000E+00  0.00000000E+00
  0.00000000E+00  0.00000000E+00  0.00000000E+00
  0.00000000E+00  0.00000000E+00  0.00000000E+00
  0.00000000E+00  0.00000000E+00  0.00000000E+00
  0.00000000E+00  0.00000000E+00  0.00000000E+00
  0.00000000E+00  0.00000000E+00  0.00000000E+00
  0.00000000E+00  0.00000000E+00  0.00000000E+00
  0.00000000E+00  0.00000000E+00  0.00000000E+00
  0.00000000E+00  0.00000000E+00  0.00000000E+00
  0.00000000E+00  0.00000000E+00  0.00000000E+00
  0.00000000E+00  0.00000000E+00  0.00000000E+00
  0.00000000E+00  0.00000000E+00  0.00000000E+00
  0.00000000E+00  0.00000000E+00  0.00000000E+00
  0.00000000E+00  0.00000000E+00  0.00000000E+00
  0.00000000E+00  0.00000000E+00  0.00000000E+00
  0.00000000E+00  0.00000000E+00  0.00000000E+00
  0.00000000E+00  0.00000000E+00  0.00000000E+00
  0.00000000E+00  0.00000000E+00  0.00000000E+00
  0.00000000E+00  0.00000000E+00  0.00000000E+00
  0.00000000E+00  0.00000000E+00  0.00000000E+00
  0.00000000E+00  0.00000000E+00  0.00000000E+00
  0.00000000E+00  0.00000000E+00  0.00000000E+00
  0.00000000E+00  0.00000000E+00  0.00000000E+00
  0.00000000E+00  0.00000000E+00  0.00000000E+00
  0.00000000E+00  0.00000000E+00  0.00000000E+00
  0.00000000E+00  0.00000000E+00  0.00000000E+00
  0.00000000E+00  0.00000000E+00  0.00000000E+00
  0.00000000E+00  0.00000000E+00  0.00000000E+00
  0.00000000E+00  0.00000000E+00  0.00000000E+00
  0.00000000E+00  0.00000000E+00  0.00000000E+00
  0.00000000E+00  0.00000000E+00  0.00000000E+00
  0.00000000E+00  0.00000000E+00  0.00000000E+00
  0.00000000E+00  0.00000000E+00  0.00000000E+00
  0.00000000E+00  0.00000000E+00  0.00000000E+00
  0.00000000E+00  0.00000000E+00  0.00000000E+00
  0.00000000E+00  0.00000000E+00  0.00000000E+00
  0.00000000E+00  0.00000000E+00  0.00000000E+00
  0.00000000E+00  0.00000000E+00  0.00000000E+00
  0.00000000E+00  0.00000000E+00  0.00000000E+00
  0.00000000E+00  0.00000000E+00  0.00000000E+00
  0.00000000E+00  0.00000000E+00  0.00000000E+00
  0.00000000E+00  0.00000000E+00  0.00000000E+00
  0.00000000E+00  0.00000000E+00  0.00000000E+00
  0.00000000E+00  0.00000000E+00  0.00000000E+00
