Ta1 H1 C123 N3 O1                       
   1.00000000000000     
    19.8026955787251353    0.0074120971900896   -0.2265700626147610
    -9.8963282061331483   17.0344840755523030   -0.1274303526067790
    -0.3406523159992989   -0.4209235356973289   29.8330492969716730
   Ta   H    C    N    O 
     1     1   123     3     1
Direct
  0.4356134590892840  0.5041216694336117  0.4337279157031682
  0.4648653229664186  0.5218865544089496  0.5254129998132991
  0.0421168597414983  0.0840745809839782  0.3996709801485227
  0.0412875676413666  0.2082912870947151  0.3998431138210229
  0.0407104212980546  0.3331358416928167  0.3999163657862588
  0.0408484408118319  0.4583753310706905  0.3998458264477108
  0.0416857919598667  0.5838159665192946  0.3998985504476109
  0.0424544841666909  0.7092522944755703  0.3998836329231112
  0.0426681710755312  0.8344608195322707  0.3997754256694125
  0.0425899154476901  0.9595280747384619  0.3996167008516219
  0.1679484733360746  0.0853550078863537  0.3999134090708548
  0.1674849941451768  0.2100337555394194  0.4001399285099528
  0.1655218692034660  0.3337790954133764  0.4001980602412790
  0.1646942117115920  0.4585194163121826  0.3996542653600123
  0.1655805063772880  0.5837156002004573  0.3994569868511855
  0.1667431853499579  0.7090229116475005  0.3996853971135365
  0.1673715734466264  0.8344461304349647  0.3998059421068693
  0.1677107654052972  0.9599416971985929  0.3997832165812795
  0.2928199637600689  0.0857610032353880  0.4000437403196009
  0.2935038465555327  0.2124216973142498  0.4014715463604318
  0.2923321996023629  0.3372455071628354  0.4023843850563523
  0.2883392703221692  0.4581797416143987  0.4004836698717205
  0.2889946453290561  0.5830908087317465  0.3984710870474900
  0.2910394617912705  0.7083336070474764  0.3987007143640259
  0.2919982372514260  0.8339215861065680  0.3993721516013533
  0.2924491979962398  0.9596546759548512  0.3996201436635409
  0.4173478757390258  0.0844318369150952  0.3995090684634685
  0.4179867968975621  0.2107645909511888  0.4002008368136079
  0.4202471257988300  0.3388843813116406  0.4043695418694769
  0.4153786690858294  0.7062626831712561  0.3978161785309317
  0.4165256003131262  0.8324573515040592  0.3988495014509501
  0.4169754806702362  0.9584480761326650  0.3993905806790199
  0.5418719850994482  0.0829465185609667  0.3994902883981468
  0.5423424754803851  0.2087209839472582  0.3992944187121728
  0.5434262858182165  0.3343669869478286  0.3997650409121073
  0.5468396218317101  0.4598148361838361  0.4025308217308238
  0.5391259126957748  0.7023568699066373  0.4008714396093030
  0.5409085674324510  0.8306064765411260  0.3992110737449222
  0.5414727284529103  0.9570248002411991  0.3994176795464895
  0.6664286039696550  0.0822980261464348  0.3997656785125788
  0.6668233027995423  0.2077656163401184  0.3994525115078494
  0.6676542330398706  0.3332080878387714  0.3987640723304909
  0.6695901631643817  0.4587509443902729  0.3981561985441440
  0.6703360816799747  0.5839953875011242  0.3991784092889361
  0.6666622134718246  0.7063737894119085  0.4004575445368908
  0.6651543832521567  0.8306439895148460  0.3999412508635847
  0.6659861006395498  0.9566233251298866  0.3997451724661795
  0.7911220224001556  0.0822112368624629  0.3999042695602252
  0.7914296683835020  0.2075689126788459  0.3998561602278536
  0.7919684134922663  0.3329496187241674  0.3994445994245350
  0.7930340170016157  0.4583874728440962  0.3987276078228458
  0.7938233466295596  0.5838246428149535  0.3984157621846210
  0.7932875070390573  0.7088646677302527  0.3991916389443061
  0.7914199715387092  0.8324914642952023  0.3994815775879765
  0.7908740060024108  0.9569594959801081  0.3997218162954456
  0.9162609503717201  0.0827510376446809  0.3997690618113778
  0.9161203101035932  0.2076844956358904  0.3999577740841844
  0.9162639623305182  0.3329278109844420  0.3999161193406175
  0.9169626390511988  0.4584005869722181  0.3997058482179893
  0.9177679222862577  0.5838745224415097  0.3994205467525360
  0.9179201560064666  0.7090817607611808  0.3993828782170740
  0.9176166495942115  0.8340739388862455  0.3994949931458262
  0.9167766793068900  0.9583144298155923  0.3995665716559693
  0.0844032105036434  0.0431227730279130  0.3996515688792919
  0.0838300080012595  0.1676361032736898  0.3998025055520391
  0.0826239543611004  0.2917640879210553  0.3999478828746644
  0.0819223164256949  0.4164727598386458  0.3998106699518322
  0.0826272937523850  0.5418889674707128  0.3997965743280750
  0.0836174779849023  0.6673682801056730  0.3999098388181155
  0.0841821998708331  0.7927561475062821  0.3998715788641399
  0.0843538516459558  0.9180158850384987  0.3997237160590151
  0.2094462826477131  0.0436116049184160  0.3999232674694367
  0.2098399536713832  0.1692101652479324  0.4004438178080839
  0.2088579356657329  0.2936781078127135  0.4004369006163869
  0.2059516465386086  0.4169776201899053  0.4000763124677020
  0.2062400869435341  0.5416386179709285  0.3992674511737619
  0.2077838291801722  0.6670439344924353  0.3992894260588630
  0.2087263441996838  0.7925516509699655  0.3996506553275733
  0.2091575420004029  0.9180616611086306  0.3997495210107087
  0.3341348486379299  0.0433895794852663  0.3996828376697328
  0.3345662184686367  0.1696721520091901  0.4006614261072599
  0.3356743518508139  0.2970015683891183  0.4033944845466372
  0.3300660576094151  0.5417106685139960  0.3986430541397106
  0.3318441288792199  0.6661625838571857  0.3980418692488573
  0.3332326235024088  0.7917900695059035  0.3989250064617290
  0.3337692849583012  0.9174909169833051  0.3994480551161205
  0.4586292926184318  0.0420368537896098  0.3994523156384172
  0.4590571975141700  0.1681000557336638  0.3995211489430370
  0.4601126606535419  0.2945431578559810  0.4010079925826538
  0.4652582164139633  0.4221811824734514  0.4081253465114217
  0.4549813559814685  0.6623724428893678  0.3988090405439650
  0.4576994273203652  0.7899586209911382  0.3985315407312526
  0.4582824648880662  0.9160962007918934  0.3992441570134930
  0.5831859606106372  0.0407572546804676  0.3995985548153431
  0.5836128493090121  0.1664717222315245  0.3993696684567222
  0.5843741436556461  0.2920245886845195  0.3990729272512126
  0.5868614565566983  0.4176631928001779  0.3993862725266918
  0.5892290976741661  0.5431735157635574  0.4020343166142283
  0.5829735519829810  0.6618996323893930  0.4027830622516294
  0.5815024748623454  0.7874166551972878  0.3999504142671662
  0.5827366674123322  0.9146289729378377  0.3994524258506004
  0.7078482745206274  0.0403561290738430  0.3998399567027937
  0.7082167751528616  0.1658644029222102  0.3997346663694407
  0.7087850932977044  0.2912947804831479  0.3991984523627283
  0.7101539139613019  0.4166077002756085  0.3983264595881513
  0.7112478161546976  0.5418325742059036  0.3981476246077022
  0.7106003912794713  0.6671162737384070  0.3996399163589659
  0.7077184575502322  0.7899975774027747  0.3997515334227283
  0.7072637793246309  0.9146350408861806  0.3997956217339546
  0.8328049433051646  0.0406414160508695  0.3997989329480444
  0.8329240603178780  0.1658380196493919  0.3999597975563882
  0.8331953336297241  0.2910580427306285  0.3997921924806230
  0.8339864023162127  0.4164370447385578  0.3993414567790673
  0.8348655943922874  0.5419362624017506  0.3987847491709735
  0.8350448359069967  0.6672784837997995  0.3989262866812801
  0.8342879980595508  0.7921207245049815  0.3994091452586520
  0.8331880866998175  0.9160834109057727  0.3995758760001744
  0.9585580876355633  0.0418395920241800  0.3996642666285864
  0.9579913403578237  0.1662732925129139  0.3998514800839021
  0.9577107754755886  0.2912243893536571  0.3999549388519718
  0.9579722834666359  0.4164717501438052  0.3998917104885800
  0.9587551441113554  0.5418970425435961  0.3997494976461521
  0.9593823118460391  0.6673736489067080  0.3995931646835114
  0.9594573401758680  0.7926592778818916  0.3995986501787724
  0.9591726885851418  0.9174881090910052  0.3995398280021421
  0.4113392538064213  0.5812542696009647  0.3995917363538840
  0.5466948754721637  0.5810454540886576  0.4068930560599565
  0.3302380324679938  0.4190202774002464  0.4044514887910446
  0.4373145813242653  0.5165977424246300  0.4971692201455830
 
  0.00000000E+00  0.00000000E+00  0.00000000E+00
  0.00000000E+00  0.00000000E+00  0.00000000E+00
  0.00000000E+00  0.00000000E+00  0.00000000E+00
  0.00000000E+00  0.00000000E+00  0.00000000E+00
  0.00000000E+00  0.00000000E+00  0.00000000E+00
  0.00000000E+00  0.00000000E+00  0.00000000E+00
  0.00000000E+00  0.00000000E+00  0.00000000E+00
  0.00000000E+00  0.00000000E+00  0.00000000E+00
  0.00000000E+00  0.00000000E+00  0.00000000E+00
  0.00000000E+00  0.00000000E+00  0.00000000E+00
  0.00000000E+00  0.00000000E+00  0.00000000E+00
  0.00000000E+00  0.00000000E+00  0.00000000E+00
  0.00000000E+00  0.00000000E+00  0.00000000E+00
  0.00000000E+00  0.00000000E+00  0.00000000E+00
  0.00000000E+00  0.00000000E+00  0.00000000E+00
  0.00000000E+00  0.00000000E+00  0.00000000E+00
  0.00000000E+00  0.00000000E+00  0.00000000E+00
  0.00000000E+00  0.00000000E+00  0.00000000E+00
  0.00000000E+00  0.00000000E+00  0.00000000E+00
  0.00000000E+00  0.00000000E+00  0.00000000E+00
  0.00000000E+00  0.00000000E+00  0.00000000E+00
  0.00000000E+00  0.00000000E+00  0.00000000E+00
  0.00000000E+00  0.00000000E+00  0.00000000E+00
  0.00000000E+00  0.00000000E+00  0.00000000E+00
  0.00000000E+00  0.00000000E+00  0.00000000E+00
  0.00000000E+00  0.00000000E+00  0.00000000E+00
  0.00000000E+00  0.00000000E+00  0.00000000E+00
  0.00000000E+00  0.00000000E+00  0.00000000E+00
  0.00000000E+00  0.00000000E+00  0.00000000E+00
  0.00000000E+00  0.00000000E+00  0.00000000E+00
  0.00000000E+00  0.00000000E+00  0.00000000E+00
  0.00000000E+00  0.00000000E+00  0.00000000E+00
  0.00000000E+00  0.00000000E+00  0.00000000E+00
  0.00000000E+00  0.00000000E+00  0.00000000E+00
  0.00000000E+00  0.00000000E+00  0.00000000E+00
  0.00000000E+00  0.00000000E+00  0.00000000E+00
  0.00000000E+00  0.00000000E+00  0.00000000E+00
  0.00000000E+00  0.00000000E+00  0.00000000E+00
  0.00000000E+00  0.00000000E+00  0.00000000E+00
  0.00000000E+00  0.00000000E+00  0.00000000E+00
  0.00000000E+00  0.00000000E+00  0.00000000E+00
  0.00000000E+00  0.00000000E+00  0.00000000E+00
  0.00000000E+00  0.00000000E+00  0.00000000E+00
  0.00000000E+00  0.00000000E+00  0.00000000E+00
  0.00000000E+00  0.00000000E+00  0.00000000E+00
  0.00000000E+00  0.00000000E+00  0.00000000E+00
  0.00000000E+00  0.00000000E+00  0.00000000E+00
  0.00000000E+00  0.00000000E+00  0.00000000E+00
  0.00000000E+00  0.00000000E+00  0.00000000E+00
  0.00000000E+00  0.00000000E+00  0.00000000E+00
  0.00000000E+00  0.00000000E+00  0.00000000E+00
  0.00000000E+00  0.00000000E+00  0.00000000E+00
  0.00000000E+00  0.00000000E+00  0.00000000E+00
  0.00000000E+00  0.00000000E+00  0.00000000E+00
  0.00000000E+00  0.00000000E+00  0.00000000E+00
  0.00000000E+00  0.00000000E+00  0.00000000E+00
  0.00000000E+00  0.00000000E+00  0.00000000E+00
  0.00000000E+00  0.00000000E+00  0.00000000E+00
  0.00000000E+00  0.00000000E+00  0.00000000E+00
  0.00000000E+00  0.00000000E+00  0.00000000E+00
  0.00000000E+00  0.00000000E+00  0.00000000E+00
  0.00000000E+00  0.00000000E+00  0.00000000E+00
  0.00000000E+00  0.00000000E+00  0.00000000E+00
  0.00000000E+00  0.00000000E+00  0.00000000E+00
  0.00000000E+00  0.00000000E+00  0.00000000E+00
  0.00000000E+00  0.00000000E+00  0.00000000E+00
  0.00000000E+00  0.00000000E+00  0.00000000E+00
  0.00000000E+00  0.00000000E+00  0.00000000E+00
  0.00000000E+00  0.00000000E+00  0.00000000E+00
  0.00000000E+00  0.00000000E+00  0.00000000E+00
  0.00000000E+00  0.00000000E+00  0.00000000E+00
  0.00000000E+00  0.00000000E+00  0.00000000E+00
  0.00000000E+00  0.00000000E+00  0.00000000E+00
  0.00000000E+00  0.00000000E+00  0.00000000E+00
  0.00000000E+00  0.00000000E+00  0.00000000E+00
  0.00000000E+00  0.00000000E+00  0.00000000E+00
  0.00000000E+00  0.00000000E+00  0.00000000E+00
  0.00000000E+00  0.00000000E+00  0.00000000E+00
  0.00000000E+00  0.00000000E+00  0.00000000E+00
  0.00000000E+00  0.00000000E+00  0.00000000E+00
  0.00000000E+00  0.00000000E+00  0.00000000E+00
  0.00000000E+00  0.00000000E+00  0.00000000E+00
  0.00000000E+00  0.00000000E+00  0.00000000E+00
  0.00000000E+00  0.00000000E+00  0.00000000E+00
  0.00000000E+00  0.00000000E+00  0.00000000E+00
  0.00000000E+00  0.00000000E+00  0.00000000E+00
  0.00000000E+00  0.00000000E+00  0.00000000E+00
  0.00000000E+00  0.00000000E+00  0.00000000E+00
  0.00000000E+00  0.00000000E+00  0.00000000E+00
  0.00000000E+00  0.00000000E+00  0.00000000E+00
  0.00000000E+00  0.00000000E+00  0.00000000E+00
  0.00000000E+00  0.00000000E+00  0.00000000E+00
  0.00000000E+00  0.00000000E+00  0.00000000E+00
  0.00000000E+00  0.00000000E+00  0.00000000E+00
  0.00000000E+00  0.00000000E+00  0.00000000E+00
  0.00000000E+00  0.00000000E+00  0.00000000E+00
  0.00000000E+00  0.00000000E+00  0.00000000E+00
  0.00000000E+00  0.00000000E+00  0.00000000E+00
  0.00000000E+00  0.00000000E+00  0.00000000E+00
  0.00000000E+00  0.00000000E+00  0.00000000E+00
  0.00000000E+00  0.00000000E+00  0.00000000E+00
  0.00000000E+00  0.00000000E+00  0.00000000E+00
  0.00000000E+00  0.00000000E+00  0.00000000E+00
  0.00000000E+00  0.00000000E+00  0.00000000E+00
  0.00000000E+00  0.00000000E+00  0.00000000E+00
  0.00000000E+00  0.00000000E+00  0.00000000E+00
  0.00000000E+00  0.00000000E+00  0.00000000E+00
  0.00000000E+00  0.00000000E+00  0.00000000E+00
  0.00000000E+00  0.00000000E+00  0.00000000E+00
  0.00000000E+00  0.00000000E+00  0.00000000E+00
  0.00000000E+00  0.00000000E+00  0.00000000E+00
  0.00000000E+00  0.00000000E+00  0.00000000E+00
  0.00000000E+00  0.00000000E+00  0.00000000E+00
  0.00000000E+00  0.00000000E+00  0.00000000E+00
  0.00000000E+00  0.00000000E+00  0.00000000E+00
  0.00000000E+00  0.00000000E+00  0.00000000E+00
  0.00000000E+00  0.00000000E+00  0.00000000E+00
  0.00000000E+00  0.00000000E+00  0.00000000E+00
  0.00000000E+00  0.00000000E+00  0.00000000E+00
  0.00000000E+00  0.00000000E+00  0.00000000E+00
  0.00000000E+00  0.00000000E+00  0.00000000E+00
  0.00000000E+00  0.00000000E+00  0.00000000E+00
  0.00000000E+00  0.00000000E+00  0.00000000E+00
  0.00000000E+00  0.00000000E+00  0.00000000E+00
  0.00000000E+00  0.00000000E+00  0.00000000E+00
  0.00000000E+00  0.00000000E+00  0.00000000E+00
  0.00000000E+00  0.00000000E+00  0.00000000E+00
  0.00000000E+00  0.00000000E+00  0.00000000E+00
  0.00000000E+00  0.00000000E+00  0.00000000E+00
