Mo1 H1 C126 O2                          
   1.00000000000000     
    19.8044846498436939   -0.0008568612182256   -0.0693369621452062
    -9.9029008221979176   17.0740456540069374   -0.1108952276211812
    -0.1040632118727065   -0.2534734407878896   29.7611586385079612
   Mo   H    C    O 
     1     1   126     2
Direct
  0.4379465543463179  0.5012332736604794  0.4351506887537140
  0.5402730982194444  0.5642967656218731  0.5195769262460077
  0.0419634772199162  0.0838902655723106  0.3996521381630262
  0.0412178644511604  0.2081750061587795  0.3995390745079794
  0.0408515299595565  0.3329367071319914  0.3993994002657746
  0.0409071361251048  0.4584016447453923  0.3992918223166482
  0.0414838185331840  0.5837047401254851  0.3994509743757995
  0.0420169112775459  0.7089208215867380  0.3996103267437749
  0.0423122429057720  0.8342400879058121  0.3996956352679139
  0.0423135102401170  0.9592286161671213  0.3996731573682256
  0.1674720067706906  0.0847945770252895  0.4001550588486694
  0.1671816052191110  0.2094982661624756  0.4002559795532875
  0.1657181420145767  0.3333027740553618  0.4001839094465435
  0.1647311850450705  0.4583573394711675  0.3997572756849360
  0.1656314657556044  0.5836035756450820  0.3992835331307943
  0.1666292770675776  0.7089777791236113  0.3994294774975221
  0.1670544332075260  0.8342391119397516  0.3997004746135056
  0.1673419770727314  0.9595412267944496  0.3999195059358214
  0.2924602152154506  0.0847586692703047  0.4001168926746477
  0.2930483839853214  0.2109133003794391  0.4014888167175455
  0.2928707420403722  0.3364192060533765  0.4030909892501604
  0.2880527247829911  0.4577660072721285  0.4026112013563746
  0.2894952578232792  0.5840008568752229  0.4003986258744271
  0.2911857131781557  0.7089318992197932  0.3992605880062892
  0.2917236747559558  0.8339046865300473  0.3993155660498506
  0.2920434893420398  0.9592136251344482  0.3996163931869510
  0.4170437856501277  0.0838281116256842  0.3995203175040414
  0.4174305671683647  0.2093465726977121  0.4002010507358978
  0.4188708623505906  0.3361324883585471  0.4037460911907690
  0.4121781095534538  0.5814393919529431  0.4052718116213725
  0.4158463952511768  0.7073150223012464  0.4003135465143689
  0.4164552854878315  0.8330816940449366  0.3992208862306805
  0.4167216947707236  0.9584263644215355  0.3993072704297186
  0.5416975214747226  0.0829928736980388  0.3994420012659023
  0.5420722870419348  0.2081551168077974  0.3993886829455622
  0.5427364257830380  0.3332590847046990  0.4001650399216040
  0.5448271510893974  0.4577241188461714  0.4035998853532664
  0.5450421067825086  0.5819774447353303  0.4070718134084248
  0.5407591105029385  0.7063351182950536  0.4029302899304124
  0.5410326733731475  0.8321311582693106  0.4000505846005483
  0.5414667441002383  0.9576633700498295  0.3994364279511641
  0.6664336104046601  0.0826571759955368  0.3996506729025978
  0.6667366034550410  0.2078729090671805  0.3994970012773522
  0.6671758164439532  0.3329543239929196  0.3991534533100163
  0.6686494669565825  0.4583402819393110  0.3993454853518622
  0.6695085521602527  0.5839582996706130  0.4004684586758105
  0.6667524814676870  0.7074715039865782  0.4006151531448054
  0.6662145908439540  0.8321669671547248  0.4001856952711681
  0.6662532249048658  0.9574190362962260  0.3997467572078073
  0.7913192437237143  0.0826419061242545  0.3996317132977852
  0.7914156755149873  0.2077397389481548  0.3996473085722638
  0.7918031833618465  0.3330406744304401  0.3994169783778594
  0.7925353969235844  0.4583938611612290  0.3990060274224009
  0.7930054314561682  0.5836086957176371  0.3988986974411464
  0.7928288100872180  0.7089245860623075  0.3991778669054751
  0.7917647718607022  0.8331302405355412  0.3992247775859842
  0.7912939339315819  0.9576729300307101  0.3994453481482059
  0.9164061019229989  0.0829948372773314  0.3994827863138841
  0.9162215128178799  0.2078637198505084  0.3995482613066749
  0.9162889101253501  0.3330347815396020  0.3995001632487703
  0.9166647018841915  0.4582733629045795  0.3994013887722709
  0.9172837905867302  0.5837107507981395  0.3992948178959023
  0.9174455336593326  0.7089755127480719  0.3992871890821643
  0.9173022605096506  0.8339185363771561  0.3993050349736724
  0.9168351384111857  0.9584590597670706  0.3993465863047835
  0.0840057396495232  0.0426939674097340  0.3998098608423202
  0.0835528067889316  0.1672702876048139  0.3997264596943624
  0.0823995183823577  0.2913561770261482  0.3995555835823201
  0.0821534651918861  0.4166526676121160  0.3993245621080397
  0.0826290925463581  0.5418408397835869  0.3993038384329754
  0.0834052949087399  0.6672357487430095  0.3995438277202885
  0.0838486647527905  0.7925871531123110  0.3997167396775629
  0.0839690584196392  0.9176992585002620  0.3997979005532836
  0.2090595014778848  0.0429698520389167  0.4001194717552401
  0.2091473941185561  0.1683173241276394  0.4006066880695696
  0.2087723318262018  0.2931206195608849  0.4007679967897570
  0.2056631455717431  0.4163793977804773  0.4006069104335622
  0.2065299833768814  0.5419584594440456  0.3997007836788146
  0.2080692703953386  0.6673301183627528  0.3992702075225772
  0.2085088594187094  0.7924264275001359  0.3994964222715099
  0.2088542580141819  0.9176810476894030  0.3997720637064440
  0.3338051194243176  0.0426456514770394  0.3997077351630391
  0.3343008540732208  0.1682754481323725  0.4006252631141389
  0.3347947754795053  0.2942412560982593  0.4033663835289414
  0.3310359729210113  0.4192667868841213  0.4055145985659320
  0.3305729670538097  0.5427520971275256  0.4024714829941467
  0.3325941153392044  0.6670564218279087  0.3998487065390147
  0.3331861091904260  0.7921168879445994  0.3991812239243831
  0.3335488146271540  0.9172822407103202  0.3993862494829825
  0.4585016088080575  0.0417948661922152  0.3993933937460422
  0.4588231578907258  0.1671741009903174  0.3995638090458629
  0.4595532874037379  0.2929253764877303  0.4009638920615828
  0.4635196427809474  0.4187370224728566  0.4072596781413075
  0.4566756129449937  0.6641339738511354  0.4026888311244747
  0.4578765818146814  0.7909093722270590  0.3996722158093440
  0.4582194705694116  0.9164262246650340  0.3992583060487610
  0.5832295148149954  0.0411017488543300  0.3995057196910531
  0.5835048089829148  0.1663574605668833  0.3994199132849422
  0.5840712250483513  0.2913433072784729  0.3993859751406683
  0.5857732917360097  0.4163713271207325  0.4005579767770803
  0.5872921947793205  0.5427231607690314  0.4035190275185134
  0.5828940999532520  0.6644123681630163  0.4034058629230094
  0.5823362799983554  0.7895625572611126  0.4009864761413404
  0.5828601895544890  0.9156260743339615  0.3996801103487737
  0.7079694706340358  0.0408356650654618  0.3996761040561201
  0.7082111865556878  0.1660839682387213  0.3996293678995300
  0.7085793424261255  0.2912893192201259  0.3993337611222608
  0.7095510635190798  0.4166632861749743  0.3989387274652786
  0.7104382403505481  0.5419389340044338  0.3993162959352596
  0.7095784665644698  0.6670695092966195  0.3999412311224553
  0.7082182293744018  0.7910165423911257  0.3997867715561042
  0.7078691371503566  0.9156475448523778  0.3997217725068713
  0.8329829767387774  0.0411090824231890  0.3994995787632775
  0.8329599687168685  0.1660759044952883  0.3996262742961210
  0.8332107780494372  0.2913633307554219  0.3995514361557818
  0.8336905135873559  0.4165589749411878  0.3992971293638908
  0.8342572632584975  0.5418584848522153  0.3989678290040752
  0.8343520746374573  0.6673228421681471  0.3990508238472975
  0.8340385894766930  0.7921221566670580  0.3991461682251201
  0.8333449327811254  0.9164704211653479  0.3992719489168030
  0.9584437571015895  0.0418547081754261  0.3994649782081313
  0.9579611611064561  0.1663715124658807  0.3995099661062317
  0.9577767812628161  0.2912842357368546  0.3994739758865665
  0.9579080958001550  0.4165433340276742  0.3994212530740478
  0.9585117399080723  0.5419772854773520  0.3994147189122020
  0.9589207793883566  0.6672401969399870  0.3994179706032283
  0.9590300365484787  0.7924289696620648  0.3994550019485428
  0.9588653549239076  0.9173086741123100  0.3994229866582764
  0.5086034812827194  0.5086625890033327  0.5111181948908230
  0.4338285984790305  0.5043849971425410  0.4987888312911177
 
  0.00000000E+00  0.00000000E+00  0.00000000E+00
  0.00000000E+00  0.00000000E+00  0.00000000E+00
  0.00000000E+00  0.00000000E+00  0.00000000E+00
  0.00000000E+00  0.00000000E+00  0.00000000E+00
  0.00000000E+00  0.00000000E+00  0.00000000E+00
  0.00000000E+00  0.00000000E+00  0.00000000E+00
  0.00000000E+00  0.00000000E+00  0.00000000E+00
  0.00000000E+00  0.00000000E+00  0.00000000E+00
  0.00000000E+00  0.00000000E+00  0.00000000E+00
  0.00000000E+00  0.00000000E+00  0.00000000E+00
  0.00000000E+00  0.00000000E+00  0.00000000E+00
  0.00000000E+00  0.00000000E+00  0.00000000E+00
  0.00000000E+00  0.00000000E+00  0.00000000E+00
  0.00000000E+00  0.00000000E+00  0.00000000E+00
  0.00000000E+00  0.00000000E+00  0.00000000E+00
  0.00000000E+00  0.00000000E+00  0.00000000E+00
  0.00000000E+00  0.00000000E+00  0.00000000E+00
  0.00000000E+00  0.00000000E+00  0.00000000E+00
  0.00000000E+00  0.00000000E+00  0.00000000E+00
  0.00000000E+00  0.00000000E+00  0.00000000E+00
  0.00000000E+00  0.00000000E+00  0.00000000E+00
  0.00000000E+00  0.00000000E+00  0.00000000E+00
  0.00000000E+00  0.00000000E+00  0.00000000E+00
  0.00000000E+00  0.00000000E+00  0.00000000E+00
  0.00000000E+00  0.00000000E+00  0.00000000E+00
  0.00000000E+00  0.00000000E+00  0.00000000E+00
  0.00000000E+00  0.00000000E+00  0.00000000E+00
  0.00000000E+00  0.00000000E+00  0.00000000E+00
  0.00000000E+00  0.00000000E+00  0.00000000E+00
  0.00000000E+00  0.00000000E+00  0.00000000E+00
  0.00000000E+00  0.00000000E+00  0.00000000E+00
  0.00000000E+00  0.00000000E+00  0.00000000E+00
  0.00000000E+00  0.00000000E+00  0.00000000E+00
  0.00000000E+00  0.00000000E+00  0.00000000E+00
  0.00000000E+00  0.00000000E+00  0.00000000E+00
  0.00000000E+00  0.00000000E+00  0.00000000E+00
  0.00000000E+00  0.00000000E+00  0.00000000E+00
  0.00000000E+00  0.00000000E+00  0.00000000E+00
  0.00000000E+00  0.00000000E+00  0.00000000E+00
  0.00000000E+00  0.00000000E+00  0.00000000E+00
  0.00000000E+00  0.00000000E+00  0.00000000E+00
  0.00000000E+00  0.00000000E+00  0.00000000E+00
  0.00000000E+00  0.00000000E+00  0.00000000E+00
  0.00000000E+00  0.00000000E+00  0.00000000E+00
  0.00000000E+00  0.00000000E+00  0.00000000E+00
  0.00000000E+00  0.00000000E+00  0.00000000E+00
  0.00000000E+00  0.00000000E+00  0.00000000E+00
  0.00000000E+00  0.00000000E+00  0.00000000E+00
  0.00000000E+00  0.00000000E+00  0.00000000E+00
  0.00000000E+00  0.00000000E+00  0.00000000E+00
  0.00000000E+00  0.00000000E+00  0.00000000E+00
  0.00000000E+00  0.00000000E+00  0.00000000E+00
  0.00000000E+00  0.00000000E+00  0.00000000E+00
  0.00000000E+00  0.00000000E+00  0.00000000E+00
  0.00000000E+00  0.00000000E+00  0.00000000E+00
  0.00000000E+00  0.00000000E+00  0.00000000E+00
  0.00000000E+00  0.00000000E+00  0.00000000E+00
  0.00000000E+00  0.00000000E+00  0.00000000E+00
  0.00000000E+00  0.00000000E+00  0.00000000E+00
  0.00000000E+00  0.00000000E+00  0.00000000E+00
  0.00000000E+00  0.00000000E+00  0.00000000E+00
  0.00000000E+00  0.00000000E+00  0.00000000E+00
  0.00000000E+00  0.00000000E+00  0.00000000E+00
  0.00000000E+00  0.00000000E+00  0.00000000E+00
  0.00000000E+00  0.00000000E+00  0.00000000E+00
  0.00000000E+00  0.00000000E+00  0.00000000E+00
  0.00000000E+00  0.00000000E+00  0.00000000E+00
  0.00000000E+00  0.00000000E+00  0.00000000E+00
  0.00000000E+00  0.00000000E+00  0.00000000E+00
  0.00000000E+00  0.00000000E+00  0.00000000E+00
  0.00000000E+00  0.00000000E+00  0.00000000E+00
  0.00000000E+00  0.00000000E+00  0.00000000E+00
  0.00000000E+00  0.00000000E+00  0.00000000E+00
  0.00000000E+00  0.00000000E+00  0.00000000E+00
  0.00000000E+00  0.00000000E+00  0.00000000E+00
  0.00000000E+00  0.00000000E+00  0.00000000E+00
  0.00000000E+00  0.00000000E+00  0.00000000E+00
  0.00000000E+00  0.00000000E+00  0.00000000E+00
  0.00000000E+00  0.00000000E+00  0.00000000E+00
  0.00000000E+00  0.00000000E+00  0.00000000E+00
  0.00000000E+00  0.00000000E+00  0.00000000E+00
  0.00000000E+00  0.00000000E+00  0.00000000E+00
  0.00000000E+00  0.00000000E+00  0.00000000E+00
  0.00000000E+00  0.00000000E+00  0.00000000E+00
  0.00000000E+00  0.00000000E+00  0.00000000E+00
  0.00000000E+00  0.00000000E+00  0.00000000E+00
  0.00000000E+00  0.00000000E+00  0.00000000E+00
  0.00000000E+00  0.00000000E+00  0.00000000E+00
  0.00000000E+00  0.00000000E+00  0.00000000E+00
  0.00000000E+00  0.00000000E+00  0.00000000E+00
  0.00000000E+00  0.00000000E+00  0.00000000E+00
  0.00000000E+00  0.00000000E+00  0.00000000E+00
  0.00000000E+00  0.00000000E+00  0.00000000E+00
  0.00000000E+00  0.00000000E+00  0.00000000E+00
  0.00000000E+00  0.00000000E+00  0.00000000E+00
  0.00000000E+00  0.00000000E+00  0.00000000E+00
  0.00000000E+00  0.00000000E+00  0.00000000E+00
  0.00000000E+00  0.00000000E+00  0.00000000E+00
  0.00000000E+00  0.00000000E+00  0.00000000E+00
  0.00000000E+00  0.00000000E+00  0.00000000E+00
  0.00000000E+00  0.00000000E+00  0.00000000E+00
  0.00000000E+00  0.00000000E+00  0.00000000E+00
  0.00000000E+00  0.00000000E+00  0.00000000E+00
  0.00000000E+00  0.00000000E+00  0.00000000E+00
  0.00000000E+00  0.00000000E+00  0.00000000E+00
  0.00000000E+00  0.00000000E+00  0.00000000E+00
  0.00000000E+00  0.00000000E+00  0.00000000E+00
  0.00000000E+00  0.00000000E+00  0.00000000E+00
  0.00000000E+00  0.00000000E+00  0.00000000E+00
  0.00000000E+00  0.00000000E+00  0.00000000E+00
  0.00000000E+00  0.00000000E+00  0.00000000E+00
  0.00000000E+00  0.00000000E+00  0.00000000E+00
  0.00000000E+00  0.00000000E+00  0.00000000E+00
  0.00000000E+00  0.00000000E+00  0.00000000E+00
  0.00000000E+00  0.00000000E+00  0.00000000E+00
  0.00000000E+00  0.00000000E+00  0.00000000E+00
  0.00000000E+00  0.00000000E+00  0.00000000E+00
  0.00000000E+00  0.00000000E+00  0.00000000E+00
  0.00000000E+00  0.00000000E+00  0.00000000E+00
  0.00000000E+00  0.00000000E+00  0.00000000E+00
  0.00000000E+00  0.00000000E+00  0.00000000E+00
  0.00000000E+00  0.00000000E+00  0.00000000E+00
  0.00000000E+00  0.00000000E+00  0.00000000E+00
  0.00000000E+00  0.00000000E+00  0.00000000E+00
  0.00000000E+00  0.00000000E+00  0.00000000E+00
  0.00000000E+00  0.00000000E+00  0.00000000E+00
  0.00000000E+00  0.00000000E+00  0.00000000E+00
  0.00000000E+00  0.00000000E+00  0.00000000E+00
  0.00000000E+00  0.00000000E+00  0.00000000E+00
  0.00000000E+00  0.00000000E+00  0.00000000E+00
