H1 Pt1 C123 N3 O1                       
   1.00000000000000     
    19.8554536611339358    0.0021533870954740   -0.0765726111634967
    -9.9254015254426182   17.0316334313601168    0.1375021961362688
    -0.1141033441055585    0.1730929424485309   29.7549789850575905
   H    Pt   C    N    O 
     1     1   123     3     1
Direct
  0.4850123524721691  0.5583987573494293  0.4899285108506902
  0.4368430931279640  0.4978562807542716  0.4122774856621177
  0.0418253267964426  0.0839846779168344  0.4002895866746414
  0.0405328488205678  0.2077869869810401  0.4007100346241047
  0.0397440468489442  0.3325186560431490  0.4002592882435411
  0.0400222649510587  0.4580438553079343  0.3992531336706954
  0.0412326761936298  0.5838179330065275  0.3984797293835911
  0.0423704752248892  0.7094585988806031  0.3985536860250755
  0.0427503437960051  0.8348045507154929  0.3990249843855971
  0.0426401990757100  0.9597891070596989  0.3995717987604684
  0.1679913485318993  0.0858179929379348  0.4011890707475118
  0.1670189032242158  0.2100422984822676  0.4023841559835936
  0.1642336209311035  0.3332523351544294  0.4024379529619234
  0.1630817733094050  0.4582297864141040  0.4017359524441160
  0.1643836039790690  0.5837210193945750  0.4002437667774325
  0.1662315703645323  0.7092728736073185  0.3989752675709202
  0.1672099665222804  0.8348220423465744  0.3989335804928501
  0.1677343751001715  0.9603936164337512  0.3998237171632407
  0.2928710083422520  0.0860503722745999  0.4009565119278983
  0.2936358024921999  0.2129669646657244  0.4029872782133424
  0.2915182339475571  0.3379114450248769  0.4044025759805846
  0.2855933994679276  0.4577851233134655  0.4038355948292059
  0.2868711778929456  0.5833527882868372  0.4029334278427634
  0.2900699544041324  0.7086874571669132  0.4009160824225576
  0.2915112874077089  0.8341566764115858  0.3993464102285110
  0.2922494020616319  0.9598976978945882  0.3994705470481747
  0.4172356759285880  0.0840978434301361  0.3999568523462395
  0.4181439071087929  0.2101977297785481  0.4015254565252610
  0.4204404566917442  0.3374596527155462  0.4043158092363007
  0.4139039662546867  0.7062286574317888  0.4031871796136001
  0.4158154215205178  0.8322695986297676  0.4008770523315149
  0.4166079391432053  0.9581892200119082  0.3994665149392732
  0.5415647362124845  0.0821840649590757  0.3993387776751789
  0.5424409650485691  0.2079379180980683  0.4001083733936685
  0.5441444632752763  0.3334811409027661  0.4017982358844370
  0.5492240698978075  0.4588550342567602  0.4049857507216864
  0.5377292954420226  0.7003592535622081  0.4050876220825241
  0.5400474284376930  0.8293794205087698  0.4024451230724351
  0.5409420670274707  0.9561124319293747  0.4001634450935987
  0.6659328250293605  0.0812836337771559  0.3993313519645683
  0.6666949031587402  0.2069201358418973  0.3991635832777694
  0.6680438912024147  0.3325062488108135  0.3998226574789650
  0.6709929074793105  0.4582302576313795  0.4017128935515305
  0.6724882484674277  0.5839633805451623  0.4040922342571994
  0.6669254937699461  0.7056829267384220  0.4039454687461833
  0.6644703464545582  0.8293296544657679  0.4025682395302534
  0.6653412497994258  0.9554880031098604  0.4006544062777608
  0.7905150785023141  0.0812679028945880  0.3993768613647856
  0.7909582610687566  0.2066842429351080  0.3990469093698473
  0.7918974739396519  0.3322903133061946  0.3987543291718080
  0.7935916237416817  0.4580723472852591  0.3991011220101096
  0.7948149013097392  0.5837623895873533  0.4005067333261261
  0.7939712445258581  0.7088472548970490  0.4014968694792585
  0.7913595264430670  0.8320150553609952  0.4011467912536334
  0.7902666702292573  0.9560571625612334  0.4001602827217003
  0.9156739905977638  0.0821049665168283  0.3994662409776416
  0.9154206977526681  0.2069258922635850  0.3993244782508457
  0.9157273085665798  0.3323065675301871  0.3988501929689703
  0.9167750938822493  0.4580402626571647  0.3983282140117951
  0.9179979368951634  0.5838562326149733  0.3985116255861884
  0.9182880301667731  0.7092863117192263  0.3992007660477469
  0.9177689744421023  0.8341442387002314  0.3995055936018739
  0.9165621191378814  0.9580374939696764  0.3995469676774110
  0.0844024338182628  0.0434009347933665  0.4003181411106950
  0.0833780628237802  0.1674815216797949  0.4011859505469153
  0.0814743670856293  0.2911412740910812  0.4011963118600819
  0.0807450772487246  0.4160297780601852  0.4003914568003287
  0.0817648112727381  0.5417180885225508  0.3991535237352040
  0.0832715749470720  0.6674786784027136  0.3985525243593179
  0.0841235569347218  0.7930907169163880  0.3988264588030344
  0.0844395883406838  0.9184291206610524  0.3994551441152982
  0.2095417561587005  0.0440806420798012  0.4007231126551823
  0.2098130188307241  0.1696771411890722  0.4023504647756567
  0.2078906600647181  0.2936739674716965  0.4031544715862446
  0.2039654667838906  0.4164591558947465  0.4027358620129229
  0.2044791111459530  0.5414957498439292  0.4017512135803409
  0.2069930478974079  0.6672483201499151  0.3999547504007366
  0.2083664237978677  0.7928552760775436  0.3989531340171995
  0.2090914428560579  0.9184598875025074  0.3993744205083499
  0.3340610148073166  0.0435664757259781  0.4000900113970935
  0.3347991972146683  0.1699764189454122  0.4019319094698309
  0.3359296229540801  0.2974822938219989  0.4043011691574772
  0.3275020630548667  0.5423333648333921  0.4040321798575994
  0.3306575447987011  0.6665042467624976  0.4024630288872115
  0.3326170537934052  0.7919831464160030  0.4003152779923393
  0.3334721942050435  0.9176307455518127  0.3992945346196350
  0.4584376863658129  0.0416606638734162  0.3994679430185796
  0.4591941995529145  0.1675762541230486  0.4005130203134381
  0.4606066759919281  0.2937345428629566  0.4023082984798957
  0.4671310697044296  0.4202376442222004  0.4062963576399453
  0.4525576235709041  0.6612269321030264  0.4046524624095134
  0.4568347837990739  0.7896432149050134  0.4022651591932642
  0.4577984776708730  0.9157402356253840  0.4000662614442718
  0.5827675689131118  0.0398501529747770  0.3994599426153973
  0.5835429525426893  0.1657210911217110  0.3994329202153999
  0.5848058990432520  0.2912982557554168  0.4005268923375332
  0.5884955572469177  0.4167297524727360  0.4027281234172553
  0.5913738331933763  0.5425029066571105  0.4058536751589198
  0.5829504565126451  0.6604640863821207  0.4056914565072904
  0.5803809792616554  0.7855290031097226  0.4035591617685888
  0.5820620232823623  0.9134544078971987  0.4011122226103422
  0.7072283197398764  0.0392697051756433  0.3996707176401337
  0.7078480584771518  0.1649577584592194  0.3990877899980537
  0.7088175383852779  0.2905268589578755  0.3991290817644418
  0.7109654002432555  0.4160528338360982  0.4000786636880562
  0.7126684956564158  0.5415690636380897  0.4022120153475756
  0.7113231524229525  0.6668251445000032  0.4033795414045109
  0.7075904445118331  0.7892747886344431  0.4026012197308969
  0.7065629388758403  0.9134412626492288  0.4011257908055242
  0.8321753842114787  0.0398114805305634  0.3994793116739087
  0.8322918703881006  0.1649660009168161  0.3991579145270941
  0.8328234896259221  0.2903165267302990  0.3988073133862217
  0.8340835626658772  0.4159565171284956  0.3985316732671603
  0.8354225288874533  0.5417585320761737  0.3991762698927045
  0.8355751402193999  0.6673169866331806  0.4003734729806009
  0.8345539313866194  0.7920180701256364  0.4006584759901980
  0.8329055879628599  0.9155399727987129  0.4001467279264779
  0.9582063191948512  0.0415445356068708  0.3996227223456357
  0.9572657597333595  0.1656120209367908  0.3997126781101553
  0.9569504091343034  0.2905333630660247  0.3993486957129300
  0.9573868940302743  0.4159659626733802  0.3986538939776778
  0.9585852913625322  0.5417452246349954  0.3982725776921017
  0.9595186176183915  0.6675007170336057  0.3986453432192580
  0.9596338113615994  0.7928601993337735  0.3991212518053373
  0.9591991825073243  0.9175783738269427  0.3993763599343203
  0.4067379885521313  0.5815671558796700  0.4047073763911163
  0.5492105161293469  0.5800289128001977  0.4070702995621050
  0.3268905373270584  0.4188875297995620  0.4044875131219803
  0.4350307080635799  0.5122776763791048  0.4823992219906583
 
  0.00000000E+00  0.00000000E+00  0.00000000E+00
  0.00000000E+00  0.00000000E+00  0.00000000E+00
  0.00000000E+00  0.00000000E+00  0.00000000E+00
  0.00000000E+00  0.00000000E+00  0.00000000E+00
  0.00000000E+00  0.00000000E+00  0.00000000E+00
  0.00000000E+00  0.00000000E+00  0.00000000E+00
  0.00000000E+00  0.00000000E+00  0.00000000E+00
  0.00000000E+00  0.00000000E+00  0.00000000E+00
  0.00000000E+00  0.00000000E+00  0.00000000E+00
  0.00000000E+00  0.00000000E+00  0.00000000E+00
  0.00000000E+00  0.00000000E+00  0.00000000E+00
  0.00000000E+00  0.00000000E+00  0.00000000E+00
  0.00000000E+00  0.00000000E+00  0.00000000E+00
  0.00000000E+00  0.00000000E+00  0.00000000E+00
  0.00000000E+00  0.00000000E+00  0.00000000E+00
  0.00000000E+00  0.00000000E+00  0.00000000E+00
  0.00000000E+00  0.00000000E+00  0.00000000E+00
  0.00000000E+00  0.00000000E+00  0.00000000E+00
  0.00000000E+00  0.00000000E+00  0.00000000E+00
  0.00000000E+00  0.00000000E+00  0.00000000E+00
  0.00000000E+00  0.00000000E+00  0.00000000E+00
  0.00000000E+00  0.00000000E+00  0.00000000E+00
  0.00000000E+00  0.00000000E+00  0.00000000E+00
  0.00000000E+00  0.00000000E+00  0.00000000E+00
  0.00000000E+00  0.00000000E+00  0.00000000E+00
  0.00000000E+00  0.00000000E+00  0.00000000E+00
  0.00000000E+00  0.00000000E+00  0.00000000E+00
  0.00000000E+00  0.00000000E+00  0.00000000E+00
  0.00000000E+00  0.00000000E+00  0.00000000E+00
  0.00000000E+00  0.00000000E+00  0.00000000E+00
  0.00000000E+00  0.00000000E+00  0.00000000E+00
  0.00000000E+00  0.00000000E+00  0.00000000E+00
  0.00000000E+00  0.00000000E+00  0.00000000E+00
  0.00000000E+00  0.00000000E+00  0.00000000E+00
  0.00000000E+00  0.00000000E+00  0.00000000E+00
  0.00000000E+00  0.00000000E+00  0.00000000E+00
  0.00000000E+00  0.00000000E+00  0.00000000E+00
  0.00000000E+00  0.00000000E+00  0.00000000E+00
  0.00000000E+00  0.00000000E+00  0.00000000E+00
  0.00000000E+00  0.00000000E+00  0.00000000E+00
  0.00000000E+00  0.00000000E+00  0.00000000E+00
  0.00000000E+00  0.00000000E+00  0.00000000E+00
  0.00000000E+00  0.00000000E+00  0.00000000E+00
  0.00000000E+00  0.00000000E+00  0.00000000E+00
  0.00000000E+00  0.00000000E+00  0.00000000E+00
  0.00000000E+00  0.00000000E+00  0.00000000E+00
  0.00000000E+00  0.00000000E+00  0.00000000E+00
  0.00000000E+00  0.00000000E+00  0.00000000E+00
  0.00000000E+00  0.00000000E+00  0.00000000E+00
  0.00000000E+00  0.00000000E+00  0.00000000E+00
  0.00000000E+00  0.00000000E+00  0.00000000E+00
  0.00000000E+00  0.00000000E+00  0.00000000E+00
  0.00000000E+00  0.00000000E+00  0.00000000E+00
  0.00000000E+00  0.00000000E+00  0.00000000E+00
  0.00000000E+00  0.00000000E+00  0.00000000E+00
  0.00000000E+00  0.00000000E+00  0.00000000E+00
  0.00000000E+00  0.00000000E+00  0.00000000E+00
  0.00000000E+00  0.00000000E+00  0.00000000E+00
  0.00000000E+00  0.00000000E+00  0.00000000E+00
  0.00000000E+00  0.00000000E+00  0.00000000E+00
  0.00000000E+00  0.00000000E+00  0.00000000E+00
  0.00000000E+00  0.00000000E+00  0.00000000E+00
  0.00000000E+00  0.00000000E+00  0.00000000E+00
  0.00000000E+00  0.00000000E+00  0.00000000E+00
  0.00000000E+00  0.00000000E+00  0.00000000E+00
  0.00000000E+00  0.00000000E+00  0.00000000E+00
  0.00000000E+00  0.00000000E+00  0.00000000E+00
  0.00000000E+00  0.00000000E+00  0.00000000E+00
  0.00000000E+00  0.00000000E+00  0.00000000E+00
  0.00000000E+00  0.00000000E+00  0.00000000E+00
  0.00000000E+00  0.00000000E+00  0.00000000E+00
  0.00000000E+00  0.00000000E+00  0.00000000E+00
  0.00000000E+00  0.00000000E+00  0.00000000E+00
  0.00000000E+00  0.00000000E+00  0.00000000E+00
  0.00000000E+00  0.00000000E+00  0.00000000E+00
  0.00000000E+00  0.00000000E+00  0.00000000E+00
  0.00000000E+00  0.00000000E+00  0.00000000E+00
  0.00000000E+00  0.00000000E+00  0.00000000E+00
  0.00000000E+00  0.00000000E+00  0.00000000E+00
  0.00000000E+00  0.00000000E+00  0.00000000E+00
  0.00000000E+00  0.00000000E+00  0.00000000E+00
  0.00000000E+00  0.00000000E+00  0.00000000E+00
  0.00000000E+00  0.00000000E+00  0.00000000E+00
  0.00000000E+00  0.00000000E+00  0.00000000E+00
  0.00000000E+00  0.00000000E+00  0.00000000E+00
  0.00000000E+00  0.00000000E+00  0.00000000E+00
  0.00000000E+00  0.00000000E+00  0.00000000E+00
  0.00000000E+00  0.00000000E+00  0.00000000E+00
  0.00000000E+00  0.00000000E+00  0.00000000E+00
  0.00000000E+00  0.00000000E+00  0.00000000E+00
  0.00000000E+00  0.00000000E+00  0.00000000E+00
  0.00000000E+00  0.00000000E+00  0.00000000E+00
  0.00000000E+00  0.00000000E+00  0.00000000E+00
  0.00000000E+00  0.00000000E+00  0.00000000E+00
  0.00000000E+00  0.00000000E+00  0.00000000E+00
  0.00000000E+00  0.00000000E+00  0.00000000E+00
  0.00000000E+00  0.00000000E+00  0.00000000E+00
  0.00000000E+00  0.00000000E+00  0.00000000E+00
  0.00000000E+00  0.00000000E+00  0.00000000E+00
  0.00000000E+00  0.00000000E+00  0.00000000E+00
  0.00000000E+00  0.00000000E+00  0.00000000E+00
  0.00000000E+00  0.00000000E+00  0.00000000E+00
  0.00000000E+00  0.00000000E+00  0.00000000E+00
  0.00000000E+00  0.00000000E+00  0.00000000E+00
  0.00000000E+00  0.00000000E+00  0.00000000E+00
  0.00000000E+00  0.00000000E+00  0.00000000E+00
  0.00000000E+00  0.00000000E+00  0.00000000E+00
  0.00000000E+00  0.00000000E+00  0.00000000E+00
  0.00000000E+00  0.00000000E+00  0.00000000E+00
  0.00000000E+00  0.00000000E+00  0.00000000E+00
  0.00000000E+00  0.00000000E+00  0.00000000E+00
  0.00000000E+00  0.00000000E+00  0.00000000E+00
  0.00000000E+00  0.00000000E+00  0.00000000E+00
  0.00000000E+00  0.00000000E+00  0.00000000E+00
  0.00000000E+00  0.00000000E+00  0.00000000E+00
  0.00000000E+00  0.00000000E+00  0.00000000E+00
  0.00000000E+00  0.00000000E+00  0.00000000E+00
  0.00000000E+00  0.00000000E+00  0.00000000E+00
  0.00000000E+00  0.00000000E+00  0.00000000E+00
  0.00000000E+00  0.00000000E+00  0.00000000E+00
  0.00000000E+00  0.00000000E+00  0.00000000E+00
  0.00000000E+00  0.00000000E+00  0.00000000E+00
  0.00000000E+00  0.00000000E+00  0.00000000E+00
  0.00000000E+00  0.00000000E+00  0.00000000E+00
  0.00000000E+00  0.00000000E+00  0.00000000E+00
  0.00000000E+00  0.00000000E+00  0.00000000E+00
  0.00000000E+00  0.00000000E+00  0.00000000E+00
  0.00000000E+00  0.00000000E+00  0.00000000E+00
  0.00000000E+00  0.00000000E+00  0.00000000E+00
