Co1 H1 C123 N3 O1                       
   1.00000000000000     
    19.8003600579427612    0.0078049487480497    0.0693195487020948
    -9.8933054613138136   17.0124769220260283   -0.1495005136937727
     0.1043358912407148   -0.2008015847239878   29.8666783559343685
   Co   H    C    N    O 
     1     1   123     3     1
Direct
  0.4364318840313438  0.4987129570765318  0.4141337188008977
  0.4863844358855480  0.5295051293857997  0.4878536976735869
  0.0420521219842126  0.0843446505014915  0.4002059221353234
  0.0411080912783478  0.2084200914255823  0.4003067176088065
  0.0404920736124061  0.3330777515557826  0.3999938451126381
  0.0407766554058498  0.4583033002583224  0.3994967853509956
  0.0415319959511153  0.5837437238349394  0.3992785785236494
  0.0422237328142432  0.7091605390857314  0.3993837182504046
  0.0424743485939813  0.8344899897458147  0.3997026765835204
  0.0424510490735518  0.9596614685778726  0.4000105151944978
  0.1679228847093323  0.0858587322996312  0.4008160024013582
  0.1676750699759535  0.2108081505481420  0.4012694674971557
  0.1653381108475287  0.3339232947622287  0.4009983030079471
  0.1646894683478528  0.4584788106729894  0.3999266807044372
  0.1654665334335039  0.5835860955107213  0.3994964107292041
  0.1665744676162911  0.7089409399203362  0.3994089027041844
  0.1671732074566107  0.8344407923145664  0.3997293988733258
  0.1675379345634314  0.9601158263286593  0.4002298313271676
  0.2926644770076600  0.0860798291258961  0.4007487065493765
  0.2934994264725572  0.2132480577857901  0.4019938389571704
  0.2930747494476902  0.3396113849775422  0.4034004316865689
  0.2884239354368028  0.4581178333752572  0.4014015329613503
  0.2889194136248375  0.5830241454021849  0.3996679938267300
  0.2908605705379266  0.7083747718227706  0.3995339128252555
  0.2917617819840510  0.8339062349638102  0.3997652440388625
  0.2921855866279348  0.9597431885058447  0.4001426052538309
  0.4170577265237244  0.0845333174136718  0.4001621424590714
  0.4176869710418317  0.2111263169212399  0.4007215720232595
  0.4195566586445377  0.3394908986818497  0.4023375326505184
  0.4147586538012971  0.7054258994073773  0.4002041303017177
  0.4162190955140547  0.8321320864957490  0.4001288514366890
  0.4167149162113326  0.9583569722623707  0.4000134232348240
  0.5415251617037738  0.0828482817974101  0.3998013921433322
  0.5419767335473206  0.2086685769313561  0.3997339024049560
  0.5430501686097212  0.3344264846137627  0.4002802939758597
  0.5464321736720533  0.4599904326877988  0.4019635109724538
  0.5378809672197893  0.7008102185877062  0.4024708042778761
  0.5403193299759831  0.8298049295455189  0.4009288179417621
  0.5411408749127550  0.9566845784872363  0.4002978925620839
  0.6660825521615683  0.0820990585838125  0.3999586238026250
  0.6665040597885070  0.2076833212451107  0.3993409000115739
  0.6672723438108528  0.3331640702787693  0.3994273044030331
  0.6692428035531105  0.4587288743796580  0.4003515373077678
  0.6704356888609941  0.5841761422849392  0.4017139852782755
  0.6657701971438507  0.7054733789791753  0.4018837806636403
  0.6644182361881060  0.8298296610946932  0.4013162163590991
  0.6655005857927528  0.9561695113442394  0.4007135778645179
  0.7907726311174906  0.0820596522688004  0.4001430118100102
  0.7911010790407360  0.2074841452958211  0.3995569906157618
  0.7916602520101598  0.3329013476637095  0.3991574664565307
  0.7927536143835821  0.4584011103673342  0.3994333108655305
  0.7936470242361077  0.5838333751778626  0.4000899742591128
  0.7931802741365804  0.7088980059330948  0.4005920127984399
  0.7909137280321487  0.8321714167701553  0.4004998690152177
  0.7903530514772890  0.9566286324274543  0.4004664146229479
  0.9159611715708176  0.0827004065385948  0.4000199538503642
  0.9158492217361698  0.2076201394209195  0.3998655819572601
  0.9160311368160916  0.3328978415210224  0.3994406719342639
  0.9167362353248308  0.4583472194220037  0.3992027928366755
  0.9175344960882614  0.5838109047262248  0.3993798492321719
  0.9177398935345600  0.7091125782527620  0.3997064491176839
  0.9173767916333407  0.8340628751834062  0.3998562236185872
  0.9164774970017155  0.9582876042725688  0.3999371197312901
  0.0843429033553808  0.0433956277212128  0.4003313422259898
  0.0839056403198127  0.1680429440193593  0.4005327254796223
  0.0823169688677535  0.2917684787048992  0.4004153380098781
  0.0819290684178031  0.4165100107229135  0.3998268151813717
  0.0825704241456457  0.5418489411116812  0.3994200789677866
  0.0834668620299991  0.6672950706754034  0.3993236342289520
  0.0839829928094084  0.7927566408718965  0.3995835237517769
  0.0842015543917335  0.9181289589842349  0.3999672529913803
  0.2093518257751302  0.0439367154722566  0.4006779544578667
  0.2098620186572124  0.1698652835168143  0.4014376049546522
  0.2091211667918479  0.2947348624073454  0.4018004326640519
  0.2060921281981747  0.4169908066257103  0.4005898257276770
  0.2061609203392025  0.5415663305853917  0.3997154807116207
  0.2077080866754901  0.6670318920279986  0.3994407928793646
  0.2085594424625186  0.7925146558559154  0.3995990953074424
  0.2089637312813822  0.9181278587613625  0.4000456183328553
  0.3338782817795136  0.0435685482625377  0.4003577064952321
  0.3344609303014335  0.1701881838181616  0.4011839253812989
  0.3356585803912636  0.2978696334867490  0.4031369945624158
  0.3301609761767809  0.5419403030322132  0.4000768275137380
  0.3317131423862441  0.6661308268694817  0.3996166731271705
  0.3330629288859454  0.7917443528211047  0.3997813534274409
  0.3335375093200112  0.9174847867814746  0.3999764088315034
  0.4583593054452550  0.0420297958291840  0.3999681340299072
  0.4587631343119346  0.1682511390087130  0.4001863995078535
  0.4597625977012720  0.2950849815236010  0.4008617724641593
  0.4643632018422400  0.4230566201990245  0.4029908209727702
  0.4534583570127816  0.6599963184197135  0.4010079015188612
  0.4572326808576563  0.7892597156993042  0.4004736798607105
  0.4579785283839807  0.9158467579829540  0.4001538241305147
  0.5828624351611121  0.0405442017153780  0.4000239263104260
  0.5832904625353683  0.1664510365608450  0.3995479050278187
  0.5840028606959468  0.2920741659075004  0.3997060035214882
  0.5864456327397213  0.4176208976899832  0.4007217241512400
  0.5886583184971240  0.5431468170030783  0.4030649487284284
  0.5814580822508838  0.6598766762976719  0.4035198541470502
  0.5805034404318836  0.7860206810493177  0.4016610609577256
  0.5822497414504630  0.9140320657136095  0.4006682341556427
  0.7074241024122051  0.0400366147198936  0.4003174326891243
  0.7079125614594933  0.1657863836967050  0.3995385554158580
  0.7084356954265119  0.2912454271954882  0.3992171279484089
  0.7098420787970281  0.4166535780593163  0.3996565788224151
  0.7110775478414417  0.5419424437358730  0.4006633462773343
  0.7102884143587425  0.6669436480262864  0.4014886783838040
  0.7070209750864092  0.7892943949369782  0.4011507677121366
  0.7066453465605780  0.9140152713171544  0.4008765749242617
  0.8324214206518649  0.0404514857010449  0.4001838685959495
  0.8325876552491460  0.1657467168957987  0.3998428497733602
  0.8329278041224674  0.2910686562828969  0.3993093184539303
  0.8337536916474980  0.4164884678068643  0.3991855813150355
  0.8346622812688547  0.5419664102992154  0.3996033632784664
  0.8348026115294093  0.6673052822019084  0.4001362036730856
  0.8340465514364496  0.7920439350872651  0.4002621416752216
  0.8327454766142822  0.9158103033580238  0.4002437208758065
  0.9583607920639868  0.0419064180923147  0.3999827100259415
  0.9577116642752725  0.1662472226565007  0.4000227706897795
  0.9574777006817558  0.2912015478914636  0.3997439884009644
  0.9578175920536756  0.4164518095135057  0.3993289321549207
  0.9585987518969722  0.5419317111203320  0.3992413365867447
  0.9591800551288669  0.6673768861335609  0.3994394660553739
  0.9592466540296757  0.7926649424653608  0.3996999108618721
  0.9589418096234280  0.9175249063273180  0.3998428835997465
  0.4097340699553512  0.5793243905811450  0.4001830722455294
  0.5448768722152625  0.5790755729625068  0.4052782399585735
  0.3312375862433967  0.4209148850902762  0.4040154927049959
  0.4335633707542484  0.5032751470795085  0.4754251688306828
 
  0.00000000E+00  0.00000000E+00  0.00000000E+00
  0.00000000E+00  0.00000000E+00  0.00000000E+00
  0.00000000E+00  0.00000000E+00  0.00000000E+00
  0.00000000E+00  0.00000000E+00  0.00000000E+00
  0.00000000E+00  0.00000000E+00  0.00000000E+00
  0.00000000E+00  0.00000000E+00  0.00000000E+00
  0.00000000E+00  0.00000000E+00  0.00000000E+00
  0.00000000E+00  0.00000000E+00  0.00000000E+00
  0.00000000E+00  0.00000000E+00  0.00000000E+00
  0.00000000E+00  0.00000000E+00  0.00000000E+00
  0.00000000E+00  0.00000000E+00  0.00000000E+00
  0.00000000E+00  0.00000000E+00  0.00000000E+00
  0.00000000E+00  0.00000000E+00  0.00000000E+00
  0.00000000E+00  0.00000000E+00  0.00000000E+00
  0.00000000E+00  0.00000000E+00  0.00000000E+00
  0.00000000E+00  0.00000000E+00  0.00000000E+00
  0.00000000E+00  0.00000000E+00  0.00000000E+00
  0.00000000E+00  0.00000000E+00  0.00000000E+00
  0.00000000E+00  0.00000000E+00  0.00000000E+00
  0.00000000E+00  0.00000000E+00  0.00000000E+00
  0.00000000E+00  0.00000000E+00  0.00000000E+00
  0.00000000E+00  0.00000000E+00  0.00000000E+00
  0.00000000E+00  0.00000000E+00  0.00000000E+00
  0.00000000E+00  0.00000000E+00  0.00000000E+00
  0.00000000E+00  0.00000000E+00  0.00000000E+00
  0.00000000E+00  0.00000000E+00  0.00000000E+00
  0.00000000E+00  0.00000000E+00  0.00000000E+00
  0.00000000E+00  0.00000000E+00  0.00000000E+00
  0.00000000E+00  0.00000000E+00  0.00000000E+00
  0.00000000E+00  0.00000000E+00  0.00000000E+00
  0.00000000E+00  0.00000000E+00  0.00000000E+00
  0.00000000E+00  0.00000000E+00  0.00000000E+00
  0.00000000E+00  0.00000000E+00  0.00000000E+00
  0.00000000E+00  0.00000000E+00  0.00000000E+00
  0.00000000E+00  0.00000000E+00  0.00000000E+00
  0.00000000E+00  0.00000000E+00  0.00000000E+00
  0.00000000E+00  0.00000000E+00  0.00000000E+00
  0.00000000E+00  0.00000000E+00  0.00000000E+00
  0.00000000E+00  0.00000000E+00  0.00000000E+00
  0.00000000E+00  0.00000000E+00  0.00000000E+00
  0.00000000E+00  0.00000000E+00  0.00000000E+00
  0.00000000E+00  0.00000000E+00  0.00000000E+00
  0.00000000E+00  0.00000000E+00  0.00000000E+00
  0.00000000E+00  0.00000000E+00  0.00000000E+00
  0.00000000E+00  0.00000000E+00  0.00000000E+00
  0.00000000E+00  0.00000000E+00  0.00000000E+00
  0.00000000E+00  0.00000000E+00  0.00000000E+00
  0.00000000E+00  0.00000000E+00  0.00000000E+00
  0.00000000E+00  0.00000000E+00  0.00000000E+00
  0.00000000E+00  0.00000000E+00  0.00000000E+00
  0.00000000E+00  0.00000000E+00  0.00000000E+00
  0.00000000E+00  0.00000000E+00  0.00000000E+00
  0.00000000E+00  0.00000000E+00  0.00000000E+00
  0.00000000E+00  0.00000000E+00  0.00000000E+00
  0.00000000E+00  0.00000000E+00  0.00000000E+00
  0.00000000E+00  0.00000000E+00  0.00000000E+00
  0.00000000E+00  0.00000000E+00  0.00000000E+00
  0.00000000E+00  0.00000000E+00  0.00000000E+00
  0.00000000E+00  0.00000000E+00  0.00000000E+00
  0.00000000E+00  0.00000000E+00  0.00000000E+00
  0.00000000E+00  0.00000000E+00  0.00000000E+00
  0.00000000E+00  0.00000000E+00  0.00000000E+00
  0.00000000E+00  0.00000000E+00  0.00000000E+00
  0.00000000E+00  0.00000000E+00  0.00000000E+00
  0.00000000E+00  0.00000000E+00  0.00000000E+00
  0.00000000E+00  0.00000000E+00  0.00000000E+00
  0.00000000E+00  0.00000000E+00  0.00000000E+00
  0.00000000E+00  0.00000000E+00  0.00000000E+00
  0.00000000E+00  0.00000000E+00  0.00000000E+00
  0.00000000E+00  0.00000000E+00  0.00000000E+00
  0.00000000E+00  0.00000000E+00  0.00000000E+00
  0.00000000E+00  0.00000000E+00  0.00000000E+00
  0.00000000E+00  0.00000000E+00  0.00000000E+00
  0.00000000E+00  0.00000000E+00  0.00000000E+00
  0.00000000E+00  0.00000000E+00  0.00000000E+00
  0.00000000E+00  0.00000000E+00  0.00000000E+00
  0.00000000E+00  0.00000000E+00  0.00000000E+00
  0.00000000E+00  0.00000000E+00  0.00000000E+00
  0.00000000E+00  0.00000000E+00  0.00000000E+00
  0.00000000E+00  0.00000000E+00  0.00000000E+00
  0.00000000E+00  0.00000000E+00  0.00000000E+00
  0.00000000E+00  0.00000000E+00  0.00000000E+00
  0.00000000E+00  0.00000000E+00  0.00000000E+00
  0.00000000E+00  0.00000000E+00  0.00000000E+00
  0.00000000E+00  0.00000000E+00  0.00000000E+00
  0.00000000E+00  0.00000000E+00  0.00000000E+00
  0.00000000E+00  0.00000000E+00  0.00000000E+00
  0.00000000E+00  0.00000000E+00  0.00000000E+00
  0.00000000E+00  0.00000000E+00  0.00000000E+00
  0.00000000E+00  0.00000000E+00  0.00000000E+00
  0.00000000E+00  0.00000000E+00  0.00000000E+00
  0.00000000E+00  0.00000000E+00  0.00000000E+00
  0.00000000E+00  0.00000000E+00  0.00000000E+00
  0.00000000E+00  0.00000000E+00  0.00000000E+00
  0.00000000E+00  0.00000000E+00  0.00000000E+00
  0.00000000E+00  0.00000000E+00  0.00000000E+00
  0.00000000E+00  0.00000000E+00  0.00000000E+00
  0.00000000E+00  0.00000000E+00  0.00000000E+00
  0.00000000E+00  0.00000000E+00  0.00000000E+00
  0.00000000E+00  0.00000000E+00  0.00000000E+00
  0.00000000E+00  0.00000000E+00  0.00000000E+00
  0.00000000E+00  0.00000000E+00  0.00000000E+00
  0.00000000E+00  0.00000000E+00  0.00000000E+00
  0.00000000E+00  0.00000000E+00  0.00000000E+00
  0.00000000E+00  0.00000000E+00  0.00000000E+00
  0.00000000E+00  0.00000000E+00  0.00000000E+00
  0.00000000E+00  0.00000000E+00  0.00000000E+00
  0.00000000E+00  0.00000000E+00  0.00000000E+00
  0.00000000E+00  0.00000000E+00  0.00000000E+00
  0.00000000E+00  0.00000000E+00  0.00000000E+00
  0.00000000E+00  0.00000000E+00  0.00000000E+00
  0.00000000E+00  0.00000000E+00  0.00000000E+00
  0.00000000E+00  0.00000000E+00  0.00000000E+00
  0.00000000E+00  0.00000000E+00  0.00000000E+00
  0.00000000E+00  0.00000000E+00  0.00000000E+00
  0.00000000E+00  0.00000000E+00  0.00000000E+00
  0.00000000E+00  0.00000000E+00  0.00000000E+00
  0.00000000E+00  0.00000000E+00  0.00000000E+00
  0.00000000E+00  0.00000000E+00  0.00000000E+00
  0.00000000E+00  0.00000000E+00  0.00000000E+00
  0.00000000E+00  0.00000000E+00  0.00000000E+00
  0.00000000E+00  0.00000000E+00  0.00000000E+00
  0.00000000E+00  0.00000000E+00  0.00000000E+00
  0.00000000E+00  0.00000000E+00  0.00000000E+00
  0.00000000E+00  0.00000000E+00  0.00000000E+00
  0.00000000E+00  0.00000000E+00  0.00000000E+00
  0.00000000E+00  0.00000000E+00  0.00000000E+00
  0.00000000E+00  0.00000000E+00  0.00000000E+00
  0.00000000E+00  0.00000000E+00  0.00000000E+00
