Mo1 H1 C126                             
   1.00000000000000     
    19.8086632581149082   -0.0002259169042082   -0.0385450721109905
    -9.9045765058407973   17.0708067304196867   -0.0882052018754813
    -0.0578415144381449   -0.1871572829521740   29.7587424606954372
   Mo   H    C 
     1     1   126
Direct
  0.4398683248001583  0.5013142675881082  0.4320375516453536
  0.4444728116132691  0.5037361243591283  0.4902400999042843
  0.0419467882181765  0.0839873393013723  0.3996470471308287
  0.0409934022586016  0.2081024982371543  0.3994605327772789
  0.0405399706540546  0.3328395091235212  0.3994649266488485
  0.0406304988775504  0.4583626249032530  0.3994051481027635
  0.0413949152563265  0.5838104372201968  0.3996554016552464
  0.0420759522343253  0.7091085506580805  0.3999320354466978
  0.0423986508546561  0.8344544824607441  0.4000018061604826
  0.0424007524814312  0.9594240301038942  0.3998435129735577
  0.1675318968236524  0.0850106828607347  0.3998510384969874
  0.1670891372152631  0.2096185633024333  0.3999685306414987
  0.1654036687771789  0.3332899746866784  0.4004428393851086
  0.1642992232061745  0.4583329488344601  0.4002331596847025
  0.1653030249533560  0.5836457650525901  0.3994929350960397
  0.1665246039068230  0.7091250614561724  0.3996484517425314
  0.1670769936179685  0.8344437958022901  0.3999938155120145
  0.1674310794373509  0.9597931687269528  0.3999608897842162
  0.2925259606876772  0.0850045256289569  0.3997938350356138
  0.2931035364884839  0.2111931627755288  0.4005808298433336
  0.2927366436414038  0.3366249216438764  0.4026002630394480
  0.2874791869990923  0.4577781640314523  0.4035173805737890
  0.2889827063578023  0.5839481862930220  0.4009156111772281
  0.2909019193154354  0.7089349311148543  0.3995167823399972
  0.2916467261896846  0.8340251598919761  0.3996437735211467
  0.2920923457248211  0.9594049698745262  0.3998453164089549
  0.4170912333062109  0.0839142585178734  0.3996343368771129
  0.4175236397232710  0.2095082432393741  0.3997462337472720
  0.4188127947444509  0.3363286509790032  0.4017397098609619
  0.4115891058759178  0.5811323605490396  0.4050407156587328
  0.4154568787595080  0.7070423412745422  0.3999134914781098
  0.4162382038539030  0.8328962476622161  0.3995314124731983
  0.4166717901330963  0.9583854487607817  0.3997643583781689
  0.5416580358631990  0.0827630079721305  0.3997715862053681
  0.5421260067648491  0.2080333665518135  0.3995248180035296
  0.5429364014397218  0.3332287343529136  0.4001534140166756
  0.5452946140904901  0.4576926578206361  0.4022794063290311
  0.5448299672135013  0.5813712821338082  0.4034803818859523
  0.5404059488999721  0.7057974178627457  0.4007386013726755
  0.5407427323696313  0.8316895229514852  0.3997390200524112
  0.5413084868984857  0.9573430696774217  0.3998576202320443
  0.6662845184348521  0.0822861958330920  0.4000076838404129
  0.6666877446136823  0.2076075836523039  0.3997500872847350
  0.6673118908333936  0.3327943957384260  0.3996722689530078
  0.6690931685948891  0.4582952977900256  0.4003216572391972
  0.6700620206045446  0.5839340702247536  0.4005303990437560
  0.6667231044571706  0.7071593551107704  0.3994423858485731
  0.6659686967699118  0.8317154186063634  0.3996059742310693
  0.6660310050011256  0.9570072220234123  0.3999642879569283
  0.7910888648058733  0.0822990018053125  0.4000390482483521
  0.7912552861259745  0.2074736744395825  0.4000898539931359
  0.7917883262414337  0.3328641161512568  0.3998026641716522
  0.7927510580651940  0.4583439692953907  0.3996651277014145
  0.7933785880127560  0.5836333779864314  0.3997790537098547
  0.7930729854915803  0.7089409754010633  0.3996106034771780
  0.7917512397291492  0.8329698173697848  0.3995763304800387
  0.7911092333551355  0.9573797262928583  0.3998902451783605
  0.9162277744335731  0.0828266311580457  0.3997500670745363
  0.9159791046382540  0.2076479415840325  0.3997026429861089
  0.9161158150048667  0.3328934782305073  0.3997581176967998
  0.9166283045870095  0.4582419716627979  0.3997266361157046
  0.9174377522749861  0.5838136872401680  0.3997300594589819
  0.9176311077109167  0.7091362124290549  0.3997509309397220
  0.9174243511510081  0.8340539446701923  0.3997843641184373
  0.9168376430646360  0.9584596038086804  0.3998520684856393
  0.0840805729717075  0.0428803180613630  0.3997398397799822
  0.0834808374678552  0.1673440763564671  0.3995782356247451
  0.0821202084064436  0.2913120405435474  0.3996163360949291
  0.0817841451592575  0.4165824519716060  0.3994980844609206
  0.0823669025423367  0.5418735500923166  0.3994330956559892
  0.0833498906512718  0.6673741898863202  0.3997906742870949
  0.0838939236238820  0.7927725522041090  0.4000333271493507
  0.0840869238390459  0.9179365562420676  0.3999712967339322
  0.2091476753900033  0.0432243410600890  0.3998711435788121
  0.2091899343307728  0.1685536534511407  0.4001413372949754
  0.2085866424829580  0.2932338775604914  0.4006854801187817
  0.2052121957918769  0.4163624405284962  0.4012647012067699
  0.2060850124143138  0.5419233122644972  0.4001669502117655
  0.2077978442649938  0.6673899984394605  0.3994954572679880
  0.2084511627005451  0.7925847883708056  0.3997613328482332
  0.2089063947725917  0.9179281883647217  0.3999883488086989
  0.3338516744796347  0.0428675358715865  0.3997312735834009
  0.3343735407731100  0.1685382084435203  0.3999707936760463
  0.3347699908673833  0.2945179854793353  0.4019465269322401
  0.3307295060691017  0.4194343414680302  0.4059016344094795
  0.3299234081768678  0.5426661512172887  0.4031684169322038
  0.3322260488516331  0.6669855152800848  0.3999924483393410
  0.3329950377776610  0.7921355380673371  0.3994915363520890
  0.3335190707736354  0.9174092369682446  0.3997528060300072
  0.4584995618151946  0.0417912867485111  0.3997454549644283
  0.4588897488482467  0.1672572360610431  0.3995389471167768
  0.4596575079328658  0.2930844214934480  0.4001683242704445
  0.4636815981897189  0.4190803055923278  0.4043078766211135
  0.4562940877850183  0.6637502519618537  0.4014485023084534
  0.4575795960399644  0.7906351098278063  0.3995316078759136
  0.4580667115171477  0.9162499187572835  0.3997287262359234
  0.5831152910753833  0.0407969381402220  0.3999030252443549
  0.5834967077317482  0.1661615360716450  0.3996328676644531
  0.5842140069077968  0.2912456785527933  0.3996645256124302
  0.5862336115827490  0.4162997547959509  0.4008653651205615
  0.5877630764865980  0.5426291197261045  0.4019323743752970
  0.5826487451834007  0.6639834729593899  0.4006365507520092
  0.5820392553473064  0.7890694581771845  0.3998299387053902
  0.5826236357898681  0.9152153517036181  0.3998667276074040
  0.7077568688776638  0.0404312640476678  0.4000465298761932
  0.7080808744509534  0.1657735064054664  0.4000015888093025
  0.7086116993705533  0.2910707873996474  0.3996816753717778
  0.7098386231490973  0.4165422999977838  0.3997913060603356
  0.7109157181347265  0.5419081082034867  0.4002510329344641
  0.7098297515515087  0.6669860360174011  0.3997251341284191
  0.7081472112056084  0.7907315154145568  0.3993743996149994
  0.7076468670433327  0.9152393363515277  0.3998309431220251
  0.8328040599259040  0.0408368884944089  0.3999309567694380
  0.8327504211570388  0.1657945489627642  0.4000111875682531
  0.8331000702274444  0.2911600286155657  0.3999619065036947
  0.8337453814806634  0.4164257149261897  0.3997196491665579
  0.8345395192797218  0.5418606815895359  0.3996773458763822
  0.8346287922364921  0.6673927019989448  0.3997054131887214
  0.8341972158138460  0.7921675740315693  0.3996147725172813
  0.8333091048709942  0.9163272883088182  0.3998118772591157
  0.9584292631170062  0.0418641350525695  0.3997547422734263
  0.9577534007005601  0.1662229574848476  0.3995508816892268
  0.9575191825853303  0.2911168313073834  0.3995646788188757
  0.9577143348140217  0.4164479209096109  0.3996227408779654
  0.9585245826136755  0.5420262781011060  0.3997362671826302
  0.9590629624187698  0.6673862994213547  0.3998091450771629
  0.9591718017382815  0.7926008449870801  0.3998392115660618
  0.9589884618960618  0.9174476384665409  0.3998425423621201
 
  0.00000000E+00  0.00000000E+00  0.00000000E+00
  0.00000000E+00  0.00000000E+00  0.00000000E+00
  0.00000000E+00  0.00000000E+00  0.00000000E+00
  0.00000000E+00  0.00000000E+00  0.00000000E+00
  0.00000000E+00  0.00000000E+00  0.00000000E+00
  0.00000000E+00  0.00000000E+00  0.00000000E+00
  0.00000000E+00  0.00000000E+00  0.00000000E+00
  0.00000000E+00  0.00000000E+00  0.00000000E+00
  0.00000000E+00  0.00000000E+00  0.00000000E+00
  0.00000000E+00  0.00000000E+00  0.00000000E+00
  0.00000000E+00  0.00000000E+00  0.00000000E+00
  0.00000000E+00  0.00000000E+00  0.00000000E+00
  0.00000000E+00  0.00000000E+00  0.00000000E+00
  0.00000000E+00  0.00000000E+00  0.00000000E+00
  0.00000000E+00  0.00000000E+00  0.00000000E+00
  0.00000000E+00  0.00000000E+00  0.00000000E+00
  0.00000000E+00  0.00000000E+00  0.00000000E+00
  0.00000000E+00  0.00000000E+00  0.00000000E+00
  0.00000000E+00  0.00000000E+00  0.00000000E+00
  0.00000000E+00  0.00000000E+00  0.00000000E+00
  0.00000000E+00  0.00000000E+00  0.00000000E+00
  0.00000000E+00  0.00000000E+00  0.00000000E+00
  0.00000000E+00  0.00000000E+00  0.00000000E+00
  0.00000000E+00  0.00000000E+00  0.00000000E+00
  0.00000000E+00  0.00000000E+00  0.00000000E+00
  0.00000000E+00  0.00000000E+00  0.00000000E+00
  0.00000000E+00  0.00000000E+00  0.00000000E+00
  0.00000000E+00  0.00000000E+00  0.00000000E+00
  0.00000000E+00  0.00000000E+00  0.00000000E+00
  0.00000000E+00  0.00000000E+00  0.00000000E+00
  0.00000000E+00  0.00000000E+00  0.00000000E+00
  0.00000000E+00  0.00000000E+00  0.00000000E+00
  0.00000000E+00  0.00000000E+00  0.00000000E+00
  0.00000000E+00  0.00000000E+00  0.00000000E+00
  0.00000000E+00  0.00000000E+00  0.00000000E+00
  0.00000000E+00  0.00000000E+00  0.00000000E+00
  0.00000000E+00  0.00000000E+00  0.00000000E+00
  0.00000000E+00  0.00000000E+00  0.00000000E+00
  0.00000000E+00  0.00000000E+00  0.00000000E+00
  0.00000000E+00  0.00000000E+00  0.00000000E+00
  0.00000000E+00  0.00000000E+00  0.00000000E+00
  0.00000000E+00  0.00000000E+00  0.00000000E+00
  0.00000000E+00  0.00000000E+00  0.00000000E+00
  0.00000000E+00  0.00000000E+00  0.00000000E+00
  0.00000000E+00  0.00000000E+00  0.00000000E+00
  0.00000000E+00  0.00000000E+00  0.00000000E+00
  0.00000000E+00  0.00000000E+00  0.00000000E+00
  0.00000000E+00  0.00000000E+00  0.00000000E+00
  0.00000000E+00  0.00000000E+00  0.00000000E+00
  0.00000000E+00  0.00000000E+00  0.00000000E+00
  0.00000000E+00  0.00000000E+00  0.00000000E+00
  0.00000000E+00  0.00000000E+00  0.00000000E+00
  0.00000000E+00  0.00000000E+00  0.00000000E+00
  0.00000000E+00  0.00000000E+00  0.00000000E+00
  0.00000000E+00  0.00000000E+00  0.00000000E+00
  0.00000000E+00  0.00000000E+00  0.00000000E+00
  0.00000000E+00  0.00000000E+00  0.00000000E+00
  0.00000000E+00  0.00000000E+00  0.00000000E+00
  0.00000000E+00  0.00000000E+00  0.00000000E+00
  0.00000000E+00  0.00000000E+00  0.00000000E+00
  0.00000000E+00  0.00000000E+00  0.00000000E+00
  0.00000000E+00  0.00000000E+00  0.00000000E+00
  0.00000000E+00  0.00000000E+00  0.00000000E+00
  0.00000000E+00  0.00000000E+00  0.00000000E+00
  0.00000000E+00  0.00000000E+00  0.00000000E+00
  0.00000000E+00  0.00000000E+00  0.00000000E+00
  0.00000000E+00  0.00000000E+00  0.00000000E+00
  0.00000000E+00  0.00000000E+00  0.00000000E+00
  0.00000000E+00  0.00000000E+00  0.00000000E+00
  0.00000000E+00  0.00000000E+00  0.00000000E+00
  0.00000000E+00  0.00000000E+00  0.00000000E+00
  0.00000000E+00  0.00000000E+00  0.00000000E+00
  0.00000000E+00  0.00000000E+00  0.00000000E+00
  0.00000000E+00  0.00000000E+00  0.00000000E+00
  0.00000000E+00  0.00000000E+00  0.00000000E+00
  0.00000000E+00  0.00000000E+00  0.00000000E+00
  0.00000000E+00  0.00000000E+00  0.00000000E+00
  0.00000000E+00  0.00000000E+00  0.00000000E+00
  0.00000000E+00  0.00000000E+00  0.00000000E+00
  0.00000000E+00  0.00000000E+00  0.00000000E+00
  0.00000000E+00  0.00000000E+00  0.00000000E+00
  0.00000000E+00  0.00000000E+00  0.00000000E+00
  0.00000000E+00  0.00000000E+00  0.00000000E+00
  0.00000000E+00  0.00000000E+00  0.00000000E+00
  0.00000000E+00  0.00000000E+00  0.00000000E+00
  0.00000000E+00  0.00000000E+00  0.00000000E+00
  0.00000000E+00  0.00000000E+00  0.00000000E+00
  0.00000000E+00  0.00000000E+00  0.00000000E+00
  0.00000000E+00  0.00000000E+00  0.00000000E+00
  0.00000000E+00  0.00000000E+00  0.00000000E+00
  0.00000000E+00  0.00000000E+00  0.00000000E+00
  0.00000000E+00  0.00000000E+00  0.00000000E+00
  0.00000000E+00  0.00000000E+00  0.00000000E+00
  0.00000000E+00  0.00000000E+00  0.00000000E+00
  0.00000000E+00  0.00000000E+00  0.00000000E+00
  0.00000000E+00  0.00000000E+00  0.00000000E+00
  0.00000000E+00  0.00000000E+00  0.00000000E+00
  0.00000000E+00  0.00000000E+00  0.00000000E+00
  0.00000000E+00  0.00000000E+00  0.00000000E+00
  0.00000000E+00  0.00000000E+00  0.00000000E+00
  0.00000000E+00  0.00000000E+00  0.00000000E+00
  0.00000000E+00  0.00000000E+00  0.00000000E+00
  0.00000000E+00  0.00000000E+00  0.00000000E+00
  0.00000000E+00  0.00000000E+00  0.00000000E+00
  0.00000000E+00  0.00000000E+00  0.00000000E+00
  0.00000000E+00  0.00000000E+00  0.00000000E+00
  0.00000000E+00  0.00000000E+00  0.00000000E+00
  0.00000000E+00  0.00000000E+00  0.00000000E+00
  0.00000000E+00  0.00000000E+00  0.00000000E+00
  0.00000000E+00  0.00000000E+00  0.00000000E+00
  0.00000000E+00  0.00000000E+00  0.00000000E+00
  0.00000000E+00  0.00000000E+00  0.00000000E+00
  0.00000000E+00  0.00000000E+00  0.00000000E+00
  0.00000000E+00  0.00000000E+00  0.00000000E+00
  0.00000000E+00  0.00000000E+00  0.00000000E+00
  0.00000000E+00  0.00000000E+00  0.00000000E+00
  0.00000000E+00  0.00000000E+00  0.00000000E+00
  0.00000000E+00  0.00000000E+00  0.00000000E+00
  0.00000000E+00  0.00000000E+00  0.00000000E+00
  0.00000000E+00  0.00000000E+00  0.00000000E+00
  0.00000000E+00  0.00000000E+00  0.00000000E+00
  0.00000000E+00  0.00000000E+00  0.00000000E+00
  0.00000000E+00  0.00000000E+00  0.00000000E+00
  0.00000000E+00  0.00000000E+00  0.00000000E+00
  0.00000000E+00  0.00000000E+00  0.00000000E+00
  0.00000000E+00  0.00000000E+00  0.00000000E+00
  0.00000000E+00  0.00000000E+00  0.00000000E+00
  0.00000000E+00  0.00000000E+00  0.00000000E+00
