H1 Os1 C123 N3 O1                       
   1.00000000000000     
    19.8156806860543071    0.0341269281134013    0.3761037279267580
    -9.8775080008324494   17.0003315242539799   -0.3654694578325189
     0.5660005089961483   -0.3117893745706063   29.8541871733880022
   H    Os   C    N    O 
     1     1   123     3     1
Direct
  0.5040118898055346  0.5253648510775325  0.4978431617606045
  0.4355617478158713  0.5010454801015678  0.4264138619033288
  0.0415128664958504  0.0841981226508436  0.3996235086803208
  0.0398648318664016  0.2078454596784965  0.3997449860399961
  0.0390324227982965  0.3325362995592395  0.3989539955651484
  0.0397595930189993  0.4579821699281235  0.3983590786660820
  0.0413948538343098  0.5838274655556409  0.3989770431419892
  0.0426812102420536  0.7095761751521160  0.3995633935407748
  0.0429755210855127  0.8349570066636696  0.3995808212797234
  0.0426348987286577  0.9599848057356637  0.3994915832530970
  0.1676539902266839  0.0859600315249415  0.4002607427419924
  0.1665299375166776  0.2103243035421869  0.4007449534951571
  0.1632596807503247  0.3330176030177449  0.4007328964961566
  0.1629543503903824  0.4577334652737260  0.3974124317212115
  0.1649022355705329  0.5832827248412139  0.3975023976572606
  0.1666811812969675  0.7089586944488192  0.3988979211139004
  0.1674734851331252  0.8346966994952392  0.3996796303173807
  0.1677227240547402  0.9604510007123016  0.3998385517689842
  0.2925585328380924  0.0864138725536814  0.4002738205930387
  0.2928817738268978  0.2134413900538604  0.4020318319325674
  0.2902095655143995  0.3382327961316999  0.4062619609618608
  0.2848167280987543  0.4570598542337201  0.4026981540099881
  0.2879594826433765  0.5819285774041615  0.3970099749372436
  0.2908600063053576  0.7077225766027085  0.3976428238067178
  0.2918806814334992  0.8338115655942762  0.3992406751592834
  0.2922783047594735  0.9599701756641915  0.3998590227272161
  0.4169011278988538  0.0848949538979918  0.3999279905248114
  0.4173905254396075  0.2117708579150264  0.4003145035900158
  0.4187372215143837  0.3401299485228965  0.4024060880888454
  0.4148351817647850  0.7042117093128498  0.3984946205726651
  0.4160385374786471  0.8315069281757651  0.3991520294563960
  0.4165448949402574  0.9582513751942345  0.3997229718449560
  0.5410848593890848  0.0828590824929778  0.3996561319884293
  0.5416631960964557  0.2090781027365374  0.3992675406966127
  0.5429558527937164  0.3352821773729007  0.3992823938830086
  0.5478762246465985  0.4617767650301368  0.4028136755938902
  0.5380981060599479  0.7008261759786908  0.4034241641554914
  0.5400593819272617  0.8294120096646421  0.4001419035292881
  0.5407152674333175  0.9563918648428369  0.3997324670889437
  0.6653917788657310  0.0818835000232045  0.3997663919681366
  0.6659528753521419  0.2077377596393336  0.3992734406673604
  0.6670851249060046  0.3335597409572515  0.3988073338059663
  0.6699099086696517  0.4594845657736357  0.3994260446445779
  0.6721535053991339  0.5853371913689730  0.4020642711555629
  0.6672168518709480  0.7066729214293636  0.4024974552538843
  0.6644898639168619  0.8299737018238975  0.4009344266451021
  0.6649905683396452  0.9559481966168691  0.4000815343631562
  0.7899498470482518  0.0817276865523601  0.3999444440238772
  0.7901873674035593  0.2072225620709001  0.3997329476569293
  0.7911299903120100  0.3329217341306783  0.3992110911348277
  0.7929449883941310  0.4587074666401086  0.3988045156036603
  0.7946569415788547  0.5845026462397317  0.3989775406039144
  0.7942871159647683  0.7096195219471173  0.4000358338554061
  0.7915207005729681  0.8326562820337311  0.3997614268876056
  0.7900625027551534  0.9565356952394508  0.3998270474347372
  0.9152196184716680  0.0823939740862900  0.3997154507874672
  0.9146933583981971  0.2071723708172991  0.3997170788538271
  0.9150320131401299  0.3325874269149175  0.3993232690853979
  0.9163427189211281  0.4583688343292561  0.3991779459607836
  0.9179627654358858  0.5841945166387587  0.3991105002313737
  0.9185608360662840  0.7096814140924299  0.3992352048847113
  0.9179966237099676  0.8345528384744355  0.3993104368869680
  0.9165018371347445  0.9584274322559246  0.3994272278142868
  0.0842076457545194  0.0435698413682211  0.3997097257634200
  0.0829478222957954  0.1676920981481551  0.3998710274122975
  0.0808145209287670  0.2911238031264023  0.3996895593678824
  0.0804174099172516  0.4158494468158949  0.3980195913014706
  0.0820363349521246  0.5416272148778404  0.3982327952909093
  0.0836631151413193  0.6674537707253680  0.3992442274133435
  0.0844539641887308  0.7931575328351201  0.3997073331044578
  0.0845527498683999  0.9185693199644079  0.3996229024944415
  0.2093416933346866  0.0442507642444867  0.4001706680248293
  0.2093367919651783  0.1699220991190496  0.4011301941896110
  0.2073268103540731  0.2939583378302709  0.4020678134339808
  0.2036237676288933  0.4159501310532113  0.3994454702921999
  0.2051247813970073  0.5408133644012271  0.3970197143721599
  0.2075592881090963  0.6667073324217672  0.3979123948297036
  0.2087323169711306  0.7925948531108354  0.3992950475666251
  0.2092518990227277  0.9184861215679583  0.3997965616397406
  0.3338265275130856  0.0438794550954981  0.4000184417951875
  0.3341740059012678  0.1706451578988236  0.4008034999983318
  0.3346662566161936  0.2983613643489548  0.4043276551799667
  0.3275553869812867  0.5397534437120219  0.3989442745290782
  0.3314886414510678  0.6652107841645922  0.3971153779284732
  0.3330192582571709  0.7913270178011045  0.3986651671223356
  0.3335572598483161  0.9175060203087028  0.3996730146181896
  0.4581068850930169  0.0421138282777354  0.3997984578854370
  0.4585132552485574  0.1687716475123121  0.3998196797014739
  0.4593058850834413  0.2960021629851877  0.4002683190272427
  0.4650590622779778  0.4249626309131748  0.4042275569064697
  0.4541845070442652  0.6595317490297922  0.4001737768735787
  0.4570933832232156  0.7884463497349354  0.3993055299060075
  0.4576671452120605  0.9154303662705074  0.3996005676732269
  0.5823071829613531  0.0403373297292159  0.3997194058085890
  0.5827975391275643  0.1665906165423732  0.3993523835564491
  0.5837596085475470  0.2926718886152587  0.3988724826105631
  0.5870971965783501  0.4186918187653326  0.4000617276996034
  0.5909750725440320  0.5447489285995756  0.4063185507225753
  0.5837876003117140  0.6621079188417019  0.4066497714268791
  0.5805625257543083  0.7860988216851531  0.4015013079266096
  0.5818761692374681  0.9137740864286883  0.3999299903104276
  0.7067301364870583  0.0397714688040373  0.3999417843032654
  0.7071797072682728  0.1656410419360830  0.3995995394282382
  0.7079799805607297  0.2913810363234592  0.3990508589494169
  0.7100819840195736  0.4170425029866719  0.3988105102567309
  0.7122694333884756  0.5426969493249648  0.3996348507233433
  0.7117650455007447  0.6679548941380519  0.4018111835850022
  0.7078376515331161  0.7900548847537985  0.4006947546675834
  0.7064282682380469  0.9139695283350349  0.4001998246202904
  0.8318096716196468  0.0402274070720113  0.3998370623415312
  0.8316600619923042  0.1653901957307218  0.3998809245426005
  0.8320673878790229  0.2908050130729286  0.3995026551357665
  0.8335198892074512  0.4165586121697993  0.3990636375980249
  0.8352736999644219  0.5423378495519853  0.3988147931811371
  0.8358453392751101  0.6679338511051170  0.3993066741814750
  0.8348628241891406  0.7926511919850777  0.3995695387747419
  0.8329213269373352  0.9160793627101337  0.3995709914402472
  0.9579625580894618  0.0418407329836462  0.3995495188882645
  0.9566586841529487  0.1658010782789213  0.3996886634640005
  0.9562700557796137  0.2907121688367844  0.3993485670558550
  0.9569794491467951  0.4161962500966965  0.3990504555321863
  0.9585969813994049  0.5420012881808418  0.3991879130303362
  0.9597903918044758  0.6677929533390842  0.3992969528379851
  0.9599541255418099  0.7931960717623249  0.3993776886419512
  0.9593010636629763  0.9179229022491319  0.3993458384334764
  0.4085826768735089  0.5767593203102963  0.3996439844512132
  0.5488225791116513  0.5825600685445538  0.4135121072633500
  0.3260766188151621  0.4195893806685833  0.4125392681750105
  0.4492005648572672  0.5011184774476216  0.4895289282992696
 
  0.00000000E+00  0.00000000E+00  0.00000000E+00
  0.00000000E+00  0.00000000E+00  0.00000000E+00
  0.00000000E+00  0.00000000E+00  0.00000000E+00
  0.00000000E+00  0.00000000E+00  0.00000000E+00
  0.00000000E+00  0.00000000E+00  0.00000000E+00
  0.00000000E+00  0.00000000E+00  0.00000000E+00
  0.00000000E+00  0.00000000E+00  0.00000000E+00
  0.00000000E+00  0.00000000E+00  0.00000000E+00
  0.00000000E+00  0.00000000E+00  0.00000000E+00
  0.00000000E+00  0.00000000E+00  0.00000000E+00
  0.00000000E+00  0.00000000E+00  0.00000000E+00
  0.00000000E+00  0.00000000E+00  0.00000000E+00
  0.00000000E+00  0.00000000E+00  0.00000000E+00
  0.00000000E+00  0.00000000E+00  0.00000000E+00
  0.00000000E+00  0.00000000E+00  0.00000000E+00
  0.00000000E+00  0.00000000E+00  0.00000000E+00
  0.00000000E+00  0.00000000E+00  0.00000000E+00
  0.00000000E+00  0.00000000E+00  0.00000000E+00
  0.00000000E+00  0.00000000E+00  0.00000000E+00
  0.00000000E+00  0.00000000E+00  0.00000000E+00
  0.00000000E+00  0.00000000E+00  0.00000000E+00
  0.00000000E+00  0.00000000E+00  0.00000000E+00
  0.00000000E+00  0.00000000E+00  0.00000000E+00
  0.00000000E+00  0.00000000E+00  0.00000000E+00
  0.00000000E+00  0.00000000E+00  0.00000000E+00
  0.00000000E+00  0.00000000E+00  0.00000000E+00
  0.00000000E+00  0.00000000E+00  0.00000000E+00
  0.00000000E+00  0.00000000E+00  0.00000000E+00
  0.00000000E+00  0.00000000E+00  0.00000000E+00
  0.00000000E+00  0.00000000E+00  0.00000000E+00
  0.00000000E+00  0.00000000E+00  0.00000000E+00
  0.00000000E+00  0.00000000E+00  0.00000000E+00
  0.00000000E+00  0.00000000E+00  0.00000000E+00
  0.00000000E+00  0.00000000E+00  0.00000000E+00
  0.00000000E+00  0.00000000E+00  0.00000000E+00
  0.00000000E+00  0.00000000E+00  0.00000000E+00
  0.00000000E+00  0.00000000E+00  0.00000000E+00
  0.00000000E+00  0.00000000E+00  0.00000000E+00
  0.00000000E+00  0.00000000E+00  0.00000000E+00
  0.00000000E+00  0.00000000E+00  0.00000000E+00
  0.00000000E+00  0.00000000E+00  0.00000000E+00
  0.00000000E+00  0.00000000E+00  0.00000000E+00
  0.00000000E+00  0.00000000E+00  0.00000000E+00
  0.00000000E+00  0.00000000E+00  0.00000000E+00
  0.00000000E+00  0.00000000E+00  0.00000000E+00
  0.00000000E+00  0.00000000E+00  0.00000000E+00
  0.00000000E+00  0.00000000E+00  0.00000000E+00
  0.00000000E+00  0.00000000E+00  0.00000000E+00
  0.00000000E+00  0.00000000E+00  0.00000000E+00
  0.00000000E+00  0.00000000E+00  0.00000000E+00
  0.00000000E+00  0.00000000E+00  0.00000000E+00
  0.00000000E+00  0.00000000E+00  0.00000000E+00
  0.00000000E+00  0.00000000E+00  0.00000000E+00
  0.00000000E+00  0.00000000E+00  0.00000000E+00
  0.00000000E+00  0.00000000E+00  0.00000000E+00
  0.00000000E+00  0.00000000E+00  0.00000000E+00
  0.00000000E+00  0.00000000E+00  0.00000000E+00
  0.00000000E+00  0.00000000E+00  0.00000000E+00
  0.00000000E+00  0.00000000E+00  0.00000000E+00
  0.00000000E+00  0.00000000E+00  0.00000000E+00
  0.00000000E+00  0.00000000E+00  0.00000000E+00
  0.00000000E+00  0.00000000E+00  0.00000000E+00
  0.00000000E+00  0.00000000E+00  0.00000000E+00
  0.00000000E+00  0.00000000E+00  0.00000000E+00
  0.00000000E+00  0.00000000E+00  0.00000000E+00
  0.00000000E+00  0.00000000E+00  0.00000000E+00
  0.00000000E+00  0.00000000E+00  0.00000000E+00
  0.00000000E+00  0.00000000E+00  0.00000000E+00
  0.00000000E+00  0.00000000E+00  0.00000000E+00
  0.00000000E+00  0.00000000E+00  0.00000000E+00
  0.00000000E+00  0.00000000E+00  0.00000000E+00
  0.00000000E+00  0.00000000E+00  0.00000000E+00
  0.00000000E+00  0.00000000E+00  0.00000000E+00
  0.00000000E+00  0.00000000E+00  0.00000000E+00
  0.00000000E+00  0.00000000E+00  0.00000000E+00
  0.00000000E+00  0.00000000E+00  0.00000000E+00
  0.00000000E+00  0.00000000E+00  0.00000000E+00
  0.00000000E+00  0.00000000E+00  0.00000000E+00
  0.00000000E+00  0.00000000E+00  0.00000000E+00
  0.00000000E+00  0.00000000E+00  0.00000000E+00
  0.00000000E+00  0.00000000E+00  0.00000000E+00
  0.00000000E+00  0.00000000E+00  0.00000000E+00
  0.00000000E+00  0.00000000E+00  0.00000000E+00
  0.00000000E+00  0.00000000E+00  0.00000000E+00
  0.00000000E+00  0.00000000E+00  0.00000000E+00
  0.00000000E+00  0.00000000E+00  0.00000000E+00
  0.00000000E+00  0.00000000E+00  0.00000000E+00
  0.00000000E+00  0.00000000E+00  0.00000000E+00
  0.00000000E+00  0.00000000E+00  0.00000000E+00
  0.00000000E+00  0.00000000E+00  0.00000000E+00
  0.00000000E+00  0.00000000E+00  0.00000000E+00
  0.00000000E+00  0.00000000E+00  0.00000000E+00
  0.00000000E+00  0.00000000E+00  0.00000000E+00
  0.00000000E+00  0.00000000E+00  0.00000000E+00
  0.00000000E+00  0.00000000E+00  0.00000000E+00
  0.00000000E+00  0.00000000E+00  0.00000000E+00
  0.00000000E+00  0.00000000E+00  0.00000000E+00
  0.00000000E+00  0.00000000E+00  0.00000000E+00
  0.00000000E+00  0.00000000E+00  0.00000000E+00
  0.00000000E+00  0.00000000E+00  0.00000000E+00
  0.00000000E+00  0.00000000E+00  0.00000000E+00
  0.00000000E+00  0.00000000E+00  0.00000000E+00
  0.00000000E+00  0.00000000E+00  0.00000000E+00
  0.00000000E+00  0.00000000E+00  0.00000000E+00
  0.00000000E+00  0.00000000E+00  0.00000000E+00
  0.00000000E+00  0.00000000E+00  0.00000000E+00
  0.00000000E+00  0.00000000E+00  0.00000000E+00
  0.00000000E+00  0.00000000E+00  0.00000000E+00
  0.00000000E+00  0.00000000E+00  0.00000000E+00
  0.00000000E+00  0.00000000E+00  0.00000000E+00
  0.00000000E+00  0.00000000E+00  0.00000000E+00
  0.00000000E+00  0.00000000E+00  0.00000000E+00
  0.00000000E+00  0.00000000E+00  0.00000000E+00
  0.00000000E+00  0.00000000E+00  0.00000000E+00
  0.00000000E+00  0.00000000E+00  0.00000000E+00
  0.00000000E+00  0.00000000E+00  0.00000000E+00
  0.00000000E+00  0.00000000E+00  0.00000000E+00
  0.00000000E+00  0.00000000E+00  0.00000000E+00
  0.00000000E+00  0.00000000E+00  0.00000000E+00
  0.00000000E+00  0.00000000E+00  0.00000000E+00
  0.00000000E+00  0.00000000E+00  0.00000000E+00
  0.00000000E+00  0.00000000E+00  0.00000000E+00
  0.00000000E+00  0.00000000E+00  0.00000000E+00
  0.00000000E+00  0.00000000E+00  0.00000000E+00
  0.00000000E+00  0.00000000E+00  0.00000000E+00
  0.00000000E+00  0.00000000E+00  0.00000000E+00
  0.00000000E+00  0.00000000E+00  0.00000000E+00
  0.00000000E+00  0.00000000E+00  0.00000000E+00
  0.00000000E+00  0.00000000E+00  0.00000000E+00
