Nb1 H1 C126 O1                          
   1.00000000000000     
    19.8151977714659573   -0.0026339759691074   -0.0780430792185527
    -9.9101272535583238   17.0877858796821869   -0.1176227440918256
    -0.1169342703907505   -0.2722579611334066   29.7231307274358123
   Nb   H    C    O 
     1     1   126     1
Direct
  0.4420965670673936  0.5031587961236864  0.4346270340095635
  0.4861185429947746  0.5467957540121353  0.5190098682239751
  0.0418641589610258  0.0838545498397967  0.3994977250912644
  0.0409464275513071  0.2080274401852448  0.3993085151614835
  0.0405456994482281  0.3328133394991901  0.3991062148235906
  0.0406631361212949  0.4583582889321790  0.3991931661767567
  0.0413885463353511  0.5837745570898438  0.3996752595778754
  0.0420727602753009  0.7090704227614308  0.3999845251418321
  0.0424206190706309  0.8344122518990826  0.3999413693060892
  0.0424124771933026  0.9593644698994543  0.3996930683321860
  0.1674351512024123  0.0848177604035800  0.3998795379554886
  0.1668178127097442  0.2092357862899675  0.4001671415741479
  0.1653140229440012  0.3331525106199187  0.4002222341830287
  0.1643493762563627  0.4582733640817901  0.3991400584637573
  0.1653027317081095  0.5836622086061135  0.3988901241739820
  0.1664891926503749  0.7091477383286973  0.3995080048139229
  0.1670280469272237  0.8343950690118930  0.3998136034827437
  0.1673761509640652  0.9596840514873705  0.3998108409928955
  0.2924519269385780  0.0847855749190557  0.3998337478230533
  0.2929971622836250  0.2108770405947905  0.4013887411066730
  0.2920305829125958  0.3358855754016353  0.4043357633197350
  0.2875754614106186  0.4576376812495301  0.4034964992384815
  0.2890257773355666  0.5840709488050772  0.3998170940161046
  0.2908428330435496  0.7090519426285791  0.3990082609295126
  0.2915961080915859  0.8340659865881610  0.3994336948304035
  0.2920317775659169  0.9593256975943424  0.3996365211849587
  0.4170762809417220  0.0836772194414954  0.3995321064742502
  0.4175077435935314  0.2088986006029076  0.3997976070765290
  0.4189815951905729  0.3351764532975884  0.4029442235287635
  0.4117103067890690  0.5827997670028001  0.4055672461655614
  0.4154992312581712  0.7078485440374962  0.3997780353164528
  0.4162414223229046  0.8332345886857760  0.3991904836925053
  0.4166642733728678  0.9584434591949336  0.3995114271164338
  0.5417086862296623  0.0827881799033716  0.3996433165076387
  0.5422027191232772  0.2078909138093044  0.3992834148316076
  0.5429721962495029  0.3329375021031163  0.3993725857535179
  0.5449228434170420  0.4572282992824958  0.4012669295840544
  0.5461238148954172  0.5829951963616086  0.4026001208548554
  0.5406751584879215  0.7065102340621242  0.4017040439236778
  0.5408733517353026  0.8321130761231516  0.3996696962861595
  0.5413700628735149  0.9575403962577409  0.3996004273822176
  0.6663809885811044  0.0824241886148272  0.3999084354254051
  0.6668026751139875  0.2076397682574832  0.3997252603197713
  0.6673947874113375  0.3327406572242250  0.3991456677965448
  0.6689975349002873  0.4581841798972753  0.3987018226553612
  0.6700013370213010  0.5839697589770635  0.3990931362707721
  0.6674338437534237  0.7079727802519913  0.3992311286317703
  0.6662446429616975  0.8321253529073475  0.3996179598446348
  0.6661726588457270  0.9572544956821663  0.3998279870110877
  0.7912164197834600  0.0824437241950901  0.3998175709436113
  0.7913565718107616  0.2075294868456207  0.3998804950564733
  0.7918934264633504  0.3328915054786699  0.3997920227431669
  0.7927738235648967  0.4583292480519457  0.3993773390358328
  0.7933496366493457  0.5836256342395630  0.3989559282785349
  0.7932031890460727  0.7090328274141192  0.3990168201299964
  0.7921101906706738  0.8333129822952497  0.3993700608208783
  0.7912983410695472  0.9575866691669779  0.3996548028775469
  0.9162994959807326  0.0828707961742148  0.3995321779176356
  0.9160398860267864  0.2076853282718420  0.3994948616808137
  0.9161714973270987  0.3329055030114956  0.3995979208666167
  0.9166839079932083  0.4582456096376296  0.3997952707334400
  0.9174360670275820  0.5837683844198852  0.3998250529211831
  0.9176805593077098  0.7091159459019820  0.3997279839346248
  0.9175332003896953  0.8340816165853914  0.3996296601830411
  0.9169622508581000  0.9585352564957638  0.3996078669156279
  0.0840037172919522  0.0427631322514868  0.3996195704395912
  0.0833007400190691  0.1671188072996383  0.3994834768870066
  0.0820521779107610  0.2912379178481615  0.3993284581128220
  0.0818199315960126  0.4165460839372394  0.3989287678624683
  0.0823817199148290  0.5418441933718584  0.3992257367250435
  0.0833392233110048  0.6673470449208574  0.3997774191107685
  0.0838956645463546  0.7927471241043692  0.3999490660810698
  0.0840613056714954  0.9178581513573602  0.3998362978404146
  0.2090661371949043  0.0430563229310899  0.3998606110687143
  0.2090382276895737  0.1682935670854237  0.4004806754337643
  0.2081694379678558  0.2927217484896569  0.4011641108584899
  0.2052305649538428  0.4162578814447556  0.4004278284954407
  0.2061359377529482  0.5419588599345867  0.3990238583019671
  0.2077704834661915  0.6674226492635028  0.3990752953794279
  0.2084148105267594  0.7925983125922508  0.3996209027882106
  0.2088608073880009  0.9178460894999275  0.3997683218613556
  0.3338234573882593  0.0427024670270724  0.3996287257166755
  0.3343425664901029  0.1682209452349401  0.4002666562670573
  0.3346428935048242  0.2940461824948081  0.4037306259248449
  0.3296332313591263  0.4183528032163623  0.4075824791006923
  0.3301396444771567  0.5429739443829171  0.4027606852110592
  0.3321894595409091  0.6671913649564746  0.3993505228983242
  0.3329728914133848  0.7922615739484691  0.3991711236903234
  0.3335023399930757  0.9174195050968097  0.3995167524537293
  0.4585465655368776  0.0417265943425255  0.3995698648784848
  0.4589418401291332  0.1668887874363193  0.3994052838548532
  0.4596989815075878  0.2922347766479108  0.4001802949051971
  0.4635737773303343  0.4173406985646224  0.4047795404778002
  0.4562797689876412  0.6649517502337182  0.4022578292746710
  0.4576618183439403  0.7912208729977358  0.3992905210118145
  0.4581084658684003  0.9164743254682037  0.3994310836325678
  0.5832005778208781  0.0409215555395164  0.3997463036652994
  0.5836108095279748  0.1661277287057872  0.3995402348351258
  0.5843273254264290  0.2910850923797193  0.3990836730844683
  0.5861709223558734  0.4160824600758255  0.3993627696679166
  0.5875934278283466  0.5427346776755936  0.4006550127757012
  0.5837233461243846  0.6652173827142659  0.4010070637943523
  0.5822644613963437  0.7895723173358833  0.4001327996115714
  0.5827645082699278  0.9155391811670099  0.3996802870714025
  0.7078823273397393  0.0406249541390531  0.3999034120573923
  0.7082122484408536  0.1658582519697748  0.3999182075423072
  0.7087229335752161  0.2910783234737464  0.3995984092869859
  0.7098360596199642  0.4164967784864986  0.3989137422684553
  0.7108164564238622  0.5418924204064188  0.3987090072528391
  0.7099672634085332  0.6671734235586304  0.3989095484387687
  0.7086493338859601  0.7913362066788220  0.3992766305509650
  0.7078380578213626  0.9155458588597433  0.3996973790112361
  0.8329129307120040  0.0409772681959258  0.3996817630437030
  0.8328316319575083  0.1658782635954694  0.3997672178054960
  0.8331808097303243  0.2911796314882000  0.3998170463902662
  0.8338070728345751  0.4164448258700439  0.3997611215104693
  0.8344960778606190  0.5418320226139990  0.3994016071341185
  0.8346522418762561  0.6674023096601371  0.3992144725015747
  0.8343265435018909  0.7922748339697723  0.3993323212138181
  0.8335246545859852  0.9165630228490635  0.3995952347261834
  0.9584220599242320  0.0418450554528090  0.3995388268336630
  0.9577626312673431  0.1662172739935225  0.3993704901070044
  0.9575456641264031  0.2911114340102431  0.3993486797032761
  0.9577684090888083  0.4164598235197187  0.3995687241606444
  0.9585376780777431  0.5419970672712359  0.3998434645360781
  0.9590590306582750  0.6673333224279564  0.3999271166943000
  0.9592157166656816  0.7925850321837418  0.3998217316735662
  0.9590343024011830  0.9174569481479218  0.3996515693713778
  0.4430442273919015  0.5088168361866516  0.5001772337128696
 
  0.00000000E+00  0.00000000E+00  0.00000000E+00
  0.00000000E+00  0.00000000E+00  0.00000000E+00
  0.00000000E+00  0.00000000E+00  0.00000000E+00
  0.00000000E+00  0.00000000E+00  0.00000000E+00
  0.00000000E+00  0.00000000E+00  0.00000000E+00
  0.00000000E+00  0.00000000E+00  0.00000000E+00
  0.00000000E+00  0.00000000E+00  0.00000000E+00
  0.00000000E+00  0.00000000E+00  0.00000000E+00
  0.00000000E+00  0.00000000E+00  0.00000000E+00
  0.00000000E+00  0.00000000E+00  0.00000000E+00
  0.00000000E+00  0.00000000E+00  0.00000000E+00
  0.00000000E+00  0.00000000E+00  0.00000000E+00
  0.00000000E+00  0.00000000E+00  0.00000000E+00
  0.00000000E+00  0.00000000E+00  0.00000000E+00
  0.00000000E+00  0.00000000E+00  0.00000000E+00
  0.00000000E+00  0.00000000E+00  0.00000000E+00
  0.00000000E+00  0.00000000E+00  0.00000000E+00
  0.00000000E+00  0.00000000E+00  0.00000000E+00
  0.00000000E+00  0.00000000E+00  0.00000000E+00
  0.00000000E+00  0.00000000E+00  0.00000000E+00
  0.00000000E+00  0.00000000E+00  0.00000000E+00
  0.00000000E+00  0.00000000E+00  0.00000000E+00
  0.00000000E+00  0.00000000E+00  0.00000000E+00
  0.00000000E+00  0.00000000E+00  0.00000000E+00
  0.00000000E+00  0.00000000E+00  0.00000000E+00
  0.00000000E+00  0.00000000E+00  0.00000000E+00
  0.00000000E+00  0.00000000E+00  0.00000000E+00
  0.00000000E+00  0.00000000E+00  0.00000000E+00
  0.00000000E+00  0.00000000E+00  0.00000000E+00
  0.00000000E+00  0.00000000E+00  0.00000000E+00
  0.00000000E+00  0.00000000E+00  0.00000000E+00
  0.00000000E+00  0.00000000E+00  0.00000000E+00
  0.00000000E+00  0.00000000E+00  0.00000000E+00
  0.00000000E+00  0.00000000E+00  0.00000000E+00
  0.00000000E+00  0.00000000E+00  0.00000000E+00
  0.00000000E+00  0.00000000E+00  0.00000000E+00
  0.00000000E+00  0.00000000E+00  0.00000000E+00
  0.00000000E+00  0.00000000E+00  0.00000000E+00
  0.00000000E+00  0.00000000E+00  0.00000000E+00
  0.00000000E+00  0.00000000E+00  0.00000000E+00
  0.00000000E+00  0.00000000E+00  0.00000000E+00
  0.00000000E+00  0.00000000E+00  0.00000000E+00
  0.00000000E+00  0.00000000E+00  0.00000000E+00
  0.00000000E+00  0.00000000E+00  0.00000000E+00
  0.00000000E+00  0.00000000E+00  0.00000000E+00
  0.00000000E+00  0.00000000E+00  0.00000000E+00
  0.00000000E+00  0.00000000E+00  0.00000000E+00
  0.00000000E+00  0.00000000E+00  0.00000000E+00
  0.00000000E+00  0.00000000E+00  0.00000000E+00
  0.00000000E+00  0.00000000E+00  0.00000000E+00
  0.00000000E+00  0.00000000E+00  0.00000000E+00
  0.00000000E+00  0.00000000E+00  0.00000000E+00
  0.00000000E+00  0.00000000E+00  0.00000000E+00
  0.00000000E+00  0.00000000E+00  0.00000000E+00
  0.00000000E+00  0.00000000E+00  0.00000000E+00
  0.00000000E+00  0.00000000E+00  0.00000000E+00
  0.00000000E+00  0.00000000E+00  0.00000000E+00
  0.00000000E+00  0.00000000E+00  0.00000000E+00
  0.00000000E+00  0.00000000E+00  0.00000000E+00
  0.00000000E+00  0.00000000E+00  0.00000000E+00
  0.00000000E+00  0.00000000E+00  0.00000000E+00
  0.00000000E+00  0.00000000E+00  0.00000000E+00
  0.00000000E+00  0.00000000E+00  0.00000000E+00
  0.00000000E+00  0.00000000E+00  0.00000000E+00
  0.00000000E+00  0.00000000E+00  0.00000000E+00
  0.00000000E+00  0.00000000E+00  0.00000000E+00
  0.00000000E+00  0.00000000E+00  0.00000000E+00
  0.00000000E+00  0.00000000E+00  0.00000000E+00
  0.00000000E+00  0.00000000E+00  0.00000000E+00
  0.00000000E+00  0.00000000E+00  0.00000000E+00
  0.00000000E+00  0.00000000E+00  0.00000000E+00
  0.00000000E+00  0.00000000E+00  0.00000000E+00
  0.00000000E+00  0.00000000E+00  0.00000000E+00
  0.00000000E+00  0.00000000E+00  0.00000000E+00
  0.00000000E+00  0.00000000E+00  0.00000000E+00
  0.00000000E+00  0.00000000E+00  0.00000000E+00
  0.00000000E+00  0.00000000E+00  0.00000000E+00
  0.00000000E+00  0.00000000E+00  0.00000000E+00
  0.00000000E+00  0.00000000E+00  0.00000000E+00
  0.00000000E+00  0.00000000E+00  0.00000000E+00
  0.00000000E+00  0.00000000E+00  0.00000000E+00
  0.00000000E+00  0.00000000E+00  0.00000000E+00
  0.00000000E+00  0.00000000E+00  0.00000000E+00
  0.00000000E+00  0.00000000E+00  0.00000000E+00
  0.00000000E+00  0.00000000E+00  0.00000000E+00
  0.00000000E+00  0.00000000E+00  0.00000000E+00
  0.00000000E+00  0.00000000E+00  0.00000000E+00
  0.00000000E+00  0.00000000E+00  0.00000000E+00
  0.00000000E+00  0.00000000E+00  0.00000000E+00
  0.00000000E+00  0.00000000E+00  0.00000000E+00
  0.00000000E+00  0.00000000E+00  0.00000000E+00
  0.00000000E+00  0.00000000E+00  0.00000000E+00
  0.00000000E+00  0.00000000E+00  0.00000000E+00
  0.00000000E+00  0.00000000E+00  0.00000000E+00
  0.00000000E+00  0.00000000E+00  0.00000000E+00
  0.00000000E+00  0.00000000E+00  0.00000000E+00
  0.00000000E+00  0.00000000E+00  0.00000000E+00
  0.00000000E+00  0.00000000E+00  0.00000000E+00
  0.00000000E+00  0.00000000E+00  0.00000000E+00
  0.00000000E+00  0.00000000E+00  0.00000000E+00
  0.00000000E+00  0.00000000E+00  0.00000000E+00
  0.00000000E+00  0.00000000E+00  0.00000000E+00
  0.00000000E+00  0.00000000E+00  0.00000000E+00
  0.00000000E+00  0.00000000E+00  0.00000000E+00
  0.00000000E+00  0.00000000E+00  0.00000000E+00
  0.00000000E+00  0.00000000E+00  0.00000000E+00
  0.00000000E+00  0.00000000E+00  0.00000000E+00
  0.00000000E+00  0.00000000E+00  0.00000000E+00
  0.00000000E+00  0.00000000E+00  0.00000000E+00
  0.00000000E+00  0.00000000E+00  0.00000000E+00
  0.00000000E+00  0.00000000E+00  0.00000000E+00
  0.00000000E+00  0.00000000E+00  0.00000000E+00
  0.00000000E+00  0.00000000E+00  0.00000000E+00
  0.00000000E+00  0.00000000E+00  0.00000000E+00
  0.00000000E+00  0.00000000E+00  0.00000000E+00
  0.00000000E+00  0.00000000E+00  0.00000000E+00
  0.00000000E+00  0.00000000E+00  0.00000000E+00
  0.00000000E+00  0.00000000E+00  0.00000000E+00
  0.00000000E+00  0.00000000E+00  0.00000000E+00
  0.00000000E+00  0.00000000E+00  0.00000000E+00
  0.00000000E+00  0.00000000E+00  0.00000000E+00
  0.00000000E+00  0.00000000E+00  0.00000000E+00
  0.00000000E+00  0.00000000E+00  0.00000000E+00
  0.00000000E+00  0.00000000E+00  0.00000000E+00
  0.00000000E+00  0.00000000E+00  0.00000000E+00
  0.00000000E+00  0.00000000E+00  0.00000000E+00
  0.00000000E+00  0.00000000E+00  0.00000000E+00
  0.00000000E+00  0.00000000E+00  0.00000000E+00
  0.00000000E+00  0.00000000E+00  0.00000000E+00
