Zn1 H1 C124 N2 O1                       
   1.00000000000000     
    19.8231875497701644   -0.0200404490401148    0.0145850454841354
    -9.9291312182123477   17.0596174567347028   -0.0101623876488444
     0.0219115860504651   -0.0049913063018861   29.7724910696628449
   Zn   H    C    N    O 
     1     1   124     2     1
Direct
  0.4371931646598133  0.4995700264202346  0.4254827395822130
  0.4855007667157921  0.5479879240022815  0.5004203540206276
  0.0421460684544866  0.0842351013936403  0.3998336172909052
  0.0413673563494821  0.2084346164036171  0.3996525903549183
  0.0407025335008138  0.3330080749650655  0.3991949698739309
  0.0405485972075518  0.4584137992092085  0.3989794517649364
  0.0411429647981989  0.5838672213473485  0.3991655096823430
  0.0417472176677585  0.7092434970567680  0.3995327801809678
  0.0421477193450773  0.8345535283380831  0.3997261674414720
  0.0424216795782030  0.9597197995299079  0.3997314245860489
  0.1681436001155141  0.0859014445279540  0.4005245618461952
  0.1676355990325176  0.2103397002888512  0.4010341815524319
  0.1659356096556084  0.3342076199649930  0.4006051454036865
  0.1642352485963422  0.4586939332820589  0.3989979276727361
  0.1649620290857128  0.5839697373512345  0.3988973232803832
  0.1660231870962244  0.7093595140074098  0.3991632698023436
  0.1667832492898585  0.8347174205717374  0.3995948854259834
  0.1674285920750043  0.9602037529179810  0.3999413986223578
  0.2927503738568109  0.0855753273944615  0.4005686869902508
  0.2946103376540116  0.2129284463941901  0.4024971701036164
  0.2930676274472045  0.3380026330375493  0.4053494237724755
  0.2881547308618634  0.4593956622618850  0.4035697561366968
  0.2884272447535463  0.5847534613648160  0.4004262365250479
  0.2901923720408028  0.7093800442932834  0.3996066746775432
  0.2913035309615190  0.8343578567012371  0.3995151288801554
  0.2919438721158005  0.9597099782234282  0.3998254274536748
  0.4171628172993657  0.0838187906820034  0.3998634588547660
  0.4179569139782864  0.2093551279128238  0.4011276085676438
  0.4217859823821676  0.3374025794665217  0.4038060184759379
  0.4143361057430661  0.7073773128929296  0.4018672498433081
  0.4158289078381911  0.8329748186653918  0.4001467036339375
  0.4165038307933829  0.9583718395123508  0.3996137789389276
  0.5416985146121472  0.0823175304646400  0.3996203042966467
  0.5424007153672913  0.2075122350386455  0.3997136080431281
  0.5437411042037149  0.3324612811592446  0.4005075487385396
  0.5449083401408773  0.4555866080729970  0.4025939542928914
  0.5453668676297696  0.5798195616686698  0.4087632667253987
  0.5381387603299916  0.7030864602798306  0.4046529028602698
  0.5400924865471354  0.8307807364565969  0.4014793421463329
  0.5410962257099080  0.9568182877289219  0.4000938835998981
  0.6662473282628801  0.0817294462481627  0.3998146272416907
  0.6669065975306921  0.2071321750843929  0.3994018043983894
  0.6678143300242635  0.3323967653031202  0.3991845036233901
  0.6693325796265444  0.4577779109747900  0.3993738901126038
  0.6692952480751960  0.5825471476720300  0.4005442750434124
  0.6658777723624056  0.7059685417830790  0.4021665167665143
  0.6647133688260709  0.8302104127050325  0.4015672287073443
  0.6656304036850248  0.9561985880122498  0.4003737955137118
  0.7909983779646297  0.0817896395771641  0.3997845179482550
  0.7913865102237498  0.2070524028491572  0.3996392129612381
  0.7920661112934176  0.3325031050243475  0.3993189659917722
  0.7929230887255819  0.4580226818262551  0.3990188028063118
  0.7932784851113893  0.5833312084556320  0.3990172902509592
  0.7923779754370596  0.7081549918502751  0.3998088289355747
  0.7910932674405701  0.8322263572975940  0.4000821500871653
  0.7905572221820163  0.9565779440291987  0.3999508700809742
  0.9162174875943359  0.0826388036704415  0.3996362956300452
  0.9160982454071156  0.2074716911066065  0.3996268565263148
  0.9162497767464824  0.3326691426305992  0.3994983384534391
  0.9166669039026805  0.4581079351361050  0.3993682717678750
  0.9172580744786062  0.5836713504722293  0.3993997546701464
  0.9173244686796370  0.7090129559744972  0.3995085383276569
  0.9170619067528352  0.8338101722588498  0.3996019878772615
  0.9165510187996709  0.9582000234924778  0.3997026274597181
  0.0844305828760369  0.0434228527808495  0.3999577459187397
  0.0838588023779493  0.1677349144882703  0.3999953339986101
  0.0826253373461294  0.2918633493071595  0.3996387264835424
  0.0816929265543172  0.4166859416678045  0.3988472971003222
  0.0820545792746143  0.5419806346492525  0.3988896756876495
  0.0828980006572902  0.6674695679430676  0.3992754388613034
  0.0835973397882386  0.7929268372927465  0.3996390260985371
  0.0840177204480342  0.9182089677422156  0.3997800242881241
  0.2093548095125480  0.0438184251589666  0.4003518586616178
  0.2102619853141084  0.1698279069771653  0.4014868393385198
  0.2090172179169847  0.2939801822166861  0.4020092373336631
  0.2056615621982789  0.4174672497172211  0.4002867534583445
  0.2057192835502114  0.5422578589966760  0.3992255302745293
  0.2071711014187197  0.6676245894453324  0.3991028096471301
  0.2080510819880237  0.7928762558423432  0.3993869841394510
  0.2087424461308617  0.9182794598845747  0.3998259403342252
  0.3338813200834862  0.0432039668467123  0.4000627976597595
  0.3349006371372300  0.1692865305207054  0.4014131108644866
  0.3367714815370375  0.2970054588762829  0.4044856232823138
  0.3295150163131303  0.4201738196303519  0.4088777954428485
  0.3301467869735331  0.5444043715030082  0.4026710559919811
  0.3312712180538344  0.6675777451640768  0.4005184497600741
  0.3325820481250910  0.7925294337931070  0.3997181408610901
  0.3333204666080726  0.9177171643355670  0.3996303902188010
  0.4585180263401668  0.0416768777490860  0.3996043848753171
  0.4591563954848842  0.1670708547918244  0.4001342368003282
  0.4606701229991144  0.2926936985899429  0.4017929139998976
  0.4531699553424824  0.6626638593477379  0.4039499808220820
  0.4570328592927249  0.7906956099785877  0.4011544079452553
  0.4578236718872852  0.9162197589072971  0.3998776095016792
  0.5830717903866576  0.0403304293559376  0.3998419624057218
  0.5836832480790258  0.1656687511304498  0.3995040330621759
  0.5847984470908519  0.2906499640712116  0.3996369240360451
  0.5866471161907891  0.4152844316070900  0.4004432791846285
  0.5867382355575550  0.5404914842554570  0.4036612666710978
  0.5817270294997230  0.6619962942384037  0.4055097310986651
  0.5803740318673316  0.7871586098911245  0.4026356801085709
  0.5822466121847577  0.9144808320434772  0.4006102226473433
  0.7075927637293548  0.0398295771733694  0.3999383391128191
  0.7082041533563928  0.1653004375907731  0.3995893678074185
  0.7089673438135270  0.2906502432177341  0.3992197075893972
  0.7100638369672015  0.4160710166883670  0.3990397459851505
  0.7107393742708354  0.5413297981413003  0.3992231856388703
  0.7090151057782575  0.6658058309414406  0.4008222837947906
  0.7072847468354365  0.7896169996322420  0.4011355361835735
  0.7068582811958669  0.9141337224575083  0.4005395107348080
  0.8326025451552681  0.0403007709039802  0.3997271985325807
  0.8328490562490126  0.1654431622903829  0.3997341276165356
  0.8332314683728274  0.2907298891660356  0.3995435405456055
  0.8338268311096907  0.4161098852676131  0.3992353857790695
  0.8344143443373316  0.5415840501558563  0.3990953120039072
  0.8342858380576781  0.6670164721923214  0.3993450571784911
  0.8336284653625767  0.7915736030609903  0.3997566664966574
  0.8328418553507317  0.9157537375758245  0.3998479791915530
  0.9584498684584605  0.0417968804640380  0.3996988257118623
  0.9579580968515174  0.1662109358955779  0.3995612531456655
  0.9576686893542136  0.2910065190506960  0.3994380394612254
  0.9576874641923530  0.4163169179979050  0.3993589595669642
  0.9582881614909874  0.5418595494629187  0.3993636716916083
  0.9587216491243687  0.6673063565755281  0.3995251066803689
  0.9589023923911671  0.7925429507828595  0.3996462838775264
  0.9588126984839058  0.9174039899521326  0.3996459320410519
  0.4086721218974493  0.5830796383735368  0.4043967928805233
  0.4664096743596557  0.4169976035369363  0.4042402936741783
  0.4384294844431588  0.5013518360292976  0.4900832950899743
 
  0.00000000E+00  0.00000000E+00  0.00000000E+00
  0.00000000E+00  0.00000000E+00  0.00000000E+00
  0.00000000E+00  0.00000000E+00  0.00000000E+00
  0.00000000E+00  0.00000000E+00  0.00000000E+00
  0.00000000E+00  0.00000000E+00  0.00000000E+00
  0.00000000E+00  0.00000000E+00  0.00000000E+00
  0.00000000E+00  0.00000000E+00  0.00000000E+00
  0.00000000E+00  0.00000000E+00  0.00000000E+00
  0.00000000E+00  0.00000000E+00  0.00000000E+00
  0.00000000E+00  0.00000000E+00  0.00000000E+00
  0.00000000E+00  0.00000000E+00  0.00000000E+00
  0.00000000E+00  0.00000000E+00  0.00000000E+00
  0.00000000E+00  0.00000000E+00  0.00000000E+00
  0.00000000E+00  0.00000000E+00  0.00000000E+00
  0.00000000E+00  0.00000000E+00  0.00000000E+00
  0.00000000E+00  0.00000000E+00  0.00000000E+00
  0.00000000E+00  0.00000000E+00  0.00000000E+00
  0.00000000E+00  0.00000000E+00  0.00000000E+00
  0.00000000E+00  0.00000000E+00  0.00000000E+00
  0.00000000E+00  0.00000000E+00  0.00000000E+00
  0.00000000E+00  0.00000000E+00  0.00000000E+00
  0.00000000E+00  0.00000000E+00  0.00000000E+00
  0.00000000E+00  0.00000000E+00  0.00000000E+00
  0.00000000E+00  0.00000000E+00  0.00000000E+00
  0.00000000E+00  0.00000000E+00  0.00000000E+00
  0.00000000E+00  0.00000000E+00  0.00000000E+00
  0.00000000E+00  0.00000000E+00  0.00000000E+00
  0.00000000E+00  0.00000000E+00  0.00000000E+00
  0.00000000E+00  0.00000000E+00  0.00000000E+00
  0.00000000E+00  0.00000000E+00  0.00000000E+00
  0.00000000E+00  0.00000000E+00  0.00000000E+00
  0.00000000E+00  0.00000000E+00  0.00000000E+00
  0.00000000E+00  0.00000000E+00  0.00000000E+00
  0.00000000E+00  0.00000000E+00  0.00000000E+00
  0.00000000E+00  0.00000000E+00  0.00000000E+00
  0.00000000E+00  0.00000000E+00  0.00000000E+00
  0.00000000E+00  0.00000000E+00  0.00000000E+00
  0.00000000E+00  0.00000000E+00  0.00000000E+00
  0.00000000E+00  0.00000000E+00  0.00000000E+00
  0.00000000E+00  0.00000000E+00  0.00000000E+00
  0.00000000E+00  0.00000000E+00  0.00000000E+00
  0.00000000E+00  0.00000000E+00  0.00000000E+00
  0.00000000E+00  0.00000000E+00  0.00000000E+00
  0.00000000E+00  0.00000000E+00  0.00000000E+00
  0.00000000E+00  0.00000000E+00  0.00000000E+00
  0.00000000E+00  0.00000000E+00  0.00000000E+00
  0.00000000E+00  0.00000000E+00  0.00000000E+00
  0.00000000E+00  0.00000000E+00  0.00000000E+00
  0.00000000E+00  0.00000000E+00  0.00000000E+00
  0.00000000E+00  0.00000000E+00  0.00000000E+00
  0.00000000E+00  0.00000000E+00  0.00000000E+00
  0.00000000E+00  0.00000000E+00  0.00000000E+00
  0.00000000E+00  0.00000000E+00  0.00000000E+00
  0.00000000E+00  0.00000000E+00  0.00000000E+00
  0.00000000E+00  0.00000000E+00  0.00000000E+00
  0.00000000E+00  0.00000000E+00  0.00000000E+00
  0.00000000E+00  0.00000000E+00  0.00000000E+00
  0.00000000E+00  0.00000000E+00  0.00000000E+00
  0.00000000E+00  0.00000000E+00  0.00000000E+00
  0.00000000E+00  0.00000000E+00  0.00000000E+00
  0.00000000E+00  0.00000000E+00  0.00000000E+00
  0.00000000E+00  0.00000000E+00  0.00000000E+00
  0.00000000E+00  0.00000000E+00  0.00000000E+00
  0.00000000E+00  0.00000000E+00  0.00000000E+00
  0.00000000E+00  0.00000000E+00  0.00000000E+00
  0.00000000E+00  0.00000000E+00  0.00000000E+00
  0.00000000E+00  0.00000000E+00  0.00000000E+00
  0.00000000E+00  0.00000000E+00  0.00000000E+00
  0.00000000E+00  0.00000000E+00  0.00000000E+00
  0.00000000E+00  0.00000000E+00  0.00000000E+00
  0.00000000E+00  0.00000000E+00  0.00000000E+00
  0.00000000E+00  0.00000000E+00  0.00000000E+00
  0.00000000E+00  0.00000000E+00  0.00000000E+00
  0.00000000E+00  0.00000000E+00  0.00000000E+00
  0.00000000E+00  0.00000000E+00  0.00000000E+00
  0.00000000E+00  0.00000000E+00  0.00000000E+00
  0.00000000E+00  0.00000000E+00  0.00000000E+00
  0.00000000E+00  0.00000000E+00  0.00000000E+00
  0.00000000E+00  0.00000000E+00  0.00000000E+00
  0.00000000E+00  0.00000000E+00  0.00000000E+00
  0.00000000E+00  0.00000000E+00  0.00000000E+00
  0.00000000E+00  0.00000000E+00  0.00000000E+00
  0.00000000E+00  0.00000000E+00  0.00000000E+00
  0.00000000E+00  0.00000000E+00  0.00000000E+00
  0.00000000E+00  0.00000000E+00  0.00000000E+00
  0.00000000E+00  0.00000000E+00  0.00000000E+00
  0.00000000E+00  0.00000000E+00  0.00000000E+00
  0.00000000E+00  0.00000000E+00  0.00000000E+00
  0.00000000E+00  0.00000000E+00  0.00000000E+00
  0.00000000E+00  0.00000000E+00  0.00000000E+00
  0.00000000E+00  0.00000000E+00  0.00000000E+00
  0.00000000E+00  0.00000000E+00  0.00000000E+00
  0.00000000E+00  0.00000000E+00  0.00000000E+00
  0.00000000E+00  0.00000000E+00  0.00000000E+00
  0.00000000E+00  0.00000000E+00  0.00000000E+00
  0.00000000E+00  0.00000000E+00  0.00000000E+00
  0.00000000E+00  0.00000000E+00  0.00000000E+00
  0.00000000E+00  0.00000000E+00  0.00000000E+00
  0.00000000E+00  0.00000000E+00  0.00000000E+00
  0.00000000E+00  0.00000000E+00  0.00000000E+00
  0.00000000E+00  0.00000000E+00  0.00000000E+00
  0.00000000E+00  0.00000000E+00  0.00000000E+00
  0.00000000E+00  0.00000000E+00  0.00000000E+00
  0.00000000E+00  0.00000000E+00  0.00000000E+00
  0.00000000E+00  0.00000000E+00  0.00000000E+00
  0.00000000E+00  0.00000000E+00  0.00000000E+00
  0.00000000E+00  0.00000000E+00  0.00000000E+00
  0.00000000E+00  0.00000000E+00  0.00000000E+00
  0.00000000E+00  0.00000000E+00  0.00000000E+00
  0.00000000E+00  0.00000000E+00  0.00000000E+00
  0.00000000E+00  0.00000000E+00  0.00000000E+00
  0.00000000E+00  0.00000000E+00  0.00000000E+00
  0.00000000E+00  0.00000000E+00  0.00000000E+00
  0.00000000E+00  0.00000000E+00  0.00000000E+00
  0.00000000E+00  0.00000000E+00  0.00000000E+00
  0.00000000E+00  0.00000000E+00  0.00000000E+00
  0.00000000E+00  0.00000000E+00  0.00000000E+00
  0.00000000E+00  0.00000000E+00  0.00000000E+00
  0.00000000E+00  0.00000000E+00  0.00000000E+00
  0.00000000E+00  0.00000000E+00  0.00000000E+00
  0.00000000E+00  0.00000000E+00  0.00000000E+00
  0.00000000E+00  0.00000000E+00  0.00000000E+00
  0.00000000E+00  0.00000000E+00  0.00000000E+00
  0.00000000E+00  0.00000000E+00  0.00000000E+00
  0.00000000E+00  0.00000000E+00  0.00000000E+00
  0.00000000E+00  0.00000000E+00  0.00000000E+00
  0.00000000E+00  0.00000000E+00  0.00000000E+00
  0.00000000E+00  0.00000000E+00  0.00000000E+00
  0.00000000E+00  0.00000000E+00  0.00000000E+00
