Hf1 H1 C122 N4                          
   1.00000000000000     
    19.8019460007128671   -0.0002170625720553   -0.0353575467646120
    -9.9011817228902483   17.0439566997832586   -0.0798158233235471
    -0.0532027238752688   -0.1704447406886894   29.8155007929899085
   Hf   H    C    N 
     1     1   122     4
Direct
  0.4403165390491895  0.5013348028422870  0.4330649670478861
  0.4445514193512565  0.5047521458439651  0.4956948622052663
  0.0421338262304776  0.0842082069402985  0.3995921650924387
  0.0412833194106229  0.2083985139836673  0.3996062407540143
  0.0405720644124413  0.3332275241032551  0.3995871882998220
  0.0405806665989906  0.4583721314663173  0.3995024752167661
  0.0413692388341589  0.5837715864972773  0.3997986452071399
  0.0420924133805973  0.7091433154891457  0.3999351957894001
  0.0422773837141419  0.8342631808104953  0.3999973091503821
  0.0424478948464143  0.9594761774711481  0.3998492451710791
  0.1678998416730283  0.0853418092713567  0.3997914893563027
  0.1676306344308711  0.2101473979482627  0.3998296278107197
  0.1653696825664467  0.3339078044474454  0.4003793193930535
  0.1644560966396155  0.4585537265329190  0.3994011641456476
  0.1652762589764690  0.5837720139232708  0.3992828154672364
  0.1663630208496768  0.7088879870888539  0.3998349948783408
  0.1669996978048210  0.8342132435744503  0.4000034175133574
  0.1673872765129277  0.9597223632466402  0.3999742659102748
  0.2924984669903736  0.0853211663140509  0.3997677850850717
  0.2936638645810572  0.2123653537590275  0.4005874647037774
  0.2921896078212090  0.3376591320847497  0.4028761434359625
  0.2879755984037715  0.4585292242003118  0.4025044917468376
  0.2887624873670353  0.5831454722280928  0.4001187388803075
  0.2907880661157778  0.7082724572637930  0.3995789484165642
  0.2917059431433535  0.8337875219152820  0.3998173424371674
  0.2920562127289740  0.9593968254200498  0.3998503261374013
  0.4171084876122871  0.0840805678743928  0.3996559097641587
  0.4174929964050387  0.2099668590903865  0.3996231322598139
  0.4203184668989408  0.3372089279941462  0.4017023315331719
  0.4152568403738818  0.7065099771160158  0.3998945990775116
  0.4162788747847852  0.8324977765018373  0.3995307794560708
  0.4166908908300221  0.9582358724159841  0.3998005904847768
  0.5416167691305500  0.0827862975776633  0.3998153653810650
  0.5421326576591740  0.2083026700790788  0.3996739967892263
  0.5435760891200960  0.3338458680703753  0.4000762023301510
  0.5454051342093751  0.4584025701518650  0.4010992757504205
  0.5389668403570763  0.7029598721590576  0.4009487452371744
  0.5407963463925941  0.8308877538719146  0.3996897064010785
  0.5413718259140374  0.9570909491937507  0.3998363862292529
  0.6662849585649482  0.0822818794846109  0.3999625366097654
  0.6667767396114185  0.2076873539926031  0.3998638531383643
  0.6676615235503507  0.3331570566331818  0.3998014578920210
  0.6691454386357020  0.4585182935799942  0.3998692513326477
  0.6694991858178166  0.5831743756494484  0.3998976535384309
  0.6664395981261496  0.7067032165266023  0.3992432833849902
  0.6651489179065555  0.8309473674034945  0.3995472288402650
  0.6659517651329683  0.9568458853851323  0.3999538819470725
  0.7911169337259721  0.0823505306646025  0.3999562410122602
  0.7913337533362363  0.2076297888083975  0.4000407878067384
  0.7918283409074697  0.3329199723860752  0.3998297050869399
  0.7928148478837038  0.4583615159216421  0.3997082235537320
  0.7935402304063003  0.5837839771396018  0.3996945384595832
  0.7925740902304286  0.7083306758713124  0.3996615983764505
  0.7913754705302595  0.8326503319030285  0.3995861677129126
  0.7908294582667973  0.9571743700383077  0.3998420338145735
  0.9163245196880137  0.0829214352040689  0.3997731981816489
  0.9160083279359231  0.2078031583917724  0.3998640735126806
  0.9161572259473691  0.3329796715851435  0.3998486041737793
  0.9167177019173564  0.4584114093672976  0.3998070016665259
  0.9174286352659942  0.5837782057089397  0.3997988112569304
  0.9176063357221651  0.7089725430792677  0.3998867505633815
  0.9171624424216792  0.8338774508562495  0.3998942242721852
  0.9167319372745715  0.9583864377307048  0.3998502141032642
  0.0843921182080113  0.0431175718299746  0.3996957945585475
  0.0839098961152690  0.1677435471308983  0.3995278999338454
  0.0826559031913421  0.2919324971053618  0.3997348471335070
  0.0816446797058247  0.4164280866254242  0.3993310299219048
  0.0823264439653586  0.5418417034997203  0.3995163293260937
  0.0832766652032267  0.6672610898641754  0.3998838105261262
  0.0838124887942344  0.7925994744101573  0.4000015127122225
  0.0841015173211814  0.9179169336647591  0.3999789500389255
  0.2092239995397770  0.0433891838750146  0.3998786418219400
  0.2100237999238059  0.1693485998117707  0.4000276016637666
  0.2089313656123520  0.2937581844451897  0.4006739926172952
  0.2057715388250134  0.4171129882727485  0.4005323364907312
  0.2059813348833760  0.5416340891060570  0.3993013296384780
  0.2074156605528937  0.6669715905159228  0.3995651660904929
  0.2082889010183479  0.7923877086035939  0.3999259145309167
  0.2088554501159681  0.9178485429178606  0.3999748155541830
  0.3337640874171553  0.0430547991087071  0.3997279728033692
  0.3343220675622999  0.1692957995278835  0.3998991142027390
  0.3361473201594122  0.2973422681953474  0.4021153687761868
  0.3295982044911667  0.5417915536711245  0.4021106523704229
  0.3315487502963965  0.6663184046904168  0.3998530094234717
  0.3329711823213907  0.7918116599993207  0.3996404515762578
  0.3334748097054030  0.9172872671199050  0.3998236191243551
  0.4584361472084860  0.0418677419296594  0.3997748661714909
  0.4588431495629723  0.1675883636610360  0.3995546614691680
  0.4597985369605728  0.2935257418810500  0.3999984951467702
  0.4546978629944002  0.6626931627034586  0.4017787476924396
  0.4575886563244587  0.7901061102984881  0.3994348062808928
  0.4580022592871857  0.9160425815951392  0.3997362188698751
  0.5830645976718059  0.0407143895559120  0.3998911819084846
  0.5833729182174425  0.1662881493821089  0.3997775903895228
  0.5843207496099112  0.2918471839414880  0.3998013416421884
  0.5863884773300313  0.4170020070944909  0.4003565049945204
  0.5871132973848524  0.5418024022997078  0.4006676315492166
  0.5832578886949679  0.6630603425497315  0.4005944291069890
  0.5814331029874130  0.7878845064582607  0.3998911560492395
  0.5826599003976888  0.9148790101267519  0.3998384678250870
  0.7077935402434384  0.0404969290056768  0.3999958626538105
  0.7081105548806123  0.1659359037383937  0.3999803000058650
  0.7086967038668186  0.2911703278521117  0.3998192991689418
  0.7098214052468058  0.4163752003113050  0.3997413515787236
  0.7107185484863817  0.5416419649216928  0.3997606609689208
  0.7098485457514765  0.6663454904052960  0.3995310517155928
  0.7076626289694276  0.7902736622803328  0.3992693405369601
  0.7072970550097109  0.9149087456872881  0.3997818906876862
  0.8327905554777618  0.0408125228671829  0.3998847171399001
  0.8329062637883874  0.1659903215277252  0.3999874794020190
  0.8330483636763427  0.2910633185154079  0.3999467762405333
  0.8337467866692042  0.4164413481871874  0.3997722828600678
  0.8345591365812651  0.5418349099179884  0.3997170609745626
  0.8346178249865841  0.6670119226488680  0.3997883665554519
  0.8339450600168415  0.7919025127589150  0.3997218031147713
  0.8331986915629471  0.9161916781823695  0.3998054346113334
  0.9586343307938763  0.0420205507115093  0.3997409123163611
  0.9580281261759576  0.1663930237903522  0.3997038789512024
  0.9575911051188356  0.2912806194830201  0.3997751755835502
  0.9577268472488293  0.4164635697085707  0.3997631179687674
  0.9584351023991295  0.5418428117389111  0.3998284886144449
  0.9590327062824935  0.6672863693613200  0.3998648637679258
  0.9591763215479017  0.7924637832584610  0.3999362286036585
  0.9589380734982674  0.9174026760701780  0.3998781299311548
  0.4108821006430081  0.5816930569497923  0.4054610083801138
  0.5459643174955475  0.5820732676260125  0.4029678371983744
  0.3294634822373751  0.4188398157813085  0.4063799658061663
  0.4640789708556971  0.4182835091698348  0.4039654845482085
 
  0.00000000E+00  0.00000000E+00  0.00000000E+00
  0.00000000E+00  0.00000000E+00  0.00000000E+00
  0.00000000E+00  0.00000000E+00  0.00000000E+00
  0.00000000E+00  0.00000000E+00  0.00000000E+00
  0.00000000E+00  0.00000000E+00  0.00000000E+00
  0.00000000E+00  0.00000000E+00  0.00000000E+00
  0.00000000E+00  0.00000000E+00  0.00000000E+00
  0.00000000E+00  0.00000000E+00  0.00000000E+00
  0.00000000E+00  0.00000000E+00  0.00000000E+00
  0.00000000E+00  0.00000000E+00  0.00000000E+00
  0.00000000E+00  0.00000000E+00  0.00000000E+00
  0.00000000E+00  0.00000000E+00  0.00000000E+00
  0.00000000E+00  0.00000000E+00  0.00000000E+00
  0.00000000E+00  0.00000000E+00  0.00000000E+00
  0.00000000E+00  0.00000000E+00  0.00000000E+00
  0.00000000E+00  0.00000000E+00  0.00000000E+00
  0.00000000E+00  0.00000000E+00  0.00000000E+00
  0.00000000E+00  0.00000000E+00  0.00000000E+00
  0.00000000E+00  0.00000000E+00  0.00000000E+00
  0.00000000E+00  0.00000000E+00  0.00000000E+00
  0.00000000E+00  0.00000000E+00  0.00000000E+00
  0.00000000E+00  0.00000000E+00  0.00000000E+00
  0.00000000E+00  0.00000000E+00  0.00000000E+00
  0.00000000E+00  0.00000000E+00  0.00000000E+00
  0.00000000E+00  0.00000000E+00  0.00000000E+00
  0.00000000E+00  0.00000000E+00  0.00000000E+00
  0.00000000E+00  0.00000000E+00  0.00000000E+00
  0.00000000E+00  0.00000000E+00  0.00000000E+00
  0.00000000E+00  0.00000000E+00  0.00000000E+00
  0.00000000E+00  0.00000000E+00  0.00000000E+00
  0.00000000E+00  0.00000000E+00  0.00000000E+00
  0.00000000E+00  0.00000000E+00  0.00000000E+00
  0.00000000E+00  0.00000000E+00  0.00000000E+00
  0.00000000E+00  0.00000000E+00  0.00000000E+00
  0.00000000E+00  0.00000000E+00  0.00000000E+00
  0.00000000E+00  0.00000000E+00  0.00000000E+00
  0.00000000E+00  0.00000000E+00  0.00000000E+00
  0.00000000E+00  0.00000000E+00  0.00000000E+00
  0.00000000E+00  0.00000000E+00  0.00000000E+00
  0.00000000E+00  0.00000000E+00  0.00000000E+00
  0.00000000E+00  0.00000000E+00  0.00000000E+00
  0.00000000E+00  0.00000000E+00  0.00000000E+00
  0.00000000E+00  0.00000000E+00  0.00000000E+00
  0.00000000E+00  0.00000000E+00  0.00000000E+00
  0.00000000E+00  0.00000000E+00  0.00000000E+00
  0.00000000E+00  0.00000000E+00  0.00000000E+00
  0.00000000E+00  0.00000000E+00  0.00000000E+00
  0.00000000E+00  0.00000000E+00  0.00000000E+00
  0.00000000E+00  0.00000000E+00  0.00000000E+00
  0.00000000E+00  0.00000000E+00  0.00000000E+00
  0.00000000E+00  0.00000000E+00  0.00000000E+00
  0.00000000E+00  0.00000000E+00  0.00000000E+00
  0.00000000E+00  0.00000000E+00  0.00000000E+00
  0.00000000E+00  0.00000000E+00  0.00000000E+00
  0.00000000E+00  0.00000000E+00  0.00000000E+00
  0.00000000E+00  0.00000000E+00  0.00000000E+00
  0.00000000E+00  0.00000000E+00  0.00000000E+00
  0.00000000E+00  0.00000000E+00  0.00000000E+00
  0.00000000E+00  0.00000000E+00  0.00000000E+00
  0.00000000E+00  0.00000000E+00  0.00000000E+00
  0.00000000E+00  0.00000000E+00  0.00000000E+00
  0.00000000E+00  0.00000000E+00  0.00000000E+00
  0.00000000E+00  0.00000000E+00  0.00000000E+00
  0.00000000E+00  0.00000000E+00  0.00000000E+00
  0.00000000E+00  0.00000000E+00  0.00000000E+00
  0.00000000E+00  0.00000000E+00  0.00000000E+00
  0.00000000E+00  0.00000000E+00  0.00000000E+00
  0.00000000E+00  0.00000000E+00  0.00000000E+00
  0.00000000E+00  0.00000000E+00  0.00000000E+00
  0.00000000E+00  0.00000000E+00  0.00000000E+00
  0.00000000E+00  0.00000000E+00  0.00000000E+00
  0.00000000E+00  0.00000000E+00  0.00000000E+00
  0.00000000E+00  0.00000000E+00  0.00000000E+00
  0.00000000E+00  0.00000000E+00  0.00000000E+00
  0.00000000E+00  0.00000000E+00  0.00000000E+00
  0.00000000E+00  0.00000000E+00  0.00000000E+00
  0.00000000E+00  0.00000000E+00  0.00000000E+00
  0.00000000E+00  0.00000000E+00  0.00000000E+00
  0.00000000E+00  0.00000000E+00  0.00000000E+00
  0.00000000E+00  0.00000000E+00  0.00000000E+00
  0.00000000E+00  0.00000000E+00  0.00000000E+00
  0.00000000E+00  0.00000000E+00  0.00000000E+00
  0.00000000E+00  0.00000000E+00  0.00000000E+00
  0.00000000E+00  0.00000000E+00  0.00000000E+00
  0.00000000E+00  0.00000000E+00  0.00000000E+00
  0.00000000E+00  0.00000000E+00  0.00000000E+00
  0.00000000E+00  0.00000000E+00  0.00000000E+00
  0.00000000E+00  0.00000000E+00  0.00000000E+00
  0.00000000E+00  0.00000000E+00  0.00000000E+00
  0.00000000E+00  0.00000000E+00  0.00000000E+00
  0.00000000E+00  0.00000000E+00  0.00000000E+00
  0.00000000E+00  0.00000000E+00  0.00000000E+00
  0.00000000E+00  0.00000000E+00  0.00000000E+00
  0.00000000E+00  0.00000000E+00  0.00000000E+00
  0.00000000E+00  0.00000000E+00  0.00000000E+00
  0.00000000E+00  0.00000000E+00  0.00000000E+00
  0.00000000E+00  0.00000000E+00  0.00000000E+00
  0.00000000E+00  0.00000000E+00  0.00000000E+00
  0.00000000E+00  0.00000000E+00  0.00000000E+00
  0.00000000E+00  0.00000000E+00  0.00000000E+00
  0.00000000E+00  0.00000000E+00  0.00000000E+00
  0.00000000E+00  0.00000000E+00  0.00000000E+00
  0.00000000E+00  0.00000000E+00  0.00000000E+00
  0.00000000E+00  0.00000000E+00  0.00000000E+00
  0.00000000E+00  0.00000000E+00  0.00000000E+00
  0.00000000E+00  0.00000000E+00  0.00000000E+00
  0.00000000E+00  0.00000000E+00  0.00000000E+00
  0.00000000E+00  0.00000000E+00  0.00000000E+00
  0.00000000E+00  0.00000000E+00  0.00000000E+00
  0.00000000E+00  0.00000000E+00  0.00000000E+00
  0.00000000E+00  0.00000000E+00  0.00000000E+00
  0.00000000E+00  0.00000000E+00  0.00000000E+00
  0.00000000E+00  0.00000000E+00  0.00000000E+00
  0.00000000E+00  0.00000000E+00  0.00000000E+00
  0.00000000E+00  0.00000000E+00  0.00000000E+00
  0.00000000E+00  0.00000000E+00  0.00000000E+00
  0.00000000E+00  0.00000000E+00  0.00000000E+00
  0.00000000E+00  0.00000000E+00  0.00000000E+00
  0.00000000E+00  0.00000000E+00  0.00000000E+00
  0.00000000E+00  0.00000000E+00  0.00000000E+00
  0.00000000E+00  0.00000000E+00  0.00000000E+00
  0.00000000E+00  0.00000000E+00  0.00000000E+00
  0.00000000E+00  0.00000000E+00  0.00000000E+00
  0.00000000E+00  0.00000000E+00  0.00000000E+00
  0.00000000E+00  0.00000000E+00  0.00000000E+00
  0.00000000E+00  0.00000000E+00  0.00000000E+00
  0.00000000E+00  0.00000000E+00  0.00000000E+00
  0.00000000E+00  0.00000000E+00  0.00000000E+00
