H1 Ir1 C126 O2                          
   1.00000000000000     
    19.8035824962779401    0.0011671928954541    0.5762748416026133
    -9.9013006872447278   17.0462039589853624   -0.2455080863691720
     0.8658184783653358    0.0743626213783724   29.8322078782058462
   H    Ir   C    O 
     1     1   126     2
Direct
  0.5413368864383615  0.5504755134191430  0.5372106708775947
  0.4339817361510767  0.5002789112438010  0.4328781370648677
  0.0417133229756815  0.0841170748786170  0.3991198804482197
  0.0406495991624662  0.2080487268866803  0.3986328410534950
  0.0400484023952062  0.3327065881728637  0.3980742603954868
  0.0400359490646127  0.4581675568539307  0.3976901009730034
  0.0409151755705076  0.5836946461851871  0.3978568840933127
  0.0417274038301907  0.7091049714796841  0.3985789149492893
  0.0420623688141029  0.8344493298744251  0.3991956117400072
  0.0420866773928551  0.9595232583547062  0.3993313091530066
  0.1673453097734795  0.0853622886467602  0.3998170195807925
  0.1671207691323230  0.2102304478244614  0.3997566271157566
  0.1649509256563719  0.3332977679788728  0.3988271709707017
  0.1635746689923817  0.4582183163044524  0.3979294151545373
  0.1646773580773697  0.5835616925931738  0.3977274957021476
  0.1660951445203085  0.7090154354614470  0.3982518807056302
  0.1666853760877394  0.8344073285780734  0.3990031733225287
  0.1670830848171074  0.9598821318013290  0.3995562015404431
  0.2921389781360419  0.0852936287087659  0.4001650642580443
  0.2927867807504722  0.2117712287781272  0.4019212046484986
  0.2929277401409515  0.3379821215223957  0.4029582982785663
  0.2861853927463137  0.4579801096407172  0.4003886624903416
  0.2880128459905680  0.5835897548467145  0.3986273499277616
  0.2904480868147148  0.7086508871842506  0.3984352379289292
  0.2912131916617752  0.8338870956758440  0.3989427576770807
  0.2916901118955624  0.9594552992896619  0.3994086099216425
  0.4166502136531082  0.0840374998395624  0.3995368106520487
  0.4171089059768809  0.2101311277583718  0.4011211082579910
  0.4180381700385519  0.3372161733418431  0.4061984187616182
  0.4086898758282526  0.5783539502084751  0.4051935929381980
  0.4146504007109317  0.7058297685012127  0.4002327349842061
  0.4157081789898459  0.8322742375472010  0.3993544707092181
  0.4162102322181775  0.9581794938670873  0.3992359669481171
  0.5411359454763561  0.0825700743556044  0.3991774120521198
  0.5416520418378924  0.2080643102055705  0.3995712625693486
  0.5425077289734432  0.3333890704709809  0.4015791903463269
  0.5454332418710575  0.4582711029822292  0.4060632744626179
  0.5444142749311958  0.5802076403288514  0.4112033686625287
  0.5389156298990708  0.7042682374639747  0.4042766088272814
  0.5399554077818703  0.8307893103257142  0.4007310870783969
  0.5406727191707782  0.9568442274350207  0.3995673308701722
  0.6656576461340562  0.0819286762790388  0.3993540707843169
  0.6661764703913985  0.2073874834316266  0.3990787976443320
  0.6669339206423390  0.3327546480618337  0.3992678193781173
  0.6687172117015237  0.4582586111299551  0.3999934312702218
  0.6697010898699799  0.5836909542424551  0.4015269900438633
  0.6656255458409776  0.7061620128768433  0.4024048224344640
  0.6648854477702488  0.8308731574217686  0.4013555174221652
  0.6652828573862153  0.9564302611612421  0.4001291940821346
  0.7904597758308206  0.0819557281551662  0.3993726837253269
  0.7907077605690792  0.2071830688198661  0.3989770620624843
  0.7912949249269672  0.3326331200497452  0.3987580204363910
  0.7923711656593518  0.4581956974525596  0.3987781293173253
  0.7932052023807974  0.5836593239862562  0.3991119492330316
  0.7925723176033498  0.7087076163937702  0.4000240140381127
  0.7909581854195437  0.8324416064540957  0.4001287424615881
  0.7904176535080280  0.9569333167820993  0.3998068381373155
  0.9157061964805528  0.0825816331617215  0.3990525811923863
  0.9154796261770980  0.2073780372583939  0.3986801785232280
  0.9155858506559643  0.3326399400766525  0.3983152610446613
  0.9161706681089971  0.4581102363983138  0.3981833559884573
  0.9170651239082291  0.5837076377312820  0.3984778931658919
  0.9173416928773703  0.7090936912823899  0.3990385835959361
  0.9170658630879825  0.8339789968229843  0.3994076898152245
  0.9163255063246710  0.9582747032018618  0.3993636670563755
  0.0838507322883039  0.0430915624884401  0.3993605933187295
  0.0834214869545599  0.1676276654696935  0.3990382657925131
  0.0817580009959963  0.2912412247148670  0.3983170618273884
  0.0811004446435584  0.4163506213683987  0.3977771311100355
  0.0818084867958342  0.5417273951468183  0.3976405537727694
  0.0829448755256943  0.6672659934617241  0.3981535236889255
  0.0835576095523719  0.7927396967709209  0.3989516302633260
  0.0837704393147119  0.9180097028589018  0.3993899701623837
  0.2088454517776308  0.0434979852741856  0.3999043194296195
  0.2091432878234789  0.1690954500494145  0.4003952270170302
  0.2087392906013012  0.2939962493344855  0.4001256376063234
  0.2044343746422010  0.4162641961976202  0.3986319793744859
  0.2052609762321570  0.5416616853360200  0.3978966516025788
  0.2072945942495139  0.6671883935074931  0.3980474919955328
  0.2080634079878577  0.7925211167930806  0.3987205498343824
  0.2084946303332089  0.9179632885039658  0.3993688258095258
  0.3334299261915384  0.0430105077250590  0.3996768026770141
  0.3339321266587171  0.1690375060406996  0.4011696628030865
  0.3344580521230952  0.2955229022231287  0.4044074688439157
  0.3308801260534823  0.4214495495103486  0.4046693672499191
  0.3278313664324750  0.5416534404349388  0.4004518664517023
  0.3315780019190421  0.6665572027921726  0.3989190949210318
  0.3325310608568637  0.7918429858698032  0.3988811557736932
  0.3330529830484786  0.9173275422774773  0.3992144756469497
  0.4579553594285312  0.0416815904162923  0.3992540634032399
  0.4584246304120378  0.1675636850505316  0.3999021376007112
  0.4591993792416688  0.2938340788615353  0.4027775940484174
  0.4636382833841643  0.4199221049641024  0.4117209206327913
  0.4549624411593354  0.6618215493089700  0.4029432268828168
  0.4568304285600372  0.7896414923254076  0.4000369674315226
  0.4575039650921776  0.9158035563020618  0.3993722170250803
  0.5824593575777901  0.0404267040712790  0.3993215686035214
  0.5829797964684196  0.1660101256971894  0.3991770188762704
  0.5837140962155795  0.2913200169833420  0.3999308357763520
  0.5858128589521242  0.4163528412004314  0.4019016232750341
  0.5874416710172312  0.5418004805778641  0.4057590670980672
  0.5810834636150913  0.6626703036830547  0.4056847690551979
  0.5809556414014768  0.7880776485001859  0.4020732503399043
  0.5818889682830553  0.9145575069778225  0.4001393721326952
  0.7071080115616691  0.0400472122700528  0.3996267330949992
  0.7075088770398390  0.1654904365408185  0.3991227510787788
  0.7081388765728563  0.2908847622644292  0.3989827052812315
  0.7094443328127783  0.4163550013556095  0.3991618791397737
  0.7105809849016860  0.5417854897682597  0.3998813891137132
  0.7093381624012337  0.6666250822427953  0.4013123589883000
  0.7070999886494590  0.7898628771330066  0.4011657888540103
  0.7068174991885312  0.9146292939704168  0.4004020369588762
  0.8322133297325643  0.0404747957257251  0.3993850639875804
  0.8321998965593870  0.1654921246460539  0.3990082764737785
  0.8325237921264730  0.2908129234746266  0.3986896390950833
  0.8332743015287893  0.4162293496365076  0.3985839667321723
  0.8341950141973967  0.5417597584950261  0.3987414534642234
  0.8343141686079036  0.6672486440528235  0.3993232516343937
  0.8337082564701889  0.7919409588142045  0.3998309770980440
  0.8326682753628162  0.9159415437803382  0.3997346644459556
  0.9580501061706593  0.0417498512449116  0.3991154163640651
  0.9572941353600679  0.1660139427415276  0.3987311177744464
  0.9570157537186498  0.2908881977069724  0.3983290304053252
  0.9571484639907093  0.4161980670792145  0.3979839100319771
  0.9580261594170499  0.5417866000017411  0.3981074207130535
  0.9587145412108011  0.6673005191851265  0.3986741405391340
  0.9588734635961466  0.7925838321782034  0.3992079230289864
  0.9586365359131321  0.9173968606898959  0.3993332141126305
  0.5450710532086215  0.5324452065084320  0.5067801236583699
  0.4656179882882913  0.5125726239758440  0.4927251178313818
 
  0.00000000E+00  0.00000000E+00  0.00000000E+00
  0.00000000E+00  0.00000000E+00  0.00000000E+00
  0.00000000E+00  0.00000000E+00  0.00000000E+00
  0.00000000E+00  0.00000000E+00  0.00000000E+00
  0.00000000E+00  0.00000000E+00  0.00000000E+00
  0.00000000E+00  0.00000000E+00  0.00000000E+00
  0.00000000E+00  0.00000000E+00  0.00000000E+00
  0.00000000E+00  0.00000000E+00  0.00000000E+00
  0.00000000E+00  0.00000000E+00  0.00000000E+00
  0.00000000E+00  0.00000000E+00  0.00000000E+00
  0.00000000E+00  0.00000000E+00  0.00000000E+00
  0.00000000E+00  0.00000000E+00  0.00000000E+00
  0.00000000E+00  0.00000000E+00  0.00000000E+00
  0.00000000E+00  0.00000000E+00  0.00000000E+00
  0.00000000E+00  0.00000000E+00  0.00000000E+00
  0.00000000E+00  0.00000000E+00  0.00000000E+00
  0.00000000E+00  0.00000000E+00  0.00000000E+00
  0.00000000E+00  0.00000000E+00  0.00000000E+00
  0.00000000E+00  0.00000000E+00  0.00000000E+00
  0.00000000E+00  0.00000000E+00  0.00000000E+00
  0.00000000E+00  0.00000000E+00  0.00000000E+00
  0.00000000E+00  0.00000000E+00  0.00000000E+00
  0.00000000E+00  0.00000000E+00  0.00000000E+00
  0.00000000E+00  0.00000000E+00  0.00000000E+00
  0.00000000E+00  0.00000000E+00  0.00000000E+00
  0.00000000E+00  0.00000000E+00  0.00000000E+00
  0.00000000E+00  0.00000000E+00  0.00000000E+00
  0.00000000E+00  0.00000000E+00  0.00000000E+00
  0.00000000E+00  0.00000000E+00  0.00000000E+00
  0.00000000E+00  0.00000000E+00  0.00000000E+00
  0.00000000E+00  0.00000000E+00  0.00000000E+00
  0.00000000E+00  0.00000000E+00  0.00000000E+00
  0.00000000E+00  0.00000000E+00  0.00000000E+00
  0.00000000E+00  0.00000000E+00  0.00000000E+00
  0.00000000E+00  0.00000000E+00  0.00000000E+00
  0.00000000E+00  0.00000000E+00  0.00000000E+00
  0.00000000E+00  0.00000000E+00  0.00000000E+00
  0.00000000E+00  0.00000000E+00  0.00000000E+00
  0.00000000E+00  0.00000000E+00  0.00000000E+00
  0.00000000E+00  0.00000000E+00  0.00000000E+00
  0.00000000E+00  0.00000000E+00  0.00000000E+00
  0.00000000E+00  0.00000000E+00  0.00000000E+00
  0.00000000E+00  0.00000000E+00  0.00000000E+00
  0.00000000E+00  0.00000000E+00  0.00000000E+00
  0.00000000E+00  0.00000000E+00  0.00000000E+00
  0.00000000E+00  0.00000000E+00  0.00000000E+00
  0.00000000E+00  0.00000000E+00  0.00000000E+00
  0.00000000E+00  0.00000000E+00  0.00000000E+00
  0.00000000E+00  0.00000000E+00  0.00000000E+00
  0.00000000E+00  0.00000000E+00  0.00000000E+00
  0.00000000E+00  0.00000000E+00  0.00000000E+00
  0.00000000E+00  0.00000000E+00  0.00000000E+00
  0.00000000E+00  0.00000000E+00  0.00000000E+00
  0.00000000E+00  0.00000000E+00  0.00000000E+00
  0.00000000E+00  0.00000000E+00  0.00000000E+00
  0.00000000E+00  0.00000000E+00  0.00000000E+00
  0.00000000E+00  0.00000000E+00  0.00000000E+00
  0.00000000E+00  0.00000000E+00  0.00000000E+00
  0.00000000E+00  0.00000000E+00  0.00000000E+00
  0.00000000E+00  0.00000000E+00  0.00000000E+00
  0.00000000E+00  0.00000000E+00  0.00000000E+00
  0.00000000E+00  0.00000000E+00  0.00000000E+00
  0.00000000E+00  0.00000000E+00  0.00000000E+00
  0.00000000E+00  0.00000000E+00  0.00000000E+00
  0.00000000E+00  0.00000000E+00  0.00000000E+00
  0.00000000E+00  0.00000000E+00  0.00000000E+00
  0.00000000E+00  0.00000000E+00  0.00000000E+00
  0.00000000E+00  0.00000000E+00  0.00000000E+00
  0.00000000E+00  0.00000000E+00  0.00000000E+00
  0.00000000E+00  0.00000000E+00  0.00000000E+00
  0.00000000E+00  0.00000000E+00  0.00000000E+00
  0.00000000E+00  0.00000000E+00  0.00000000E+00
  0.00000000E+00  0.00000000E+00  0.00000000E+00
  0.00000000E+00  0.00000000E+00  0.00000000E+00
  0.00000000E+00  0.00000000E+00  0.00000000E+00
  0.00000000E+00  0.00000000E+00  0.00000000E+00
  0.00000000E+00  0.00000000E+00  0.00000000E+00
  0.00000000E+00  0.00000000E+00  0.00000000E+00
  0.00000000E+00  0.00000000E+00  0.00000000E+00
  0.00000000E+00  0.00000000E+00  0.00000000E+00
  0.00000000E+00  0.00000000E+00  0.00000000E+00
  0.00000000E+00  0.00000000E+00  0.00000000E+00
  0.00000000E+00  0.00000000E+00  0.00000000E+00
  0.00000000E+00  0.00000000E+00  0.00000000E+00
  0.00000000E+00  0.00000000E+00  0.00000000E+00
  0.00000000E+00  0.00000000E+00  0.00000000E+00
  0.00000000E+00  0.00000000E+00  0.00000000E+00
  0.00000000E+00  0.00000000E+00  0.00000000E+00
  0.00000000E+00  0.00000000E+00  0.00000000E+00
  0.00000000E+00  0.00000000E+00  0.00000000E+00
  0.00000000E+00  0.00000000E+00  0.00000000E+00
  0.00000000E+00  0.00000000E+00  0.00000000E+00
  0.00000000E+00  0.00000000E+00  0.00000000E+00
  0.00000000E+00  0.00000000E+00  0.00000000E+00
  0.00000000E+00  0.00000000E+00  0.00000000E+00
  0.00000000E+00  0.00000000E+00  0.00000000E+00
  0.00000000E+00  0.00000000E+00  0.00000000E+00
  0.00000000E+00  0.00000000E+00  0.00000000E+00
  0.00000000E+00  0.00000000E+00  0.00000000E+00
  0.00000000E+00  0.00000000E+00  0.00000000E+00
  0.00000000E+00  0.00000000E+00  0.00000000E+00
  0.00000000E+00  0.00000000E+00  0.00000000E+00
  0.00000000E+00  0.00000000E+00  0.00000000E+00
  0.00000000E+00  0.00000000E+00  0.00000000E+00
  0.00000000E+00  0.00000000E+00  0.00000000E+00
  0.00000000E+00  0.00000000E+00  0.00000000E+00
  0.00000000E+00  0.00000000E+00  0.00000000E+00
  0.00000000E+00  0.00000000E+00  0.00000000E+00
  0.00000000E+00  0.00000000E+00  0.00000000E+00
  0.00000000E+00  0.00000000E+00  0.00000000E+00
  0.00000000E+00  0.00000000E+00  0.00000000E+00
  0.00000000E+00  0.00000000E+00  0.00000000E+00
  0.00000000E+00  0.00000000E+00  0.00000000E+00
  0.00000000E+00  0.00000000E+00  0.00000000E+00
  0.00000000E+00  0.00000000E+00  0.00000000E+00
  0.00000000E+00  0.00000000E+00  0.00000000E+00
  0.00000000E+00  0.00000000E+00  0.00000000E+00
  0.00000000E+00  0.00000000E+00  0.00000000E+00
  0.00000000E+00  0.00000000E+00  0.00000000E+00
  0.00000000E+00  0.00000000E+00  0.00000000E+00
  0.00000000E+00  0.00000000E+00  0.00000000E+00
  0.00000000E+00  0.00000000E+00  0.00000000E+00
  0.00000000E+00  0.00000000E+00  0.00000000E+00
  0.00000000E+00  0.00000000E+00  0.00000000E+00
  0.00000000E+00  0.00000000E+00  0.00000000E+00
  0.00000000E+00  0.00000000E+00  0.00000000E+00
  0.00000000E+00  0.00000000E+00  0.00000000E+00
  0.00000000E+00  0.00000000E+00  0.00000000E+00
  0.00000000E+00  0.00000000E+00  0.00000000E+00
  0.00000000E+00  0.00000000E+00  0.00000000E+00
