H1 Ir1 C124 N2 O2                       
   1.00000000000000     
    19.8181210207207492   -0.0434448190587319    0.2260338058789133
    -9.9462398819545470   17.0509641862738768   -0.1516473951939287
     0.3394107204483905   -0.0669049584634838   29.8198116365259445
   H    Ir   C    N    O 
     1     1   124     2     2
Direct
  0.5397701623339604  0.5427419308938876  0.5231460217499377
  0.4366419897291113  0.5016279206972840  0.4242031881244839
  0.0424916596561886  0.0847209204795592  0.3998557176288002
  0.0421207050517493  0.2089921236353244  0.3991004649748618
  0.0412524322682850  0.3333874236972167  0.3988081213226214
  0.0405405430961869  0.4585079736517853  0.3993012423052613
  0.0407701232109567  0.5839013051311802  0.3997430808182540
  0.0412588444814777  0.7092436184643987  0.3998196574863822
  0.0416134517849937  0.8344517132327031  0.3998510902410718
  0.0420550268134056  0.9597448692216392  0.3999718266492639
  0.1682568735939622  0.0862218283847911  0.3999755487591177
  0.1689708363950494  0.2116592356979461  0.3993414913318055
  0.1672289513040545  0.3352270660200674  0.3976838872234614
  0.1645344499192796  0.4593316318576125  0.3983420833785437
  0.1645353168778910  0.5843249322551309  0.3989317976761264
  0.1655423352641627  0.7094640196286152  0.3996538667992877
  0.1663171995683761  0.8347316676154305  0.3999090457709643
  0.1670764877383739  0.9602434280455338  0.4000211827532951
  0.2926184650508737  0.0856951981734905  0.4003037359956300
  0.2948720126742408  0.2132093208564076  0.4014320465423623
  0.2961556884541938  0.3401348275333664  0.3991662639152194
  0.2891668288082322  0.4615426356046989  0.3981685179916825
  0.2878228544229993  0.5853661662682917  0.3996298542408990
  0.2897219864284473  0.7096754232421073  0.3998221488799018
  0.2909445919552538  0.8345029544090290  0.3996981330170208
  0.2916745295731631  0.9597674292207009  0.3997837641561027
  0.4170083755394671  0.0838577601580276  0.3998517787768536
  0.4180096907068090  0.2096808282436357  0.4010009586794103
  0.4218690851589981  0.3375583916857134  0.4061177134053532
  0.4136022433896097  0.7072882057808434  0.4014392196144697
  0.4154893625385542  0.8329445014231274  0.3998386973362230
  0.4162880051269903  0.9583933189421243  0.3996927594152768
  0.5415831553195524  0.0821898536256610  0.3996492934090077
  0.5423665030098032  0.2073105944387327  0.4000318909142825
  0.5439393836098607  0.3320516042918949  0.4016887553991153
  0.5457917580096679  0.4552309304720276  0.4040097621487415
  0.5412212023965572  0.5756459946404485  0.4003917905345775
  0.5368225063544088  0.7023037987371689  0.4026794987923962
  0.5397317640489948  0.8305746616214722  0.4007821708335275
  0.5408819314970308  0.9567222354191722  0.3998342399712508
  0.6662298534806523  0.0816108816719027  0.3997984893247462
  0.6669424982471336  0.2069311965386827  0.3996734257692757
  0.6679890143026196  0.3321163718793233  0.3994858479338989
  0.6693731651485272  0.4572598702446156  0.3988972763886243
  0.6684102213412567  0.5813320899679386  0.3980756336008533
  0.6635200432297075  0.7040324010733437  0.3986423563801133
  0.6638486622057128  0.8295944156115813  0.4001399403102847
  0.6654029225997463  0.9559793116749611  0.4000456542832116
  0.7910393673535888  0.0817414778871581  0.3999600273017441
  0.7915450205968162  0.2070073748105870  0.3998310214724609
  0.7921626130042853  0.3323278240584090  0.3996295131627090
  0.7928814313279260  0.4577199144985816  0.3990844985843658
  0.7929671293423511  0.5829695565671504  0.3984800423397780
  0.7911737780262260  0.7073609357489751  0.3983120113487513
  0.7899148742236061  0.8313198055428531  0.3994087698276762
  0.7902476096474269  0.9563325599191678  0.3999149314958159
  0.9163652547148829  0.0827589382733569  0.3999291760747349
  0.9164462494776204  0.2075831021367247  0.3996962439710752
  0.9164719279468150  0.3327002017734652  0.3997709460563333
  0.9166189570184140  0.4580653847313724  0.3998045342206448
  0.9169351042145025  0.5835157729660604  0.3995647115381492
  0.9166510743980921  0.7087029914818954  0.3992359939425875
  0.9163143502185355  0.8334754043817203  0.3994872832281929
  0.9161608310881949  0.9580505049104338  0.3999978399083549
  0.0844363624732843  0.0436469595851008  0.3999109863883095
  0.0848250022490762  0.1686076164865112  0.3994320299883676
  0.0836322884836716  0.2925312447645729  0.3983677838539063
  0.0818718382963977  0.4169228968242205  0.3987399612192714
  0.0817366454436453  0.5421069478407081  0.3993362122518924
  0.0824249801074352  0.6675085624331967  0.3997650956391574
  0.0830615921295051  0.7928788944001868  0.3998699186944288
  0.0835873422677308  0.9181971775895602  0.3999920166859397
  0.2092428011235094  0.0440026533916384  0.4001214477408285
  0.2108440828651406  0.1704128558666357  0.4000810697224621
  0.2112900099829248  0.2958356459955326  0.3983738017525479
  0.2066150595268971  0.4185679537724570  0.3977902145204119
  0.2052129723579900  0.5426320382447983  0.3984417548091614
  0.2066063153011145  0.6678043225736258  0.3994018071308745
  0.2076234997693663  0.7929915722615912  0.3997810737244503
  0.2083387110702895  0.9183237252771765  0.3999262958819234
  0.3336838852193658  0.0432982451185708  0.3999220795158783
  0.3348385718670250  0.1695034488019461  0.4010993212602481
  0.3377338817703173  0.2978598585169643  0.4028878188316632
  0.3346643677753720  0.4244879508065101  0.3974999894932751
  0.3285623733790015  0.5449115068456500  0.4018659158340047
  0.3305823140255955  0.6680542268121035  0.4005733446214372
  0.3321963587952485  0.7927249555678915  0.3997741611924869
  0.3329963276638948  0.9178201828395257  0.3996823258502392
  0.4582875820079552  0.0416882010581825  0.3997061613762618
  0.4590949219667358  0.1672061048681307  0.4001447898519440
  0.4608528808524726  0.2930565341532144  0.4026482677986327
  0.4524287534859101  0.6629872018447980  0.4047874970687516
  0.4565730797294024  0.7905707927925528  0.4004140297941398
  0.4575746812635316  0.9162411811811455  0.3997604973745273
  0.5829020105000058  0.0402212676934923  0.3996909509962309
  0.5836153975492288  0.1654881394349764  0.3996984811968554
  0.5848202748047869  0.2903618126544912  0.4002916734013413
  0.5866836902948551  0.4146738372007279  0.4009646517048710
  0.5860029520902036  0.5382022551656833  0.3997905190699437
  0.5785920350113638  0.6599569720271633  0.3998000912751366
  0.5797660585584440  0.7869341729162175  0.4012392595434885
  0.5819768571956419  0.9143393747408034  0.4001712558475397
  0.7075305180080774  0.0397153562180059  0.3999191754604444
  0.7082381074932144  0.1651737642669630  0.3997642717033351
  0.7090301749519098  0.2904186572108175  0.3995271580456407
  0.7100526947735382  0.4155532965600751  0.3989396161015460
  0.7103263122503103  0.5405430076569211  0.3983681354417156
  0.7076816618815862  0.6646691901808590  0.3978826691129065
  0.7057274571785418  0.7882699063927073  0.3994265310568814
  0.7064315456611803  0.9137975749085905  0.3999852139687644
  0.8325947928796493  0.0402215733829957  0.3999714233812865
  0.8330326162493547  0.1654669137371158  0.3998966536149131
  0.8333502157689822  0.2906118545547789  0.3998175829311865
  0.8337839424853017  0.4159097203720862  0.3995849128557163
  0.8341300870330535  0.5413218670356688  0.3990408059060347
  0.8335371525582528  0.6664852469636837  0.3985638332247335
  0.8326466135387177  0.7909269899935922  0.3990224900422970
  0.8321983512538779  0.9152296791511902  0.3998705413055527
  0.9585129689619444  0.0419131496137264  0.4000061705925865
  0.9584157580371018  0.1664703747137124  0.3996081740137301
  0.9580727652552691  0.2911979663946963  0.3995087327346326
  0.9577013458148741  0.4163054053772711  0.3997207788844053
  0.9579598819403825  0.5417243156583107  0.3998129321118459
  0.9581710598155414  0.6671542104338297  0.3996045663854242
  0.9582486220793848  0.7923347842725987  0.3995286246308530
  0.9583169707846314  0.9172166737044080  0.3998827532781843
  0.4071396109900784  0.5830255520857629  0.4092450249500978
  0.4667310083483573  0.4177394814665853  0.4112884869748747
  0.4955580410346369  0.4937102905009232  0.5120792820719122
  0.4553456974020970  0.5287193750953957  0.4866794288884255
 
  0.00000000E+00  0.00000000E+00  0.00000000E+00
  0.00000000E+00  0.00000000E+00  0.00000000E+00
  0.00000000E+00  0.00000000E+00  0.00000000E+00
  0.00000000E+00  0.00000000E+00  0.00000000E+00
  0.00000000E+00  0.00000000E+00  0.00000000E+00
  0.00000000E+00  0.00000000E+00  0.00000000E+00
  0.00000000E+00  0.00000000E+00  0.00000000E+00
  0.00000000E+00  0.00000000E+00  0.00000000E+00
  0.00000000E+00  0.00000000E+00  0.00000000E+00
  0.00000000E+00  0.00000000E+00  0.00000000E+00
  0.00000000E+00  0.00000000E+00  0.00000000E+00
  0.00000000E+00  0.00000000E+00  0.00000000E+00
  0.00000000E+00  0.00000000E+00  0.00000000E+00
  0.00000000E+00  0.00000000E+00  0.00000000E+00
  0.00000000E+00  0.00000000E+00  0.00000000E+00
  0.00000000E+00  0.00000000E+00  0.00000000E+00
  0.00000000E+00  0.00000000E+00  0.00000000E+00
  0.00000000E+00  0.00000000E+00  0.00000000E+00
  0.00000000E+00  0.00000000E+00  0.00000000E+00
  0.00000000E+00  0.00000000E+00  0.00000000E+00
  0.00000000E+00  0.00000000E+00  0.00000000E+00
  0.00000000E+00  0.00000000E+00  0.00000000E+00
  0.00000000E+00  0.00000000E+00  0.00000000E+00
  0.00000000E+00  0.00000000E+00  0.00000000E+00
  0.00000000E+00  0.00000000E+00  0.00000000E+00
  0.00000000E+00  0.00000000E+00  0.00000000E+00
  0.00000000E+00  0.00000000E+00  0.00000000E+00
  0.00000000E+00  0.00000000E+00  0.00000000E+00
  0.00000000E+00  0.00000000E+00  0.00000000E+00
  0.00000000E+00  0.00000000E+00  0.00000000E+00
  0.00000000E+00  0.00000000E+00  0.00000000E+00
  0.00000000E+00  0.00000000E+00  0.00000000E+00
  0.00000000E+00  0.00000000E+00  0.00000000E+00
  0.00000000E+00  0.00000000E+00  0.00000000E+00
  0.00000000E+00  0.00000000E+00  0.00000000E+00
  0.00000000E+00  0.00000000E+00  0.00000000E+00
  0.00000000E+00  0.00000000E+00  0.00000000E+00
  0.00000000E+00  0.00000000E+00  0.00000000E+00
  0.00000000E+00  0.00000000E+00  0.00000000E+00
  0.00000000E+00  0.00000000E+00  0.00000000E+00
  0.00000000E+00  0.00000000E+00  0.00000000E+00
  0.00000000E+00  0.00000000E+00  0.00000000E+00
  0.00000000E+00  0.00000000E+00  0.00000000E+00
  0.00000000E+00  0.00000000E+00  0.00000000E+00
  0.00000000E+00  0.00000000E+00  0.00000000E+00
  0.00000000E+00  0.00000000E+00  0.00000000E+00
  0.00000000E+00  0.00000000E+00  0.00000000E+00
  0.00000000E+00  0.00000000E+00  0.00000000E+00
  0.00000000E+00  0.00000000E+00  0.00000000E+00
  0.00000000E+00  0.00000000E+00  0.00000000E+00
  0.00000000E+00  0.00000000E+00  0.00000000E+00
  0.00000000E+00  0.00000000E+00  0.00000000E+00
  0.00000000E+00  0.00000000E+00  0.00000000E+00
  0.00000000E+00  0.00000000E+00  0.00000000E+00
  0.00000000E+00  0.00000000E+00  0.00000000E+00
  0.00000000E+00  0.00000000E+00  0.00000000E+00
  0.00000000E+00  0.00000000E+00  0.00000000E+00
  0.00000000E+00  0.00000000E+00  0.00000000E+00
  0.00000000E+00  0.00000000E+00  0.00000000E+00
  0.00000000E+00  0.00000000E+00  0.00000000E+00
  0.00000000E+00  0.00000000E+00  0.00000000E+00
  0.00000000E+00  0.00000000E+00  0.00000000E+00
  0.00000000E+00  0.00000000E+00  0.00000000E+00
  0.00000000E+00  0.00000000E+00  0.00000000E+00
  0.00000000E+00  0.00000000E+00  0.00000000E+00
  0.00000000E+00  0.00000000E+00  0.00000000E+00
  0.00000000E+00  0.00000000E+00  0.00000000E+00
  0.00000000E+00  0.00000000E+00  0.00000000E+00
  0.00000000E+00  0.00000000E+00  0.00000000E+00
  0.00000000E+00  0.00000000E+00  0.00000000E+00
  0.00000000E+00  0.00000000E+00  0.00000000E+00
  0.00000000E+00  0.00000000E+00  0.00000000E+00
  0.00000000E+00  0.00000000E+00  0.00000000E+00
  0.00000000E+00  0.00000000E+00  0.00000000E+00
  0.00000000E+00  0.00000000E+00  0.00000000E+00
  0.00000000E+00  0.00000000E+00  0.00000000E+00
  0.00000000E+00  0.00000000E+00  0.00000000E+00
  0.00000000E+00  0.00000000E+00  0.00000000E+00
  0.00000000E+00  0.00000000E+00  0.00000000E+00
  0.00000000E+00  0.00000000E+00  0.00000000E+00
  0.00000000E+00  0.00000000E+00  0.00000000E+00
  0.00000000E+00  0.00000000E+00  0.00000000E+00
  0.00000000E+00  0.00000000E+00  0.00000000E+00
  0.00000000E+00  0.00000000E+00  0.00000000E+00
  0.00000000E+00  0.00000000E+00  0.00000000E+00
  0.00000000E+00  0.00000000E+00  0.00000000E+00
  0.00000000E+00  0.00000000E+00  0.00000000E+00
  0.00000000E+00  0.00000000E+00  0.00000000E+00
  0.00000000E+00  0.00000000E+00  0.00000000E+00
  0.00000000E+00  0.00000000E+00  0.00000000E+00
  0.00000000E+00  0.00000000E+00  0.00000000E+00
  0.00000000E+00  0.00000000E+00  0.00000000E+00
  0.00000000E+00  0.00000000E+00  0.00000000E+00
  0.00000000E+00  0.00000000E+00  0.00000000E+00
  0.00000000E+00  0.00000000E+00  0.00000000E+00
  0.00000000E+00  0.00000000E+00  0.00000000E+00
  0.00000000E+00  0.00000000E+00  0.00000000E+00
  0.00000000E+00  0.00000000E+00  0.00000000E+00
  0.00000000E+00  0.00000000E+00  0.00000000E+00
  0.00000000E+00  0.00000000E+00  0.00000000E+00
  0.00000000E+00  0.00000000E+00  0.00000000E+00
  0.00000000E+00  0.00000000E+00  0.00000000E+00
  0.00000000E+00  0.00000000E+00  0.00000000E+00
  0.00000000E+00  0.00000000E+00  0.00000000E+00
  0.00000000E+00  0.00000000E+00  0.00000000E+00
  0.00000000E+00  0.00000000E+00  0.00000000E+00
  0.00000000E+00  0.00000000E+00  0.00000000E+00
  0.00000000E+00  0.00000000E+00  0.00000000E+00
  0.00000000E+00  0.00000000E+00  0.00000000E+00
  0.00000000E+00  0.00000000E+00  0.00000000E+00
  0.00000000E+00  0.00000000E+00  0.00000000E+00
  0.00000000E+00  0.00000000E+00  0.00000000E+00
  0.00000000E+00  0.00000000E+00  0.00000000E+00
  0.00000000E+00  0.00000000E+00  0.00000000E+00
  0.00000000E+00  0.00000000E+00  0.00000000E+00
  0.00000000E+00  0.00000000E+00  0.00000000E+00
  0.00000000E+00  0.00000000E+00  0.00000000E+00
  0.00000000E+00  0.00000000E+00  0.00000000E+00
  0.00000000E+00  0.00000000E+00  0.00000000E+00
  0.00000000E+00  0.00000000E+00  0.00000000E+00
  0.00000000E+00  0.00000000E+00  0.00000000E+00
  0.00000000E+00  0.00000000E+00  0.00000000E+00
  0.00000000E+00  0.00000000E+00  0.00000000E+00
  0.00000000E+00  0.00000000E+00  0.00000000E+00
  0.00000000E+00  0.00000000E+00  0.00000000E+00
  0.00000000E+00  0.00000000E+00  0.00000000E+00
  0.00000000E+00  0.00000000E+00  0.00000000E+00
  0.00000000E+00  0.00000000E+00  0.00000000E+00
  0.00000000E+00  0.00000000E+00  0.00000000E+00
  0.00000000E+00  0.00000000E+00  0.00000000E+00
