La1 H1 C126 O2                          
   1.00000000000000     
    19.7486910079972482    0.0004495114415564   -0.0844490327414533
    -9.8747046289019362   17.0961224272799974    0.1206305886660377
    -0.1274893178490880    0.1366212102663877   29.8042028016061984
   La   H    C    O 
     1     1   126     2
Direct
  0.4421861121550136  0.5065689070303742  0.4628698748965490
  0.5716050780271293  0.5849721259083011  0.5425780554042477
  0.0417575019166508  0.0834034914949336  0.3999906748225742
  0.0415700218455820  0.2081887464159856  0.3996169047884672
  0.0415756235673856  0.3330645700685234  0.3991303684983329
  0.0416455509398241  0.4581904150120593  0.3992299569903286
  0.0416015521701747  0.5832072010318843  0.3997028100453647
  0.0417198792231790  0.7082920046270608  0.3998437419513785
  0.0418417201375308  0.8334433885880812  0.3998837616105012
  0.0418439457121045  0.9584439910171917  0.4000701853851774
  0.1667835790514917  0.0835477347309141  0.4003144563479974
  0.1668504487385718  0.2084597877416018  0.4001460018176340
  0.1667342672042744  0.3333096413884256  0.3990727477510310
  0.1666569855812739  0.4581699637980125  0.3979636889864789
  0.1664900800694181  0.5832119198773313  0.3985530348391373
  0.1666129764927365  0.7083616502138418  0.3994980995125837
  0.1667276641377094  0.8334241886464110  0.3998640624734450
  0.1668378014434755  0.9585649589331010  0.4000871028071612
  0.2918766477285885  0.0835492315464109  0.4003157606561065
  0.2920157447703633  0.2088996682524860  0.4007744659976157
  0.2925202330927852  0.3345100581048983  0.4010737249462837
  0.2924892444335080  0.4580097371721356  0.3990002020025284
  0.2913116806081263  0.5835863498390986  0.3979071951289200
  0.2914305063444426  0.7083783394773153  0.3990010499794185
  0.2916350396431058  0.8333576546519533  0.3996958115616334
  0.2917136050341102  0.9584165696903377  0.4000022990497658
  0.4167457972675014  0.0833651456100982  0.3999676188511663
  0.4167260949646583  0.2084536808441923  0.4001789208333267
  0.4171585638352008  0.3345379082142482  0.4007206245507803
  0.4155760288134973  0.5828609870795970  0.4038655419455131
  0.4164039812831491  0.7079742555520735  0.4001549129678908
  0.4165369178819534  0.8331831557430260  0.3997434059844484
  0.4165967867019416  0.9582052116553968  0.3998718923436436
  0.5415824753227806  0.0830409836382436  0.3999085312642874
  0.5416982691174224  0.2081563624049753  0.3996479410794322
  0.5416732408176832  0.3332805399960665  0.3990057363904962
  0.5407032674141916  0.4579925981982580  0.3983138023759593
  0.5425949173657729  0.5827703239077850  0.4029148945139381
  0.5414846049243356  0.7077815954641583  0.4027145378832699
  0.5413096358553791  0.8327833609160135  0.4007245802684324
  0.5415433981579475  0.9579506419930375  0.4000382165328544
  0.6664973387431928  0.0829245636915517  0.3999658621914432
  0.6666070287598278  0.2080321252969564  0.3997742461027590
  0.6665561248722091  0.3330315282042952  0.3991459065490996
  0.6666191973045901  0.4581579903052438  0.3978834989327688
  0.6674063785529025  0.5835796452158400  0.3976292669340099
  0.6667152752716078  0.7079604696369837  0.4000217022768740
  0.6665995708767405  0.8327845684153059  0.4006714502812081
  0.6664923270759910  0.9578683273663244  0.4002457015110160
  0.7915294413261764  0.0829281137567597  0.3999857752660341
  0.7915082976010862  0.2079264139785525  0.3999229829329337
  0.7916034494878562  0.3330491827321965  0.3997400813794115
  0.7916597367571978  0.4581955749998496  0.3992020641054762
  0.7918502521018503  0.5832317449437637  0.3985616314920522
  0.7920853768744118  0.7084107164805042  0.3990402368548050
  0.7917746635257219  0.8332156986665833  0.3997607351602422
  0.7915386127384934  0.9579748274288202  0.4000075525307407
  0.9166076369062268  0.0831020189772354  0.3999191641828072
  0.9165209134560708  0.2080560486242899  0.3997942925698550
  0.9165484010253953  0.3330600308852529  0.3997708680442699
  0.9166070292774603  0.4580623219349432  0.3998512887884739
  0.9167790289679594  0.5832267250966072  0.3996845901545059
  0.9169006906565799  0.7083949327541623  0.3995044763080955
  0.9168680567181424  0.8333953506165878  0.3997415080831984
  0.9167667665604221  0.9582551245097419  0.3998938289417314
  0.0835059944755525  0.0418062249970109  0.4001417657162560
  0.0834187364363998  0.1667150014185277  0.3998569784903632
  0.0831903875399071  0.2915204454610160  0.3991847946548632
  0.0834308055366842  0.4165958182983631  0.3987338987249770
  0.0832061488979693  0.5415192365712689  0.3991905134646106
  0.0833161602972973  0.6666556559428607  0.3997324641227543
  0.0834679445110312  0.7918006355476755  0.3998638099511472
  0.0834832559931908  0.9168340182129729  0.4000280482919081
  0.2084799585593861  0.0418407091779813  0.4002672526714011
  0.2083524131828551  0.1668454282292202  0.4005064785469659
  0.2086680566067611  0.2920036857480393  0.3999880466549685
  0.2083411424531246  0.4163775775531792  0.3982639989797961
  0.2080960294397459  0.5417182901984520  0.3977508671526051
  0.2082672677657985  0.6667508236466730  0.3989492301058652
  0.2082964136163750  0.7917170457242585  0.3997111599172466
  0.2084672246256451  0.9168270608259361  0.3999881272210689
  0.3334106523002225  0.0417841198457201  0.4001065398577454
  0.3336155889177836  0.1668389061659334  0.4004904875114506
  0.3333232630127801  0.2915115434205738  0.4011705489692380
  0.3338148219092735  0.4167494180886670  0.4020450828987356
  0.3337362375942994  0.5423384313224746  0.3991556283141354
  0.3330995704003804  0.6666791891282818  0.3988918395666352
  0.3331995663114214  0.7916982883064214  0.3994918975771551
  0.3333514590857497  0.9167164902330033  0.3998726445159940
  0.4583461484740302  0.0415868122032255  0.3999051184719765
  0.4583784899712191  0.1666804352637151  0.3998815716959604
  0.4584732141166476  0.2919937282895489  0.3998985992797231
  0.4582449471264894  0.4167668718747493  0.4009980133099859
  0.4574259586605527  0.6653798657592115  0.4023262085645796
  0.4581849213215916  0.7914454725012539  0.4001926217218821
  0.4582042573520231  0.9164482638430115  0.3998799566772042
  0.5832275538158725  0.0413072657574693  0.3999770900285894
  0.5832776416864870  0.1664307949981287  0.3997882845350096
  0.5834114204600627  0.2914711506940153  0.3992135344929028
  0.5831542227630432  0.4163485725289732  0.3980581781258248
  0.5838186531113905  0.5423377635730681  0.3984062368377653
  0.5830877674968755  0.6652697283833663  0.4019815777157051
  0.5828741983310708  0.7906086796783605  0.4014193095096944
  0.5830841961373354  0.9161471809706844  0.4003127314262094
  0.7081220011465670  0.0411556632822140  0.4000316478632299
  0.7082199949514041  0.1663131731963177  0.3998997794972836
  0.7082718510303632  0.2913833114084675  0.3995898678706319
  0.7082683255209464  0.4165724263667376  0.3987095200162348
  0.7087526455758600  0.5417164738642539  0.3976721936143965
  0.7087147669881579  0.6667014425548387  0.3987888559542312
  0.7083861011004535  0.7914511427091160  0.4001783844464173
  0.7081788306120901  0.9161370698944740  0.4002828731742007
  0.8332096754351634  0.0413437898577064  0.3999796827845106
  0.8331862680602334  0.1663219228015274  0.3999289515444399
  0.8332758144399568  0.2914497351642872  0.3998824008895233
  0.8333191076389190  0.4164780277874042  0.3996775516560018
  0.8334532535367234  0.5415335263488619  0.3991861206336336
  0.8336245875474972  0.6667894743160986  0.3989758920789829
  0.8336248788191153  0.7917268450136572  0.3995376329597283
  0.8333851775754403  0.9164934831188780  0.3998654793141652
  0.9583858698216547  0.0416315818078110  0.3999304063806738
  0.9582691338213433  0.1664793230595786  0.3997892738188513
  0.9582210063563226  0.2914193702073238  0.3995912891069440
  0.9582877157358584  0.4164717399501332  0.3997171558230007
  0.9583660640042355  0.5415865341744970  0.3998560084544936
  0.9584739899792578  0.6666650602675329  0.3997087445667828
  0.9585434563310984  0.7917417971953110  0.3997286455662730
  0.9585018485733849  0.9167494455309417  0.3999278446694587
  0.5276606120210743  0.5351464648225678  0.5329824836311853
  0.4616942678524702  0.5515454539220112  0.5348202698039632
 
  0.00000000E+00  0.00000000E+00  0.00000000E+00
  0.00000000E+00  0.00000000E+00  0.00000000E+00
  0.00000000E+00  0.00000000E+00  0.00000000E+00
  0.00000000E+00  0.00000000E+00  0.00000000E+00
  0.00000000E+00  0.00000000E+00  0.00000000E+00
  0.00000000E+00  0.00000000E+00  0.00000000E+00
  0.00000000E+00  0.00000000E+00  0.00000000E+00
  0.00000000E+00  0.00000000E+00  0.00000000E+00
  0.00000000E+00  0.00000000E+00  0.00000000E+00
  0.00000000E+00  0.00000000E+00  0.00000000E+00
  0.00000000E+00  0.00000000E+00  0.00000000E+00
  0.00000000E+00  0.00000000E+00  0.00000000E+00
  0.00000000E+00  0.00000000E+00  0.00000000E+00
  0.00000000E+00  0.00000000E+00  0.00000000E+00
  0.00000000E+00  0.00000000E+00  0.00000000E+00
  0.00000000E+00  0.00000000E+00  0.00000000E+00
  0.00000000E+00  0.00000000E+00  0.00000000E+00
  0.00000000E+00  0.00000000E+00  0.00000000E+00
  0.00000000E+00  0.00000000E+00  0.00000000E+00
  0.00000000E+00  0.00000000E+00  0.00000000E+00
  0.00000000E+00  0.00000000E+00  0.00000000E+00
  0.00000000E+00  0.00000000E+00  0.00000000E+00
  0.00000000E+00  0.00000000E+00  0.00000000E+00
  0.00000000E+00  0.00000000E+00  0.00000000E+00
  0.00000000E+00  0.00000000E+00  0.00000000E+00
  0.00000000E+00  0.00000000E+00  0.00000000E+00
  0.00000000E+00  0.00000000E+00  0.00000000E+00
  0.00000000E+00  0.00000000E+00  0.00000000E+00
  0.00000000E+00  0.00000000E+00  0.00000000E+00
  0.00000000E+00  0.00000000E+00  0.00000000E+00
  0.00000000E+00  0.00000000E+00  0.00000000E+00
  0.00000000E+00  0.00000000E+00  0.00000000E+00
  0.00000000E+00  0.00000000E+00  0.00000000E+00
  0.00000000E+00  0.00000000E+00  0.00000000E+00
  0.00000000E+00  0.00000000E+00  0.00000000E+00
  0.00000000E+00  0.00000000E+00  0.00000000E+00
  0.00000000E+00  0.00000000E+00  0.00000000E+00
  0.00000000E+00  0.00000000E+00  0.00000000E+00
  0.00000000E+00  0.00000000E+00  0.00000000E+00
  0.00000000E+00  0.00000000E+00  0.00000000E+00
  0.00000000E+00  0.00000000E+00  0.00000000E+00
  0.00000000E+00  0.00000000E+00  0.00000000E+00
  0.00000000E+00  0.00000000E+00  0.00000000E+00
  0.00000000E+00  0.00000000E+00  0.00000000E+00
  0.00000000E+00  0.00000000E+00  0.00000000E+00
  0.00000000E+00  0.00000000E+00  0.00000000E+00
  0.00000000E+00  0.00000000E+00  0.00000000E+00
  0.00000000E+00  0.00000000E+00  0.00000000E+00
  0.00000000E+00  0.00000000E+00  0.00000000E+00
  0.00000000E+00  0.00000000E+00  0.00000000E+00
  0.00000000E+00  0.00000000E+00  0.00000000E+00
  0.00000000E+00  0.00000000E+00  0.00000000E+00
  0.00000000E+00  0.00000000E+00  0.00000000E+00
  0.00000000E+00  0.00000000E+00  0.00000000E+00
  0.00000000E+00  0.00000000E+00  0.00000000E+00
  0.00000000E+00  0.00000000E+00  0.00000000E+00
  0.00000000E+00  0.00000000E+00  0.00000000E+00
  0.00000000E+00  0.00000000E+00  0.00000000E+00
  0.00000000E+00  0.00000000E+00  0.00000000E+00
  0.00000000E+00  0.00000000E+00  0.00000000E+00
  0.00000000E+00  0.00000000E+00  0.00000000E+00
  0.00000000E+00  0.00000000E+00  0.00000000E+00
  0.00000000E+00  0.00000000E+00  0.00000000E+00
  0.00000000E+00  0.00000000E+00  0.00000000E+00
  0.00000000E+00  0.00000000E+00  0.00000000E+00
  0.00000000E+00  0.00000000E+00  0.00000000E+00
  0.00000000E+00  0.00000000E+00  0.00000000E+00
  0.00000000E+00  0.00000000E+00  0.00000000E+00
  0.00000000E+00  0.00000000E+00  0.00000000E+00
  0.00000000E+00  0.00000000E+00  0.00000000E+00
  0.00000000E+00  0.00000000E+00  0.00000000E+00
  0.00000000E+00  0.00000000E+00  0.00000000E+00
  0.00000000E+00  0.00000000E+00  0.00000000E+00
  0.00000000E+00  0.00000000E+00  0.00000000E+00
  0.00000000E+00  0.00000000E+00  0.00000000E+00
  0.00000000E+00  0.00000000E+00  0.00000000E+00
  0.00000000E+00  0.00000000E+00  0.00000000E+00
  0.00000000E+00  0.00000000E+00  0.00000000E+00
  0.00000000E+00  0.00000000E+00  0.00000000E+00
  0.00000000E+00  0.00000000E+00  0.00000000E+00
  0.00000000E+00  0.00000000E+00  0.00000000E+00
  0.00000000E+00  0.00000000E+00  0.00000000E+00
  0.00000000E+00  0.00000000E+00  0.00000000E+00
  0.00000000E+00  0.00000000E+00  0.00000000E+00
  0.00000000E+00  0.00000000E+00  0.00000000E+00
  0.00000000E+00  0.00000000E+00  0.00000000E+00
  0.00000000E+00  0.00000000E+00  0.00000000E+00
  0.00000000E+00  0.00000000E+00  0.00000000E+00
  0.00000000E+00  0.00000000E+00  0.00000000E+00
  0.00000000E+00  0.00000000E+00  0.00000000E+00
  0.00000000E+00  0.00000000E+00  0.00000000E+00
  0.00000000E+00  0.00000000E+00  0.00000000E+00
  0.00000000E+00  0.00000000E+00  0.00000000E+00
  0.00000000E+00  0.00000000E+00  0.00000000E+00
  0.00000000E+00  0.00000000E+00  0.00000000E+00
  0.00000000E+00  0.00000000E+00  0.00000000E+00
  0.00000000E+00  0.00000000E+00  0.00000000E+00
  0.00000000E+00  0.00000000E+00  0.00000000E+00
  0.00000000E+00  0.00000000E+00  0.00000000E+00
  0.00000000E+00  0.00000000E+00  0.00000000E+00
  0.00000000E+00  0.00000000E+00  0.00000000E+00
  0.00000000E+00  0.00000000E+00  0.00000000E+00
  0.00000000E+00  0.00000000E+00  0.00000000E+00
  0.00000000E+00  0.00000000E+00  0.00000000E+00
  0.00000000E+00  0.00000000E+00  0.00000000E+00
  0.00000000E+00  0.00000000E+00  0.00000000E+00
  0.00000000E+00  0.00000000E+00  0.00000000E+00
  0.00000000E+00  0.00000000E+00  0.00000000E+00
  0.00000000E+00  0.00000000E+00  0.00000000E+00
  0.00000000E+00  0.00000000E+00  0.00000000E+00
  0.00000000E+00  0.00000000E+00  0.00000000E+00
  0.00000000E+00  0.00000000E+00  0.00000000E+00
  0.00000000E+00  0.00000000E+00  0.00000000E+00
  0.00000000E+00  0.00000000E+00  0.00000000E+00
  0.00000000E+00  0.00000000E+00  0.00000000E+00
  0.00000000E+00  0.00000000E+00  0.00000000E+00
  0.00000000E+00  0.00000000E+00  0.00000000E+00
  0.00000000E+00  0.00000000E+00  0.00000000E+00
  0.00000000E+00  0.00000000E+00  0.00000000E+00
  0.00000000E+00  0.00000000E+00  0.00000000E+00
  0.00000000E+00  0.00000000E+00  0.00000000E+00
  0.00000000E+00  0.00000000E+00  0.00000000E+00
  0.00000000E+00  0.00000000E+00  0.00000000E+00
  0.00000000E+00  0.00000000E+00  0.00000000E+00
  0.00000000E+00  0.00000000E+00  0.00000000E+00
  0.00000000E+00  0.00000000E+00  0.00000000E+00
  0.00000000E+00  0.00000000E+00  0.00000000E+00
  0.00000000E+00  0.00000000E+00  0.00000000E+00
  0.00000000E+00  0.00000000E+00  0.00000000E+00
  0.00000000E+00  0.00000000E+00  0.00000000E+00
