Nb1 H1 C123 N3                          
   1.00000000000000     
    19.8068827974181758    0.0094886083460153   -0.0143132963229593
    -9.8950700677759986   17.0308197342894267   -0.1463816239984031
    -0.0213620430598963   -0.2686539485489319   29.8239387221775338
   Nb   H    C    N 
     1     1   123     3
Direct
  0.4391286496104209  0.5019455243276496  0.4355247904382417
  0.4453497839968342  0.4987853205273697  0.4966888526391044
  0.0419655295075570  0.0841764646236057  0.3996581181981648
  0.0410975492270899  0.2083059809131030  0.3996972806635580
  0.0404285379521596  0.3330732057128445  0.3994491329471551
  0.0406025837387713  0.4583145700346080  0.3993171345088862
  0.0415085999296006  0.5838727835220063  0.3997415500835904
  0.0423018413178343  0.7093333339988009  0.3999926716305699
  0.0424996299459154  0.8345280802584712  0.3999950300924121
  0.0424146733387728  0.9596012663896841  0.3997688126566291
  0.1677419197774936  0.0853981889593771  0.3999825288321364
  0.1673968125589796  0.2102571668432025  0.4003144971557672
  0.1652208788505659  0.3337380142016628  0.4003578004102983
  0.1643818599852340  0.4584674254421119  0.3988622935264619
  0.1652958341967233  0.5836698685958608  0.3989055039616405
  0.1665471963922392  0.7090120551668181  0.3996718003921195
  0.1672006132976383  0.8344824890501161  0.3999629877826698
  0.1674890230711565  0.9599543943720205  0.3998933174016499
  0.2925750430977758  0.0857553667761235  0.3999595640923384
  0.2931296083025139  0.2124677839711012  0.4014032215832557
  0.2923651023096318  0.3380547750925570  0.4037601350556451
  0.2878808685748263  0.4582103530524556  0.4020052091779330
  0.2886853606883116  0.5828713058436514  0.3988556280552457
  0.2908201132691736  0.7082790265737401  0.3991325017562345
  0.2917896633275763  0.8339299167424068  0.3997381636834313
  0.2922599205512834  0.9596378312290134  0.3997939713999222
  0.4170960468135770  0.0842870631667708  0.3996361420249704
  0.4176754843395154  0.2105376210686277  0.4000900375133354
  0.4194389439163998  0.3383078129992914  0.4028125213135932
  0.4149629036031927  0.7058609139129700  0.3996056668383886
  0.4162491405071165  0.8322087947890890  0.3994927962086559
  0.4168121055464554  0.9583343765218780  0.3997407941607530
  0.5416362643763134  0.0828056256172787  0.3997549494836618
  0.5421134588592883  0.2086072697828366  0.3995144024243648
  0.5431605938563925  0.3343059631190221  0.3995717271175285
  0.5463869486662530  0.4597687788593143  0.4011119177357544
  0.5386590154670111  0.7020539776408782  0.4018955507814153
  0.5406344933834075  0.8303320078778178  0.4000311439374168
  0.5412176324843351  0.9568493556799293  0.3998902207263261
  0.6662098406176683  0.0821881238129535  0.4000507019095138
  0.6666080463846802  0.2076715231791132  0.3997523602623985
  0.6674726001625395  0.3331380064332566  0.3992979552683015
  0.6695336594188956  0.4587505268015352  0.3988953519612461
  0.6705671546020802  0.5841266147747196  0.3992076583220965
  0.6667396409706073  0.7065970181581425  0.3999591580908936
  0.6649026328792024  0.8305435146198293  0.4001250925005264
  0.6656908455451946  0.9564737765071395  0.4001068913439748
  0.7908607900512896  0.0821588295147965  0.3999537335588872
  0.7911908904304380  0.2075298741892923  0.3999665759553562
  0.7918112391408159  0.3329451361758875  0.3997885915971064
  0.7929428572575032  0.4584074175674133  0.3994064736141248
  0.7938338321693086  0.5838666063526667  0.3990966906600552
  0.7933225517711937  0.7089672455519817  0.3993934109447636
  0.7913575854861248  0.8326305125488986  0.3996270703816120
  0.7906445011538910  0.9569480788522569  0.3998917762173372
  0.9160322330959205  0.0827835032049905  0.3997361066703387
  0.9158610946402395  0.2076416272233428  0.3997907318547276
  0.9160565088206762  0.3329276914137099  0.3997662772388484
  0.9168010029389407  0.4584500029575335  0.3998355985772506
  0.9176645676771884  0.5839403999751759  0.3998267311621148
  0.9178239003977107  0.7091710540301447  0.3997896447606613
  0.9174833857351883  0.8341728964562500  0.3998055480277097
  0.9166550422818488  0.9584495426758650  0.3997555551089372
  0.0842097437324933  0.0431974532362765  0.3997246290043074
  0.0837167955853177  0.1677765970704223  0.3997558100460730
  0.0823686557476736  0.2917169488159804  0.3997249620640119
  0.0816290100251513  0.4163853192831620  0.3990823176615223
  0.0824088047664532  0.5418799284916808  0.3993158568531048
  0.0834602918069660  0.6674062363491819  0.3998364441168692
  0.0839901675051259  0.7928211405160386  0.4000133739421614
  0.0841794298556595  0.9180826653939975  0.3998961807270203
  0.2092112163074990  0.0436258404087200  0.3999442581180361
  0.2096108800162745  0.1692839998637475  0.4005622613042630
  0.2087401912914111  0.2939909063879677  0.4011401498784460
  0.2057872049985023  0.4170040373498571  0.3999389832361280
  0.2058800843724921  0.5414950714239063  0.3986192833341484
  0.2075371731824156  0.6670045383967762  0.3992019115983266
  0.2085746429601952  0.7925828464990102  0.3998410857111232
  0.2089866614836976  0.9180650495897835  0.3999149332444769
  0.3339197004936421  0.0433653623508915  0.3997250951529126
  0.3342602643282793  0.1696557970591298  0.4004828787304220
  0.3350849093202560  0.2969795273565413  0.4032512281300930
  0.3295638982075659  0.5416220968926296  0.4007034271810125
  0.3316539665790456  0.6661279372798977  0.3990434191819584
  0.3330572275121478  0.7916973385224820  0.3994620925418500
  0.3335652848815254  0.9174222326318916  0.3997719462956749
  0.4584292590015465  0.0418825845978613  0.3996921552031794
  0.4588159786868399  0.1679479511054841  0.3996454779083796
  0.4597440704284807  0.2942540038811280  0.4003869272753502
  0.4643481163284362  0.4211288733116949  0.4050922234483104
  0.4542841492745149  0.6612784532109550  0.4016729647120532
  0.4573770564278940  0.7895486496766205  0.3995367336214365
  0.4580508725048413  0.9158928609789266  0.3997179762964749
  0.5829336507010289  0.0405854960985450  0.3999417782843239
  0.5834123916723876  0.1663860000234046  0.3996394584457529
  0.5841895699428062  0.2919527044872322  0.3993298305238783
  0.5867267934389955  0.4176277769027823  0.3993922988906404
  0.5890936177102051  0.5434248010511535  0.4009959969951967
  0.5829559713984658  0.6621052580463324  0.4021078115300725
  0.5811179820119045  0.7871279450952818  0.4006031918682759
  0.5824500897305550  0.9143806597199157  0.4000028305289500
  0.7075585796779594  0.0402172436318435  0.4000755960050515
  0.7079976406467291  0.1657738039577598  0.3999746582568408
  0.7085986878768042  0.2912354401805779  0.3996243333057801
  0.7100490971716075  0.4166052232166448  0.3990855261240989
  0.7113105003499285  0.5418862759089845  0.3988113495339823
  0.7105250520161032  0.6671593070326427  0.3994518344835712
  0.7077115796908370  0.7901690676678051  0.3997160190089273
  0.7069886858870973  0.9145201762931333  0.4000349741894947
  0.8325831968622669  0.0406504746285037  0.3998557002570978
  0.8326565414351816  0.1657801103870125  0.3999067674694678
  0.8329869739512622  0.2910337254179655  0.3998958735293809
  0.8338500819197973  0.4164461507045310  0.3997467378374445
  0.8348260381084474  0.5419713774976496  0.3994454025516629
  0.8349703878767284  0.6673370067225471  0.3993936027730954
  0.8341986021048458  0.7922076362579361  0.3996167610801650
  0.8330532301262150  0.9161773874404477  0.3997835532846686
  0.9584136160213411  0.0419346832794583  0.3996894533050032
  0.9577349777900389  0.1662577186490053  0.3996925561712837
  0.9574784524572897  0.2912021356149414  0.3996712721349469
  0.9577480331074750  0.4164510288754897  0.3996900389660935
  0.9586178949147135  0.5419495316833596  0.3998800884238649
  0.9592854100058820  0.6674541406729589  0.3999141236523448
  0.9592965441960409  0.7927500832256682  0.3999169404708534
  0.9590234361508593  0.9176102342945379  0.3997700682259647
  0.4102323409332779  0.5804603496897380  0.4041497226183855
  0.5470011771698150  0.5816168555526833  0.4048738296508380
  0.3298578350682676  0.4197133659259251  0.4073689787234404
 
  0.00000000E+00  0.00000000E+00  0.00000000E+00
  0.00000000E+00  0.00000000E+00  0.00000000E+00
  0.00000000E+00  0.00000000E+00  0.00000000E+00
  0.00000000E+00  0.00000000E+00  0.00000000E+00
  0.00000000E+00  0.00000000E+00  0.00000000E+00
  0.00000000E+00  0.00000000E+00  0.00000000E+00
  0.00000000E+00  0.00000000E+00  0.00000000E+00
  0.00000000E+00  0.00000000E+00  0.00000000E+00
  0.00000000E+00  0.00000000E+00  0.00000000E+00
  0.00000000E+00  0.00000000E+00  0.00000000E+00
  0.00000000E+00  0.00000000E+00  0.00000000E+00
  0.00000000E+00  0.00000000E+00  0.00000000E+00
  0.00000000E+00  0.00000000E+00  0.00000000E+00
  0.00000000E+00  0.00000000E+00  0.00000000E+00
  0.00000000E+00  0.00000000E+00  0.00000000E+00
  0.00000000E+00  0.00000000E+00  0.00000000E+00
  0.00000000E+00  0.00000000E+00  0.00000000E+00
  0.00000000E+00  0.00000000E+00  0.00000000E+00
  0.00000000E+00  0.00000000E+00  0.00000000E+00
  0.00000000E+00  0.00000000E+00  0.00000000E+00
  0.00000000E+00  0.00000000E+00  0.00000000E+00
  0.00000000E+00  0.00000000E+00  0.00000000E+00
  0.00000000E+00  0.00000000E+00  0.00000000E+00
  0.00000000E+00  0.00000000E+00  0.00000000E+00
  0.00000000E+00  0.00000000E+00  0.00000000E+00
  0.00000000E+00  0.00000000E+00  0.00000000E+00
  0.00000000E+00  0.00000000E+00  0.00000000E+00
  0.00000000E+00  0.00000000E+00  0.00000000E+00
  0.00000000E+00  0.00000000E+00  0.00000000E+00
  0.00000000E+00  0.00000000E+00  0.00000000E+00
  0.00000000E+00  0.00000000E+00  0.00000000E+00
  0.00000000E+00  0.00000000E+00  0.00000000E+00
  0.00000000E+00  0.00000000E+00  0.00000000E+00
  0.00000000E+00  0.00000000E+00  0.00000000E+00
  0.00000000E+00  0.00000000E+00  0.00000000E+00
  0.00000000E+00  0.00000000E+00  0.00000000E+00
  0.00000000E+00  0.00000000E+00  0.00000000E+00
  0.00000000E+00  0.00000000E+00  0.00000000E+00
  0.00000000E+00  0.00000000E+00  0.00000000E+00
  0.00000000E+00  0.00000000E+00  0.00000000E+00
  0.00000000E+00  0.00000000E+00  0.00000000E+00
  0.00000000E+00  0.00000000E+00  0.00000000E+00
  0.00000000E+00  0.00000000E+00  0.00000000E+00
  0.00000000E+00  0.00000000E+00  0.00000000E+00
  0.00000000E+00  0.00000000E+00  0.00000000E+00
  0.00000000E+00  0.00000000E+00  0.00000000E+00
  0.00000000E+00  0.00000000E+00  0.00000000E+00
  0.00000000E+00  0.00000000E+00  0.00000000E+00
  0.00000000E+00  0.00000000E+00  0.00000000E+00
  0.00000000E+00  0.00000000E+00  0.00000000E+00
  0.00000000E+00  0.00000000E+00  0.00000000E+00
  0.00000000E+00  0.00000000E+00  0.00000000E+00
  0.00000000E+00  0.00000000E+00  0.00000000E+00
  0.00000000E+00  0.00000000E+00  0.00000000E+00
  0.00000000E+00  0.00000000E+00  0.00000000E+00
  0.00000000E+00  0.00000000E+00  0.00000000E+00
  0.00000000E+00  0.00000000E+00  0.00000000E+00
  0.00000000E+00  0.00000000E+00  0.00000000E+00
  0.00000000E+00  0.00000000E+00  0.00000000E+00
  0.00000000E+00  0.00000000E+00  0.00000000E+00
  0.00000000E+00  0.00000000E+00  0.00000000E+00
  0.00000000E+00  0.00000000E+00  0.00000000E+00
  0.00000000E+00  0.00000000E+00  0.00000000E+00
  0.00000000E+00  0.00000000E+00  0.00000000E+00
  0.00000000E+00  0.00000000E+00  0.00000000E+00
  0.00000000E+00  0.00000000E+00  0.00000000E+00
  0.00000000E+00  0.00000000E+00  0.00000000E+00
  0.00000000E+00  0.00000000E+00  0.00000000E+00
  0.00000000E+00  0.00000000E+00  0.00000000E+00
  0.00000000E+00  0.00000000E+00  0.00000000E+00
  0.00000000E+00  0.00000000E+00  0.00000000E+00
  0.00000000E+00  0.00000000E+00  0.00000000E+00
  0.00000000E+00  0.00000000E+00  0.00000000E+00
  0.00000000E+00  0.00000000E+00  0.00000000E+00
  0.00000000E+00  0.00000000E+00  0.00000000E+00
  0.00000000E+00  0.00000000E+00  0.00000000E+00
  0.00000000E+00  0.00000000E+00  0.00000000E+00
  0.00000000E+00  0.00000000E+00  0.00000000E+00
  0.00000000E+00  0.00000000E+00  0.00000000E+00
  0.00000000E+00  0.00000000E+00  0.00000000E+00
  0.00000000E+00  0.00000000E+00  0.00000000E+00
  0.00000000E+00  0.00000000E+00  0.00000000E+00
  0.00000000E+00  0.00000000E+00  0.00000000E+00
  0.00000000E+00  0.00000000E+00  0.00000000E+00
  0.00000000E+00  0.00000000E+00  0.00000000E+00
  0.00000000E+00  0.00000000E+00  0.00000000E+00
  0.00000000E+00  0.00000000E+00  0.00000000E+00
  0.00000000E+00  0.00000000E+00  0.00000000E+00
  0.00000000E+00  0.00000000E+00  0.00000000E+00
  0.00000000E+00  0.00000000E+00  0.00000000E+00
  0.00000000E+00  0.00000000E+00  0.00000000E+00
  0.00000000E+00  0.00000000E+00  0.00000000E+00
  0.00000000E+00  0.00000000E+00  0.00000000E+00
  0.00000000E+00  0.00000000E+00  0.00000000E+00
  0.00000000E+00  0.00000000E+00  0.00000000E+00
  0.00000000E+00  0.00000000E+00  0.00000000E+00
  0.00000000E+00  0.00000000E+00  0.00000000E+00
  0.00000000E+00  0.00000000E+00  0.00000000E+00
  0.00000000E+00  0.00000000E+00  0.00000000E+00
  0.00000000E+00  0.00000000E+00  0.00000000E+00
  0.00000000E+00  0.00000000E+00  0.00000000E+00
  0.00000000E+00  0.00000000E+00  0.00000000E+00
  0.00000000E+00  0.00000000E+00  0.00000000E+00
  0.00000000E+00  0.00000000E+00  0.00000000E+00
  0.00000000E+00  0.00000000E+00  0.00000000E+00
  0.00000000E+00  0.00000000E+00  0.00000000E+00
  0.00000000E+00  0.00000000E+00  0.00000000E+00
  0.00000000E+00  0.00000000E+00  0.00000000E+00
  0.00000000E+00  0.00000000E+00  0.00000000E+00
  0.00000000E+00  0.00000000E+00  0.00000000E+00
  0.00000000E+00  0.00000000E+00  0.00000000E+00
  0.00000000E+00  0.00000000E+00  0.00000000E+00
  0.00000000E+00  0.00000000E+00  0.00000000E+00
  0.00000000E+00  0.00000000E+00  0.00000000E+00
  0.00000000E+00  0.00000000E+00  0.00000000E+00
  0.00000000E+00  0.00000000E+00  0.00000000E+00
  0.00000000E+00  0.00000000E+00  0.00000000E+00
  0.00000000E+00  0.00000000E+00  0.00000000E+00
  0.00000000E+00  0.00000000E+00  0.00000000E+00
  0.00000000E+00  0.00000000E+00  0.00000000E+00
  0.00000000E+00  0.00000000E+00  0.00000000E+00
  0.00000000E+00  0.00000000E+00  0.00000000E+00
  0.00000000E+00  0.00000000E+00  0.00000000E+00
  0.00000000E+00  0.00000000E+00  0.00000000E+00
  0.00000000E+00  0.00000000E+00  0.00000000E+00
  0.00000000E+00  0.00000000E+00  0.00000000E+00
  0.00000000E+00  0.00000000E+00  0.00000000E+00
  0.00000000E+00  0.00000000E+00  0.00000000E+00
