H1 Pt1 C122 N4                          
   1.00000000000000     
    19.8494875609623236   -0.0000259361759917    0.0095431063798352
    -9.9247662606311131   17.0252910675827778   -0.0047626310907340
     0.0142956504759118    0.0000139388218238   29.7754719480793995
   H    Pt   C    N 
     1     1   122     4
Direct
  0.4374225699645516  0.4999980375732371  0.4646253468628658
  0.4374591951542001  0.4999999091904471  0.4111101476054836
  0.0420733682458016  0.0842847694281306  0.4000857768088679
  0.0405891935365860  0.2079228625029267  0.4003159655581316
  0.0396304070163452  0.3326753458405869  0.3999287144596532
  0.0397264747172791  0.4581102120334102  0.3992130624929269
  0.0411230661085842  0.5838961712911936  0.3989007053344490
  0.0422990305537854  0.7095808671930969  0.3991137568584029
  0.0427234765192319  0.8349152477053886  0.3993775109020461
  0.0427911745963229  0.9600526892894089  0.3995679027612789
  0.1684418994686467  0.0863528743143858  0.4008892908550313
  0.1674074124689523  0.2105987185474697  0.4019955181418732
  0.1641169188942937  0.3334434168402897  0.4021973359451346
  0.1627544377776134  0.4582905638883533  0.4010852956838535
  0.1643226970332999  0.5838957472336008  0.3999370019987284
  0.1661604944162943  0.7093666540680353  0.3993853983951541
  0.1672148775859116  0.8349235726616064  0.3993771628721003
  0.1677949874507396  0.9605357691507385  0.3998253083881061
  0.2929275078207287  0.0863434051912402  0.4008619220526353
  0.2944677659974196  0.2139423756956963  0.4031396674795722
  0.2918694885794766  0.3386367796254213  0.4048531252144879
  0.2849480340985579  0.4582212444386374  0.4041970926997723
  0.2867433347946001  0.5833749023980258  0.4025190941438553
  0.2901455339588008  0.7086564001464132  0.4007496322686283
  0.2915614407858571  0.8342337450236917  0.3996020016733401
  0.2923361440717250  0.9600668287187557  0.3995785891506919
  0.4172557294712590  0.0842719564031996  0.4000833323865249
  0.4181703476069457  0.2105818907474757  0.4020120352884595
  0.4217366703520806  0.3386382689220196  0.4049092999221036
  0.4140654174625676  0.7058983421572795  0.4030940345096493
  0.4158038971739542  0.8321526895814015  0.4007740708438979
  0.4166546458254175  0.9582476343819096  0.3995801680277515
  0.5415891431779627  0.0822845953024265  0.3994758484438761
  0.5423359508485137  0.2079160750625532  0.4003602318436729
  0.5442734447715755  0.3334233959471696  0.4022355502522571
  0.5482313010585896  0.4582204531039225  0.4043075320688028
  0.5378376210198952  0.7007012993906619  0.4047490942512682
  0.5401162009499442  0.8295809160436657  0.4021057817857937
  0.5409368349786844  0.9562509097560861  0.4001055566367971
  0.6659558936530712  0.0814118642893671  0.3995617433642519
  0.6666550297520716  0.2070362426174092  0.3994162681438960
  0.6680140617398705  0.3326885620184079  0.3999343610747919
  0.6704834472411708  0.4582930937641078  0.4011018674184977
  0.6715937076187155  0.5833972740816988  0.4025584119204521
  0.6668053275822997  0.7059164337906425  0.4031403232962993
  0.6644718125360008  0.8296005073129752  0.4020818053265631
  0.6653346891802903  0.9556370009049345  0.4005319854428586
  0.7905114830318648  0.0814010311531147  0.3995705178801560
  0.7909234466971095  0.2068256108392665  0.3993080534282305
  0.7917610691851119  0.3323589979095509  0.3990692956385066
  0.7933394270811571  0.4581093782241686  0.3992279189249828
  0.7945154246418449  0.5838906072666391  0.3999532398288512
  0.7934858356882125  0.7086685179785419  0.4007749994031517
  0.7913621253709037  0.8321549635054973  0.4007957181964704
  0.7903508875617513  0.9562483831837094  0.4000925576129017
  0.9157555001426432  0.0822690361330924  0.3994764410481946
  0.9153886839361063  0.2070084666626963  0.3994136178909682
  0.9156038949896175  0.3323516065965402  0.3990764689841865
  0.9165787513729556  0.4581761616211181  0.3987394480347359
  0.9177321786901819  0.5838935842759445  0.3988922330622539
  0.9181843440186110  0.7093371097393310  0.3993787136912990
  0.9176936333187011  0.8342114554675742  0.3996137985450637
  0.9166656728973444  0.9582367373651296  0.3995783026015752
  0.0846853110920405  0.0437490301807600  0.4001039379877942
  0.0836510405709807  0.1678468123983510  0.4007720756841670
  0.0814906712476558  0.2913432608879096  0.4007495656344895
  0.0804294578895285  0.4161041778750201  0.3999379802290641
  0.0816164976136798  0.5418898365822997  0.3992130894972012
  0.0832520215452219  0.6676481276925096  0.3990755923076107
  0.0840987800814831  0.7931741314510738  0.3993091192029342
  0.0845446961058986  0.9185879876285266  0.3995608607903168
  0.2096972543530672  0.0443627050933003  0.4005317643716824
  0.2105345689226846  0.1704189705527645  0.4021049534077502
  0.2081668637833980  0.2941015821552403  0.4030929332038241
  0.2033712092464031  0.4166255839986273  0.4025191382775290
  0.2044657749141023  0.5417085724349696  0.4010845633916011
  0.2069564870854303  0.6673242741915254  0.3999285347735791
  0.2083816546512594  0.7929917526785395  0.3994155506017982
  0.2091116970957645  0.9185995184068249  0.3995707432540377
  0.3341024507022131  0.0437513766342469  0.4000944552391920
  0.3348701190913802  0.1703986933941405  0.4020817856350303
  0.3371357346163799  0.2992989127273665  0.4047490934544383
  0.3267280634617513  0.5417787385311462  0.4041979085362616
  0.3306737908165223  0.6665549493934968  0.4021984180576121
  0.3326671801251698  0.7920771852129822  0.4003171332677081
  0.3334877085648035  0.9177311876582390  0.3994808786325729
  0.4584289388362553  0.0417631236359095  0.3995794727661149
  0.4592079276927484  0.1678451042430215  0.4007956948818810
  0.4608882277018767  0.2940834583374075  0.4031402561096492
  0.4532322964332421  0.6613629711304384  0.4048532244262744
  0.4568087018893870  0.7894003336443685  0.4019966470059618
  0.4577891584130239  0.9157143464954536  0.4000887927143912
  0.5827380226312071  0.0399467898290478  0.3995690407624953
  0.5834830966640536  0.1657895028963811  0.3996139631569627
  0.5848195117224646  0.2913320729130514  0.4007750042409605
  0.5882010488742960  0.4166027170361484  0.4025588118412038
  0.5900124906445842  0.5417805621316786  0.4043075088690019
  0.5830983172252824  0.6613627661932637  0.4049094016204048
  0.5805259891711330  0.7860577016331685  0.4031397268740260
  0.5820895470962195  0.9136463400154323  0.4008895330883432
  0.7072591717073397  0.0394634848206776  0.3998262789871103
  0.7078075930951147  0.1650847698712849  0.3993766944814602
  0.7088495848978633  0.2906648557257117  0.3993778799338560
  0.7106286540416862  0.4161094197454328  0.3999532432794098
  0.7121940663975542  0.5417063661120369  0.4011015710109889
  0.7108519217305148  0.6665773593424004  0.4022354049305185
  0.7075898077586467  0.7894190098517840  0.4020128338388767
  0.7065853049226340  0.9136567269905883  0.4008611159612403
  0.8322693058688022  0.0399330733614309  0.3995763945338154
  0.8322908859061972  0.1650756004842800  0.3993752929736931
  0.8327173148354561  0.2904191742193973  0.3991137605852268
  0.8338386590472247  0.4161072221411328  0.3988924990994537
  0.8352304322108910  0.5418893684338293  0.3992271749921698
  0.8353278195858646  0.6673098346210508  0.3999344479093371
  0.8344209533562248  0.7920843574561809  0.4003594287474680
  0.8329849429600107  0.9157293721255706  0.4000822850690766
  0.9584060204171705  0.0417521003204445  0.3995772245428315
  0.9573285075357147  0.1657658353193873  0.3995992245664305
  0.9567938299083460  0.2906325845344824  0.3993861908448794
  0.9572267897053922  0.4161040790792126  0.3988999700025787
  0.9584000859278710  0.5418234035571695  0.3987396041069354
  0.9594005432837263  0.6676401866328427  0.3990693891177469
  0.9596195789492625  0.7929637832358886  0.3994167149565709
  0.9593055410032599  0.9177159744562224  0.3994749458897640
  0.4067627436711913  0.5805293325385921  0.4056305084261639
  0.5487378725686340  0.5805413284713140  0.4057310737493159
  0.3262330630079642  0.4194713472338776  0.4056305021267057
  0.4681962328862127  0.4194587279317232  0.4057292379134456
 
  0.00000000E+00  0.00000000E+00  0.00000000E+00
  0.00000000E+00  0.00000000E+00  0.00000000E+00
  0.00000000E+00  0.00000000E+00  0.00000000E+00
  0.00000000E+00  0.00000000E+00  0.00000000E+00
  0.00000000E+00  0.00000000E+00  0.00000000E+00
  0.00000000E+00  0.00000000E+00  0.00000000E+00
  0.00000000E+00  0.00000000E+00  0.00000000E+00
  0.00000000E+00  0.00000000E+00  0.00000000E+00
  0.00000000E+00  0.00000000E+00  0.00000000E+00
  0.00000000E+00  0.00000000E+00  0.00000000E+00
  0.00000000E+00  0.00000000E+00  0.00000000E+00
  0.00000000E+00  0.00000000E+00  0.00000000E+00
  0.00000000E+00  0.00000000E+00  0.00000000E+00
  0.00000000E+00  0.00000000E+00  0.00000000E+00
  0.00000000E+00  0.00000000E+00  0.00000000E+00
  0.00000000E+00  0.00000000E+00  0.00000000E+00
  0.00000000E+00  0.00000000E+00  0.00000000E+00
  0.00000000E+00  0.00000000E+00  0.00000000E+00
  0.00000000E+00  0.00000000E+00  0.00000000E+00
  0.00000000E+00  0.00000000E+00  0.00000000E+00
  0.00000000E+00  0.00000000E+00  0.00000000E+00
  0.00000000E+00  0.00000000E+00  0.00000000E+00
  0.00000000E+00  0.00000000E+00  0.00000000E+00
  0.00000000E+00  0.00000000E+00  0.00000000E+00
  0.00000000E+00  0.00000000E+00  0.00000000E+00
  0.00000000E+00  0.00000000E+00  0.00000000E+00
  0.00000000E+00  0.00000000E+00  0.00000000E+00
  0.00000000E+00  0.00000000E+00  0.00000000E+00
  0.00000000E+00  0.00000000E+00  0.00000000E+00
  0.00000000E+00  0.00000000E+00  0.00000000E+00
  0.00000000E+00  0.00000000E+00  0.00000000E+00
  0.00000000E+00  0.00000000E+00  0.00000000E+00
  0.00000000E+00  0.00000000E+00  0.00000000E+00
  0.00000000E+00  0.00000000E+00  0.00000000E+00
  0.00000000E+00  0.00000000E+00  0.00000000E+00
  0.00000000E+00  0.00000000E+00  0.00000000E+00
  0.00000000E+00  0.00000000E+00  0.00000000E+00
  0.00000000E+00  0.00000000E+00  0.00000000E+00
  0.00000000E+00  0.00000000E+00  0.00000000E+00
  0.00000000E+00  0.00000000E+00  0.00000000E+00
  0.00000000E+00  0.00000000E+00  0.00000000E+00
  0.00000000E+00  0.00000000E+00  0.00000000E+00
  0.00000000E+00  0.00000000E+00  0.00000000E+00
  0.00000000E+00  0.00000000E+00  0.00000000E+00
  0.00000000E+00  0.00000000E+00  0.00000000E+00
  0.00000000E+00  0.00000000E+00  0.00000000E+00
  0.00000000E+00  0.00000000E+00  0.00000000E+00
  0.00000000E+00  0.00000000E+00  0.00000000E+00
  0.00000000E+00  0.00000000E+00  0.00000000E+00
  0.00000000E+00  0.00000000E+00  0.00000000E+00
  0.00000000E+00  0.00000000E+00  0.00000000E+00
  0.00000000E+00  0.00000000E+00  0.00000000E+00
  0.00000000E+00  0.00000000E+00  0.00000000E+00
  0.00000000E+00  0.00000000E+00  0.00000000E+00
  0.00000000E+00  0.00000000E+00  0.00000000E+00
  0.00000000E+00  0.00000000E+00  0.00000000E+00
  0.00000000E+00  0.00000000E+00  0.00000000E+00
  0.00000000E+00  0.00000000E+00  0.00000000E+00
  0.00000000E+00  0.00000000E+00  0.00000000E+00
  0.00000000E+00  0.00000000E+00  0.00000000E+00
  0.00000000E+00  0.00000000E+00  0.00000000E+00
  0.00000000E+00  0.00000000E+00  0.00000000E+00
  0.00000000E+00  0.00000000E+00  0.00000000E+00
  0.00000000E+00  0.00000000E+00  0.00000000E+00
  0.00000000E+00  0.00000000E+00  0.00000000E+00
  0.00000000E+00  0.00000000E+00  0.00000000E+00
  0.00000000E+00  0.00000000E+00  0.00000000E+00
  0.00000000E+00  0.00000000E+00  0.00000000E+00
  0.00000000E+00  0.00000000E+00  0.00000000E+00
  0.00000000E+00  0.00000000E+00  0.00000000E+00
  0.00000000E+00  0.00000000E+00  0.00000000E+00
  0.00000000E+00  0.00000000E+00  0.00000000E+00
  0.00000000E+00  0.00000000E+00  0.00000000E+00
  0.00000000E+00  0.00000000E+00  0.00000000E+00
  0.00000000E+00  0.00000000E+00  0.00000000E+00
  0.00000000E+00  0.00000000E+00  0.00000000E+00
  0.00000000E+00  0.00000000E+00  0.00000000E+00
  0.00000000E+00  0.00000000E+00  0.00000000E+00
  0.00000000E+00  0.00000000E+00  0.00000000E+00
  0.00000000E+00  0.00000000E+00  0.00000000E+00
  0.00000000E+00  0.00000000E+00  0.00000000E+00
  0.00000000E+00  0.00000000E+00  0.00000000E+00
  0.00000000E+00  0.00000000E+00  0.00000000E+00
  0.00000000E+00  0.00000000E+00  0.00000000E+00
  0.00000000E+00  0.00000000E+00  0.00000000E+00
  0.00000000E+00  0.00000000E+00  0.00000000E+00
  0.00000000E+00  0.00000000E+00  0.00000000E+00
  0.00000000E+00  0.00000000E+00  0.00000000E+00
  0.00000000E+00  0.00000000E+00  0.00000000E+00
  0.00000000E+00  0.00000000E+00  0.00000000E+00
  0.00000000E+00  0.00000000E+00  0.00000000E+00
  0.00000000E+00  0.00000000E+00  0.00000000E+00
  0.00000000E+00  0.00000000E+00  0.00000000E+00
  0.00000000E+00  0.00000000E+00  0.00000000E+00
  0.00000000E+00  0.00000000E+00  0.00000000E+00
  0.00000000E+00  0.00000000E+00  0.00000000E+00
  0.00000000E+00  0.00000000E+00  0.00000000E+00
  0.00000000E+00  0.00000000E+00  0.00000000E+00
  0.00000000E+00  0.00000000E+00  0.00000000E+00
  0.00000000E+00  0.00000000E+00  0.00000000E+00
  0.00000000E+00  0.00000000E+00  0.00000000E+00
  0.00000000E+00  0.00000000E+00  0.00000000E+00
  0.00000000E+00  0.00000000E+00  0.00000000E+00
  0.00000000E+00  0.00000000E+00  0.00000000E+00
  0.00000000E+00  0.00000000E+00  0.00000000E+00
  0.00000000E+00  0.00000000E+00  0.00000000E+00
  0.00000000E+00  0.00000000E+00  0.00000000E+00
  0.00000000E+00  0.00000000E+00  0.00000000E+00
  0.00000000E+00  0.00000000E+00  0.00000000E+00
  0.00000000E+00  0.00000000E+00  0.00000000E+00
  0.00000000E+00  0.00000000E+00  0.00000000E+00
  0.00000000E+00  0.00000000E+00  0.00000000E+00
  0.00000000E+00  0.00000000E+00  0.00000000E+00
  0.00000000E+00  0.00000000E+00  0.00000000E+00
  0.00000000E+00  0.00000000E+00  0.00000000E+00
  0.00000000E+00  0.00000000E+00  0.00000000E+00
  0.00000000E+00  0.00000000E+00  0.00000000E+00
  0.00000000E+00  0.00000000E+00  0.00000000E+00
  0.00000000E+00  0.00000000E+00  0.00000000E+00
  0.00000000E+00  0.00000000E+00  0.00000000E+00
  0.00000000E+00  0.00000000E+00  0.00000000E+00
  0.00000000E+00  0.00000000E+00  0.00000000E+00
  0.00000000E+00  0.00000000E+00  0.00000000E+00
  0.00000000E+00  0.00000000E+00  0.00000000E+00
  0.00000000E+00  0.00000000E+00  0.00000000E+00
  0.00000000E+00  0.00000000E+00  0.00000000E+00
  0.00000000E+00  0.00000000E+00  0.00000000E+00
  0.00000000E+00  0.00000000E+00  0.00000000E+00
