Mn1 C125 N1 O1                          
   1.00000000000000     
    19.7993726833324288   -0.0080669256195459   -0.0174833211255733
    -9.9065262219320562   17.0464216004025957   -0.0462785420182004
    -0.0264296254416842   -0.0960331088292824   29.8211998556426217
   Mn   C    N    O 
     1   125     1     1
Direct
  0.4373455693925337  0.5013751506847790  0.4271457848661495
  0.0420615097844245  0.0841402864372400  0.3998944250864437
  0.0414183596729568  0.2084645165599690  0.3997294885703684
  0.0409418808818552  0.3330046027007920  0.3993932576212473
  0.0409400855796834  0.4583143777759706  0.3992231364599548
  0.0415252845178573  0.5836765050960953  0.3993234388965563
  0.0419388251813448  0.7088972144428466  0.3994224165022305
  0.0421973438135236  0.8342621490468223  0.3994406401490789
  0.0422915444328403  0.9593819921010236  0.3996566364215008
  0.1676896369816481  0.0852917509137346  0.4007552843716311
  0.1676413086674761  0.2102681299998633  0.4010532771534995
  0.1663094370472127  0.3341328840696715  0.4004244762907165
  0.1649104300170392  0.4585051913454428  0.3997586094251775
  0.1656226861713790  0.5836013163598970  0.3993712489245316
  0.1664706918178607  0.7089399094811615  0.3995128368276146
  0.1670232735811446  0.8343249486915407  0.3996216314622362
  0.1673915106696844  0.9598019890820628  0.3999541030769315
  0.2926009754778124  0.0852449079725092  0.4008840943171915
  0.2935643789296140  0.2118883329904168  0.4027117296386684
  0.2938343229393230  0.3380119880108455  0.4035382122277614
  0.2893096649780165  0.4591152085015275  0.4027852559955947
  0.2894378290052158  0.5841066312178198  0.4009410512012829
  0.2909001427587357  0.7088970847277668  0.3998621085859378
  0.2916727306487175  0.8339582493190451  0.3995740325907917
  0.2920270970973515  0.9594021238093736  0.3997709739286692
  0.4170804892646914  0.0840431626254376  0.3999848077569879
  0.4176754598704273  0.2100155444436268  0.4014791533700142
  0.4195926349988950  0.3377648992367159  0.4048480666044539
  0.4150054392389646  0.7064496733857851  0.4016445895062896
  0.4161949451471237  0.8325828192987987  0.3999588549156677
  0.4166735796664560  0.9583170288807601  0.3995624201126688
  0.5416647282292828  0.0827782498119178  0.3995549515341346
  0.5421334322712793  0.2081083033453887  0.3999053124374144
  0.5429856757026298  0.3332624581062195  0.4012791600977557
  0.5453849389721324  0.4576979562208846  0.4045062223067740
  0.5436423850957695  0.5789854914670463  0.4068782512703624
  0.5384416310324599  0.7032481855668883  0.4040279200743813
  0.5404321599287331  0.8309429800111546  0.4011727004209946
  0.5412868958810533  0.9571137357662336  0.3999246423849215
  0.6662788699737954  0.0822124576977590  0.3997551317369570
  0.6667102975585231  0.2076243850792910  0.3994088464505586
  0.6673010811853330  0.3327707859626302  0.3994866009957441
  0.6689301053278711  0.4581432105167760  0.4001160662723720
  0.6697435658873980  0.5835732342994280  0.4011692482187947
  0.6655535501572056  0.7059710650253285  0.4016884269937576
  0.6648308964518722  0.8305838020119291  0.4012549261006505
  0.6657797548097459  0.9566237011372063  0.4003723482423076
  0.7910400333370857  0.0822210790373506  0.3998197135839605
  0.7913424926827791  0.2074937351579937  0.3995125465669181
  0.7918263924389912  0.3328392067116631  0.3992320776912526
  0.7926707332393080  0.4582683827015275  0.3990232062835481
  0.7932214442024847  0.5835093987268976  0.3992380623961214
  0.7925709482513544  0.7086201847500062  0.3996743946767033
  0.7909933081414569  0.8323429372725677  0.3999341254220409
  0.7906265550183937  0.9569209151367789  0.3999791653072786
  0.9161989031922291  0.0828272707454721  0.3995839429819633
  0.9161885911013913  0.2077427359916595  0.3995024557993551
  0.9163123748812405  0.3328892404790005  0.3993535473493762
  0.9167318549477670  0.4581869771250922  0.3992031817152779
  0.9173335802766390  0.5836582326246857  0.3991080848512975
  0.9173843147401662  0.7089567822295105  0.3991529484400260
  0.9170783685088352  0.8337905930308700  0.3993147841976572
  0.9165079702164762  0.9582404734180020  0.3995046822374519
  0.0841453605624285  0.0429940354067122  0.4000563292223800
  0.0838781387998590  0.1677095311282034  0.4001530488141853
  0.0827906885396041  0.2918021830478290  0.3997204581050726
  0.0822003466118392  0.4166338231805548  0.3992954770484829
  0.0826402344703386  0.5418271262193552  0.3992513702236150
  0.0833150439545270  0.6671970957872441  0.3994518239540354
  0.0837507116415152  0.7925748669839441  0.3995174374849325
  0.0839717565914741  0.9178516901455919  0.3996684098035933
  0.2091645292876653  0.0433631723113901  0.4005844632208144
  0.2095601577828455  0.1690444572516414  0.4016032355866646
  0.2095269052762090  0.2941751336141630  0.4013686866548102
  0.2064478236853363  0.4173017239729955  0.4006392379186091
  0.2064702746767514  0.5418607729616853  0.3998150770646510
  0.2077780606911904  0.6672363508065233  0.3995187434489306
  0.2084371972579853  0.7924776426185761  0.3995932102936529
  0.2088424383586468  0.9178803794164575  0.3997543300627278
  0.3338165822943534  0.0429668543548802  0.4001568130032135
  0.3345300323897800  0.1689205125206003  0.4018591579992716
  0.3354614577642211  0.2954630976932719  0.4043326160676458
  0.3327287891401589  0.4211690403247025  0.4053629138253086
  0.3309894602640273  0.5436719193058535  0.4031483047060679
  0.3320369409588873  0.6670636866965113  0.4007483230964283
  0.3330605417408269  0.7920939764999779  0.3997250250015750
  0.3334735541449717  0.9173770375980028  0.3995764332449166
  0.4584798533842869  0.0418360123572667  0.3996059628283113
  0.4588867216445502  0.1675129881953079  0.4003527599718294
  0.4598417336995311  0.2937667907083480  0.4023370452952729
  0.4642202861837562  0.4207705997470496  0.4078723969825950
  0.4543063181814153  0.6619152764096484  0.4039723474300747
  0.4574405875496633  0.7901678869885034  0.4008224624575041
  0.4580417550503857  0.9160919591606805  0.3997390242640036
  0.5830745064161618  0.0407121961800502  0.3996885975403678
  0.5835018878798782  0.1662120348990064  0.3995282293715404
  0.5842148233108219  0.2912951492024323  0.4000834305146341
  0.5860495102059263  0.4161896537669103  0.4015746101849315
  0.5877093587274224  0.5419577254131830  0.4040765018054402
  0.5810435869038394  0.6615702067585973  0.4041774572759455
  0.5806958114634189  0.7874512740064255  0.4021800771899472
  0.5824751133673999  0.9147887165607955  0.4004513310000826
  0.7076643823011814  0.0402526037884773  0.3999882726336649
  0.7081360508944623  0.1657988391491687  0.3995237721982443
  0.7086112199236787  0.2910754532136544  0.3993024090369306
  0.7097336542823323  0.4164575207875357  0.3993535890491240
  0.7107324090792969  0.5417223873818057  0.4000039297117660
  0.7092825271952110  0.6665418945198961  0.4007147302221997
  0.7071410798595009  0.7896968355849769  0.4008842798387816
  0.7069592400787263  0.9144633439605763  0.4005144316633373
  0.8326123744381796  0.0406176494397922  0.3997634319797811
  0.8328576959659462  0.1658337091788295  0.3996048630800053
  0.8331882654468837  0.2911479920691756  0.3993570117921125
  0.8337571614020218  0.4164075792517953  0.3991067023395145
  0.8343917421081144  0.5417723673470093  0.3989893862014141
  0.8343096889866159  0.6672305148583849  0.3992526033237112
  0.8337064743974899  0.7918213987273113  0.3995523230139619
  0.8327961880840600  0.9158930568657825  0.3997393093440476
  0.9583580919465796  0.0418171329992519  0.3995741110169885
  0.9579931305673565  0.1663659830515547  0.3995330648663366
  0.9578034154172279  0.2912110984571452  0.3993917355881257
  0.9579365020595890  0.4164357166469541  0.3992785010733078
  0.9585360916191070  0.5419122984586194  0.3992158872772537
  0.9588583954564431  0.6672290511720410  0.3992211796876968
  0.9589008182410448  0.7924236942168114  0.3992835261248410
  0.9587337878214812  0.9172576916070396  0.3994198984455112
  0.4102642997287200  0.5809522292634567  0.4058180729975374
  0.4371995299713511  0.4983996614275974  0.4793560996338052
 
  0.00000000E+00  0.00000000E+00  0.00000000E+00
  0.00000000E+00  0.00000000E+00  0.00000000E+00
  0.00000000E+00  0.00000000E+00  0.00000000E+00
  0.00000000E+00  0.00000000E+00  0.00000000E+00
  0.00000000E+00  0.00000000E+00  0.00000000E+00
  0.00000000E+00  0.00000000E+00  0.00000000E+00
  0.00000000E+00  0.00000000E+00  0.00000000E+00
  0.00000000E+00  0.00000000E+00  0.00000000E+00
  0.00000000E+00  0.00000000E+00  0.00000000E+00
  0.00000000E+00  0.00000000E+00  0.00000000E+00
  0.00000000E+00  0.00000000E+00  0.00000000E+00
  0.00000000E+00  0.00000000E+00  0.00000000E+00
  0.00000000E+00  0.00000000E+00  0.00000000E+00
  0.00000000E+00  0.00000000E+00  0.00000000E+00
  0.00000000E+00  0.00000000E+00  0.00000000E+00
  0.00000000E+00  0.00000000E+00  0.00000000E+00
  0.00000000E+00  0.00000000E+00  0.00000000E+00
  0.00000000E+00  0.00000000E+00  0.00000000E+00
  0.00000000E+00  0.00000000E+00  0.00000000E+00
  0.00000000E+00  0.00000000E+00  0.00000000E+00
  0.00000000E+00  0.00000000E+00  0.00000000E+00
  0.00000000E+00  0.00000000E+00  0.00000000E+00
  0.00000000E+00  0.00000000E+00  0.00000000E+00
  0.00000000E+00  0.00000000E+00  0.00000000E+00
  0.00000000E+00  0.00000000E+00  0.00000000E+00
  0.00000000E+00  0.00000000E+00  0.00000000E+00
  0.00000000E+00  0.00000000E+00  0.00000000E+00
  0.00000000E+00  0.00000000E+00  0.00000000E+00
  0.00000000E+00  0.00000000E+00  0.00000000E+00
  0.00000000E+00  0.00000000E+00  0.00000000E+00
  0.00000000E+00  0.00000000E+00  0.00000000E+00
  0.00000000E+00  0.00000000E+00  0.00000000E+00
  0.00000000E+00  0.00000000E+00  0.00000000E+00
  0.00000000E+00  0.00000000E+00  0.00000000E+00
  0.00000000E+00  0.00000000E+00  0.00000000E+00
  0.00000000E+00  0.00000000E+00  0.00000000E+00
  0.00000000E+00  0.00000000E+00  0.00000000E+00
  0.00000000E+00  0.00000000E+00  0.00000000E+00
  0.00000000E+00  0.00000000E+00  0.00000000E+00
  0.00000000E+00  0.00000000E+00  0.00000000E+00
  0.00000000E+00  0.00000000E+00  0.00000000E+00
  0.00000000E+00  0.00000000E+00  0.00000000E+00
  0.00000000E+00  0.00000000E+00  0.00000000E+00
  0.00000000E+00  0.00000000E+00  0.00000000E+00
  0.00000000E+00  0.00000000E+00  0.00000000E+00
  0.00000000E+00  0.00000000E+00  0.00000000E+00
  0.00000000E+00  0.00000000E+00  0.00000000E+00
  0.00000000E+00  0.00000000E+00  0.00000000E+00
  0.00000000E+00  0.00000000E+00  0.00000000E+00
  0.00000000E+00  0.00000000E+00  0.00000000E+00
  0.00000000E+00  0.00000000E+00  0.00000000E+00
  0.00000000E+00  0.00000000E+00  0.00000000E+00
  0.00000000E+00  0.00000000E+00  0.00000000E+00
  0.00000000E+00  0.00000000E+00  0.00000000E+00
  0.00000000E+00  0.00000000E+00  0.00000000E+00
  0.00000000E+00  0.00000000E+00  0.00000000E+00
  0.00000000E+00  0.00000000E+00  0.00000000E+00
  0.00000000E+00  0.00000000E+00  0.00000000E+00
  0.00000000E+00  0.00000000E+00  0.00000000E+00
  0.00000000E+00  0.00000000E+00  0.00000000E+00
  0.00000000E+00  0.00000000E+00  0.00000000E+00
  0.00000000E+00  0.00000000E+00  0.00000000E+00
  0.00000000E+00  0.00000000E+00  0.00000000E+00
  0.00000000E+00  0.00000000E+00  0.00000000E+00
  0.00000000E+00  0.00000000E+00  0.00000000E+00
  0.00000000E+00  0.00000000E+00  0.00000000E+00
  0.00000000E+00  0.00000000E+00  0.00000000E+00
  0.00000000E+00  0.00000000E+00  0.00000000E+00
  0.00000000E+00  0.00000000E+00  0.00000000E+00
  0.00000000E+00  0.00000000E+00  0.00000000E+00
  0.00000000E+00  0.00000000E+00  0.00000000E+00
  0.00000000E+00  0.00000000E+00  0.00000000E+00
  0.00000000E+00  0.00000000E+00  0.00000000E+00
  0.00000000E+00  0.00000000E+00  0.00000000E+00
  0.00000000E+00  0.00000000E+00  0.00000000E+00
  0.00000000E+00  0.00000000E+00  0.00000000E+00
  0.00000000E+00  0.00000000E+00  0.00000000E+00
  0.00000000E+00  0.00000000E+00  0.00000000E+00
  0.00000000E+00  0.00000000E+00  0.00000000E+00
  0.00000000E+00  0.00000000E+00  0.00000000E+00
  0.00000000E+00  0.00000000E+00  0.00000000E+00
  0.00000000E+00  0.00000000E+00  0.00000000E+00
  0.00000000E+00  0.00000000E+00  0.00000000E+00
  0.00000000E+00  0.00000000E+00  0.00000000E+00
  0.00000000E+00  0.00000000E+00  0.00000000E+00
  0.00000000E+00  0.00000000E+00  0.00000000E+00
  0.00000000E+00  0.00000000E+00  0.00000000E+00
  0.00000000E+00  0.00000000E+00  0.00000000E+00
  0.00000000E+00  0.00000000E+00  0.00000000E+00
  0.00000000E+00  0.00000000E+00  0.00000000E+00
  0.00000000E+00  0.00000000E+00  0.00000000E+00
  0.00000000E+00  0.00000000E+00  0.00000000E+00
  0.00000000E+00  0.00000000E+00  0.00000000E+00
  0.00000000E+00  0.00000000E+00  0.00000000E+00
  0.00000000E+00  0.00000000E+00  0.00000000E+00
  0.00000000E+00  0.00000000E+00  0.00000000E+00
  0.00000000E+00  0.00000000E+00  0.00000000E+00
  0.00000000E+00  0.00000000E+00  0.00000000E+00
  0.00000000E+00  0.00000000E+00  0.00000000E+00
  0.00000000E+00  0.00000000E+00  0.00000000E+00
  0.00000000E+00  0.00000000E+00  0.00000000E+00
  0.00000000E+00  0.00000000E+00  0.00000000E+00
  0.00000000E+00  0.00000000E+00  0.00000000E+00
  0.00000000E+00  0.00000000E+00  0.00000000E+00
  0.00000000E+00  0.00000000E+00  0.00000000E+00
  0.00000000E+00  0.00000000E+00  0.00000000E+00
  0.00000000E+00  0.00000000E+00  0.00000000E+00
  0.00000000E+00  0.00000000E+00  0.00000000E+00
  0.00000000E+00  0.00000000E+00  0.00000000E+00
  0.00000000E+00  0.00000000E+00  0.00000000E+00
  0.00000000E+00  0.00000000E+00  0.00000000E+00
  0.00000000E+00  0.00000000E+00  0.00000000E+00
  0.00000000E+00  0.00000000E+00  0.00000000E+00
  0.00000000E+00  0.00000000E+00  0.00000000E+00
  0.00000000E+00  0.00000000E+00  0.00000000E+00
  0.00000000E+00  0.00000000E+00  0.00000000E+00
  0.00000000E+00  0.00000000E+00  0.00000000E+00
  0.00000000E+00  0.00000000E+00  0.00000000E+00
  0.00000000E+00  0.00000000E+00  0.00000000E+00
  0.00000000E+00  0.00000000E+00  0.00000000E+00
  0.00000000E+00  0.00000000E+00  0.00000000E+00
  0.00000000E+00  0.00000000E+00  0.00000000E+00
  0.00000000E+00  0.00000000E+00  0.00000000E+00
  0.00000000E+00  0.00000000E+00  0.00000000E+00
  0.00000000E+00  0.00000000E+00  0.00000000E+00
  0.00000000E+00  0.00000000E+00  0.00000000E+00
  0.00000000E+00  0.00000000E+00  0.00000000E+00
  0.00000000E+00  0.00000000E+00  0.00000000E+00
