Fe1 H1 C122 N4 O1                       
   1.00000000000000     
    19.8058293902031188   -0.0004580864523605   -0.0363582303682294
    -9.9032631274085130   17.0222054691623761    0.0032148217868242
    -0.0548387887320827   -0.0264917345658145   29.8470120607397433
   Fe   H    C    N    O 
     1     1   122     4     1
Direct
  0.4380765567162656  0.5001499371066784  0.4286194062467595
  0.4738854875094075  0.5476917678877042  0.5068535276982989
  0.0421661504912037  0.0841993165178225  0.4003042139926659
  0.0412111447846792  0.2083036488350249  0.4002900849273178
  0.0405070416817277  0.3329940935468489  0.3999419770971104
  0.0406321845112803  0.4582141744756870  0.3994953108402259
  0.0413814437187116  0.5836577123681852  0.3992995224893402
  0.0420780305633274  0.7090803105527643  0.3992713399228281
  0.0423966371658606  0.8343647012605393  0.3995477229074398
  0.0425425638357244  0.9596135784988397  0.4000179455709307
  0.1682838894893149  0.0859137413907523  0.4008928259343912
  0.1676754362143352  0.2104407373854491  0.4014092629966234
  0.1653804328058301  0.3337485320838837  0.4011578607443047
  0.1644431923358566  0.4584816402676715  0.4001739860248830
  0.1653102667929438  0.5836046571364450  0.3998444776126102
  0.1664187012342551  0.7088981181976758  0.3995931613908807
  0.1670501950794344  0.8343714320074138  0.3994925892329888
  0.1675663557909931  0.9600420123806723  0.4000424845296893
  0.2927480103058139  0.0859127789205456  0.4008717821492714
  0.2943972652667196  0.2136554581722408  0.4022780180059811
  0.2928673891329295  0.3392860075157049  0.4035811204995386
  0.2880933478683629  0.4577415930547717  0.4025917546533491
  0.2888275164142333  0.5829991540675675  0.4009708795981169
  0.2907202426622467  0.7084033164376710  0.4003944256615942
  0.2916455082151479  0.8338884700599967  0.3998370140146640
  0.2921620175063999  0.9596204323718360  0.3999657252282499
  0.4171384610686759  0.0841957351252034  0.4003094379608240
  0.4178934538190500  0.2104255252680293  0.4012737955142830
  0.4215870471320826  0.3392776320576976  0.4031727308721434
  0.4147196191604933  0.7060030264119745  0.4018548931262853
  0.4161523542755982  0.8322179782414673  0.4005622003608340
  0.4167205953492863  0.9582487246063705  0.4000024557396805
  0.5416359212726293  0.0826173734367371  0.3999386719106992
  0.5421841602714303  0.2083053329817696  0.4002562737846705
  0.5434854795225323  0.3337405932654171  0.4007994896250429
  0.5447460913872003  0.4577184470161909  0.4018422008352922
  0.5382739709668427  0.7014213292747641  0.4033514083984682
  0.5405070444537221  0.8301142566042522  0.4015597131769168
  0.5411789540280011  0.9566477364317796  0.4003388792549814
  0.6662195414014845  0.0820221547236696  0.3997942614655739
  0.6666514071625598  0.2075309251710531  0.3996617568271507
  0.6675843530785592  0.3329879368670035  0.3998474819113028
  0.6691109849162786  0.4584585192160515  0.3998332957331495
  0.6692434410897736  0.5829802246533229  0.4005349779918675
  0.6663761134760979  0.7059909243388973  0.4016334310703977
  0.6647232964459863  0.8301117944111319  0.4015421892205266
  0.6656731330379476  0.9562424604464497  0.4005912535549419
  0.7908962464496511  0.0820254843048552  0.3997542719811728
  0.7912636022000687  0.2074344067187539  0.3993609424103695
  0.7917972528805073  0.3328198525888053  0.3993285345289649
  0.7926608080404093  0.4582122180251125  0.3994320493719760
  0.7933729584227682  0.5836054551473885  0.3997103554223562
  0.7927668593963881  0.7083968184957681  0.4003104321442301
  0.7911619340384188  0.8322117952306577  0.4005614816211362
  0.7905686027395442  0.9566477211866782  0.4003139063074209
  0.9160812306192354  0.0826142612701062  0.3998884462817124
  0.9159589767786008  0.2075307619000933  0.3996038562919018
  0.9160948996705380  0.3328130192117026  0.3993244466665087
  0.9166555966093182  0.4582461212451033  0.3991799057528138
  0.9173443556531261  0.5836673166745607  0.3992818864968463
  0.9175501422452312  0.7088961812100123  0.3996062713898329
  0.9173249451167561  0.8338850296697200  0.3999098638427813
  0.9166285516666451  0.9582447375532601  0.4000297898801337
  0.0845625277625733  0.0433998334266783  0.4003879369784824
  0.0839778484181428  0.1678371654261811  0.4006212820594868
  0.0823330805397015  0.2916243764955419  0.4004272266460794
  0.0817248616280400  0.4164251600761616  0.3998437952740359
  0.0824191368074061  0.5417917107516730  0.3995086514026892
  0.0832850280973271  0.6671959199829779  0.3993451839450574
  0.0838406990942207  0.7925971510177215  0.3993833029940647
  0.0842079895646011  0.9180099545788689  0.3998318529697832
  0.2094566300275936  0.0437992645597788  0.4006460068759252
  0.2104405416819626  0.1699584402795066  0.4016157436663899
  0.2087810535997264  0.2940620233949320  0.4019520952822700
  0.2058535757747241  0.4170326207173544  0.4010097981127849
  0.2059579515632749  0.5415422629185049  0.4001730164407487
  0.2075084286439376  0.6670219719020479  0.3999318093040712
  0.2084339569882583  0.7924933426691620  0.3995965665445316
  0.2088809862240998  0.9180082925801849  0.3997905351279644
  0.3339406977788270  0.0433959532122560  0.4003716299534547
  0.3346435895483125  0.1699510501889905  0.4015571892369261
  0.3369009427457680  0.2986516569112018  0.4034257279936628
  0.3303408308783458  0.5422982244626000  0.4025325032590110
  0.3316176786566575  0.6662865791891864  0.4011000690059158
  0.3329107965856491  0.7917242436688510  0.4002426602524469
  0.3334747470015366  0.9174196210436762  0.3998829994782516
  0.4584071606505773  0.0417905090807022  0.4000382025036657
  0.4589723404951907  0.1678239764461198  0.4005781085016566
  0.4604123399728785  0.2940473242329146  0.4016086792824981
  0.4535809930409351  0.6607940074385300  0.4034462555277261
  0.4572459544735945  0.7896222065052690  0.4013383342234349
  0.4579822538416766  0.9158498602675952  0.4002562445203823
  0.5829504178161276  0.0404257458942858  0.3999800847373037
  0.5834586607553001  0.1661412452667164  0.3999127261252799
  0.5843886986512841  0.2916177251893344  0.4002778948138718
  0.5862688043820986  0.4170136096780242  0.4004900566287706
  0.5870337900816583  0.5422564704583084  0.4018641571310460
  0.5823112439118749  0.6607904413287927  0.4031541769777996
  0.5807818551916070  0.7864393169202017  0.4022443859453234
  0.5823892462316774  0.9141480987347916  0.4008379760612666
  0.7075458669408434  0.0399984107503151  0.3999921040077369
  0.7080531994179456  0.1656663349854801  0.3995261487654367
  0.7086714382784096  0.2911299867546794  0.3995977154164392
  0.7097828977115239  0.4164115783033837  0.3996824058146604
  0.7106580572075776  0.5415345436639614  0.3998542741280005
  0.7097557132581263  0.6662675001274975  0.4008536888173406
  0.7074776166169987  0.7896146679521003  0.4012770224447335
  0.7068646790194811  0.9141468583242520  0.4008276104331148
  0.8325669678023395  0.0404209405632785  0.3999292464025998
  0.8326980404954533  0.1656643912235969  0.3994768637635149
  0.8330196408066126  0.2909616002818706  0.3992629957273635
  0.8336974087972984  0.4163470589464331  0.3992709118088092
  0.8344502516701762  0.5417860493456451  0.3994454640885985
  0.8346040368409742  0.6670251511071452  0.3998785849064068
  0.8338827556474512  0.7917166989736236  0.4002550309574685
  0.8329628367808235  0.9158489182217927  0.4002666726532657
  0.9584816680170982  0.0417835132841399  0.4000243417075560
  0.9577788579692561  0.1661435365559653  0.3998699366842944
  0.9575430949720599  0.2911315078573837  0.3995880746419539
  0.9577338591953231  0.4163578975691947  0.3992865018233137
  0.9584236434397632  0.5417728340461738  0.3991845128995342
  0.9589880835886945  0.6671992787770493  0.3993351469745491
  0.9591367677686932  0.7924909115442460  0.3996625447808337
  0.9590293693600710  0.9174158489777213  0.3999460548248857
  0.4099518131015293  0.5806898432111584  0.4049483125886520
  0.5458318357416347  0.5806428599351188  0.4043928939586183
  0.3293036310724107  0.4193937555629832  0.4050562308690829
  0.4652345447940719  0.4193549593587679  0.4043100572494105
  0.4408726906437422  0.4999460734173052  0.4900231263824693
 
  0.00000000E+00  0.00000000E+00  0.00000000E+00
  0.00000000E+00  0.00000000E+00  0.00000000E+00
  0.00000000E+00  0.00000000E+00  0.00000000E+00
  0.00000000E+00  0.00000000E+00  0.00000000E+00
  0.00000000E+00  0.00000000E+00  0.00000000E+00
  0.00000000E+00  0.00000000E+00  0.00000000E+00
  0.00000000E+00  0.00000000E+00  0.00000000E+00
  0.00000000E+00  0.00000000E+00  0.00000000E+00
  0.00000000E+00  0.00000000E+00  0.00000000E+00
  0.00000000E+00  0.00000000E+00  0.00000000E+00
  0.00000000E+00  0.00000000E+00  0.00000000E+00
  0.00000000E+00  0.00000000E+00  0.00000000E+00
  0.00000000E+00  0.00000000E+00  0.00000000E+00
  0.00000000E+00  0.00000000E+00  0.00000000E+00
  0.00000000E+00  0.00000000E+00  0.00000000E+00
  0.00000000E+00  0.00000000E+00  0.00000000E+00
  0.00000000E+00  0.00000000E+00  0.00000000E+00
  0.00000000E+00  0.00000000E+00  0.00000000E+00
  0.00000000E+00  0.00000000E+00  0.00000000E+00
  0.00000000E+00  0.00000000E+00  0.00000000E+00
  0.00000000E+00  0.00000000E+00  0.00000000E+00
  0.00000000E+00  0.00000000E+00  0.00000000E+00
  0.00000000E+00  0.00000000E+00  0.00000000E+00
  0.00000000E+00  0.00000000E+00  0.00000000E+00
  0.00000000E+00  0.00000000E+00  0.00000000E+00
  0.00000000E+00  0.00000000E+00  0.00000000E+00
  0.00000000E+00  0.00000000E+00  0.00000000E+00
  0.00000000E+00  0.00000000E+00  0.00000000E+00
  0.00000000E+00  0.00000000E+00  0.00000000E+00
  0.00000000E+00  0.00000000E+00  0.00000000E+00
  0.00000000E+00  0.00000000E+00  0.00000000E+00
  0.00000000E+00  0.00000000E+00  0.00000000E+00
  0.00000000E+00  0.00000000E+00  0.00000000E+00
  0.00000000E+00  0.00000000E+00  0.00000000E+00
  0.00000000E+00  0.00000000E+00  0.00000000E+00
  0.00000000E+00  0.00000000E+00  0.00000000E+00
  0.00000000E+00  0.00000000E+00  0.00000000E+00
  0.00000000E+00  0.00000000E+00  0.00000000E+00
  0.00000000E+00  0.00000000E+00  0.00000000E+00
  0.00000000E+00  0.00000000E+00  0.00000000E+00
  0.00000000E+00  0.00000000E+00  0.00000000E+00
  0.00000000E+00  0.00000000E+00  0.00000000E+00
  0.00000000E+00  0.00000000E+00  0.00000000E+00
  0.00000000E+00  0.00000000E+00  0.00000000E+00
  0.00000000E+00  0.00000000E+00  0.00000000E+00
  0.00000000E+00  0.00000000E+00  0.00000000E+00
  0.00000000E+00  0.00000000E+00  0.00000000E+00
  0.00000000E+00  0.00000000E+00  0.00000000E+00
  0.00000000E+00  0.00000000E+00  0.00000000E+00
  0.00000000E+00  0.00000000E+00  0.00000000E+00
  0.00000000E+00  0.00000000E+00  0.00000000E+00
  0.00000000E+00  0.00000000E+00  0.00000000E+00
  0.00000000E+00  0.00000000E+00  0.00000000E+00
  0.00000000E+00  0.00000000E+00  0.00000000E+00
  0.00000000E+00  0.00000000E+00  0.00000000E+00
  0.00000000E+00  0.00000000E+00  0.00000000E+00
  0.00000000E+00  0.00000000E+00  0.00000000E+00
  0.00000000E+00  0.00000000E+00  0.00000000E+00
  0.00000000E+00  0.00000000E+00  0.00000000E+00
  0.00000000E+00  0.00000000E+00  0.00000000E+00
  0.00000000E+00  0.00000000E+00  0.00000000E+00
  0.00000000E+00  0.00000000E+00  0.00000000E+00
  0.00000000E+00  0.00000000E+00  0.00000000E+00
  0.00000000E+00  0.00000000E+00  0.00000000E+00
  0.00000000E+00  0.00000000E+00  0.00000000E+00
  0.00000000E+00  0.00000000E+00  0.00000000E+00
  0.00000000E+00  0.00000000E+00  0.00000000E+00
  0.00000000E+00  0.00000000E+00  0.00000000E+00
  0.00000000E+00  0.00000000E+00  0.00000000E+00
  0.00000000E+00  0.00000000E+00  0.00000000E+00
  0.00000000E+00  0.00000000E+00  0.00000000E+00
  0.00000000E+00  0.00000000E+00  0.00000000E+00
  0.00000000E+00  0.00000000E+00  0.00000000E+00
  0.00000000E+00  0.00000000E+00  0.00000000E+00
  0.00000000E+00  0.00000000E+00  0.00000000E+00
  0.00000000E+00  0.00000000E+00  0.00000000E+00
  0.00000000E+00  0.00000000E+00  0.00000000E+00
  0.00000000E+00  0.00000000E+00  0.00000000E+00
  0.00000000E+00  0.00000000E+00  0.00000000E+00
  0.00000000E+00  0.00000000E+00  0.00000000E+00
  0.00000000E+00  0.00000000E+00  0.00000000E+00
  0.00000000E+00  0.00000000E+00  0.00000000E+00
  0.00000000E+00  0.00000000E+00  0.00000000E+00
  0.00000000E+00  0.00000000E+00  0.00000000E+00
  0.00000000E+00  0.00000000E+00  0.00000000E+00
  0.00000000E+00  0.00000000E+00  0.00000000E+00
  0.00000000E+00  0.00000000E+00  0.00000000E+00
  0.00000000E+00  0.00000000E+00  0.00000000E+00
  0.00000000E+00  0.00000000E+00  0.00000000E+00
  0.00000000E+00  0.00000000E+00  0.00000000E+00
  0.00000000E+00  0.00000000E+00  0.00000000E+00
  0.00000000E+00  0.00000000E+00  0.00000000E+00
  0.00000000E+00  0.00000000E+00  0.00000000E+00
  0.00000000E+00  0.00000000E+00  0.00000000E+00
  0.00000000E+00  0.00000000E+00  0.00000000E+00
  0.00000000E+00  0.00000000E+00  0.00000000E+00
  0.00000000E+00  0.00000000E+00  0.00000000E+00
  0.00000000E+00  0.00000000E+00  0.00000000E+00
  0.00000000E+00  0.00000000E+00  0.00000000E+00
  0.00000000E+00  0.00000000E+00  0.00000000E+00
  0.00000000E+00  0.00000000E+00  0.00000000E+00
  0.00000000E+00  0.00000000E+00  0.00000000E+00
  0.00000000E+00  0.00000000E+00  0.00000000E+00
  0.00000000E+00  0.00000000E+00  0.00000000E+00
  0.00000000E+00  0.00000000E+00  0.00000000E+00
  0.00000000E+00  0.00000000E+00  0.00000000E+00
  0.00000000E+00  0.00000000E+00  0.00000000E+00
  0.00000000E+00  0.00000000E+00  0.00000000E+00
  0.00000000E+00  0.00000000E+00  0.00000000E+00
  0.00000000E+00  0.00000000E+00  0.00000000E+00
  0.00000000E+00  0.00000000E+00  0.00000000E+00
  0.00000000E+00  0.00000000E+00  0.00000000E+00
  0.00000000E+00  0.00000000E+00  0.00000000E+00
  0.00000000E+00  0.00000000E+00  0.00000000E+00
  0.00000000E+00  0.00000000E+00  0.00000000E+00
  0.00000000E+00  0.00000000E+00  0.00000000E+00
  0.00000000E+00  0.00000000E+00  0.00000000E+00
  0.00000000E+00  0.00000000E+00  0.00000000E+00
  0.00000000E+00  0.00000000E+00  0.00000000E+00
  0.00000000E+00  0.00000000E+00  0.00000000E+00
  0.00000000E+00  0.00000000E+00  0.00000000E+00
  0.00000000E+00  0.00000000E+00  0.00000000E+00
  0.00000000E+00  0.00000000E+00  0.00000000E+00
  0.00000000E+00  0.00000000E+00  0.00000000E+00
  0.00000000E+00  0.00000000E+00  0.00000000E+00
  0.00000000E+00  0.00000000E+00  0.00000000E+00
  0.00000000E+00  0.00000000E+00  0.00000000E+00
  0.00000000E+00  0.00000000E+00  0.00000000E+00
  0.00000000E+00  0.00000000E+00  0.00000000E+00
