H1 Pt1 C123 N3 O2                       
   1.00000000000000     
    19.8577217005508260    0.0013979251817752    0.0698889297230570
    -9.9279536845953924   17.0333224158816741    0.1371040003128493
     0.1053388055625987    0.3001031630318699   29.7512437035316459
   H    Pt   C    N    O 
     1     1   123     3     2
Direct
  0.5333018366495278  0.5533993176609235  0.5118106705295143
  0.4366367759691195  0.4980957497086501  0.4103490964362220
  0.0416563795168355  0.0838815818345564  0.4004127779730616
  0.0403317321581757  0.2076829477923636  0.4005993619427987
  0.0395423195825186  0.3324233934647522  0.4002719099960111
  0.0398402551896374  0.4579594789164159  0.3995097594328401
  0.0410842719813872  0.5837530914426650  0.3987349751496135
  0.0422619677916125  0.7094037740056917  0.3983969247542811
  0.0426436652908252  0.8347337235444714  0.3989166604462110
  0.0425046257250429  0.9596839514293970  0.3999148722512715
  0.1677999502864775  0.0857126642377155  0.4008323934017444
  0.1668388981112053  0.2099878827610883  0.4015050038344014
  0.1640508324801051  0.3331764143628344  0.4014409341426179
  0.1628877447484584  0.4581483954416231  0.4009636539267276
  0.1641822112727035  0.5836410024302530  0.4001335703034962
  0.1660799708559808  0.7092046719587479  0.3992765086106368
  0.1670988499926725  0.8347652164910810  0.3989625869145070
  0.1676049643290184  0.9603149911319544  0.3997820937915395
  0.2927049171591761  0.0859865848898937  0.4006066251207798
  0.2934186415780595  0.2129648130036058  0.4020103693689904
  0.2913318494366492  0.3378862853300095  0.4030758532411587
  0.2853563543007023  0.4576829265152310  0.4025289548819720
  0.2866360813071531  0.5832615832221320  0.4017531926640400
  0.2898811905074443  0.7086122425806074  0.4005410814006634
  0.2913711358820010  0.8340990228975503  0.3998131672964232
  0.2921223027429324  0.9598184555128682  0.3998330344070816
  0.4170861374059455  0.0840243280811989  0.4000650234743039
  0.4179402515266880  0.2101143215501939  0.4008214910226329
  0.4202888193508884  0.3374228803763882  0.4030323172848562
  0.4136871708072023  0.7061288957194499  0.4020608515484307
  0.4156375007426998  0.8321950927600146  0.4005618778945820
  0.4164910033970418  0.9581346428078367  0.3999514480331970
  0.5414486439917099  0.0821421548310379  0.3997981856244350
  0.5422760672470995  0.2078657689409474  0.4001399039107448
  0.5439202676713065  0.3333768220214317  0.4013132795086891
  0.5488679761064735  0.4586208190922840  0.4042730374285338
  0.5374648099301024  0.7002776149931370  0.4041550047748620
  0.5398342109198961  0.8293114677713075  0.4016836290611699
  0.5408002840600115  0.9560734310653600  0.4001920053232366
  0.6658274842475269  0.0812709600241657  0.3993454669311333
  0.6665696812532698  0.2068950031548706  0.3993354613128531
  0.6678662748626424  0.3324297717940811  0.4001200849027910
  0.6707647576074884  0.4581104006820640  0.4018585320651921
  0.6722472657298935  0.5838789920982222  0.4040493209604415
  0.6667367771327342  0.7056426396547624  0.4034037698087015
  0.6642581700144420  0.8292627135887073  0.4019474953601112
  0.6651685544359626  0.9554472486734537  0.4003721015901824
  0.7903683836419489  0.0812189831550979  0.3994532919556893
  0.7908323875528985  0.2066643759017025  0.3987996772990410
  0.7917625513983154  0.3322612163511821  0.3988759331179896
  0.7934446862201542  0.4580065141911829  0.3995745948920358
  0.7946422570165189  0.5836699681789190  0.4009522606029129
  0.7938235867054804  0.7087908016334955  0.4016097360458812
  0.7911931656691318  0.8319609818891781  0.4010230819872639
  0.7901081965209297  0.9559994655146022  0.4002066651388430
  0.9155146527277419  0.0820124527675549  0.3999897381641693
  0.9152479114261537  0.2068488297703869  0.3996663636356020
  0.9155713668079810  0.3322550318584856  0.3990301790416434
  0.9166358565490536  0.4579826362363836  0.3985814568257965
  0.9178633056726397  0.5837850062751176  0.3987852536480290
  0.9181755686607022  0.7092229711089876  0.3995118222548301
  0.9176449752647928  0.8340738040901832  0.3999440768242159
  0.9164246411739186  0.9579591514328800  0.4000184431623732
  0.0842326592606026  0.0432932879130033  0.4003985730749834
  0.0831881448882021  0.1673982622660314  0.4008326406655700
  0.0812829597111508  0.2910563029117426  0.4007811844423627
  0.0805505524996350  0.4159447975604701  0.4002627406997195
  0.0815794578280495  0.5416393077805973  0.3994103967683131
  0.0831387983633724  0.6674166826170130  0.3986815174060999
  0.0840230889973681  0.7930361302803585  0.3985372372415481
  0.0843162244434547  0.9183380549815517  0.3995050915428681
  0.2093633326812392  0.0439826050925381  0.4004820831801749
  0.2095865485829785  0.1695917372683757  0.4015450572052162
  0.2077301937192378  0.2936355226954701  0.4020076005380177
  0.2037737733657723  0.4163931963249043  0.4015757515387818
  0.2042483092588949  0.5414099632214875  0.4009700350156970
  0.2068030725374426  0.6671827295334826  0.4000064778691331
  0.2082362097773316  0.7927976624775236  0.3993208309162849
  0.2089724584070459  0.9183786778506259  0.3994949880625196
  0.3339133614480066  0.0434944934294856  0.4001455527709984
  0.3345830814330043  0.1699011456107647  0.4011953107921595
  0.3356440293916079  0.2974218019387506  0.4030609955880777
  0.3271891213104729  0.5422508799544528  0.4028655120161315
  0.3304578031290030  0.6664328926830900  0.4014356962289390
  0.3324496235157298  0.7919131065963194  0.4002785218603221
  0.3333543211403623  0.9175726838473284  0.3998505113012759
  0.4583144011582745  0.0415980836737848  0.3999184659536600
  0.4590150422347116  0.1674997741248843  0.4002743872572377
  0.4604167003525355  0.2936244236544330  0.4014086545320981
  0.4669714983062984  0.4199075310303150  0.4048730489896373
  0.4523485222983673  0.6611637187389128  0.4036092505927642
  0.4566268284928576  0.7895493524186560  0.4014104489327597
  0.4576576331869998  0.9156851011008660  0.4001889563003401
  0.5826520026599805  0.0398251150252232  0.3997396722179166
  0.5834130154845087  0.1656783267621788  0.3997669477579300
  0.5846371937792600  0.2911976648071577  0.4004861900042449
  0.5882644036977612  0.4165667862444102  0.4024198157529184
  0.5910484904044001  0.5424366130674347  0.4053847022430678
  0.5827242575322682  0.6604124032190640  0.4048036258704377
  0.5801289648596052  0.7854287151875317  0.4027416796099915
  0.5818833694778247  0.9134040613644194  0.4007293536171566
  0.7070882179189540  0.0392394985865185  0.3995784152523693
  0.7077323905426876  0.1649431860792389  0.3989840916898581
  0.7086792621751811  0.2904865990675721  0.3993793836898655
  0.7108024983736378  0.4159851278268076  0.4004594754782342
  0.7124556431425813  0.5414739347140632  0.4024512264395817
  0.7111146490201495  0.6667637049008693  0.4031824887677729
  0.7074016519126666  0.7892361983468976  0.4021021102786069
  0.7063730802102189  0.9133876201571549  0.4007770019905318
  0.8320241880235174  0.0397507349424254  0.3998060491872023
  0.8321414135888247  0.1649159414951277  0.3991870975644081
  0.8326839016846928  0.2902945535012662  0.3987248629586743
  0.8339539707527046  0.4159163435141371  0.3988403247289439
  0.8352811062839357  0.5416806324047564  0.3996402160781085
  0.8354403720392101  0.6672569869400479  0.4007576080975536
  0.8344051875304094  0.7919664971215828  0.4008075241670994
  0.8327573858104054  0.9154914419041585  0.4002893220623285
  0.9580479120971187  0.0414522314609924  0.4000934668426585
  0.9570774827777607  0.1655202017100232  0.4001211546519542
  0.9567709016784949  0.2904622040365467  0.3996562840152113
  0.9572246904042548  0.4159065789358622  0.3989334431944500
  0.9584551800306407  0.5416930449229915  0.3984992131850583
  0.9594130887076977  0.6674421234845128  0.3987517191371580
  0.9595285481139775  0.7928035077574024  0.3993685755711537
  0.9590696896576665  0.9175022729061640  0.3999034426635351
  0.4064645534693837  0.5815411585921682  0.4038638177402086
  0.5491121698028067  0.5801271529081686  0.4058944789057907
  0.3266338656018388  0.4188413204511478  0.4031194500481761
  0.4899583996081792  0.5000416192812128  0.5070756443443311
  0.4363918231299566  0.5142436641921985  0.4830927102758262
 
  0.00000000E+00  0.00000000E+00  0.00000000E+00
  0.00000000E+00  0.00000000E+00  0.00000000E+00
  0.00000000E+00  0.00000000E+00  0.00000000E+00
  0.00000000E+00  0.00000000E+00  0.00000000E+00
  0.00000000E+00  0.00000000E+00  0.00000000E+00
  0.00000000E+00  0.00000000E+00  0.00000000E+00
  0.00000000E+00  0.00000000E+00  0.00000000E+00
  0.00000000E+00  0.00000000E+00  0.00000000E+00
  0.00000000E+00  0.00000000E+00  0.00000000E+00
  0.00000000E+00  0.00000000E+00  0.00000000E+00
  0.00000000E+00  0.00000000E+00  0.00000000E+00
  0.00000000E+00  0.00000000E+00  0.00000000E+00
  0.00000000E+00  0.00000000E+00  0.00000000E+00
  0.00000000E+00  0.00000000E+00  0.00000000E+00
  0.00000000E+00  0.00000000E+00  0.00000000E+00
  0.00000000E+00  0.00000000E+00  0.00000000E+00
  0.00000000E+00  0.00000000E+00  0.00000000E+00
  0.00000000E+00  0.00000000E+00  0.00000000E+00
  0.00000000E+00  0.00000000E+00  0.00000000E+00
  0.00000000E+00  0.00000000E+00  0.00000000E+00
  0.00000000E+00  0.00000000E+00  0.00000000E+00
  0.00000000E+00  0.00000000E+00  0.00000000E+00
  0.00000000E+00  0.00000000E+00  0.00000000E+00
  0.00000000E+00  0.00000000E+00  0.00000000E+00
  0.00000000E+00  0.00000000E+00  0.00000000E+00
  0.00000000E+00  0.00000000E+00  0.00000000E+00
  0.00000000E+00  0.00000000E+00  0.00000000E+00
  0.00000000E+00  0.00000000E+00  0.00000000E+00
  0.00000000E+00  0.00000000E+00  0.00000000E+00
  0.00000000E+00  0.00000000E+00  0.00000000E+00
  0.00000000E+00  0.00000000E+00  0.00000000E+00
  0.00000000E+00  0.00000000E+00  0.00000000E+00
  0.00000000E+00  0.00000000E+00  0.00000000E+00
  0.00000000E+00  0.00000000E+00  0.00000000E+00
  0.00000000E+00  0.00000000E+00  0.00000000E+00
  0.00000000E+00  0.00000000E+00  0.00000000E+00
  0.00000000E+00  0.00000000E+00  0.00000000E+00
  0.00000000E+00  0.00000000E+00  0.00000000E+00
  0.00000000E+00  0.00000000E+00  0.00000000E+00
  0.00000000E+00  0.00000000E+00  0.00000000E+00
  0.00000000E+00  0.00000000E+00  0.00000000E+00
  0.00000000E+00  0.00000000E+00  0.00000000E+00
  0.00000000E+00  0.00000000E+00  0.00000000E+00
  0.00000000E+00  0.00000000E+00  0.00000000E+00
  0.00000000E+00  0.00000000E+00  0.00000000E+00
  0.00000000E+00  0.00000000E+00  0.00000000E+00
  0.00000000E+00  0.00000000E+00  0.00000000E+00
  0.00000000E+00  0.00000000E+00  0.00000000E+00
  0.00000000E+00  0.00000000E+00  0.00000000E+00
  0.00000000E+00  0.00000000E+00  0.00000000E+00
  0.00000000E+00  0.00000000E+00  0.00000000E+00
  0.00000000E+00  0.00000000E+00  0.00000000E+00
  0.00000000E+00  0.00000000E+00  0.00000000E+00
  0.00000000E+00  0.00000000E+00  0.00000000E+00
  0.00000000E+00  0.00000000E+00  0.00000000E+00
  0.00000000E+00  0.00000000E+00  0.00000000E+00
  0.00000000E+00  0.00000000E+00  0.00000000E+00
  0.00000000E+00  0.00000000E+00  0.00000000E+00
  0.00000000E+00  0.00000000E+00  0.00000000E+00
  0.00000000E+00  0.00000000E+00  0.00000000E+00
  0.00000000E+00  0.00000000E+00  0.00000000E+00
  0.00000000E+00  0.00000000E+00  0.00000000E+00
  0.00000000E+00  0.00000000E+00  0.00000000E+00
  0.00000000E+00  0.00000000E+00  0.00000000E+00
  0.00000000E+00  0.00000000E+00  0.00000000E+00
  0.00000000E+00  0.00000000E+00  0.00000000E+00
  0.00000000E+00  0.00000000E+00  0.00000000E+00
  0.00000000E+00  0.00000000E+00  0.00000000E+00
  0.00000000E+00  0.00000000E+00  0.00000000E+00
  0.00000000E+00  0.00000000E+00  0.00000000E+00
  0.00000000E+00  0.00000000E+00  0.00000000E+00
  0.00000000E+00  0.00000000E+00  0.00000000E+00
  0.00000000E+00  0.00000000E+00  0.00000000E+00
  0.00000000E+00  0.00000000E+00  0.00000000E+00
  0.00000000E+00  0.00000000E+00  0.00000000E+00
  0.00000000E+00  0.00000000E+00  0.00000000E+00
  0.00000000E+00  0.00000000E+00  0.00000000E+00
  0.00000000E+00  0.00000000E+00  0.00000000E+00
  0.00000000E+00  0.00000000E+00  0.00000000E+00
  0.00000000E+00  0.00000000E+00  0.00000000E+00
  0.00000000E+00  0.00000000E+00  0.00000000E+00
  0.00000000E+00  0.00000000E+00  0.00000000E+00
  0.00000000E+00  0.00000000E+00  0.00000000E+00
  0.00000000E+00  0.00000000E+00  0.00000000E+00
  0.00000000E+00  0.00000000E+00  0.00000000E+00
  0.00000000E+00  0.00000000E+00  0.00000000E+00
  0.00000000E+00  0.00000000E+00  0.00000000E+00
  0.00000000E+00  0.00000000E+00  0.00000000E+00
  0.00000000E+00  0.00000000E+00  0.00000000E+00
  0.00000000E+00  0.00000000E+00  0.00000000E+00
  0.00000000E+00  0.00000000E+00  0.00000000E+00
  0.00000000E+00  0.00000000E+00  0.00000000E+00
  0.00000000E+00  0.00000000E+00  0.00000000E+00
  0.00000000E+00  0.00000000E+00  0.00000000E+00
  0.00000000E+00  0.00000000E+00  0.00000000E+00
  0.00000000E+00  0.00000000E+00  0.00000000E+00
  0.00000000E+00  0.00000000E+00  0.00000000E+00
  0.00000000E+00  0.00000000E+00  0.00000000E+00
  0.00000000E+00  0.00000000E+00  0.00000000E+00
  0.00000000E+00  0.00000000E+00  0.00000000E+00
  0.00000000E+00  0.00000000E+00  0.00000000E+00
  0.00000000E+00  0.00000000E+00  0.00000000E+00
  0.00000000E+00  0.00000000E+00  0.00000000E+00
  0.00000000E+00  0.00000000E+00  0.00000000E+00
  0.00000000E+00  0.00000000E+00  0.00000000E+00
  0.00000000E+00  0.00000000E+00  0.00000000E+00
  0.00000000E+00  0.00000000E+00  0.00000000E+00
  0.00000000E+00  0.00000000E+00  0.00000000E+00
  0.00000000E+00  0.00000000E+00  0.00000000E+00
  0.00000000E+00  0.00000000E+00  0.00000000E+00
  0.00000000E+00  0.00000000E+00  0.00000000E+00
  0.00000000E+00  0.00000000E+00  0.00000000E+00
  0.00000000E+00  0.00000000E+00  0.00000000E+00
  0.00000000E+00  0.00000000E+00  0.00000000E+00
  0.00000000E+00  0.00000000E+00  0.00000000E+00
  0.00000000E+00  0.00000000E+00  0.00000000E+00
  0.00000000E+00  0.00000000E+00  0.00000000E+00
  0.00000000E+00  0.00000000E+00  0.00000000E+00
  0.00000000E+00  0.00000000E+00  0.00000000E+00
  0.00000000E+00  0.00000000E+00  0.00000000E+00
  0.00000000E+00  0.00000000E+00  0.00000000E+00
  0.00000000E+00  0.00000000E+00  0.00000000E+00
  0.00000000E+00  0.00000000E+00  0.00000000E+00
  0.00000000E+00  0.00000000E+00  0.00000000E+00
  0.00000000E+00  0.00000000E+00  0.00000000E+00
  0.00000000E+00  0.00000000E+00  0.00000000E+00
  0.00000000E+00  0.00000000E+00  0.00000000E+00
  0.00000000E+00  0.00000000E+00  0.00000000E+00
  0.00000000E+00  0.00000000E+00  0.00000000E+00
  0.00000000E+00  0.00000000E+00  0.00000000E+00
