Cu1 C124 N2                             
   1.00000000000000     
    19.8130697888963638   -0.0048201293133182    0.0097938820931731
    -9.9110664349491380   17.0372224241041508   -0.0051403304754694
     0.0147357369882873   -0.0004306742096042   29.8135082353869052
   Cu   C    N 
     1   124     2
Direct
  0.4374986507303545  0.5000058290820261  0.4046523151286928
  0.0421567443416182  0.0842476782835270  0.4000991157860913
  0.0411485058413358  0.2083499738133833  0.4002880300329781
  0.0403219246335175  0.3328393441565753  0.4000348618793230
  0.0403331297408223  0.4582217333992561  0.3995425761574137
  0.0413094134455287  0.5837743627808627  0.3992976266196833
  0.0421148834009343  0.7092325195340807  0.3994271461140574
  0.0424708501406237  0.8345789316472459  0.3995472034983883
  0.0425613975472848  0.9597190937785702  0.3997293521937937
  0.1682428336811893  0.0859590271245801  0.4006113114386838
  0.1676349621817793  0.2104849951269923  0.4015613431361885
  0.1655852346902576  0.3339695970393987  0.4019206910006843
  0.1639005832954859  0.4584629613316972  0.4012482052499803
  0.1651133714287970  0.5836650397217036  0.4001126652690111
  0.1663728230415993  0.7090809010684294  0.3995441306736586
  0.1671052339865741  0.8345733260906721  0.3995988801181951
  0.1676307682838258  0.9601591646013380  0.3998346560943511
  0.2927790286737234  0.0856212326259802  0.4005446825208202
  0.2945022746722415  0.2129265548652980  0.4021488697670853
  0.2934847148321063  0.3384674055335922  0.4034450526724873
  0.2876017568179774  0.4592182329103635  0.4036499742052201
  0.2887496391474019  0.5839094667237719  0.4022316913698696
  0.2906480885666005  0.7087859651020031  0.4005386796011524
  0.2916252835443636  0.8340585811164501  0.3996727987544115
  0.2921650517572634  0.9596355356776232  0.3996952948445096
  0.4171547144002589  0.0841657279466890  0.4001070597353210
  0.4178184650890533  0.2103959625579522  0.4014969527249794
  0.4208499047436873  0.3389722604229679  0.4034605551499956
  0.4146649543572964  0.7057807386030476  0.4023257852645321
  0.4160103734120096  0.8322505983878131  0.4005402845086360
  0.4166215001805140  0.9582202287019658  0.3997762301516880
  0.5415331178557362  0.0824850980474633  0.3997047528865365
  0.5421190649347308  0.2079649506095777  0.4002467997440586
  0.5433838208282815  0.3331162578670688  0.4017371151698736
  0.5455930094801948  0.4571699919823843  0.4035442097085982
  0.5444237069935979  0.5794777206249111  0.4041526740103694
  0.5382049867448340  0.7028089494939059  0.4032497684630223
  0.5402088983748848  0.8304961316978114  0.4014031012205199
  0.5410620845924602  0.9567184264466321  0.4000619685899780
  0.6660416728450314  0.0818056836375941  0.3996728039683558
  0.6665824126694270  0.2073034612241284  0.3995822407529108
  0.6675532038192663  0.3327695159735458  0.3999635807314781
  0.6693054772867355  0.4583091504293142  0.4011143134411362
  0.6697798840746663  0.5828923826660204  0.4023509009021833
  0.6659697637815596  0.7058496767745894  0.4024296037570645
  0.6646932041140452  0.8301833528798337  0.4014690023485806
  0.6655267029872276  0.9561873121765188  0.4002850915822074
  0.7907736680195416  0.0818127438648287  0.3996355454238048
  0.7910770458197277  0.2071444117079062  0.3996020131694539
  0.7917494375853279  0.3326324025324021  0.3993561389507077
  0.7927838919961603  0.4581880136663961  0.3994559362591836
  0.7936415573029683  0.5835743461597142  0.4001208554154141
  0.7927308053477734  0.7083874364893259  0.4007309168905239
  0.7911041164089551  0.8321822368038561  0.4006920673926653
  0.7904997745519526  0.9565576202877694  0.4000821895811247
  0.9160282454107845  0.0825683090054128  0.3996243917345182
  0.9157862695410461  0.2073646140806249  0.3994801622310050
  0.9159170874633352  0.3326358764582434  0.3993053092168273
  0.9165462018452545  0.4581525080686424  0.3991770601394389
  0.9175040212842100  0.5837747091151311  0.3992022884048766
  0.9176556976137720  0.7090934729435765  0.3994935216316792
  0.9173212149213221  0.8339056212609293  0.3997248140289447
  0.9166157395771148  0.9582456191265523  0.3997262364475314
  0.0845281281911553  0.0434434381588484  0.4001131711159426
  0.0839017296624742  0.1678098072170155  0.4006483868353105
  0.0822530774443423  0.2916214591848772  0.4007156219360059
  0.0813274739273694  0.4164165191674215  0.4001900020411605
  0.0821792930671644  0.5418132435146723  0.3995511764133760
  0.0832308056494664  0.6673485505193879  0.3993745543130964
  0.0839267909924620  0.7928474668644793  0.3996063436865316
  0.0842579922976697  0.9181725998933139  0.3996697311208466
  0.2095043046852897  0.0438111392509595  0.4003086886860248
  0.2103174333022448  0.1698259841834031  0.4014816739630895
  0.2090004663961371  0.2941481953776219  0.4024138910744418
  0.2052108916946669  0.4171177672787859  0.4024049044561765
  0.2056815674784407  0.5416978798207477  0.4011590364178375
  0.2074290529066055  0.6672352783103048  0.3999777738745756
  0.2084060980178702  0.7926792968913368  0.3995537806911160
  0.2089939032998014  0.9181968708635565  0.3996638339147063
  0.3339536056380029  0.0432682459951413  0.4000613572820421
  0.3347899330128034  0.1695030186140492  0.4014438431309815
  0.3367743010254554  0.2971986651085370  0.4032458867599953
  0.3305678806409598  0.4205328986184102  0.4041799261098412
  0.3294097614535075  0.5428498810259507  0.4035821067501560
  0.3316050487688000  0.6668886253313639  0.4017269279235742
  0.3328808476158684  0.7920303296188473  0.4001804762169973
  0.3334908784755448  0.9174970677690857  0.3996617747596944
  0.4584079562896451  0.0417654021627908  0.3997982082703634
  0.4589938511419091  0.1677513742526631  0.4006021812554303
  0.4603238107923607  0.2942338825949489  0.4023568186870449
  0.4541272187279309  0.6610405500751934  0.4034637053250307
  0.4571853984028675  0.7896178322798733  0.4014449132846890
  0.4578684199458861  0.9158232267798125  0.4000766370223008
  0.5828713903513635  0.0403565123085214  0.3997215377945284
  0.5833770141000471  0.1659257089692256  0.3997361293812979
  0.5843346566129402  0.2912107307242094  0.4005686420807621
  0.5862495594212175  0.4160976654751725  0.4022245306175296
  0.5873896558670049  0.5407979837031600  0.4035976951055714
  0.5814794276307967  0.6615344401372061  0.4034456961908613
  0.5805005191729554  0.7870796250001514  0.4021286569528782
  0.5822416674717090  0.9143715289024701  0.4005352928287612
  0.7074054201018120  0.0398357200545064  0.3998177315459445
  0.7078975016348558  0.1654234333094526  0.3996061157309258
  0.7086024606659359  0.2909041974300332  0.3995438118817108
  0.7098656139493608  0.4163452956053953  0.4000443538306159
  0.7110854047578994  0.5415396001888808  0.4011839654017276
  0.7093898890723394  0.6660448573796032  0.4019153803548916
  0.7073609645012890  0.7895101939853196  0.4015819002065740
  0.7067789433399583  0.9140414548414344  0.4005662185197150
  0.8324874382753804  0.0402815863143641  0.3996853218856312
  0.8325342782993259  0.1654094735337304  0.3995279775849119
  0.8328918505690265  0.2907611728139344  0.3994216471737788
  0.8336483405203350  0.4162147665730528  0.3992458062377972
  0.8346277833909972  0.5417685149849226  0.3994550348892992
  0.8346477004280101  0.6671522006080692  0.4000315670797985
  0.8338649543176656  0.7916521959571527  0.4003487963839360
  0.8328857386425156  0.9157587907921206  0.4001033397877488
  0.9584346508118454  0.0417607476283386  0.3997147133850252
  0.9577055537398290  0.1661044784651640  0.3996707579734076
  0.9573274144084414  0.2909107192899944  0.3994680659540526
  0.9574589524781939  0.4162256794390074  0.3992347650695500
  0.9584195843982173  0.5418409885015387  0.3991820484021097
  0.9590766414886279  0.6673685940892533  0.3993057488698343
  0.9592191345283527  0.7926397756780910  0.3995141989933126
  0.9590193686522128  0.9174422919346288  0.3996617816120337
  0.4095348207031569  0.5797117520571514  0.4042638217698049
  0.4654599380736997  0.4203018527428858  0.4042382193488069
 
  0.00000000E+00  0.00000000E+00  0.00000000E+00
  0.00000000E+00  0.00000000E+00  0.00000000E+00
  0.00000000E+00  0.00000000E+00  0.00000000E+00
  0.00000000E+00  0.00000000E+00  0.00000000E+00
  0.00000000E+00  0.00000000E+00  0.00000000E+00
  0.00000000E+00  0.00000000E+00  0.00000000E+00
  0.00000000E+00  0.00000000E+00  0.00000000E+00
  0.00000000E+00  0.00000000E+00  0.00000000E+00
  0.00000000E+00  0.00000000E+00  0.00000000E+00
  0.00000000E+00  0.00000000E+00  0.00000000E+00
  0.00000000E+00  0.00000000E+00  0.00000000E+00
  0.00000000E+00  0.00000000E+00  0.00000000E+00
  0.00000000E+00  0.00000000E+00  0.00000000E+00
  0.00000000E+00  0.00000000E+00  0.00000000E+00
  0.00000000E+00  0.00000000E+00  0.00000000E+00
  0.00000000E+00  0.00000000E+00  0.00000000E+00
  0.00000000E+00  0.00000000E+00  0.00000000E+00
  0.00000000E+00  0.00000000E+00  0.00000000E+00
  0.00000000E+00  0.00000000E+00  0.00000000E+00
  0.00000000E+00  0.00000000E+00  0.00000000E+00
  0.00000000E+00  0.00000000E+00  0.00000000E+00
  0.00000000E+00  0.00000000E+00  0.00000000E+00
  0.00000000E+00  0.00000000E+00  0.00000000E+00
  0.00000000E+00  0.00000000E+00  0.00000000E+00
  0.00000000E+00  0.00000000E+00  0.00000000E+00
  0.00000000E+00  0.00000000E+00  0.00000000E+00
  0.00000000E+00  0.00000000E+00  0.00000000E+00
  0.00000000E+00  0.00000000E+00  0.00000000E+00
  0.00000000E+00  0.00000000E+00  0.00000000E+00
  0.00000000E+00  0.00000000E+00  0.00000000E+00
  0.00000000E+00  0.00000000E+00  0.00000000E+00
  0.00000000E+00  0.00000000E+00  0.00000000E+00
  0.00000000E+00  0.00000000E+00  0.00000000E+00
  0.00000000E+00  0.00000000E+00  0.00000000E+00
  0.00000000E+00  0.00000000E+00  0.00000000E+00
  0.00000000E+00  0.00000000E+00  0.00000000E+00
  0.00000000E+00  0.00000000E+00  0.00000000E+00
  0.00000000E+00  0.00000000E+00  0.00000000E+00
  0.00000000E+00  0.00000000E+00  0.00000000E+00
  0.00000000E+00  0.00000000E+00  0.00000000E+00
  0.00000000E+00  0.00000000E+00  0.00000000E+00
  0.00000000E+00  0.00000000E+00  0.00000000E+00
  0.00000000E+00  0.00000000E+00  0.00000000E+00
  0.00000000E+00  0.00000000E+00  0.00000000E+00
  0.00000000E+00  0.00000000E+00  0.00000000E+00
  0.00000000E+00  0.00000000E+00  0.00000000E+00
  0.00000000E+00  0.00000000E+00  0.00000000E+00
  0.00000000E+00  0.00000000E+00  0.00000000E+00
  0.00000000E+00  0.00000000E+00  0.00000000E+00
  0.00000000E+00  0.00000000E+00  0.00000000E+00
  0.00000000E+00  0.00000000E+00  0.00000000E+00
  0.00000000E+00  0.00000000E+00  0.00000000E+00
  0.00000000E+00  0.00000000E+00  0.00000000E+00
  0.00000000E+00  0.00000000E+00  0.00000000E+00
  0.00000000E+00  0.00000000E+00  0.00000000E+00
  0.00000000E+00  0.00000000E+00  0.00000000E+00
  0.00000000E+00  0.00000000E+00  0.00000000E+00
  0.00000000E+00  0.00000000E+00  0.00000000E+00
  0.00000000E+00  0.00000000E+00  0.00000000E+00
  0.00000000E+00  0.00000000E+00  0.00000000E+00
  0.00000000E+00  0.00000000E+00  0.00000000E+00
  0.00000000E+00  0.00000000E+00  0.00000000E+00
  0.00000000E+00  0.00000000E+00  0.00000000E+00
  0.00000000E+00  0.00000000E+00  0.00000000E+00
  0.00000000E+00  0.00000000E+00  0.00000000E+00
  0.00000000E+00  0.00000000E+00  0.00000000E+00
  0.00000000E+00  0.00000000E+00  0.00000000E+00
  0.00000000E+00  0.00000000E+00  0.00000000E+00
  0.00000000E+00  0.00000000E+00  0.00000000E+00
  0.00000000E+00  0.00000000E+00  0.00000000E+00
  0.00000000E+00  0.00000000E+00  0.00000000E+00
  0.00000000E+00  0.00000000E+00  0.00000000E+00
  0.00000000E+00  0.00000000E+00  0.00000000E+00
  0.00000000E+00  0.00000000E+00  0.00000000E+00
  0.00000000E+00  0.00000000E+00  0.00000000E+00
  0.00000000E+00  0.00000000E+00  0.00000000E+00
  0.00000000E+00  0.00000000E+00  0.00000000E+00
  0.00000000E+00  0.00000000E+00  0.00000000E+00
  0.00000000E+00  0.00000000E+00  0.00000000E+00
  0.00000000E+00  0.00000000E+00  0.00000000E+00
  0.00000000E+00  0.00000000E+00  0.00000000E+00
  0.00000000E+00  0.00000000E+00  0.00000000E+00
  0.00000000E+00  0.00000000E+00  0.00000000E+00
  0.00000000E+00  0.00000000E+00  0.00000000E+00
  0.00000000E+00  0.00000000E+00  0.00000000E+00
  0.00000000E+00  0.00000000E+00  0.00000000E+00
  0.00000000E+00  0.00000000E+00  0.00000000E+00
  0.00000000E+00  0.00000000E+00  0.00000000E+00
  0.00000000E+00  0.00000000E+00  0.00000000E+00
  0.00000000E+00  0.00000000E+00  0.00000000E+00
  0.00000000E+00  0.00000000E+00  0.00000000E+00
  0.00000000E+00  0.00000000E+00  0.00000000E+00
  0.00000000E+00  0.00000000E+00  0.00000000E+00
  0.00000000E+00  0.00000000E+00  0.00000000E+00
  0.00000000E+00  0.00000000E+00  0.00000000E+00
  0.00000000E+00  0.00000000E+00  0.00000000E+00
  0.00000000E+00  0.00000000E+00  0.00000000E+00
  0.00000000E+00  0.00000000E+00  0.00000000E+00
  0.00000000E+00  0.00000000E+00  0.00000000E+00
  0.00000000E+00  0.00000000E+00  0.00000000E+00
  0.00000000E+00  0.00000000E+00  0.00000000E+00
  0.00000000E+00  0.00000000E+00  0.00000000E+00
  0.00000000E+00  0.00000000E+00  0.00000000E+00
  0.00000000E+00  0.00000000E+00  0.00000000E+00
  0.00000000E+00  0.00000000E+00  0.00000000E+00
  0.00000000E+00  0.00000000E+00  0.00000000E+00
  0.00000000E+00  0.00000000E+00  0.00000000E+00
  0.00000000E+00  0.00000000E+00  0.00000000E+00
  0.00000000E+00  0.00000000E+00  0.00000000E+00
  0.00000000E+00  0.00000000E+00  0.00000000E+00
  0.00000000E+00  0.00000000E+00  0.00000000E+00
  0.00000000E+00  0.00000000E+00  0.00000000E+00
  0.00000000E+00  0.00000000E+00  0.00000000E+00
  0.00000000E+00  0.00000000E+00  0.00000000E+00
  0.00000000E+00  0.00000000E+00  0.00000000E+00
  0.00000000E+00  0.00000000E+00  0.00000000E+00
  0.00000000E+00  0.00000000E+00  0.00000000E+00
  0.00000000E+00  0.00000000E+00  0.00000000E+00
  0.00000000E+00  0.00000000E+00  0.00000000E+00
  0.00000000E+00  0.00000000E+00  0.00000000E+00
  0.00000000E+00  0.00000000E+00  0.00000000E+00
  0.00000000E+00  0.00000000E+00  0.00000000E+00
  0.00000000E+00  0.00000000E+00  0.00000000E+00
  0.00000000E+00  0.00000000E+00  0.00000000E+00
  0.00000000E+00  0.00000000E+00  0.00000000E+00
  0.00000000E+00  0.00000000E+00  0.00000000E+00
  0.00000000E+00  0.00000000E+00  0.00000000E+00
