H1 Pt1 C122 N4 O2                       
   1.00000000000000     
    19.8491806212856083   -0.0001438952498104    0.0708236164088140
    -9.9247039322237534   17.0197274081559833   -0.0404123322547064
     0.1062846729810687   -0.0087546962621994   29.7861449087428909
   H    Pt   C    N    O 
     1     1   122     4     2
Direct
  0.5285897622550648  0.5483120895175988  0.5150946408601570
  0.4373256390204846  0.4999727676560027  0.4052425556113126
  0.0420880298546414  0.0843510701356354  0.4000582130836966
  0.0406632604556487  0.2080755945678386  0.4002140896963770
  0.0395962757976194  0.3327105723434565  0.3999771726934425
  0.0397466875138984  0.4581632547825861  0.3994380738652681
  0.0410507909281436  0.5839403469076092  0.3991078275848666
  0.0422489531503092  0.7095877363507597  0.3993130476761274
  0.0426829835535262  0.8349112314608895  0.3995355340622383
  0.0427639743777326  0.9600720952663003  0.3996967050810535
  0.1685092703750336  0.0864975750293432  0.4006116154898485
  0.1674955153890191  0.2107520358609976  0.4014417737345785
  0.1642147437205446  0.3335596243457953  0.4016904948019152
  0.1627205342596672  0.4584578822697641  0.4011567625228817
  0.1642527990939581  0.5838510905083417  0.4001103423561845
  0.1661687640813416  0.7093250980274467  0.3994657387387043
  0.1671483375230289  0.8349083778033053  0.3995234156088263
  0.1677972423625108  0.9606210971736440  0.3998806126720236
  0.2929491503206753  0.0864787560845118  0.4006108300715259
  0.2946198657623846  0.2143288053207965  0.4020804347006178
  0.2921439136330509  0.3393160812359111  0.4031818618427994
  0.2848991667141495  0.4580865048055404  0.4032849019511101
  0.2868367326238210  0.5832813823233994  0.4021658097380159
  0.2900793628102569  0.7086438953941322  0.4005861804677457
  0.2915031084878784  0.8342126436839478  0.3996507354235728
  0.2922741090399681  0.9600702368522089  0.3996934734771180
  0.4172205349560013  0.0843467443876945  0.4000572909877699
  0.4181618552134050  0.2107490685024562  0.4014939726152107
  0.4220156167070382  0.3393082578954506  0.4033364144625896
  0.4138843953130629  0.7056978239429612  0.4022083538791254
  0.4157806154646818  0.8320581463534914  0.4005433945806826
  0.4165974947403935  0.9582449715751893  0.3996887681915651
  0.5415245986553305  0.0822988616992172  0.3996035582890373
  0.5423351136781498  0.2080780826315528  0.4002291812288746
  0.5442110788131060  0.3335525854794461  0.4018305122046918
  0.5479728852959440  0.4580524439004270  0.4037857889480969
  0.5376602383037817  0.7004734337518639  0.4031247319755179
  0.5400346667955080  0.8294263104540943  0.4014072513396444
  0.5408883883861288  0.9561789061047964  0.4000799051896815
  0.6659150872886543  0.0814553872518863  0.3996859192161737
  0.6666111038242630  0.2070917783138728  0.3994788918895012
  0.6680042195492548  0.3327242027952378  0.3999670597496265
  0.6705700892252960  0.4584409756478784  0.4012804619518285
  0.6712835900715508  0.5832726926639422  0.4024391952305676
  0.6666901771253840  0.7057313630892094  0.4023204712902016
  0.6643074216849226  0.8294580869183220  0.4014428709902217
  0.6652881522732194  0.9556271465568364  0.4003533321859081
  0.7904966218472377  0.0814530111948873  0.3996772054185106
  0.7908952074366600  0.2068782641970361  0.3995232169289551
  0.7917913739641198  0.3324619015421279  0.3992428404674896
  0.7932725766284899  0.4581542646042577  0.3994045617479836
  0.7944545628807412  0.5838399538155306  0.4001009896968601
  0.7934482662785542  0.7086413037259724  0.4006048721296752
  0.7912088084229465  0.8320689479318536  0.4005605978352675
  0.7902411903930724  0.9561929543475778  0.4000810693752955
  0.9157274516037176  0.0822918062040572  0.3996028586836346
  0.9153835136906801  0.2070662319432013  0.3994782140419789
  0.9155772750278425  0.3324623981993357  0.3992389937690900
  0.9165329999577664  0.4581956214644036  0.3989845510315579
  0.9177514326874089  0.5839301062494746  0.3991047380382372
  0.9180541694110712  0.7092968926812185  0.3994529259152600
  0.9176455099387129  0.8342116339028789  0.3996515563466821
  0.9166172876511814  0.9582554051124229  0.3996934494494863
  0.0847485557361856  0.0438688817692918  0.4000988932012116
  0.0837523571920137  0.1679806292750295  0.4005647805245174
  0.0814630064097806  0.2913807375410687  0.4005867592714522
  0.0804209994423244  0.4161720862086372  0.4001130609299918
  0.0816016365367796  0.5418655742042194  0.3994366652813425
  0.0831322937755207  0.6675654737999922  0.3992383437556344
  0.0840377423048993  0.7931539942461386  0.3995310860745291
  0.0844922451545395  0.9185860043600652  0.3996848008114525
  0.2096929681782583  0.0444214217266431  0.4003678270694907
  0.2106487340813137  0.1706294775479500  0.4014207944279345
  0.2082281378528933  0.2943422843154060  0.4021902530850965
  0.2035779026369119  0.4167381184469117  0.4021517711247232
  0.2042779437409281  0.5415687383996496  0.4011571025446963
  0.2068938125791353  0.6673149528880969  0.3999772478126796
  0.2083304890167985  0.7929609428579557  0.3994803611407333
  0.2090687080513199  0.9185853696022833  0.3996747635993458
  0.3340757490022465  0.0438537336421099  0.4000997319184518
  0.3348975106851888  0.1706034116630094  0.4014601727627657
  0.3372212861047267  0.2995749577146020  0.4030606234384543
  0.3268023270176073  0.5419130597232795  0.4033135946383525
  0.3306610288565404  0.6664639271218148  0.4017060398385665
  0.3325929250743192  0.7919493637347825  0.4002008060339584
  0.3334500226741546  0.9177402481778438  0.3995958640875960
  0.4583801336947008  0.0417915360164393  0.3996961577310990
  0.4591573700310365  0.1679864473140530  0.4005891616159862
  0.4609781432140443  0.2943262372188438  0.4023224203539875
  0.4528109130428745  0.6606997719267802  0.4032311146415490
  0.4567481470507821  0.7892848768726107  0.4014324109631788
  0.4577473208321434  0.9156896773872806  0.4000345901075106
  0.5827034190882403  0.0399711091610346  0.3996949197689557
  0.5834470365489838  0.1658295549535411  0.3996566954162594
  0.5848094361833822  0.2913840661517151  0.4006092778616137
  0.5879958038221980  0.4167142958138924  0.4024362892823861
  0.5899336597649016  0.5418795337291106  0.4038234140167315
  0.5827444940904507  0.6607618114245136  0.4033861701080025
  0.5803269602613045  0.7857545000066314  0.4020942008803381
  0.5820299413950418  0.9135539639997363  0.4005895390140061
  0.7071985440754522  0.0394338213719762  0.3998789243247171
  0.7077875773070639  0.1651283700161916  0.3995318596568808
  0.7087659128430567  0.2907287087593380  0.3994544887941751
  0.7106171622641844  0.4161700574425071  0.4001062793230935
  0.7121542729493086  0.5415573553416476  0.4012743836520993
  0.7106896667643914  0.6664737133556300  0.4018336128817038
  0.7074525534246038  0.7893159842232227  0.4014700841940717
  0.7065023266515122  0.9135889774651746  0.4005877785266433
  0.8322291196163009  0.0399752321907417  0.3996929535898027
  0.8322586550378468  0.1651288378872007  0.3995212660124722
  0.8326782307522828  0.2904428276722611  0.3993101462663706
  0.8338365978034546  0.4160908000195920  0.3991066351261216
  0.8351353373526412  0.5418544887253520  0.3994038200182384
  0.8353096862310707  0.6672948776539329  0.3999629180544620
  0.8342826391242834  0.7919594584644051  0.4002130795138749
  0.8329101204239586  0.9157072535193610  0.4000381873748383
  0.9583860615986068  0.0418011853148255  0.3997011540855870
  0.9573117837361762  0.1658167435923618  0.3996588011823609
  0.9568683450772657  0.2906996926403990  0.3994623526883171
  0.9571259318359351  0.4160825182961004  0.3991124916181352
  0.9583554204867819  0.5418295149774560  0.3989834401725919
  0.9593507959974860  0.6675626367501910  0.3992404231104416
  0.9595503085243019  0.7929417355829457  0.3994797299891107
  0.9592551664177562  0.9177393970285787  0.3995968263744669
  0.4068748419740651  0.5804619127926534  0.4037638441836891
  0.5483656085837555  0.5804461811162007  0.4042135389581181
  0.3264169251238638  0.4195504196052420  0.4036614520776152
  0.4679322503689541  0.4195498676402392  0.4040042950616745
  0.4893459588566993  0.4926216045554387  0.5107324536797222
  0.4275664933828467  0.4954642423160515  0.4909462632895711
 
  0.00000000E+00  0.00000000E+00  0.00000000E+00
  0.00000000E+00  0.00000000E+00  0.00000000E+00
  0.00000000E+00  0.00000000E+00  0.00000000E+00
  0.00000000E+00  0.00000000E+00  0.00000000E+00
  0.00000000E+00  0.00000000E+00  0.00000000E+00
  0.00000000E+00  0.00000000E+00  0.00000000E+00
  0.00000000E+00  0.00000000E+00  0.00000000E+00
  0.00000000E+00  0.00000000E+00  0.00000000E+00
  0.00000000E+00  0.00000000E+00  0.00000000E+00
  0.00000000E+00  0.00000000E+00  0.00000000E+00
  0.00000000E+00  0.00000000E+00  0.00000000E+00
  0.00000000E+00  0.00000000E+00  0.00000000E+00
  0.00000000E+00  0.00000000E+00  0.00000000E+00
  0.00000000E+00  0.00000000E+00  0.00000000E+00
  0.00000000E+00  0.00000000E+00  0.00000000E+00
  0.00000000E+00  0.00000000E+00  0.00000000E+00
  0.00000000E+00  0.00000000E+00  0.00000000E+00
  0.00000000E+00  0.00000000E+00  0.00000000E+00
  0.00000000E+00  0.00000000E+00  0.00000000E+00
  0.00000000E+00  0.00000000E+00  0.00000000E+00
  0.00000000E+00  0.00000000E+00  0.00000000E+00
  0.00000000E+00  0.00000000E+00  0.00000000E+00
  0.00000000E+00  0.00000000E+00  0.00000000E+00
  0.00000000E+00  0.00000000E+00  0.00000000E+00
  0.00000000E+00  0.00000000E+00  0.00000000E+00
  0.00000000E+00  0.00000000E+00  0.00000000E+00
  0.00000000E+00  0.00000000E+00  0.00000000E+00
  0.00000000E+00  0.00000000E+00  0.00000000E+00
  0.00000000E+00  0.00000000E+00  0.00000000E+00
  0.00000000E+00  0.00000000E+00  0.00000000E+00
  0.00000000E+00  0.00000000E+00  0.00000000E+00
  0.00000000E+00  0.00000000E+00  0.00000000E+00
  0.00000000E+00  0.00000000E+00  0.00000000E+00
  0.00000000E+00  0.00000000E+00  0.00000000E+00
  0.00000000E+00  0.00000000E+00  0.00000000E+00
  0.00000000E+00  0.00000000E+00  0.00000000E+00
  0.00000000E+00  0.00000000E+00  0.00000000E+00
  0.00000000E+00  0.00000000E+00  0.00000000E+00
  0.00000000E+00  0.00000000E+00  0.00000000E+00
  0.00000000E+00  0.00000000E+00  0.00000000E+00
  0.00000000E+00  0.00000000E+00  0.00000000E+00
  0.00000000E+00  0.00000000E+00  0.00000000E+00
  0.00000000E+00  0.00000000E+00  0.00000000E+00
  0.00000000E+00  0.00000000E+00  0.00000000E+00
  0.00000000E+00  0.00000000E+00  0.00000000E+00
  0.00000000E+00  0.00000000E+00  0.00000000E+00
  0.00000000E+00  0.00000000E+00  0.00000000E+00
  0.00000000E+00  0.00000000E+00  0.00000000E+00
  0.00000000E+00  0.00000000E+00  0.00000000E+00
  0.00000000E+00  0.00000000E+00  0.00000000E+00
  0.00000000E+00  0.00000000E+00  0.00000000E+00
  0.00000000E+00  0.00000000E+00  0.00000000E+00
  0.00000000E+00  0.00000000E+00  0.00000000E+00
  0.00000000E+00  0.00000000E+00  0.00000000E+00
  0.00000000E+00  0.00000000E+00  0.00000000E+00
  0.00000000E+00  0.00000000E+00  0.00000000E+00
  0.00000000E+00  0.00000000E+00  0.00000000E+00
  0.00000000E+00  0.00000000E+00  0.00000000E+00
  0.00000000E+00  0.00000000E+00  0.00000000E+00
  0.00000000E+00  0.00000000E+00  0.00000000E+00
  0.00000000E+00  0.00000000E+00  0.00000000E+00
  0.00000000E+00  0.00000000E+00  0.00000000E+00
  0.00000000E+00  0.00000000E+00  0.00000000E+00
  0.00000000E+00  0.00000000E+00  0.00000000E+00
  0.00000000E+00  0.00000000E+00  0.00000000E+00
  0.00000000E+00  0.00000000E+00  0.00000000E+00
  0.00000000E+00  0.00000000E+00  0.00000000E+00
  0.00000000E+00  0.00000000E+00  0.00000000E+00
  0.00000000E+00  0.00000000E+00  0.00000000E+00
  0.00000000E+00  0.00000000E+00  0.00000000E+00
  0.00000000E+00  0.00000000E+00  0.00000000E+00
  0.00000000E+00  0.00000000E+00  0.00000000E+00
  0.00000000E+00  0.00000000E+00  0.00000000E+00
  0.00000000E+00  0.00000000E+00  0.00000000E+00
  0.00000000E+00  0.00000000E+00  0.00000000E+00
  0.00000000E+00  0.00000000E+00  0.00000000E+00
  0.00000000E+00  0.00000000E+00  0.00000000E+00
  0.00000000E+00  0.00000000E+00  0.00000000E+00
  0.00000000E+00  0.00000000E+00  0.00000000E+00
  0.00000000E+00  0.00000000E+00  0.00000000E+00
  0.00000000E+00  0.00000000E+00  0.00000000E+00
  0.00000000E+00  0.00000000E+00  0.00000000E+00
  0.00000000E+00  0.00000000E+00  0.00000000E+00
  0.00000000E+00  0.00000000E+00  0.00000000E+00
  0.00000000E+00  0.00000000E+00  0.00000000E+00
  0.00000000E+00  0.00000000E+00  0.00000000E+00
  0.00000000E+00  0.00000000E+00  0.00000000E+00
  0.00000000E+00  0.00000000E+00  0.00000000E+00
  0.00000000E+00  0.00000000E+00  0.00000000E+00
  0.00000000E+00  0.00000000E+00  0.00000000E+00
  0.00000000E+00  0.00000000E+00  0.00000000E+00
  0.00000000E+00  0.00000000E+00  0.00000000E+00
  0.00000000E+00  0.00000000E+00  0.00000000E+00
  0.00000000E+00  0.00000000E+00  0.00000000E+00
  0.00000000E+00  0.00000000E+00  0.00000000E+00
  0.00000000E+00  0.00000000E+00  0.00000000E+00
  0.00000000E+00  0.00000000E+00  0.00000000E+00
  0.00000000E+00  0.00000000E+00  0.00000000E+00
  0.00000000E+00  0.00000000E+00  0.00000000E+00
  0.00000000E+00  0.00000000E+00  0.00000000E+00
  0.00000000E+00  0.00000000E+00  0.00000000E+00
  0.00000000E+00  0.00000000E+00  0.00000000E+00
  0.00000000E+00  0.00000000E+00  0.00000000E+00
  0.00000000E+00  0.00000000E+00  0.00000000E+00
  0.00000000E+00  0.00000000E+00  0.00000000E+00
  0.00000000E+00  0.00000000E+00  0.00000000E+00
  0.00000000E+00  0.00000000E+00  0.00000000E+00
  0.00000000E+00  0.00000000E+00  0.00000000E+00
  0.00000000E+00  0.00000000E+00  0.00000000E+00
  0.00000000E+00  0.00000000E+00  0.00000000E+00
  0.00000000E+00  0.00000000E+00  0.00000000E+00
  0.00000000E+00  0.00000000E+00  0.00000000E+00
  0.00000000E+00  0.00000000E+00  0.00000000E+00
  0.00000000E+00  0.00000000E+00  0.00000000E+00
  0.00000000E+00  0.00000000E+00  0.00000000E+00
  0.00000000E+00  0.00000000E+00  0.00000000E+00
  0.00000000E+00  0.00000000E+00  0.00000000E+00
  0.00000000E+00  0.00000000E+00  0.00000000E+00
  0.00000000E+00  0.00000000E+00  0.00000000E+00
  0.00000000E+00  0.00000000E+00  0.00000000E+00
  0.00000000E+00  0.00000000E+00  0.00000000E+00
  0.00000000E+00  0.00000000E+00  0.00000000E+00
  0.00000000E+00  0.00000000E+00  0.00000000E+00
  0.00000000E+00  0.00000000E+00  0.00000000E+00
  0.00000000E+00  0.00000000E+00  0.00000000E+00
  0.00000000E+00  0.00000000E+00  0.00000000E+00
  0.00000000E+00  0.00000000E+00  0.00000000E+00
  0.00000000E+00  0.00000000E+00  0.00000000E+00
  0.00000000E+00  0.00000000E+00  0.00000000E+00
  0.00000000E+00  0.00000000E+00  0.00000000E+00
