Cd1 C123 N3 O1                          
   1.00000000000000     
    19.7912288166617074    0.0158276842090106   -0.4480909536649539
    -9.8834202711909587   17.0342931398259481    0.3237354108654290
    -0.6740420475395634    0.1744513257215218   29.8497560593650775
   Cd   C    N    O 
     1   123     3     1
Direct
  0.4408150021568762  0.4954509311617211  0.4524608166726998
  0.0418904357108661  0.0837941154831271  0.3998514201506643
  0.0408216217637418  0.2079081972183090  0.3997320134381336
  0.0403976916713939  0.3326955001627337  0.3993510711736407
  0.0408260809373522  0.4580873447044056  0.3991453122723160
  0.0417406821451927  0.5835356642313541  0.3993048588458885
  0.0424898365162194  0.7090005467291959  0.3995201099074883
  0.0428427737311297  0.8344511745057273  0.3997961118433132
  0.0427851429815956  0.9595388119675486  0.3998456861561829
  0.1679826826265999  0.0854086183623063  0.4001283231717021
  0.1667731818611141  0.2093531765351911  0.4004136885686246
  0.1651434850159518  0.3332231296078529  0.3994406156193824
  0.1648004911690661  0.4580245158419204  0.3986076516071043
  0.1657693273489216  0.5832577388065834  0.3986628530882017
  0.1667672568910479  0.7088151338541349  0.3993849282663756
  0.1674361174178925  0.8343442965571077  0.3998294056253421
  0.1678273722635744  0.9599341021973149  0.4000074617851425
  0.2928416491572149  0.0855422475490756  0.4002144531796082
  0.2937156214781251  0.2125502051965889  0.4018504719594128
  0.2914036522170187  0.3374885667451961  0.4016974978866574
  0.2890213512407160  0.4561671221228259  0.3986792619703390
  0.2895566030354838  0.5827827665229447  0.3981288984934914
  0.2909585761015958  0.7082241230463752  0.3991201467262527
  0.2918737155590100  0.8337020821830197  0.3995612644838046
  0.2923775695884949  0.9595063026081166  0.3996876621631132
  0.4172259912458258  0.0840482884560364  0.3992291589731267
  0.4177928887462243  0.2100739261329301  0.4000765915019840
  0.4204502720896169  0.3371344223253512  0.4077346251780923
  0.4151150632957766  0.7060898948017420  0.4002040868576157
  0.4163419966487325  0.8322241987792077  0.3997897866824350
  0.4168011779468199  0.9581256102230766  0.3995198795544312
  0.5416087479590926  0.0825710723699262  0.3992354549621706
  0.5421196772029344  0.2083669067385480  0.3984319424981143
  0.5431113440619411  0.3340296907742864  0.3990876658013723
  0.5455725012954374  0.4588449929499482  0.4054470529906686
  0.5392636630227793  0.7017132508126621  0.4030472235269096
  0.5405820530482498  0.8299539180826730  0.4008123246393131
  0.5412231812884647  0.9565044481472111  0.3999366816796142
  0.6661003356834623  0.0818215910963176  0.3998265269462839
  0.6665738155335768  0.2074908104253495  0.3988450133142518
  0.6672548615273234  0.3330443508989100  0.3971573842643236
  0.6685493569854467  0.4585715517693573  0.3960649322990399
  0.6705752870573288  0.5843144027472589  0.3987320686549466
  0.6679855859302453  0.7072174090481158  0.4006400981544912
  0.6653360107274079  0.8302521609834330  0.4008537498534058
  0.6657734314227587  0.9561214660940717  0.4004003441919206
  0.7908355375148415  0.0818028291287764  0.4000917548119333
  0.7910769190401672  0.2071406848843309  0.3996811143693295
  0.7916468337325082  0.3326896273104896  0.3986240390538349
  0.7926045285256217  0.4583153782266470  0.3971958591616086
  0.7935921987615526  0.5837892351855042  0.3969072710928182
  0.7938292189867756  0.7091026990432185  0.3983437982705221
  0.7920551916173139  0.8328427702907247  0.3994966109095029
  0.7907679834832089  0.9567067334417374  0.4000367105332146
  0.9159980467962540  0.0824194556235590  0.3998658068243197
  0.9157734847659894  0.2073303459558344  0.3998461045818928
  0.9160181117044703  0.3326519924686726  0.3995621023742499
  0.9167039774499888  0.4580752470010073  0.3989781105475082
  0.9176545203058190  0.5836637491544918  0.3984824075964237
  0.9181518481082508  0.7091347618623669  0.3987532361254184
  0.9179027553534361  0.8341201789075339  0.3993117854726881
  0.9169438484502556  0.9583032965937563  0.3996398222968267
  0.0844413531820897  0.0430783712810204  0.3999126124083955
  0.0833242903612288  0.1671090304203074  0.3999673111257992
  0.0818784316368525  0.2911332136834611  0.3994237594822349
  0.0820701498174911  0.4162850895713035  0.3989976639155381
  0.0827534720718087  0.5415729393652400  0.3990776588158689
  0.0836882234341475  0.6671225252671855  0.3994489994397918
  0.0843335868073596  0.7926867294240287  0.3997845327708931
  0.0845005666008336  0.9180152090719469  0.3999403120976564
  0.2095625793393056  0.0435482457461312  0.4001524544737643
  0.2097067769242131  0.1691370741473235  0.4005749492721534
  0.2076917744279892  0.2927090282100671  0.4004077360437032
  0.2060281052891336  0.4163988453539693  0.3989726553491675
  0.2066258435613628  0.5413639302549449  0.3981641097093345
  0.2079581077879433  0.6668775010204410  0.3989635898286975
  0.2087511599642469  0.7923264831954635  0.3996164318138907
  0.2092367759117588  0.9179382069186371  0.3998912727382389
  0.3340559141946856  0.0431171965758077  0.3996710961153665
  0.3347091465550985  0.1694040341910961  0.4009903378907390
  0.3359297609866433  0.2965760579660127  0.4045258128435201
  0.3326269042246530  0.5427687503941814  0.3988749003887889
  0.3320733444264804  0.6659748785652029  0.3990735254277352
  0.3331318157858630  0.7915382656166762  0.3995110698428400
  0.3337266432125147  0.9172609234334017  0.3995724280426610
  0.4585217564182312  0.0416716164830803  0.3992793270483461
  0.4589423853547530  0.1675580558878086  0.3989017391640439
  0.4600194900978805  0.2936492675041351  0.4015635068909152
  0.4670632755099393  0.4184903065794278  0.4169206809073994
  0.4538264990574434  0.6606487958455655  0.4020976207143118
  0.4575024901286193  0.7896592378786089  0.4002865285940648
  0.4581087345586173  0.9157337588703979  0.3997543498968673
  0.5829888945559740  0.0402525092551225  0.3996757139146037
  0.5834033695413345  0.1661665489733858  0.3987643342126124
  0.5841086141602549  0.2918409024996839  0.3978523375291362
  0.5858158120257134  0.4174821574834387  0.3982219013524355
  0.5888074078010839  0.5444504100892378  0.4038033909599754
  0.5846957947297710  0.6621044063354354  0.4036664667225139
  0.5811691049391099  0.7862202979953932  0.4016000213587225
  0.5824474046203264  0.9139384208574877  0.4003906264808371
  0.7075268135692085  0.0397778096403619  0.4001407945416171
  0.7079333188543825  0.1655120639403945  0.3995240523267672
  0.7084357817170166  0.2910380243746800  0.3981207959345874
  0.7094948609592197  0.4166092763721116  0.3963796035239591
  0.7108787405081469  0.5420767830759314  0.3966257379090723
  0.7109152203766892  0.6672185313986840  0.3990137374400263
  0.7085873407403066  0.7904828192234812  0.4001838989739762
  0.7071102947381092  0.9141274134989805  0.4004253575670574
  0.8325187743168534  0.0402862379270400  0.4000204168203377
  0.8325309014052594  0.1654288397356248  0.3999364516879643
  0.8329360201042482  0.2908640726882876  0.3994211776508128
  0.8337273941631123  0.4163766543104572  0.3983238711226293
  0.8346716739618912  0.5418610593842432  0.3973368599433493
  0.8351140875017966  0.6673546422453094  0.3978979829786699
  0.8347055935429649  0.7922400315829824  0.3990121691366380
  0.8334171628203064  0.9160944709419970  0.3996901727373355
  0.9583853253438368  0.0416282100076807  0.3997606955039993
  0.9575392314884532  0.1658802974346942  0.3998095954529023
  0.9573468160013325  0.2908704162005016  0.3996704478038139
  0.9578294589620873  0.4162236503563528  0.3993326051400097
  0.9587639831975429  0.5417971863080570  0.3990102860945252
  0.9594856849537905  0.6673203281374087  0.3989653691676602
  0.9596629172659462  0.7926070524955443  0.3993616917320100
  0.9593550034029263  0.9175242352591220  0.3996336431896855
  0.4107780383978973  0.5810596088135856  0.4022029768234686
  0.5494093200124248  0.5829562469955630  0.4069411505173867
  0.3280910226897025  0.4169049193871028  0.3995112503143398
  0.4271232910997243  0.5410391334159993  0.5095163307803229
 
  0.00000000E+00  0.00000000E+00  0.00000000E+00
  0.00000000E+00  0.00000000E+00  0.00000000E+00
  0.00000000E+00  0.00000000E+00  0.00000000E+00
  0.00000000E+00  0.00000000E+00  0.00000000E+00
  0.00000000E+00  0.00000000E+00  0.00000000E+00
  0.00000000E+00  0.00000000E+00  0.00000000E+00
  0.00000000E+00  0.00000000E+00  0.00000000E+00
  0.00000000E+00  0.00000000E+00  0.00000000E+00
  0.00000000E+00  0.00000000E+00  0.00000000E+00
  0.00000000E+00  0.00000000E+00  0.00000000E+00
  0.00000000E+00  0.00000000E+00  0.00000000E+00
  0.00000000E+00  0.00000000E+00  0.00000000E+00
  0.00000000E+00  0.00000000E+00  0.00000000E+00
  0.00000000E+00  0.00000000E+00  0.00000000E+00
  0.00000000E+00  0.00000000E+00  0.00000000E+00
  0.00000000E+00  0.00000000E+00  0.00000000E+00
  0.00000000E+00  0.00000000E+00  0.00000000E+00
  0.00000000E+00  0.00000000E+00  0.00000000E+00
  0.00000000E+00  0.00000000E+00  0.00000000E+00
  0.00000000E+00  0.00000000E+00  0.00000000E+00
  0.00000000E+00  0.00000000E+00  0.00000000E+00
  0.00000000E+00  0.00000000E+00  0.00000000E+00
  0.00000000E+00  0.00000000E+00  0.00000000E+00
  0.00000000E+00  0.00000000E+00  0.00000000E+00
  0.00000000E+00  0.00000000E+00  0.00000000E+00
  0.00000000E+00  0.00000000E+00  0.00000000E+00
  0.00000000E+00  0.00000000E+00  0.00000000E+00
  0.00000000E+00  0.00000000E+00  0.00000000E+00
  0.00000000E+00  0.00000000E+00  0.00000000E+00
  0.00000000E+00  0.00000000E+00  0.00000000E+00
  0.00000000E+00  0.00000000E+00  0.00000000E+00
  0.00000000E+00  0.00000000E+00  0.00000000E+00
  0.00000000E+00  0.00000000E+00  0.00000000E+00
  0.00000000E+00  0.00000000E+00  0.00000000E+00
  0.00000000E+00  0.00000000E+00  0.00000000E+00
  0.00000000E+00  0.00000000E+00  0.00000000E+00
  0.00000000E+00  0.00000000E+00  0.00000000E+00
  0.00000000E+00  0.00000000E+00  0.00000000E+00
  0.00000000E+00  0.00000000E+00  0.00000000E+00
  0.00000000E+00  0.00000000E+00  0.00000000E+00
  0.00000000E+00  0.00000000E+00  0.00000000E+00
  0.00000000E+00  0.00000000E+00  0.00000000E+00
  0.00000000E+00  0.00000000E+00  0.00000000E+00
  0.00000000E+00  0.00000000E+00  0.00000000E+00
  0.00000000E+00  0.00000000E+00  0.00000000E+00
  0.00000000E+00  0.00000000E+00  0.00000000E+00
  0.00000000E+00  0.00000000E+00  0.00000000E+00
  0.00000000E+00  0.00000000E+00  0.00000000E+00
  0.00000000E+00  0.00000000E+00  0.00000000E+00
  0.00000000E+00  0.00000000E+00  0.00000000E+00
  0.00000000E+00  0.00000000E+00  0.00000000E+00
  0.00000000E+00  0.00000000E+00  0.00000000E+00
  0.00000000E+00  0.00000000E+00  0.00000000E+00
  0.00000000E+00  0.00000000E+00  0.00000000E+00
  0.00000000E+00  0.00000000E+00  0.00000000E+00
  0.00000000E+00  0.00000000E+00  0.00000000E+00
  0.00000000E+00  0.00000000E+00  0.00000000E+00
  0.00000000E+00  0.00000000E+00  0.00000000E+00
  0.00000000E+00  0.00000000E+00  0.00000000E+00
  0.00000000E+00  0.00000000E+00  0.00000000E+00
  0.00000000E+00  0.00000000E+00  0.00000000E+00
  0.00000000E+00  0.00000000E+00  0.00000000E+00
  0.00000000E+00  0.00000000E+00  0.00000000E+00
  0.00000000E+00  0.00000000E+00  0.00000000E+00
  0.00000000E+00  0.00000000E+00  0.00000000E+00
  0.00000000E+00  0.00000000E+00  0.00000000E+00
  0.00000000E+00  0.00000000E+00  0.00000000E+00
  0.00000000E+00  0.00000000E+00  0.00000000E+00
  0.00000000E+00  0.00000000E+00  0.00000000E+00
  0.00000000E+00  0.00000000E+00  0.00000000E+00
  0.00000000E+00  0.00000000E+00  0.00000000E+00
  0.00000000E+00  0.00000000E+00  0.00000000E+00
  0.00000000E+00  0.00000000E+00  0.00000000E+00
  0.00000000E+00  0.00000000E+00  0.00000000E+00
  0.00000000E+00  0.00000000E+00  0.00000000E+00
  0.00000000E+00  0.00000000E+00  0.00000000E+00
  0.00000000E+00  0.00000000E+00  0.00000000E+00
  0.00000000E+00  0.00000000E+00  0.00000000E+00
  0.00000000E+00  0.00000000E+00  0.00000000E+00
  0.00000000E+00  0.00000000E+00  0.00000000E+00
  0.00000000E+00  0.00000000E+00  0.00000000E+00
  0.00000000E+00  0.00000000E+00  0.00000000E+00
  0.00000000E+00  0.00000000E+00  0.00000000E+00
  0.00000000E+00  0.00000000E+00  0.00000000E+00
  0.00000000E+00  0.00000000E+00  0.00000000E+00
  0.00000000E+00  0.00000000E+00  0.00000000E+00
  0.00000000E+00  0.00000000E+00  0.00000000E+00
  0.00000000E+00  0.00000000E+00  0.00000000E+00
  0.00000000E+00  0.00000000E+00  0.00000000E+00
  0.00000000E+00  0.00000000E+00  0.00000000E+00
  0.00000000E+00  0.00000000E+00  0.00000000E+00
  0.00000000E+00  0.00000000E+00  0.00000000E+00
  0.00000000E+00  0.00000000E+00  0.00000000E+00
  0.00000000E+00  0.00000000E+00  0.00000000E+00
  0.00000000E+00  0.00000000E+00  0.00000000E+00
  0.00000000E+00  0.00000000E+00  0.00000000E+00
  0.00000000E+00  0.00000000E+00  0.00000000E+00
  0.00000000E+00  0.00000000E+00  0.00000000E+00
  0.00000000E+00  0.00000000E+00  0.00000000E+00
  0.00000000E+00  0.00000000E+00  0.00000000E+00
  0.00000000E+00  0.00000000E+00  0.00000000E+00
  0.00000000E+00  0.00000000E+00  0.00000000E+00
  0.00000000E+00  0.00000000E+00  0.00000000E+00
  0.00000000E+00  0.00000000E+00  0.00000000E+00
  0.00000000E+00  0.00000000E+00  0.00000000E+00
  0.00000000E+00  0.00000000E+00  0.00000000E+00
  0.00000000E+00  0.00000000E+00  0.00000000E+00
  0.00000000E+00  0.00000000E+00  0.00000000E+00
  0.00000000E+00  0.00000000E+00  0.00000000E+00
  0.00000000E+00  0.00000000E+00  0.00000000E+00
  0.00000000E+00  0.00000000E+00  0.00000000E+00
  0.00000000E+00  0.00000000E+00  0.00000000E+00
  0.00000000E+00  0.00000000E+00  0.00000000E+00
  0.00000000E+00  0.00000000E+00  0.00000000E+00
  0.00000000E+00  0.00000000E+00  0.00000000E+00
  0.00000000E+00  0.00000000E+00  0.00000000E+00
  0.00000000E+00  0.00000000E+00  0.00000000E+00
  0.00000000E+00  0.00000000E+00  0.00000000E+00
  0.00000000E+00  0.00000000E+00  0.00000000E+00
  0.00000000E+00  0.00000000E+00  0.00000000E+00
  0.00000000E+00  0.00000000E+00  0.00000000E+00
  0.00000000E+00  0.00000000E+00  0.00000000E+00
  0.00000000E+00  0.00000000E+00  0.00000000E+00
  0.00000000E+00  0.00000000E+00  0.00000000E+00
  0.00000000E+00  0.00000000E+00  0.00000000E+00
  0.00000000E+00  0.00000000E+00  0.00000000E+00
  0.00000000E+00  0.00000000E+00  0.00000000E+00
  0.00000000E+00  0.00000000E+00  0.00000000E+00
