Cu1 C125 N1 O1                          
   1.00000000000000     
    19.8069291246168291   -0.0061573594757080    0.1012449371449878
    -9.9088630753645628   17.0559592025797109   -0.0483004703416869
     0.1520700198576307    0.0043198764933945   29.7919235395334816
   Cu   C    N    O 
     1   125     1     1
Direct
  0.4364956423244570  0.4990900297384064  0.4167049015096150
  0.0417531735864311  0.0839282336242675  0.3999675953729912
  0.0411665633440592  0.2083055250025104  0.4000917111031738
  0.0407300365344130  0.3329431181818754  0.3998215089077684
  0.0407658811540163  0.4582817459911243  0.3995487803592732
  0.0413290287740270  0.5836976413017563  0.3993706702174424
  0.0418721403433389  0.7090164977970873  0.3993628938078237
  0.0421319066992114  0.8343055675676521  0.3995505167395655
  0.0421315161272626  0.9593377497087274  0.3997024933266361
  0.1673872903334501  0.0850664063989664  0.4005119908255086
  0.1670725458073885  0.2097938303240100  0.4013509441650908
  0.1659481546379790  0.3339504981017465  0.4010591946649613
  0.1647746982800348  0.4585105867726653  0.4002264703493869
  0.1652765514078304  0.5836905024047636  0.4000202608427623
  0.1662188504414718  0.7090682983819965  0.3996158279323261
  0.1668376246476187  0.8344037488536280  0.3994753226133586
  0.1672365021560998  0.9597618518168962  0.3997587854462178
  0.2923938687814044  0.0851065432457171  0.4005421937263416
  0.2930427292417419  0.2113189780331155  0.4025901993205339
  0.2927107815204711  0.3368943367018370  0.4040900008273930
  0.2893123331642050  0.4593470132463459  0.4021485618521651
  0.2889459223552616  0.5843266806958839  0.4010904705772860
  0.2904885394947173  0.7090698266684354  0.4004382650771297
  0.2914388138061091  0.8341101206595842  0.3997589072216641
  0.2918995828211175  0.9594446215963036  0.3996555430452701
  0.4169578619691915  0.0839773974698142  0.3999691271104135
  0.4174714282917444  0.2097965515527341  0.4015704081376572
  0.4187891170237086  0.3369441731128270  0.4048677081458722
  0.4145967039480272  0.7068335826556392  0.4019957425611549
  0.4159525099761091  0.8327778174858141  0.4005111318977028
  0.4165005579309113  0.9583699738440371  0.3997358385386661
  0.5415313468849410  0.0826444611540031  0.3996849849159800
  0.5420456934108955  0.2080066018445439  0.4001581702686674
  0.5428264956265548  0.3331704649173691  0.4016592558236373
  0.5454866676333986  0.4580228109679254  0.4050677617743625
  0.5458097965189309  0.5804026509118612  0.4087275241132013
  0.5382646453699895  0.7033777840418817  0.4042700317220725
  0.5401539533480190  0.8309058529469905  0.4013660940477409
  0.5410722402749111  0.9570184080544134  0.4000360448961505
  0.6661215273185610  0.0820265584085608  0.3996643431403643
  0.6666290995889917  0.2074333933855858  0.3995817393864852
  0.6672708605166976  0.3326775014534455  0.3998326838330382
  0.6688965101817164  0.4580989879776439  0.4006848318051381
  0.6702406954514996  0.5836980580163226  0.4024000735425103
  0.6659680376993237  0.7062510552929062  0.4027968602927002
  0.6647598136797470  0.8305097806849242  0.4015439460225265
  0.6655948663614331  0.9564598611967919  0.4002474078957101
  0.7908755504432250  0.0820239551152199  0.3996940506819349
  0.7912142060613119  0.2072893120546081  0.3994759238543370
  0.7917752556391171  0.3326780708331535  0.3993955319937417
  0.7926899876099558  0.4581558717975309  0.3993749447465144
  0.7934055185130549  0.5834854036353209  0.3996589144617524
  0.7927428144052666  0.7086138528828947  0.4003373675760810
  0.7910703385085902  0.8323800058803239  0.4002548061751977
  0.7904944492913987  0.9567914812838308  0.3999884021682096
  0.9160190440703132  0.0826548340958633  0.3996871060872628
  0.9159839892781987  0.2075560862949475  0.3995679436274496
  0.9161702826518424  0.3327541409380211  0.3993862553689901
  0.9166663588865885  0.4581028538362272  0.3992556759731165
  0.9173515277550247  0.5836135507347886  0.3992588351854930
  0.9174343459251818  0.7089826749044992  0.3994596292937754
  0.9171017444354099  0.8338257970469274  0.3996376711520821
  0.9163841578139704  0.9581514931166751  0.3996983775643069
  0.0838887508900727  0.0428756072878955  0.3999975159617821
  0.0834742084648243  0.1674108240678954  0.4003754938627219
  0.0825521253247695  0.2916975591152890  0.4002611053070346
  0.0820555035458805  0.4165892976662979  0.3998448836213381
  0.0823669842947521  0.5418260212095098  0.3995862780304614
  0.0831200870092073  0.6672548280416152  0.3994052969492832
  0.0836515189448622  0.7926660667018370  0.3994562075110376
  0.0838567297377096  0.9178657956691894  0.3996655268879574
  0.2089896548539809  0.0432936532931836  0.4002427422869489
  0.2091581612219768  0.1687170782108355  0.4015225649013729
  0.2086388848340992  0.2935013880721891  0.4020942664926835
  0.2063730632134215  0.4172307723391888  0.4008237218352987
  0.2061328652253779  0.5419304783747294  0.4004167675508470
  0.2074448666709015  0.6673242405509789  0.4000033856321644
  0.2082041415008845  0.7925770364343782  0.3995639052859725
  0.2086960363563146  0.9179237281979633  0.3996061853262681
  0.3336969970599683  0.0429375683724375  0.3999875442050664
  0.3342661576101277  0.1686940557864919  0.4016505629401667
  0.3347088847319458  0.2947610219637299  0.4043154652553158
  0.3310305232795011  0.4193818540538847  0.4048189470736495
  0.3306978391709340  0.5439024116174181  0.4019733222414954
  0.3315902589492986  0.6671979628227535  0.4011842691987035
  0.3327539227450806  0.7922412030772319  0.4002365022798668
  0.3333366342155816  0.9174875990139610  0.3996499834895145
  0.4583388755418119  0.0417969071093748  0.3997207451062980
  0.4587759462887213  0.1674045099386931  0.4004541773972820
  0.4596304045451627  0.2933984741516992  0.4027167212102459
  0.4638199225093023  0.4192998410919553  0.4063131824188331
  0.4536710187844771  0.6621570085195683  0.4034626240220855
  0.4571472970342180  0.7903872960065241  0.4013316851137827
  0.4578301484296099  0.9161540523530443  0.4000414832979483
  0.5829166481459461  0.0405742943352884  0.3997253565652881
  0.5833974390598425  0.1660553041321096  0.3997382007711402
  0.5840941387942603  0.2912065635932703  0.4004054252413199
  0.5858956846262564  0.4160786754132574  0.4021428817343323
  0.5881640525048383  0.5419159461676319  0.4058056021054312
  0.5815030766313818  0.6622613451306011  0.4056272667558595
  0.5804956989796876  0.7874133657111007  0.4024367671311946
  0.5822245449003668  0.9146646376339550  0.4004726481982081
  0.7074965425703007  0.0400713519111147  0.3998058870889341
  0.7079969887470543  0.1655830723034175  0.3995240558195482
  0.7085438169151773  0.2909039136458705  0.3995464054784927
  0.7096991412549716  0.4163319390586129  0.3997895233184635
  0.7109158581162367  0.5416656964504066  0.4006164022848607
  0.7095519861605109  0.6665923719730450  0.4018409690822911
  0.7072564314842511  0.7898128529092892  0.4013792181637155
  0.7068277029545793  0.9143507026471405  0.4005074835573796
  0.8324599189437951  0.0404510966805466  0.3997296396906690
  0.8326878868037459  0.1656111512744447  0.3995457061682329
  0.8330817809618164  0.2909425674634197  0.3993893489173079
  0.8337206706926502  0.4162682400571669  0.3993018013691527
  0.8344731866415523  0.5416691767578213  0.3993255661426230
  0.8344232352939216  0.6671630680072443  0.3997161436621159
  0.8337868419761162  0.7918297717073479  0.3999812143468237
  0.8327330328975215  0.9158382187504579  0.3999002348642881
  0.9581527978374409  0.0416551506769645  0.3997329572531322
  0.9577855177326157  0.1661949203823412  0.3997200115130685
  0.9576270019469831  0.2910676967482688  0.3995388788847993
  0.9578002540235860  0.4163205235830256  0.3993608792557843
  0.9584521647234642  0.5418245771978273  0.3992452101652207
  0.9588537550170851  0.6672298863889393  0.3993341166245833
  0.9589193052889888  0.7924529454275476  0.3995573704670404
  0.9586474847719386  0.9172563552406038  0.3996341788855565
  0.4096657478961891  0.5818729658301024  0.4033238460410225
  0.4500785736423010  0.5017534490559059  0.4786235841450102
 
  0.00000000E+00  0.00000000E+00  0.00000000E+00
  0.00000000E+00  0.00000000E+00  0.00000000E+00
  0.00000000E+00  0.00000000E+00  0.00000000E+00
  0.00000000E+00  0.00000000E+00  0.00000000E+00
  0.00000000E+00  0.00000000E+00  0.00000000E+00
  0.00000000E+00  0.00000000E+00  0.00000000E+00
  0.00000000E+00  0.00000000E+00  0.00000000E+00
  0.00000000E+00  0.00000000E+00  0.00000000E+00
  0.00000000E+00  0.00000000E+00  0.00000000E+00
  0.00000000E+00  0.00000000E+00  0.00000000E+00
  0.00000000E+00  0.00000000E+00  0.00000000E+00
  0.00000000E+00  0.00000000E+00  0.00000000E+00
  0.00000000E+00  0.00000000E+00  0.00000000E+00
  0.00000000E+00  0.00000000E+00  0.00000000E+00
  0.00000000E+00  0.00000000E+00  0.00000000E+00
  0.00000000E+00  0.00000000E+00  0.00000000E+00
  0.00000000E+00  0.00000000E+00  0.00000000E+00
  0.00000000E+00  0.00000000E+00  0.00000000E+00
  0.00000000E+00  0.00000000E+00  0.00000000E+00
  0.00000000E+00  0.00000000E+00  0.00000000E+00
  0.00000000E+00  0.00000000E+00  0.00000000E+00
  0.00000000E+00  0.00000000E+00  0.00000000E+00
  0.00000000E+00  0.00000000E+00  0.00000000E+00
  0.00000000E+00  0.00000000E+00  0.00000000E+00
  0.00000000E+00  0.00000000E+00  0.00000000E+00
  0.00000000E+00  0.00000000E+00  0.00000000E+00
  0.00000000E+00  0.00000000E+00  0.00000000E+00
  0.00000000E+00  0.00000000E+00  0.00000000E+00
  0.00000000E+00  0.00000000E+00  0.00000000E+00
  0.00000000E+00  0.00000000E+00  0.00000000E+00
  0.00000000E+00  0.00000000E+00  0.00000000E+00
  0.00000000E+00  0.00000000E+00  0.00000000E+00
  0.00000000E+00  0.00000000E+00  0.00000000E+00
  0.00000000E+00  0.00000000E+00  0.00000000E+00
  0.00000000E+00  0.00000000E+00  0.00000000E+00
  0.00000000E+00  0.00000000E+00  0.00000000E+00
  0.00000000E+00  0.00000000E+00  0.00000000E+00
  0.00000000E+00  0.00000000E+00  0.00000000E+00
  0.00000000E+00  0.00000000E+00  0.00000000E+00
  0.00000000E+00  0.00000000E+00  0.00000000E+00
  0.00000000E+00  0.00000000E+00  0.00000000E+00
  0.00000000E+00  0.00000000E+00  0.00000000E+00
  0.00000000E+00  0.00000000E+00  0.00000000E+00
  0.00000000E+00  0.00000000E+00  0.00000000E+00
  0.00000000E+00  0.00000000E+00  0.00000000E+00
  0.00000000E+00  0.00000000E+00  0.00000000E+00
  0.00000000E+00  0.00000000E+00  0.00000000E+00
  0.00000000E+00  0.00000000E+00  0.00000000E+00
  0.00000000E+00  0.00000000E+00  0.00000000E+00
  0.00000000E+00  0.00000000E+00  0.00000000E+00
  0.00000000E+00  0.00000000E+00  0.00000000E+00
  0.00000000E+00  0.00000000E+00  0.00000000E+00
  0.00000000E+00  0.00000000E+00  0.00000000E+00
  0.00000000E+00  0.00000000E+00  0.00000000E+00
  0.00000000E+00  0.00000000E+00  0.00000000E+00
  0.00000000E+00  0.00000000E+00  0.00000000E+00
  0.00000000E+00  0.00000000E+00  0.00000000E+00
  0.00000000E+00  0.00000000E+00  0.00000000E+00
  0.00000000E+00  0.00000000E+00  0.00000000E+00
  0.00000000E+00  0.00000000E+00  0.00000000E+00
  0.00000000E+00  0.00000000E+00  0.00000000E+00
  0.00000000E+00  0.00000000E+00  0.00000000E+00
  0.00000000E+00  0.00000000E+00  0.00000000E+00
  0.00000000E+00  0.00000000E+00  0.00000000E+00
  0.00000000E+00  0.00000000E+00  0.00000000E+00
  0.00000000E+00  0.00000000E+00  0.00000000E+00
  0.00000000E+00  0.00000000E+00  0.00000000E+00
  0.00000000E+00  0.00000000E+00  0.00000000E+00
  0.00000000E+00  0.00000000E+00  0.00000000E+00
  0.00000000E+00  0.00000000E+00  0.00000000E+00
  0.00000000E+00  0.00000000E+00  0.00000000E+00
  0.00000000E+00  0.00000000E+00  0.00000000E+00
  0.00000000E+00  0.00000000E+00  0.00000000E+00
  0.00000000E+00  0.00000000E+00  0.00000000E+00
  0.00000000E+00  0.00000000E+00  0.00000000E+00
  0.00000000E+00  0.00000000E+00  0.00000000E+00
  0.00000000E+00  0.00000000E+00  0.00000000E+00
  0.00000000E+00  0.00000000E+00  0.00000000E+00
  0.00000000E+00  0.00000000E+00  0.00000000E+00
  0.00000000E+00  0.00000000E+00  0.00000000E+00
  0.00000000E+00  0.00000000E+00  0.00000000E+00
  0.00000000E+00  0.00000000E+00  0.00000000E+00
  0.00000000E+00  0.00000000E+00  0.00000000E+00
  0.00000000E+00  0.00000000E+00  0.00000000E+00
  0.00000000E+00  0.00000000E+00  0.00000000E+00
  0.00000000E+00  0.00000000E+00  0.00000000E+00
  0.00000000E+00  0.00000000E+00  0.00000000E+00
  0.00000000E+00  0.00000000E+00  0.00000000E+00
  0.00000000E+00  0.00000000E+00  0.00000000E+00
  0.00000000E+00  0.00000000E+00  0.00000000E+00
  0.00000000E+00  0.00000000E+00  0.00000000E+00
  0.00000000E+00  0.00000000E+00  0.00000000E+00
  0.00000000E+00  0.00000000E+00  0.00000000E+00
  0.00000000E+00  0.00000000E+00  0.00000000E+00
  0.00000000E+00  0.00000000E+00  0.00000000E+00
  0.00000000E+00  0.00000000E+00  0.00000000E+00
  0.00000000E+00  0.00000000E+00  0.00000000E+00
  0.00000000E+00  0.00000000E+00  0.00000000E+00
  0.00000000E+00  0.00000000E+00  0.00000000E+00
  0.00000000E+00  0.00000000E+00  0.00000000E+00
  0.00000000E+00  0.00000000E+00  0.00000000E+00
  0.00000000E+00  0.00000000E+00  0.00000000E+00
  0.00000000E+00  0.00000000E+00  0.00000000E+00
  0.00000000E+00  0.00000000E+00  0.00000000E+00
  0.00000000E+00  0.00000000E+00  0.00000000E+00
  0.00000000E+00  0.00000000E+00  0.00000000E+00
  0.00000000E+00  0.00000000E+00  0.00000000E+00
  0.00000000E+00  0.00000000E+00  0.00000000E+00
  0.00000000E+00  0.00000000E+00  0.00000000E+00
  0.00000000E+00  0.00000000E+00  0.00000000E+00
  0.00000000E+00  0.00000000E+00  0.00000000E+00
  0.00000000E+00  0.00000000E+00  0.00000000E+00
  0.00000000E+00  0.00000000E+00  0.00000000E+00
  0.00000000E+00  0.00000000E+00  0.00000000E+00
  0.00000000E+00  0.00000000E+00  0.00000000E+00
  0.00000000E+00  0.00000000E+00  0.00000000E+00
  0.00000000E+00  0.00000000E+00  0.00000000E+00
  0.00000000E+00  0.00000000E+00  0.00000000E+00
  0.00000000E+00  0.00000000E+00  0.00000000E+00
  0.00000000E+00  0.00000000E+00  0.00000000E+00
  0.00000000E+00  0.00000000E+00  0.00000000E+00
  0.00000000E+00  0.00000000E+00  0.00000000E+00
  0.00000000E+00  0.00000000E+00  0.00000000E+00
  0.00000000E+00  0.00000000E+00  0.00000000E+00
  0.00000000E+00  0.00000000E+00  0.00000000E+00
  0.00000000E+00  0.00000000E+00  0.00000000E+00
  0.00000000E+00  0.00000000E+00  0.00000000E+00
  0.00000000E+00  0.00000000E+00  0.00000000E+00
