V1 H1 C126 O2                           
   1.00000000000000     
    19.7794522064710456   -0.0009473351071498   -0.1704297817315908
    -9.8895927347112522   17.0813434286590606    0.0066857442532774
    -0.2561511087495207   -0.1366093551273087   29.7864793530993488
   V    H    C    O 
     1     1   126     2
Direct
  0.4318157279796863  0.5003214497490381  0.4310478538597779
  0.5341784356894950  0.5572834800422708  0.5027587030627060
  0.0419041322672528  0.0835890226912482  0.3995404771297640
  0.0415702438285635  0.2082347581605524  0.3995328517968990
  0.0413848656037313  0.3330949709627561  0.3996999280271334
  0.0414669760355655  0.4584180496789065  0.3994165758436526
  0.0417272335943753  0.5835557732586162  0.3991319144357979
  0.0419904541588842  0.7086434789029536  0.3991449258592947
  0.0421614780012394  0.8338391717048584  0.3993463299073688
  0.0421957268414764  0.9588723193260902  0.3995587329154305
  0.1673585418702995  0.0842770365308680  0.4001081238456911
  0.1669910858841115  0.2088100607387942  0.4001632212084388
  0.1662990556888543  0.3332624799159561  0.4005928463295198
  0.1657921004337113  0.4583933319605255  0.4008035347823991
  0.1663110751035690  0.5835321681055380  0.3998320510069143
  0.1668082369926612  0.7087454715628418  0.3993602371582777
  0.1669935924122386  0.8338757811419386  0.3995592970982313
  0.1672142324121028  0.9590697740620724  0.3999068524541851
  0.2923886484609429  0.0842871726564531  0.4004371058991258
  0.2930458977216755  0.2102656201499823  0.4018002650545552
  0.2923785858778736  0.3348263910450847  0.4024901705226335
  0.2898758494433707  0.4575598945723235  0.4022101986454877
  0.2906817469977890  0.5839277373341093  0.4014782515876204
  0.2915804198890570  0.7088399528891441  0.3998153440215803
  0.2918608608768730  0.8337590531542204  0.3994158288872309
  0.2919956875986823  0.9588810481731406  0.3997793760474165
  0.4170485640127631  0.0837908873111300  0.3997693923816562
  0.4174892140930157  0.2093322763404374  0.4010381149342045
  0.4189217454842599  0.3362947604988458  0.4052181658035954
  0.4144736069261238  0.5833360815383036  0.4037831938568805
  0.4164677702891368  0.7080886498759353  0.4008219408948459
  0.4167271910364729  0.8333970939900788  0.3995736931012183
  0.4168213988732534  0.9585235744770928  0.3994581141185368
  0.5418115868715720  0.0832031080513081  0.3993999339962463
  0.5421141870531012  0.2083016191272395  0.3995658136736417
  0.5426192640662764  0.3334190282359615  0.4009849786036618
  0.5438793453165234  0.4578482420559795  0.4048724959571585
  0.5439997942690677  0.5817016497546300  0.4096914261772929
  0.5416388105812185  0.7071571033491699  0.4043182488476304
  0.5414980390786885  0.8326230109087730  0.4005510101178102
  0.5417119057255014  0.9580215650332682  0.3995528688591373
  0.6667014005708829  0.0830477761114337  0.3994747925484595
  0.6668733301831407  0.2081546690456977  0.3991647876474663
  0.6671360683773542  0.3331406110858491  0.3991277805927352
  0.6680848611496432  0.4584103316913508  0.3997284186809571
  0.6688189969628898  0.5839316738336997  0.4014597483245432
  0.6668114656992740  0.7075374050712336  0.4025872602542097
  0.6667169422740902  0.8326494042438343  0.4011949182024478
  0.6666617391564066  0.9578938838816177  0.3999013646912757
  0.7916411729965369  0.0830532410199450  0.3995064614122616
  0.7916870132353707  0.2080928008872089  0.3993157763143139
  0.7919315336657875  0.3332520618377137  0.3990202490411418
  0.7923530175783295  0.4584591209378552  0.3988193595446398
  0.7926157145026936  0.5834985812931066  0.3989973799961761
  0.7926952462203569  0.7088273373621669  0.3996565130751167
  0.7918448848314070  0.8331890324247335  0.3997947921163268
  0.7916571124002265  0.9580693073421722  0.3996363827517354
  0.9166820105167989  0.0832008750325407  0.3993918401097452
  0.9165878043910095  0.2081252279063723  0.3993815348481453
  0.9166478546482312  0.3332253878935812  0.3992600973653668
  0.9168195599146569  0.4582956336247027  0.3990112743294232
  0.9171748445390506  0.5835232900228340  0.3988346708650812
  0.9172694278928543  0.7087174156502313  0.3988344904287545
  0.9172430218688988  0.8337359016364548  0.3991685324883533
  0.9168482124501400  0.9583957639860611  0.3993370641417673
  0.0838862849242647  0.0422870936140929  0.3997233830819582
  0.0835205211184666  0.1668841439921590  0.3996619609376517
  0.0829139920119376  0.2914901055481249  0.3998724040326666
  0.0829309956322454  0.4167714685933882  0.3998770055148197
  0.0831688736562430  0.5418460501890118  0.3993826540858989
  0.0835236936495759  0.6670168477273202  0.3991935321867881
  0.0837605619958668  0.7922006664174366  0.3993806348229350
  0.0838357338203379  0.9172684902914576  0.3996334116270066
  0.2089547101531738  0.0424554165648912  0.4002147443360899
  0.2091016611510180  0.1677417696630595  0.4005235034104975
  0.2084937261229571  0.2922244182727560  0.4006768543640512
  0.2069221579996414  0.4164828034425965  0.4014317373238938
  0.2075918713564733  0.5419654257413370  0.4007985766521742
  0.2084197559427671  0.6671818436923620  0.3996243863368533
  0.2085886530152065  0.7921684771477583  0.3994384532498735
  0.2087605247065402  0.9172851717222336  0.3997964997401866
  0.3337600341530378  0.0422995904967740  0.3999805299930660
  0.3343249151161668  0.1678042829317174  0.4012229280294536
  0.3347812764551546  0.2933769451100496  0.4038070506049970
  0.3311358982109772  0.4169963605046949  0.4035417980687517
  0.3325863989212988  0.5428651462995440  0.4023075629261352
  0.3332395173101705  0.6671143186168201  0.4006272444459595
  0.3334267917357104  0.7920611144276257  0.3994910395995884
  0.3336123544970543  0.9171321120576367  0.3995280889956592
  0.4585727194049247  0.0418906498147726  0.3995174795541650
  0.4588393968984242  0.1671676347940380  0.3999839173785040
  0.4595372745313834  0.2929955689995190  0.4022009661428760
  0.4626842050000807  0.4190080841351227  0.4089829563940531
  0.4577734596646025  0.6655106098840966  0.4028402506431654
  0.4583096074336626  0.7914974247866114  0.4002003277986363
  0.4584048329144547  0.9166884460748417  0.3994581554691449
  0.5834480091285329  0.0414356811431646  0.3994629145377309
  0.5836107356455558  0.1665541025096998  0.3992877921541548
  0.5840464810734500  0.2915451469637113  0.3997046017173569
  0.5850861117582580  0.4165080165395892  0.4012597033259150
  0.5863411705161223  0.5426890756174259  0.4051510881314402
  0.5829605000164796  0.6643669831245619  0.4058866685305977
  0.5829802841492085  0.7901855970696231  0.4020289399149478
  0.5832298389673529  0.9160724960630052  0.3999091575536552
  0.7082873451931087  0.0412564347574797  0.3995943427946702
  0.7084560839881225  0.1664627833376099  0.3993074748466602
  0.7086694010521576  0.2915367039067368  0.3989981487528497
  0.7092565613553250  0.4167958142820641  0.3990180769565226
  0.7098696913150194  0.5419418241056954  0.3997684190485414
  0.7094399602302972  0.6670500989830427  0.4012371106939999
  0.7083703976966784  0.7911400669323279  0.4010544135661592
  0.7083010270052508  0.9161143906124170  0.4001516549806448
  0.8333168895283596  0.0414847109680343  0.3994690042496079
  0.8332845956569505  0.1664416213696406  0.3994112220386580
  0.8334568867736534  0.2916162235651938  0.3991883951164016
  0.8337536628969382  0.4167175760417171  0.3989169070529169
  0.8340463732119728  0.5418119053859900  0.3987846508614403
  0.8341308446221835  0.6671492870994216  0.3989884318856002
  0.8339921822832833  0.7920457750698719  0.3994406208531269
  0.8334344587205387  0.9165522293853868  0.3994780265343866
  0.9584641436441981  0.0417623815149219  0.3993982040573108
  0.9582989065111733  0.1665682463412143  0.3993986746955321
  0.9582174009079886  0.2915153392837864  0.3994063070642302
  0.9583069628333336  0.4166629565809628  0.3991838401730914
  0.9586216431143602  0.5418833831313115  0.3989601658710883
  0.9588330641888604  0.6669944606449433  0.3988669772773940
  0.9588785200240602  0.7920970897048580  0.3990676199811881
  0.9587934708051865  0.9170964650785486  0.3993238683411018
  0.4961171212413332  0.5018490433967252  0.4965678831019620
  0.4227723230738431  0.5035397750946921  0.4918077771105065
 
  0.00000000E+00  0.00000000E+00  0.00000000E+00
  0.00000000E+00  0.00000000E+00  0.00000000E+00
  0.00000000E+00  0.00000000E+00  0.00000000E+00
  0.00000000E+00  0.00000000E+00  0.00000000E+00
  0.00000000E+00  0.00000000E+00  0.00000000E+00
  0.00000000E+00  0.00000000E+00  0.00000000E+00
  0.00000000E+00  0.00000000E+00  0.00000000E+00
  0.00000000E+00  0.00000000E+00  0.00000000E+00
  0.00000000E+00  0.00000000E+00  0.00000000E+00
  0.00000000E+00  0.00000000E+00  0.00000000E+00
  0.00000000E+00  0.00000000E+00  0.00000000E+00
  0.00000000E+00  0.00000000E+00  0.00000000E+00
  0.00000000E+00  0.00000000E+00  0.00000000E+00
  0.00000000E+00  0.00000000E+00  0.00000000E+00
  0.00000000E+00  0.00000000E+00  0.00000000E+00
  0.00000000E+00  0.00000000E+00  0.00000000E+00
  0.00000000E+00  0.00000000E+00  0.00000000E+00
  0.00000000E+00  0.00000000E+00  0.00000000E+00
  0.00000000E+00  0.00000000E+00  0.00000000E+00
  0.00000000E+00  0.00000000E+00  0.00000000E+00
  0.00000000E+00  0.00000000E+00  0.00000000E+00
  0.00000000E+00  0.00000000E+00  0.00000000E+00
  0.00000000E+00  0.00000000E+00  0.00000000E+00
  0.00000000E+00  0.00000000E+00  0.00000000E+00
  0.00000000E+00  0.00000000E+00  0.00000000E+00
  0.00000000E+00  0.00000000E+00  0.00000000E+00
  0.00000000E+00  0.00000000E+00  0.00000000E+00
  0.00000000E+00  0.00000000E+00  0.00000000E+00
  0.00000000E+00  0.00000000E+00  0.00000000E+00
  0.00000000E+00  0.00000000E+00  0.00000000E+00
  0.00000000E+00  0.00000000E+00  0.00000000E+00
  0.00000000E+00  0.00000000E+00  0.00000000E+00
  0.00000000E+00  0.00000000E+00  0.00000000E+00
  0.00000000E+00  0.00000000E+00  0.00000000E+00
  0.00000000E+00  0.00000000E+00  0.00000000E+00
  0.00000000E+00  0.00000000E+00  0.00000000E+00
  0.00000000E+00  0.00000000E+00  0.00000000E+00
  0.00000000E+00  0.00000000E+00  0.00000000E+00
  0.00000000E+00  0.00000000E+00  0.00000000E+00
  0.00000000E+00  0.00000000E+00  0.00000000E+00
  0.00000000E+00  0.00000000E+00  0.00000000E+00
  0.00000000E+00  0.00000000E+00  0.00000000E+00
  0.00000000E+00  0.00000000E+00  0.00000000E+00
  0.00000000E+00  0.00000000E+00  0.00000000E+00
  0.00000000E+00  0.00000000E+00  0.00000000E+00
  0.00000000E+00  0.00000000E+00  0.00000000E+00
  0.00000000E+00  0.00000000E+00  0.00000000E+00
  0.00000000E+00  0.00000000E+00  0.00000000E+00
  0.00000000E+00  0.00000000E+00  0.00000000E+00
  0.00000000E+00  0.00000000E+00  0.00000000E+00
  0.00000000E+00  0.00000000E+00  0.00000000E+00
  0.00000000E+00  0.00000000E+00  0.00000000E+00
  0.00000000E+00  0.00000000E+00  0.00000000E+00
  0.00000000E+00  0.00000000E+00  0.00000000E+00
  0.00000000E+00  0.00000000E+00  0.00000000E+00
  0.00000000E+00  0.00000000E+00  0.00000000E+00
  0.00000000E+00  0.00000000E+00  0.00000000E+00
  0.00000000E+00  0.00000000E+00  0.00000000E+00
  0.00000000E+00  0.00000000E+00  0.00000000E+00
  0.00000000E+00  0.00000000E+00  0.00000000E+00
  0.00000000E+00  0.00000000E+00  0.00000000E+00
  0.00000000E+00  0.00000000E+00  0.00000000E+00
  0.00000000E+00  0.00000000E+00  0.00000000E+00
  0.00000000E+00  0.00000000E+00  0.00000000E+00
  0.00000000E+00  0.00000000E+00  0.00000000E+00
  0.00000000E+00  0.00000000E+00  0.00000000E+00
  0.00000000E+00  0.00000000E+00  0.00000000E+00
  0.00000000E+00  0.00000000E+00  0.00000000E+00
  0.00000000E+00  0.00000000E+00  0.00000000E+00
  0.00000000E+00  0.00000000E+00  0.00000000E+00
  0.00000000E+00  0.00000000E+00  0.00000000E+00
  0.00000000E+00  0.00000000E+00  0.00000000E+00
  0.00000000E+00  0.00000000E+00  0.00000000E+00
  0.00000000E+00  0.00000000E+00  0.00000000E+00
  0.00000000E+00  0.00000000E+00  0.00000000E+00
  0.00000000E+00  0.00000000E+00  0.00000000E+00
  0.00000000E+00  0.00000000E+00  0.00000000E+00
  0.00000000E+00  0.00000000E+00  0.00000000E+00
  0.00000000E+00  0.00000000E+00  0.00000000E+00
  0.00000000E+00  0.00000000E+00  0.00000000E+00
  0.00000000E+00  0.00000000E+00  0.00000000E+00
  0.00000000E+00  0.00000000E+00  0.00000000E+00
  0.00000000E+00  0.00000000E+00  0.00000000E+00
  0.00000000E+00  0.00000000E+00  0.00000000E+00
  0.00000000E+00  0.00000000E+00  0.00000000E+00
  0.00000000E+00  0.00000000E+00  0.00000000E+00
  0.00000000E+00  0.00000000E+00  0.00000000E+00
  0.00000000E+00  0.00000000E+00  0.00000000E+00
  0.00000000E+00  0.00000000E+00  0.00000000E+00
  0.00000000E+00  0.00000000E+00  0.00000000E+00
  0.00000000E+00  0.00000000E+00  0.00000000E+00
  0.00000000E+00  0.00000000E+00  0.00000000E+00
  0.00000000E+00  0.00000000E+00  0.00000000E+00
  0.00000000E+00  0.00000000E+00  0.00000000E+00
  0.00000000E+00  0.00000000E+00  0.00000000E+00
  0.00000000E+00  0.00000000E+00  0.00000000E+00
  0.00000000E+00  0.00000000E+00  0.00000000E+00
  0.00000000E+00  0.00000000E+00  0.00000000E+00
  0.00000000E+00  0.00000000E+00  0.00000000E+00
  0.00000000E+00  0.00000000E+00  0.00000000E+00
  0.00000000E+00  0.00000000E+00  0.00000000E+00
  0.00000000E+00  0.00000000E+00  0.00000000E+00
  0.00000000E+00  0.00000000E+00  0.00000000E+00
  0.00000000E+00  0.00000000E+00  0.00000000E+00
  0.00000000E+00  0.00000000E+00  0.00000000E+00
  0.00000000E+00  0.00000000E+00  0.00000000E+00
  0.00000000E+00  0.00000000E+00  0.00000000E+00
  0.00000000E+00  0.00000000E+00  0.00000000E+00
  0.00000000E+00  0.00000000E+00  0.00000000E+00
  0.00000000E+00  0.00000000E+00  0.00000000E+00
  0.00000000E+00  0.00000000E+00  0.00000000E+00
  0.00000000E+00  0.00000000E+00  0.00000000E+00
  0.00000000E+00  0.00000000E+00  0.00000000E+00
  0.00000000E+00  0.00000000E+00  0.00000000E+00
  0.00000000E+00  0.00000000E+00  0.00000000E+00
  0.00000000E+00  0.00000000E+00  0.00000000E+00
  0.00000000E+00  0.00000000E+00  0.00000000E+00
  0.00000000E+00  0.00000000E+00  0.00000000E+00
  0.00000000E+00  0.00000000E+00  0.00000000E+00
  0.00000000E+00  0.00000000E+00  0.00000000E+00
  0.00000000E+00  0.00000000E+00  0.00000000E+00
  0.00000000E+00  0.00000000E+00  0.00000000E+00
  0.00000000E+00  0.00000000E+00  0.00000000E+00
  0.00000000E+00  0.00000000E+00  0.00000000E+00
  0.00000000E+00  0.00000000E+00  0.00000000E+00
  0.00000000E+00  0.00000000E+00  0.00000000E+00
  0.00000000E+00  0.00000000E+00  0.00000000E+00
  0.00000000E+00  0.00000000E+00  0.00000000E+00
  0.00000000E+00  0.00000000E+00  0.00000000E+00
  0.00000000E+00  0.00000000E+00  0.00000000E+00
