H1 Ir1 C124 N2                          
   1.00000000000000     
    19.8346792705574551   -0.0280415812269748    0.0907295373368775
    -9.9420098329041107   17.0494648927616907    0.1036087010769064
     0.1369268603095369    0.2607962175394549   29.7828850833496972
   H    Ir   C    N 
     1     1   124     2
Direct
  0.4746480507381058  0.5384112920015908  0.4689415342559440
  0.4359299401479996  0.4999050017365803  0.4215865939278561
  0.0420780593920450  0.0842134478198087  0.4001107906335720
  0.0413280341099969  0.2083727193217496  0.3996992880136425
  0.0405585423898751  0.3328719325324222  0.3996826352798009
  0.0401658942687111  0.4581872581482943  0.3998555639443116
  0.0408315640024290  0.5837035164581200  0.3997435130227370
  0.0415977820100771  0.7091600921940012  0.3998014631552744
  0.0419303803912760  0.8344148984022453  0.3999144536857885
  0.0422468962892167  0.9596086126495423  0.4000504858279645
  0.1681685251806606  0.0860095045459479  0.4002132335215152
  0.1679102974135767  0.2106567389209824  0.3994965442701586
  0.1661146782749461  0.3343784618048409  0.3982156562466611
  0.1637890728761776  0.4587578541093199  0.3996682788206181
  0.1643873650460818  0.5839028549698991  0.3997733531981997
  0.1657212363421652  0.7092586864279549  0.3996799952583526
  0.1665687090588161  0.8346328568513440  0.3997275993632760
  0.1673162593533926  0.9601626553649661  0.4000547859551961
  0.2926424729547834  0.0855851383337844  0.4005303892699621
  0.2947689375946219  0.2131335612951106  0.4011993729138562
  0.2941691987228721  0.3388083682921225  0.3982118118581315
  0.2878316029167504  0.4599111482734582  0.3981536249709747
  0.2875384956047562  0.5848154070865517  0.4005338940074312
  0.2897330697722412  0.7093109267096606  0.4003331202754027
  0.2910649815880810  0.8342729629786925  0.3995701868829297
  0.2918145563820453  0.9596524500854493  0.3996264353622235
  0.4170169486713022  0.0838034836137353  0.3998223560309690
  0.4179247337274427  0.2096719501088933  0.4010154209042089
  0.4217294887954729  0.3374910734632996  0.4061674048691294
  0.4136236038565237  0.7066783024429544  0.4022270062291046
  0.4154952606764232  0.8325682226327509  0.4000020571220446
  0.4162654761642752  0.9581648325728240  0.3993984827533967
  0.5414444549409716  0.0820373020756461  0.3994550753774633
  0.5422584554081449  0.2072819926497848  0.3998846681497637
  0.5438900867815448  0.3321201338965876  0.4014841363073242
  0.5464540808673931  0.4554310115172180  0.4062964573692243
  0.5440471694988087  0.5769458254871075  0.4087670826589431
  0.5374167788793204  0.7019011923869333  0.4049954329906981
  0.5396632572147447  0.8301293813588255  0.4012470223718826
  0.5407619210241300  0.9564056858757081  0.3995894181607758
  0.6659354360521964  0.0813324599943334  0.3997122722404779
  0.6667312123849292  0.2067698071485469  0.3996605420977057
  0.6678751261892925  0.3321061480739648  0.3991264442735381
  0.6696508268921313  0.4574587973672859  0.3989757704230883
  0.6696042309943014  0.5818400809498177  0.4004283594170671
  0.6647412245198924  0.7046842985285937  0.4013014084525661
  0.6641021370887877  0.8294281625702823  0.4010281767432475
  0.6652860690392487  0.9557045001882137  0.3999837405738167
  0.7906824219280421  0.0814344291431611  0.3996943317248817
  0.7911549966572692  0.2067067922775357  0.3998053484480648
  0.7919119610950900  0.3321640999043706  0.3994381961898358
  0.7929936943402091  0.4577509208669211  0.3985049449116929
  0.7935735415744258  0.5831681178732152  0.3981850549880265
  0.7919097581687817  0.7076455462865883  0.3988455820751267
  0.7905258547143125  0.8315915777916670  0.3995146383056286
  0.7901879488775069  0.9561535769928320  0.3996835025125317
  0.9159644837942023  0.0823576158509543  0.3998975105473751
  0.9159191073937022  0.2072242421020969  0.3998155421508368
  0.9160109579871950  0.3323881556387723  0.3997906288479615
  0.9165059661524426  0.4578654727549946  0.3995856836641816
  0.9172408439013451  0.5835094971442285  0.3991565665502086
  0.9171535028816032  0.7088164154334948  0.3990414524742049
  0.9167527513094337  0.8335621196771040  0.3992812952284192
  0.9162362673635702  0.9578957277253477  0.3996770200354872
  0.0843709151706910  0.0434376235277141  0.4001649064573300
  0.0839968676130027  0.1678602614386786  0.3998898842882248
  0.0825886133074577  0.2917930105488816  0.3991660036403167
  0.0813124713330127  0.4165128685523191  0.3998094893875745
  0.0816165650582726  0.5417859148837356  0.3998017181239794
  0.0826324611950345  0.6673276325891009  0.3997081143700301
  0.0834068756638847  0.7928063529832637  0.3999440429420613
  0.0838539246206562  0.9181299253364661  0.4000552723358388
  0.2093015123808369  0.0438303279103832  0.4003418440518099
  0.2104603575769549  0.1700419317614004  0.4000498693504267
  0.2096701848736787  0.2945118432372967  0.3982354467655039
  0.2053560842525470  0.4176355904193870  0.3987200768182677
  0.2048798694747624  0.5421732941985853  0.3996406692959713
  0.2066790801213057  0.6675227059411940  0.3998782993046990
  0.2077830385584721  0.7927910862398591  0.3996119076969500
  0.2085699611002509  0.9182108955152884  0.3997302531159879
  0.3337194373668350  0.0431809886004360  0.4000050006969579
  0.3348247533042971  0.1693934337925454  0.4011876411601459
  0.3373913356151750  0.2975358213384918  0.4023564097819937
  0.3315989057529395  0.4219482508547331  0.3954045644770151
  0.3282941726219435  0.5442903777454700  0.4020605531698047
  0.3306144566569388  0.6675309498284550  0.4012948636902809
  0.3322133590859915  0.7923615398215434  0.3999395801546200
  0.3331047541212285  0.9176158157200656  0.3994623173566638
  0.4582222708382449  0.0415260884468839  0.3994707091800147
  0.4590545376498333  0.1671757474973140  0.4001109922087910
  0.4607157504192514  0.2930904042920376  0.4026652378581945
  0.4522991118659357  0.6620147335343612  0.4056899961691522
  0.4565552567375025  0.7900925055605847  0.4010258417209333
  0.4575199869678508  0.9158935052886874  0.3995183286494969
  0.5827111402317078  0.0399522710814846  0.3994887927162037
  0.5834292529417942  0.1653751265224031  0.3996185337966134
  0.5847025929354420  0.2903869919126602  0.3999594962965269
  0.5869099104774240  0.4147950001422082  0.4014001626335789
  0.5878187017214523  0.5389285119432961  0.4046759901004608
  0.5805760735738258  0.6609566035882982  0.4043810528199649
  0.5798522526783886  0.7864343756924260  0.4024120991769847
  0.5818274931978218  0.9139311250402771  0.4001609785470973
  0.7072731059380666  0.0394230378536089  0.3997245628759183
  0.7078796132078231  0.1648933342003286  0.3998040372253550
  0.7088127119686886  0.2902922095569321  0.3993432840631314
  0.7101626353090286  0.4156108061355021  0.3985064660594160
  0.7110926736757229  0.5408036125279988  0.3987491883141777
  0.7087591881920580  0.6651536356941322  0.3999128180738082
  0.7064662864667289  0.7886974721963672  0.4005229054931311
  0.7064304318268503  0.9136190755907702  0.4001140439785754
  0.8322860890982574  0.0399576551539642  0.3996990873667269
  0.8325931760707436  0.1651231059645853  0.3997579551367417
  0.8329986630916093  0.2903699016215392  0.3997321016007495
  0.8337211176598688  0.4157812600404079  0.3991975993899042
  0.8345436641399565  0.5413529181478960  0.3984365350151991
  0.8342173139934040  0.6666898267766349  0.3985073162088248
  0.8332519150207649  0.7912056431242283  0.3990892352029687
  0.8324205278130858  0.9152946143575974  0.3995400872432978
  0.9582195174499012  0.0416103887154282  0.3999578008002238
  0.9578055885797576  0.1660086422070776  0.3999150474985341
  0.9574769240380805  0.2907690606148304  0.3998415076417817
  0.9574007114111603  0.4160132376518862  0.3997793936611240
  0.9580944795694634  0.5416022670900706  0.3995795813993145
  0.9586267475766975  0.6671597481632371  0.3994048187840851
  0.9587345967201367  0.7923941001072117  0.3994317666183633
  0.9585656844212712  0.9172043963628030  0.3996875778057325
  0.4066773669859947  0.5817583397967850  0.4088633378249263
  0.4669353400840895  0.4176179773389186  0.4124893663188000
 
  0.00000000E+00  0.00000000E+00  0.00000000E+00
  0.00000000E+00  0.00000000E+00  0.00000000E+00
  0.00000000E+00  0.00000000E+00  0.00000000E+00
  0.00000000E+00  0.00000000E+00  0.00000000E+00
  0.00000000E+00  0.00000000E+00  0.00000000E+00
  0.00000000E+00  0.00000000E+00  0.00000000E+00
  0.00000000E+00  0.00000000E+00  0.00000000E+00
  0.00000000E+00  0.00000000E+00  0.00000000E+00
  0.00000000E+00  0.00000000E+00  0.00000000E+00
  0.00000000E+00  0.00000000E+00  0.00000000E+00
  0.00000000E+00  0.00000000E+00  0.00000000E+00
  0.00000000E+00  0.00000000E+00  0.00000000E+00
  0.00000000E+00  0.00000000E+00  0.00000000E+00
  0.00000000E+00  0.00000000E+00  0.00000000E+00
  0.00000000E+00  0.00000000E+00  0.00000000E+00
  0.00000000E+00  0.00000000E+00  0.00000000E+00
  0.00000000E+00  0.00000000E+00  0.00000000E+00
  0.00000000E+00  0.00000000E+00  0.00000000E+00
  0.00000000E+00  0.00000000E+00  0.00000000E+00
  0.00000000E+00  0.00000000E+00  0.00000000E+00
  0.00000000E+00  0.00000000E+00  0.00000000E+00
  0.00000000E+00  0.00000000E+00  0.00000000E+00
  0.00000000E+00  0.00000000E+00  0.00000000E+00
  0.00000000E+00  0.00000000E+00  0.00000000E+00
  0.00000000E+00  0.00000000E+00  0.00000000E+00
  0.00000000E+00  0.00000000E+00  0.00000000E+00
  0.00000000E+00  0.00000000E+00  0.00000000E+00
  0.00000000E+00  0.00000000E+00  0.00000000E+00
  0.00000000E+00  0.00000000E+00  0.00000000E+00
  0.00000000E+00  0.00000000E+00  0.00000000E+00
  0.00000000E+00  0.00000000E+00  0.00000000E+00
  0.00000000E+00  0.00000000E+00  0.00000000E+00
  0.00000000E+00  0.00000000E+00  0.00000000E+00
  0.00000000E+00  0.00000000E+00  0.00000000E+00
  0.00000000E+00  0.00000000E+00  0.00000000E+00
  0.00000000E+00  0.00000000E+00  0.00000000E+00
  0.00000000E+00  0.00000000E+00  0.00000000E+00
  0.00000000E+00  0.00000000E+00  0.00000000E+00
  0.00000000E+00  0.00000000E+00  0.00000000E+00
  0.00000000E+00  0.00000000E+00  0.00000000E+00
  0.00000000E+00  0.00000000E+00  0.00000000E+00
  0.00000000E+00  0.00000000E+00  0.00000000E+00
  0.00000000E+00  0.00000000E+00  0.00000000E+00
  0.00000000E+00  0.00000000E+00  0.00000000E+00
  0.00000000E+00  0.00000000E+00  0.00000000E+00
  0.00000000E+00  0.00000000E+00  0.00000000E+00
  0.00000000E+00  0.00000000E+00  0.00000000E+00
  0.00000000E+00  0.00000000E+00  0.00000000E+00
  0.00000000E+00  0.00000000E+00  0.00000000E+00
  0.00000000E+00  0.00000000E+00  0.00000000E+00
  0.00000000E+00  0.00000000E+00  0.00000000E+00
  0.00000000E+00  0.00000000E+00  0.00000000E+00
  0.00000000E+00  0.00000000E+00  0.00000000E+00
  0.00000000E+00  0.00000000E+00  0.00000000E+00
  0.00000000E+00  0.00000000E+00  0.00000000E+00
  0.00000000E+00  0.00000000E+00  0.00000000E+00
  0.00000000E+00  0.00000000E+00  0.00000000E+00
  0.00000000E+00  0.00000000E+00  0.00000000E+00
  0.00000000E+00  0.00000000E+00  0.00000000E+00
  0.00000000E+00  0.00000000E+00  0.00000000E+00
  0.00000000E+00  0.00000000E+00  0.00000000E+00
  0.00000000E+00  0.00000000E+00  0.00000000E+00
  0.00000000E+00  0.00000000E+00  0.00000000E+00
  0.00000000E+00  0.00000000E+00  0.00000000E+00
  0.00000000E+00  0.00000000E+00  0.00000000E+00
  0.00000000E+00  0.00000000E+00  0.00000000E+00
  0.00000000E+00  0.00000000E+00  0.00000000E+00
  0.00000000E+00  0.00000000E+00  0.00000000E+00
  0.00000000E+00  0.00000000E+00  0.00000000E+00
  0.00000000E+00  0.00000000E+00  0.00000000E+00
  0.00000000E+00  0.00000000E+00  0.00000000E+00
  0.00000000E+00  0.00000000E+00  0.00000000E+00
  0.00000000E+00  0.00000000E+00  0.00000000E+00
  0.00000000E+00  0.00000000E+00  0.00000000E+00
  0.00000000E+00  0.00000000E+00  0.00000000E+00
  0.00000000E+00  0.00000000E+00  0.00000000E+00
  0.00000000E+00  0.00000000E+00  0.00000000E+00
  0.00000000E+00  0.00000000E+00  0.00000000E+00
  0.00000000E+00  0.00000000E+00  0.00000000E+00
  0.00000000E+00  0.00000000E+00  0.00000000E+00
  0.00000000E+00  0.00000000E+00  0.00000000E+00
  0.00000000E+00  0.00000000E+00  0.00000000E+00
  0.00000000E+00  0.00000000E+00  0.00000000E+00
  0.00000000E+00  0.00000000E+00  0.00000000E+00
  0.00000000E+00  0.00000000E+00  0.00000000E+00
  0.00000000E+00  0.00000000E+00  0.00000000E+00
  0.00000000E+00  0.00000000E+00  0.00000000E+00
  0.00000000E+00  0.00000000E+00  0.00000000E+00
  0.00000000E+00  0.00000000E+00  0.00000000E+00
  0.00000000E+00  0.00000000E+00  0.00000000E+00
  0.00000000E+00  0.00000000E+00  0.00000000E+00
  0.00000000E+00  0.00000000E+00  0.00000000E+00
  0.00000000E+00  0.00000000E+00  0.00000000E+00
  0.00000000E+00  0.00000000E+00  0.00000000E+00
  0.00000000E+00  0.00000000E+00  0.00000000E+00
  0.00000000E+00  0.00000000E+00  0.00000000E+00
  0.00000000E+00  0.00000000E+00  0.00000000E+00
  0.00000000E+00  0.00000000E+00  0.00000000E+00
  0.00000000E+00  0.00000000E+00  0.00000000E+00
  0.00000000E+00  0.00000000E+00  0.00000000E+00
  0.00000000E+00  0.00000000E+00  0.00000000E+00
  0.00000000E+00  0.00000000E+00  0.00000000E+00
  0.00000000E+00  0.00000000E+00  0.00000000E+00
  0.00000000E+00  0.00000000E+00  0.00000000E+00
  0.00000000E+00  0.00000000E+00  0.00000000E+00
  0.00000000E+00  0.00000000E+00  0.00000000E+00
  0.00000000E+00  0.00000000E+00  0.00000000E+00
  0.00000000E+00  0.00000000E+00  0.00000000E+00
  0.00000000E+00  0.00000000E+00  0.00000000E+00
  0.00000000E+00  0.00000000E+00  0.00000000E+00
  0.00000000E+00  0.00000000E+00  0.00000000E+00
  0.00000000E+00  0.00000000E+00  0.00000000E+00
  0.00000000E+00  0.00000000E+00  0.00000000E+00
  0.00000000E+00  0.00000000E+00  0.00000000E+00
  0.00000000E+00  0.00000000E+00  0.00000000E+00
  0.00000000E+00  0.00000000E+00  0.00000000E+00
  0.00000000E+00  0.00000000E+00  0.00000000E+00
  0.00000000E+00  0.00000000E+00  0.00000000E+00
  0.00000000E+00  0.00000000E+00  0.00000000E+00
  0.00000000E+00  0.00000000E+00  0.00000000E+00
  0.00000000E+00  0.00000000E+00  0.00000000E+00
  0.00000000E+00  0.00000000E+00  0.00000000E+00
  0.00000000E+00  0.00000000E+00  0.00000000E+00
  0.00000000E+00  0.00000000E+00  0.00000000E+00
  0.00000000E+00  0.00000000E+00  0.00000000E+00
  0.00000000E+00  0.00000000E+00  0.00000000E+00
  0.00000000E+00  0.00000000E+00  0.00000000E+00
  0.00000000E+00  0.00000000E+00  0.00000000E+00
