Os1 C122 N4 O1                          
   1.00000000000000     
    19.8206212416772942   -0.0000276236529377   -0.0202968813701121
    -9.9103353258717828   17.0155814113194879   -0.0227837152036940
    -0.0305405098010244   -0.0577218467597047   29.8359893752727743
   Os   C    N    O 
     1   122     4     1
Direct
  0.4378554326453815  0.5003686246701912  0.4268838000725653
  0.0423163849852467  0.0844702565631116  0.3996694011601963
  0.0410902132480076  0.2082676342588574  0.3995423262883694
  0.0401564569220630  0.3329197859335046  0.3990836187239024
  0.0401495419195925  0.4581867017381392  0.3987976559810942
  0.0412181760486015  0.5837998367973494  0.3992903445162940
  0.0421987567750590  0.7093494017910922  0.3996717920124926
  0.0424884539388981  0.8346034001802883  0.3997882191955173
  0.0427020949542057  0.9598449109093636  0.3997439337081647
  0.1683775627482717  0.0861970604055351  0.4002443645423788
  0.1681104328554692  0.2110125926801867  0.4007478853665065
  0.1649396748358326  0.3339003208580460  0.4008025706976169
  0.1635784417937441  0.4585129944190851  0.3990752525631781
  0.1647609656985804  0.5837897607498206  0.3986551585187189
  0.1663368382551277  0.7091027740412091  0.3993429737665962
  0.1671333690509917  0.8345822380321590  0.3997834906365282
  0.1676845032654871  0.9602962035632764  0.3999517976503918
  0.2928665204363721  0.0861749938034965  0.4002984762302509
  0.2944732942083538  0.2138825746584883  0.4025831178901059
  0.2927893869496579  0.3391573328170150  0.4058544313486968
  0.2860250779409192  0.4588795469980262  0.4047423075871200
  0.2877419751374387  0.5831415888910189  0.4007909702662770
  0.2905897195289596  0.7083157335430340  0.3995243246739675
  0.2916748101440649  0.8339439690369728  0.3995063305965968
  0.2921969811955920  0.9598121388896287  0.3997391062611134
  0.4171999069659316  0.0844366155150108  0.3997321705211291
  0.4179367846787674  0.2109916457987765  0.4008096605026208
  0.4214247539433896  0.3391625910381186  0.4057095109874082
  0.4146656540376877  0.7051848415161842  0.4017368612879120
  0.4160438789760285  0.8319161731136413  0.3998232382497424
  0.4166456842828403  0.9581573685079441  0.3995820256256156
  0.5415162952447198  0.0825041940884241  0.3996040973524730
  0.5422132859867540  0.2082626888174022  0.3995887669820916
  0.5439887718189291  0.3338817314906830  0.4007378856607854
  0.5478789348674015  0.4588968242286134  0.4043484466956609
  0.5379965752095728  0.7009246902918947  0.4052272852465227
  0.5402570177541581  0.8296615345440046  0.4011562736836488
  0.5410761181034384  0.9563971060185649  0.3998428547674824
  0.6660109298168898  0.0816920232077618  0.3998485953137893
  0.6666632088947821  0.2073245031908367  0.3995629919040658
  0.6677989209469452  0.3329328711730805  0.3991149197944425
  0.6699520195086895  0.4585205513640513  0.3990784078538450
  0.6704296900394846  0.5831818565658476  0.4006102472850361
  0.6655615006726749  0.7051900430608663  0.4016683252723744
  0.6644755444126162  0.8296855735266567  0.4012338712404628
  0.6654961965184558  0.9559231053417002  0.4002058493622995
  0.7907469050006551  0.0817059220623005  0.3998609735652848
  0.7910805025799669  0.2071302878434705  0.3998125041735784
  0.7917664950909438  0.3325961044464476  0.3994603133630508
  0.7930512677552064  0.4581930813359776  0.3988500517834487
  0.7940370644817354  0.5837886623883433  0.3987487332954505
  0.7927810288758671  0.7083315540155514  0.3995552319931115
  0.7909346383269945  0.8319324833740930  0.3999124671991199
  0.7903807372938609  0.9564208046800179  0.3998783378152583
  0.9160579916790882  0.0825347791852191  0.3996014706218267
  0.9156976384746661  0.2073441212641582  0.3995743717550408
  0.9158714966038167  0.3326064267896676  0.3994556192609200
  0.9166111203211490  0.4582028184955644  0.3994150695142407
  0.9175947967568933  0.5838087438992092  0.3993035508046862
  0.9178063978252579  0.7091196455657448  0.3993649589846606
  0.9173335575609474  0.8339774181263822  0.3995239792351973
  0.9165972915153462  0.9581946195126333  0.3996067467477035
  0.0847638667526647  0.0436997766225887  0.3998182564257858
  0.0842146393171782  0.1681814525039120  0.3998128250904422
  0.0823254414730500  0.2917481396425161  0.3995713397505226
  0.0809937182398215  0.4162296603418932  0.3986670059081771
  0.0819555854746223  0.5418021099204837  0.3988042770272338
  0.0832559346799793  0.6673899255833170  0.3994661960590393
  0.0839584563275480  0.7928946148231617  0.3998078242627565
  0.0843706764415586  0.9183686440391867  0.3998538942387959
  0.2096161906478014  0.0441714254841846  0.4001810422652058
  0.2106822350501852  0.1704854264080608  0.4011517008246518
  0.2095780204910986  0.2949755464502428  0.4019632626829570
  0.2046465388080346  0.4169539503991115  0.4009613224568259
  0.2050909484120121  0.5415390196598003  0.3990371480942410
  0.2072384789633926  0.6671107011554961  0.3990685014628373
  0.2083514011395953  0.7926957450458416  0.3995701472386091
  0.2090521400830877  0.9183525823739621  0.3998503324004603
  0.3339680911166000  0.0436642492842048  0.3998561618263398
  0.3348467706996409  0.1704600155450893  0.4012237604689023
  0.3371699739955514  0.2992822090627835  0.4055779665932855
  0.3272316578725362  0.5412729607543175  0.4045675519295593
  0.3310834416396640  0.6661983230734391  0.4006314588222267
  0.3328265123079177  0.7918022266296310  0.3995431424784108
  0.3335175414045439  0.9175336134580288  0.3995964404604102
  0.4583932672647307  0.0418875618609189  0.3996057144191250
  0.4590127013331154  0.1681680507081701  0.3999002500582528
  0.4604334440786266  0.2949674292497261  0.4018891745634834
  0.4537422509379593  0.6610582933836279  0.4054575091064671
  0.4571458534269937  0.7891321701911790  0.4006945653812861
  0.4578527808116468  0.9156273241199814  0.3996819156025011
  0.5828553364628968  0.0402375434278247  0.3997426367602137
  0.5833491587246289  0.1660909947937361  0.3995026547814985
  0.5844676345446679  0.2917443673523412  0.3996015458063645
  0.5873119804358478  0.4169325374095713  0.4007805567461953
  0.5890544721815293  0.5412838147547524  0.4041732129658553
  0.5823640204854628  0.6610495781422752  0.4053172259565691
  0.5806807399115574  0.7862950166224344  0.4024871988465781
  0.5822223952957786  0.9139245369892809  0.4002931313418747
  0.7074208210603027  0.0397775203862820  0.3999558150359478
  0.7078923938047168  0.1654504225539547  0.3997806122127531
  0.7086846329557528  0.2909151860965117  0.3993498793067469
  0.7102524309758320  0.4162456130058242  0.3987334079207905
  0.7114622987702975  0.5415465155833651  0.3990500054778827
  0.7101667152441626  0.6662275223821413  0.4005581306455629
  0.7070403596045435  0.7891514810669240  0.4007672554463801
  0.7067652868926808  0.9139381187829202  0.4003403610283009
  0.8324514019247328  0.0402573054135393  0.3997454840873954
  0.8325888698761387  0.1654590001507572  0.3997943519985422
  0.8328509876883096  0.2906602145807624  0.3996620491963099
  0.8337758218044056  0.4161785869987720  0.3992949613359209
  0.8348510950455044  0.5417973586404869  0.3988650580547838
  0.8349007274318142  0.6671104791075065  0.3991200136042652
  0.8340272145141394  0.7918172937140500  0.3995919469695672
  0.8328519845478103  0.9156538240581907  0.3997522681152860
  0.9585733411911294  0.0419219096225625  0.3995918425791654
  0.9577926577702860  0.1661127352482720  0.3994997021610525
  0.9572650311965307  0.2909237980905027  0.3993430080634799
  0.9574156683740757  0.4161865545066665  0.3992835378680956
  0.9583905075368824  0.5417663673441304  0.3994185800243004
  0.9591730018494241  0.6674001489107443  0.3994718614555604
  0.9593861824680868  0.7927224551783054  0.3995760868839162
  0.9590991903487595  0.9175719723836873  0.3996124540588030
  0.4080980632112255  0.5791299005350372  0.4101103452176429
  0.5460772450940982  0.5791075056948108  0.4097936936757522
  0.3290918112918603  0.4211568991483339  0.4104987535117185
  0.4671482801296564  0.4211829726037327  0.4101825160669803
  0.4389110118588356  0.5013354193303943  0.4854328509365681
 
  0.00000000E+00  0.00000000E+00  0.00000000E+00
  0.00000000E+00  0.00000000E+00  0.00000000E+00
  0.00000000E+00  0.00000000E+00  0.00000000E+00
  0.00000000E+00  0.00000000E+00  0.00000000E+00
  0.00000000E+00  0.00000000E+00  0.00000000E+00
  0.00000000E+00  0.00000000E+00  0.00000000E+00
  0.00000000E+00  0.00000000E+00  0.00000000E+00
  0.00000000E+00  0.00000000E+00  0.00000000E+00
  0.00000000E+00  0.00000000E+00  0.00000000E+00
  0.00000000E+00  0.00000000E+00  0.00000000E+00
  0.00000000E+00  0.00000000E+00  0.00000000E+00
  0.00000000E+00  0.00000000E+00  0.00000000E+00
  0.00000000E+00  0.00000000E+00  0.00000000E+00
  0.00000000E+00  0.00000000E+00  0.00000000E+00
  0.00000000E+00  0.00000000E+00  0.00000000E+00
  0.00000000E+00  0.00000000E+00  0.00000000E+00
  0.00000000E+00  0.00000000E+00  0.00000000E+00
  0.00000000E+00  0.00000000E+00  0.00000000E+00
  0.00000000E+00  0.00000000E+00  0.00000000E+00
  0.00000000E+00  0.00000000E+00  0.00000000E+00
  0.00000000E+00  0.00000000E+00  0.00000000E+00
  0.00000000E+00  0.00000000E+00  0.00000000E+00
  0.00000000E+00  0.00000000E+00  0.00000000E+00
  0.00000000E+00  0.00000000E+00  0.00000000E+00
  0.00000000E+00  0.00000000E+00  0.00000000E+00
  0.00000000E+00  0.00000000E+00  0.00000000E+00
  0.00000000E+00  0.00000000E+00  0.00000000E+00
  0.00000000E+00  0.00000000E+00  0.00000000E+00
  0.00000000E+00  0.00000000E+00  0.00000000E+00
  0.00000000E+00  0.00000000E+00  0.00000000E+00
  0.00000000E+00  0.00000000E+00  0.00000000E+00
  0.00000000E+00  0.00000000E+00  0.00000000E+00
  0.00000000E+00  0.00000000E+00  0.00000000E+00
  0.00000000E+00  0.00000000E+00  0.00000000E+00
  0.00000000E+00  0.00000000E+00  0.00000000E+00
  0.00000000E+00  0.00000000E+00  0.00000000E+00
  0.00000000E+00  0.00000000E+00  0.00000000E+00
  0.00000000E+00  0.00000000E+00  0.00000000E+00
  0.00000000E+00  0.00000000E+00  0.00000000E+00
  0.00000000E+00  0.00000000E+00  0.00000000E+00
  0.00000000E+00  0.00000000E+00  0.00000000E+00
  0.00000000E+00  0.00000000E+00  0.00000000E+00
  0.00000000E+00  0.00000000E+00  0.00000000E+00
  0.00000000E+00  0.00000000E+00  0.00000000E+00
  0.00000000E+00  0.00000000E+00  0.00000000E+00
  0.00000000E+00  0.00000000E+00  0.00000000E+00
  0.00000000E+00  0.00000000E+00  0.00000000E+00
  0.00000000E+00  0.00000000E+00  0.00000000E+00
  0.00000000E+00  0.00000000E+00  0.00000000E+00
  0.00000000E+00  0.00000000E+00  0.00000000E+00
  0.00000000E+00  0.00000000E+00  0.00000000E+00
  0.00000000E+00  0.00000000E+00  0.00000000E+00
  0.00000000E+00  0.00000000E+00  0.00000000E+00
  0.00000000E+00  0.00000000E+00  0.00000000E+00
  0.00000000E+00  0.00000000E+00  0.00000000E+00
  0.00000000E+00  0.00000000E+00  0.00000000E+00
  0.00000000E+00  0.00000000E+00  0.00000000E+00
  0.00000000E+00  0.00000000E+00  0.00000000E+00
  0.00000000E+00  0.00000000E+00  0.00000000E+00
  0.00000000E+00  0.00000000E+00  0.00000000E+00
  0.00000000E+00  0.00000000E+00  0.00000000E+00
  0.00000000E+00  0.00000000E+00  0.00000000E+00
  0.00000000E+00  0.00000000E+00  0.00000000E+00
  0.00000000E+00  0.00000000E+00  0.00000000E+00
  0.00000000E+00  0.00000000E+00  0.00000000E+00
  0.00000000E+00  0.00000000E+00  0.00000000E+00
  0.00000000E+00  0.00000000E+00  0.00000000E+00
  0.00000000E+00  0.00000000E+00  0.00000000E+00
  0.00000000E+00  0.00000000E+00  0.00000000E+00
  0.00000000E+00  0.00000000E+00  0.00000000E+00
  0.00000000E+00  0.00000000E+00  0.00000000E+00
  0.00000000E+00  0.00000000E+00  0.00000000E+00
  0.00000000E+00  0.00000000E+00  0.00000000E+00
  0.00000000E+00  0.00000000E+00  0.00000000E+00
  0.00000000E+00  0.00000000E+00  0.00000000E+00
  0.00000000E+00  0.00000000E+00  0.00000000E+00
  0.00000000E+00  0.00000000E+00  0.00000000E+00
  0.00000000E+00  0.00000000E+00  0.00000000E+00
  0.00000000E+00  0.00000000E+00  0.00000000E+00
  0.00000000E+00  0.00000000E+00  0.00000000E+00
  0.00000000E+00  0.00000000E+00  0.00000000E+00
  0.00000000E+00  0.00000000E+00  0.00000000E+00
  0.00000000E+00  0.00000000E+00  0.00000000E+00
  0.00000000E+00  0.00000000E+00  0.00000000E+00
  0.00000000E+00  0.00000000E+00  0.00000000E+00
  0.00000000E+00  0.00000000E+00  0.00000000E+00
  0.00000000E+00  0.00000000E+00  0.00000000E+00
  0.00000000E+00  0.00000000E+00  0.00000000E+00
  0.00000000E+00  0.00000000E+00  0.00000000E+00
  0.00000000E+00  0.00000000E+00  0.00000000E+00
  0.00000000E+00  0.00000000E+00  0.00000000E+00
  0.00000000E+00  0.00000000E+00  0.00000000E+00
  0.00000000E+00  0.00000000E+00  0.00000000E+00
  0.00000000E+00  0.00000000E+00  0.00000000E+00
  0.00000000E+00  0.00000000E+00  0.00000000E+00
  0.00000000E+00  0.00000000E+00  0.00000000E+00
  0.00000000E+00  0.00000000E+00  0.00000000E+00
  0.00000000E+00  0.00000000E+00  0.00000000E+00
  0.00000000E+00  0.00000000E+00  0.00000000E+00
  0.00000000E+00  0.00000000E+00  0.00000000E+00
  0.00000000E+00  0.00000000E+00  0.00000000E+00
  0.00000000E+00  0.00000000E+00  0.00000000E+00
  0.00000000E+00  0.00000000E+00  0.00000000E+00
  0.00000000E+00  0.00000000E+00  0.00000000E+00
  0.00000000E+00  0.00000000E+00  0.00000000E+00
  0.00000000E+00  0.00000000E+00  0.00000000E+00
  0.00000000E+00  0.00000000E+00  0.00000000E+00
  0.00000000E+00  0.00000000E+00  0.00000000E+00
  0.00000000E+00  0.00000000E+00  0.00000000E+00
  0.00000000E+00  0.00000000E+00  0.00000000E+00
  0.00000000E+00  0.00000000E+00  0.00000000E+00
  0.00000000E+00  0.00000000E+00  0.00000000E+00
  0.00000000E+00  0.00000000E+00  0.00000000E+00
  0.00000000E+00  0.00000000E+00  0.00000000E+00
  0.00000000E+00  0.00000000E+00  0.00000000E+00
  0.00000000E+00  0.00000000E+00  0.00000000E+00
  0.00000000E+00  0.00000000E+00  0.00000000E+00
  0.00000000E+00  0.00000000E+00  0.00000000E+00
  0.00000000E+00  0.00000000E+00  0.00000000E+00
  0.00000000E+00  0.00000000E+00  0.00000000E+00
  0.00000000E+00  0.00000000E+00  0.00000000E+00
  0.00000000E+00  0.00000000E+00  0.00000000E+00
  0.00000000E+00  0.00000000E+00  0.00000000E+00
  0.00000000E+00  0.00000000E+00  0.00000000E+00
  0.00000000E+00  0.00000000E+00  0.00000000E+00
  0.00000000E+00  0.00000000E+00  0.00000000E+00
  0.00000000E+00  0.00000000E+00  0.00000000E+00
  0.00000000E+00  0.00000000E+00  0.00000000E+00
