Fe1 C125 N1                             
   1.00000000000000     
    19.8365478171593210   -0.0019857688254905    0.0054490295349696
    -9.9200835295502667   17.0679121687417279   -0.0037872565707376
     0.0077933543542570   -0.0017493352375825   29.7221944037767187
   Fe   C    N 
     1   125     1
Direct
  0.4372189058408748  0.5000241469922044  0.4081670819061271
  0.0416843424858935  0.0837294543134661  0.3996469239649511
  0.0408503631927048  0.2080596942520868  0.3995136523722012
  0.0403080155599403  0.3327429929251665  0.3994601621379856
  0.0404336416221869  0.4582146173778061  0.3995881397594495
  0.0413350681909150  0.5836948193261048  0.3998309518426264
  0.0419940700846775  0.7089656032600165  0.3999003920840742
  0.0423292226034107  0.8342968583173758  0.3998888682513810
  0.0422717474592798  0.9592594556039530  0.3998418990881401
  0.1674519908202445  0.0849541490498592  0.4000383633898379
  0.1665496598764429  0.2092543603664800  0.4002794251735047
  0.1652097021855248  0.3335493072541066  0.4001989250475760
  0.1638597261608150  0.4582738245038043  0.3995467979269512
  0.1650119458424166  0.5836574198966632  0.3994526863633629
  0.1663055510999521  0.7090153679471316  0.3998185200532963
  0.1670288922663828  0.8343596435089122  0.3999164832345402
  0.1673816989180726  0.9597184091693273  0.3999801909549235
  0.2924686126383294  0.0850124573187860  0.4000883163410452
  0.2931921308483281  0.2113753444509653  0.4013627205804670
  0.2914047785928829  0.3359912582564232  0.4029092519587671
  0.2875493807348307  0.4584362722931116  0.4023718159967548
  0.2882948798344462  0.5842518568738581  0.4005212420883970
  0.2905099594143583  0.7090573878660816  0.3996843678092858
  0.2915589998159576  0.8340590053838364  0.3997489977197327
  0.2919675675470946  0.9593565067062355  0.3998195684011565
  0.4170179967341889  0.0838093632644919  0.3996275193735357
  0.4175879140818239  0.2093764246947714  0.4005257318775823
  0.4195969973909114  0.3365128518693550  0.4035814878735731
  0.4147173275340475  0.7072234547108126  0.4011175662147918
  0.4160616656053845  0.8328980213739307  0.3998297305337849
  0.4165970081074294  0.9583318206727465  0.3996307556262172
  0.5416201421645184  0.0826840356192309  0.3997030491148548
  0.5421850709049553  0.2079186689502306  0.3995444202312254
  0.5432513325278676  0.3330089807185772  0.4005934791730300
  0.5466563612210902  0.4577251120524088  0.4038126395416023
  0.5470864633415210  0.5813499288488834  0.4059576294324697
  0.5388896439559677  0.7037020036651279  0.4029555370820790
  0.5403919573015709  0.8311251100667557  0.4005691233284635
  0.5412199964041284  0.9571516577009368  0.3998605434119379
  0.6661596514064927  0.0821036625433758  0.3999323296375986
  0.6666696145171371  0.2074809292482145  0.3997748918818474
  0.6674949550971598  0.3326199530584533  0.3993938085986536
  0.6696675744229900  0.4581138977477480  0.3996183563241488
  0.6712442870895032  0.5840354147334390  0.4008923917628292
  0.6671809110115021  0.7072033086585916  0.4012403864060059
  0.6651595061480010  0.8308610193218910  0.4005687788618397
  0.6657337036650484  0.9566301280279298  0.4001278331461449
  0.7908986092715654  0.0820833917831334  0.3999392017064112
  0.7911650603549287  0.2073400064226378  0.3999059691522200
  0.7917591274136049  0.3326667582497461  0.3997926704157697
  0.7930244542657137  0.4582146936565641  0.3993976928017989
  0.7939923099565782  0.5836737365470032  0.3990905015935849
  0.7933559070681336  0.7089177106660511  0.3993328851895672
  0.7916752696489265  0.8328671700889508  0.3996168209394326
  0.7906865920315960  0.9569720072431118  0.3998544394639769
  0.9159938347941569  0.0826341059741273  0.3997604123399675
  0.9158577816779951  0.2075063868618848  0.3998467331525810
  0.9160232174520935  0.3326950053157290  0.3998613832753389
  0.9166347053472665  0.4580912641987736  0.3998335718080300
  0.9175626791737693  0.5836835548278574  0.3997377017231900
  0.9177561799912045  0.7090798435969775  0.3996437000300339
  0.9174070989049985  0.8338852225061059  0.3996536757934294
  0.9166128975517912  0.9582328414928766  0.3996704770008784
  0.0839389473334243  0.0427609806757832  0.3998225236254501
  0.0831156786734119  0.1670665444070178  0.3996410021143558
  0.0819843812574964  0.2914009996072895  0.3994743697666256
  0.0813912257892773  0.4163684868450627  0.3993600187342275
  0.0821710594209149  0.5417558999073572  0.3996224412387692
  0.0832375615744807  0.6672457501926848  0.3998758034900929
  0.0838167777924476  0.7926132840145017  0.3999104982033495
  0.0840244575661842  0.9178449276090529  0.3999114520690500
  0.2090873806699802  0.0432047818241178  0.4000688467852706
  0.2091195363394451  0.1686122415945008  0.4004909644489473
  0.2077556364026333  0.2927541381470108  0.4010509936190070
  0.2049855908353738  0.4168085105789409  0.4004792042388545
  0.2055223375914686  0.5417693608787300  0.3995932886856378
  0.2074429374977976  0.6672823089250628  0.3996013341451695
  0.2083794189496113  0.7925099254508928  0.3998592016319613
  0.2088570028436809  0.9178770213980951  0.3999299275812978
  0.3337854953251964  0.0428408018412011  0.3998105922076362
  0.3343850909178760  0.1685786107331221  0.4006436484876505
  0.3348785711720883  0.2947872969905496  0.4029689542205792
  0.3287868937982204  0.4182114683640417  0.4039628424122093
  0.3296604605621755  0.5437997580023634  0.4022977117209916
  0.3315603909494101  0.6672614802823610  0.4003421997323023
  0.3328843817691750  0.7922400635461070  0.3997028828105436
  0.3334179771844503  0.9174317533152012  0.3997263128494192
  0.4584687309813296  0.0417568667248643  0.3996010017614972
  0.4588824554199193  0.1671359954339099  0.3997508117185934
  0.4599311307567229  0.2929033281529074  0.4014994510155013
  0.4652376445395559  0.4189141701305699  0.4056148362099371
  0.4539769135926875  0.6629197686290296  0.4028342159180222
  0.4573473380921789  0.7907081557203991  0.4004288138735427
  0.4579890627631402  0.9162435173435070  0.3997054656838552
  0.5830259389529177  0.0406837188699999  0.3998386185173697
  0.5835197080135037  0.1660705766154520  0.3996433831434809
  0.5844226937093128  0.2911028247697708  0.3995618691944519
  0.5869085521581230  0.4159778840041959  0.4010768684453890
  0.5894622175269119  0.5425703855396721  0.4038357877652379
  0.5832867311048832  0.6632499110682106  0.4035569726757302
  0.5808567312725496  0.7877140211235691  0.4013549081828275
  0.5824517449467426  0.9148719296396612  0.4001049939947298
  0.7075731401259665  0.0402050346901500  0.4000197579959831
  0.7080263089437242  0.1656504301488169  0.3998908210989271
  0.7086509998118145  0.2909024223860531  0.3996644333791823
  0.7101940607026824  0.4163119626283630  0.3992275096673196
  0.7116916605766690  0.5418461697510163  0.3995113745931820
  0.7103337586476933  0.6670141347821007  0.4003112356757666
  0.7081133498797151  0.7905622844331696  0.4003083412498367
  0.7070341987166976  0.9146130396986263  0.4001085132637980
  0.8325116768944517  0.0405611610501539  0.3998711572933887
  0.8326259912307278  0.1656346891261112  0.3999152767419283
  0.8330233161852068  0.2909833214201686  0.3998870025524745
  0.8338143424066632  0.4162665861295580  0.3997334567881786
  0.8348337541423554  0.5417480548352454  0.3993615106639429
  0.8349021364761381  0.6673751200613015  0.3992389581778453
  0.8342063437763908  0.7920802263384348  0.3994244939337087
  0.8330760925065881  0.9161579766347959  0.3996435460575176
  0.9581973791813023  0.0416689690170169  0.3996767527539166
  0.9575946630828944  0.1661041199362996  0.3997115269023840
  0.9573583847748650  0.2909582077262982  0.3997648223607932
  0.9576181920298228  0.4162717133946900  0.3998146460422330
  0.9585244114329344  0.5418521745804409  0.3998437275808460
  0.9590402246514714  0.6672807185603798  0.3998115738472420
  0.9591654352519869  0.7924874993603260  0.3997821876003103
  0.9588406763899222  0.9172649905229380  0.3997493494916794
  0.4088250569611094  0.5826248836975251  0.4037954411010921
 
  0.00000000E+00  0.00000000E+00  0.00000000E+00
  0.00000000E+00  0.00000000E+00  0.00000000E+00
  0.00000000E+00  0.00000000E+00  0.00000000E+00
  0.00000000E+00  0.00000000E+00  0.00000000E+00
  0.00000000E+00  0.00000000E+00  0.00000000E+00
  0.00000000E+00  0.00000000E+00  0.00000000E+00
  0.00000000E+00  0.00000000E+00  0.00000000E+00
  0.00000000E+00  0.00000000E+00  0.00000000E+00
  0.00000000E+00  0.00000000E+00  0.00000000E+00
  0.00000000E+00  0.00000000E+00  0.00000000E+00
  0.00000000E+00  0.00000000E+00  0.00000000E+00
  0.00000000E+00  0.00000000E+00  0.00000000E+00
  0.00000000E+00  0.00000000E+00  0.00000000E+00
  0.00000000E+00  0.00000000E+00  0.00000000E+00
  0.00000000E+00  0.00000000E+00  0.00000000E+00
  0.00000000E+00  0.00000000E+00  0.00000000E+00
  0.00000000E+00  0.00000000E+00  0.00000000E+00
  0.00000000E+00  0.00000000E+00  0.00000000E+00
  0.00000000E+00  0.00000000E+00  0.00000000E+00
  0.00000000E+00  0.00000000E+00  0.00000000E+00
  0.00000000E+00  0.00000000E+00  0.00000000E+00
  0.00000000E+00  0.00000000E+00  0.00000000E+00
  0.00000000E+00  0.00000000E+00  0.00000000E+00
  0.00000000E+00  0.00000000E+00  0.00000000E+00
  0.00000000E+00  0.00000000E+00  0.00000000E+00
  0.00000000E+00  0.00000000E+00  0.00000000E+00
  0.00000000E+00  0.00000000E+00  0.00000000E+00
  0.00000000E+00  0.00000000E+00  0.00000000E+00
  0.00000000E+00  0.00000000E+00  0.00000000E+00
  0.00000000E+00  0.00000000E+00  0.00000000E+00
  0.00000000E+00  0.00000000E+00  0.00000000E+00
  0.00000000E+00  0.00000000E+00  0.00000000E+00
  0.00000000E+00  0.00000000E+00  0.00000000E+00
  0.00000000E+00  0.00000000E+00  0.00000000E+00
  0.00000000E+00  0.00000000E+00  0.00000000E+00
  0.00000000E+00  0.00000000E+00  0.00000000E+00
  0.00000000E+00  0.00000000E+00  0.00000000E+00
  0.00000000E+00  0.00000000E+00  0.00000000E+00
  0.00000000E+00  0.00000000E+00  0.00000000E+00
  0.00000000E+00  0.00000000E+00  0.00000000E+00
  0.00000000E+00  0.00000000E+00  0.00000000E+00
  0.00000000E+00  0.00000000E+00  0.00000000E+00
  0.00000000E+00  0.00000000E+00  0.00000000E+00
  0.00000000E+00  0.00000000E+00  0.00000000E+00
  0.00000000E+00  0.00000000E+00  0.00000000E+00
  0.00000000E+00  0.00000000E+00  0.00000000E+00
  0.00000000E+00  0.00000000E+00  0.00000000E+00
  0.00000000E+00  0.00000000E+00  0.00000000E+00
  0.00000000E+00  0.00000000E+00  0.00000000E+00
  0.00000000E+00  0.00000000E+00  0.00000000E+00
  0.00000000E+00  0.00000000E+00  0.00000000E+00
  0.00000000E+00  0.00000000E+00  0.00000000E+00
  0.00000000E+00  0.00000000E+00  0.00000000E+00
  0.00000000E+00  0.00000000E+00  0.00000000E+00
  0.00000000E+00  0.00000000E+00  0.00000000E+00
  0.00000000E+00  0.00000000E+00  0.00000000E+00
  0.00000000E+00  0.00000000E+00  0.00000000E+00
  0.00000000E+00  0.00000000E+00  0.00000000E+00
  0.00000000E+00  0.00000000E+00  0.00000000E+00
  0.00000000E+00  0.00000000E+00  0.00000000E+00
  0.00000000E+00  0.00000000E+00  0.00000000E+00
  0.00000000E+00  0.00000000E+00  0.00000000E+00
  0.00000000E+00  0.00000000E+00  0.00000000E+00
  0.00000000E+00  0.00000000E+00  0.00000000E+00
  0.00000000E+00  0.00000000E+00  0.00000000E+00
  0.00000000E+00  0.00000000E+00  0.00000000E+00
  0.00000000E+00  0.00000000E+00  0.00000000E+00
  0.00000000E+00  0.00000000E+00  0.00000000E+00
  0.00000000E+00  0.00000000E+00  0.00000000E+00
  0.00000000E+00  0.00000000E+00  0.00000000E+00
  0.00000000E+00  0.00000000E+00  0.00000000E+00
  0.00000000E+00  0.00000000E+00  0.00000000E+00
  0.00000000E+00  0.00000000E+00  0.00000000E+00
  0.00000000E+00  0.00000000E+00  0.00000000E+00
  0.00000000E+00  0.00000000E+00  0.00000000E+00
  0.00000000E+00  0.00000000E+00  0.00000000E+00
  0.00000000E+00  0.00000000E+00  0.00000000E+00
  0.00000000E+00  0.00000000E+00  0.00000000E+00
  0.00000000E+00  0.00000000E+00  0.00000000E+00
  0.00000000E+00  0.00000000E+00  0.00000000E+00
  0.00000000E+00  0.00000000E+00  0.00000000E+00
  0.00000000E+00  0.00000000E+00  0.00000000E+00
  0.00000000E+00  0.00000000E+00  0.00000000E+00
  0.00000000E+00  0.00000000E+00  0.00000000E+00
  0.00000000E+00  0.00000000E+00  0.00000000E+00
  0.00000000E+00  0.00000000E+00  0.00000000E+00
  0.00000000E+00  0.00000000E+00  0.00000000E+00
  0.00000000E+00  0.00000000E+00  0.00000000E+00
  0.00000000E+00  0.00000000E+00  0.00000000E+00
  0.00000000E+00  0.00000000E+00  0.00000000E+00
  0.00000000E+00  0.00000000E+00  0.00000000E+00
  0.00000000E+00  0.00000000E+00  0.00000000E+00
  0.00000000E+00  0.00000000E+00  0.00000000E+00
  0.00000000E+00  0.00000000E+00  0.00000000E+00
  0.00000000E+00  0.00000000E+00  0.00000000E+00
  0.00000000E+00  0.00000000E+00  0.00000000E+00
  0.00000000E+00  0.00000000E+00  0.00000000E+00
  0.00000000E+00  0.00000000E+00  0.00000000E+00
  0.00000000E+00  0.00000000E+00  0.00000000E+00
  0.00000000E+00  0.00000000E+00  0.00000000E+00
  0.00000000E+00  0.00000000E+00  0.00000000E+00
  0.00000000E+00  0.00000000E+00  0.00000000E+00
  0.00000000E+00  0.00000000E+00  0.00000000E+00
  0.00000000E+00  0.00000000E+00  0.00000000E+00
  0.00000000E+00  0.00000000E+00  0.00000000E+00
  0.00000000E+00  0.00000000E+00  0.00000000E+00
  0.00000000E+00  0.00000000E+00  0.00000000E+00
  0.00000000E+00  0.00000000E+00  0.00000000E+00
  0.00000000E+00  0.00000000E+00  0.00000000E+00
  0.00000000E+00  0.00000000E+00  0.00000000E+00
  0.00000000E+00  0.00000000E+00  0.00000000E+00
  0.00000000E+00  0.00000000E+00  0.00000000E+00
  0.00000000E+00  0.00000000E+00  0.00000000E+00
  0.00000000E+00  0.00000000E+00  0.00000000E+00
  0.00000000E+00  0.00000000E+00  0.00000000E+00
  0.00000000E+00  0.00000000E+00  0.00000000E+00
  0.00000000E+00  0.00000000E+00  0.00000000E+00
  0.00000000E+00  0.00000000E+00  0.00000000E+00
  0.00000000E+00  0.00000000E+00  0.00000000E+00
  0.00000000E+00  0.00000000E+00  0.00000000E+00
  0.00000000E+00  0.00000000E+00  0.00000000E+00
  0.00000000E+00  0.00000000E+00  0.00000000E+00
  0.00000000E+00  0.00000000E+00  0.00000000E+00
  0.00000000E+00  0.00000000E+00  0.00000000E+00
  0.00000000E+00  0.00000000E+00  0.00000000E+00
  0.00000000E+00  0.00000000E+00  0.00000000E+00
  0.00000000E+00  0.00000000E+00  0.00000000E+00
