Ni1 C125 N1                             
   1.00000000000000     
    19.8251663741780071   -0.0020604338894493    0.0253856874077171
    -9.9145603167023495   17.0509654506549992   -0.0204088351807316
     0.0379226371448449   -0.0129942477483542   29.7689371396952573
   Ni   C    N 
     1   125     1
Direct
  0.4373428634629028  0.5000521362047741  0.4057485918500887
  0.0418638844866039  0.0840380527232959  0.3999463783423635
  0.0409683271768061  0.2082012978586819  0.4001560831109831
  0.0403885208920689  0.3327808123038670  0.3999853394512812
  0.0405140999516603  0.4582273741887465  0.3994879676249173
  0.0413966980539121  0.5837402396181415  0.3991682013086948
  0.0420888203326545  0.7091248746332880  0.3992392716125158
  0.0424531461170377  0.8345216225989822  0.3994363489885487
  0.0424313886057062  0.9595776862222579  0.3996472744900201
  0.1677573370275517  0.0855887967855134  0.4005344942546695
  0.1670259803355567  0.2099580310033715  0.4013981179441449
  0.1653844849590711  0.3337921111605131  0.4017071549306479
  0.1640193872362164  0.4583598042346482  0.4010608999927116
  0.1650825464655906  0.5836435422971772  0.4000771454750644
  0.1663459272810936  0.7091128435319077  0.3994907458999986
  0.1670905493740480  0.8345921189655422  0.3994522767468538
  0.1675705258521769  0.9601554032506233  0.3997914166183892
  0.2927680599358117  0.0856274830513123  0.4005913565674596
  0.2935511174422889  0.2120912933632532  0.4021323471077147
  0.2923482081976937  0.3372407540933542  0.4035649534092108
  0.2879475448336801  0.4587196085734085  0.4035332187738497
  0.2884401018854262  0.5841220126452610  0.4020384566724244
  0.2904935720064308  0.7089794281164701  0.4005394299522846
  0.2915696946839507  0.8341240333312581  0.3996502843543437
  0.2920968045314727  0.9596542130553061  0.3996622706411250
  0.4171406305036286  0.0841739352991632  0.4000655550243778
  0.4178331846320483  0.2101484231525096  0.4016563112339074
  0.4197777602269692  0.3378481056012198  0.4038373209068233
  0.4144951691842382  0.7064771584497815  0.4022173430318462
  0.4159544114361508  0.8325404778397012  0.4004642882753698
  0.4165919994853292  0.9583265407061656  0.3996536096556009
  0.5415369896429459  0.0825172151003018  0.3996329542420506
  0.5422193044608281  0.2080183726859828  0.4003753196120742
  0.5433281839080232  0.3332346505119335  0.4021402367724636
  0.5465802433308101  0.4580764850006577  0.4041458785017422
  0.5451401998270289  0.5794468386723149  0.4049699195346626
  0.5383851307012769  0.7028061261438723  0.4032979594978847
  0.5400998958570118  0.8304692356960776  0.4013559968052744
  0.5410414495134730  0.9567370801068291  0.4000450633398602
  0.6660455952719235  0.0817665897827199  0.3996327127024594
  0.6666418202349431  0.2072926858827871  0.3995368586290977
  0.6674706540526403  0.3326185506954873  0.4001397954807620
  0.6696306326865282  0.4581368978471007  0.4013913273188925
  0.6710637957929372  0.5838395339879737  0.4025034867037045
  0.6664233169871727  0.7062597101760469  0.4024728295941334
  0.6647477327720751  0.8301461851934203  0.4014138306748566
  0.6654649949566779  0.9560736856256850  0.4003304348220044
  0.7907240797468562  0.0817462636113196  0.3996356236450853
  0.7911058915212184  0.2070806401284664  0.3994028085934619
  0.7917958532761665  0.3325786348428694  0.3992514213907476
  0.7930018614568338  0.4581856474437256  0.3994679662704667
  0.7939490383220327  0.5836033023400162  0.4001340054017425
  0.7932213275142036  0.7087606552926239  0.4006439196883564
  0.7913217215341947  0.8323811191073462  0.4005251912639428
  0.7904322276776424  0.9565350887062098  0.4000569217311644
  0.9159232380556380  0.0824806159083836  0.3995913402313134
  0.9157859231733709  0.2073590802614765  0.3994947520496034
  0.9160085900282618  0.3326291332572174  0.3992554230422427
  0.9166809386389843  0.4581003991958211  0.3990098803161142
  0.9175835255310270  0.5837041705630023  0.3990907979304772
  0.9177740310116936  0.7091399869570859  0.3994425669770110
  0.9173924974271539  0.8339380781910016  0.3996297133858406
  0.9165070348858182  0.9581409830246905  0.3996297305621969
  0.0841998306146057  0.0431954877017572  0.4000149353177834
  0.0834205726554669  0.1674796963473052  0.4004480943934465
  0.0821053229001129  0.2915141182495933  0.4005482193597732
  0.0814820150469723  0.4164088477003711  0.4000939299741764
  0.0822242888983042  0.5417648692210799  0.3994883346465914
  0.0832568058186702  0.6673186318147470  0.3992548272439196
  0.0839147733179425  0.7928349914226714  0.3993976354833940
  0.0841816942987962  0.9181541525899475  0.3996055915800429
  0.2093458440238165  0.0437842419734534  0.4003051406005502
  0.2094887753298195  0.1692769709155762  0.4013729338737215
  0.2083668628475788  0.2935822377006193  0.4022965523654131
  0.2053019208032841  0.4169894226500733  0.4021327324097129
  0.2056354685852091  0.5417765715176879  0.4010276533986345
  0.2074513032345373  0.6672919071802059  0.3999769712230113
  0.2083834956743652  0.7926783290548058  0.3994958516478322
  0.2089533698112455  0.9181952612396834  0.3996018755198447
  0.3339281667261316  0.0432539741818490  0.4000705038458220
  0.3346850396374337  0.1692627545247910  0.4014913892187303
  0.3352727824264221  0.2956410435172935  0.4033610231352179
  0.3306673883707555  0.4198485409471373  0.4044680834612392
  0.3297440832766249  0.5434666430128183  0.4034262948519868
  0.3314626983907227  0.6670579315163092  0.4016359404504478
  0.3328269440845132  0.7921778211734317  0.4001687623691167
  0.3334637121341847  0.9175641777329757  0.3995914997160566
  0.4584326824798557  0.0418421090120191  0.3996905964472189
  0.4590024070692711  0.1676056153450524  0.4006736623267210
  0.4600856635510180  0.2938183066655932  0.4026648463451617
  0.4650268187972085  0.4207352910957819  0.4049147823486772
  0.4536103006259669  0.6617710845786110  0.4034514866699925
  0.4570966906608969  0.7900593619715213  0.4013775731743912
  0.4578501106932364  0.9159851390561707  0.3999776693916263
  0.5828867031567057  0.0403681119002626  0.3996849329985065
  0.5834649397950000  0.1659921497558517  0.3997479048794276
  0.5844282284808781  0.2911976072544022  0.4008294750161189
  0.5868016548297810  0.4161124210603046  0.4026243867379818
  0.5891921406715774  0.5422919493720275  0.4041170323306654
  0.5821399547949185  0.6618877376313884  0.4037299261650606
  0.5804810564465649  0.7869728573796325  0.4020661638033806
  0.5821491444245352  0.9142832595937452  0.4005577202690299
  0.7073633208767572  0.0397588271545119  0.3998257517647259
  0.7079660660132668  0.1653983598062123  0.3994632812507562
  0.7086345734606688  0.2908006619902425  0.3995399584355158
  0.7101633351748383  0.4162905903910099  0.4002367188393827
  0.7116705020132909  0.5417782476602037  0.4013276105036804
  0.7101940044541513  0.6667745929059913  0.4019354011064060
  0.7075858132268033  0.7897946210991347  0.4015067847572341
  0.7067372838568481  0.9139932204436364  0.4005688952974614
  0.8323558899374677  0.0402336322021822  0.3996841852273118
  0.8325347032050950  0.1653864523233195  0.3994654489706461
  0.8329926951382075  0.2908027175632002  0.3992515708988039
  0.8338283572422939  0.4162113141108373  0.3991279249316991
  0.8348256781030413  0.5416982802992933  0.3994265768937844
  0.8348347512990640  0.6673077509228618  0.3999945858767072
  0.8341168655879126  0.7919400039321117  0.4001997583431468
  0.8328583890502348  0.9157902633980163  0.3999992458763467
  0.9582314603979613  0.0416823799600681  0.3996235296489246
  0.9576157600811444  0.1660486696243961  0.3996446435249502
  0.9573634546463209  0.2908933772855047  0.3994909747380456
  0.9576574412089099  0.4162363643248169  0.3991662478206192
  0.9585394234645375  0.5418512103674590  0.3989974916699549
  0.9591172566351502  0.6673525955769534  0.3992071276712479
  0.9592535666577230  0.7926333968136062  0.3994494821655133
  0.9589119378075330  0.9174018538786167  0.3995633167292789
  0.4089683486826749  0.5811661336073175  0.4043424311074750
 
  0.00000000E+00  0.00000000E+00  0.00000000E+00
  0.00000000E+00  0.00000000E+00  0.00000000E+00
  0.00000000E+00  0.00000000E+00  0.00000000E+00
  0.00000000E+00  0.00000000E+00  0.00000000E+00
  0.00000000E+00  0.00000000E+00  0.00000000E+00
  0.00000000E+00  0.00000000E+00  0.00000000E+00
  0.00000000E+00  0.00000000E+00  0.00000000E+00
  0.00000000E+00  0.00000000E+00  0.00000000E+00
  0.00000000E+00  0.00000000E+00  0.00000000E+00
  0.00000000E+00  0.00000000E+00  0.00000000E+00
  0.00000000E+00  0.00000000E+00  0.00000000E+00
  0.00000000E+00  0.00000000E+00  0.00000000E+00
  0.00000000E+00  0.00000000E+00  0.00000000E+00
  0.00000000E+00  0.00000000E+00  0.00000000E+00
  0.00000000E+00  0.00000000E+00  0.00000000E+00
  0.00000000E+00  0.00000000E+00  0.00000000E+00
  0.00000000E+00  0.00000000E+00  0.00000000E+00
  0.00000000E+00  0.00000000E+00  0.00000000E+00
  0.00000000E+00  0.00000000E+00  0.00000000E+00
  0.00000000E+00  0.00000000E+00  0.00000000E+00
  0.00000000E+00  0.00000000E+00  0.00000000E+00
  0.00000000E+00  0.00000000E+00  0.00000000E+00
  0.00000000E+00  0.00000000E+00  0.00000000E+00
  0.00000000E+00  0.00000000E+00  0.00000000E+00
  0.00000000E+00  0.00000000E+00  0.00000000E+00
  0.00000000E+00  0.00000000E+00  0.00000000E+00
  0.00000000E+00  0.00000000E+00  0.00000000E+00
  0.00000000E+00  0.00000000E+00  0.00000000E+00
  0.00000000E+00  0.00000000E+00  0.00000000E+00
  0.00000000E+00  0.00000000E+00  0.00000000E+00
  0.00000000E+00  0.00000000E+00  0.00000000E+00
  0.00000000E+00  0.00000000E+00  0.00000000E+00
  0.00000000E+00  0.00000000E+00  0.00000000E+00
  0.00000000E+00  0.00000000E+00  0.00000000E+00
  0.00000000E+00  0.00000000E+00  0.00000000E+00
  0.00000000E+00  0.00000000E+00  0.00000000E+00
  0.00000000E+00  0.00000000E+00  0.00000000E+00
  0.00000000E+00  0.00000000E+00  0.00000000E+00
  0.00000000E+00  0.00000000E+00  0.00000000E+00
  0.00000000E+00  0.00000000E+00  0.00000000E+00
  0.00000000E+00  0.00000000E+00  0.00000000E+00
  0.00000000E+00  0.00000000E+00  0.00000000E+00
  0.00000000E+00  0.00000000E+00  0.00000000E+00
  0.00000000E+00  0.00000000E+00  0.00000000E+00
  0.00000000E+00  0.00000000E+00  0.00000000E+00
  0.00000000E+00  0.00000000E+00  0.00000000E+00
  0.00000000E+00  0.00000000E+00  0.00000000E+00
  0.00000000E+00  0.00000000E+00  0.00000000E+00
  0.00000000E+00  0.00000000E+00  0.00000000E+00
  0.00000000E+00  0.00000000E+00  0.00000000E+00
  0.00000000E+00  0.00000000E+00  0.00000000E+00
  0.00000000E+00  0.00000000E+00  0.00000000E+00
  0.00000000E+00  0.00000000E+00  0.00000000E+00
  0.00000000E+00  0.00000000E+00  0.00000000E+00
  0.00000000E+00  0.00000000E+00  0.00000000E+00
  0.00000000E+00  0.00000000E+00  0.00000000E+00
  0.00000000E+00  0.00000000E+00  0.00000000E+00
  0.00000000E+00  0.00000000E+00  0.00000000E+00
  0.00000000E+00  0.00000000E+00  0.00000000E+00
  0.00000000E+00  0.00000000E+00  0.00000000E+00
  0.00000000E+00  0.00000000E+00  0.00000000E+00
  0.00000000E+00  0.00000000E+00  0.00000000E+00
  0.00000000E+00  0.00000000E+00  0.00000000E+00
  0.00000000E+00  0.00000000E+00  0.00000000E+00
  0.00000000E+00  0.00000000E+00  0.00000000E+00
  0.00000000E+00  0.00000000E+00  0.00000000E+00
  0.00000000E+00  0.00000000E+00  0.00000000E+00
  0.00000000E+00  0.00000000E+00  0.00000000E+00
  0.00000000E+00  0.00000000E+00  0.00000000E+00
  0.00000000E+00  0.00000000E+00  0.00000000E+00
  0.00000000E+00  0.00000000E+00  0.00000000E+00
  0.00000000E+00  0.00000000E+00  0.00000000E+00
  0.00000000E+00  0.00000000E+00  0.00000000E+00
  0.00000000E+00  0.00000000E+00  0.00000000E+00
  0.00000000E+00  0.00000000E+00  0.00000000E+00
  0.00000000E+00  0.00000000E+00  0.00000000E+00
  0.00000000E+00  0.00000000E+00  0.00000000E+00
  0.00000000E+00  0.00000000E+00  0.00000000E+00
  0.00000000E+00  0.00000000E+00  0.00000000E+00
  0.00000000E+00  0.00000000E+00  0.00000000E+00
  0.00000000E+00  0.00000000E+00  0.00000000E+00
  0.00000000E+00  0.00000000E+00  0.00000000E+00
  0.00000000E+00  0.00000000E+00  0.00000000E+00
  0.00000000E+00  0.00000000E+00  0.00000000E+00
  0.00000000E+00  0.00000000E+00  0.00000000E+00
  0.00000000E+00  0.00000000E+00  0.00000000E+00
  0.00000000E+00  0.00000000E+00  0.00000000E+00
  0.00000000E+00  0.00000000E+00  0.00000000E+00
  0.00000000E+00  0.00000000E+00  0.00000000E+00
  0.00000000E+00  0.00000000E+00  0.00000000E+00
  0.00000000E+00  0.00000000E+00  0.00000000E+00
  0.00000000E+00  0.00000000E+00  0.00000000E+00
  0.00000000E+00  0.00000000E+00  0.00000000E+00
  0.00000000E+00  0.00000000E+00  0.00000000E+00
  0.00000000E+00  0.00000000E+00  0.00000000E+00
  0.00000000E+00  0.00000000E+00  0.00000000E+00
  0.00000000E+00  0.00000000E+00  0.00000000E+00
  0.00000000E+00  0.00000000E+00  0.00000000E+00
  0.00000000E+00  0.00000000E+00  0.00000000E+00
  0.00000000E+00  0.00000000E+00  0.00000000E+00
  0.00000000E+00  0.00000000E+00  0.00000000E+00
  0.00000000E+00  0.00000000E+00  0.00000000E+00
  0.00000000E+00  0.00000000E+00  0.00000000E+00
  0.00000000E+00  0.00000000E+00  0.00000000E+00
  0.00000000E+00  0.00000000E+00  0.00000000E+00
  0.00000000E+00  0.00000000E+00  0.00000000E+00
  0.00000000E+00  0.00000000E+00  0.00000000E+00
  0.00000000E+00  0.00000000E+00  0.00000000E+00
  0.00000000E+00  0.00000000E+00  0.00000000E+00
  0.00000000E+00  0.00000000E+00  0.00000000E+00
  0.00000000E+00  0.00000000E+00  0.00000000E+00
  0.00000000E+00  0.00000000E+00  0.00000000E+00
  0.00000000E+00  0.00000000E+00  0.00000000E+00
  0.00000000E+00  0.00000000E+00  0.00000000E+00
  0.00000000E+00  0.00000000E+00  0.00000000E+00
  0.00000000E+00  0.00000000E+00  0.00000000E+00
  0.00000000E+00  0.00000000E+00  0.00000000E+00
  0.00000000E+00  0.00000000E+00  0.00000000E+00
  0.00000000E+00  0.00000000E+00  0.00000000E+00
  0.00000000E+00  0.00000000E+00  0.00000000E+00
  0.00000000E+00  0.00000000E+00  0.00000000E+00
  0.00000000E+00  0.00000000E+00  0.00000000E+00
  0.00000000E+00  0.00000000E+00  0.00000000E+00
  0.00000000E+00  0.00000000E+00  0.00000000E+00
  0.00000000E+00  0.00000000E+00  0.00000000E+00
  0.00000000E+00  0.00000000E+00  0.00000000E+00
  0.00000000E+00  0.00000000E+00  0.00000000E+00
