La1 C123 N3                             
   1.00000000000000     
    19.8056543941789762    0.0118753089254675   -0.0027696416480417
    -9.8925442421705352   17.0509392990249395   -0.0021967015648183
    -0.0041602472500394   -0.0063366231878918   29.7860929055781121
   La   C    N 
     1   123     3
Direct
  0.4363163371796948  0.4996208678049828  0.4504178352104756
  0.0416216419415267  0.0836648951333498  0.3994434052375382
  0.0409016829814084  0.2080406449788951  0.3991788866782407
  0.0403908348216040  0.3329750150277899  0.3990286151614438
  0.0406319331407308  0.4581774049671510  0.3991816078318851
  0.0414479982703295  0.5836057778292731  0.3998785171210889
  0.0421529052898947  0.7089723519901616  0.4002514803550030
  0.0423244269058396  0.8340768666666937  0.4001993343036184
  0.0421932329409290  0.9591048987748831  0.3998160559356799
  0.1673205115239711  0.0846165056800785  0.3997143363354614
  0.1666270093369840  0.2091405039337116  0.3993563636612081
  0.1649733164075860  0.3332767309375086  0.3993289757136090
  0.1645776963174182  0.4582842832019193  0.3984367587207239
  0.1654746431858352  0.5835483637121069  0.3987021532290043
  0.1664913954761264  0.7087194383137775  0.3996932906124658
  0.1670321602577705  0.8340333682044914  0.4002036094410082
  0.1672286088879875  0.9593994071397460  0.4000678834018194
  0.2922412950217348  0.0850162968707080  0.3997602062925074
  0.2925645319285459  0.2114118371361893  0.4008317667148261
  0.2908995584157596  0.3361914535903519  0.4027957383291887
  0.2882940940646517  0.4573289687842260  0.4019633092120159
  0.2890956758664279  0.5826943857728862  0.3991935458232190
  0.2909162710486060  0.7081878316131295  0.3989221693803732
  0.2917217723262714  0.8336932568178322  0.3996111403817075
  0.2920308191310689  0.9591515585278626  0.3998840401187967
  0.4169279828659486  0.0838588200600858  0.3995129133528506
  0.4173710059655921  0.2096064405613662  0.3993181629454574
  0.4191084673052980  0.3367813311384326  0.4029586810108300
  0.4152990938582372  0.7067728437112024  0.3993826365835930
  0.4163224548713721  0.8325241114107540  0.3991846615701415
  0.4167419310147532  0.9582414413800079  0.3997038939138579
  0.5415932977747194  0.0828226466914794  0.3997702273142226
  0.5420438344057922  0.2084537210226742  0.3990529734804355
  0.5429086782103698  0.3340158460192614  0.3990224293537805
  0.5450673344902255  0.4591893043215781  0.4024691062661651
  0.5392350346234190  0.7031557546635474  0.4023690105863577
  0.5409714389948224  0.8310225581697069  0.3998773634450999
  0.5413358483117742  0.9571492335554633  0.3997041835450877
  0.6662901539170385  0.0824379088250004  0.4001457456706868
  0.6665882813966687  0.2077393329284093  0.3998193840933220
  0.6673382934222807  0.3331119525776499  0.3988642740705372
  0.6690287395599468  0.4586582943184784  0.3983764325427916
  0.6701060712195934  0.5840951956040321  0.3993249041300768
  0.6675178070049365  0.7075325416567989  0.3997915600858122
  0.6653053698561934  0.8312023006697482  0.4000354998815807
  0.6659339019726198  0.9569534927323388  0.4000099586949772
  0.7909723883341238  0.0823822712295340  0.4000710490294066
  0.7912118013274554  0.2076554657653008  0.4002717129983395
  0.7917278999097018  0.3329533643272702  0.3999156086524438
  0.7926753851944053  0.4583232598316326  0.3991204107594267
  0.7935198590322401  0.5837481128047435  0.3986418507460056
  0.7933107418624177  0.7089552942068634  0.3989552061532987
  0.7916794551776313  0.8329363937098119  0.3992710164915682
  0.7908303375466130  0.9572001955412217  0.3997369740560092
  0.9160223006127647  0.0827496672497951  0.3996808407026881
  0.9158419573148548  0.2076465200997354  0.3998032024290101
  0.9160278938168088  0.3328797546452372  0.3999530545571742
  0.9166935806845338  0.4583119125677265  0.4000486307732511
  0.9174652602504997  0.5836908923924621  0.3998415536578978
  0.9176837330008929  0.7088839749464666  0.3996457619159381
  0.9174444411656781  0.8339393235325354  0.3995923665723762
  0.9166500891119554  0.9583122114484642  0.3996648169458766
  0.0838731640829295  0.0426031988520966  0.3995962827713930
  0.0831466908288368  0.1670742501987314  0.3991736731797535
  0.0821826112821608  0.2914545641618793  0.3990000140796564
  0.0816782114063028  0.4162500138394120  0.3986448979630556
  0.0824919067273692  0.5417244176764252  0.3992065980888932
  0.0833783989054439  0.6670867898812908  0.4000275429458683
  0.0837906805355131  0.7923307387953471  0.4003212760793207
  0.0839258611674006  0.9175406304227814  0.4000838389384271
  0.2088342827680892  0.0428604138909550  0.3998918402741116
  0.2089825827736771  0.1682562266156860  0.3999073152119800
  0.2076534264256071  0.2925483900524294  0.3998078996275549
  0.2059061457705854  0.4167639304355232  0.3994139503590355
  0.2062305973049460  0.5414135441181983  0.3984636705958405
  0.2075690978502820  0.6668201668257697  0.3990557368529665
  0.2084407926053314  0.7922416813535916  0.3998918016897672
  0.2087540053307571  0.9175252651054496  0.4001056394719915
  0.3336820485456352  0.0428047472972796  0.3996813433065253
  0.3338732200390837  0.1686963051803587  0.3999388491585315
  0.3342581725472443  0.2953832957455751  0.4029699809724719
  0.3307024136342018  0.5418227133404669  0.4013776366721118
  0.3318444872155215  0.6661723194145688  0.3990330765178368
  0.3330813342335249  0.7916154768615714  0.3991752748453002
  0.3334394317634707  0.9171031418755069  0.3997649737433074
  0.4583482772976516  0.0416762251926283  0.3996999663975525
  0.4586542272284471  0.1673580190317070  0.3991393108396490
  0.4594279723857479  0.2931369049658585  0.3996509168986145
  0.4630821293199480  0.4187299055887158  0.4067769333047378
  0.4546319411333471  0.6623936531320920  0.4018154781799619
  0.4576067874206565  0.7901706977215036  0.3992514818902928
  0.4580895512621300  0.9160768891319236  0.3995286529021118
  0.5830003634681937  0.0407673450081406  0.3999188528068930
  0.5833752487199323  0.1663450555595535  0.3995521905474889
  0.5840496435742691  0.2917790387847347  0.3987346513315883
  0.5861672001480461  0.4175240366835784  0.3993334710851510
  0.5883766948383560  0.5439113746714281  0.4022021025925526
  0.5839415580634767  0.6631644602445965  0.4025803780734051
  0.5815049864540893  0.7878678755120373  0.4007098430994088
  0.5827057223019759  0.9148843611832772  0.3998141034644632
  0.7076986902938397  0.0405521091109589  0.4001215946448854
  0.7080155261194158  0.1659085041331242  0.4001921487418935
  0.7085268349840055  0.2912472757160760  0.3995444442180716
  0.7097371332950893  0.4165339383815067  0.3985466173221452
  0.7108726071211182  0.5418445181750914  0.3984081924007971
  0.7105112570103242  0.6672846326274341  0.3992148513753010
  0.7082330229177660  0.7908122712563178  0.3994449435950277
  0.7072509392389322  0.9149823808008865  0.3998825841914766
  0.8326387607643531  0.0407920872545999  0.3998372295339834
  0.8326936538684715  0.1659024564173508  0.4001293779964844
  0.8329326929408436  0.2910483863609654  0.4001942041506877
  0.8336770287382351  0.4163821664782944  0.3998012652727737
  0.8345606345297993  0.5418385862119002  0.3991494983691202
  0.8348172698945742  0.6671817824184616  0.3990245794858949
  0.8342077903206455  0.7921280295558817  0.3992108308573578
  0.8332025693352918  0.9163259132953289  0.3995652702702343
  0.9582229387286362  0.0416661607859384  0.3996275389693412
  0.9576212943676471  0.1661351483735705  0.3995331461619869
  0.9574285013093851  0.2911583286303718  0.3996171060841167
  0.9577199977817541  0.4163667319325218  0.3998434239831685
  0.9584816593678698  0.5417111650313204  0.4000675314590927
  0.9591044592967091  0.6671182653212286  0.3999836321260434
  0.9591629095355364  0.7924046119433776  0.3998629776474720
  0.9588857845801242  0.9173039293605502  0.3997130298833684
  0.4113716017502443  0.5824569590653103  0.4048310278918353
  0.5481359611357448  0.5836753713247509  0.4059536672276629
  0.3278391153605520  0.4165396259577029  0.4066877551989632
 
  0.00000000E+00  0.00000000E+00  0.00000000E+00
  0.00000000E+00  0.00000000E+00  0.00000000E+00
  0.00000000E+00  0.00000000E+00  0.00000000E+00
  0.00000000E+00  0.00000000E+00  0.00000000E+00
  0.00000000E+00  0.00000000E+00  0.00000000E+00
  0.00000000E+00  0.00000000E+00  0.00000000E+00
  0.00000000E+00  0.00000000E+00  0.00000000E+00
  0.00000000E+00  0.00000000E+00  0.00000000E+00
  0.00000000E+00  0.00000000E+00  0.00000000E+00
  0.00000000E+00  0.00000000E+00  0.00000000E+00
  0.00000000E+00  0.00000000E+00  0.00000000E+00
  0.00000000E+00  0.00000000E+00  0.00000000E+00
  0.00000000E+00  0.00000000E+00  0.00000000E+00
  0.00000000E+00  0.00000000E+00  0.00000000E+00
  0.00000000E+00  0.00000000E+00  0.00000000E+00
  0.00000000E+00  0.00000000E+00  0.00000000E+00
  0.00000000E+00  0.00000000E+00  0.00000000E+00
  0.00000000E+00  0.00000000E+00  0.00000000E+00
  0.00000000E+00  0.00000000E+00  0.00000000E+00
  0.00000000E+00  0.00000000E+00  0.00000000E+00
  0.00000000E+00  0.00000000E+00  0.00000000E+00
  0.00000000E+00  0.00000000E+00  0.00000000E+00
  0.00000000E+00  0.00000000E+00  0.00000000E+00
  0.00000000E+00  0.00000000E+00  0.00000000E+00
  0.00000000E+00  0.00000000E+00  0.00000000E+00
  0.00000000E+00  0.00000000E+00  0.00000000E+00
  0.00000000E+00  0.00000000E+00  0.00000000E+00
  0.00000000E+00  0.00000000E+00  0.00000000E+00
  0.00000000E+00  0.00000000E+00  0.00000000E+00
  0.00000000E+00  0.00000000E+00  0.00000000E+00
  0.00000000E+00  0.00000000E+00  0.00000000E+00
  0.00000000E+00  0.00000000E+00  0.00000000E+00
  0.00000000E+00  0.00000000E+00  0.00000000E+00
  0.00000000E+00  0.00000000E+00  0.00000000E+00
  0.00000000E+00  0.00000000E+00  0.00000000E+00
  0.00000000E+00  0.00000000E+00  0.00000000E+00
  0.00000000E+00  0.00000000E+00  0.00000000E+00
  0.00000000E+00  0.00000000E+00  0.00000000E+00
  0.00000000E+00  0.00000000E+00  0.00000000E+00
  0.00000000E+00  0.00000000E+00  0.00000000E+00
  0.00000000E+00  0.00000000E+00  0.00000000E+00
  0.00000000E+00  0.00000000E+00  0.00000000E+00
  0.00000000E+00  0.00000000E+00  0.00000000E+00
  0.00000000E+00  0.00000000E+00  0.00000000E+00
  0.00000000E+00  0.00000000E+00  0.00000000E+00
  0.00000000E+00  0.00000000E+00  0.00000000E+00
  0.00000000E+00  0.00000000E+00  0.00000000E+00
  0.00000000E+00  0.00000000E+00  0.00000000E+00
  0.00000000E+00  0.00000000E+00  0.00000000E+00
  0.00000000E+00  0.00000000E+00  0.00000000E+00
  0.00000000E+00  0.00000000E+00  0.00000000E+00
  0.00000000E+00  0.00000000E+00  0.00000000E+00
  0.00000000E+00  0.00000000E+00  0.00000000E+00
  0.00000000E+00  0.00000000E+00  0.00000000E+00
  0.00000000E+00  0.00000000E+00  0.00000000E+00
  0.00000000E+00  0.00000000E+00  0.00000000E+00
  0.00000000E+00  0.00000000E+00  0.00000000E+00
  0.00000000E+00  0.00000000E+00  0.00000000E+00
  0.00000000E+00  0.00000000E+00  0.00000000E+00
  0.00000000E+00  0.00000000E+00  0.00000000E+00
  0.00000000E+00  0.00000000E+00  0.00000000E+00
  0.00000000E+00  0.00000000E+00  0.00000000E+00
  0.00000000E+00  0.00000000E+00  0.00000000E+00
  0.00000000E+00  0.00000000E+00  0.00000000E+00
  0.00000000E+00  0.00000000E+00  0.00000000E+00
  0.00000000E+00  0.00000000E+00  0.00000000E+00
  0.00000000E+00  0.00000000E+00  0.00000000E+00
  0.00000000E+00  0.00000000E+00  0.00000000E+00
  0.00000000E+00  0.00000000E+00  0.00000000E+00
  0.00000000E+00  0.00000000E+00  0.00000000E+00
  0.00000000E+00  0.00000000E+00  0.00000000E+00
  0.00000000E+00  0.00000000E+00  0.00000000E+00
  0.00000000E+00  0.00000000E+00  0.00000000E+00
  0.00000000E+00  0.00000000E+00  0.00000000E+00
  0.00000000E+00  0.00000000E+00  0.00000000E+00
  0.00000000E+00  0.00000000E+00  0.00000000E+00
  0.00000000E+00  0.00000000E+00  0.00000000E+00
  0.00000000E+00  0.00000000E+00  0.00000000E+00
  0.00000000E+00  0.00000000E+00  0.00000000E+00
  0.00000000E+00  0.00000000E+00  0.00000000E+00
  0.00000000E+00  0.00000000E+00  0.00000000E+00
  0.00000000E+00  0.00000000E+00  0.00000000E+00
  0.00000000E+00  0.00000000E+00  0.00000000E+00
  0.00000000E+00  0.00000000E+00  0.00000000E+00
  0.00000000E+00  0.00000000E+00  0.00000000E+00
  0.00000000E+00  0.00000000E+00  0.00000000E+00
  0.00000000E+00  0.00000000E+00  0.00000000E+00
  0.00000000E+00  0.00000000E+00  0.00000000E+00
  0.00000000E+00  0.00000000E+00  0.00000000E+00
  0.00000000E+00  0.00000000E+00  0.00000000E+00
  0.00000000E+00  0.00000000E+00  0.00000000E+00
  0.00000000E+00  0.00000000E+00  0.00000000E+00
  0.00000000E+00  0.00000000E+00  0.00000000E+00
  0.00000000E+00  0.00000000E+00  0.00000000E+00
  0.00000000E+00  0.00000000E+00  0.00000000E+00
  0.00000000E+00  0.00000000E+00  0.00000000E+00
  0.00000000E+00  0.00000000E+00  0.00000000E+00
  0.00000000E+00  0.00000000E+00  0.00000000E+00
  0.00000000E+00  0.00000000E+00  0.00000000E+00
  0.00000000E+00  0.00000000E+00  0.00000000E+00
  0.00000000E+00  0.00000000E+00  0.00000000E+00
  0.00000000E+00  0.00000000E+00  0.00000000E+00
  0.00000000E+00  0.00000000E+00  0.00000000E+00
  0.00000000E+00  0.00000000E+00  0.00000000E+00
  0.00000000E+00  0.00000000E+00  0.00000000E+00
  0.00000000E+00  0.00000000E+00  0.00000000E+00
  0.00000000E+00  0.00000000E+00  0.00000000E+00
  0.00000000E+00  0.00000000E+00  0.00000000E+00
  0.00000000E+00  0.00000000E+00  0.00000000E+00
  0.00000000E+00  0.00000000E+00  0.00000000E+00
  0.00000000E+00  0.00000000E+00  0.00000000E+00
  0.00000000E+00  0.00000000E+00  0.00000000E+00
  0.00000000E+00  0.00000000E+00  0.00000000E+00
  0.00000000E+00  0.00000000E+00  0.00000000E+00
  0.00000000E+00  0.00000000E+00  0.00000000E+00
  0.00000000E+00  0.00000000E+00  0.00000000E+00
  0.00000000E+00  0.00000000E+00  0.00000000E+00
  0.00000000E+00  0.00000000E+00  0.00000000E+00
  0.00000000E+00  0.00000000E+00  0.00000000E+00
  0.00000000E+00  0.00000000E+00  0.00000000E+00
  0.00000000E+00  0.00000000E+00  0.00000000E+00
  0.00000000E+00  0.00000000E+00  0.00000000E+00
  0.00000000E+00  0.00000000E+00  0.00000000E+00
  0.00000000E+00  0.00000000E+00  0.00000000E+00
  0.00000000E+00  0.00000000E+00  0.00000000E+00
  0.00000000E+00  0.00000000E+00  0.00000000E+00
  0.00000000E+00  0.00000000E+00  0.00000000E+00
