Ni1 H1 C124 N2 O2                       
   1.00000000000000     
    19.8124005351691714   -0.0073079466845101    0.0896860502756678
    -9.9127111086224140   17.0344802022476749   -0.0134500464947758
     0.1349548986724569    0.0545798923725340   29.8221987523031018
   Ni   H    C    N    O 
     1     1   124     2     2
Direct
  0.4375352095817368  0.5002176388213402  0.4117714674889728
  0.5251176832338200  0.5464268050894635  0.5124318109998798
  0.0421011239289656  0.0842352896423065  0.4000950802858483
  0.0411589377650817  0.2083124244720262  0.4001259912957348
  0.0404709143848104  0.3328490914789544  0.3998950252220987
  0.0404391860188168  0.4582607614631962  0.3995579922095195
  0.0412253446778021  0.5836913140885834  0.3992606239281303
  0.0418833567897204  0.7090686554256650  0.3991438247490140
  0.0422485441989986  0.8344147475942226  0.3993576227515242
  0.0424496748581558  0.9596389974881286  0.3997976825444416
  0.1681408046712303  0.0859444107684380  0.4007296321747415
  0.1676701576846744  0.2105350973411084  0.4014195062089963
  0.1655948971689208  0.3339730858305471  0.4014671607654005
  0.1639977438280220  0.4584333471854650  0.4009043895859878
  0.1650790083465858  0.5836653284168506  0.4002607347858423
  0.1662100931616111  0.7090783303786198  0.3996805245885581
  0.1668919521845277  0.8345017733347411  0.3994488878641298
  0.1674849594123351  0.9601076151226572  0.3998859547287424
  0.2927454669994550  0.0857092977028694  0.4008174235837224
  0.2945727732921810  0.2132506856992332  0.4024440761820374
  0.2933260009273902  0.3385952667246835  0.4036952189868083
  0.2876155483723823  0.4589388506695259  0.4030021250091670
  0.2886469108239576  0.5841050602821671  0.4019166661250990
  0.2904168729280636  0.7088605857771700  0.4008462783194394
  0.2914583574690416  0.8340521298484316  0.3999439540994593
  0.2920077093274998  0.9596097793286976  0.3998706743879748
  0.4170980447824302  0.0841614374385924  0.4003143698801807
  0.4177976001196294  0.2103976027567788  0.4017886348507329
  0.4213452935165964  0.3392860061030851  0.4039109266415505
  0.4144175946332947  0.7056794150546243  0.4024140568568328
  0.4158743946708834  0.8321852653094021  0.4008629341255204
  0.4164950090331005  0.9581643963488760  0.3999351367786801
  0.5414760553561320  0.0824249548403918  0.3997990011402152
  0.5421152930246059  0.2078879979645580  0.4005680762600963
  0.5433376289866848  0.3330518947051461  0.4021122787263381
  0.5450000388702166  0.4567901463652874  0.4037161187968297
  0.5434167687601588  0.5785117607504401  0.4062524284686206
  0.5380145961851224  0.7022945088454675  0.4040525348503635
  0.5399667362484429  0.8302542246936936  0.4018113721146442
  0.5409903761589409  0.9566374179874698  0.4002639719996515
  0.6660357448375195  0.0817993853272399  0.3996067182348832
  0.6666127106598102  0.2073061378239608  0.3995391113495229
  0.6674365070736441  0.3326334067841297  0.4003318737025407
  0.6690311517976061  0.4580596116342212  0.4015185409200340
  0.6695214321223043  0.5827898738475955  0.4024318247757337
  0.6656666545452595  0.7056101043480564  0.4027643496004679
  0.6645223106173160  0.8299196825258724  0.4019103053945937
  0.6654524657143709  0.9560718081450077  0.4005414192324014
  0.7907962576539252  0.0818296063544731  0.3996595951109635
  0.7911600337940758  0.2071818188068487  0.3992614653595546
  0.7917665916869236  0.3326354732906537  0.3992485540220416
  0.7926404741080627  0.4581002039291256  0.3996202866051689
  0.7933715809778704  0.5834360937613200  0.4002719355496882
  0.7925120302530796  0.7082293797324748  0.4008727256223393
  0.7910013330469078  0.8321176790556783  0.4007884065993709
  0.7903988851366798  0.9565138656474731  0.4003269778087705
  0.9160548939248433  0.0825783698196757  0.3997409071677040
  0.9158894439086490  0.2074433218819939  0.3994934507114844
  0.9160486198691986  0.3326823716759705  0.3992544500784691
  0.9165248550102384  0.4580875644421000  0.3990722632761721
  0.9172943396191954  0.5836257019506724  0.3990954901152320
  0.9174391185678444  0.7089602345138299  0.3994253304921161
  0.9171235400383373  0.8337754337937181  0.3997619040735561
  0.9164934900054524  0.9581507559158212  0.3998658525088240
  0.0844449972427807  0.0434064114335074  0.4001813472930083
  0.0838637339652053  0.1677910511750794  0.4005014984262535
  0.0823610096157210  0.2916636615146180  0.4004022855209889
  0.0815067127841415  0.4165108162135492  0.4000404640629740
  0.0822018855765624  0.5418215820285138  0.3996396692771022
  0.0831041764989261  0.6672900861215504  0.3992991256242437
  0.0837483637484553  0.7927664085736085  0.3992718819752106
  0.0840782115309649  0.9180969107051004  0.3996478787892421
  0.2093900927544242  0.0438343414635582  0.4005000002146434
  0.2102846885247221  0.1699731031376628  0.4015671713822977
  0.2091559292643252  0.2942834773807106  0.4021496063856962
  0.2052397604362607  0.4170780002205719  0.4017600091428505
  0.2057534014288767  0.5418526406078498  0.4009925532991777
  0.2073724516073213  0.6672930175357104  0.4002634774322789
  0.2082347777601462  0.7926263149359979  0.3996585129480595
  0.2088469743408027  0.9181386204590161  0.3996928476217563
  0.3338512024631188  0.0432753156242236  0.4003073100633981
  0.3348064683108910  0.1696439341517245  0.4017270696548377
  0.3367184216257463  0.2975812902630913  0.4037715208436985
  0.3312659519947379  0.4213336248828534  0.4044815365315994
  0.3296674011620883  0.5431000375347387  0.4030716325511131
  0.3314245296438462  0.6668697167076874  0.4017433376973482
  0.3326922347385996  0.7920373092113859  0.4005330236687682
  0.3333807821555639  0.9174961087927133  0.3998498725978777
  0.4583459171894547  0.0417333117605068  0.3999307649729455
  0.4589443561438225  0.1677244361218336  0.4008838335662275
  0.4603128708742297  0.2942262656619470  0.4026729691915126
  0.4532712790117776  0.6605102235013326  0.4037605098578339
  0.4569810111603004  0.7895104146876244  0.4017548723998771
  0.4577525811814709  0.9157459150190754  0.4002987977852240
  0.5828647706305607  0.0403222875173252  0.3998021184432071
  0.5833749519130988  0.1658806263113673  0.3998750931020693
  0.5843623263724842  0.2910714517020441  0.4010041216113432
  0.5861030732022029  0.4158176526997330  0.4025078690338151
  0.5870937279746848  0.5408593286242799  0.4040388008589432
  0.5814113184443467  0.6613573802318098  0.4045123266823636
  0.5801889296793515  0.7866423966165594  0.4026638445948262
  0.5820716979055113  0.9141873282764711  0.4008571262951134
  0.7073855102436850  0.0398189717135180  0.3998503314687513
  0.7079611276317869  0.1654381572242370  0.3993629673598277
  0.7086381129720110  0.2908589596146094  0.3996090631516858
  0.7097280518770621  0.4162387506171711  0.4004427645097947
  0.7108290537792624  0.5414823797573343  0.4014018544077095
  0.7092476817757745  0.6659172525846526  0.4021722815087215
  0.7071476334025429  0.7893734295971080  0.4018263126859936
  0.7066955856276621  0.9139692020870395  0.4009200182068087
  0.8324254315908931  0.0402873818035290  0.3998490913105213
  0.8326355927642981  0.1655153040880271  0.3993940059472929
  0.8330172611554854  0.2908835593167396  0.3991685076410927
  0.8336410812990297  0.4162461217286330  0.3991922181559791
  0.8344259504215857  0.5416729345468863  0.3995423169724976
  0.8344306555465351  0.6670708259243764  0.4000956945909793
  0.8337186236940745  0.7916046141841794  0.4004168329838634
  0.8327550500300814  0.9156828021631912  0.4002708102371873
  0.9583725793079358  0.0417708087697891  0.3998153928329665
  0.9577718498574265  0.1661588610974538  0.3996987230726602
  0.9574690234637113  0.2909754587357612  0.3994777548294705
  0.9575955208231703  0.4163160341517693  0.3992263164292910
  0.9583730747246965  0.5418423935206280  0.3990443522979010
  0.9588625617187561  0.6672575148661459  0.3991300465993820
  0.9590099290238935  0.7924914603751700  0.3994477444156645
  0.9588248480562959  0.9173547744860804  0.3997392884504987
  0.4089652740364612  0.5795172179074525  0.4040426488589336
  0.4656781350257223  0.4203107058938608  0.4042287848089384
  0.4918103538540134  0.4939212584173887  0.4998491031278864
  0.4342943480875037  0.5033767812735426  0.4774141830648364
 
  0.00000000E+00  0.00000000E+00  0.00000000E+00
  0.00000000E+00  0.00000000E+00  0.00000000E+00
  0.00000000E+00  0.00000000E+00  0.00000000E+00
  0.00000000E+00  0.00000000E+00  0.00000000E+00
  0.00000000E+00  0.00000000E+00  0.00000000E+00
  0.00000000E+00  0.00000000E+00  0.00000000E+00
  0.00000000E+00  0.00000000E+00  0.00000000E+00
  0.00000000E+00  0.00000000E+00  0.00000000E+00
  0.00000000E+00  0.00000000E+00  0.00000000E+00
  0.00000000E+00  0.00000000E+00  0.00000000E+00
  0.00000000E+00  0.00000000E+00  0.00000000E+00
  0.00000000E+00  0.00000000E+00  0.00000000E+00
  0.00000000E+00  0.00000000E+00  0.00000000E+00
  0.00000000E+00  0.00000000E+00  0.00000000E+00
  0.00000000E+00  0.00000000E+00  0.00000000E+00
  0.00000000E+00  0.00000000E+00  0.00000000E+00
  0.00000000E+00  0.00000000E+00  0.00000000E+00
  0.00000000E+00  0.00000000E+00  0.00000000E+00
  0.00000000E+00  0.00000000E+00  0.00000000E+00
  0.00000000E+00  0.00000000E+00  0.00000000E+00
  0.00000000E+00  0.00000000E+00  0.00000000E+00
  0.00000000E+00  0.00000000E+00  0.00000000E+00
  0.00000000E+00  0.00000000E+00  0.00000000E+00
  0.00000000E+00  0.00000000E+00  0.00000000E+00
  0.00000000E+00  0.00000000E+00  0.00000000E+00
  0.00000000E+00  0.00000000E+00  0.00000000E+00
  0.00000000E+00  0.00000000E+00  0.00000000E+00
  0.00000000E+00  0.00000000E+00  0.00000000E+00
  0.00000000E+00  0.00000000E+00  0.00000000E+00
  0.00000000E+00  0.00000000E+00  0.00000000E+00
  0.00000000E+00  0.00000000E+00  0.00000000E+00
  0.00000000E+00  0.00000000E+00  0.00000000E+00
  0.00000000E+00  0.00000000E+00  0.00000000E+00
  0.00000000E+00  0.00000000E+00  0.00000000E+00
  0.00000000E+00  0.00000000E+00  0.00000000E+00
  0.00000000E+00  0.00000000E+00  0.00000000E+00
  0.00000000E+00  0.00000000E+00  0.00000000E+00
  0.00000000E+00  0.00000000E+00  0.00000000E+00
  0.00000000E+00  0.00000000E+00  0.00000000E+00
  0.00000000E+00  0.00000000E+00  0.00000000E+00
  0.00000000E+00  0.00000000E+00  0.00000000E+00
  0.00000000E+00  0.00000000E+00  0.00000000E+00
  0.00000000E+00  0.00000000E+00  0.00000000E+00
  0.00000000E+00  0.00000000E+00  0.00000000E+00
  0.00000000E+00  0.00000000E+00  0.00000000E+00
  0.00000000E+00  0.00000000E+00  0.00000000E+00
  0.00000000E+00  0.00000000E+00  0.00000000E+00
  0.00000000E+00  0.00000000E+00  0.00000000E+00
  0.00000000E+00  0.00000000E+00  0.00000000E+00
  0.00000000E+00  0.00000000E+00  0.00000000E+00
  0.00000000E+00  0.00000000E+00  0.00000000E+00
  0.00000000E+00  0.00000000E+00  0.00000000E+00
  0.00000000E+00  0.00000000E+00  0.00000000E+00
  0.00000000E+00  0.00000000E+00  0.00000000E+00
  0.00000000E+00  0.00000000E+00  0.00000000E+00
  0.00000000E+00  0.00000000E+00  0.00000000E+00
  0.00000000E+00  0.00000000E+00  0.00000000E+00
  0.00000000E+00  0.00000000E+00  0.00000000E+00
  0.00000000E+00  0.00000000E+00  0.00000000E+00
  0.00000000E+00  0.00000000E+00  0.00000000E+00
  0.00000000E+00  0.00000000E+00  0.00000000E+00
  0.00000000E+00  0.00000000E+00  0.00000000E+00
  0.00000000E+00  0.00000000E+00  0.00000000E+00
  0.00000000E+00  0.00000000E+00  0.00000000E+00
  0.00000000E+00  0.00000000E+00  0.00000000E+00
  0.00000000E+00  0.00000000E+00  0.00000000E+00
  0.00000000E+00  0.00000000E+00  0.00000000E+00
  0.00000000E+00  0.00000000E+00  0.00000000E+00
  0.00000000E+00  0.00000000E+00  0.00000000E+00
  0.00000000E+00  0.00000000E+00  0.00000000E+00
  0.00000000E+00  0.00000000E+00  0.00000000E+00
  0.00000000E+00  0.00000000E+00  0.00000000E+00
  0.00000000E+00  0.00000000E+00  0.00000000E+00
  0.00000000E+00  0.00000000E+00  0.00000000E+00
  0.00000000E+00  0.00000000E+00  0.00000000E+00
  0.00000000E+00  0.00000000E+00  0.00000000E+00
  0.00000000E+00  0.00000000E+00  0.00000000E+00
  0.00000000E+00  0.00000000E+00  0.00000000E+00
  0.00000000E+00  0.00000000E+00  0.00000000E+00
  0.00000000E+00  0.00000000E+00  0.00000000E+00
  0.00000000E+00  0.00000000E+00  0.00000000E+00
  0.00000000E+00  0.00000000E+00  0.00000000E+00
  0.00000000E+00  0.00000000E+00  0.00000000E+00
  0.00000000E+00  0.00000000E+00  0.00000000E+00
  0.00000000E+00  0.00000000E+00  0.00000000E+00
  0.00000000E+00  0.00000000E+00  0.00000000E+00
  0.00000000E+00  0.00000000E+00  0.00000000E+00
  0.00000000E+00  0.00000000E+00  0.00000000E+00
  0.00000000E+00  0.00000000E+00  0.00000000E+00
  0.00000000E+00  0.00000000E+00  0.00000000E+00
  0.00000000E+00  0.00000000E+00  0.00000000E+00
  0.00000000E+00  0.00000000E+00  0.00000000E+00
  0.00000000E+00  0.00000000E+00  0.00000000E+00
  0.00000000E+00  0.00000000E+00  0.00000000E+00
  0.00000000E+00  0.00000000E+00  0.00000000E+00
  0.00000000E+00  0.00000000E+00  0.00000000E+00
  0.00000000E+00  0.00000000E+00  0.00000000E+00
  0.00000000E+00  0.00000000E+00  0.00000000E+00
  0.00000000E+00  0.00000000E+00  0.00000000E+00
  0.00000000E+00  0.00000000E+00  0.00000000E+00
  0.00000000E+00  0.00000000E+00  0.00000000E+00
  0.00000000E+00  0.00000000E+00  0.00000000E+00
  0.00000000E+00  0.00000000E+00  0.00000000E+00
  0.00000000E+00  0.00000000E+00  0.00000000E+00
  0.00000000E+00  0.00000000E+00  0.00000000E+00
  0.00000000E+00  0.00000000E+00  0.00000000E+00
  0.00000000E+00  0.00000000E+00  0.00000000E+00
  0.00000000E+00  0.00000000E+00  0.00000000E+00
  0.00000000E+00  0.00000000E+00  0.00000000E+00
  0.00000000E+00  0.00000000E+00  0.00000000E+00
  0.00000000E+00  0.00000000E+00  0.00000000E+00
  0.00000000E+00  0.00000000E+00  0.00000000E+00
  0.00000000E+00  0.00000000E+00  0.00000000E+00
  0.00000000E+00  0.00000000E+00  0.00000000E+00
  0.00000000E+00  0.00000000E+00  0.00000000E+00
  0.00000000E+00  0.00000000E+00  0.00000000E+00
  0.00000000E+00  0.00000000E+00  0.00000000E+00
  0.00000000E+00  0.00000000E+00  0.00000000E+00
  0.00000000E+00  0.00000000E+00  0.00000000E+00
  0.00000000E+00  0.00000000E+00  0.00000000E+00
  0.00000000E+00  0.00000000E+00  0.00000000E+00
  0.00000000E+00  0.00000000E+00  0.00000000E+00
  0.00000000E+00  0.00000000E+00  0.00000000E+00
  0.00000000E+00  0.00000000E+00  0.00000000E+00
  0.00000000E+00  0.00000000E+00  0.00000000E+00
  0.00000000E+00  0.00000000E+00  0.00000000E+00
  0.00000000E+00  0.00000000E+00  0.00000000E+00
  0.00000000E+00  0.00000000E+00  0.00000000E+00
  0.00000000E+00  0.00000000E+00  0.00000000E+00
  0.00000000E+00  0.00000000E+00  0.00000000E+00
