Ti1 C124 N2 O1                          
   1.00000000000000     
    19.8203541864000741   -0.0125348574206776   -0.0460931925018155
    -9.9211946527547799   17.0658385200147222   -0.0692429318163147
    -0.0692740514196942   -0.1609759596851598   29.7603326009458087
   Ti   C    N    O 
     1   124     2     1
Direct
  0.4385439225776888  0.5008155558043413  0.4338964957556781
  0.0420574565388938  0.0840881875927391  0.3996519827758271
  0.0412848665539291  0.2083805602859892  0.3991346448832868
  0.0406910309798959  0.3330195291416942  0.3987211605338952
  0.0406304305915972  0.4584483967864306  0.3989512903406309
  0.0413138867054334  0.5838717005001920  0.3996958840505284
  0.0419543086927820  0.7092104687456722  0.4001144911958952
  0.0423013631831260  0.8344917747736329  0.3999315066180975
  0.0424925974697425  0.9596141563618186  0.3997583140733119
  0.1680318501538929  0.0856180664532027  0.4001799859452876
  0.1672242953054305  0.2098351356707761  0.4000227259961215
  0.1658360913238423  0.3340225592751973  0.3992976522228904
  0.1643298909512161  0.4585816459523340  0.3982870352086307
  0.1651756998570161  0.5838837888743267  0.3985908675256483
  0.1662523693837128  0.7092871177126985  0.3995434775344127
  0.1669593806189633  0.8346094379358405  0.3999010737423758
  0.1674949247399686  0.9600233686898345  0.3999154085158745
  0.2927427401512022  0.0853726661850472  0.4001905032306542
  0.2944193785381055  0.2125373177004620  0.4018153064957915
  0.2922129777442147  0.3370137130449135  0.4036954535064580
  0.2883814002246068  0.4588522539178241  0.4026356103629224
  0.2887839349567620  0.5846286217026060  0.3997172234596910
  0.2905085732607455  0.7093446760108786  0.3992409130669844
  0.2915249090905921  0.8343123017285543  0.3995073913981815
  0.2920453024112964  0.9596022996430407  0.3996931973042558
  0.4172171428933111  0.0838748112978772  0.3996900006743156
  0.4178704944275414  0.2093575747992720  0.4004000385633050
  0.4215165897646470  0.3371931955760030  0.4040363083959931
  0.4147854927762981  0.7075327142370913  0.4009076325266130
  0.4160745335966634  0.8330892128430158  0.3995843354311890
  0.4166322436402322  0.9584558204598927  0.3995771407887749
  0.5417522180940303  0.0825720956084010  0.3996560578313589
  0.5423840874498690  0.2077611391548931  0.3995443008619770
  0.5435788905215070  0.3327104515052127  0.3997991662686846
  0.5446165684853701  0.4558560942655834  0.4020569839552079
  0.5455411251213431  0.5811346400145493  0.4054784921743403
  0.5388758993256890  0.7038373756424905  0.4033606698002001
  0.5404045199044835  0.8312162344268917  0.4004692581420943
  0.5412672689957765  0.9571388857722712  0.3997476133019613
  0.6663408519176270  0.0820854430162008  0.4000448207119012
  0.6669117793725208  0.2074379459380069  0.3998492816952594
  0.6677591910777692  0.3326954570709785  0.3992483720813041
  0.6692220150307394  0.4580568958237785  0.3981847229336463
  0.6693626644847546  0.5828229699923367  0.3981975856836221
  0.6665925780876364  0.7068314181664334  0.3993790651672057
  0.6651560812743526  0.8307646742823007  0.4001751886341906
  0.6658724180754404  0.9566338986383129  0.4000935295440456
  0.7911185757564291  0.0821214038362562  0.3999449051509110
  0.7914153938775996  0.2073402668641376  0.4000138111692961
  0.7920545914484869  0.3327655251617452  0.4000540722448012
  0.7929149611134575  0.4582410874158000  0.3993880269389655
  0.7933770537468366  0.5834903147720543  0.3984079976354377
  0.7926086252433155  0.7083759928985701  0.3984239722409240
  0.7915661666257642  0.8327267316755159  0.3992383973419982
  0.7908232278554393  0.9569683361485942  0.3998021365914762
  0.9163025028305166  0.0827863331542114  0.3995950026492927
  0.9161325677752161  0.2076464694536754  0.3994844296361090
  0.9162646313228637  0.3328303197987390  0.3996693433461679
  0.9167300518196417  0.4582393315474271  0.3999876581587279
  0.9174137855943002  0.5837722474337635  0.3999266150862897
  0.9175263279086077  0.7090821233031456  0.3995817157029419
  0.9172388427696219  0.8338775182165449  0.3994884318483258
  0.9167543264366345  0.9583561351882052  0.3996796781741516
  0.0843773547606089  0.0432387886637178  0.3998190265295485
  0.0836024490774137  0.1674548957056179  0.3994660868600092
  0.0825365700073338  0.2917968258664126  0.3988235508406291
  0.0817558655146333  0.4166862113313867  0.3984088771803785
  0.0822591056931927  0.5419845004653745  0.3990050867093218
  0.0831481742666717  0.6674455270368197  0.3998579893521271
  0.0837824052536891  0.7928679934151743  0.4000334376519152
  0.0841095269568334  0.9180948883181265  0.3998531385487715
  0.2093430483607754  0.0435901400307893  0.4001330364642309
  0.2100270508968952  0.1694638249233080  0.4006965009819303
  0.2085308724263408  0.2933465951412022  0.4004129452429851
  0.2057635127131991  0.4173513760464352  0.3992545246602375
  0.2059390199005428  0.5421431068051129  0.3984470340014024
  0.2074380785544021  0.6675499448540149  0.3990352022369134
  0.2082739438654537  0.7927834857522698  0.3996918422285370
  0.2088673939853354  0.9181342348013019  0.3998417601805758
  0.3339229448241188  0.0430876862702447  0.3997914605809287
  0.3348279671674966  0.1690471710915374  0.4008477148536953
  0.3364030923891800  0.2964873596038922  0.4040395492988333
  0.3296495355398211  0.4191612904098961  0.4069660484557441
  0.3305938864366971  0.5444586107366808  0.4030659060854890
  0.3316306244925360  0.6675469681762400  0.3998933014814009
  0.3328315667301491  0.7924978019222741  0.3994200291837053
  0.3334541605031317  0.9176573868036706  0.3995642500051900
  0.4585808438828837  0.0417843843653608  0.3996183422100781
  0.4591473226378768  0.1671525935816280  0.3997513314539750
  0.4604596773378934  0.2927508925609081  0.4010062809173985
  0.4537861578923870  0.6631939059828681  0.4040262405783792
  0.4573695883855922  0.7909051126724601  0.4001212324057925
  0.4579886242545937  0.9163581250669504  0.3995914995167683
  0.5831578424638719  0.0406210685841344  0.3998050713035266
  0.5836715447552135  0.1659247746494762  0.3996318605534851
  0.5846977576883872  0.2909126034543906  0.3993294343416899
  0.5864061055877905  0.4155989369019183  0.3992558201993422
  0.5867973047872861  0.5414219826013063  0.4012293052547721
  0.5829783429371898  0.6632239512112786  0.4025498788404542
  0.5808060609889273  0.7877200317093660  0.4011937275499267
  0.5824722057840966  0.9148731049081106  0.4000328395012697
  0.7077262764757457  0.0401949932620242  0.4000814607246028
  0.7082266297631901  0.1655985643822526  0.4000531934707193
  0.7089414372395744  0.2909384633660332  0.3997908798735567
  0.7100062069444057  0.4163496855121230  0.3987936491604001
  0.7108091969096524  0.5415938383543043  0.3978072711308355
  0.7092926975996203  0.6661476063522738  0.3983276273162112
  0.7079160356274807  0.7903529524304903  0.3994090456509879
  0.7071679859518634  0.9146036010785809  0.3999947220983290
  0.8327313120905881  0.0405943380186386  0.3997910622340033
  0.8329079949909056  0.1657232557652529  0.3998436668339274
  0.8332566221663383  0.2910002308046045  0.4000177661277008
  0.8338617498615468  0.4163428414366056  0.3999899602559518
  0.8345267491406546  0.5417597611035664  0.3992919258715144
  0.8344658345663658  0.6671656934159645  0.3987176320469245
  0.8338791583290143  0.7917921914776874  0.3990180204285314
  0.8331486592956494  0.9161085959971673  0.3996354374300846
  0.9584737678918868  0.0418408019247472  0.3996496912031264
  0.9579568242754802  0.1663116447870814  0.3993469983496273
  0.9576584304278609  0.2911156342800008  0.3992711140123731
  0.9577670269608551  0.4164405733709373  0.3996094007837775
  0.9584647604568473  0.5419741391676410  0.3999972729555458
  0.9589361968087047  0.6673779844063095  0.3999893894684860
  0.9590730651958344  0.7925591710857722  0.3997307539076648
  0.9589223180907535  0.9174092399031724  0.3996591944509397
  0.4093393344526435  0.5834176845082123  0.4070644004856770
  0.4660340881658223  0.4171446503613672  0.4062319443580835
  0.4404942421732859  0.5013133951352898  0.4897560003027065
 
  0.00000000E+00  0.00000000E+00  0.00000000E+00
  0.00000000E+00  0.00000000E+00  0.00000000E+00
  0.00000000E+00  0.00000000E+00  0.00000000E+00
  0.00000000E+00  0.00000000E+00  0.00000000E+00
  0.00000000E+00  0.00000000E+00  0.00000000E+00
  0.00000000E+00  0.00000000E+00  0.00000000E+00
  0.00000000E+00  0.00000000E+00  0.00000000E+00
  0.00000000E+00  0.00000000E+00  0.00000000E+00
  0.00000000E+00  0.00000000E+00  0.00000000E+00
  0.00000000E+00  0.00000000E+00  0.00000000E+00
  0.00000000E+00  0.00000000E+00  0.00000000E+00
  0.00000000E+00  0.00000000E+00  0.00000000E+00
  0.00000000E+00  0.00000000E+00  0.00000000E+00
  0.00000000E+00  0.00000000E+00  0.00000000E+00
  0.00000000E+00  0.00000000E+00  0.00000000E+00
  0.00000000E+00  0.00000000E+00  0.00000000E+00
  0.00000000E+00  0.00000000E+00  0.00000000E+00
  0.00000000E+00  0.00000000E+00  0.00000000E+00
  0.00000000E+00  0.00000000E+00  0.00000000E+00
  0.00000000E+00  0.00000000E+00  0.00000000E+00
  0.00000000E+00  0.00000000E+00  0.00000000E+00
  0.00000000E+00  0.00000000E+00  0.00000000E+00
  0.00000000E+00  0.00000000E+00  0.00000000E+00
  0.00000000E+00  0.00000000E+00  0.00000000E+00
  0.00000000E+00  0.00000000E+00  0.00000000E+00
  0.00000000E+00  0.00000000E+00  0.00000000E+00
  0.00000000E+00  0.00000000E+00  0.00000000E+00
  0.00000000E+00  0.00000000E+00  0.00000000E+00
  0.00000000E+00  0.00000000E+00  0.00000000E+00
  0.00000000E+00  0.00000000E+00  0.00000000E+00
  0.00000000E+00  0.00000000E+00  0.00000000E+00
  0.00000000E+00  0.00000000E+00  0.00000000E+00
  0.00000000E+00  0.00000000E+00  0.00000000E+00
  0.00000000E+00  0.00000000E+00  0.00000000E+00
  0.00000000E+00  0.00000000E+00  0.00000000E+00
  0.00000000E+00  0.00000000E+00  0.00000000E+00
  0.00000000E+00  0.00000000E+00  0.00000000E+00
  0.00000000E+00  0.00000000E+00  0.00000000E+00
  0.00000000E+00  0.00000000E+00  0.00000000E+00
  0.00000000E+00  0.00000000E+00  0.00000000E+00
  0.00000000E+00  0.00000000E+00  0.00000000E+00
  0.00000000E+00  0.00000000E+00  0.00000000E+00
  0.00000000E+00  0.00000000E+00  0.00000000E+00
  0.00000000E+00  0.00000000E+00  0.00000000E+00
  0.00000000E+00  0.00000000E+00  0.00000000E+00
  0.00000000E+00  0.00000000E+00  0.00000000E+00
  0.00000000E+00  0.00000000E+00  0.00000000E+00
  0.00000000E+00  0.00000000E+00  0.00000000E+00
  0.00000000E+00  0.00000000E+00  0.00000000E+00
  0.00000000E+00  0.00000000E+00  0.00000000E+00
  0.00000000E+00  0.00000000E+00  0.00000000E+00
  0.00000000E+00  0.00000000E+00  0.00000000E+00
  0.00000000E+00  0.00000000E+00  0.00000000E+00
  0.00000000E+00  0.00000000E+00  0.00000000E+00
  0.00000000E+00  0.00000000E+00  0.00000000E+00
  0.00000000E+00  0.00000000E+00  0.00000000E+00
  0.00000000E+00  0.00000000E+00  0.00000000E+00
  0.00000000E+00  0.00000000E+00  0.00000000E+00
  0.00000000E+00  0.00000000E+00  0.00000000E+00
  0.00000000E+00  0.00000000E+00  0.00000000E+00
  0.00000000E+00  0.00000000E+00  0.00000000E+00
  0.00000000E+00  0.00000000E+00  0.00000000E+00
  0.00000000E+00  0.00000000E+00  0.00000000E+00
  0.00000000E+00  0.00000000E+00  0.00000000E+00
  0.00000000E+00  0.00000000E+00  0.00000000E+00
  0.00000000E+00  0.00000000E+00  0.00000000E+00
  0.00000000E+00  0.00000000E+00  0.00000000E+00
  0.00000000E+00  0.00000000E+00  0.00000000E+00
  0.00000000E+00  0.00000000E+00  0.00000000E+00
  0.00000000E+00  0.00000000E+00  0.00000000E+00
  0.00000000E+00  0.00000000E+00  0.00000000E+00
  0.00000000E+00  0.00000000E+00  0.00000000E+00
  0.00000000E+00  0.00000000E+00  0.00000000E+00
  0.00000000E+00  0.00000000E+00  0.00000000E+00
  0.00000000E+00  0.00000000E+00  0.00000000E+00
  0.00000000E+00  0.00000000E+00  0.00000000E+00
  0.00000000E+00  0.00000000E+00  0.00000000E+00
  0.00000000E+00  0.00000000E+00  0.00000000E+00
  0.00000000E+00  0.00000000E+00  0.00000000E+00
  0.00000000E+00  0.00000000E+00  0.00000000E+00
  0.00000000E+00  0.00000000E+00  0.00000000E+00
  0.00000000E+00  0.00000000E+00  0.00000000E+00
  0.00000000E+00  0.00000000E+00  0.00000000E+00
  0.00000000E+00  0.00000000E+00  0.00000000E+00
  0.00000000E+00  0.00000000E+00  0.00000000E+00
  0.00000000E+00  0.00000000E+00  0.00000000E+00
  0.00000000E+00  0.00000000E+00  0.00000000E+00
  0.00000000E+00  0.00000000E+00  0.00000000E+00
  0.00000000E+00  0.00000000E+00  0.00000000E+00
  0.00000000E+00  0.00000000E+00  0.00000000E+00
  0.00000000E+00  0.00000000E+00  0.00000000E+00
  0.00000000E+00  0.00000000E+00  0.00000000E+00
  0.00000000E+00  0.00000000E+00  0.00000000E+00
  0.00000000E+00  0.00000000E+00  0.00000000E+00
  0.00000000E+00  0.00000000E+00  0.00000000E+00
  0.00000000E+00  0.00000000E+00  0.00000000E+00
  0.00000000E+00  0.00000000E+00  0.00000000E+00
  0.00000000E+00  0.00000000E+00  0.00000000E+00
  0.00000000E+00  0.00000000E+00  0.00000000E+00
  0.00000000E+00  0.00000000E+00  0.00000000E+00
  0.00000000E+00  0.00000000E+00  0.00000000E+00
  0.00000000E+00  0.00000000E+00  0.00000000E+00
  0.00000000E+00  0.00000000E+00  0.00000000E+00
  0.00000000E+00  0.00000000E+00  0.00000000E+00
  0.00000000E+00  0.00000000E+00  0.00000000E+00
  0.00000000E+00  0.00000000E+00  0.00000000E+00
  0.00000000E+00  0.00000000E+00  0.00000000E+00
  0.00000000E+00  0.00000000E+00  0.00000000E+00
  0.00000000E+00  0.00000000E+00  0.00000000E+00
  0.00000000E+00  0.00000000E+00  0.00000000E+00
  0.00000000E+00  0.00000000E+00  0.00000000E+00
  0.00000000E+00  0.00000000E+00  0.00000000E+00
  0.00000000E+00  0.00000000E+00  0.00000000E+00
  0.00000000E+00  0.00000000E+00  0.00000000E+00
  0.00000000E+00  0.00000000E+00  0.00000000E+00
  0.00000000E+00  0.00000000E+00  0.00000000E+00
  0.00000000E+00  0.00000000E+00  0.00000000E+00
  0.00000000E+00  0.00000000E+00  0.00000000E+00
  0.00000000E+00  0.00000000E+00  0.00000000E+00
  0.00000000E+00  0.00000000E+00  0.00000000E+00
  0.00000000E+00  0.00000000E+00  0.00000000E+00
  0.00000000E+00  0.00000000E+00  0.00000000E+00
  0.00000000E+00  0.00000000E+00  0.00000000E+00
  0.00000000E+00  0.00000000E+00  0.00000000E+00
  0.00000000E+00  0.00000000E+00  0.00000000E+00
  0.00000000E+00  0.00000000E+00  0.00000000E+00
  0.00000000E+00  0.00000000E+00  0.00000000E+00
  0.00000000E+00  0.00000000E+00  0.00000000E+00
