H1 Pt1 C126                             
   1.00000000000000     
    19.8508374047175664   -0.0052813370547691    0.2654867246459897
    -9.9317956403550021   17.0673825370137067    0.0971535564216630
     0.3974862977331206    0.4003258666411896   29.7153014727438993
   H    Pt   C 
     1     1   126
Direct
  0.5106774477241535  0.5615309100244764  0.4559524350584550
  0.4319957568470301  0.4958365033401153  0.4223436069453647
  0.0414045406141243  0.0836418017246453  0.3994223244290391
  0.0401220564285169  0.2075300563661374  0.3990849985191367
  0.0393917912845872  0.3322582185811849  0.3985952588037894
  0.0393720581741930  0.4578674059208984  0.3985776736189092
  0.0405410762285015  0.5834747219373728  0.3986651001185398
  0.0416571616143657  0.7089499747471621  0.3987310622173631
  0.0420851803313174  0.8343380427409411  0.3989766788484402
  0.0421359879648607  0.9593510145760219  0.3992638982943435
  0.1673243989365855  0.0851508954303383  0.3998836192031014
  0.1663747874264882  0.2093409832662187  0.3999791066612431
  0.1640096658559506  0.3326649021611576  0.3988407632315292
  0.1623609823339834  0.4579588550175694  0.3982949929969449
  0.1638043689263262  0.5834248601857061  0.3985824763248446
  0.1657805256284494  0.7089137364015808  0.3989804358809832
  0.1666208134260037  0.8342870754680158  0.3992071700249195
  0.1671066460404732  0.9597314474046209  0.3995103810071975
  0.2922595119795013  0.0849466308391003  0.4002218629830507
  0.2930884854770166  0.2115055849243255  0.4022329030058279
  0.2911882899815239  0.3361274789786332  0.4030755988470071
  0.2841726162376162  0.4575232653639374  0.4007296862038183
  0.2866692968977244  0.5837031052853143  0.3999226809142403
  0.2899855684477713  0.7086999876553151  0.3994949219558167
  0.2909718561393894  0.8337671007045904  0.3992500639553918
  0.2916057911802194  0.9592053817034292  0.3994112829991781
  0.4166605372915345  0.0833954761152515  0.3994976583108550
  0.4173925967298989  0.2089156976181907  0.4016344951311272
  0.4192958351605831  0.3350803652594853  0.4092731229475459
  0.4070516733800032  0.5799887602053154  0.4087630695353507
  0.4142099096011841  0.7066140344257134  0.4027596987684332
  0.4154382189663914  0.8324367672793721  0.4001351218166433
  0.4160782118893614  0.9578686802144964  0.3992324599114835
  0.5410944046443971  0.0820504848994171  0.3989941033448619
  0.5418572637773115  0.2073745198569157  0.3994322006808707
  0.5430983646791802  0.3323544041945364  0.4033010477929228
  0.5471706670539447  0.4561310218225025  0.4142416617592277
  0.5508621013161110  0.5829303016457658  0.4228762519160588
  0.5389107398761153  0.7039600749328012  0.4092201313534565
  0.5397879151437242  0.8305194500479232  0.4020912756598651
  0.5405897860717686  0.9565036245738665  0.3995988357212285
  0.6655827051363276  0.0814355906769643  0.3991993776344822
  0.6662365521696202  0.2068584268905695  0.3987416865517692
  0.6672898713250525  0.3321595823876486  0.3988472901970998
  0.6695949560592057  0.4576355224206384  0.4006918299261913
  0.6706667130521847  0.5830934331663837  0.4038358508210406
  0.6669985825307004  0.7068832976961023  0.4043411257972583
  0.6651203102979890  0.8307010584812393  0.4023877739369928
  0.6652188772798037  0.9560678970943389  0.4002723120906209
  0.7903343842657802  0.0814933816080726  0.3994148176908158
  0.7905565931737873  0.2067069272828128  0.3990446557712481
  0.7913441604603318  0.3321975677277004  0.3983536276016679
  0.7927634825617675  0.4578532830302372  0.3975835905062466
  0.7937364219236548  0.5833623890391564  0.3976853534959338
  0.7929905592447607  0.7085799414155133  0.3991936729243979
  0.7915238039227962  0.8326233398603080  0.3996210948285779
  0.7904600763589494  0.9566616107874467  0.3997600820714716
  0.9154967081371330  0.0822004743960946  0.3993355822372667
  0.9150968133525217  0.2068969030300580  0.3991414510885399
  0.9152781370295756  0.3321987185237754  0.3988119955607314
  0.9160090156783619  0.4577590044634032  0.3983302692813097
  0.9171958029845019  0.5835336688598235  0.3979176299195788
  0.9175218555093616  0.7089358435531384  0.3981312505903850
  0.9172678354908920  0.8338681401210627  0.3987735793957615
  0.9164462203260795  0.9581271943641063  0.3992168615419687
  0.0838195639321690  0.0428788739542760  0.3994845948994326
  0.0828300169031943  0.1669771075469909  0.3994011005947958
  0.0810534120447881  0.2906886707872238  0.3986740188804664
  0.0801531309186888  0.4159589428210460  0.3983923095032506
  0.0811177993559033  0.5414425272421661  0.3986085851773428
  0.0826836388067221  0.6670843024066355  0.3988144917647752
  0.0834979349397399  0.7925994234615230  0.3990149099030008
  0.0838295798596307  0.9178995023987463  0.3992679079224566
  0.2089050632103358  0.0432782109170612  0.3998912188571199
  0.2090782817876647  0.1687772884603148  0.4005216611242673
  0.2075166239981750  0.2927900072170779  0.4001010526299376
  0.2029256401857801  0.4157475684330896  0.3986086903114644
  0.2040558672696866  0.5415004449612461  0.3985782525509768
  0.2067609637845921  0.6671200009044466  0.3989317911180854
  0.2078083231142221  0.7924113145694112  0.3991538634479507
  0.2084851411109297  0.9178336053208510  0.3993825791763493
  0.3334828504092692  0.0426841936635761  0.3996858190797922
  0.3342161245835637  0.1685339914804637  0.4014967736514267
  0.3349612775499064  0.2949602337225873  0.4053348654397866
  0.3268458690032479  0.4185089672076823  0.4045439273424644
  0.3262168807484034  0.5420897126933965  0.4021331691458040
  0.3308775593661004  0.6668098626675352  0.4006245612792054
  0.3322252941921175  0.7919129459697467  0.3995857940718369
  0.3329402483315999  0.9171293813268987  0.3992892483924809
  0.4579532533568373  0.0412231680153206  0.3991435335656728
  0.4586137945036294  0.1666831843234117  0.3999698162927126
  0.4596430183016427  0.2921127096103131  0.4045414856934990
  0.4646335932847343  0.4162647711935920  0.4183760584497784
  0.4539281622850642  0.6628555168911691  0.4072686260374099
  0.4565379099472466  0.7900339307050187  0.4016956598535023
  0.4574131274907380  0.9157212266662670  0.3995573406871794
  0.5824608074068536  0.0400258724451146  0.3991583153673248
  0.5830666915793672  0.1654708636205030  0.3988883037777551
  0.5840605484458034  0.2906262317616924  0.4000505975456353
  0.5869498150353213  0.4153893954895582  0.4055239223593616
  0.5904472556949922  0.5409313734254140  0.4144934126240445
  0.5840327451981921  0.6643819089983396  0.4121469336729896
  0.5809747599230946  0.7876943201960975  0.4044434924282194
  0.5818161563968109  0.9142280507409294  0.4004670533818548
  0.7070234450274515  0.0396099307231934  0.3995518765928986
  0.7074344615492353  0.1649922657124349  0.3989526948505875
  0.7082683225085324  0.2903391782134831  0.3984426066707433
  0.7100053071993032  0.4158383645200807  0.3984649969131459
  0.7113268988318814  0.5411752073865990  0.3997695899463363
  0.7100901329206075  0.6665180256199273  0.4021766905324106
  0.7079888107336331  0.7903537474802895  0.4015215357756944
  0.7068741102209942  0.9143446074197655  0.4006662099463433
  0.8321029506295445  0.0401512009705690  0.3994566059980938
  0.8319904311300065  0.1650237908357811  0.3992370832521377
  0.8323862160355679  0.2903615325678085  0.3987899035095402
  0.8333493327359419  0.4158065435477908  0.3979804961252886
  0.8345483209924728  0.5414698422752592  0.3974325716171104
  0.8346726762686117  0.6670378142193161  0.3980601390708042
  0.8340681103003342  0.7919007308355994  0.3990180325490258
  0.8329310884216270  0.9159421890598064  0.3994326029952689
  0.9579106854035120  0.0414542077405698  0.3993339429058350
  0.9569207454488721  0.1655835933073768  0.3991978654776915
  0.9565532727680288  0.2904031648007480  0.3988982442416114
  0.9567285837488814  0.4158115469632492  0.3986447418232643
  0.9578749064249106  0.5415121937276207  0.3983379172510281
  0.9587673493040059  0.6671148142354428  0.3982139610254460
  0.9590011486715455  0.7924651823127719  0.3986374328330010
  0.9587766424883932  0.9172809205908549  0.3990586409355153
 
  0.00000000E+00  0.00000000E+00  0.00000000E+00
  0.00000000E+00  0.00000000E+00  0.00000000E+00
  0.00000000E+00  0.00000000E+00  0.00000000E+00
  0.00000000E+00  0.00000000E+00  0.00000000E+00
  0.00000000E+00  0.00000000E+00  0.00000000E+00
  0.00000000E+00  0.00000000E+00  0.00000000E+00
  0.00000000E+00  0.00000000E+00  0.00000000E+00
  0.00000000E+00  0.00000000E+00  0.00000000E+00
  0.00000000E+00  0.00000000E+00  0.00000000E+00
  0.00000000E+00  0.00000000E+00  0.00000000E+00
  0.00000000E+00  0.00000000E+00  0.00000000E+00
  0.00000000E+00  0.00000000E+00  0.00000000E+00
  0.00000000E+00  0.00000000E+00  0.00000000E+00
  0.00000000E+00  0.00000000E+00  0.00000000E+00
  0.00000000E+00  0.00000000E+00  0.00000000E+00
  0.00000000E+00  0.00000000E+00  0.00000000E+00
  0.00000000E+00  0.00000000E+00  0.00000000E+00
  0.00000000E+00  0.00000000E+00  0.00000000E+00
  0.00000000E+00  0.00000000E+00  0.00000000E+00
  0.00000000E+00  0.00000000E+00  0.00000000E+00
  0.00000000E+00  0.00000000E+00  0.00000000E+00
  0.00000000E+00  0.00000000E+00  0.00000000E+00
  0.00000000E+00  0.00000000E+00  0.00000000E+00
  0.00000000E+00  0.00000000E+00  0.00000000E+00
  0.00000000E+00  0.00000000E+00  0.00000000E+00
  0.00000000E+00  0.00000000E+00  0.00000000E+00
  0.00000000E+00  0.00000000E+00  0.00000000E+00
  0.00000000E+00  0.00000000E+00  0.00000000E+00
  0.00000000E+00  0.00000000E+00  0.00000000E+00
  0.00000000E+00  0.00000000E+00  0.00000000E+00
  0.00000000E+00  0.00000000E+00  0.00000000E+00
  0.00000000E+00  0.00000000E+00  0.00000000E+00
  0.00000000E+00  0.00000000E+00  0.00000000E+00
  0.00000000E+00  0.00000000E+00  0.00000000E+00
  0.00000000E+00  0.00000000E+00  0.00000000E+00
  0.00000000E+00  0.00000000E+00  0.00000000E+00
  0.00000000E+00  0.00000000E+00  0.00000000E+00
  0.00000000E+00  0.00000000E+00  0.00000000E+00
  0.00000000E+00  0.00000000E+00  0.00000000E+00
  0.00000000E+00  0.00000000E+00  0.00000000E+00
  0.00000000E+00  0.00000000E+00  0.00000000E+00
  0.00000000E+00  0.00000000E+00  0.00000000E+00
  0.00000000E+00  0.00000000E+00  0.00000000E+00
  0.00000000E+00  0.00000000E+00  0.00000000E+00
  0.00000000E+00  0.00000000E+00  0.00000000E+00
  0.00000000E+00  0.00000000E+00  0.00000000E+00
  0.00000000E+00  0.00000000E+00  0.00000000E+00
  0.00000000E+00  0.00000000E+00  0.00000000E+00
  0.00000000E+00  0.00000000E+00  0.00000000E+00
  0.00000000E+00  0.00000000E+00  0.00000000E+00
  0.00000000E+00  0.00000000E+00  0.00000000E+00
  0.00000000E+00  0.00000000E+00  0.00000000E+00
  0.00000000E+00  0.00000000E+00  0.00000000E+00
  0.00000000E+00  0.00000000E+00  0.00000000E+00
  0.00000000E+00  0.00000000E+00  0.00000000E+00
  0.00000000E+00  0.00000000E+00  0.00000000E+00
  0.00000000E+00  0.00000000E+00  0.00000000E+00
  0.00000000E+00  0.00000000E+00  0.00000000E+00
  0.00000000E+00  0.00000000E+00  0.00000000E+00
  0.00000000E+00  0.00000000E+00  0.00000000E+00
  0.00000000E+00  0.00000000E+00  0.00000000E+00
  0.00000000E+00  0.00000000E+00  0.00000000E+00
  0.00000000E+00  0.00000000E+00  0.00000000E+00
  0.00000000E+00  0.00000000E+00  0.00000000E+00
  0.00000000E+00  0.00000000E+00  0.00000000E+00
  0.00000000E+00  0.00000000E+00  0.00000000E+00
  0.00000000E+00  0.00000000E+00  0.00000000E+00
  0.00000000E+00  0.00000000E+00  0.00000000E+00
  0.00000000E+00  0.00000000E+00  0.00000000E+00
  0.00000000E+00  0.00000000E+00  0.00000000E+00
  0.00000000E+00  0.00000000E+00  0.00000000E+00
  0.00000000E+00  0.00000000E+00  0.00000000E+00
  0.00000000E+00  0.00000000E+00  0.00000000E+00
  0.00000000E+00  0.00000000E+00  0.00000000E+00
  0.00000000E+00  0.00000000E+00  0.00000000E+00
  0.00000000E+00  0.00000000E+00  0.00000000E+00
  0.00000000E+00  0.00000000E+00  0.00000000E+00
  0.00000000E+00  0.00000000E+00  0.00000000E+00
  0.00000000E+00  0.00000000E+00  0.00000000E+00
  0.00000000E+00  0.00000000E+00  0.00000000E+00
  0.00000000E+00  0.00000000E+00  0.00000000E+00
  0.00000000E+00  0.00000000E+00  0.00000000E+00
  0.00000000E+00  0.00000000E+00  0.00000000E+00
  0.00000000E+00  0.00000000E+00  0.00000000E+00
  0.00000000E+00  0.00000000E+00  0.00000000E+00
  0.00000000E+00  0.00000000E+00  0.00000000E+00
  0.00000000E+00  0.00000000E+00  0.00000000E+00
  0.00000000E+00  0.00000000E+00  0.00000000E+00
  0.00000000E+00  0.00000000E+00  0.00000000E+00
  0.00000000E+00  0.00000000E+00  0.00000000E+00
  0.00000000E+00  0.00000000E+00  0.00000000E+00
  0.00000000E+00  0.00000000E+00  0.00000000E+00
  0.00000000E+00  0.00000000E+00  0.00000000E+00
  0.00000000E+00  0.00000000E+00  0.00000000E+00
  0.00000000E+00  0.00000000E+00  0.00000000E+00
  0.00000000E+00  0.00000000E+00  0.00000000E+00
  0.00000000E+00  0.00000000E+00  0.00000000E+00
  0.00000000E+00  0.00000000E+00  0.00000000E+00
  0.00000000E+00  0.00000000E+00  0.00000000E+00
  0.00000000E+00  0.00000000E+00  0.00000000E+00
  0.00000000E+00  0.00000000E+00  0.00000000E+00
  0.00000000E+00  0.00000000E+00  0.00000000E+00
  0.00000000E+00  0.00000000E+00  0.00000000E+00
  0.00000000E+00  0.00000000E+00  0.00000000E+00
  0.00000000E+00  0.00000000E+00  0.00000000E+00
  0.00000000E+00  0.00000000E+00  0.00000000E+00
  0.00000000E+00  0.00000000E+00  0.00000000E+00
  0.00000000E+00  0.00000000E+00  0.00000000E+00
  0.00000000E+00  0.00000000E+00  0.00000000E+00
  0.00000000E+00  0.00000000E+00  0.00000000E+00
  0.00000000E+00  0.00000000E+00  0.00000000E+00
  0.00000000E+00  0.00000000E+00  0.00000000E+00
  0.00000000E+00  0.00000000E+00  0.00000000E+00
  0.00000000E+00  0.00000000E+00  0.00000000E+00
  0.00000000E+00  0.00000000E+00  0.00000000E+00
  0.00000000E+00  0.00000000E+00  0.00000000E+00
  0.00000000E+00  0.00000000E+00  0.00000000E+00
  0.00000000E+00  0.00000000E+00  0.00000000E+00
  0.00000000E+00  0.00000000E+00  0.00000000E+00
  0.00000000E+00  0.00000000E+00  0.00000000E+00
  0.00000000E+00  0.00000000E+00  0.00000000E+00
  0.00000000E+00  0.00000000E+00  0.00000000E+00
  0.00000000E+00  0.00000000E+00  0.00000000E+00
  0.00000000E+00  0.00000000E+00  0.00000000E+00
  0.00000000E+00  0.00000000E+00  0.00000000E+00
  0.00000000E+00  0.00000000E+00  0.00000000E+00
  0.00000000E+00  0.00000000E+00  0.00000000E+00
  0.00000000E+00  0.00000000E+00  0.00000000E+00
