Y1 H1 C126                              
   1.00000000000000     
    19.8098447838531513    0.0016806522982797    0.0522232553806001
    -9.9034739683205615   17.0895379925579469    0.0358588403531614
     0.0783146868699420    0.1077103464038937   29.7219997233355357
   Y    H    C 
     1     1   126
Direct
  0.4344131428269021  0.4968853299816253  0.4443056420288928
  0.4815119947040259  0.5436664165973860  0.5199340894796991
  0.0415165707127843  0.0834815487150758  0.3999261812273171
  0.0407038537874032  0.2078245978020647  0.3996802601772603
  0.0404128849960072  0.3327384588995450  0.3995389896589482
  0.0405893273705285  0.4582779136001887  0.3997744545752859
  0.0413174148850156  0.5836438277186967  0.4000798778321559
  0.0419380693266919  0.7088748315703485  0.4001471229110733
  0.0422005651106584  0.8340967026924141  0.4000955716531772
  0.0421362676312143  0.9590024177405478  0.4000445542266872
  0.1670983626178470  0.0843331685573086  0.3999136509136683
  0.1661795434179914  0.2084795241410580  0.3996870260011294
  0.1649516244511253  0.3328709948237737  0.3992165052011939
  0.1642412735241046  0.4581138189381292  0.3989926577790919
  0.1654015695754156  0.5835651014311702  0.3993774745887310
  0.1664086897868681  0.7089464779277838  0.3998902175469267
  0.1668727697773808  0.8341018087821621  0.4000814763546943
  0.1671570616248368  0.9593205597693852  0.4000228647003826
  0.2922149729972462  0.0843298559036037  0.3999289941928545
  0.2926084911018250  0.2102149117593567  0.4003785271028560
  0.2909921274949059  0.3348908404824881  0.4006912578034159
  0.2876862089320234  0.4572119505092991  0.3995875226775762
  0.2892154047127685  0.5839089030670179  0.3991482491292861
  0.2908510837267606  0.7088577532861483  0.3994287681946293
  0.2915299004092269  0.8338404131890664  0.3998973862420271
  0.2918681990578380  0.9590152897337901  0.3999990097270893
  0.4169425928047770  0.0834933349233227  0.3999268356737506
  0.4172676091813360  0.2085613532244287  0.3996594862022653
  0.4188121251057014  0.3350313035370477  0.4009735284417580
  0.4123461577038525  0.5824569815656323  0.4023384869653122
  0.4156101619076239  0.7079383771972086  0.3996187681328464
  0.4162409090566837  0.8332416740242243  0.3997334327815893
  0.4165671418396911  0.9583076221337851  0.4000256410566849
  0.5416053820643223  0.0827576878496414  0.4000467956282451
  0.5420820496842678  0.2078351800620439  0.3996819127692925
  0.5429154652589809  0.3329162557890293  0.3991890250489040
  0.5443677028856416  0.4573223110185168  0.4000038018843622
  0.5450005378002737  0.5824062161687110  0.4033103454985723
  0.5408763855159308  0.7067422153442988  0.4012617542570430
  0.5409035990685851  0.8322318741330887  0.3999668664432768
  0.5413367685232653  0.9575749175111580  0.3999453226710704
  0.6662981031822568  0.0824517517505819  0.4000543859626572
  0.6667092094811297  0.2076465719000685  0.4000036175460061
  0.6672911734154777  0.3327678279689883  0.3995138569583995
  0.6688131486034188  0.4581519522396899  0.3989179657553359
  0.6696004522135356  0.5838907049375003  0.3991418267996436
  0.6672487332110001  0.7078718304698510  0.3996775448997571
  0.6663019641013903  0.8322319583698959  0.3999840821817378
  0.6661573310797764  0.9573335930622741  0.3999376514871639
  0.7911220024125574  0.0824563012000632  0.4000401745174272
  0.7912411441601341  0.2075430995448619  0.4001143157110779
  0.7917616148468466  0.3328528471661953  0.4000579091663686
  0.7926366171142393  0.4582920477847552  0.3997541652529318
  0.7931356532385174  0.5835766692455491  0.3993542426279995
  0.7929823298877168  0.7088482745603869  0.3994240981990160
  0.7919821550234383  0.8332387536562826  0.3997180323832155
  0.7912049701970230  0.9575833079164778  0.3999237960848827
  0.9161106088501354  0.0827412018212298  0.3999946464353398
  0.9158690701826218  0.2076362854162372  0.3999821155009257
  0.9160441536229543  0.3328574322378605  0.4000736391854997
  0.9165531020346269  0.4581818602055504  0.4001865633835773
  0.9172682886792435  0.5836436134257430  0.4000661010585072
  0.9175135283213235  0.7089500772022700  0.3998875359513160
  0.9172982254830272  0.8338520508605634  0.3999303109769468
  0.9167126651871016  0.9582926592083764  0.4000287088145701
  0.0837187693772073  0.0423726967941194  0.3999417088301864
  0.0828507011959484  0.1666170675157750  0.3997242450246290
  0.0818444801402958  0.2910587573519677  0.3994234714552171
  0.0816736730086452  0.4164144192585527  0.3993641264052294
  0.0823827027695177  0.5417405258591849  0.3997773912549624
  0.0832383316478170  0.6671524638606170  0.4000756754506806
  0.0837179604763369  0.7924552079952403  0.4001224762358763
  0.0838319534506714  0.9175272789123302  0.4000672578012339
  0.2088221414316035  0.0426429564629460  0.3999639008091513
  0.2086276626652195  0.1677139570108755  0.3999738144358873
  0.2073830665631532  0.2917948535665632  0.3994628962560470
  0.2049556404903683  0.4159824585403392  0.3989909786481182
  0.2062804457980617  0.5418511029574302  0.3990370326171666
  0.2077505923523864  0.6672241891803163  0.3995333063906069
  0.2082784112222602  0.7923329091141439  0.3999813170693931
  0.2086889688517586  0.9175276574060699  0.4000371257950881
  0.3336406744845732  0.0423742390382129  0.3999285393432093
  0.3340882872752362  0.1677216525320175  0.3999922843879194
  0.3340827375518831  0.2932011249575799  0.4012568289480815
  0.3294146940331251  0.4172184891416197  0.4020920403724793
  0.3306154368126177  0.5424054670019594  0.3997041141465513
  0.3321831864039821  0.6670208278259366  0.3993374316222328
  0.3329344415651003  0.7920846889967091  0.3996673509671259
  0.3333866579069568  0.9171826376223818  0.4000022573027291
  0.4584357017602273  0.0416146264282444  0.4000355203927756
  0.4587716007456424  0.1666898089054361  0.3997156974706602
  0.4594237842335123  0.2919549867607905  0.3994869381929887
  0.4627132338115273  0.4173224490487761  0.4029986241505079
  0.4562925614059302  0.6648252412561799  0.4008400362521976
  0.4577344145761015  0.7913380522382780  0.3997358358059839
  0.4580483090469793  0.9164233173255644  0.3999339702410767
  0.5831292367849210  0.0409497975517531  0.4000363800415098
  0.5834719741314199  0.1661045409801535  0.3999399880190537
  0.5842017945496422  0.2910837788279451  0.3993995463005602
  0.5858974538900140  0.4160074016334545  0.3989483483559754
  0.5866637445197674  0.5424179826759919  0.4001439228536630
  0.5834462787535999  0.6647428992308881  0.4011514628215304
  0.5823629120550469  0.7897370969416104  0.4003437407623172
  0.5827591968857279  0.9156135131745387  0.3998987020830698
  0.7078118504735940  0.0406568370107925  0.4000108856729265
  0.7081023673362564  0.1658862835554856  0.4000970440815998
  0.7085914998627807  0.2910501265365392  0.3998945169240521
  0.7096803848171841  0.4164231518091515  0.3993205530440036
  0.7105277833021426  0.5418423989611385  0.3989740562864183
  0.7098054688736546  0.6669945803875197  0.3993502082715356
  0.7085622871897461  0.7913249108958776  0.3997207388393323
  0.7078176720186499  0.9156047019414715  0.3999049402810903
  0.8328053428460006  0.0409555064187290  0.3999964024606457
  0.8327333121075857  0.1658903198532179  0.4000727208606469
  0.8330513233862392  0.2911202813781132  0.4001307077257861
  0.8336431625401135  0.4163755317894245  0.4000688713453613
  0.8343136092104394  0.5417334026709342  0.3997567951932788
  0.8344684149708467  0.6672334276512293  0.3995266797386447
  0.8341455918223692  0.7920974600251245  0.3996821784302865
  0.8333534125144998  0.9164319229507282  0.3999094872001080
  0.9581598326960147  0.0416046776697394  0.4000163281389488
  0.9575685047652911  0.1660796910439706  0.3999036922549692
  0.9573781760807404  0.2910245284593129  0.3998988774676202
  0.9576674019702496  0.4163739743776609  0.4000823910708701
  0.9583982910349158  0.5418460107916578  0.4001839747155872
  0.9589024352997907  0.6671636634521760  0.4000623793216868
  0.9590261803143796  0.7923315425673180  0.3999928560815030
  0.9587946724518950  0.9171905516673363  0.4000468070580890
 
  0.00000000E+00  0.00000000E+00  0.00000000E+00
  0.00000000E+00  0.00000000E+00  0.00000000E+00
  0.00000000E+00  0.00000000E+00  0.00000000E+00
  0.00000000E+00  0.00000000E+00  0.00000000E+00
  0.00000000E+00  0.00000000E+00  0.00000000E+00
  0.00000000E+00  0.00000000E+00  0.00000000E+00
  0.00000000E+00  0.00000000E+00  0.00000000E+00
  0.00000000E+00  0.00000000E+00  0.00000000E+00
  0.00000000E+00  0.00000000E+00  0.00000000E+00
  0.00000000E+00  0.00000000E+00  0.00000000E+00
  0.00000000E+00  0.00000000E+00  0.00000000E+00
  0.00000000E+00  0.00000000E+00  0.00000000E+00
  0.00000000E+00  0.00000000E+00  0.00000000E+00
  0.00000000E+00  0.00000000E+00  0.00000000E+00
  0.00000000E+00  0.00000000E+00  0.00000000E+00
  0.00000000E+00  0.00000000E+00  0.00000000E+00
  0.00000000E+00  0.00000000E+00  0.00000000E+00
  0.00000000E+00  0.00000000E+00  0.00000000E+00
  0.00000000E+00  0.00000000E+00  0.00000000E+00
  0.00000000E+00  0.00000000E+00  0.00000000E+00
  0.00000000E+00  0.00000000E+00  0.00000000E+00
  0.00000000E+00  0.00000000E+00  0.00000000E+00
  0.00000000E+00  0.00000000E+00  0.00000000E+00
  0.00000000E+00  0.00000000E+00  0.00000000E+00
  0.00000000E+00  0.00000000E+00  0.00000000E+00
  0.00000000E+00  0.00000000E+00  0.00000000E+00
  0.00000000E+00  0.00000000E+00  0.00000000E+00
  0.00000000E+00  0.00000000E+00  0.00000000E+00
  0.00000000E+00  0.00000000E+00  0.00000000E+00
  0.00000000E+00  0.00000000E+00  0.00000000E+00
  0.00000000E+00  0.00000000E+00  0.00000000E+00
  0.00000000E+00  0.00000000E+00  0.00000000E+00
  0.00000000E+00  0.00000000E+00  0.00000000E+00
  0.00000000E+00  0.00000000E+00  0.00000000E+00
  0.00000000E+00  0.00000000E+00  0.00000000E+00
  0.00000000E+00  0.00000000E+00  0.00000000E+00
  0.00000000E+00  0.00000000E+00  0.00000000E+00
  0.00000000E+00  0.00000000E+00  0.00000000E+00
  0.00000000E+00  0.00000000E+00  0.00000000E+00
  0.00000000E+00  0.00000000E+00  0.00000000E+00
  0.00000000E+00  0.00000000E+00  0.00000000E+00
  0.00000000E+00  0.00000000E+00  0.00000000E+00
  0.00000000E+00  0.00000000E+00  0.00000000E+00
  0.00000000E+00  0.00000000E+00  0.00000000E+00
  0.00000000E+00  0.00000000E+00  0.00000000E+00
  0.00000000E+00  0.00000000E+00  0.00000000E+00
  0.00000000E+00  0.00000000E+00  0.00000000E+00
  0.00000000E+00  0.00000000E+00  0.00000000E+00
  0.00000000E+00  0.00000000E+00  0.00000000E+00
  0.00000000E+00  0.00000000E+00  0.00000000E+00
  0.00000000E+00  0.00000000E+00  0.00000000E+00
  0.00000000E+00  0.00000000E+00  0.00000000E+00
  0.00000000E+00  0.00000000E+00  0.00000000E+00
  0.00000000E+00  0.00000000E+00  0.00000000E+00
  0.00000000E+00  0.00000000E+00  0.00000000E+00
  0.00000000E+00  0.00000000E+00  0.00000000E+00
  0.00000000E+00  0.00000000E+00  0.00000000E+00
  0.00000000E+00  0.00000000E+00  0.00000000E+00
  0.00000000E+00  0.00000000E+00  0.00000000E+00
  0.00000000E+00  0.00000000E+00  0.00000000E+00
  0.00000000E+00  0.00000000E+00  0.00000000E+00
  0.00000000E+00  0.00000000E+00  0.00000000E+00
  0.00000000E+00  0.00000000E+00  0.00000000E+00
  0.00000000E+00  0.00000000E+00  0.00000000E+00
  0.00000000E+00  0.00000000E+00  0.00000000E+00
  0.00000000E+00  0.00000000E+00  0.00000000E+00
  0.00000000E+00  0.00000000E+00  0.00000000E+00
  0.00000000E+00  0.00000000E+00  0.00000000E+00
  0.00000000E+00  0.00000000E+00  0.00000000E+00
  0.00000000E+00  0.00000000E+00  0.00000000E+00
  0.00000000E+00  0.00000000E+00  0.00000000E+00
  0.00000000E+00  0.00000000E+00  0.00000000E+00
  0.00000000E+00  0.00000000E+00  0.00000000E+00
  0.00000000E+00  0.00000000E+00  0.00000000E+00
  0.00000000E+00  0.00000000E+00  0.00000000E+00
  0.00000000E+00  0.00000000E+00  0.00000000E+00
  0.00000000E+00  0.00000000E+00  0.00000000E+00
  0.00000000E+00  0.00000000E+00  0.00000000E+00
  0.00000000E+00  0.00000000E+00  0.00000000E+00
  0.00000000E+00  0.00000000E+00  0.00000000E+00
  0.00000000E+00  0.00000000E+00  0.00000000E+00
  0.00000000E+00  0.00000000E+00  0.00000000E+00
  0.00000000E+00  0.00000000E+00  0.00000000E+00
  0.00000000E+00  0.00000000E+00  0.00000000E+00
  0.00000000E+00  0.00000000E+00  0.00000000E+00
  0.00000000E+00  0.00000000E+00  0.00000000E+00
  0.00000000E+00  0.00000000E+00  0.00000000E+00
  0.00000000E+00  0.00000000E+00  0.00000000E+00
  0.00000000E+00  0.00000000E+00  0.00000000E+00
  0.00000000E+00  0.00000000E+00  0.00000000E+00
  0.00000000E+00  0.00000000E+00  0.00000000E+00
  0.00000000E+00  0.00000000E+00  0.00000000E+00
  0.00000000E+00  0.00000000E+00  0.00000000E+00
  0.00000000E+00  0.00000000E+00  0.00000000E+00
  0.00000000E+00  0.00000000E+00  0.00000000E+00
  0.00000000E+00  0.00000000E+00  0.00000000E+00
  0.00000000E+00  0.00000000E+00  0.00000000E+00
  0.00000000E+00  0.00000000E+00  0.00000000E+00
  0.00000000E+00  0.00000000E+00  0.00000000E+00
  0.00000000E+00  0.00000000E+00  0.00000000E+00
  0.00000000E+00  0.00000000E+00  0.00000000E+00
  0.00000000E+00  0.00000000E+00  0.00000000E+00
  0.00000000E+00  0.00000000E+00  0.00000000E+00
  0.00000000E+00  0.00000000E+00  0.00000000E+00
  0.00000000E+00  0.00000000E+00  0.00000000E+00
  0.00000000E+00  0.00000000E+00  0.00000000E+00
  0.00000000E+00  0.00000000E+00  0.00000000E+00
  0.00000000E+00  0.00000000E+00  0.00000000E+00
  0.00000000E+00  0.00000000E+00  0.00000000E+00
  0.00000000E+00  0.00000000E+00  0.00000000E+00
  0.00000000E+00  0.00000000E+00  0.00000000E+00
  0.00000000E+00  0.00000000E+00  0.00000000E+00
  0.00000000E+00  0.00000000E+00  0.00000000E+00
  0.00000000E+00  0.00000000E+00  0.00000000E+00
  0.00000000E+00  0.00000000E+00  0.00000000E+00
  0.00000000E+00  0.00000000E+00  0.00000000E+00
  0.00000000E+00  0.00000000E+00  0.00000000E+00
  0.00000000E+00  0.00000000E+00  0.00000000E+00
  0.00000000E+00  0.00000000E+00  0.00000000E+00
  0.00000000E+00  0.00000000E+00  0.00000000E+00
  0.00000000E+00  0.00000000E+00  0.00000000E+00
  0.00000000E+00  0.00000000E+00  0.00000000E+00
  0.00000000E+00  0.00000000E+00  0.00000000E+00
  0.00000000E+00  0.00000000E+00  0.00000000E+00
  0.00000000E+00  0.00000000E+00  0.00000000E+00
  0.00000000E+00  0.00000000E+00  0.00000000E+00
  0.00000000E+00  0.00000000E+00  0.00000000E+00
  0.00000000E+00  0.00000000E+00  0.00000000E+00
