Os1 C124 N2 O1                          
   1.00000000000000     
    19.8101836150391186   -0.0167219989959965   -0.0423940062357660
    -9.9198770824015732   17.0328472781582505   -0.0377343087080888
    -0.0639463975795645   -0.1033483564523988   29.8364456464315069
   Os   C    N    O 
     1   124     2     1
Direct
  0.4384141271985043  0.5008816780709485  0.4306373258104420
  0.0424880675378965  0.0845510237272789  0.3997289946668739
  0.0416212866488741  0.2086598526878988  0.3993544995535129
  0.0406689380306598  0.3330926422351011  0.3991012904064449
  0.0404495480351763  0.4583199673054665  0.3994262159610663
  0.0413262681341827  0.5838440003241961  0.3997976464379612
  0.0420928036183321  0.7093032717509026  0.3999014793098896
  0.0423863075191087  0.8345658557856239  0.4001065433274078
  0.0425618711980175  0.9597808524357415  0.4000033658471343
  0.1684023534684925  0.0861047008984408  0.4000025449200643
  0.1684425096813330  0.2112327192576553  0.3998855119744829
  0.1662495762249498  0.3344756301825668  0.3989708805182036
  0.1641473818900930  0.4587351094422850  0.3984649758437960
  0.1651140745587514  0.5838876786785003  0.3992664190334033
  0.1663334093994909  0.7091575411935720  0.3997901477610362
  0.1670439014219693  0.8345784584454243  0.3998089093677282
  0.1675824535849585  0.9601415871411093  0.3999820331357103
  0.2927708199529379  0.0856798840107867  0.4001318342079592
  0.2946155599869947  0.2129876266190139  0.4015633167190463
  0.2949156602820379  0.3395398574361019  0.4024964814119654
  0.2879612286060238  0.4601599816110226  0.4001593375395415
  0.2886676875686774  0.5841030454270068  0.3998353588266336
  0.2906390857004170  0.7088477018296224  0.4000237057077694
  0.2916027533957314  0.8340997189467841  0.3997444099487785
  0.2921568447388221  0.9596587616207718  0.3996587357758754
  0.4171603353085156  0.0842225197766734  0.3997613014422225
  0.4179424570091252  0.2105844327714940  0.4007515123251392
  0.4209930521011011  0.3388197006927595  0.4039940839288404
  0.4146445453806210  0.7057615242749919  0.4013478974791237
  0.4160527687785411  0.8322697008555785  0.4000489143206086
  0.4166555269076895  0.9582718166233265  0.3995613276805423
  0.5416059810214287  0.0825389497111376  0.3996207532483048
  0.5421903508203612  0.2080028020257192  0.4000465656163716
  0.5436102213980224  0.3331330786607438  0.4007051836923204
  0.5464076783562821  0.4573646468816549  0.4009831096763309
  0.5426095094263367  0.5773468877542836  0.4032081529463033
  0.5378879572042893  0.7024460087298240  0.4027239958399296
  0.5403043210210964  0.8304748102983027  0.4006333370796676
  0.5411265087853300  0.9567929625481276  0.3998360522802460
  0.6661769926962855  0.0818906650660190  0.3998302475985841
  0.6666845705484951  0.2073302463606223  0.3997608131385095
  0.6677108611471460  0.3327863441340909  0.3997620545955486
  0.6694320663708905  0.4582031283849616  0.3987975457827085
  0.6694828403478150  0.5824930291359771  0.3978229151847913
  0.6649469845920446  0.7050770113594441  0.3992964863078283
  0.6644496029825903  0.8300323879758098  0.4001651976538918
  0.6655835429340474  0.9562149327341281  0.4000993625322527
  0.7909273270808842  0.0819372124467782  0.4000809123732550
  0.7912463636978411  0.2072302813039059  0.3999518387131895
  0.7918717825621905  0.3326458899778899  0.3997948146684605
  0.7928968500601906  0.4581572116536484  0.3995558255282594
  0.7936450700583727  0.5835671955107803  0.3989166199581505
  0.7922936832673055  0.7081212247398512  0.3988278218998667
  0.7907100841159901  0.8318889660744633  0.3994628604481250
  0.7905191781124201  0.9565926588305326  0.3998752106182499
  0.9162441815520150  0.0827361613795557  0.3999199132258913
  0.9160642232286486  0.2075164651519443  0.3999030440672341
  0.9161123347105549  0.3327176902410128  0.3998163550908940
  0.9166882035923484  0.4582522133420835  0.3998752317360765
  0.9175056609510613  0.5837909748573777  0.3998384999020442
  0.9175313686639980  0.7090321343200984  0.3997474004682687
  0.9171497491934283  0.8338505703384632  0.3998262770607691
  0.9166064317101782  0.9582884387801179  0.3999348909520794
  0.0846658497143165  0.0435817207554636  0.3998515896783877
  0.0845083439516660  0.1683105455546179  0.3995160418193613
  0.0828741529079026  0.2920113620692512  0.3989709054839355
  0.0814587254180123  0.4165089080200632  0.3988884462375917
  0.0821952849237229  0.5419187849673213  0.3994826449516506
  0.0831984560231884  0.6674072639186276  0.3998218024389338
  0.0838644968022978  0.7928633942394629  0.3999606347997093
  0.0842268425471799  0.9181841650362119  0.4000734748372972
  0.2095390472284147  0.0439148216988415  0.4000659504817002
  0.2107393947208976  0.1701772029449508  0.4004314523460345
  0.2102669864416132  0.2951268309807121  0.4000149982473974
  0.2056740802129549  0.4176264429672507  0.3985186295592337
  0.2056821365368831  0.5418911468471518  0.3988591189690529
  0.2073553214395064  0.6672997653133182  0.3996768023219400
  0.2083668958901882  0.7927300388609105  0.3997770210728860
  0.2089357925205731  0.9182094063935030  0.3998073274580891
  0.3339479368359458  0.0433178046281746  0.3997928337936078
  0.3348298363678431  0.1696983579480429  0.4008328568834376
  0.3373858873354806  0.2978456863836293  0.4033817709725863
  0.3327509724635617  0.4229840222330951  0.4042402722328552
  0.3287878838909689  0.5428377772375110  0.4013988350584535
  0.3315212340011434  0.6670275560782563  0.4005629027443774
  0.3328932603544262  0.7921115325846082  0.3999796353337457
  0.3334751814848729  0.9175455733648419  0.3995954076529785
  0.4584372921140815  0.0418436415292920  0.3995721838134714
  0.4590422590387665  0.1678680115375130  0.4001288563013490
  0.4605178027599395  0.2944577125388290  0.4015964989184631
  0.4542947677747652  0.6615198414908861  0.4036459189900583
  0.4571906878743792  0.7896066883790571  0.4005355553580822
  0.4579307694445420  0.9159025370741627  0.3997645212022300
  0.5829484315225018  0.0404422231503475  0.3997034699411217
  0.5834608522303110  0.1659814697215115  0.3997577199649446
  0.5844466373446259  0.2912669960718686  0.4001523792346400
  0.5864766055699576  0.4160314410713064  0.3997411301456849
  0.5872318850459582  0.5400040618207449  0.3992365265122425
  0.5803479729577720  0.6607411305038348  0.4015520539740039
  0.5806007706052243  0.7872544485056083  0.4011491786398886
  0.5823393413901197  0.9144641480348668  0.4001385670858485
  0.7075467022865298  0.0399748896916899  0.4000228365983062
  0.7080479209670772  0.1655108236137445  0.3998012921168976
  0.7087181797223721  0.2908959386508127  0.3997897806786915
  0.7099857093460363  0.4162035974818604  0.3993513284360967
  0.7109734502838073  0.5413458159867069  0.3982438347932006
  0.7089239776954764  0.6656680067739578  0.3983825769444438
  0.7067628240542509  0.7889712118547660  0.3995417927542342
  0.7067640645198140  0.9140758597738776  0.3999746315794572
  0.8326332737341540  0.0403784461232101  0.4000056302471800
  0.8327555385738086  0.1655528468727617  0.4000748782551242
  0.8330166619661549  0.2907742083839261  0.3998793796699385
  0.8337532417754860  0.4162184933928308  0.3998029079158346
  0.8346325506934962  0.5417484112447496  0.3995232640993147
  0.8344514339537517  0.6669924509101414  0.3991237488786951
  0.8335553917815509  0.7914864019975100  0.3993616728229142
  0.8327596378035688  0.9156656226952925  0.3997850031007660
  0.9586607324109908  0.0419332186461704  0.3998874775297832
  0.9580376215667382  0.1663058576689308  0.3997291931905451
  0.9576064608478435  0.2910760094969836  0.3996645098183554
  0.9575873364099950  0.4162833658038923  0.3997706187714665
  0.9584159408943738  0.5418278881631261  0.3998925527154993
  0.9590008767997668  0.6673639567372819  0.3998724918423741
  0.9590784818211079  0.7925999279674090  0.3999702268615187
  0.9589665726973875  0.9174347631523658  0.3999818718442532
  0.4092873511129755  0.5793515420967164  0.4066728499620125
  0.4661212539855269  0.4211207319352659  0.4066422730785959
  0.4402980505315286  0.5031222276603545  0.4883281689636692
 
  0.00000000E+00  0.00000000E+00  0.00000000E+00
  0.00000000E+00  0.00000000E+00  0.00000000E+00
  0.00000000E+00  0.00000000E+00  0.00000000E+00
  0.00000000E+00  0.00000000E+00  0.00000000E+00
  0.00000000E+00  0.00000000E+00  0.00000000E+00
  0.00000000E+00  0.00000000E+00  0.00000000E+00
  0.00000000E+00  0.00000000E+00  0.00000000E+00
  0.00000000E+00  0.00000000E+00  0.00000000E+00
  0.00000000E+00  0.00000000E+00  0.00000000E+00
  0.00000000E+00  0.00000000E+00  0.00000000E+00
  0.00000000E+00  0.00000000E+00  0.00000000E+00
  0.00000000E+00  0.00000000E+00  0.00000000E+00
  0.00000000E+00  0.00000000E+00  0.00000000E+00
  0.00000000E+00  0.00000000E+00  0.00000000E+00
  0.00000000E+00  0.00000000E+00  0.00000000E+00
  0.00000000E+00  0.00000000E+00  0.00000000E+00
  0.00000000E+00  0.00000000E+00  0.00000000E+00
  0.00000000E+00  0.00000000E+00  0.00000000E+00
  0.00000000E+00  0.00000000E+00  0.00000000E+00
  0.00000000E+00  0.00000000E+00  0.00000000E+00
  0.00000000E+00  0.00000000E+00  0.00000000E+00
  0.00000000E+00  0.00000000E+00  0.00000000E+00
  0.00000000E+00  0.00000000E+00  0.00000000E+00
  0.00000000E+00  0.00000000E+00  0.00000000E+00
  0.00000000E+00  0.00000000E+00  0.00000000E+00
  0.00000000E+00  0.00000000E+00  0.00000000E+00
  0.00000000E+00  0.00000000E+00  0.00000000E+00
  0.00000000E+00  0.00000000E+00  0.00000000E+00
  0.00000000E+00  0.00000000E+00  0.00000000E+00
  0.00000000E+00  0.00000000E+00  0.00000000E+00
  0.00000000E+00  0.00000000E+00  0.00000000E+00
  0.00000000E+00  0.00000000E+00  0.00000000E+00
  0.00000000E+00  0.00000000E+00  0.00000000E+00
  0.00000000E+00  0.00000000E+00  0.00000000E+00
  0.00000000E+00  0.00000000E+00  0.00000000E+00
  0.00000000E+00  0.00000000E+00  0.00000000E+00
  0.00000000E+00  0.00000000E+00  0.00000000E+00
  0.00000000E+00  0.00000000E+00  0.00000000E+00
  0.00000000E+00  0.00000000E+00  0.00000000E+00
  0.00000000E+00  0.00000000E+00  0.00000000E+00
  0.00000000E+00  0.00000000E+00  0.00000000E+00
  0.00000000E+00  0.00000000E+00  0.00000000E+00
  0.00000000E+00  0.00000000E+00  0.00000000E+00
  0.00000000E+00  0.00000000E+00  0.00000000E+00
  0.00000000E+00  0.00000000E+00  0.00000000E+00
  0.00000000E+00  0.00000000E+00  0.00000000E+00
  0.00000000E+00  0.00000000E+00  0.00000000E+00
  0.00000000E+00  0.00000000E+00  0.00000000E+00
  0.00000000E+00  0.00000000E+00  0.00000000E+00
  0.00000000E+00  0.00000000E+00  0.00000000E+00
  0.00000000E+00  0.00000000E+00  0.00000000E+00
  0.00000000E+00  0.00000000E+00  0.00000000E+00
  0.00000000E+00  0.00000000E+00  0.00000000E+00
  0.00000000E+00  0.00000000E+00  0.00000000E+00
  0.00000000E+00  0.00000000E+00  0.00000000E+00
  0.00000000E+00  0.00000000E+00  0.00000000E+00
  0.00000000E+00  0.00000000E+00  0.00000000E+00
  0.00000000E+00  0.00000000E+00  0.00000000E+00
  0.00000000E+00  0.00000000E+00  0.00000000E+00
  0.00000000E+00  0.00000000E+00  0.00000000E+00
  0.00000000E+00  0.00000000E+00  0.00000000E+00
  0.00000000E+00  0.00000000E+00  0.00000000E+00
  0.00000000E+00  0.00000000E+00  0.00000000E+00
  0.00000000E+00  0.00000000E+00  0.00000000E+00
  0.00000000E+00  0.00000000E+00  0.00000000E+00
  0.00000000E+00  0.00000000E+00  0.00000000E+00
  0.00000000E+00  0.00000000E+00  0.00000000E+00
  0.00000000E+00  0.00000000E+00  0.00000000E+00
  0.00000000E+00  0.00000000E+00  0.00000000E+00
  0.00000000E+00  0.00000000E+00  0.00000000E+00
  0.00000000E+00  0.00000000E+00  0.00000000E+00
  0.00000000E+00  0.00000000E+00  0.00000000E+00
  0.00000000E+00  0.00000000E+00  0.00000000E+00
  0.00000000E+00  0.00000000E+00  0.00000000E+00
  0.00000000E+00  0.00000000E+00  0.00000000E+00
  0.00000000E+00  0.00000000E+00  0.00000000E+00
  0.00000000E+00  0.00000000E+00  0.00000000E+00
  0.00000000E+00  0.00000000E+00  0.00000000E+00
  0.00000000E+00  0.00000000E+00  0.00000000E+00
  0.00000000E+00  0.00000000E+00  0.00000000E+00
  0.00000000E+00  0.00000000E+00  0.00000000E+00
  0.00000000E+00  0.00000000E+00  0.00000000E+00
  0.00000000E+00  0.00000000E+00  0.00000000E+00
  0.00000000E+00  0.00000000E+00  0.00000000E+00
  0.00000000E+00  0.00000000E+00  0.00000000E+00
  0.00000000E+00  0.00000000E+00  0.00000000E+00
  0.00000000E+00  0.00000000E+00  0.00000000E+00
  0.00000000E+00  0.00000000E+00  0.00000000E+00
  0.00000000E+00  0.00000000E+00  0.00000000E+00
  0.00000000E+00  0.00000000E+00  0.00000000E+00
  0.00000000E+00  0.00000000E+00  0.00000000E+00
  0.00000000E+00  0.00000000E+00  0.00000000E+00
  0.00000000E+00  0.00000000E+00  0.00000000E+00
  0.00000000E+00  0.00000000E+00  0.00000000E+00
  0.00000000E+00  0.00000000E+00  0.00000000E+00
  0.00000000E+00  0.00000000E+00  0.00000000E+00
  0.00000000E+00  0.00000000E+00  0.00000000E+00
  0.00000000E+00  0.00000000E+00  0.00000000E+00
  0.00000000E+00  0.00000000E+00  0.00000000E+00
  0.00000000E+00  0.00000000E+00  0.00000000E+00
  0.00000000E+00  0.00000000E+00  0.00000000E+00
  0.00000000E+00  0.00000000E+00  0.00000000E+00
  0.00000000E+00  0.00000000E+00  0.00000000E+00
  0.00000000E+00  0.00000000E+00  0.00000000E+00
  0.00000000E+00  0.00000000E+00  0.00000000E+00
  0.00000000E+00  0.00000000E+00  0.00000000E+00
  0.00000000E+00  0.00000000E+00  0.00000000E+00
  0.00000000E+00  0.00000000E+00  0.00000000E+00
  0.00000000E+00  0.00000000E+00  0.00000000E+00
  0.00000000E+00  0.00000000E+00  0.00000000E+00
  0.00000000E+00  0.00000000E+00  0.00000000E+00
  0.00000000E+00  0.00000000E+00  0.00000000E+00
  0.00000000E+00  0.00000000E+00  0.00000000E+00
  0.00000000E+00  0.00000000E+00  0.00000000E+00
  0.00000000E+00  0.00000000E+00  0.00000000E+00
  0.00000000E+00  0.00000000E+00  0.00000000E+00
  0.00000000E+00  0.00000000E+00  0.00000000E+00
  0.00000000E+00  0.00000000E+00  0.00000000E+00
  0.00000000E+00  0.00000000E+00  0.00000000E+00
  0.00000000E+00  0.00000000E+00  0.00000000E+00
  0.00000000E+00  0.00000000E+00  0.00000000E+00
  0.00000000E+00  0.00000000E+00  0.00000000E+00
  0.00000000E+00  0.00000000E+00  0.00000000E+00
  0.00000000E+00  0.00000000E+00  0.00000000E+00
  0.00000000E+00  0.00000000E+00  0.00000000E+00
  0.00000000E+00  0.00000000E+00  0.00000000E+00
  0.00000000E+00  0.00000000E+00  0.00000000E+00
  0.00000000E+00  0.00000000E+00  0.00000000E+00
