V1 C125 N1                              
   1.00000000000000     
    19.8232911617591512   -0.0096481553555910    0.0049294234070227
    -9.9200565929297486   17.0673869788010286   -0.0027067410409988
     0.0074911176368197   -0.0003869290133776   29.7496728315743084
   V    C    N 
     1   125     1
Direct
  0.4388208084540183  0.5004209040770481  0.4278143167313702
  0.0418460602737445  0.0838823457693006  0.3998456037936771
  0.0411629973411020  0.2082352380087973  0.3996993367473881
  0.0406748724061931  0.3329027868868125  0.3997105803180449
  0.0406286260874171  0.4582813053312507  0.3997725479903657
  0.0412777588646597  0.5836661552505074  0.3998762121907007
  0.0418748613948722  0.7089133631685224  0.3999551108241979
  0.0421557532646455  0.8341612837852396  0.3999614332806645
  0.0421779457855087  0.9591946283070639  0.3999381869091623
  0.1673972775913225  0.0848288051635189  0.3999399169480515
  0.1670530133395825  0.2095807112889478  0.3997971394422443
  0.1658265687984097  0.3338167638769172  0.3997313529409001
  0.1643548408554697  0.4584188994562491  0.3996589984103822
  0.1651587952590514  0.5836502592195589  0.3995929174790556
  0.1662112448572455  0.7089579372546363  0.3998311801930496
  0.1668356853474035  0.8341990416257082  0.3999855969604595
  0.1671691253060441  0.9594497417204868  0.4000255211239801
  0.2923601288676919  0.0847057208217378  0.3999130395786809
  0.2931630122205316  0.2111268249010159  0.4003391484003793
  0.2925942936923845  0.3368988508693962  0.4015432424045773
  0.2885143914594746  0.4588297463526206  0.4019223444813602
  0.2887386957507086  0.5844158617594061  0.4001134292385377
  0.2905753300540718  0.7091485726356151  0.3996826211944953
  0.2914574395018947  0.8340100736669760  0.3998058115783887
  0.2918235190552304  0.9590969399723577  0.3999272917856961
  0.4169357495791650  0.0835449700218626  0.3997983038351403
  0.4174852436573060  0.2089594401883007  0.3997024371701146
  0.4194676820122122  0.3358692061979907  0.4019367729279657
  0.4148125629336806  0.7073038814831887  0.4004198613126859
  0.4161078306900803  0.8329567411073973  0.3996535467738271
  0.4165350376419238  0.9582319712734531  0.3998387156505134
  0.5416090241158266  0.0825914976220069  0.3998714451880925
  0.5421133079379493  0.2077098586675125  0.3997280802824189
  0.5431089869280220  0.3327720882984383  0.4000938130568534
  0.5454974224505307  0.4571458162733210  0.4021514788151969
  0.5449850049234991  0.5805197445610906  0.4026525985902407
  0.5387397948478164  0.7039115416520658  0.4016760176961043
  0.5404901228536261  0.8313744584448687  0.4001785860930653
  0.5412466062358459  0.9572811614095801  0.3998990472442763
  0.6663120252835595  0.0822723674698120  0.4000007448904978
  0.6667503587384584  0.2074757279854328  0.3998874033908710
  0.6674343146011390  0.3325774261705270  0.3998329351007836
  0.6692539572075624  0.4579868173123244  0.4000784873797291
  0.6702981808585002  0.5836983634165143  0.4000257152044694
  0.6665547751524172  0.7069920016422284  0.3997241575039715
  0.6651378379187584  0.8310294335521470  0.4000542307608927
  0.6658800744289600  0.9568892688292890  0.4000595286061487
  0.7910686464560565  0.0823131317250808  0.3999817308590444
  0.7913211617430626  0.2074420328955724  0.3999881200095768
  0.7918828080557722  0.3327414070334798  0.3998875536983670
  0.7928627365822433  0.4581775331733348  0.3998004327943128
  0.7935097704563102  0.5835197037889394  0.3998286838433163
  0.7929090312810773  0.7088083609118594  0.3996309186156115
  0.7914836225563689  0.8328512870800123  0.3997311904957654
  0.7908223725697064  0.9571865209929653  0.3999168383111282
  0.9161459055062450  0.0827895261732465  0.3998845041084626
  0.9160557965608963  0.2076659675660068  0.3998922936973145
  0.9161835607533478  0.3328091847059873  0.3999288655805694
  0.9166787489497989  0.4581416668451535  0.3998760211208510
  0.9173916815039241  0.5836177161712164  0.3998672202949065
  0.9175067466948076  0.7089666737569682  0.3998344511720786
  0.9172665630997751  0.8338975165705238  0.3998254486401249
  0.9166085324053346  0.9583266848704979  0.3998851397619291
  0.0839016039459324  0.0427066689317018  0.3999000340648320
  0.0834872166166957  0.1672882548744561  0.3997323970569368
  0.0824667120171013  0.2915951188953595  0.3996114535887616
  0.0817675627896330  0.4165250625759234  0.3996501355684515
  0.0822559214836032  0.5417914354453385  0.3997464255666615
  0.0831053821538612  0.6671776874188430  0.3999047333946633
  0.0836459037666372  0.7925028257825926  0.3999813906989641
  0.0838269213711048  0.9176590031544484  0.3999898097504951
  0.2089167789586304  0.0429362915658261  0.3999938587317343
  0.2091922334911085  0.1684940480127123  0.3999933694207129
  0.2086634029936305  0.2933004410041885  0.3999879444425750
  0.2057538221854228  0.4171184126911209  0.4000616781048050
  0.2058972816750927  0.5418936391500346  0.3995846043509834
  0.2074701445144022  0.6672801625713192  0.3996766227699134
  0.2082309581462951  0.7924242131165995  0.3998920933949970
  0.2086419510294359  0.9176313884232495  0.3999953438879870
  0.3336640322091659  0.0425337350624964  0.3998700243905319
  0.3342836812074544  0.1682632481878738  0.3999505293791553
  0.3350170772300196  0.2946342878659411  0.4015774725144746
  0.3311468534887272  0.4199463056837274  0.4036788353530139
  0.3303363905968634  0.5441329332087143  0.4024110546933710
  0.3316913268845915  0.6674064468887978  0.4000215175998713
  0.3329002433782575  0.7923023969812329  0.3996804666946475
  0.3333427283269537  0.9172977613242996  0.3998591105481835
  0.4584283377886101  0.0415974422476674  0.3998673850306612
  0.4587959537715252  0.1668167890176897  0.3996697296735819
  0.4597448473820209  0.2924157780232536  0.4000814677528892
  0.4640242793730408  0.4184260380982586  0.4046754583808440
  0.4539564129387213  0.6629252328920829  0.4024541173604285
  0.4574358173377792  0.7908012027977409  0.3998861505186199
  0.4579839603534090  0.9162599277546363  0.3997720051581192
  0.5831191789574276  0.0407740503425996  0.3999409848977431
  0.5835170119797743  0.1659436512768470  0.3998189762744913
  0.5843218006918675  0.2909223733523777  0.3998095777690497
  0.5864579499479092  0.4158332061915849  0.4005434031471631
  0.5881078451826618  0.5422441363882912  0.4013787374805748
  0.5824516300715793  0.6629858300745711  0.4010644010988889
  0.5809004690972354  0.7879801813104600  0.4005445838853409
  0.5825333676460123  0.9150860012749547  0.4000276368187021
  0.7077496676730355  0.0404590925093481  0.4000324956984618
  0.7081771861113674  0.1657552034806499  0.3999757464232856
  0.7087251868273482  0.2909095411950504  0.3998528998569969
  0.7099722728109262  0.4162683604485707  0.3998391596426460
  0.7110781627307627  0.5417063840230101  0.4000135287637696
  0.7097320031020925  0.6668154951681463  0.3996300072942383
  0.7078350047552621  0.7904791340886064  0.3997458924000622
  0.7071568352673421  0.9148098542754448  0.3999996017419282
  0.8326773999524946  0.0407820801626549  0.3999340308540200
  0.8327968536678363  0.1658142531486341  0.3999680978107841
  0.8331477444575353  0.2910326488352526  0.3999515782532851
  0.8338259461563152  0.4163171202960170  0.3998469208553836
  0.8345661170184068  0.5417010736758278  0.3998211645214892
  0.8344949982459856  0.6672419231068253  0.3997496663823713
  0.8339757023561877  0.7920406102554052  0.3996991703602485
  0.8330472236443688  0.9162034926696079  0.3998667166714949
  0.9582947662794765  0.0417729779872435  0.3998781846393320
  0.9578031692320527  0.1662484220258877  0.3998260234836973
  0.9575872707713240  0.2911169652390356  0.3998638222156942
  0.9577329122366761  0.4163472311995420  0.3998894092618990
  0.9584339769415277  0.5418247541060662  0.3998836247069879
  0.9588785426787404  0.6671946669771001  0.3999030452056885
  0.9589474671914477  0.7924000471134821  0.3998726464752188
  0.9587701727263644  0.9172940547926908  0.3998890259236109
  0.4093997921847126  0.5824715443502014  0.4053788179204947
 
  0.00000000E+00  0.00000000E+00  0.00000000E+00
  0.00000000E+00  0.00000000E+00  0.00000000E+00
  0.00000000E+00  0.00000000E+00  0.00000000E+00
  0.00000000E+00  0.00000000E+00  0.00000000E+00
  0.00000000E+00  0.00000000E+00  0.00000000E+00
  0.00000000E+00  0.00000000E+00  0.00000000E+00
  0.00000000E+00  0.00000000E+00  0.00000000E+00
  0.00000000E+00  0.00000000E+00  0.00000000E+00
  0.00000000E+00  0.00000000E+00  0.00000000E+00
  0.00000000E+00  0.00000000E+00  0.00000000E+00
  0.00000000E+00  0.00000000E+00  0.00000000E+00
  0.00000000E+00  0.00000000E+00  0.00000000E+00
  0.00000000E+00  0.00000000E+00  0.00000000E+00
  0.00000000E+00  0.00000000E+00  0.00000000E+00
  0.00000000E+00  0.00000000E+00  0.00000000E+00
  0.00000000E+00  0.00000000E+00  0.00000000E+00
  0.00000000E+00  0.00000000E+00  0.00000000E+00
  0.00000000E+00  0.00000000E+00  0.00000000E+00
  0.00000000E+00  0.00000000E+00  0.00000000E+00
  0.00000000E+00  0.00000000E+00  0.00000000E+00
  0.00000000E+00  0.00000000E+00  0.00000000E+00
  0.00000000E+00  0.00000000E+00  0.00000000E+00
  0.00000000E+00  0.00000000E+00  0.00000000E+00
  0.00000000E+00  0.00000000E+00  0.00000000E+00
  0.00000000E+00  0.00000000E+00  0.00000000E+00
  0.00000000E+00  0.00000000E+00  0.00000000E+00
  0.00000000E+00  0.00000000E+00  0.00000000E+00
  0.00000000E+00  0.00000000E+00  0.00000000E+00
  0.00000000E+00  0.00000000E+00  0.00000000E+00
  0.00000000E+00  0.00000000E+00  0.00000000E+00
  0.00000000E+00  0.00000000E+00  0.00000000E+00
  0.00000000E+00  0.00000000E+00  0.00000000E+00
  0.00000000E+00  0.00000000E+00  0.00000000E+00
  0.00000000E+00  0.00000000E+00  0.00000000E+00
  0.00000000E+00  0.00000000E+00  0.00000000E+00
  0.00000000E+00  0.00000000E+00  0.00000000E+00
  0.00000000E+00  0.00000000E+00  0.00000000E+00
  0.00000000E+00  0.00000000E+00  0.00000000E+00
  0.00000000E+00  0.00000000E+00  0.00000000E+00
  0.00000000E+00  0.00000000E+00  0.00000000E+00
  0.00000000E+00  0.00000000E+00  0.00000000E+00
  0.00000000E+00  0.00000000E+00  0.00000000E+00
  0.00000000E+00  0.00000000E+00  0.00000000E+00
  0.00000000E+00  0.00000000E+00  0.00000000E+00
  0.00000000E+00  0.00000000E+00  0.00000000E+00
  0.00000000E+00  0.00000000E+00  0.00000000E+00
  0.00000000E+00  0.00000000E+00  0.00000000E+00
  0.00000000E+00  0.00000000E+00  0.00000000E+00
  0.00000000E+00  0.00000000E+00  0.00000000E+00
  0.00000000E+00  0.00000000E+00  0.00000000E+00
  0.00000000E+00  0.00000000E+00  0.00000000E+00
  0.00000000E+00  0.00000000E+00  0.00000000E+00
  0.00000000E+00  0.00000000E+00  0.00000000E+00
  0.00000000E+00  0.00000000E+00  0.00000000E+00
  0.00000000E+00  0.00000000E+00  0.00000000E+00
  0.00000000E+00  0.00000000E+00  0.00000000E+00
  0.00000000E+00  0.00000000E+00  0.00000000E+00
  0.00000000E+00  0.00000000E+00  0.00000000E+00
  0.00000000E+00  0.00000000E+00  0.00000000E+00
  0.00000000E+00  0.00000000E+00  0.00000000E+00
  0.00000000E+00  0.00000000E+00  0.00000000E+00
  0.00000000E+00  0.00000000E+00  0.00000000E+00
  0.00000000E+00  0.00000000E+00  0.00000000E+00
  0.00000000E+00  0.00000000E+00  0.00000000E+00
  0.00000000E+00  0.00000000E+00  0.00000000E+00
  0.00000000E+00  0.00000000E+00  0.00000000E+00
  0.00000000E+00  0.00000000E+00  0.00000000E+00
  0.00000000E+00  0.00000000E+00  0.00000000E+00
  0.00000000E+00  0.00000000E+00  0.00000000E+00
  0.00000000E+00  0.00000000E+00  0.00000000E+00
  0.00000000E+00  0.00000000E+00  0.00000000E+00
  0.00000000E+00  0.00000000E+00  0.00000000E+00
  0.00000000E+00  0.00000000E+00  0.00000000E+00
  0.00000000E+00  0.00000000E+00  0.00000000E+00
  0.00000000E+00  0.00000000E+00  0.00000000E+00
  0.00000000E+00  0.00000000E+00  0.00000000E+00
  0.00000000E+00  0.00000000E+00  0.00000000E+00
  0.00000000E+00  0.00000000E+00  0.00000000E+00
  0.00000000E+00  0.00000000E+00  0.00000000E+00
  0.00000000E+00  0.00000000E+00  0.00000000E+00
  0.00000000E+00  0.00000000E+00  0.00000000E+00
  0.00000000E+00  0.00000000E+00  0.00000000E+00
  0.00000000E+00  0.00000000E+00  0.00000000E+00
  0.00000000E+00  0.00000000E+00  0.00000000E+00
  0.00000000E+00  0.00000000E+00  0.00000000E+00
  0.00000000E+00  0.00000000E+00  0.00000000E+00
  0.00000000E+00  0.00000000E+00  0.00000000E+00
  0.00000000E+00  0.00000000E+00  0.00000000E+00
  0.00000000E+00  0.00000000E+00  0.00000000E+00
  0.00000000E+00  0.00000000E+00  0.00000000E+00
  0.00000000E+00  0.00000000E+00  0.00000000E+00
  0.00000000E+00  0.00000000E+00  0.00000000E+00
  0.00000000E+00  0.00000000E+00  0.00000000E+00
  0.00000000E+00  0.00000000E+00  0.00000000E+00
  0.00000000E+00  0.00000000E+00  0.00000000E+00
  0.00000000E+00  0.00000000E+00  0.00000000E+00
  0.00000000E+00  0.00000000E+00  0.00000000E+00
  0.00000000E+00  0.00000000E+00  0.00000000E+00
  0.00000000E+00  0.00000000E+00  0.00000000E+00
  0.00000000E+00  0.00000000E+00  0.00000000E+00
  0.00000000E+00  0.00000000E+00  0.00000000E+00
  0.00000000E+00  0.00000000E+00  0.00000000E+00
  0.00000000E+00  0.00000000E+00  0.00000000E+00
  0.00000000E+00  0.00000000E+00  0.00000000E+00
  0.00000000E+00  0.00000000E+00  0.00000000E+00
  0.00000000E+00  0.00000000E+00  0.00000000E+00
  0.00000000E+00  0.00000000E+00  0.00000000E+00
  0.00000000E+00  0.00000000E+00  0.00000000E+00
  0.00000000E+00  0.00000000E+00  0.00000000E+00
  0.00000000E+00  0.00000000E+00  0.00000000E+00
  0.00000000E+00  0.00000000E+00  0.00000000E+00
  0.00000000E+00  0.00000000E+00  0.00000000E+00
  0.00000000E+00  0.00000000E+00  0.00000000E+00
  0.00000000E+00  0.00000000E+00  0.00000000E+00
  0.00000000E+00  0.00000000E+00  0.00000000E+00
  0.00000000E+00  0.00000000E+00  0.00000000E+00
  0.00000000E+00  0.00000000E+00  0.00000000E+00
  0.00000000E+00  0.00000000E+00  0.00000000E+00
  0.00000000E+00  0.00000000E+00  0.00000000E+00
  0.00000000E+00  0.00000000E+00  0.00000000E+00
  0.00000000E+00  0.00000000E+00  0.00000000E+00
  0.00000000E+00  0.00000000E+00  0.00000000E+00
  0.00000000E+00  0.00000000E+00  0.00000000E+00
  0.00000000E+00  0.00000000E+00  0.00000000E+00
  0.00000000E+00  0.00000000E+00  0.00000000E+00
  0.00000000E+00  0.00000000E+00  0.00000000E+00
  0.00000000E+00  0.00000000E+00  0.00000000E+00
