Ti1 C125 N1 O1                          
   1.00000000000000     
    19.7880977547464489   -0.0066508503629203   -0.0849730963174925
    -9.8998618047691771   17.0923334499316475    0.0095795000505775
    -0.1277017083764989   -0.0574226797482770   29.7571183257712484
   Ti   C    N    O 
     1   125     1     1
Direct
  0.4392053246469700  0.5048611683458406  0.4359667475956998
  0.0418023713659015  0.0836552654056693  0.3998615216850362
  0.0414666552504188  0.2083713965817715  0.3996933981405873
  0.0412524068893015  0.3331454014494727  0.3993697938690515
  0.0412714811280058  0.4583502839954011  0.3993729427230193
  0.0415481195346703  0.5836065853491161  0.3998518028019049
  0.0419227428014284  0.7087709775945479  0.4001180511355928
  0.0421360910941417  0.8339728594101400  0.4000136248000210
  0.0421360196914619  0.9589574686259399  0.3999012107251238
  0.1671093689955354  0.0841892629886932  0.4000162788285379
  0.1667227346680289  0.2087666119853567  0.4001142392996199
  0.1665407463190998  0.3338612995788059  0.3997315897438888
  0.1657964352607055  0.4584946942513950  0.3989303624198460
  0.1658346530050332  0.5835817352967426  0.3988078695247827
  0.1664580249031415  0.7088430539877210  0.3995069574159253
  0.1668952682714373  0.8340101394388613  0.3998816253768723
  0.1671716540003330  0.9591836255277528  0.3999345376459938
  0.2921989023552043  0.0840833182772586  0.3999894889062919
  0.2925355771491431  0.2096813752306729  0.4008161715658796
  0.2919329047825183  0.3346513152791066  0.4017812459286638
  0.2914529833887703  0.4589947218718667  0.4011135120463606
  0.2898802264331969  0.5843765025234871  0.3994866718958994
  0.2909589605476187  0.7091096904987517  0.3992345012048359
  0.2916369608394738  0.8339111586278554  0.3993848367046006
  0.2918874018434385  0.9588807827071822  0.3996409041862578
  0.4169676601998318  0.0833842106902971  0.3997551442624860
  0.4171602085371856  0.2083598963028470  0.4001738334628011
  0.4180520285123305  0.3340882584439158  0.4028045129771576
  0.4154556033603779  0.7081318631427393  0.4009704381469962
  0.4163460609068685  0.8332638057175721  0.3996176053451289
  0.4166975545014954  0.9583270141662428  0.3994782625657328
  0.5417238802215290  0.0828054917249988  0.3996889312808160
  0.5420609525056252  0.2079102227352411  0.3996686559031835
  0.5424778505589102  0.3329717955895632  0.3998689164434517
  0.5430932541839210  0.4576531314835507  0.4019335525535527
  0.5466078744952716  0.5834316087295220  0.4080872930742769
  0.5399150645690027  0.7054555500354218  0.4043712910212051
  0.5409090698366552  0.8320338015209772  0.4007648525250196
  0.5414657699582387  0.9575621299550258  0.3996545616104341
  0.6664610769981935  0.0825229693314141  0.3997469988043349
  0.6667849259241685  0.2077543728307883  0.3998774323356186
  0.6671398166078807  0.3328825799996313  0.3993998990851581
  0.6679329912243956  0.4581246508339817  0.3984535193850117
  0.6692045341926546  0.5837769693042612  0.3981723244795288
  0.6672250909463269  0.7079480587884096  0.3999045873412475
  0.6657587067584766  0.8317329576683378  0.4004864793399839
  0.6662037538858417  0.9572677942571357  0.3999841330704978
  0.7913470540166471  0.0825700062315627  0.3997857848607391
  0.7914874347809768  0.2076652917554531  0.3999428895283386
  0.7918512928881145  0.3329301852942450  0.4000228973362799
  0.7923671301657479  0.4582649354695780  0.3993640911314065
  0.7928750243850107  0.5834750946520286  0.3981918225934392
  0.7927381807403437  0.7087552173536655  0.3982109553048709
  0.7918897557940474  0.8332102970023124  0.3989968644162560
  0.7911478756577236  0.9574933314290097  0.3996387072190923
  0.9164408332220514  0.0829813591276075  0.3997982825288335
  0.9163808599297052  0.2079304908296407  0.3997681848887794
  0.9164630459310423  0.3329997397454518  0.3998785883899300
  0.9167716584346356  0.4582040593496979  0.4000601329502048
  0.9172056035091694  0.5835496391846402  0.3998334491611810
  0.9173735799900200  0.7088629215789385  0.3993484272897367
  0.9172280066696727  0.8337895617689707  0.3993075086533915
  0.9167915922083588  0.9583999987870278  0.3995628755836266
  0.0837437463837062  0.0423256057011769  0.3999261477114658
  0.0833283840635508  0.1669309938036769  0.3998436835429642
  0.0829710686962706  0.2917810390858266  0.3994672979499794
  0.0828047666296470  0.4167170052870955  0.3991053000842719
  0.0827808934287635  0.5417862248185874  0.3992916985756804
  0.0832871476889272  0.6670498630849884  0.3998936220974532
  0.0836825101291497  0.7923110472521052  0.4000977036363861
  0.0838131264269400  0.9174109806589936  0.3999782141952591
  0.2088039769307269  0.0424648415565387  0.3999841277341938
  0.2086801247505718  0.1675415593823273  0.4002677408352092
  0.2082182875381451  0.2922216751917038  0.4003179287329847
  0.2075991476601800  0.4172309326621546  0.3996258760413620
  0.2069646738187919  0.5419421111688578  0.3986865817401385
  0.2078327119441144  0.6671816135749740  0.3990686168463327
  0.2083602203101361  0.7922703082109857  0.3995961855029995
  0.2086915212459904  0.9173836544300555  0.3998027707908112
  0.3336504045681409  0.0421743579358187  0.3997709750755205
  0.3340175493138868  0.1673548607287147  0.4003471558342049
  0.3340197289409206  0.2924633146753371  0.4021702700983337
  0.3306288644796336  0.4164135265252014  0.4034354172741018
  0.3326260557815615  0.5447928659862805  0.4018106006702574
  0.3323106417042666  0.6674679152081896  0.3998181523972665
  0.3331073601038058  0.7922604800222024  0.3993632313915352
  0.3334772280301618  0.9171650562214141  0.3994750799762374
  0.4585321507531095  0.0415883129553414  0.3996274861395734
  0.4587554779540782  0.1665784453481128  0.3998054398614707
  0.4591663755013287  0.2916312341413793  0.4006915630711625
  0.4616583831189584  0.4156389360885918  0.4059566121085737
  0.4551221707900106  0.6645228914691651  0.4040187635014330
  0.4578199789052412  0.7913859120458872  0.4003444216836273
  0.4581797015730705  0.9164566771963747  0.3995273413188306
  0.5832368685021795  0.0409553109045004  0.3996519359464573
  0.5835156690531864  0.1661624347877536  0.3997650023507410
  0.5839936894953135  0.2912134178594476  0.3994202044212597
  0.5847788020826642  0.4161202014250278  0.3996495972664903
  0.5867749002843492  0.5430517835809889  0.4020091598486460
  0.5838964389147934  0.6649961395249470  0.4042187331207245
  0.5816124107677487  0.7889761071517275  0.4018188675184908
  0.5828376464610762  0.9155171920951030  0.4000475342372639
  0.7079611808923323  0.0406923071279195  0.3997853965134445
  0.7082526849838662  0.1659784793816534  0.3998706057234989
  0.7085878491129473  0.2911775576614825  0.3998561391372097
  0.7091698617611359  0.4164949107866552  0.3989419031321700
  0.7100912469765300  0.5418013777887141  0.3977111558364733
  0.7095504907033268  0.6669381997255439  0.3984140759427814
  0.7083972960878367  0.7911577168415062  0.3995132270835224
  0.7075740315872273  0.9153001053314892  0.3999725102617704
  0.8329492595787755  0.0409628633160228  0.3997470975829301
  0.8330499564919707  0.1660375201707463  0.3998396545131862
  0.8332830407706524  0.2912258608465376  0.4000373302390687
  0.8336595447328280  0.4164423609837273  0.3999432435329914
  0.8341359526435423  0.5416810604223367  0.3991605398033505
  0.8342571636934791  0.6671220435894091  0.3984264102065622
  0.8339998977323575  0.7920225117466411  0.3987417188606940
  0.8333468697284144  0.9164361346148189  0.3994031412655099
  0.9583780733693116  0.0417432337193827  0.3997636412902841
  0.9581189826772405  0.1664369926693411  0.3997656437189577
  0.9580092216954714  0.2913440456628982  0.3996651395084090
  0.9581131741434563  0.4164689492375524  0.3998529368252079
  0.9585141535374412  0.5418174711533752  0.4000810401345863
  0.9588095923061029  0.6670746185766537  0.3998706767011895
  0.9589299878712015  0.7922467417721824  0.3996300717101943
  0.9587510395844517  0.9171331073582695  0.3996243226961014
  0.4113549752106412  0.5847193830075000  0.4057670187764252
  0.4414929950289464  0.5111896591189978  0.4916937448537698
 
  0.00000000E+00  0.00000000E+00  0.00000000E+00
  0.00000000E+00  0.00000000E+00  0.00000000E+00
  0.00000000E+00  0.00000000E+00  0.00000000E+00
  0.00000000E+00  0.00000000E+00  0.00000000E+00
  0.00000000E+00  0.00000000E+00  0.00000000E+00
  0.00000000E+00  0.00000000E+00  0.00000000E+00
  0.00000000E+00  0.00000000E+00  0.00000000E+00
  0.00000000E+00  0.00000000E+00  0.00000000E+00
  0.00000000E+00  0.00000000E+00  0.00000000E+00
  0.00000000E+00  0.00000000E+00  0.00000000E+00
  0.00000000E+00  0.00000000E+00  0.00000000E+00
  0.00000000E+00  0.00000000E+00  0.00000000E+00
  0.00000000E+00  0.00000000E+00  0.00000000E+00
  0.00000000E+00  0.00000000E+00  0.00000000E+00
  0.00000000E+00  0.00000000E+00  0.00000000E+00
  0.00000000E+00  0.00000000E+00  0.00000000E+00
  0.00000000E+00  0.00000000E+00  0.00000000E+00
  0.00000000E+00  0.00000000E+00  0.00000000E+00
  0.00000000E+00  0.00000000E+00  0.00000000E+00
  0.00000000E+00  0.00000000E+00  0.00000000E+00
  0.00000000E+00  0.00000000E+00  0.00000000E+00
  0.00000000E+00  0.00000000E+00  0.00000000E+00
  0.00000000E+00  0.00000000E+00  0.00000000E+00
  0.00000000E+00  0.00000000E+00  0.00000000E+00
  0.00000000E+00  0.00000000E+00  0.00000000E+00
  0.00000000E+00  0.00000000E+00  0.00000000E+00
  0.00000000E+00  0.00000000E+00  0.00000000E+00
  0.00000000E+00  0.00000000E+00  0.00000000E+00
  0.00000000E+00  0.00000000E+00  0.00000000E+00
  0.00000000E+00  0.00000000E+00  0.00000000E+00
  0.00000000E+00  0.00000000E+00  0.00000000E+00
  0.00000000E+00  0.00000000E+00  0.00000000E+00
  0.00000000E+00  0.00000000E+00  0.00000000E+00
  0.00000000E+00  0.00000000E+00  0.00000000E+00
  0.00000000E+00  0.00000000E+00  0.00000000E+00
  0.00000000E+00  0.00000000E+00  0.00000000E+00
  0.00000000E+00  0.00000000E+00  0.00000000E+00
  0.00000000E+00  0.00000000E+00  0.00000000E+00
  0.00000000E+00  0.00000000E+00  0.00000000E+00
  0.00000000E+00  0.00000000E+00  0.00000000E+00
  0.00000000E+00  0.00000000E+00  0.00000000E+00
  0.00000000E+00  0.00000000E+00  0.00000000E+00
  0.00000000E+00  0.00000000E+00  0.00000000E+00
  0.00000000E+00  0.00000000E+00  0.00000000E+00
  0.00000000E+00  0.00000000E+00  0.00000000E+00
  0.00000000E+00  0.00000000E+00  0.00000000E+00
  0.00000000E+00  0.00000000E+00  0.00000000E+00
  0.00000000E+00  0.00000000E+00  0.00000000E+00
  0.00000000E+00  0.00000000E+00  0.00000000E+00
  0.00000000E+00  0.00000000E+00  0.00000000E+00
  0.00000000E+00  0.00000000E+00  0.00000000E+00
  0.00000000E+00  0.00000000E+00  0.00000000E+00
  0.00000000E+00  0.00000000E+00  0.00000000E+00
  0.00000000E+00  0.00000000E+00  0.00000000E+00
  0.00000000E+00  0.00000000E+00  0.00000000E+00
  0.00000000E+00  0.00000000E+00  0.00000000E+00
  0.00000000E+00  0.00000000E+00  0.00000000E+00
  0.00000000E+00  0.00000000E+00  0.00000000E+00
  0.00000000E+00  0.00000000E+00  0.00000000E+00
  0.00000000E+00  0.00000000E+00  0.00000000E+00
  0.00000000E+00  0.00000000E+00  0.00000000E+00
  0.00000000E+00  0.00000000E+00  0.00000000E+00
  0.00000000E+00  0.00000000E+00  0.00000000E+00
  0.00000000E+00  0.00000000E+00  0.00000000E+00
  0.00000000E+00  0.00000000E+00  0.00000000E+00
  0.00000000E+00  0.00000000E+00  0.00000000E+00
  0.00000000E+00  0.00000000E+00  0.00000000E+00
  0.00000000E+00  0.00000000E+00  0.00000000E+00
  0.00000000E+00  0.00000000E+00  0.00000000E+00
  0.00000000E+00  0.00000000E+00  0.00000000E+00
  0.00000000E+00  0.00000000E+00  0.00000000E+00
  0.00000000E+00  0.00000000E+00  0.00000000E+00
  0.00000000E+00  0.00000000E+00  0.00000000E+00
  0.00000000E+00  0.00000000E+00  0.00000000E+00
  0.00000000E+00  0.00000000E+00  0.00000000E+00
  0.00000000E+00  0.00000000E+00  0.00000000E+00
  0.00000000E+00  0.00000000E+00  0.00000000E+00
  0.00000000E+00  0.00000000E+00  0.00000000E+00
  0.00000000E+00  0.00000000E+00  0.00000000E+00
  0.00000000E+00  0.00000000E+00  0.00000000E+00
  0.00000000E+00  0.00000000E+00  0.00000000E+00
  0.00000000E+00  0.00000000E+00  0.00000000E+00
  0.00000000E+00  0.00000000E+00  0.00000000E+00
  0.00000000E+00  0.00000000E+00  0.00000000E+00
  0.00000000E+00  0.00000000E+00  0.00000000E+00
  0.00000000E+00  0.00000000E+00  0.00000000E+00
  0.00000000E+00  0.00000000E+00  0.00000000E+00
  0.00000000E+00  0.00000000E+00  0.00000000E+00
  0.00000000E+00  0.00000000E+00  0.00000000E+00
  0.00000000E+00  0.00000000E+00  0.00000000E+00
  0.00000000E+00  0.00000000E+00  0.00000000E+00
  0.00000000E+00  0.00000000E+00  0.00000000E+00
  0.00000000E+00  0.00000000E+00  0.00000000E+00
  0.00000000E+00  0.00000000E+00  0.00000000E+00
  0.00000000E+00  0.00000000E+00  0.00000000E+00
  0.00000000E+00  0.00000000E+00  0.00000000E+00
  0.00000000E+00  0.00000000E+00  0.00000000E+00
  0.00000000E+00  0.00000000E+00  0.00000000E+00
  0.00000000E+00  0.00000000E+00  0.00000000E+00
  0.00000000E+00  0.00000000E+00  0.00000000E+00
  0.00000000E+00  0.00000000E+00  0.00000000E+00
  0.00000000E+00  0.00000000E+00  0.00000000E+00
  0.00000000E+00  0.00000000E+00  0.00000000E+00
  0.00000000E+00  0.00000000E+00  0.00000000E+00
  0.00000000E+00  0.00000000E+00  0.00000000E+00
  0.00000000E+00  0.00000000E+00  0.00000000E+00
  0.00000000E+00  0.00000000E+00  0.00000000E+00
  0.00000000E+00  0.00000000E+00  0.00000000E+00
  0.00000000E+00  0.00000000E+00  0.00000000E+00
  0.00000000E+00  0.00000000E+00  0.00000000E+00
  0.00000000E+00  0.00000000E+00  0.00000000E+00
  0.00000000E+00  0.00000000E+00  0.00000000E+00
  0.00000000E+00  0.00000000E+00  0.00000000E+00
  0.00000000E+00  0.00000000E+00  0.00000000E+00
  0.00000000E+00  0.00000000E+00  0.00000000E+00
  0.00000000E+00  0.00000000E+00  0.00000000E+00
  0.00000000E+00  0.00000000E+00  0.00000000E+00
  0.00000000E+00  0.00000000E+00  0.00000000E+00
  0.00000000E+00  0.00000000E+00  0.00000000E+00
  0.00000000E+00  0.00000000E+00  0.00000000E+00
  0.00000000E+00  0.00000000E+00  0.00000000E+00
  0.00000000E+00  0.00000000E+00  0.00000000E+00
  0.00000000E+00  0.00000000E+00  0.00000000E+00
  0.00000000E+00  0.00000000E+00  0.00000000E+00
  0.00000000E+00  0.00000000E+00  0.00000000E+00
  0.00000000E+00  0.00000000E+00  0.00000000E+00
  0.00000000E+00  0.00000000E+00  0.00000000E+00
  0.00000000E+00  0.00000000E+00  0.00000000E+00
