Pt1 C122 N4                             
   1.00000000000000     
    19.8494619949508966   -0.0000425118697166    0.0035086795083869
    -9.9247670382256370   17.0196846639907768   -0.0016759833205515
     0.0052479031012507    0.0001359397481514   29.7853297601913383
   Pt   C    N 
     1   122     4
Direct
  0.4374860162621251  0.4999997446152647  0.4058623331626991
  0.0421217017326153  0.0843356703704496  0.4000185215867660
  0.0407052625972761  0.2080642549331125  0.4001267391272013
  0.0396365051291804  0.3327160782917400  0.3998231965701676
  0.0397991114797218  0.4581621556536137  0.3992944852979481
  0.0410847530829788  0.5839188549898560  0.3991237167394356
  0.0422927746225830  0.7095717696934539  0.3994316509912152
  0.0427174506834557  0.8348952315251766  0.3995962240734767
  0.0427847870379429  0.9600520475399983  0.3996839465470302
  0.1685343474835949  0.0864698425594847  0.4005454056377739
  0.1675504749995113  0.2107522447119302  0.4014227332259822
  0.1642821774965025  0.3335607026529325  0.4017334398832226
  0.1628029312271924  0.4584645881997140  0.4009155130580654
  0.1643145920821123  0.5838413630209359  0.3998620279771485
  0.1661940786914426  0.7092938269911392  0.3994151956067584
  0.1671704409804683  0.8348938148118815  0.3996031573432702
  0.1678013274665543  0.9605763945443837  0.3998636108277605
  0.2929608299534440  0.0864482729722819  0.4005434416310421
  0.2946348796104828  0.2142537286792047  0.4021682818228546
  0.2922171367662789  0.3392871719799074  0.4038321908216975
  0.2849711058247523  0.4581308549200787  0.4039820072142630
  0.2869074385098801  0.5832438479165993  0.4022367781294978
  0.2901348552082045  0.7086106697751171  0.4004767995495079
  0.2915391468932832  0.8342067569562487  0.3996077295998235
  0.2923013106460338  0.9600526863300481  0.3996910931202198
  0.4172505155209617  0.0843323730799867  0.4000310014971454
  0.4181973309725626  0.2107454957676500  0.4014566093435076
  0.4220720988182821  0.3392844371813954  0.4038475294124280
  0.4139593553911691  0.7056611871246746  0.4023751285793778
  0.4158107420284434  0.8320240250422125  0.4005056359999311
  0.4166444544395370  0.9582400711339101  0.3996711664085252
  0.5415623176829893  0.0822836228304625  0.3995856636845949
  0.5423560483743679  0.2080726571257984  0.4001413850949480
  0.5442643680572367  0.3335507228007762  0.4017541160442960
  0.5481434887634258  0.4581300897479405  0.4040555327132953
  0.5377282275657448  0.7004503440222496  0.4035204137403993
  0.5400864579490821  0.8293979791904587  0.4014103764626427
  0.5409206475065200  0.9561492599871819  0.4000401530238621
  0.6659411868041699  0.0814342952777455  0.3996901105567638
  0.6666393661913108  0.2070664044151302  0.3994825649165089
  0.6680451746223187  0.3327084858669751  0.3998174538765573
  0.6706329341700370  0.4584589941942878  0.4009480634413882
  0.6713114315328619  0.5832481996350699  0.4022798159832585
  0.6666884478502861  0.7056584732360576  0.4023941637541471
  0.6643300223724414  0.8294207306537565  0.4014405186486005
  0.6653088412712894  0.9555934419000828  0.4003083214434971
  0.7905263729812579  0.0814390114094398  0.3996849107527943
  0.7909340113632379  0.2068719193849202  0.3996607124168585
  0.7918181895923510  0.3324389514763939  0.3992743667362141
  0.7933137254619349  0.4581547699865894  0.3993043221651785
  0.7944826117381252  0.5838446742696919  0.3998763737875444
  0.7934620955484217  0.7086071856712255  0.4004806629706318
  0.7912067414667928  0.8320158716253101  0.4005355290161823
  0.7902639452367274  0.9561653456034169  0.4000478212677236
  0.9157617701893027  0.0822839344866841  0.3996016821306069
  0.9154214118721477  0.2070529377323355  0.3994866010912798
  0.9156128858440306  0.3324330781132395  0.3992764248444819
  0.9165747236552513  0.4581858024515533  0.3990822363808484
  0.9177927653790312  0.5839234290679400  0.3991363880914944
  0.9180873397108434  0.7092846451514971  0.3994070721329516
  0.9176657080487297  0.8341931866341283  0.3995955557046520
  0.9166352578665639  0.9582407236477641  0.3996715840209822
  0.0847720124604986  0.0438497908674907  0.4000402741850748
  0.0837881832283006  0.1679777729335385  0.4005056552185192
  0.0815256256714197  0.2913900273267370  0.4004767862338874
  0.0804770761379867  0.4161565222110479  0.3998639933829568
  0.0816403990948100  0.5418373735467090  0.3992936157048871
  0.0831852312324717  0.6675692673760446  0.3992755663159361
  0.0840638405614908  0.7931304094612637  0.3996606432209274
  0.0845077112125597  0.9185652649768652  0.3996899348399519
  0.2097152578888778  0.0444045550332963  0.4003082814790739
  0.2106897882744767  0.1706028159223181  0.4014103213638017
  0.2083000601334733  0.2943424952762513  0.4023750571123485
  0.2036696078303537  0.4167586603622819  0.4022369156311016
  0.2043447479219499  0.5415354974574311  0.4009150509067107
  0.2069225861881872  0.6672834255040235  0.3998221516835924
  0.2083687490336819  0.7929467355016221  0.3994866440128674
  0.2090876470991753  0.9185602604742117  0.3996849309837606
  0.3340992468789137  0.0438353153412402  0.4000478994390475
  0.3349092409719872  0.1705797741310178  0.4014398141360611
  0.3372792634175550  0.2995501611516616  0.4035211284841501
  0.3268392212195160  0.5418656099516765  0.4039820590882170
  0.3307209106349516  0.6664354480162421  0.4017334769037265
  0.3326387595978431  0.7919344930879109  0.4001276797586616
  0.3334797820395558  0.9177175924065060  0.3996010765170147
  0.4583960999555189  0.0417612324946592  0.3996716623596680
  0.4591934149914673  0.1679842833539226  0.4005359095636414
  0.4610321330228270  0.2943413038851592  0.4023950529361094
  0.4529276241685094  0.6607094775120125  0.4038321872442920
  0.4567986840197702  0.7892466548016909  0.4014235619084396
  0.4577863143578934  0.9156646302349415  0.4000168406151574
  0.5827347651768909  0.0399492114792812  0.3996848556909011
  0.5834727240674704  0.1658065393040947  0.3995966360163902
  0.5848556228104324  0.2913878877077538  0.4004815789914828
  0.5880645941218858  0.4167513034773902  0.4022797375803000
  0.5900138027219330  0.5418697526568871  0.4040555760704668
  0.5827871327073262  0.6607156169796917  0.4038482121602363
  0.5803816084126883  0.7857465523428281  0.4021682976458285
  0.5820678439121434  0.9135305900392152  0.4005454288423891
  0.7072281433987215  0.0394256172015303  0.3998635282756617
  0.7078219579222617  0.1651039083015452  0.3995972875403906
  0.7088005541073513  0.2907113204828520  0.3994089581316167
  0.7106383760253702  0.4161507204808638  0.3998734661460748
  0.7121777394712812  0.5415433740517942  0.4009486774114633
  0.7107161548644215  0.6664510014201173  0.4017530811373571
  0.7074529534742915  0.7892557552634882  0.4014558005765293
  0.7065136011637667  0.9135523777167407  0.4005435735521106
  0.8322508165165673  0.0399501230165509  0.3996911830310022
  0.8322773350055650  0.1651064202313155  0.3996031319775485
  0.8327220090510714  0.2904266141244758  0.3994318487191306
  0.8338700941283763  0.4160745215043621  0.3991362262154617
  0.8351621437781668  0.5418461219580555  0.3993059834774506
  0.8353392136523011  0.6672954593810155  0.3998182923069094
  0.8342847158726163  0.7919284948049018  0.4001395723129633
  0.8329200686855598  0.9156686687547722  0.4000302441645828
  0.9584072769879718  0.0417601498964280  0.3996722914015269
  0.9573312421060099  0.1657933475795606  0.3996069231415425
  0.9569049294828664  0.2907040935593994  0.3994162493550134
  0.9571677990240317  0.4160775456990756  0.3991240488822961
  0.9583919523189482  0.5418137651068881  0.3990822393331737
  0.9593791726275896  0.6675624074903552  0.3992734388903355
  0.9595710880149571  0.7929345000748411  0.3994797759943524
  0.9592770005391007  0.9177139061619374  0.3995847301647937
  0.4070064908616859  0.5803856547959474  0.4050754639986465
  0.5483628889103037  0.5803899609370414  0.4051199312323531
  0.3266209629368266  0.4196169207276149  0.4050753676919575
  0.4679735555878283  0.4196106131291292  0.4051190030292637
 
  0.00000000E+00  0.00000000E+00  0.00000000E+00
  0.00000000E+00  0.00000000E+00  0.00000000E+00
  0.00000000E+00  0.00000000E+00  0.00000000E+00
  0.00000000E+00  0.00000000E+00  0.00000000E+00
  0.00000000E+00  0.00000000E+00  0.00000000E+00
  0.00000000E+00  0.00000000E+00  0.00000000E+00
  0.00000000E+00  0.00000000E+00  0.00000000E+00
  0.00000000E+00  0.00000000E+00  0.00000000E+00
  0.00000000E+00  0.00000000E+00  0.00000000E+00
  0.00000000E+00  0.00000000E+00  0.00000000E+00
  0.00000000E+00  0.00000000E+00  0.00000000E+00
  0.00000000E+00  0.00000000E+00  0.00000000E+00
  0.00000000E+00  0.00000000E+00  0.00000000E+00
  0.00000000E+00  0.00000000E+00  0.00000000E+00
  0.00000000E+00  0.00000000E+00  0.00000000E+00
  0.00000000E+00  0.00000000E+00  0.00000000E+00
  0.00000000E+00  0.00000000E+00  0.00000000E+00
  0.00000000E+00  0.00000000E+00  0.00000000E+00
  0.00000000E+00  0.00000000E+00  0.00000000E+00
  0.00000000E+00  0.00000000E+00  0.00000000E+00
  0.00000000E+00  0.00000000E+00  0.00000000E+00
  0.00000000E+00  0.00000000E+00  0.00000000E+00
  0.00000000E+00  0.00000000E+00  0.00000000E+00
  0.00000000E+00  0.00000000E+00  0.00000000E+00
  0.00000000E+00  0.00000000E+00  0.00000000E+00
  0.00000000E+00  0.00000000E+00  0.00000000E+00
  0.00000000E+00  0.00000000E+00  0.00000000E+00
  0.00000000E+00  0.00000000E+00  0.00000000E+00
  0.00000000E+00  0.00000000E+00  0.00000000E+00
  0.00000000E+00  0.00000000E+00  0.00000000E+00
  0.00000000E+00  0.00000000E+00  0.00000000E+00
  0.00000000E+00  0.00000000E+00  0.00000000E+00
  0.00000000E+00  0.00000000E+00  0.00000000E+00
  0.00000000E+00  0.00000000E+00  0.00000000E+00
  0.00000000E+00  0.00000000E+00  0.00000000E+00
  0.00000000E+00  0.00000000E+00  0.00000000E+00
  0.00000000E+00  0.00000000E+00  0.00000000E+00
  0.00000000E+00  0.00000000E+00  0.00000000E+00
  0.00000000E+00  0.00000000E+00  0.00000000E+00
  0.00000000E+00  0.00000000E+00  0.00000000E+00
  0.00000000E+00  0.00000000E+00  0.00000000E+00
  0.00000000E+00  0.00000000E+00  0.00000000E+00
  0.00000000E+00  0.00000000E+00  0.00000000E+00
  0.00000000E+00  0.00000000E+00  0.00000000E+00
  0.00000000E+00  0.00000000E+00  0.00000000E+00
  0.00000000E+00  0.00000000E+00  0.00000000E+00
  0.00000000E+00  0.00000000E+00  0.00000000E+00
  0.00000000E+00  0.00000000E+00  0.00000000E+00
  0.00000000E+00  0.00000000E+00  0.00000000E+00
  0.00000000E+00  0.00000000E+00  0.00000000E+00
  0.00000000E+00  0.00000000E+00  0.00000000E+00
  0.00000000E+00  0.00000000E+00  0.00000000E+00
  0.00000000E+00  0.00000000E+00  0.00000000E+00
  0.00000000E+00  0.00000000E+00  0.00000000E+00
  0.00000000E+00  0.00000000E+00  0.00000000E+00
  0.00000000E+00  0.00000000E+00  0.00000000E+00
  0.00000000E+00  0.00000000E+00  0.00000000E+00
  0.00000000E+00  0.00000000E+00  0.00000000E+00
  0.00000000E+00  0.00000000E+00  0.00000000E+00
  0.00000000E+00  0.00000000E+00  0.00000000E+00
  0.00000000E+00  0.00000000E+00  0.00000000E+00
  0.00000000E+00  0.00000000E+00  0.00000000E+00
  0.00000000E+00  0.00000000E+00  0.00000000E+00
  0.00000000E+00  0.00000000E+00  0.00000000E+00
  0.00000000E+00  0.00000000E+00  0.00000000E+00
  0.00000000E+00  0.00000000E+00  0.00000000E+00
  0.00000000E+00  0.00000000E+00  0.00000000E+00
  0.00000000E+00  0.00000000E+00  0.00000000E+00
  0.00000000E+00  0.00000000E+00  0.00000000E+00
  0.00000000E+00  0.00000000E+00  0.00000000E+00
  0.00000000E+00  0.00000000E+00  0.00000000E+00
  0.00000000E+00  0.00000000E+00  0.00000000E+00
  0.00000000E+00  0.00000000E+00  0.00000000E+00
  0.00000000E+00  0.00000000E+00  0.00000000E+00
  0.00000000E+00  0.00000000E+00  0.00000000E+00
  0.00000000E+00  0.00000000E+00  0.00000000E+00
  0.00000000E+00  0.00000000E+00  0.00000000E+00
  0.00000000E+00  0.00000000E+00  0.00000000E+00
  0.00000000E+00  0.00000000E+00  0.00000000E+00
  0.00000000E+00  0.00000000E+00  0.00000000E+00
  0.00000000E+00  0.00000000E+00  0.00000000E+00
  0.00000000E+00  0.00000000E+00  0.00000000E+00
  0.00000000E+00  0.00000000E+00  0.00000000E+00
  0.00000000E+00  0.00000000E+00  0.00000000E+00
  0.00000000E+00  0.00000000E+00  0.00000000E+00
  0.00000000E+00  0.00000000E+00  0.00000000E+00
  0.00000000E+00  0.00000000E+00  0.00000000E+00
  0.00000000E+00  0.00000000E+00  0.00000000E+00
  0.00000000E+00  0.00000000E+00  0.00000000E+00
  0.00000000E+00  0.00000000E+00  0.00000000E+00
  0.00000000E+00  0.00000000E+00  0.00000000E+00
  0.00000000E+00  0.00000000E+00  0.00000000E+00
  0.00000000E+00  0.00000000E+00  0.00000000E+00
  0.00000000E+00  0.00000000E+00  0.00000000E+00
  0.00000000E+00  0.00000000E+00  0.00000000E+00
  0.00000000E+00  0.00000000E+00  0.00000000E+00
  0.00000000E+00  0.00000000E+00  0.00000000E+00
  0.00000000E+00  0.00000000E+00  0.00000000E+00
  0.00000000E+00  0.00000000E+00  0.00000000E+00
  0.00000000E+00  0.00000000E+00  0.00000000E+00
  0.00000000E+00  0.00000000E+00  0.00000000E+00
  0.00000000E+00  0.00000000E+00  0.00000000E+00
  0.00000000E+00  0.00000000E+00  0.00000000E+00
  0.00000000E+00  0.00000000E+00  0.00000000E+00
  0.00000000E+00  0.00000000E+00  0.00000000E+00
  0.00000000E+00  0.00000000E+00  0.00000000E+00
  0.00000000E+00  0.00000000E+00  0.00000000E+00
  0.00000000E+00  0.00000000E+00  0.00000000E+00
  0.00000000E+00  0.00000000E+00  0.00000000E+00
  0.00000000E+00  0.00000000E+00  0.00000000E+00
  0.00000000E+00  0.00000000E+00  0.00000000E+00
  0.00000000E+00  0.00000000E+00  0.00000000E+00
  0.00000000E+00  0.00000000E+00  0.00000000E+00
  0.00000000E+00  0.00000000E+00  0.00000000E+00
  0.00000000E+00  0.00000000E+00  0.00000000E+00
  0.00000000E+00  0.00000000E+00  0.00000000E+00
  0.00000000E+00  0.00000000E+00  0.00000000E+00
  0.00000000E+00  0.00000000E+00  0.00000000E+00
  0.00000000E+00  0.00000000E+00  0.00000000E+00
  0.00000000E+00  0.00000000E+00  0.00000000E+00
  0.00000000E+00  0.00000000E+00  0.00000000E+00
  0.00000000E+00  0.00000000E+00  0.00000000E+00
  0.00000000E+00  0.00000000E+00  0.00000000E+00
  0.00000000E+00  0.00000000E+00  0.00000000E+00
  0.00000000E+00  0.00000000E+00  0.00000000E+00
  0.00000000E+00  0.00000000E+00  0.00000000E+00
  0.00000000E+00  0.00000000E+00  0.00000000E+00
