Co1 H1 C124 N2 O2                       
   1.00000000000000     
    19.7846215703424662   -0.0299256561712389    0.2739101831293660
    -9.9189306373630384   17.0387024014996484   -0.1015754868741151
     0.4107799879041622    0.0613720335953032   29.8816759787450117
   Co   H    C    N    O 
     1     1   124     2     2
Direct
  0.4366457661458747  0.5007952607583648  0.4186580357579557
  0.5295804657447738  0.5347774772764651  0.5188707435734236
  0.0422340856046733  0.0844386834354430  0.3998465721253693
  0.0419383448540293  0.2088314432988878  0.3989245646914075
  0.0413374175027435  0.3332765831309805  0.3988004354965849
  0.0408464262353621  0.4583596539116441  0.3992683502209040
  0.0409688027645281  0.5836141837740709  0.3994788600294985
  0.0412308814847440  0.7088527420280113  0.3995148043704990
  0.0414777171642544  0.8340536685584308  0.3997427466139438
  0.0418296537644053  0.9593495877757536  0.4000850089263194
  0.1678573059875894  0.0857257846318659  0.4002559278503076
  0.1686604968176244  0.2112324088865814  0.3990424205745610
  0.1672602401258809  0.3348328222086590  0.3976783658001262
  0.1652238640427730  0.4589132010308563  0.3988377568078983
  0.1651771614069338  0.5838026329967002  0.3995235788143552
  0.1657859116483715  0.7089895951670891  0.3997287225929430
  0.1662974502880509  0.8342425886659687  0.3998835311881894
  0.1668723776898032  0.9597712644263190  0.4002962165519601
  0.2922707413285048  0.0852933522913375  0.4008403986022224
  0.2943636558590553  0.2127271546767867  0.4010969978151127
  0.2961094046705059  0.3400112518160046  0.3985055935277779
  0.2904287158833330  0.4606437325041431  0.3978507545120070
  0.2891295835811032  0.5845631810137788  0.4001079381184152
  0.2901503662839802  0.7090354060006928  0.4003405125406421
  0.2910472779584504  0.8340363840160480  0.3999872681978617
  0.2915583130724078  0.9593748235006839  0.4002146197327354
  0.4167165392824434  0.0838648228387104  0.4004472109338894
  0.4174751478294992  0.2098625955641164  0.4014310194673161
  0.4209405292758251  0.3383754879643225  0.4040963982275779
  0.4141330555373984  0.7063881112298335  0.4016575834745693
  0.4156222059421001  0.8325144891146742  0.4003793136542146
  0.4162043204275404  0.9581843484849659  0.4000908863753184
  0.5413610598491074  0.0824516266804083  0.4002005768783944
  0.5418788660053283  0.2076407755089576  0.4007479283106453
  0.5429682901514310  0.3325134464081539  0.4017723540315463
  0.5433764096581036  0.4556283170085875  0.4024185993669886
  0.5399820366629606  0.5762801154694372  0.4003106389914712
  0.5372155718958900  0.7025748935647276  0.4024026071268977
  0.5398037016518861  0.8306537939777975  0.4012515653613354
  0.5408655965439534  0.9568843284756517  0.4003420233251097
  0.6660850101621040  0.0819865408598888  0.4002445670020085
  0.6665763354921589  0.2073112198081104  0.4002207336206152
  0.6672348771645198  0.3324787597162568  0.4003181055561748
  0.6680869412122168  0.4576035075054751  0.3995529657713548
  0.6673553930583638  0.5817439009625979  0.3983480972817180
  0.6635166840817409  0.7043885498188549  0.3989642765235876
  0.6639555763390483  0.8299605329153350  0.4006352710882239
  0.6653711317762626  0.9563315613955248  0.4006331453679947
  0.7909254920338777  0.0820681294716990  0.4000665612185592
  0.7913345702242364  0.2073664296776275  0.3997830853609187
  0.7917439229808453  0.3326374416475544  0.3997876031099724
  0.7921865928956353  0.4579186583942854  0.3994456441785956
  0.7921695464818974  0.5830255499019797  0.3987263166189381
  0.7909869271097747  0.7075403634562942  0.3985385903347541
  0.7898618859549345  0.8315350052346137  0.3996122770485884
  0.7902257552081703  0.9566122392528597  0.4002452318176679
  0.9162302620121845  0.0828430965471370  0.3998725932150958
  0.9163669135830580  0.2077898607207790  0.3994312110306587
  0.9163872283757252  0.3328835618761302  0.3993825734805097
  0.9164564615281651  0.4580834001681366  0.3994611995346439
  0.9166527330238894  0.5834010408662995  0.3993066037500509
  0.9164445610174526  0.7085249708653050  0.3991635909345222
  0.9161926065503035  0.8333382717521671  0.3995061963638443
  0.9160382738266840  0.9579947305200022  0.3999995355313456
  0.0841156083051847  0.0432063524589392  0.4000968838484860
  0.0845377040397117  0.1682826047157002  0.3992521074101869
  0.0835504790644031  0.2922866488810690  0.3983084260652199
  0.0823561031500813  0.4168103052204769  0.3989421343702279
  0.0822094912034058  0.5418736954358366  0.3994213878909922
  0.0825983189879455  0.6671880046180115  0.3995387665233582
  0.0830125220435252  0.7924517711252301  0.3997139144172230
  0.0833711149441282  0.9177245409519456  0.4000693189686595
  0.2088936167564142  0.0435114042753411  0.4005554324295404
  0.2103614764715013  0.1698323958985579  0.4000038735274209
  0.2110714048631457  0.2953924982889232  0.3980406762100407
  0.2073666355213375  0.4180727805772345  0.3980620301353278
  0.2062427103425734  0.5421941765250710  0.3992752204589851
  0.2070726845736381  0.6673327343383411  0.3998563360269213
  0.2077459670175143  0.7925100068776449  0.3998576790632110
  0.2082496099320236  0.9178532761962952  0.4001553216679959
  0.3333995463740358  0.0429594688568575  0.4005156983924537
  0.3343845451965410  0.1691300941399529  0.4013534239134725
  0.3370263928227621  0.2971897507398170  0.4016545165155861
  0.3356845839591613  0.4238544540965870  0.3968178792829367
  0.3306979362737471  0.5441346652725636  0.4008492234052062
  0.3312416883665700  0.6672978150940762  0.4009249356495385
  0.3323558869355073  0.7921729700820117  0.4002299691279393
  0.3329565432908103  0.9174018673704445  0.4000653237359931
  0.4580597158986353  0.0416443871231598  0.4001915476084040
  0.4586154967165647  0.1673403162971951  0.4008066536270702
  0.4599940288493659  0.2935204698675852  0.4024135226641430
  0.4529614998970001  0.6614621684467410  0.4035945176471145
  0.4567185533077721  0.7900233461607430  0.4009969561502230
  0.4575451261845408  0.9159892648277970  0.4001828672292229
  0.5827915546364401  0.0404854479630538  0.4002340676962858
  0.5832604129983002  0.1658275193576009  0.4003588252403590
  0.5840840261226509  0.2907515799405825  0.4009735535096040
  0.5851105804986939  0.4152096457335735  0.4009591301026768
  0.5843849445852419  0.5389942157890402  0.3996286614061203
  0.5785270325953183  0.6599917451314465  0.4001274104243936
  0.5798799092280500  0.7870726407308316  0.4015334545423957
  0.5819545025073330  0.9145166747527057  0.4007434708751627
  0.7074299435718158  0.0400752820484448  0.4003432468462522
  0.7079999431087876  0.1655617814860910  0.4000843792035684
  0.7085273714560900  0.2908061804446038  0.4001285834475519
  0.7091544918763402  0.4159868621038084  0.3997362672984651
  0.7093183129682916  0.5408902149981223  0.3987309675576470
  0.7073883771942706  0.6649669198329786  0.3982151128476691
  0.7057269254852059  0.7885573680664280  0.3997458672002282
  0.7064515865176768  0.9141308178439956  0.4005529084360201
  0.8324905474073302  0.0404716007074141  0.4001040786070887
  0.8328928167549103  0.1657571833193028  0.3997389756708601
  0.8331549228424687  0.2909904748413222  0.3996218869271323
  0.8333999368851401  0.4161815294958687  0.3996153609665252
  0.8336069592010429  0.5414573989669645  0.3991513158878155
  0.8332252993446938  0.6665757748256451  0.3987109982253326
  0.8325357435301701  0.7910155706626018  0.3991530043515101
  0.8321251026786787  0.9153714654145104  0.4000128276446228
  0.9582961061505275  0.0418026919366288  0.3999723683470883
  0.9582639471617443  0.1665115080093549  0.3994370954362722
  0.9580484605601813  0.2913398570192031  0.3992157672688702
  0.9577998337099406  0.4164180230101955  0.3993595871471552
  0.9579506040754615  0.5417088212867665  0.3994178441723288
  0.9580570757607565  0.6669784400391302  0.3993422034381532
  0.9580956676212795  0.7920673584135833  0.3994480206729330
  0.9581463883047205  0.9169876633865789  0.3998931550717753
  0.4096590459740604  0.5807518156570549  0.4053286534342838
  0.4640074980695510  0.4191279615006987  0.4065938514290375
  0.4955157477689432  0.4898618701063840  0.5001208753604285
  0.4559379488418371  0.5238625170104739  0.4759582730446412
 
  0.00000000E+00  0.00000000E+00  0.00000000E+00
  0.00000000E+00  0.00000000E+00  0.00000000E+00
  0.00000000E+00  0.00000000E+00  0.00000000E+00
  0.00000000E+00  0.00000000E+00  0.00000000E+00
  0.00000000E+00  0.00000000E+00  0.00000000E+00
  0.00000000E+00  0.00000000E+00  0.00000000E+00
  0.00000000E+00  0.00000000E+00  0.00000000E+00
  0.00000000E+00  0.00000000E+00  0.00000000E+00
  0.00000000E+00  0.00000000E+00  0.00000000E+00
  0.00000000E+00  0.00000000E+00  0.00000000E+00
  0.00000000E+00  0.00000000E+00  0.00000000E+00
  0.00000000E+00  0.00000000E+00  0.00000000E+00
  0.00000000E+00  0.00000000E+00  0.00000000E+00
  0.00000000E+00  0.00000000E+00  0.00000000E+00
  0.00000000E+00  0.00000000E+00  0.00000000E+00
  0.00000000E+00  0.00000000E+00  0.00000000E+00
  0.00000000E+00  0.00000000E+00  0.00000000E+00
  0.00000000E+00  0.00000000E+00  0.00000000E+00
  0.00000000E+00  0.00000000E+00  0.00000000E+00
  0.00000000E+00  0.00000000E+00  0.00000000E+00
  0.00000000E+00  0.00000000E+00  0.00000000E+00
  0.00000000E+00  0.00000000E+00  0.00000000E+00
  0.00000000E+00  0.00000000E+00  0.00000000E+00
  0.00000000E+00  0.00000000E+00  0.00000000E+00
  0.00000000E+00  0.00000000E+00  0.00000000E+00
  0.00000000E+00  0.00000000E+00  0.00000000E+00
  0.00000000E+00  0.00000000E+00  0.00000000E+00
  0.00000000E+00  0.00000000E+00  0.00000000E+00
  0.00000000E+00  0.00000000E+00  0.00000000E+00
  0.00000000E+00  0.00000000E+00  0.00000000E+00
  0.00000000E+00  0.00000000E+00  0.00000000E+00
  0.00000000E+00  0.00000000E+00  0.00000000E+00
  0.00000000E+00  0.00000000E+00  0.00000000E+00
  0.00000000E+00  0.00000000E+00  0.00000000E+00
  0.00000000E+00  0.00000000E+00  0.00000000E+00
  0.00000000E+00  0.00000000E+00  0.00000000E+00
  0.00000000E+00  0.00000000E+00  0.00000000E+00
  0.00000000E+00  0.00000000E+00  0.00000000E+00
  0.00000000E+00  0.00000000E+00  0.00000000E+00
  0.00000000E+00  0.00000000E+00  0.00000000E+00
  0.00000000E+00  0.00000000E+00  0.00000000E+00
  0.00000000E+00  0.00000000E+00  0.00000000E+00
  0.00000000E+00  0.00000000E+00  0.00000000E+00
  0.00000000E+00  0.00000000E+00  0.00000000E+00
  0.00000000E+00  0.00000000E+00  0.00000000E+00
  0.00000000E+00  0.00000000E+00  0.00000000E+00
  0.00000000E+00  0.00000000E+00  0.00000000E+00
  0.00000000E+00  0.00000000E+00  0.00000000E+00
  0.00000000E+00  0.00000000E+00  0.00000000E+00
  0.00000000E+00  0.00000000E+00  0.00000000E+00
  0.00000000E+00  0.00000000E+00  0.00000000E+00
  0.00000000E+00  0.00000000E+00  0.00000000E+00
  0.00000000E+00  0.00000000E+00  0.00000000E+00
  0.00000000E+00  0.00000000E+00  0.00000000E+00
  0.00000000E+00  0.00000000E+00  0.00000000E+00
  0.00000000E+00  0.00000000E+00  0.00000000E+00
  0.00000000E+00  0.00000000E+00  0.00000000E+00
  0.00000000E+00  0.00000000E+00  0.00000000E+00
  0.00000000E+00  0.00000000E+00  0.00000000E+00
  0.00000000E+00  0.00000000E+00  0.00000000E+00
  0.00000000E+00  0.00000000E+00  0.00000000E+00
  0.00000000E+00  0.00000000E+00  0.00000000E+00
  0.00000000E+00  0.00000000E+00  0.00000000E+00
  0.00000000E+00  0.00000000E+00  0.00000000E+00
  0.00000000E+00  0.00000000E+00  0.00000000E+00
  0.00000000E+00  0.00000000E+00  0.00000000E+00
  0.00000000E+00  0.00000000E+00  0.00000000E+00
  0.00000000E+00  0.00000000E+00  0.00000000E+00
  0.00000000E+00  0.00000000E+00  0.00000000E+00
  0.00000000E+00  0.00000000E+00  0.00000000E+00
  0.00000000E+00  0.00000000E+00  0.00000000E+00
  0.00000000E+00  0.00000000E+00  0.00000000E+00
  0.00000000E+00  0.00000000E+00  0.00000000E+00
  0.00000000E+00  0.00000000E+00  0.00000000E+00
  0.00000000E+00  0.00000000E+00  0.00000000E+00
  0.00000000E+00  0.00000000E+00  0.00000000E+00
  0.00000000E+00  0.00000000E+00  0.00000000E+00
  0.00000000E+00  0.00000000E+00  0.00000000E+00
  0.00000000E+00  0.00000000E+00  0.00000000E+00
  0.00000000E+00  0.00000000E+00  0.00000000E+00
  0.00000000E+00  0.00000000E+00  0.00000000E+00
  0.00000000E+00  0.00000000E+00  0.00000000E+00
  0.00000000E+00  0.00000000E+00  0.00000000E+00
  0.00000000E+00  0.00000000E+00  0.00000000E+00
  0.00000000E+00  0.00000000E+00  0.00000000E+00
  0.00000000E+00  0.00000000E+00  0.00000000E+00
  0.00000000E+00  0.00000000E+00  0.00000000E+00
  0.00000000E+00  0.00000000E+00  0.00000000E+00
  0.00000000E+00  0.00000000E+00  0.00000000E+00
  0.00000000E+00  0.00000000E+00  0.00000000E+00
  0.00000000E+00  0.00000000E+00  0.00000000E+00
  0.00000000E+00  0.00000000E+00  0.00000000E+00
  0.00000000E+00  0.00000000E+00  0.00000000E+00
  0.00000000E+00  0.00000000E+00  0.00000000E+00
  0.00000000E+00  0.00000000E+00  0.00000000E+00
  0.00000000E+00  0.00000000E+00  0.00000000E+00
  0.00000000E+00  0.00000000E+00  0.00000000E+00
  0.00000000E+00  0.00000000E+00  0.00000000E+00
  0.00000000E+00  0.00000000E+00  0.00000000E+00
  0.00000000E+00  0.00000000E+00  0.00000000E+00
  0.00000000E+00  0.00000000E+00  0.00000000E+00
  0.00000000E+00  0.00000000E+00  0.00000000E+00
  0.00000000E+00  0.00000000E+00  0.00000000E+00
  0.00000000E+00  0.00000000E+00  0.00000000E+00
  0.00000000E+00  0.00000000E+00  0.00000000E+00
  0.00000000E+00  0.00000000E+00  0.00000000E+00
  0.00000000E+00  0.00000000E+00  0.00000000E+00
  0.00000000E+00  0.00000000E+00  0.00000000E+00
  0.00000000E+00  0.00000000E+00  0.00000000E+00
  0.00000000E+00  0.00000000E+00  0.00000000E+00
  0.00000000E+00  0.00000000E+00  0.00000000E+00
  0.00000000E+00  0.00000000E+00  0.00000000E+00
  0.00000000E+00  0.00000000E+00  0.00000000E+00
  0.00000000E+00  0.00000000E+00  0.00000000E+00
  0.00000000E+00  0.00000000E+00  0.00000000E+00
  0.00000000E+00  0.00000000E+00  0.00000000E+00
  0.00000000E+00  0.00000000E+00  0.00000000E+00
  0.00000000E+00  0.00000000E+00  0.00000000E+00
  0.00000000E+00  0.00000000E+00  0.00000000E+00
  0.00000000E+00  0.00000000E+00  0.00000000E+00
  0.00000000E+00  0.00000000E+00  0.00000000E+00
  0.00000000E+00  0.00000000E+00  0.00000000E+00
  0.00000000E+00  0.00000000E+00  0.00000000E+00
  0.00000000E+00  0.00000000E+00  0.00000000E+00
  0.00000000E+00  0.00000000E+00  0.00000000E+00
  0.00000000E+00  0.00000000E+00  0.00000000E+00
  0.00000000E+00  0.00000000E+00  0.00000000E+00
  0.00000000E+00  0.00000000E+00  0.00000000E+00
  0.00000000E+00  0.00000000E+00  0.00000000E+00
  0.00000000E+00  0.00000000E+00  0.00000000E+00
