Hf1 H1 C122 N4 O1                       
   1.00000000000000     
    19.8020550782599969   -0.0005191888754865   -0.0679961427328220
    -9.9016867429375779   17.0420885178811474   -0.1485251183828388
    -0.1022970987632596   -0.3190237117125109   29.8215677359782063
   Hf   H    C    N    O 
     1     1   122     4     1
Direct
  0.4431332339744158  0.5036461162842845  0.4338961242183536
  0.4708722779314686  0.5346464265128479  0.5287360664924452
  0.0421949617949840  0.0842624365596367  0.3995461337082113
  0.0413913143758397  0.2084685587387584  0.3995294049410716
  0.0406272798721312  0.3332624514719130  0.3992376656434291
  0.0406031730179486  0.4583528771566099  0.3989914620838284
  0.0413532361646218  0.5837211129614407  0.3995268199866307
  0.0420623697908407  0.7090708268200714  0.3999701812871981
  0.0422303376671571  0.8341912922285903  0.3999539424506631
  0.0424565068354480  0.9594719516468565  0.3997316851369159
  0.1679382642993184  0.0853764904181154  0.3997105791759579
  0.1677861653062210  0.2103092226274346  0.4000812725824911
  0.1654704982009606  0.3340125237516369  0.4007267317633852
  0.1645044972553587  0.4585797584982288  0.3994092361016603
  0.1652925688769489  0.5837391664185158  0.3988684287986611
  0.1663994580531041  0.7088835302937146  0.3994354794787723
  0.1670075801837318  0.8341659222545870  0.3998736681591113
  0.1673658084803782  0.9596771121266582  0.3997010645648945
  0.2924920520172401  0.0853217920150548  0.3996679345031538
  0.2937682019741978  0.2125309898313517  0.4009552597047545
  0.2925199353778234  0.3381912472002522  0.4037068584009095
  0.2881415026029317  0.4586028033471154  0.4031015695339834
  0.2888337734593677  0.5831524465013485  0.4000960312113183
  0.2908205522080528  0.7082775628022785  0.3992532187550970
  0.2917452182883596  0.8338026927119926  0.3996064242166666
  0.2920603965636602  0.9593822522188915  0.3997518461354156
  0.4171048268149389  0.0840792041761400  0.3995203344829029
  0.4174935635395678  0.2099871138835703  0.3995956342014821
  0.4204686967149779  0.3374205185816307  0.4018157250389578
  0.4152807540438715  0.7065329659963161  0.3996888890149398
  0.4163006557328088  0.8325136331536185  0.3992463595769082
  0.4167373153794773  0.9582607024954661  0.3997211854516477
  0.5416694987505223  0.0828875372299296  0.3997768136384343
  0.5421338899128569  0.2083399445936608  0.3994710658617571
  0.5435516190060830  0.3338640701253355  0.3997738504207968
  0.5452521092935113  0.4583704824152789  0.4003675292375489
  0.5389733368460053  0.7029674066549748  0.4003194362301026
  0.5408261923899841  0.8309254501178911  0.3993829413777363
  0.5414195225996860  0.9571613799791944  0.3996452101669317
  0.6663542035447185  0.0824149968717584  0.3999282074681544
  0.6668506316905961  0.2078414752494425  0.3997722436043680
  0.6676593538136466  0.3332251802130850  0.3996031512966531
  0.6690654237187362  0.4585088993726155  0.3993980155330191
  0.6694163647893310  0.5831791280278393  0.3989470748292980
  0.6664599946300527  0.7067822915032007  0.3983674813281811
  0.6651620934983151  0.8309994565323446  0.3991270826945853
  0.6659887735665107  0.9569180705532514  0.3996626330317505
  0.7911963159340526  0.0824589129618036  0.3998820212303946
  0.7914126679948802  0.2077534143276802  0.3998546007305960
  0.7918781641321041  0.3330036621004216  0.3998247438800711
  0.7927833261340798  0.4583766085747208  0.3997376681863307
  0.7934499815163277  0.5837440107932972  0.3993817420420790
  0.7925379213859660  0.7083146181169507  0.3990661455266292
  0.7913828898458011  0.8326831187255196  0.3991419044009525
  0.7908695156987503  0.9572477121146520  0.3996322068115639
  0.9163882728958933  0.0829958555343867  0.3997294848711430
  0.9160910164332424  0.2078797740412418  0.3995507322456450
  0.9162107043047346  0.3330286600335027  0.3994699259363577
  0.9167080375728927  0.4583982499773105  0.3998368519745646
  0.9173709558533928  0.5837299593186960  0.3999749504997153
  0.9175416291714532  0.7089165308472120  0.3998127457404513
  0.9171431368188638  0.8338532537734693  0.3997337041637389
  0.9167534529095536  0.9584112307322501  0.3997762561079188
  0.0844113351732189  0.0431226496995417  0.3995766104531630
  0.0840130045540529  0.1678145120497834  0.3995566559873829
  0.0827108881686519  0.2919793074977199  0.3996920419496297
  0.0816652033131327  0.4164422239182402  0.3989784321537143
  0.0823184136632369  0.5418228808215941  0.3990075398062156
  0.0832664823001999  0.6671832796785694  0.3996560058269779
  0.0837579145015134  0.7924929341400779  0.3999893486389370
  0.0840629406932744  0.9178499636965641  0.3997837722013652
  0.2092072860816538  0.0433625798938023  0.3996775737646929
  0.2101116355410504  0.1694229100291654  0.4002452298253395
  0.2090885694536459  0.2939573738001714  0.4011919715192827
  0.2058842043107193  0.4172017637486173  0.4008896674879678
  0.2060272053325117  0.5416508561874778  0.3992312392404463
  0.2074428280309214  0.6669518183978603  0.3991210005532441
  0.2082999723613660  0.7923577568164005  0.3996768634663870
  0.2088302633683983  0.9177973185723721  0.3997955029110066
  0.3337399285925434  0.0430301750610656  0.3995986241988141
  0.3343111641269114  0.1693242183193857  0.3999955242733139
  0.3363118550017501  0.2975987765465775  0.4026915862317365
  0.3297615160404347  0.5419047542067134  0.4022088139007188
  0.3315828848063944  0.6663362829673392  0.3996773206553476
  0.3330124668121630  0.7918127770584412  0.3993352086769481
  0.3334977600129153  0.9172894289683691  0.3997484656025243
  0.4584668947498645  0.0419052434457654  0.3997140887523049
  0.4588085046003293  0.1675816341990409  0.3993886573635223
  0.4597969527776748  0.2935131622348858  0.3999076382488674
  0.4546503869849671  0.6625999774161111  0.4014177929177855
  0.4575987701397307  0.7900990195279380  0.3991702307415076
  0.4580445765001125  0.9160684967591006  0.3995279036988605
  0.5831041117013580  0.0408066810070753  0.3998531680720472
  0.5834080700211912  0.1663857086923882  0.3996601973150237
  0.5843158571511237  0.2918842143215745  0.3995388605480284
  0.5863533018380285  0.4170173810822796  0.3998260169775842
  0.5869551160007545  0.5418135794146294  0.3993864099197774
  0.5833030800683011  0.6630943407302745  0.3994059573288994
  0.5814412841711989  0.7879130374226032  0.3994889333422675
  0.5826994124927567  0.9149444835228470  0.3995417426556588
  0.7078337458447177  0.0405923089075237  0.3998663544694016
  0.7081723209068240  0.1660606321747085  0.3999134641860324
  0.7087369446110063  0.2912846260971118  0.3997272857857531
  0.7097972592208781  0.4164419744989083  0.3995304080940830
  0.7106360978795039  0.5416604012347574  0.3991839469154539
  0.7097977430245842  0.6663307749534760  0.3986348253686732
  0.7076843913768609  0.7903230262775972  0.3987174928271690
  0.7073350764701496  0.9149848485493934  0.3994586849397609
  0.8328486601889340  0.0408859822450213  0.3998221093012151
  0.8329738980634019  0.1660706544983296  0.3998023524278841
  0.8331058812297881  0.2911459921496598  0.3997546096946791
  0.8337401721425655  0.4164790535677585  0.3999013261494934
  0.8344995268769931  0.5418247938053536  0.3997399689589446
  0.8345121709387870  0.6669602642659949  0.3994435898299127
  0.8339057036488167  0.7918891382887319  0.3992995738965306
  0.8332020934752128  0.9162160294391476  0.3995765486554017
  0.9586753443118365  0.0420556643420964  0.3997134850616627
  0.9580873606305742  0.1664411016023059  0.3995384078210080
  0.9576234506642994  0.2913115933374994  0.3993136275899740
  0.9577334192871585  0.4164755509908755  0.3994246802134324
  0.9584050931088056  0.5418182648329262  0.3998943426464265
  0.9589567403886247  0.6672036145077809  0.3999788796099311
  0.9591106016427441  0.7923847447731481  0.3998716848431176
  0.9589215003700255  0.9173875135208727  0.3998119391501577
  0.4110040212339046  0.5817402364391895  0.4049870466827429
  0.5459342394594954  0.5821959159690524  0.4008525414529582
  0.3298283994147829  0.4193361432376357  0.4072827935750118
  0.4641360699092839  0.4183724417212309  0.4035511984385193
  0.4575550587906663  0.5175561688217337  0.4978065963380525
 
  0.00000000E+00  0.00000000E+00  0.00000000E+00
  0.00000000E+00  0.00000000E+00  0.00000000E+00
  0.00000000E+00  0.00000000E+00  0.00000000E+00
  0.00000000E+00  0.00000000E+00  0.00000000E+00
  0.00000000E+00  0.00000000E+00  0.00000000E+00
  0.00000000E+00  0.00000000E+00  0.00000000E+00
  0.00000000E+00  0.00000000E+00  0.00000000E+00
  0.00000000E+00  0.00000000E+00  0.00000000E+00
  0.00000000E+00  0.00000000E+00  0.00000000E+00
  0.00000000E+00  0.00000000E+00  0.00000000E+00
  0.00000000E+00  0.00000000E+00  0.00000000E+00
  0.00000000E+00  0.00000000E+00  0.00000000E+00
  0.00000000E+00  0.00000000E+00  0.00000000E+00
  0.00000000E+00  0.00000000E+00  0.00000000E+00
  0.00000000E+00  0.00000000E+00  0.00000000E+00
  0.00000000E+00  0.00000000E+00  0.00000000E+00
  0.00000000E+00  0.00000000E+00  0.00000000E+00
  0.00000000E+00  0.00000000E+00  0.00000000E+00
  0.00000000E+00  0.00000000E+00  0.00000000E+00
  0.00000000E+00  0.00000000E+00  0.00000000E+00
  0.00000000E+00  0.00000000E+00  0.00000000E+00
  0.00000000E+00  0.00000000E+00  0.00000000E+00
  0.00000000E+00  0.00000000E+00  0.00000000E+00
  0.00000000E+00  0.00000000E+00  0.00000000E+00
  0.00000000E+00  0.00000000E+00  0.00000000E+00
  0.00000000E+00  0.00000000E+00  0.00000000E+00
  0.00000000E+00  0.00000000E+00  0.00000000E+00
  0.00000000E+00  0.00000000E+00  0.00000000E+00
  0.00000000E+00  0.00000000E+00  0.00000000E+00
  0.00000000E+00  0.00000000E+00  0.00000000E+00
  0.00000000E+00  0.00000000E+00  0.00000000E+00
  0.00000000E+00  0.00000000E+00  0.00000000E+00
  0.00000000E+00  0.00000000E+00  0.00000000E+00
  0.00000000E+00  0.00000000E+00  0.00000000E+00
  0.00000000E+00  0.00000000E+00  0.00000000E+00
  0.00000000E+00  0.00000000E+00  0.00000000E+00
  0.00000000E+00  0.00000000E+00  0.00000000E+00
  0.00000000E+00  0.00000000E+00  0.00000000E+00
  0.00000000E+00  0.00000000E+00  0.00000000E+00
  0.00000000E+00  0.00000000E+00  0.00000000E+00
  0.00000000E+00  0.00000000E+00  0.00000000E+00
  0.00000000E+00  0.00000000E+00  0.00000000E+00
  0.00000000E+00  0.00000000E+00  0.00000000E+00
  0.00000000E+00  0.00000000E+00  0.00000000E+00
  0.00000000E+00  0.00000000E+00  0.00000000E+00
  0.00000000E+00  0.00000000E+00  0.00000000E+00
  0.00000000E+00  0.00000000E+00  0.00000000E+00
  0.00000000E+00  0.00000000E+00  0.00000000E+00
  0.00000000E+00  0.00000000E+00  0.00000000E+00
  0.00000000E+00  0.00000000E+00  0.00000000E+00
  0.00000000E+00  0.00000000E+00  0.00000000E+00
  0.00000000E+00  0.00000000E+00  0.00000000E+00
  0.00000000E+00  0.00000000E+00  0.00000000E+00
  0.00000000E+00  0.00000000E+00  0.00000000E+00
  0.00000000E+00  0.00000000E+00  0.00000000E+00
  0.00000000E+00  0.00000000E+00  0.00000000E+00
  0.00000000E+00  0.00000000E+00  0.00000000E+00
  0.00000000E+00  0.00000000E+00  0.00000000E+00
  0.00000000E+00  0.00000000E+00  0.00000000E+00
  0.00000000E+00  0.00000000E+00  0.00000000E+00
  0.00000000E+00  0.00000000E+00  0.00000000E+00
  0.00000000E+00  0.00000000E+00  0.00000000E+00
  0.00000000E+00  0.00000000E+00  0.00000000E+00
  0.00000000E+00  0.00000000E+00  0.00000000E+00
  0.00000000E+00  0.00000000E+00  0.00000000E+00
  0.00000000E+00  0.00000000E+00  0.00000000E+00
  0.00000000E+00  0.00000000E+00  0.00000000E+00
  0.00000000E+00  0.00000000E+00  0.00000000E+00
  0.00000000E+00  0.00000000E+00  0.00000000E+00
  0.00000000E+00  0.00000000E+00  0.00000000E+00
  0.00000000E+00  0.00000000E+00  0.00000000E+00
  0.00000000E+00  0.00000000E+00  0.00000000E+00
  0.00000000E+00  0.00000000E+00  0.00000000E+00
  0.00000000E+00  0.00000000E+00  0.00000000E+00
  0.00000000E+00  0.00000000E+00  0.00000000E+00
  0.00000000E+00  0.00000000E+00  0.00000000E+00
  0.00000000E+00  0.00000000E+00  0.00000000E+00
  0.00000000E+00  0.00000000E+00  0.00000000E+00
  0.00000000E+00  0.00000000E+00  0.00000000E+00
  0.00000000E+00  0.00000000E+00  0.00000000E+00
  0.00000000E+00  0.00000000E+00  0.00000000E+00
  0.00000000E+00  0.00000000E+00  0.00000000E+00
  0.00000000E+00  0.00000000E+00  0.00000000E+00
  0.00000000E+00  0.00000000E+00  0.00000000E+00
  0.00000000E+00  0.00000000E+00  0.00000000E+00
  0.00000000E+00  0.00000000E+00  0.00000000E+00
  0.00000000E+00  0.00000000E+00  0.00000000E+00
  0.00000000E+00  0.00000000E+00  0.00000000E+00
  0.00000000E+00  0.00000000E+00  0.00000000E+00
  0.00000000E+00  0.00000000E+00  0.00000000E+00
  0.00000000E+00  0.00000000E+00  0.00000000E+00
  0.00000000E+00  0.00000000E+00  0.00000000E+00
  0.00000000E+00  0.00000000E+00  0.00000000E+00
  0.00000000E+00  0.00000000E+00  0.00000000E+00
  0.00000000E+00  0.00000000E+00  0.00000000E+00
  0.00000000E+00  0.00000000E+00  0.00000000E+00
  0.00000000E+00  0.00000000E+00  0.00000000E+00
  0.00000000E+00  0.00000000E+00  0.00000000E+00
  0.00000000E+00  0.00000000E+00  0.00000000E+00
  0.00000000E+00  0.00000000E+00  0.00000000E+00
  0.00000000E+00  0.00000000E+00  0.00000000E+00
  0.00000000E+00  0.00000000E+00  0.00000000E+00
  0.00000000E+00  0.00000000E+00  0.00000000E+00
  0.00000000E+00  0.00000000E+00  0.00000000E+00
  0.00000000E+00  0.00000000E+00  0.00000000E+00
  0.00000000E+00  0.00000000E+00  0.00000000E+00
  0.00000000E+00  0.00000000E+00  0.00000000E+00
  0.00000000E+00  0.00000000E+00  0.00000000E+00
  0.00000000E+00  0.00000000E+00  0.00000000E+00
  0.00000000E+00  0.00000000E+00  0.00000000E+00
  0.00000000E+00  0.00000000E+00  0.00000000E+00
  0.00000000E+00  0.00000000E+00  0.00000000E+00
  0.00000000E+00  0.00000000E+00  0.00000000E+00
  0.00000000E+00  0.00000000E+00  0.00000000E+00
  0.00000000E+00  0.00000000E+00  0.00000000E+00
  0.00000000E+00  0.00000000E+00  0.00000000E+00
  0.00000000E+00  0.00000000E+00  0.00000000E+00
  0.00000000E+00  0.00000000E+00  0.00000000E+00
  0.00000000E+00  0.00000000E+00  0.00000000E+00
  0.00000000E+00  0.00000000E+00  0.00000000E+00
  0.00000000E+00  0.00000000E+00  0.00000000E+00
  0.00000000E+00  0.00000000E+00  0.00000000E+00
  0.00000000E+00  0.00000000E+00  0.00000000E+00
  0.00000000E+00  0.00000000E+00  0.00000000E+00
  0.00000000E+00  0.00000000E+00  0.00000000E+00
  0.00000000E+00  0.00000000E+00  0.00000000E+00
  0.00000000E+00  0.00000000E+00  0.00000000E+00
  0.00000000E+00  0.00000000E+00  0.00000000E+00
  0.00000000E+00  0.00000000E+00  0.00000000E+00
