H1 Pd1 C124 N2                          
   1.00000000000000     
    19.8524591705142406   -0.0055163883052121    0.0125450351322353
    -9.9312087665551960   17.0533717319759042    0.0005941786138754
     0.0187906292699423    0.0119796751354797   29.7267912444447440
   H    Pd   C    N 
     1     1   124     2
Direct
  0.4417085654848117  0.5036288223791663  0.4673072512662036
  0.4375085096990587  0.4999952410951597  0.4151453259331808
  0.0419063198589590  0.0840465459864975  0.3995572376973023
  0.0406860985867896  0.2080259702290283  0.3993691950665525
  0.0398128283002816  0.3326124668142306  0.3989117779636986
  0.0398719645550940  0.4582169623481559  0.3987408981443952
  0.0411100234669819  0.5838892169955163  0.3991140160040644
  0.0421500616955819  0.7094042042144642  0.3994693711620202
  0.0425759311841712  0.8347485947091542  0.3996112681614803
  0.0426654182864643  0.9598291647530738  0.3995933915932581
  0.1682129657557465  0.0859894773368319  0.4002867190322355
  0.1669481635162639  0.2099167817614302  0.4010172753945874
  0.1646490531556659  0.3335588925648355  0.4011541312096544
  0.1628378630104227  0.4583822897513763  0.3997237510385367
  0.1644572559828721  0.5838447096432487  0.3990397985383963
  0.1661698510911313  0.7093499587053292  0.3992808872920812
  0.1670774520264497  0.8347925390042559  0.3996367957276299
  0.1676852757128243  0.9603234787601703  0.3998095726239427
  0.2928299185859153  0.0857210870990052  0.4003335548274871
  0.2945131281789742  0.2130113578786093  0.4029544432350233
  0.2915436222020551  0.3371104690984996  0.4066570154970911
  0.2852706229650218  0.4586467437873969  0.4063187484767862
  0.2873645142154120  0.5842577627370831  0.4023333984449096
  0.2902052601505645  0.7091352896429949  0.3999661653700369
  0.2914787308115679  0.8343072387695374  0.3994425162786242
  0.2921363809489839  0.9597734185764323  0.3995902508382488
  0.4172032692566410  0.0840019926920527  0.3996741442052432
  0.4179655533527314  0.2098385888622381  0.4016046217295653
  0.4215456299440766  0.3378308117715960  0.4065616108292299
  0.4141879898777951  0.7065768896438984  0.4033045773516129
  0.4158350728385352  0.8325796246209698  0.4001407745402168
  0.4165616248676963  0.9582807810572296  0.3994203459293811
  0.5415774417764202  0.0823113009182045  0.3994484689232674
  0.5423167491388361  0.2076688706460350  0.3997619485146310
  0.5439419621887598  0.3327357353988754  0.4018013339244064
  0.5474057537768424  0.4567694187121962  0.4063269750812120
  0.5482887180796079  0.5811574675812583  0.4109405162226830
  0.5382852340148363  0.7027211244713145  0.4061647271150794
  0.5400572793726802  0.8304483716414495  0.4015979703522555
  0.5410011305130904  0.9566376455978107  0.3997648456969674
  0.6660036424400270  0.0816002437972988  0.3996846578443307
  0.6667023777917706  0.2070915736428577  0.3994497969880020
  0.6678738162903666  0.3325021989531217  0.3992678633337846
  0.6702629953803878  0.4581759758588065  0.4000077601469487
  0.6712503412985977  0.5831284544323395  0.4020492829431988
  0.6670850801508138  0.7066247868386282  0.4028369781434414
  0.6647785270112191  0.8301270952963051  0.4014981710182660
  0.6654584489254813  0.9560334369026429  0.4001058221719891
  0.7906628230944489  0.0816067826912119  0.3996806587680357
  0.7910034733713153  0.2069142789598692  0.3996287680555698
  0.7918591940286902  0.3324597540844009  0.3993036762521877
  0.7932126099027308  0.4581251946836220  0.3987894720748973
  0.7943450028984570  0.5836927214966849  0.3987247501456875
  0.7932997784032146  0.7086172121136751  0.3994898997287613
  0.7916014937624944  0.8325221326373874  0.3997745873885413
  0.7904710156639215  0.9564843780213624  0.3997270072488356
  0.9158599840053739  0.0823863810097172  0.3994078684741749
  0.9155231330538225  0.2071458555866436  0.3993382503848298
  0.9157301229708267  0.3324725190028565  0.3992301071219460
  0.9165241307517703  0.4581044987067066  0.3991666569373822
  0.9177294606875841  0.5838503471596812  0.3990494900319612
  0.9179818048731634  0.7092797184432535  0.3990708464588885
  0.9175829738513326  0.8340812357221371  0.3992742098954903
  0.9166925677395393  0.9582617536553494  0.3993967546703132
  0.0845182032500058  0.0434943624540256  0.3997489502563862
  0.0833694948271368  0.1674402841000775  0.3997586457338007
  0.0816581174096335  0.2913413357692658  0.3994634258175098
  0.0805857632037902  0.4162843332783674  0.3987465192066619
  0.0817137099827626  0.5418580248281206  0.3988183339032145
  0.0831242558068776  0.6675248669910238  0.3993116397133093
  0.0839809284587040  0.7930620735425614  0.3996340754483699
  0.0843569275747332  0.9183634912496912  0.3997067341043506
  0.2095369985234940  0.0439499190860446  0.4001154111150227
  0.2101814267821620  0.1698461021761964  0.4014064037925114
  0.2078721195633423  0.2933431326963162  0.4026387957679960
  0.2037075458756257  0.4168515237963987  0.4018815265554662
  0.2046549183316121  0.5418064900819101  0.3999981915413692
  0.2070825542120645  0.6674999118557801  0.3992823877109663
  0.2082872913574792  0.7929142490352064  0.3994610887353925
  0.2090290191141595  0.9183944985631207  0.3997030645558811
  0.3339976779950655  0.0433583566518977  0.3997839924383996
  0.3349027193725755  0.1695357353233234  0.4016007968938113
  0.3366271534210187  0.2972460867870848  0.4059454775436984
  0.3268238404084565  0.4188958686788386  0.4103424856698130
  0.3274746269545379  0.5431722844487002  0.4060948780951672
  0.3309981947227924  0.6672566535874067  0.4017757189425765
  0.3326598360444593  0.7923405920959661  0.3997537495578439
  0.3334653037757578  0.9177014040175391  0.3994516539381814
  0.4584742142469343  0.0417202107829646  0.3994247433119816
  0.4591543863954407  0.1674098415654480  0.4001690009295127
  0.4607469337969373  0.2933944624742231  0.4033451056339428
  0.4533423632704046  0.6621080239030132  0.4065825561693124
  0.4569976997475351  0.7901419618338466  0.4015703830878672
  0.4578074076760914  0.9159882315536089  0.3996518780004920
  0.5828947170689812  0.0402259961720802  0.3995725002109244
  0.5835163252433049  0.1657093530875259  0.3994440297384764
  0.5847570905039717  0.2908801461550550  0.3999673455529732
  0.5875470118609780  0.4157270734613158  0.4023865072247349
  0.5896879092988642  0.5413070418210001  0.4067465925007208
  0.5834079600644977  0.6628974215384723  0.4070615784357220
  0.5804267826078984  0.7869603598389348  0.4030638584926070
  0.5821563649747014  0.9142675047459119  0.4003206733893873
  0.7073410043698566  0.0396618937254710  0.3997875785990403
  0.7079076329396928  0.1652027974680648  0.3996234168107978
  0.7088105396119844  0.2906587832673477  0.3992608514822590
  0.7104691109146493  0.4161502755970980  0.3990182411404395
  0.7121017952344718  0.5416006039013836  0.3997380540832937
  0.7103130631467039  0.6664088165548452  0.4012756780892674
  0.7080055453002447  0.7900420604613135  0.4011208197856025
  0.7067686725322637  0.9139886371215487  0.4002927772693998
  0.8323563715341931  0.0401452500089541  0.3995738197227804
  0.8324046336816292  0.1652215415226002  0.3995987680224105
  0.8328461399381865  0.2905748025581599  0.3994711469539859
  0.8338243554620560  0.4160967036545454  0.3991089984922391
  0.8350579591306168  0.5417638480398987  0.3987112109577952
  0.8351430171486967  0.6673456715429359  0.3988978815447317
  0.8342842281146887  0.7919463985762420  0.3993720141025747
  0.8330852619943243  0.9159225288719182  0.3995439560087438
  0.9583168294856397  0.0416984637036834  0.3994024586501247
  0.9573955058621273  0.1658836627431519  0.3992829629972570
  0.9569928071802566  0.2906887535852848  0.3990858574307760
  0.9572077829587085  0.4161294585608104  0.3990604012877306
  0.9584177294959054  0.5418785674766154  0.3991637895843330
  0.9592488343488216  0.6675061217868746  0.3992192988011655
  0.9594474141743442  0.7928090717476933  0.3993371731518687
  0.9591535582076448  0.9175806948537664  0.3994069313199405
  0.4070699163046689  0.5815448404943520  0.4086919017901652
  0.4677775104288429  0.4183767041940206  0.4088073587442570
 
  0.00000000E+00  0.00000000E+00  0.00000000E+00
  0.00000000E+00  0.00000000E+00  0.00000000E+00
  0.00000000E+00  0.00000000E+00  0.00000000E+00
  0.00000000E+00  0.00000000E+00  0.00000000E+00
  0.00000000E+00  0.00000000E+00  0.00000000E+00
  0.00000000E+00  0.00000000E+00  0.00000000E+00
  0.00000000E+00  0.00000000E+00  0.00000000E+00
  0.00000000E+00  0.00000000E+00  0.00000000E+00
  0.00000000E+00  0.00000000E+00  0.00000000E+00
  0.00000000E+00  0.00000000E+00  0.00000000E+00
  0.00000000E+00  0.00000000E+00  0.00000000E+00
  0.00000000E+00  0.00000000E+00  0.00000000E+00
  0.00000000E+00  0.00000000E+00  0.00000000E+00
  0.00000000E+00  0.00000000E+00  0.00000000E+00
  0.00000000E+00  0.00000000E+00  0.00000000E+00
  0.00000000E+00  0.00000000E+00  0.00000000E+00
  0.00000000E+00  0.00000000E+00  0.00000000E+00
  0.00000000E+00  0.00000000E+00  0.00000000E+00
  0.00000000E+00  0.00000000E+00  0.00000000E+00
  0.00000000E+00  0.00000000E+00  0.00000000E+00
  0.00000000E+00  0.00000000E+00  0.00000000E+00
  0.00000000E+00  0.00000000E+00  0.00000000E+00
  0.00000000E+00  0.00000000E+00  0.00000000E+00
  0.00000000E+00  0.00000000E+00  0.00000000E+00
  0.00000000E+00  0.00000000E+00  0.00000000E+00
  0.00000000E+00  0.00000000E+00  0.00000000E+00
  0.00000000E+00  0.00000000E+00  0.00000000E+00
  0.00000000E+00  0.00000000E+00  0.00000000E+00
  0.00000000E+00  0.00000000E+00  0.00000000E+00
  0.00000000E+00  0.00000000E+00  0.00000000E+00
  0.00000000E+00  0.00000000E+00  0.00000000E+00
  0.00000000E+00  0.00000000E+00  0.00000000E+00
  0.00000000E+00  0.00000000E+00  0.00000000E+00
  0.00000000E+00  0.00000000E+00  0.00000000E+00
  0.00000000E+00  0.00000000E+00  0.00000000E+00
  0.00000000E+00  0.00000000E+00  0.00000000E+00
  0.00000000E+00  0.00000000E+00  0.00000000E+00
  0.00000000E+00  0.00000000E+00  0.00000000E+00
  0.00000000E+00  0.00000000E+00  0.00000000E+00
  0.00000000E+00  0.00000000E+00  0.00000000E+00
  0.00000000E+00  0.00000000E+00  0.00000000E+00
  0.00000000E+00  0.00000000E+00  0.00000000E+00
  0.00000000E+00  0.00000000E+00  0.00000000E+00
  0.00000000E+00  0.00000000E+00  0.00000000E+00
  0.00000000E+00  0.00000000E+00  0.00000000E+00
  0.00000000E+00  0.00000000E+00  0.00000000E+00
  0.00000000E+00  0.00000000E+00  0.00000000E+00
  0.00000000E+00  0.00000000E+00  0.00000000E+00
  0.00000000E+00  0.00000000E+00  0.00000000E+00
  0.00000000E+00  0.00000000E+00  0.00000000E+00
  0.00000000E+00  0.00000000E+00  0.00000000E+00
  0.00000000E+00  0.00000000E+00  0.00000000E+00
  0.00000000E+00  0.00000000E+00  0.00000000E+00
  0.00000000E+00  0.00000000E+00  0.00000000E+00
  0.00000000E+00  0.00000000E+00  0.00000000E+00
  0.00000000E+00  0.00000000E+00  0.00000000E+00
  0.00000000E+00  0.00000000E+00  0.00000000E+00
  0.00000000E+00  0.00000000E+00  0.00000000E+00
  0.00000000E+00  0.00000000E+00  0.00000000E+00
  0.00000000E+00  0.00000000E+00  0.00000000E+00
  0.00000000E+00  0.00000000E+00  0.00000000E+00
  0.00000000E+00  0.00000000E+00  0.00000000E+00
  0.00000000E+00  0.00000000E+00  0.00000000E+00
  0.00000000E+00  0.00000000E+00  0.00000000E+00
  0.00000000E+00  0.00000000E+00  0.00000000E+00
  0.00000000E+00  0.00000000E+00  0.00000000E+00
  0.00000000E+00  0.00000000E+00  0.00000000E+00
  0.00000000E+00  0.00000000E+00  0.00000000E+00
  0.00000000E+00  0.00000000E+00  0.00000000E+00
  0.00000000E+00  0.00000000E+00  0.00000000E+00
  0.00000000E+00  0.00000000E+00  0.00000000E+00
  0.00000000E+00  0.00000000E+00  0.00000000E+00
  0.00000000E+00  0.00000000E+00  0.00000000E+00
  0.00000000E+00  0.00000000E+00  0.00000000E+00
  0.00000000E+00  0.00000000E+00  0.00000000E+00
  0.00000000E+00  0.00000000E+00  0.00000000E+00
  0.00000000E+00  0.00000000E+00  0.00000000E+00
  0.00000000E+00  0.00000000E+00  0.00000000E+00
  0.00000000E+00  0.00000000E+00  0.00000000E+00
  0.00000000E+00  0.00000000E+00  0.00000000E+00
  0.00000000E+00  0.00000000E+00  0.00000000E+00
  0.00000000E+00  0.00000000E+00  0.00000000E+00
  0.00000000E+00  0.00000000E+00  0.00000000E+00
  0.00000000E+00  0.00000000E+00  0.00000000E+00
  0.00000000E+00  0.00000000E+00  0.00000000E+00
  0.00000000E+00  0.00000000E+00  0.00000000E+00
  0.00000000E+00  0.00000000E+00  0.00000000E+00
  0.00000000E+00  0.00000000E+00  0.00000000E+00
  0.00000000E+00  0.00000000E+00  0.00000000E+00
  0.00000000E+00  0.00000000E+00  0.00000000E+00
  0.00000000E+00  0.00000000E+00  0.00000000E+00
  0.00000000E+00  0.00000000E+00  0.00000000E+00
  0.00000000E+00  0.00000000E+00  0.00000000E+00
  0.00000000E+00  0.00000000E+00  0.00000000E+00
  0.00000000E+00  0.00000000E+00  0.00000000E+00
  0.00000000E+00  0.00000000E+00  0.00000000E+00
  0.00000000E+00  0.00000000E+00  0.00000000E+00
  0.00000000E+00  0.00000000E+00  0.00000000E+00
  0.00000000E+00  0.00000000E+00  0.00000000E+00
  0.00000000E+00  0.00000000E+00  0.00000000E+00
  0.00000000E+00  0.00000000E+00  0.00000000E+00
  0.00000000E+00  0.00000000E+00  0.00000000E+00
  0.00000000E+00  0.00000000E+00  0.00000000E+00
  0.00000000E+00  0.00000000E+00  0.00000000E+00
  0.00000000E+00  0.00000000E+00  0.00000000E+00
  0.00000000E+00  0.00000000E+00  0.00000000E+00
  0.00000000E+00  0.00000000E+00  0.00000000E+00
  0.00000000E+00  0.00000000E+00  0.00000000E+00
  0.00000000E+00  0.00000000E+00  0.00000000E+00
  0.00000000E+00  0.00000000E+00  0.00000000E+00
  0.00000000E+00  0.00000000E+00  0.00000000E+00
  0.00000000E+00  0.00000000E+00  0.00000000E+00
  0.00000000E+00  0.00000000E+00  0.00000000E+00
  0.00000000E+00  0.00000000E+00  0.00000000E+00
  0.00000000E+00  0.00000000E+00  0.00000000E+00
  0.00000000E+00  0.00000000E+00  0.00000000E+00
  0.00000000E+00  0.00000000E+00  0.00000000E+00
  0.00000000E+00  0.00000000E+00  0.00000000E+00
  0.00000000E+00  0.00000000E+00  0.00000000E+00
  0.00000000E+00  0.00000000E+00  0.00000000E+00
  0.00000000E+00  0.00000000E+00  0.00000000E+00
  0.00000000E+00  0.00000000E+00  0.00000000E+00
  0.00000000E+00  0.00000000E+00  0.00000000E+00
  0.00000000E+00  0.00000000E+00  0.00000000E+00
  0.00000000E+00  0.00000000E+00  0.00000000E+00
  0.00000000E+00  0.00000000E+00  0.00000000E+00
  0.00000000E+00  0.00000000E+00  0.00000000E+00
  0.00000000E+00  0.00000000E+00  0.00000000E+00
