Au1 C125 N1                             
   1.00000000000000     
    19.8733497290680887   -0.0012792944006719    0.0281996599516376
    -9.9378045035483016   17.0621886977608597   -0.0280898990553531
     0.0425041827782788   -0.0241396512047660   29.6765703456957937
   Au   C    N 
     1   125     1
Direct
  0.4374536454308022  0.4993005596915675  0.4096025546877204
  0.0415341974767131  0.0838211217304034  0.3996295379971752
  0.0401662888810162  0.2077187640624356  0.3996031192715849
  0.0394242563192860  0.3323835152295536  0.3991369112516564
  0.0397131362702467  0.4581516274024489  0.3987287094484873
  0.0411585984057951  0.5839379815702589  0.3988544821452356
  0.0423301276653021  0.7095035335109775  0.3991754149306215
  0.0427947072055639  0.8349400663115286  0.3994015816461061
  0.0426547117890808  0.9598264679490901  0.3995276268318591
  0.1677501023278102  0.0856632695369575  0.4002140962314723
  0.1661833669268638  0.2093533150398432  0.4010758405011466
  0.1639984138006923  0.3332339166357872  0.4011120285278286
  0.1624024799602668  0.4581756091842940  0.3999501506227435
  0.1641937970359026  0.5838318956092449  0.3990971371776607
  0.1661444457284548  0.7094873279599966  0.3991247267493546
  0.1672275507150379  0.8349946021157753  0.3994565771182891
  0.1677531711149030  0.9604404483754229  0.3996274702554467
  0.2928745327740008  0.0857321422847220  0.4003347907885326
  0.2936240551923233  0.2123022598123253  0.4024867868141120
  0.2904516226631296  0.3360837700044769  0.4047839492575713
  0.2848348221580265  0.4582703913124249  0.4043435911318249
  0.2867699483568613  0.5845042125535507  0.4015091660027342
  0.2900134416842475  0.7094170788508083  0.3998361065496467
  0.2914527611765793  0.8344851049340962  0.3994775291533228
  0.2921644920287338  0.9598966656376835  0.3996170099009407
  0.4172349884529416  0.0839875827321889  0.3998186853820838
  0.4180634023975762  0.2096504996932094  0.4016564130855287
  0.4204336116021579  0.3368191944263224  0.4058204916274412
  0.4139793271059277  0.7072603958614405  0.4022567424890569
  0.4157298309722810  0.8329091786279423  0.4000454919152933
  0.4165606620352570  0.9584305678425864  0.3995899755066488
  0.5415814048693021  0.0822721410413724  0.3995554674085307
  0.5425071215554097  0.2076473380212393  0.3999559064399493
  0.5440843265240813  0.3327884737068815  0.4022936963748756
  0.5492990190322508  0.4577374077514658  0.4066581561460004
  0.5499037866328398  0.5815119730385543  0.4085837412546309
  0.5383077784993636  0.7027347256784062  0.4045685376822668
  0.5399479713328582  0.8304851285863921  0.4012139032146356
  0.5409485872035650  0.9566362217705523  0.3998256871694482
  0.6659273463913485  0.0814470845277264  0.3995911274930387
  0.6667280859938848  0.2069427319553868  0.3993464093889070
  0.6680011244222113  0.3323093919477743  0.3995022762737634
  0.6710951371520808  0.4580884134860820  0.4010284970099678
  0.6731404791211782  0.5843056601909373  0.4029811237120893
  0.6677902729128580  0.7070558341647704  0.4029100011835200
  0.6648911431282598  0.8301509018923290  0.4013585809506208
  0.6653736879172552  0.9559198489362152  0.4000275577331319
  0.7904939838663475  0.0814240141049271  0.3995928629579993
  0.7908526846227599  0.2066869163834234  0.3994162243608027
  0.7918824695363060  0.3323022934930977  0.3990255111029205
  0.7936799869977619  0.4581508664965344  0.3987821890438626
  0.7950617077068742  0.5838518787247269  0.3993145758541520
  0.7942013501693492  0.7092277180554409  0.4000238661652535
  0.7919144634021473  0.8327332175294503  0.4000508683520610
  0.7903964111147642  0.9564106739661719  0.3998161849900122
  0.9155960718275908  0.0821982061746704  0.3994773502106793
  0.9152336634911709  0.2069606685824038  0.3992618216391873
  0.9155625167048137  0.3323106143006273  0.3990054382746102
  0.9166378872927871  0.4580238370660338  0.3988163338625826
  0.9180679695634426  0.5839381768741052  0.3987630141107902
  0.9184245976902145  0.7095358512256642  0.3990020919853636
  0.9179231473846126  0.8343027276167151  0.3993291507944145
  0.9166650610562349  0.9582325252615416  0.3994813832169505
  0.0842008729678368  0.0433074609281140  0.3997291694594828
  0.0827427912434530  0.1670750154510592  0.3999447341799083
  0.0810434481694965  0.2910423972572964  0.3997449495962897
  0.0803066704876174  0.4161410623124029  0.3990307318579092
  0.0815556775627669  0.5418058095312094  0.3987590579264395
  0.0832043992799943  0.6676038276402331  0.3990495624445571
  0.0841571701689590  0.7932432092093179  0.3993845676354551
  0.0844507624420933  0.9185063788304570  0.3995394440389214
  0.2094561827757832  0.0439635725195493  0.4000012432429809
  0.2093416846394324  0.1693193698556695  0.4012381436750637
  0.2069098063885771  0.2927387283513019  0.4022768372232897
  0.2030137896333957  0.4164965223244340  0.4015626238729891
  0.2042370570614047  0.5418057020499866  0.3999711854143432
  0.2069806542873343  0.6676041603335500  0.3992292956148191
  0.2083254332410485  0.7930398673490298  0.3993522192153263
  0.2091226557518397  0.9185269701096167  0.3995710412326903
  0.3340690752655588  0.0434021681601962  0.3998642387543035
  0.3348863832981119  0.1693392109787563  0.4015261998072496
  0.3352462982344454  0.2957928374260861  0.4047203261519392
  0.3257078439909771  0.4180416333973721  0.4066088589125583
  0.3272385846338499  0.5437264613514878  0.4042271989302614
  0.3307619487954848  0.6675156011573175  0.4011508943527753
  0.3326006769074262  0.7925936776905680  0.3997227816815727
  0.3334840297176787  0.9178454719036702  0.3995550173979278
  0.4585477171482304  0.0417799696087625  0.3996037602362323
  0.4592709166321195  0.1672884282744792  0.4003220238945039
  0.4607266533325348  0.2931036432314735  0.4033332134860770
  0.4681532436584230  0.4189075303842409  0.4084018578333545
  0.4530557759571485  0.6628988170299300  0.4046286636253765
  0.4569296577901680  0.7906295518515259  0.4010981151470194
  0.4577880650613282  0.9161838841810958  0.3997382600496989
  0.5828552021024489  0.0401517395731739  0.3996210042780716
  0.5836319571790644  0.1656727698118779  0.3995013731680970
  0.5849732806727207  0.2908153098664305  0.4003665011294736
  0.5885815440914677  0.4157648252429080  0.4032378359400841
  0.5921103085560397  0.5427618892763157  0.4066236277587032
  0.5839190347382177  0.6630266543739868  0.4056223098691386
  0.5803717250943795  0.7868287851316648  0.4023701900064806
  0.5820987907597731  0.9142417844269085  0.4002505255194946
  0.7072355276984127  0.0394961056110138  0.3996759820744581
  0.7078671990684715  0.1650267319540039  0.3994526356979006
  0.7088500654711091  0.2904547316512301  0.3991414635605560
  0.7110611003573879  0.4161116538217355  0.3994670355530188
  0.7131613692487698  0.5418961797859947  0.4008965389582987
  0.7114443364712458  0.6672841343732856  0.4018943044328183
  0.7083490091842952  0.7903256382670013  0.4013061659483615
  0.7067326432011254  0.9139201842262743  0.4002907192854854
  0.8321472281966864  0.0399993724278999  0.3995982415353763
  0.8321662576083384  0.1650015811254029  0.3994476576178259
  0.8327673643601099  0.2904084599605528  0.3991949631104226
  0.8340583721377068  0.4160002138291777  0.3987910519614632
  0.8355625249480939  0.5417989063320963  0.3987372419863032
  0.8357293626943432  0.6676812440005411  0.3992759048701752
  0.8348389993120665  0.7923743253295371  0.3996706075805593
  0.8331356302288521  0.9159892108467935  0.3996861024057143
  0.9580398745383820  0.0415717971760404  0.3994862710496860
  0.9570219477826802  0.1656554671294412  0.3993655666865455
  0.9566799924227124  0.2904703170593169  0.3990331723143103
  0.9571549340467088  0.4160007935662508  0.3988241012874340
  0.9585996814041593  0.5419082901711925  0.3988241013169750
  0.9595556927660017  0.6676467166407950  0.3989629798318824
  0.9597575419806971  0.7930258092571153  0.3992274875818059
  0.9592280298409074  0.9176754345975240  0.3994200489516183
  0.4061038045424284  0.5829154734353323  0.4063888384839904
 
  0.00000000E+00  0.00000000E+00  0.00000000E+00
  0.00000000E+00  0.00000000E+00  0.00000000E+00
  0.00000000E+00  0.00000000E+00  0.00000000E+00
  0.00000000E+00  0.00000000E+00  0.00000000E+00
  0.00000000E+00  0.00000000E+00  0.00000000E+00
  0.00000000E+00  0.00000000E+00  0.00000000E+00
  0.00000000E+00  0.00000000E+00  0.00000000E+00
  0.00000000E+00  0.00000000E+00  0.00000000E+00
  0.00000000E+00  0.00000000E+00  0.00000000E+00
  0.00000000E+00  0.00000000E+00  0.00000000E+00
  0.00000000E+00  0.00000000E+00  0.00000000E+00
  0.00000000E+00  0.00000000E+00  0.00000000E+00
  0.00000000E+00  0.00000000E+00  0.00000000E+00
  0.00000000E+00  0.00000000E+00  0.00000000E+00
  0.00000000E+00  0.00000000E+00  0.00000000E+00
  0.00000000E+00  0.00000000E+00  0.00000000E+00
  0.00000000E+00  0.00000000E+00  0.00000000E+00
  0.00000000E+00  0.00000000E+00  0.00000000E+00
  0.00000000E+00  0.00000000E+00  0.00000000E+00
  0.00000000E+00  0.00000000E+00  0.00000000E+00
  0.00000000E+00  0.00000000E+00  0.00000000E+00
  0.00000000E+00  0.00000000E+00  0.00000000E+00
  0.00000000E+00  0.00000000E+00  0.00000000E+00
  0.00000000E+00  0.00000000E+00  0.00000000E+00
  0.00000000E+00  0.00000000E+00  0.00000000E+00
  0.00000000E+00  0.00000000E+00  0.00000000E+00
  0.00000000E+00  0.00000000E+00  0.00000000E+00
  0.00000000E+00  0.00000000E+00  0.00000000E+00
  0.00000000E+00  0.00000000E+00  0.00000000E+00
  0.00000000E+00  0.00000000E+00  0.00000000E+00
  0.00000000E+00  0.00000000E+00  0.00000000E+00
  0.00000000E+00  0.00000000E+00  0.00000000E+00
  0.00000000E+00  0.00000000E+00  0.00000000E+00
  0.00000000E+00  0.00000000E+00  0.00000000E+00
  0.00000000E+00  0.00000000E+00  0.00000000E+00
  0.00000000E+00  0.00000000E+00  0.00000000E+00
  0.00000000E+00  0.00000000E+00  0.00000000E+00
  0.00000000E+00  0.00000000E+00  0.00000000E+00
  0.00000000E+00  0.00000000E+00  0.00000000E+00
  0.00000000E+00  0.00000000E+00  0.00000000E+00
  0.00000000E+00  0.00000000E+00  0.00000000E+00
  0.00000000E+00  0.00000000E+00  0.00000000E+00
  0.00000000E+00  0.00000000E+00  0.00000000E+00
  0.00000000E+00  0.00000000E+00  0.00000000E+00
  0.00000000E+00  0.00000000E+00  0.00000000E+00
  0.00000000E+00  0.00000000E+00  0.00000000E+00
  0.00000000E+00  0.00000000E+00  0.00000000E+00
  0.00000000E+00  0.00000000E+00  0.00000000E+00
  0.00000000E+00  0.00000000E+00  0.00000000E+00
  0.00000000E+00  0.00000000E+00  0.00000000E+00
  0.00000000E+00  0.00000000E+00  0.00000000E+00
  0.00000000E+00  0.00000000E+00  0.00000000E+00
  0.00000000E+00  0.00000000E+00  0.00000000E+00
  0.00000000E+00  0.00000000E+00  0.00000000E+00
  0.00000000E+00  0.00000000E+00  0.00000000E+00
  0.00000000E+00  0.00000000E+00  0.00000000E+00
  0.00000000E+00  0.00000000E+00  0.00000000E+00
  0.00000000E+00  0.00000000E+00  0.00000000E+00
  0.00000000E+00  0.00000000E+00  0.00000000E+00
  0.00000000E+00  0.00000000E+00  0.00000000E+00
  0.00000000E+00  0.00000000E+00  0.00000000E+00
  0.00000000E+00  0.00000000E+00  0.00000000E+00
  0.00000000E+00  0.00000000E+00  0.00000000E+00
  0.00000000E+00  0.00000000E+00  0.00000000E+00
  0.00000000E+00  0.00000000E+00  0.00000000E+00
  0.00000000E+00  0.00000000E+00  0.00000000E+00
  0.00000000E+00  0.00000000E+00  0.00000000E+00
  0.00000000E+00  0.00000000E+00  0.00000000E+00
  0.00000000E+00  0.00000000E+00  0.00000000E+00
  0.00000000E+00  0.00000000E+00  0.00000000E+00
  0.00000000E+00  0.00000000E+00  0.00000000E+00
  0.00000000E+00  0.00000000E+00  0.00000000E+00
  0.00000000E+00  0.00000000E+00  0.00000000E+00
  0.00000000E+00  0.00000000E+00  0.00000000E+00
  0.00000000E+00  0.00000000E+00  0.00000000E+00
  0.00000000E+00  0.00000000E+00  0.00000000E+00
  0.00000000E+00  0.00000000E+00  0.00000000E+00
  0.00000000E+00  0.00000000E+00  0.00000000E+00
  0.00000000E+00  0.00000000E+00  0.00000000E+00
  0.00000000E+00  0.00000000E+00  0.00000000E+00
  0.00000000E+00  0.00000000E+00  0.00000000E+00
  0.00000000E+00  0.00000000E+00  0.00000000E+00
  0.00000000E+00  0.00000000E+00  0.00000000E+00
  0.00000000E+00  0.00000000E+00  0.00000000E+00
  0.00000000E+00  0.00000000E+00  0.00000000E+00
  0.00000000E+00  0.00000000E+00  0.00000000E+00
  0.00000000E+00  0.00000000E+00  0.00000000E+00
  0.00000000E+00  0.00000000E+00  0.00000000E+00
  0.00000000E+00  0.00000000E+00  0.00000000E+00
  0.00000000E+00  0.00000000E+00  0.00000000E+00
  0.00000000E+00  0.00000000E+00  0.00000000E+00
  0.00000000E+00  0.00000000E+00  0.00000000E+00
  0.00000000E+00  0.00000000E+00  0.00000000E+00
  0.00000000E+00  0.00000000E+00  0.00000000E+00
  0.00000000E+00  0.00000000E+00  0.00000000E+00
  0.00000000E+00  0.00000000E+00  0.00000000E+00
  0.00000000E+00  0.00000000E+00  0.00000000E+00
  0.00000000E+00  0.00000000E+00  0.00000000E+00
  0.00000000E+00  0.00000000E+00  0.00000000E+00
  0.00000000E+00  0.00000000E+00  0.00000000E+00
  0.00000000E+00  0.00000000E+00  0.00000000E+00
  0.00000000E+00  0.00000000E+00  0.00000000E+00
  0.00000000E+00  0.00000000E+00  0.00000000E+00
  0.00000000E+00  0.00000000E+00  0.00000000E+00
  0.00000000E+00  0.00000000E+00  0.00000000E+00
  0.00000000E+00  0.00000000E+00  0.00000000E+00
  0.00000000E+00  0.00000000E+00  0.00000000E+00
  0.00000000E+00  0.00000000E+00  0.00000000E+00
  0.00000000E+00  0.00000000E+00  0.00000000E+00
  0.00000000E+00  0.00000000E+00  0.00000000E+00
  0.00000000E+00  0.00000000E+00  0.00000000E+00
  0.00000000E+00  0.00000000E+00  0.00000000E+00
  0.00000000E+00  0.00000000E+00  0.00000000E+00
  0.00000000E+00  0.00000000E+00  0.00000000E+00
  0.00000000E+00  0.00000000E+00  0.00000000E+00
  0.00000000E+00  0.00000000E+00  0.00000000E+00
  0.00000000E+00  0.00000000E+00  0.00000000E+00
  0.00000000E+00  0.00000000E+00  0.00000000E+00
  0.00000000E+00  0.00000000E+00  0.00000000E+00
  0.00000000E+00  0.00000000E+00  0.00000000E+00
  0.00000000E+00  0.00000000E+00  0.00000000E+00
  0.00000000E+00  0.00000000E+00  0.00000000E+00
  0.00000000E+00  0.00000000E+00  0.00000000E+00
  0.00000000E+00  0.00000000E+00  0.00000000E+00
  0.00000000E+00  0.00000000E+00  0.00000000E+00
  0.00000000E+00  0.00000000E+00  0.00000000E+00
  0.00000000E+00  0.00000000E+00  0.00000000E+00
