Rh1 C123 N3 O1                          
   1.00000000000000     
    19.8152159006204762    0.0190060489721240    0.0795329732395627
    -9.8911605958374551   17.0149406135489976   -0.1417535594659176
     0.1197587674317377   -0.1782877662951254   29.8300028176028675
   Rh   C    N    O 
     1   123     3     1
Direct
  0.4364562374815595  0.4990782412137835  0.4241276516252014
  0.0416916410779061  0.0840750176630664  0.3997982622527098
  0.0403757301500965  0.2079527931078339  0.4001453036055567
  0.0396622158582527  0.3327087349937505  0.3995477708544021
  0.0401603641829087  0.4581087232349010  0.3989927199022041
  0.0414471816464596  0.5838041300608779  0.3990060439044800
  0.0425251920322721  0.7094167722272523  0.3991213833072518
  0.0428395346212656  0.8347829800066460  0.3991919093697905
  0.0426021106182458  0.9597993939451467  0.3993180593217577
  0.1677749600411184  0.0857371218593969  0.4008094335642600
  0.1668344186098217  0.2101492335148447  0.4020401342627609
  0.1641742498966904  0.3333107647117172  0.4019735013855882
  0.1636179912517492  0.4581300947834943  0.3995472586412890
  0.1650295010344709  0.5835522510391513  0.3992848161655469
  0.1665938461956289  0.7090473002189644  0.3993716159391331
  0.1673882309620500  0.8346561606635593  0.3993077313862423
  0.1677197330428290  0.9603008918239245  0.3996329339141891
  0.2926839684064246  0.0861397025888344  0.4007421008672418
  0.2931544705983894  0.2130171314827898  0.4036704806568212
  0.2910923735363813  0.3379285399966592  0.4071871247012586
  0.2864245216596553  0.4575085145415014  0.4036322478342345
  0.2881778825903736  0.5825853248764249  0.3996704126330884
  0.2907281962831583  0.7081783319336484  0.3996224189099832
  0.2918156960376854  0.8339454148630089  0.3995375655080054
  0.2923234361666657  0.9598709984845891  0.3994853581893357
  0.4170960425377393  0.0845794311282494  0.3999096129334353
  0.4176933586955075  0.2111587919574988  0.4015826507952768
  0.4192746364635384  0.3390029756882966  0.4048700504867372
  0.4147618478704904  0.7053609905903911  0.4006983989857453
  0.4161196554005220  0.8320145198278914  0.4002777999162299
  0.4166948738691612  0.9583131010561263  0.3995309661595723
  0.5414054424836166  0.0827279234568041  0.3994294251374588
  0.5420223036540839  0.2087482298523783  0.3999255751842210
  0.5432736222797583  0.3346770261395501  0.4010634101176311
  0.5477907523482467  0.4606950426710642  0.4048487889865528
  0.5382989119552807  0.7011566841948977  0.4044680731490962
  0.5403389365275338  0.8298043457711429  0.4014753474943737
  0.5409784691203047  0.9565266307800754  0.4000099509593654
  0.6657971245645958  0.0818466273431976  0.3994972083025441
  0.6663242065328832  0.2075402256433696  0.3992830270006937
  0.6674176771117405  0.3332249663806022  0.3994744643881254
  0.6699321359999005  0.4590403400050909  0.4003398033406416
  0.6717525748393502  0.5847509665708883  0.4028486393651902
  0.6670903227550409  0.7064980210998083  0.4033530713686838
  0.6647009519992187  0.8300709822522975  0.4019739083746364
  0.6653531719025092  0.9560485443527657  0.4004745346823342
  0.7904024925375530  0.0817568893599176  0.3995716708426834
  0.7906904763745490  0.2071827348910757  0.3992450103731027
  0.7914924892668197  0.3327748965969097  0.3990359274589269
  0.7930405628644561  0.4584826968189331  0.3988869494555937
  0.7943939066273904  0.5841685620165648  0.3993315908004883
  0.7939573091491294  0.7092944090126003  0.4004505174696306
  0.7914587403233746  0.8325156200141429  0.4003191995473008
  0.7903044829391902  0.9565503819587793  0.4000010060893179
  0.9155749557959549  0.0824044953693670  0.3994015270485435
  0.9152433950056924  0.2072461667913945  0.3993765054095863
  0.9155262301600592  0.3326222320077852  0.3990320938101331
  0.9165918407008987  0.4582815586411704  0.3987972037088486
  0.9178818320094937  0.5840011897861891  0.3987877735208454
  0.9183109540730352  0.7094380783634963  0.3990918649756173
  0.9178277281865854  0.8343435205796227  0.3992620799805571
  0.9165771465387301  0.9583134217552590  0.3992925402286683
  0.0842762522134807  0.0433847917783062  0.3998649261203727
  0.0832357428626724  0.1675991784389948  0.4005279479528275
  0.0814170489373351  0.2912896159675235  0.4004778215044323
  0.0809805340963084  0.4160801881112404  0.3992479385875724
  0.0821674342015068  0.5417166094517427  0.3990647991742647
  0.0835342202842565  0.6673908842624974  0.3991769657685708
  0.0842803374914444  0.7929919243194670  0.3992237995500019
  0.0844722390763906  0.9183593311892113  0.3993536840126191
  0.2094098893752147  0.0440161678095868  0.4004053959300787
  0.2095043361483371  0.1696020408972791  0.4023637648510530
  0.2077221906026249  0.2937106277169587  0.4034676790626177
  0.2046007103106839  0.4164272271340180  0.4011862331644808
  0.2054028279977474  0.5412306060557702  0.3994900507591229
  0.2075068403004751  0.6669755823511038  0.3994171428618827
  0.2086598907770951  0.7926587293704539  0.3993888710061020
  0.2091811653173463  0.9183385604800037  0.3994339533263929
  0.3339757350903357  0.0436723808500491  0.3999411436089789
  0.3344074733989109  0.1701824898997932  0.4020588148252396
  0.3350772711384987  0.2975847860000400  0.4061773568813278
  0.3287575813131117  0.5410747727350250  0.4007702968098055
  0.3314733219902301  0.6658712387126653  0.3996941107277813
  0.3330041925083624  0.7916505280045673  0.3998372003411860
  0.3335942067010809  0.9175279468249720  0.3994443552288647
  0.4583283733927908  0.0419810976290239  0.3995172008417661
  0.4588039862255281  0.1683175331546043  0.4004283820658558
  0.4598161116524592  0.2950820902346405  0.4021708388457152
  0.4657451054352069  0.4221621016204593  0.4067580796689575
  0.4539692816523646  0.6605249620498472  0.4020397288833440
  0.4571992619886659  0.7891856918061149  0.4009653500006807
  0.4578796084166838  0.9157255530253768  0.3999364765193044
  0.5826491895285295  0.0403252019515085  0.3995422007782774
  0.5831898540662307  0.1663690528707731  0.3994588693811525
  0.5841501816341987  0.2922052409102700  0.4000175071562319
  0.5872152488737241  0.4179883841553406  0.4016704546967205
  0.5905431187911554  0.5440656485706133  0.4069417913022134
  0.5833874031823414  0.6616045523738365  0.4069742335668178
  0.5807823251906690  0.7863444000794200  0.4027537850460116
  0.5821765947760873  0.9139720070945190  0.4006618984516576
  0.7071584726075454  0.0398151148836750  0.3997907402273125
  0.7076140476074907  0.1655276927939713  0.3992801733721993
  0.7083679286554586  0.2911378677695873  0.3992216636522747
  0.7102120482562834  0.4167275452658122  0.3993607085773422
  0.7120014104194790  0.5422721738755362  0.4004441169687752
  0.7112932251136531  0.6674966412416110  0.4024199299265768
  0.7077772382653744  0.7899069914848240  0.4016674129785263
  0.7066787339776622  0.9140516669690674  0.4008113275904779
  0.8321382523314128  0.0402288312815487  0.3995651687127849
  0.8321281748601197  0.1653941865543861  0.3993600559768442
  0.8325363208540700  0.2907672376725892  0.3990842708650866
  0.8337346767112658  0.4163679357029972  0.3988476054931167
  0.8351409487044782  0.5420935926614198  0.3988192123120938
  0.8355232877703894  0.6676304302111092  0.3995118528981930
  0.8346209137199896  0.7923754651442931  0.3999060697552674
  0.8329735991331413  0.9159782512566961  0.3997668474572569
  0.9581516244946910  0.0417500497978472  0.3993632622437859
  0.9571202312303828  0.1658674597218886  0.3995228784606995
  0.9568047245590738  0.2908172175087122  0.3992513980744728
  0.9573486678434339  0.4162013408310042  0.3989143062750027
  0.9586227304698038  0.5418904202282800  0.3988150048606616
  0.9595819611039387  0.6675791161581338  0.3989502628330613
  0.9597163790669536  0.7929666692231006  0.3991616819577883
  0.9592269051080607  0.9177231734104031  0.3991686272705272
  0.4091353369193698  0.5794651056329024  0.4009703355862130
  0.5490707627855398  0.5820533701351768  0.4120970667341837
  0.3270696929655502  0.4186683545602875  0.4105575138308125
  0.4450593720793562  0.4911745875741653  0.4836110492976333
 
  0.00000000E+00  0.00000000E+00  0.00000000E+00
  0.00000000E+00  0.00000000E+00  0.00000000E+00
  0.00000000E+00  0.00000000E+00  0.00000000E+00
  0.00000000E+00  0.00000000E+00  0.00000000E+00
  0.00000000E+00  0.00000000E+00  0.00000000E+00
  0.00000000E+00  0.00000000E+00  0.00000000E+00
  0.00000000E+00  0.00000000E+00  0.00000000E+00
  0.00000000E+00  0.00000000E+00  0.00000000E+00
  0.00000000E+00  0.00000000E+00  0.00000000E+00
  0.00000000E+00  0.00000000E+00  0.00000000E+00
  0.00000000E+00  0.00000000E+00  0.00000000E+00
  0.00000000E+00  0.00000000E+00  0.00000000E+00
  0.00000000E+00  0.00000000E+00  0.00000000E+00
  0.00000000E+00  0.00000000E+00  0.00000000E+00
  0.00000000E+00  0.00000000E+00  0.00000000E+00
  0.00000000E+00  0.00000000E+00  0.00000000E+00
  0.00000000E+00  0.00000000E+00  0.00000000E+00
  0.00000000E+00  0.00000000E+00  0.00000000E+00
  0.00000000E+00  0.00000000E+00  0.00000000E+00
  0.00000000E+00  0.00000000E+00  0.00000000E+00
  0.00000000E+00  0.00000000E+00  0.00000000E+00
  0.00000000E+00  0.00000000E+00  0.00000000E+00
  0.00000000E+00  0.00000000E+00  0.00000000E+00
  0.00000000E+00  0.00000000E+00  0.00000000E+00
  0.00000000E+00  0.00000000E+00  0.00000000E+00
  0.00000000E+00  0.00000000E+00  0.00000000E+00
  0.00000000E+00  0.00000000E+00  0.00000000E+00
  0.00000000E+00  0.00000000E+00  0.00000000E+00
  0.00000000E+00  0.00000000E+00  0.00000000E+00
  0.00000000E+00  0.00000000E+00  0.00000000E+00
  0.00000000E+00  0.00000000E+00  0.00000000E+00
  0.00000000E+00  0.00000000E+00  0.00000000E+00
  0.00000000E+00  0.00000000E+00  0.00000000E+00
  0.00000000E+00  0.00000000E+00  0.00000000E+00
  0.00000000E+00  0.00000000E+00  0.00000000E+00
  0.00000000E+00  0.00000000E+00  0.00000000E+00
  0.00000000E+00  0.00000000E+00  0.00000000E+00
  0.00000000E+00  0.00000000E+00  0.00000000E+00
  0.00000000E+00  0.00000000E+00  0.00000000E+00
  0.00000000E+00  0.00000000E+00  0.00000000E+00
  0.00000000E+00  0.00000000E+00  0.00000000E+00
  0.00000000E+00  0.00000000E+00  0.00000000E+00
  0.00000000E+00  0.00000000E+00  0.00000000E+00
  0.00000000E+00  0.00000000E+00  0.00000000E+00
  0.00000000E+00  0.00000000E+00  0.00000000E+00
  0.00000000E+00  0.00000000E+00  0.00000000E+00
  0.00000000E+00  0.00000000E+00  0.00000000E+00
  0.00000000E+00  0.00000000E+00  0.00000000E+00
  0.00000000E+00  0.00000000E+00  0.00000000E+00
  0.00000000E+00  0.00000000E+00  0.00000000E+00
  0.00000000E+00  0.00000000E+00  0.00000000E+00
  0.00000000E+00  0.00000000E+00  0.00000000E+00
  0.00000000E+00  0.00000000E+00  0.00000000E+00
  0.00000000E+00  0.00000000E+00  0.00000000E+00
  0.00000000E+00  0.00000000E+00  0.00000000E+00
  0.00000000E+00  0.00000000E+00  0.00000000E+00
  0.00000000E+00  0.00000000E+00  0.00000000E+00
  0.00000000E+00  0.00000000E+00  0.00000000E+00
  0.00000000E+00  0.00000000E+00  0.00000000E+00
  0.00000000E+00  0.00000000E+00  0.00000000E+00
  0.00000000E+00  0.00000000E+00  0.00000000E+00
  0.00000000E+00  0.00000000E+00  0.00000000E+00
  0.00000000E+00  0.00000000E+00  0.00000000E+00
  0.00000000E+00  0.00000000E+00  0.00000000E+00
  0.00000000E+00  0.00000000E+00  0.00000000E+00
  0.00000000E+00  0.00000000E+00  0.00000000E+00
  0.00000000E+00  0.00000000E+00  0.00000000E+00
  0.00000000E+00  0.00000000E+00  0.00000000E+00
  0.00000000E+00  0.00000000E+00  0.00000000E+00
  0.00000000E+00  0.00000000E+00  0.00000000E+00
  0.00000000E+00  0.00000000E+00  0.00000000E+00
  0.00000000E+00  0.00000000E+00  0.00000000E+00
  0.00000000E+00  0.00000000E+00  0.00000000E+00
  0.00000000E+00  0.00000000E+00  0.00000000E+00
  0.00000000E+00  0.00000000E+00  0.00000000E+00
  0.00000000E+00  0.00000000E+00  0.00000000E+00
  0.00000000E+00  0.00000000E+00  0.00000000E+00
  0.00000000E+00  0.00000000E+00  0.00000000E+00
  0.00000000E+00  0.00000000E+00  0.00000000E+00
  0.00000000E+00  0.00000000E+00  0.00000000E+00
  0.00000000E+00  0.00000000E+00  0.00000000E+00
  0.00000000E+00  0.00000000E+00  0.00000000E+00
  0.00000000E+00  0.00000000E+00  0.00000000E+00
  0.00000000E+00  0.00000000E+00  0.00000000E+00
  0.00000000E+00  0.00000000E+00  0.00000000E+00
  0.00000000E+00  0.00000000E+00  0.00000000E+00
  0.00000000E+00  0.00000000E+00  0.00000000E+00
  0.00000000E+00  0.00000000E+00  0.00000000E+00
  0.00000000E+00  0.00000000E+00  0.00000000E+00
  0.00000000E+00  0.00000000E+00  0.00000000E+00
  0.00000000E+00  0.00000000E+00  0.00000000E+00
  0.00000000E+00  0.00000000E+00  0.00000000E+00
  0.00000000E+00  0.00000000E+00  0.00000000E+00
  0.00000000E+00  0.00000000E+00  0.00000000E+00
  0.00000000E+00  0.00000000E+00  0.00000000E+00
  0.00000000E+00  0.00000000E+00  0.00000000E+00
  0.00000000E+00  0.00000000E+00  0.00000000E+00
  0.00000000E+00  0.00000000E+00  0.00000000E+00
  0.00000000E+00  0.00000000E+00  0.00000000E+00
  0.00000000E+00  0.00000000E+00  0.00000000E+00
  0.00000000E+00  0.00000000E+00  0.00000000E+00
  0.00000000E+00  0.00000000E+00  0.00000000E+00
  0.00000000E+00  0.00000000E+00  0.00000000E+00
  0.00000000E+00  0.00000000E+00  0.00000000E+00
  0.00000000E+00  0.00000000E+00  0.00000000E+00
  0.00000000E+00  0.00000000E+00  0.00000000E+00
  0.00000000E+00  0.00000000E+00  0.00000000E+00
  0.00000000E+00  0.00000000E+00  0.00000000E+00
  0.00000000E+00  0.00000000E+00  0.00000000E+00
  0.00000000E+00  0.00000000E+00  0.00000000E+00
  0.00000000E+00  0.00000000E+00  0.00000000E+00
  0.00000000E+00  0.00000000E+00  0.00000000E+00
  0.00000000E+00  0.00000000E+00  0.00000000E+00
  0.00000000E+00  0.00000000E+00  0.00000000E+00
  0.00000000E+00  0.00000000E+00  0.00000000E+00
  0.00000000E+00  0.00000000E+00  0.00000000E+00
  0.00000000E+00  0.00000000E+00  0.00000000E+00
  0.00000000E+00  0.00000000E+00  0.00000000E+00
  0.00000000E+00  0.00000000E+00  0.00000000E+00
  0.00000000E+00  0.00000000E+00  0.00000000E+00
  0.00000000E+00  0.00000000E+00  0.00000000E+00
  0.00000000E+00  0.00000000E+00  0.00000000E+00
  0.00000000E+00  0.00000000E+00  0.00000000E+00
  0.00000000E+00  0.00000000E+00  0.00000000E+00
  0.00000000E+00  0.00000000E+00  0.00000000E+00
  0.00000000E+00  0.00000000E+00  0.00000000E+00
  0.00000000E+00  0.00000000E+00  0.00000000E+00
  0.00000000E+00  0.00000000E+00  0.00000000E+00
