Sc1 C125 N1 O1                          
   1.00000000000000     
    19.6909743134165360   -0.0083142112814645   -0.0983791960923282
    -9.8528082051558137   17.1072632894672161    0.2091976608081924
    -0.1480132251035392    0.2786547348687499   29.8819273553478553
   Sc   C    N    O 
     1   125     1     1
Direct
  0.4376291818230877  0.5105943455646431  0.4547490318405413
  0.0418468827180106  0.0832450122048442  0.3997116152314362
  0.0427154559474483  0.2087885824118879  0.3996075999460605
  0.0431474629187348  0.3335496593194178  0.3993738659878868
  0.0428990739463987  0.4581647451799751  0.3991124721950866
  0.0416416392184975  0.5828904947808565  0.3991437366963365
  0.0412995435246694  0.7077811285502960  0.3993333655094918
  0.0412399516262491  0.8327779660566466  0.3994938665022584
  0.0413056038867740  0.9578170026414110  0.3996413554963879
  0.1661686810585148  0.0824147446426673  0.4000469287783736
  0.1672560006879817  0.2080828580998591  0.4000350434212172
  0.1693602589228732  0.3342449230586473  0.3996089622979766
  0.1697155382368047  0.4585643367369332  0.3990095352781967
  0.1670202348044392  0.5830570512588437  0.3985070671592058
  0.1664139550751364  0.7079641526585467  0.3990447496656235
  0.1663196631846905  0.8328609488673117  0.3995598826363701
  0.1663268587973709  0.9577042867734177  0.3998762642260936
  0.2912991139232928  0.0823226935181358  0.4000904774641140
  0.2909917354339512  0.2064786133266417  0.4002355044695454
  0.2937197254265054  0.3328903827045599  0.4002052505415172
  0.2997066591968996  0.4597437837583012  0.3998644309118105
  0.2921032331650193  0.5840226048588715  0.3990387021888390
  0.2914655991128501  0.7086344154492314  0.3987497416448686
  0.2914920268586735  0.8332349131911417  0.3991412976942796
  0.2913808458857761  0.9578126061266992  0.3996994710989868
  0.4165170769854641  0.0830156482616295  0.3997684871523506
  0.4160324728560126  0.2076075773277611  0.4001684114484539
  0.4148304171934064  0.3322041602726034  0.4005137317800729
  0.4163684467429861  0.7089738870452114  0.4005207065051098
  0.4166068927661853  0.8335693523815353  0.3991492285233268
  0.4165638000798054  0.9582751452287459  0.3993171783140821
  0.5416462800502074  0.0832518280255403  0.3994960523549200
  0.5413710115155166  0.2082808083006744  0.3996373962225742
  0.5403242697174809  0.3332719862780920  0.3996013698008228
  0.5359846044631189  0.4584012347390446  0.4009546868476413
  0.5448421503634863  0.5836904708613954  0.4145057302181255
  0.5410272057291212  0.7069324648160095  0.4061620734275099
  0.5414494540078909  0.8329872823323268  0.4005456453572547
  0.5416799156635513  0.9582223609889302  0.3993791933002032
  0.6667614147621674  0.0832927686493359  0.3995212098208051
  0.6666174129776415  0.2083350090061853  0.3995762266271096
  0.6658828006727696  0.3331942901419258  0.3993179914385026
  0.6642447555610181  0.4580383501305748  0.3985339899790762
  0.6661398347225779  0.5832170522619159  0.3984532867172957
  0.6665531819296213  0.7082462377457870  0.4012601593644198
  0.6662103570973104  0.8326887217105456  0.4008347643667217
  0.6667010643272770  0.9581780535153914  0.3998150239409042
  0.7919142819727768  0.0833628137990047  0.3995736044712225
  0.7919519452413785  0.2083440382399824  0.3995816924795893
  0.7915768274184989  0.3332033357614167  0.3994910227149293
  0.7906894040234453  0.4579898652188096  0.3989072937793868
  0.7909252873647035  0.5828320670311730  0.3978626718224310
  0.7912906014036967  0.7080174299685528  0.3983639361515910
  0.7915913081066628  0.8333024797941097  0.3989216252581527
  0.7915611068497902  0.9581757439542674  0.3994289048609286
  0.9170117073280303  0.0834480268784566  0.3994963376095120
  0.9173569845042018  0.2085665618436678  0.3995492691924770
  0.9172808055566904  0.3333474843474698  0.3994921406127956
  0.9167100981066864  0.4579558780020043  0.3993144431817308
  0.9162553444658520  0.5827913774344045  0.3990133309717494
  0.9162072752612782  0.7078769023130527  0.3986680140025201
  0.9163611026477164  0.8330105917521637  0.3989405699711004
  0.9166263768841060  0.9582308687935445  0.3992634889925677
  0.0829729382872938  0.0410672604874105  0.3998407369723369
  0.0838482078718056  0.1666598706731141  0.3997833287399192
  0.0850900612386595  0.2922908815924607  0.3994805788046999
  0.0856290945911638  0.4169643629457105  0.3991518677453917
  0.0837277501452392  0.5414099162184348  0.3989023047282479
  0.0830619034331490  0.6661850071125217  0.3992095474550194
  0.0829550100365350  0.7911362221826211  0.3995065144570775
  0.0828983059151531  0.9160881343351740  0.3997113251391392
  0.2078943509591767  0.0407626494512868  0.4000266196647203
  0.2076812040962801  0.1654113377317664  0.4001494295855741
  0.2097625990297184  0.2917511181017852  0.4000405348884055
  0.2134461992879183  0.4177601582861795  0.3994804846676506
  0.2091780403256226  0.5417644973399784  0.3984681958545484
  0.2082863281170927  0.6665257189766853  0.3986524233003443
  0.2080720715522350  0.7912971741340831  0.3992645645842781
  0.2080332202175795  0.9160783004623335  0.3997508485866119
  0.3330687122564515  0.0409456457877047  0.3998851669958794
  0.3328943376789257  0.1651954848492089  0.4002452820322054
  0.3320185136001998  0.2883047190517568  0.4001996018050704
  0.3397568299477121  0.4146767208353366  0.4002253847660445
  0.3367929952050598  0.5452886484848589  0.4010994727216396
  0.3333360619090329  0.6672138074010142  0.3992899103612534
  0.3332201893341041  0.7917859925783729  0.3989420140984535
  0.3331991374744604  0.9164242534302556  0.3993766230213565
  0.4582729742966809  0.0415047978698942  0.3995101348021501
  0.4580291194411890  0.1662685321364220  0.3998562682353203
  0.4573382174450671  0.2909836306822652  0.4002342745478552
  0.4515003339540714  0.4137298111731657  0.4011417460371494
  0.4562597152041702  0.6657135597753006  0.4046179503558310
  0.4582988786479777  0.7920287934826585  0.3998991515610986
  0.4583005263447970  0.9167102793692019  0.3992145768165573
  0.5833794956941213  0.0415742919163676  0.3994253453594234
  0.5832029899477071  0.1666157880080256  0.3995913307091231
  0.5826333413134029  0.2916192233259297  0.3994397167583701
  0.5797625223634155  0.4163891023939604  0.3993575166248053
  0.5828237218384487  0.5429161956514437  0.4032081450067296
  0.5837233053731742  0.6656595356996757  0.4074725352982769
  0.5823092846913371  0.7901073792665730  0.4023410367696550
  0.5832068622070309  0.9162942922629450  0.3997772744221658
  0.7084208686860053  0.0415228709439047  0.3995908160462538
  0.7084420410415109  0.1666625829618144  0.3995689807467781
  0.7080477637154434  0.2916389493069304  0.3995105232069662
  0.7067716595868507  0.4165867102660598  0.3988980653642415
  0.7074592662478084  0.5415034477984008  0.3975818321790568
  0.7080596172528454  0.6665043512823036  0.3992347177648922
  0.7081471136653837  0.7914990268309342  0.3999564129706041
  0.7080358420891393  0.9161748889854313  0.3999157857581930
  0.8334499707124720  0.0415902836256118  0.3994684168287602
  0.8337667524845861  0.1667650340162523  0.3995733340052441
  0.8336875158463963  0.2917703294367395  0.3995642318688758
  0.8330263455935689  0.4165220726440104  0.3992954875432358
  0.8327276259085014  0.5412323499793720  0.3986112681746601
  0.8328736442414331  0.6663274573479244  0.3980687968013792
  0.8330656927136936  0.7914316837311929  0.3986574733707570
  0.8332468053592570  0.9165197089559968  0.3991510805323033
  0.9584274514875888  0.0416035310988971  0.3994829746025487
  0.9590891518109940  0.1669439563010080  0.3995650306155750
  0.9593565087857866  0.2919131863821804  0.3994867509024271
  0.9590774269855360  0.4166000236381814  0.3993544767374427
  0.9582315113281302  0.5413112238956433  0.3992320618528281
  0.9579286973296091  0.6661962442662224  0.3990271323191650
  0.9579298824642311  0.7912029647838115  0.3990535906776670
  0.9579796196456897  0.9162608515736184  0.3992850504363510
  0.4148735110624502  0.5865726328399219  0.4061044600580757
  0.4640161599811408  0.5422791347507772  0.5094343758928356
 
  0.00000000E+00  0.00000000E+00  0.00000000E+00
  0.00000000E+00  0.00000000E+00  0.00000000E+00
  0.00000000E+00  0.00000000E+00  0.00000000E+00
  0.00000000E+00  0.00000000E+00  0.00000000E+00
  0.00000000E+00  0.00000000E+00  0.00000000E+00
  0.00000000E+00  0.00000000E+00  0.00000000E+00
  0.00000000E+00  0.00000000E+00  0.00000000E+00
  0.00000000E+00  0.00000000E+00  0.00000000E+00
  0.00000000E+00  0.00000000E+00  0.00000000E+00
  0.00000000E+00  0.00000000E+00  0.00000000E+00
  0.00000000E+00  0.00000000E+00  0.00000000E+00
  0.00000000E+00  0.00000000E+00  0.00000000E+00
  0.00000000E+00  0.00000000E+00  0.00000000E+00
  0.00000000E+00  0.00000000E+00  0.00000000E+00
  0.00000000E+00  0.00000000E+00  0.00000000E+00
  0.00000000E+00  0.00000000E+00  0.00000000E+00
  0.00000000E+00  0.00000000E+00  0.00000000E+00
  0.00000000E+00  0.00000000E+00  0.00000000E+00
  0.00000000E+00  0.00000000E+00  0.00000000E+00
  0.00000000E+00  0.00000000E+00  0.00000000E+00
  0.00000000E+00  0.00000000E+00  0.00000000E+00
  0.00000000E+00  0.00000000E+00  0.00000000E+00
  0.00000000E+00  0.00000000E+00  0.00000000E+00
  0.00000000E+00  0.00000000E+00  0.00000000E+00
  0.00000000E+00  0.00000000E+00  0.00000000E+00
  0.00000000E+00  0.00000000E+00  0.00000000E+00
  0.00000000E+00  0.00000000E+00  0.00000000E+00
  0.00000000E+00  0.00000000E+00  0.00000000E+00
  0.00000000E+00  0.00000000E+00  0.00000000E+00
  0.00000000E+00  0.00000000E+00  0.00000000E+00
  0.00000000E+00  0.00000000E+00  0.00000000E+00
  0.00000000E+00  0.00000000E+00  0.00000000E+00
  0.00000000E+00  0.00000000E+00  0.00000000E+00
  0.00000000E+00  0.00000000E+00  0.00000000E+00
  0.00000000E+00  0.00000000E+00  0.00000000E+00
  0.00000000E+00  0.00000000E+00  0.00000000E+00
  0.00000000E+00  0.00000000E+00  0.00000000E+00
  0.00000000E+00  0.00000000E+00  0.00000000E+00
  0.00000000E+00  0.00000000E+00  0.00000000E+00
  0.00000000E+00  0.00000000E+00  0.00000000E+00
  0.00000000E+00  0.00000000E+00  0.00000000E+00
  0.00000000E+00  0.00000000E+00  0.00000000E+00
  0.00000000E+00  0.00000000E+00  0.00000000E+00
  0.00000000E+00  0.00000000E+00  0.00000000E+00
  0.00000000E+00  0.00000000E+00  0.00000000E+00
  0.00000000E+00  0.00000000E+00  0.00000000E+00
  0.00000000E+00  0.00000000E+00  0.00000000E+00
  0.00000000E+00  0.00000000E+00  0.00000000E+00
  0.00000000E+00  0.00000000E+00  0.00000000E+00
  0.00000000E+00  0.00000000E+00  0.00000000E+00
  0.00000000E+00  0.00000000E+00  0.00000000E+00
  0.00000000E+00  0.00000000E+00  0.00000000E+00
  0.00000000E+00  0.00000000E+00  0.00000000E+00
  0.00000000E+00  0.00000000E+00  0.00000000E+00
  0.00000000E+00  0.00000000E+00  0.00000000E+00
  0.00000000E+00  0.00000000E+00  0.00000000E+00
  0.00000000E+00  0.00000000E+00  0.00000000E+00
  0.00000000E+00  0.00000000E+00  0.00000000E+00
  0.00000000E+00  0.00000000E+00  0.00000000E+00
  0.00000000E+00  0.00000000E+00  0.00000000E+00
  0.00000000E+00  0.00000000E+00  0.00000000E+00
  0.00000000E+00  0.00000000E+00  0.00000000E+00
  0.00000000E+00  0.00000000E+00  0.00000000E+00
  0.00000000E+00  0.00000000E+00  0.00000000E+00
  0.00000000E+00  0.00000000E+00  0.00000000E+00
  0.00000000E+00  0.00000000E+00  0.00000000E+00
  0.00000000E+00  0.00000000E+00  0.00000000E+00
  0.00000000E+00  0.00000000E+00  0.00000000E+00
  0.00000000E+00  0.00000000E+00  0.00000000E+00
  0.00000000E+00  0.00000000E+00  0.00000000E+00
  0.00000000E+00  0.00000000E+00  0.00000000E+00
  0.00000000E+00  0.00000000E+00  0.00000000E+00
  0.00000000E+00  0.00000000E+00  0.00000000E+00
  0.00000000E+00  0.00000000E+00  0.00000000E+00
  0.00000000E+00  0.00000000E+00  0.00000000E+00
  0.00000000E+00  0.00000000E+00  0.00000000E+00
  0.00000000E+00  0.00000000E+00  0.00000000E+00
  0.00000000E+00  0.00000000E+00  0.00000000E+00
  0.00000000E+00  0.00000000E+00  0.00000000E+00
  0.00000000E+00  0.00000000E+00  0.00000000E+00
  0.00000000E+00  0.00000000E+00  0.00000000E+00
  0.00000000E+00  0.00000000E+00  0.00000000E+00
  0.00000000E+00  0.00000000E+00  0.00000000E+00
  0.00000000E+00  0.00000000E+00  0.00000000E+00
  0.00000000E+00  0.00000000E+00  0.00000000E+00
  0.00000000E+00  0.00000000E+00  0.00000000E+00
  0.00000000E+00  0.00000000E+00  0.00000000E+00
  0.00000000E+00  0.00000000E+00  0.00000000E+00
  0.00000000E+00  0.00000000E+00  0.00000000E+00
  0.00000000E+00  0.00000000E+00  0.00000000E+00
  0.00000000E+00  0.00000000E+00  0.00000000E+00
  0.00000000E+00  0.00000000E+00  0.00000000E+00
  0.00000000E+00  0.00000000E+00  0.00000000E+00
  0.00000000E+00  0.00000000E+00  0.00000000E+00
  0.00000000E+00  0.00000000E+00  0.00000000E+00
  0.00000000E+00  0.00000000E+00  0.00000000E+00
  0.00000000E+00  0.00000000E+00  0.00000000E+00
  0.00000000E+00  0.00000000E+00  0.00000000E+00
  0.00000000E+00  0.00000000E+00  0.00000000E+00
  0.00000000E+00  0.00000000E+00  0.00000000E+00
  0.00000000E+00  0.00000000E+00  0.00000000E+00
  0.00000000E+00  0.00000000E+00  0.00000000E+00
  0.00000000E+00  0.00000000E+00  0.00000000E+00
  0.00000000E+00  0.00000000E+00  0.00000000E+00
  0.00000000E+00  0.00000000E+00  0.00000000E+00
  0.00000000E+00  0.00000000E+00  0.00000000E+00
  0.00000000E+00  0.00000000E+00  0.00000000E+00
  0.00000000E+00  0.00000000E+00  0.00000000E+00
  0.00000000E+00  0.00000000E+00  0.00000000E+00
  0.00000000E+00  0.00000000E+00  0.00000000E+00
  0.00000000E+00  0.00000000E+00  0.00000000E+00
  0.00000000E+00  0.00000000E+00  0.00000000E+00
  0.00000000E+00  0.00000000E+00  0.00000000E+00
  0.00000000E+00  0.00000000E+00  0.00000000E+00
  0.00000000E+00  0.00000000E+00  0.00000000E+00
  0.00000000E+00  0.00000000E+00  0.00000000E+00
  0.00000000E+00  0.00000000E+00  0.00000000E+00
  0.00000000E+00  0.00000000E+00  0.00000000E+00
  0.00000000E+00  0.00000000E+00  0.00000000E+00
  0.00000000E+00  0.00000000E+00  0.00000000E+00
  0.00000000E+00  0.00000000E+00  0.00000000E+00
  0.00000000E+00  0.00000000E+00  0.00000000E+00
  0.00000000E+00  0.00000000E+00  0.00000000E+00
  0.00000000E+00  0.00000000E+00  0.00000000E+00
  0.00000000E+00  0.00000000E+00  0.00000000E+00
  0.00000000E+00  0.00000000E+00  0.00000000E+00
  0.00000000E+00  0.00000000E+00  0.00000000E+00
  0.00000000E+00  0.00000000E+00  0.00000000E+00
