La1 H1 C125 N1 O1                       
   1.00000000000000     
    19.7768486745767937   -0.0143245562086524    0.1266803309872227
    -9.9007436064302166   17.0909111927365949    0.1334308511798592
     0.1904770377933192    0.3428996224573815   29.7877341689337314
   La   H    C    N    O 
     1     1   125     1     1
Direct
  0.4370046645390032  0.5054357194489638  0.4591742429485692
  0.5237085054353579  0.5872897451610612  0.5444524381349697
  0.0415581172524729  0.0834629774016451  0.3998709280499289
  0.0414918554125390  0.2083274197762799  0.3995843215908709
  0.0413615098021550  0.3330577025149024  0.3992813479966387
  0.0413376633041244  0.4581715515585194  0.3990894485186361
  0.0413225597986736  0.5833313850851602  0.3994747140661548
  0.0415513597480032  0.7084818881986814  0.3997485835451604
  0.0417110472887711  0.8336649519088029  0.3998422655211847
  0.0417183679689861  0.9586580047316049  0.3999253336758558
  0.1668105656641546  0.0839249964227885  0.4002035632369650
  0.1667440898771433  0.2087772933688515  0.3999577556593139
  0.1668903415403043  0.3339308948548138  0.3990141509376278
  0.1662171083980991  0.4584286256784630  0.3984190431796222
  0.1658078827047396  0.5834673859272094  0.3982657859836209
  0.1661531534691555  0.7086282821337337  0.3992755070001099
  0.1665274952138422  0.8337493199397302  0.3998416021742147
  0.1667621653422164  0.9588619487696355  0.4000752266299075
  0.2918719543222464  0.0837813534646517  0.4002339207782521
  0.2922620706102998  0.2093289559329176  0.4005504621731314
  0.2925483243086617  0.3350774908470706  0.3992586354578279
  0.2928095536065007  0.4592467449380740  0.3983589883638380
  0.2900333350335910  0.5843888675300980  0.3976080947312784
  0.2906925353125919  0.7089903891109103  0.3987140683962579
  0.2912968775224600  0.8337353626509190  0.3994987902907363
  0.2915637838797815  0.9586707120578015  0.3998754087195210
  0.4167161636453027  0.0832192368045751  0.3997371806404197
  0.4169279350060873  0.2081648611496674  0.3997738331891904
  0.4177919918632540  0.3339642530443381  0.4016943142501130
  0.4151383897486261  0.7083072740852707  0.3997536970270251
  0.4160482504882699  0.8332959791654290  0.3994311563563357
  0.4164128217754681  0.9582375879554480  0.3996978864365090
  0.5415230254444682  0.0826888689895057  0.3996951321822128
  0.5418562873745049  0.2077494535783136  0.3993517643840024
  0.5421762039845510  0.3327281359991264  0.3989302556569811
  0.5420597799303248  0.4573036060266117  0.3998720713878692
  0.5435670618846805  0.5811524114697886  0.4052452653513576
  0.5390730751817160  0.7049209626981054  0.4038399901235735
  0.5405516456148934  0.8318811787012130  0.4007436699888445
  0.5412164554624966  0.9574765926331190  0.3998924720498835
  0.6662986445345934  0.0823949143464331  0.3999168687954883
  0.6666253557677793  0.2075875433138068  0.3996510742466031
  0.6669103548603659  0.3326554490747728  0.3990340209838700
  0.6674289789165190  0.4578310427652117  0.3980599728389913
  0.6685639910812869  0.5833245262379924  0.3979975654126686
  0.6662458392486982  0.7072017698813786  0.3991347148301286
  0.6652739435162651  0.8313961384706354  0.4005026718142047
  0.6659228327255620  0.9570904953904434  0.4003051242281742
  0.7911731090308706  0.0824337715122992  0.3998754642304320
  0.7913847363174135  0.2075467664581541  0.3998032922647464
  0.7916963618143817  0.3327490445858343  0.3996369811864087
  0.7920274314143075  0.4579913414125421  0.3991822039346201
  0.7924783146681178  0.5831671819819571  0.3984073320814283
  0.7921993752696853  0.7083539690782766  0.3984980906941233
  0.7913098669202695  0.8327521634428572  0.3992170231813289
  0.7908351623569018  0.9572444052254694  0.3997878866017697
  0.9162390111537427  0.0828208496695091  0.3997072788248030
  0.9163141080003492  0.2078033319807105  0.3996528510066996
  0.9164358733279782  0.3328591185748906  0.3996534741802095
  0.9166046230382870  0.4579708168587668  0.3996486231223747
  0.9168759955824870  0.5832392172746155  0.3995756910820370
  0.9169314204085709  0.7085008382370465  0.3993576705320767
  0.9167566100280585  0.8334197944771625  0.3994125004696611
  0.9164109308019457  0.9580879356100167  0.3996557688773081
  0.0833933068163969  0.0420483106930581  0.4000191047852536
  0.0832780689774228  0.1668427947278827  0.3998464010712071
  0.0831502920082487  0.2917566760955908  0.3992691101272050
  0.0830063140441692  0.4165879087199559  0.3989029388187849
  0.0826946282778491  0.5416046506094925  0.3989665002734713
  0.0829673842150188  0.6667918639357536  0.3995279699612155
  0.0832801178595206  0.7920211085749674  0.3998483774112815
  0.0833929036262596  0.9170941262911438  0.3999680013809369
  0.2084588089504829  0.0421635941793950  0.4002407423893501
  0.2084770788464408  0.1672833521749569  0.4002140202039697
  0.2085107904273904  0.2923160142714470  0.3993730892479653
  0.2083911802488599  0.4173596429340650  0.3987355336727900
  0.2071234904313030  0.5419206635309590  0.3976322678949106
  0.2075945067951474  0.6670271306290008  0.3986425060729525
  0.2080001605333905  0.7920397045768531  0.3995699771508390
  0.2083269424375906  0.9171321044099264  0.3999491213609009
  0.3333848613015024  0.0419573536037551  0.3999549336464642
  0.3337311383473721  0.1670529538992763  0.4003497038524458
  0.3339032440440404  0.2921354854956522  0.4009229912664152
  0.3329030064007191  0.4170834245552978  0.3975224511566887
  0.3330990984425183  0.5448734785168797  0.3994019046834785
  0.3320820431717029  0.6674709034819051  0.3985772132655740
  0.3328002858000964  0.7921698939040674  0.3992099522331595
  0.3331588683580983  0.9169949313028419  0.3996977211270248
  0.4582915301437021  0.0414685497483744  0.3997120624157756
  0.4585346451060435  0.1664193775784919  0.3995186437039865
  0.4589069622151352  0.2914409166617555  0.3998161715454268
  0.4599473404282523  0.4157681276362116  0.4042040854739825
  0.4544220035298805  0.6645497870009287  0.4030950486495023
  0.4575210938793304  0.7914832984152496  0.3998230822045400
  0.4579276734936386  0.9164527710823179  0.3996827565417852
  0.5830479934696352  0.0408588136927420  0.3998295677326021
  0.5833608491619078  0.1660360808729976  0.3995871552019686
  0.5837599669969061  0.2910405341613244  0.3989978865799397
  0.5840733042129934  0.4158739127297262  0.3982774374173045
  0.5855869195412421  0.5422309904521903  0.4002407511134783
  0.5823188507009853  0.6634459708069533  0.4026671411574858
  0.5811059047554874  0.7886284873514237  0.4017675915789569
  0.5825690151241787  0.9154087780574190  0.4003034762698960
  0.7077572467505799  0.0405334130812847  0.4000417847290875
  0.7081205892604696  0.1658492211127713  0.3998165283498770
  0.7084060387073450  0.2910005098551184  0.3994734364077239
  0.7087907439794601  0.4162334732568007  0.3987240842548658
  0.7096275260807161  0.5414910288124237  0.3978128575868659
  0.7089104821101211  0.6664739988983555  0.3982756563934952
  0.7077042088432413  0.7905654056016185  0.3994303572790280
  0.7072159723713880  0.9150155871956975  0.4001879624581428
  0.8327250565364911  0.0407774779296339  0.3997825907817507
  0.8329282682964158  0.1658954939918094  0.3997732656684357
  0.8331935213755315  0.2910902706093288  0.3997602871928971
  0.8334365212836405  0.4162419923141596  0.3995755304533853
  0.8337877071264254  0.5414179275874736  0.3991062971226812
  0.8337869924229323  0.6667692917197833  0.3987180538284645
  0.8334899281155125  0.7916095928361935  0.3989870601111759
  0.8329053759235938  0.9160630566822271  0.3995475201117999
  0.9580813626729177  0.0414719556706980  0.3997415419294638
  0.9580376565624432  0.1663171911551018  0.3996540677289803
  0.9580173039494730  0.2912323071752729  0.3995750449636054
  0.9580895047265849  0.4163156053901092  0.3995227362273576
  0.9582499138181081  0.5415383599107361  0.3996701854634966
  0.9584054607817480  0.6667513239454459  0.3996210305771866
  0.9584700861036600  0.7918906785989498  0.3995671109293262
  0.9583215018155732  0.9167868780267786  0.3996871764039866
  0.4111717149072430  0.5846663090765641  0.4052762871030298
  0.4878008968125436  0.5493263846288751  0.5237466930983173
 
  0.00000000E+00  0.00000000E+00  0.00000000E+00
  0.00000000E+00  0.00000000E+00  0.00000000E+00
  0.00000000E+00  0.00000000E+00  0.00000000E+00
  0.00000000E+00  0.00000000E+00  0.00000000E+00
  0.00000000E+00  0.00000000E+00  0.00000000E+00
  0.00000000E+00  0.00000000E+00  0.00000000E+00
  0.00000000E+00  0.00000000E+00  0.00000000E+00
  0.00000000E+00  0.00000000E+00  0.00000000E+00
  0.00000000E+00  0.00000000E+00  0.00000000E+00
  0.00000000E+00  0.00000000E+00  0.00000000E+00
  0.00000000E+00  0.00000000E+00  0.00000000E+00
  0.00000000E+00  0.00000000E+00  0.00000000E+00
  0.00000000E+00  0.00000000E+00  0.00000000E+00
  0.00000000E+00  0.00000000E+00  0.00000000E+00
  0.00000000E+00  0.00000000E+00  0.00000000E+00
  0.00000000E+00  0.00000000E+00  0.00000000E+00
  0.00000000E+00  0.00000000E+00  0.00000000E+00
  0.00000000E+00  0.00000000E+00  0.00000000E+00
  0.00000000E+00  0.00000000E+00  0.00000000E+00
  0.00000000E+00  0.00000000E+00  0.00000000E+00
  0.00000000E+00  0.00000000E+00  0.00000000E+00
  0.00000000E+00  0.00000000E+00  0.00000000E+00
  0.00000000E+00  0.00000000E+00  0.00000000E+00
  0.00000000E+00  0.00000000E+00  0.00000000E+00
  0.00000000E+00  0.00000000E+00  0.00000000E+00
  0.00000000E+00  0.00000000E+00  0.00000000E+00
  0.00000000E+00  0.00000000E+00  0.00000000E+00
  0.00000000E+00  0.00000000E+00  0.00000000E+00
  0.00000000E+00  0.00000000E+00  0.00000000E+00
  0.00000000E+00  0.00000000E+00  0.00000000E+00
  0.00000000E+00  0.00000000E+00  0.00000000E+00
  0.00000000E+00  0.00000000E+00  0.00000000E+00
  0.00000000E+00  0.00000000E+00  0.00000000E+00
  0.00000000E+00  0.00000000E+00  0.00000000E+00
  0.00000000E+00  0.00000000E+00  0.00000000E+00
  0.00000000E+00  0.00000000E+00  0.00000000E+00
  0.00000000E+00  0.00000000E+00  0.00000000E+00
  0.00000000E+00  0.00000000E+00  0.00000000E+00
  0.00000000E+00  0.00000000E+00  0.00000000E+00
  0.00000000E+00  0.00000000E+00  0.00000000E+00
  0.00000000E+00  0.00000000E+00  0.00000000E+00
  0.00000000E+00  0.00000000E+00  0.00000000E+00
  0.00000000E+00  0.00000000E+00  0.00000000E+00
  0.00000000E+00  0.00000000E+00  0.00000000E+00
  0.00000000E+00  0.00000000E+00  0.00000000E+00
  0.00000000E+00  0.00000000E+00  0.00000000E+00
  0.00000000E+00  0.00000000E+00  0.00000000E+00
  0.00000000E+00  0.00000000E+00  0.00000000E+00
  0.00000000E+00  0.00000000E+00  0.00000000E+00
  0.00000000E+00  0.00000000E+00  0.00000000E+00
  0.00000000E+00  0.00000000E+00  0.00000000E+00
  0.00000000E+00  0.00000000E+00  0.00000000E+00
  0.00000000E+00  0.00000000E+00  0.00000000E+00
  0.00000000E+00  0.00000000E+00  0.00000000E+00
  0.00000000E+00  0.00000000E+00  0.00000000E+00
  0.00000000E+00  0.00000000E+00  0.00000000E+00
  0.00000000E+00  0.00000000E+00  0.00000000E+00
  0.00000000E+00  0.00000000E+00  0.00000000E+00
  0.00000000E+00  0.00000000E+00  0.00000000E+00
  0.00000000E+00  0.00000000E+00  0.00000000E+00
  0.00000000E+00  0.00000000E+00  0.00000000E+00
  0.00000000E+00  0.00000000E+00  0.00000000E+00
  0.00000000E+00  0.00000000E+00  0.00000000E+00
  0.00000000E+00  0.00000000E+00  0.00000000E+00
  0.00000000E+00  0.00000000E+00  0.00000000E+00
  0.00000000E+00  0.00000000E+00  0.00000000E+00
  0.00000000E+00  0.00000000E+00  0.00000000E+00
  0.00000000E+00  0.00000000E+00  0.00000000E+00
  0.00000000E+00  0.00000000E+00  0.00000000E+00
  0.00000000E+00  0.00000000E+00  0.00000000E+00
  0.00000000E+00  0.00000000E+00  0.00000000E+00
  0.00000000E+00  0.00000000E+00  0.00000000E+00
  0.00000000E+00  0.00000000E+00  0.00000000E+00
  0.00000000E+00  0.00000000E+00  0.00000000E+00
  0.00000000E+00  0.00000000E+00  0.00000000E+00
  0.00000000E+00  0.00000000E+00  0.00000000E+00
  0.00000000E+00  0.00000000E+00  0.00000000E+00
  0.00000000E+00  0.00000000E+00  0.00000000E+00
  0.00000000E+00  0.00000000E+00  0.00000000E+00
  0.00000000E+00  0.00000000E+00  0.00000000E+00
  0.00000000E+00  0.00000000E+00  0.00000000E+00
  0.00000000E+00  0.00000000E+00  0.00000000E+00
  0.00000000E+00  0.00000000E+00  0.00000000E+00
  0.00000000E+00  0.00000000E+00  0.00000000E+00
  0.00000000E+00  0.00000000E+00  0.00000000E+00
  0.00000000E+00  0.00000000E+00  0.00000000E+00
  0.00000000E+00  0.00000000E+00  0.00000000E+00
  0.00000000E+00  0.00000000E+00  0.00000000E+00
  0.00000000E+00  0.00000000E+00  0.00000000E+00
  0.00000000E+00  0.00000000E+00  0.00000000E+00
  0.00000000E+00  0.00000000E+00  0.00000000E+00
  0.00000000E+00  0.00000000E+00  0.00000000E+00
  0.00000000E+00  0.00000000E+00  0.00000000E+00
  0.00000000E+00  0.00000000E+00  0.00000000E+00
  0.00000000E+00  0.00000000E+00  0.00000000E+00
  0.00000000E+00  0.00000000E+00  0.00000000E+00
  0.00000000E+00  0.00000000E+00  0.00000000E+00
  0.00000000E+00  0.00000000E+00  0.00000000E+00
  0.00000000E+00  0.00000000E+00  0.00000000E+00
  0.00000000E+00  0.00000000E+00  0.00000000E+00
  0.00000000E+00  0.00000000E+00  0.00000000E+00
  0.00000000E+00  0.00000000E+00  0.00000000E+00
  0.00000000E+00  0.00000000E+00  0.00000000E+00
  0.00000000E+00  0.00000000E+00  0.00000000E+00
  0.00000000E+00  0.00000000E+00  0.00000000E+00
  0.00000000E+00  0.00000000E+00  0.00000000E+00
  0.00000000E+00  0.00000000E+00  0.00000000E+00
  0.00000000E+00  0.00000000E+00  0.00000000E+00
  0.00000000E+00  0.00000000E+00  0.00000000E+00
  0.00000000E+00  0.00000000E+00  0.00000000E+00
  0.00000000E+00  0.00000000E+00  0.00000000E+00
  0.00000000E+00  0.00000000E+00  0.00000000E+00
  0.00000000E+00  0.00000000E+00  0.00000000E+00
  0.00000000E+00  0.00000000E+00  0.00000000E+00
  0.00000000E+00  0.00000000E+00  0.00000000E+00
  0.00000000E+00  0.00000000E+00  0.00000000E+00
  0.00000000E+00  0.00000000E+00  0.00000000E+00
  0.00000000E+00  0.00000000E+00  0.00000000E+00
  0.00000000E+00  0.00000000E+00  0.00000000E+00
  0.00000000E+00  0.00000000E+00  0.00000000E+00
  0.00000000E+00  0.00000000E+00  0.00000000E+00
  0.00000000E+00  0.00000000E+00  0.00000000E+00
  0.00000000E+00  0.00000000E+00  0.00000000E+00
  0.00000000E+00  0.00000000E+00  0.00000000E+00
  0.00000000E+00  0.00000000E+00  0.00000000E+00
  0.00000000E+00  0.00000000E+00  0.00000000E+00
  0.00000000E+00  0.00000000E+00  0.00000000E+00
  0.00000000E+00  0.00000000E+00  0.00000000E+00
  0.00000000E+00  0.00000000E+00  0.00000000E+00
