Zr1 H1 C123 N3 O2                       
   1.00000000000000     
    19.7966352089385644    0.0079670249100940   -0.1382595063044624
    -9.8916921087243335   17.0425248602786219   -0.1896840115920514
    -0.2075822792884552   -0.4518074447347012   29.8260903531362160
   Zr   H    C    N    O 
     1     1   123     3     2
Direct
  0.4352007379411539  0.5036691374196144  0.4400326510382128
  0.5427631022560768  0.5593669670558997  0.5163368270340363
  0.0419400427005698  0.0839643721140849  0.3995287312173196
  0.0412431198826813  0.2082818888979052  0.3996315338472319
  0.0407141139066570  0.3331826505612616  0.3995920391574656
  0.0409083264902330  0.4583756114963932  0.3993756803833473
  0.0416731842614670  0.5838157697629832  0.3996532255553183
  0.0423737163394751  0.7092414948427256  0.3998841420301737
  0.0425706754426018  0.8343988038517058  0.3998105165226462
  0.0424735727306605  0.9594315997800195  0.3995664049877774
  0.1677086751615827  0.0850518087931592  0.3999211765432224
  0.1671985307963364  0.2096939177350276  0.4001805668654046
  0.1654842353711369  0.3336627890037884  0.4006003731367418
  0.1649301767432328  0.4585052516419346  0.3996518602583260
  0.1656910196723693  0.5837553419663477  0.3992131020019712
  0.1666947481496295  0.7089801811662144  0.3996170824276151
  0.1672897532523024  0.8343661422650124  0.3998602474092214
  0.1675400280298554  0.9597942367627041  0.3998307940045236
  0.2926374858306781  0.0854772949945951  0.3999447038044648
  0.2931072487335418  0.2119477538225058  0.4016542167762787
  0.2918270486991933  0.3366540951736274  0.4037589228442636
  0.2888261034153384  0.4580299722312994  0.4025987029027639
  0.2893075730467945  0.5830178297943679  0.3996981835820114
  0.2910768232691588  0.7083625493191973  0.3990320409498715
  0.2919156606257660  0.8339203398253088  0.3993749209133661
  0.2923073433392387  0.9595146601574156  0.3995967075849596
  0.4172215072635565  0.0842613865592949  0.3994249082309279
  0.4177750996100363  0.2103064838864248  0.4000148799307411
  0.4198303577209859  0.3379579415817678  0.4047342921859919
  0.4155094713160971  0.7067769214574542  0.3990831299590312
  0.4164586430451442  0.8326227747239939  0.3990280541288527
  0.4169312859715587  0.9584691849730366  0.3993677600454923
  0.5418036880710130  0.0829993947544844  0.3994929613673115
  0.5422906313910892  0.2086997202916715  0.3992453086019696
  0.5432013075636785  0.3343304513492286  0.4001796258621106
  0.5457788184423162  0.4596290285183361  0.4046465096387613
  0.5394410767261582  0.7032426957820433  0.4019926883764205
  0.5410954231384073  0.8310604398539008  0.3995723576049988
  0.5414964878419462  0.9572433003095959  0.3994870089644922
  0.6664722657177253  0.0825091282011983  0.3998427032426079
  0.6667843038980962  0.2078728506807453  0.3995117082635277
  0.6675334623148500  0.3332783662698585  0.3990158483570736
  0.6691953023507088  0.4588047747140324  0.3992644828033571
  0.6701307661761925  0.5842002265757946  0.4007079053426854
  0.6671146513029417  0.7071272837744791  0.4004587123514551
  0.6654175761432434  0.8311906221553425  0.3998807358061715
  0.6660743082909827  0.9569723130437344  0.3997645494403749
  0.7911794304788605  0.0824446920148265  0.3998580277555018
  0.7914322145661419  0.2077452387491903  0.3998980121828368
  0.7919264398015492  0.3330593889819460  0.3994495620456038
  0.7928582752035940  0.4584643161151816  0.3989375493931042
  0.7936136083989755  0.5838812641453701  0.3989133528777561
  0.7933241661155522  0.7090065752386644  0.3992646336402596
  0.7916004887472338  0.8328343028392149  0.3991609610469642
  0.7909671632938452  0.9572465888462807  0.3994672935217174
  0.9162613977149209  0.0828855263216129  0.3995341451416238
  0.9161014221592084  0.2077935997552324  0.3997528011530730
  0.9162766778212967  0.3330174110926976  0.3996591933129391
  0.9169094047091261  0.4584584536617279  0.3994958960108020
  0.9176523097962318  0.5838888093045426  0.3994197880539428
  0.9178356858488621  0.7090929577535329  0.3994149590517931
  0.9175513985880718  0.8340935144753973  0.3993042103600128
  0.9168010806415645  0.9584305147509675  0.3993249630701584
  0.0842223658469138  0.0429510610447504  0.3996041533328010
  0.0835837160688116  0.1674645968685992  0.3996593533723686
  0.0826067139575183  0.2917509181309660  0.3998331752371907
  0.0820001951760737  0.4164374885964617  0.3994032663998541
  0.0826957850271836  0.5418852694839107  0.3993986232970936
  0.0835757670429660  0.6673214816008384  0.3997943870806712
  0.0840417617121204  0.7926555129406337  0.3999419706746313
  0.0842171258460168  0.9178976861855580  0.3997591205403694
  0.2092179929666560  0.0433296848135776  0.3999244211486708
  0.2094961260337955  0.1688099352507483  0.4005241584578186
  0.2084886263779888  0.2932171886337721  0.4009906199647075
  0.2062893951981633  0.4170639701925484  0.4008260450600342
  0.2065062023751672  0.5416470750020219  0.3994046520985994
  0.2077468370010769  0.6670056515425996  0.3992649982757876
  0.2086575972787489  0.7925071504779176  0.3996597857854745
  0.2090380473802562  0.9178928462146317  0.3997940746150226
  0.3339883864764494  0.0431866072786794  0.3996014237042400
  0.3343350862222825  0.1692410300836553  0.4005556622241415
  0.3350451745404080  0.2961815161784198  0.4040407546752381
  0.3308105080971316  0.5419697669905849  0.4011686912882336
  0.3320038055037771  0.6663064069933928  0.3990992619271805
  0.3332406619247412  0.7918110074727795  0.3990750033921492
  0.3336552291017940  0.9173804832726649  0.3994211758463984
  0.4585828234291865  0.0419687234033459  0.3994165276440921
  0.4589410540497909  0.1678324461502358  0.3994032217982507
  0.4598530240331248  0.2939663887864580  0.4009402195281265
  0.4640712753371000  0.4202842663998811  0.4092548279122931
  0.4552044444327111  0.6628922001943199  0.4010389239212227
  0.4577567745053903  0.7902009651347486  0.3990271543718330
  0.4582481848421845  0.9162262001883307  0.3992853203411925
  0.5831888533996528  0.0408855052921550  0.3996429922974601
  0.5835706405474922  0.1665292322259490  0.3993652640702923
  0.5842812691355055  0.2919997933526029  0.3992439297494210
  0.5864455492470111  0.4177383406952839  0.4007784372537767
  0.5886069605517963  0.5438214174523477  0.4042944193358917
  0.5835945636506394  0.6628750787962068  0.4033800505699048
  0.5817125526931530  0.7880176416794690  0.4003931849816533
  0.5828521153783386  0.9149693774387229  0.3995798724210556
  0.7078797271595617  0.0406029177271222  0.3998737704113306
  0.7082259176798313  0.1660251014383351  0.3998200733882666
  0.7087158347011915  0.2913778897903496  0.3992818070486517
  0.7099157488490405  0.4166919850011994  0.3987923456429613
  0.7109629568046576  0.5419626747994492  0.3993141775900806
  0.7104761530464843  0.6672580739233548  0.4000840391139149
  0.7080285180785995  0.7905494110524581  0.3995206594397492
  0.7074002672323766  0.9150118750537883  0.3996598619141141
  0.8328411999523744  0.0408693256046396  0.3996167689141093
  0.8329411990728466  0.1660202153039923  0.3999119734324912
  0.8331751314810045  0.2911708158786013  0.3997238004516692
  0.8338953620052076  0.4165151525060336  0.3993098415567404
  0.8347221224240279  0.5419916255720856  0.3989945988872315
  0.8349130610524231  0.6673155830958603  0.3991412970449271
  0.8342817019188083  0.7922093211269946  0.3991634413504724
  0.8332699588764854  0.9163304048086880  0.3992632885517168
  0.9584745074276591  0.0418667679846488  0.3994364328440224
  0.9579337943930029  0.1663343629639654  0.3995926092364059
  0.9577037664101213  0.2913037083632935  0.3996513953706926
  0.9579788491454180  0.4165340954468521  0.3995333027740595
  0.9586939488713854  0.5419072142877206  0.3995778464508744
  0.9593031315999018  0.6673518941154305  0.3996187299968450
  0.9593546977577277  0.7926220488455481  0.3995434031159404
  0.9590810042237177  0.9174920795919558  0.3993706383067464
  0.4120451403796219  0.5826339453976311  0.4033234205101406
  0.5476281708181441  0.5831340180475463  0.4078491072488216
  0.3294216631096907  0.4177936862217039  0.4070787117879984
  0.5049407450743627  0.5073025840858228  0.5038031485815704
  0.4292318837956265  0.5060294055872561  0.5093055515413527
 
  0.00000000E+00  0.00000000E+00  0.00000000E+00
  0.00000000E+00  0.00000000E+00  0.00000000E+00
  0.00000000E+00  0.00000000E+00  0.00000000E+00
  0.00000000E+00  0.00000000E+00  0.00000000E+00
  0.00000000E+00  0.00000000E+00  0.00000000E+00
  0.00000000E+00  0.00000000E+00  0.00000000E+00
  0.00000000E+00  0.00000000E+00  0.00000000E+00
  0.00000000E+00  0.00000000E+00  0.00000000E+00
  0.00000000E+00  0.00000000E+00  0.00000000E+00
  0.00000000E+00  0.00000000E+00  0.00000000E+00
  0.00000000E+00  0.00000000E+00  0.00000000E+00
  0.00000000E+00  0.00000000E+00  0.00000000E+00
  0.00000000E+00  0.00000000E+00  0.00000000E+00
  0.00000000E+00  0.00000000E+00  0.00000000E+00
  0.00000000E+00  0.00000000E+00  0.00000000E+00
  0.00000000E+00  0.00000000E+00  0.00000000E+00
  0.00000000E+00  0.00000000E+00  0.00000000E+00
  0.00000000E+00  0.00000000E+00  0.00000000E+00
  0.00000000E+00  0.00000000E+00  0.00000000E+00
  0.00000000E+00  0.00000000E+00  0.00000000E+00
  0.00000000E+00  0.00000000E+00  0.00000000E+00
  0.00000000E+00  0.00000000E+00  0.00000000E+00
  0.00000000E+00  0.00000000E+00  0.00000000E+00
  0.00000000E+00  0.00000000E+00  0.00000000E+00
  0.00000000E+00  0.00000000E+00  0.00000000E+00
  0.00000000E+00  0.00000000E+00  0.00000000E+00
  0.00000000E+00  0.00000000E+00  0.00000000E+00
  0.00000000E+00  0.00000000E+00  0.00000000E+00
  0.00000000E+00  0.00000000E+00  0.00000000E+00
  0.00000000E+00  0.00000000E+00  0.00000000E+00
  0.00000000E+00  0.00000000E+00  0.00000000E+00
  0.00000000E+00  0.00000000E+00  0.00000000E+00
  0.00000000E+00  0.00000000E+00  0.00000000E+00
  0.00000000E+00  0.00000000E+00  0.00000000E+00
  0.00000000E+00  0.00000000E+00  0.00000000E+00
  0.00000000E+00  0.00000000E+00  0.00000000E+00
  0.00000000E+00  0.00000000E+00  0.00000000E+00
  0.00000000E+00  0.00000000E+00  0.00000000E+00
  0.00000000E+00  0.00000000E+00  0.00000000E+00
  0.00000000E+00  0.00000000E+00  0.00000000E+00
  0.00000000E+00  0.00000000E+00  0.00000000E+00
  0.00000000E+00  0.00000000E+00  0.00000000E+00
  0.00000000E+00  0.00000000E+00  0.00000000E+00
  0.00000000E+00  0.00000000E+00  0.00000000E+00
  0.00000000E+00  0.00000000E+00  0.00000000E+00
  0.00000000E+00  0.00000000E+00  0.00000000E+00
  0.00000000E+00  0.00000000E+00  0.00000000E+00
  0.00000000E+00  0.00000000E+00  0.00000000E+00
  0.00000000E+00  0.00000000E+00  0.00000000E+00
  0.00000000E+00  0.00000000E+00  0.00000000E+00
  0.00000000E+00  0.00000000E+00  0.00000000E+00
  0.00000000E+00  0.00000000E+00  0.00000000E+00
  0.00000000E+00  0.00000000E+00  0.00000000E+00
  0.00000000E+00  0.00000000E+00  0.00000000E+00
  0.00000000E+00  0.00000000E+00  0.00000000E+00
  0.00000000E+00  0.00000000E+00  0.00000000E+00
  0.00000000E+00  0.00000000E+00  0.00000000E+00
  0.00000000E+00  0.00000000E+00  0.00000000E+00
  0.00000000E+00  0.00000000E+00  0.00000000E+00
  0.00000000E+00  0.00000000E+00  0.00000000E+00
  0.00000000E+00  0.00000000E+00  0.00000000E+00
  0.00000000E+00  0.00000000E+00  0.00000000E+00
  0.00000000E+00  0.00000000E+00  0.00000000E+00
  0.00000000E+00  0.00000000E+00  0.00000000E+00
  0.00000000E+00  0.00000000E+00  0.00000000E+00
  0.00000000E+00  0.00000000E+00  0.00000000E+00
  0.00000000E+00  0.00000000E+00  0.00000000E+00
  0.00000000E+00  0.00000000E+00  0.00000000E+00
  0.00000000E+00  0.00000000E+00  0.00000000E+00
  0.00000000E+00  0.00000000E+00  0.00000000E+00
  0.00000000E+00  0.00000000E+00  0.00000000E+00
  0.00000000E+00  0.00000000E+00  0.00000000E+00
  0.00000000E+00  0.00000000E+00  0.00000000E+00
  0.00000000E+00  0.00000000E+00  0.00000000E+00
  0.00000000E+00  0.00000000E+00  0.00000000E+00
  0.00000000E+00  0.00000000E+00  0.00000000E+00
  0.00000000E+00  0.00000000E+00  0.00000000E+00
  0.00000000E+00  0.00000000E+00  0.00000000E+00
  0.00000000E+00  0.00000000E+00  0.00000000E+00
  0.00000000E+00  0.00000000E+00  0.00000000E+00
  0.00000000E+00  0.00000000E+00  0.00000000E+00
  0.00000000E+00  0.00000000E+00  0.00000000E+00
  0.00000000E+00  0.00000000E+00  0.00000000E+00
  0.00000000E+00  0.00000000E+00  0.00000000E+00
  0.00000000E+00  0.00000000E+00  0.00000000E+00
  0.00000000E+00  0.00000000E+00  0.00000000E+00
  0.00000000E+00  0.00000000E+00  0.00000000E+00
  0.00000000E+00  0.00000000E+00  0.00000000E+00
  0.00000000E+00  0.00000000E+00  0.00000000E+00
  0.00000000E+00  0.00000000E+00  0.00000000E+00
  0.00000000E+00  0.00000000E+00  0.00000000E+00
  0.00000000E+00  0.00000000E+00  0.00000000E+00
  0.00000000E+00  0.00000000E+00  0.00000000E+00
  0.00000000E+00  0.00000000E+00  0.00000000E+00
  0.00000000E+00  0.00000000E+00  0.00000000E+00
  0.00000000E+00  0.00000000E+00  0.00000000E+00
  0.00000000E+00  0.00000000E+00  0.00000000E+00
  0.00000000E+00  0.00000000E+00  0.00000000E+00
  0.00000000E+00  0.00000000E+00  0.00000000E+00
  0.00000000E+00  0.00000000E+00  0.00000000E+00
  0.00000000E+00  0.00000000E+00  0.00000000E+00
  0.00000000E+00  0.00000000E+00  0.00000000E+00
  0.00000000E+00  0.00000000E+00  0.00000000E+00
  0.00000000E+00  0.00000000E+00  0.00000000E+00
  0.00000000E+00  0.00000000E+00  0.00000000E+00
  0.00000000E+00  0.00000000E+00  0.00000000E+00
  0.00000000E+00  0.00000000E+00  0.00000000E+00
  0.00000000E+00  0.00000000E+00  0.00000000E+00
  0.00000000E+00  0.00000000E+00  0.00000000E+00
  0.00000000E+00  0.00000000E+00  0.00000000E+00
  0.00000000E+00  0.00000000E+00  0.00000000E+00
  0.00000000E+00  0.00000000E+00  0.00000000E+00
  0.00000000E+00  0.00000000E+00  0.00000000E+00
  0.00000000E+00  0.00000000E+00  0.00000000E+00
  0.00000000E+00  0.00000000E+00  0.00000000E+00
  0.00000000E+00  0.00000000E+00  0.00000000E+00
  0.00000000E+00  0.00000000E+00  0.00000000E+00
  0.00000000E+00  0.00000000E+00  0.00000000E+00
  0.00000000E+00  0.00000000E+00  0.00000000E+00
  0.00000000E+00  0.00000000E+00  0.00000000E+00
  0.00000000E+00  0.00000000E+00  0.00000000E+00
  0.00000000E+00  0.00000000E+00  0.00000000E+00
  0.00000000E+00  0.00000000E+00  0.00000000E+00
  0.00000000E+00  0.00000000E+00  0.00000000E+00
  0.00000000E+00  0.00000000E+00  0.00000000E+00
  0.00000000E+00  0.00000000E+00  0.00000000E+00
  0.00000000E+00  0.00000000E+00  0.00000000E+00
  0.00000000E+00  0.00000000E+00  0.00000000E+00
  0.00000000E+00  0.00000000E+00  0.00000000E+00
  0.00000000E+00  0.00000000E+00  0.00000000E+00
