Cd1 H1 C123 N3 O2                       
   1.00000000000000     
    19.7984829885171045    0.0180115058061998   -0.3233212092765547
    -9.8854858609617295   17.0327493773411476    0.4469464124139541
    -0.4862500171211512    0.4981848771907497   29.8396275656165422
   Cd   H    C    N    O 
     1     1   123     3     2
Direct
  0.4392718282391292  0.4942603617420603  0.4498209577214376
  0.5508834898936971  0.5822970435551817  0.5357333532184957
  0.0417186031595198  0.0836303814482509  0.3997829869969980
  0.0406190378373337  0.2077177028879708  0.3996439369142285
  0.0401645138859959  0.3325202326395780  0.3992630892164076
  0.0406023333651603  0.4579173725108610  0.3990867994530934
  0.0415637925205649  0.5834168217505502  0.3993051008793764
  0.0423506522759392  0.7088724795369893  0.3995352722471694
  0.0427017540693028  0.8343001463351172  0.3997493708285231
  0.0426094028609226  0.9593788344847195  0.3998288088035576
  0.1677923438758205  0.0852217642305453  0.3998829879087339
  0.1665508191007722  0.2091734387052687  0.3999817476448638
  0.1648463117761574  0.3330677689000214  0.3989937532976864
  0.1645163803768388  0.4579450716799064  0.3982247936040692
  0.1655579704348250  0.5831597995920585  0.3984490708558682
  0.1666137185543083  0.7086679145566730  0.3993575877288874
  0.1672765286746779  0.8341849142907117  0.3998708529287697
  0.1676543830682921  0.9597534000666414  0.3999535120716791
  0.2926560364514443  0.0853555090630792  0.3999709326423795
  0.2934260558115519  0.2123063822979755  0.4010598383323320
  0.2910814474745784  0.3372974390932222  0.4007704174355591
  0.2885646826330212  0.4560929097139987  0.3981217039619722
  0.2893302045308645  0.5827309859566026  0.3977232198869482
  0.2908048471947836  0.7081142129587947  0.3989784826766348
  0.2917429212160611  0.8335750840662846  0.3996249414962288
  0.2922273430108868  0.9593253840569023  0.3997508563392042
  0.4170916608245079  0.0838678273931179  0.3991867015054670
  0.4175949481511783  0.2098354220721303  0.3995320726810146
  0.4198943983096211  0.3366443138616551  0.4061929299352984
  0.4149284886847839  0.7059138979084808  0.3999161605858022
  0.4161735226834761  0.8320695272259822  0.3997146420401012
  0.4166712903625207  0.9579718212327010  0.3996267964010772
  0.5415106563206197  0.0824446047469776  0.3992896028673424
  0.5420211060144595  0.2082227804279649  0.3983100178271378
  0.5430261140772982  0.3339198575126225  0.3984761918751129
  0.5452165158696110  0.4585288177031326  0.4040908316974783
  0.5389424647294728  0.7014407742976869  0.4027833947309109
  0.5403945691604678  0.8298068400570013  0.4006731871002875
  0.5410767442797320  0.9563369108715993  0.3999272731847115
  0.6659640934642128  0.0816659030840090  0.3998465470145803
  0.6664748786407756  0.2073627120806045  0.3989253127349470
  0.6672178423456055  0.3329502646727847  0.3972130210676889
  0.6686810754423111  0.4585557155514230  0.3960248531958153
  0.6706018833233157  0.5842432795002365  0.3987141801097113
  0.6679101959403606  0.7071382644919240  0.4005223838428784
  0.6651263194779991  0.8300860579549569  0.4007645077589511
  0.6655852143428629  0.9559384318710460  0.4003368829911287
  0.7906548924296853  0.0816421205458062  0.4000906210261290
  0.7909343373153956  0.2070065005722072  0.3997837619702796
  0.7915468804649958  0.3325825157330010  0.3988046375459308
  0.7925873438883240  0.4582310063571038  0.3974885705940133
  0.7936217109361290  0.5837190270058965  0.3972107220661350
  0.7938040869618925  0.7090091211306584  0.3985496924834250
  0.7919720008556667  0.8327314249607684  0.3996128619614738
  0.7906006751332192  0.9565288244317294  0.4000542317443432
  0.9158235363439032  0.0822619134520808  0.3999072175979225
  0.9155787165208857  0.2071310942832162  0.3999152977114811
  0.9158130073526136  0.3324672034902509  0.3996799371370721
  0.9165926747242220  0.4579616935414229  0.3991297208694407
  0.9175820695957816  0.5835707085606761  0.3986712020671930
  0.9180574918086674  0.7089969768067768  0.3988715092412047
  0.9178171347216867  0.8340057316649764  0.3993738885915382
  0.9167868590077202  0.9581535679761167  0.3997366600924874
  0.0842454435693890  0.0429055689352279  0.3998199129329744
  0.0831166565652527  0.1669294331433958  0.3997958625607304
  0.0816583873667309  0.2910027730808019  0.3992193252871198
  0.0817627095707198  0.4161243763700903  0.3988209688375385
  0.0825768936034305  0.5414486844255537  0.3989821928478437
  0.0835319185089138  0.6669785865366502  0.3994406034026519
  0.0841651112446274  0.7925216372457844  0.3997751798048932
  0.0843473031778794  0.9178584364270871  0.3998852820487143
  0.2093648411665148  0.0433663005840325  0.3999763353043935
  0.2094360850147083  0.1689182847351046  0.4000957809007079
  0.2073962792745642  0.2925272758901504  0.3998075727063743
  0.2057027904714383  0.4162785912808995  0.3984600040856769
  0.2063834503492108  0.5412684098932499  0.3977846075997757
  0.2077628448593729  0.6667466856910176  0.3988356702030189
  0.2085881243408544  0.7921780793957426  0.3996682332056661
  0.2090818793951274  0.9177859781143046  0.3999222244693127
  0.3339039607596450  0.0429529164845323  0.3996196884658682
  0.3344594953860179  0.1691862230154674  0.4004243219184333
  0.3354711772396888  0.2962429079594882  0.4032778549588897
  0.3321378397363731  0.5425791425716945  0.3985586699128993
  0.3318922992988755  0.6658844175830327  0.3987879263783224
  0.3329744184391230  0.7914001427429197  0.3994753843823308
  0.3335617726033008  0.9170926567253894  0.3996849841285709
  0.4583848069009025  0.0414966190548005  0.3993524125579474
  0.4588209920122062  0.1673698402365185  0.3986867311722010
  0.4597745812997447  0.2933200653434959  0.4006459508507678
  0.4660245311401084  0.4175488292483124  0.4149008881107037
  0.4536012075946314  0.6604570335265872  0.4019873628496357
  0.4573314934222976  0.7894964324772151  0.4000753731699728
  0.4579314913093884  0.9155421179065821  0.3997790034353020
  0.5828149006915121  0.0401007083409815  0.3997103644882991
  0.5833132668295832  0.1660257348864372  0.3987911606549096
  0.5840555467768860  0.2917525809190804  0.3976622978453710
  0.5858074138030527  0.4173561034365441  0.3975588503913208
  0.5885862903498968  0.5441673951347056  0.4029625951849418
  0.5844379157320608  0.6618855198256187  0.4031606004591536
  0.5809591411143959  0.7860515330361120  0.4014447074284958
  0.5822783083862413  0.9137974575851763  0.4003133445081612
  0.7073540884119655  0.0396249583748959  0.4001147961544205
  0.7077771727670169  0.1653298249425475  0.3995973773154393
  0.7083613499388924  0.2909194981603901  0.3982470357884370
  0.7095230458514169  0.4165584494598710  0.3965641700950344
  0.7109614891891356  0.5420266868619651  0.3967807492425801
  0.7108564535287653  0.6671121297571059  0.3990802842761977
  0.7084442769360235  0.7903412764696317  0.4001944193015778
  0.7069505625255540  0.9139805886250465  0.4003743047801533
  0.8323457243288720  0.0401211287849727  0.4000458200287871
  0.8323378349675745  0.1652250596490962  0.4000021186040428
  0.8327557934090489  0.2906536509204947  0.3995652254973857
  0.8335906055948122  0.4161960937500985  0.3985502138025576
  0.8346312216462762  0.5417680394819757  0.3976390603557428
  0.8350685794519871  0.6672606186866007  0.3981518789275720
  0.8346040760739527  0.7921278218515885  0.3991586622124323
  0.8332948873977875  0.9159716825839691  0.3997791142200360
  0.9582150747651869  0.0414546654906140  0.3997964670044261
  0.9573404168158322  0.1656884679027353  0.3998392778286989
  0.9571441825999336  0.2906720823499961  0.3997294826125413
  0.9576306799931745  0.4160410038325540  0.3994129979077212
  0.9586150644273799  0.5416287310438137  0.3991306371888345
  0.9593464022244694  0.6671485008785107  0.3990554664074624
  0.9595150893756019  0.7924702933667829  0.3993695591311777
  0.9592158517260518  0.9173468285636623  0.3996936967743352
  0.4103299043940752  0.5807214636019765  0.4024298361954161
  0.5490332242058709  0.5826558374035995  0.4056811771027691
  0.3276930554289091  0.4168230087416421  0.3987441408368114
  0.5086519327468135  0.5283119969074244  0.5322896528701802
  0.4465885871744988  0.5424973206159918  0.5126537491487252
 
  0.00000000E+00  0.00000000E+00  0.00000000E+00
  0.00000000E+00  0.00000000E+00  0.00000000E+00
  0.00000000E+00  0.00000000E+00  0.00000000E+00
  0.00000000E+00  0.00000000E+00  0.00000000E+00
  0.00000000E+00  0.00000000E+00  0.00000000E+00
  0.00000000E+00  0.00000000E+00  0.00000000E+00
  0.00000000E+00  0.00000000E+00  0.00000000E+00
  0.00000000E+00  0.00000000E+00  0.00000000E+00
  0.00000000E+00  0.00000000E+00  0.00000000E+00
  0.00000000E+00  0.00000000E+00  0.00000000E+00
  0.00000000E+00  0.00000000E+00  0.00000000E+00
  0.00000000E+00  0.00000000E+00  0.00000000E+00
  0.00000000E+00  0.00000000E+00  0.00000000E+00
  0.00000000E+00  0.00000000E+00  0.00000000E+00
  0.00000000E+00  0.00000000E+00  0.00000000E+00
  0.00000000E+00  0.00000000E+00  0.00000000E+00
  0.00000000E+00  0.00000000E+00  0.00000000E+00
  0.00000000E+00  0.00000000E+00  0.00000000E+00
  0.00000000E+00  0.00000000E+00  0.00000000E+00
  0.00000000E+00  0.00000000E+00  0.00000000E+00
  0.00000000E+00  0.00000000E+00  0.00000000E+00
  0.00000000E+00  0.00000000E+00  0.00000000E+00
  0.00000000E+00  0.00000000E+00  0.00000000E+00
  0.00000000E+00  0.00000000E+00  0.00000000E+00
  0.00000000E+00  0.00000000E+00  0.00000000E+00
  0.00000000E+00  0.00000000E+00  0.00000000E+00
  0.00000000E+00  0.00000000E+00  0.00000000E+00
  0.00000000E+00  0.00000000E+00  0.00000000E+00
  0.00000000E+00  0.00000000E+00  0.00000000E+00
  0.00000000E+00  0.00000000E+00  0.00000000E+00
  0.00000000E+00  0.00000000E+00  0.00000000E+00
  0.00000000E+00  0.00000000E+00  0.00000000E+00
  0.00000000E+00  0.00000000E+00  0.00000000E+00
  0.00000000E+00  0.00000000E+00  0.00000000E+00
  0.00000000E+00  0.00000000E+00  0.00000000E+00
  0.00000000E+00  0.00000000E+00  0.00000000E+00
  0.00000000E+00  0.00000000E+00  0.00000000E+00
  0.00000000E+00  0.00000000E+00  0.00000000E+00
  0.00000000E+00  0.00000000E+00  0.00000000E+00
  0.00000000E+00  0.00000000E+00  0.00000000E+00
  0.00000000E+00  0.00000000E+00  0.00000000E+00
  0.00000000E+00  0.00000000E+00  0.00000000E+00
  0.00000000E+00  0.00000000E+00  0.00000000E+00
  0.00000000E+00  0.00000000E+00  0.00000000E+00
  0.00000000E+00  0.00000000E+00  0.00000000E+00
  0.00000000E+00  0.00000000E+00  0.00000000E+00
  0.00000000E+00  0.00000000E+00  0.00000000E+00
  0.00000000E+00  0.00000000E+00  0.00000000E+00
  0.00000000E+00  0.00000000E+00  0.00000000E+00
  0.00000000E+00  0.00000000E+00  0.00000000E+00
  0.00000000E+00  0.00000000E+00  0.00000000E+00
  0.00000000E+00  0.00000000E+00  0.00000000E+00
  0.00000000E+00  0.00000000E+00  0.00000000E+00
  0.00000000E+00  0.00000000E+00  0.00000000E+00
  0.00000000E+00  0.00000000E+00  0.00000000E+00
  0.00000000E+00  0.00000000E+00  0.00000000E+00
  0.00000000E+00  0.00000000E+00  0.00000000E+00
  0.00000000E+00  0.00000000E+00  0.00000000E+00
  0.00000000E+00  0.00000000E+00  0.00000000E+00
  0.00000000E+00  0.00000000E+00  0.00000000E+00
  0.00000000E+00  0.00000000E+00  0.00000000E+00
  0.00000000E+00  0.00000000E+00  0.00000000E+00
  0.00000000E+00  0.00000000E+00  0.00000000E+00
  0.00000000E+00  0.00000000E+00  0.00000000E+00
  0.00000000E+00  0.00000000E+00  0.00000000E+00
  0.00000000E+00  0.00000000E+00  0.00000000E+00
  0.00000000E+00  0.00000000E+00  0.00000000E+00
  0.00000000E+00  0.00000000E+00  0.00000000E+00
  0.00000000E+00  0.00000000E+00  0.00000000E+00
  0.00000000E+00  0.00000000E+00  0.00000000E+00
  0.00000000E+00  0.00000000E+00  0.00000000E+00
  0.00000000E+00  0.00000000E+00  0.00000000E+00
  0.00000000E+00  0.00000000E+00  0.00000000E+00
  0.00000000E+00  0.00000000E+00  0.00000000E+00
  0.00000000E+00  0.00000000E+00  0.00000000E+00
  0.00000000E+00  0.00000000E+00  0.00000000E+00
  0.00000000E+00  0.00000000E+00  0.00000000E+00
  0.00000000E+00  0.00000000E+00  0.00000000E+00
  0.00000000E+00  0.00000000E+00  0.00000000E+00
  0.00000000E+00  0.00000000E+00  0.00000000E+00
  0.00000000E+00  0.00000000E+00  0.00000000E+00
  0.00000000E+00  0.00000000E+00  0.00000000E+00
  0.00000000E+00  0.00000000E+00  0.00000000E+00
  0.00000000E+00  0.00000000E+00  0.00000000E+00
  0.00000000E+00  0.00000000E+00  0.00000000E+00
  0.00000000E+00  0.00000000E+00  0.00000000E+00
  0.00000000E+00  0.00000000E+00  0.00000000E+00
  0.00000000E+00  0.00000000E+00  0.00000000E+00
  0.00000000E+00  0.00000000E+00  0.00000000E+00
  0.00000000E+00  0.00000000E+00  0.00000000E+00
  0.00000000E+00  0.00000000E+00  0.00000000E+00
  0.00000000E+00  0.00000000E+00  0.00000000E+00
  0.00000000E+00  0.00000000E+00  0.00000000E+00
  0.00000000E+00  0.00000000E+00  0.00000000E+00
  0.00000000E+00  0.00000000E+00  0.00000000E+00
  0.00000000E+00  0.00000000E+00  0.00000000E+00
  0.00000000E+00  0.00000000E+00  0.00000000E+00
  0.00000000E+00  0.00000000E+00  0.00000000E+00
  0.00000000E+00  0.00000000E+00  0.00000000E+00
  0.00000000E+00  0.00000000E+00  0.00000000E+00
  0.00000000E+00  0.00000000E+00  0.00000000E+00
  0.00000000E+00  0.00000000E+00  0.00000000E+00
  0.00000000E+00  0.00000000E+00  0.00000000E+00
  0.00000000E+00  0.00000000E+00  0.00000000E+00
  0.00000000E+00  0.00000000E+00  0.00000000E+00
  0.00000000E+00  0.00000000E+00  0.00000000E+00
  0.00000000E+00  0.00000000E+00  0.00000000E+00
  0.00000000E+00  0.00000000E+00  0.00000000E+00
  0.00000000E+00  0.00000000E+00  0.00000000E+00
  0.00000000E+00  0.00000000E+00  0.00000000E+00
  0.00000000E+00  0.00000000E+00  0.00000000E+00
  0.00000000E+00  0.00000000E+00  0.00000000E+00
  0.00000000E+00  0.00000000E+00  0.00000000E+00
  0.00000000E+00  0.00000000E+00  0.00000000E+00
  0.00000000E+00  0.00000000E+00  0.00000000E+00
  0.00000000E+00  0.00000000E+00  0.00000000E+00
  0.00000000E+00  0.00000000E+00  0.00000000E+00
  0.00000000E+00  0.00000000E+00  0.00000000E+00
  0.00000000E+00  0.00000000E+00  0.00000000E+00
  0.00000000E+00  0.00000000E+00  0.00000000E+00
  0.00000000E+00  0.00000000E+00  0.00000000E+00
  0.00000000E+00  0.00000000E+00  0.00000000E+00
  0.00000000E+00  0.00000000E+00  0.00000000E+00
  0.00000000E+00  0.00000000E+00  0.00000000E+00
  0.00000000E+00  0.00000000E+00  0.00000000E+00
  0.00000000E+00  0.00000000E+00  0.00000000E+00
  0.00000000E+00  0.00000000E+00  0.00000000E+00
  0.00000000E+00  0.00000000E+00  0.00000000E+00
  0.00000000E+00  0.00000000E+00  0.00000000E+00
  0.00000000E+00  0.00000000E+00  0.00000000E+00
