Sc1 H1 C122 N4                          
   1.00000000000000     
    19.8018565235050801    0.0000283573442567   -0.0398260795815881
    -9.9008996884542189   17.0345757166153469   -0.0691295396533117
    -0.0599676751798981   -0.1558039727870116   29.8317071323545377
   Sc   H    C    N 
     1     1   122     4
Direct
  0.4390555884209157  0.5013043965101401  0.4352037571508579
  0.4428987761513783  0.5044274568729413  0.4976820019509722
  0.0420705107278607  0.0841038237285694  0.3996143719540344
  0.0412449384319188  0.2083152861614881  0.3994851864846087
  0.0405183755722592  0.3330836244876260  0.3993055288229326
  0.0406327030477614  0.4582863286241152  0.3992801967981726
  0.0414319490548585  0.5838061531675690  0.3997567930428506
  0.0421803642907249  0.7092413121790714  0.3999130158757260
  0.0423918304740683  0.8344129070182754  0.3999105801891327
  0.0424738173156739  0.9595742070765046  0.3998290687965982
  0.1681140078698556  0.0856639452113410  0.3999863714028856
  0.1674782119116610  0.2101566214028763  0.4000320335059186
  0.1654321938669027  0.3337911450147933  0.4000264499931871
  0.1645361227917838  0.4585619159027245  0.3990644079035761
  0.1653636937027977  0.5837156603921797  0.3989624992548646
  0.1664877427791114  0.7090124222570959  0.3996891486347741
  0.1670932907236055  0.8344199160577087  0.3998882497914130
  0.1675043398683327  0.9599321105158002  0.3999008011455736
  0.2926042661508528  0.0856540135557731  0.3999592936087235
  0.2940497382234149  0.2130265524237204  0.4012519216654183
  0.2924120213292266  0.3384160332494613  0.4030531317653633
  0.2883018846715107  0.4579479731936274  0.4022854214092637
  0.2889442562184321  0.5830378073200840  0.3997543440170776
  0.2907944521406045  0.7084882552035794  0.3992686114491206
  0.2917298063067889  0.8339868198332169  0.3997453408038692
  0.2921908668507733  0.9595774012823544  0.3998209439011086
  0.4171103539649716  0.0841099751723113  0.3996322629338687
  0.4177220009903055  0.2101472473420890  0.3998986567335237
  0.4211062353294294  0.3383883135644000  0.4024951108385081
  0.4149639123330898  0.7065637412954945  0.3999379360419541
  0.4162333419431881  0.8325136133407827  0.3994598229308421
  0.4167652059506545  0.9583721590136346  0.3997658819165700
  0.5416626741923274  0.0827306514384125  0.3997873752404591
  0.5421592199195142  0.2083363222111220  0.3995256208292505
  0.5434553759370347  0.3337671610491404  0.3996338590769862
  0.5447365034126025  0.4578904559572620  0.4011125209734489
  0.5387484899488708  0.7024199098673879  0.4018232864076420
  0.5406858569752406  0.8305991234163341  0.4000517787007527
  0.5412628111941117  0.9569264393636673  0.3998578591539286
  0.6662895847987854  0.0822073262253319  0.3999922592600622
  0.6667116745431885  0.2076290459766745  0.3998345415592920
  0.6676691015916278  0.3331023639190311  0.3994056628558156
  0.6691394734111052  0.4585543621038319  0.3988337075826293
  0.6692230517993645  0.5830361923091981  0.3991610276960456
  0.6666692769988548  0.7065874645453998  0.3996075322850698
  0.6649539698765320  0.8306288388831046  0.3999977368329899
  0.6658164021635730  0.9565771731956274  0.4000777903310369
  0.7909870893519171  0.0821918723352593  0.4000088412606113
  0.7913048683770357  0.2075336370240561  0.3998269938939310
  0.7918957261787419  0.3329081494409725  0.3998908072108691
  0.7927610607964838  0.4582932314129816  0.3994980105156166
  0.7934389262050808  0.5836944255734434  0.3990939198504764
  0.7927928436000444  0.7085008816803484  0.3992513118677378
  0.7913499384068124  0.8325311827835011  0.3994904529657621
  0.7907242822894482  0.9569245004310971  0.3998666945565054
  0.9161539239361255  0.0827320510869351  0.3997648070926254
  0.9159865530151723  0.2076105169371626  0.3997779762382463
  0.9161310212240263  0.3329019597123523  0.3998035255745833
  0.9167547252804048  0.4583867515605845  0.3998930107729701
  0.9174695788154040  0.5838006277743674  0.3998920256583571
  0.9176163595152598  0.7089921851561155  0.3998224236089531
  0.9173433401156004  0.8339925219093279  0.3998231136838672
  0.9167018821834279  0.9583797849523161  0.3998125793236156
  0.0844313864787488  0.0432638772095632  0.3997458873671453
  0.0838272952284710  0.1676675350840598  0.3995503125283331
  0.0824052565675259  0.2916857393460065  0.3994490170928990
  0.0817251537511091  0.4164328332196422  0.3990117340949056
  0.0824181902436515  0.5418861194621957  0.3992901829444951
  0.0833283824603786  0.6673053197721986  0.3998433666606467
  0.0838610411771189  0.7926658498279440  0.3998414893504765
  0.0841630703001860  0.9179813857941518  0.3998904267825399
  0.2093209714173360  0.0435870011190508  0.3999832949751829
  0.2102051887835792  0.1696008355987370  0.4004343554698297
  0.2085431754417694  0.2936707593087706  0.4006282125655192
  0.2060062194117959  0.4171675331314894  0.4000852291589945
  0.2060407264657902  0.5415936654530804  0.3989757771542023
  0.2074957980633093  0.6670765893087639  0.3992591385575480
  0.2084716094981119  0.7925844255929078  0.3998572778766833
  0.2088878332606197  0.9179837099195405  0.3999022186590741
  0.3338876635207612  0.0432535285733109  0.3997451012679727
  0.3344285239346589  0.1695824642449113  0.4003767924504268
  0.3364966646472939  0.2978886153296134  0.4028404282742118
  0.3305205582603342  0.5423728889518186  0.4019538631466667
  0.3317036067166658  0.6663961860742442  0.3995706336098232
  0.3329936024870029  0.7918537852573604  0.3994590720736451
  0.3335363743355139  0.9174682735233968  0.3997946457405121
  0.4584317238290894  0.0418283430080219  0.3997340234426955
  0.4589047012061418  0.1676585861213323  0.3995480696168703
  0.4601847501401846  0.2936393138218953  0.4002174517254820
  0.4541581068711804  0.6619386385975911  0.4020924806187421
  0.4573895167717932  0.7900472855059070  0.3996000328123190
  0.4580576290623070  0.9160872314629708  0.3996998198404836
  0.5829968847731066  0.0406134608021413  0.3999132666021429
  0.5834546357491188  0.1661991983122927  0.3997159724113027
  0.5843676027654963  0.2916696719105771  0.3993967904072798
  0.5862574036096826  0.4171372999485268  0.3994281997247802
  0.5869543496630593  0.5423547591195754  0.4008165020548478
  0.5828592635791456  0.6619245731487606  0.4015857121276890
  0.5811331409245745  0.7872201543064226  0.4005726082295479
  0.5825259991469097  0.9145269312340603  0.3999855563570052
  0.7076503101205580  0.0402426840603755  0.4000665381993171
  0.7080757030258946  0.1657727686805231  0.3998907845572834
  0.7087195463787999  0.2911934363802985  0.3997674467669180
  0.7098185613311585  0.4164605335053095  0.3991206882382702
  0.7106541500652773  0.5416030574827095  0.3987760428591746
  0.7097848332819622  0.6664239637065662  0.3992368063451657
  0.7076934921338053  0.7900647818177566  0.3995226998337029
  0.7070502023957392  0.9145459276748503  0.3999526540747366
  0.8326895917665876  0.0406105033969818  0.3999207495854884
  0.8327520705622700  0.1657683037880871  0.3998853209149831
  0.8330318344271482  0.2909511630680724  0.3998703767073610
  0.8337618684537836  0.4163914852126460  0.3998585330140560
  0.8345430194736535  0.5418817540793188  0.3995184199234890
  0.8346474890118436  0.6670742929379759  0.3993740775147491
  0.8339183646112516  0.7918545629576159  0.3995108174044399
  0.8331071761638058  0.9160904812799876  0.3997472996363438
  0.9584897871123578  0.0418406449255306  0.3997226518187482
  0.9578279824053475  0.1662094406396748  0.3996443450421319
  0.9575622328793834  0.2911816141534295  0.3996431155492582
  0.9577237159856447  0.4163860466904816  0.3997233024621815
  0.9584601142179289  0.5418218026355340  0.3999123587702189
  0.9590785226110942  0.6673060649513514  0.3999323959764380
  0.9591661740836840  0.7925700849239095  0.3999240138349360
  0.9590217440010926  0.9174702606344356  0.3998423404588435
  0.4107264916260944  0.5820070846446653  0.4047944956135136
  0.5463825376236798  0.5819487266423272  0.4036914069974116
  0.3289291581407476  0.4184660397249772  0.4056194814832462
  0.4646699401074544  0.4184648723980637  0.4044806970712523
 
  0.00000000E+00  0.00000000E+00  0.00000000E+00
  0.00000000E+00  0.00000000E+00  0.00000000E+00
  0.00000000E+00  0.00000000E+00  0.00000000E+00
  0.00000000E+00  0.00000000E+00  0.00000000E+00
  0.00000000E+00  0.00000000E+00  0.00000000E+00
  0.00000000E+00  0.00000000E+00  0.00000000E+00
  0.00000000E+00  0.00000000E+00  0.00000000E+00
  0.00000000E+00  0.00000000E+00  0.00000000E+00
  0.00000000E+00  0.00000000E+00  0.00000000E+00
  0.00000000E+00  0.00000000E+00  0.00000000E+00
  0.00000000E+00  0.00000000E+00  0.00000000E+00
  0.00000000E+00  0.00000000E+00  0.00000000E+00
  0.00000000E+00  0.00000000E+00  0.00000000E+00
  0.00000000E+00  0.00000000E+00  0.00000000E+00
  0.00000000E+00  0.00000000E+00  0.00000000E+00
  0.00000000E+00  0.00000000E+00  0.00000000E+00
  0.00000000E+00  0.00000000E+00  0.00000000E+00
  0.00000000E+00  0.00000000E+00  0.00000000E+00
  0.00000000E+00  0.00000000E+00  0.00000000E+00
  0.00000000E+00  0.00000000E+00  0.00000000E+00
  0.00000000E+00  0.00000000E+00  0.00000000E+00
  0.00000000E+00  0.00000000E+00  0.00000000E+00
  0.00000000E+00  0.00000000E+00  0.00000000E+00
  0.00000000E+00  0.00000000E+00  0.00000000E+00
  0.00000000E+00  0.00000000E+00  0.00000000E+00
  0.00000000E+00  0.00000000E+00  0.00000000E+00
  0.00000000E+00  0.00000000E+00  0.00000000E+00
  0.00000000E+00  0.00000000E+00  0.00000000E+00
  0.00000000E+00  0.00000000E+00  0.00000000E+00
  0.00000000E+00  0.00000000E+00  0.00000000E+00
  0.00000000E+00  0.00000000E+00  0.00000000E+00
  0.00000000E+00  0.00000000E+00  0.00000000E+00
  0.00000000E+00  0.00000000E+00  0.00000000E+00
  0.00000000E+00  0.00000000E+00  0.00000000E+00
  0.00000000E+00  0.00000000E+00  0.00000000E+00
  0.00000000E+00  0.00000000E+00  0.00000000E+00
  0.00000000E+00  0.00000000E+00  0.00000000E+00
  0.00000000E+00  0.00000000E+00  0.00000000E+00
  0.00000000E+00  0.00000000E+00  0.00000000E+00
  0.00000000E+00  0.00000000E+00  0.00000000E+00
  0.00000000E+00  0.00000000E+00  0.00000000E+00
  0.00000000E+00  0.00000000E+00  0.00000000E+00
  0.00000000E+00  0.00000000E+00  0.00000000E+00
  0.00000000E+00  0.00000000E+00  0.00000000E+00
  0.00000000E+00  0.00000000E+00  0.00000000E+00
  0.00000000E+00  0.00000000E+00  0.00000000E+00
  0.00000000E+00  0.00000000E+00  0.00000000E+00
  0.00000000E+00  0.00000000E+00  0.00000000E+00
  0.00000000E+00  0.00000000E+00  0.00000000E+00
  0.00000000E+00  0.00000000E+00  0.00000000E+00
  0.00000000E+00  0.00000000E+00  0.00000000E+00
  0.00000000E+00  0.00000000E+00  0.00000000E+00
  0.00000000E+00  0.00000000E+00  0.00000000E+00
  0.00000000E+00  0.00000000E+00  0.00000000E+00
  0.00000000E+00  0.00000000E+00  0.00000000E+00
  0.00000000E+00  0.00000000E+00  0.00000000E+00
  0.00000000E+00  0.00000000E+00  0.00000000E+00
  0.00000000E+00  0.00000000E+00  0.00000000E+00
  0.00000000E+00  0.00000000E+00  0.00000000E+00
  0.00000000E+00  0.00000000E+00  0.00000000E+00
  0.00000000E+00  0.00000000E+00  0.00000000E+00
  0.00000000E+00  0.00000000E+00  0.00000000E+00
  0.00000000E+00  0.00000000E+00  0.00000000E+00
  0.00000000E+00  0.00000000E+00  0.00000000E+00
  0.00000000E+00  0.00000000E+00  0.00000000E+00
  0.00000000E+00  0.00000000E+00  0.00000000E+00
  0.00000000E+00  0.00000000E+00  0.00000000E+00
  0.00000000E+00  0.00000000E+00  0.00000000E+00
  0.00000000E+00  0.00000000E+00  0.00000000E+00
  0.00000000E+00  0.00000000E+00  0.00000000E+00
  0.00000000E+00  0.00000000E+00  0.00000000E+00
  0.00000000E+00  0.00000000E+00  0.00000000E+00
  0.00000000E+00  0.00000000E+00  0.00000000E+00
  0.00000000E+00  0.00000000E+00  0.00000000E+00
  0.00000000E+00  0.00000000E+00  0.00000000E+00
  0.00000000E+00  0.00000000E+00  0.00000000E+00
  0.00000000E+00  0.00000000E+00  0.00000000E+00
  0.00000000E+00  0.00000000E+00  0.00000000E+00
  0.00000000E+00  0.00000000E+00  0.00000000E+00
  0.00000000E+00  0.00000000E+00  0.00000000E+00
  0.00000000E+00  0.00000000E+00  0.00000000E+00
  0.00000000E+00  0.00000000E+00  0.00000000E+00
  0.00000000E+00  0.00000000E+00  0.00000000E+00
  0.00000000E+00  0.00000000E+00  0.00000000E+00
  0.00000000E+00  0.00000000E+00  0.00000000E+00
  0.00000000E+00  0.00000000E+00  0.00000000E+00
  0.00000000E+00  0.00000000E+00  0.00000000E+00
  0.00000000E+00  0.00000000E+00  0.00000000E+00
  0.00000000E+00  0.00000000E+00  0.00000000E+00
  0.00000000E+00  0.00000000E+00  0.00000000E+00
  0.00000000E+00  0.00000000E+00  0.00000000E+00
  0.00000000E+00  0.00000000E+00  0.00000000E+00
  0.00000000E+00  0.00000000E+00  0.00000000E+00
  0.00000000E+00  0.00000000E+00  0.00000000E+00
  0.00000000E+00  0.00000000E+00  0.00000000E+00
  0.00000000E+00  0.00000000E+00  0.00000000E+00
  0.00000000E+00  0.00000000E+00  0.00000000E+00
  0.00000000E+00  0.00000000E+00  0.00000000E+00
  0.00000000E+00  0.00000000E+00  0.00000000E+00
  0.00000000E+00  0.00000000E+00  0.00000000E+00
  0.00000000E+00  0.00000000E+00  0.00000000E+00
  0.00000000E+00  0.00000000E+00  0.00000000E+00
  0.00000000E+00  0.00000000E+00  0.00000000E+00
  0.00000000E+00  0.00000000E+00  0.00000000E+00
  0.00000000E+00  0.00000000E+00  0.00000000E+00
  0.00000000E+00  0.00000000E+00  0.00000000E+00
  0.00000000E+00  0.00000000E+00  0.00000000E+00
  0.00000000E+00  0.00000000E+00  0.00000000E+00
  0.00000000E+00  0.00000000E+00  0.00000000E+00
  0.00000000E+00  0.00000000E+00  0.00000000E+00
  0.00000000E+00  0.00000000E+00  0.00000000E+00
  0.00000000E+00  0.00000000E+00  0.00000000E+00
  0.00000000E+00  0.00000000E+00  0.00000000E+00
  0.00000000E+00  0.00000000E+00  0.00000000E+00
  0.00000000E+00  0.00000000E+00  0.00000000E+00
  0.00000000E+00  0.00000000E+00  0.00000000E+00
  0.00000000E+00  0.00000000E+00  0.00000000E+00
  0.00000000E+00  0.00000000E+00  0.00000000E+00
  0.00000000E+00  0.00000000E+00  0.00000000E+00
  0.00000000E+00  0.00000000E+00  0.00000000E+00
  0.00000000E+00  0.00000000E+00  0.00000000E+00
  0.00000000E+00  0.00000000E+00  0.00000000E+00
  0.00000000E+00  0.00000000E+00  0.00000000E+00
  0.00000000E+00  0.00000000E+00  0.00000000E+00
  0.00000000E+00  0.00000000E+00  0.00000000E+00
  0.00000000E+00  0.00000000E+00  0.00000000E+00
  0.00000000E+00  0.00000000E+00  0.00000000E+00
  0.00000000E+00  0.00000000E+00  0.00000000E+00
