Mo1 C124 N2 O1                          
   1.00000000000000     
    19.8151659481296534   -0.0146106107371478   -0.0579628362490463
    -9.9203930325979375   17.0555064897216901   -0.0631626699535612
    -0.0872182885780966   -0.1609688206439420   29.7880746673475336
   Mo   C    N    O 
     1   124     2     1
Direct
  0.4388197671504220  0.5010752730328120  0.4334999530132738
  0.0422039877222022  0.0841669101652417  0.3996261352519884
  0.0415114217762146  0.2085120942486504  0.3992468069043720
  0.0407937789518448  0.3330425780825823  0.3989978164411880
  0.0406837459599084  0.4583629322566893  0.3991304190801716
  0.0413822824801388  0.5837908186371000  0.3996032082423507
  0.0419581688522549  0.7091144635334086  0.3998343711268214
  0.0422702588025238  0.8343701517708236  0.3999002861370226
  0.0424254791785347  0.9595211722072419  0.3998350285509230
  0.1681154555964997  0.0856126775383985  0.4001482550332390
  0.1676951748686961  0.2102357914699567  0.4000319757138034
  0.1661343779802712  0.3341363823375257  0.3994686921391834
  0.1643884597252586  0.4586458171651548  0.3989218700155663
  0.1652964538344891  0.5838171279175121  0.3990638705456850
  0.1663689653789441  0.7090901715622232  0.3995850192663702
  0.1669796119427699  0.8344077912852407  0.3998315902401139
  0.1674690552298837  0.9598993873427263  0.3999646123850459
  0.2926510841983225  0.0852241774080232  0.4001471733184674
  0.2944025766161200  0.2123840220128442  0.4016400044656411
  0.2934578835093878  0.3378978043374934  0.4030323023497474
  0.2883640398982246  0.4594298357292682  0.4023178239092929
  0.2889460650457811  0.5843347537293649  0.4003237246560453
  0.2907472739895646  0.7091050368075096  0.3996072886930785
  0.2916288268907682  0.8341286593660657  0.3995472994493915
  0.2920414886578167  0.9594457278804375  0.3996628427008365
  0.4171261590469450  0.0839060314814888  0.3995896341185344
  0.4177843496018965  0.2096674611085763  0.4004246699517203
  0.4209104407059459  0.3373837017229877  0.4038207448139873
  0.4149792370134358  0.7070551194541467  0.4010366977988177
  0.4161748526077815  0.8328796484603144  0.3996097100505244
  0.4166855137838184  0.9583994988184370  0.3994659860462603
  0.5417004611478550  0.0827261553871512  0.3996233029465467
  0.5421977243362437  0.2078970093718170  0.3996737112191414
  0.5434577892800688  0.3328327569495023  0.4003520714281115
  0.5453648019439439  0.4565281512204144  0.4023546109074191
  0.5445122296301711  0.5802244953573694  0.4044354864455380
  0.5385895382467748  0.7037932850845576  0.4028830679872412
  0.5405512574429641  0.8313062283798652  0.4005219279275484
  0.5413139086645906  0.9572335500346749  0.3997314412650610
  0.6663376836480754  0.0822363523234752  0.3999299009228602
  0.6668024137273567  0.2075586566190537  0.3997963550272906
  0.6676742751249406  0.3328110227276135  0.3994706611883145
  0.6692421902444040  0.4582155302367424  0.3988587683037900
  0.6693279596935474  0.5827680049321654  0.3988071142337257
  0.6659909911863728  0.7063717618171638  0.3994389780160276
  0.6650088895598781  0.8308549047384355  0.4002002050331057
  0.6658553010049822  0.9567576605571410  0.4000387864414258
  0.7911366935735825  0.0822724172365002  0.3999351554191333
  0.7914250875964884  0.2075103654771223  0.3998986259721687
  0.7919570107732884  0.3328368621371178  0.3997470939541162
  0.7928275385764381  0.4582506300631297  0.3993168597932604
  0.7933913035478403  0.5835418244351402  0.3987186217267593
  0.7924244639396862  0.7083510300744305  0.3987435152944276
  0.7912030684896804  0.8325091873508711  0.3992521257864869
  0.7907871588723804  0.9570114363664590  0.3997354181481610
  0.9163284431500118  0.0828583388354359  0.3996245208604681
  0.9162194161667342  0.2077133523818684  0.3995805957098620
  0.9162915469256292  0.3328789209232388  0.3995852566125414
  0.9167316292410311  0.4582593706040419  0.3996921779782245
  0.9174056100382074  0.5837383902395327  0.3996469256449089
  0.9174008139262296  0.7089500655398059  0.3994665178510500
  0.9171204036173725  0.8337867627609199  0.3994797061740477
  0.9166924087669323  0.9583635237517930  0.3995763017751953
  0.0844314248456276  0.0432069563700921  0.3998263692114639
  0.0839983481206123  0.1677206797062138  0.3995143986212435
  0.0827428711708328  0.2918263111263219  0.3990485819817453
  0.0817511613639367  0.4165937527209166  0.3988099409552225
  0.0823653733504239  0.5419209365289608  0.3992032863440129
  0.0832060781594110  0.6673258280326294  0.3996956807802765
  0.0837673052952019  0.7926805641078850  0.3998964598710444
  0.0840725587196628  0.9179417683585888  0.3999409349264221
  0.2093621961928567  0.0434981255421479  0.4001181253696232
  0.2102490146105255  0.1694459998105124  0.4006303882850167
  0.2092432951287553  0.2939093208990383  0.4003125153092359
  0.2058764385009148  0.4174518474399129  0.3996729542724421
  0.2059364396010310  0.5419557275149652  0.3991146425819836
  0.2075073244303327  0.6673786574126531  0.3993819777217434
  0.2083814514533787  0.7926409622926949  0.3996643582569906
  0.2088417230925739  0.9179766253991773  0.3998314363867149
  0.3338722044043527  0.0429966135840132  0.3997333831311408
  0.3347101021096553  0.1690082130122520  0.4007695271941755
  0.3367697988822819  0.2966292265275541  0.4035093894070529
  0.3308945898277135  0.4202691283305161  0.4057739712715602
  0.3299725984724443  0.5438281630407756  0.4029903343553518
  0.3317815052581794  0.6674124302997539  0.4003248953146129
  0.3329880232971483  0.7923250052273666  0.3995422489274524
  0.3334877628812415  0.9175100168489102  0.3995166653566719
  0.4585025689643399  0.0418230706415002  0.3995004615288126
  0.4590113765529576  0.1673492395641829  0.3997589752360249
  0.4603062234610993  0.2932468349772518  0.4011981454832695
  0.4544709999217963  0.6630197155695940  0.4036241588555611
  0.4574632713227825  0.7906188905065469  0.4001923699894301
  0.4580531613011259  0.9163112528841321  0.3995379548574548
  0.5831333256469227  0.0407856147448470  0.3997440991243278
  0.5835522190468284  0.1660943400937827  0.3996610046375201
  0.5844615653098695  0.2911111996189221  0.3997111590708838
  0.5863012319774383  0.4159003247658659  0.4000493969700187
  0.5869020920050700  0.5408765029910183  0.4011987735071738
  0.5818629960457540  0.6624966115113270  0.4019838473194831
  0.5808966972464185  0.7879682697697018  0.4011694158450571
  0.5825817255125547  0.9150575195407332  0.4000383456816765
  0.7077504490449040  0.0403350062699340  0.3999847861914376
  0.7082143046817971  0.1657979109311556  0.3999118560261265
  0.7088134984398856  0.2910938979381029  0.3996983021741309
  0.7098958646657050  0.4163511710076395  0.3990804287618960
  0.7107700675478218  0.5415141469709126  0.3984842593898666
  0.7090445198179725  0.6660734499970155  0.3987102370570222
  0.7075269228677402  0.7900319297045737  0.3994879099487909
  0.7071148987815171  0.9146589242780075  0.3999594419019390
  0.8327869781449265  0.0406909030319086  0.3997863272816674
  0.8329423550304270  0.1658262326491262  0.3998523623060423
  0.8332176816056840  0.2910755915701593  0.3997794692766743
  0.8338048006848222  0.4163668393535487  0.3996750660928158
  0.8344987159884470  0.5417966577570789  0.3992448963842712
  0.8343535887586755  0.6670969744297844  0.3989091860984403
  0.8336712454748313  0.7916840668928851  0.3991032581635465
  0.8330238620939708  0.9160621997742210  0.3995079993808567
  0.9585474856036598  0.0418756528555831  0.3995936633005733
  0.9580667451529375  0.1663864613451219  0.3994577311602575
  0.9577635710791733  0.2912035398461370  0.3993862142259101
  0.9577792384413415  0.4164267560615673  0.3995204784408315
  0.9584618345687675  0.5419073122086187  0.3997091374794080
  0.9588759019687839  0.6672857190174063  0.3997082798790342
  0.9589639892251681  0.7924615659875772  0.3996631185233910
  0.9588695438754599  0.9173225131385679  0.3996467140934473
  0.4099671756804398  0.5822299024439394  0.4068850757632771
  0.4655593125641587  0.4183270368205565  0.4065945201521005
  0.4412191556465684  0.5029793676208044  0.4904140862029238
 
  0.00000000E+00  0.00000000E+00  0.00000000E+00
  0.00000000E+00  0.00000000E+00  0.00000000E+00
  0.00000000E+00  0.00000000E+00  0.00000000E+00
  0.00000000E+00  0.00000000E+00  0.00000000E+00
  0.00000000E+00  0.00000000E+00  0.00000000E+00
  0.00000000E+00  0.00000000E+00  0.00000000E+00
  0.00000000E+00  0.00000000E+00  0.00000000E+00
  0.00000000E+00  0.00000000E+00  0.00000000E+00
  0.00000000E+00  0.00000000E+00  0.00000000E+00
  0.00000000E+00  0.00000000E+00  0.00000000E+00
  0.00000000E+00  0.00000000E+00  0.00000000E+00
  0.00000000E+00  0.00000000E+00  0.00000000E+00
  0.00000000E+00  0.00000000E+00  0.00000000E+00
  0.00000000E+00  0.00000000E+00  0.00000000E+00
  0.00000000E+00  0.00000000E+00  0.00000000E+00
  0.00000000E+00  0.00000000E+00  0.00000000E+00
  0.00000000E+00  0.00000000E+00  0.00000000E+00
  0.00000000E+00  0.00000000E+00  0.00000000E+00
  0.00000000E+00  0.00000000E+00  0.00000000E+00
  0.00000000E+00  0.00000000E+00  0.00000000E+00
  0.00000000E+00  0.00000000E+00  0.00000000E+00
  0.00000000E+00  0.00000000E+00  0.00000000E+00
  0.00000000E+00  0.00000000E+00  0.00000000E+00
  0.00000000E+00  0.00000000E+00  0.00000000E+00
  0.00000000E+00  0.00000000E+00  0.00000000E+00
  0.00000000E+00  0.00000000E+00  0.00000000E+00
  0.00000000E+00  0.00000000E+00  0.00000000E+00
  0.00000000E+00  0.00000000E+00  0.00000000E+00
  0.00000000E+00  0.00000000E+00  0.00000000E+00
  0.00000000E+00  0.00000000E+00  0.00000000E+00
  0.00000000E+00  0.00000000E+00  0.00000000E+00
  0.00000000E+00  0.00000000E+00  0.00000000E+00
  0.00000000E+00  0.00000000E+00  0.00000000E+00
  0.00000000E+00  0.00000000E+00  0.00000000E+00
  0.00000000E+00  0.00000000E+00  0.00000000E+00
  0.00000000E+00  0.00000000E+00  0.00000000E+00
  0.00000000E+00  0.00000000E+00  0.00000000E+00
  0.00000000E+00  0.00000000E+00  0.00000000E+00
  0.00000000E+00  0.00000000E+00  0.00000000E+00
  0.00000000E+00  0.00000000E+00  0.00000000E+00
  0.00000000E+00  0.00000000E+00  0.00000000E+00
  0.00000000E+00  0.00000000E+00  0.00000000E+00
  0.00000000E+00  0.00000000E+00  0.00000000E+00
  0.00000000E+00  0.00000000E+00  0.00000000E+00
  0.00000000E+00  0.00000000E+00  0.00000000E+00
  0.00000000E+00  0.00000000E+00  0.00000000E+00
  0.00000000E+00  0.00000000E+00  0.00000000E+00
  0.00000000E+00  0.00000000E+00  0.00000000E+00
  0.00000000E+00  0.00000000E+00  0.00000000E+00
  0.00000000E+00  0.00000000E+00  0.00000000E+00
  0.00000000E+00  0.00000000E+00  0.00000000E+00
  0.00000000E+00  0.00000000E+00  0.00000000E+00
  0.00000000E+00  0.00000000E+00  0.00000000E+00
  0.00000000E+00  0.00000000E+00  0.00000000E+00
  0.00000000E+00  0.00000000E+00  0.00000000E+00
  0.00000000E+00  0.00000000E+00  0.00000000E+00
  0.00000000E+00  0.00000000E+00  0.00000000E+00
  0.00000000E+00  0.00000000E+00  0.00000000E+00
  0.00000000E+00  0.00000000E+00  0.00000000E+00
  0.00000000E+00  0.00000000E+00  0.00000000E+00
  0.00000000E+00  0.00000000E+00  0.00000000E+00
  0.00000000E+00  0.00000000E+00  0.00000000E+00
  0.00000000E+00  0.00000000E+00  0.00000000E+00
  0.00000000E+00  0.00000000E+00  0.00000000E+00
  0.00000000E+00  0.00000000E+00  0.00000000E+00
  0.00000000E+00  0.00000000E+00  0.00000000E+00
  0.00000000E+00  0.00000000E+00  0.00000000E+00
  0.00000000E+00  0.00000000E+00  0.00000000E+00
  0.00000000E+00  0.00000000E+00  0.00000000E+00
  0.00000000E+00  0.00000000E+00  0.00000000E+00
  0.00000000E+00  0.00000000E+00  0.00000000E+00
  0.00000000E+00  0.00000000E+00  0.00000000E+00
  0.00000000E+00  0.00000000E+00  0.00000000E+00
  0.00000000E+00  0.00000000E+00  0.00000000E+00
  0.00000000E+00  0.00000000E+00  0.00000000E+00
  0.00000000E+00  0.00000000E+00  0.00000000E+00
  0.00000000E+00  0.00000000E+00  0.00000000E+00
  0.00000000E+00  0.00000000E+00  0.00000000E+00
  0.00000000E+00  0.00000000E+00  0.00000000E+00
  0.00000000E+00  0.00000000E+00  0.00000000E+00
  0.00000000E+00  0.00000000E+00  0.00000000E+00
  0.00000000E+00  0.00000000E+00  0.00000000E+00
  0.00000000E+00  0.00000000E+00  0.00000000E+00
  0.00000000E+00  0.00000000E+00  0.00000000E+00
  0.00000000E+00  0.00000000E+00  0.00000000E+00
  0.00000000E+00  0.00000000E+00  0.00000000E+00
  0.00000000E+00  0.00000000E+00  0.00000000E+00
  0.00000000E+00  0.00000000E+00  0.00000000E+00
  0.00000000E+00  0.00000000E+00  0.00000000E+00
  0.00000000E+00  0.00000000E+00  0.00000000E+00
  0.00000000E+00  0.00000000E+00  0.00000000E+00
  0.00000000E+00  0.00000000E+00  0.00000000E+00
  0.00000000E+00  0.00000000E+00  0.00000000E+00
  0.00000000E+00  0.00000000E+00  0.00000000E+00
  0.00000000E+00  0.00000000E+00  0.00000000E+00
  0.00000000E+00  0.00000000E+00  0.00000000E+00
  0.00000000E+00  0.00000000E+00  0.00000000E+00
  0.00000000E+00  0.00000000E+00  0.00000000E+00
  0.00000000E+00  0.00000000E+00  0.00000000E+00
  0.00000000E+00  0.00000000E+00  0.00000000E+00
  0.00000000E+00  0.00000000E+00  0.00000000E+00
  0.00000000E+00  0.00000000E+00  0.00000000E+00
  0.00000000E+00  0.00000000E+00  0.00000000E+00
  0.00000000E+00  0.00000000E+00  0.00000000E+00
  0.00000000E+00  0.00000000E+00  0.00000000E+00
  0.00000000E+00  0.00000000E+00  0.00000000E+00
  0.00000000E+00  0.00000000E+00  0.00000000E+00
  0.00000000E+00  0.00000000E+00  0.00000000E+00
  0.00000000E+00  0.00000000E+00  0.00000000E+00
  0.00000000E+00  0.00000000E+00  0.00000000E+00
  0.00000000E+00  0.00000000E+00  0.00000000E+00
  0.00000000E+00  0.00000000E+00  0.00000000E+00
  0.00000000E+00  0.00000000E+00  0.00000000E+00
  0.00000000E+00  0.00000000E+00  0.00000000E+00
  0.00000000E+00  0.00000000E+00  0.00000000E+00
  0.00000000E+00  0.00000000E+00  0.00000000E+00
  0.00000000E+00  0.00000000E+00  0.00000000E+00
  0.00000000E+00  0.00000000E+00  0.00000000E+00
  0.00000000E+00  0.00000000E+00  0.00000000E+00
  0.00000000E+00  0.00000000E+00  0.00000000E+00
  0.00000000E+00  0.00000000E+00  0.00000000E+00
  0.00000000E+00  0.00000000E+00  0.00000000E+00
  0.00000000E+00  0.00000000E+00  0.00000000E+00
  0.00000000E+00  0.00000000E+00  0.00000000E+00
  0.00000000E+00  0.00000000E+00  0.00000000E+00
  0.00000000E+00  0.00000000E+00  0.00000000E+00
  0.00000000E+00  0.00000000E+00  0.00000000E+00
  0.00000000E+00  0.00000000E+00  0.00000000E+00
