La1 H1 C124 N2                          
   1.00000000000000     
    19.8117816112955722   -0.0238387110053386   -0.1117129264572705
    -9.9266546259185464   17.0748065436995624   -0.0741492661169176
    -0.1680400943608456   -0.2270317735185879   29.7691038098808001
   La   H    C    N 
     1     1   124     2
Direct
  0.4415672570251230  0.5023427078537070  0.4534194165761884
  0.4548225292496437  0.5180123957735679  0.5514374823571594
  0.0422177679507696  0.0842128492492131  0.3994168633196217
  0.0417453964618555  0.2087080809446496  0.3988470628802183
  0.0411219352507665  0.3332806784467471  0.3979034092127662
  0.0409013217221908  0.4585020720863784  0.3971945683028391
  0.0412832491302082  0.5838428013668057  0.3973987586352572
  0.0417735197005515  0.7091862080433715  0.3981983126110983
  0.0420734947615633  0.8343768746955971  0.3988288457116963
  0.0423199448944673  0.9595140251169342  0.3992209461657473
  0.1680824196892460  0.0855593163025143  0.4005070288432654
  0.1676607263947320  0.2101224171797003  0.4004462373754709
  0.1665439056721606  0.3344333673946545  0.3995981150268986
  0.1649088758879668  0.4589340201378402  0.3980997465824466
  0.1653417737186190  0.5840265675020488  0.3975126850820035
  0.1661524059026762  0.7092422233148888  0.3980606837011173
  0.1667411963657144  0.8344814936544142  0.3989204560795256
  0.1673190273946939  0.9598535861303722  0.3997330318273039
  0.2926082309538935  0.0850971320390432  0.4005299830006656
  0.2943996227229763  0.2121266522880330  0.4027218160965462
  0.2932552102491062  0.3375907118207035  0.4049327259983065
  0.2895185798137120  0.4596643568434072  0.4039386850914921
  0.2891590705777278  0.5847605903438671  0.4000348190422127
  0.2905799279849877  0.7094479750339298  0.3987176504547725
  0.2914003390091725  0.8343287727615816  0.3986765067481130
  0.2919310626258328  0.9594659424356703  0.3993717230355732
  0.4171779942201890  0.0836856737791217  0.3995651335430268
  0.4178296467369403  0.2089262436325644  0.4005961019503239
  0.4213502263064418  0.3363054127098342  0.4046827194590324
  0.4148968213426355  0.7082102105276882  0.4012372657910729
  0.4160584805910593  0.8333497891896876  0.3993433100700417
  0.4166315876422988  0.9585086752865336  0.3991202319156620
  0.5418281264595233  0.0826136864544311  0.3992478095483913
  0.5424023313799148  0.2076351810461156  0.3991426695713051
  0.5435534652094985  0.3323828523146704  0.3995536331715843
  0.5444216387501459  0.4555574020200366  0.4020255125440410
  0.5443005439726060  0.5808291398119002  0.4056988200024530
  0.5388607049328816  0.7045838330939668  0.4044789809742527
  0.5406327149574625  0.8317231145012748  0.4009485181989799
  0.5413429904708885  0.9573673828748409  0.3996304232815563
  0.6665641312691255  0.0822885902259220  0.3994653771336997
  0.6670643136235382  0.2074243543415308  0.3988454098957971
  0.6678247523070983  0.3326034224705764  0.3981134195395581
  0.6690265010130334  0.4579011311904725  0.3974595181758855
  0.6685730164548166  0.5823379517191171  0.3981959622004165
  0.6660735349132880  0.7066391391090886  0.3995363688274227
  0.6651264523406543  0.8310762353952542  0.4005403339045397
  0.6660336960357905  0.9569681627656078  0.4000677479723564
  0.7913530736664532  0.0823694900961793  0.3991197469705784
  0.7916731079755573  0.2074974975200861  0.3987109504329103
  0.7921854051800952  0.3327484288506272  0.3980049021905189
  0.7927920655487420  0.4580736701107094  0.3973488743389438
  0.7930427474478159  0.5833283486741555  0.3971728504735914
  0.7920932167928316  0.7081348645728864  0.3979441675913864
  0.7912127285433433  0.8325435570888374  0.3989845162773332
  0.7908960736731281  0.9570859669134150  0.3993327706795112
  0.9164699404793025  0.0829550410930982  0.3988312485462742
  0.9164126844448847  0.2077956547692503  0.3983979130286993
  0.9165055590808313  0.3329505438303947  0.3978049077028339
  0.9168231519323760  0.4582787612944039  0.3973759260310855
  0.9172436623332179  0.5836609456851424  0.3975324767077972
  0.9171766941328044  0.7088720269064299  0.3980250876121850
  0.9169756596690404  0.8337517800671813  0.3985623958309988
  0.9166775404266720  0.9583971976626207  0.3989286912238150
  0.0843636286758211  0.0432008485675411  0.3996896483200661
  0.0840371298953424  0.1677223219514008  0.3995171747151872
  0.0831143837829198  0.2920738044633038  0.3985939219340637
  0.0821373813074059  0.4168166404955754  0.3974537520182622
  0.0823773544762678  0.5420422702746953  0.3971890819025197
  0.0829693251700018  0.6673773159953953  0.3978362343961721
  0.0835242757830442  0.7927034527837901  0.3987210433854785
  0.0838991737186630  0.9178892650967565  0.3992698574495294
  0.2092539677380597  0.0433629733237597  0.4004006793582135
  0.2102011903880157  0.1693013035446631  0.4013467289366576
  0.2092155798670264  0.2936972550640086  0.4009359804157981
  0.2067040990090503  0.4179247508759025  0.3998649212599867
  0.2061921270895730  0.5422785602830793  0.3981470733459705
  0.2073484283807737  0.6675747072924055  0.3979886562423073
  0.2081171267630716  0.7927707506765020  0.3985544598484598
  0.2086685319526738  0.9179692367318742  0.3994012640400493
  0.3338774627129716  0.0429269810120962  0.3997961305658038
  0.3347208690671453  0.1686891928010240  0.4013911616333944
  0.3366950005413801  0.2960301771389315  0.4052109399189932
  0.3312324414713624  0.4197499839945629  0.4087072096137283
  0.3310294064938910  0.5449295316068558  0.4040819620752576
  0.3317240811678666  0.6679104296534680  0.3999459958232582
  0.3327927582336453  0.7926098685073303  0.3988220182215291
  0.3333779411132796  0.9176281030315090  0.3989934311793905
  0.4585802714024419  0.0417457834123708  0.3992703383607513
  0.4591761568353126  0.1669196338661008  0.3996898997066268
  0.4604506332675702  0.2921780385510180  0.4010795404603522
  0.4542158713799144  0.6643415831980247  0.4050600116910433
  0.4574780617728809  0.7914150739357712  0.4002972672841105
  0.4580351303340065  0.9165769530664135  0.3993108941046437
  0.5832955888727448  0.0407982248024200  0.3994547685870151
  0.5837918599559890  0.1659064683388126  0.3990418712178382
  0.5846356367829199  0.2907892943785237  0.3987977784418983
  0.5861584083375738  0.4155104659749854  0.3989865586294625
  0.5858575659350653  0.5407596616299769  0.4013036931716004
  0.5821956769278029  0.6629333321332712  0.4031371142486244
  0.5810256452159790  0.7883549373060891  0.4020080600627592
  0.5826824373353965  0.9152693491855438  0.4001999925204454
  0.7079488936454874  0.0404359631456868  0.3995902766699040
  0.7084656314609340  0.1657365699585572  0.3990631132227958
  0.7090233575142449  0.2909328927700338  0.3983234090892367
  0.7098388793329843  0.4161197262504455  0.3974549075827649
  0.7102923560813916  0.5412421827439974  0.3972138803936059
  0.7086770954346027  0.6658164563455969  0.3982538665118118
  0.7076138019115685  0.7901926893539684  0.3995498335406286
  0.7072073735216037  0.9147713050418602  0.3999683729639525
  0.8329386197081671  0.0407527739444613  0.3990419795565452
  0.8331420774061697  0.1658480568431773  0.3987289108749525
  0.8334108556527074  0.2909773598961105  0.3981914198522604
  0.8338756010380540  0.4162559466976496  0.3975636315163323
  0.8342748160418791  0.5416295819488327  0.3972787317007015
  0.8340512588330505  0.6668838463558242  0.3976328272101471
  0.8334748843712414  0.7915172692510024  0.3984586274452313
  0.8330401656685567  0.9160601958361966  0.3991056746366721
  0.9585634859906860  0.0418657120121749  0.3990001256961188
  0.9582485194645430  0.1664801575750859  0.3986117241483407
  0.9580112373258727  0.2913124037329345  0.3979886961535109
  0.9579480559518463  0.4164814667954628  0.3973854970279710
  0.9583440037631749  0.5418322106510427  0.3973812852468780
  0.9586649043626529  0.6672110729111876  0.3979234363988535
  0.9587855235254026  0.7924103494293302  0.3984655368394409
  0.9587763114144667  0.9173107233845084  0.3988629631231959
  0.4104440456987550  0.5847445873717775  0.4091032924925857
  0.4653918623577463  0.4162447964520358  0.4073646119501996
 
  0.00000000E+00  0.00000000E+00  0.00000000E+00
  0.00000000E+00  0.00000000E+00  0.00000000E+00
  0.00000000E+00  0.00000000E+00  0.00000000E+00
  0.00000000E+00  0.00000000E+00  0.00000000E+00
  0.00000000E+00  0.00000000E+00  0.00000000E+00
  0.00000000E+00  0.00000000E+00  0.00000000E+00
  0.00000000E+00  0.00000000E+00  0.00000000E+00
  0.00000000E+00  0.00000000E+00  0.00000000E+00
  0.00000000E+00  0.00000000E+00  0.00000000E+00
  0.00000000E+00  0.00000000E+00  0.00000000E+00
  0.00000000E+00  0.00000000E+00  0.00000000E+00
  0.00000000E+00  0.00000000E+00  0.00000000E+00
  0.00000000E+00  0.00000000E+00  0.00000000E+00
  0.00000000E+00  0.00000000E+00  0.00000000E+00
  0.00000000E+00  0.00000000E+00  0.00000000E+00
  0.00000000E+00  0.00000000E+00  0.00000000E+00
  0.00000000E+00  0.00000000E+00  0.00000000E+00
  0.00000000E+00  0.00000000E+00  0.00000000E+00
  0.00000000E+00  0.00000000E+00  0.00000000E+00
  0.00000000E+00  0.00000000E+00  0.00000000E+00
  0.00000000E+00  0.00000000E+00  0.00000000E+00
  0.00000000E+00  0.00000000E+00  0.00000000E+00
  0.00000000E+00  0.00000000E+00  0.00000000E+00
  0.00000000E+00  0.00000000E+00  0.00000000E+00
  0.00000000E+00  0.00000000E+00  0.00000000E+00
  0.00000000E+00  0.00000000E+00  0.00000000E+00
  0.00000000E+00  0.00000000E+00  0.00000000E+00
  0.00000000E+00  0.00000000E+00  0.00000000E+00
  0.00000000E+00  0.00000000E+00  0.00000000E+00
  0.00000000E+00  0.00000000E+00  0.00000000E+00
  0.00000000E+00  0.00000000E+00  0.00000000E+00
  0.00000000E+00  0.00000000E+00  0.00000000E+00
  0.00000000E+00  0.00000000E+00  0.00000000E+00
  0.00000000E+00  0.00000000E+00  0.00000000E+00
  0.00000000E+00  0.00000000E+00  0.00000000E+00
  0.00000000E+00  0.00000000E+00  0.00000000E+00
  0.00000000E+00  0.00000000E+00  0.00000000E+00
  0.00000000E+00  0.00000000E+00  0.00000000E+00
  0.00000000E+00  0.00000000E+00  0.00000000E+00
  0.00000000E+00  0.00000000E+00  0.00000000E+00
  0.00000000E+00  0.00000000E+00  0.00000000E+00
  0.00000000E+00  0.00000000E+00  0.00000000E+00
  0.00000000E+00  0.00000000E+00  0.00000000E+00
  0.00000000E+00  0.00000000E+00  0.00000000E+00
  0.00000000E+00  0.00000000E+00  0.00000000E+00
  0.00000000E+00  0.00000000E+00  0.00000000E+00
  0.00000000E+00  0.00000000E+00  0.00000000E+00
  0.00000000E+00  0.00000000E+00  0.00000000E+00
  0.00000000E+00  0.00000000E+00  0.00000000E+00
  0.00000000E+00  0.00000000E+00  0.00000000E+00
  0.00000000E+00  0.00000000E+00  0.00000000E+00
  0.00000000E+00  0.00000000E+00  0.00000000E+00
  0.00000000E+00  0.00000000E+00  0.00000000E+00
  0.00000000E+00  0.00000000E+00  0.00000000E+00
  0.00000000E+00  0.00000000E+00  0.00000000E+00
  0.00000000E+00  0.00000000E+00  0.00000000E+00
  0.00000000E+00  0.00000000E+00  0.00000000E+00
  0.00000000E+00  0.00000000E+00  0.00000000E+00
  0.00000000E+00  0.00000000E+00  0.00000000E+00
  0.00000000E+00  0.00000000E+00  0.00000000E+00
  0.00000000E+00  0.00000000E+00  0.00000000E+00
  0.00000000E+00  0.00000000E+00  0.00000000E+00
  0.00000000E+00  0.00000000E+00  0.00000000E+00
  0.00000000E+00  0.00000000E+00  0.00000000E+00
  0.00000000E+00  0.00000000E+00  0.00000000E+00
  0.00000000E+00  0.00000000E+00  0.00000000E+00
  0.00000000E+00  0.00000000E+00  0.00000000E+00
  0.00000000E+00  0.00000000E+00  0.00000000E+00
  0.00000000E+00  0.00000000E+00  0.00000000E+00
  0.00000000E+00  0.00000000E+00  0.00000000E+00
  0.00000000E+00  0.00000000E+00  0.00000000E+00
  0.00000000E+00  0.00000000E+00  0.00000000E+00
  0.00000000E+00  0.00000000E+00  0.00000000E+00
  0.00000000E+00  0.00000000E+00  0.00000000E+00
  0.00000000E+00  0.00000000E+00  0.00000000E+00
  0.00000000E+00  0.00000000E+00  0.00000000E+00
  0.00000000E+00  0.00000000E+00  0.00000000E+00
  0.00000000E+00  0.00000000E+00  0.00000000E+00
  0.00000000E+00  0.00000000E+00  0.00000000E+00
  0.00000000E+00  0.00000000E+00  0.00000000E+00
  0.00000000E+00  0.00000000E+00  0.00000000E+00
  0.00000000E+00  0.00000000E+00  0.00000000E+00
  0.00000000E+00  0.00000000E+00  0.00000000E+00
  0.00000000E+00  0.00000000E+00  0.00000000E+00
  0.00000000E+00  0.00000000E+00  0.00000000E+00
  0.00000000E+00  0.00000000E+00  0.00000000E+00
  0.00000000E+00  0.00000000E+00  0.00000000E+00
  0.00000000E+00  0.00000000E+00  0.00000000E+00
  0.00000000E+00  0.00000000E+00  0.00000000E+00
  0.00000000E+00  0.00000000E+00  0.00000000E+00
  0.00000000E+00  0.00000000E+00  0.00000000E+00
  0.00000000E+00  0.00000000E+00  0.00000000E+00
  0.00000000E+00  0.00000000E+00  0.00000000E+00
  0.00000000E+00  0.00000000E+00  0.00000000E+00
  0.00000000E+00  0.00000000E+00  0.00000000E+00
  0.00000000E+00  0.00000000E+00  0.00000000E+00
  0.00000000E+00  0.00000000E+00  0.00000000E+00
  0.00000000E+00  0.00000000E+00  0.00000000E+00
  0.00000000E+00  0.00000000E+00  0.00000000E+00
  0.00000000E+00  0.00000000E+00  0.00000000E+00
  0.00000000E+00  0.00000000E+00  0.00000000E+00
  0.00000000E+00  0.00000000E+00  0.00000000E+00
  0.00000000E+00  0.00000000E+00  0.00000000E+00
  0.00000000E+00  0.00000000E+00  0.00000000E+00
  0.00000000E+00  0.00000000E+00  0.00000000E+00
  0.00000000E+00  0.00000000E+00  0.00000000E+00
  0.00000000E+00  0.00000000E+00  0.00000000E+00
  0.00000000E+00  0.00000000E+00  0.00000000E+00
  0.00000000E+00  0.00000000E+00  0.00000000E+00
  0.00000000E+00  0.00000000E+00  0.00000000E+00
  0.00000000E+00  0.00000000E+00  0.00000000E+00
  0.00000000E+00  0.00000000E+00  0.00000000E+00
  0.00000000E+00  0.00000000E+00  0.00000000E+00
  0.00000000E+00  0.00000000E+00  0.00000000E+00
  0.00000000E+00  0.00000000E+00  0.00000000E+00
  0.00000000E+00  0.00000000E+00  0.00000000E+00
  0.00000000E+00  0.00000000E+00  0.00000000E+00
  0.00000000E+00  0.00000000E+00  0.00000000E+00
  0.00000000E+00  0.00000000E+00  0.00000000E+00
  0.00000000E+00  0.00000000E+00  0.00000000E+00
  0.00000000E+00  0.00000000E+00  0.00000000E+00
  0.00000000E+00  0.00000000E+00  0.00000000E+00
  0.00000000E+00  0.00000000E+00  0.00000000E+00
  0.00000000E+00  0.00000000E+00  0.00000000E+00
  0.00000000E+00  0.00000000E+00  0.00000000E+00
  0.00000000E+00  0.00000000E+00  0.00000000E+00
  0.00000000E+00  0.00000000E+00  0.00000000E+00
  0.00000000E+00  0.00000000E+00  0.00000000E+00
