Ag1 H1 C124 N2                          
   1.00000000000000     
    19.8306845862596539   -0.0138798345065976   -0.0710199988944628
    -9.9274746231772486   17.0569522665003710   -0.0673119381414534
    -0.1070754629077757   -0.1797010625937382   29.7619449957127209
   Ag   H    C    N 
     1     1   124     2
Direct
  0.4387704023041065  0.5009295739442857  0.4246878607407746
  0.4535951377091187  0.5163390739317781  0.4805698381573747
  0.0420986390447081  0.0842072329504835  0.3994337718187124
  0.0411346768780665  0.2083102212437806  0.3991270307629992
  0.0403663199893121  0.3329116336464071  0.3981701701545104
  0.0403593843956314  0.4583601092900196  0.3980817707622478
  0.0412581044960634  0.5839262103497449  0.3990566104953278
  0.0420954413214636  0.7093872109367050  0.3996967559316629
  0.0424610984059207  0.8346845770805998  0.3997571617459694
  0.0426047477337830  0.9598018387068340  0.3995561736409705
  0.1682092957209735  0.0859216344768518  0.4004255508085017
  0.1674354367897792  0.2102202355808261  0.4011148282766131
  0.1654110709916382  0.3339636417562916  0.4008416912369014
  0.1638238044896547  0.4585740291127366  0.3978619414230295
  0.1648570895198335  0.5839726169500504  0.3979433663968647
  0.1662198532963050  0.7093836640896058  0.3991705280625042
  0.1670251249765191  0.8347630974599719  0.3999300428505850
  0.1676040019659135  0.9602437380392029  0.3999840197883909
  0.2928078353001277  0.0856452034042726  0.4002398377190055
  0.2945243261467680  0.2129223815692604  0.4029156191865417
  0.2923502351198878  0.3375014379615151  0.4089224022424597
  0.2870778106740552  0.4594776779844581  0.4059106551473963
  0.2881302954423999  0.5845074174761721  0.3998508547014375
  0.2903417892158394  0.7092785324731375  0.3987834966751542
  0.2914891007858489  0.8343687113135126  0.3994800995255645
  0.2921217239198050  0.9597655529725547  0.3998549723933512
  0.4172235242027999  0.0839436035866579  0.3997059414185067
  0.4179946647778057  0.2096133497261724  0.4007141925414642
  0.4216421796646531  0.3375072752910637  0.4040693125284009
  0.4145012555809003  0.7072647932313471  0.4012778094865300
  0.4159566629782059  0.8329352049691724  0.3998331409025112
  0.4166265255921870  0.9584228620719051  0.3997001781166887
  0.5417056728201239  0.0824499613327854  0.3997215340706483
  0.5424076018411269  0.2077139037969439  0.3992225868472862
  0.5438500317510057  0.3327257733347957  0.3995534027680837
  0.5462204134656714  0.4564821662129772  0.4025879057202593
  0.5492273792682638  0.5818542467570924  0.4140342793021132
  0.5385498012292633  0.7033122264309677  0.4056368180870255
  0.5402888487633011  0.8308471112594416  0.4011399381661815
  0.5411664700308181  0.9569019773883519  0.3999686698340830
  0.6662376980121657  0.0818590983481189  0.4000226584298294
  0.6668879691140350  0.2072791642484992  0.3995523840652425
  0.6679096087318428  0.3325891059735216  0.3985088712149015
  0.6698070517739334  0.4580784101101307  0.3982387949337619
  0.6703633254624279  0.5830156273028951  0.4000406362741978
  0.6667622107993779  0.7065926088552292  0.4025449788897438
  0.6649548007498637  0.8304582293746837  0.4015208349787457
  0.6656985535834818  0.9563215104842389  0.4002589282734884
  0.7909387601905107  0.0818880768973168  0.3998705453273118
  0.7913005487999738  0.2071753031452734  0.3999122906895892
  0.7920515300210863  0.3326312143209704  0.3994155250494000
  0.7931374715464234  0.4581693361875993  0.3983333330108993
  0.7939020961689160  0.5836323138309358  0.3976933946949615
  0.7929411129424947  0.7084851276340141  0.3989207109733216
  0.7914740478411597  0.8325164603430090  0.3994708835034810
  0.7906627244718688  0.9567202681054128  0.3997200030390405
  0.9161310710894716  0.0826402505002397  0.3992876806486820
  0.9159180879314067  0.2074466242641786  0.3992202690204020
  0.9161122448193166  0.3326989331205344  0.3991338523988933
  0.9167426835417034  0.4582396949948452  0.3992450329993913
  0.9176067295308882  0.5838441151610524  0.3990016213388460
  0.9177680005783405  0.7091936973773693  0.3988109168010252
  0.9174118004689769  0.8340129368690318  0.3990465003545171
  0.9167258084719472  0.9583398629757564  0.3992312344572883
  0.0845124766741989  0.0434797221941731  0.3997315477498150
  0.0837188744870560  0.1676774190235126  0.3995878801429787
  0.0822931828894514  0.2917022399542273  0.3990187943456754
  0.0812928345704574  0.4164725369645940  0.3975836186532439
  0.0820325652891329  0.5419648615645996  0.3982106252010874
  0.0831658295858389  0.6675404386614490  0.3994111408471553
  0.0839014300725069  0.7930334962435988  0.3999088223127181
  0.0842610110083423  0.9183138311087375  0.3998211114863426
  0.2094933915426295  0.0438991235824580  0.4002138899891640
  0.2102861767117810  0.1698283932728023  0.4016880062042097
  0.2085959998140400  0.2937646284621146  0.4031218362465649
  0.2050445109511439  0.4172380897555003  0.4003572164100701
  0.2053741870098385  0.5420456878383024  0.3982142031508820
  0.2072467820559581  0.6675574714267876  0.3984988068536409
  0.2082871830702756  0.7929225633549487  0.3995722339115118
  0.2089686257721889  0.9183635779613445  0.3999715572491100
  0.3340088357881793  0.0433238469560317  0.3998646895056369
  0.3349170324194799  0.1694559823801103  0.4011244949338357
  0.3368231676991532  0.2972099274857595  0.4061232065686604
  0.3269088939800274  0.4191632329134511  0.4157621957327248
  0.3291053347099768  0.5437912855728002  0.4030163783518729
  0.3313059928374058  0.6674504699022570  0.3995731025291541
  0.3327467976233104  0.7924878447744792  0.3993002438345560
  0.3334929721810252  0.9177688870575387  0.3997119541044983
  0.4585719168000713  0.0418038936335980  0.3996795313775520
  0.4592104289331514  0.1672910959751290  0.3997490466536974
  0.4607238312898648  0.2930425956650589  0.4013097357156059
  0.4536552665308216  0.6629065228173392  0.4038714502193205
  0.4572092194731593  0.7906627959167318  0.4007327619641651
  0.4579524798619770  0.9162721967868643  0.3997967876682592
  0.5830706674730959  0.0404520137225886  0.3999236920969171
  0.5836709834115396  0.1658340369470469  0.3994352686316666
  0.5848006826676009  0.2908907835351470  0.3987465755349275
  0.5870602608347015  0.4156501923204899  0.3997335633618171
  0.5884760950057784  0.5408938700868037  0.4050566182574869
  0.5832042765874141  0.6631901156926342  0.4080069373333955
  0.5807452934210120  0.7874425088573933  0.4027428946018810
  0.5823815358530745  0.9145973651986921  0.4003260612217375
  0.7075856237549029  0.0399574081154413  0.4000477490682679
  0.7081632077942362  0.1654415192246422  0.3999454238954357
  0.7089577747201401  0.2907876927169551  0.3991688282778226
  0.7102808285532722  0.4161508172705504  0.3980480466881462
  0.7113985505377631  0.5415336217990387  0.3978741660219785
  0.7098607805489190  0.6662910391223347  0.4004876106601106
  0.7078045396850824  0.7900459908549871  0.4008366014475270
  0.7069883142339267  0.9143033033012241  0.4003976270184617
  0.8325898734046107  0.0403900503767279  0.3995815066722337
  0.8327305662807944  0.1655084209096262  0.3997697478268438
  0.8331340312803024  0.2907933282814716  0.3996593650392750
  0.8339227769197954  0.4162282456747426  0.3991018324322828
  0.8348118214189524  0.5417618138052916  0.3982190339019479
  0.8347947196839244  0.6672178717114920  0.3982235944419366
  0.8340502981816934  0.7918644585069280  0.3990400050854734
  0.8330823581864948  0.9159858952772834  0.3993796218601858
  0.9584620582879325  0.0418418513572455  0.3992594831500900
  0.9577695571732253  0.1661576170168625  0.3990874089256018
  0.9574324539447413  0.2909657563109349  0.3987415809873058
  0.9576076771062525  0.4163188943828446  0.3989228363994807
  0.9584698593763605  0.5419255948543098  0.3992526070643992
  0.9591057141553562  0.6674740483542898  0.3992058000089240
  0.9592641376858149  0.7927359497912893  0.3992310011261488
  0.9590587319726502  0.9175496082197296  0.3992386411662268
  0.4085683513273033  0.5827520594055794  0.4037306126526743
  0.4667356516576050  0.4176729172754983  0.4037321454261312
 
  0.00000000E+00  0.00000000E+00  0.00000000E+00
  0.00000000E+00  0.00000000E+00  0.00000000E+00
  0.00000000E+00  0.00000000E+00  0.00000000E+00
  0.00000000E+00  0.00000000E+00  0.00000000E+00
  0.00000000E+00  0.00000000E+00  0.00000000E+00
  0.00000000E+00  0.00000000E+00  0.00000000E+00
  0.00000000E+00  0.00000000E+00  0.00000000E+00
  0.00000000E+00  0.00000000E+00  0.00000000E+00
  0.00000000E+00  0.00000000E+00  0.00000000E+00
  0.00000000E+00  0.00000000E+00  0.00000000E+00
  0.00000000E+00  0.00000000E+00  0.00000000E+00
  0.00000000E+00  0.00000000E+00  0.00000000E+00
  0.00000000E+00  0.00000000E+00  0.00000000E+00
  0.00000000E+00  0.00000000E+00  0.00000000E+00
  0.00000000E+00  0.00000000E+00  0.00000000E+00
  0.00000000E+00  0.00000000E+00  0.00000000E+00
  0.00000000E+00  0.00000000E+00  0.00000000E+00
  0.00000000E+00  0.00000000E+00  0.00000000E+00
  0.00000000E+00  0.00000000E+00  0.00000000E+00
  0.00000000E+00  0.00000000E+00  0.00000000E+00
  0.00000000E+00  0.00000000E+00  0.00000000E+00
  0.00000000E+00  0.00000000E+00  0.00000000E+00
  0.00000000E+00  0.00000000E+00  0.00000000E+00
  0.00000000E+00  0.00000000E+00  0.00000000E+00
  0.00000000E+00  0.00000000E+00  0.00000000E+00
  0.00000000E+00  0.00000000E+00  0.00000000E+00
  0.00000000E+00  0.00000000E+00  0.00000000E+00
  0.00000000E+00  0.00000000E+00  0.00000000E+00
  0.00000000E+00  0.00000000E+00  0.00000000E+00
  0.00000000E+00  0.00000000E+00  0.00000000E+00
  0.00000000E+00  0.00000000E+00  0.00000000E+00
  0.00000000E+00  0.00000000E+00  0.00000000E+00
  0.00000000E+00  0.00000000E+00  0.00000000E+00
  0.00000000E+00  0.00000000E+00  0.00000000E+00
  0.00000000E+00  0.00000000E+00  0.00000000E+00
  0.00000000E+00  0.00000000E+00  0.00000000E+00
  0.00000000E+00  0.00000000E+00  0.00000000E+00
  0.00000000E+00  0.00000000E+00  0.00000000E+00
  0.00000000E+00  0.00000000E+00  0.00000000E+00
  0.00000000E+00  0.00000000E+00  0.00000000E+00
  0.00000000E+00  0.00000000E+00  0.00000000E+00
  0.00000000E+00  0.00000000E+00  0.00000000E+00
  0.00000000E+00  0.00000000E+00  0.00000000E+00
  0.00000000E+00  0.00000000E+00  0.00000000E+00
  0.00000000E+00  0.00000000E+00  0.00000000E+00
  0.00000000E+00  0.00000000E+00  0.00000000E+00
  0.00000000E+00  0.00000000E+00  0.00000000E+00
  0.00000000E+00  0.00000000E+00  0.00000000E+00
  0.00000000E+00  0.00000000E+00  0.00000000E+00
  0.00000000E+00  0.00000000E+00  0.00000000E+00
  0.00000000E+00  0.00000000E+00  0.00000000E+00
  0.00000000E+00  0.00000000E+00  0.00000000E+00
  0.00000000E+00  0.00000000E+00  0.00000000E+00
  0.00000000E+00  0.00000000E+00  0.00000000E+00
  0.00000000E+00  0.00000000E+00  0.00000000E+00
  0.00000000E+00  0.00000000E+00  0.00000000E+00
  0.00000000E+00  0.00000000E+00  0.00000000E+00
  0.00000000E+00  0.00000000E+00  0.00000000E+00
  0.00000000E+00  0.00000000E+00  0.00000000E+00
  0.00000000E+00  0.00000000E+00  0.00000000E+00
  0.00000000E+00  0.00000000E+00  0.00000000E+00
  0.00000000E+00  0.00000000E+00  0.00000000E+00
  0.00000000E+00  0.00000000E+00  0.00000000E+00
  0.00000000E+00  0.00000000E+00  0.00000000E+00
  0.00000000E+00  0.00000000E+00  0.00000000E+00
  0.00000000E+00  0.00000000E+00  0.00000000E+00
  0.00000000E+00  0.00000000E+00  0.00000000E+00
  0.00000000E+00  0.00000000E+00  0.00000000E+00
  0.00000000E+00  0.00000000E+00  0.00000000E+00
  0.00000000E+00  0.00000000E+00  0.00000000E+00
  0.00000000E+00  0.00000000E+00  0.00000000E+00
  0.00000000E+00  0.00000000E+00  0.00000000E+00
  0.00000000E+00  0.00000000E+00  0.00000000E+00
  0.00000000E+00  0.00000000E+00  0.00000000E+00
  0.00000000E+00  0.00000000E+00  0.00000000E+00
  0.00000000E+00  0.00000000E+00  0.00000000E+00
  0.00000000E+00  0.00000000E+00  0.00000000E+00
  0.00000000E+00  0.00000000E+00  0.00000000E+00
  0.00000000E+00  0.00000000E+00  0.00000000E+00
  0.00000000E+00  0.00000000E+00  0.00000000E+00
  0.00000000E+00  0.00000000E+00  0.00000000E+00
  0.00000000E+00  0.00000000E+00  0.00000000E+00
  0.00000000E+00  0.00000000E+00  0.00000000E+00
  0.00000000E+00  0.00000000E+00  0.00000000E+00
  0.00000000E+00  0.00000000E+00  0.00000000E+00
  0.00000000E+00  0.00000000E+00  0.00000000E+00
  0.00000000E+00  0.00000000E+00  0.00000000E+00
  0.00000000E+00  0.00000000E+00  0.00000000E+00
  0.00000000E+00  0.00000000E+00  0.00000000E+00
  0.00000000E+00  0.00000000E+00  0.00000000E+00
  0.00000000E+00  0.00000000E+00  0.00000000E+00
  0.00000000E+00  0.00000000E+00  0.00000000E+00
  0.00000000E+00  0.00000000E+00  0.00000000E+00
  0.00000000E+00  0.00000000E+00  0.00000000E+00
  0.00000000E+00  0.00000000E+00  0.00000000E+00
  0.00000000E+00  0.00000000E+00  0.00000000E+00
  0.00000000E+00  0.00000000E+00  0.00000000E+00
  0.00000000E+00  0.00000000E+00  0.00000000E+00
  0.00000000E+00  0.00000000E+00  0.00000000E+00
  0.00000000E+00  0.00000000E+00  0.00000000E+00
  0.00000000E+00  0.00000000E+00  0.00000000E+00
  0.00000000E+00  0.00000000E+00  0.00000000E+00
  0.00000000E+00  0.00000000E+00  0.00000000E+00
  0.00000000E+00  0.00000000E+00  0.00000000E+00
  0.00000000E+00  0.00000000E+00  0.00000000E+00
  0.00000000E+00  0.00000000E+00  0.00000000E+00
  0.00000000E+00  0.00000000E+00  0.00000000E+00
  0.00000000E+00  0.00000000E+00  0.00000000E+00
  0.00000000E+00  0.00000000E+00  0.00000000E+00
  0.00000000E+00  0.00000000E+00  0.00000000E+00
  0.00000000E+00  0.00000000E+00  0.00000000E+00
  0.00000000E+00  0.00000000E+00  0.00000000E+00
  0.00000000E+00  0.00000000E+00  0.00000000E+00
  0.00000000E+00  0.00000000E+00  0.00000000E+00
  0.00000000E+00  0.00000000E+00  0.00000000E+00
  0.00000000E+00  0.00000000E+00  0.00000000E+00
  0.00000000E+00  0.00000000E+00  0.00000000E+00
  0.00000000E+00  0.00000000E+00  0.00000000E+00
  0.00000000E+00  0.00000000E+00  0.00000000E+00
  0.00000000E+00  0.00000000E+00  0.00000000E+00
  0.00000000E+00  0.00000000E+00  0.00000000E+00
  0.00000000E+00  0.00000000E+00  0.00000000E+00
  0.00000000E+00  0.00000000E+00  0.00000000E+00
  0.00000000E+00  0.00000000E+00  0.00000000E+00
  0.00000000E+00  0.00000000E+00  0.00000000E+00
  0.00000000E+00  0.00000000E+00  0.00000000E+00
  0.00000000E+00  0.00000000E+00  0.00000000E+00
  0.00000000E+00  0.00000000E+00  0.00000000E+00
