Ru1 C123 N3                             
   1.00000000000000     
    19.8291106525443297    0.0205171611320500    0.0049598812820083
    -9.8967539680180163   17.0182245603478641   -0.0184598263950589
     0.0076441187061645   -0.0280300221793442   29.8005139909632533
   Ru   C    N 
     1   123     3
Direct
  0.4365661697694518  0.4987984443816796  0.4221529326834819
  0.0416667578304217  0.0840190047766034  0.3996082925440654
  0.0401129782516067  0.2077279941807990  0.3994180469196236
  0.0393354434881973  0.3324265744391819  0.3991941996971801
  0.0400073759096005  0.4579593079180306  0.3993387160559528
  0.0414911197313227  0.5837484430439395  0.3998690303865929
  0.0426978649536391  0.7094302348763655  0.4001113461221042
  0.0429957990378668  0.8348604616564284  0.4000824007591718
  0.0427433593065197  0.9598617525131986  0.3998753809082717
  0.1678827011371620  0.0859125761787843  0.3999056778912644
  0.1667002958719488  0.2100583787505536  0.3998083447827948
  0.1637086488635872  0.3329700396863560  0.4001536164458698
  0.1632075656286492  0.4578647455655967  0.3989635415390939
  0.1649146182533278  0.5833467484929865  0.3993217519678413
  0.1666708013942667  0.7089928399693242  0.3997841586250074
  0.1675181985393645  0.8346896548398715  0.4000490701497613
  0.1678682831031589  0.9604048537963676  0.4000077059123099
  0.2927869192688990  0.0861696301940293  0.3999172064420720
  0.2933560714013249  0.2131926306289591  0.4009519654223135
  0.2907702595231688  0.3380039786703470  0.4044731642426318
  0.2856801380067284  0.4567839379700190  0.4029534976565828
  0.2879537140641631  0.5824152770108637  0.3994704664738470
  0.2907108950103223  0.7080807960423219  0.3993037277840965
  0.2918517166115382  0.8338642561951077  0.3997489077785260
  0.2923561018748341  0.9598731868945162  0.3999096721714849
  0.4171407965402804  0.0845208704217539  0.3998121246321778
  0.4177268724814926  0.2110787362957989  0.3999848195232686
  0.4193796978225126  0.3389499784307763  0.4020152617169816
  0.4146624214373205  0.7051649833026857  0.3995709023276540
  0.4160571279550200  0.8318442153805721  0.3998298730432129
  0.4166424112829125  0.9581877371138009  0.3998669183977777
  0.5413383858637956  0.0825693466620680  0.3998681662763527
  0.5420002702677600  0.2086319804633843  0.3995254822309723
  0.5434259509961255  0.3346511421162238  0.3993047729766713
  0.5484565327334043  0.4608241522036406  0.4020912793942655
  0.5383754778892078  0.7006913922582125  0.4025897455192392
  0.5401790861246779  0.8294262165961098  0.4002697399652059
  0.5408743206830644  0.9562444957663446  0.3999433060820280
  0.6656354303961197  0.0815520080737486  0.4000127545852781
  0.6662686438282264  0.2073746160239657  0.3998419666174864
  0.6674919127549701  0.3331734575709632  0.3992561472007534
  0.6703513765753369  0.4590664631650576  0.3988540345721498
  0.6721779906537799  0.5847702644173781  0.3999806864932753
  0.6672740825384479  0.7062182407727846  0.4008048564917502
  0.6646334332037981  0.8296658549481606  0.4004735817019980
  0.6652240623777775  0.9557074755244706  0.4000968909996246
  0.7902345925915453  0.0814444138584283  0.4000590363551249
  0.7905244272893126  0.2069229378160229  0.4001676264513444
  0.7914606662129027  0.3326113849085907  0.3999625036741224
  0.7932395172700938  0.4584265726693484  0.3993329324096148
  0.7947578503854604  0.5841714417396815  0.3987659981078447
  0.7942726984403284  0.7092889474552019  0.3993319035165034
  0.7915962772369819  0.8323615651628502  0.3994733655533715
  0.7902189564650723  0.9562691292549705  0.3998748347574955
  0.9154400310021330  0.0821784296774359  0.3997868383253342
  0.9150017747875575  0.2069777027060395  0.3998122749229060
  0.9153610235996800  0.3324114678201649  0.3998717028081588
  0.9166038997932777  0.4581660409096891  0.3999865742102828
  0.9180659478393325  0.5839823553481632  0.3997929199225563
  0.9185777315153880  0.7094443829600248  0.3995612832665750
  0.9180278536344267  0.8343417995130978  0.3996012632555874
  0.9166024213350602  0.9582096816218946  0.3997609747636987
  0.0843690747421433  0.0434678271258399  0.3997601632232637
  0.0831319464700984  0.1674799329864849  0.3994225548891612
  0.0810510789898332  0.2909965640332221  0.3994280664149116
  0.0807142338924854  0.4158995447330620  0.3989592522760678
  0.0821097578191607  0.5415983201361378  0.3994578576810916
  0.0836596557180612  0.6673663933584640  0.3999900068184563
  0.0845010972564910  0.7930581267267611  0.4001459159179570
  0.0846440121412696  0.9184766703748791  0.4000377055654857
  0.2095713498999194  0.0441393945142235  0.3999473191129985
  0.2096034146573162  0.1697444348285476  0.4002363315580539
  0.2075263052843067  0.2936453972914404  0.4007571442204914
  0.2041005017207545  0.4160545431689859  0.3999535741647119
  0.2051517370965978  0.5409935706324296  0.3993276704918910
  0.2075596845976463  0.6668746001623571  0.3994573844150627
  0.2087434328888852  0.7926224273006384  0.3998491135729820
  0.2093212195719272  0.9184306514947413  0.4000140526684940
  0.3340400537971083  0.0436858908431282  0.3998585936488914
  0.3345857395239273  0.1702961418836220  0.4001997807444505
  0.3354034217960210  0.2977028985260147  0.4030193019934524
  0.3285544229558351  0.5409236767767696  0.4005272271636820
  0.3314388229108206  0.6657379809547197  0.3991288357674574
  0.3329801187130848  0.7915428459156304  0.3996033777842307
  0.3336373299991243  0.9174957155708675  0.3998529270222903
  0.4583422997683161  0.0419097775305629  0.3998539424864746
  0.4588796934205790  0.1682489820178175  0.3997060086158116
  0.4598059038821509  0.2950952629709842  0.4001038228693559
  0.4658551887150035  0.4233131223328950  0.4054070368384478
  0.4537411277801389  0.6601656053309480  0.4005057019040039
  0.4571456934941246  0.7890398551765996  0.3999577351912253
  0.4578170939371650  0.9155500308639000  0.3998933996487195
  0.5825863252355349  0.0401192623399325  0.3999420437803475
  0.5831391511528550  0.1662518466053153  0.3997445053778449
  0.5841611439567251  0.2922362897283509  0.3991805590624815
  0.5875990337874815  0.4181206250963503  0.3994916344490497
  0.5911206972182835  0.5440335420432229  0.4040099735439120
  0.5837626703971511  0.6611195769610840  0.4046293175685399
  0.5806447902541439  0.7857541766408334  0.4010448011265659
  0.5820359961592365  0.9136024537924106  0.4000521437203575
  0.7070081623758717  0.0394790413971431  0.4000493633500770
  0.7074833050507664  0.1653197496011632  0.4000508990222134
  0.7083311605122101  0.2910255910879561  0.3997132680946750
  0.7104491882603736  0.4166849336220985  0.3990043589724611
  0.7124043087818809  0.5422660374713765  0.3986481425415147
  0.7117634616513606  0.6675117060106099  0.4000760586666250
  0.7078910350130002  0.7896832706226512  0.3998977858208023
  0.7065787722421375  0.9136903543647312  0.4001235511156772
  0.8320172533387955  0.0399512087259726  0.3999190475247888
  0.8319371478023044  0.1651081423454068  0.4000936873781232
  0.8324128837580458  0.2905553444990611  0.4001219465540474
  0.8338015016525714  0.4162572802553013  0.3998451821355339
  0.8353781443707148  0.5420454397890072  0.3992413819809429
  0.8358697299399419  0.6676440037832643  0.3991164063820345
  0.8348939989330303  0.7923834242932417  0.3994010815653640
  0.8330262149115579  0.9158049298843993  0.3996682578101973
  0.9581091612912491  0.0416269053062384  0.3997588569498530
  0.9569173369466396  0.1656364989385632  0.3996305528155055
  0.9565910487827878  0.2905796126224973  0.3995862125057670
  0.9572420308023908  0.4160294432188774  0.3997936571978670
  0.9587215863075138  0.5418358335682270  0.3999910402895512
  0.9598145153981698  0.6675896950850666  0.3998644285061509
  0.9599745542305564  0.7930007349376301  0.3997683238184324
  0.9593835229717167  0.9177130170777666  0.3997618298378435
  0.4086431182350946  0.5790346023400791  0.3999245977101096
  0.5489911671934502  0.5813728243712991  0.4108691279692891
  0.3269677170085105  0.4184067864084355  0.4101180057752981
 
  0.00000000E+00  0.00000000E+00  0.00000000E+00
  0.00000000E+00  0.00000000E+00  0.00000000E+00
  0.00000000E+00  0.00000000E+00  0.00000000E+00
  0.00000000E+00  0.00000000E+00  0.00000000E+00
  0.00000000E+00  0.00000000E+00  0.00000000E+00
  0.00000000E+00  0.00000000E+00  0.00000000E+00
  0.00000000E+00  0.00000000E+00  0.00000000E+00
  0.00000000E+00  0.00000000E+00  0.00000000E+00
  0.00000000E+00  0.00000000E+00  0.00000000E+00
  0.00000000E+00  0.00000000E+00  0.00000000E+00
  0.00000000E+00  0.00000000E+00  0.00000000E+00
  0.00000000E+00  0.00000000E+00  0.00000000E+00
  0.00000000E+00  0.00000000E+00  0.00000000E+00
  0.00000000E+00  0.00000000E+00  0.00000000E+00
  0.00000000E+00  0.00000000E+00  0.00000000E+00
  0.00000000E+00  0.00000000E+00  0.00000000E+00
  0.00000000E+00  0.00000000E+00  0.00000000E+00
  0.00000000E+00  0.00000000E+00  0.00000000E+00
  0.00000000E+00  0.00000000E+00  0.00000000E+00
  0.00000000E+00  0.00000000E+00  0.00000000E+00
  0.00000000E+00  0.00000000E+00  0.00000000E+00
  0.00000000E+00  0.00000000E+00  0.00000000E+00
  0.00000000E+00  0.00000000E+00  0.00000000E+00
  0.00000000E+00  0.00000000E+00  0.00000000E+00
  0.00000000E+00  0.00000000E+00  0.00000000E+00
  0.00000000E+00  0.00000000E+00  0.00000000E+00
  0.00000000E+00  0.00000000E+00  0.00000000E+00
  0.00000000E+00  0.00000000E+00  0.00000000E+00
  0.00000000E+00  0.00000000E+00  0.00000000E+00
  0.00000000E+00  0.00000000E+00  0.00000000E+00
  0.00000000E+00  0.00000000E+00  0.00000000E+00
  0.00000000E+00  0.00000000E+00  0.00000000E+00
  0.00000000E+00  0.00000000E+00  0.00000000E+00
  0.00000000E+00  0.00000000E+00  0.00000000E+00
  0.00000000E+00  0.00000000E+00  0.00000000E+00
  0.00000000E+00  0.00000000E+00  0.00000000E+00
  0.00000000E+00  0.00000000E+00  0.00000000E+00
  0.00000000E+00  0.00000000E+00  0.00000000E+00
  0.00000000E+00  0.00000000E+00  0.00000000E+00
  0.00000000E+00  0.00000000E+00  0.00000000E+00
  0.00000000E+00  0.00000000E+00  0.00000000E+00
  0.00000000E+00  0.00000000E+00  0.00000000E+00
  0.00000000E+00  0.00000000E+00  0.00000000E+00
  0.00000000E+00  0.00000000E+00  0.00000000E+00
  0.00000000E+00  0.00000000E+00  0.00000000E+00
  0.00000000E+00  0.00000000E+00  0.00000000E+00
  0.00000000E+00  0.00000000E+00  0.00000000E+00
  0.00000000E+00  0.00000000E+00  0.00000000E+00
  0.00000000E+00  0.00000000E+00  0.00000000E+00
  0.00000000E+00  0.00000000E+00  0.00000000E+00
  0.00000000E+00  0.00000000E+00  0.00000000E+00
  0.00000000E+00  0.00000000E+00  0.00000000E+00
  0.00000000E+00  0.00000000E+00  0.00000000E+00
  0.00000000E+00  0.00000000E+00  0.00000000E+00
  0.00000000E+00  0.00000000E+00  0.00000000E+00
  0.00000000E+00  0.00000000E+00  0.00000000E+00
  0.00000000E+00  0.00000000E+00  0.00000000E+00
  0.00000000E+00  0.00000000E+00  0.00000000E+00
  0.00000000E+00  0.00000000E+00  0.00000000E+00
  0.00000000E+00  0.00000000E+00  0.00000000E+00
  0.00000000E+00  0.00000000E+00  0.00000000E+00
  0.00000000E+00  0.00000000E+00  0.00000000E+00
  0.00000000E+00  0.00000000E+00  0.00000000E+00
  0.00000000E+00  0.00000000E+00  0.00000000E+00
  0.00000000E+00  0.00000000E+00  0.00000000E+00
  0.00000000E+00  0.00000000E+00  0.00000000E+00
  0.00000000E+00  0.00000000E+00  0.00000000E+00
  0.00000000E+00  0.00000000E+00  0.00000000E+00
  0.00000000E+00  0.00000000E+00  0.00000000E+00
  0.00000000E+00  0.00000000E+00  0.00000000E+00
  0.00000000E+00  0.00000000E+00  0.00000000E+00
  0.00000000E+00  0.00000000E+00  0.00000000E+00
  0.00000000E+00  0.00000000E+00  0.00000000E+00
  0.00000000E+00  0.00000000E+00  0.00000000E+00
  0.00000000E+00  0.00000000E+00  0.00000000E+00
  0.00000000E+00  0.00000000E+00  0.00000000E+00
  0.00000000E+00  0.00000000E+00  0.00000000E+00
  0.00000000E+00  0.00000000E+00  0.00000000E+00
  0.00000000E+00  0.00000000E+00  0.00000000E+00
  0.00000000E+00  0.00000000E+00  0.00000000E+00
  0.00000000E+00  0.00000000E+00  0.00000000E+00
  0.00000000E+00  0.00000000E+00  0.00000000E+00
  0.00000000E+00  0.00000000E+00  0.00000000E+00
  0.00000000E+00  0.00000000E+00  0.00000000E+00
  0.00000000E+00  0.00000000E+00  0.00000000E+00
  0.00000000E+00  0.00000000E+00  0.00000000E+00
  0.00000000E+00  0.00000000E+00  0.00000000E+00
  0.00000000E+00  0.00000000E+00  0.00000000E+00
  0.00000000E+00  0.00000000E+00  0.00000000E+00
  0.00000000E+00  0.00000000E+00  0.00000000E+00
  0.00000000E+00  0.00000000E+00  0.00000000E+00
  0.00000000E+00  0.00000000E+00  0.00000000E+00
  0.00000000E+00  0.00000000E+00  0.00000000E+00
  0.00000000E+00  0.00000000E+00  0.00000000E+00
  0.00000000E+00  0.00000000E+00  0.00000000E+00
  0.00000000E+00  0.00000000E+00  0.00000000E+00
  0.00000000E+00  0.00000000E+00  0.00000000E+00
  0.00000000E+00  0.00000000E+00  0.00000000E+00
  0.00000000E+00  0.00000000E+00  0.00000000E+00
  0.00000000E+00  0.00000000E+00  0.00000000E+00
  0.00000000E+00  0.00000000E+00  0.00000000E+00
  0.00000000E+00  0.00000000E+00  0.00000000E+00
  0.00000000E+00  0.00000000E+00  0.00000000E+00
  0.00000000E+00  0.00000000E+00  0.00000000E+00
  0.00000000E+00  0.00000000E+00  0.00000000E+00
  0.00000000E+00  0.00000000E+00  0.00000000E+00
  0.00000000E+00  0.00000000E+00  0.00000000E+00
  0.00000000E+00  0.00000000E+00  0.00000000E+00
  0.00000000E+00  0.00000000E+00  0.00000000E+00
  0.00000000E+00  0.00000000E+00  0.00000000E+00
  0.00000000E+00  0.00000000E+00  0.00000000E+00
  0.00000000E+00  0.00000000E+00  0.00000000E+00
  0.00000000E+00  0.00000000E+00  0.00000000E+00
  0.00000000E+00  0.00000000E+00  0.00000000E+00
  0.00000000E+00  0.00000000E+00  0.00000000E+00
  0.00000000E+00  0.00000000E+00  0.00000000E+00
  0.00000000E+00  0.00000000E+00  0.00000000E+00
  0.00000000E+00  0.00000000E+00  0.00000000E+00
  0.00000000E+00  0.00000000E+00  0.00000000E+00
  0.00000000E+00  0.00000000E+00  0.00000000E+00
  0.00000000E+00  0.00000000E+00  0.00000000E+00
  0.00000000E+00  0.00000000E+00  0.00000000E+00
  0.00000000E+00  0.00000000E+00  0.00000000E+00
  0.00000000E+00  0.00000000E+00  0.00000000E+00
  0.00000000E+00  0.00000000E+00  0.00000000E+00
  0.00000000E+00  0.00000000E+00  0.00000000E+00
  0.00000000E+00  0.00000000E+00  0.00000000E+00
