Ir1 C125 N1 O1                          
   1.00000000000000     
    19.8042525856289728   -0.0108364299213550    0.0759203380710452
    -9.9116959433876577   17.0390513543686701   -0.2240948068737685
     0.1142130676031957   -0.3255729657217037   29.8328419846209414
   Ir   C    N    O 
     1   125     1     1
Direct
  0.4379669333295926  0.5005764580241163  0.4329188968319084
  0.0421771125242512  0.0845179991008470  0.3996385523586948
  0.0415079927070739  0.2087371558634503  0.3995793961113101
  0.0408510507606770  0.3332630076454044  0.3990824975736219
  0.0407497789678552  0.4584905110511586  0.3992215115393661
  0.0414312648693442  0.5839610912726186  0.3997627883876604
  0.0420176577798612  0.7093654344457752  0.3998526611163085
  0.0422521438025478  0.8346334367790245  0.3997000417693379
  0.0422925666645388  0.9597543753851190  0.3996272286219056
  0.1678349035050057  0.0857588346151752  0.4003038189193182
  0.1680136006203144  0.2109811990300096  0.4006672527743772
  0.1662726516884820  0.3344989751080224  0.3996433964371929
  0.1646260232550289  0.4587888160393517  0.3982302728906676
  0.1653715030732635  0.5839766213671382  0.3990408179145237
  0.1663625305592866  0.7093178156303054  0.3999270790287396
  0.1669742090238251  0.8346935493400378  0.3997975413190216
  0.1674108258008171  0.9601762647173721  0.3997837101669336
  0.2926391185022691  0.0856832003616776  0.4004356300504688
  0.2935799329187967  0.2122557031391378  0.4028175757545034
  0.2942799106563360  0.3387567479429280  0.4043839206808161
  0.2887199048127794  0.4601591774146161  0.4003571852203032
  0.2890624837586891  0.5842724534307154  0.3988199857808160
  0.2906875118414062  0.7090545207096357  0.3995781727691241
  0.2915806343604797  0.8342791618371810  0.3997826061158459
  0.2920713676473834  0.9597556747752273  0.3995372640331701
  0.4171087845954491  0.0843375825936174  0.3998276436296790
  0.4178079349510012  0.2105630627029186  0.4014366683340104
  0.4194226654482260  0.3381073061462967  0.4057238359812743
  0.4146937379088297  0.7061826873634894  0.4006039238118209
  0.4160411585741411  0.8325497046047504  0.3999034227047882
  0.4166232809884238  0.9584655082667556  0.3995505198288568
  0.5416080690626304  0.0827515255060504  0.3995766688646505
  0.5422144857460292  0.2082584290670801  0.3999468879135749
  0.5432549043088738  0.3334837340190658  0.4008274364281563
  0.5467480340043985  0.4584439747640989  0.4031578231302986
  0.5437481067781224  0.5786330465424898  0.4070669058625143
  0.5380336415747399  0.7030560556284094  0.4030189679708288
  0.5402756854589988  0.8308023371644587  0.4006537446262609
  0.5410996131818625  0.9570006046257565  0.3998133937713214
  0.6661956836868335  0.0821168181793434  0.3997779989357144
  0.6667329294817004  0.2075571643347823  0.3997255431728096
  0.6675764337450293  0.3328879459736745  0.3993966327755115
  0.6693482940582334  0.4582600936554175  0.3987289402761998
  0.6699096194411660  0.5834141230406733  0.3993667791693177
  0.6650825586199450  0.7055623544791427  0.4006780148046395
  0.6645090601020556  0.8304176284188600  0.4007348767481597
  0.6655934122750502  0.9564930976684347  0.4002401607501500
  0.7909301806758106  0.0821567450111279  0.3998792391166418
  0.7913070558626066  0.2074415226187958  0.3997130221140380
  0.7919265058339415  0.3328518943841978  0.3996858498436950
  0.7929207722632957  0.4582913286291481  0.3990325675870972
  0.7935599142691419  0.5836905167039317  0.3984935023024213
  0.7924701402792881  0.7085660509029655  0.3990395142377571
  0.7906964111196817  0.8321708510559186  0.3996112712144748
  0.7904801458773276  0.9568367001812812  0.3999709876022434
  0.9161528891356563  0.0828957060635936  0.3996799055184250
  0.9161045791783158  0.2077480579955583  0.3995929768222725
  0.9162693966047969  0.3329403704547542  0.3995493891146752
  0.9168141454794780  0.4583986254040573  0.3996125486944869
  0.9174869407072148  0.5838925071858123  0.3993769297808389
  0.9174712365745932  0.7091826534094379  0.3992833319296676
  0.9170974841752990  0.8340288850101947  0.3994741532986531
  0.9164427048477859  0.9583781594383559  0.3995457637776146
  0.0842398553842359  0.0434241730901339  0.3997466867497458
  0.0841503518776891  0.1682102609026322  0.3998016668402390
  0.0828885486722271  0.2921092861021580  0.3993200149341693
  0.0818726786001207  0.4167194205455761  0.3987475813982459
  0.0824251625219601  0.5420776728278799  0.3993639166492390
  0.0832231222498461  0.6675270202963678  0.3999481965567830
  0.0837539422752278  0.7929439528606260  0.3998037282318169
  0.0840268035790639  0.9182267392791345  0.3997181578740566
  0.2092713427739235  0.0438569938136488  0.4001681615289237
  0.2098895646978110  0.1696495258453848  0.4012737267657546
  0.2098675246679791  0.2949124651813204  0.4011919066414200
  0.2061352175501562  0.4176069892907896  0.3986546492967858
  0.2061211265425820  0.5420656243325590  0.3984352713402083
  0.2074763037513218  0.6674446389444371  0.3995150294330129
  0.2083254056733524  0.7928301761325508  0.3999126607735297
  0.2088238536796526  0.9182721256637733  0.3996643733206807
  0.3338770863949113  0.0433617480934541  0.3998066776996803
  0.3345701954351207  0.1694838740167253  0.4016813595360198
  0.3356999394089115  0.2963286227231217  0.4053209881620527
  0.3323192576781737  0.4225322709120987  0.4064324627667911
  0.3298649180026649  0.5432779498501871  0.3999209100540806
  0.3316655219559726  0.6671562434178454  0.3996079549029094
  0.3328861958838240  0.7922763806685151  0.3998077863307812
  0.3334312615920356  0.9176803593633717  0.3995555552377851
  0.4584250424864521  0.0419882686867784  0.3995662192717739
  0.4589509174235644  0.1679020581722472  0.4002777490164411
  0.4600987832492363  0.2943376883769451  0.4024077125526910
  0.4656069119686734  0.4213702703642349  0.4092362964165311
  0.4541908273107819  0.6617902716589773  0.4025474059229932
  0.4571811737062926  0.7899354977622275  0.4003068601949502
  0.4578896812749616  0.9160942699460281  0.3997380588327958
  0.5829193640203837  0.0406106305755737  0.3996462950312744
  0.5834952359305472  0.1661899555274310  0.3996895053293956
  0.5843165549208399  0.2914714159345919  0.3999004207510178
  0.5865506215393436  0.4163687786924716  0.4001815869641571
  0.5880541592903332  0.5413316647385558  0.4023506062158521
  0.5804053622577463  0.6614858898987107  0.4035127466207351
  0.5805903693390428  0.7875681115796509  0.4014457977642112
  0.5823033911960941  0.9146941854435333  0.4002135387793547
  0.7075605903636294  0.0401944166890757  0.3999661026617237
  0.7080731577636928  0.1656942750800502  0.3997389607938115
  0.7087104824178536  0.2910612509982867  0.3996468676034751
  0.7100149542667471  0.4163784792152533  0.3988628231671209
  0.7109621613046162  0.5416371116824815  0.3984848616782517
  0.7092044763302636  0.6663644020172997  0.3995205199743496
  0.7067300794373471  0.7893519607614647  0.4001604299850426
  0.7067706271689554  0.9143763053930896  0.4003382680580036
  0.8325634440888805  0.0405744161122298  0.3998619589965306
  0.8327746387531180  0.1657544999957771  0.3997131475914347
  0.8331512645764584  0.2910384264105662  0.3996946592767195
  0.8338879120877750  0.4164408427251028  0.3995284600599525
  0.8346149226092877  0.5418893891544087  0.3988764357201766
  0.8343996396886031  0.6672129834173735  0.3988264232535221
  0.8335789363882359  0.7917978331473220  0.3993528412636756
  0.8326462805056611  0.9158341168961927  0.3997133177534574
  0.9584176752321643  0.0419972280182873  0.3995638267639828
  0.9579746706719245  0.1664413880225877  0.3995939853221133
  0.9577289093101562  0.2912742851438748  0.3994142168946495
  0.9578450945372420  0.4165369896002908  0.3995396399062201
  0.9585348977211857  0.5420271255754453  0.3996381067809238
  0.9589350241874491  0.6674769213071231  0.3995233904092974
  0.9589642877883706  0.7927100024463768  0.3995250283607952
  0.9587526091155166  0.9175102884586639  0.3995353167700648
  0.4099147753137897  0.5800536519756808  0.4034971198149291
  0.4432767013021290  0.4830753940227260  0.4900265218394018
 
  0.00000000E+00  0.00000000E+00  0.00000000E+00
  0.00000000E+00  0.00000000E+00  0.00000000E+00
  0.00000000E+00  0.00000000E+00  0.00000000E+00
  0.00000000E+00  0.00000000E+00  0.00000000E+00
  0.00000000E+00  0.00000000E+00  0.00000000E+00
  0.00000000E+00  0.00000000E+00  0.00000000E+00
  0.00000000E+00  0.00000000E+00  0.00000000E+00
  0.00000000E+00  0.00000000E+00  0.00000000E+00
  0.00000000E+00  0.00000000E+00  0.00000000E+00
  0.00000000E+00  0.00000000E+00  0.00000000E+00
  0.00000000E+00  0.00000000E+00  0.00000000E+00
  0.00000000E+00  0.00000000E+00  0.00000000E+00
  0.00000000E+00  0.00000000E+00  0.00000000E+00
  0.00000000E+00  0.00000000E+00  0.00000000E+00
  0.00000000E+00  0.00000000E+00  0.00000000E+00
  0.00000000E+00  0.00000000E+00  0.00000000E+00
  0.00000000E+00  0.00000000E+00  0.00000000E+00
  0.00000000E+00  0.00000000E+00  0.00000000E+00
  0.00000000E+00  0.00000000E+00  0.00000000E+00
  0.00000000E+00  0.00000000E+00  0.00000000E+00
  0.00000000E+00  0.00000000E+00  0.00000000E+00
  0.00000000E+00  0.00000000E+00  0.00000000E+00
  0.00000000E+00  0.00000000E+00  0.00000000E+00
  0.00000000E+00  0.00000000E+00  0.00000000E+00
  0.00000000E+00  0.00000000E+00  0.00000000E+00
  0.00000000E+00  0.00000000E+00  0.00000000E+00
  0.00000000E+00  0.00000000E+00  0.00000000E+00
  0.00000000E+00  0.00000000E+00  0.00000000E+00
  0.00000000E+00  0.00000000E+00  0.00000000E+00
  0.00000000E+00  0.00000000E+00  0.00000000E+00
  0.00000000E+00  0.00000000E+00  0.00000000E+00
  0.00000000E+00  0.00000000E+00  0.00000000E+00
  0.00000000E+00  0.00000000E+00  0.00000000E+00
  0.00000000E+00  0.00000000E+00  0.00000000E+00
  0.00000000E+00  0.00000000E+00  0.00000000E+00
  0.00000000E+00  0.00000000E+00  0.00000000E+00
  0.00000000E+00  0.00000000E+00  0.00000000E+00
  0.00000000E+00  0.00000000E+00  0.00000000E+00
  0.00000000E+00  0.00000000E+00  0.00000000E+00
  0.00000000E+00  0.00000000E+00  0.00000000E+00
  0.00000000E+00  0.00000000E+00  0.00000000E+00
  0.00000000E+00  0.00000000E+00  0.00000000E+00
  0.00000000E+00  0.00000000E+00  0.00000000E+00
  0.00000000E+00  0.00000000E+00  0.00000000E+00
  0.00000000E+00  0.00000000E+00  0.00000000E+00
  0.00000000E+00  0.00000000E+00  0.00000000E+00
  0.00000000E+00  0.00000000E+00  0.00000000E+00
  0.00000000E+00  0.00000000E+00  0.00000000E+00
  0.00000000E+00  0.00000000E+00  0.00000000E+00
  0.00000000E+00  0.00000000E+00  0.00000000E+00
  0.00000000E+00  0.00000000E+00  0.00000000E+00
  0.00000000E+00  0.00000000E+00  0.00000000E+00
  0.00000000E+00  0.00000000E+00  0.00000000E+00
  0.00000000E+00  0.00000000E+00  0.00000000E+00
  0.00000000E+00  0.00000000E+00  0.00000000E+00
  0.00000000E+00  0.00000000E+00  0.00000000E+00
  0.00000000E+00  0.00000000E+00  0.00000000E+00
  0.00000000E+00  0.00000000E+00  0.00000000E+00
  0.00000000E+00  0.00000000E+00  0.00000000E+00
  0.00000000E+00  0.00000000E+00  0.00000000E+00
  0.00000000E+00  0.00000000E+00  0.00000000E+00
  0.00000000E+00  0.00000000E+00  0.00000000E+00
  0.00000000E+00  0.00000000E+00  0.00000000E+00
  0.00000000E+00  0.00000000E+00  0.00000000E+00
  0.00000000E+00  0.00000000E+00  0.00000000E+00
  0.00000000E+00  0.00000000E+00  0.00000000E+00
  0.00000000E+00  0.00000000E+00  0.00000000E+00
  0.00000000E+00  0.00000000E+00  0.00000000E+00
  0.00000000E+00  0.00000000E+00  0.00000000E+00
  0.00000000E+00  0.00000000E+00  0.00000000E+00
  0.00000000E+00  0.00000000E+00  0.00000000E+00
  0.00000000E+00  0.00000000E+00  0.00000000E+00
  0.00000000E+00  0.00000000E+00  0.00000000E+00
  0.00000000E+00  0.00000000E+00  0.00000000E+00
  0.00000000E+00  0.00000000E+00  0.00000000E+00
  0.00000000E+00  0.00000000E+00  0.00000000E+00
  0.00000000E+00  0.00000000E+00  0.00000000E+00
  0.00000000E+00  0.00000000E+00  0.00000000E+00
  0.00000000E+00  0.00000000E+00  0.00000000E+00
  0.00000000E+00  0.00000000E+00  0.00000000E+00
  0.00000000E+00  0.00000000E+00  0.00000000E+00
  0.00000000E+00  0.00000000E+00  0.00000000E+00
  0.00000000E+00  0.00000000E+00  0.00000000E+00
  0.00000000E+00  0.00000000E+00  0.00000000E+00
  0.00000000E+00  0.00000000E+00  0.00000000E+00
  0.00000000E+00  0.00000000E+00  0.00000000E+00
  0.00000000E+00  0.00000000E+00  0.00000000E+00
  0.00000000E+00  0.00000000E+00  0.00000000E+00
  0.00000000E+00  0.00000000E+00  0.00000000E+00
  0.00000000E+00  0.00000000E+00  0.00000000E+00
  0.00000000E+00  0.00000000E+00  0.00000000E+00
  0.00000000E+00  0.00000000E+00  0.00000000E+00
  0.00000000E+00  0.00000000E+00  0.00000000E+00
  0.00000000E+00  0.00000000E+00  0.00000000E+00
  0.00000000E+00  0.00000000E+00  0.00000000E+00
  0.00000000E+00  0.00000000E+00  0.00000000E+00
  0.00000000E+00  0.00000000E+00  0.00000000E+00
  0.00000000E+00  0.00000000E+00  0.00000000E+00
  0.00000000E+00  0.00000000E+00  0.00000000E+00
  0.00000000E+00  0.00000000E+00  0.00000000E+00
  0.00000000E+00  0.00000000E+00  0.00000000E+00
  0.00000000E+00  0.00000000E+00  0.00000000E+00
  0.00000000E+00  0.00000000E+00  0.00000000E+00
  0.00000000E+00  0.00000000E+00  0.00000000E+00
  0.00000000E+00  0.00000000E+00  0.00000000E+00
  0.00000000E+00  0.00000000E+00  0.00000000E+00
  0.00000000E+00  0.00000000E+00  0.00000000E+00
  0.00000000E+00  0.00000000E+00  0.00000000E+00
  0.00000000E+00  0.00000000E+00  0.00000000E+00
  0.00000000E+00  0.00000000E+00  0.00000000E+00
  0.00000000E+00  0.00000000E+00  0.00000000E+00
  0.00000000E+00  0.00000000E+00  0.00000000E+00
  0.00000000E+00  0.00000000E+00  0.00000000E+00
  0.00000000E+00  0.00000000E+00  0.00000000E+00
  0.00000000E+00  0.00000000E+00  0.00000000E+00
  0.00000000E+00  0.00000000E+00  0.00000000E+00
  0.00000000E+00  0.00000000E+00  0.00000000E+00
  0.00000000E+00  0.00000000E+00  0.00000000E+00
  0.00000000E+00  0.00000000E+00  0.00000000E+00
  0.00000000E+00  0.00000000E+00  0.00000000E+00
  0.00000000E+00  0.00000000E+00  0.00000000E+00
  0.00000000E+00  0.00000000E+00  0.00000000E+00
  0.00000000E+00  0.00000000E+00  0.00000000E+00
  0.00000000E+00  0.00000000E+00  0.00000000E+00
  0.00000000E+00  0.00000000E+00  0.00000000E+00
  0.00000000E+00  0.00000000E+00  0.00000000E+00
  0.00000000E+00  0.00000000E+00  0.00000000E+00
  0.00000000E+00  0.00000000E+00  0.00000000E+00
