Hf1 H1 C125 N1 O2                       
   1.00000000000000     
    19.8140343675644459   -0.0097476759610457   -0.2426091891777600
    -9.9163510999254303   17.0734995780928287   -0.1258001851658272
    -0.3632717641106795   -0.4301875476178370   29.7636803814313176
   Hf   H    C    N    O 
     1     1   125     1     2
Direct
  0.4364553613877049  0.5037157621891151  0.4433096304015198
  0.5433562001638020  0.5645738589264692  0.5184616205296138
  0.0420181705713493  0.0840269602922879  0.3991918859489034
  0.0412523004488640  0.2083454091293712  0.3990093299019852
  0.0407257116087054  0.3329833985792227  0.3984737975813789
  0.0407512562816024  0.4584155223613453  0.3983634736365184
  0.0415190929063515  0.5839160169036195  0.3990446063086490
  0.0421822785511624  0.7092181963320592  0.3994441802560199
  0.0425099031449158  0.8345304170789395  0.3992697814049528
  0.0425440031953371  0.9595678676470002  0.3990616578193269
  0.1678555423267419  0.0853206479224878  0.3998274306431907
  0.1670693139046043  0.2095881795673730  0.4006613874948591
  0.1659485381897453  0.3339497928833216  0.4001284639310899
  0.1644960869113438  0.4585322191311363  0.3988085089588907
  0.1653666174370871  0.5838130473231417  0.3983298552114045
  0.1664968938706197  0.7092520451312692  0.3989970785327304
  0.1672168590318106  0.8346121835692919  0.3993434661245558
  0.1676258300138229  0.9599677190708834  0.3992947784353321
  0.2928263486100395  0.0851905811512964  0.3999742882725267
  0.2938676345379178  0.2117036760494191  0.4031636711565545
  0.2923652486210085  0.3365194391517383  0.4053618068859053
  0.2888385690333320  0.4588210384158668  0.4030256776284721
  0.2890629514067004  0.5845265992265254  0.3998554136041340
  0.2908682072201068  0.7093556521412056  0.3988933888906281
  0.2917569718211651  0.8343229419378084  0.3990717608092588
  0.2922194511132188  0.9595581327214768  0.3991501947219754
  0.4173369543414672  0.0838706706566419  0.3990722201899660
  0.4179926665050999  0.2092976252440064  0.4008673455914596
  0.4208821857512871  0.3361131060448949  0.4093765051400203
  0.4152674909093322  0.7078956988533793  0.4007137130822488
  0.4163283993162428  0.8332570020721215  0.3992585379138079
  0.4168586488726334  0.9585434721630902  0.3991212567106701
  0.5419074095563544  0.0827574685068438  0.3990487823342995
  0.5424590036264531  0.2079310390147830  0.3987253763806266
  0.5435095865990034  0.3330832206108070  0.4006147016763704
  0.5466245332457442  0.4575507934901000  0.4082788427354885
  0.5483714352090386  0.5833322382778330  0.4135358459826332
  0.5397430318638903  0.7046807572053557  0.4047627909052227
  0.5408155682349902  0.8315843803117080  0.4002040907673614
  0.5414999334726609  0.9573670411745775  0.3993790955014448
  0.6665171913479165  0.0822834805237139  0.3994942050029724
  0.6669883081954744  0.2075699844262387  0.3989013031155773
  0.6676063691815328  0.3327033507195101  0.3979223298698496
  0.6691197967716958  0.4580627165638914  0.3977647146858417
  0.6700820780263027  0.5837403834915909  0.3996919456246823
  0.6673114722901853  0.7074941320436754  0.4006110092952369
  0.6655531502805858  0.8312867834852893  0.4001652682922608
  0.6660943286194628  0.9569004736514380  0.3996387751327999
  0.7912551685314309  0.0823096114184771  0.3993843740359855
  0.7915095747665872  0.2074966234501467  0.3993088825203821
  0.7920437745475001  0.3328337804781970  0.3988138687859286
  0.7928770795238005  0.4582848894361807  0.3978455617876507
  0.7933998192166475  0.5835579576587091  0.3971269677424488
  0.7930620554355157  0.7088369841646478  0.3976680027733605
  0.7918045381221821  0.8329793463462067  0.3984723951688056
  0.7910291464004926  0.9572068002204264  0.3991626622522838
  0.9163167233047929  0.0828493785470583  0.3990059171364393
  0.9161679481617844  0.2077140083289044  0.3988844493347626
  0.9163196197842439  0.3329022997556119  0.3988530540924337
  0.9168194273253630  0.4583057145238348  0.3989956006300567
  0.9175209833455436  0.5838273166195700  0.3988040622929716
  0.9177419574670983  0.7091861908155908  0.3984775735483761
  0.9175195380441719  0.8340583655098582  0.3985752623254894
  0.9168765920527454  0.9584805525581013  0.3988937570274531
  0.0842859225175807  0.0430783571299692  0.3992404307222759
  0.0835211848898329  0.1673416280134035  0.3994935789591100
  0.0825059086554839  0.2916793389308541  0.3989651877500343
  0.0818251487751757  0.4166037686129006  0.3982580623828966
  0.0824342484821986  0.5419700978268247  0.3984883039241456
  0.0833958592295575  0.6674465670303309  0.3992448552873031
  0.0840091546203914  0.7928484791784707  0.3994337892254319
  0.0842464195135190  0.9180612759323512  0.3992034832287834
  0.2094078500775885  0.0434521467659341  0.3996772583299449
  0.2096782070051105  0.1689450385942614  0.4010945594826093
  0.2084978748926797  0.2930798872808265  0.4015641951684004
  0.2058601175676928  0.4172945065387286  0.4003361053199756
  0.2061226404466699  0.5420210047682904  0.3986785272631675
  0.2076686575503787  0.6674814688021500  0.3986314221007394
  0.2085461076526533  0.7927630746514631  0.3991701901977113
  0.2090599844829000  0.9180742496381342  0.3992602950021310
  0.3340831979664586  0.0429756149155374  0.3992908552100279
  0.3348506212783807  0.1687129838541629  0.4014693619623145
  0.3359348634458897  0.2950940415556879  0.4072040484321445
  0.3306608795532948  0.4191417923125371  0.4067663361287059
  0.3309058783435079  0.5445275329168221  0.4027628528971994
  0.3320548899142378  0.6676556694351056  0.3996877333756670
  0.3331236440519451  0.7925410192514937  0.3990449569349778
  0.3336555140468052  0.9176283011400226  0.3991080360691452
  0.4587464236052734  0.0418308531424289  0.3990206210249840
  0.4592152001046803  0.1671055283384256  0.3992192830592708
  0.4604154077082161  0.2926771256261056  0.4030155655985817
  0.4666966941399329  0.4181800078178283  0.4167058491318267
  0.4549664949375354  0.6641656697826324  0.4040919129147443
  0.4577126984209203  0.7911722568618935  0.3998783460347011
  0.4582611108086853  0.9165148358761853  0.3992346031956938
  0.5833274816979426  0.0408071079370733  0.3993413244276404
  0.5838006828912953  0.1661063326215937  0.3987728843687893
  0.5845493041017216  0.2911648266016706  0.3986105677721604
  0.5866045994858573  0.4161864052166864  0.4008535140032847
  0.5890708587127893  0.5430265081894626  0.4071595864888617
  0.5842114070221415  0.6642694204054137  0.4062398299033910
  0.5814279128860564  0.7883412410800328  0.4014793642722945
  0.5827926295853313  0.9151779092394040  0.3996396543155698
  0.7079265974424879  0.0404019462753699  0.3995548532866862
  0.7083674793350231  0.1657857868225414  0.3993451541989664
  0.7088826013660768  0.2910005669449486  0.3984744293680295
  0.7099201776453117  0.4163431257949318  0.3973563632181173
  0.7108499371361872  0.5417272569585700  0.3974480995988591
  0.7099613599806598  0.6668822292723211  0.3988843938978095
  0.7082751685816382  0.7907413548312885  0.3993323968975206
  0.7074176750133774  0.9149087884543030  0.3995613154585514
  0.8328467975027350  0.0407429136052669  0.3991840213186393
  0.8329440894106359  0.1658132508144174  0.3992463491554361
  0.8332994861632250  0.2910889856770556  0.3991066198589234
  0.8338996626840767  0.4164166401757444  0.3986803552169562
  0.8345756003254186  0.5417980194554387  0.3978366170153236
  0.8346431381643772  0.6672908498690757  0.3975519722987340
  0.8342126174348500  0.7921010618757752  0.3981104414869059
  0.8333220504212964  0.9163052763236297  0.3988316167461522
  0.9584701124652315  0.0418549227761380  0.3990008331185002
  0.9579114561157713  0.1662957232739712  0.3988588027676365
  0.9576651105113836  0.2911503034625605  0.3986453958273906
  0.9578563819166539  0.4164554323725709  0.3987845981729282
  0.9586116946921991  0.5420186630233066  0.3991065371882297
  0.9591312845259490  0.6674345500974025  0.3990308878515977
  0.9592648696487075  0.7926398836769307  0.3988508784456121
  0.9590586737074750  0.9174706460960272  0.3988663873051570
  0.4104442472652677  0.5839402622190095  0.4066254422309764
  0.5057933136146583  0.5103581215845027  0.5089399580915718
  0.4296069053046636  0.5086666212571369  0.5115367656361195
 
  0.00000000E+00  0.00000000E+00  0.00000000E+00
  0.00000000E+00  0.00000000E+00  0.00000000E+00
  0.00000000E+00  0.00000000E+00  0.00000000E+00
  0.00000000E+00  0.00000000E+00  0.00000000E+00
  0.00000000E+00  0.00000000E+00  0.00000000E+00
  0.00000000E+00  0.00000000E+00  0.00000000E+00
  0.00000000E+00  0.00000000E+00  0.00000000E+00
  0.00000000E+00  0.00000000E+00  0.00000000E+00
  0.00000000E+00  0.00000000E+00  0.00000000E+00
  0.00000000E+00  0.00000000E+00  0.00000000E+00
  0.00000000E+00  0.00000000E+00  0.00000000E+00
  0.00000000E+00  0.00000000E+00  0.00000000E+00
  0.00000000E+00  0.00000000E+00  0.00000000E+00
  0.00000000E+00  0.00000000E+00  0.00000000E+00
  0.00000000E+00  0.00000000E+00  0.00000000E+00
  0.00000000E+00  0.00000000E+00  0.00000000E+00
  0.00000000E+00  0.00000000E+00  0.00000000E+00
  0.00000000E+00  0.00000000E+00  0.00000000E+00
  0.00000000E+00  0.00000000E+00  0.00000000E+00
  0.00000000E+00  0.00000000E+00  0.00000000E+00
  0.00000000E+00  0.00000000E+00  0.00000000E+00
  0.00000000E+00  0.00000000E+00  0.00000000E+00
  0.00000000E+00  0.00000000E+00  0.00000000E+00
  0.00000000E+00  0.00000000E+00  0.00000000E+00
  0.00000000E+00  0.00000000E+00  0.00000000E+00
  0.00000000E+00  0.00000000E+00  0.00000000E+00
  0.00000000E+00  0.00000000E+00  0.00000000E+00
  0.00000000E+00  0.00000000E+00  0.00000000E+00
  0.00000000E+00  0.00000000E+00  0.00000000E+00
  0.00000000E+00  0.00000000E+00  0.00000000E+00
  0.00000000E+00  0.00000000E+00  0.00000000E+00
  0.00000000E+00  0.00000000E+00  0.00000000E+00
  0.00000000E+00  0.00000000E+00  0.00000000E+00
  0.00000000E+00  0.00000000E+00  0.00000000E+00
  0.00000000E+00  0.00000000E+00  0.00000000E+00
  0.00000000E+00  0.00000000E+00  0.00000000E+00
  0.00000000E+00  0.00000000E+00  0.00000000E+00
  0.00000000E+00  0.00000000E+00  0.00000000E+00
  0.00000000E+00  0.00000000E+00  0.00000000E+00
  0.00000000E+00  0.00000000E+00  0.00000000E+00
  0.00000000E+00  0.00000000E+00  0.00000000E+00
  0.00000000E+00  0.00000000E+00  0.00000000E+00
  0.00000000E+00  0.00000000E+00  0.00000000E+00
  0.00000000E+00  0.00000000E+00  0.00000000E+00
  0.00000000E+00  0.00000000E+00  0.00000000E+00
  0.00000000E+00  0.00000000E+00  0.00000000E+00
  0.00000000E+00  0.00000000E+00  0.00000000E+00
  0.00000000E+00  0.00000000E+00  0.00000000E+00
  0.00000000E+00  0.00000000E+00  0.00000000E+00
  0.00000000E+00  0.00000000E+00  0.00000000E+00
  0.00000000E+00  0.00000000E+00  0.00000000E+00
  0.00000000E+00  0.00000000E+00  0.00000000E+00
  0.00000000E+00  0.00000000E+00  0.00000000E+00
  0.00000000E+00  0.00000000E+00  0.00000000E+00
  0.00000000E+00  0.00000000E+00  0.00000000E+00
  0.00000000E+00  0.00000000E+00  0.00000000E+00
  0.00000000E+00  0.00000000E+00  0.00000000E+00
  0.00000000E+00  0.00000000E+00  0.00000000E+00
  0.00000000E+00  0.00000000E+00  0.00000000E+00
  0.00000000E+00  0.00000000E+00  0.00000000E+00
  0.00000000E+00  0.00000000E+00  0.00000000E+00
  0.00000000E+00  0.00000000E+00  0.00000000E+00
  0.00000000E+00  0.00000000E+00  0.00000000E+00
  0.00000000E+00  0.00000000E+00  0.00000000E+00
  0.00000000E+00  0.00000000E+00  0.00000000E+00
  0.00000000E+00  0.00000000E+00  0.00000000E+00
  0.00000000E+00  0.00000000E+00  0.00000000E+00
  0.00000000E+00  0.00000000E+00  0.00000000E+00
  0.00000000E+00  0.00000000E+00  0.00000000E+00
  0.00000000E+00  0.00000000E+00  0.00000000E+00
  0.00000000E+00  0.00000000E+00  0.00000000E+00
  0.00000000E+00  0.00000000E+00  0.00000000E+00
  0.00000000E+00  0.00000000E+00  0.00000000E+00
  0.00000000E+00  0.00000000E+00  0.00000000E+00
  0.00000000E+00  0.00000000E+00  0.00000000E+00
  0.00000000E+00  0.00000000E+00  0.00000000E+00
  0.00000000E+00  0.00000000E+00  0.00000000E+00
  0.00000000E+00  0.00000000E+00  0.00000000E+00
  0.00000000E+00  0.00000000E+00  0.00000000E+00
  0.00000000E+00  0.00000000E+00  0.00000000E+00
  0.00000000E+00  0.00000000E+00  0.00000000E+00
  0.00000000E+00  0.00000000E+00  0.00000000E+00
  0.00000000E+00  0.00000000E+00  0.00000000E+00
  0.00000000E+00  0.00000000E+00  0.00000000E+00
  0.00000000E+00  0.00000000E+00  0.00000000E+00
  0.00000000E+00  0.00000000E+00  0.00000000E+00
  0.00000000E+00  0.00000000E+00  0.00000000E+00
  0.00000000E+00  0.00000000E+00  0.00000000E+00
  0.00000000E+00  0.00000000E+00  0.00000000E+00
  0.00000000E+00  0.00000000E+00  0.00000000E+00
  0.00000000E+00  0.00000000E+00  0.00000000E+00
  0.00000000E+00  0.00000000E+00  0.00000000E+00
  0.00000000E+00  0.00000000E+00  0.00000000E+00
  0.00000000E+00  0.00000000E+00  0.00000000E+00
  0.00000000E+00  0.00000000E+00  0.00000000E+00
  0.00000000E+00  0.00000000E+00  0.00000000E+00
  0.00000000E+00  0.00000000E+00  0.00000000E+00
  0.00000000E+00  0.00000000E+00  0.00000000E+00
  0.00000000E+00  0.00000000E+00  0.00000000E+00
  0.00000000E+00  0.00000000E+00  0.00000000E+00
  0.00000000E+00  0.00000000E+00  0.00000000E+00
  0.00000000E+00  0.00000000E+00  0.00000000E+00
  0.00000000E+00  0.00000000E+00  0.00000000E+00
  0.00000000E+00  0.00000000E+00  0.00000000E+00
  0.00000000E+00  0.00000000E+00  0.00000000E+00
  0.00000000E+00  0.00000000E+00  0.00000000E+00
  0.00000000E+00  0.00000000E+00  0.00000000E+00
  0.00000000E+00  0.00000000E+00  0.00000000E+00
  0.00000000E+00  0.00000000E+00  0.00000000E+00
  0.00000000E+00  0.00000000E+00  0.00000000E+00
  0.00000000E+00  0.00000000E+00  0.00000000E+00
  0.00000000E+00  0.00000000E+00  0.00000000E+00
  0.00000000E+00  0.00000000E+00  0.00000000E+00
  0.00000000E+00  0.00000000E+00  0.00000000E+00
  0.00000000E+00  0.00000000E+00  0.00000000E+00
  0.00000000E+00  0.00000000E+00  0.00000000E+00
  0.00000000E+00  0.00000000E+00  0.00000000E+00
  0.00000000E+00  0.00000000E+00  0.00000000E+00
  0.00000000E+00  0.00000000E+00  0.00000000E+00
  0.00000000E+00  0.00000000E+00  0.00000000E+00
  0.00000000E+00  0.00000000E+00  0.00000000E+00
  0.00000000E+00  0.00000000E+00  0.00000000E+00
  0.00000000E+00  0.00000000E+00  0.00000000E+00
  0.00000000E+00  0.00000000E+00  0.00000000E+00
  0.00000000E+00  0.00000000E+00  0.00000000E+00
  0.00000000E+00  0.00000000E+00  0.00000000E+00
  0.00000000E+00  0.00000000E+00  0.00000000E+00
  0.00000000E+00  0.00000000E+00  0.00000000E+00
  0.00000000E+00  0.00000000E+00  0.00000000E+00
  0.00000000E+00  0.00000000E+00  0.00000000E+00
