Zn1 H1 C123 N3 O1                       
   1.00000000000000     
    19.8035098737799977    0.0155699752111572   -0.3952211440211987
    -9.8883402194580867   17.0252206109690221    0.3596209328831602
    -0.5934339361890524    0.2833324924538135   29.8456215366205306
   Zn   H    C    N    O 
     1     1   123     3     1
Direct
  0.4397586727922541  0.4949958227129377  0.4364469198541204
  0.4687033320618417  0.5507642596259236  0.5101650803908807
  0.0419351584157250  0.0837899661982335  0.3998875068488570
  0.0406566663668557  0.2077354019949196  0.3997072802178164
  0.0401191365246151  0.3325158851361187  0.3990425904770199
  0.0405467215055357  0.4580071033060810  0.3987471121933273
  0.0416676254383164  0.5835647781251279  0.3990213422798495
  0.0425641105099410  0.7090767450311301  0.3993234644605073
  0.0429644323663883  0.8345450935234345  0.3995427186888695
  0.0428929132834497  0.9596186834093249  0.3997515735613599
  0.1681624998095793  0.0856118555002580  0.4004673196410525
  0.1668359790608367  0.2094717723288999  0.4012621536579091
  0.1647930852622549  0.3330527260993856  0.4008149323518541
  0.1642673368162078  0.4579370507813477  0.3994943230113276
  0.1655243294540765  0.5832185287744510  0.3990296642274651
  0.1667470996446044  0.7088405416358031  0.3992723898057995
  0.1675220689392513  0.8344396341865924  0.3996643016317200
  0.1679619459855028  0.9600832159371012  0.3999678062123297
  0.2930110548166674  0.0857813809925600  0.4006114550296158
  0.2939052545725471  0.2129780181104855  0.4024037766581959
  0.2913860063205964  0.3377579724772170  0.4040148455718294
  0.2879251049601263  0.4561377627780475  0.4019009524519165
  0.2891868260910350  0.5827107245748412  0.4002009410577103
  0.2908365866837331  0.7081536156256563  0.3998788140933821
  0.2919207718602675  0.8337124761231675  0.3998879526943902
  0.2924765377645809  0.9595693947601041  0.4000874601086794
  0.4173387529958236  0.0840452815592759  0.3999730959454226
  0.4179701041364245  0.2102863921415915  0.4003213096984632
  0.4207874786199944  0.3378818806705794  0.4062657181093976
  0.4149008887483401  0.7055112106583331  0.4014963768026482
  0.4162758532123550  0.8319359569355705  0.4005013712974728
  0.4168598965475758  0.9579841656419493  0.4001882832838023
  0.5416905457721000  0.0823722084105373  0.3999990374692043
  0.5422421294280163  0.2082399349771391  0.3991923627142636
  0.5433307191642998  0.3340179659542082  0.3987107514204900
  0.5459429652133114  0.4587803772991206  0.4031025316263653
  0.5388626293296535  0.7009769360753543  0.4034370818573629
  0.5404314768465138  0.8295022939274262  0.4015021461100573
  0.5411926732445642  0.9561969919832468  0.4004200708596967
  0.6660573695758112  0.0815353333171226  0.4000298293518824
  0.6666376221900254  0.2072723401085022  0.3996514743778752
  0.6674494130966439  0.3328890753611330  0.3983114087630518
  0.6691696642356342  0.4585297710924711  0.3968113906784586
  0.6710263848425200  0.5843619726928040  0.3992419450707468
  0.6678901619635568  0.7067961586464443  0.4016581061241081
  0.6651519309450440  0.8298064338381413  0.4016538698560627
  0.6656368048393717  0.9557593707917327  0.4005375396402225
  0.7906882230447396  0.0815262723818333  0.3996198669780214
  0.7910109673455575  0.2069454101974237  0.3995390950803521
  0.7917153566315352  0.3325262718370444  0.3993789787539198
  0.7929154978956218  0.4582338815731912  0.3986744103674435
  0.7939301224247662  0.5837291622798947  0.3984140250190615
  0.7940863879280791  0.7090409345396700  0.3996521582688569
  0.7920587740945105  0.8325977428198722  0.4004846458318884
  0.7906273252634907  0.9563802750720335  0.4002152605075875
  0.9158596719227763  0.0822089436577596  0.3994818751635991
  0.9155751769679052  0.2071170044467004  0.3990958736277530
  0.9158443097797628  0.3324809358778070  0.3990339862116705
  0.9167266957205399  0.4580133125266796  0.3992193812178463
  0.9178038007168352  0.5836693219991672  0.3992244853099659
  0.9183235540000982  0.7091439963662810  0.3993575075834032
  0.9180584112703029  0.8341277716230449  0.3997105866313659
  0.9168988487790077  0.9581537077148318  0.3997768281577154
  0.0845687799311264  0.0431881128454583  0.4000067193534285
  0.0832971535678269  0.1670877125117448  0.4002608127212432
  0.0815937072205815  0.2909683749768250  0.3997242636423795
  0.0816051411430909  0.4161522441326269  0.3989187602957569
  0.0825609386056537  0.5415511347999208  0.3988138221198103
  0.0836873343551950  0.6671819295800747  0.3991630200474289
  0.0844129099568598  0.7927681035403141  0.3994834051441470
  0.0846401773475229  0.9181421800957129  0.3997099021594178
  0.2097218962540488  0.0437426831346443  0.4003810457140562
  0.2098349809999018  0.1693493007918353  0.4013122452992323
  0.2076585138703191  0.2928387762191575  0.4019831950517115
  0.2052736052504515  0.4161977371206858  0.4007211176924507
  0.2062944836494638  0.5412719006926890  0.3994207552823630
  0.2078455582307111  0.6668563400073301  0.3992980297195712
  0.2087791410481880  0.7923883732865585  0.3996068892498627
  0.2093443557409113  0.9180676383126638  0.3999466225595940
  0.3341948735841920  0.0432591479880208  0.4002240517265213
  0.3348691177081494  0.1697118256789027  0.4012838171691412
  0.3361615838056933  0.2970797365625480  0.4049931894756515
  0.3318212224602177  0.5425347747799778  0.4012830812320187
  0.3318943565346931  0.6658328908383928  0.4004890802736408
  0.3330945961292256  0.7914440671753817  0.4000939559949028
  0.3337654915413284  0.9172630889462868  0.4000542977418685
  0.4585924913626007  0.0415767434891090  0.4000707374116881
  0.4590672813459954  0.1675649207440112  0.3995348901905525
  0.4601715907627550  0.2939021562596993  0.4010561694704129
  0.4667879123001236  0.4200438857773328  0.4127536577234055
  0.4534922475870666  0.6598972902985200  0.4028959797550999
  0.4573782803616298  0.7892009240862893  0.4011878595021851
  0.4580777098217940  0.9154564960518146  0.4003621283214842
  0.5829295148201458  0.0399924281948302  0.4001606867854426
  0.5834799154763987  0.1659824672079177  0.3996442875751938
  0.5843148949207402  0.2917262608182986  0.3984084083316075
  0.5864102006729861  0.4173916394907059  0.3977140804624847
  0.5890219189373175  0.5441837980284269  0.4024462689353763
  0.5842744594173226  0.6614248059603778  0.4037445388316034
  0.5809484454084065  0.7856839937031459  0.4023202590429042
  0.5823302524347952  0.9135546980914399  0.4008021754320497
  0.7074212565643664  0.0394912766695079  0.4000170838693130
  0.7078768625805025  0.1652470806424978  0.3998397174051898
  0.7085541344182531  0.2908447116627700  0.3992000597687954
  0.7099267826431762  0.4165232316617252  0.3977097276218779
  0.7113364279576970  0.5420193454086089  0.3976761400995955
  0.7111663521265743  0.6671370950480926  0.4001376986711114
  0.7084736314117216  0.7900879998969970  0.4013236790464414
  0.7069711464435920  0.9137593989570351  0.4007960915725085
  0.8324004959159337  0.0400397581634398  0.3996961796994328
  0.8323878803405653  0.1651747010758998  0.3993429633074738
  0.8328693949539449  0.2906372063350949  0.3993941974259153
  0.8338179629804977  0.4161825716113849  0.3992615597382792
  0.8349288212186919  0.5417805475761115  0.3987606045355035
  0.8353736976981612  0.6673363698976915  0.3991436485165921
  0.8348654704862287  0.7921863717240123  0.4000133168949304
  0.8333746488494285  0.9158853304143397  0.4001527351944229
  0.9583823656491586  0.0415406711953461  0.3996241047811078
  0.9573706490183485  0.1656815961507755  0.3992808100246457
  0.9571276978053060  0.2906694332811172  0.3989254905838943
  0.9576644994166988  0.4160941400237801  0.3989570844510439
  0.9587890086165358  0.5417537203068566  0.3992034890133579
  0.9596044264578006  0.6673160117903062  0.3993072202588747
  0.9598011004396202  0.7926660969311341  0.3995153958396331
  0.9594781982575836  0.9175268849744996  0.3997361620056430
  0.4099983288618827  0.5801483902429889  0.4029633132718455
  0.5487860388316604  0.5819818629483985  0.4053546521033773
  0.3271910657771283  0.4173172240672188  0.4038497018455618
  0.4217027736735872  0.5257999823776301  0.4913246220706408
 
  0.00000000E+00  0.00000000E+00  0.00000000E+00
  0.00000000E+00  0.00000000E+00  0.00000000E+00
  0.00000000E+00  0.00000000E+00  0.00000000E+00
  0.00000000E+00  0.00000000E+00  0.00000000E+00
  0.00000000E+00  0.00000000E+00  0.00000000E+00
  0.00000000E+00  0.00000000E+00  0.00000000E+00
  0.00000000E+00  0.00000000E+00  0.00000000E+00
  0.00000000E+00  0.00000000E+00  0.00000000E+00
  0.00000000E+00  0.00000000E+00  0.00000000E+00
  0.00000000E+00  0.00000000E+00  0.00000000E+00
  0.00000000E+00  0.00000000E+00  0.00000000E+00
  0.00000000E+00  0.00000000E+00  0.00000000E+00
  0.00000000E+00  0.00000000E+00  0.00000000E+00
  0.00000000E+00  0.00000000E+00  0.00000000E+00
  0.00000000E+00  0.00000000E+00  0.00000000E+00
  0.00000000E+00  0.00000000E+00  0.00000000E+00
  0.00000000E+00  0.00000000E+00  0.00000000E+00
  0.00000000E+00  0.00000000E+00  0.00000000E+00
  0.00000000E+00  0.00000000E+00  0.00000000E+00
  0.00000000E+00  0.00000000E+00  0.00000000E+00
  0.00000000E+00  0.00000000E+00  0.00000000E+00
  0.00000000E+00  0.00000000E+00  0.00000000E+00
  0.00000000E+00  0.00000000E+00  0.00000000E+00
  0.00000000E+00  0.00000000E+00  0.00000000E+00
  0.00000000E+00  0.00000000E+00  0.00000000E+00
  0.00000000E+00  0.00000000E+00  0.00000000E+00
  0.00000000E+00  0.00000000E+00  0.00000000E+00
  0.00000000E+00  0.00000000E+00  0.00000000E+00
  0.00000000E+00  0.00000000E+00  0.00000000E+00
  0.00000000E+00  0.00000000E+00  0.00000000E+00
  0.00000000E+00  0.00000000E+00  0.00000000E+00
  0.00000000E+00  0.00000000E+00  0.00000000E+00
  0.00000000E+00  0.00000000E+00  0.00000000E+00
  0.00000000E+00  0.00000000E+00  0.00000000E+00
  0.00000000E+00  0.00000000E+00  0.00000000E+00
  0.00000000E+00  0.00000000E+00  0.00000000E+00
  0.00000000E+00  0.00000000E+00  0.00000000E+00
  0.00000000E+00  0.00000000E+00  0.00000000E+00
  0.00000000E+00  0.00000000E+00  0.00000000E+00
  0.00000000E+00  0.00000000E+00  0.00000000E+00
  0.00000000E+00  0.00000000E+00  0.00000000E+00
  0.00000000E+00  0.00000000E+00  0.00000000E+00
  0.00000000E+00  0.00000000E+00  0.00000000E+00
  0.00000000E+00  0.00000000E+00  0.00000000E+00
  0.00000000E+00  0.00000000E+00  0.00000000E+00
  0.00000000E+00  0.00000000E+00  0.00000000E+00
  0.00000000E+00  0.00000000E+00  0.00000000E+00
  0.00000000E+00  0.00000000E+00  0.00000000E+00
  0.00000000E+00  0.00000000E+00  0.00000000E+00
  0.00000000E+00  0.00000000E+00  0.00000000E+00
  0.00000000E+00  0.00000000E+00  0.00000000E+00
  0.00000000E+00  0.00000000E+00  0.00000000E+00
  0.00000000E+00  0.00000000E+00  0.00000000E+00
  0.00000000E+00  0.00000000E+00  0.00000000E+00
  0.00000000E+00  0.00000000E+00  0.00000000E+00
  0.00000000E+00  0.00000000E+00  0.00000000E+00
  0.00000000E+00  0.00000000E+00  0.00000000E+00
  0.00000000E+00  0.00000000E+00  0.00000000E+00
  0.00000000E+00  0.00000000E+00  0.00000000E+00
  0.00000000E+00  0.00000000E+00  0.00000000E+00
  0.00000000E+00  0.00000000E+00  0.00000000E+00
  0.00000000E+00  0.00000000E+00  0.00000000E+00
  0.00000000E+00  0.00000000E+00  0.00000000E+00
  0.00000000E+00  0.00000000E+00  0.00000000E+00
  0.00000000E+00  0.00000000E+00  0.00000000E+00
  0.00000000E+00  0.00000000E+00  0.00000000E+00
  0.00000000E+00  0.00000000E+00  0.00000000E+00
  0.00000000E+00  0.00000000E+00  0.00000000E+00
  0.00000000E+00  0.00000000E+00  0.00000000E+00
  0.00000000E+00  0.00000000E+00  0.00000000E+00
  0.00000000E+00  0.00000000E+00  0.00000000E+00
  0.00000000E+00  0.00000000E+00  0.00000000E+00
  0.00000000E+00  0.00000000E+00  0.00000000E+00
  0.00000000E+00  0.00000000E+00  0.00000000E+00
  0.00000000E+00  0.00000000E+00  0.00000000E+00
  0.00000000E+00  0.00000000E+00  0.00000000E+00
  0.00000000E+00  0.00000000E+00  0.00000000E+00
  0.00000000E+00  0.00000000E+00  0.00000000E+00
  0.00000000E+00  0.00000000E+00  0.00000000E+00
  0.00000000E+00  0.00000000E+00  0.00000000E+00
  0.00000000E+00  0.00000000E+00  0.00000000E+00
  0.00000000E+00  0.00000000E+00  0.00000000E+00
  0.00000000E+00  0.00000000E+00  0.00000000E+00
  0.00000000E+00  0.00000000E+00  0.00000000E+00
  0.00000000E+00  0.00000000E+00  0.00000000E+00
  0.00000000E+00  0.00000000E+00  0.00000000E+00
  0.00000000E+00  0.00000000E+00  0.00000000E+00
  0.00000000E+00  0.00000000E+00  0.00000000E+00
  0.00000000E+00  0.00000000E+00  0.00000000E+00
  0.00000000E+00  0.00000000E+00  0.00000000E+00
  0.00000000E+00  0.00000000E+00  0.00000000E+00
  0.00000000E+00  0.00000000E+00  0.00000000E+00
  0.00000000E+00  0.00000000E+00  0.00000000E+00
  0.00000000E+00  0.00000000E+00  0.00000000E+00
  0.00000000E+00  0.00000000E+00  0.00000000E+00
  0.00000000E+00  0.00000000E+00  0.00000000E+00
  0.00000000E+00  0.00000000E+00  0.00000000E+00
  0.00000000E+00  0.00000000E+00  0.00000000E+00
  0.00000000E+00  0.00000000E+00  0.00000000E+00
  0.00000000E+00  0.00000000E+00  0.00000000E+00
  0.00000000E+00  0.00000000E+00  0.00000000E+00
  0.00000000E+00  0.00000000E+00  0.00000000E+00
  0.00000000E+00  0.00000000E+00  0.00000000E+00
  0.00000000E+00  0.00000000E+00  0.00000000E+00
  0.00000000E+00  0.00000000E+00  0.00000000E+00
  0.00000000E+00  0.00000000E+00  0.00000000E+00
  0.00000000E+00  0.00000000E+00  0.00000000E+00
  0.00000000E+00  0.00000000E+00  0.00000000E+00
  0.00000000E+00  0.00000000E+00  0.00000000E+00
  0.00000000E+00  0.00000000E+00  0.00000000E+00
  0.00000000E+00  0.00000000E+00  0.00000000E+00
  0.00000000E+00  0.00000000E+00  0.00000000E+00
  0.00000000E+00  0.00000000E+00  0.00000000E+00
  0.00000000E+00  0.00000000E+00  0.00000000E+00
  0.00000000E+00  0.00000000E+00  0.00000000E+00
  0.00000000E+00  0.00000000E+00  0.00000000E+00
  0.00000000E+00  0.00000000E+00  0.00000000E+00
  0.00000000E+00  0.00000000E+00  0.00000000E+00
  0.00000000E+00  0.00000000E+00  0.00000000E+00
  0.00000000E+00  0.00000000E+00  0.00000000E+00
  0.00000000E+00  0.00000000E+00  0.00000000E+00
  0.00000000E+00  0.00000000E+00  0.00000000E+00
  0.00000000E+00  0.00000000E+00  0.00000000E+00
  0.00000000E+00  0.00000000E+00  0.00000000E+00
  0.00000000E+00  0.00000000E+00  0.00000000E+00
  0.00000000E+00  0.00000000E+00  0.00000000E+00
  0.00000000E+00  0.00000000E+00  0.00000000E+00
  0.00000000E+00  0.00000000E+00  0.00000000E+00
  0.00000000E+00  0.00000000E+00  0.00000000E+00
