H1 Ir1 C124 N2 O1                       
   1.00000000000000     
    19.8134431509074993   -0.0479211603085613   -0.1887700004816369
    -9.9489116058443763   17.0495961627800448    0.1486308562237201
    -0.2835914605957405    0.0941718812363426   29.8321826982227698
   H    Ir   C    N    O 
     1     1   124     2     1
Direct
  0.4495516803228661  0.5497201879120359  0.5030600775015164
  0.4390961258912130  0.5001281528067543  0.4250888051389020
  0.0428891792627305  0.0848166125061291  0.3996346144846354
  0.0425454363390705  0.2091097389304546  0.3986922370219556
  0.0416087492422465  0.3334242221328440  0.3983921630457951
  0.0408479771234246  0.4584707066728821  0.3990164141101590
  0.0410207298595361  0.5838219204335829  0.3997082510466046
  0.0414547346980439  0.7091474783359066  0.3998243021371350
  0.0418188508720981  0.8343745796058486  0.3999214673580107
  0.0423645657472075  0.9597179921089896  0.4000841174133072
  0.1686222500040844  0.0862642471914754  0.3998302169781908
  0.1695700595911770  0.2119451764664284  0.3991222957248025
  0.1677463893777399  0.3354796683780750  0.3976090328386894
  0.1649274256474200  0.4594035620618071  0.3984939240002314
  0.1648343321665821  0.5842788767997902  0.3990636092422854
  0.1657428553698070  0.7093676962411354  0.3996754564764387
  0.1665299563295942  0.8346260605494614  0.3998847790899044
  0.1673408819114070  0.9601656069531083  0.3999869538722830
  0.2928954205101580  0.0856298534456962  0.4001605901826119
  0.2953585304790764  0.2132087058608860  0.4014337987015765
  0.2970456167278514  0.3405632588128123  0.3998895401010139
  0.2897257214075628  0.4619849616034065  0.3998988215553843
  0.2882844048587452  0.5853610412836326  0.4014222126984481
  0.2899679865312807  0.7095725175730460  0.4005807668825133
  0.2911338514275338  0.8343992012256054  0.3996822993652472
  0.2918907187872847  0.9596758713021637  0.3996290527281262
  0.4172411413876780  0.0837511135233737  0.3996500165035147
  0.4183855787317021  0.2095135019588031  0.4010293022480694
  0.4227097841511826  0.3372303895824443  0.4064952367180883
  0.4139960203899544  0.7071327153938198  0.4033156578021932
  0.4157072396250785  0.8328127538604461  0.4003118494526280
  0.4164731949941012  0.9582512214773787  0.3994488746934544
  0.5418040449105257  0.0820987190687835  0.3994571649691002
  0.5426778596304376  0.2072012179051092  0.4000737942534344
  0.5443965040973985  0.3318517822115783  0.4015881522522501
  0.5463651202541824  0.4549548634003992  0.4032812974140900
  0.5404357781352483  0.5750032660024373  0.3989595719985493
  0.5371506186871201  0.7021319236444798  0.4034726933329749
  0.5400309683648989  0.8304967953347434  0.4015084381185492
  0.5410927531681544  0.9566330194989404  0.3997953111085301
  0.6664597301209818  0.0815447297025559  0.3995942768307927
  0.6672110122774730  0.2068461677060511  0.3996242461049385
  0.6682711189667249  0.3320297186404175  0.3994810422413172
  0.6695927946507444  0.4571852256591021  0.3982865738861687
  0.6681703084574996  0.5811681852324148  0.3969657335266373
  0.6633028639799420  0.7038217803737837  0.3980689599510868
  0.6640198813962676  0.8295156937989357  0.4002125384011831
  0.6656480147299563  0.9559556616443472  0.4000680015269813
  0.7913132437601706  0.0817099208295980  0.3999000269975881
  0.7918352568353756  0.2069458137432805  0.3998644060592036
  0.7924311521022623  0.3322583804262376  0.3996206341902472
  0.7930954483012536  0.4576705625841039  0.3989398251627408
  0.7929675565480727  0.5828966115249133  0.3981293409191288
  0.7911237008905291  0.7072648933074056  0.3977838268795176
  0.7899832719726201  0.8312084622183008  0.3991828804289300
  0.7904844115668970  0.9562954194471046  0.3999068943689904
  0.9166940538968551  0.0827749304218723  0.3998930003678943
  0.9167863579871789  0.2075818704521461  0.3995939575941309
  0.9167683353269120  0.3326398403624440  0.3996756441503652
  0.9169044267628844  0.4579864547021107  0.3998023629100730
  0.9171006155336233  0.5834405289230549  0.3994899782140495
  0.9167582712944857  0.7086267786258077  0.3991287542681760
  0.9164768658798474  0.8334184955283254  0.3995215205042254
  0.9164269909482032  0.9580202147303866  0.3999839117299411
  0.0847786362745793  0.0436844782107516  0.3998396810238192
  0.0853086734832054  0.1687803243694656  0.3990276872452395
  0.0840897414695967  0.2926968102475425  0.3979169955490667
  0.0822050591525544  0.4169518578180785  0.3983993848890103
  0.0820127097264473  0.5420504947974667  0.3991580171013922
  0.0826231188779357  0.6674085851875685  0.3997595132938003
  0.0832410464378202  0.7927728849405166  0.3999132940138032
  0.0838302901574681  0.9181329827300515  0.4000652910202020
  0.2095023542022434  0.0439582436351086  0.3999987186409775
  0.2112944755856722  0.1705110335691374  0.3999281548585776
  0.2120027841974943  0.2962355846781207  0.3985381310826624
  0.2071347228925018  0.4188356784852886  0.3983051450329677
  0.2056288949542606  0.5426648928284394  0.3990584343429572
  0.2068237694817851  0.6677213470031181  0.3996900719493023
  0.2077940519913580  0.7928795664150173  0.3997551166025986
  0.2085623332980929  0.9182397004170766  0.3998764945790316
  0.3339072108377516  0.0432074284019848  0.3997398160275615
  0.3352094651345532  0.1694510236943014  0.4010508299946417
  0.3384491917088855  0.2978973676111609  0.4032880221001324
  0.3355342089013277  0.4253168430380705  0.3991263538487704
  0.3292483199986554  0.5449427566167674  0.4045478351713965
  0.3309180420908815  0.6679932308058544  0.4022151416342878
  0.3323948377464527  0.7926002024347695  0.4001705589454607
  0.3331771258372188  0.9177070127112824  0.3995171771247977
  0.4584874141595824  0.0415736693142874  0.3994418109549417
  0.4593722430760864  0.1670650576654545  0.4000941527737527
  0.4613780483136708  0.2928225919724618  0.4027133249378791
  0.4530142871362703  0.6627699597230777  0.4070300993275078
  0.4568336846692347  0.7904216546294448  0.4014803543902388
  0.4577551542042134  0.9161033150946054  0.3997283216629144
  0.5831171375920632  0.0401464922853582  0.3994909379325789
  0.5838823556180714  0.1653759369648431  0.3996351577486407
  0.5851675675647605  0.2902328474031450  0.4003434091014603
  0.5870211901085814  0.4144946870545496  0.4003326824366705
  0.5856916653638354  0.5379006668632802  0.3984189396848922
  0.5783198475024477  0.6596009507719429  0.3994163902219465
  0.5800385170579534  0.7868303460565355  0.4018143540677175
  0.5822189794879968  0.9142727227177591  0.4004059051831712
  0.7077721549347297  0.0396828150530186  0.3997753922400829
  0.7085151931488980  0.1651327301324142  0.3996845011915665
  0.7093078777031447  0.2903597774076700  0.3995241626274933
  0.7102872023243176  0.4154954207255245  0.3987413229518147
  0.7102613151380663  0.5404661928625817  0.3976535586678888
  0.7075017800894672  0.6645495427806783  0.3969495881083315
  0.7057214901595494  0.7880902688151136  0.3991887482938116
  0.7066381217069667  0.9137521673590393  0.4000200884184952
  0.8328799286992973  0.0402225166548222  0.3999939101450100
  0.8333389557592312  0.1654369883084326  0.3998859316713165
  0.8336363733776199  0.2905409629112387  0.3998558998037049
  0.8340585629843699  0.4158478616554186  0.3995363885672818
  0.8342580954892833  0.5412681422619625  0.3988573024081432
  0.8335488577726530  0.6664341680038989  0.3982652201679290
  0.8327055265891363  0.7908477195834906  0.3987929116909557
  0.8323929751312180  0.9151655535273994  0.3997769048029969
  0.9588594290622492  0.0419300036263930  0.3999158138113668
  0.9587863944518644  0.1665005429459837  0.3994437383444001
  0.9583957021350806  0.2911808304382573  0.3992583606617848
  0.9580081365696088  0.4162398425008189  0.3996018175214351
  0.9581800974218927  0.5416443293709395  0.3998204871639888
  0.9583366061325232  0.6670735508218282  0.3995278261723912
  0.9583910703062802  0.7922378228724932  0.3995347362208038
  0.9585679260401745  0.9171541352133513  0.3999927297695755
  0.4082731420285818  0.5827321946621037  0.4126142163700080
  0.4679815087739940  0.4172443732246765  0.4119008686676963
  0.4606366985761363  0.5111827964753524  0.4902743692674723
 
  0.00000000E+00  0.00000000E+00  0.00000000E+00
  0.00000000E+00  0.00000000E+00  0.00000000E+00
  0.00000000E+00  0.00000000E+00  0.00000000E+00
  0.00000000E+00  0.00000000E+00  0.00000000E+00
  0.00000000E+00  0.00000000E+00  0.00000000E+00
  0.00000000E+00  0.00000000E+00  0.00000000E+00
  0.00000000E+00  0.00000000E+00  0.00000000E+00
  0.00000000E+00  0.00000000E+00  0.00000000E+00
  0.00000000E+00  0.00000000E+00  0.00000000E+00
  0.00000000E+00  0.00000000E+00  0.00000000E+00
  0.00000000E+00  0.00000000E+00  0.00000000E+00
  0.00000000E+00  0.00000000E+00  0.00000000E+00
  0.00000000E+00  0.00000000E+00  0.00000000E+00
  0.00000000E+00  0.00000000E+00  0.00000000E+00
  0.00000000E+00  0.00000000E+00  0.00000000E+00
  0.00000000E+00  0.00000000E+00  0.00000000E+00
  0.00000000E+00  0.00000000E+00  0.00000000E+00
  0.00000000E+00  0.00000000E+00  0.00000000E+00
  0.00000000E+00  0.00000000E+00  0.00000000E+00
  0.00000000E+00  0.00000000E+00  0.00000000E+00
  0.00000000E+00  0.00000000E+00  0.00000000E+00
  0.00000000E+00  0.00000000E+00  0.00000000E+00
  0.00000000E+00  0.00000000E+00  0.00000000E+00
  0.00000000E+00  0.00000000E+00  0.00000000E+00
  0.00000000E+00  0.00000000E+00  0.00000000E+00
  0.00000000E+00  0.00000000E+00  0.00000000E+00
  0.00000000E+00  0.00000000E+00  0.00000000E+00
  0.00000000E+00  0.00000000E+00  0.00000000E+00
  0.00000000E+00  0.00000000E+00  0.00000000E+00
  0.00000000E+00  0.00000000E+00  0.00000000E+00
  0.00000000E+00  0.00000000E+00  0.00000000E+00
  0.00000000E+00  0.00000000E+00  0.00000000E+00
  0.00000000E+00  0.00000000E+00  0.00000000E+00
  0.00000000E+00  0.00000000E+00  0.00000000E+00
  0.00000000E+00  0.00000000E+00  0.00000000E+00
  0.00000000E+00  0.00000000E+00  0.00000000E+00
  0.00000000E+00  0.00000000E+00  0.00000000E+00
  0.00000000E+00  0.00000000E+00  0.00000000E+00
  0.00000000E+00  0.00000000E+00  0.00000000E+00
  0.00000000E+00  0.00000000E+00  0.00000000E+00
  0.00000000E+00  0.00000000E+00  0.00000000E+00
  0.00000000E+00  0.00000000E+00  0.00000000E+00
  0.00000000E+00  0.00000000E+00  0.00000000E+00
  0.00000000E+00  0.00000000E+00  0.00000000E+00
  0.00000000E+00  0.00000000E+00  0.00000000E+00
  0.00000000E+00  0.00000000E+00  0.00000000E+00
  0.00000000E+00  0.00000000E+00  0.00000000E+00
  0.00000000E+00  0.00000000E+00  0.00000000E+00
  0.00000000E+00  0.00000000E+00  0.00000000E+00
  0.00000000E+00  0.00000000E+00  0.00000000E+00
  0.00000000E+00  0.00000000E+00  0.00000000E+00
  0.00000000E+00  0.00000000E+00  0.00000000E+00
  0.00000000E+00  0.00000000E+00  0.00000000E+00
  0.00000000E+00  0.00000000E+00  0.00000000E+00
  0.00000000E+00  0.00000000E+00  0.00000000E+00
  0.00000000E+00  0.00000000E+00  0.00000000E+00
  0.00000000E+00  0.00000000E+00  0.00000000E+00
  0.00000000E+00  0.00000000E+00  0.00000000E+00
  0.00000000E+00  0.00000000E+00  0.00000000E+00
  0.00000000E+00  0.00000000E+00  0.00000000E+00
  0.00000000E+00  0.00000000E+00  0.00000000E+00
  0.00000000E+00  0.00000000E+00  0.00000000E+00
  0.00000000E+00  0.00000000E+00  0.00000000E+00
  0.00000000E+00  0.00000000E+00  0.00000000E+00
  0.00000000E+00  0.00000000E+00  0.00000000E+00
  0.00000000E+00  0.00000000E+00  0.00000000E+00
  0.00000000E+00  0.00000000E+00  0.00000000E+00
  0.00000000E+00  0.00000000E+00  0.00000000E+00
  0.00000000E+00  0.00000000E+00  0.00000000E+00
  0.00000000E+00  0.00000000E+00  0.00000000E+00
  0.00000000E+00  0.00000000E+00  0.00000000E+00
  0.00000000E+00  0.00000000E+00  0.00000000E+00
  0.00000000E+00  0.00000000E+00  0.00000000E+00
  0.00000000E+00  0.00000000E+00  0.00000000E+00
  0.00000000E+00  0.00000000E+00  0.00000000E+00
  0.00000000E+00  0.00000000E+00  0.00000000E+00
  0.00000000E+00  0.00000000E+00  0.00000000E+00
  0.00000000E+00  0.00000000E+00  0.00000000E+00
  0.00000000E+00  0.00000000E+00  0.00000000E+00
  0.00000000E+00  0.00000000E+00  0.00000000E+00
  0.00000000E+00  0.00000000E+00  0.00000000E+00
  0.00000000E+00  0.00000000E+00  0.00000000E+00
  0.00000000E+00  0.00000000E+00  0.00000000E+00
  0.00000000E+00  0.00000000E+00  0.00000000E+00
  0.00000000E+00  0.00000000E+00  0.00000000E+00
  0.00000000E+00  0.00000000E+00  0.00000000E+00
  0.00000000E+00  0.00000000E+00  0.00000000E+00
  0.00000000E+00  0.00000000E+00  0.00000000E+00
  0.00000000E+00  0.00000000E+00  0.00000000E+00
  0.00000000E+00  0.00000000E+00  0.00000000E+00
  0.00000000E+00  0.00000000E+00  0.00000000E+00
  0.00000000E+00  0.00000000E+00  0.00000000E+00
  0.00000000E+00  0.00000000E+00  0.00000000E+00
  0.00000000E+00  0.00000000E+00  0.00000000E+00
  0.00000000E+00  0.00000000E+00  0.00000000E+00
  0.00000000E+00  0.00000000E+00  0.00000000E+00
  0.00000000E+00  0.00000000E+00  0.00000000E+00
  0.00000000E+00  0.00000000E+00  0.00000000E+00
  0.00000000E+00  0.00000000E+00  0.00000000E+00
  0.00000000E+00  0.00000000E+00  0.00000000E+00
  0.00000000E+00  0.00000000E+00  0.00000000E+00
  0.00000000E+00  0.00000000E+00  0.00000000E+00
  0.00000000E+00  0.00000000E+00  0.00000000E+00
  0.00000000E+00  0.00000000E+00  0.00000000E+00
  0.00000000E+00  0.00000000E+00  0.00000000E+00
  0.00000000E+00  0.00000000E+00  0.00000000E+00
  0.00000000E+00  0.00000000E+00  0.00000000E+00
  0.00000000E+00  0.00000000E+00  0.00000000E+00
  0.00000000E+00  0.00000000E+00  0.00000000E+00
  0.00000000E+00  0.00000000E+00  0.00000000E+00
  0.00000000E+00  0.00000000E+00  0.00000000E+00
  0.00000000E+00  0.00000000E+00  0.00000000E+00
  0.00000000E+00  0.00000000E+00  0.00000000E+00
  0.00000000E+00  0.00000000E+00  0.00000000E+00
  0.00000000E+00  0.00000000E+00  0.00000000E+00
  0.00000000E+00  0.00000000E+00  0.00000000E+00
  0.00000000E+00  0.00000000E+00  0.00000000E+00
  0.00000000E+00  0.00000000E+00  0.00000000E+00
  0.00000000E+00  0.00000000E+00  0.00000000E+00
  0.00000000E+00  0.00000000E+00  0.00000000E+00
  0.00000000E+00  0.00000000E+00  0.00000000E+00
  0.00000000E+00  0.00000000E+00  0.00000000E+00
  0.00000000E+00  0.00000000E+00  0.00000000E+00
  0.00000000E+00  0.00000000E+00  0.00000000E+00
  0.00000000E+00  0.00000000E+00  0.00000000E+00
  0.00000000E+00  0.00000000E+00  0.00000000E+00
  0.00000000E+00  0.00000000E+00  0.00000000E+00
  0.00000000E+00  0.00000000E+00  0.00000000E+00
  0.00000000E+00  0.00000000E+00  0.00000000E+00
