Nb1 H1 C125 N1                          
   1.00000000000000     
    19.8021724905561030   -0.0092270477428410    0.0030396160666791
    -9.9091317880085246   17.0763457202445004   -0.1339450969281058
     0.0045225578112196   -0.2307438984517803   29.7671923632217599
   Nb   H    C    N 
     1     1   125     1
Direct
  0.4406788399911308  0.5018075668119805  0.4327165859433749
  0.4465053693389008  0.4998132624149254  0.4933523099525567
  0.0418944877794577  0.0840143852662928  0.3995445672496307
  0.0414031354626211  0.2085119924841775  0.3995970692219373
  0.0409687960628504  0.3331919923861227  0.3997107504871728
  0.0409707292769529  0.4584415270254691  0.3996138463917044
  0.0414830935260158  0.5838286169984594  0.3997531888989226
  0.0419644490379186  0.7090905334988860  0.3998841615491573
  0.0421718672287095  0.8342885742347014  0.3999853002932643
  0.0421761814792549  0.9593005256298609  0.3997585894111909
  0.1673602627454606  0.0848111995902237  0.3995756477355124
  0.1671554167536785  0.2096747557450912  0.3998404793221916
  0.1662797455737532  0.3341245978122473  0.4006185991940909
  0.1650876306295887  0.4586724001391980  0.4003973177491562
  0.1655635275168540  0.5837880809888751  0.3997225972918260
  0.1663795288717357  0.7090300289121028  0.3997972726721004
  0.1669117807130851  0.8343044145404171  0.3999415631832287
  0.1672348295580421  0.9595860445833163  0.3997912300575998
  0.2923476489198228  0.0847314977614272  0.3995944300330382
  0.2928822395583099  0.2107144371050034  0.4004754802522904
  0.2927497230724818  0.3363222857908572  0.4023096150490872
  0.2898449430345055  0.4595199766768467  0.4029351293698845
  0.2894701676325121  0.5843508128037831  0.4007701752442702
  0.2908530158760909  0.7090954844596891  0.3997507392708269
  0.2915808978906710  0.8340748945470180  0.3997910013054612
  0.2919468617715640  0.9592599914459267  0.3997442466924592
  0.4170227746406350  0.0837528101277723  0.3995874710684936
  0.4174097512849330  0.2091205192707825  0.3998335461995630
  0.4184790916151786  0.3353558843000470  0.4017841291017269
  0.4151771765969371  0.7075152272913103  0.3998627906283047
  0.4161922135168156  0.8330557807363519  0.3995436718703209
  0.4166601512858472  0.9584318139599560  0.3997523629571101
  0.5416774546907031  0.0827935457792866  0.3997804465507583
  0.5421336289400004  0.2079836474730647  0.3997572183584227
  0.5428488059790896  0.3330654691439686  0.4006321646434357
  0.5449195635690421  0.4575945248019465  0.4019582240843366
  0.5448964679683105  0.5818937238555952  0.4013742242589937
  0.5390487542488414  0.7049022616150957  0.4004991694816717
  0.5407018490390783  0.8318179083433753  0.3996287137482655
  0.5413257318735125  0.9574739490320148  0.3997749357992521
  0.6663809462987662  0.0824334058810005  0.3999253683174752
  0.6667624439801438  0.2076362489912123  0.3998598758485348
  0.6673613806545702  0.3328133926685137  0.4000164271348255
  0.6688510164585860  0.4581960285121034  0.4006138375299619
  0.6696150234627470  0.5836563970532892  0.4002630621350141
  0.6665166853255279  0.7072608729323918  0.3990937361795212
  0.6652704454789191  0.8314655911033866  0.3994921747573801
  0.6659543853977967  0.9571188134718464  0.3998576704582302
  0.7911578460186039  0.0824715417605967  0.3999546267996423
  0.7914244075224403  0.2076436437502930  0.3999987564611947
  0.7919046691253155  0.3329304795339865  0.3998569883661228
  0.7926927406776194  0.4583039159466938  0.3999299594215915
  0.7932132739648624  0.5835690617597566  0.4000101459560728
  0.7926902614924844  0.7087703066589908  0.3997310376245921
  0.7914288316174813  0.8329062532877944  0.3996168103053020
  0.7908971141057933  0.9573279725547470  0.3998494994308654
  0.9162741357954698  0.0829726258624621  0.3997713745727330
  0.9162060770954775  0.2078479038279882  0.3997749315527107
  0.9163661545165066  0.3330295115868657  0.3997568414553183
  0.9168007782583049  0.4583639862803003  0.3997785178927457
  0.9173721030170000  0.5837774280347119  0.3998890343616873
  0.9173863458392049  0.7089972172668901  0.3999540206049663
  0.9171751790272923  0.8339327987279938  0.3999358663081318
  0.9166585390800482  0.9584626953938412  0.3998573417487477
  0.0839109546002670  0.0427813437037651  0.3995435508792494
  0.0836029762462933  0.1674727701336776  0.3995468539449904
  0.0828448772459772  0.2918948217124911  0.3998696951733279
  0.0822254215653392  0.4167066542958479  0.3997539273997875
  0.0825838659080240  0.5419585197679047  0.3996400794987603
  0.0832277966173641  0.6672942416592115  0.3998227841529086
  0.0836819712763399  0.7926178796753456  0.3999427467173301
  0.0838690517164605  0.9177470847821874  0.3998874319958234
  0.2089397403388447  0.0429825177814280  0.3996118898105723
  0.2090928945591433  0.1683269873674544  0.3999251047672357
  0.2088494905380180  0.2933149144923859  0.4005808474006552
  0.2067287952726146  0.4174982453023248  0.4013652274606030
  0.2064735343162983  0.5420153748075166  0.4002546185581325
  0.2076104503929752  0.6673166095833230  0.3997332987218002
  0.2083139364180625  0.7925352330897274  0.3998747757721626
  0.2087221008979385  0.9177616681054894  0.3998730028803925
  0.3337352736009697  0.0426879236327703  0.3995882308199576
  0.3341615898425502  0.1681656102362963  0.3998822404250716
  0.3345865022662038  0.2940137312339024  0.4018768309617377
  0.3319337611686873  0.4192092179913547  0.4048882448050572
  0.3310132484195487  0.5440676802973996  0.4024574950553920
  0.3320078300555382  0.6674672980638472  0.4000859663783147
  0.3330028136608852  0.7923149474712730  0.3996688151577845
  0.3334141521160942  0.9173898364618426  0.3997675638532067
  0.4584954797760871  0.0417721166252765  0.3997250918383590
  0.4588515460421972  0.1670672502157670  0.3996260301965257
  0.4594828142578156  0.2925396237439680  0.4004001407040655
  0.4627754289903654  0.4179448170085744  0.4038387366668489
  0.4551201397229580  0.6639512719283200  0.4012899635832994
  0.4575972958412682  0.7909435629843908  0.3994308186974941
  0.4580699386508123  0.9164196980868273  0.3996941832131724
  0.5831504250764810  0.0409098652916644  0.3998471586206895
  0.5835496031170966  0.1661724152372171  0.3997609713434825
  0.5841602387553712  0.2912232938903858  0.4000941763503499
  0.5859471440757523  0.4162220434556491  0.4012640226907037
  0.5872890267317730  0.5421753865769313  0.4007987916539114
  0.5823753800959021  0.6639615546607911  0.4000052412716799
  0.5812869479459596  0.7888462537262989  0.3997260769757865
  0.5826812894477700  0.9154152964342549  0.3997619267346194
  0.7078121072648159  0.0405983894069058  0.3999314375381443
  0.7082272002469155  0.1658950252773606  0.3999605367835919
  0.7086588401875938  0.2910962686396379  0.3998655796330701
  0.7097053754062613  0.4164285481247372  0.4001160171896587
  0.7106162149213812  0.5417378174855702  0.4003820776255215
  0.7094472082118565  0.6668208282035605  0.3995392677796068
  0.7078214467423501  0.7906616543800875  0.3992449101982821
  0.7072567993643532  0.9150911733188947  0.3997513599797111
  0.8327827407336527  0.0408955305206489  0.3998981546184792
  0.8329168180632348  0.1659549059858857  0.3999577978072628
  0.8332316018484744  0.2911768754580515  0.3998947227295335
  0.8337885479610845  0.4164386402420117  0.3998388506044794
  0.8344063558904661  0.5418223526804375  0.3999409791393353
  0.8343500129988709  0.6672088299823130  0.3999221178115172
  0.8338219489016572  0.7919730170248438  0.3997623232936126
  0.8330800047556914  0.9163044243615552  0.3998279350249183
  0.9583611513953851  0.0418807312051225  0.3997340648963039
  0.9580004196424377  0.1664559313497995  0.3996487478789199
  0.9578305719939754  0.2913208293600216  0.3996802401492663
  0.9579441945758848  0.4165244080507975  0.3996888574958716
  0.9585165085996815  0.5419560628984442  0.3998203387127466
  0.9588766644699611  0.6672819450263276  0.3999093546750092
  0.9589159583380230  0.7924711416973589  0.3999787916416743
  0.9587579991648422  0.9173274295350916  0.3998754502857138
  0.4113802119912059  0.5832616400383157  0.4042826655805918
 
  0.00000000E+00  0.00000000E+00  0.00000000E+00
  0.00000000E+00  0.00000000E+00  0.00000000E+00
  0.00000000E+00  0.00000000E+00  0.00000000E+00
  0.00000000E+00  0.00000000E+00  0.00000000E+00
  0.00000000E+00  0.00000000E+00  0.00000000E+00
  0.00000000E+00  0.00000000E+00  0.00000000E+00
  0.00000000E+00  0.00000000E+00  0.00000000E+00
  0.00000000E+00  0.00000000E+00  0.00000000E+00
  0.00000000E+00  0.00000000E+00  0.00000000E+00
  0.00000000E+00  0.00000000E+00  0.00000000E+00
  0.00000000E+00  0.00000000E+00  0.00000000E+00
  0.00000000E+00  0.00000000E+00  0.00000000E+00
  0.00000000E+00  0.00000000E+00  0.00000000E+00
  0.00000000E+00  0.00000000E+00  0.00000000E+00
  0.00000000E+00  0.00000000E+00  0.00000000E+00
  0.00000000E+00  0.00000000E+00  0.00000000E+00
  0.00000000E+00  0.00000000E+00  0.00000000E+00
  0.00000000E+00  0.00000000E+00  0.00000000E+00
  0.00000000E+00  0.00000000E+00  0.00000000E+00
  0.00000000E+00  0.00000000E+00  0.00000000E+00
  0.00000000E+00  0.00000000E+00  0.00000000E+00
  0.00000000E+00  0.00000000E+00  0.00000000E+00
  0.00000000E+00  0.00000000E+00  0.00000000E+00
  0.00000000E+00  0.00000000E+00  0.00000000E+00
  0.00000000E+00  0.00000000E+00  0.00000000E+00
  0.00000000E+00  0.00000000E+00  0.00000000E+00
  0.00000000E+00  0.00000000E+00  0.00000000E+00
  0.00000000E+00  0.00000000E+00  0.00000000E+00
  0.00000000E+00  0.00000000E+00  0.00000000E+00
  0.00000000E+00  0.00000000E+00  0.00000000E+00
  0.00000000E+00  0.00000000E+00  0.00000000E+00
  0.00000000E+00  0.00000000E+00  0.00000000E+00
  0.00000000E+00  0.00000000E+00  0.00000000E+00
  0.00000000E+00  0.00000000E+00  0.00000000E+00
  0.00000000E+00  0.00000000E+00  0.00000000E+00
  0.00000000E+00  0.00000000E+00  0.00000000E+00
  0.00000000E+00  0.00000000E+00  0.00000000E+00
  0.00000000E+00  0.00000000E+00  0.00000000E+00
  0.00000000E+00  0.00000000E+00  0.00000000E+00
  0.00000000E+00  0.00000000E+00  0.00000000E+00
  0.00000000E+00  0.00000000E+00  0.00000000E+00
  0.00000000E+00  0.00000000E+00  0.00000000E+00
  0.00000000E+00  0.00000000E+00  0.00000000E+00
  0.00000000E+00  0.00000000E+00  0.00000000E+00
  0.00000000E+00  0.00000000E+00  0.00000000E+00
  0.00000000E+00  0.00000000E+00  0.00000000E+00
  0.00000000E+00  0.00000000E+00  0.00000000E+00
  0.00000000E+00  0.00000000E+00  0.00000000E+00
  0.00000000E+00  0.00000000E+00  0.00000000E+00
  0.00000000E+00  0.00000000E+00  0.00000000E+00
  0.00000000E+00  0.00000000E+00  0.00000000E+00
  0.00000000E+00  0.00000000E+00  0.00000000E+00
  0.00000000E+00  0.00000000E+00  0.00000000E+00
  0.00000000E+00  0.00000000E+00  0.00000000E+00
  0.00000000E+00  0.00000000E+00  0.00000000E+00
  0.00000000E+00  0.00000000E+00  0.00000000E+00
  0.00000000E+00  0.00000000E+00  0.00000000E+00
  0.00000000E+00  0.00000000E+00  0.00000000E+00
  0.00000000E+00  0.00000000E+00  0.00000000E+00
  0.00000000E+00  0.00000000E+00  0.00000000E+00
  0.00000000E+00  0.00000000E+00  0.00000000E+00
  0.00000000E+00  0.00000000E+00  0.00000000E+00
  0.00000000E+00  0.00000000E+00  0.00000000E+00
  0.00000000E+00  0.00000000E+00  0.00000000E+00
  0.00000000E+00  0.00000000E+00  0.00000000E+00
  0.00000000E+00  0.00000000E+00  0.00000000E+00
  0.00000000E+00  0.00000000E+00  0.00000000E+00
  0.00000000E+00  0.00000000E+00  0.00000000E+00
  0.00000000E+00  0.00000000E+00  0.00000000E+00
  0.00000000E+00  0.00000000E+00  0.00000000E+00
  0.00000000E+00  0.00000000E+00  0.00000000E+00
  0.00000000E+00  0.00000000E+00  0.00000000E+00
  0.00000000E+00  0.00000000E+00  0.00000000E+00
  0.00000000E+00  0.00000000E+00  0.00000000E+00
  0.00000000E+00  0.00000000E+00  0.00000000E+00
  0.00000000E+00  0.00000000E+00  0.00000000E+00
  0.00000000E+00  0.00000000E+00  0.00000000E+00
  0.00000000E+00  0.00000000E+00  0.00000000E+00
  0.00000000E+00  0.00000000E+00  0.00000000E+00
  0.00000000E+00  0.00000000E+00  0.00000000E+00
  0.00000000E+00  0.00000000E+00  0.00000000E+00
  0.00000000E+00  0.00000000E+00  0.00000000E+00
  0.00000000E+00  0.00000000E+00  0.00000000E+00
  0.00000000E+00  0.00000000E+00  0.00000000E+00
  0.00000000E+00  0.00000000E+00  0.00000000E+00
  0.00000000E+00  0.00000000E+00  0.00000000E+00
  0.00000000E+00  0.00000000E+00  0.00000000E+00
  0.00000000E+00  0.00000000E+00  0.00000000E+00
  0.00000000E+00  0.00000000E+00  0.00000000E+00
  0.00000000E+00  0.00000000E+00  0.00000000E+00
  0.00000000E+00  0.00000000E+00  0.00000000E+00
  0.00000000E+00  0.00000000E+00  0.00000000E+00
  0.00000000E+00  0.00000000E+00  0.00000000E+00
  0.00000000E+00  0.00000000E+00  0.00000000E+00
  0.00000000E+00  0.00000000E+00  0.00000000E+00
  0.00000000E+00  0.00000000E+00  0.00000000E+00
  0.00000000E+00  0.00000000E+00  0.00000000E+00
  0.00000000E+00  0.00000000E+00  0.00000000E+00
  0.00000000E+00  0.00000000E+00  0.00000000E+00
  0.00000000E+00  0.00000000E+00  0.00000000E+00
  0.00000000E+00  0.00000000E+00  0.00000000E+00
  0.00000000E+00  0.00000000E+00  0.00000000E+00
  0.00000000E+00  0.00000000E+00  0.00000000E+00
  0.00000000E+00  0.00000000E+00  0.00000000E+00
  0.00000000E+00  0.00000000E+00  0.00000000E+00
  0.00000000E+00  0.00000000E+00  0.00000000E+00
  0.00000000E+00  0.00000000E+00  0.00000000E+00
  0.00000000E+00  0.00000000E+00  0.00000000E+00
  0.00000000E+00  0.00000000E+00  0.00000000E+00
  0.00000000E+00  0.00000000E+00  0.00000000E+00
  0.00000000E+00  0.00000000E+00  0.00000000E+00
  0.00000000E+00  0.00000000E+00  0.00000000E+00
  0.00000000E+00  0.00000000E+00  0.00000000E+00
  0.00000000E+00  0.00000000E+00  0.00000000E+00
  0.00000000E+00  0.00000000E+00  0.00000000E+00
  0.00000000E+00  0.00000000E+00  0.00000000E+00
  0.00000000E+00  0.00000000E+00  0.00000000E+00
  0.00000000E+00  0.00000000E+00  0.00000000E+00
  0.00000000E+00  0.00000000E+00  0.00000000E+00
  0.00000000E+00  0.00000000E+00  0.00000000E+00
  0.00000000E+00  0.00000000E+00  0.00000000E+00
  0.00000000E+00  0.00000000E+00  0.00000000E+00
  0.00000000E+00  0.00000000E+00  0.00000000E+00
  0.00000000E+00  0.00000000E+00  0.00000000E+00
  0.00000000E+00  0.00000000E+00  0.00000000E+00
  0.00000000E+00  0.00000000E+00  0.00000000E+00
  0.00000000E+00  0.00000000E+00  0.00000000E+00
  0.00000000E+00  0.00000000E+00  0.00000000E+00
