Mn1 C125 N1                             
   1.00000000000000     
    19.8437150281815740   -0.0025821416716033    0.0048637582662476
    -9.9242042207867058   17.0698518839772042   -0.0081579242223100
     0.0073043171702304   -0.0098875161130791   29.7086050561637407
   Mn   C    N 
     1   125     1
Direct
  0.4372179860320795  0.5000756018668960  0.4140008638135907
  0.0416114963446511  0.0836587123997711  0.3995982694671876
  0.0407317843323052  0.2079649930550331  0.3995179499634186
  0.0401686257881427  0.3326907803474572  0.3993691467452654
  0.0402964284419472  0.4582254223591164  0.3993849170834066
  0.0412700525899308  0.5837331479399710  0.3996018038063525
  0.0420578047638176  0.7090716188243616  0.3998078387035008
  0.0423959487087010  0.8343091496608629  0.3998316934720827
  0.0423124396476298  0.9592579220558467  0.3997257126528449
  0.1674414624250643  0.0849246488992724  0.4001301432154724
  0.1664295891518073  0.2090946456409897  0.4003164874440972
  0.1649792279222385  0.3334089262125512  0.4000996213707934
  0.1635852393440749  0.4582562581651349  0.3993447180221857
  0.1648463748981454  0.5836703238725268  0.3992875379035479
  0.1662242484227764  0.7090774757052124  0.3996664200913484
  0.1669398715675004  0.8343454611824886  0.3999115766870046
  0.1673256532890610  0.9596187187524410  0.4000129405796221
  0.2925031687592263  0.0849583650003129  0.4001636901270018
  0.2932227542421127  0.2113501872699980  0.4017014471305029
  0.2910298181103000  0.3357937771951548  0.4039662905689545
  0.2869078456417766  0.4582474036026498  0.4032309827288511
  0.2880487090634299  0.5843518338904988  0.4005607025535489
  0.2904598165118827  0.7092043545350338  0.3996647173286619
  0.2914894574269589  0.8341206035286238  0.3996349673448975
  0.2919008415289718  0.9592772240610651  0.3997470761257713
  0.4170215136244097  0.0837158499718719  0.3995371757224280
  0.4176384728480934  0.2092147283655841  0.4006475441121077
  0.4197939598684878  0.3361432601299377  0.4051451880377874
  0.4146575853441513  0.7074371573910694  0.4014338086733619
  0.4160537772216015  0.8330120225729324  0.3998012648005205
  0.4165777449184851  0.9583613809390547  0.3994818359553657
  0.5416098987785960  0.0825772930896055  0.3995278972332690
  0.5422410251077882  0.2077948751026624  0.3995144910215910
  0.5433775973053432  0.3328694460959934  0.4008046561509631
  0.5470135880307803  0.4575235214634490  0.4052757848948088
  0.5480251991114002  0.5819811139148183  0.4084083957384799
  0.5389299282900847  0.7037737430232985  0.4038277750905979
  0.5404148281356748  0.8312025532692809  0.4007552335995014
  0.5412210409280669  0.9571853378932609  0.3998100254376413
  0.6662299639024757  0.0821501322203106  0.3999093988398429
  0.6667380913816854  0.2073675542184274  0.3996066923410687
  0.6675692947085758  0.3325474767178009  0.3992419908532542
  0.6698606113946702  0.4580857574495208  0.3995283230650166
  0.6714679513420140  0.5840634744876141  0.4008606861609322
  0.6674154966474980  0.7074104073365992  0.4013591483850400
  0.6652371708371471  0.8309321458785207  0.4007492509995907
  0.6657964517417216  0.9567295177646741  0.4001928994975680
  0.7909233978437699  0.0821500782439926  0.3999606834022395
  0.7911643229450426  0.2072755412821917  0.3999047789909259
  0.7918439753427715  0.3326274465269090  0.3995797879576273
  0.7930975688356433  0.4581807107330642  0.3991193584738894
  0.7940809595740124  0.5836563998809988  0.3989188242602221
  0.7934851116799927  0.7090228917668496  0.3992630644208573
  0.7917736190378576  0.8329451684107212  0.3995600287375843
  0.7907569879956745  0.9570415640189899  0.3998382056177944
  0.9159671562274528  0.0825943856229573  0.3996152212737562
  0.9157318369488157  0.2074391487033100  0.3997442425758403
  0.9159443128992839  0.3326648095047413  0.3997216330825598
  0.9166471395844920  0.4581085891394850  0.3995604271514795
  0.9176180071642579  0.5837071173144460  0.3994484390816677
  0.9178480360522256  0.7091371330241653  0.3994117617157670
  0.9175106592926594  0.8339798418185563  0.3994775874121328
  0.9166315642701486  0.9582509234104611  0.3994843945446244
  0.0839452633176464  0.0427516856307590  0.3997929315851816
  0.0830321264222291  0.1669748912159769  0.3996471443058193
  0.0818052851333173  0.2912778226081064  0.3994316381299711
  0.0811856430094344  0.4163515213117470  0.3992074410015939
  0.0820419801119043  0.5417703388031746  0.3993890182914037
  0.0831840084383372  0.6672958542699038  0.3997261164914776
  0.0838460665388662  0.7926883410118640  0.3999019865084538
  0.0840145989075319  0.9177930135729325  0.3998845970405895
  0.2090750280390374  0.0431490004248680  0.4001289134725661
  0.2091135524896378  0.1685573431135927  0.4006342417115794
  0.2075003435421724  0.2925314992254647  0.4011669775490826
  0.2045555163861594  0.4167006655166198  0.4003848499353373
  0.2053049229618299  0.5417880196780835  0.3994329528513940
  0.2073575968269941  0.6673443823997267  0.3994708442462334
  0.2082946816999867  0.7925804473244130  0.3997665417674807
  0.2087829311329885  0.9177891244955928  0.3999302241116828
  0.3337806859337959  0.0427603338203027  0.3997776978332908
  0.3344236613299823  0.1685227564706530  0.4008100018848276
  0.3349002516587201  0.2947628563842400  0.4040564120098735
  0.3278920182497519  0.4179361806527757  0.4060584022421435
  0.3292195667544693  0.5438801043751276  0.4031784707613576
  0.3314631410958657  0.6674140730510398  0.4004411799511987
  0.3328592356422260  0.7923842416700364  0.3996520831048884
  0.3334158973209861  0.9174490280649401  0.3995912980204795
  0.4584727548993285  0.0417231146404577  0.3994476047682459
  0.4589328359605285  0.1670230327420033  0.3997082404624189
  0.4600160129682966  0.2926296630106805  0.4020092228890589
  0.4656983351966842  0.4183527062819024  0.4084771759231680
  0.4538662098465195  0.6631993906515541  0.4038507416054371
  0.4573518439405088  0.7908519625070493  0.4005466578544285
  0.4579939035206052  0.9163442949156785  0.3996163866737445
  0.5830968745248424  0.0406975775691791  0.3997225882213484
  0.5835697494845947  0.1659596707391560  0.3994909417201005
  0.5844925740573993  0.2909722441127249  0.3995714266762239
  0.5871791838370474  0.4159029540222074  0.4013000598039824
  0.5899090056151027  0.5427380994665334  0.4050950679279350
  0.5837434359910418  0.6636280940541689  0.4046525450943620
  0.5809039680574833  0.7877881076416766  0.4016753430751895
  0.5824835548368597  0.9149526593258007  0.4001921656995514
  0.7076395498632942  0.0403007537023768  0.4000490028266594
  0.7081191104761688  0.1656288312351483  0.3998480678634962
  0.7087276049782600  0.2908245216191468  0.3994351202433725
  0.7103125120921043  0.4162593771800699  0.3990417989945868
  0.7118457171945415  0.5418296097394002  0.3993589327888312
  0.7105167586349374  0.6671263978635630  0.4002010082769880
  0.7082574698549143  0.7906863431352558  0.4003267340226110
  0.7071237935169267  0.9146916515087631  0.4002170104142733
  0.8325252302713891  0.0406217930066334  0.3997985714527379
  0.8325669638779876  0.1656296971454887  0.3999169769340253
  0.8330090891035469  0.2908818540732863  0.3998040381200667
  0.8338727882101001  0.4162407290026938  0.3994397361999581
  0.8348990103157885  0.5417277196723006  0.3991131960047048
  0.8349670833827134  0.6673993126055819  0.3991070613671849
  0.8343432603251507  0.7921929975895914  0.3993669167930589
  0.8331532913931596  0.9162279164195812  0.3995617413045672
  0.9581507668158039  0.0416234685057249  0.3995132142665294
  0.9575013722414700  0.1660474244941773  0.3996072880562890
  0.9572390614256600  0.2909050178523408  0.3996436296101334
  0.9575323100817922  0.4162502128476472  0.3996104920180898
  0.9585077507902539  0.5418516411015653  0.3995606472792450
  0.9591373454225973  0.6673310636918943  0.3995762782887064
  0.9592825399770717  0.7925849560391772  0.3995943159911070
  0.9589050158389706  0.9173446584829815  0.3995383436336666
  0.4083518661172974  0.5830208999914898  0.4056523238063321
 
  0.00000000E+00  0.00000000E+00  0.00000000E+00
  0.00000000E+00  0.00000000E+00  0.00000000E+00
  0.00000000E+00  0.00000000E+00  0.00000000E+00
  0.00000000E+00  0.00000000E+00  0.00000000E+00
  0.00000000E+00  0.00000000E+00  0.00000000E+00
  0.00000000E+00  0.00000000E+00  0.00000000E+00
  0.00000000E+00  0.00000000E+00  0.00000000E+00
  0.00000000E+00  0.00000000E+00  0.00000000E+00
  0.00000000E+00  0.00000000E+00  0.00000000E+00
  0.00000000E+00  0.00000000E+00  0.00000000E+00
  0.00000000E+00  0.00000000E+00  0.00000000E+00
  0.00000000E+00  0.00000000E+00  0.00000000E+00
  0.00000000E+00  0.00000000E+00  0.00000000E+00
  0.00000000E+00  0.00000000E+00  0.00000000E+00
  0.00000000E+00  0.00000000E+00  0.00000000E+00
  0.00000000E+00  0.00000000E+00  0.00000000E+00
  0.00000000E+00  0.00000000E+00  0.00000000E+00
  0.00000000E+00  0.00000000E+00  0.00000000E+00
  0.00000000E+00  0.00000000E+00  0.00000000E+00
  0.00000000E+00  0.00000000E+00  0.00000000E+00
  0.00000000E+00  0.00000000E+00  0.00000000E+00
  0.00000000E+00  0.00000000E+00  0.00000000E+00
  0.00000000E+00  0.00000000E+00  0.00000000E+00
  0.00000000E+00  0.00000000E+00  0.00000000E+00
  0.00000000E+00  0.00000000E+00  0.00000000E+00
  0.00000000E+00  0.00000000E+00  0.00000000E+00
  0.00000000E+00  0.00000000E+00  0.00000000E+00
  0.00000000E+00  0.00000000E+00  0.00000000E+00
  0.00000000E+00  0.00000000E+00  0.00000000E+00
  0.00000000E+00  0.00000000E+00  0.00000000E+00
  0.00000000E+00  0.00000000E+00  0.00000000E+00
  0.00000000E+00  0.00000000E+00  0.00000000E+00
  0.00000000E+00  0.00000000E+00  0.00000000E+00
  0.00000000E+00  0.00000000E+00  0.00000000E+00
  0.00000000E+00  0.00000000E+00  0.00000000E+00
  0.00000000E+00  0.00000000E+00  0.00000000E+00
  0.00000000E+00  0.00000000E+00  0.00000000E+00
  0.00000000E+00  0.00000000E+00  0.00000000E+00
  0.00000000E+00  0.00000000E+00  0.00000000E+00
  0.00000000E+00  0.00000000E+00  0.00000000E+00
  0.00000000E+00  0.00000000E+00  0.00000000E+00
  0.00000000E+00  0.00000000E+00  0.00000000E+00
  0.00000000E+00  0.00000000E+00  0.00000000E+00
  0.00000000E+00  0.00000000E+00  0.00000000E+00
  0.00000000E+00  0.00000000E+00  0.00000000E+00
  0.00000000E+00  0.00000000E+00  0.00000000E+00
  0.00000000E+00  0.00000000E+00  0.00000000E+00
  0.00000000E+00  0.00000000E+00  0.00000000E+00
  0.00000000E+00  0.00000000E+00  0.00000000E+00
  0.00000000E+00  0.00000000E+00  0.00000000E+00
  0.00000000E+00  0.00000000E+00  0.00000000E+00
  0.00000000E+00  0.00000000E+00  0.00000000E+00
  0.00000000E+00  0.00000000E+00  0.00000000E+00
  0.00000000E+00  0.00000000E+00  0.00000000E+00
  0.00000000E+00  0.00000000E+00  0.00000000E+00
  0.00000000E+00  0.00000000E+00  0.00000000E+00
  0.00000000E+00  0.00000000E+00  0.00000000E+00
  0.00000000E+00  0.00000000E+00  0.00000000E+00
  0.00000000E+00  0.00000000E+00  0.00000000E+00
  0.00000000E+00  0.00000000E+00  0.00000000E+00
  0.00000000E+00  0.00000000E+00  0.00000000E+00
  0.00000000E+00  0.00000000E+00  0.00000000E+00
  0.00000000E+00  0.00000000E+00  0.00000000E+00
  0.00000000E+00  0.00000000E+00  0.00000000E+00
  0.00000000E+00  0.00000000E+00  0.00000000E+00
  0.00000000E+00  0.00000000E+00  0.00000000E+00
  0.00000000E+00  0.00000000E+00  0.00000000E+00
  0.00000000E+00  0.00000000E+00  0.00000000E+00
  0.00000000E+00  0.00000000E+00  0.00000000E+00
  0.00000000E+00  0.00000000E+00  0.00000000E+00
  0.00000000E+00  0.00000000E+00  0.00000000E+00
  0.00000000E+00  0.00000000E+00  0.00000000E+00
  0.00000000E+00  0.00000000E+00  0.00000000E+00
  0.00000000E+00  0.00000000E+00  0.00000000E+00
  0.00000000E+00  0.00000000E+00  0.00000000E+00
  0.00000000E+00  0.00000000E+00  0.00000000E+00
  0.00000000E+00  0.00000000E+00  0.00000000E+00
  0.00000000E+00  0.00000000E+00  0.00000000E+00
  0.00000000E+00  0.00000000E+00  0.00000000E+00
  0.00000000E+00  0.00000000E+00  0.00000000E+00
  0.00000000E+00  0.00000000E+00  0.00000000E+00
  0.00000000E+00  0.00000000E+00  0.00000000E+00
  0.00000000E+00  0.00000000E+00  0.00000000E+00
  0.00000000E+00  0.00000000E+00  0.00000000E+00
  0.00000000E+00  0.00000000E+00  0.00000000E+00
  0.00000000E+00  0.00000000E+00  0.00000000E+00
  0.00000000E+00  0.00000000E+00  0.00000000E+00
  0.00000000E+00  0.00000000E+00  0.00000000E+00
  0.00000000E+00  0.00000000E+00  0.00000000E+00
  0.00000000E+00  0.00000000E+00  0.00000000E+00
  0.00000000E+00  0.00000000E+00  0.00000000E+00
  0.00000000E+00  0.00000000E+00  0.00000000E+00
  0.00000000E+00  0.00000000E+00  0.00000000E+00
  0.00000000E+00  0.00000000E+00  0.00000000E+00
  0.00000000E+00  0.00000000E+00  0.00000000E+00
  0.00000000E+00  0.00000000E+00  0.00000000E+00
  0.00000000E+00  0.00000000E+00  0.00000000E+00
  0.00000000E+00  0.00000000E+00  0.00000000E+00
  0.00000000E+00  0.00000000E+00  0.00000000E+00
  0.00000000E+00  0.00000000E+00  0.00000000E+00
  0.00000000E+00  0.00000000E+00  0.00000000E+00
  0.00000000E+00  0.00000000E+00  0.00000000E+00
  0.00000000E+00  0.00000000E+00  0.00000000E+00
  0.00000000E+00  0.00000000E+00  0.00000000E+00
  0.00000000E+00  0.00000000E+00  0.00000000E+00
  0.00000000E+00  0.00000000E+00  0.00000000E+00
  0.00000000E+00  0.00000000E+00  0.00000000E+00
  0.00000000E+00  0.00000000E+00  0.00000000E+00
  0.00000000E+00  0.00000000E+00  0.00000000E+00
  0.00000000E+00  0.00000000E+00  0.00000000E+00
  0.00000000E+00  0.00000000E+00  0.00000000E+00
  0.00000000E+00  0.00000000E+00  0.00000000E+00
  0.00000000E+00  0.00000000E+00  0.00000000E+00
  0.00000000E+00  0.00000000E+00  0.00000000E+00
  0.00000000E+00  0.00000000E+00  0.00000000E+00
  0.00000000E+00  0.00000000E+00  0.00000000E+00
  0.00000000E+00  0.00000000E+00  0.00000000E+00
  0.00000000E+00  0.00000000E+00  0.00000000E+00
  0.00000000E+00  0.00000000E+00  0.00000000E+00
  0.00000000E+00  0.00000000E+00  0.00000000E+00
  0.00000000E+00  0.00000000E+00  0.00000000E+00
  0.00000000E+00  0.00000000E+00  0.00000000E+00
  0.00000000E+00  0.00000000E+00  0.00000000E+00
  0.00000000E+00  0.00000000E+00  0.00000000E+00
  0.00000000E+00  0.00000000E+00  0.00000000E+00
  0.00000000E+00  0.00000000E+00  0.00000000E+00
  0.00000000E+00  0.00000000E+00  0.00000000E+00
