Hf1 H1 C124 N2                          
   1.00000000000000     
    19.8205770661467540   -0.0146806854188522   -0.0542776001942553
    -9.9231611811382265   17.0688762152892188   -0.0986985178628015
    -0.0815789909664564   -0.2193757105991503   29.7573874362791884
   Hf   H    C    N 
     1     1   124     2
Direct
  0.4391568482093264  0.5012525002689694  0.4368541744034047
  0.4425370819544515  0.5018621936872087  0.5002352794405384
  0.0421119374873649  0.0841156401934660  0.3996979762157843
  0.0414382940972538  0.2085185757559807  0.3993211698306693
  0.0407485248621555  0.3331275947873836  0.3989910958294232
  0.0406621472086669  0.4584719968880823  0.3989500607792713
  0.0413400145579067  0.5838888585567167  0.3994565311400637
  0.0419606590153625  0.7092146753365108  0.4000525348139781
  0.0422768800161419  0.8344587294607726  0.3999516126714240
  0.0424334560744430  0.9595575253867129  0.3997342667604225
  0.1680517069558838  0.0855222327488282  0.3999955365195405
  0.1673630112769384  0.2099234002706610  0.3999354012368889
  0.1659931213427235  0.3341318703547937  0.3997483174726686
  0.1643681562843228  0.4587429417409383  0.3991839232184492
  0.1652094402845489  0.5839444107673838  0.3989006763741880
  0.1662810411693836  0.7092143516999700  0.3993734495258793
  0.1669221675999570  0.8345002358036862  0.3997858075076935
  0.1674385086934591  0.9598779412461312  0.3998181644869507
  0.2926227354979544  0.0851594004677808  0.4000174734396431
  0.2942676429437569  0.2121407863526407  0.4012983062785833
  0.2926182935295785  0.3371185744785030  0.4029093641633800
  0.2883873937837239  0.4592996627051066  0.4028828996064395
  0.2888073440625679  0.5844937306673146  0.4006863360669916
  0.2906643772437411  0.7092850130505207  0.3994718997684235
  0.2915434704548499  0.8342588292885658  0.3993292511979289
  0.2920277148545802  0.9594986597638271  0.3996369564646470
  0.4171649502806246  0.0838457031794771  0.3996611406943963
  0.4177880870870637  0.2093443060210232  0.4001652003739387
  0.4208798403915689  0.3366532830931003  0.4035793790502070
  0.4149549501013036  0.7076608288616703  0.4009263149899130
  0.4161452392347551  0.8331405029740022  0.3993290405150640
  0.4166529491379714  0.9584701401759803  0.3994396807171243
  0.5417489238693226  0.0826541166441214  0.3996515969514402
  0.5423145450669394  0.2077956938172792  0.3995507874457594
  0.5435500176198147  0.3327001528527497  0.4000909386551438
  0.5453065058543520  0.4562364337555359  0.4022748023192650
  0.5448817009494401  0.5809792819208439  0.4039389297481483
  0.5387703732727074  0.7041690345610778  0.4025976902848543
  0.5406068750206927  0.8315045382365505  0.3999929454991603
  0.5413392042004702  0.9573025660536492  0.3995092731010545
  0.6664315507630409  0.0822595624055455  0.3999916598934922
  0.6669046300096833  0.2075009272167815  0.3997974321138815
  0.6678056047855276  0.3327678211924057  0.3993577734562815
  0.6693925722565940  0.4581834355172908  0.3987082284363282
  0.6693534134071691  0.5826972154107883  0.3987420481934703
  0.6664225279164558  0.7067943164711673  0.3990952275916396
  0.6651170836354181  0.8309869853774914  0.3996448610822477
  0.6659627730366815  0.9568694003095968  0.3997503882550734
  0.7912152853027503  0.0823166437789845  0.3997248449834100
  0.7914988592101664  0.2075157287294066  0.3998908059340851
  0.7920812014716010  0.3328406961230469  0.3998272451936644
  0.7929340046616469  0.4582402969583376  0.3993658886295114
  0.7934913583878015  0.5835393408967867  0.3986248611958195
  0.7925145176327181  0.7083510523165010  0.3984988880664865
  0.7914083091417468  0.8326625489195283  0.3990165101075343
  0.7908628283698955  0.9570692291333421  0.3994831280705771
  0.9163410623047756  0.0828770960020830  0.3995645897078184
  0.9162148067706143  0.2077363121586119  0.3993307766017428
  0.9163127022503257  0.3329281634792044  0.3993661484923209
  0.9167820658817901  0.4583274747728624  0.3997180835671019
  0.9174526917841594  0.5837899141660468  0.3997935170764950
  0.9174729864863672  0.7090237640418343  0.3995692008777331
  0.9171942572758790  0.8338626960068185  0.3993674907615301
  0.9167425981562811  0.9584081242572292  0.3995450349005250
  0.0843742384799026  0.0432027803635800  0.3997791515736016
  0.0837912986876296  0.1675773959338113  0.3995768986906919
  0.0826501202943065  0.2918667416842516  0.3991973928216893
  0.0817227117801812  0.4166851303489269  0.3988274181094621
  0.0822982291177484  0.5420115240687416  0.3989704764095701
  0.0831444623485794  0.6674155615046682  0.3996477920640050
  0.0837335207349062  0.7927766229050531  0.4000560176892516
  0.0840672230184013  0.9179887044969188  0.3998240585402327
  0.2093188052324484  0.0434312317835028  0.3999673384290275
  0.2100920522196273  0.1692841565863132  0.4003902173711177
  0.2087179283797187  0.2934403347715131  0.4003259609313533
  0.2058390597520815  0.4175375767829528  0.4001870199652823
  0.2058538826315136  0.5420746270088302  0.3992617231488843
  0.2074194689434105  0.6675046745084573  0.3991730904621972
  0.2082918208642232  0.7927479811895353  0.3994955327469359
  0.2088219906448280  0.9180177638958440  0.3997235981067546
  0.3338931662914516  0.0429922895598799  0.3997618541601353
  0.3346701194240853  0.1688398832353692  0.4005028274874834
  0.3365113606931306  0.2962415301027828  0.4032232760842956
  0.3304028838454898  0.4194335856398640  0.4056782341014926
  0.3299877394569350  0.5442009449107985  0.4036287037574271
  0.3317120219086753  0.6676541649966942  0.4004031776952013
  0.3329190046484602  0.7924946042748713  0.3993265046675483
  0.3334444937735645  0.9175890168796078  0.3994538360434000
  0.4585394651411527  0.0417997373814050  0.3995689770500783
  0.4591069300600487  0.1671771186353256  0.3996785880562958
  0.4603230778814535  0.2927565213349319  0.4008871137643818
  0.4544425802323628  0.6638704779830941  0.4037334320283892
  0.4574907811398329  0.7910225038759484  0.3998056171439516
  0.4580527683542729  0.9164588369813719  0.3993279420342777
  0.5832088847325841  0.0407835317651530  0.3997487823222240
  0.5836519821926155  0.1659874598332685  0.3996266053339816
  0.5845629585747266  0.2910139186777937  0.3994859717680358
  0.5864657960112848  0.4158403860218525  0.3998669964809735
  0.5868609556768822  0.5410572615555728  0.4011298740252677
  0.5825844589668753  0.6632013234165156  0.4016467769962851
  0.5809832643005323  0.7881815113977121  0.4006088623154264
  0.5826446521399308  0.9151726360787138  0.3996672107254344
  0.7078408052065325  0.0404106088328366  0.3998826989918758
  0.7082967827608165  0.1657718036233963  0.4000185985535444
  0.7089288215657705  0.2910348101569771  0.3996899688920795
  0.7100233912933722  0.4163133096148069  0.3990134578935434
  0.7108525702697757  0.5414863471547269  0.3983505304983220
  0.7091494384841714  0.6660780820287733  0.3984399893466231
  0.7078085552625946  0.7903125874909238  0.3990771174614085
  0.7071816134743202  0.9147452417278354  0.3995567979431962
  0.8328361808998637  0.0407333768778122  0.3995933205055055
  0.8329705829544654  0.1658492053486627  0.3996586075931305
  0.8332824958932650  0.2910644197679711  0.3997523022540493
  0.8338844917994134  0.4163573767678004  0.3997851940842940
  0.8345607474808948  0.5417731258953863  0.3992792478854852
  0.8344328448463789  0.6671034916768391  0.3988381588044455
  0.8337589794942675  0.7917088339562948  0.3989162869620713
  0.8331183468399157  0.9161417189734261  0.3993685562722459
  0.9585186274927237  0.0418587598145061  0.3996487806396070
  0.9580313434110806  0.1663912385713053  0.3993580650948884
  0.9577315509841239  0.2912320161659238  0.3991406171710241
  0.9577857791775106  0.4164714690869101  0.3993428361923578
  0.9584665700266146  0.5419349999734072  0.3997618547183028
  0.9589194225332116  0.6673431806822804  0.3999398565091650
  0.9590142917161366  0.7925359086059057  0.3996739834704968
  0.9589183486462258  0.9173877977172815  0.3995651666621315
  0.4099803306469073  0.5834104275051745  0.4076609007581135
  0.4655431058166576  0.4173931500941786  0.4065884349925279
 
  0.00000000E+00  0.00000000E+00  0.00000000E+00
  0.00000000E+00  0.00000000E+00  0.00000000E+00
  0.00000000E+00  0.00000000E+00  0.00000000E+00
  0.00000000E+00  0.00000000E+00  0.00000000E+00
  0.00000000E+00  0.00000000E+00  0.00000000E+00
  0.00000000E+00  0.00000000E+00  0.00000000E+00
  0.00000000E+00  0.00000000E+00  0.00000000E+00
  0.00000000E+00  0.00000000E+00  0.00000000E+00
  0.00000000E+00  0.00000000E+00  0.00000000E+00
  0.00000000E+00  0.00000000E+00  0.00000000E+00
  0.00000000E+00  0.00000000E+00  0.00000000E+00
  0.00000000E+00  0.00000000E+00  0.00000000E+00
  0.00000000E+00  0.00000000E+00  0.00000000E+00
  0.00000000E+00  0.00000000E+00  0.00000000E+00
  0.00000000E+00  0.00000000E+00  0.00000000E+00
  0.00000000E+00  0.00000000E+00  0.00000000E+00
  0.00000000E+00  0.00000000E+00  0.00000000E+00
  0.00000000E+00  0.00000000E+00  0.00000000E+00
  0.00000000E+00  0.00000000E+00  0.00000000E+00
  0.00000000E+00  0.00000000E+00  0.00000000E+00
  0.00000000E+00  0.00000000E+00  0.00000000E+00
  0.00000000E+00  0.00000000E+00  0.00000000E+00
  0.00000000E+00  0.00000000E+00  0.00000000E+00
  0.00000000E+00  0.00000000E+00  0.00000000E+00
  0.00000000E+00  0.00000000E+00  0.00000000E+00
  0.00000000E+00  0.00000000E+00  0.00000000E+00
  0.00000000E+00  0.00000000E+00  0.00000000E+00
  0.00000000E+00  0.00000000E+00  0.00000000E+00
  0.00000000E+00  0.00000000E+00  0.00000000E+00
  0.00000000E+00  0.00000000E+00  0.00000000E+00
  0.00000000E+00  0.00000000E+00  0.00000000E+00
  0.00000000E+00  0.00000000E+00  0.00000000E+00
  0.00000000E+00  0.00000000E+00  0.00000000E+00
  0.00000000E+00  0.00000000E+00  0.00000000E+00
  0.00000000E+00  0.00000000E+00  0.00000000E+00
  0.00000000E+00  0.00000000E+00  0.00000000E+00
  0.00000000E+00  0.00000000E+00  0.00000000E+00
  0.00000000E+00  0.00000000E+00  0.00000000E+00
  0.00000000E+00  0.00000000E+00  0.00000000E+00
  0.00000000E+00  0.00000000E+00  0.00000000E+00
  0.00000000E+00  0.00000000E+00  0.00000000E+00
  0.00000000E+00  0.00000000E+00  0.00000000E+00
  0.00000000E+00  0.00000000E+00  0.00000000E+00
  0.00000000E+00  0.00000000E+00  0.00000000E+00
  0.00000000E+00  0.00000000E+00  0.00000000E+00
  0.00000000E+00  0.00000000E+00  0.00000000E+00
  0.00000000E+00  0.00000000E+00  0.00000000E+00
  0.00000000E+00  0.00000000E+00  0.00000000E+00
  0.00000000E+00  0.00000000E+00  0.00000000E+00
  0.00000000E+00  0.00000000E+00  0.00000000E+00
  0.00000000E+00  0.00000000E+00  0.00000000E+00
  0.00000000E+00  0.00000000E+00  0.00000000E+00
  0.00000000E+00  0.00000000E+00  0.00000000E+00
  0.00000000E+00  0.00000000E+00  0.00000000E+00
  0.00000000E+00  0.00000000E+00  0.00000000E+00
  0.00000000E+00  0.00000000E+00  0.00000000E+00
  0.00000000E+00  0.00000000E+00  0.00000000E+00
  0.00000000E+00  0.00000000E+00  0.00000000E+00
  0.00000000E+00  0.00000000E+00  0.00000000E+00
  0.00000000E+00  0.00000000E+00  0.00000000E+00
  0.00000000E+00  0.00000000E+00  0.00000000E+00
  0.00000000E+00  0.00000000E+00  0.00000000E+00
  0.00000000E+00  0.00000000E+00  0.00000000E+00
  0.00000000E+00  0.00000000E+00  0.00000000E+00
  0.00000000E+00  0.00000000E+00  0.00000000E+00
  0.00000000E+00  0.00000000E+00  0.00000000E+00
  0.00000000E+00  0.00000000E+00  0.00000000E+00
  0.00000000E+00  0.00000000E+00  0.00000000E+00
  0.00000000E+00  0.00000000E+00  0.00000000E+00
  0.00000000E+00  0.00000000E+00  0.00000000E+00
  0.00000000E+00  0.00000000E+00  0.00000000E+00
  0.00000000E+00  0.00000000E+00  0.00000000E+00
  0.00000000E+00  0.00000000E+00  0.00000000E+00
  0.00000000E+00  0.00000000E+00  0.00000000E+00
  0.00000000E+00  0.00000000E+00  0.00000000E+00
  0.00000000E+00  0.00000000E+00  0.00000000E+00
  0.00000000E+00  0.00000000E+00  0.00000000E+00
  0.00000000E+00  0.00000000E+00  0.00000000E+00
  0.00000000E+00  0.00000000E+00  0.00000000E+00
  0.00000000E+00  0.00000000E+00  0.00000000E+00
  0.00000000E+00  0.00000000E+00  0.00000000E+00
  0.00000000E+00  0.00000000E+00  0.00000000E+00
  0.00000000E+00  0.00000000E+00  0.00000000E+00
  0.00000000E+00  0.00000000E+00  0.00000000E+00
  0.00000000E+00  0.00000000E+00  0.00000000E+00
  0.00000000E+00  0.00000000E+00  0.00000000E+00
  0.00000000E+00  0.00000000E+00  0.00000000E+00
  0.00000000E+00  0.00000000E+00  0.00000000E+00
  0.00000000E+00  0.00000000E+00  0.00000000E+00
  0.00000000E+00  0.00000000E+00  0.00000000E+00
  0.00000000E+00  0.00000000E+00  0.00000000E+00
  0.00000000E+00  0.00000000E+00  0.00000000E+00
  0.00000000E+00  0.00000000E+00  0.00000000E+00
  0.00000000E+00  0.00000000E+00  0.00000000E+00
  0.00000000E+00  0.00000000E+00  0.00000000E+00
  0.00000000E+00  0.00000000E+00  0.00000000E+00
  0.00000000E+00  0.00000000E+00  0.00000000E+00
  0.00000000E+00  0.00000000E+00  0.00000000E+00
  0.00000000E+00  0.00000000E+00  0.00000000E+00
  0.00000000E+00  0.00000000E+00  0.00000000E+00
  0.00000000E+00  0.00000000E+00  0.00000000E+00
  0.00000000E+00  0.00000000E+00  0.00000000E+00
  0.00000000E+00  0.00000000E+00  0.00000000E+00
  0.00000000E+00  0.00000000E+00  0.00000000E+00
  0.00000000E+00  0.00000000E+00  0.00000000E+00
  0.00000000E+00  0.00000000E+00  0.00000000E+00
  0.00000000E+00  0.00000000E+00  0.00000000E+00
  0.00000000E+00  0.00000000E+00  0.00000000E+00
  0.00000000E+00  0.00000000E+00  0.00000000E+00
  0.00000000E+00  0.00000000E+00  0.00000000E+00
  0.00000000E+00  0.00000000E+00  0.00000000E+00
  0.00000000E+00  0.00000000E+00  0.00000000E+00
  0.00000000E+00  0.00000000E+00  0.00000000E+00
  0.00000000E+00  0.00000000E+00  0.00000000E+00
  0.00000000E+00  0.00000000E+00  0.00000000E+00
  0.00000000E+00  0.00000000E+00  0.00000000E+00
  0.00000000E+00  0.00000000E+00  0.00000000E+00
  0.00000000E+00  0.00000000E+00  0.00000000E+00
  0.00000000E+00  0.00000000E+00  0.00000000E+00
  0.00000000E+00  0.00000000E+00  0.00000000E+00
  0.00000000E+00  0.00000000E+00  0.00000000E+00
  0.00000000E+00  0.00000000E+00  0.00000000E+00
  0.00000000E+00  0.00000000E+00  0.00000000E+00
  0.00000000E+00  0.00000000E+00  0.00000000E+00
  0.00000000E+00  0.00000000E+00  0.00000000E+00
  0.00000000E+00  0.00000000E+00  0.00000000E+00
  0.00000000E+00  0.00000000E+00  0.00000000E+00
  0.00000000E+00  0.00000000E+00  0.00000000E+00
