Ni1 H1 C126 O2                          
   1.00000000000000     
    19.7753404374924564    0.0074316654684985    0.3804238602664603
    -9.8824467721581897   17.0568927301927609   -0.1425524440524976
     0.5703992876407444    0.0844254376739248   29.8364255802338398
   Ni   H    C    O 
     1     1   126     2
Direct
  0.4352352910613320  0.4991490863854944  0.4238328111705624
  0.5430243812608129  0.5615129689266781  0.4971883139141707
  0.0415062639733003  0.0837616172756405  0.3998892590012521
  0.0408086056056646  0.2081061152850495  0.3994374851572280
  0.0405468137475960  0.3329767923716923  0.3989167874715743
  0.0405975793913043  0.4582151475189707  0.3985758741959669
  0.0411293476448904  0.5834667696316428  0.3986981043906697
  0.0415005142742826  0.7086357867447374  0.3990961778877094
  0.0416880724871275  0.8339195849472417  0.3996683757529675
  0.0417198995019302  0.9589697063324534  0.4000000603307864
  0.1668544239527923  0.0846211593617717  0.4006245622267171
  0.1666467316774223  0.2094853767607429  0.4006872647935685
  0.1653097620403955  0.3331503886966735  0.4002456092853448
  0.1647215511424484  0.4582233329709167  0.3993428436824267
  0.1654447195684466  0.5833127260770068  0.3989463778233843
  0.1662330626841954  0.7086154652667059  0.3990841689593985
  0.1665770216336186  0.8339090754980961  0.3994558140864027
  0.1667628847069222  0.9592882426874683  0.4000700622138726
  0.2918745808836278  0.0846763015052052  0.4008931133280778
  0.2921110732780100  0.2106450820954754  0.4027107003734898
  0.2920254265128530  0.3364754567153277  0.4041717266922296
  0.2882555163664079  0.4575870565463688  0.4015180431991034
  0.2897632305027807  0.5833852872706319  0.3997577579982641
  0.2909242353084857  0.7084094093312262  0.3992268577816604
  0.2912599813509966  0.8335630615132369  0.3995102084055481
  0.2915495269429343  0.9590093659558717  0.3999272593395252
  0.4164586665550327  0.0838915483497981  0.4003415719732919
  0.4167655884876138  0.2097936214473296  0.4018635468403419
  0.4173865608902549  0.3366897600592663  0.4055660390028150
  0.4127699375904144  0.5795190726483986  0.4022154638237445
  0.4153740398046705  0.7063385383601962  0.4005532817634526
  0.4159886628349077  0.8324971871630208  0.3999271091537936
  0.4162481894721079  0.9582226609402561  0.3998919332473733
  0.5412185567531749  0.0829903497042354  0.4000645896968749
  0.5414472248086684  0.2083678242529130  0.4004241862923955
  0.5416938337748910  0.3336169078069324  0.4019433206528807
  0.5430665352536099  0.4584160128204988  0.4060172916630035
  0.5424536909249326  0.5816446613992841  0.4126976299319960
  0.5399166148364902  0.7058810255273884  0.4048230753869508
  0.5404138390991833  0.8316711737344973  0.4011247425532471
  0.5408770909200095  0.9574094330535056  0.4002019882246878
  0.6658654826058038  0.0825641088161439  0.3999343790078615
  0.6661656450938807  0.2079011444800526  0.3997213331786432
  0.6664857878779846  0.3331092026429048  0.3999564789749625
  0.6673951869410910  0.4584660434043747  0.4011166819311484
  0.6679299993685262  0.5837391373108025  0.4039593930132810
  0.6658039464624995  0.7071660776171078  0.4045778601605737
  0.6654504525954326  0.8318358420853793  0.4023869776804066
  0.6656380789115859  0.9571475618268445  0.4006552098782426
  0.7908107706468623  0.0825381213254394  0.3998078682343041
  0.7909535144828196  0.2077497013631278  0.3992339443957216
  0.7912245157331396  0.3330300256071482  0.3989969086420359
  0.7917044752191615  0.4583196119455319  0.3993506455606426
  0.7921449563897701  0.5834908457937709  0.4003012053803987
  0.7919295039128064  0.7086020141244407  0.4014946384298962
  0.7910402014349706  0.8328048715605678  0.4012195948580461
  0.7907591969102619  0.9574869155419191  0.4004826506009678
  0.9158917281024350  0.0829131924346585  0.3996384914711929
  0.9158142554972064  0.2077928607240634  0.3991559474865493
  0.9158736328810102  0.3329965218863917  0.3986731877479606
  0.9161592874813298  0.4582078458793719  0.3985668293263664
  0.9166252758062053  0.5835140028994229  0.3990497330312307
  0.9167754863075150  0.7086831741405422  0.3998138704772108
  0.9167014895839617  0.8336348632554873  0.4002054428832663
  0.9163221614449860  0.9582772310116351  0.4000488959656754
  0.0834389845188405  0.0424533055065100  0.4001361694445692
  0.0831565281390226  0.1672052031868790  0.3998736851741063
  0.0821946565406659  0.2913366836467174  0.3993564294517887
  0.0819390099413193  0.4165302171804542  0.3988073719519031
  0.0823960164484543  0.5416457390574921  0.3986854608757504
  0.0829919145327417  0.6669207825690313  0.3989245729574118
  0.0832681995244821  0.7921577737848829  0.3993537171327267
  0.0833835620671260  0.9173842752613709  0.3998977007177442
  0.2084731257265119  0.0428142790209764  0.4005958469856709
  0.2085165497529440  0.1681867921686935  0.4013010957997112
  0.2081608370822388  0.2930102408675793  0.4013727909091745
  0.2058389618798807  0.4162466703257662  0.4002382036521764
  0.2065854532472648  0.5415703677916825  0.3993496909741552
  0.2076570068507897  0.6668684650066731  0.3990477540679345
  0.2080656765745297  0.7920692679659428  0.3993141757802657
  0.2082695600371989  0.9173749984190573  0.3998278659163348
  0.3332405130807131  0.0425329754868502  0.4003555248373782
  0.3335429162183950  0.1682545233929261  0.4019307689221008
  0.3334674044108704  0.2940105206302509  0.4048363257061013
  0.3314898759936122  0.4192053914778378  0.4058574873091074
  0.3307337758947463  0.5416072174810083  0.4005162910608200
  0.3323435295130091  0.6664145922632271  0.3995959153532357
  0.3327041472988868  0.7916073946990096  0.3994984792804302
  0.3329651624908755  0.9169629401389748  0.3997593435271714
  0.4579290428494135  0.0417305228861983  0.4000593236281229
  0.4581531645309693  0.1674566932140516  0.4007723202706521
  0.4585952395474567  0.2934624317331387  0.4029833055025602
  0.4612189662120783  0.4189602612209817  0.4082971799377608
  0.4559601570100339  0.6625511287590327  0.4023768981236193
  0.4572320178092040  0.7900977903382410  0.4005089278086023
  0.4576857973570353  0.9160356903028801  0.3999849120676481
  0.5825875761852665  0.0409328297652346  0.4000679891682822
  0.5829508232576305  0.1664315198377006  0.4000436099207648
  0.5831659749959255  0.2916243130877449  0.4006530907241657
  0.5841445107099239  0.4166520776281311  0.4024612637570361
  0.5852850017900835  0.5424984602630796  0.4076645661627285
  0.5816063433666416  0.6639443063869620  0.4077314007350720
  0.5816068471258616  0.7892427912118137  0.4027549994253711
  0.5821748181449647  0.9152523455400033  0.4006333425026747
  0.7074060840664815  0.0406735655858596  0.4000850054165981
  0.7076168006541240  0.1660412301993575  0.3996172145303088
  0.7079535261361860  0.2913432611599298  0.3994875018991830
  0.7085728068971868  0.4166652229699678  0.3999720754288130
  0.7092307000790847  0.5418314489358428  0.4015166890700584
  0.7086377455498183  0.6668471777723559  0.4035629378281675
  0.7074341064049280  0.7906634518805952  0.4026152027433824
  0.7072554479186337  0.9153728164117517  0.4011046160901290
  0.8324908063551542  0.0409657701827263  0.3999077697289065
  0.8325366027072336  0.1660015024774973  0.3993522789663718
  0.8327020789671963  0.2912905778471351  0.3988821365468632
  0.8330306779727281  0.4164949777244064  0.3988834379830329
  0.8335058541363940  0.5417412597974910  0.3994367061971203
  0.8336119572109693  0.6669967728224241  0.4004792529234147
  0.8333813615184302  0.7918531847664757  0.4008976821345475
  0.8327758796064508  0.9162569272319558  0.4005050165778933
  0.9579875344468799  0.0417072259545242  0.3997784940349006
  0.9575236056205805  0.1662852346986538  0.3993414497203638
  0.9574161036112928  0.2912550282285721  0.3988755085869136
  0.9575403575958638  0.4164525564753603  0.3984965299424022
  0.9580105553805276  0.5417563303519610  0.3986861533280335
  0.9583188295929755  0.6669438852762023  0.3992532753793874
  0.9584334819924493  0.7921285611543590  0.3999002898174336
  0.9583483955460084  0.9170299803181410  0.4000465530078369
  0.5149961155103667  0.5052910350697735  0.5049369557204072
  0.4440923746666210  0.4760321765847090  0.4824169108894144
 
  0.00000000E+00  0.00000000E+00  0.00000000E+00
  0.00000000E+00  0.00000000E+00  0.00000000E+00
  0.00000000E+00  0.00000000E+00  0.00000000E+00
  0.00000000E+00  0.00000000E+00  0.00000000E+00
  0.00000000E+00  0.00000000E+00  0.00000000E+00
  0.00000000E+00  0.00000000E+00  0.00000000E+00
  0.00000000E+00  0.00000000E+00  0.00000000E+00
  0.00000000E+00  0.00000000E+00  0.00000000E+00
  0.00000000E+00  0.00000000E+00  0.00000000E+00
  0.00000000E+00  0.00000000E+00  0.00000000E+00
  0.00000000E+00  0.00000000E+00  0.00000000E+00
  0.00000000E+00  0.00000000E+00  0.00000000E+00
  0.00000000E+00  0.00000000E+00  0.00000000E+00
  0.00000000E+00  0.00000000E+00  0.00000000E+00
  0.00000000E+00  0.00000000E+00  0.00000000E+00
  0.00000000E+00  0.00000000E+00  0.00000000E+00
  0.00000000E+00  0.00000000E+00  0.00000000E+00
  0.00000000E+00  0.00000000E+00  0.00000000E+00
  0.00000000E+00  0.00000000E+00  0.00000000E+00
  0.00000000E+00  0.00000000E+00  0.00000000E+00
  0.00000000E+00  0.00000000E+00  0.00000000E+00
  0.00000000E+00  0.00000000E+00  0.00000000E+00
  0.00000000E+00  0.00000000E+00  0.00000000E+00
  0.00000000E+00  0.00000000E+00  0.00000000E+00
  0.00000000E+00  0.00000000E+00  0.00000000E+00
  0.00000000E+00  0.00000000E+00  0.00000000E+00
  0.00000000E+00  0.00000000E+00  0.00000000E+00
  0.00000000E+00  0.00000000E+00  0.00000000E+00
  0.00000000E+00  0.00000000E+00  0.00000000E+00
  0.00000000E+00  0.00000000E+00  0.00000000E+00
  0.00000000E+00  0.00000000E+00  0.00000000E+00
  0.00000000E+00  0.00000000E+00  0.00000000E+00
  0.00000000E+00  0.00000000E+00  0.00000000E+00
  0.00000000E+00  0.00000000E+00  0.00000000E+00
  0.00000000E+00  0.00000000E+00  0.00000000E+00
  0.00000000E+00  0.00000000E+00  0.00000000E+00
  0.00000000E+00  0.00000000E+00  0.00000000E+00
  0.00000000E+00  0.00000000E+00  0.00000000E+00
  0.00000000E+00  0.00000000E+00  0.00000000E+00
  0.00000000E+00  0.00000000E+00  0.00000000E+00
  0.00000000E+00  0.00000000E+00  0.00000000E+00
  0.00000000E+00  0.00000000E+00  0.00000000E+00
  0.00000000E+00  0.00000000E+00  0.00000000E+00
  0.00000000E+00  0.00000000E+00  0.00000000E+00
  0.00000000E+00  0.00000000E+00  0.00000000E+00
  0.00000000E+00  0.00000000E+00  0.00000000E+00
  0.00000000E+00  0.00000000E+00  0.00000000E+00
  0.00000000E+00  0.00000000E+00  0.00000000E+00
  0.00000000E+00  0.00000000E+00  0.00000000E+00
  0.00000000E+00  0.00000000E+00  0.00000000E+00
  0.00000000E+00  0.00000000E+00  0.00000000E+00
  0.00000000E+00  0.00000000E+00  0.00000000E+00
  0.00000000E+00  0.00000000E+00  0.00000000E+00
  0.00000000E+00  0.00000000E+00  0.00000000E+00
  0.00000000E+00  0.00000000E+00  0.00000000E+00
  0.00000000E+00  0.00000000E+00  0.00000000E+00
  0.00000000E+00  0.00000000E+00  0.00000000E+00
  0.00000000E+00  0.00000000E+00  0.00000000E+00
  0.00000000E+00  0.00000000E+00  0.00000000E+00
  0.00000000E+00  0.00000000E+00  0.00000000E+00
  0.00000000E+00  0.00000000E+00  0.00000000E+00
  0.00000000E+00  0.00000000E+00  0.00000000E+00
  0.00000000E+00  0.00000000E+00  0.00000000E+00
  0.00000000E+00  0.00000000E+00  0.00000000E+00
  0.00000000E+00  0.00000000E+00  0.00000000E+00
  0.00000000E+00  0.00000000E+00  0.00000000E+00
  0.00000000E+00  0.00000000E+00  0.00000000E+00
  0.00000000E+00  0.00000000E+00  0.00000000E+00
  0.00000000E+00  0.00000000E+00  0.00000000E+00
  0.00000000E+00  0.00000000E+00  0.00000000E+00
  0.00000000E+00  0.00000000E+00  0.00000000E+00
  0.00000000E+00  0.00000000E+00  0.00000000E+00
  0.00000000E+00  0.00000000E+00  0.00000000E+00
  0.00000000E+00  0.00000000E+00  0.00000000E+00
  0.00000000E+00  0.00000000E+00  0.00000000E+00
  0.00000000E+00  0.00000000E+00  0.00000000E+00
  0.00000000E+00  0.00000000E+00  0.00000000E+00
  0.00000000E+00  0.00000000E+00  0.00000000E+00
  0.00000000E+00  0.00000000E+00  0.00000000E+00
  0.00000000E+00  0.00000000E+00  0.00000000E+00
  0.00000000E+00  0.00000000E+00  0.00000000E+00
  0.00000000E+00  0.00000000E+00  0.00000000E+00
  0.00000000E+00  0.00000000E+00  0.00000000E+00
  0.00000000E+00  0.00000000E+00  0.00000000E+00
  0.00000000E+00  0.00000000E+00  0.00000000E+00
  0.00000000E+00  0.00000000E+00  0.00000000E+00
  0.00000000E+00  0.00000000E+00  0.00000000E+00
  0.00000000E+00  0.00000000E+00  0.00000000E+00
  0.00000000E+00  0.00000000E+00  0.00000000E+00
  0.00000000E+00  0.00000000E+00  0.00000000E+00
  0.00000000E+00  0.00000000E+00  0.00000000E+00
  0.00000000E+00  0.00000000E+00  0.00000000E+00
  0.00000000E+00  0.00000000E+00  0.00000000E+00
  0.00000000E+00  0.00000000E+00  0.00000000E+00
  0.00000000E+00  0.00000000E+00  0.00000000E+00
  0.00000000E+00  0.00000000E+00  0.00000000E+00
  0.00000000E+00  0.00000000E+00  0.00000000E+00
  0.00000000E+00  0.00000000E+00  0.00000000E+00
  0.00000000E+00  0.00000000E+00  0.00000000E+00
  0.00000000E+00  0.00000000E+00  0.00000000E+00
  0.00000000E+00  0.00000000E+00  0.00000000E+00
  0.00000000E+00  0.00000000E+00  0.00000000E+00
  0.00000000E+00  0.00000000E+00  0.00000000E+00
  0.00000000E+00  0.00000000E+00  0.00000000E+00
  0.00000000E+00  0.00000000E+00  0.00000000E+00
  0.00000000E+00  0.00000000E+00  0.00000000E+00
  0.00000000E+00  0.00000000E+00  0.00000000E+00
  0.00000000E+00  0.00000000E+00  0.00000000E+00
  0.00000000E+00  0.00000000E+00  0.00000000E+00
  0.00000000E+00  0.00000000E+00  0.00000000E+00
  0.00000000E+00  0.00000000E+00  0.00000000E+00
  0.00000000E+00  0.00000000E+00  0.00000000E+00
  0.00000000E+00  0.00000000E+00  0.00000000E+00
  0.00000000E+00  0.00000000E+00  0.00000000E+00
  0.00000000E+00  0.00000000E+00  0.00000000E+00
  0.00000000E+00  0.00000000E+00  0.00000000E+00
  0.00000000E+00  0.00000000E+00  0.00000000E+00
  0.00000000E+00  0.00000000E+00  0.00000000E+00
  0.00000000E+00  0.00000000E+00  0.00000000E+00
  0.00000000E+00  0.00000000E+00  0.00000000E+00
  0.00000000E+00  0.00000000E+00  0.00000000E+00
  0.00000000E+00  0.00000000E+00  0.00000000E+00
  0.00000000E+00  0.00000000E+00  0.00000000E+00
  0.00000000E+00  0.00000000E+00  0.00000000E+00
  0.00000000E+00  0.00000000E+00  0.00000000E+00
  0.00000000E+00  0.00000000E+00  0.00000000E+00
  0.00000000E+00  0.00000000E+00  0.00000000E+00
  0.00000000E+00  0.00000000E+00  0.00000000E+00
  0.00000000E+00  0.00000000E+00  0.00000000E+00
  0.00000000E+00  0.00000000E+00  0.00000000E+00
