Pt1 C123 N3 O1                          
   1.00000000000000     
    19.8477907702110237    0.0032479084125992    0.0153612013645586
    -9.9209324466332962   17.0309738567813120    0.0236788190279882
     0.0236433575382131    0.0546145031571154   29.7653336744852339
   Pt   C    N    O 
     1   123     3     1
Direct
  0.4368074747979677  0.4981412948370343  0.4156654282973365
  0.0417414109293796  0.0839744324480393  0.3999735682646738
  0.0405174737280655  0.2078711433895289  0.4002048727575276
  0.0397396013879150  0.3326322399102058  0.3998454153504236
  0.0400275031670021  0.4580873881911869  0.3993138870941428
  0.0412174413467128  0.5838073489601709  0.3990761135241280
  0.0423071732052091  0.7093748618736273  0.3992390085178629
  0.0426300591376059  0.8346621814293111  0.3994541773910968
  0.0425038300656083  0.9596726587962483  0.3995908853629679
  0.1678182573559104  0.0856419425810889  0.4006888994846904
  0.1669540961771412  0.2100504821860495  0.4017610070421456
  0.1642552243436420  0.3333276053724928  0.4017528208289181
  0.1632091887749320  0.4582918195628828  0.4003945771898678
  0.1644523265001256  0.5837337696548975  0.3996209716815919
  0.1662389418912155  0.7091845862079824  0.3993685412139535
  0.1671437088228152  0.8346684045180912  0.3994753581561871
  0.1676003677576361  0.9602038492811641  0.3997917254758744
  0.2926868037338851  0.0859113335878582  0.4005920594674408
  0.2933706291676020  0.2127837415121380  0.4027738592742612
  0.2914288112970457  0.3377682684343113  0.4051033939915897
  0.2857358454718525  0.4580509768540968  0.4036000640703258
  0.2870487740092214  0.5833097472602140  0.4010676498851006
  0.2901908564967084  0.7086281138207979  0.3999649138100853
  0.2915413618012540  0.8341013681028915  0.3994980566464824
  0.2921793457174569  0.9597820743802201  0.3996452611774079
  0.4171138013519591  0.0841189069350624  0.3999461077220756
  0.4179088187591254  0.2102448643936418  0.4010973976284827
  0.4200555904136556  0.3375403459939861  0.4043637785380896
  0.4141182750419290  0.7062671268482746  0.4016828484797528
  0.4158799108268990  0.8323141181920072  0.4001790822313952
  0.4166143169108835  0.9582378692225869  0.3996198067443115
  0.5415272032958138  0.0823800264909338  0.3995927129144008
  0.5422615952382756  0.2081009717588634  0.3998458574494791
  0.5438650986271956  0.3336910098501663  0.4010076567215183
  0.5490376669231070  0.4592960376857894  0.4045748929463385
  0.5378235235959450  0.7007527679356576  0.4047923391224765
  0.5401396285633907  0.8296533915258816  0.4015208644317161
  0.5409656000978523  0.9563504905690650  0.3999200599918559
  0.6659448868872814  0.0815710258838673  0.3996526272527687
  0.6665975929234155  0.2071564243550650  0.3994945883478761
  0.6678525826032791  0.3326969487780017  0.3995448442126636
  0.6707459732822183  0.4584537645172032  0.4006245497297659
  0.6722556318629306  0.5841651320954471  0.4029698767861640
  0.6668299889039099  0.7059219481319091  0.4032240801560482
  0.6644689151365654  0.8296334116759655  0.4018597543770627
  0.6653478166774452  0.9557774204770919  0.4002983838395418
  0.7905034552685735  0.0815305704905119  0.3996990924737302
  0.7909147904467220  0.2069466026713433  0.3994649698586953
  0.7917987115980660  0.3324920661828409  0.3992334072261416
  0.7934419658654344  0.4581829727377025  0.3991845293188611
  0.7946631963322116  0.5838868394434730  0.3997451566250899
  0.7938097346320995  0.7089544408663220  0.4005060685017820
  0.7912550671710270  0.8321809189449703  0.4004274047259170
  0.7902458820250643  0.9562923777780324  0.3999824184395701
  0.9156444414686608  0.0822559287286243  0.3995737977349819
  0.9153840771869619  0.2070959354204627  0.3995126716976829
  0.9156780488859964  0.3324563103618201  0.3992445912647670
  0.9167171477275420  0.4581391046431570  0.3989263060476670
  0.9178968510475221  0.5838626660071332  0.3989697823651050
  0.9181711418282112  0.7092627728409389  0.3992944238624022
  0.9176501856663201  0.8341398710460801  0.3994221191618752
  0.9164712521179816  0.9581059114863854  0.3995234835371329
  0.0842522047705000  0.0432894954965027  0.4000318948975198
  0.0833198954234346  0.1675105833302800  0.4005807659238250
  0.0815221973989311  0.2912545188834222  0.4005117936788289
  0.0807736839218110  0.4160790060619109  0.3997619808462462
  0.0817895135728324  0.5417315725620369  0.3992938053974930
  0.0832562905059752  0.6674187832932422  0.3992076110063610
  0.0840358473444625  0.7929447047613065  0.3994292958781064
  0.0843099609345751  0.9182628221708408  0.3996016201694191
  0.2093719637201416  0.0439064702044539  0.4003581962780857
  0.2096497719371899  0.1695393964637798  0.4018349011894092
  0.2078849621049627  0.2937071602834437  0.4028503437790163
  0.2041340575361428  0.4165643402859276  0.4017211200946785
  0.2046057477208269  0.5414974191957593  0.4002372120162977
  0.2070394728169502  0.6671867795388059  0.3995890819785040
  0.2083661131454642  0.7927617078279461  0.3994183267242012
  0.2090011356407624  0.9182906213001891  0.3996126355428739
  0.3339389536019335  0.0434725145848959  0.4000020319796952
  0.3345346448499530  0.1698526795888997  0.4015493174388781
  0.3355708194849739  0.2973475176930672  0.4046773632581430
  0.3274845291415971  0.5421238232045051  0.4028982173509728
  0.3307968543505629  0.6664784523396691  0.4008009483551510
  0.3326895261303229  0.7919601199677035  0.3998168461239837
  0.3334637278223513  0.9175831672622611  0.3995350401153570
  0.4583820876321846  0.0417310994138090  0.3996727571652589
  0.4590015861564623  0.1676516041422888  0.4002401751955974
  0.4603192782070453  0.2938319837968024  0.4017703996782463
  0.4669629076100340  0.4201987700698342  0.4066685680975909
  0.4529697135643759  0.6615359515580134  0.4038213933933327
  0.4569328066418981  0.7897212053694401  0.4011131703940840
  0.4578224232504409  0.9158300012956355  0.3998397408266943
  0.5827677402609950  0.0400988154177073  0.3996466393984271
  0.5834407761622761  0.1659239836388358  0.3995732749656856
  0.5845869497568176  0.2914647205357639  0.3999670901436722
  0.5882261953529980  0.4169882758366259  0.4017815290826600
  0.5911874393777787  0.5428058712184372  0.4055548994774147
  0.5829358682044371  0.6608650266856511  0.4057324304354630
  0.5804762246007887  0.7859477600171014  0.4028683900734786
  0.5821109087478991  0.9137519741498645  0.4005070545490829
  0.7072342613251033  0.0395677062024007  0.3998182370106215
  0.7078073440365791  0.1652259804318286  0.3995418506158979
  0.7087027876837846  0.2907417956892781  0.3993832017307760
  0.7107691228920576  0.4162122300233449  0.3995764139697354
  0.7124550084186397  0.5417493221355627  0.4009571760077056
  0.7111736639199798  0.6670035254499106  0.4023440437433053
  0.7075171988113423  0.7894862489189297  0.4017735072441482
  0.7065586189059870  0.9137276123924298  0.4006180912438901
  0.8321656141924005  0.0400331849260702  0.3996800954071440
  0.8322679277138464  0.1652020113483179  0.3995300554003756
  0.8327514323280960  0.2905277623146535  0.3992820074587802
  0.8339881855352467  0.4160975523125048  0.3990511153114679
  0.8352968012429491  0.5418375452082007  0.3991592233067370
  0.8354353398254212  0.6673775454019372  0.3997264888267499
  0.8344198652629781  0.7921090912275134  0.3999806871173104
  0.8328285565357786  0.9157089932703580  0.3998554550398334
  0.9581414899218925  0.0416064789694617  0.3995974969796198
  0.9572401729596610  0.1657641326926122  0.3996559620622648
  0.9569241389628894  0.2906832549435377  0.3994707924838217
  0.9573632265684671  0.4160712181816226  0.3991046065038571
  0.9585377789522530  0.5417761185051809  0.3988931194433300
  0.9594354691885157  0.6674615336258405  0.3991282795482434
  0.9595259011066353  0.7928146997767338  0.3993671618682738
  0.9590791465625799  0.9175579070924268  0.3994293833149912
  0.4071006991036561  0.5815469597224562  0.4044620257776168
  0.5492255913341177  0.5805506909676545  0.4077729695977200
  0.3270999951449021  0.4189617653422931  0.4061995947546928
  0.4420040078857523  0.5097205073615284  0.4805852469101254
 
  0.00000000E+00  0.00000000E+00  0.00000000E+00
  0.00000000E+00  0.00000000E+00  0.00000000E+00
  0.00000000E+00  0.00000000E+00  0.00000000E+00
  0.00000000E+00  0.00000000E+00  0.00000000E+00
  0.00000000E+00  0.00000000E+00  0.00000000E+00
  0.00000000E+00  0.00000000E+00  0.00000000E+00
  0.00000000E+00  0.00000000E+00  0.00000000E+00
  0.00000000E+00  0.00000000E+00  0.00000000E+00
  0.00000000E+00  0.00000000E+00  0.00000000E+00
  0.00000000E+00  0.00000000E+00  0.00000000E+00
  0.00000000E+00  0.00000000E+00  0.00000000E+00
  0.00000000E+00  0.00000000E+00  0.00000000E+00
  0.00000000E+00  0.00000000E+00  0.00000000E+00
  0.00000000E+00  0.00000000E+00  0.00000000E+00
  0.00000000E+00  0.00000000E+00  0.00000000E+00
  0.00000000E+00  0.00000000E+00  0.00000000E+00
  0.00000000E+00  0.00000000E+00  0.00000000E+00
  0.00000000E+00  0.00000000E+00  0.00000000E+00
  0.00000000E+00  0.00000000E+00  0.00000000E+00
  0.00000000E+00  0.00000000E+00  0.00000000E+00
  0.00000000E+00  0.00000000E+00  0.00000000E+00
  0.00000000E+00  0.00000000E+00  0.00000000E+00
  0.00000000E+00  0.00000000E+00  0.00000000E+00
  0.00000000E+00  0.00000000E+00  0.00000000E+00
  0.00000000E+00  0.00000000E+00  0.00000000E+00
  0.00000000E+00  0.00000000E+00  0.00000000E+00
  0.00000000E+00  0.00000000E+00  0.00000000E+00
  0.00000000E+00  0.00000000E+00  0.00000000E+00
  0.00000000E+00  0.00000000E+00  0.00000000E+00
  0.00000000E+00  0.00000000E+00  0.00000000E+00
  0.00000000E+00  0.00000000E+00  0.00000000E+00
  0.00000000E+00  0.00000000E+00  0.00000000E+00
  0.00000000E+00  0.00000000E+00  0.00000000E+00
  0.00000000E+00  0.00000000E+00  0.00000000E+00
  0.00000000E+00  0.00000000E+00  0.00000000E+00
  0.00000000E+00  0.00000000E+00  0.00000000E+00
  0.00000000E+00  0.00000000E+00  0.00000000E+00
  0.00000000E+00  0.00000000E+00  0.00000000E+00
  0.00000000E+00  0.00000000E+00  0.00000000E+00
  0.00000000E+00  0.00000000E+00  0.00000000E+00
  0.00000000E+00  0.00000000E+00  0.00000000E+00
  0.00000000E+00  0.00000000E+00  0.00000000E+00
  0.00000000E+00  0.00000000E+00  0.00000000E+00
  0.00000000E+00  0.00000000E+00  0.00000000E+00
  0.00000000E+00  0.00000000E+00  0.00000000E+00
  0.00000000E+00  0.00000000E+00  0.00000000E+00
  0.00000000E+00  0.00000000E+00  0.00000000E+00
  0.00000000E+00  0.00000000E+00  0.00000000E+00
  0.00000000E+00  0.00000000E+00  0.00000000E+00
  0.00000000E+00  0.00000000E+00  0.00000000E+00
  0.00000000E+00  0.00000000E+00  0.00000000E+00
  0.00000000E+00  0.00000000E+00  0.00000000E+00
  0.00000000E+00  0.00000000E+00  0.00000000E+00
  0.00000000E+00  0.00000000E+00  0.00000000E+00
  0.00000000E+00  0.00000000E+00  0.00000000E+00
  0.00000000E+00  0.00000000E+00  0.00000000E+00
  0.00000000E+00  0.00000000E+00  0.00000000E+00
  0.00000000E+00  0.00000000E+00  0.00000000E+00
  0.00000000E+00  0.00000000E+00  0.00000000E+00
  0.00000000E+00  0.00000000E+00  0.00000000E+00
  0.00000000E+00  0.00000000E+00  0.00000000E+00
  0.00000000E+00  0.00000000E+00  0.00000000E+00
  0.00000000E+00  0.00000000E+00  0.00000000E+00
  0.00000000E+00  0.00000000E+00  0.00000000E+00
  0.00000000E+00  0.00000000E+00  0.00000000E+00
  0.00000000E+00  0.00000000E+00  0.00000000E+00
  0.00000000E+00  0.00000000E+00  0.00000000E+00
  0.00000000E+00  0.00000000E+00  0.00000000E+00
  0.00000000E+00  0.00000000E+00  0.00000000E+00
  0.00000000E+00  0.00000000E+00  0.00000000E+00
  0.00000000E+00  0.00000000E+00  0.00000000E+00
  0.00000000E+00  0.00000000E+00  0.00000000E+00
  0.00000000E+00  0.00000000E+00  0.00000000E+00
  0.00000000E+00  0.00000000E+00  0.00000000E+00
  0.00000000E+00  0.00000000E+00  0.00000000E+00
  0.00000000E+00  0.00000000E+00  0.00000000E+00
  0.00000000E+00  0.00000000E+00  0.00000000E+00
  0.00000000E+00  0.00000000E+00  0.00000000E+00
  0.00000000E+00  0.00000000E+00  0.00000000E+00
  0.00000000E+00  0.00000000E+00  0.00000000E+00
  0.00000000E+00  0.00000000E+00  0.00000000E+00
  0.00000000E+00  0.00000000E+00  0.00000000E+00
  0.00000000E+00  0.00000000E+00  0.00000000E+00
  0.00000000E+00  0.00000000E+00  0.00000000E+00
  0.00000000E+00  0.00000000E+00  0.00000000E+00
  0.00000000E+00  0.00000000E+00  0.00000000E+00
  0.00000000E+00  0.00000000E+00  0.00000000E+00
  0.00000000E+00  0.00000000E+00  0.00000000E+00
  0.00000000E+00  0.00000000E+00  0.00000000E+00
  0.00000000E+00  0.00000000E+00  0.00000000E+00
  0.00000000E+00  0.00000000E+00  0.00000000E+00
  0.00000000E+00  0.00000000E+00  0.00000000E+00
  0.00000000E+00  0.00000000E+00  0.00000000E+00
  0.00000000E+00  0.00000000E+00  0.00000000E+00
  0.00000000E+00  0.00000000E+00  0.00000000E+00
  0.00000000E+00  0.00000000E+00  0.00000000E+00
  0.00000000E+00  0.00000000E+00  0.00000000E+00
  0.00000000E+00  0.00000000E+00  0.00000000E+00
  0.00000000E+00  0.00000000E+00  0.00000000E+00
  0.00000000E+00  0.00000000E+00  0.00000000E+00
  0.00000000E+00  0.00000000E+00  0.00000000E+00
  0.00000000E+00  0.00000000E+00  0.00000000E+00
  0.00000000E+00  0.00000000E+00  0.00000000E+00
  0.00000000E+00  0.00000000E+00  0.00000000E+00
  0.00000000E+00  0.00000000E+00  0.00000000E+00
  0.00000000E+00  0.00000000E+00  0.00000000E+00
  0.00000000E+00  0.00000000E+00  0.00000000E+00
  0.00000000E+00  0.00000000E+00  0.00000000E+00
  0.00000000E+00  0.00000000E+00  0.00000000E+00
  0.00000000E+00  0.00000000E+00  0.00000000E+00
  0.00000000E+00  0.00000000E+00  0.00000000E+00
  0.00000000E+00  0.00000000E+00  0.00000000E+00
  0.00000000E+00  0.00000000E+00  0.00000000E+00
  0.00000000E+00  0.00000000E+00  0.00000000E+00
  0.00000000E+00  0.00000000E+00  0.00000000E+00
  0.00000000E+00  0.00000000E+00  0.00000000E+00
  0.00000000E+00  0.00000000E+00  0.00000000E+00
  0.00000000E+00  0.00000000E+00  0.00000000E+00
  0.00000000E+00  0.00000000E+00  0.00000000E+00
  0.00000000E+00  0.00000000E+00  0.00000000E+00
  0.00000000E+00  0.00000000E+00  0.00000000E+00
  0.00000000E+00  0.00000000E+00  0.00000000E+00
  0.00000000E+00  0.00000000E+00  0.00000000E+00
  0.00000000E+00  0.00000000E+00  0.00000000E+00
  0.00000000E+00  0.00000000E+00  0.00000000E+00
  0.00000000E+00  0.00000000E+00  0.00000000E+00
  0.00000000E+00  0.00000000E+00  0.00000000E+00
  0.00000000E+00  0.00000000E+00  0.00000000E+00
