Mn1 C124 N2 O1                          
   1.00000000000000     
    19.7960890656455533   -0.0147318996159712   -0.0132143483758976
    -9.9111153077692702   17.0346709698255587   -0.0199045764563253
    -0.0199559891597847   -0.0464288991098958   29.8523306985264831
   Mn   C    N    O 
     1   124     2     1
Direct
  0.4377769289219639  0.5003433884837607  0.4252625239112027
  0.0424303104447293  0.0844161743178696  0.3998013341939540
  0.0417741113461572  0.2086576609026042  0.3996180006072215
  0.0410596132082359  0.3331215801674068  0.3994480178678401
  0.0407978330575290  0.4583608658845754  0.3994666032637025
  0.0413427752459278  0.5837395021083867  0.3996523047516421
  0.0417925527885305  0.7090544119076603  0.3998420137081175
  0.0420798034826453  0.8343119827650584  0.3999109260002475
  0.0423546676405618  0.9595393941826356  0.3998704153716371
  0.1682506619446562  0.0858810687030969  0.4002364737196045
  0.1684402131721189  0.2110237381358076  0.4004110597767379
  0.1666163815637438  0.3344614688134054  0.3999833565895906
  0.1647260956720457  0.4587412265852561  0.3996505817556928
  0.1654240441725896  0.5837862720149305  0.3995124617588756
  0.1662739119153828  0.7090622152398545  0.3996955222902621
  0.1668355772289883  0.8343972122215909  0.3998884554350886
  0.1673830496873002  0.9599320841583521  0.4000120949147640
  0.2927084406547469  0.0854944765144444  0.4002644586456059
  0.2946681650701646  0.2129605463017720  0.4017686697630851
  0.2950104027680417  0.3394532892545816  0.4025989089734160
  0.2889496888899272  0.4597135017588418  0.4018798654451931
  0.2892832269445113  0.5841834633760197  0.4009596924522107
  0.2907218071862888  0.7089369883866259  0.4000195059887970
  0.2915354936280565  0.8340526652176233  0.3996915166760250
  0.2919653696333068  0.9594701231186686  0.3997891092955503
  0.4171082380121852  0.0840936679856867  0.3997703144691771
  0.4178469807182588  0.2102984117718381  0.4008347135600723
  0.4211785026873896  0.3389331364076987  0.4038252295723906
  0.4147584721697663  0.7059859744032619  0.4016799647576362
  0.4160950799662855  0.8323995446779429  0.3999947598053645
  0.4166138077246545  0.9582544004438145  0.3996155387579021
  0.5416386637070014  0.0825805063492756  0.3997007319200729
  0.5421507192717293  0.2079062857728670  0.3998803296584190
  0.5433180552898043  0.3329939966712688  0.4009487626261966
  0.5446577497581346  0.4566463274159347  0.4026382421121922
  0.5418692540956406  0.5776549328367147  0.4038642540039423
  0.5379183877299032  0.7027137469576866  0.4031576376242327
  0.5402817810160248  0.8306547560307099  0.4009344200724312
  0.5412259086387159  0.9569466055609382  0.3999023135813648
  0.6663142912884289  0.0820582332380073  0.3999562836281905
  0.6667870001389996  0.2074166647680283  0.3998064293574218
  0.6675277148739140  0.3326969988150557  0.3996956080026586
  0.6688138458556085  0.4580550997029782  0.3997708782470835
  0.6687064203726893  0.5824354144216082  0.3999069969712330
  0.6647546457645633  0.7051392384820602  0.4005178086325259
  0.6645131481371362  0.8301652817082235  0.4007287539834374
  0.6657035897388969  0.9564142594807400  0.4001845954729482
  0.7911291591132247  0.0821282348468555  0.3999466792488566
  0.7914421428321866  0.2073675365736657  0.3999272970270563
  0.7919460188698737  0.3327223614814369  0.3997614430607125
  0.7925973220049358  0.4581125384195943  0.3994887396917335
  0.7930243312537980  0.5833347200571353  0.3993916667545468
  0.7919478190836585  0.7080563619937839  0.3995148860059849
  0.7905976971400779  0.8319311725531465  0.3998210691394962
  0.7905717923310527  0.9567299275231497  0.3998959569161382
  0.9163627593931120  0.0828147725621063  0.3997091830946982
  0.9163212250483583  0.2076792827977799  0.3997257667470360
  0.9163730609193281  0.3328205199289949  0.3997159389721910
  0.9166684032137120  0.4581745234802086  0.3996835784107162
  0.9172236124608653  0.5836257603054006  0.3996586210212403
  0.9171335306467312  0.7088213389239354  0.3996405184418537
  0.9168564767248556  0.8336535402154506  0.3996654437743004
  0.9164961087567143  0.9582066418027833  0.3996905115689963
  0.0845047938252391  0.0433342868017495  0.3999277070900744
  0.0844888159301046  0.1681465766483660  0.3998514406694400
  0.0831192242710173  0.2920115716965083  0.3995643128610811
  0.0820346092992919  0.4167148895453740  0.3993988534672879
  0.0824450746439859  0.5419288871132871  0.3994778844709710
  0.0830875436950956  0.6673044405255885  0.3997426689652079
  0.0835936821343905  0.7926637990847916  0.3999165718875168
  0.0839389252387523  0.9179327641863924  0.3999565993389060
  0.2093672370297592  0.0436522981379513  0.4001768199253314
  0.2105724615324442  0.1699151156434912  0.4008096175591455
  0.2103382506716243  0.2949546726199542  0.4007101767361111
  0.2063700304922861  0.4176325352616132  0.4001205917298022
  0.2062503606309376  0.5420019553376325  0.3998340274589018
  0.2075249821654835  0.6673487119308436  0.3996691826413546
  0.2082531325380794  0.7926188760949672  0.3997648559360686
  0.2087362723659723  0.9179860448007592  0.3999176309322883
  0.3338285736383954  0.0431094532529707  0.3998823182984234
  0.3347993072308166  0.1694360520214552  0.4009801603507800
  0.3371984805981640  0.2974158110544748  0.4033211551075611
  0.3332611506401215  0.4224892478351320  0.4041798361236191
  0.3304382330985121  0.5434551403912067  0.4027926259066183
  0.3317686175089917  0.6670853527165684  0.4009280480454147
  0.3329019382266066  0.7921348944426069  0.3998387620641324
  0.3334052616985226  0.9174668132820044  0.3996649459539519
  0.4584227388954073  0.0417854705575044  0.3996258751479077
  0.4589570658488594  0.1676504430580792  0.4000330715754611
  0.4603338421741215  0.2941061406261669  0.4017432186211946
  0.4539538891233276  0.6612106768991167  0.4037474773709349
  0.4572331348413022  0.7897851424985143  0.4007799354789205
  0.4579401933543421  0.9159603064693440  0.3997524109174890
  0.5830747844412004  0.0405728495386535  0.3998253680488887
  0.5835109642012013  0.1659827386552686  0.3997335552619482
  0.5843375430635014  0.2911044840794097  0.4000513946772907
  0.5857890966955627  0.4158852694543514  0.4008977387142410
  0.5861391305866862  0.5403839768843751  0.4015920715592671
  0.5801063182197032  0.6606735565554801  0.4023425887224287
  0.5804247316597407  0.7871409540871942  0.4016730832503709
  0.5823582182691912  0.9145790573277562  0.4002650526743612
  0.7076764928211726  0.0401216002008022  0.4000283112146968
  0.7082089607961130  0.1656425902469231  0.3999270584150717
  0.7087699011142192  0.2909648218339319  0.3997244951484764
  0.7096303126657834  0.4162547538415656  0.3995186892091704
  0.7103389525498609  0.5413219307796850  0.3995512151346217
  0.7084617297614809  0.6656211693633899  0.3998136855948460
  0.7066440811264341  0.7890604825881739  0.4003210575740919
  0.7068227018992895  0.9141863329624640  0.4002098247700144
  0.8327137830933418  0.0405188203137584  0.3998369847543949
  0.8329710066795818  0.1657331321701106  0.3998957346611370
  0.8332506872946517  0.2909831965250438  0.3998431432494337
  0.8337063869563980  0.4162904432505689  0.3996675728795079
  0.8342609646796858  0.5416811799742333  0.3994886622865950
  0.8340017701139564  0.6669326193992312  0.3994489853564492
  0.8333004022857986  0.7914104948804862  0.3996110053656011
  0.8326567676283312  0.9156565669953797  0.3997788511056989
  0.9585870010386283  0.0418709041184363  0.3996931901120271
  0.9582070138672042  0.1664053290049355  0.3996342390717940
  0.9579211547008257  0.2912300892960557  0.3996074211612238
  0.9578236165734109  0.4164093678145475  0.3996432428979800
  0.9583839024709329  0.5418585795878693  0.3996816721025972
  0.9586754982970661  0.6672113431817531  0.3997448354450342
  0.9587372324562192  0.7923760584482583  0.3997548601458151
  0.9587024332625528  0.9172454207359019  0.3997385122272329
  0.4101639537296990  0.5798790665276238  0.4057134716340546
  0.4649779856715829  0.4202957922244248  0.4056856928522729
  0.4383148529706131  0.5010356387289108  0.4776572102409190
 
  0.00000000E+00  0.00000000E+00  0.00000000E+00
  0.00000000E+00  0.00000000E+00  0.00000000E+00
  0.00000000E+00  0.00000000E+00  0.00000000E+00
  0.00000000E+00  0.00000000E+00  0.00000000E+00
  0.00000000E+00  0.00000000E+00  0.00000000E+00
  0.00000000E+00  0.00000000E+00  0.00000000E+00
  0.00000000E+00  0.00000000E+00  0.00000000E+00
  0.00000000E+00  0.00000000E+00  0.00000000E+00
  0.00000000E+00  0.00000000E+00  0.00000000E+00
  0.00000000E+00  0.00000000E+00  0.00000000E+00
  0.00000000E+00  0.00000000E+00  0.00000000E+00
  0.00000000E+00  0.00000000E+00  0.00000000E+00
  0.00000000E+00  0.00000000E+00  0.00000000E+00
  0.00000000E+00  0.00000000E+00  0.00000000E+00
  0.00000000E+00  0.00000000E+00  0.00000000E+00
  0.00000000E+00  0.00000000E+00  0.00000000E+00
  0.00000000E+00  0.00000000E+00  0.00000000E+00
  0.00000000E+00  0.00000000E+00  0.00000000E+00
  0.00000000E+00  0.00000000E+00  0.00000000E+00
  0.00000000E+00  0.00000000E+00  0.00000000E+00
  0.00000000E+00  0.00000000E+00  0.00000000E+00
  0.00000000E+00  0.00000000E+00  0.00000000E+00
  0.00000000E+00  0.00000000E+00  0.00000000E+00
  0.00000000E+00  0.00000000E+00  0.00000000E+00
  0.00000000E+00  0.00000000E+00  0.00000000E+00
  0.00000000E+00  0.00000000E+00  0.00000000E+00
  0.00000000E+00  0.00000000E+00  0.00000000E+00
  0.00000000E+00  0.00000000E+00  0.00000000E+00
  0.00000000E+00  0.00000000E+00  0.00000000E+00
  0.00000000E+00  0.00000000E+00  0.00000000E+00
  0.00000000E+00  0.00000000E+00  0.00000000E+00
  0.00000000E+00  0.00000000E+00  0.00000000E+00
  0.00000000E+00  0.00000000E+00  0.00000000E+00
  0.00000000E+00  0.00000000E+00  0.00000000E+00
  0.00000000E+00  0.00000000E+00  0.00000000E+00
  0.00000000E+00  0.00000000E+00  0.00000000E+00
  0.00000000E+00  0.00000000E+00  0.00000000E+00
  0.00000000E+00  0.00000000E+00  0.00000000E+00
  0.00000000E+00  0.00000000E+00  0.00000000E+00
  0.00000000E+00  0.00000000E+00  0.00000000E+00
  0.00000000E+00  0.00000000E+00  0.00000000E+00
  0.00000000E+00  0.00000000E+00  0.00000000E+00
  0.00000000E+00  0.00000000E+00  0.00000000E+00
  0.00000000E+00  0.00000000E+00  0.00000000E+00
  0.00000000E+00  0.00000000E+00  0.00000000E+00
  0.00000000E+00  0.00000000E+00  0.00000000E+00
  0.00000000E+00  0.00000000E+00  0.00000000E+00
  0.00000000E+00  0.00000000E+00  0.00000000E+00
  0.00000000E+00  0.00000000E+00  0.00000000E+00
  0.00000000E+00  0.00000000E+00  0.00000000E+00
  0.00000000E+00  0.00000000E+00  0.00000000E+00
  0.00000000E+00  0.00000000E+00  0.00000000E+00
  0.00000000E+00  0.00000000E+00  0.00000000E+00
  0.00000000E+00  0.00000000E+00  0.00000000E+00
  0.00000000E+00  0.00000000E+00  0.00000000E+00
  0.00000000E+00  0.00000000E+00  0.00000000E+00
  0.00000000E+00  0.00000000E+00  0.00000000E+00
  0.00000000E+00  0.00000000E+00  0.00000000E+00
  0.00000000E+00  0.00000000E+00  0.00000000E+00
  0.00000000E+00  0.00000000E+00  0.00000000E+00
  0.00000000E+00  0.00000000E+00  0.00000000E+00
  0.00000000E+00  0.00000000E+00  0.00000000E+00
  0.00000000E+00  0.00000000E+00  0.00000000E+00
  0.00000000E+00  0.00000000E+00  0.00000000E+00
  0.00000000E+00  0.00000000E+00  0.00000000E+00
  0.00000000E+00  0.00000000E+00  0.00000000E+00
  0.00000000E+00  0.00000000E+00  0.00000000E+00
  0.00000000E+00  0.00000000E+00  0.00000000E+00
  0.00000000E+00  0.00000000E+00  0.00000000E+00
  0.00000000E+00  0.00000000E+00  0.00000000E+00
  0.00000000E+00  0.00000000E+00  0.00000000E+00
  0.00000000E+00  0.00000000E+00  0.00000000E+00
  0.00000000E+00  0.00000000E+00  0.00000000E+00
  0.00000000E+00  0.00000000E+00  0.00000000E+00
  0.00000000E+00  0.00000000E+00  0.00000000E+00
  0.00000000E+00  0.00000000E+00  0.00000000E+00
  0.00000000E+00  0.00000000E+00  0.00000000E+00
  0.00000000E+00  0.00000000E+00  0.00000000E+00
  0.00000000E+00  0.00000000E+00  0.00000000E+00
  0.00000000E+00  0.00000000E+00  0.00000000E+00
  0.00000000E+00  0.00000000E+00  0.00000000E+00
  0.00000000E+00  0.00000000E+00  0.00000000E+00
  0.00000000E+00  0.00000000E+00  0.00000000E+00
  0.00000000E+00  0.00000000E+00  0.00000000E+00
  0.00000000E+00  0.00000000E+00  0.00000000E+00
  0.00000000E+00  0.00000000E+00  0.00000000E+00
  0.00000000E+00  0.00000000E+00  0.00000000E+00
  0.00000000E+00  0.00000000E+00  0.00000000E+00
  0.00000000E+00  0.00000000E+00  0.00000000E+00
  0.00000000E+00  0.00000000E+00  0.00000000E+00
  0.00000000E+00  0.00000000E+00  0.00000000E+00
  0.00000000E+00  0.00000000E+00  0.00000000E+00
  0.00000000E+00  0.00000000E+00  0.00000000E+00
  0.00000000E+00  0.00000000E+00  0.00000000E+00
  0.00000000E+00  0.00000000E+00  0.00000000E+00
  0.00000000E+00  0.00000000E+00  0.00000000E+00
  0.00000000E+00  0.00000000E+00  0.00000000E+00
  0.00000000E+00  0.00000000E+00  0.00000000E+00
  0.00000000E+00  0.00000000E+00  0.00000000E+00
  0.00000000E+00  0.00000000E+00  0.00000000E+00
  0.00000000E+00  0.00000000E+00  0.00000000E+00
  0.00000000E+00  0.00000000E+00  0.00000000E+00
  0.00000000E+00  0.00000000E+00  0.00000000E+00
  0.00000000E+00  0.00000000E+00  0.00000000E+00
  0.00000000E+00  0.00000000E+00  0.00000000E+00
  0.00000000E+00  0.00000000E+00  0.00000000E+00
  0.00000000E+00  0.00000000E+00  0.00000000E+00
  0.00000000E+00  0.00000000E+00  0.00000000E+00
  0.00000000E+00  0.00000000E+00  0.00000000E+00
  0.00000000E+00  0.00000000E+00  0.00000000E+00
  0.00000000E+00  0.00000000E+00  0.00000000E+00
  0.00000000E+00  0.00000000E+00  0.00000000E+00
  0.00000000E+00  0.00000000E+00  0.00000000E+00
  0.00000000E+00  0.00000000E+00  0.00000000E+00
  0.00000000E+00  0.00000000E+00  0.00000000E+00
  0.00000000E+00  0.00000000E+00  0.00000000E+00
  0.00000000E+00  0.00000000E+00  0.00000000E+00
  0.00000000E+00  0.00000000E+00  0.00000000E+00
  0.00000000E+00  0.00000000E+00  0.00000000E+00
  0.00000000E+00  0.00000000E+00  0.00000000E+00
  0.00000000E+00  0.00000000E+00  0.00000000E+00
  0.00000000E+00  0.00000000E+00  0.00000000E+00
  0.00000000E+00  0.00000000E+00  0.00000000E+00
  0.00000000E+00  0.00000000E+00  0.00000000E+00
  0.00000000E+00  0.00000000E+00  0.00000000E+00
  0.00000000E+00  0.00000000E+00  0.00000000E+00
  0.00000000E+00  0.00000000E+00  0.00000000E+00
  0.00000000E+00  0.00000000E+00  0.00000000E+00
