H1 Ru1 C122 N4 O1                       
   1.00000000000000     
    19.8361065628194773    0.0028489196952743    0.0201790159003817
    -9.9156689103578906   17.0164611974008047   -0.0477019604582685
     0.0302977413059152   -0.0657837689259052   29.8086692625721277
   H    Ru   C    N    O 
     1     1   122     4     1
Direct
  0.4860016680846507  0.5329500514120061  0.4960303631680526
  0.4374461631704290  0.5005705636323020  0.4189085665802786
  0.0420991439832498  0.0842778391402327  0.3997457750190143
  0.0406998367920599  0.2080497714898158  0.3998773196183763
  0.0396962988438242  0.3327239707465004  0.3994266981323563
  0.0398673282978759  0.4581546009776079  0.3987822929851789
  0.0411563281943294  0.5839041703344007  0.3987684226425506
  0.0423501062369824  0.7095269804515238  0.3991074663514738
  0.0427553983835855  0.8348437484019077  0.3993699308019041
  0.0428225534541797  0.9599956701657726  0.3994947666999468
  0.1684626609709946  0.0863706161858671  0.4006708599230902
  0.1674859708908208  0.2106521321066620  0.4016540391047707
  0.1642848832824654  0.3335190465090306  0.4019543240325295
  0.1629677090105631  0.4584018467146438  0.4004508882006315
  0.1644451515447744  0.5837801073371317  0.3993379702065734
  0.1663084887214412  0.7092446932165170  0.3991440832636226
  0.1672753730084146  0.8348318413243827  0.3994166892904459
  0.1678496735890519  0.9605155800616983  0.3998409523658054
  0.2929657239606437  0.0863665809237282  0.4005933625190073
  0.2945077392203321  0.2140884795891885  0.4032529312847813
  0.2919861180297634  0.3391354436283624  0.4063425255274177
  0.2852826390774941  0.4580380948793474  0.4053859934375605
  0.2872225577122315  0.5830994646436219  0.4017517610345897
  0.2903131882932841  0.7085081040064070  0.3999445680320851
  0.2916612809171834  0.8341386757664747  0.3993891682441298
  0.2923592208731481  0.9600006300998417  0.3996080718930534
  0.4172785266144498  0.0843690707674495  0.3998030059829031
  0.4181046916053872  0.2108009467740048  0.4013333559736310
  0.4217720792089465  0.3392533268894584  0.4059084334954778
  0.4142285310233610  0.7056557745351146  0.4021544237859341
  0.4159394894624877  0.8320863819097113  0.4002353491406218
  0.4167103765854475  0.9582661878861292  0.3995175011338964
  0.5415798753241916  0.0824048968869414  0.3994810104825829
  0.5423001246819897  0.2081918498787813  0.3996760017292325
  0.5440577148885721  0.3337376847469625  0.4012808328855369
  0.5477890836192718  0.4584678007439288  0.4056622980161039
  0.5378760148595114  0.7007186763435597  0.4056395548322602
  0.5401620417076336  0.8295400226326211  0.4018409215657536
  0.5409932823860505  0.9562610776838356  0.3999738018596807
  0.6659510965218377  0.0815222935788688  0.3996461571964154
  0.6666167020107779  0.2072057896777039  0.3993954286917326
  0.6678910317207736  0.3328476108123107  0.3992112690672939
  0.6703325653466053  0.4585891143073101  0.4001190033876264
  0.6711060938607353  0.5833788558186637  0.4025196276174447
  0.6666979047115242  0.7058076856897487  0.4031994055281414
  0.6644933015907126  0.8295791562980855  0.4020724298788111
  0.6653843778144513  0.9557056692245969  0.4004297836395230
  0.7905631952465511  0.0814762422001960  0.3995539670006680
  0.7909251597196892  0.2069509366647818  0.3993859713764578
  0.7917601744389634  0.3325422515633737  0.3990896715838170
  0.7932055378326168  0.4582357189669521  0.3987186001256933
  0.7943979836326225  0.5838945038578419  0.3991705878118573
  0.7934455237267709  0.7086507749554025  0.4002418576919958
  0.7913208291122765  0.8321308380114417  0.4003873349519695
  0.7903262060020475  0.9562303938584980  0.3999530168443828
  0.9158129781346986  0.0823079245931251  0.3992899886238863
  0.9154402682257353  0.2070985261859689  0.3991894056329194
  0.9156257935900831  0.3324949393135055  0.3988991002268753
  0.9165565481064908  0.4582230858332598  0.3986903092121079
  0.9177806846014229  0.5839386647753549  0.3987352487129923
  0.9181224728300291  0.7092965509037993  0.3990946425862713
  0.9176815849045389  0.8341657450009028  0.3993391684089763
  0.9166866627304104  0.9582156789686693  0.3993398122883183
  0.0847538025452394  0.0437690750943231  0.3999085194582046
  0.0837484986292388  0.1678890940777125  0.4003193284040404
  0.0815921789212692  0.2913940660596401  0.4002725924247695
  0.0805712649153020  0.4161446559852346  0.3993433041003859
  0.0817253935524293  0.5417981755848766  0.3988246587168208
  0.0832643715237942  0.6675017075601296  0.3989913028729938
  0.0841507215121813  0.7930914504855928  0.3993393879512294
  0.0845519956741936  0.9185236694339201  0.3995812478404082
  0.2097294579217329  0.0443368721124423  0.4003921034682822
  0.2105802662028278  0.1704823948349441  0.4019298418561722
  0.2083346181400847  0.2942828657079708  0.4030199006360009
  0.2039594781519549  0.4167413170621368  0.4023461106724184
  0.2045657574936599  0.5414634170768573  0.4003877107840496
  0.2070924588188592  0.6672109938940376  0.3993772836057847
  0.2084749498852857  0.7928742033719509  0.3992859157271282
  0.2091852419412540  0.9185340379727787  0.3996311104056869
  0.3341178533351368  0.0437919350173600  0.3999374106898317
  0.3348975477546337  0.1705132092761915  0.4017665866770723
  0.3371048992265449  0.2993837467407449  0.4059259903247127
  0.3272626010534345  0.5417252196882054  0.4044775691369316
  0.3309012321003148  0.6663375145868875  0.4011604029478913
  0.3327649773177723  0.7918909879758391  0.3997608010354212
  0.3335726890702913  0.9176737347369457  0.3994418741816874
  0.4584600654512432  0.0418377987481895  0.3995291385475632
  0.4591471748963723  0.1680157873822676  0.4001393053570885
  0.4607261973709750  0.2945034102021556  0.4025055259919905
  0.4530982376104701  0.6608077096097024  0.4048554736372870
  0.4569481517502577  0.7893275263435382  0.4013850075347264
  0.4578635881810075  0.9157165647960329  0.3998354046211682
  0.5827829319682950  0.0400452580922366  0.3996246341738818
  0.5834343514081445  0.1659439505082039  0.3994218682465741
  0.5846702492499187  0.2915792476135542  0.3997925922050704
  0.5876768100718560  0.4170033765000948  0.4019915825934509
  0.5897876100673537  0.5420849381094811  0.4061876684416180
  0.5830563399070084  0.6610552555383215  0.4064974863404387
  0.5805139965061923  0.7859506634937848  0.4032883446698057
  0.5821259584319297  0.9136600875761560  0.4006801019314991
  0.7072753833245733  0.0395132031540669  0.3998198537356352
  0.7078039256573500  0.1652224851378720  0.3994971899178183
  0.7087074318640189  0.2908219200170900  0.3992001653564352
  0.7104794958975914  0.4162748999560297  0.3990492621307907
  0.7120000850115314  0.5416613282363260  0.4002711704601692
  0.7107513142478892  0.6665594571519581  0.4020297693535386
  0.7075691273228297  0.7893995978999956  0.4017826965613055
  0.7066284572911327  0.9136623902503644  0.4007518766151376
  0.8323013090448497  0.0400018072928444  0.3994938264250202
  0.8323127049969844  0.1651721871249751  0.3993472376123654
  0.8326991986284201  0.2905142757123338  0.3991555839171594
  0.8338039673246684  0.4161522939648153  0.3988019419046653
  0.8350963410507264  0.5418818818538794  0.3987106970072423
  0.8353151512051219  0.6673067402086085  0.3993766370483721
  0.8343564769555485  0.7919617212513939  0.3998975158493577
  0.8330052619641909  0.9157139504137902  0.3997927654483964
  0.9584299808644686  0.0417543173998587  0.3993300718617628
  0.9573754742608566  0.1658173293362176  0.3993121227760222
  0.9569069524962093  0.2907195939338789  0.3990366390534557
  0.9571856857385685  0.4160963653891563  0.3987064445094636
  0.9584073476766386  0.5418230011407839  0.3986867035851459
  0.9594047494190123  0.6675406879858322  0.3989572066452367
  0.9596160129582035  0.7928896939793748  0.3992434699790203
  0.9592997464683327  0.9176773340196784  0.3992962618337890
  0.4075113491808144  0.5801503715993969  0.4065841305044146
  0.5479725915918152  0.5805624822226878  0.4100181122153829
  0.3271096908964617  0.4197114888820151  0.4094521231857970
  0.4673160031493651  0.4202400063033720  0.4089945698830409
  0.4340601520299481  0.5123319168471120  0.4830747970849553
 
  0.00000000E+00  0.00000000E+00  0.00000000E+00
  0.00000000E+00  0.00000000E+00  0.00000000E+00
  0.00000000E+00  0.00000000E+00  0.00000000E+00
  0.00000000E+00  0.00000000E+00  0.00000000E+00
  0.00000000E+00  0.00000000E+00  0.00000000E+00
  0.00000000E+00  0.00000000E+00  0.00000000E+00
  0.00000000E+00  0.00000000E+00  0.00000000E+00
  0.00000000E+00  0.00000000E+00  0.00000000E+00
  0.00000000E+00  0.00000000E+00  0.00000000E+00
  0.00000000E+00  0.00000000E+00  0.00000000E+00
  0.00000000E+00  0.00000000E+00  0.00000000E+00
  0.00000000E+00  0.00000000E+00  0.00000000E+00
  0.00000000E+00  0.00000000E+00  0.00000000E+00
  0.00000000E+00  0.00000000E+00  0.00000000E+00
  0.00000000E+00  0.00000000E+00  0.00000000E+00
  0.00000000E+00  0.00000000E+00  0.00000000E+00
  0.00000000E+00  0.00000000E+00  0.00000000E+00
  0.00000000E+00  0.00000000E+00  0.00000000E+00
  0.00000000E+00  0.00000000E+00  0.00000000E+00
  0.00000000E+00  0.00000000E+00  0.00000000E+00
  0.00000000E+00  0.00000000E+00  0.00000000E+00
  0.00000000E+00  0.00000000E+00  0.00000000E+00
  0.00000000E+00  0.00000000E+00  0.00000000E+00
  0.00000000E+00  0.00000000E+00  0.00000000E+00
  0.00000000E+00  0.00000000E+00  0.00000000E+00
  0.00000000E+00  0.00000000E+00  0.00000000E+00
  0.00000000E+00  0.00000000E+00  0.00000000E+00
  0.00000000E+00  0.00000000E+00  0.00000000E+00
  0.00000000E+00  0.00000000E+00  0.00000000E+00
  0.00000000E+00  0.00000000E+00  0.00000000E+00
  0.00000000E+00  0.00000000E+00  0.00000000E+00
  0.00000000E+00  0.00000000E+00  0.00000000E+00
  0.00000000E+00  0.00000000E+00  0.00000000E+00
  0.00000000E+00  0.00000000E+00  0.00000000E+00
  0.00000000E+00  0.00000000E+00  0.00000000E+00
  0.00000000E+00  0.00000000E+00  0.00000000E+00
  0.00000000E+00  0.00000000E+00  0.00000000E+00
  0.00000000E+00  0.00000000E+00  0.00000000E+00
  0.00000000E+00  0.00000000E+00  0.00000000E+00
  0.00000000E+00  0.00000000E+00  0.00000000E+00
  0.00000000E+00  0.00000000E+00  0.00000000E+00
  0.00000000E+00  0.00000000E+00  0.00000000E+00
  0.00000000E+00  0.00000000E+00  0.00000000E+00
  0.00000000E+00  0.00000000E+00  0.00000000E+00
  0.00000000E+00  0.00000000E+00  0.00000000E+00
  0.00000000E+00  0.00000000E+00  0.00000000E+00
  0.00000000E+00  0.00000000E+00  0.00000000E+00
  0.00000000E+00  0.00000000E+00  0.00000000E+00
  0.00000000E+00  0.00000000E+00  0.00000000E+00
  0.00000000E+00  0.00000000E+00  0.00000000E+00
  0.00000000E+00  0.00000000E+00  0.00000000E+00
  0.00000000E+00  0.00000000E+00  0.00000000E+00
  0.00000000E+00  0.00000000E+00  0.00000000E+00
  0.00000000E+00  0.00000000E+00  0.00000000E+00
  0.00000000E+00  0.00000000E+00  0.00000000E+00
  0.00000000E+00  0.00000000E+00  0.00000000E+00
  0.00000000E+00  0.00000000E+00  0.00000000E+00
  0.00000000E+00  0.00000000E+00  0.00000000E+00
  0.00000000E+00  0.00000000E+00  0.00000000E+00
  0.00000000E+00  0.00000000E+00  0.00000000E+00
  0.00000000E+00  0.00000000E+00  0.00000000E+00
  0.00000000E+00  0.00000000E+00  0.00000000E+00
  0.00000000E+00  0.00000000E+00  0.00000000E+00
  0.00000000E+00  0.00000000E+00  0.00000000E+00
  0.00000000E+00  0.00000000E+00  0.00000000E+00
  0.00000000E+00  0.00000000E+00  0.00000000E+00
  0.00000000E+00  0.00000000E+00  0.00000000E+00
  0.00000000E+00  0.00000000E+00  0.00000000E+00
  0.00000000E+00  0.00000000E+00  0.00000000E+00
  0.00000000E+00  0.00000000E+00  0.00000000E+00
  0.00000000E+00  0.00000000E+00  0.00000000E+00
  0.00000000E+00  0.00000000E+00  0.00000000E+00
  0.00000000E+00  0.00000000E+00  0.00000000E+00
  0.00000000E+00  0.00000000E+00  0.00000000E+00
  0.00000000E+00  0.00000000E+00  0.00000000E+00
  0.00000000E+00  0.00000000E+00  0.00000000E+00
  0.00000000E+00  0.00000000E+00  0.00000000E+00
  0.00000000E+00  0.00000000E+00  0.00000000E+00
  0.00000000E+00  0.00000000E+00  0.00000000E+00
  0.00000000E+00  0.00000000E+00  0.00000000E+00
  0.00000000E+00  0.00000000E+00  0.00000000E+00
  0.00000000E+00  0.00000000E+00  0.00000000E+00
  0.00000000E+00  0.00000000E+00  0.00000000E+00
  0.00000000E+00  0.00000000E+00  0.00000000E+00
  0.00000000E+00  0.00000000E+00  0.00000000E+00
  0.00000000E+00  0.00000000E+00  0.00000000E+00
  0.00000000E+00  0.00000000E+00  0.00000000E+00
  0.00000000E+00  0.00000000E+00  0.00000000E+00
  0.00000000E+00  0.00000000E+00  0.00000000E+00
  0.00000000E+00  0.00000000E+00  0.00000000E+00
  0.00000000E+00  0.00000000E+00  0.00000000E+00
  0.00000000E+00  0.00000000E+00  0.00000000E+00
  0.00000000E+00  0.00000000E+00  0.00000000E+00
  0.00000000E+00  0.00000000E+00  0.00000000E+00
  0.00000000E+00  0.00000000E+00  0.00000000E+00
  0.00000000E+00  0.00000000E+00  0.00000000E+00
  0.00000000E+00  0.00000000E+00  0.00000000E+00
  0.00000000E+00  0.00000000E+00  0.00000000E+00
  0.00000000E+00  0.00000000E+00  0.00000000E+00
  0.00000000E+00  0.00000000E+00  0.00000000E+00
  0.00000000E+00  0.00000000E+00  0.00000000E+00
  0.00000000E+00  0.00000000E+00  0.00000000E+00
  0.00000000E+00  0.00000000E+00  0.00000000E+00
  0.00000000E+00  0.00000000E+00  0.00000000E+00
  0.00000000E+00  0.00000000E+00  0.00000000E+00
  0.00000000E+00  0.00000000E+00  0.00000000E+00
  0.00000000E+00  0.00000000E+00  0.00000000E+00
  0.00000000E+00  0.00000000E+00  0.00000000E+00
  0.00000000E+00  0.00000000E+00  0.00000000E+00
  0.00000000E+00  0.00000000E+00  0.00000000E+00
  0.00000000E+00  0.00000000E+00  0.00000000E+00
  0.00000000E+00  0.00000000E+00  0.00000000E+00
  0.00000000E+00  0.00000000E+00  0.00000000E+00
  0.00000000E+00  0.00000000E+00  0.00000000E+00
  0.00000000E+00  0.00000000E+00  0.00000000E+00
  0.00000000E+00  0.00000000E+00  0.00000000E+00
  0.00000000E+00  0.00000000E+00  0.00000000E+00
  0.00000000E+00  0.00000000E+00  0.00000000E+00
  0.00000000E+00  0.00000000E+00  0.00000000E+00
  0.00000000E+00  0.00000000E+00  0.00000000E+00
  0.00000000E+00  0.00000000E+00  0.00000000E+00
  0.00000000E+00  0.00000000E+00  0.00000000E+00
  0.00000000E+00  0.00000000E+00  0.00000000E+00
  0.00000000E+00  0.00000000E+00  0.00000000E+00
  0.00000000E+00  0.00000000E+00  0.00000000E+00
  0.00000000E+00  0.00000000E+00  0.00000000E+00
  0.00000000E+00  0.00000000E+00  0.00000000E+00
  0.00000000E+00  0.00000000E+00  0.00000000E+00
  0.00000000E+00  0.00000000E+00  0.00000000E+00
