Co1 H1 C126 O1                          
   1.00000000000000     
    19.7676721336128942    0.0002513756967314   -0.0149207202479916
    -9.8839057304540550   17.0543680120142511    0.2479979684972395
    -0.0225038327618054    0.4209748606960915   29.8534390808462611
   Co   H    C    O 
     1     1   126     1
Direct
  0.4367264493277400  0.4976302416641537  0.4268537530649241
  0.4948394894899769  0.5850970925822795  0.4880962356168625
  0.0418687529714901  0.0834981614415883  0.3994544291198697
  0.0414176576091519  0.2079655300567943  0.3993384314038516
  0.0411666676752886  0.3327355846136865  0.3992397879352748
  0.0411458047441444  0.4579437761669365  0.3991497434372658
  0.0413750825309840  0.5831307430048025  0.3991203333850474
  0.0416625689536999  0.7082786378252398  0.3992809666664803
  0.0417819137363792  0.8334313859683863  0.3995662162675607
  0.0418170243999201  0.9584956874793750  0.3995770904532353
  0.1670823202997461  0.0840440430604747  0.3997053144126037
  0.1674774591112178  0.2093722795345482  0.3997407537553813
  0.1663282390161648  0.3330909200072762  0.3997309784025398
  0.1656504570749749  0.4579406108764261  0.3997924591092503
  0.1658784611322299  0.5830120805191221  0.3993686278712810
  0.1664296703937706  0.7082473422219100  0.3993357061875156
  0.1666465156655374  0.8334230542258912  0.3995794627903926
  0.1668465745357481  0.9587087667667913  0.3997622370929717
  0.2919519054409122  0.0840141039424296  0.3999012661345305
  0.2924813909498674  0.2099292420769500  0.4005493816331587
  0.2939205684662120  0.3365407543726597  0.4016284687632675
  0.2899947793638034  0.4575583072607414  0.4016226205150201
  0.2900677222311031  0.5830718773886066  0.4007315447489055
  0.2910456131472308  0.7080252507043967  0.3998235178829933
  0.2914401414398026  0.8331571049218678  0.3996043277630487
  0.2916559121062115  0.9584578159015681  0.3997498088393719
  0.4166345717596622  0.0834323465316979  0.3997425058209011
  0.4169052254890007  0.2093126883975693  0.4002985601588555
  0.4175275914254821  0.3363264592679694  0.4024018794596684
  0.4121671209875321  0.5791301152355073  0.4064193719304894
  0.4153699444168146  0.7057037464184402  0.4017524412111179
  0.4161478414202799  0.8320377041146541  0.4000248564624166
  0.4164149673745440  0.9577643664269287  0.3997491179318923
  0.5413788428288825  0.0825563743248778  0.3997049071995999
  0.5415591704070578  0.2079200946232738  0.3996452896769392
  0.5417872430894027  0.3330543681731600  0.4004824741612472
  0.5426398517998867  0.4576047647312789  0.4022798711610434
  0.5422606775921907  0.5792685947789910  0.4067318237254408
  0.5399963804727643  0.7049809955661753  0.4046847179213128
  0.5405217244373176  0.8310223648130717  0.4013153317491741
  0.5410992947854569  0.9569359076237370  0.4000530758528758
  0.6661127711550824  0.0821286101311480  0.3999417568151139
  0.6663614577296224  0.2075400659296030  0.3996406155300643
  0.6665978587700117  0.3327325777685153  0.3994671228008416
  0.6673400632274403  0.4579673618511973  0.3999714484073852
  0.6680983867506906  0.5831140332385868  0.4006750705326797
  0.6654640242735964  0.7057604886927195  0.4019635324527668
  0.6655398849797717  0.8310391033964032  0.4015308632848070
  0.6657935967187020  0.9565917306941791  0.4004506006016447
  0.7910267635265619  0.0821438554869548  0.3998689167551444
  0.7912299787807224  0.2074268096046140  0.3996130089987703
  0.7914731202733295  0.3327231479780566  0.3993530061122363
  0.7918411247078960  0.4579421356240541  0.3992248085330805
  0.7922153665610757  0.5830441476923837  0.3993062924197977
  0.7920643886961437  0.7080739902078438  0.3998818409174926
  0.7909462664763017  0.8320903842368973  0.4002155678029536
  0.7908639514721407  0.9569648825799688  0.4001894883676446
  0.9162274641072461  0.0826153659758539  0.3995872034955516
  0.9162251470431004  0.2075864027679649  0.3993790215872170
  0.9162879087551083  0.3327465818244378  0.3991819441398794
  0.9164740529528487  0.4579091609584781  0.3990822176963726
  0.9168040238668941  0.5831444405959363  0.3991791850755912
  0.9168713296726999  0.7082705257963525  0.3993508282789614
  0.9167562089023373  0.8332111722397255  0.3995731803430653
  0.9163926634308682  0.9578577138742702  0.3996681670961481
  0.0836529970990028  0.0420197036917071  0.3995467426814485
  0.0837918777067969  0.1670602323158572  0.3994559144599630
  0.0829171391070762  0.2912106289232046  0.3993026334642045
  0.0826865626612256  0.4163106972885523  0.3993226302513978
  0.0827819667250077  0.5413621555959763  0.3991848653422288
  0.0831896976944754  0.6665921545562281  0.3991977541793534
  0.0834054234788576  0.7917914102167625  0.3994773036970176
  0.0834865247628069  0.9168923596586513  0.3996953406624255
  0.2086113975141633  0.0422112117937449  0.3997966521152718
  0.2089419749795250  0.1676306127349722  0.3999363562179987
  0.2095042731618541  0.2931767502547540  0.4001747186251453
  0.2071627864251669  0.4161321503965380  0.4002265825351750
  0.2071096048874162  0.5412984030460891  0.3998200114170082
  0.2079110171249865  0.6665444654685925  0.3994497431795140
  0.2082037928511512  0.7916510217748448  0.3995097981727297
  0.2083897981351787  0.9168868320395938  0.3997559291947639
  0.3333574542606195  0.0419779462689864  0.3998185514257729
  0.3337153838701349  0.1676059367337435  0.4002753251639700
  0.3342109830666247  0.2933600798793133  0.4016536077129241
  0.3345091562982687  0.4197251530977126  0.4035988370873130
  0.3311687173602663  0.5412581898951616  0.4023268728540217
  0.3324260653985565  0.6659578446911790  0.4007301789453711
  0.3328959763593261  0.7912350029071424  0.3997459412314292
  0.3331823397349109  0.9165568112843834  0.3996779492051001
  0.4581021064188529  0.0413044390004278  0.3997039842345169
  0.4582913103607312  0.1670039846846419  0.3998389690699026
  0.4586863205438336  0.2931131296120136  0.4009792360137947
  0.4603101530051029  0.4194577642376647  0.4050017152950863
  0.4562231632498278  0.6620104421791941  0.4043037713456399
  0.4574019717006009  0.7895192501187887  0.4009258190570958
  0.4578506581145098  0.9155624961677121  0.3999235605870962
  0.5828460759635687  0.0405321490604077  0.3998840114999794
  0.5830923936690654  0.1660336183005706  0.3996210013575130
  0.5833007885793713  0.2912029603065677  0.3997312983461680
  0.5840161763202006  0.4161591113634166  0.4007640266652859
  0.5852161437551046  0.5412758969811321  0.4026261494715739
  0.5809273820044882  0.6620522821674707  0.4045743608624708
  0.5817336686243212  0.7884189624604475  0.4025404761804883
  0.5823583860219282  0.9146976882477085  0.4005297833584412
  0.7075940585150755  0.0401844616954334  0.4000542647105381
  0.7078870245410249  0.1656913013438354  0.3997866586312022
  0.7081578420986868  0.2910436342453104  0.3994673361171914
  0.7086558471815181  0.4163127246581059  0.3994493371015275
  0.7092693606721920  0.5413324063665557  0.3997937384708272
  0.7086253228701347  0.6659958501418677  0.4007940580429367
  0.7071953387509478  0.7895592020334230  0.4012009947352457
  0.7073680043155314  0.9147156134100753  0.4006963719852021
  0.8327268086718522  0.0405680977668571  0.3998609161217222
  0.8328488263690679  0.1657066555626307  0.3996207994035475
  0.8330427488224420  0.2910522281501445  0.3993822356257322
  0.8332876482195767  0.4162045646756226  0.3991854653203256
  0.8336467909271417  0.5413813443622517  0.3992018898746283
  0.8337085970361802  0.6665806214801973  0.3993923613526615
  0.8333876296899165  0.7912789275872235  0.3998452223249833
  0.8327537012588666  0.9156161953773488  0.4000268541351410
  0.9582778844406059  0.0413908834905260  0.3995521173608547
  0.9579968036856916  0.1660903759269344  0.3994019339033360
  0.9579123946118542  0.2910722515171867  0.3992029572644578
  0.9579731397560871  0.4162308011132675  0.3990580732166280
  0.9582542457364474  0.5414760911951279  0.3990697574817696
  0.9584465818437595  0.6666004705395353  0.3992640146203317
  0.9584669464961554  0.7916773844420245  0.3995103679573599
  0.9583980275382624  0.9166199031479141  0.3995594898721513
  0.4590914240263474  0.5298901056103281  0.4819680054822897
 
  0.00000000E+00  0.00000000E+00  0.00000000E+00
  0.00000000E+00  0.00000000E+00  0.00000000E+00
  0.00000000E+00  0.00000000E+00  0.00000000E+00
  0.00000000E+00  0.00000000E+00  0.00000000E+00
  0.00000000E+00  0.00000000E+00  0.00000000E+00
  0.00000000E+00  0.00000000E+00  0.00000000E+00
  0.00000000E+00  0.00000000E+00  0.00000000E+00
  0.00000000E+00  0.00000000E+00  0.00000000E+00
  0.00000000E+00  0.00000000E+00  0.00000000E+00
  0.00000000E+00  0.00000000E+00  0.00000000E+00
  0.00000000E+00  0.00000000E+00  0.00000000E+00
  0.00000000E+00  0.00000000E+00  0.00000000E+00
  0.00000000E+00  0.00000000E+00  0.00000000E+00
  0.00000000E+00  0.00000000E+00  0.00000000E+00
  0.00000000E+00  0.00000000E+00  0.00000000E+00
  0.00000000E+00  0.00000000E+00  0.00000000E+00
  0.00000000E+00  0.00000000E+00  0.00000000E+00
  0.00000000E+00  0.00000000E+00  0.00000000E+00
  0.00000000E+00  0.00000000E+00  0.00000000E+00
  0.00000000E+00  0.00000000E+00  0.00000000E+00
  0.00000000E+00  0.00000000E+00  0.00000000E+00
  0.00000000E+00  0.00000000E+00  0.00000000E+00
  0.00000000E+00  0.00000000E+00  0.00000000E+00
  0.00000000E+00  0.00000000E+00  0.00000000E+00
  0.00000000E+00  0.00000000E+00  0.00000000E+00
  0.00000000E+00  0.00000000E+00  0.00000000E+00
  0.00000000E+00  0.00000000E+00  0.00000000E+00
  0.00000000E+00  0.00000000E+00  0.00000000E+00
  0.00000000E+00  0.00000000E+00  0.00000000E+00
  0.00000000E+00  0.00000000E+00  0.00000000E+00
  0.00000000E+00  0.00000000E+00  0.00000000E+00
  0.00000000E+00  0.00000000E+00  0.00000000E+00
  0.00000000E+00  0.00000000E+00  0.00000000E+00
  0.00000000E+00  0.00000000E+00  0.00000000E+00
  0.00000000E+00  0.00000000E+00  0.00000000E+00
  0.00000000E+00  0.00000000E+00  0.00000000E+00
  0.00000000E+00  0.00000000E+00  0.00000000E+00
  0.00000000E+00  0.00000000E+00  0.00000000E+00
  0.00000000E+00  0.00000000E+00  0.00000000E+00
  0.00000000E+00  0.00000000E+00  0.00000000E+00
  0.00000000E+00  0.00000000E+00  0.00000000E+00
  0.00000000E+00  0.00000000E+00  0.00000000E+00
  0.00000000E+00  0.00000000E+00  0.00000000E+00
  0.00000000E+00  0.00000000E+00  0.00000000E+00
  0.00000000E+00  0.00000000E+00  0.00000000E+00
  0.00000000E+00  0.00000000E+00  0.00000000E+00
  0.00000000E+00  0.00000000E+00  0.00000000E+00
  0.00000000E+00  0.00000000E+00  0.00000000E+00
  0.00000000E+00  0.00000000E+00  0.00000000E+00
  0.00000000E+00  0.00000000E+00  0.00000000E+00
  0.00000000E+00  0.00000000E+00  0.00000000E+00
  0.00000000E+00  0.00000000E+00  0.00000000E+00
  0.00000000E+00  0.00000000E+00  0.00000000E+00
  0.00000000E+00  0.00000000E+00  0.00000000E+00
  0.00000000E+00  0.00000000E+00  0.00000000E+00
  0.00000000E+00  0.00000000E+00  0.00000000E+00
  0.00000000E+00  0.00000000E+00  0.00000000E+00
  0.00000000E+00  0.00000000E+00  0.00000000E+00
  0.00000000E+00  0.00000000E+00  0.00000000E+00
  0.00000000E+00  0.00000000E+00  0.00000000E+00
  0.00000000E+00  0.00000000E+00  0.00000000E+00
  0.00000000E+00  0.00000000E+00  0.00000000E+00
  0.00000000E+00  0.00000000E+00  0.00000000E+00
  0.00000000E+00  0.00000000E+00  0.00000000E+00
  0.00000000E+00  0.00000000E+00  0.00000000E+00
  0.00000000E+00  0.00000000E+00  0.00000000E+00
  0.00000000E+00  0.00000000E+00  0.00000000E+00
  0.00000000E+00  0.00000000E+00  0.00000000E+00
  0.00000000E+00  0.00000000E+00  0.00000000E+00
  0.00000000E+00  0.00000000E+00  0.00000000E+00
  0.00000000E+00  0.00000000E+00  0.00000000E+00
  0.00000000E+00  0.00000000E+00  0.00000000E+00
  0.00000000E+00  0.00000000E+00  0.00000000E+00
  0.00000000E+00  0.00000000E+00  0.00000000E+00
  0.00000000E+00  0.00000000E+00  0.00000000E+00
  0.00000000E+00  0.00000000E+00  0.00000000E+00
  0.00000000E+00  0.00000000E+00  0.00000000E+00
  0.00000000E+00  0.00000000E+00  0.00000000E+00
  0.00000000E+00  0.00000000E+00  0.00000000E+00
  0.00000000E+00  0.00000000E+00  0.00000000E+00
  0.00000000E+00  0.00000000E+00  0.00000000E+00
  0.00000000E+00  0.00000000E+00  0.00000000E+00
  0.00000000E+00  0.00000000E+00  0.00000000E+00
  0.00000000E+00  0.00000000E+00  0.00000000E+00
  0.00000000E+00  0.00000000E+00  0.00000000E+00
  0.00000000E+00  0.00000000E+00  0.00000000E+00
  0.00000000E+00  0.00000000E+00  0.00000000E+00
  0.00000000E+00  0.00000000E+00  0.00000000E+00
  0.00000000E+00  0.00000000E+00  0.00000000E+00
  0.00000000E+00  0.00000000E+00  0.00000000E+00
  0.00000000E+00  0.00000000E+00  0.00000000E+00
  0.00000000E+00  0.00000000E+00  0.00000000E+00
  0.00000000E+00  0.00000000E+00  0.00000000E+00
  0.00000000E+00  0.00000000E+00  0.00000000E+00
  0.00000000E+00  0.00000000E+00  0.00000000E+00
  0.00000000E+00  0.00000000E+00  0.00000000E+00
  0.00000000E+00  0.00000000E+00  0.00000000E+00
  0.00000000E+00  0.00000000E+00  0.00000000E+00
  0.00000000E+00  0.00000000E+00  0.00000000E+00
  0.00000000E+00  0.00000000E+00  0.00000000E+00
  0.00000000E+00  0.00000000E+00  0.00000000E+00
  0.00000000E+00  0.00000000E+00  0.00000000E+00
  0.00000000E+00  0.00000000E+00  0.00000000E+00
  0.00000000E+00  0.00000000E+00  0.00000000E+00
  0.00000000E+00  0.00000000E+00  0.00000000E+00
  0.00000000E+00  0.00000000E+00  0.00000000E+00
  0.00000000E+00  0.00000000E+00  0.00000000E+00
  0.00000000E+00  0.00000000E+00  0.00000000E+00
  0.00000000E+00  0.00000000E+00  0.00000000E+00
  0.00000000E+00  0.00000000E+00  0.00000000E+00
  0.00000000E+00  0.00000000E+00  0.00000000E+00
  0.00000000E+00  0.00000000E+00  0.00000000E+00
  0.00000000E+00  0.00000000E+00  0.00000000E+00
  0.00000000E+00  0.00000000E+00  0.00000000E+00
  0.00000000E+00  0.00000000E+00  0.00000000E+00
  0.00000000E+00  0.00000000E+00  0.00000000E+00
  0.00000000E+00  0.00000000E+00  0.00000000E+00
  0.00000000E+00  0.00000000E+00  0.00000000E+00
  0.00000000E+00  0.00000000E+00  0.00000000E+00
  0.00000000E+00  0.00000000E+00  0.00000000E+00
  0.00000000E+00  0.00000000E+00  0.00000000E+00
  0.00000000E+00  0.00000000E+00  0.00000000E+00
  0.00000000E+00  0.00000000E+00  0.00000000E+00
  0.00000000E+00  0.00000000E+00  0.00000000E+00
  0.00000000E+00  0.00000000E+00  0.00000000E+00
  0.00000000E+00  0.00000000E+00  0.00000000E+00
  0.00000000E+00  0.00000000E+00  0.00000000E+00
  0.00000000E+00  0.00000000E+00  0.00000000E+00
  0.00000000E+00  0.00000000E+00  0.00000000E+00
