Re1 H1 C124 N2 O1                       
   1.00000000000000     
    19.8097692175395466   -0.0193272232409900   -0.0267266391307491
    -9.9219187167678911   17.0335079587487073    0.0090395750593295
    -0.0402231081189455   -0.0076338085394064   29.8377620405399249
   Re   H    C    N    O 
     1     1   124     2     1
Direct
  0.4385224099001030  0.5012442141663037  0.4313026719905327
  0.4892377818799657  0.5517046573098935  0.5093875335675953
  0.0424778381744406  0.0845312561089230  0.3998747612247118
  0.0417324625536236  0.2086990257980998  0.3996238817974766
  0.0407999163585564  0.3331257003557990  0.3993789531048002
  0.0404693021274639  0.4583079710496623  0.3995765996255818
  0.0412289588758359  0.5838019011153296  0.3999198128663630
  0.0419243584978142  0.7092362322243578  0.3999897038372901
  0.0422245708181704  0.8344999715318685  0.4000316140625733
  0.0424455401043731  0.9597322673723214  0.4000352988713589
  0.1683978905335628  0.0861304646156381  0.4000170716642739
  0.1685487174802972  0.2113142290147599  0.3997549711396663
  0.1664132869044491  0.3345586188992864  0.3988219765123217
  0.1642122215824485  0.4587897175825508  0.3987293496685542
  0.1650105938388694  0.5838862428217333  0.3993415738263371
  0.1662115788021720  0.7091568574982005  0.3998210127586923
  0.1669011564447469  0.8345562032570916  0.3999065047649837
  0.1675064223326852  0.9601391179993354  0.3999611222672724
  0.2927756046053438  0.0856781752013279  0.4000437711739064
  0.2947008115752725  0.2130460010516137  0.4009441853009295
  0.2952039455925815  0.3398112133313429  0.4013266218355493
  0.2881880226483858  0.4601543969025532  0.3993816976514661
  0.2885388294383605  0.5841498482297414  0.3995421106067164
  0.2905119333837329  0.7088917062555192  0.3998787633208042
  0.2915034500652307  0.8341242767574978  0.3998204810337387
  0.2920959756039836  0.9596515594054443  0.3998098297058207
  0.4171613735598980  0.0841266793728391  0.3997805203958888
  0.4179695811953583  0.2104425293543041  0.4002416147160142
  0.4211082024806036  0.3387499286566363  0.4030129334507411
  0.4144677965942556  0.7057743234805209  0.4007599974816188
  0.4159641393017319  0.8322666641764737  0.3998740019765226
  0.4166057297950669  0.9582253529608324  0.3997743022480919
  0.5416269498609826  0.0824261833503800  0.3998214449515224
  0.5422264066110579  0.2078492880175347  0.3998715262074999
  0.5436183722797922  0.3329323461659395  0.4000934326459333
  0.5462112640565497  0.4570104433646950  0.4002608770220476
  0.5417101812757286  0.5764261983562106  0.4029119756317854
  0.5376517344440479  0.7021750316609492  0.4020390885423699
  0.5401529331031304  0.8303210044366206  0.4003544226455843
  0.5410681071796447  0.9566782346885164  0.3998456955320218
  0.6661919174023334  0.0817610801144909  0.3999052062267323
  0.6667721361047650  0.2072329071174522  0.3999159234046379
  0.6677743661031202  0.3326434911354207  0.3996722223912278
  0.6694483179395981  0.4580223613399104  0.3986536973070722
  0.6692787914830721  0.5822011701729157  0.3975692074041359
  0.6646356038726406  0.7047630274975061  0.3991694013171495
  0.6642705926334809  0.8298191323505059  0.4000933371980469
  0.6655218302229502  0.9560555349632848  0.3999912317343968
  0.7909495757777500  0.0818209791065043  0.4000020469587245
  0.7913324086205290  0.2071348055037059  0.3999821882651433
  0.7919625483296204  0.3325522661355095  0.3999662626879711
  0.7929104571914248  0.4580325223658951  0.3997014250151172
  0.7935351635799396  0.5833938742825798  0.3991708255020748
  0.7920432067771177  0.7079012813395488  0.3990880690868090
  0.7905030771608713  0.8316802296028510  0.3996150319308830
  0.7904485152253543  0.9564523025001209  0.3998890050165282
  0.9162619066943485  0.0826814691149819  0.3999713675392524
  0.9161660128895648  0.2074851189900787  0.3999202548859619
  0.9162141159600440  0.3326729400429852  0.3999300769330278
  0.9166896617938013  0.4581660532731271  0.4000755276773185
  0.9174051634544858  0.5836833942099310  0.4000332893158718
  0.9173294699652983  0.7089047524007164  0.3998678381900450
  0.9169633026138666  0.8337127038084134  0.3999414656810940
  0.9164792927104063  0.9581602536507479  0.3999710042107797
  0.0846237283185523  0.0435673194186664  0.3999507116490992
  0.0845934803853719  0.1683362987580574  0.3996888007489662
  0.0830132900423051  0.2920652841629738  0.3992131005942434
  0.0815500008730955  0.4165668971777683  0.3991796367746998
  0.0821181711399919  0.5419128753489655  0.3995884359548533
  0.0830678088501025  0.6673841010567889  0.3999109222564160
  0.0837065368277487  0.7928108232098829  0.3999630580982509
  0.0841036564811428  0.9181555670892441  0.4000361192361985
  0.2095209025934629  0.0439310202396874  0.4000195110294047
  0.2107856539486897  0.1702132857915199  0.4002082162640352
  0.2104718016297539  0.2952690314410971  0.3995441135198536
  0.2058579233670754  0.4177367470318513  0.3983907892159374
  0.2055757764837798  0.5419311792167280  0.3989324081964592
  0.2072421561113818  0.6673246229883312  0.3996645699774891
  0.2082519132114495  0.7927359958269981  0.3998616198073779
  0.2088361649472017  0.9181998092272173  0.3998927834033484
  0.3339363268058353  0.0433014301303116  0.3998318188019890
  0.3348599528368788  0.1696732306297895  0.4004553403494808
  0.3374757055032513  0.2978691639406509  0.4023076663196672
  0.3337245170627511  0.4235453557216555  0.4028011581992474
  0.3287912881880053  0.5429986926205046  0.4008330626121050
  0.3313834437466640  0.6670497700510164  0.4002077608373837
  0.3327792653330773  0.7921333817945062  0.3998734227889736
  0.3334129534198544  0.9175597204712894  0.3997856725898813
  0.4584264201460615  0.0417631435710851  0.3997839830143103
  0.4590620109928895  0.1677417537459664  0.3998556669096004
  0.4605101722155827  0.2942800053166995  0.4008239696884200
  0.4539276830852104  0.6613526105681085  0.4028029824721303
  0.4570383637527519  0.7895893501798497  0.4001865804926999
  0.4578657641528542  0.9158647092196135  0.3997906754577816
  0.5829370573596379  0.0403242119077254  0.3998351936091542
  0.5835164481873826  0.1658613791991753  0.3998631963738675
  0.5844869514669546  0.2911047995143269  0.3998383809014847
  0.5864644305751571  0.4158206245830287  0.3991716525078235
  0.5870769672368594  0.5396900564118295  0.3984707382835483
  0.5799258465780439  0.6603440532562097  0.4008882173253217
  0.5803845353641535  0.7870095824092870  0.4007674290982875
  0.5822329066977672  0.9143024744943629  0.4000198934976468
  0.7075441495088564  0.0398402100847571  0.3999435444017317
  0.7081096397455570  0.1653964366784109  0.3999526960306671
  0.7088157934091224  0.2908019521996779  0.3998789634636369
  0.7100205895725066  0.4160666687049433  0.3993305688066999
  0.7109066290002707  0.5411471021808050  0.3983360680146069
  0.7087013275088861  0.6654288157903075  0.3983673692538640
  0.7065262207407177  0.7887218772833653  0.3995945865484643
  0.7066695006850762  0.9139084860915266  0.3999532246828318
  0.8326378757142072  0.0402810679385402  0.3999798651690807
  0.8328288094957618  0.1654680670928991  0.4000027348835865
  0.8331236044551039  0.2907043556363199  0.3999928711645789
  0.8337916099630767  0.4161321910187543  0.4000027046269123
  0.8345712161022367  0.5416275463649360  0.3997183895151395
  0.8342726558059266  0.6668318965299207  0.3993793550824951
  0.8333483807268749  0.7913026923384042  0.3996073020692683
  0.8326243958370120  0.9154987918227054  0.3998453317092154
  0.9586180196478995  0.0418561163520090  0.3999613540033467
  0.9581242247149080  0.1662926369577016  0.3998795432875237
  0.9577303243667810  0.2910691857620207  0.3997820365885094
  0.9576284400647492  0.4162501704743744  0.3999198512390928
  0.9583472945750811  0.5417605457210527  0.4000823230185469
  0.9588382969856488  0.6672745021570563  0.4000045031166965
  0.9589118480283713  0.7925023220036146  0.3999816725796414
  0.9588293630242214  0.9173330079540459  0.4000217720375410
  0.4091054761966973  0.5792913480510954  0.4062327102229216
  0.4659087089993776  0.4210442061192953  0.4061817381642303
  0.4425398428396575  0.5114807580508534  0.4940780479548100
 
  0.00000000E+00  0.00000000E+00  0.00000000E+00
  0.00000000E+00  0.00000000E+00  0.00000000E+00
  0.00000000E+00  0.00000000E+00  0.00000000E+00
  0.00000000E+00  0.00000000E+00  0.00000000E+00
  0.00000000E+00  0.00000000E+00  0.00000000E+00
  0.00000000E+00  0.00000000E+00  0.00000000E+00
  0.00000000E+00  0.00000000E+00  0.00000000E+00
  0.00000000E+00  0.00000000E+00  0.00000000E+00
  0.00000000E+00  0.00000000E+00  0.00000000E+00
  0.00000000E+00  0.00000000E+00  0.00000000E+00
  0.00000000E+00  0.00000000E+00  0.00000000E+00
  0.00000000E+00  0.00000000E+00  0.00000000E+00
  0.00000000E+00  0.00000000E+00  0.00000000E+00
  0.00000000E+00  0.00000000E+00  0.00000000E+00
  0.00000000E+00  0.00000000E+00  0.00000000E+00
  0.00000000E+00  0.00000000E+00  0.00000000E+00
  0.00000000E+00  0.00000000E+00  0.00000000E+00
  0.00000000E+00  0.00000000E+00  0.00000000E+00
  0.00000000E+00  0.00000000E+00  0.00000000E+00
  0.00000000E+00  0.00000000E+00  0.00000000E+00
  0.00000000E+00  0.00000000E+00  0.00000000E+00
  0.00000000E+00  0.00000000E+00  0.00000000E+00
  0.00000000E+00  0.00000000E+00  0.00000000E+00
  0.00000000E+00  0.00000000E+00  0.00000000E+00
  0.00000000E+00  0.00000000E+00  0.00000000E+00
  0.00000000E+00  0.00000000E+00  0.00000000E+00
  0.00000000E+00  0.00000000E+00  0.00000000E+00
  0.00000000E+00  0.00000000E+00  0.00000000E+00
  0.00000000E+00  0.00000000E+00  0.00000000E+00
  0.00000000E+00  0.00000000E+00  0.00000000E+00
  0.00000000E+00  0.00000000E+00  0.00000000E+00
  0.00000000E+00  0.00000000E+00  0.00000000E+00
  0.00000000E+00  0.00000000E+00  0.00000000E+00
  0.00000000E+00  0.00000000E+00  0.00000000E+00
  0.00000000E+00  0.00000000E+00  0.00000000E+00
  0.00000000E+00  0.00000000E+00  0.00000000E+00
  0.00000000E+00  0.00000000E+00  0.00000000E+00
  0.00000000E+00  0.00000000E+00  0.00000000E+00
  0.00000000E+00  0.00000000E+00  0.00000000E+00
  0.00000000E+00  0.00000000E+00  0.00000000E+00
  0.00000000E+00  0.00000000E+00  0.00000000E+00
  0.00000000E+00  0.00000000E+00  0.00000000E+00
  0.00000000E+00  0.00000000E+00  0.00000000E+00
  0.00000000E+00  0.00000000E+00  0.00000000E+00
  0.00000000E+00  0.00000000E+00  0.00000000E+00
  0.00000000E+00  0.00000000E+00  0.00000000E+00
  0.00000000E+00  0.00000000E+00  0.00000000E+00
  0.00000000E+00  0.00000000E+00  0.00000000E+00
  0.00000000E+00  0.00000000E+00  0.00000000E+00
  0.00000000E+00  0.00000000E+00  0.00000000E+00
  0.00000000E+00  0.00000000E+00  0.00000000E+00
  0.00000000E+00  0.00000000E+00  0.00000000E+00
  0.00000000E+00  0.00000000E+00  0.00000000E+00
  0.00000000E+00  0.00000000E+00  0.00000000E+00
  0.00000000E+00  0.00000000E+00  0.00000000E+00
  0.00000000E+00  0.00000000E+00  0.00000000E+00
  0.00000000E+00  0.00000000E+00  0.00000000E+00
  0.00000000E+00  0.00000000E+00  0.00000000E+00
  0.00000000E+00  0.00000000E+00  0.00000000E+00
  0.00000000E+00  0.00000000E+00  0.00000000E+00
  0.00000000E+00  0.00000000E+00  0.00000000E+00
  0.00000000E+00  0.00000000E+00  0.00000000E+00
  0.00000000E+00  0.00000000E+00  0.00000000E+00
  0.00000000E+00  0.00000000E+00  0.00000000E+00
  0.00000000E+00  0.00000000E+00  0.00000000E+00
  0.00000000E+00  0.00000000E+00  0.00000000E+00
  0.00000000E+00  0.00000000E+00  0.00000000E+00
  0.00000000E+00  0.00000000E+00  0.00000000E+00
  0.00000000E+00  0.00000000E+00  0.00000000E+00
  0.00000000E+00  0.00000000E+00  0.00000000E+00
  0.00000000E+00  0.00000000E+00  0.00000000E+00
  0.00000000E+00  0.00000000E+00  0.00000000E+00
  0.00000000E+00  0.00000000E+00  0.00000000E+00
  0.00000000E+00  0.00000000E+00  0.00000000E+00
  0.00000000E+00  0.00000000E+00  0.00000000E+00
  0.00000000E+00  0.00000000E+00  0.00000000E+00
  0.00000000E+00  0.00000000E+00  0.00000000E+00
  0.00000000E+00  0.00000000E+00  0.00000000E+00
  0.00000000E+00  0.00000000E+00  0.00000000E+00
  0.00000000E+00  0.00000000E+00  0.00000000E+00
  0.00000000E+00  0.00000000E+00  0.00000000E+00
  0.00000000E+00  0.00000000E+00  0.00000000E+00
  0.00000000E+00  0.00000000E+00  0.00000000E+00
  0.00000000E+00  0.00000000E+00  0.00000000E+00
  0.00000000E+00  0.00000000E+00  0.00000000E+00
  0.00000000E+00  0.00000000E+00  0.00000000E+00
  0.00000000E+00  0.00000000E+00  0.00000000E+00
  0.00000000E+00  0.00000000E+00  0.00000000E+00
  0.00000000E+00  0.00000000E+00  0.00000000E+00
  0.00000000E+00  0.00000000E+00  0.00000000E+00
  0.00000000E+00  0.00000000E+00  0.00000000E+00
  0.00000000E+00  0.00000000E+00  0.00000000E+00
  0.00000000E+00  0.00000000E+00  0.00000000E+00
  0.00000000E+00  0.00000000E+00  0.00000000E+00
  0.00000000E+00  0.00000000E+00  0.00000000E+00
  0.00000000E+00  0.00000000E+00  0.00000000E+00
  0.00000000E+00  0.00000000E+00  0.00000000E+00
  0.00000000E+00  0.00000000E+00  0.00000000E+00
  0.00000000E+00  0.00000000E+00  0.00000000E+00
  0.00000000E+00  0.00000000E+00  0.00000000E+00
  0.00000000E+00  0.00000000E+00  0.00000000E+00
  0.00000000E+00  0.00000000E+00  0.00000000E+00
  0.00000000E+00  0.00000000E+00  0.00000000E+00
  0.00000000E+00  0.00000000E+00  0.00000000E+00
  0.00000000E+00  0.00000000E+00  0.00000000E+00
  0.00000000E+00  0.00000000E+00  0.00000000E+00
  0.00000000E+00  0.00000000E+00  0.00000000E+00
  0.00000000E+00  0.00000000E+00  0.00000000E+00
  0.00000000E+00  0.00000000E+00  0.00000000E+00
  0.00000000E+00  0.00000000E+00  0.00000000E+00
  0.00000000E+00  0.00000000E+00  0.00000000E+00
  0.00000000E+00  0.00000000E+00  0.00000000E+00
  0.00000000E+00  0.00000000E+00  0.00000000E+00
  0.00000000E+00  0.00000000E+00  0.00000000E+00
  0.00000000E+00  0.00000000E+00  0.00000000E+00
  0.00000000E+00  0.00000000E+00  0.00000000E+00
  0.00000000E+00  0.00000000E+00  0.00000000E+00
  0.00000000E+00  0.00000000E+00  0.00000000E+00
  0.00000000E+00  0.00000000E+00  0.00000000E+00
  0.00000000E+00  0.00000000E+00  0.00000000E+00
  0.00000000E+00  0.00000000E+00  0.00000000E+00
  0.00000000E+00  0.00000000E+00  0.00000000E+00
  0.00000000E+00  0.00000000E+00  0.00000000E+00
  0.00000000E+00  0.00000000E+00  0.00000000E+00
  0.00000000E+00  0.00000000E+00  0.00000000E+00
  0.00000000E+00  0.00000000E+00  0.00000000E+00
  0.00000000E+00  0.00000000E+00  0.00000000E+00
  0.00000000E+00  0.00000000E+00  0.00000000E+00
  0.00000000E+00  0.00000000E+00  0.00000000E+00
