Cr1 H1 C123 N3 O2                       
   1.00000000000000     
    19.7725968929128157   -0.0023644668748652    0.7809669487240063
    -9.8737884066993065   17.0190702205639042   -0.3505043010455797
     1.1758711098302326    0.0675936403779941   29.9508361626512034
   Cr   H    C    N    O 
     1     1   123     3     2
Direct
  0.4306309245317557  0.5014705700905613  0.4271534831309863
  0.5395558726940011  0.5207916707544951  0.4872893771644005
  0.0412127226979367  0.0839626299029479  0.4015986877516769
  0.0404867208346163  0.2080725949199770  0.4003273803264228
  0.0401718029252543  0.3328680288427814  0.3979642041728133
  0.0406209416109690  0.4581244138949971  0.3955344679015311
  0.0414645877656509  0.5836315000542818  0.3950200960628312
  0.0419856392961824  0.7090708894589298  0.3964851117800989
  0.0418965683971273  0.8342170079495405  0.3994028126437219
  0.0416280175522212  0.9593528426876252  0.4014886285024861
  0.1669852091877322  0.0853666324588263  0.4024724831815703
  0.1668140677420161  0.2102418508331332  0.4017080767254279
  0.1649223556276395  0.3336849189611651  0.3997823654745516
  0.1644538455244654  0.4582879704519108  0.3972605900854735
  0.1653298075728342  0.5834153488629249  0.3960703257571447
  0.1662456138907721  0.7087508952714254  0.3969043671508579
  0.1666153674459579  0.8342509519198686  0.3996496335128847
  0.1666772431953438  0.9597699688047492  0.4019710494285583
  0.2916611914748821  0.0855674902704958  0.4029815249823704
  0.2924880210169084  0.2126819070248642  0.4033007597497901
  0.2920999177238016  0.3386309549262323  0.4028178257071321
  0.2880841038696957  0.4578361423515726  0.4000837315829714
  0.2887092464921034  0.5828177857991564  0.3978233046524748
  0.2904831645824110  0.7081284330174061  0.3980130367515098
  0.2910913678386421  0.8336360463678674  0.4000298437409701
  0.2912796389629733  0.9593778460449334  0.4022331348693350
  0.4161901360351037  0.0841623281391590  0.4023884524192798
  0.4167350780372564  0.2105006597694460  0.4027437344266299
  0.4185164963662029  0.3387835996260909  0.4057052988290028
  0.4143826329646259  0.7055338850634626  0.3997412585025246
  0.4155149707075589  0.8318898156610489  0.4004337952608866
  0.4158359032541518  0.9579928106716542  0.4017996438955065
  0.5407419078021397  0.0824774918409434  0.4014117780321486
  0.5413599559446328  0.2083603234401422  0.4011448323769816
  0.5420223937683823  0.3341062707829855  0.4033682871290185
  0.5437502033033107  0.4582403675124171  0.4124220056820440
  0.5371042240216279  0.7011827418266081  0.4042073256712181
  0.5396331296171685  0.8298364803163519  0.4015531865453218
  0.5402769534693829  0.9564239964460445  0.4014625191578516
  0.6653358756555243  0.0818048319267620  0.4011317305216036
  0.6659112794724240  0.2074863480104669  0.4000178861693645
  0.6665187676819821  0.3329077514131685  0.3999677676470526
  0.6681523625462883  0.4583691355177911  0.4034863627822691
  0.6703153395562650  0.5845035636045548  0.4075273414752860
  0.6640950934109218  0.7051380151885817  0.4058959338787196
  0.6634699416668949  0.8297177369593879  0.4030190371203549
  0.6647123290446675  0.9559667307721901  0.4017207148037096
  0.7900090078030689  0.0817602994614364  0.4009069288667360
  0.7905032604506010  0.2071852645599217  0.3993527311034966
  0.7912872254636293  0.3327154713256306  0.3975393703533782
  0.7923641963903084  0.4583349755375620  0.3971002701166418
  0.7931146109054233  0.5838051707702799  0.3977078418204534
  0.7923078761121257  0.7083707762119431  0.3996118126601715
  0.7898961135896578  0.8316686901094875  0.4016692675872883
  0.7895787639290623  0.9564148025493320  0.4016451849668670
  0.9152506672897195  0.0823716100505140  0.4009267035578531
  0.9152861887165108  0.2073332885643983  0.3993257146302264
  0.9157437150845775  0.3326589473037549  0.3969749776055082
  0.9165936941561106  0.4581968052936826  0.3950702790919478
  0.9173424008993718  0.5836890872062855  0.3950775641484979
  0.9175201931428149  0.7090668915037783  0.3969128631443239
  0.9166219694299801  0.8336740369610275  0.3996549447818230
  0.9156036592704088  0.9578061312295764  0.4013188582479752
  0.0835268380553410  0.0430045526142453  0.4019583936621121
  0.0830918172171041  0.1676115244175100  0.4012882899465826
  0.0818812931745410  0.2915194969337496  0.3993567038712591
  0.0816614972859174  0.4163009691196815  0.3967488821665274
  0.0824846785146187  0.5417029753479553  0.3952790336453449
  0.0832619024296146  0.6671412828971930  0.3958542589488323
  0.0835498919861283  0.7925565483969815  0.3984058947350588
  0.0834149046736458  0.9178013057877276  0.4011172399133776
  0.2083758440227564  0.0434359525349513  0.4027245453108164
  0.2088914357604944  0.1692944374160845  0.4026046913322799
  0.2084158976604003  0.2941169911141795  0.4011770463644289
  0.2057081639735183  0.4168600388001118  0.3988332071691248
  0.2060122655938538  0.5413650398546538  0.3968711329664653
  0.2074013459682231  0.6668139445177220  0.3967985440614817
  0.2079939569358962  0.7922825188651159  0.3988067402191895
  0.2081558797809774  0.9178059560441234  0.4015343660818129
  0.3329136215415866  0.0431285151650367  0.4028101567647065
  0.3335205224052386  0.1696142547856506  0.4031377213248052
  0.3346413042611604  0.2972105977166174  0.4041848574953415
  0.3298703693246178  0.5417689801344812  0.3992563144100891
  0.3314463092422842  0.6659970317821270  0.3982411992478645
  0.3324686684825673  0.7914748339665458  0.3994565174940023
  0.3326671926651179  0.9171405310491763  0.4015697983423890
  0.4575086358407505  0.0416387943460778  0.4019824260774696
  0.4579754666905450  0.1678119916576483  0.4020284232595893
  0.4587242465442225  0.2945095574658947  0.4037446829865731
  0.4633836474614277  0.4219876638168776  0.4109667831790705
  0.4534345994573022  0.6607311477327970  0.4017182423390057
  0.4566699689679758  0.7892299195768807  0.4005220504882842
  0.4571301427949941  0.9155174374117850  0.4012843432989840
  0.5820247231314472  0.0401873625607816  0.4014080813349071
  0.5826165186436814  0.1661178641468085  0.4008334699358010
  0.5833099081611811  0.2917521092590846  0.4011707620869632
  0.5849487280114748  0.4170538930474473  0.4064730001943082
  0.5870743997438116  0.5435050623984921  0.4251147621253666
  0.5793329649259229  0.6595149386179084  0.4081094537219536
  0.5798120525782821  0.7862717223526536  0.4028435614385598
  0.5814722575903342  0.9139183398164584  0.4015437696241868
  0.7066799853264187  0.0397680309061827  0.4013357864898487
  0.7072265474294963  0.1654849020145575  0.4002526335316514
  0.7078874316948789  0.2910498556216935  0.3990360711970584
  0.7089525517385861  0.4166540913521282  0.3998522423423204
  0.7100500440350443  0.5422999288844823  0.4024661580303051
  0.7087612689446126  0.6659194994904841  0.4040159987209784
  0.7054996106430472  0.7884772725620997  0.4034258992943393
  0.7058150014770903  0.9138118570809906  0.4020735021568462
  0.8316328990258141  0.0401258417170553  0.4011374443642057
  0.8319114750964683  0.1654007348157830  0.3998966893597937
  0.8324591062379553  0.2908288975010004  0.3978116632828173
  0.8334344487429348  0.4164350316282955  0.3962276347952597
  0.8342644133271065  0.5418428676253375  0.3961574636735194
  0.8342644710522157  0.6671388993347416  0.3976245823734689
  0.8331719826623251  0.7915613966199339  0.4000298493237693
  0.8317804863961128  0.9152402952080622  0.4014930627355811
  0.9575155127560041  0.0414711980100884  0.4013509910107895
  0.9570785168070127  0.1659071998576573  0.4001877791209911
  0.9570598164903031  0.2909380016368360  0.3980216568797461
  0.9576067843427948  0.4162324971233586  0.3955388168877792
  0.9584610394732416  0.5417825607397267  0.3947365328172764
  0.9589812624846745  0.6673201973641708  0.3958932529197312
  0.9587467091362767  0.7923945637586178  0.3985216081193032
  0.9581144828960735  0.9170870949179990  0.4009221982213969
  0.4096388955080858  0.5799981649393323  0.4016932785564678
  0.5416348784971808  0.5796410931233869  0.4129422970098324
  0.3298718659401914  0.4198909480264270  0.4033748961673123
  0.5932169196310701  0.5488430055029768  0.4734800858646421
  0.4152932532942952  0.4989095641168733  0.4797950693880551
 
  0.00000000E+00  0.00000000E+00  0.00000000E+00
  0.00000000E+00  0.00000000E+00  0.00000000E+00
  0.00000000E+00  0.00000000E+00  0.00000000E+00
  0.00000000E+00  0.00000000E+00  0.00000000E+00
  0.00000000E+00  0.00000000E+00  0.00000000E+00
  0.00000000E+00  0.00000000E+00  0.00000000E+00
  0.00000000E+00  0.00000000E+00  0.00000000E+00
  0.00000000E+00  0.00000000E+00  0.00000000E+00
  0.00000000E+00  0.00000000E+00  0.00000000E+00
  0.00000000E+00  0.00000000E+00  0.00000000E+00
  0.00000000E+00  0.00000000E+00  0.00000000E+00
  0.00000000E+00  0.00000000E+00  0.00000000E+00
  0.00000000E+00  0.00000000E+00  0.00000000E+00
  0.00000000E+00  0.00000000E+00  0.00000000E+00
  0.00000000E+00  0.00000000E+00  0.00000000E+00
  0.00000000E+00  0.00000000E+00  0.00000000E+00
  0.00000000E+00  0.00000000E+00  0.00000000E+00
  0.00000000E+00  0.00000000E+00  0.00000000E+00
  0.00000000E+00  0.00000000E+00  0.00000000E+00
  0.00000000E+00  0.00000000E+00  0.00000000E+00
  0.00000000E+00  0.00000000E+00  0.00000000E+00
  0.00000000E+00  0.00000000E+00  0.00000000E+00
  0.00000000E+00  0.00000000E+00  0.00000000E+00
  0.00000000E+00  0.00000000E+00  0.00000000E+00
  0.00000000E+00  0.00000000E+00  0.00000000E+00
  0.00000000E+00  0.00000000E+00  0.00000000E+00
  0.00000000E+00  0.00000000E+00  0.00000000E+00
  0.00000000E+00  0.00000000E+00  0.00000000E+00
  0.00000000E+00  0.00000000E+00  0.00000000E+00
  0.00000000E+00  0.00000000E+00  0.00000000E+00
  0.00000000E+00  0.00000000E+00  0.00000000E+00
  0.00000000E+00  0.00000000E+00  0.00000000E+00
  0.00000000E+00  0.00000000E+00  0.00000000E+00
  0.00000000E+00  0.00000000E+00  0.00000000E+00
  0.00000000E+00  0.00000000E+00  0.00000000E+00
  0.00000000E+00  0.00000000E+00  0.00000000E+00
  0.00000000E+00  0.00000000E+00  0.00000000E+00
  0.00000000E+00  0.00000000E+00  0.00000000E+00
  0.00000000E+00  0.00000000E+00  0.00000000E+00
  0.00000000E+00  0.00000000E+00  0.00000000E+00
  0.00000000E+00  0.00000000E+00  0.00000000E+00
  0.00000000E+00  0.00000000E+00  0.00000000E+00
  0.00000000E+00  0.00000000E+00  0.00000000E+00
  0.00000000E+00  0.00000000E+00  0.00000000E+00
  0.00000000E+00  0.00000000E+00  0.00000000E+00
  0.00000000E+00  0.00000000E+00  0.00000000E+00
  0.00000000E+00  0.00000000E+00  0.00000000E+00
  0.00000000E+00  0.00000000E+00  0.00000000E+00
  0.00000000E+00  0.00000000E+00  0.00000000E+00
  0.00000000E+00  0.00000000E+00  0.00000000E+00
  0.00000000E+00  0.00000000E+00  0.00000000E+00
  0.00000000E+00  0.00000000E+00  0.00000000E+00
  0.00000000E+00  0.00000000E+00  0.00000000E+00
  0.00000000E+00  0.00000000E+00  0.00000000E+00
  0.00000000E+00  0.00000000E+00  0.00000000E+00
  0.00000000E+00  0.00000000E+00  0.00000000E+00
  0.00000000E+00  0.00000000E+00  0.00000000E+00
  0.00000000E+00  0.00000000E+00  0.00000000E+00
  0.00000000E+00  0.00000000E+00  0.00000000E+00
  0.00000000E+00  0.00000000E+00  0.00000000E+00
  0.00000000E+00  0.00000000E+00  0.00000000E+00
  0.00000000E+00  0.00000000E+00  0.00000000E+00
  0.00000000E+00  0.00000000E+00  0.00000000E+00
  0.00000000E+00  0.00000000E+00  0.00000000E+00
  0.00000000E+00  0.00000000E+00  0.00000000E+00
  0.00000000E+00  0.00000000E+00  0.00000000E+00
  0.00000000E+00  0.00000000E+00  0.00000000E+00
  0.00000000E+00  0.00000000E+00  0.00000000E+00
  0.00000000E+00  0.00000000E+00  0.00000000E+00
  0.00000000E+00  0.00000000E+00  0.00000000E+00
  0.00000000E+00  0.00000000E+00  0.00000000E+00
  0.00000000E+00  0.00000000E+00  0.00000000E+00
  0.00000000E+00  0.00000000E+00  0.00000000E+00
  0.00000000E+00  0.00000000E+00  0.00000000E+00
  0.00000000E+00  0.00000000E+00  0.00000000E+00
  0.00000000E+00  0.00000000E+00  0.00000000E+00
  0.00000000E+00  0.00000000E+00  0.00000000E+00
  0.00000000E+00  0.00000000E+00  0.00000000E+00
  0.00000000E+00  0.00000000E+00  0.00000000E+00
  0.00000000E+00  0.00000000E+00  0.00000000E+00
  0.00000000E+00  0.00000000E+00  0.00000000E+00
  0.00000000E+00  0.00000000E+00  0.00000000E+00
  0.00000000E+00  0.00000000E+00  0.00000000E+00
  0.00000000E+00  0.00000000E+00  0.00000000E+00
  0.00000000E+00  0.00000000E+00  0.00000000E+00
  0.00000000E+00  0.00000000E+00  0.00000000E+00
  0.00000000E+00  0.00000000E+00  0.00000000E+00
  0.00000000E+00  0.00000000E+00  0.00000000E+00
  0.00000000E+00  0.00000000E+00  0.00000000E+00
  0.00000000E+00  0.00000000E+00  0.00000000E+00
  0.00000000E+00  0.00000000E+00  0.00000000E+00
  0.00000000E+00  0.00000000E+00  0.00000000E+00
  0.00000000E+00  0.00000000E+00  0.00000000E+00
  0.00000000E+00  0.00000000E+00  0.00000000E+00
  0.00000000E+00  0.00000000E+00  0.00000000E+00
  0.00000000E+00  0.00000000E+00  0.00000000E+00
  0.00000000E+00  0.00000000E+00  0.00000000E+00
  0.00000000E+00  0.00000000E+00  0.00000000E+00
  0.00000000E+00  0.00000000E+00  0.00000000E+00
  0.00000000E+00  0.00000000E+00  0.00000000E+00
  0.00000000E+00  0.00000000E+00  0.00000000E+00
  0.00000000E+00  0.00000000E+00  0.00000000E+00
  0.00000000E+00  0.00000000E+00  0.00000000E+00
  0.00000000E+00  0.00000000E+00  0.00000000E+00
  0.00000000E+00  0.00000000E+00  0.00000000E+00
  0.00000000E+00  0.00000000E+00  0.00000000E+00
  0.00000000E+00  0.00000000E+00  0.00000000E+00
  0.00000000E+00  0.00000000E+00  0.00000000E+00
  0.00000000E+00  0.00000000E+00  0.00000000E+00
  0.00000000E+00  0.00000000E+00  0.00000000E+00
  0.00000000E+00  0.00000000E+00  0.00000000E+00
  0.00000000E+00  0.00000000E+00  0.00000000E+00
  0.00000000E+00  0.00000000E+00  0.00000000E+00
  0.00000000E+00  0.00000000E+00  0.00000000E+00
  0.00000000E+00  0.00000000E+00  0.00000000E+00
  0.00000000E+00  0.00000000E+00  0.00000000E+00
  0.00000000E+00  0.00000000E+00  0.00000000E+00
  0.00000000E+00  0.00000000E+00  0.00000000E+00
  0.00000000E+00  0.00000000E+00  0.00000000E+00
  0.00000000E+00  0.00000000E+00  0.00000000E+00
  0.00000000E+00  0.00000000E+00  0.00000000E+00
  0.00000000E+00  0.00000000E+00  0.00000000E+00
  0.00000000E+00  0.00000000E+00  0.00000000E+00
  0.00000000E+00  0.00000000E+00  0.00000000E+00
  0.00000000E+00  0.00000000E+00  0.00000000E+00
  0.00000000E+00  0.00000000E+00  0.00000000E+00
  0.00000000E+00  0.00000000E+00  0.00000000E+00
  0.00000000E+00  0.00000000E+00  0.00000000E+00
  0.00000000E+00  0.00000000E+00  0.00000000E+00
  0.00000000E+00  0.00000000E+00  0.00000000E+00
