Re1 C125 N1                             
   1.00000000000000     
    19.8109745259589154   -0.0239693841332888    0.0026095642208092
    -9.9262740213854865   17.0648434581234945   -0.0066972579700316
     0.0040306554741565   -0.0094861125460629   29.7851441504318011
   Re   C    N 
     1   125     1
Direct
  0.4366257533682372  0.4990597738099241  0.4297910800641276
  0.0421135544476903  0.0842047973598825  0.3998004432556986
  0.0417210255277736  0.2086637104635414  0.3996515049198791
  0.0411423279084093  0.3332383862872464  0.3997822175745475
  0.0408719794222601  0.4584237182608796  0.3998577575907697
  0.0412900918471063  0.5838131434585569  0.3998993357170569
  0.0417596683445935  0.7091203359624598  0.4000733630652326
  0.0419775953424131  0.8343274299955715  0.4001088113725182
  0.0420894249232150  0.9593828815154531  0.3999431739008923
  0.1676595134407975  0.0852601732367901  0.3996476166770018
  0.1679333985466343  0.2104937728988633  0.3994640864147278
  0.1667111257417824  0.3345351647172797  0.3994531944217252
  0.1649169312938271  0.4589020374198355  0.3998594677033967
  0.1652012558513142  0.5839936450017253  0.3996538230770393
  0.1660992254895357  0.7092257360787767  0.3997865120757496
  0.1667179766377565  0.8344666260267736  0.4000411758585401
  0.1671879490525755  0.9597698177960762  0.3999698411424161
  0.2924588066731758  0.0850076798486979  0.3997231911134271
  0.2934652547575534  0.2112933910893374  0.4001432923504296
  0.2943049811218706  0.3377628536883380  0.4007825049024960
  0.2895520809171993  0.4603319575466982  0.4005990876498892
  0.2887985291841502  0.5847463722470096  0.4001293412987166
  0.2904369491061499  0.7093555304827915  0.3997080319345329
  0.2913476453957157  0.8342750588748762  0.3998087860476660
  0.2918947090542842  0.9594669267939157  0.3998505274367866
  0.4170580822535476  0.0837908819446708  0.3995718166152804
  0.4177180760742595  0.2094006156114101  0.3997563979534726
  0.4193056369316503  0.3358146342119477  0.4041658918515236
  0.4145683954835246  0.7074580839243162  0.4001837933775284
  0.4159079330009616  0.8330187233234526  0.3997447748514814
  0.4165347621343787  0.9584135337275514  0.3998538687646289
  0.5416992159977116  0.0825393588815175  0.3997635505185610
  0.5422753992564319  0.2077131280152242  0.3994514441481429
  0.5433521482608291  0.3326287232596527  0.4005142580886745
  0.5464982985869307  0.4571152721428535  0.4039892358610245
  0.5425738675740137  0.5779497227710785  0.4043193881306733
  0.5380487133895997  0.7035294967772427  0.4013876096582949
  0.5403111313759504  0.8311565988624802  0.4000165232106002
  0.5411374897950191  0.9570808480024637  0.3999387731731561
  0.6663547660938273  0.0819910758777931  0.4000558921605729
  0.6669180473030213  0.2072629862181819  0.3997889760862315
  0.6677615709709989  0.3325167712126058  0.3993290432784399
  0.6694102789230403  0.4578500588619911  0.3990566466935193
  0.6694547827840585  0.5827820596631144  0.3993176789888017
  0.6648425870529940  0.7053604401958872  0.3997622716797935
  0.6645704113771879  0.8304701141416680  0.4000049139292430
  0.6657115961079821  0.9565022642440070  0.4000154258676860
  0.7911151884874932  0.0820348581393066  0.4000077535307753
  0.7915528771916949  0.2072669042691680  0.4000827959938500
  0.7921060252526427  0.3325861084803107  0.3998540990934587
  0.7929787947957878  0.4580103311603755  0.3993892895014262
  0.7933722349853857  0.5833388757686163  0.3990932972991552
  0.7921139271643330  0.7081604848242545  0.3992252193124763
  0.7905703173317049  0.8319371409878658  0.3996674875525909
  0.7905608539375026  0.9567355541673874  0.3998949050205211
  0.9162792343321993  0.0827594017954722  0.3998767387308281
  0.9163467874808172  0.2076460986205690  0.3999429488802985
  0.9164729968001257  0.3327940929235522  0.4000668610062684
  0.9168826761146561  0.4581730821989726  0.3999724961824920
  0.9173436455906112  0.5836333115814542  0.3998843074258545
  0.9171926103411308  0.7088568260732800  0.3998540583494999
  0.9168240659717131  0.8336674933279261  0.3999145196064355
  0.9163491967182905  0.9581150965661781  0.3999560498208960
  0.0840539236694828  0.0430162662791848  0.3997830615701817
  0.0841378727436519  0.1678920972633043  0.3996061743687876
  0.0831873554563314  0.2921055447962469  0.3995598061803956
  0.0821336760394818  0.4167619806185428  0.3997836977301845
  0.0822890755082627  0.5419984950175633  0.3997651898465442
  0.0829876875564186  0.6673651790124477  0.3999201177897507
  0.0834850625631221  0.7926780732637797  0.4001012304860501
  0.0837800677980268  0.9178702391753539  0.4000307852003729
  0.2090854133452609  0.0433399470715820  0.3997825992316030
  0.2097364658496579  0.1690008705613490  0.3995753760111913
  0.2099475318213574  0.2943897976335770  0.3994589192313602
  0.2066808768088477  0.4178627565941672  0.3998736667359196
  0.2059996913406074  0.5422442575823048  0.3997956934284747
  0.2072491051611115  0.6675005774128443  0.3996584263518095
  0.2080736885115226  0.7927111554180329  0.3998766598722568
  0.2086021071958615  0.9179642174061663  0.4000068467447545
  0.3337656488948916  0.0428836378797241  0.3996945304413603
  0.3344513089172809  0.1686033550846942  0.3998859428662954
  0.3358675947071795  0.2951275587750028  0.4019821991248274
  0.3334250907610907  0.4215816322630003  0.4022161302770880
  0.3302300432009287  0.5444740013881236  0.4013682307174475
  0.3314821988086202  0.6677026023668832  0.4000092859118907
  0.3326896029602991  0.7925023253729176  0.3997280814806984
  0.3332851974640352  0.9175690373253251  0.3998427265214349
  0.4584509776320370  0.0417439053668353  0.3997452045885311
  0.4590135718449349  0.1671396438910832  0.3994144498065597
  0.4599979529865360  0.2928606835762644  0.4010003597162416
  0.4644288589349903  0.4187393460029348  0.4113395063027780
  0.4540995147864172  0.6635347679086788  0.4017671914790798
  0.4571564963086382  0.7907796422564100  0.3998113746727281
  0.4578791148141768  0.9163325704068673  0.3998567904375095
  0.5830674812250223  0.0405693491845091  0.3999458082649054
  0.5836558730796629  0.1659027310924177  0.3996201732347473
  0.5844115864154624  0.2909779145802388  0.3995527120397149
  0.5865427451161055  0.4157865072076702  0.4005938358416774
  0.5874339000399998  0.5404324249304431  0.4018699862297278
  0.5800772045331481  0.6613162387196916  0.4013280044811890
  0.5806284172891382  0.7878336851729366  0.4003535638447219
  0.5823916853073039  0.9148616740203440  0.3999808165165354
  0.7077128952945039  0.0401160387864377  0.4000512250250320
  0.7082842744728179  0.1655434011999197  0.4000313256385982
  0.7088936958038982  0.2908070610558134  0.3996282597205110
  0.7101015347418739  0.4160372839493345  0.3990495005077724
  0.7107529132793043  0.5411822359424147  0.3989257649987465
  0.7087691053547219  0.6658940077061583  0.3991630873401150
  0.7066168559129146  0.7891916999334763  0.3997064469217890
  0.7068320502154447  0.9143413166984740  0.3999497735101963
  0.8326878659792822  0.0404633044609484  0.3999118262704450
  0.8329887240553121  0.1656310976394944  0.4000392103053526
  0.8333506579564991  0.2908443640817179  0.4000596632366627
  0.8339606001573172  0.4161659770744747  0.3997894471877119
  0.8344987747182053  0.5415829940523964  0.3994686006584484
  0.8341247045741177  0.6668617193656985  0.3993670057907152
  0.8332966156713407  0.7914294809418848  0.3996128513173210
  0.8325670648318311  0.9156130878460793  0.3998739705427937
  0.9583621763805548  0.0417306533986192  0.3999231690417476
  0.9581723592447611  0.1663502938330813  0.3998242421989391
  0.9579665926582388  0.2912081331008743  0.3999573026430091
  0.9579544076877328  0.4163821359419945  0.4000097225633185
  0.9584131009415787  0.5417988200626446  0.3999715513082938
  0.9586826336140285  0.6671841622507715  0.3999981663927031
  0.9586818393301485  0.7923720275859396  0.4000038691225257
  0.9585514147848144  0.9171697580473349  0.3999807538388597
  0.4100640983218427  0.5829632815474743  0.4040179385816490
 
  0.00000000E+00  0.00000000E+00  0.00000000E+00
  0.00000000E+00  0.00000000E+00  0.00000000E+00
  0.00000000E+00  0.00000000E+00  0.00000000E+00
  0.00000000E+00  0.00000000E+00  0.00000000E+00
  0.00000000E+00  0.00000000E+00  0.00000000E+00
  0.00000000E+00  0.00000000E+00  0.00000000E+00
  0.00000000E+00  0.00000000E+00  0.00000000E+00
  0.00000000E+00  0.00000000E+00  0.00000000E+00
  0.00000000E+00  0.00000000E+00  0.00000000E+00
  0.00000000E+00  0.00000000E+00  0.00000000E+00
  0.00000000E+00  0.00000000E+00  0.00000000E+00
  0.00000000E+00  0.00000000E+00  0.00000000E+00
  0.00000000E+00  0.00000000E+00  0.00000000E+00
  0.00000000E+00  0.00000000E+00  0.00000000E+00
  0.00000000E+00  0.00000000E+00  0.00000000E+00
  0.00000000E+00  0.00000000E+00  0.00000000E+00
  0.00000000E+00  0.00000000E+00  0.00000000E+00
  0.00000000E+00  0.00000000E+00  0.00000000E+00
  0.00000000E+00  0.00000000E+00  0.00000000E+00
  0.00000000E+00  0.00000000E+00  0.00000000E+00
  0.00000000E+00  0.00000000E+00  0.00000000E+00
  0.00000000E+00  0.00000000E+00  0.00000000E+00
  0.00000000E+00  0.00000000E+00  0.00000000E+00
  0.00000000E+00  0.00000000E+00  0.00000000E+00
  0.00000000E+00  0.00000000E+00  0.00000000E+00
  0.00000000E+00  0.00000000E+00  0.00000000E+00
  0.00000000E+00  0.00000000E+00  0.00000000E+00
  0.00000000E+00  0.00000000E+00  0.00000000E+00
  0.00000000E+00  0.00000000E+00  0.00000000E+00
  0.00000000E+00  0.00000000E+00  0.00000000E+00
  0.00000000E+00  0.00000000E+00  0.00000000E+00
  0.00000000E+00  0.00000000E+00  0.00000000E+00
  0.00000000E+00  0.00000000E+00  0.00000000E+00
  0.00000000E+00  0.00000000E+00  0.00000000E+00
  0.00000000E+00  0.00000000E+00  0.00000000E+00
  0.00000000E+00  0.00000000E+00  0.00000000E+00
  0.00000000E+00  0.00000000E+00  0.00000000E+00
  0.00000000E+00  0.00000000E+00  0.00000000E+00
  0.00000000E+00  0.00000000E+00  0.00000000E+00
  0.00000000E+00  0.00000000E+00  0.00000000E+00
  0.00000000E+00  0.00000000E+00  0.00000000E+00
  0.00000000E+00  0.00000000E+00  0.00000000E+00
  0.00000000E+00  0.00000000E+00  0.00000000E+00
  0.00000000E+00  0.00000000E+00  0.00000000E+00
  0.00000000E+00  0.00000000E+00  0.00000000E+00
  0.00000000E+00  0.00000000E+00  0.00000000E+00
  0.00000000E+00  0.00000000E+00  0.00000000E+00
  0.00000000E+00  0.00000000E+00  0.00000000E+00
  0.00000000E+00  0.00000000E+00  0.00000000E+00
  0.00000000E+00  0.00000000E+00  0.00000000E+00
  0.00000000E+00  0.00000000E+00  0.00000000E+00
  0.00000000E+00  0.00000000E+00  0.00000000E+00
  0.00000000E+00  0.00000000E+00  0.00000000E+00
  0.00000000E+00  0.00000000E+00  0.00000000E+00
  0.00000000E+00  0.00000000E+00  0.00000000E+00
  0.00000000E+00  0.00000000E+00  0.00000000E+00
  0.00000000E+00  0.00000000E+00  0.00000000E+00
  0.00000000E+00  0.00000000E+00  0.00000000E+00
  0.00000000E+00  0.00000000E+00  0.00000000E+00
  0.00000000E+00  0.00000000E+00  0.00000000E+00
  0.00000000E+00  0.00000000E+00  0.00000000E+00
  0.00000000E+00  0.00000000E+00  0.00000000E+00
  0.00000000E+00  0.00000000E+00  0.00000000E+00
  0.00000000E+00  0.00000000E+00  0.00000000E+00
  0.00000000E+00  0.00000000E+00  0.00000000E+00
  0.00000000E+00  0.00000000E+00  0.00000000E+00
  0.00000000E+00  0.00000000E+00  0.00000000E+00
  0.00000000E+00  0.00000000E+00  0.00000000E+00
  0.00000000E+00  0.00000000E+00  0.00000000E+00
  0.00000000E+00  0.00000000E+00  0.00000000E+00
  0.00000000E+00  0.00000000E+00  0.00000000E+00
  0.00000000E+00  0.00000000E+00  0.00000000E+00
  0.00000000E+00  0.00000000E+00  0.00000000E+00
  0.00000000E+00  0.00000000E+00  0.00000000E+00
  0.00000000E+00  0.00000000E+00  0.00000000E+00
  0.00000000E+00  0.00000000E+00  0.00000000E+00
  0.00000000E+00  0.00000000E+00  0.00000000E+00
  0.00000000E+00  0.00000000E+00  0.00000000E+00
  0.00000000E+00  0.00000000E+00  0.00000000E+00
  0.00000000E+00  0.00000000E+00  0.00000000E+00
  0.00000000E+00  0.00000000E+00  0.00000000E+00
  0.00000000E+00  0.00000000E+00  0.00000000E+00
  0.00000000E+00  0.00000000E+00  0.00000000E+00
  0.00000000E+00  0.00000000E+00  0.00000000E+00
  0.00000000E+00  0.00000000E+00  0.00000000E+00
  0.00000000E+00  0.00000000E+00  0.00000000E+00
  0.00000000E+00  0.00000000E+00  0.00000000E+00
  0.00000000E+00  0.00000000E+00  0.00000000E+00
  0.00000000E+00  0.00000000E+00  0.00000000E+00
  0.00000000E+00  0.00000000E+00  0.00000000E+00
  0.00000000E+00  0.00000000E+00  0.00000000E+00
  0.00000000E+00  0.00000000E+00  0.00000000E+00
  0.00000000E+00  0.00000000E+00  0.00000000E+00
  0.00000000E+00  0.00000000E+00  0.00000000E+00
  0.00000000E+00  0.00000000E+00  0.00000000E+00
  0.00000000E+00  0.00000000E+00  0.00000000E+00
  0.00000000E+00  0.00000000E+00  0.00000000E+00
  0.00000000E+00  0.00000000E+00  0.00000000E+00
  0.00000000E+00  0.00000000E+00  0.00000000E+00
  0.00000000E+00  0.00000000E+00  0.00000000E+00
  0.00000000E+00  0.00000000E+00  0.00000000E+00
  0.00000000E+00  0.00000000E+00  0.00000000E+00
  0.00000000E+00  0.00000000E+00  0.00000000E+00
  0.00000000E+00  0.00000000E+00  0.00000000E+00
  0.00000000E+00  0.00000000E+00  0.00000000E+00
  0.00000000E+00  0.00000000E+00  0.00000000E+00
  0.00000000E+00  0.00000000E+00  0.00000000E+00
  0.00000000E+00  0.00000000E+00  0.00000000E+00
  0.00000000E+00  0.00000000E+00  0.00000000E+00
  0.00000000E+00  0.00000000E+00  0.00000000E+00
  0.00000000E+00  0.00000000E+00  0.00000000E+00
  0.00000000E+00  0.00000000E+00  0.00000000E+00
  0.00000000E+00  0.00000000E+00  0.00000000E+00
  0.00000000E+00  0.00000000E+00  0.00000000E+00
  0.00000000E+00  0.00000000E+00  0.00000000E+00
  0.00000000E+00  0.00000000E+00  0.00000000E+00
  0.00000000E+00  0.00000000E+00  0.00000000E+00
  0.00000000E+00  0.00000000E+00  0.00000000E+00
  0.00000000E+00  0.00000000E+00  0.00000000E+00
  0.00000000E+00  0.00000000E+00  0.00000000E+00
  0.00000000E+00  0.00000000E+00  0.00000000E+00
  0.00000000E+00  0.00000000E+00  0.00000000E+00
  0.00000000E+00  0.00000000E+00  0.00000000E+00
  0.00000000E+00  0.00000000E+00  0.00000000E+00
  0.00000000E+00  0.00000000E+00  0.00000000E+00
  0.00000000E+00  0.00000000E+00  0.00000000E+00
  0.00000000E+00  0.00000000E+00  0.00000000E+00
