Mn1 H1 C124 N2 O1                       
   1.00000000000000     
    19.7860113653397924   -0.0299028279214403   -0.0262170876950965
    -9.9192188610498633   17.0485289906429678    0.0833001901068741
    -0.0395309055912896    0.1238088806456283   29.8570648553740412
   Mn   H    C    N    O 
     1     1   124     2     1
Direct
  0.4376838057795230  0.4994967904318947  0.4250806466144135
  0.4709113391321534  0.5572163544496039  0.5001949401706043
  0.0423831324877881  0.0842453928638289  0.3998549609417418
  0.0420775714164231  0.2087489508070238  0.3994267829080483
  0.0414635700585543  0.3332366479497130  0.3991705669763023
  0.0410934665425436  0.4583027591803819  0.3991416996884802
  0.0412891360403817  0.5835568414869197  0.3990728265516707
  0.0416095553138974  0.7087747928886980  0.3989544007030087
  0.0417905931019423  0.8339157339727896  0.3992783974530300
  0.0420782869076760  0.9591815137120935  0.3998462824261669
  0.1680098696340952  0.0853787651125786  0.4003995921069037
  0.1685687885660025  0.2108084428019666  0.4002814091779863
  0.1672706687648281  0.3346280925461177  0.3997321334222239
  0.1654224648858395  0.4588003411081984  0.3999962728445963
  0.1655198895182169  0.5837136454629154  0.3997990176691291
  0.1661905331782751  0.7088278193154435  0.3995551253573237
  0.1666487083366552  0.8340549959600652  0.3994433151725658
  0.1671198663092302  0.9594984056559551  0.3999623229541056
  0.2924541330944401  0.0849094570053056  0.4006936972075885
  0.2943196613855638  0.2120478043613408  0.4019091382493201
  0.2956553074169064  0.3390790715608661  0.4015175995558918
  0.2905037261419491  0.4605052078157034  0.4010510469849704
  0.2894874569303210  0.5843920451653261  0.4016843045833534
  0.2906034329096081  0.7089206688580809  0.4007308755095960
  0.2914199887229819  0.8338929151474272  0.3998652857181101
  0.2918154594788732  0.9591377980891717  0.3998710631362920
  0.4169734930644275  0.0836839060311649  0.4001825866879087
  0.4176552147476144  0.2094900517220576  0.4014540759569198
  0.4208418679526430  0.3372896922381962  0.4047442026401675
  0.4147107770670225  0.7066878899512831  0.4025484907581707
  0.4160492009356533  0.8326185342171600  0.4006173289403326
  0.4165431170128930  0.9581602774353025  0.3999066054537637
  0.5416351734559246  0.0825299431651744  0.3997604995669358
  0.5421038383933343  0.2076557780931906  0.4003317456893626
  0.5431962672029400  0.3324374732900083  0.4019096408810698
  0.5438530691888916  0.4556602790958719  0.4035422562245636
  0.5407144540709427  0.5773312790636035  0.4030151102499933
  0.5379665948080463  0.7032800638856658  0.4034789529590179
  0.5403739605134960  0.8310151355000990  0.4016087593150912
  0.5412358031026603  0.9570956383208342  0.4002128918235680
  0.6664057847509198  0.0821943932158331  0.3996630922505288
  0.6668215178984951  0.2074740735975590  0.3994381133600201
  0.6674923800889012  0.3326170865318793  0.3998076922875630
  0.6683572321790481  0.4577227272427076  0.4001962465642080
  0.6675262471531688  0.5818072685801123  0.4002946413358990
  0.6641768563654346  0.7048687682984882  0.4007046724262069
  0.6645334097816827  0.8303877004170707  0.4011516116779224
  0.6657899618001598  0.9566061380814994  0.4005288504374127
  0.7912650875634788  0.0822694196299561  0.3997639430532967
  0.7915822668251884  0.2075262756746646  0.3992633824733979
  0.7919744024920128  0.3327510597416510  0.3989902260861975
  0.7923999976625389  0.4580027828332844  0.3989525410781123
  0.7924400697403807  0.5831025987190289  0.3991684981244222
  0.7912945248990192  0.7076099715098710  0.3995358511575613
  0.7903259484108192  0.8317363898450255  0.4000875927639462
  0.7906368244437521  0.9568098065174665  0.4001899692502492
  0.9164783527465977  0.0828560722842297  0.3996689456932054
  0.9165600049901028  0.2078270626229859  0.3993040628932771
  0.9165825919066919  0.3329243768173852  0.3990696657900261
  0.9167228448664037  0.4581627581320242  0.3988410362657999
  0.9169104811592617  0.5834114678176938  0.3987262373049258
  0.9167264943401006  0.7084663696848614  0.3989084210050747
  0.9165043978485025  0.8333134596329724  0.3994950993174730
  0.9163739447279606  0.9580508439785583  0.3998495499866044
  0.0842657637442829  0.0429730452676753  0.4000300790259270
  0.0845778312102981  0.1680269366957347  0.3998182481065908
  0.0836441228725808  0.2921718660534769  0.3993112258444589
  0.0825113651182718  0.4167056625122131  0.3993120804768476
  0.0825193354968370  0.5418008270859919  0.3992769242201841
  0.0829755996267668  0.6670627042945274  0.3991511784047088
  0.0833488292410490  0.7922741300970190  0.3991664863571080
  0.0836628693809052  0.9175312281524991  0.3997187258231405
  0.2091085088225409  0.0431644877717818  0.4004257629612399
  0.2103972461678268  0.1693813804024846  0.4008145136059191
  0.2107666678990002  0.2948264025252195  0.4003246147162847
  0.2074504044334022  0.4179055747867752  0.4002700048155534
  0.2065232867184305  0.5420067377826311  0.4003301531615826
  0.2074279313396183  0.6671437808846555  0.4000255608913474
  0.2081152500072800  0.7923176138345868  0.3996114850337766
  0.2085079215487088  0.9175995502609284  0.3997600227564140
  0.3336674994540955  0.0426762250424932  0.4002226040631132
  0.3345261529180778  0.1687056344315621  0.4014826509238031
  0.3369874097827866  0.2963909408084965  0.4031868274610220
  0.3348080053782401  0.4225182232919912  0.4013053426679979
  0.3310386785433488  0.5439688333362657  0.4030212960087530
  0.3317010587386275  0.6672569193901066  0.4018688639368655
  0.3327967583126096  0.7920906124114665  0.4003821617184035
  0.3332846020886605  0.9172586593973526  0.3998257833245915
  0.4583502214009826  0.0415993533894016  0.3999051331562712
  0.4588552484914827  0.1671508835554870  0.4005938036080611
  0.4601765748514867  0.2930158032553972  0.4026073850992730
  0.4540235836160193  0.6623037359525316  0.4046341445714152
  0.4572324356256185  0.7902468147590349  0.4014991678761116
  0.4579471675747370  0.9160824309458176  0.4001709005091985
  0.5831001624907530  0.0406486316849445  0.3998008586830117
  0.5835004509573631  0.1658857278668279  0.3997635643971239
  0.5842994709829615  0.2908133541732284  0.4006650434512444
  0.5853935438629120  0.4152852099366876  0.4017186308137450
  0.5845457984466625  0.5390436188314857  0.4016378513810517
  0.5793227862907032  0.6606826539010499  0.4021488796738639
  0.5806216451411683  0.7877034380763056  0.4021656037961990
  0.5824432276130809  0.9148346258228541  0.4007645845093802
  0.7077990217168566  0.0403039666677787  0.3999613035811446
  0.7082705211436747  0.1657485265268766  0.3993746308783679
  0.7087657403306186  0.2909639107435039  0.3993032225480965
  0.7093842060710471  0.4160525631867470  0.3995372123354852
  0.7095265699926045  0.5409393657552857  0.3998675398750581
  0.7077084703854281  0.6651047976592042  0.4000386856389693
  0.7063120676020745  0.7889066312396454  0.4006427342979645
  0.7069019175974161  0.9144163896655630  0.4006458130777093
  0.8328310561403185  0.0406055131176294  0.3998952926166829
  0.8331383824858143  0.1658927350703255  0.3994233043094566
  0.8333495775534986  0.2910469419441130  0.3990813523719986
  0.8336520349929246  0.4162713744405065  0.3988681412335397
  0.8338616346283936  0.5415027985051996  0.3988615306222737
  0.8334847572259162  0.6665474023264197  0.3991366871731751
  0.8328292063796755  0.7910511913856381  0.3996716833513461
  0.8325356894676312  0.9155505513711077  0.4000554447254972
  0.9585361805801933  0.0417540379763018  0.3997545357134328
  0.9584334618948945  0.1664934998823505  0.3994109373556229
  0.9582086944798672  0.2913490007389167  0.3991415341295129
  0.9580383874288664  0.4164395232948310  0.3989721953731703
  0.9582285742672481  0.5416852340839466  0.3988360887898876
  0.9583740186773170  0.6669067769752487  0.3987646684548263
  0.9583739245638110  0.7919805574216821  0.3991627396104086
  0.9584395437842985  0.9169252660981142  0.3997291905019835
  0.4108786482589966  0.5815116232511089  0.4068524682229620
  0.4640344072533359  0.4179442458541263  0.4074190782481362
  0.4556250206952527  0.5082862490230285  0.4847070433180398
 
  0.00000000E+00  0.00000000E+00  0.00000000E+00
  0.00000000E+00  0.00000000E+00  0.00000000E+00
  0.00000000E+00  0.00000000E+00  0.00000000E+00
  0.00000000E+00  0.00000000E+00  0.00000000E+00
  0.00000000E+00  0.00000000E+00  0.00000000E+00
  0.00000000E+00  0.00000000E+00  0.00000000E+00
  0.00000000E+00  0.00000000E+00  0.00000000E+00
  0.00000000E+00  0.00000000E+00  0.00000000E+00
  0.00000000E+00  0.00000000E+00  0.00000000E+00
  0.00000000E+00  0.00000000E+00  0.00000000E+00
  0.00000000E+00  0.00000000E+00  0.00000000E+00
  0.00000000E+00  0.00000000E+00  0.00000000E+00
  0.00000000E+00  0.00000000E+00  0.00000000E+00
  0.00000000E+00  0.00000000E+00  0.00000000E+00
  0.00000000E+00  0.00000000E+00  0.00000000E+00
  0.00000000E+00  0.00000000E+00  0.00000000E+00
  0.00000000E+00  0.00000000E+00  0.00000000E+00
  0.00000000E+00  0.00000000E+00  0.00000000E+00
  0.00000000E+00  0.00000000E+00  0.00000000E+00
  0.00000000E+00  0.00000000E+00  0.00000000E+00
  0.00000000E+00  0.00000000E+00  0.00000000E+00
  0.00000000E+00  0.00000000E+00  0.00000000E+00
  0.00000000E+00  0.00000000E+00  0.00000000E+00
  0.00000000E+00  0.00000000E+00  0.00000000E+00
  0.00000000E+00  0.00000000E+00  0.00000000E+00
  0.00000000E+00  0.00000000E+00  0.00000000E+00
  0.00000000E+00  0.00000000E+00  0.00000000E+00
  0.00000000E+00  0.00000000E+00  0.00000000E+00
  0.00000000E+00  0.00000000E+00  0.00000000E+00
  0.00000000E+00  0.00000000E+00  0.00000000E+00
  0.00000000E+00  0.00000000E+00  0.00000000E+00
  0.00000000E+00  0.00000000E+00  0.00000000E+00
  0.00000000E+00  0.00000000E+00  0.00000000E+00
  0.00000000E+00  0.00000000E+00  0.00000000E+00
  0.00000000E+00  0.00000000E+00  0.00000000E+00
  0.00000000E+00  0.00000000E+00  0.00000000E+00
  0.00000000E+00  0.00000000E+00  0.00000000E+00
  0.00000000E+00  0.00000000E+00  0.00000000E+00
  0.00000000E+00  0.00000000E+00  0.00000000E+00
  0.00000000E+00  0.00000000E+00  0.00000000E+00
  0.00000000E+00  0.00000000E+00  0.00000000E+00
  0.00000000E+00  0.00000000E+00  0.00000000E+00
  0.00000000E+00  0.00000000E+00  0.00000000E+00
  0.00000000E+00  0.00000000E+00  0.00000000E+00
  0.00000000E+00  0.00000000E+00  0.00000000E+00
  0.00000000E+00  0.00000000E+00  0.00000000E+00
  0.00000000E+00  0.00000000E+00  0.00000000E+00
  0.00000000E+00  0.00000000E+00  0.00000000E+00
  0.00000000E+00  0.00000000E+00  0.00000000E+00
  0.00000000E+00  0.00000000E+00  0.00000000E+00
  0.00000000E+00  0.00000000E+00  0.00000000E+00
  0.00000000E+00  0.00000000E+00  0.00000000E+00
  0.00000000E+00  0.00000000E+00  0.00000000E+00
  0.00000000E+00  0.00000000E+00  0.00000000E+00
  0.00000000E+00  0.00000000E+00  0.00000000E+00
  0.00000000E+00  0.00000000E+00  0.00000000E+00
  0.00000000E+00  0.00000000E+00  0.00000000E+00
  0.00000000E+00  0.00000000E+00  0.00000000E+00
  0.00000000E+00  0.00000000E+00  0.00000000E+00
  0.00000000E+00  0.00000000E+00  0.00000000E+00
  0.00000000E+00  0.00000000E+00  0.00000000E+00
  0.00000000E+00  0.00000000E+00  0.00000000E+00
  0.00000000E+00  0.00000000E+00  0.00000000E+00
  0.00000000E+00  0.00000000E+00  0.00000000E+00
  0.00000000E+00  0.00000000E+00  0.00000000E+00
  0.00000000E+00  0.00000000E+00  0.00000000E+00
  0.00000000E+00  0.00000000E+00  0.00000000E+00
  0.00000000E+00  0.00000000E+00  0.00000000E+00
  0.00000000E+00  0.00000000E+00  0.00000000E+00
  0.00000000E+00  0.00000000E+00  0.00000000E+00
  0.00000000E+00  0.00000000E+00  0.00000000E+00
  0.00000000E+00  0.00000000E+00  0.00000000E+00
  0.00000000E+00  0.00000000E+00  0.00000000E+00
  0.00000000E+00  0.00000000E+00  0.00000000E+00
  0.00000000E+00  0.00000000E+00  0.00000000E+00
  0.00000000E+00  0.00000000E+00  0.00000000E+00
  0.00000000E+00  0.00000000E+00  0.00000000E+00
  0.00000000E+00  0.00000000E+00  0.00000000E+00
  0.00000000E+00  0.00000000E+00  0.00000000E+00
  0.00000000E+00  0.00000000E+00  0.00000000E+00
  0.00000000E+00  0.00000000E+00  0.00000000E+00
  0.00000000E+00  0.00000000E+00  0.00000000E+00
  0.00000000E+00  0.00000000E+00  0.00000000E+00
  0.00000000E+00  0.00000000E+00  0.00000000E+00
  0.00000000E+00  0.00000000E+00  0.00000000E+00
  0.00000000E+00  0.00000000E+00  0.00000000E+00
  0.00000000E+00  0.00000000E+00  0.00000000E+00
  0.00000000E+00  0.00000000E+00  0.00000000E+00
  0.00000000E+00  0.00000000E+00  0.00000000E+00
  0.00000000E+00  0.00000000E+00  0.00000000E+00
  0.00000000E+00  0.00000000E+00  0.00000000E+00
  0.00000000E+00  0.00000000E+00  0.00000000E+00
  0.00000000E+00  0.00000000E+00  0.00000000E+00
  0.00000000E+00  0.00000000E+00  0.00000000E+00
  0.00000000E+00  0.00000000E+00  0.00000000E+00
  0.00000000E+00  0.00000000E+00  0.00000000E+00
  0.00000000E+00  0.00000000E+00  0.00000000E+00
  0.00000000E+00  0.00000000E+00  0.00000000E+00
  0.00000000E+00  0.00000000E+00  0.00000000E+00
  0.00000000E+00  0.00000000E+00  0.00000000E+00
  0.00000000E+00  0.00000000E+00  0.00000000E+00
  0.00000000E+00  0.00000000E+00  0.00000000E+00
  0.00000000E+00  0.00000000E+00  0.00000000E+00
  0.00000000E+00  0.00000000E+00  0.00000000E+00
  0.00000000E+00  0.00000000E+00  0.00000000E+00
  0.00000000E+00  0.00000000E+00  0.00000000E+00
  0.00000000E+00  0.00000000E+00  0.00000000E+00
  0.00000000E+00  0.00000000E+00  0.00000000E+00
  0.00000000E+00  0.00000000E+00  0.00000000E+00
  0.00000000E+00  0.00000000E+00  0.00000000E+00
  0.00000000E+00  0.00000000E+00  0.00000000E+00
  0.00000000E+00  0.00000000E+00  0.00000000E+00
  0.00000000E+00  0.00000000E+00  0.00000000E+00
  0.00000000E+00  0.00000000E+00  0.00000000E+00
  0.00000000E+00  0.00000000E+00  0.00000000E+00
  0.00000000E+00  0.00000000E+00  0.00000000E+00
  0.00000000E+00  0.00000000E+00  0.00000000E+00
  0.00000000E+00  0.00000000E+00  0.00000000E+00
  0.00000000E+00  0.00000000E+00  0.00000000E+00
  0.00000000E+00  0.00000000E+00  0.00000000E+00
  0.00000000E+00  0.00000000E+00  0.00000000E+00
  0.00000000E+00  0.00000000E+00  0.00000000E+00
  0.00000000E+00  0.00000000E+00  0.00000000E+00
  0.00000000E+00  0.00000000E+00  0.00000000E+00
  0.00000000E+00  0.00000000E+00  0.00000000E+00
  0.00000000E+00  0.00000000E+00  0.00000000E+00
  0.00000000E+00  0.00000000E+00  0.00000000E+00
  0.00000000E+00  0.00000000E+00  0.00000000E+00
  0.00000000E+00  0.00000000E+00  0.00000000E+00
