Ta1 H1 C125 N1 O1                       
   1.00000000000000     
    19.8130154043495885   -0.0102391145802024   -0.0226978564141309
    -9.9157707618939970   17.0670821551133827   -0.2946182246979868
    -0.0341708394527528   -0.5328899826388688   29.7757445815425967
   Ta   H    C    N    O 
     1     1   125     1     1
Direct
  0.4398491603268407  0.5042944109385020  0.4336707575211898
  0.4800717574611337  0.5273923976675760  0.5220359543329437
  0.0420231021934736  0.0841909114505212  0.3996816743357416
  0.0414252660564998  0.2085760840111698  0.3996208236208942
  0.0408663345338159  0.3332192274863239  0.3993439862243845
  0.0408303158354136  0.4585078324688983  0.3992556657048994
  0.0415011578315329  0.5839562024868827  0.3997717522556810
  0.0420968280437001  0.7092946634005153  0.4000074024687199
  0.0423340810302752  0.8345120146293198  0.3997990658426759
  0.0423443862515126  0.9595348430268167  0.3995826353204429
  0.1676263200235385  0.0852011830836116  0.3999926495284724
  0.1673097653039504  0.2099708689473618  0.4004572611053235
  0.1661243682348117  0.3342310273193541  0.4003902350585004
  0.1646848693011168  0.4587638896440437  0.3994325012289680
  0.1653918125271637  0.5839334921204593  0.3991235365314670
  0.1664465023542826  0.7092562810631351  0.3996420630942893
  0.1670372439739981  0.8345341277959445  0.3997415182544559
  0.1673958307772637  0.9598574013006644  0.3996817541798369
  0.2925500907879068  0.0851080723218394  0.3999630057660915
  0.2933366444555661  0.2114484466373771  0.4017497611301075
  0.2928802764067475  0.3369950030265600  0.4035399706399249
  0.2889944950820415  0.4596950890126505  0.4021742223075782
  0.2891010977951572  0.5844957151495822  0.3997888681881140
  0.2908487927173194  0.7092668805749921  0.3992388606894664
  0.2916684008092033  0.8342915939036863  0.3994130981263669
  0.2920635232807134  0.9594998535211795  0.3994987167472075
  0.4171471292159056  0.0839235901988657  0.3995274618017601
  0.4176871903116587  0.2094286705682305  0.4003310236409882
  0.4195059931268393  0.3362962648462577  0.4041395421224763
  0.4151293642556887  0.7075534373163619  0.3995846643210851
  0.4162289639343514  0.8331310410343908  0.3991790261271584
  0.4167645893984427  0.9585532874430868  0.3994307493496557
  0.5417758591413672  0.0828571453824779  0.3995803953039746
  0.5422936717924820  0.2080413730933594  0.3994738320882809
  0.5432462984368818  0.3331475424613668  0.4003026250747989
  0.5460198345661144  0.4577522628233028  0.4025526750236967
  0.5448945494727482  0.5813155002860625  0.4028181044862107
  0.5389985952608827  0.7046090876238280  0.4006895727074371
  0.5407337525106756  0.8317378471204505  0.3994168373807358
  0.5414093315815662  0.9575032962900873  0.3995508563728234
  0.6664859537001179  0.0824867476768618  0.3998208245954433
  0.6669003411098645  0.2076883402959574  0.3996400012857653
  0.6676211388186561  0.3328352917619524  0.3992375228007908
  0.6694057568468782  0.4582830600084187  0.3990351205951664
  0.6700034943923301  0.5836941482742899  0.3990275522546670
  0.6665691125958544  0.7071360056732342  0.3987006763061439
  0.6652658288235165  0.8313719454378941  0.3991973364297581
  0.6660014592649011  0.9570963596512073  0.3996188465292007
  0.7912191846008870  0.0825067339555252  0.3997170139299600
  0.7915015849933231  0.2076727434947406  0.3997650025146679
  0.7920532643480722  0.3329515227415401  0.3996234674081872
  0.7929794382094444  0.4583724615921422  0.3992182187844766
  0.7935304751904165  0.5836723780305477  0.3988178360267512
  0.7928849748312635  0.7088737242045487  0.3986720307318302
  0.7914655987911723  0.8329055906871016  0.3989029935585019
  0.7909296183460726  0.9573347457349588  0.3994128746182732
  0.9163225860821822  0.0830397807114409  0.3995491448196709
  0.9162238752898034  0.2078793638480780  0.3995678346832146
  0.9163761610187833  0.3330498737755779  0.3995581564673092
  0.9168762551695574  0.4584206984416893  0.3996897076302569
  0.9175473001024658  0.5839046966192341  0.3997592805436437
  0.9175842748922740  0.7091837411698522  0.3995565190146728
  0.9173153953223462  0.8340791613465164  0.3993756402758119
  0.9167219264269949  0.9585498065143790  0.3994639639277048
  0.0841216511914593  0.0430660374455327  0.3996785028273270
  0.0837185082738327  0.1676465397016184  0.3998255418773550
  0.0827619590673440  0.2919449775799476  0.3996629938836284
  0.0819511008583261  0.4167225701770385  0.3991588763911540
  0.0824825294196357  0.5420475011527653  0.3993458610626417
  0.0833225296093497  0.6674950652008824  0.3999012978174772
  0.0838291218570267  0.7928377882144029  0.3998859661745681
  0.0840344072677762  0.9179863507941141  0.3996796231793870
  0.2091345241861432  0.0433166577788879  0.3998567836076246
  0.2094406051504614  0.1688343235229778  0.4007242931555202
  0.2089303942800944  0.2936365708657297  0.4011021269184181
  0.2061627059146557  0.4175761571095311  0.4004690622178912
  0.2061351872354161  0.5420868083315337  0.3992583038114779
  0.2075803336435496  0.6674981429108086  0.3992850955989931
  0.2084244680188223  0.7927770554362181  0.3996325402976232
  0.2088640802156683  0.9180085448914085  0.3996376233889064
  0.3338824634138469  0.0429685526842974  0.3995954369343663
  0.3344566740177402  0.1686536006398555  0.4007083487872116
  0.3352488442677851  0.2950238016072241  0.4039115989782249
  0.3316311318885040  0.4202148312652474  0.4053559742446300
  0.3301979672019115  0.5440672557872831  0.4015675979653947
  0.3319162900481135  0.6676412950195834  0.3995050994091678
  0.3330629890840958  0.7924952025751880  0.3992498026403846
  0.3335308396021803  0.9176078017232300  0.3993994881379716
  0.4585935884777401  0.0418942518770173  0.3995029546651551
  0.4589953086484485  0.1672314613896946  0.3996315022945316
  0.4599398742672507  0.2929298197406262  0.4011665506047442
  0.4643982668252241  0.4191821352626623  0.4069480383613648
  0.4550418095693218  0.6640136128210419  0.4012166519464001
  0.4575898640951211  0.7909736078781182  0.3991764130576033
  0.4581495848720346  0.9165202357002999  0.3993829561045976
  0.5832407884574317  0.0409722204104713  0.3996878390940897
  0.5836762431618893  0.1662217796576613  0.3995133660156988
  0.5844313903706142  0.2912311542957599  0.3994836897931255
  0.5865906267784178  0.4162718943034325  0.4003079371990264
  0.5880779087481122  0.5422379015898668  0.4009897880201539
  0.5824828869811716  0.6636230738220382  0.4004461995232571
  0.5812768346060391  0.7887158201912160  0.3996162638895900
  0.5827427341148881  0.9154102751553904  0.3995290429615062
  0.7078888071066056  0.0406368638275099  0.3997788506841148
  0.7083347762740361  0.1659593426040095  0.3997992956733160
  0.7088559115964740  0.2911350125797294  0.3994994732148361
  0.7100907906641376  0.4164607434518134  0.3989617122298289
  0.7110331316976063  0.5417545906288220  0.3987652616736984
  0.7096821077822391  0.6668700560749991  0.3985633004620284
  0.7078661503148604  0.7906004370825256  0.3987208165033016
  0.7072969851340781  0.9150634547287075  0.3994004773466628
  0.8328453637906101  0.0409382803222298  0.3995745549737142
  0.8329771029262588  0.1660034629368515  0.3997180816878743
  0.8333045314935137  0.2911918294409499  0.3996918796503561
  0.8339670337687807  0.4164909854914858  0.3995883980498129
  0.8346506635149920  0.5419091398524769  0.3992698053260268
  0.8345933013445452  0.6673485367269736  0.3989767978741935
  0.8339683418779821  0.7920899095834547  0.3989457638691920
  0.8331482497455008  0.9163548696707697  0.3992958882401833
  0.9584621900422932  0.0419835856715536  0.3995704903992509
  0.9580403141599542  0.1665002337520168  0.3995172222634082
  0.9578018536074706  0.2913398908693654  0.3994451390274258
  0.9579336472536244  0.4165814034359717  0.3995283876505294
  0.9586084648139321  0.5420602537865586  0.3998253618642325
  0.9590510148054127  0.6674605593347930  0.3998824787983491
  0.9590976164396631  0.7926802501870199  0.3996499235785923
  0.9589022927026514  0.9175099952587388  0.3994747793069162
  0.4107786134946242  0.5830396128496822  0.4040540266707166
  0.4409181823929728  0.5050252422155788  0.4981541284065608
 
  0.00000000E+00  0.00000000E+00  0.00000000E+00
  0.00000000E+00  0.00000000E+00  0.00000000E+00
  0.00000000E+00  0.00000000E+00  0.00000000E+00
  0.00000000E+00  0.00000000E+00  0.00000000E+00
  0.00000000E+00  0.00000000E+00  0.00000000E+00
  0.00000000E+00  0.00000000E+00  0.00000000E+00
  0.00000000E+00  0.00000000E+00  0.00000000E+00
  0.00000000E+00  0.00000000E+00  0.00000000E+00
  0.00000000E+00  0.00000000E+00  0.00000000E+00
  0.00000000E+00  0.00000000E+00  0.00000000E+00
  0.00000000E+00  0.00000000E+00  0.00000000E+00
  0.00000000E+00  0.00000000E+00  0.00000000E+00
  0.00000000E+00  0.00000000E+00  0.00000000E+00
  0.00000000E+00  0.00000000E+00  0.00000000E+00
  0.00000000E+00  0.00000000E+00  0.00000000E+00
  0.00000000E+00  0.00000000E+00  0.00000000E+00
  0.00000000E+00  0.00000000E+00  0.00000000E+00
  0.00000000E+00  0.00000000E+00  0.00000000E+00
  0.00000000E+00  0.00000000E+00  0.00000000E+00
  0.00000000E+00  0.00000000E+00  0.00000000E+00
  0.00000000E+00  0.00000000E+00  0.00000000E+00
  0.00000000E+00  0.00000000E+00  0.00000000E+00
  0.00000000E+00  0.00000000E+00  0.00000000E+00
  0.00000000E+00  0.00000000E+00  0.00000000E+00
  0.00000000E+00  0.00000000E+00  0.00000000E+00
  0.00000000E+00  0.00000000E+00  0.00000000E+00
  0.00000000E+00  0.00000000E+00  0.00000000E+00
  0.00000000E+00  0.00000000E+00  0.00000000E+00
  0.00000000E+00  0.00000000E+00  0.00000000E+00
  0.00000000E+00  0.00000000E+00  0.00000000E+00
  0.00000000E+00  0.00000000E+00  0.00000000E+00
  0.00000000E+00  0.00000000E+00  0.00000000E+00
  0.00000000E+00  0.00000000E+00  0.00000000E+00
  0.00000000E+00  0.00000000E+00  0.00000000E+00
  0.00000000E+00  0.00000000E+00  0.00000000E+00
  0.00000000E+00  0.00000000E+00  0.00000000E+00
  0.00000000E+00  0.00000000E+00  0.00000000E+00
  0.00000000E+00  0.00000000E+00  0.00000000E+00
  0.00000000E+00  0.00000000E+00  0.00000000E+00
  0.00000000E+00  0.00000000E+00  0.00000000E+00
  0.00000000E+00  0.00000000E+00  0.00000000E+00
  0.00000000E+00  0.00000000E+00  0.00000000E+00
  0.00000000E+00  0.00000000E+00  0.00000000E+00
  0.00000000E+00  0.00000000E+00  0.00000000E+00
  0.00000000E+00  0.00000000E+00  0.00000000E+00
  0.00000000E+00  0.00000000E+00  0.00000000E+00
  0.00000000E+00  0.00000000E+00  0.00000000E+00
  0.00000000E+00  0.00000000E+00  0.00000000E+00
  0.00000000E+00  0.00000000E+00  0.00000000E+00
  0.00000000E+00  0.00000000E+00  0.00000000E+00
  0.00000000E+00  0.00000000E+00  0.00000000E+00
  0.00000000E+00  0.00000000E+00  0.00000000E+00
  0.00000000E+00  0.00000000E+00  0.00000000E+00
  0.00000000E+00  0.00000000E+00  0.00000000E+00
  0.00000000E+00  0.00000000E+00  0.00000000E+00
  0.00000000E+00  0.00000000E+00  0.00000000E+00
  0.00000000E+00  0.00000000E+00  0.00000000E+00
  0.00000000E+00  0.00000000E+00  0.00000000E+00
  0.00000000E+00  0.00000000E+00  0.00000000E+00
  0.00000000E+00  0.00000000E+00  0.00000000E+00
  0.00000000E+00  0.00000000E+00  0.00000000E+00
  0.00000000E+00  0.00000000E+00  0.00000000E+00
  0.00000000E+00  0.00000000E+00  0.00000000E+00
  0.00000000E+00  0.00000000E+00  0.00000000E+00
  0.00000000E+00  0.00000000E+00  0.00000000E+00
  0.00000000E+00  0.00000000E+00  0.00000000E+00
  0.00000000E+00  0.00000000E+00  0.00000000E+00
  0.00000000E+00  0.00000000E+00  0.00000000E+00
  0.00000000E+00  0.00000000E+00  0.00000000E+00
  0.00000000E+00  0.00000000E+00  0.00000000E+00
  0.00000000E+00  0.00000000E+00  0.00000000E+00
  0.00000000E+00  0.00000000E+00  0.00000000E+00
  0.00000000E+00  0.00000000E+00  0.00000000E+00
  0.00000000E+00  0.00000000E+00  0.00000000E+00
  0.00000000E+00  0.00000000E+00  0.00000000E+00
  0.00000000E+00  0.00000000E+00  0.00000000E+00
  0.00000000E+00  0.00000000E+00  0.00000000E+00
  0.00000000E+00  0.00000000E+00  0.00000000E+00
  0.00000000E+00  0.00000000E+00  0.00000000E+00
  0.00000000E+00  0.00000000E+00  0.00000000E+00
  0.00000000E+00  0.00000000E+00  0.00000000E+00
  0.00000000E+00  0.00000000E+00  0.00000000E+00
  0.00000000E+00  0.00000000E+00  0.00000000E+00
  0.00000000E+00  0.00000000E+00  0.00000000E+00
  0.00000000E+00  0.00000000E+00  0.00000000E+00
  0.00000000E+00  0.00000000E+00  0.00000000E+00
  0.00000000E+00  0.00000000E+00  0.00000000E+00
  0.00000000E+00  0.00000000E+00  0.00000000E+00
  0.00000000E+00  0.00000000E+00  0.00000000E+00
  0.00000000E+00  0.00000000E+00  0.00000000E+00
  0.00000000E+00  0.00000000E+00  0.00000000E+00
  0.00000000E+00  0.00000000E+00  0.00000000E+00
  0.00000000E+00  0.00000000E+00  0.00000000E+00
  0.00000000E+00  0.00000000E+00  0.00000000E+00
  0.00000000E+00  0.00000000E+00  0.00000000E+00
  0.00000000E+00  0.00000000E+00  0.00000000E+00
  0.00000000E+00  0.00000000E+00  0.00000000E+00
  0.00000000E+00  0.00000000E+00  0.00000000E+00
  0.00000000E+00  0.00000000E+00  0.00000000E+00
  0.00000000E+00  0.00000000E+00  0.00000000E+00
  0.00000000E+00  0.00000000E+00  0.00000000E+00
  0.00000000E+00  0.00000000E+00  0.00000000E+00
  0.00000000E+00  0.00000000E+00  0.00000000E+00
  0.00000000E+00  0.00000000E+00  0.00000000E+00
  0.00000000E+00  0.00000000E+00  0.00000000E+00
  0.00000000E+00  0.00000000E+00  0.00000000E+00
  0.00000000E+00  0.00000000E+00  0.00000000E+00
  0.00000000E+00  0.00000000E+00  0.00000000E+00
  0.00000000E+00  0.00000000E+00  0.00000000E+00
  0.00000000E+00  0.00000000E+00  0.00000000E+00
  0.00000000E+00  0.00000000E+00  0.00000000E+00
  0.00000000E+00  0.00000000E+00  0.00000000E+00
  0.00000000E+00  0.00000000E+00  0.00000000E+00
  0.00000000E+00  0.00000000E+00  0.00000000E+00
  0.00000000E+00  0.00000000E+00  0.00000000E+00
  0.00000000E+00  0.00000000E+00  0.00000000E+00
  0.00000000E+00  0.00000000E+00  0.00000000E+00
  0.00000000E+00  0.00000000E+00  0.00000000E+00
  0.00000000E+00  0.00000000E+00  0.00000000E+00
  0.00000000E+00  0.00000000E+00  0.00000000E+00
  0.00000000E+00  0.00000000E+00  0.00000000E+00
  0.00000000E+00  0.00000000E+00  0.00000000E+00
  0.00000000E+00  0.00000000E+00  0.00000000E+00
  0.00000000E+00  0.00000000E+00  0.00000000E+00
  0.00000000E+00  0.00000000E+00  0.00000000E+00
  0.00000000E+00  0.00000000E+00  0.00000000E+00
  0.00000000E+00  0.00000000E+00  0.00000000E+00
  0.00000000E+00  0.00000000E+00  0.00000000E+00
  0.00000000E+00  0.00000000E+00  0.00000000E+00
