Re1 H1 C123 N3 O2                       
   1.00000000000000     
    19.7851719081176221   -0.0017202319094216    0.1705476966564212
    -9.8735147697500274   17.0142328622998491   -0.0444864599249433
    -0.6999211742311554    0.7668619058414782   29.8889801695387227
   Re   H    C    N    O 
     1     1   123     3     2
Direct
  0.4351380974239971  0.4946692112152108  0.4412225233548029
  0.4881830329472121  0.5487226472258636  0.5156412123113271
  0.0424022864437669  0.0840164541663133  0.4006114543718068
  0.0414182507835244  0.2081043005233906  0.3987458696549010
  0.0408333492736499  0.3328983798723849  0.3956136389041210
  0.0410803151904621  0.4581936920827506  0.3943405554221717
  0.0419980071362289  0.5837264887559261  0.3951677492826019
  0.0427862995403333  0.7092059859673038  0.3968905433751626
  0.0430499873832453  0.8344040788128703  0.3988444612839100
  0.0429632362507214  0.9594781135076216  0.4003764742720634
  0.1683739770844804  0.0854780420738082  0.4023246894511175
  0.1679710750363321  0.2103239986234101  0.4019737020629910
  0.1657250624631772  0.3335444202865009  0.3985364109403242
  0.1650933778616256  0.4583085788883395  0.3953836837292682
  0.1660363176577910  0.5834853555699002  0.3958411421916476
  0.1671167260574364  0.7087886695333668  0.3976520302311268
  0.1677226615642586  0.8342905390713041  0.3992544306751157
  0.1680371204133944  0.9598470216959982  0.4009084567738279
  0.2930701840450919  0.0856458315548329  0.4030404656758059
  0.2938496302849296  0.2125959302342102  0.4055254382545339
  0.2929867018894847  0.3384541629491928  0.4060083797083351
  0.2883374391330528  0.4575881452401314  0.4014733972805776
  0.2895041653302197  0.5824852182217106  0.3996869421472571
  0.2913665157482873  0.7077884341483041  0.3999150797448729
  0.2922761231798219  0.8335267529679418  0.4002414516398504
  0.2926619201531696  0.9593934282313049  0.4011643498494223
  0.4174433628164916  0.0840624713707704  0.4020149450366156
  0.4180764246069489  0.2106176417267212  0.4035383324694268
  0.4201354722461844  0.3383922039297489  0.4086089015831735
  0.4152704564989321  0.7043998786669003  0.4042358087745316
  0.4166047335730608  0.8313417461355905  0.4021689934234089
  0.4171316815555557  0.9577893727004509  0.4015397317684514
  0.5418939261105518  0.0824292337020819  0.4010551129199570
  0.5423469638797132  0.2084279732965363  0.4007024655007720
  0.5433625365137302  0.3342210867949496  0.4009308550294438
  0.5468013909489283  0.4597840751366916  0.4030715792444574
  0.5385903591239527  0.7003254382412656  0.4070768271749627
  0.5407924854859530  0.8291836224266885  0.4042235056682215
  0.5415002172672846  0.9561295225492639  0.4021055211836072
  0.6663526928613190  0.0816642457498225  0.4003874567346096
  0.6667996482104814  0.2074635339722185  0.3989703514427480
  0.6675926309079950  0.3331451362091329  0.3974439662439559
  0.6693430477429932  0.4587774665155652  0.3961004506250744
  0.6704227968610795  0.5840528087136967  0.3975254594945987
  0.6664692156937023  0.7054686381843513  0.4016372073655887
  0.6649677632972458  0.8294412896527672  0.4034799666097157
  0.6658628672496202  0.9556685055568674  0.4022312368294442
  0.7909877050475398  0.0816589223379427  0.3999007414730102
  0.7912887159535893  0.2071746605236834  0.3980108348908840
  0.7919021905736419  0.3327692243803028  0.3962875720027701
  0.7929974988169189  0.4584219546211551  0.3950917290790680
  0.7938893699960333  0.5838900424206126  0.3953793482659768
  0.7935503884384278  0.7087175016432256  0.3980280023228455
  0.7914540638029697  0.8319231765952251  0.4007354326012701
  0.7907773277713702  0.9562665813956112  0.4012260771193173
  0.9162382876265244  0.0823845459935666  0.3997151833239710
  0.9160532440440399  0.2073446208581363  0.3975595858340232
  0.9162405507597635  0.3326843543181642  0.3954986590245080
  0.9170213236869239  0.4582945759309133  0.3947674118100141
  0.9179382994295723  0.5838867456686775  0.3951567495503602
  0.9182218414975305  0.7090993508093766  0.3968218791331538
  0.9179013894915653  0.8339032173211749  0.3991586262683368
  0.9169407946747018  0.9580033888334459  0.4003708034386024
  0.0847924465463919  0.0431278236443640  0.4011402045032971
  0.0842300029994904  0.1676888031912130  0.4003893470244683
  0.0827114646411140  0.2914989442393695  0.3973665735023668
  0.0822305236447514  0.4163250047314905  0.3946546169197635
  0.0830275729396329  0.5417743534127738  0.3947683809081277
  0.0839819614215647  0.6672582653634367  0.3964088477902751
  0.0845368308214140  0.7926792155726342  0.3983449502620933
  0.0847411748770074  0.9179448392860623  0.4000644142096263
  0.2097843950585342  0.0435512044892360  0.4022982405744271
  0.2103056808848579  0.1694134721804976  0.4034999600731135
  0.2093576339738680  0.2940870120630634  0.4018195219548806
  0.2063588886570933  0.4167012437458835  0.3973410914649464
  0.2067871519604819  0.5413415594416664  0.3962657206737888
  0.2081906836258887  0.6667390645566749  0.3976359948263523
  0.2090795977968770  0.7923068970322708  0.3990811264069392
  0.2094669853399445  0.9178872038436191  0.4004489739210507
  0.3342875931074074  0.0431324119150447  0.4021692525615567
  0.3347872620814782  0.1696414030218808  0.4043916219860705
  0.3360261461604256  0.2971810644130773  0.4082182335542207
  0.3300993594389423  0.5408649571402400  0.4031975203019492
  0.3321580542176790  0.6654794386074291  0.4014960215669860
  0.3334923480485300  0.7911608302496924  0.4008770282864201
  0.3339505096857466  0.9170540884416790  0.4009912720294567
  0.4587140916712952  0.0415009932436564  0.4015818326811687
  0.4591074217510794  0.1678334994359368  0.4020940180047087
  0.4601565684714742  0.2944902520540404  0.4040575839167077
  0.4659200011519830  0.4217311875479224  0.4122831966872547
  0.4544822925754790  0.6594318335950252  0.4076489571544329
  0.4576446164719942  0.7883524470801153  0.4035957687640891
  0.4583342168711815  0.9151380066746140  0.4019846533901920
  0.5831413353754434  0.0400349287661326  0.4011606269480204
  0.5836244585864535  0.1661285532534157  0.4002312946971166
  0.5843421872356356  0.2919225154293531  0.3995422757850298
  0.5865469282141313  0.4175953278308718  0.3990384100312295
  0.5887167107674368  0.5431638046065790  0.4012902211229258
  0.5825354172857778  0.6599029233756951  0.4051689936609464
  0.5811175628026377  0.7856454448791971  0.4051474990309006
  0.5826585730064091  0.9135033601516381  0.4029184177149863
  0.7076830011249550  0.0395818316461606  0.4008338117100154
  0.7081216517150435  0.1654248631603314  0.3991204366074278
  0.7087169385132717  0.2911283720294831  0.3975159915612241
  0.7100208681827213  0.4166818973660185  0.3958547380186055
  0.7111905956886042  0.5419968558054709  0.3957001682587117
  0.7105772394525649  0.6667743006958142  0.3987755654629498
  0.7076944235018747  0.7891212840373037  0.4020380751475678
  0.7070965552825030  0.9135900217679933  0.4024085335437072
  0.8327136514790030  0.0400965788191414  0.4002579822445688
  0.8327737551141287  0.1653941774444479  0.3984803130213335
  0.8331002206009978  0.2907986216988589  0.3965250976121385
  0.8339764139068818  0.4163994033360636  0.3952626712977922
  0.8349706677812039  0.5420290740166457  0.3949433177688142
  0.8352193376612589  0.6672747606229691  0.3965102420731369
  0.8345086730970573  0.7917984279238137  0.3993431303263609
  0.8332243545093966  0.9155225288025678  0.4008258012574237
  0.9587228163250974  0.0415804691626133  0.4002336953721536
  0.9579639795150484  0.1659519222683127  0.3985743199982255
  0.9577297102644805  0.2909721128351506  0.3959936360002173
  0.9580686162986279  0.4163231534989368  0.3946666960031632
  0.9589697129353032  0.5419005189553384  0.3948314006407954
  0.9596970691149150  0.6674120357105124  0.3960860148262589
  0.9597822201939290  0.7925784675009494  0.3982171916677620
  0.9594933393674400  0.9173377901271684  0.3999895907725773
  0.4098439558675475  0.5775239603927955  0.4104121992386634
  0.5459547809236474  0.5793802880300262  0.4062061622913053
  0.3302325261785711  0.4196391312264354  0.4075695761312238
  0.5061792489905054  0.5718680672972818  0.4857745889157597
  0.3891715009073777  0.4342022690107281  0.4883345434884311
 
  0.00000000E+00  0.00000000E+00  0.00000000E+00
  0.00000000E+00  0.00000000E+00  0.00000000E+00
  0.00000000E+00  0.00000000E+00  0.00000000E+00
  0.00000000E+00  0.00000000E+00  0.00000000E+00
  0.00000000E+00  0.00000000E+00  0.00000000E+00
  0.00000000E+00  0.00000000E+00  0.00000000E+00
  0.00000000E+00  0.00000000E+00  0.00000000E+00
  0.00000000E+00  0.00000000E+00  0.00000000E+00
  0.00000000E+00  0.00000000E+00  0.00000000E+00
  0.00000000E+00  0.00000000E+00  0.00000000E+00
  0.00000000E+00  0.00000000E+00  0.00000000E+00
  0.00000000E+00  0.00000000E+00  0.00000000E+00
  0.00000000E+00  0.00000000E+00  0.00000000E+00
  0.00000000E+00  0.00000000E+00  0.00000000E+00
  0.00000000E+00  0.00000000E+00  0.00000000E+00
  0.00000000E+00  0.00000000E+00  0.00000000E+00
  0.00000000E+00  0.00000000E+00  0.00000000E+00
  0.00000000E+00  0.00000000E+00  0.00000000E+00
  0.00000000E+00  0.00000000E+00  0.00000000E+00
  0.00000000E+00  0.00000000E+00  0.00000000E+00
  0.00000000E+00  0.00000000E+00  0.00000000E+00
  0.00000000E+00  0.00000000E+00  0.00000000E+00
  0.00000000E+00  0.00000000E+00  0.00000000E+00
  0.00000000E+00  0.00000000E+00  0.00000000E+00
  0.00000000E+00  0.00000000E+00  0.00000000E+00
  0.00000000E+00  0.00000000E+00  0.00000000E+00
  0.00000000E+00  0.00000000E+00  0.00000000E+00
  0.00000000E+00  0.00000000E+00  0.00000000E+00
  0.00000000E+00  0.00000000E+00  0.00000000E+00
  0.00000000E+00  0.00000000E+00  0.00000000E+00
  0.00000000E+00  0.00000000E+00  0.00000000E+00
  0.00000000E+00  0.00000000E+00  0.00000000E+00
  0.00000000E+00  0.00000000E+00  0.00000000E+00
  0.00000000E+00  0.00000000E+00  0.00000000E+00
  0.00000000E+00  0.00000000E+00  0.00000000E+00
  0.00000000E+00  0.00000000E+00  0.00000000E+00
  0.00000000E+00  0.00000000E+00  0.00000000E+00
  0.00000000E+00  0.00000000E+00  0.00000000E+00
  0.00000000E+00  0.00000000E+00  0.00000000E+00
  0.00000000E+00  0.00000000E+00  0.00000000E+00
  0.00000000E+00  0.00000000E+00  0.00000000E+00
  0.00000000E+00  0.00000000E+00  0.00000000E+00
  0.00000000E+00  0.00000000E+00  0.00000000E+00
  0.00000000E+00  0.00000000E+00  0.00000000E+00
  0.00000000E+00  0.00000000E+00  0.00000000E+00
  0.00000000E+00  0.00000000E+00  0.00000000E+00
  0.00000000E+00  0.00000000E+00  0.00000000E+00
  0.00000000E+00  0.00000000E+00  0.00000000E+00
  0.00000000E+00  0.00000000E+00  0.00000000E+00
  0.00000000E+00  0.00000000E+00  0.00000000E+00
  0.00000000E+00  0.00000000E+00  0.00000000E+00
  0.00000000E+00  0.00000000E+00  0.00000000E+00
  0.00000000E+00  0.00000000E+00  0.00000000E+00
  0.00000000E+00  0.00000000E+00  0.00000000E+00
  0.00000000E+00  0.00000000E+00  0.00000000E+00
  0.00000000E+00  0.00000000E+00  0.00000000E+00
  0.00000000E+00  0.00000000E+00  0.00000000E+00
  0.00000000E+00  0.00000000E+00  0.00000000E+00
  0.00000000E+00  0.00000000E+00  0.00000000E+00
  0.00000000E+00  0.00000000E+00  0.00000000E+00
  0.00000000E+00  0.00000000E+00  0.00000000E+00
  0.00000000E+00  0.00000000E+00  0.00000000E+00
  0.00000000E+00  0.00000000E+00  0.00000000E+00
  0.00000000E+00  0.00000000E+00  0.00000000E+00
  0.00000000E+00  0.00000000E+00  0.00000000E+00
  0.00000000E+00  0.00000000E+00  0.00000000E+00
  0.00000000E+00  0.00000000E+00  0.00000000E+00
  0.00000000E+00  0.00000000E+00  0.00000000E+00
  0.00000000E+00  0.00000000E+00  0.00000000E+00
  0.00000000E+00  0.00000000E+00  0.00000000E+00
  0.00000000E+00  0.00000000E+00  0.00000000E+00
  0.00000000E+00  0.00000000E+00  0.00000000E+00
  0.00000000E+00  0.00000000E+00  0.00000000E+00
  0.00000000E+00  0.00000000E+00  0.00000000E+00
  0.00000000E+00  0.00000000E+00  0.00000000E+00
  0.00000000E+00  0.00000000E+00  0.00000000E+00
  0.00000000E+00  0.00000000E+00  0.00000000E+00
  0.00000000E+00  0.00000000E+00  0.00000000E+00
  0.00000000E+00  0.00000000E+00  0.00000000E+00
  0.00000000E+00  0.00000000E+00  0.00000000E+00
  0.00000000E+00  0.00000000E+00  0.00000000E+00
  0.00000000E+00  0.00000000E+00  0.00000000E+00
  0.00000000E+00  0.00000000E+00  0.00000000E+00
  0.00000000E+00  0.00000000E+00  0.00000000E+00
  0.00000000E+00  0.00000000E+00  0.00000000E+00
  0.00000000E+00  0.00000000E+00  0.00000000E+00
  0.00000000E+00  0.00000000E+00  0.00000000E+00
  0.00000000E+00  0.00000000E+00  0.00000000E+00
  0.00000000E+00  0.00000000E+00  0.00000000E+00
  0.00000000E+00  0.00000000E+00  0.00000000E+00
  0.00000000E+00  0.00000000E+00  0.00000000E+00
  0.00000000E+00  0.00000000E+00  0.00000000E+00
  0.00000000E+00  0.00000000E+00  0.00000000E+00
  0.00000000E+00  0.00000000E+00  0.00000000E+00
  0.00000000E+00  0.00000000E+00  0.00000000E+00
  0.00000000E+00  0.00000000E+00  0.00000000E+00
  0.00000000E+00  0.00000000E+00  0.00000000E+00
  0.00000000E+00  0.00000000E+00  0.00000000E+00
  0.00000000E+00  0.00000000E+00  0.00000000E+00
  0.00000000E+00  0.00000000E+00  0.00000000E+00
  0.00000000E+00  0.00000000E+00  0.00000000E+00
  0.00000000E+00  0.00000000E+00  0.00000000E+00
  0.00000000E+00  0.00000000E+00  0.00000000E+00
  0.00000000E+00  0.00000000E+00  0.00000000E+00
  0.00000000E+00  0.00000000E+00  0.00000000E+00
  0.00000000E+00  0.00000000E+00  0.00000000E+00
  0.00000000E+00  0.00000000E+00  0.00000000E+00
  0.00000000E+00  0.00000000E+00  0.00000000E+00
  0.00000000E+00  0.00000000E+00  0.00000000E+00
  0.00000000E+00  0.00000000E+00  0.00000000E+00
  0.00000000E+00  0.00000000E+00  0.00000000E+00
  0.00000000E+00  0.00000000E+00  0.00000000E+00
  0.00000000E+00  0.00000000E+00  0.00000000E+00
  0.00000000E+00  0.00000000E+00  0.00000000E+00
  0.00000000E+00  0.00000000E+00  0.00000000E+00
  0.00000000E+00  0.00000000E+00  0.00000000E+00
  0.00000000E+00  0.00000000E+00  0.00000000E+00
  0.00000000E+00  0.00000000E+00  0.00000000E+00
  0.00000000E+00  0.00000000E+00  0.00000000E+00
  0.00000000E+00  0.00000000E+00  0.00000000E+00
  0.00000000E+00  0.00000000E+00  0.00000000E+00
  0.00000000E+00  0.00000000E+00  0.00000000E+00
  0.00000000E+00  0.00000000E+00  0.00000000E+00
  0.00000000E+00  0.00000000E+00  0.00000000E+00
  0.00000000E+00  0.00000000E+00  0.00000000E+00
  0.00000000E+00  0.00000000E+00  0.00000000E+00
  0.00000000E+00  0.00000000E+00  0.00000000E+00
  0.00000000E+00  0.00000000E+00  0.00000000E+00
  0.00000000E+00  0.00000000E+00  0.00000000E+00
  0.00000000E+00  0.00000000E+00  0.00000000E+00
