H1 Pt1 C125 N1                          
   1.00000000000000     
    19.8429113575546552   -0.0118041047199188    0.2604388328236816
    -9.9335523419531970   17.0662844722680589    0.0915200062846494
     0.3896949919907965    0.3858356797801851   29.7341934126844549
   H    Pt   C    N 
     1     1   125     1
Direct
  0.5065738672503053  0.5598223661915374  0.4559347629227232
  0.4347186678166626  0.4956262837366476  0.4137527936490732
  0.0413324397693528  0.0836599177387613  0.3995301868266586
  0.0403186441649464  0.2077708291215231  0.3991365206353042
  0.0396841554334911  0.3324357120155894  0.3980794134067898
  0.0397272466236233  0.4579908520027809  0.3975317928524298
  0.0407028744320663  0.5835837250919221  0.3974777636277904
  0.0415587298085619  0.7089947216193958  0.3977973826425131
  0.0419273616134467  0.8343303947823535  0.3984385820022454
  0.0419773470957172  0.9593174084559658  0.3990790868166754
  0.1672129580495987  0.0851289680026031  0.4005053785941672
  0.1663163388330088  0.2093655883484669  0.4008071842593798
  0.1645808454949820  0.3333149288294736  0.3991833706122342
  0.1628866844549527  0.4581100789934866  0.3981966464628648
  0.1640970777846608  0.5835302622785400  0.3984228041584663
  0.1656285775339822  0.7089608289234934  0.3986980222514375
  0.1664906309915569  0.8343356230874829  0.3990119387925752
  0.1670024389788695  0.9597733465549221  0.3996000278960827
  0.2921989584049399  0.0849771085908227  0.4009791284501656
  0.2930228849026724  0.2114834422984975  0.4032041913528392
  0.2912046454076148  0.3360479416513381  0.4029048543049426
  0.2859435111985477  0.4586018532753774  0.3998466272006087
  0.2870208844996193  0.5841499253924545  0.4003090354718727
  0.2896788856634565  0.7088962981982003  0.4001079540926081
  0.2908773504931300  0.8338575142678061  0.3996019113840740
  0.2915309141790615  0.9592332443109837  0.3996358915233098
  0.4166548571215214  0.0833591190877294  0.4000991441239086
  0.4173641380915664  0.2087757440937038  0.4033453409537128
  0.4193066635444799  0.3350587949561911  0.4098041129577117
  0.4135900333195121  0.7065740936354853  0.4036251244974970
  0.4152765267463215  0.8323529361933827  0.4010575453018176
  0.4160401217553141  0.9578641231406715  0.3996362059927615
  0.5411353106075184  0.0819739399871517  0.3991985892352711
  0.5419057814743603  0.2072456382920282  0.4004804028970150
  0.5431884522078477  0.3320456644536642  0.4059686455883858
  0.5472297998381762  0.4558392569835641  0.4169240445360661
  0.5527877890353273  0.5842552750232152  0.4274189911894111
  0.5376896423352048  0.7024416848796340  0.4099268604907551
  0.5395226597508872  0.8301842468995300  0.4029307823170079
  0.5405353539808657  0.9563390970973555  0.4001051963511743
  0.6656117243267105  0.0813378399874942  0.3992187836997784
  0.6663467522772063  0.2067295958631514  0.3987226133884070
  0.6673392056985971  0.3319171803965345  0.3998735011719417
  0.6695267657620045  0.4571700069158682  0.4033241136377008
  0.6705429511789621  0.5828304670468488  0.4061159791499927
  0.6667038340170830  0.7067832588222963  0.4056909288681149
  0.6643004542256403  0.8300778074369266  0.4030425905174393
  0.6650478274313447  0.9558586528067068  0.4006356479884131
  0.7903007728158903  0.0814165033612214  0.3992862300112751
  0.7906854877312206  0.2066567439338943  0.3984362383339226
  0.7914906964777171  0.3321270492519082  0.3976451904690843
  0.7927636020822417  0.4577413263999418  0.3974111008901851
  0.7934104157852737  0.5831293048012297  0.3979322014199037
  0.7926593420781270  0.7083411752713024  0.3993984350954171
  0.7911199351670629  0.8323821895190093  0.3994972891551787
  0.7900793807422232  0.9563613194369188  0.3997956945535021
  0.9154850682247144  0.0821764453580862  0.3991135617173941
  0.9152416220119174  0.2069891597011629  0.3985354131104268
  0.9154940787486590  0.3322753316730413  0.3976217236510462
  0.9162470269948312  0.4578586523419641  0.3968756046702539
  0.9171671357609764  0.5835221370020154  0.3967098968941545
  0.9173439462047771  0.7088992817065106  0.3972262762946545
  0.9169598820244748  0.8337625053724441  0.3981292403071587
  0.9162084039192003  0.9580018061214178  0.3988975245434864
  0.0836986519720740  0.0428598313189431  0.3997035774381246
  0.0828057203081118  0.1670338642502047  0.3997667945462113
  0.0815078273287733  0.2911632041947120  0.3987213318144288
  0.0805777538379388  0.4160908595852503  0.3978604569474479
  0.0813838417817971  0.5415773363005062  0.3977111879371092
  0.0826202850094065  0.6671598701143637  0.3979938910120432
  0.0833626828951391  0.7926535839739836  0.3984425004342456
  0.0836737041190161  0.9178989412971106  0.3990862812271359
  0.2088029717274400  0.0433141094081687  0.4003692680114354
  0.2089691691151585  0.1688227857965459  0.4014586927348985
  0.2076052832372055  0.2929480225354952  0.4008289099794369
  0.2040271133454173  0.4166509233883366  0.3985976127005507
  0.2044291841199661  0.5415895678214370  0.3987337696473814
  0.2066490689442989  0.6671645889649512  0.3989757060723599
  0.2077087745904898  0.7924399774230132  0.3991163503868996
  0.2083845329470822  0.9178607264663804  0.3994350453412974
  0.3334089684440793  0.0426865404277815  0.4002104144516820
  0.3341677987596418  0.1685186318836610  0.4026994830939921
  0.3349269191654927  0.2950456551698110  0.4054451557923535
  0.3278852226611237  0.4188532585796930  0.4023841486822016
  0.3279196777749925  0.5435591712127951  0.4013914969319398
  0.3305346208851411  0.6670039159587244  0.4013501551231373
  0.3320934376098121  0.7919955857558029  0.4002905384399640
  0.3328766667548724  0.9171991073125724  0.3995813215364254
  0.4579909436365708  0.0412227060864379  0.3994934811433903
  0.4586113500173739  0.1665816147234926  0.4011721985361170
  0.4596839492621503  0.2918847471592210  0.4067545595799755
  0.4651199874458335  0.4168724127735380  0.4163004388398545
  0.4523050636462474  0.6618407103954214  0.4068301841700090
  0.4563847662751217  0.7900185812800746  0.4028022792711578
  0.4573252933797445  0.9156920861423237  0.4001834215211201
  0.5824631400024116  0.0399245130296109  0.3993415843690991
  0.5831523694979643  0.1653821190344601  0.3992462821669619
  0.5841885049641731  0.2904338001741911  0.4017229014691723
  0.5871048417966800  0.4148964617271900  0.4090961391987175
  0.5905243607737382  0.5410578612788752  0.4181187933975097
  0.5838696798254912  0.6642321580261639  0.4144316326066214
  0.5799057922627842  0.7866910543985995  0.4052544956303644
  0.5816931516630205  0.9139850257409992  0.4010726068313763
  0.7069547666344075  0.0394545539279199  0.3996344936697393
  0.7075729571390130  0.1649168974781146  0.3986994963763761
  0.7083739579972468  0.2902238222225760  0.3984829119360744
  0.7099524541095904  0.4155716106159192  0.3996652868475231
  0.7110297601486197  0.5408459924544231  0.4015353193831431
  0.7097153146535508  0.6662132159209355  0.4036160369478377
  0.7074920919086519  0.7900769621255542  0.4019828157051936
  0.7063477137449630  0.9139069958261903  0.4010410001163059
  0.8319560202553193  0.0399902911839028  0.3993378023595169
  0.8320655885285059  0.1650293582304811  0.3987595010365876
  0.8325461202257385  0.2903187662060073  0.3978147458631609
  0.8335003217905484  0.4157995214114336  0.3970347473805296
  0.8344179069448521  0.5413597036166535  0.3969395202496754
  0.8343546890298190  0.6668750362353539  0.3977782374071896
  0.8336841086832334  0.7917136909859888  0.3986928672638249
  0.8326383432734018  0.9157547721454079  0.3992183481807909
  0.9577964102820169  0.0414239587699113  0.3991629572542522
  0.9570716824609488  0.1656911692294067  0.3989220981811269
  0.9568017227535289  0.2905282094881225  0.3980265988387632
  0.9570082014826419  0.4159158261656103  0.3972629255097040
  0.9579973161988335  0.5416092957404400  0.3968932051903419
  0.9586566420233517  0.6671468589992198  0.3970687737300598
  0.9587766585384856  0.7924182727265875  0.3978404643733102
  0.9585123223050437  0.9172034041504334  0.3986068558444424
  0.4065604947293747  0.5819813840209481  0.4053148831792437
 
  0.00000000E+00  0.00000000E+00  0.00000000E+00
  0.00000000E+00  0.00000000E+00  0.00000000E+00
  0.00000000E+00  0.00000000E+00  0.00000000E+00
  0.00000000E+00  0.00000000E+00  0.00000000E+00
  0.00000000E+00  0.00000000E+00  0.00000000E+00
  0.00000000E+00  0.00000000E+00  0.00000000E+00
  0.00000000E+00  0.00000000E+00  0.00000000E+00
  0.00000000E+00  0.00000000E+00  0.00000000E+00
  0.00000000E+00  0.00000000E+00  0.00000000E+00
  0.00000000E+00  0.00000000E+00  0.00000000E+00
  0.00000000E+00  0.00000000E+00  0.00000000E+00
  0.00000000E+00  0.00000000E+00  0.00000000E+00
  0.00000000E+00  0.00000000E+00  0.00000000E+00
  0.00000000E+00  0.00000000E+00  0.00000000E+00
  0.00000000E+00  0.00000000E+00  0.00000000E+00
  0.00000000E+00  0.00000000E+00  0.00000000E+00
  0.00000000E+00  0.00000000E+00  0.00000000E+00
  0.00000000E+00  0.00000000E+00  0.00000000E+00
  0.00000000E+00  0.00000000E+00  0.00000000E+00
  0.00000000E+00  0.00000000E+00  0.00000000E+00
  0.00000000E+00  0.00000000E+00  0.00000000E+00
  0.00000000E+00  0.00000000E+00  0.00000000E+00
  0.00000000E+00  0.00000000E+00  0.00000000E+00
  0.00000000E+00  0.00000000E+00  0.00000000E+00
  0.00000000E+00  0.00000000E+00  0.00000000E+00
  0.00000000E+00  0.00000000E+00  0.00000000E+00
  0.00000000E+00  0.00000000E+00  0.00000000E+00
  0.00000000E+00  0.00000000E+00  0.00000000E+00
  0.00000000E+00  0.00000000E+00  0.00000000E+00
  0.00000000E+00  0.00000000E+00  0.00000000E+00
  0.00000000E+00  0.00000000E+00  0.00000000E+00
  0.00000000E+00  0.00000000E+00  0.00000000E+00
  0.00000000E+00  0.00000000E+00  0.00000000E+00
  0.00000000E+00  0.00000000E+00  0.00000000E+00
  0.00000000E+00  0.00000000E+00  0.00000000E+00
  0.00000000E+00  0.00000000E+00  0.00000000E+00
  0.00000000E+00  0.00000000E+00  0.00000000E+00
  0.00000000E+00  0.00000000E+00  0.00000000E+00
  0.00000000E+00  0.00000000E+00  0.00000000E+00
  0.00000000E+00  0.00000000E+00  0.00000000E+00
  0.00000000E+00  0.00000000E+00  0.00000000E+00
  0.00000000E+00  0.00000000E+00  0.00000000E+00
  0.00000000E+00  0.00000000E+00  0.00000000E+00
  0.00000000E+00  0.00000000E+00  0.00000000E+00
  0.00000000E+00  0.00000000E+00  0.00000000E+00
  0.00000000E+00  0.00000000E+00  0.00000000E+00
  0.00000000E+00  0.00000000E+00  0.00000000E+00
  0.00000000E+00  0.00000000E+00  0.00000000E+00
  0.00000000E+00  0.00000000E+00  0.00000000E+00
  0.00000000E+00  0.00000000E+00  0.00000000E+00
  0.00000000E+00  0.00000000E+00  0.00000000E+00
  0.00000000E+00  0.00000000E+00  0.00000000E+00
  0.00000000E+00  0.00000000E+00  0.00000000E+00
  0.00000000E+00  0.00000000E+00  0.00000000E+00
  0.00000000E+00  0.00000000E+00  0.00000000E+00
  0.00000000E+00  0.00000000E+00  0.00000000E+00
  0.00000000E+00  0.00000000E+00  0.00000000E+00
  0.00000000E+00  0.00000000E+00  0.00000000E+00
  0.00000000E+00  0.00000000E+00  0.00000000E+00
  0.00000000E+00  0.00000000E+00  0.00000000E+00
  0.00000000E+00  0.00000000E+00  0.00000000E+00
  0.00000000E+00  0.00000000E+00  0.00000000E+00
  0.00000000E+00  0.00000000E+00  0.00000000E+00
  0.00000000E+00  0.00000000E+00  0.00000000E+00
  0.00000000E+00  0.00000000E+00  0.00000000E+00
  0.00000000E+00  0.00000000E+00  0.00000000E+00
  0.00000000E+00  0.00000000E+00  0.00000000E+00
  0.00000000E+00  0.00000000E+00  0.00000000E+00
  0.00000000E+00  0.00000000E+00  0.00000000E+00
  0.00000000E+00  0.00000000E+00  0.00000000E+00
  0.00000000E+00  0.00000000E+00  0.00000000E+00
  0.00000000E+00  0.00000000E+00  0.00000000E+00
  0.00000000E+00  0.00000000E+00  0.00000000E+00
  0.00000000E+00  0.00000000E+00  0.00000000E+00
  0.00000000E+00  0.00000000E+00  0.00000000E+00
  0.00000000E+00  0.00000000E+00  0.00000000E+00
  0.00000000E+00  0.00000000E+00  0.00000000E+00
  0.00000000E+00  0.00000000E+00  0.00000000E+00
  0.00000000E+00  0.00000000E+00  0.00000000E+00
  0.00000000E+00  0.00000000E+00  0.00000000E+00
  0.00000000E+00  0.00000000E+00  0.00000000E+00
  0.00000000E+00  0.00000000E+00  0.00000000E+00
  0.00000000E+00  0.00000000E+00  0.00000000E+00
  0.00000000E+00  0.00000000E+00  0.00000000E+00
  0.00000000E+00  0.00000000E+00  0.00000000E+00
  0.00000000E+00  0.00000000E+00  0.00000000E+00
  0.00000000E+00  0.00000000E+00  0.00000000E+00
  0.00000000E+00  0.00000000E+00  0.00000000E+00
  0.00000000E+00  0.00000000E+00  0.00000000E+00
  0.00000000E+00  0.00000000E+00  0.00000000E+00
  0.00000000E+00  0.00000000E+00  0.00000000E+00
  0.00000000E+00  0.00000000E+00  0.00000000E+00
  0.00000000E+00  0.00000000E+00  0.00000000E+00
  0.00000000E+00  0.00000000E+00  0.00000000E+00
  0.00000000E+00  0.00000000E+00  0.00000000E+00
  0.00000000E+00  0.00000000E+00  0.00000000E+00
  0.00000000E+00  0.00000000E+00  0.00000000E+00
  0.00000000E+00  0.00000000E+00  0.00000000E+00
  0.00000000E+00  0.00000000E+00  0.00000000E+00
  0.00000000E+00  0.00000000E+00  0.00000000E+00
  0.00000000E+00  0.00000000E+00  0.00000000E+00
  0.00000000E+00  0.00000000E+00  0.00000000E+00
  0.00000000E+00  0.00000000E+00  0.00000000E+00
  0.00000000E+00  0.00000000E+00  0.00000000E+00
  0.00000000E+00  0.00000000E+00  0.00000000E+00
  0.00000000E+00  0.00000000E+00  0.00000000E+00
  0.00000000E+00  0.00000000E+00  0.00000000E+00
  0.00000000E+00  0.00000000E+00  0.00000000E+00
  0.00000000E+00  0.00000000E+00  0.00000000E+00
  0.00000000E+00  0.00000000E+00  0.00000000E+00
  0.00000000E+00  0.00000000E+00  0.00000000E+00
  0.00000000E+00  0.00000000E+00  0.00000000E+00
  0.00000000E+00  0.00000000E+00  0.00000000E+00
  0.00000000E+00  0.00000000E+00  0.00000000E+00
  0.00000000E+00  0.00000000E+00  0.00000000E+00
  0.00000000E+00  0.00000000E+00  0.00000000E+00
  0.00000000E+00  0.00000000E+00  0.00000000E+00
  0.00000000E+00  0.00000000E+00  0.00000000E+00
  0.00000000E+00  0.00000000E+00  0.00000000E+00
  0.00000000E+00  0.00000000E+00  0.00000000E+00
  0.00000000E+00  0.00000000E+00  0.00000000E+00
  0.00000000E+00  0.00000000E+00  0.00000000E+00
  0.00000000E+00  0.00000000E+00  0.00000000E+00
  0.00000000E+00  0.00000000E+00  0.00000000E+00
  0.00000000E+00  0.00000000E+00  0.00000000E+00
  0.00000000E+00  0.00000000E+00  0.00000000E+00
  0.00000000E+00  0.00000000E+00  0.00000000E+00
  0.00000000E+00  0.00000000E+00  0.00000000E+00
