H1 Rh1 C124 N2 O1                       
   1.00000000000000     
    19.8050444165088031   -0.0463860884432334   -0.0247431996444935
    -9.9432552187351941   17.0507570877962529    0.1510626295437158
    -0.0367922253593006    0.2423029099720408   29.8404629153359657
   H    Rh   C    N    O 
     1     1   124     2     1
Direct
  0.4655235854422500  0.5580981318696746  0.5009830160802029
  0.4374248068120117  0.4992967456286850  0.4243099429664092
  0.0426246069278306  0.0846411744249597  0.3997876002683785
  0.0423247531397742  0.2090017447843673  0.3991079874852250
  0.0415061286213942  0.3333606449742534  0.3990233599978132
  0.0407983558254326  0.4584209577541744  0.3994562798823825
  0.0409022642572248  0.5837434980446813  0.3997744836606714
  0.0412991181408984  0.7090597660144775  0.3998065664258315
  0.0416159411174711  0.8342473895497344  0.3999578027828947
  0.0421202378651754  0.9595547544744160  0.4001157315045184
  0.1683126172628504  0.0860233465813886  0.3999257024079224
  0.1692090905577374  0.2116520277297385  0.3992251050371545
  0.1675840569618983  0.3352797917171315  0.3978481558059594
  0.1650094562553371  0.4592537399122481  0.3988384782535425
  0.1648389770629424  0.5841569762505567  0.3992461964402231
  0.1656609738136589  0.7092924729675415  0.3996591807442273
  0.1663722157209363  0.8345252019923607  0.3998792069825315
  0.1671367563745534  0.9600160900070180  0.4000594015639661
  0.2926659794171179  0.0853930119159721  0.4002338460082553
  0.2949446668117242  0.2128410887599752  0.4011261400308555
  0.2968116908439963  0.3403980062736551  0.3990125645507580
  0.2901115072912315  0.4615662989961049  0.3987289232943414
  0.2884201621568324  0.5851873210128644  0.4007151166885276
  0.2898896468958113  0.7094812650831501  0.4002742468741834
  0.2910178087065499  0.8343101104577908  0.3996594488201478
  0.2917351630568927  0.9595422205134864  0.3997146832832029
  0.4170844527464915  0.0835867982170945  0.3996937696403303
  0.4180650660712414  0.2091874837120033  0.4007689680217418
  0.4220183874120524  0.3367992651228270  0.4055686989325658
  0.4138670754078358  0.7071382853930617  0.4025742283997126
  0.4155922551689632  0.8328216120673393  0.4001241094280811
  0.4163481678480976  0.9581951141707233  0.3995233634495307
  0.5416840241800999  0.0820725637835706  0.3994721665470572
  0.5424745084696762  0.2071347148710290  0.3999229475705779
  0.5439612235240424  0.3317405537213988  0.4013570946855598
  0.5451458321353309  0.4545803479121638  0.4036759477412675
  0.5405628035221471  0.5754523206444387  0.4006239804992909
  0.5370320834495246  0.7022839523059765  0.4035786420534266
  0.5398775993108533  0.8305418751753861  0.4013323770198010
  0.5409777388165437  0.9566390260536869  0.3998072696000585
  0.6663345175293860  0.0815523456978023  0.3996227443851204
  0.6670611345272234  0.2068756872937867  0.3995144175232725
  0.6680153275418768  0.3320246402900434  0.3994692830905135
  0.6691444648961319  0.4571419262165564  0.3989185070974124
  0.6677828264377074  0.5811869882530554  0.3982561807783273
  0.6632696154360261  0.7037907290945483  0.3990902665425222
  0.6639645767272484  0.8295639492470422  0.4004941643506683
  0.6655307669218010  0.9559605902336599  0.4001395768054122
  0.7911662473626809  0.0816979386605452  0.3999578829472327
  0.7916794905788614  0.2069443825140820  0.3998536893407518
  0.7922599206215135  0.3322791518521519  0.3995387664225850
  0.7928340142379907  0.4576704507706317  0.3991117981691144
  0.7926674099184282  0.5828255946495805  0.3987755105331201
  0.7910094573412562  0.7072229767131288  0.3985985792186794
  0.7898775963682932  0.8311979553380999  0.3995378483901556
  0.7903510888917363  0.9562854750296800  0.3999789312277444
  0.9165098393491049  0.0827056549707741  0.3999825986963430
  0.9166171494384486  0.2075567479624396  0.3998367675179797
  0.9166177582675109  0.3326222039033631  0.3999175774926220
  0.9167336314264358  0.4579637581625084  0.3998396006198995
  0.9169071706805543  0.5833836947654328  0.3995995433227483
  0.9165729783623126  0.7085368971906122  0.3993874488336681
  0.9162879922213152  0.8333108765359600  0.3996960424974246
  0.9162338280072848  0.9579333413488227  0.4000189494808784
  0.0844974229731085  0.0434808184495645  0.3999325312947343
  0.0850004850186275  0.1685647226257591  0.3993223004960118
  0.0838761334371035  0.2925522137534718  0.3984672480148687
  0.0822366528782828  0.4169229666488816  0.3990076211515440
  0.0819831002881704  0.5420083945646106  0.3994379930301704
  0.0825254198753154  0.6673439310016277  0.3997463771201336
  0.0830894788881637  0.7926851643281346  0.3999076838925813
  0.0836159818639592  0.9179797752653966  0.4001053249532759
  0.2092617304419681  0.0437526576836721  0.4000967702147582
  0.2108908794700500  0.1701841216432111  0.3998945280799591
  0.2116684346875772  0.2959477560550173  0.3983958462943598
  0.2072286588661057  0.4186157077046158  0.3982691332840865
  0.2057218349456999  0.5425778472847490  0.3991092425572536
  0.2067950988002297  0.6676403602273127  0.3996465310646384
  0.2076864046248338  0.7927864433989049  0.3997261300589766
  0.2084035561193598  0.9181046657888825  0.3999190047213163
  0.3337516970756199  0.0430415787519838  0.3998323175221422
  0.3349149099487144  0.1691341485281223  0.4009062535126876
  0.3378697968377102  0.2973316958769631  0.4024523823836253
  0.3354715478422061  0.4247126367476867  0.3971698023777814
  0.3297416663991311  0.5448920161611472  0.4029570724439157
  0.3308723676202381  0.6678748872478454  0.4015155432837986
  0.3322887395064813  0.7925213201012080  0.3999883862553018
  0.3330655654130976  0.9176123491298848  0.3995774429895306
  0.4583828604189273  0.0414917969056586  0.3995137518990573
  0.4591834847018850  0.1668741093645786  0.3999801187164498
  0.4609176698020677  0.2924544288347153  0.4022331908901886
  0.4527074305880101  0.6625916964616700  0.4060223463017885
  0.4567172529389089  0.7904766669588829  0.4011214894389596
  0.4576435779921115  0.9160853242229685  0.3997184937648174
  0.5830034533729647  0.0401399190917397  0.3995374079782100
  0.5837295875930814  0.1653649022335787  0.3995624747580445
  0.5849017345418083  0.2901807608159307  0.4001899671345091
  0.5864294234301159  0.4144078131037542  0.4006705964880345
  0.5850265435727330  0.5379812837133261  0.3998555461242213
  0.5781605933410414  0.6594812353201422  0.4005521906623016
  0.5799117174551551  0.7868599033266296  0.4018890337642982
  0.5820896970649104  0.9142849338174274  0.4003751292064820
  0.7076355217567493  0.0396704254977361  0.3998415508053228
  0.7083507739236539  0.1651171411640114  0.3996267746604689
  0.7091129225457780  0.2903650959894246  0.3994181623987222
  0.7099645308055997  0.4155185395654072  0.3989973130486689
  0.7099018062317001  0.5404670073908103  0.3985540017366350
  0.7073631265566360  0.6645069830847973  0.3981826594409278
  0.7056413221895583  0.7880952549092302  0.3997222428417365
  0.7065253376037546  0.9137416445245908  0.4001517283145572
  0.8327112066136722  0.0401835979064485  0.4000336240574414
  0.8331615697266456  0.1654047710275245  0.3999656183202135
  0.8334680145067270  0.2905556156084035  0.3998623000852696
  0.8338472675541675  0.4158687850813286  0.3995132861346845
  0.8340062440112087  0.5412396754244020  0.3991716003661896
  0.8333601999117324  0.6663742160721574  0.3988671104695412
  0.8325529968855967  0.7907729906582491  0.3992368852635379
  0.8322294139851185  0.9151120306351307  0.3998898466848125
  0.9586208229376675  0.0418095518274379  0.3999893084447183
  0.9585791708268144  0.1664305420955310  0.3996971851002426
  0.9582521714988157  0.2911560396286991  0.3996887684986289
  0.9578924147735625  0.4162400933250986  0.3998392258954746
  0.9580327769399960  0.5416162413465793  0.3998441561166589
  0.9581734386045561  0.6670143990785886  0.3996259937034484
  0.9582014145853782  0.7921444895278443  0.3996821147597371
  0.9583380907623538  0.9170390466483568  0.4000378575191523
  0.4083615028204772  0.5826069814443179  0.4102041318127467
  0.4663713701785946  0.4164183673981596  0.4104981218547202
  0.4700183921344385  0.5156218724647349  0.4877308208275866
 
  0.00000000E+00  0.00000000E+00  0.00000000E+00
  0.00000000E+00  0.00000000E+00  0.00000000E+00
  0.00000000E+00  0.00000000E+00  0.00000000E+00
  0.00000000E+00  0.00000000E+00  0.00000000E+00
  0.00000000E+00  0.00000000E+00  0.00000000E+00
  0.00000000E+00  0.00000000E+00  0.00000000E+00
  0.00000000E+00  0.00000000E+00  0.00000000E+00
  0.00000000E+00  0.00000000E+00  0.00000000E+00
  0.00000000E+00  0.00000000E+00  0.00000000E+00
  0.00000000E+00  0.00000000E+00  0.00000000E+00
  0.00000000E+00  0.00000000E+00  0.00000000E+00
  0.00000000E+00  0.00000000E+00  0.00000000E+00
  0.00000000E+00  0.00000000E+00  0.00000000E+00
  0.00000000E+00  0.00000000E+00  0.00000000E+00
  0.00000000E+00  0.00000000E+00  0.00000000E+00
  0.00000000E+00  0.00000000E+00  0.00000000E+00
  0.00000000E+00  0.00000000E+00  0.00000000E+00
  0.00000000E+00  0.00000000E+00  0.00000000E+00
  0.00000000E+00  0.00000000E+00  0.00000000E+00
  0.00000000E+00  0.00000000E+00  0.00000000E+00
  0.00000000E+00  0.00000000E+00  0.00000000E+00
  0.00000000E+00  0.00000000E+00  0.00000000E+00
  0.00000000E+00  0.00000000E+00  0.00000000E+00
  0.00000000E+00  0.00000000E+00  0.00000000E+00
  0.00000000E+00  0.00000000E+00  0.00000000E+00
  0.00000000E+00  0.00000000E+00  0.00000000E+00
  0.00000000E+00  0.00000000E+00  0.00000000E+00
  0.00000000E+00  0.00000000E+00  0.00000000E+00
  0.00000000E+00  0.00000000E+00  0.00000000E+00
  0.00000000E+00  0.00000000E+00  0.00000000E+00
  0.00000000E+00  0.00000000E+00  0.00000000E+00
  0.00000000E+00  0.00000000E+00  0.00000000E+00
  0.00000000E+00  0.00000000E+00  0.00000000E+00
  0.00000000E+00  0.00000000E+00  0.00000000E+00
  0.00000000E+00  0.00000000E+00  0.00000000E+00
  0.00000000E+00  0.00000000E+00  0.00000000E+00
  0.00000000E+00  0.00000000E+00  0.00000000E+00
  0.00000000E+00  0.00000000E+00  0.00000000E+00
  0.00000000E+00  0.00000000E+00  0.00000000E+00
  0.00000000E+00  0.00000000E+00  0.00000000E+00
  0.00000000E+00  0.00000000E+00  0.00000000E+00
  0.00000000E+00  0.00000000E+00  0.00000000E+00
  0.00000000E+00  0.00000000E+00  0.00000000E+00
  0.00000000E+00  0.00000000E+00  0.00000000E+00
  0.00000000E+00  0.00000000E+00  0.00000000E+00
  0.00000000E+00  0.00000000E+00  0.00000000E+00
  0.00000000E+00  0.00000000E+00  0.00000000E+00
  0.00000000E+00  0.00000000E+00  0.00000000E+00
  0.00000000E+00  0.00000000E+00  0.00000000E+00
  0.00000000E+00  0.00000000E+00  0.00000000E+00
  0.00000000E+00  0.00000000E+00  0.00000000E+00
  0.00000000E+00  0.00000000E+00  0.00000000E+00
  0.00000000E+00  0.00000000E+00  0.00000000E+00
  0.00000000E+00  0.00000000E+00  0.00000000E+00
  0.00000000E+00  0.00000000E+00  0.00000000E+00
  0.00000000E+00  0.00000000E+00  0.00000000E+00
  0.00000000E+00  0.00000000E+00  0.00000000E+00
  0.00000000E+00  0.00000000E+00  0.00000000E+00
  0.00000000E+00  0.00000000E+00  0.00000000E+00
  0.00000000E+00  0.00000000E+00  0.00000000E+00
  0.00000000E+00  0.00000000E+00  0.00000000E+00
  0.00000000E+00  0.00000000E+00  0.00000000E+00
  0.00000000E+00  0.00000000E+00  0.00000000E+00
  0.00000000E+00  0.00000000E+00  0.00000000E+00
  0.00000000E+00  0.00000000E+00  0.00000000E+00
  0.00000000E+00  0.00000000E+00  0.00000000E+00
  0.00000000E+00  0.00000000E+00  0.00000000E+00
  0.00000000E+00  0.00000000E+00  0.00000000E+00
  0.00000000E+00  0.00000000E+00  0.00000000E+00
  0.00000000E+00  0.00000000E+00  0.00000000E+00
  0.00000000E+00  0.00000000E+00  0.00000000E+00
  0.00000000E+00  0.00000000E+00  0.00000000E+00
  0.00000000E+00  0.00000000E+00  0.00000000E+00
  0.00000000E+00  0.00000000E+00  0.00000000E+00
  0.00000000E+00  0.00000000E+00  0.00000000E+00
  0.00000000E+00  0.00000000E+00  0.00000000E+00
  0.00000000E+00  0.00000000E+00  0.00000000E+00
  0.00000000E+00  0.00000000E+00  0.00000000E+00
  0.00000000E+00  0.00000000E+00  0.00000000E+00
  0.00000000E+00  0.00000000E+00  0.00000000E+00
  0.00000000E+00  0.00000000E+00  0.00000000E+00
  0.00000000E+00  0.00000000E+00  0.00000000E+00
  0.00000000E+00  0.00000000E+00  0.00000000E+00
  0.00000000E+00  0.00000000E+00  0.00000000E+00
  0.00000000E+00  0.00000000E+00  0.00000000E+00
  0.00000000E+00  0.00000000E+00  0.00000000E+00
  0.00000000E+00  0.00000000E+00  0.00000000E+00
  0.00000000E+00  0.00000000E+00  0.00000000E+00
  0.00000000E+00  0.00000000E+00  0.00000000E+00
  0.00000000E+00  0.00000000E+00  0.00000000E+00
  0.00000000E+00  0.00000000E+00  0.00000000E+00
  0.00000000E+00  0.00000000E+00  0.00000000E+00
  0.00000000E+00  0.00000000E+00  0.00000000E+00
  0.00000000E+00  0.00000000E+00  0.00000000E+00
  0.00000000E+00  0.00000000E+00  0.00000000E+00
  0.00000000E+00  0.00000000E+00  0.00000000E+00
  0.00000000E+00  0.00000000E+00  0.00000000E+00
  0.00000000E+00  0.00000000E+00  0.00000000E+00
  0.00000000E+00  0.00000000E+00  0.00000000E+00
  0.00000000E+00  0.00000000E+00  0.00000000E+00
  0.00000000E+00  0.00000000E+00  0.00000000E+00
  0.00000000E+00  0.00000000E+00  0.00000000E+00
  0.00000000E+00  0.00000000E+00  0.00000000E+00
  0.00000000E+00  0.00000000E+00  0.00000000E+00
  0.00000000E+00  0.00000000E+00  0.00000000E+00
  0.00000000E+00  0.00000000E+00  0.00000000E+00
  0.00000000E+00  0.00000000E+00  0.00000000E+00
  0.00000000E+00  0.00000000E+00  0.00000000E+00
  0.00000000E+00  0.00000000E+00  0.00000000E+00
  0.00000000E+00  0.00000000E+00  0.00000000E+00
  0.00000000E+00  0.00000000E+00  0.00000000E+00
  0.00000000E+00  0.00000000E+00  0.00000000E+00
  0.00000000E+00  0.00000000E+00  0.00000000E+00
  0.00000000E+00  0.00000000E+00  0.00000000E+00
  0.00000000E+00  0.00000000E+00  0.00000000E+00
  0.00000000E+00  0.00000000E+00  0.00000000E+00
  0.00000000E+00  0.00000000E+00  0.00000000E+00
  0.00000000E+00  0.00000000E+00  0.00000000E+00
  0.00000000E+00  0.00000000E+00  0.00000000E+00
  0.00000000E+00  0.00000000E+00  0.00000000E+00
  0.00000000E+00  0.00000000E+00  0.00000000E+00
  0.00000000E+00  0.00000000E+00  0.00000000E+00
  0.00000000E+00  0.00000000E+00  0.00000000E+00
  0.00000000E+00  0.00000000E+00  0.00000000E+00
  0.00000000E+00  0.00000000E+00  0.00000000E+00
  0.00000000E+00  0.00000000E+00  0.00000000E+00
  0.00000000E+00  0.00000000E+00  0.00000000E+00
  0.00000000E+00  0.00000000E+00  0.00000000E+00
  0.00000000E+00  0.00000000E+00  0.00000000E+00
