Cr1 H1 C122 N4 O1                       
   1.00000000000000     
    19.8108290280161619   -0.0000457516139237   -0.0413461741024448
    -9.9053966458563085   17.0246099241363709    0.0131594080557009
    -0.0623924896578009   -0.0131689349217187   29.8349151443709317
   Cr   H    C    N    O 
     1     1   122     4     1
Direct
  0.4378764037817044  0.4998831002187041  0.4205651040534217
  0.4744771136016979  0.5496715551014499  0.4965485690990412
  0.0421673762854290  0.0841640413786534  0.3999568591934592
  0.0412886518416191  0.2083073453765647  0.3999447027668152
  0.0405087884096947  0.3330396145149773  0.3996172355158300
  0.0405695606427791  0.4582466091660662  0.3990893065320331
  0.0413608330530605  0.5836712072574683  0.3989714521840206
  0.0420707014771731  0.7090531557467723  0.3992078998554386
  0.0423305443854210  0.8342687977447867  0.3995324430755126
  0.0424839366639529  0.9595366529943262  0.3998080035661575
  0.1682071538803499  0.0857805541744370  0.4008139450767429
  0.1677214236484160  0.2104230300227478  0.4014959800037847
  0.1652739246413391  0.3337465807018341  0.4015901125527802
  0.1642168993239491  0.4585193650946500  0.4006239753820955
  0.1652151550194884  0.5836534032502979  0.3996000417666844
  0.1664414727790980  0.7088623541023686  0.3992657364699453
  0.1670092040019094  0.8342602197045782  0.3994860064997198
  0.1674957582589310  0.9599121882458516  0.4000159183699457
  0.2926763937145159  0.0857793672779748  0.4007987595439701
  0.2942521019608710  0.2133670735066420  0.4028167340915972
  0.2927125520038184  0.3389002845611106  0.4050319421134943
  0.2874296433184980  0.4580411703598071  0.4047552418389037
  0.2885489263537683  0.5829936555411859  0.4021781568534339
  0.2907602637207632  0.7083753820832120  0.4002520416986424
  0.2916857166225579  0.8338342494962514  0.3994973525596304
  0.2921123612035598  0.9595079179520903  0.3997568073651758
  0.4170799378022863  0.0841463390548584  0.3999658687677827
  0.4178311406851564  0.2104441518001691  0.4014025038249384
  0.4213232597695601  0.3389119627347790  0.4046595421429149
  0.4147725831443550  0.7058606120721335  0.4026071149898064
  0.4162107289146035  0.8321952084614327  0.4003587011760727
  0.4167099194412528  0.9582112756106954  0.3996223745033590
  0.5415828738987615  0.0826413324185626  0.3996261711690538
  0.5421137696660819  0.2082833018710575  0.3999421660976423
  0.5435718834013921  0.3337219618449854  0.4013016696941190
  0.5456791701086081  0.4580095860792551  0.4040853537252586
  0.5383670353308238  0.7015907082801665  0.4051141575249846
  0.5405615727244047  0.8301738033578626  0.4018707828760693
  0.5412052602129838  0.9567133651404812  0.4001508266105118
  0.6662298182071869  0.0821087949408002  0.3997960631225003
  0.6666559866825823  0.2075723267918864  0.3994429964830629
  0.6676233835143539  0.3330246139270815  0.3996098274799819
  0.6693391046752366  0.4585011563776476  0.4004250687997853
  0.6695672859085995  0.5829996631190620  0.4018628230413158
  0.6662265867083097  0.7058796529119188  0.4025009038277817
  0.6647519071794016  0.8301762115700428  0.4018501017834014
  0.6657083695057451  0.9563204418825771  0.4006061907304899
  0.7909608969758434  0.0821199095611913  0.3997636539603406
  0.7912920187889382  0.2075097747480497  0.3994244437256327
  0.7918197907940090  0.3328436934592881  0.3991644788594952
  0.7927489126780947  0.4582287382748030  0.3991270213176251
  0.7935023405922658  0.5836272753259282  0.3995942140048329
  0.7927262842284695  0.7083622369557551  0.4002437570002521
  0.7911041283161765  0.8322143088856152  0.4004002879405353
  0.7906034972240794  0.9567435106771300  0.4001463006436558
  0.9161520312859217  0.0826690676065776  0.3995826493425808
  0.9160186017819074  0.2075969027211880  0.3994007838081556
  0.9161210579206802  0.3328653865150386  0.3991137396417699
  0.9166778860531267  0.4582816142404467  0.3989108161513006
  0.9174082176173846  0.5836673487213440  0.3990220071706352
  0.9175108314103746  0.7088637168482476  0.3993439867874629
  0.9172465420029423  0.8338599072109387  0.3995792206220279
  0.9165900715968248  0.9582381963966833  0.3996573469591901
  0.0845108849134762  0.0433119913463685  0.4001547815632328
  0.0840083436009594  0.1678135562369071  0.4003446996237913
  0.0823986152039503  0.2916584307351009  0.4002461256061404
  0.0815780211403332  0.4163899808319454  0.3996182659984043
  0.0823595052241445  0.5418089886103585  0.3990787242492876
  0.0832784951351446  0.6671808777577770  0.3991052273376354
  0.0837930679754493  0.7925256252398999  0.3994217704270239
  0.0841271469306705  0.9179208984355113  0.3998048175343628
  0.2094009363684340  0.0437117496101266  0.4005795729007293
  0.2103990640149281  0.1698607869921917  0.4017956441802187
  0.2088904207778581  0.2941175051019355  0.4025048883007743
  0.2055427442707777  0.4170258173525803  0.4020774287049091
  0.2057299695533951  0.5415115163139541  0.4006339129258221
  0.2074977087400544  0.6670009491892926  0.3996090040905214
  0.2084217925554338  0.7924367554251351  0.3993780696230768
  0.2088367719888914  0.9179043565605371  0.3997486285297293
  0.3338833447021101  0.0432961540645071  0.4001397352716523
  0.3345851999425229  0.1698629633253761  0.4017427992353507
  0.3367825437378160  0.2984452293780799  0.4047715440375104
  0.3293768571150874  0.5419182107155938  0.4048933917686821
  0.3315341284384988  0.6662712862240282  0.4016640817738650
  0.3329872222239770  0.7917203616349725  0.3999410453324749
  0.3334866741473713  0.9173607577269689  0.3995509193482641
  0.4583732534662084  0.0417902524872348  0.3996574852128142
  0.4589030441072681  0.1678129631102769  0.4003222497027978
  0.4603440974710391  0.2941277259378822  0.4022342364289677
  0.4537864042168717  0.6610520406290724  0.4053041999084542
  0.4573005036471566  0.7895612288777423  0.4015464428688598
  0.4580030597934656  0.9158455719438935  0.3999492183036358
  0.5829586262694143  0.0404988682595281  0.3997988530024196
  0.5833993466224723  0.1661744628674476  0.3995678802370473
  0.5843585303520386  0.2916418868326606  0.4001593672907002
  0.5865403066498328  0.4169894680046605  0.4016756708019834
  0.5876718705414850  0.5419114187037091  0.4043394570070584
  0.5824405174330077  0.6610985961169751  0.4051103504326007
  0.5809105845700682  0.7866690763201156  0.4029990278324657
  0.5824351382628397  0.9142465614648215  0.4008419532688643
  0.7075916413051495  0.0401069356247372  0.4000218333175536
  0.7080824105533478  0.1657706694349237  0.3995310883653671
  0.7086641217869789  0.2911537777417899  0.3993289496938939
  0.7098776200646898  0.4163835146212185  0.3995931222905106
  0.7108516158512986  0.5414967703158379  0.4004548377337982
  0.7098559277429132  0.6662725646354126  0.4014998064446784
  0.7073974920950593  0.7895818978019771  0.4015390257433148
  0.7069170162109748  0.9142632825902055  0.4008351282619108
  0.8326363373141923  0.0405254914714464  0.3997714459455339
  0.8327721301011206  0.1657799917041618  0.3994928808272735
  0.8330302149263595  0.2909816755871348  0.3992082522433458
  0.8337415585088772  0.4163557134683716  0.3990122315940694
  0.8345348097103089  0.5417950287606480  0.3991218374967028
  0.8346023385606542  0.6669891417342516  0.3996359290075396
  0.8338491044440272  0.7917396020539222  0.4000036041078914
  0.8329339141167501  0.9158806825756789  0.3999843990203921
  0.9585067027101030  0.0418096445546281  0.3996447399256806
  0.9578794894635551  0.1662102349281510  0.3995255123678279
  0.9576008515127570  0.2911743796068566  0.3992835766424978
  0.9577061880704377  0.4163717195510976  0.3989644839447881
  0.9584272166000853  0.5417656005613601  0.3989180205259474
  0.9589987311391354  0.6671887870419323  0.3991742100821675
  0.9590937663115385  0.7924555921689057  0.3994484120607311
  0.9589572250730112  0.9173946224050511  0.3996260276343554
  0.4096888432362643  0.5805353409656500  0.4077084248959875
  0.5460924774862902  0.5805654105612000  0.4071272807881741
  0.3290607211083444  0.4193901540621801  0.4073443253825582
  0.4654665301675666  0.4193723986006977  0.4065615926042265
  0.4409267143806362  0.4991925705349913  0.4820973060545464
 
  0.00000000E+00  0.00000000E+00  0.00000000E+00
  0.00000000E+00  0.00000000E+00  0.00000000E+00
  0.00000000E+00  0.00000000E+00  0.00000000E+00
  0.00000000E+00  0.00000000E+00  0.00000000E+00
  0.00000000E+00  0.00000000E+00  0.00000000E+00
  0.00000000E+00  0.00000000E+00  0.00000000E+00
  0.00000000E+00  0.00000000E+00  0.00000000E+00
  0.00000000E+00  0.00000000E+00  0.00000000E+00
  0.00000000E+00  0.00000000E+00  0.00000000E+00
  0.00000000E+00  0.00000000E+00  0.00000000E+00
  0.00000000E+00  0.00000000E+00  0.00000000E+00
  0.00000000E+00  0.00000000E+00  0.00000000E+00
  0.00000000E+00  0.00000000E+00  0.00000000E+00
  0.00000000E+00  0.00000000E+00  0.00000000E+00
  0.00000000E+00  0.00000000E+00  0.00000000E+00
  0.00000000E+00  0.00000000E+00  0.00000000E+00
  0.00000000E+00  0.00000000E+00  0.00000000E+00
  0.00000000E+00  0.00000000E+00  0.00000000E+00
  0.00000000E+00  0.00000000E+00  0.00000000E+00
  0.00000000E+00  0.00000000E+00  0.00000000E+00
  0.00000000E+00  0.00000000E+00  0.00000000E+00
  0.00000000E+00  0.00000000E+00  0.00000000E+00
  0.00000000E+00  0.00000000E+00  0.00000000E+00
  0.00000000E+00  0.00000000E+00  0.00000000E+00
  0.00000000E+00  0.00000000E+00  0.00000000E+00
  0.00000000E+00  0.00000000E+00  0.00000000E+00
  0.00000000E+00  0.00000000E+00  0.00000000E+00
  0.00000000E+00  0.00000000E+00  0.00000000E+00
  0.00000000E+00  0.00000000E+00  0.00000000E+00
  0.00000000E+00  0.00000000E+00  0.00000000E+00
  0.00000000E+00  0.00000000E+00  0.00000000E+00
  0.00000000E+00  0.00000000E+00  0.00000000E+00
  0.00000000E+00  0.00000000E+00  0.00000000E+00
  0.00000000E+00  0.00000000E+00  0.00000000E+00
  0.00000000E+00  0.00000000E+00  0.00000000E+00
  0.00000000E+00  0.00000000E+00  0.00000000E+00
  0.00000000E+00  0.00000000E+00  0.00000000E+00
  0.00000000E+00  0.00000000E+00  0.00000000E+00
  0.00000000E+00  0.00000000E+00  0.00000000E+00
  0.00000000E+00  0.00000000E+00  0.00000000E+00
  0.00000000E+00  0.00000000E+00  0.00000000E+00
  0.00000000E+00  0.00000000E+00  0.00000000E+00
  0.00000000E+00  0.00000000E+00  0.00000000E+00
  0.00000000E+00  0.00000000E+00  0.00000000E+00
  0.00000000E+00  0.00000000E+00  0.00000000E+00
  0.00000000E+00  0.00000000E+00  0.00000000E+00
  0.00000000E+00  0.00000000E+00  0.00000000E+00
  0.00000000E+00  0.00000000E+00  0.00000000E+00
  0.00000000E+00  0.00000000E+00  0.00000000E+00
  0.00000000E+00  0.00000000E+00  0.00000000E+00
  0.00000000E+00  0.00000000E+00  0.00000000E+00
  0.00000000E+00  0.00000000E+00  0.00000000E+00
  0.00000000E+00  0.00000000E+00  0.00000000E+00
  0.00000000E+00  0.00000000E+00  0.00000000E+00
  0.00000000E+00  0.00000000E+00  0.00000000E+00
  0.00000000E+00  0.00000000E+00  0.00000000E+00
  0.00000000E+00  0.00000000E+00  0.00000000E+00
  0.00000000E+00  0.00000000E+00  0.00000000E+00
  0.00000000E+00  0.00000000E+00  0.00000000E+00
  0.00000000E+00  0.00000000E+00  0.00000000E+00
  0.00000000E+00  0.00000000E+00  0.00000000E+00
  0.00000000E+00  0.00000000E+00  0.00000000E+00
  0.00000000E+00  0.00000000E+00  0.00000000E+00
  0.00000000E+00  0.00000000E+00  0.00000000E+00
  0.00000000E+00  0.00000000E+00  0.00000000E+00
  0.00000000E+00  0.00000000E+00  0.00000000E+00
  0.00000000E+00  0.00000000E+00  0.00000000E+00
  0.00000000E+00  0.00000000E+00  0.00000000E+00
  0.00000000E+00  0.00000000E+00  0.00000000E+00
  0.00000000E+00  0.00000000E+00  0.00000000E+00
  0.00000000E+00  0.00000000E+00  0.00000000E+00
  0.00000000E+00  0.00000000E+00  0.00000000E+00
  0.00000000E+00  0.00000000E+00  0.00000000E+00
  0.00000000E+00  0.00000000E+00  0.00000000E+00
  0.00000000E+00  0.00000000E+00  0.00000000E+00
  0.00000000E+00  0.00000000E+00  0.00000000E+00
  0.00000000E+00  0.00000000E+00  0.00000000E+00
  0.00000000E+00  0.00000000E+00  0.00000000E+00
  0.00000000E+00  0.00000000E+00  0.00000000E+00
  0.00000000E+00  0.00000000E+00  0.00000000E+00
  0.00000000E+00  0.00000000E+00  0.00000000E+00
  0.00000000E+00  0.00000000E+00  0.00000000E+00
  0.00000000E+00  0.00000000E+00  0.00000000E+00
  0.00000000E+00  0.00000000E+00  0.00000000E+00
  0.00000000E+00  0.00000000E+00  0.00000000E+00
  0.00000000E+00  0.00000000E+00  0.00000000E+00
  0.00000000E+00  0.00000000E+00  0.00000000E+00
  0.00000000E+00  0.00000000E+00  0.00000000E+00
  0.00000000E+00  0.00000000E+00  0.00000000E+00
  0.00000000E+00  0.00000000E+00  0.00000000E+00
  0.00000000E+00  0.00000000E+00  0.00000000E+00
  0.00000000E+00  0.00000000E+00  0.00000000E+00
  0.00000000E+00  0.00000000E+00  0.00000000E+00
  0.00000000E+00  0.00000000E+00  0.00000000E+00
  0.00000000E+00  0.00000000E+00  0.00000000E+00
  0.00000000E+00  0.00000000E+00  0.00000000E+00
  0.00000000E+00  0.00000000E+00  0.00000000E+00
  0.00000000E+00  0.00000000E+00  0.00000000E+00
  0.00000000E+00  0.00000000E+00  0.00000000E+00
  0.00000000E+00  0.00000000E+00  0.00000000E+00
  0.00000000E+00  0.00000000E+00  0.00000000E+00
  0.00000000E+00  0.00000000E+00  0.00000000E+00
  0.00000000E+00  0.00000000E+00  0.00000000E+00
  0.00000000E+00  0.00000000E+00  0.00000000E+00
  0.00000000E+00  0.00000000E+00  0.00000000E+00
  0.00000000E+00  0.00000000E+00  0.00000000E+00
  0.00000000E+00  0.00000000E+00  0.00000000E+00
  0.00000000E+00  0.00000000E+00  0.00000000E+00
  0.00000000E+00  0.00000000E+00  0.00000000E+00
  0.00000000E+00  0.00000000E+00  0.00000000E+00
  0.00000000E+00  0.00000000E+00  0.00000000E+00
  0.00000000E+00  0.00000000E+00  0.00000000E+00
  0.00000000E+00  0.00000000E+00  0.00000000E+00
  0.00000000E+00  0.00000000E+00  0.00000000E+00
  0.00000000E+00  0.00000000E+00  0.00000000E+00
  0.00000000E+00  0.00000000E+00  0.00000000E+00
  0.00000000E+00  0.00000000E+00  0.00000000E+00
  0.00000000E+00  0.00000000E+00  0.00000000E+00
  0.00000000E+00  0.00000000E+00  0.00000000E+00
  0.00000000E+00  0.00000000E+00  0.00000000E+00
  0.00000000E+00  0.00000000E+00  0.00000000E+00
  0.00000000E+00  0.00000000E+00  0.00000000E+00
  0.00000000E+00  0.00000000E+00  0.00000000E+00
  0.00000000E+00  0.00000000E+00  0.00000000E+00
  0.00000000E+00  0.00000000E+00  0.00000000E+00
  0.00000000E+00  0.00000000E+00  0.00000000E+00
  0.00000000E+00  0.00000000E+00  0.00000000E+00
  0.00000000E+00  0.00000000E+00  0.00000000E+00
  0.00000000E+00  0.00000000E+00  0.00000000E+00
