Mn1 H1 C123 N3 O2                       
   1.00000000000000     
    19.8034070615864053    0.0061337109371359    0.0182957155583232
    -9.8962893941270966   17.0286984894409770   -0.0027860271245694
     0.0275097339713402    0.0113206710003051   29.8334142744608926
   Mn   H    C    N    O 
     1     1   123     3     2
Direct
  0.4367329195691178  0.4985620467115803  0.4224656400053221
  0.5267163814283863  0.5512247265342760  0.5194012684198988
  0.0419212499925976  0.0840383041422207  0.4000446412097095
  0.0411291148772904  0.2082503041233921  0.4002293439851172
  0.0405751512589861  0.3330288358604210  0.3998561349349052
  0.0407566842940969  0.4582087872722681  0.3992894736223677
  0.0414344198758042  0.5836132158475927  0.3991100683229776
  0.0420661164112076  0.7089779447180780  0.3992315992361183
  0.0423142176039094  0.8342371552085937  0.3994569240865570
  0.0422813990018098  0.9593544618364765  0.3997099040315312
  0.1676608975857765  0.0852874776938612  0.4007528824223103
  0.1673882157429389  0.2101797695327112  0.4016153470122665
  0.1653427074610201  0.3336717004006369  0.4014834843558976
  0.1647132091034841  0.4584124458185387  0.4003299397876163
  0.1653759418789836  0.5835395007019875  0.3995975422135120
  0.1664377412046608  0.7088062555442798  0.3993687797100557
  0.1670189382544322  0.8342195561516312  0.3994565517533141
  0.1673721903088020  0.9597891896012324  0.3998978307843109
  0.2924960299013012  0.0855882610250482  0.4007038094850463
  0.2930973501662250  0.2123308580627292  0.4027128051700508
  0.2924866727310655  0.3381818501087357  0.4044915567304453
  0.2884323590104944  0.4579914546039002  0.4030847938435603
  0.2887945170078133  0.5829708665726683  0.4011055900145991
  0.2907451960441177  0.7082966119465319  0.4000995788178293
  0.2916552242125167  0.8337806279179075  0.3995601861061283
  0.2920588251324823  0.9594218695703030  0.3996885463056888
  0.4169681846225303  0.0841492780551920  0.3999004547477471
  0.4175680319218993  0.2103519869347305  0.4012969562372269
  0.4193339872979999  0.3380144523625853  0.4046369461027975
  0.4147916132603175  0.7059181275839090  0.4018953991849871
  0.4161517547694331  0.8322089019738158  0.4003180072561313
  0.4166620556171383  0.9582263639755761  0.3996051084864902
  0.5415442717387630  0.0827524030130974  0.3995250147679088
  0.5420041965510961  0.2084656025225377  0.3999164977769158
  0.5430115702466335  0.3340812567081892  0.4013477954904634
  0.5461163774269525  0.4595029492134802  0.4041205356505448
  0.5382919960984169  0.7015829652610818  0.4042951874080775
  0.5404788786885889  0.8301541999814751  0.4015964064245504
  0.5411611548616204  0.9567765894591306  0.4000978233159927
  0.6661727087459962  0.0821497256487906  0.3996983367086108
  0.6665466281870264  0.2076449529094386  0.3993927082467798
  0.6672988469498761  0.3330468081453576  0.3996744642689204
  0.6691981450902018  0.4585807726646167  0.4006781340176644
  0.6702843305082250  0.5839746828028985  0.4021897499839777
  0.6662460233314518  0.7060304238616653  0.4024927836765157
  0.6646734093087718  0.8302042624141265  0.4017048685221556
  0.6656348959156042  0.9563517485999612  0.4005232576571243
  0.7908728640589217  0.0821047522542477  0.3997413398224169
  0.7911894805665712  0.2074860347669864  0.3994212327502164
  0.7916934749986728  0.3328466553420834  0.3991788352315448
  0.7926911130525023  0.4582674660693474  0.3992766360646068
  0.7935421172291759  0.5836978613649585  0.3999146385519077
  0.7930736161603580  0.7087550871832423  0.4005121913415809
  0.7910825409609108  0.8323069504493791  0.4004684755550628
  0.7905291517953474  0.9567671204622361  0.4001457632517522
  0.9160313059738088  0.0826692157835044  0.3996686413134221
  0.9159403690488125  0.2075991033818756  0.3995823598784143
  0.9160857101342075  0.3328353747540643  0.3992710886443475
  0.9166837388013228  0.4582277007611427  0.3990012387443272
  0.9174270879316723  0.5836781842770764  0.3991002948421788
  0.9175911038829424  0.7089226159571886  0.3994720026062025
  0.9172758901552234  0.8339024739098561  0.3996289840519069
  0.9165045923671562  0.9581939295832831  0.3996530389020310
  0.0841268693099080  0.0430007323815355  0.4001152810641855
  0.0836989455515523  0.1676664952847525  0.4005697692780404
  0.0824217833781283  0.2916615786547710  0.4004619548668320
  0.0819150749775136  0.4163909422506545  0.3997415838503301
  0.0824928339459728  0.5417403966959382  0.3992590261468524
  0.0833180905619195  0.6671326724184763  0.3992085044838476
  0.0837931541398989  0.7924948142637189  0.3993918581916436
  0.0840344914846350  0.9178308695723633  0.3996697993806297
  0.2091303973020328  0.0434755456914033  0.4004778255274492
  0.2095329912448188  0.1691634295261192  0.4017631837623545
  0.2087530630088709  0.2939491123642742  0.4024811329263817
  0.2061510132737514  0.4169265079740246  0.4014668125462688
  0.2060721405198069  0.5414699632846386  0.4002049086710908
  0.2075423468223752  0.6669021687339086  0.3996231331270274
  0.2084254488608423  0.7923539180603921  0.3994427800037982
  0.2088062335073715  0.9178278505741501  0.3996639681463794
  0.3337734404107378  0.0431643204850144  0.4000536575915411
  0.3342195285307051  0.1694786655771675  0.4016284163020043
  0.3350790537804849  0.2966995838358727  0.4045290481191366
  0.3300662305199409  0.5419694824838064  0.4027849041086634
  0.3316034423662326  0.6661558217754937  0.4009858987150657
  0.3329556880750408  0.7916507946866190  0.3999460082756665
  0.3334218806424568  0.9172736617378338  0.3995586320121567
  0.4583234594815919  0.0417989142061289  0.3995865829490050
  0.4587069727613414  0.1677642495235257  0.4002845152350892
  0.4596940651206437  0.2940646086963852  0.4021793305139038
  0.4640439939014682  0.4205988350942889  0.4069418086455022
  0.4537307923616049  0.6609371392055090  0.4039069072747233
  0.4572689254789156  0.7895704143857252  0.4012692451784183
  0.4579578050375481  0.9158586248372155  0.3999472175316035
  0.5828942983164942  0.0405569039210311  0.3997132594248640
  0.5833348257049706  0.1663129452024649  0.3995015428455840
  0.5840370005810642  0.2918106770677408  0.4001981424378748
  0.5863762230701007  0.4173625874555402  0.4018324386596203
  0.5885832257675273  0.5430931605548902  0.4042204813453967
  0.5821764116984653  0.6609202521914342  0.4045843560473992
  0.5808030578935273  0.7866226448453848  0.4026201399290559
  0.5823635930841301  0.9142486638940829  0.4007267002799068
  0.7075296063053472  0.0401395079031449  0.3999563533998443
  0.7079716245918526  0.1657674840195736  0.3994526940723755
  0.7084805692812594  0.2911822331003451  0.3993305599464160
  0.7097979451642666  0.4165095860189380  0.3997326321776271
  0.7109835155446725  0.5417581388213870  0.4008393273449251
  0.7102223271419326  0.6668855745388474  0.4017491041980156
  0.7073356935770034  0.7896971624896794  0.4015135446908786
  0.7068444935102368  0.9142783231624413  0.4007658376868898
  0.8325221694757974  0.0405266218099728  0.3997789264203099
  0.8326903702509321  0.1657526892826108  0.3995352287927343
  0.8329746431442180  0.2910135748317214  0.3992565515259656
  0.8337003650294862  0.4163525962355930  0.3990720714321299
  0.8345531776728149  0.5418127184361199  0.3993198929219355
  0.8346895187318334  0.6671483036777537  0.3999268139233737
  0.8339618028408140  0.7919354002521048  0.4001351143891063
  0.8328520937307927  0.9158917030938085  0.4000041436735136
  0.9583250745802384  0.0417493123911684  0.3996858750539725
  0.9577636362518839  0.1661768943665253  0.3997403801313255
  0.9575642218607580  0.2911585683510657  0.3995124202876991
  0.9578085530042809  0.4163571845545605  0.3991430256058127
  0.9584753526125293  0.5417532338377478  0.3989986630032907
  0.9590339972048136  0.6671835556773980  0.3992254141912594
  0.9590795921004786  0.7924585367248265  0.3994816869720651
  0.9588484006321346  0.9173377693140379  0.3995851883576448
  0.4100044245340180  0.5805693691662764  0.4049864148893793
  0.5460239006118550  0.5804429415879316  0.4062400556202814
  0.3304641005406632  0.4194878834169044  0.4055651534940873
  0.4964811285046650  0.4987202003272987  0.5062831773969295
  0.4341740207784889  0.5054339253162727  0.4845085731542206
 
  0.00000000E+00  0.00000000E+00  0.00000000E+00
  0.00000000E+00  0.00000000E+00  0.00000000E+00
  0.00000000E+00  0.00000000E+00  0.00000000E+00
  0.00000000E+00  0.00000000E+00  0.00000000E+00
  0.00000000E+00  0.00000000E+00  0.00000000E+00
  0.00000000E+00  0.00000000E+00  0.00000000E+00
  0.00000000E+00  0.00000000E+00  0.00000000E+00
  0.00000000E+00  0.00000000E+00  0.00000000E+00
  0.00000000E+00  0.00000000E+00  0.00000000E+00
  0.00000000E+00  0.00000000E+00  0.00000000E+00
  0.00000000E+00  0.00000000E+00  0.00000000E+00
  0.00000000E+00  0.00000000E+00  0.00000000E+00
  0.00000000E+00  0.00000000E+00  0.00000000E+00
  0.00000000E+00  0.00000000E+00  0.00000000E+00
  0.00000000E+00  0.00000000E+00  0.00000000E+00
  0.00000000E+00  0.00000000E+00  0.00000000E+00
  0.00000000E+00  0.00000000E+00  0.00000000E+00
  0.00000000E+00  0.00000000E+00  0.00000000E+00
  0.00000000E+00  0.00000000E+00  0.00000000E+00
  0.00000000E+00  0.00000000E+00  0.00000000E+00
  0.00000000E+00  0.00000000E+00  0.00000000E+00
  0.00000000E+00  0.00000000E+00  0.00000000E+00
  0.00000000E+00  0.00000000E+00  0.00000000E+00
  0.00000000E+00  0.00000000E+00  0.00000000E+00
  0.00000000E+00  0.00000000E+00  0.00000000E+00
  0.00000000E+00  0.00000000E+00  0.00000000E+00
  0.00000000E+00  0.00000000E+00  0.00000000E+00
  0.00000000E+00  0.00000000E+00  0.00000000E+00
  0.00000000E+00  0.00000000E+00  0.00000000E+00
  0.00000000E+00  0.00000000E+00  0.00000000E+00
  0.00000000E+00  0.00000000E+00  0.00000000E+00
  0.00000000E+00  0.00000000E+00  0.00000000E+00
  0.00000000E+00  0.00000000E+00  0.00000000E+00
  0.00000000E+00  0.00000000E+00  0.00000000E+00
  0.00000000E+00  0.00000000E+00  0.00000000E+00
  0.00000000E+00  0.00000000E+00  0.00000000E+00
  0.00000000E+00  0.00000000E+00  0.00000000E+00
  0.00000000E+00  0.00000000E+00  0.00000000E+00
  0.00000000E+00  0.00000000E+00  0.00000000E+00
  0.00000000E+00  0.00000000E+00  0.00000000E+00
  0.00000000E+00  0.00000000E+00  0.00000000E+00
  0.00000000E+00  0.00000000E+00  0.00000000E+00
  0.00000000E+00  0.00000000E+00  0.00000000E+00
  0.00000000E+00  0.00000000E+00  0.00000000E+00
  0.00000000E+00  0.00000000E+00  0.00000000E+00
  0.00000000E+00  0.00000000E+00  0.00000000E+00
  0.00000000E+00  0.00000000E+00  0.00000000E+00
  0.00000000E+00  0.00000000E+00  0.00000000E+00
  0.00000000E+00  0.00000000E+00  0.00000000E+00
  0.00000000E+00  0.00000000E+00  0.00000000E+00
  0.00000000E+00  0.00000000E+00  0.00000000E+00
  0.00000000E+00  0.00000000E+00  0.00000000E+00
  0.00000000E+00  0.00000000E+00  0.00000000E+00
  0.00000000E+00  0.00000000E+00  0.00000000E+00
  0.00000000E+00  0.00000000E+00  0.00000000E+00
  0.00000000E+00  0.00000000E+00  0.00000000E+00
  0.00000000E+00  0.00000000E+00  0.00000000E+00
  0.00000000E+00  0.00000000E+00  0.00000000E+00
  0.00000000E+00  0.00000000E+00  0.00000000E+00
  0.00000000E+00  0.00000000E+00  0.00000000E+00
  0.00000000E+00  0.00000000E+00  0.00000000E+00
  0.00000000E+00  0.00000000E+00  0.00000000E+00
  0.00000000E+00  0.00000000E+00  0.00000000E+00
  0.00000000E+00  0.00000000E+00  0.00000000E+00
  0.00000000E+00  0.00000000E+00  0.00000000E+00
  0.00000000E+00  0.00000000E+00  0.00000000E+00
  0.00000000E+00  0.00000000E+00  0.00000000E+00
  0.00000000E+00  0.00000000E+00  0.00000000E+00
  0.00000000E+00  0.00000000E+00  0.00000000E+00
  0.00000000E+00  0.00000000E+00  0.00000000E+00
  0.00000000E+00  0.00000000E+00  0.00000000E+00
  0.00000000E+00  0.00000000E+00  0.00000000E+00
  0.00000000E+00  0.00000000E+00  0.00000000E+00
  0.00000000E+00  0.00000000E+00  0.00000000E+00
  0.00000000E+00  0.00000000E+00  0.00000000E+00
  0.00000000E+00  0.00000000E+00  0.00000000E+00
  0.00000000E+00  0.00000000E+00  0.00000000E+00
  0.00000000E+00  0.00000000E+00  0.00000000E+00
  0.00000000E+00  0.00000000E+00  0.00000000E+00
  0.00000000E+00  0.00000000E+00  0.00000000E+00
  0.00000000E+00  0.00000000E+00  0.00000000E+00
  0.00000000E+00  0.00000000E+00  0.00000000E+00
  0.00000000E+00  0.00000000E+00  0.00000000E+00
  0.00000000E+00  0.00000000E+00  0.00000000E+00
  0.00000000E+00  0.00000000E+00  0.00000000E+00
  0.00000000E+00  0.00000000E+00  0.00000000E+00
  0.00000000E+00  0.00000000E+00  0.00000000E+00
  0.00000000E+00  0.00000000E+00  0.00000000E+00
  0.00000000E+00  0.00000000E+00  0.00000000E+00
  0.00000000E+00  0.00000000E+00  0.00000000E+00
  0.00000000E+00  0.00000000E+00  0.00000000E+00
  0.00000000E+00  0.00000000E+00  0.00000000E+00
  0.00000000E+00  0.00000000E+00  0.00000000E+00
  0.00000000E+00  0.00000000E+00  0.00000000E+00
  0.00000000E+00  0.00000000E+00  0.00000000E+00
  0.00000000E+00  0.00000000E+00  0.00000000E+00
  0.00000000E+00  0.00000000E+00  0.00000000E+00
  0.00000000E+00  0.00000000E+00  0.00000000E+00
  0.00000000E+00  0.00000000E+00  0.00000000E+00
  0.00000000E+00  0.00000000E+00  0.00000000E+00
  0.00000000E+00  0.00000000E+00  0.00000000E+00
  0.00000000E+00  0.00000000E+00  0.00000000E+00
  0.00000000E+00  0.00000000E+00  0.00000000E+00
  0.00000000E+00  0.00000000E+00  0.00000000E+00
  0.00000000E+00  0.00000000E+00  0.00000000E+00
  0.00000000E+00  0.00000000E+00  0.00000000E+00
  0.00000000E+00  0.00000000E+00  0.00000000E+00
  0.00000000E+00  0.00000000E+00  0.00000000E+00
  0.00000000E+00  0.00000000E+00  0.00000000E+00
  0.00000000E+00  0.00000000E+00  0.00000000E+00
  0.00000000E+00  0.00000000E+00  0.00000000E+00
  0.00000000E+00  0.00000000E+00  0.00000000E+00
  0.00000000E+00  0.00000000E+00  0.00000000E+00
  0.00000000E+00  0.00000000E+00  0.00000000E+00
  0.00000000E+00  0.00000000E+00  0.00000000E+00
  0.00000000E+00  0.00000000E+00  0.00000000E+00
  0.00000000E+00  0.00000000E+00  0.00000000E+00
  0.00000000E+00  0.00000000E+00  0.00000000E+00
  0.00000000E+00  0.00000000E+00  0.00000000E+00
  0.00000000E+00  0.00000000E+00  0.00000000E+00
  0.00000000E+00  0.00000000E+00  0.00000000E+00
  0.00000000E+00  0.00000000E+00  0.00000000E+00
  0.00000000E+00  0.00000000E+00  0.00000000E+00
  0.00000000E+00  0.00000000E+00  0.00000000E+00
  0.00000000E+00  0.00000000E+00  0.00000000E+00
  0.00000000E+00  0.00000000E+00  0.00000000E+00
  0.00000000E+00  0.00000000E+00  0.00000000E+00
  0.00000000E+00  0.00000000E+00  0.00000000E+00
  0.00000000E+00  0.00000000E+00  0.00000000E+00
  0.00000000E+00  0.00000000E+00  0.00000000E+00
