Pt1 C123 N3                             
   1.00000000000000     
    19.8553360988493033    0.0000243759046793    0.0131034370404201
    -9.9274314735362523   17.0329485342845643   -0.0266965653011751
     0.0202903379590394   -0.0353572263572685   29.7533231141134209
   Pt   C    N 
     1   123     3
Direct
  0.4373133815997008  0.4992746891167416  0.4080695627239992
  0.0418201789349608  0.0841374610594359  0.3998157824277460
  0.0404713271004103  0.2079084703894921  0.3999613515189190
  0.0396528022463926  0.3326081352881065  0.3996423807054025
  0.0399141490583828  0.4581414126122604  0.3992246538847442
  0.0411425127209107  0.5839024183404198  0.3993193753643924
  0.0423075132233362  0.7095390908625662  0.3996000379528654
  0.0427332945742371  0.8349022047927157  0.3996917676260514
  0.0426420762452681  0.9599275647248734  0.3996720463363373
  0.1680002206864636  0.0860633685877542  0.4003053064121446
  0.1670244717720609  0.2102738951442014  0.4012103061486862
  0.1641470394383691  0.3334049059683346  0.4014735203964434
  0.1629550892584745  0.4584003047582461  0.4003063974696853
  0.1642837533632578  0.5838038256582431  0.3993583144622297
  0.1661784745483510  0.7093780271087429  0.3994015461658046
  0.1671696059706441  0.8349257885185948  0.3997203457283326
  0.1677596585150838  0.9605793541349116  0.3998443539795127
  0.2929439307518859  0.0862969816634498  0.4003611808529151
  0.2937669114704923  0.2135211528122376  0.4022618569979435
  0.2915662736186630  0.3384549499011268  0.4044749382526103
  0.2853239153669066  0.4578128509154817  0.4042145302650976
  0.2868248284319624  0.5835265115801614  0.4015450520487844
  0.2900503938654156  0.7088700207426460  0.3998137504938593
  0.2915014375310160  0.8343182008331483  0.3995223807938035
  0.2922618334992088  0.9600486854583759  0.3997285499301190
  0.4172572307213522  0.0842398832212230  0.3998296093308430
  0.4181697674508367  0.2103356222839365  0.4013136772435414
  0.4208499276852044  0.3379281425532057  0.4048946139617542
  0.4138552653228322  0.7064449155572630  0.4018671026705161
  0.4157834510631014  0.8324273479992134  0.3999642126547963
  0.4166278964862639  0.9583233790273022  0.3996000804246688
  0.5415752412687243  0.0822894594479393  0.3995921899868571
  0.5424690147531706  0.2080179464609643  0.3998583478144076
  0.5441685842888481  0.3335635623380244  0.4017242708890474
  0.5491129187112880  0.4587782700994643  0.4052842540347835
  0.5377571907775661  0.7006486658292482  0.4039238904916144
  0.5400273373393975  0.8295465032118242  0.4010630256770164
  0.5409200975012746  0.9562208602727377  0.3998584810067778
  0.6659615400605594  0.0814014443561885  0.3997874097195868
  0.6666899043668102  0.2070012295156481  0.3995008215586549
  0.6679955577963521  0.3325236908688802  0.3995134727212666
  0.6709373668226006  0.4583097770930832  0.4006114308383685
  0.6722945214257521  0.5841522549134661  0.4022432292325749
  0.6669300603496910  0.7058922800787518  0.4024350426027863
  0.6644459508655708  0.8294819382259798  0.4012622166355843
  0.6653236889587569  0.9556322677654352  0.4001645284151369
  0.7904764976014667  0.0813587345999357  0.3998232592828296
  0.7909150845162204  0.2067440358518767  0.3997312811093920
  0.7918619191701757  0.3323711314554779  0.3993547076191205
  0.7935430511832726  0.4581417068076069  0.3991093053040487
  0.7946590927174849  0.5837852325434281  0.3994774270927182
  0.7939059249607684  0.7090210247903855  0.4000722235010486
  0.7913381032489277  0.8321887448832574  0.4001743525934535
  0.7902294191586908  0.9561688385862788  0.3999542420456604
  0.9156468810182614  0.0821882319277408  0.3996624279160834
  0.9153491107093081  0.2069944679569768  0.3996355060423137
  0.9156647519221986  0.3324005552834744  0.3994605769786202
  0.9166940380347387  0.4580910035474082  0.3993039897958306
  0.9179203074288068  0.5839030361019070  0.3992533745193510
  0.9182255144407311  0.7093642309004617  0.3993790180703669
  0.9177632333842556  0.8342771242426981  0.3995337381351008
  0.9165640780650389  0.9581637739784885  0.3996176154396173
  0.0844264435054568  0.0435888371356658  0.3998684808299920
  0.0833707516217949  0.1676640382361260  0.4002219095533266
  0.0813712650432827  0.2912545779303821  0.4001916218789570
  0.0806517234091601  0.4161828426194649  0.3995251771527747
  0.0816738523029224  0.5418115813701985  0.3991850141497164
  0.0831907865643920  0.6675815413694483  0.3994521074148037
  0.0840888638175266  0.7931907427464070  0.3997442288349319
  0.0844240623137461  0.9185427206764224  0.3997400075204229
  0.2095444115252628  0.0442563579482830  0.4001390482661081
  0.2097920215177781  0.1699380720283747  0.4012253801521009
  0.2079122320071337  0.2939557399065845  0.4023979769359251
  0.2038391363638755  0.4166566711758541  0.4018675372330037
  0.2043633922347922  0.5416434389505569  0.4001659270973789
  0.2069390915961399  0.6674111889857114  0.3993953525256136
  0.2083372521645546  0.7929993788980675  0.3995474557077802
  0.2091028569199116  0.9185786546572191  0.3997735762925890
  0.3340877688887968  0.0437554768214637  0.3999267822592006
  0.3348718705942409  0.1702095253774894  0.4013249951018810
  0.3359945585616094  0.2978384414424643  0.4041989288945406
  0.3273438785449271  0.5427058439015788  0.4040413870598422
  0.3306629474134699  0.6667687285432212  0.4010000843693950
  0.3325971780576290  0.7921395316621189  0.3996763022860548
  0.3334977062306715  0.9177914705618893  0.3995957911248010
  0.4584637107435175  0.0417678569013504  0.3996162287137701
  0.4592087539763737  0.1676921477054416  0.4002068934542780
  0.4607357407538067  0.2939326476946861  0.4026682896945991
  0.4674102619404535  0.4204977090151176  0.4070033650604766
  0.4525517239650770  0.6614835765395359  0.4040394585406608
  0.4568125152299618  0.7898295633281996  0.4008575912487228
  0.4577809074381767  0.9158851268835081  0.3997366413461654
  0.5827991581627208  0.0399662715441186  0.3997104715196113
  0.5835788675513822  0.1658444838351380  0.3995419438453677
  0.5848621156597339  0.2913392073386113  0.4001504173325637
  0.5885191654517401  0.4167861776025478  0.4024625609394317
  0.5914320167748546  0.5429638514582282  0.4050518586506954
  0.5830012498525898  0.6606822681344370  0.4045763861856479
  0.5803174291610186  0.7856358917119464  0.4021120756196284
  0.5820318184636316  0.9135695980056335  0.4002724033985213
  0.7072269871453267  0.0393816983094010  0.3999005447026802
  0.7078548601343948  0.1650550380174642  0.3996919450532389
  0.7088083831765539  0.2905957919494515  0.3993477914943870
  0.7109692647180440  0.4161719554783246  0.3994771651697371
  0.7125879125314978  0.5416811406274606  0.4005669010068562
  0.7112589452565571  0.6670703273379333  0.4015379672900763
  0.7076007115140402  0.7894836069576763  0.4012106308012202
  0.7065194200585190  0.9135558696454446  0.4003743378919649
  0.8321294174565883  0.0399208658071707  0.3997731931873545
  0.8322333623195968  0.1650306561241498  0.3997555361732505
  0.8327807740472463  0.2904109002139967  0.3995591111202244
  0.8340629799853714  0.4160444695423336  0.3992133285142553
  0.8353434710161092  0.5418089032193240  0.3991273390238858
  0.8355312072061332  0.6674612397662129  0.3995105610314040
  0.8345275232095390  0.7921776455951475  0.3998248010400196
  0.8329193479167502  0.9156970374380757  0.3998377053263545
  0.9581968320904233  0.0416516437597635  0.3996361213999062
  0.9572221138906205  0.1657159764433415  0.3996671945015516
  0.9568930185846409  0.2906332312709587  0.3995091327000335
  0.9572933106991701  0.4160629092053318  0.3993244692713631
  0.9585223668528252  0.5418405019063334  0.3993227001877936
  0.9594857578757742  0.6675765262570452  0.3994075184452666
  0.9596394837355328  0.7929753374414953  0.3995158768645803
  0.9592033669534523  0.9177244209354336  0.3995715149741467
  0.4066980802221375  0.5819481408927283  0.4058481643703790
  0.5492453522245349  0.5804689003567592  0.4067605781966918
  0.3264836674862880  0.4191738993082757  0.4061469697755395
 
  0.00000000E+00  0.00000000E+00  0.00000000E+00
  0.00000000E+00  0.00000000E+00  0.00000000E+00
  0.00000000E+00  0.00000000E+00  0.00000000E+00
  0.00000000E+00  0.00000000E+00  0.00000000E+00
  0.00000000E+00  0.00000000E+00  0.00000000E+00
  0.00000000E+00  0.00000000E+00  0.00000000E+00
  0.00000000E+00  0.00000000E+00  0.00000000E+00
  0.00000000E+00  0.00000000E+00  0.00000000E+00
  0.00000000E+00  0.00000000E+00  0.00000000E+00
  0.00000000E+00  0.00000000E+00  0.00000000E+00
  0.00000000E+00  0.00000000E+00  0.00000000E+00
  0.00000000E+00  0.00000000E+00  0.00000000E+00
  0.00000000E+00  0.00000000E+00  0.00000000E+00
  0.00000000E+00  0.00000000E+00  0.00000000E+00
  0.00000000E+00  0.00000000E+00  0.00000000E+00
  0.00000000E+00  0.00000000E+00  0.00000000E+00
  0.00000000E+00  0.00000000E+00  0.00000000E+00
  0.00000000E+00  0.00000000E+00  0.00000000E+00
  0.00000000E+00  0.00000000E+00  0.00000000E+00
  0.00000000E+00  0.00000000E+00  0.00000000E+00
  0.00000000E+00  0.00000000E+00  0.00000000E+00
  0.00000000E+00  0.00000000E+00  0.00000000E+00
  0.00000000E+00  0.00000000E+00  0.00000000E+00
  0.00000000E+00  0.00000000E+00  0.00000000E+00
  0.00000000E+00  0.00000000E+00  0.00000000E+00
  0.00000000E+00  0.00000000E+00  0.00000000E+00
  0.00000000E+00  0.00000000E+00  0.00000000E+00
  0.00000000E+00  0.00000000E+00  0.00000000E+00
  0.00000000E+00  0.00000000E+00  0.00000000E+00
  0.00000000E+00  0.00000000E+00  0.00000000E+00
  0.00000000E+00  0.00000000E+00  0.00000000E+00
  0.00000000E+00  0.00000000E+00  0.00000000E+00
  0.00000000E+00  0.00000000E+00  0.00000000E+00
  0.00000000E+00  0.00000000E+00  0.00000000E+00
  0.00000000E+00  0.00000000E+00  0.00000000E+00
  0.00000000E+00  0.00000000E+00  0.00000000E+00
  0.00000000E+00  0.00000000E+00  0.00000000E+00
  0.00000000E+00  0.00000000E+00  0.00000000E+00
  0.00000000E+00  0.00000000E+00  0.00000000E+00
  0.00000000E+00  0.00000000E+00  0.00000000E+00
  0.00000000E+00  0.00000000E+00  0.00000000E+00
  0.00000000E+00  0.00000000E+00  0.00000000E+00
  0.00000000E+00  0.00000000E+00  0.00000000E+00
  0.00000000E+00  0.00000000E+00  0.00000000E+00
  0.00000000E+00  0.00000000E+00  0.00000000E+00
  0.00000000E+00  0.00000000E+00  0.00000000E+00
  0.00000000E+00  0.00000000E+00  0.00000000E+00
  0.00000000E+00  0.00000000E+00  0.00000000E+00
  0.00000000E+00  0.00000000E+00  0.00000000E+00
  0.00000000E+00  0.00000000E+00  0.00000000E+00
  0.00000000E+00  0.00000000E+00  0.00000000E+00
  0.00000000E+00  0.00000000E+00  0.00000000E+00
  0.00000000E+00  0.00000000E+00  0.00000000E+00
  0.00000000E+00  0.00000000E+00  0.00000000E+00
  0.00000000E+00  0.00000000E+00  0.00000000E+00
  0.00000000E+00  0.00000000E+00  0.00000000E+00
  0.00000000E+00  0.00000000E+00  0.00000000E+00
  0.00000000E+00  0.00000000E+00  0.00000000E+00
  0.00000000E+00  0.00000000E+00  0.00000000E+00
  0.00000000E+00  0.00000000E+00  0.00000000E+00
  0.00000000E+00  0.00000000E+00  0.00000000E+00
  0.00000000E+00  0.00000000E+00  0.00000000E+00
  0.00000000E+00  0.00000000E+00  0.00000000E+00
  0.00000000E+00  0.00000000E+00  0.00000000E+00
  0.00000000E+00  0.00000000E+00  0.00000000E+00
  0.00000000E+00  0.00000000E+00  0.00000000E+00
  0.00000000E+00  0.00000000E+00  0.00000000E+00
  0.00000000E+00  0.00000000E+00  0.00000000E+00
  0.00000000E+00  0.00000000E+00  0.00000000E+00
  0.00000000E+00  0.00000000E+00  0.00000000E+00
  0.00000000E+00  0.00000000E+00  0.00000000E+00
  0.00000000E+00  0.00000000E+00  0.00000000E+00
  0.00000000E+00  0.00000000E+00  0.00000000E+00
  0.00000000E+00  0.00000000E+00  0.00000000E+00
  0.00000000E+00  0.00000000E+00  0.00000000E+00
  0.00000000E+00  0.00000000E+00  0.00000000E+00
  0.00000000E+00  0.00000000E+00  0.00000000E+00
  0.00000000E+00  0.00000000E+00  0.00000000E+00
  0.00000000E+00  0.00000000E+00  0.00000000E+00
  0.00000000E+00  0.00000000E+00  0.00000000E+00
  0.00000000E+00  0.00000000E+00  0.00000000E+00
  0.00000000E+00  0.00000000E+00  0.00000000E+00
  0.00000000E+00  0.00000000E+00  0.00000000E+00
  0.00000000E+00  0.00000000E+00  0.00000000E+00
  0.00000000E+00  0.00000000E+00  0.00000000E+00
  0.00000000E+00  0.00000000E+00  0.00000000E+00
  0.00000000E+00  0.00000000E+00  0.00000000E+00
  0.00000000E+00  0.00000000E+00  0.00000000E+00
  0.00000000E+00  0.00000000E+00  0.00000000E+00
  0.00000000E+00  0.00000000E+00  0.00000000E+00
  0.00000000E+00  0.00000000E+00  0.00000000E+00
  0.00000000E+00  0.00000000E+00  0.00000000E+00
  0.00000000E+00  0.00000000E+00  0.00000000E+00
  0.00000000E+00  0.00000000E+00  0.00000000E+00
  0.00000000E+00  0.00000000E+00  0.00000000E+00
  0.00000000E+00  0.00000000E+00  0.00000000E+00
  0.00000000E+00  0.00000000E+00  0.00000000E+00
  0.00000000E+00  0.00000000E+00  0.00000000E+00
  0.00000000E+00  0.00000000E+00  0.00000000E+00
  0.00000000E+00  0.00000000E+00  0.00000000E+00
  0.00000000E+00  0.00000000E+00  0.00000000E+00
  0.00000000E+00  0.00000000E+00  0.00000000E+00
  0.00000000E+00  0.00000000E+00  0.00000000E+00
  0.00000000E+00  0.00000000E+00  0.00000000E+00
  0.00000000E+00  0.00000000E+00  0.00000000E+00
  0.00000000E+00  0.00000000E+00  0.00000000E+00
  0.00000000E+00  0.00000000E+00  0.00000000E+00
  0.00000000E+00  0.00000000E+00  0.00000000E+00
  0.00000000E+00  0.00000000E+00  0.00000000E+00
  0.00000000E+00  0.00000000E+00  0.00000000E+00
  0.00000000E+00  0.00000000E+00  0.00000000E+00
  0.00000000E+00  0.00000000E+00  0.00000000E+00
  0.00000000E+00  0.00000000E+00  0.00000000E+00
  0.00000000E+00  0.00000000E+00  0.00000000E+00
  0.00000000E+00  0.00000000E+00  0.00000000E+00
  0.00000000E+00  0.00000000E+00  0.00000000E+00
  0.00000000E+00  0.00000000E+00  0.00000000E+00
  0.00000000E+00  0.00000000E+00  0.00000000E+00
  0.00000000E+00  0.00000000E+00  0.00000000E+00
  0.00000000E+00  0.00000000E+00  0.00000000E+00
  0.00000000E+00  0.00000000E+00  0.00000000E+00
  0.00000000E+00  0.00000000E+00  0.00000000E+00
  0.00000000E+00  0.00000000E+00  0.00000000E+00
  0.00000000E+00  0.00000000E+00  0.00000000E+00
  0.00000000E+00  0.00000000E+00  0.00000000E+00
  0.00000000E+00  0.00000000E+00  0.00000000E+00
  0.00000000E+00  0.00000000E+00  0.00000000E+00
