Nb1 C126                                
   1.00000000000000     
    19.8046129999999998    0.0000030000000000    0.0000600000000000
    -9.9023050000000001   17.0868579999999994   -0.0000550000000000
     0.0000900000000000   -0.0000430000000000   29.7353780000000008
   Nb   C 
     1   126
Direct
  0.4374770000000012  0.5000000000000000  0.4330539999999985
  0.0416880000000006  0.0836279999999974  0.3999269999999981
  0.0409879999999987  0.2080020000000005  0.3997159999999980
  0.0406690000000012  0.3328330000000008  0.3997349999999997
  0.0407870000000017  0.4582660000000018  0.3998109999999997
  0.0413870000000003  0.5836019999999991  0.4000169999999983
  0.0419229999999970  0.7088260000000020  0.4000800000000027
  0.0421619999999976  0.8340719999999990  0.4000690000000020
  0.0421169999999975  0.9590209999999999  0.4000580000000014
  0.1671559999999985  0.0843830000000025  0.3998559999999998
  0.1666850000000011  0.2089470000000020  0.3995869999999968
  0.1654470000000003  0.3330479999999980  0.3998240000000024
  0.1647249999999971  0.4582079999999991  0.3999650000000017
  0.1655469999999966  0.5835160000000030  0.3997150000000005
  0.1664659999999998  0.7088710000000020  0.3998929999999987
  0.1668769999999995  0.8340680000000020  0.4000569999999968
  0.1671199999999970  0.9592829999999992  0.3999730000000028
  0.2921979999999991  0.0843909999999966  0.3998440000000016
  0.2925919999999991  0.2101910000000018  0.4000520000000023
  0.2919819999999973  0.3352119999999985  0.4010979999999975
  0.2882439999999988  0.4575150000000008  0.4016519999999986
  0.2894769999999980  0.5837860000000035  0.4003409999999974
  0.2909890000000033  0.7087870000000009  0.3996729999999999
  0.2915490000000034  0.8337930000000000  0.3999120000000005
  0.2918769999999995  0.9590019999999981  0.4000169999999983
  0.4169049999999999  0.0836159999999992  0.3999129999999980
  0.4172439999999966  0.2089640000000017  0.3995829999999998
  0.4182569999999970  0.3352500000000020  0.4011210000000034
  0.4127209999999977  0.5821710000000024  0.4035409999999970
  0.4157020000000031  0.7076100000000025  0.3997159999999980
  0.4162589999999966  0.8330660000000023  0.3996879999999976
  0.4165819999999982  0.9583220000000026  0.4000810000000001
  0.5415840000000003  0.0828279999999992  0.4000739999999965
  0.5419830000000019  0.2079779999999971  0.3997189999999975
  0.5426229999999990  0.3330410000000015  0.3998220000000003
  0.5443530000000010  0.4575150000000008  0.4016620000000017
  0.5444839999999971  0.5821309999999968  0.4035579999999968
  0.5407889999999966  0.7065619999999981  0.4010770000000008
  0.5409709999999990  0.8321990000000028  0.3998059999999981
  0.5413220000000010  0.9575859999999992  0.3999420000000029
  0.6663139999999999  0.0825129999999987  0.4000449999999987
  0.6666430000000005  0.2076950000000011  0.3999820000000014
  0.6671630000000022  0.3328130000000016  0.3997230000000016
  0.6685420000000022  0.4582049999999995  0.3999480000000020
  0.6693849999999983  0.5837969999999970  0.4003409999999974
  0.6668960000000013  0.7075850000000017  0.3997260000000011
  0.6662010000000009  0.8321940000000012  0.3998059999999981
  0.6661640000000020  0.9573579999999993  0.3998860000000022
  0.7911679999999990  0.0825120000000013  0.4000279999999989
  0.7912910000000011  0.2076059999999984  0.4000739999999965
  0.7917330000000007  0.3328830000000025  0.4000079999999997
  0.7924959999999999  0.4582669999999993  0.3997620000000026
  0.7930070000000029  0.5835179999999980  0.3996780000000015
  0.7928210000000036  0.7088099999999997  0.3996720000000025
  0.7917860000000019  0.8330720000000014  0.3996819999999985
  0.7912379999999999  0.9576100000000025  0.3999120000000005
  0.9162350000000004  0.0828559999999996  0.4000380000000021
  0.9160389999999978  0.2077129999999983  0.3999710000000007
  0.9161679999999990  0.3328899999999990  0.4000300000000010
  0.9165959999999984  0.4581779999999966  0.4000899999999987
  0.9172229999999999  0.5835989999999995  0.3999809999999968
  0.9174050000000022  0.7088790000000031  0.3998929999999987
  0.9172429999999991  0.8338269999999994  0.3999359999999967
  0.9167279999999991  0.9583390000000023  0.4000860000000017
  0.0837360000000018  0.0424130000000034  0.3999420000000029
  0.0831930000000014  0.1669330000000002  0.3996879999999976
  0.0822020000000023  0.2912129999999991  0.3996729999999999
  0.0820310000000006  0.4164839999999970  0.3997150000000005
  0.0825200000000024  0.5417339999999982  0.3998109999999997
  0.0832780000000000  0.6671089999999964  0.4000300000000010
  0.0836850000000027  0.7923929999999970  0.4000739999999965
  0.0838019999999986  0.9174870000000013  0.4000440000000012
  0.2088070000000002  0.0426420000000007  0.3998860000000022
  0.2087730000000008  0.1678009999999972  0.3998059999999981
  0.2080920000000006  0.2923899999999975  0.3997170000000025
  0.2056899999999970  0.4162129999999991  0.4003409999999974
  0.2065169999999981  0.5417920000000009  0.3999650000000017
  0.2078360000000004  0.6671669999999992  0.3997349999999997
  0.2083259999999996  0.7922870000000017  0.3999710000000007
  0.2086559999999977  0.9174879999999987  0.4000279999999989
  0.3336269999999999  0.0423899999999975  0.3999120000000005
  0.3340069999999997  0.1678059999999988  0.3998070000000027
  0.3342269999999985  0.2934380000000019  0.4010779999999983
  0.3305489999999978  0.4178289999999976  0.4035420000000016
  0.3307280000000006  0.5424849999999992  0.4016519999999986
  0.3323990000000023  0.6669520000000020  0.3998240000000024
  0.3329859999999982  0.7919979999999995  0.3997150000000005
  0.3333790000000008  0.9171449999999979  0.4000380000000021
  0.4583889999999968  0.0416609999999977  0.4000860000000017
  0.4587130000000030  0.1669279999999986  0.3996819999999985
  0.4593109999999996  0.2924160000000029  0.3997269999999986
  0.4623539999999977  0.4178700000000006  0.4035579999999968
  0.4567699999999988  0.6647869999999969  0.4010979999999975
  0.4577379999999991  0.7910529999999980  0.3995869999999968
  0.4580589999999987  0.9163709999999980  0.3999269999999981
  0.5830950000000001  0.0409780000000026  0.4000580000000014
  0.5834159999999997  0.1661739999999980  0.3999359999999967
  0.5840109999999967  0.2911909999999978  0.3996720000000025
  0.5855900000000034  0.4162049999999979  0.4003409999999974
  0.5868389999999977  0.5424859999999967  0.4016620000000017
  0.5830070000000021  0.6647510000000025  0.4011199999999988
  0.5824020000000019  0.7898089999999982  0.4000509999999977
  0.5827730000000031  0.9156169999999975  0.3998559999999998
  0.7078369999999978  0.0407170000000008  0.3999730000000028
  0.7080899999999986  0.1659280000000010  0.4000690000000020
  0.7085250000000016  0.2911220000000014  0.3998920000000012
  0.7094889999999978  0.4164829999999995  0.3996769999999970
  0.7103380000000001  0.5417959999999979  0.3999489999999994
  0.7095830000000021  0.6669600000000031  0.3998220000000003
  0.7082800000000020  0.7910370000000029  0.3995829999999998
  0.7078070000000025  0.9156090000000034  0.3998440000000016
  0.8328750000000014  0.0409980000000019  0.4000169999999983
  0.8328080000000000  0.1659310000000005  0.4000569999999968
  0.8330970000000022  0.2911750000000026  0.4000800000000027
  0.8336240000000004  0.4164019999999979  0.3999820000000014
  0.8342280000000031  0.5417320000000032  0.3997620000000026
  0.8343509999999981  0.6671869999999984  0.3997230000000016
  0.8340049999999977  0.7920220000000029  0.3997189999999975
  0.8332890000000006  0.9163849999999982  0.3999129999999980
  0.9582600000000028  0.0416779999999974  0.4000810000000001
  0.9577549999999988  0.1662060000000025  0.3999120000000005
  0.9575949999999978  0.2911280000000005  0.3998929999999987
  0.9577839999999966  0.4163970000000035  0.4000169999999983
  0.9584180000000018  0.5418220000000034  0.4000899999999987
  0.9588490000000007  0.6671160000000000  0.4000079999999997
  0.9589489999999969  0.7923049999999989  0.3999829999999989
  0.9587549999999965  0.9171710000000033  0.4000739999999965
 
  0.00000000E+00  0.00000000E+00  0.00000000E+00
  0.00000000E+00  0.00000000E+00  0.00000000E+00
  0.00000000E+00  0.00000000E+00  0.00000000E+00
  0.00000000E+00  0.00000000E+00  0.00000000E+00
  0.00000000E+00  0.00000000E+00  0.00000000E+00
  0.00000000E+00  0.00000000E+00  0.00000000E+00
  0.00000000E+00  0.00000000E+00  0.00000000E+00
  0.00000000E+00  0.00000000E+00  0.00000000E+00
  0.00000000E+00  0.00000000E+00  0.00000000E+00
  0.00000000E+00  0.00000000E+00  0.00000000E+00
  0.00000000E+00  0.00000000E+00  0.00000000E+00
  0.00000000E+00  0.00000000E+00  0.00000000E+00
  0.00000000E+00  0.00000000E+00  0.00000000E+00
  0.00000000E+00  0.00000000E+00  0.00000000E+00
  0.00000000E+00  0.00000000E+00  0.00000000E+00
  0.00000000E+00  0.00000000E+00  0.00000000E+00
  0.00000000E+00  0.00000000E+00  0.00000000E+00
  0.00000000E+00  0.00000000E+00  0.00000000E+00
  0.00000000E+00  0.00000000E+00  0.00000000E+00
  0.00000000E+00  0.00000000E+00  0.00000000E+00
  0.00000000E+00  0.00000000E+00  0.00000000E+00
  0.00000000E+00  0.00000000E+00  0.00000000E+00
  0.00000000E+00  0.00000000E+00  0.00000000E+00
  0.00000000E+00  0.00000000E+00  0.00000000E+00
  0.00000000E+00  0.00000000E+00  0.00000000E+00
  0.00000000E+00  0.00000000E+00  0.00000000E+00
  0.00000000E+00  0.00000000E+00  0.00000000E+00
  0.00000000E+00  0.00000000E+00  0.00000000E+00
  0.00000000E+00  0.00000000E+00  0.00000000E+00
  0.00000000E+00  0.00000000E+00  0.00000000E+00
  0.00000000E+00  0.00000000E+00  0.00000000E+00
  0.00000000E+00  0.00000000E+00  0.00000000E+00
  0.00000000E+00  0.00000000E+00  0.00000000E+00
  0.00000000E+00  0.00000000E+00  0.00000000E+00
  0.00000000E+00  0.00000000E+00  0.00000000E+00
  0.00000000E+00  0.00000000E+00  0.00000000E+00
  0.00000000E+00  0.00000000E+00  0.00000000E+00
  0.00000000E+00  0.00000000E+00  0.00000000E+00
  0.00000000E+00  0.00000000E+00  0.00000000E+00
  0.00000000E+00  0.00000000E+00  0.00000000E+00
  0.00000000E+00  0.00000000E+00  0.00000000E+00
  0.00000000E+00  0.00000000E+00  0.00000000E+00
  0.00000000E+00  0.00000000E+00  0.00000000E+00
  0.00000000E+00  0.00000000E+00  0.00000000E+00
  0.00000000E+00  0.00000000E+00  0.00000000E+00
  0.00000000E+00  0.00000000E+00  0.00000000E+00
  0.00000000E+00  0.00000000E+00  0.00000000E+00
  0.00000000E+00  0.00000000E+00  0.00000000E+00
  0.00000000E+00  0.00000000E+00  0.00000000E+00
  0.00000000E+00  0.00000000E+00  0.00000000E+00
  0.00000000E+00  0.00000000E+00  0.00000000E+00
  0.00000000E+00  0.00000000E+00  0.00000000E+00
  0.00000000E+00  0.00000000E+00  0.00000000E+00
  0.00000000E+00  0.00000000E+00  0.00000000E+00
  0.00000000E+00  0.00000000E+00  0.00000000E+00
  0.00000000E+00  0.00000000E+00  0.00000000E+00
  0.00000000E+00  0.00000000E+00  0.00000000E+00
  0.00000000E+00  0.00000000E+00  0.00000000E+00
  0.00000000E+00  0.00000000E+00  0.00000000E+00
  0.00000000E+00  0.00000000E+00  0.00000000E+00
  0.00000000E+00  0.00000000E+00  0.00000000E+00
  0.00000000E+00  0.00000000E+00  0.00000000E+00
  0.00000000E+00  0.00000000E+00  0.00000000E+00
  0.00000000E+00  0.00000000E+00  0.00000000E+00
  0.00000000E+00  0.00000000E+00  0.00000000E+00
  0.00000000E+00  0.00000000E+00  0.00000000E+00
  0.00000000E+00  0.00000000E+00  0.00000000E+00
  0.00000000E+00  0.00000000E+00  0.00000000E+00
  0.00000000E+00  0.00000000E+00  0.00000000E+00
  0.00000000E+00  0.00000000E+00  0.00000000E+00
  0.00000000E+00  0.00000000E+00  0.00000000E+00
  0.00000000E+00  0.00000000E+00  0.00000000E+00
  0.00000000E+00  0.00000000E+00  0.00000000E+00
  0.00000000E+00  0.00000000E+00  0.00000000E+00
  0.00000000E+00  0.00000000E+00  0.00000000E+00
  0.00000000E+00  0.00000000E+00  0.00000000E+00
  0.00000000E+00  0.00000000E+00  0.00000000E+00
  0.00000000E+00  0.00000000E+00  0.00000000E+00
  0.00000000E+00  0.00000000E+00  0.00000000E+00
  0.00000000E+00  0.00000000E+00  0.00000000E+00
  0.00000000E+00  0.00000000E+00  0.00000000E+00
  0.00000000E+00  0.00000000E+00  0.00000000E+00
  0.00000000E+00  0.00000000E+00  0.00000000E+00
  0.00000000E+00  0.00000000E+00  0.00000000E+00
  0.00000000E+00  0.00000000E+00  0.00000000E+00
  0.00000000E+00  0.00000000E+00  0.00000000E+00
  0.00000000E+00  0.00000000E+00  0.00000000E+00
  0.00000000E+00  0.00000000E+00  0.00000000E+00
  0.00000000E+00  0.00000000E+00  0.00000000E+00
  0.00000000E+00  0.00000000E+00  0.00000000E+00
  0.00000000E+00  0.00000000E+00  0.00000000E+00
  0.00000000E+00  0.00000000E+00  0.00000000E+00
  0.00000000E+00  0.00000000E+00  0.00000000E+00
  0.00000000E+00  0.00000000E+00  0.00000000E+00
  0.00000000E+00  0.00000000E+00  0.00000000E+00
  0.00000000E+00  0.00000000E+00  0.00000000E+00
  0.00000000E+00  0.00000000E+00  0.00000000E+00
  0.00000000E+00  0.00000000E+00  0.00000000E+00
  0.00000000E+00  0.00000000E+00  0.00000000E+00
  0.00000000E+00  0.00000000E+00  0.00000000E+00
  0.00000000E+00  0.00000000E+00  0.00000000E+00
  0.00000000E+00  0.00000000E+00  0.00000000E+00
  0.00000000E+00  0.00000000E+00  0.00000000E+00
  0.00000000E+00  0.00000000E+00  0.00000000E+00
  0.00000000E+00  0.00000000E+00  0.00000000E+00
  0.00000000E+00  0.00000000E+00  0.00000000E+00
  0.00000000E+00  0.00000000E+00  0.00000000E+00
  0.00000000E+00  0.00000000E+00  0.00000000E+00
  0.00000000E+00  0.00000000E+00  0.00000000E+00
  0.00000000E+00  0.00000000E+00  0.00000000E+00
  0.00000000E+00  0.00000000E+00  0.00000000E+00
  0.00000000E+00  0.00000000E+00  0.00000000E+00
  0.00000000E+00  0.00000000E+00  0.00000000E+00
  0.00000000E+00  0.00000000E+00  0.00000000E+00
  0.00000000E+00  0.00000000E+00  0.00000000E+00
  0.00000000E+00  0.00000000E+00  0.00000000E+00
  0.00000000E+00  0.00000000E+00  0.00000000E+00
  0.00000000E+00  0.00000000E+00  0.00000000E+00
  0.00000000E+00  0.00000000E+00  0.00000000E+00
  0.00000000E+00  0.00000000E+00  0.00000000E+00
  0.00000000E+00  0.00000000E+00  0.00000000E+00
  0.00000000E+00  0.00000000E+00  0.00000000E+00
  0.00000000E+00  0.00000000E+00  0.00000000E+00
  0.00000000E+00  0.00000000E+00  0.00000000E+00
  0.00000000E+00  0.00000000E+00  0.00000000E+00
  0.00000000E+00  0.00000000E+00  0.00000000E+00
  0.00000000E+00  0.00000000E+00  0.00000000E+00
