Cr1 H1 C123 N3                          
   1.00000000000000     
    19.8066089895448947    0.0144457354773396    0.1060049419116306
    -9.8906933112019093   17.0252312096964467   -0.1914663363966911
     0.1598688338541276   -0.2424877106553078   29.8301985714568119
   Cr   H    C    N 
     1     1   123     3
Direct
  0.4363558330049329  0.5000299521364741  0.4214634102651979
  0.4427664616960383  0.4793951293004222  0.4725464086526699
  0.0418196478497646  0.0841714537800610  0.3996289352279490
  0.0407657624482258  0.2082265078852923  0.3998857562735113
  0.0400994427469600  0.3329559498370637  0.3997499159852393
  0.0404232053698022  0.4582530267375359  0.3995635794971593
  0.0414748362477716  0.5838588480604733  0.3997077205910459
  0.0423418065176661  0.7093667766357183  0.3998719999154831
  0.0425919056098440  0.8346668904470370  0.3998184989267283
  0.0424612964024146  0.9597176977349631  0.3995655288106035
  0.1677367612528766  0.0856524481146921  0.4002038864427058
  0.1670664379726908  0.2102295243047017  0.4009226123183605
  0.1647633611865223  0.3335801815085301  0.4012350619574372
  0.1641336050805405  0.4583295975312732  0.4000260818765553
  0.1652670114644240  0.5835855472043282  0.3997358836233003
  0.1665818045472267  0.7090358542919416  0.3998675376045768
  0.1672680601467083  0.8345837499632961  0.3999212528145830
  0.1675719002774802  0.9601500363829681  0.3998022365764134
  0.2926026190901593  0.0859418367251703  0.4002291002970202
  0.2931208560560200  0.2127534285021897  0.4021854151943879
  0.2917628063323647  0.3382435168537440  0.4044341021040520
  0.2874484331139524  0.4576295365192506  0.4023117035281487
  0.2887232604198058  0.5827382538527849  0.3998941342722946
  0.2908347510832541  0.7082861821945702  0.3996916629316143
  0.2917827620148357  0.8339532223112545  0.3998049056708763
  0.2922363997742266  0.9597702521311134  0.3996730478369291
  0.4170649255459423  0.0844656521789793  0.3997515117111953
  0.4176265752850493  0.2108311104494656  0.4010274623479805
  0.4192335435353916  0.3385588994553969  0.4040465030893026
  0.4149354463408418  0.7057719753121787  0.3999989032755546
  0.4161669532684701  0.8321941198591819  0.4000151935773199
  0.4166991080700557  0.9583682626710960  0.3997176411462668
  0.5415025139236502  0.0828822758288989  0.3996504970290312
  0.5420198036029337  0.2087929097491369  0.3998206271482705
  0.5430873891702818  0.3346057000405065  0.4011321777894620
  0.5465623427890758  0.4603313016765030  0.4039667404719856
  0.5385241435326363  0.7017998852261458  0.4023422042624875
  0.5404779013311903  0.8301997972090354  0.4004850154183455
  0.5410771873984590  0.9567773775096240  0.3999878238752833
  0.6659907394885162  0.0821265851369564  0.3999080022732786
  0.6664516910534171  0.2077394496119234  0.3996252104779259
  0.6673559117100402  0.3333215379919009  0.3995421377438431
  0.6694407193196070  0.4589908242010411  0.4001823528233577
  0.6706847951112277  0.5844514246783538  0.4016310309683132
  0.6668299020599148  0.7066536151496904  0.4016780847368046
  0.6647703922550956  0.8304082932079220  0.4008238788815449
  0.6655279876037539  0.9563829881683126  0.4002381566188332
  0.7906336805400636  0.0820698187340360  0.3999152218894386
  0.7909231339991482  0.2074470258566339  0.3999402787569711
  0.7915996119584542  0.3329349296763036  0.3995582723703274
  0.7928260000380861  0.4584970431051429  0.3991880034048712
  0.7938709566615048  0.5840158618807156  0.3992698382340429
  0.7934764518813620  0.7091455404562974  0.3999152209731014
  0.7913676637015450  0.8326172611096957  0.3998965750868251
  0.7904540420429708  0.9568287182860115  0.3999065635050856
  0.9158152923346349  0.0826755988751061  0.3995437056511419
  0.9155641807987249  0.2075372074089072  0.3996243463701206
  0.9157810009557030  0.3328275142213833  0.3995770364509145
  0.9166285317089600  0.4583901008258421  0.3995325542778982
  0.9176452224903725  0.5839788737455494  0.3993431355158223
  0.9179422107887663  0.7092825103378859  0.3993647599342154
  0.9175743663696884  0.8342455297540310  0.3994909813939482
  0.9165722341508241  0.9584090731952787  0.3994879381987861
  0.0842215627093149  0.0433179444073105  0.3996980428787930
  0.0834630362221905  0.1677081795252510  0.4000286421443380
  0.0818916637849846  0.2915507706820166  0.4002306369100814
  0.0814050936243332  0.4163211986393973  0.3997195827699131
  0.0823675917762100  0.5418357005519616  0.3996508843933237
  0.0834926552772395  0.6674079110189183  0.3998579751097224
  0.0840916102813658  0.7929056359573643  0.4000034209432531
  0.0842853934371637  0.9182340058092459  0.3997526913807293
  0.2092979157841182  0.0438468363649904  0.4000504111853811
  0.2095302206356160  0.1694837499094115  0.4011227337124752
  0.2081943628656934  0.2938567690633565  0.4019344782023473
  0.2053740435940555  0.4167902300778514  0.4009735202235519
  0.2058476022816101  0.5413988512317199  0.3999427884072855
  0.2076021890253015  0.6670042372786126  0.3997533830648698
  0.2085930619848168  0.7926136300646615  0.3998654473420331
  0.2090295541559513  0.9182140956836050  0.3997697998359145
  0.3338944891126425  0.0435177376415615  0.3997932711693169
  0.3343220368227116  0.1699270047557103  0.4011591372729517
  0.3351544299601385  0.2972264351175863  0.4041651545717697
  0.3298040016466728  0.5416258796089927  0.4003528006595546
  0.3317237486080989  0.6660920754616295  0.3996129586389449
  0.3330365339141507  0.7917091095397835  0.3998441797765027
  0.3335209977087238  0.9174850724490450  0.3997034817536849
  0.4583417304848321  0.0419742242428840  0.3996266021424204
  0.4587839227014150  0.1681425846583594  0.4001021637546911
  0.4596454789483286  0.2946459634434159  0.4019271562150579
  0.4640732354271389  0.4219608888819192  0.4065227583527507
  0.4541437590610610  0.6608995138934500  0.4007009524217613
  0.4573057658666240  0.7894948172223755  0.4001994001888868
  0.4579378776995061  0.9158882677462185  0.3999228656354635
  0.5827732385207699  0.0405514166526376  0.3998207737953819
  0.5832666421102621  0.1664891413941259  0.3995974143748462
  0.5840562723211722  0.2922520947004121  0.4000084100697164
  0.5866240506083994  0.4180603573206090  0.4015882781175826
  0.5891857565059820  0.5439159056051664  0.4047003469801199
  0.5830084178272541  0.6618209403156307  0.4041744010498387
  0.5809201087495338  0.7868159936094753  0.4012063816606719
  0.5823092987385617  0.9142673206777000  0.4002373595710564
  0.7073686892152813  0.0401262989700416  0.4000367633312958
  0.7077765089015627  0.1657685822299493  0.3998576054606681
  0.7084125188090508  0.2913092433730015  0.3995004316372642
  0.7099407164984414  0.4167751954043044  0.3994264201669981
  0.7113124926489425  0.5421359310649294  0.4000651175340936
  0.7106947462370009  0.6673604956895787  0.4011531515966157
  0.7076972388127698  0.7900930365724735  0.4005851752831338
  0.7068072137871416  0.9143592191023046  0.4003333473096053
  0.8323575987498325  0.0405090865081069  0.3997450713120616
  0.8323888733283177  0.1656791831236193  0.3998563287170486
  0.8327362307354684  0.2909722698060311  0.3997470648550526
  0.8336979208658857  0.4164715843696614  0.3994031337124208
  0.8348121660321807  0.5420653446966478  0.3991094460390991
  0.8350738961769443  0.6674744394278582  0.3993928512943191
  0.8343115684037636  0.7922797118818221  0.3996812722305270
  0.8329782959239862  0.9161155197291210  0.3997083770162375
  0.9582477811215744  0.0418624810472348  0.3994780623999306
  0.9574380564848994  0.1661355885795486  0.3995748189267264
  0.9571725531922453  0.2910803854180690  0.3995562681356681
  0.9575447696480252  0.4163720984823450  0.3995439044295097
  0.9585754779922956  0.5419556308211942  0.3995745076154129
  0.9593414488978783  0.6675144661032976  0.3994939091350834
  0.9594342356181838  0.7928299141459013  0.3995459044879264
  0.9590805176236961  0.9176451866905729  0.3994688350532111
  0.4102694110325231  0.5800117090180975  0.3998365467842881
  0.5471356647551008  0.5819941048258910  0.4082867576216120
  0.3290094772001954  0.4191088079860998  0.4067672743624767
 
  0.00000000E+00  0.00000000E+00  0.00000000E+00
  0.00000000E+00  0.00000000E+00  0.00000000E+00
  0.00000000E+00  0.00000000E+00  0.00000000E+00
  0.00000000E+00  0.00000000E+00  0.00000000E+00
  0.00000000E+00  0.00000000E+00  0.00000000E+00
  0.00000000E+00  0.00000000E+00  0.00000000E+00
  0.00000000E+00  0.00000000E+00  0.00000000E+00
  0.00000000E+00  0.00000000E+00  0.00000000E+00
  0.00000000E+00  0.00000000E+00  0.00000000E+00
  0.00000000E+00  0.00000000E+00  0.00000000E+00
  0.00000000E+00  0.00000000E+00  0.00000000E+00
  0.00000000E+00  0.00000000E+00  0.00000000E+00
  0.00000000E+00  0.00000000E+00  0.00000000E+00
  0.00000000E+00  0.00000000E+00  0.00000000E+00
  0.00000000E+00  0.00000000E+00  0.00000000E+00
  0.00000000E+00  0.00000000E+00  0.00000000E+00
  0.00000000E+00  0.00000000E+00  0.00000000E+00
  0.00000000E+00  0.00000000E+00  0.00000000E+00
  0.00000000E+00  0.00000000E+00  0.00000000E+00
  0.00000000E+00  0.00000000E+00  0.00000000E+00
  0.00000000E+00  0.00000000E+00  0.00000000E+00
  0.00000000E+00  0.00000000E+00  0.00000000E+00
  0.00000000E+00  0.00000000E+00  0.00000000E+00
  0.00000000E+00  0.00000000E+00  0.00000000E+00
  0.00000000E+00  0.00000000E+00  0.00000000E+00
  0.00000000E+00  0.00000000E+00  0.00000000E+00
  0.00000000E+00  0.00000000E+00  0.00000000E+00
  0.00000000E+00  0.00000000E+00  0.00000000E+00
  0.00000000E+00  0.00000000E+00  0.00000000E+00
  0.00000000E+00  0.00000000E+00  0.00000000E+00
  0.00000000E+00  0.00000000E+00  0.00000000E+00
  0.00000000E+00  0.00000000E+00  0.00000000E+00
  0.00000000E+00  0.00000000E+00  0.00000000E+00
  0.00000000E+00  0.00000000E+00  0.00000000E+00
  0.00000000E+00  0.00000000E+00  0.00000000E+00
  0.00000000E+00  0.00000000E+00  0.00000000E+00
  0.00000000E+00  0.00000000E+00  0.00000000E+00
  0.00000000E+00  0.00000000E+00  0.00000000E+00
  0.00000000E+00  0.00000000E+00  0.00000000E+00
  0.00000000E+00  0.00000000E+00  0.00000000E+00
  0.00000000E+00  0.00000000E+00  0.00000000E+00
  0.00000000E+00  0.00000000E+00  0.00000000E+00
  0.00000000E+00  0.00000000E+00  0.00000000E+00
  0.00000000E+00  0.00000000E+00  0.00000000E+00
  0.00000000E+00  0.00000000E+00  0.00000000E+00
  0.00000000E+00  0.00000000E+00  0.00000000E+00
  0.00000000E+00  0.00000000E+00  0.00000000E+00
  0.00000000E+00  0.00000000E+00  0.00000000E+00
  0.00000000E+00  0.00000000E+00  0.00000000E+00
  0.00000000E+00  0.00000000E+00  0.00000000E+00
  0.00000000E+00  0.00000000E+00  0.00000000E+00
  0.00000000E+00  0.00000000E+00  0.00000000E+00
  0.00000000E+00  0.00000000E+00  0.00000000E+00
  0.00000000E+00  0.00000000E+00  0.00000000E+00
  0.00000000E+00  0.00000000E+00  0.00000000E+00
  0.00000000E+00  0.00000000E+00  0.00000000E+00
  0.00000000E+00  0.00000000E+00  0.00000000E+00
  0.00000000E+00  0.00000000E+00  0.00000000E+00
  0.00000000E+00  0.00000000E+00  0.00000000E+00
  0.00000000E+00  0.00000000E+00  0.00000000E+00
  0.00000000E+00  0.00000000E+00  0.00000000E+00
  0.00000000E+00  0.00000000E+00  0.00000000E+00
  0.00000000E+00  0.00000000E+00  0.00000000E+00
  0.00000000E+00  0.00000000E+00  0.00000000E+00
  0.00000000E+00  0.00000000E+00  0.00000000E+00
  0.00000000E+00  0.00000000E+00  0.00000000E+00
  0.00000000E+00  0.00000000E+00  0.00000000E+00
  0.00000000E+00  0.00000000E+00  0.00000000E+00
  0.00000000E+00  0.00000000E+00  0.00000000E+00
  0.00000000E+00  0.00000000E+00  0.00000000E+00
  0.00000000E+00  0.00000000E+00  0.00000000E+00
  0.00000000E+00  0.00000000E+00  0.00000000E+00
  0.00000000E+00  0.00000000E+00  0.00000000E+00
  0.00000000E+00  0.00000000E+00  0.00000000E+00
  0.00000000E+00  0.00000000E+00  0.00000000E+00
  0.00000000E+00  0.00000000E+00  0.00000000E+00
  0.00000000E+00  0.00000000E+00  0.00000000E+00
  0.00000000E+00  0.00000000E+00  0.00000000E+00
  0.00000000E+00  0.00000000E+00  0.00000000E+00
  0.00000000E+00  0.00000000E+00  0.00000000E+00
  0.00000000E+00  0.00000000E+00  0.00000000E+00
  0.00000000E+00  0.00000000E+00  0.00000000E+00
  0.00000000E+00  0.00000000E+00  0.00000000E+00
  0.00000000E+00  0.00000000E+00  0.00000000E+00
  0.00000000E+00  0.00000000E+00  0.00000000E+00
  0.00000000E+00  0.00000000E+00  0.00000000E+00
  0.00000000E+00  0.00000000E+00  0.00000000E+00
  0.00000000E+00  0.00000000E+00  0.00000000E+00
  0.00000000E+00  0.00000000E+00  0.00000000E+00
  0.00000000E+00  0.00000000E+00  0.00000000E+00
  0.00000000E+00  0.00000000E+00  0.00000000E+00
  0.00000000E+00  0.00000000E+00  0.00000000E+00
  0.00000000E+00  0.00000000E+00  0.00000000E+00
  0.00000000E+00  0.00000000E+00  0.00000000E+00
  0.00000000E+00  0.00000000E+00  0.00000000E+00
  0.00000000E+00  0.00000000E+00  0.00000000E+00
  0.00000000E+00  0.00000000E+00  0.00000000E+00
  0.00000000E+00  0.00000000E+00  0.00000000E+00
  0.00000000E+00  0.00000000E+00  0.00000000E+00
  0.00000000E+00  0.00000000E+00  0.00000000E+00
  0.00000000E+00  0.00000000E+00  0.00000000E+00
  0.00000000E+00  0.00000000E+00  0.00000000E+00
  0.00000000E+00  0.00000000E+00  0.00000000E+00
  0.00000000E+00  0.00000000E+00  0.00000000E+00
  0.00000000E+00  0.00000000E+00  0.00000000E+00
  0.00000000E+00  0.00000000E+00  0.00000000E+00
  0.00000000E+00  0.00000000E+00  0.00000000E+00
  0.00000000E+00  0.00000000E+00  0.00000000E+00
  0.00000000E+00  0.00000000E+00  0.00000000E+00
  0.00000000E+00  0.00000000E+00  0.00000000E+00
  0.00000000E+00  0.00000000E+00  0.00000000E+00
  0.00000000E+00  0.00000000E+00  0.00000000E+00
  0.00000000E+00  0.00000000E+00  0.00000000E+00
  0.00000000E+00  0.00000000E+00  0.00000000E+00
  0.00000000E+00  0.00000000E+00  0.00000000E+00
  0.00000000E+00  0.00000000E+00  0.00000000E+00
  0.00000000E+00  0.00000000E+00  0.00000000E+00
  0.00000000E+00  0.00000000E+00  0.00000000E+00
  0.00000000E+00  0.00000000E+00  0.00000000E+00
  0.00000000E+00  0.00000000E+00  0.00000000E+00
  0.00000000E+00  0.00000000E+00  0.00000000E+00
  0.00000000E+00  0.00000000E+00  0.00000000E+00
  0.00000000E+00  0.00000000E+00  0.00000000E+00
  0.00000000E+00  0.00000000E+00  0.00000000E+00
  0.00000000E+00  0.00000000E+00  0.00000000E+00
  0.00000000E+00  0.00000000E+00  0.00000000E+00
  0.00000000E+00  0.00000000E+00  0.00000000E+00
  0.00000000E+00  0.00000000E+00  0.00000000E+00
