Mn1 H1 C125 N1                          
   1.00000000000000     
    19.8094456339066980   -0.0082854139020678    0.1798071922991086
    -9.9119237692438240   17.0648411665492041   -0.0663654736661641
     0.2704643101462763    0.0414798062014456   29.7762258542849523
   Mn   H    C    N 
     1     1   125     1
Direct
  0.4371217130192897  0.5003488533940634  0.4206981997933531
  0.4721942552490135  0.5127659328077812  0.4684242004423341
  0.0416538877535595  0.0839248725269146  0.3997271532662597
  0.0408852159308447  0.2082087352354362  0.3998526016326324
  0.0403862311535986  0.3328107109695294  0.3998468649749125
  0.0404345024478795  0.4582209476161966  0.3997773663234384
  0.0411313663483127  0.5836685052150683  0.3995441348241034
  0.0417677670991862  0.7090189190610211  0.3994249487022574
  0.0420895100839797  0.8343608168972214  0.3995047749588310
  0.0421484047418310  0.9594185295034097  0.3995094558380824
  0.1673866195684626  0.0851729714894097  0.4001868128066183
  0.1668417406263812  0.2097088168985780  0.4005601895236467
  0.1656704445185763  0.3338425344541234  0.4000892044343599
  0.1642995255403060  0.4583489554407011  0.4000676765451872
  0.1650561971619145  0.5835959134375917  0.3999698783686351
  0.1661024033628310  0.7090303784546728  0.3996789322744385
  0.1667665329750841  0.8344217142101162  0.3996152401467238
  0.1672055059217104  0.9598127375158590  0.3998195725614362
  0.2923508613608283  0.0850895972688245  0.4004355998836315
  0.2930793705351941  0.2114420163194564  0.4023117463382143
  0.2923706541311449  0.3368528448910816  0.4023878244730751
  0.2887589686084924  0.4587488458852065  0.4003348093657292
  0.2887532106968969  0.5842101039209556  0.4006184899391775
  0.2904018875585350  0.7090366150212141  0.4001878855762264
  0.2913208523824367  0.8340605333870775  0.3995769114549071
  0.2918028922535308  0.9594121184561999  0.3995316419476370
  0.4168588143339113  0.0837924512352549  0.3996307814267644
  0.4173885172728977  0.2094184365103099  0.4016859103561237
  0.4189178179070584  0.3361177405397958  0.4075944595930156
  0.4145619244766165  0.7070392653047245  0.4016734550579856
  0.4158108588718489  0.8327697261565985  0.4002236474900206
  0.4163688597456899  0.9582609112641703  0.3993787127260855
  0.5413694217786100  0.0824892195742893  0.3992570143485452
  0.5419393157902609  0.2078210881835848  0.3997450097131071
  0.5427965500220668  0.3329698187353956  0.4025290489943498
  0.5453025312581864  0.4573024764277366  0.4086836286153810
  0.5458182992538156  0.5812434039440485  0.4127400078722132
  0.5383930367666183  0.7036500348834956  0.4049376592754780
  0.5400804675653561  0.8309760136714146  0.4012842510435518
  0.5409048052335291  0.9569410945172965  0.3997864000008727
  0.6659265371823424  0.0819001464888574  0.3995587266310225
  0.6664599155045481  0.2072927479008858  0.3992238232582870
  0.6671475589089827  0.3325468261323135  0.3992563277655325
  0.6688029091056801  0.4579745940702625  0.4003748048489149
  0.6698248946460174  0.5835116239078729  0.4025580296843638
  0.6662096851495533  0.7066836909989779  0.4032888775161620
  0.6647679732600341  0.8306673695329244  0.4017047938151777
  0.6654515481176879  0.9564333859803291  0.4002263504998245
  0.7906759255699090  0.0819322049216002  0.3996604180197024
  0.7909656776360670  0.2071494477109186  0.3996178814513801
  0.7915810099546017  0.3325686029351175  0.3990404117501261
  0.7925603198190054  0.4580857087346952  0.3985557328130300
  0.7932391817557759  0.5834516831846495  0.3988609446570199
  0.7926776272212123  0.7086340104297645  0.3998114796331990
  0.7911917398800741  0.8325589868357013  0.3999515758710461
  0.7904275455915218  0.9568106776307026  0.3998175332882262
  0.9158500145255669  0.0825914300355270  0.3995446819825291
  0.9156890309222496  0.2074410970911627  0.3997532186746083
  0.9158833933251107  0.3326568040290487  0.3996679008938641
  0.9164390627627435  0.4580452435382118  0.3991894798176781
  0.9171916176018483  0.5835916367537526  0.3988453989690870
  0.9173808755907308  0.7089988060104083  0.3989518012991157
  0.9171098612228711  0.8338762089499422  0.3991989437121628
  0.9163903465696016  0.9582158833106055  0.3993607458470167
  0.0838721455183377  0.0429539400772980  0.3997529839756634
  0.0832542344289278  0.1673374003805825  0.4000030250906416
  0.0822001000874022  0.2915672851833799  0.3998745443119735
  0.0816091763092826  0.4164824385388703  0.3999028177739851
  0.0821064373617800  0.5417758189636880  0.3997732783321758
  0.0829809351178886  0.6672310795538817  0.3995611445319199
  0.0835891399429233  0.7926899859998321  0.3995824239780762
  0.0838357273363756  0.9179314050941193  0.3996449611984870
  0.2089562828595772  0.0433275193972441  0.4001590667523481
  0.2091246432842629  0.1688097816961568  0.4008417572570731
  0.2084444355251666  0.2933425578751068  0.4007675733324416
  0.2058589524140784  0.4171412505877901  0.4000885469975481
  0.2058242439146143  0.5418170800174056  0.4001749446979653
  0.2072967033825932  0.6672796612171662  0.3999033952366570
  0.2080937516237366  0.7925517069069629  0.3995822216800520
  0.2086371151117282  0.9179300616831129  0.3996747596417322
  0.3336099778840054  0.0428612458476031  0.3998028708590773
  0.3342300670342158  0.1686290887399716  0.4016478030832106
  0.3348038518967655  0.2948330481139848  0.4045854159092562
  0.3313743394791176  0.4196314789838688  0.4016232154939812
  0.3305120967558547  0.5439801447674425  0.4009204020593211
  0.3315151019026434  0.6672301784063545  0.4008409321279267
  0.3326336079049583  0.7922109457954510  0.3999715719048848
  0.3332129651782370  0.9174196107689246  0.3994070760471664
  0.4582230789988045  0.0416359454430441  0.3992983859104267
  0.4586838091199681  0.1671150954622578  0.4001520517388271
  0.4594848345038196  0.2928430800536196  0.4039011793346112
  0.4635830729878313  0.4183867477851033  0.4130907634026414
  0.4538329682256573  0.6627225957299552  0.4034273410096634
  0.4570593323939303  0.7905119656412660  0.4011053801703674
  0.4576871862350872  0.9161019625710062  0.3997332763661912
  0.5827517794138564  0.0404613415490846  0.3994394954889288
  0.5832538567493680  0.1658978660703108  0.3992570470639071
  0.5840224013894040  0.2910648411160859  0.4002276421820986
  0.5859623459231937  0.4160174166097345  0.4032771154249087
  0.5880500012876000  0.5420589445491898  0.4082158835882022
  0.5821518791681761  0.6630798384285964  0.4071384603506030
  0.5805461230358409  0.7876530171482062  0.4026498332174284
  0.5821196732508832  0.9146777050106208  0.4003683295596132
  0.7073316556080552  0.0400110749650013  0.3997626043962924
  0.7077970655209124  0.1654586903018560  0.3994535026642585
  0.7083786624311931  0.2907707372347293  0.3990113920762213
  0.7096022403971568  0.4162294507962752  0.3990308896941819
  0.7106993820044035  0.5416100697219808  0.4001094480898637
  0.7094918364723231  0.6666398918848863  0.4018021089437331
  0.7074583481192656  0.7901084821836857  0.4014416787527658
  0.7067690716372333  0.9144202810516892  0.4005025016642376
  0.8323146363180682  0.0404068946427337  0.3995829597985830
  0.8324093851968000  0.1654894707861990  0.3996980154705757
  0.8328182448860137  0.2908134881286147  0.3994718435102599
  0.8335410085310424  0.4161783119842870  0.3988233904815682
  0.8343187716333469  0.5416199220427252  0.3985556659341276
  0.8343623814759974  0.6671642525073186  0.3990160529264046
  0.8337907094342891  0.7918943170405318  0.3995140328831029
  0.8327810483503950  0.9159559481758757  0.3996061350462503
  0.9580604769911365  0.0416662130083107  0.3995012275257618
  0.9575071461293406  0.1661016358969012  0.3997057789903531
  0.9572716093973186  0.2909390100060135  0.3998161838570529
  0.9574834490087519  0.4162368883740863  0.3995877953136705
  0.9582568840373528  0.5417822046082018  0.3991840391127773
  0.9587664269486158  0.6672163655970742  0.3990520710664464
  0.9589053966256723  0.7924984540971493  0.3992102703400752
  0.9586645852376188  0.9173183194569225  0.3992947999054826
  0.4097772095397343  0.5822915294026212  0.4030107088655719
 
  0.00000000E+00  0.00000000E+00  0.00000000E+00
  0.00000000E+00  0.00000000E+00  0.00000000E+00
  0.00000000E+00  0.00000000E+00  0.00000000E+00
  0.00000000E+00  0.00000000E+00  0.00000000E+00
  0.00000000E+00  0.00000000E+00  0.00000000E+00
  0.00000000E+00  0.00000000E+00  0.00000000E+00
  0.00000000E+00  0.00000000E+00  0.00000000E+00
  0.00000000E+00  0.00000000E+00  0.00000000E+00
  0.00000000E+00  0.00000000E+00  0.00000000E+00
  0.00000000E+00  0.00000000E+00  0.00000000E+00
  0.00000000E+00  0.00000000E+00  0.00000000E+00
  0.00000000E+00  0.00000000E+00  0.00000000E+00
  0.00000000E+00  0.00000000E+00  0.00000000E+00
  0.00000000E+00  0.00000000E+00  0.00000000E+00
  0.00000000E+00  0.00000000E+00  0.00000000E+00
  0.00000000E+00  0.00000000E+00  0.00000000E+00
  0.00000000E+00  0.00000000E+00  0.00000000E+00
  0.00000000E+00  0.00000000E+00  0.00000000E+00
  0.00000000E+00  0.00000000E+00  0.00000000E+00
  0.00000000E+00  0.00000000E+00  0.00000000E+00
  0.00000000E+00  0.00000000E+00  0.00000000E+00
  0.00000000E+00  0.00000000E+00  0.00000000E+00
  0.00000000E+00  0.00000000E+00  0.00000000E+00
  0.00000000E+00  0.00000000E+00  0.00000000E+00
  0.00000000E+00  0.00000000E+00  0.00000000E+00
  0.00000000E+00  0.00000000E+00  0.00000000E+00
  0.00000000E+00  0.00000000E+00  0.00000000E+00
  0.00000000E+00  0.00000000E+00  0.00000000E+00
  0.00000000E+00  0.00000000E+00  0.00000000E+00
  0.00000000E+00  0.00000000E+00  0.00000000E+00
  0.00000000E+00  0.00000000E+00  0.00000000E+00
  0.00000000E+00  0.00000000E+00  0.00000000E+00
  0.00000000E+00  0.00000000E+00  0.00000000E+00
  0.00000000E+00  0.00000000E+00  0.00000000E+00
  0.00000000E+00  0.00000000E+00  0.00000000E+00
  0.00000000E+00  0.00000000E+00  0.00000000E+00
  0.00000000E+00  0.00000000E+00  0.00000000E+00
  0.00000000E+00  0.00000000E+00  0.00000000E+00
  0.00000000E+00  0.00000000E+00  0.00000000E+00
  0.00000000E+00  0.00000000E+00  0.00000000E+00
  0.00000000E+00  0.00000000E+00  0.00000000E+00
  0.00000000E+00  0.00000000E+00  0.00000000E+00
  0.00000000E+00  0.00000000E+00  0.00000000E+00
  0.00000000E+00  0.00000000E+00  0.00000000E+00
  0.00000000E+00  0.00000000E+00  0.00000000E+00
  0.00000000E+00  0.00000000E+00  0.00000000E+00
  0.00000000E+00  0.00000000E+00  0.00000000E+00
  0.00000000E+00  0.00000000E+00  0.00000000E+00
  0.00000000E+00  0.00000000E+00  0.00000000E+00
  0.00000000E+00  0.00000000E+00  0.00000000E+00
  0.00000000E+00  0.00000000E+00  0.00000000E+00
  0.00000000E+00  0.00000000E+00  0.00000000E+00
  0.00000000E+00  0.00000000E+00  0.00000000E+00
  0.00000000E+00  0.00000000E+00  0.00000000E+00
  0.00000000E+00  0.00000000E+00  0.00000000E+00
  0.00000000E+00  0.00000000E+00  0.00000000E+00
  0.00000000E+00  0.00000000E+00  0.00000000E+00
  0.00000000E+00  0.00000000E+00  0.00000000E+00
  0.00000000E+00  0.00000000E+00  0.00000000E+00
  0.00000000E+00  0.00000000E+00  0.00000000E+00
  0.00000000E+00  0.00000000E+00  0.00000000E+00
  0.00000000E+00  0.00000000E+00  0.00000000E+00
  0.00000000E+00  0.00000000E+00  0.00000000E+00
  0.00000000E+00  0.00000000E+00  0.00000000E+00
  0.00000000E+00  0.00000000E+00  0.00000000E+00
  0.00000000E+00  0.00000000E+00  0.00000000E+00
  0.00000000E+00  0.00000000E+00  0.00000000E+00
  0.00000000E+00  0.00000000E+00  0.00000000E+00
  0.00000000E+00  0.00000000E+00  0.00000000E+00
  0.00000000E+00  0.00000000E+00  0.00000000E+00
  0.00000000E+00  0.00000000E+00  0.00000000E+00
  0.00000000E+00  0.00000000E+00  0.00000000E+00
  0.00000000E+00  0.00000000E+00  0.00000000E+00
  0.00000000E+00  0.00000000E+00  0.00000000E+00
  0.00000000E+00  0.00000000E+00  0.00000000E+00
  0.00000000E+00  0.00000000E+00  0.00000000E+00
  0.00000000E+00  0.00000000E+00  0.00000000E+00
  0.00000000E+00  0.00000000E+00  0.00000000E+00
  0.00000000E+00  0.00000000E+00  0.00000000E+00
  0.00000000E+00  0.00000000E+00  0.00000000E+00
  0.00000000E+00  0.00000000E+00  0.00000000E+00
  0.00000000E+00  0.00000000E+00  0.00000000E+00
  0.00000000E+00  0.00000000E+00  0.00000000E+00
  0.00000000E+00  0.00000000E+00  0.00000000E+00
  0.00000000E+00  0.00000000E+00  0.00000000E+00
  0.00000000E+00  0.00000000E+00  0.00000000E+00
  0.00000000E+00  0.00000000E+00  0.00000000E+00
  0.00000000E+00  0.00000000E+00  0.00000000E+00
  0.00000000E+00  0.00000000E+00  0.00000000E+00
  0.00000000E+00  0.00000000E+00  0.00000000E+00
  0.00000000E+00  0.00000000E+00  0.00000000E+00
  0.00000000E+00  0.00000000E+00  0.00000000E+00
  0.00000000E+00  0.00000000E+00  0.00000000E+00
  0.00000000E+00  0.00000000E+00  0.00000000E+00
  0.00000000E+00  0.00000000E+00  0.00000000E+00
  0.00000000E+00  0.00000000E+00  0.00000000E+00
  0.00000000E+00  0.00000000E+00  0.00000000E+00
  0.00000000E+00  0.00000000E+00  0.00000000E+00
  0.00000000E+00  0.00000000E+00  0.00000000E+00
  0.00000000E+00  0.00000000E+00  0.00000000E+00
  0.00000000E+00  0.00000000E+00  0.00000000E+00
  0.00000000E+00  0.00000000E+00  0.00000000E+00
  0.00000000E+00  0.00000000E+00  0.00000000E+00
  0.00000000E+00  0.00000000E+00  0.00000000E+00
  0.00000000E+00  0.00000000E+00  0.00000000E+00
  0.00000000E+00  0.00000000E+00  0.00000000E+00
  0.00000000E+00  0.00000000E+00  0.00000000E+00
  0.00000000E+00  0.00000000E+00  0.00000000E+00
  0.00000000E+00  0.00000000E+00  0.00000000E+00
  0.00000000E+00  0.00000000E+00  0.00000000E+00
  0.00000000E+00  0.00000000E+00  0.00000000E+00
  0.00000000E+00  0.00000000E+00  0.00000000E+00
  0.00000000E+00  0.00000000E+00  0.00000000E+00
  0.00000000E+00  0.00000000E+00  0.00000000E+00
  0.00000000E+00  0.00000000E+00  0.00000000E+00
  0.00000000E+00  0.00000000E+00  0.00000000E+00
  0.00000000E+00  0.00000000E+00  0.00000000E+00
  0.00000000E+00  0.00000000E+00  0.00000000E+00
  0.00000000E+00  0.00000000E+00  0.00000000E+00
  0.00000000E+00  0.00000000E+00  0.00000000E+00
  0.00000000E+00  0.00000000E+00  0.00000000E+00
  0.00000000E+00  0.00000000E+00  0.00000000E+00
  0.00000000E+00  0.00000000E+00  0.00000000E+00
  0.00000000E+00  0.00000000E+00  0.00000000E+00
  0.00000000E+00  0.00000000E+00  0.00000000E+00
  0.00000000E+00  0.00000000E+00  0.00000000E+00
  0.00000000E+00  0.00000000E+00  0.00000000E+00
  0.00000000E+00  0.00000000E+00  0.00000000E+00
