La1 C125 N1 O1                          
   1.00000000000000     
    19.6008517290727298   -0.0131833541794329    0.2234970852670141
    -9.8114221403361075   17.1357092864550680    0.0969215152675591
     0.3357301824659748    0.3634571089253912   29.9786486917474519
   La   C    N    O 
     1   125     1     1
Direct
  0.4465294080407147  0.5183065961864259  0.4745586521930315
  0.0416906961856215  0.0828817474375653  0.3997439514718739
  0.0436305113020775  0.2092939021864074  0.3995397275566914
  0.0445589928819652  0.3340730415365338  0.3992510796172048
  0.0442559588986924  0.4581163719646518  0.3990377116868505
  0.0418739592053023  0.5823070922507975  0.3991014253746651
  0.0405822732167267  0.7067766405737023  0.3993006061284328
  0.0402000015883625  0.8314967989313771  0.3995618986087693
  0.0403411249702543  0.9566278974762057  0.3997537078249896
  0.1650279616895209  0.0806743815034144  0.4000953300533996
  0.1674075365510156  0.2074124033343056  0.3998014572258023
  0.1714202399198450  0.3345549552604602  0.3990454476887286
  0.1730767174997535  0.4584361722572476  0.3987345993853969
  0.1686896960719683  0.5824899164878986  0.3987305424694965
  0.1665119632305515  0.7070175113956580  0.3991690196648923
  0.1657021117104079  0.8315920259270669  0.3995552902396199
  0.1653036253104353  0.9561602681690395  0.3998948702263542
  0.2901662595528761  0.0805540156651012  0.4002365046042609
  0.2891394614288913  0.2035067055943796  0.4003296790383015
  0.2944048842694931  0.3311496461147025  0.3994195565273502
  0.3065783948640697  0.4595798940609684  0.3988595223998864
  0.2955092048584622  0.5832055532859529  0.3988226713356030
  0.2921857829698134  0.7078617162594225  0.3991950206251749
  0.2913553395658701  0.8324166117188382  0.3994631613068106
  0.2907146063009545  0.9566572918735992  0.3998249432001399
  0.4157774951245198  0.0826705601130470  0.3999701883851525
  0.4145822479000669  0.2068208860567216  0.4003171217930001
  0.4115967913674666  0.3302919525814740  0.4000160792833127
  0.4173215951276711  0.7100169006038534  0.4003821499710328
  0.4168014812392560  0.8340306370671231  0.3997128849404865
  0.4163377751538694  0.9583322942803437  0.3997071964256436
  0.5413714428991186  0.0840851022043461  0.3996372367168188
  0.5403994324072248  0.2087084030279902  0.3997823040148677
  0.5379152825633284  0.3332972517445011  0.3997457985761331
  0.5277774683096826  0.4569289184572328  0.3988407489076945
  0.5432665269341771  0.5882625934454498  0.4017503441636058
  0.5415846455110445  0.7109507528413079  0.4027526866269712
  0.5420466486052919  0.8352867308580908  0.4008623239333720
  0.5418900512889858  0.9596156976630802  0.3998233406550100
  0.6669933448034387  0.0847053322040689  0.3996311766988845
  0.6662583039292792  0.2092804637818647  0.3994930599236116
  0.6644199684433441  0.3336270668729371  0.3994857788737414
  0.6602438778650269  0.4577210512273108  0.3991940176746525
  0.6622590493720013  0.5823839132513315  0.3990368848873199
  0.6662268103319035  0.7097121523621773  0.4005315745727347
  0.6668696555194622  0.8349066359907358  0.4009335551449269
  0.6672118849023702  0.9600187265384135  0.4002286444034411
  0.7924642208802491  0.0847181289171361  0.3998150002703433
  0.7922103599566567  0.2094896047238872  0.3995829604734247
  0.7911388910156570  0.3338512025569542  0.3994248388945901
  0.7887941190816358  0.4578960046856998  0.3992706620031296
  0.7884503127583872  0.5821596145783995  0.3990868837345926
  0.7895180577634744  0.7073942940571164  0.3994010503185401
  0.7912645371895771  0.8337667632360271  0.3999493781789252
  0.7920594301331858  0.9594181564512066  0.4000373183501340
  0.9175185926332826  0.0842264211968704  0.3997312854784987
  0.9180851204998658  0.2094644372137007  0.3995289218483471
  0.9178260928418299  0.3339406805118716  0.3993440727308833
  0.9165132583344126  0.4580024935604889  0.3992436164006176
  0.9151475885030804  0.5822040564607768  0.3991883476760484
  0.9147561945439798  0.7068584702365671  0.3992635104051372
  0.9152112950032595  0.8321393097708024  0.3995632001014450
  0.9164390233217172  0.9582737602100430  0.3997165618513548
  0.0819944071508944  0.0397434490519337  0.3998548023568364
  0.0840653499942967  0.1663804052380701  0.3997032383550257
  0.0867746287438134  0.2928555104882856  0.3992775461938825
  0.0878559757116381  0.4171553932228240  0.3990091105093554
  0.0848789323724110  0.5411103657242220  0.3989520404638272
  0.0828926412496669  0.6653422187895993  0.3991803398793768
  0.0820879862775609  0.7898522670237117  0.3994676188478506
  0.0817884185276956  0.9146024973547233  0.3997533331251522
  0.2067296045916685  0.0389768914032498  0.4001010445861244
  0.2063986628786864  0.1633224984041769  0.4001625210048383
  0.2108897977684360  0.2912453711393923  0.3994352299726739
  0.2183896868115226  0.4181231921986423  0.3988264471785569
  0.2119976357004256  0.5413389633058909  0.3984718176115757
  0.2088479938582967  0.6656459434086703  0.3989615999750785
  0.2077814977215328  0.7902099328247747  0.3993895679655819
  0.2072146127672496  0.9146625754596759  0.3997766308429074
  0.3322564066804640  0.0396866130161396  0.4000352711859582
  0.3315041963926728  0.1631585587555200  0.4004373174596889
  0.3298207697807299  0.2847009957344805  0.3999586848665781
  0.3493935553023105  0.4130929774683010  0.3986425565278450
  0.3416191856227818  0.5443491742037833  0.3997645907217267
  0.3344492728735124  0.6666462422779665  0.3994143136750504
  0.3334061096687410  0.7911839910408448  0.3994345180637227
  0.3328260919316950  0.9155880224515619  0.3996627260638425
  0.4578728599050046  0.0415551721355491  0.3997742876471466
  0.4569605629740966  0.1659540427560922  0.4000502744648111
  0.4550747593824243  0.2904275411774727  0.4001576653647298
  0.4392281223107303  0.4122093937591289  0.3990469517877219
  0.4581714741880657  0.6680431648272755  0.4023258876878548
  0.4588846215297849  0.7930740683807768  0.4002825374641989
  0.4583528145701246  0.9172145021084708  0.3997344686549797
  0.5834562585586716  0.0427803029857340  0.3996227812874366
  0.5826616610123174  0.1673536657103608  0.3995980451037148
  0.5809438612971006  0.2920383169920656  0.3996834265676936
  0.5745544335155010  0.4164177870782495  0.3993144182824940
  0.5767148656264257  0.5411929025291513  0.3989962166112264
  0.5826053196492125  0.6687493433999564  0.4018414348424612
  0.5832494097916334  0.7933283052501530  0.4017058356645011
  0.5837287125535476  0.9182424041628957  0.4002848316767849
  0.7088596577624148  0.0430542392903920  0.3998587330979557
  0.7084908109575270  0.1678428104840962  0.3995454391989470
  0.7072936132467965  0.2924311512693806  0.3994648383366632
  0.7041938501924024  0.4167444471660848  0.3993548883895567
  0.7040828076631159  0.5408075912298369  0.3989949471853084
  0.7055803311156376  0.6659099299825757  0.3995843451320311
  0.7080412583737706  0.7927495404981374  0.4005299755964067
  0.7086180730397733  0.9179518149757985  0.4003823012075911
  0.8339535798204953  0.0427097005207921  0.3998650975878807
  0.8342726732711189  0.1678877261443655  0.3996427982462001
  0.8337963493952147  0.2925827691769471  0.3994677553268883
  0.8321766610340937  0.4168430980099495  0.3993264723138655
  0.8309393349795642  0.5408696615536208  0.3991653634133270
  0.8309317863583002  0.6654094689852083  0.3991734829577241
  0.8317492772181818  0.7907613449639335  0.3996344660479218
  0.8331195265739084  0.9170047055198356  0.3998867812197416
  0.9583790508341407  0.0416185621088150  0.3997049950735943
  0.9598067991536896  0.1676503687919394  0.3996013107529673
  0.9603117230380457  0.2926526798623929  0.3993819041357831
  0.9597534282163270  0.4169329861694465  0.3992077950668489
  0.9578989257350020  0.5409960833163534  0.3991797485198713
  0.9568332472476759  0.6652705318064372  0.3992359411711636
  0.9566288844061639  0.7900446470763388  0.3994455981322627
  0.9570576509623266  0.9154235551045427  0.3996639856692065
  0.4209336454579521  0.5889054486689828  0.4034358985741425
  0.5056523105605891  0.5539525950913710  0.5253451253631771
 
  0.00000000E+00  0.00000000E+00  0.00000000E+00
  0.00000000E+00  0.00000000E+00  0.00000000E+00
  0.00000000E+00  0.00000000E+00  0.00000000E+00
  0.00000000E+00  0.00000000E+00  0.00000000E+00
  0.00000000E+00  0.00000000E+00  0.00000000E+00
  0.00000000E+00  0.00000000E+00  0.00000000E+00
  0.00000000E+00  0.00000000E+00  0.00000000E+00
  0.00000000E+00  0.00000000E+00  0.00000000E+00
  0.00000000E+00  0.00000000E+00  0.00000000E+00
  0.00000000E+00  0.00000000E+00  0.00000000E+00
  0.00000000E+00  0.00000000E+00  0.00000000E+00
  0.00000000E+00  0.00000000E+00  0.00000000E+00
  0.00000000E+00  0.00000000E+00  0.00000000E+00
  0.00000000E+00  0.00000000E+00  0.00000000E+00
  0.00000000E+00  0.00000000E+00  0.00000000E+00
  0.00000000E+00  0.00000000E+00  0.00000000E+00
  0.00000000E+00  0.00000000E+00  0.00000000E+00
  0.00000000E+00  0.00000000E+00  0.00000000E+00
  0.00000000E+00  0.00000000E+00  0.00000000E+00
  0.00000000E+00  0.00000000E+00  0.00000000E+00
  0.00000000E+00  0.00000000E+00  0.00000000E+00
  0.00000000E+00  0.00000000E+00  0.00000000E+00
  0.00000000E+00  0.00000000E+00  0.00000000E+00
  0.00000000E+00  0.00000000E+00  0.00000000E+00
  0.00000000E+00  0.00000000E+00  0.00000000E+00
  0.00000000E+00  0.00000000E+00  0.00000000E+00
  0.00000000E+00  0.00000000E+00  0.00000000E+00
  0.00000000E+00  0.00000000E+00  0.00000000E+00
  0.00000000E+00  0.00000000E+00  0.00000000E+00
  0.00000000E+00  0.00000000E+00  0.00000000E+00
  0.00000000E+00  0.00000000E+00  0.00000000E+00
  0.00000000E+00  0.00000000E+00  0.00000000E+00
  0.00000000E+00  0.00000000E+00  0.00000000E+00
  0.00000000E+00  0.00000000E+00  0.00000000E+00
  0.00000000E+00  0.00000000E+00  0.00000000E+00
  0.00000000E+00  0.00000000E+00  0.00000000E+00
  0.00000000E+00  0.00000000E+00  0.00000000E+00
  0.00000000E+00  0.00000000E+00  0.00000000E+00
  0.00000000E+00  0.00000000E+00  0.00000000E+00
  0.00000000E+00  0.00000000E+00  0.00000000E+00
  0.00000000E+00  0.00000000E+00  0.00000000E+00
  0.00000000E+00  0.00000000E+00  0.00000000E+00
  0.00000000E+00  0.00000000E+00  0.00000000E+00
  0.00000000E+00  0.00000000E+00  0.00000000E+00
  0.00000000E+00  0.00000000E+00  0.00000000E+00
  0.00000000E+00  0.00000000E+00  0.00000000E+00
  0.00000000E+00  0.00000000E+00  0.00000000E+00
  0.00000000E+00  0.00000000E+00  0.00000000E+00
  0.00000000E+00  0.00000000E+00  0.00000000E+00
  0.00000000E+00  0.00000000E+00  0.00000000E+00
  0.00000000E+00  0.00000000E+00  0.00000000E+00
  0.00000000E+00  0.00000000E+00  0.00000000E+00
  0.00000000E+00  0.00000000E+00  0.00000000E+00
  0.00000000E+00  0.00000000E+00  0.00000000E+00
  0.00000000E+00  0.00000000E+00  0.00000000E+00
  0.00000000E+00  0.00000000E+00  0.00000000E+00
  0.00000000E+00  0.00000000E+00  0.00000000E+00
  0.00000000E+00  0.00000000E+00  0.00000000E+00
  0.00000000E+00  0.00000000E+00  0.00000000E+00
  0.00000000E+00  0.00000000E+00  0.00000000E+00
  0.00000000E+00  0.00000000E+00  0.00000000E+00
  0.00000000E+00  0.00000000E+00  0.00000000E+00
  0.00000000E+00  0.00000000E+00  0.00000000E+00
  0.00000000E+00  0.00000000E+00  0.00000000E+00
  0.00000000E+00  0.00000000E+00  0.00000000E+00
  0.00000000E+00  0.00000000E+00  0.00000000E+00
  0.00000000E+00  0.00000000E+00  0.00000000E+00
  0.00000000E+00  0.00000000E+00  0.00000000E+00
  0.00000000E+00  0.00000000E+00  0.00000000E+00
  0.00000000E+00  0.00000000E+00  0.00000000E+00
  0.00000000E+00  0.00000000E+00  0.00000000E+00
  0.00000000E+00  0.00000000E+00  0.00000000E+00
  0.00000000E+00  0.00000000E+00  0.00000000E+00
  0.00000000E+00  0.00000000E+00  0.00000000E+00
  0.00000000E+00  0.00000000E+00  0.00000000E+00
  0.00000000E+00  0.00000000E+00  0.00000000E+00
  0.00000000E+00  0.00000000E+00  0.00000000E+00
  0.00000000E+00  0.00000000E+00  0.00000000E+00
  0.00000000E+00  0.00000000E+00  0.00000000E+00
  0.00000000E+00  0.00000000E+00  0.00000000E+00
  0.00000000E+00  0.00000000E+00  0.00000000E+00
  0.00000000E+00  0.00000000E+00  0.00000000E+00
  0.00000000E+00  0.00000000E+00  0.00000000E+00
  0.00000000E+00  0.00000000E+00  0.00000000E+00
  0.00000000E+00  0.00000000E+00  0.00000000E+00
  0.00000000E+00  0.00000000E+00  0.00000000E+00
  0.00000000E+00  0.00000000E+00  0.00000000E+00
  0.00000000E+00  0.00000000E+00  0.00000000E+00
  0.00000000E+00  0.00000000E+00  0.00000000E+00
  0.00000000E+00  0.00000000E+00  0.00000000E+00
  0.00000000E+00  0.00000000E+00  0.00000000E+00
  0.00000000E+00  0.00000000E+00  0.00000000E+00
  0.00000000E+00  0.00000000E+00  0.00000000E+00
  0.00000000E+00  0.00000000E+00  0.00000000E+00
  0.00000000E+00  0.00000000E+00  0.00000000E+00
  0.00000000E+00  0.00000000E+00  0.00000000E+00
  0.00000000E+00  0.00000000E+00  0.00000000E+00
  0.00000000E+00  0.00000000E+00  0.00000000E+00
  0.00000000E+00  0.00000000E+00  0.00000000E+00
  0.00000000E+00  0.00000000E+00  0.00000000E+00
  0.00000000E+00  0.00000000E+00  0.00000000E+00
  0.00000000E+00  0.00000000E+00  0.00000000E+00
  0.00000000E+00  0.00000000E+00  0.00000000E+00
  0.00000000E+00  0.00000000E+00  0.00000000E+00
  0.00000000E+00  0.00000000E+00  0.00000000E+00
  0.00000000E+00  0.00000000E+00  0.00000000E+00
  0.00000000E+00  0.00000000E+00  0.00000000E+00
  0.00000000E+00  0.00000000E+00  0.00000000E+00
  0.00000000E+00  0.00000000E+00  0.00000000E+00
  0.00000000E+00  0.00000000E+00  0.00000000E+00
  0.00000000E+00  0.00000000E+00  0.00000000E+00
  0.00000000E+00  0.00000000E+00  0.00000000E+00
  0.00000000E+00  0.00000000E+00  0.00000000E+00
  0.00000000E+00  0.00000000E+00  0.00000000E+00
  0.00000000E+00  0.00000000E+00  0.00000000E+00
  0.00000000E+00  0.00000000E+00  0.00000000E+00
  0.00000000E+00  0.00000000E+00  0.00000000E+00
  0.00000000E+00  0.00000000E+00  0.00000000E+00
  0.00000000E+00  0.00000000E+00  0.00000000E+00
  0.00000000E+00  0.00000000E+00  0.00000000E+00
  0.00000000E+00  0.00000000E+00  0.00000000E+00
  0.00000000E+00  0.00000000E+00  0.00000000E+00
  0.00000000E+00  0.00000000E+00  0.00000000E+00
  0.00000000E+00  0.00000000E+00  0.00000000E+00
  0.00000000E+00  0.00000000E+00  0.00000000E+00
  0.00000000E+00  0.00000000E+00  0.00000000E+00
  0.00000000E+00  0.00000000E+00  0.00000000E+00
  0.00000000E+00  0.00000000E+00  0.00000000E+00
