La1 C122 N4 O1                          
   1.00000000000000     
    19.8008396000722975    0.0002757665529445    0.0455951936826936
    -9.9001419217631668   17.0363261551672771    0.0075746866613556
     0.0685528660515677    0.0530388249884554   29.8292719945106306
   La   C    N    O 
     1   122     4     1
Direct
  0.4383678162173846  0.5031160870570809  0.4613224523224019
  0.0418337294367123  0.0839817212973007  0.3998956669365406
  0.0409416174401546  0.2081570723830739  0.3998012752289368
  0.0403454920719592  0.3328627229790296  0.3997879535781203
  0.0405881091712389  0.4581449273107618  0.3999108574784785
  0.0413006670992574  0.5836209696141919  0.4000241268110194
  0.0420123829962159  0.7090684387021357  0.4000060144111598
  0.0423648159859361  0.8344495620684526  0.4000134234610009
  0.0424612688601979  0.9596106837059800  0.3999322591394414
  0.1680646070402447  0.0858235033025594  0.3999606604439832
  0.1670443709879836  0.2098955718944125  0.3996072705221962
  0.1652291585196885  0.3336043277326989  0.3990472301990460
  0.1646122628940787  0.4583548590232333  0.3989345038122474
  0.1653629493369285  0.5834765287732960  0.3994943590985657
  0.1663266882782861  0.7088952372676761  0.3999409545826140
  0.1669920917954356  0.8344314306378581  0.3999853604426530
  0.1675076966228538  0.9600873970992793  0.4000103930089600
  0.2926514797514312  0.0858129024326005  0.3999611352740204
  0.2942051277735760  0.2134812378726484  0.4002280747649475
  0.2919323266613327  0.3385885128800971  0.3999786759046868
  0.2888843302122289  0.4569701041230309  0.3986679002535302
  0.2891544277203871  0.5829609725852474  0.3984012254914547
  0.2905759336033248  0.7084191739510747  0.3994745020657566
  0.2915048620333773  0.8338741620059928  0.3999048004711960
  0.2920624395757053  0.9596018890708969  0.3999145678028553
  0.4170475928422605  0.0840124360891960  0.3998326123376237
  0.4177545180444567  0.2099567352556302  0.3994475392189579
  0.4216369862936885  0.3386910895368622  0.4007223617181210
  0.4146842217695914  0.7066212628172801  0.3991323441086528
  0.4159948236113991  0.8324570107795400  0.3997018615709619
  0.4165524456542548  0.9582351234984514  0.3999173918023291
  0.5415018882710946  0.0824956243292799  0.3999247772701694
  0.5421218711287908  0.2081632740938388  0.3996859692662262
  0.5433584509253064  0.3336288076126149  0.3990112303113264
  0.5433120370180649  0.4570411369577166  0.3998649191838431
  0.5384893725028742  0.7020110471218990  0.4011609392170488
  0.5402988285578808  0.8301919031019742  0.3999506039930364
  0.5410028620974231  0.9565871706415144  0.3999103304259780
  0.6660049433827925  0.0818307856009359  0.3999962187949728
  0.6665264627989386  0.2073853965541744  0.4000007882780277
  0.6674521235416738  0.3328897867063144  0.3996876045061585
  0.6687971907516911  0.4583999509827701  0.3986938286117487
  0.6689078106290508  0.5830289183226878  0.3984306769519494
  0.6668054442841151  0.7065149199007082  0.3991035193693201
  0.6647960435913730  0.8301936729579709  0.3999580930657896
  0.6655229456042073  0.9561561535955860  0.4000544250650872
  0.7907197145945845  0.0818245176909279  0.3999603131570544
  0.7910358955200217  0.2071979699368492  0.3999987100944230
  0.7916810502371721  0.3326771143561830  0.4000053070976142
  0.7925230289014550  0.4581699154034600  0.3998504217673242
  0.7931086429015148  0.5834884431976802  0.3994177129081620
  0.7928270203758775  0.7084440766844462  0.3994135069952177
  0.7913316384929163  0.8324080932070155  0.3996410180391183
  0.7904658888933198  0.9565785953222120  0.3998799635276414
  0.9158924764669985  0.0824919397420656  0.3999004056441792
  0.9157311671539049  0.2073722027487552  0.3999370107795832
  0.9159172476429323  0.3326706379873526  0.3999702330064497
  0.9165263691865934  0.4581160798340069  0.4000516843004532
  0.9172623073559725  0.5836241124530791  0.4000610723333425
  0.9175254473544031  0.7089187114524740  0.4000084564370842
  0.9172885538722936  0.8338895794477693  0.3999355442989825
  0.9165680325174965  0.9582092285855724  0.3999211717055768
  0.0843556702921207  0.0433058034803766  0.3999149648021430
  0.0834565136290105  0.1674336438616039  0.3997750902065648
  0.0820538305887981  0.2914632763506680  0.3995728658615342
  0.0817971344316930  0.4163989359842222  0.3996105370271203
  0.0823801723184446  0.5417179900386069  0.3998913155445090
  0.0831857755092807  0.6671847597192357  0.3999829908904084
  0.0837883133496097  0.7926712230258025  0.4000071575785318
  0.0841283925064926  0.9180550799380356  0.3999751933366127
  0.2093206920735582  0.0437369591615028  0.4000374970033186
  0.2100532464231195  0.1697202586908303  0.3999078201938408
  0.2079964232647220  0.2933200167716275  0.3992236635645630
  0.2061203158217846  0.4169531674657673  0.3986332885453464
  0.2062055903205069  0.5415287429014284  0.3987889517019019
  0.2074534135181242  0.6670110969097058  0.3996875827088923
  0.2083048200963780  0.7924820784979801  0.3999603308832298
  0.2088403136892256  0.9180454692525469  0.3999778191150500
  0.3338324845703702  0.0433015021832831  0.3998857493501966
  0.3345646786137281  0.1697148480527949  0.3999143283983204
  0.3364578385490844  0.2979561808842410  0.4008406456388246
  0.3318261592851221  0.5429076355416556  0.3987659662427935
  0.3316250188553286  0.6663063401952576  0.3989142043486166
  0.3327534562517456  0.7917327755957787  0.3997414747879715
  0.3333482471614692  0.9173816903381007  0.3999021365349617
  0.4582944754467562  0.0416586453669431  0.3999150735146780
  0.4588728884579938  0.1674744318914567  0.3996193515650756
  0.4602719852319964  0.2934314922791225  0.3992092568299922
  0.4534188576262345  0.6614912012554485  0.4003922056002444
  0.4571344531342115  0.7900337437767454  0.3995253580001188
  0.4578030996365439  0.9159027519490741  0.3998757732988326
  0.5827874021046687  0.0402701157182710  0.3999411525743865
  0.5833316799796140  0.1659842848231426  0.3999122598743253
  0.5843420682396074  0.2914659227212615  0.3994560797174008
  0.5859043073803866  0.4169417812506499  0.3986416471018206
  0.5862395510021168  0.5429362228225098  0.3995940553143952
  0.5829434327519385  0.6613192554297879  0.4006408436273660
  0.5806845500505604  0.7864472490717802  0.4003735630866527
  0.5821887944134208  0.9140780921346121  0.3999714742259750
  0.7073429827892566  0.0397914127585168  0.4000196627894202
  0.7078391600880669  0.1654271249889645  0.4000191411494544
  0.7085393987264593  0.2909727388700613  0.3999816474560220
  0.7095805555765764  0.4164405099330460  0.3994267711583375
  0.7103417499792338  0.5415562040513336  0.3986387155632885
  0.7096673433701454  0.6663131468144575  0.3988625333987189
  0.7077382459797592  0.7899594898891552  0.3994565054481736
  0.7067763958176767  0.9140812076364273  0.3999646958946157
  0.8323868500270436  0.0402753766598799  0.3999022189423139
  0.8324713541754730  0.1654280697605067  0.3999598734013962
  0.8328566539636751  0.2907914053543955  0.3999780945888171
  0.8335723541864738  0.4162505679909948  0.4000295994200117
  0.8342848918410314  0.5417228566126975  0.3998659660617067
  0.8345103693696907  0.6670207719819510  0.3996780164564470
  0.8338930156237913  0.7917246495142846  0.3997051387858043
  0.8329629603485051  0.9158632780513215  0.3998499612297736
  0.9582378911471027  0.0416336229664970  0.3999205398505581
  0.9575396304240188  0.1659912205755304  0.3999070783507779
  0.9573335039610656  0.2909644710586523  0.3999574763729247
  0.9576000353493396  0.4162396559220592  0.4000121145793219
  0.9583402728842743  0.5417426145600167  0.4000691962977593
  0.9589458082998403  0.6671957521873432  0.4000434320088744
  0.9590971528350155  0.7925062781340194  0.4000175966975180
  0.9589493731981057  0.9173931107142074  0.3999319476555324
  0.4107286593519844  0.5820655354566316  0.4010001667331414
  0.5463989645838704  0.5819384750509732  0.4020331017469124
  0.3288426685946338  0.4179910424834989  0.3999484560102444
  0.4644596552532675  0.4180888346993765  0.4024212229993531
  0.4780160588245498  0.5377094897139362  0.5197852496909406
 
  0.00000000E+00  0.00000000E+00  0.00000000E+00
  0.00000000E+00  0.00000000E+00  0.00000000E+00
  0.00000000E+00  0.00000000E+00  0.00000000E+00
  0.00000000E+00  0.00000000E+00  0.00000000E+00
  0.00000000E+00  0.00000000E+00  0.00000000E+00
  0.00000000E+00  0.00000000E+00  0.00000000E+00
  0.00000000E+00  0.00000000E+00  0.00000000E+00
  0.00000000E+00  0.00000000E+00  0.00000000E+00
  0.00000000E+00  0.00000000E+00  0.00000000E+00
  0.00000000E+00  0.00000000E+00  0.00000000E+00
  0.00000000E+00  0.00000000E+00  0.00000000E+00
  0.00000000E+00  0.00000000E+00  0.00000000E+00
  0.00000000E+00  0.00000000E+00  0.00000000E+00
  0.00000000E+00  0.00000000E+00  0.00000000E+00
  0.00000000E+00  0.00000000E+00  0.00000000E+00
  0.00000000E+00  0.00000000E+00  0.00000000E+00
  0.00000000E+00  0.00000000E+00  0.00000000E+00
  0.00000000E+00  0.00000000E+00  0.00000000E+00
  0.00000000E+00  0.00000000E+00  0.00000000E+00
  0.00000000E+00  0.00000000E+00  0.00000000E+00
  0.00000000E+00  0.00000000E+00  0.00000000E+00
  0.00000000E+00  0.00000000E+00  0.00000000E+00
  0.00000000E+00  0.00000000E+00  0.00000000E+00
  0.00000000E+00  0.00000000E+00  0.00000000E+00
  0.00000000E+00  0.00000000E+00  0.00000000E+00
  0.00000000E+00  0.00000000E+00  0.00000000E+00
  0.00000000E+00  0.00000000E+00  0.00000000E+00
  0.00000000E+00  0.00000000E+00  0.00000000E+00
  0.00000000E+00  0.00000000E+00  0.00000000E+00
  0.00000000E+00  0.00000000E+00  0.00000000E+00
  0.00000000E+00  0.00000000E+00  0.00000000E+00
  0.00000000E+00  0.00000000E+00  0.00000000E+00
  0.00000000E+00  0.00000000E+00  0.00000000E+00
  0.00000000E+00  0.00000000E+00  0.00000000E+00
  0.00000000E+00  0.00000000E+00  0.00000000E+00
  0.00000000E+00  0.00000000E+00  0.00000000E+00
  0.00000000E+00  0.00000000E+00  0.00000000E+00
  0.00000000E+00  0.00000000E+00  0.00000000E+00
  0.00000000E+00  0.00000000E+00  0.00000000E+00
  0.00000000E+00  0.00000000E+00  0.00000000E+00
  0.00000000E+00  0.00000000E+00  0.00000000E+00
  0.00000000E+00  0.00000000E+00  0.00000000E+00
  0.00000000E+00  0.00000000E+00  0.00000000E+00
  0.00000000E+00  0.00000000E+00  0.00000000E+00
  0.00000000E+00  0.00000000E+00  0.00000000E+00
  0.00000000E+00  0.00000000E+00  0.00000000E+00
  0.00000000E+00  0.00000000E+00  0.00000000E+00
  0.00000000E+00  0.00000000E+00  0.00000000E+00
  0.00000000E+00  0.00000000E+00  0.00000000E+00
  0.00000000E+00  0.00000000E+00  0.00000000E+00
  0.00000000E+00  0.00000000E+00  0.00000000E+00
  0.00000000E+00  0.00000000E+00  0.00000000E+00
  0.00000000E+00  0.00000000E+00  0.00000000E+00
  0.00000000E+00  0.00000000E+00  0.00000000E+00
  0.00000000E+00  0.00000000E+00  0.00000000E+00
  0.00000000E+00  0.00000000E+00  0.00000000E+00
  0.00000000E+00  0.00000000E+00  0.00000000E+00
  0.00000000E+00  0.00000000E+00  0.00000000E+00
  0.00000000E+00  0.00000000E+00  0.00000000E+00
  0.00000000E+00  0.00000000E+00  0.00000000E+00
  0.00000000E+00  0.00000000E+00  0.00000000E+00
  0.00000000E+00  0.00000000E+00  0.00000000E+00
  0.00000000E+00  0.00000000E+00  0.00000000E+00
  0.00000000E+00  0.00000000E+00  0.00000000E+00
  0.00000000E+00  0.00000000E+00  0.00000000E+00
  0.00000000E+00  0.00000000E+00  0.00000000E+00
  0.00000000E+00  0.00000000E+00  0.00000000E+00
  0.00000000E+00  0.00000000E+00  0.00000000E+00
  0.00000000E+00  0.00000000E+00  0.00000000E+00
  0.00000000E+00  0.00000000E+00  0.00000000E+00
  0.00000000E+00  0.00000000E+00  0.00000000E+00
  0.00000000E+00  0.00000000E+00  0.00000000E+00
  0.00000000E+00  0.00000000E+00  0.00000000E+00
  0.00000000E+00  0.00000000E+00  0.00000000E+00
  0.00000000E+00  0.00000000E+00  0.00000000E+00
  0.00000000E+00  0.00000000E+00  0.00000000E+00
  0.00000000E+00  0.00000000E+00  0.00000000E+00
  0.00000000E+00  0.00000000E+00  0.00000000E+00
  0.00000000E+00  0.00000000E+00  0.00000000E+00
  0.00000000E+00  0.00000000E+00  0.00000000E+00
  0.00000000E+00  0.00000000E+00  0.00000000E+00
  0.00000000E+00  0.00000000E+00  0.00000000E+00
  0.00000000E+00  0.00000000E+00  0.00000000E+00
  0.00000000E+00  0.00000000E+00  0.00000000E+00
  0.00000000E+00  0.00000000E+00  0.00000000E+00
  0.00000000E+00  0.00000000E+00  0.00000000E+00
  0.00000000E+00  0.00000000E+00  0.00000000E+00
  0.00000000E+00  0.00000000E+00  0.00000000E+00
  0.00000000E+00  0.00000000E+00  0.00000000E+00
  0.00000000E+00  0.00000000E+00  0.00000000E+00
  0.00000000E+00  0.00000000E+00  0.00000000E+00
  0.00000000E+00  0.00000000E+00  0.00000000E+00
  0.00000000E+00  0.00000000E+00  0.00000000E+00
  0.00000000E+00  0.00000000E+00  0.00000000E+00
  0.00000000E+00  0.00000000E+00  0.00000000E+00
  0.00000000E+00  0.00000000E+00  0.00000000E+00
  0.00000000E+00  0.00000000E+00  0.00000000E+00
  0.00000000E+00  0.00000000E+00  0.00000000E+00
  0.00000000E+00  0.00000000E+00  0.00000000E+00
  0.00000000E+00  0.00000000E+00  0.00000000E+00
  0.00000000E+00  0.00000000E+00  0.00000000E+00
  0.00000000E+00  0.00000000E+00  0.00000000E+00
  0.00000000E+00  0.00000000E+00  0.00000000E+00
  0.00000000E+00  0.00000000E+00  0.00000000E+00
  0.00000000E+00  0.00000000E+00  0.00000000E+00
  0.00000000E+00  0.00000000E+00  0.00000000E+00
  0.00000000E+00  0.00000000E+00  0.00000000E+00
  0.00000000E+00  0.00000000E+00  0.00000000E+00
  0.00000000E+00  0.00000000E+00  0.00000000E+00
  0.00000000E+00  0.00000000E+00  0.00000000E+00
  0.00000000E+00  0.00000000E+00  0.00000000E+00
  0.00000000E+00  0.00000000E+00  0.00000000E+00
  0.00000000E+00  0.00000000E+00  0.00000000E+00
  0.00000000E+00  0.00000000E+00  0.00000000E+00
  0.00000000E+00  0.00000000E+00  0.00000000E+00
  0.00000000E+00  0.00000000E+00  0.00000000E+00
  0.00000000E+00  0.00000000E+00  0.00000000E+00
  0.00000000E+00  0.00000000E+00  0.00000000E+00
  0.00000000E+00  0.00000000E+00  0.00000000E+00
  0.00000000E+00  0.00000000E+00  0.00000000E+00
  0.00000000E+00  0.00000000E+00  0.00000000E+00
  0.00000000E+00  0.00000000E+00  0.00000000E+00
  0.00000000E+00  0.00000000E+00  0.00000000E+00
  0.00000000E+00  0.00000000E+00  0.00000000E+00
  0.00000000E+00  0.00000000E+00  0.00000000E+00
  0.00000000E+00  0.00000000E+00  0.00000000E+00
  0.00000000E+00  0.00000000E+00  0.00000000E+00
  0.00000000E+00  0.00000000E+00  0.00000000E+00
