Os1 C125 N1 O1                          
   1.00000000000000     
    19.8152797771999900   -0.0077740105150674   -0.0229848151960933
    -9.9146107896310749   17.0437439313291250   -0.1071468065648888
    -0.0345023912387644   -0.2074408103237668   29.8028390971110682
   Os   C    N    O 
     1   125     1     1
Direct
  0.4384169602225759  0.5015808465351246  0.4319094019238219
  0.0421585515954841  0.0843566843957987  0.3996011666811289
  0.0412300633490417  0.2083990304550393  0.3993599082034020
  0.0405087224308271  0.3329098848813272  0.3990596514016812
  0.0404965969559085  0.4583202187274003  0.3992743075356719
  0.0414472701676447  0.5839278034643665  0.3998185845580515
  0.0422253841838676  0.7093516107137861  0.3999929420120311
  0.0425088528392040  0.8346682455772023  0.4000121475009835
  0.0425180489757169  0.9597278392436018  0.3998162194464925
  0.1679231051307066  0.0857021294107961  0.3999836704578111
  0.1677829725180114  0.2106781918695876  0.4002353238299817
  0.1659008376817420  0.3341382333441706  0.3994489642641682
  0.1641082716325552  0.4585658851018373  0.3983837599227009
  0.1650996858290542  0.5837609715155205  0.3989338645727524
  0.1664353611466221  0.7092221617893125  0.3997723004222868
  0.1672194031338903  0.8347230833143399  0.3999060076218614
  0.1676291014563034  0.9601755094635115  0.3998513764487304
  0.2927879970961643  0.0856251061261651  0.4001075306001067
  0.2937449735473979  0.2123276528076742  0.4019707246020374
  0.2939212850209874  0.3384911396183258  0.4035861182810883
  0.2878821662011914  0.4595505237407145  0.4010280824112230
  0.2886105545037094  0.5840814615448008  0.3990872470171598
  0.2906844407050017  0.7089904979717745  0.3994850092565824
  0.2917101140462281  0.8342292716945149  0.3997537964482694
  0.2922389409422632  0.9597434051616760  0.3996533242936579
  0.4172385892948388  0.0842659823985766  0.3996944711279925
  0.4178827261452946  0.2103882011434874  0.4006977628986488
  0.4197632940867618  0.3380872521952718  0.4046245894325781
  0.4146902129993679  0.7061653287072592  0.4005264575862075
  0.4160897825602142  0.8325057440748767  0.3998102168604071
  0.4167561379610075  0.9584288375359737  0.3996312644084061
  0.5416592667887112  0.0826560018085147  0.3996652639363890
  0.5422628058304690  0.2081353633276668  0.3997492470544936
  0.5432996183435761  0.3333826557594154  0.4003024888598931
  0.5470444671843663  0.4581794855823835  0.4024530329194536
  0.5444147163765567  0.5788118556606119  0.4051923360999785
  0.5381565397502253  0.7028621136019942  0.4025546291538643
  0.5403024828470442  0.8306579935819969  0.4003951468228345
  0.5411747282564566  0.9569216629593360  0.3998776370028475
  0.6661657682090575  0.0819652794503536  0.3998836473949782
  0.6666872688990256  0.2074047892573235  0.3996996031534809
  0.6675676325130238  0.3327493147293083  0.3993816466664510
  0.6697272491253632  0.4582955218923824  0.3985903288390954
  0.6704848468873857  0.5835395527197272  0.3985272641124483
  0.6656934070978497  0.7058137106454556  0.3996348937438264
  0.6646748111821361  0.8303285662750428  0.4001868593598661
  0.6655813077140548  0.9563241832923883  0.4001337905015010
  0.7908348652527147  0.0819370689859208  0.4001185452095297
  0.7911824371901094  0.2072543495399883  0.3999783374173028
  0.7918720664221197  0.3327205716048607  0.3997687377244185
  0.7930735779732966  0.4582816239444759  0.3992930948357655
  0.7938521303590920  0.5836296950018154  0.3986453437356358
  0.7929660928374813  0.7087335378455820  0.3987552290574470
  0.7910598256038782  0.8322982441505520  0.3994191148252279
  0.7905063691241003  0.9567143388578256  0.3999184366800390
  0.9160576215430913  0.0826640668285066  0.3997714039881979
  0.9158946575153823  0.2074559757899483  0.3997525719975201
  0.9160817307403709  0.3327512426451104  0.3997562224251617
  0.9167591865470831  0.4582798482641765  0.3998503536388893
  0.9176833160137220  0.5838988425757944  0.3997004514794535
  0.9177636709159066  0.7092013547373477  0.3995178164700726
  0.9173924224582052  0.8340556411906136  0.3996592153785641
  0.9166065046746783  0.9583555637753558  0.3997957020483286
  0.0843530254954810  0.0433611751132855  0.3996844689536072
  0.0839634192310618  0.1679505200635977  0.3995673507230199
  0.0825080882403922  0.2917483122571924  0.3991334855629549
  0.0814954226905010  0.4165036882236854  0.3987696612255590
  0.0822469618264247  0.5419228384856049  0.3993457595884734
  0.0833467940336968  0.6674928341827138  0.3999239129351190
  0.0840197789327512  0.7930074128576501  0.4000292961637551
  0.0842525559793110  0.9182443945408407  0.3999393447058472
  0.2094037894249605  0.0437815697229551  0.3999683989690226
  0.2098456487274484  0.1695208516475978  0.4007035810145886
  0.2095762992099605  0.2945788131414595  0.4006947566030909
  0.2055662485822277  0.4173580917236448  0.3989054798480000
  0.2056436780738591  0.5418136112042395  0.3984684113365409
  0.2074586731847875  0.6673723141636038  0.3993572701098589
  0.2084939378211927  0.7928075165129008  0.3998467083158062
  0.2090745426339045  0.9182935255563531  0.3997734796665981
  0.3340171584830423  0.0433269465337985  0.3997535645915579
  0.3346879397120011  0.1693923344927284  0.4009539063483204
  0.3357868492792114  0.2962422422042976  0.4042400396128080
  0.3319883699869401  0.4220984892237584  0.4058399090879434
  0.3291222927544605  0.5432005222521267  0.4011017734809611
  0.3316027866661543  0.6671278210926574  0.3996463546607318
  0.3329644784391912  0.7922309449975410  0.3997402500259283
  0.3335735811610397  0.9176365049163402  0.3996399661953725
  0.4585438266686793  0.0419290802734015  0.3995976773030488
  0.4590442734617529  0.1677746969698235  0.3999282413853246
  0.4601091765631148  0.2941670540249295  0.4015260419073509
  0.4657136577723662  0.4214878436436090  0.4080850318050584
  0.4542499161447459  0.6618863798818307  0.4028257058778590
  0.4572374244069440  0.7899081165976248  0.4000963578147032
  0.4579764031510098  0.9160551005609852  0.3997752646371967
  0.5829757190930051  0.0405186954821150  0.3997726030621794
  0.5835295325802334  0.1661082793661003  0.3996698481547363
  0.5843849638215497  0.2913468056417812  0.3996529567824088
  0.5868869861157080  0.4164137638493512  0.3997669403722984
  0.5889447602419717  0.5418044919317315  0.4012027755375395
  0.5811455843719490  0.6615385792532426  0.4022233787398829
  0.5806293351620746  0.7873445958052107  0.4009513452154626
  0.5823257942252968  0.9145483502681184  0.4001119310807119
  0.7074903471913888  0.0400005151801452  0.4000918723077042
  0.7080340439887547  0.1655550530625459  0.3998266295575593
  0.7086791239679413  0.2909410508873531  0.3996420718538081
  0.7102302783167630  0.4164258436542935  0.3989803448957446
  0.7114619861376428  0.5416788158301481  0.3982150719767683
  0.7097297234044784  0.6665987790198171  0.3986934099318416
  0.7071848042245891  0.7895538055736527  0.3996068303701562
  0.7068066269831743  0.9142227751752854  0.4000307594144901
  0.8324886993431444  0.0404069568366240  0.3999980025490105
  0.8326251648476620  0.1655430888451256  0.4000470461746722
  0.8330526613535896  0.2909199570369397  0.3998998241239360
  0.8339094776710455  0.4163283946393606  0.3997080904069750
  0.8348552334572481  0.5418534763151261  0.3992514668946849
  0.8347926799943934  0.6673355162362612  0.3989177888967711
  0.8339761042439326  0.7919394311569622  0.3992498673233505
  0.8328513189625280  0.9158860261553816  0.3997445096110994
  0.9584395925894691  0.0418966517244506  0.3997171986430272
  0.9577840448024361  0.1661883613429592  0.3995599446268344
  0.9574726964157397  0.2910114783492554  0.3995226491533164
  0.9576434516849543  0.4163490058859686  0.3997172111204284
  0.9586219311621562  0.5420309130077908  0.3998784681754250
  0.9592222570607873  0.6674990265061438  0.3997608145120030
  0.9592535500248535  0.7927409667796061  0.3997833461618752
  0.9589927061959350  0.9175439291800884  0.3998145278006239
  0.4091885778846101  0.5802379582840144  0.4053342233387811
  0.4417324472042822  0.4974933638687273  0.4892472162170002
 
  0.00000000E+00  0.00000000E+00  0.00000000E+00
  0.00000000E+00  0.00000000E+00  0.00000000E+00
  0.00000000E+00  0.00000000E+00  0.00000000E+00
  0.00000000E+00  0.00000000E+00  0.00000000E+00
  0.00000000E+00  0.00000000E+00  0.00000000E+00
  0.00000000E+00  0.00000000E+00  0.00000000E+00
  0.00000000E+00  0.00000000E+00  0.00000000E+00
  0.00000000E+00  0.00000000E+00  0.00000000E+00
  0.00000000E+00  0.00000000E+00  0.00000000E+00
  0.00000000E+00  0.00000000E+00  0.00000000E+00
  0.00000000E+00  0.00000000E+00  0.00000000E+00
  0.00000000E+00  0.00000000E+00  0.00000000E+00
  0.00000000E+00  0.00000000E+00  0.00000000E+00
  0.00000000E+00  0.00000000E+00  0.00000000E+00
  0.00000000E+00  0.00000000E+00  0.00000000E+00
  0.00000000E+00  0.00000000E+00  0.00000000E+00
  0.00000000E+00  0.00000000E+00  0.00000000E+00
  0.00000000E+00  0.00000000E+00  0.00000000E+00
  0.00000000E+00  0.00000000E+00  0.00000000E+00
  0.00000000E+00  0.00000000E+00  0.00000000E+00
  0.00000000E+00  0.00000000E+00  0.00000000E+00
  0.00000000E+00  0.00000000E+00  0.00000000E+00
  0.00000000E+00  0.00000000E+00  0.00000000E+00
  0.00000000E+00  0.00000000E+00  0.00000000E+00
  0.00000000E+00  0.00000000E+00  0.00000000E+00
  0.00000000E+00  0.00000000E+00  0.00000000E+00
  0.00000000E+00  0.00000000E+00  0.00000000E+00
  0.00000000E+00  0.00000000E+00  0.00000000E+00
  0.00000000E+00  0.00000000E+00  0.00000000E+00
  0.00000000E+00  0.00000000E+00  0.00000000E+00
  0.00000000E+00  0.00000000E+00  0.00000000E+00
  0.00000000E+00  0.00000000E+00  0.00000000E+00
  0.00000000E+00  0.00000000E+00  0.00000000E+00
  0.00000000E+00  0.00000000E+00  0.00000000E+00
  0.00000000E+00  0.00000000E+00  0.00000000E+00
  0.00000000E+00  0.00000000E+00  0.00000000E+00
  0.00000000E+00  0.00000000E+00  0.00000000E+00
  0.00000000E+00  0.00000000E+00  0.00000000E+00
  0.00000000E+00  0.00000000E+00  0.00000000E+00
  0.00000000E+00  0.00000000E+00  0.00000000E+00
  0.00000000E+00  0.00000000E+00  0.00000000E+00
  0.00000000E+00  0.00000000E+00  0.00000000E+00
  0.00000000E+00  0.00000000E+00  0.00000000E+00
  0.00000000E+00  0.00000000E+00  0.00000000E+00
  0.00000000E+00  0.00000000E+00  0.00000000E+00
  0.00000000E+00  0.00000000E+00  0.00000000E+00
  0.00000000E+00  0.00000000E+00  0.00000000E+00
  0.00000000E+00  0.00000000E+00  0.00000000E+00
  0.00000000E+00  0.00000000E+00  0.00000000E+00
  0.00000000E+00  0.00000000E+00  0.00000000E+00
  0.00000000E+00  0.00000000E+00  0.00000000E+00
  0.00000000E+00  0.00000000E+00  0.00000000E+00
  0.00000000E+00  0.00000000E+00  0.00000000E+00
  0.00000000E+00  0.00000000E+00  0.00000000E+00
  0.00000000E+00  0.00000000E+00  0.00000000E+00
  0.00000000E+00  0.00000000E+00  0.00000000E+00
  0.00000000E+00  0.00000000E+00  0.00000000E+00
  0.00000000E+00  0.00000000E+00  0.00000000E+00
  0.00000000E+00  0.00000000E+00  0.00000000E+00
  0.00000000E+00  0.00000000E+00  0.00000000E+00
  0.00000000E+00  0.00000000E+00  0.00000000E+00
  0.00000000E+00  0.00000000E+00  0.00000000E+00
  0.00000000E+00  0.00000000E+00  0.00000000E+00
  0.00000000E+00  0.00000000E+00  0.00000000E+00
  0.00000000E+00  0.00000000E+00  0.00000000E+00
  0.00000000E+00  0.00000000E+00  0.00000000E+00
  0.00000000E+00  0.00000000E+00  0.00000000E+00
  0.00000000E+00  0.00000000E+00  0.00000000E+00
  0.00000000E+00  0.00000000E+00  0.00000000E+00
  0.00000000E+00  0.00000000E+00  0.00000000E+00
  0.00000000E+00  0.00000000E+00  0.00000000E+00
  0.00000000E+00  0.00000000E+00  0.00000000E+00
  0.00000000E+00  0.00000000E+00  0.00000000E+00
  0.00000000E+00  0.00000000E+00  0.00000000E+00
  0.00000000E+00  0.00000000E+00  0.00000000E+00
  0.00000000E+00  0.00000000E+00  0.00000000E+00
  0.00000000E+00  0.00000000E+00  0.00000000E+00
  0.00000000E+00  0.00000000E+00  0.00000000E+00
  0.00000000E+00  0.00000000E+00  0.00000000E+00
  0.00000000E+00  0.00000000E+00  0.00000000E+00
  0.00000000E+00  0.00000000E+00  0.00000000E+00
  0.00000000E+00  0.00000000E+00  0.00000000E+00
  0.00000000E+00  0.00000000E+00  0.00000000E+00
  0.00000000E+00  0.00000000E+00  0.00000000E+00
  0.00000000E+00  0.00000000E+00  0.00000000E+00
  0.00000000E+00  0.00000000E+00  0.00000000E+00
  0.00000000E+00  0.00000000E+00  0.00000000E+00
  0.00000000E+00  0.00000000E+00  0.00000000E+00
  0.00000000E+00  0.00000000E+00  0.00000000E+00
  0.00000000E+00  0.00000000E+00  0.00000000E+00
  0.00000000E+00  0.00000000E+00  0.00000000E+00
  0.00000000E+00  0.00000000E+00  0.00000000E+00
  0.00000000E+00  0.00000000E+00  0.00000000E+00
  0.00000000E+00  0.00000000E+00  0.00000000E+00
  0.00000000E+00  0.00000000E+00  0.00000000E+00
  0.00000000E+00  0.00000000E+00  0.00000000E+00
  0.00000000E+00  0.00000000E+00  0.00000000E+00
  0.00000000E+00  0.00000000E+00  0.00000000E+00
  0.00000000E+00  0.00000000E+00  0.00000000E+00
  0.00000000E+00  0.00000000E+00  0.00000000E+00
  0.00000000E+00  0.00000000E+00  0.00000000E+00
  0.00000000E+00  0.00000000E+00  0.00000000E+00
  0.00000000E+00  0.00000000E+00  0.00000000E+00
  0.00000000E+00  0.00000000E+00  0.00000000E+00
  0.00000000E+00  0.00000000E+00  0.00000000E+00
  0.00000000E+00  0.00000000E+00  0.00000000E+00
  0.00000000E+00  0.00000000E+00  0.00000000E+00
  0.00000000E+00  0.00000000E+00  0.00000000E+00
  0.00000000E+00  0.00000000E+00  0.00000000E+00
  0.00000000E+00  0.00000000E+00  0.00000000E+00
  0.00000000E+00  0.00000000E+00  0.00000000E+00
  0.00000000E+00  0.00000000E+00  0.00000000E+00
  0.00000000E+00  0.00000000E+00  0.00000000E+00
  0.00000000E+00  0.00000000E+00  0.00000000E+00
  0.00000000E+00  0.00000000E+00  0.00000000E+00
  0.00000000E+00  0.00000000E+00  0.00000000E+00
  0.00000000E+00  0.00000000E+00  0.00000000E+00
  0.00000000E+00  0.00000000E+00  0.00000000E+00
  0.00000000E+00  0.00000000E+00  0.00000000E+00
  0.00000000E+00  0.00000000E+00  0.00000000E+00
  0.00000000E+00  0.00000000E+00  0.00000000E+00
  0.00000000E+00  0.00000000E+00  0.00000000E+00
  0.00000000E+00  0.00000000E+00  0.00000000E+00
  0.00000000E+00  0.00000000E+00  0.00000000E+00
  0.00000000E+00  0.00000000E+00  0.00000000E+00
  0.00000000E+00  0.00000000E+00  0.00000000E+00
  0.00000000E+00  0.00000000E+00  0.00000000E+00
  0.00000000E+00  0.00000000E+00  0.00000000E+00
