H1 Rh1 C125 N1 O2                       
   1.00000000000000     
    19.7967200422754281   -0.0286111621539292    0.5062628366448415
    -9.9222072270512722   17.0580137060647168   -0.3183948787650137
     0.7606103435371012   -0.1127482825741607   29.8424809218640945
   H    Rh   C    N    O 
     1     1   125     1     2
Direct
  0.5392436949333920  0.5451500381065852  0.5344791178079242
  0.4344710087768370  0.5001690319280059  0.4301311938247190
  0.0418672259932109  0.0842736252583576  0.3994732362153953
  0.0415298841792082  0.2086882895492603  0.3990555205494074
  0.0410474415469785  0.3332171536229535  0.3986371856442332
  0.0407611209100087  0.4584545299445484  0.3987780654836711
  0.0410253634128850  0.5838396880317125  0.3991753531879796
  0.0414168838239382  0.7091247103539855  0.3992394800079223
  0.0416480828707950  0.8343458449169898  0.3992181704555878
  0.0418075021444548  0.9594332881598433  0.3993901777289305
  0.1674001211925165  0.0854441062161927  0.3999604898311497
  0.1678256432978302  0.2107334858235136  0.3997669024503237
  0.1668030652688061  0.3346723083277854  0.3982572112426512
  0.1650233143477844  0.4589210831825536  0.3978229898713788
  0.1650133234679745  0.5840164869058884  0.3984041116510709
  0.1657764915502761  0.7092787534466145  0.3993314329686138
  0.1664094684336803  0.8345806361702525  0.3996056008905969
  0.1669072490022762  0.9599374247736704  0.3996987426089995
  0.2921947989526225  0.0852583502423160  0.4006493638084218
  0.2932435223983404  0.2118886654940637  0.4023596703104347
  0.2944806360974638  0.3386457145019451  0.4014772888615710
  0.2900963660355877  0.4604043701228523  0.3986226285604221
  0.2887150561755170  0.5848947574227432  0.3981310865753394
  0.2900695802573144  0.7094746490004825  0.3990018846333705
  0.2910603374292440  0.8343891219496503  0.3995052544031641
  0.2916027823222515  0.9596112021860443  0.3997622371307745
  0.4167723121832611  0.0839441369702548  0.4000443804513965
  0.4173922350976013  0.2097226489682733  0.4021915175977808
  0.4188061478411071  0.3365208066188678  0.4083857081639954
  0.4140320787161504  0.7075891783480098  0.4003780563312949
  0.4155918284767261  0.8331380302311789  0.3995159808696674
  0.4162526774270525  0.9585383773808492  0.3995272665436200
  0.5414407533375203  0.0825831575224669  0.3994608302473009
  0.5419983425511754  0.2077640828450389  0.4002753169139361
  0.5428356954691241  0.3327046197837151  0.4033052353289028
  0.5452747078630132  0.4569474101444053  0.4082391100364392
  0.5425361713332072  0.5779241644723500  0.4085513855114005
  0.5370314234233580  0.7031993397330494  0.4040748321967919
  0.5397827092812647  0.8310434240859034  0.4007671871040275
  0.5408538181724364  0.9571006771990654  0.3996451638897502
  0.6660723434360563  0.0819963566018891  0.3996060803366163
  0.6666877363209086  0.2072893287305609  0.3993241767477741
  0.6673870912557510  0.3324756836519973  0.3996611866920705
  0.6687484498196161  0.4576581336207375  0.4005688202353425
  0.6688045914919867  0.5826777043728987  0.4011996070296666
  0.6639097168757352  0.7049015147979080  0.4016845036845693
  0.6640010032574473  0.8302510673775134  0.4012310202621321
  0.6653420752521771  0.9564403099746775  0.4002239983914196
  0.7907942647451625  0.0820133528135401  0.3998164078250678
  0.7912596229709919  0.2072555474016367  0.3994424177123742
  0.7918616093638751  0.3325985770144846  0.3990152197631677
  0.7926551867723971  0.4579906999218455  0.3986969498851998
  0.7928845662849452  0.5832276112310341  0.3986886988587718
  0.7916175829922339  0.7080158569585552  0.3991357270892998
  0.7900500551048073  0.8317660745083032  0.3998388497193561
  0.7901370647583217  0.9566419013007860  0.4000570121428810
  0.9159960556318321  0.0827375568767955  0.3996296343231183
  0.9161322563192856  0.2076799247619718  0.3993658582068831
  0.9162816644107462  0.3328087298679618  0.3991849891308100
  0.9166216540750526  0.4581527224663022  0.3990228474597340
  0.9170033452901879  0.5835900475033027  0.3987699147656498
  0.9168334219666897  0.7088234355797612  0.3986181562754499
  0.9164473578739162  0.8336054386788778  0.3990558627578434
  0.9159634283591513  0.9580389872158793  0.3995466666532592
  0.0838062118826050  0.0431131261307521  0.3995299096789475
  0.0839392633389123  0.1679707969139890  0.3993599719220698
  0.0830826647071630  0.2921405326195562  0.3985052890767007
  0.0821489297237515  0.4168078557740368  0.3983753653396274
  0.0820842421109225  0.5419986095894007  0.3988290398768324
  0.0826456297037102  0.6674047522791108  0.3993208100038726
  0.0831528414586499  0.7927406674284585  0.3993825548006020
  0.0834584656967923  0.9179403847457507  0.3994213709547429
  0.2087978863437378  0.0435335557361037  0.4000990401774354
  0.2094800102360213  0.1692906098041332  0.4005038876602438
  0.2100699379855698  0.2947691201206212  0.3994556656021688
  0.2070465116918595  0.4180087180964859  0.3978175228911365
  0.2059397874787781  0.5423110587402176  0.3977216696418617
  0.2069719948479554  0.6675850360948341  0.3988702607231595
  0.2077563202434061  0.7927879996711409  0.3995423402339746
  0.2083156979088943  0.9181077680744356  0.3996956338894956
  0.3334744063473005  0.0430715187802167  0.4001204912104440
  0.3341539100930765  0.1689099080781745  0.4019746736764382
  0.3352867910961376  0.2956218138388692  0.4047334749634807
  0.3338986530255048  0.4223020210672940  0.4006788199930456
  0.3303267921406035  0.5447833414548936  0.3999041431562531
  0.3311412648339565  0.6677881198755531  0.3991264910362569
  0.3323785537337647  0.7926059104723999  0.3993608601531586
  0.3330199701859592  0.9177100483486714  0.3995939902529435
  0.4581798952102760  0.0418593448696880  0.3996131159932385
  0.4586670555579850  0.1673005013425692  0.4006898762787507
  0.4595204013422845  0.2931523155684420  0.4044626009597816
  0.4637023054274793  0.4187462291053582  0.4148622628360676
  0.4528408512482470  0.6633018637373841  0.4034185629774097
  0.4567340696004336  0.7908877016209324  0.4000797168936004
  0.4575763360110061  0.9164300931174050  0.3995202156103950
  0.5828128996504784  0.0405883689035923  0.3995000088379997
  0.5834035770465275  0.1659393741792839  0.3995277773829208
  0.5841114991271493  0.2909383253896097  0.4008913816758656
  0.5858977612441538  0.4155890386131191  0.4036547600688861
  0.5865433411377932  0.5402794859540522  0.4056638593471898
  0.5787914711539802  0.6607382515825592  0.4045769491386195
  0.5798841328856540  0.7874845985167586  0.4020090504648984
  0.5819766537411810  0.9147730179233893  0.4001604265541839
  0.7073771170120821  0.0400945151559648  0.3998776884268666
  0.7080108902451279  0.1655206548924678  0.3994193353708592
  0.7086333957299283  0.2907664168475257  0.3991706211357561
  0.7096879097466003  0.4159920683474182  0.3993260138032885
  0.7101503563122934  0.5411267158072994  0.3998816095696491
  0.7080992904625981  0.6656814952332966  0.4003923417356595
  0.7058953816653093  0.7888662554599264  0.4008362083045242
  0.7064020388239148  0.9142487414081738  0.4004747731116877
  0.8323234013950542  0.0404083517860713  0.3998521317258443
  0.8327189395160181  0.1656393096844438  0.3995868494747821
  0.8331316632825999  0.2908887181307641  0.3992280961391234
  0.8336858146111644  0.4161679685946839  0.3988534120505290
  0.8341221114778473  0.5415145237531764  0.3985687402584387
  0.8336902716797469  0.6668111239686291  0.3985962962319629
  0.8328774886631936  0.7913454287381024  0.3992317743795654
  0.8321170248645653  0.9154952165076555  0.3998141988567286
  0.9580500406099633  0.0417257272646765  0.3995559131237110
  0.9579407726482175  0.1663629114445814  0.3993608442834968
  0.9577993972336000  0.2912134588322622  0.3991190578950474
  0.9577687569271669  0.4163986645233963  0.3990782498864351
  0.9581361044574801  0.5418123795899630  0.3990448049938385
  0.9583666104526036  0.6672072925139189  0.3988387021563057
  0.9583472657296208  0.7923397045899414  0.3988963905906422
  0.9581984027608335  0.9171390397528293  0.3993101569302772
  0.4085925653763983  0.5833787176601738  0.4054207709309641
  0.5232128255980967  0.5072145947569267  0.5096396555040698
  0.4621391648948536  0.5187682874250154  0.4918155473564492
 
  0.00000000E+00  0.00000000E+00  0.00000000E+00
  0.00000000E+00  0.00000000E+00  0.00000000E+00
  0.00000000E+00  0.00000000E+00  0.00000000E+00
  0.00000000E+00  0.00000000E+00  0.00000000E+00
  0.00000000E+00  0.00000000E+00  0.00000000E+00
  0.00000000E+00  0.00000000E+00  0.00000000E+00
  0.00000000E+00  0.00000000E+00  0.00000000E+00
  0.00000000E+00  0.00000000E+00  0.00000000E+00
  0.00000000E+00  0.00000000E+00  0.00000000E+00
  0.00000000E+00  0.00000000E+00  0.00000000E+00
  0.00000000E+00  0.00000000E+00  0.00000000E+00
  0.00000000E+00  0.00000000E+00  0.00000000E+00
  0.00000000E+00  0.00000000E+00  0.00000000E+00
  0.00000000E+00  0.00000000E+00  0.00000000E+00
  0.00000000E+00  0.00000000E+00  0.00000000E+00
  0.00000000E+00  0.00000000E+00  0.00000000E+00
  0.00000000E+00  0.00000000E+00  0.00000000E+00
  0.00000000E+00  0.00000000E+00  0.00000000E+00
  0.00000000E+00  0.00000000E+00  0.00000000E+00
  0.00000000E+00  0.00000000E+00  0.00000000E+00
  0.00000000E+00  0.00000000E+00  0.00000000E+00
  0.00000000E+00  0.00000000E+00  0.00000000E+00
  0.00000000E+00  0.00000000E+00  0.00000000E+00
  0.00000000E+00  0.00000000E+00  0.00000000E+00
  0.00000000E+00  0.00000000E+00  0.00000000E+00
  0.00000000E+00  0.00000000E+00  0.00000000E+00
  0.00000000E+00  0.00000000E+00  0.00000000E+00
  0.00000000E+00  0.00000000E+00  0.00000000E+00
  0.00000000E+00  0.00000000E+00  0.00000000E+00
  0.00000000E+00  0.00000000E+00  0.00000000E+00
  0.00000000E+00  0.00000000E+00  0.00000000E+00
  0.00000000E+00  0.00000000E+00  0.00000000E+00
  0.00000000E+00  0.00000000E+00  0.00000000E+00
  0.00000000E+00  0.00000000E+00  0.00000000E+00
  0.00000000E+00  0.00000000E+00  0.00000000E+00
  0.00000000E+00  0.00000000E+00  0.00000000E+00
  0.00000000E+00  0.00000000E+00  0.00000000E+00
  0.00000000E+00  0.00000000E+00  0.00000000E+00
  0.00000000E+00  0.00000000E+00  0.00000000E+00
  0.00000000E+00  0.00000000E+00  0.00000000E+00
  0.00000000E+00  0.00000000E+00  0.00000000E+00
  0.00000000E+00  0.00000000E+00  0.00000000E+00
  0.00000000E+00  0.00000000E+00  0.00000000E+00
  0.00000000E+00  0.00000000E+00  0.00000000E+00
  0.00000000E+00  0.00000000E+00  0.00000000E+00
  0.00000000E+00  0.00000000E+00  0.00000000E+00
  0.00000000E+00  0.00000000E+00  0.00000000E+00
  0.00000000E+00  0.00000000E+00  0.00000000E+00
  0.00000000E+00  0.00000000E+00  0.00000000E+00
  0.00000000E+00  0.00000000E+00  0.00000000E+00
  0.00000000E+00  0.00000000E+00  0.00000000E+00
  0.00000000E+00  0.00000000E+00  0.00000000E+00
  0.00000000E+00  0.00000000E+00  0.00000000E+00
  0.00000000E+00  0.00000000E+00  0.00000000E+00
  0.00000000E+00  0.00000000E+00  0.00000000E+00
  0.00000000E+00  0.00000000E+00  0.00000000E+00
  0.00000000E+00  0.00000000E+00  0.00000000E+00
  0.00000000E+00  0.00000000E+00  0.00000000E+00
  0.00000000E+00  0.00000000E+00  0.00000000E+00
  0.00000000E+00  0.00000000E+00  0.00000000E+00
  0.00000000E+00  0.00000000E+00  0.00000000E+00
  0.00000000E+00  0.00000000E+00  0.00000000E+00
  0.00000000E+00  0.00000000E+00  0.00000000E+00
  0.00000000E+00  0.00000000E+00  0.00000000E+00
  0.00000000E+00  0.00000000E+00  0.00000000E+00
  0.00000000E+00  0.00000000E+00  0.00000000E+00
  0.00000000E+00  0.00000000E+00  0.00000000E+00
  0.00000000E+00  0.00000000E+00  0.00000000E+00
  0.00000000E+00  0.00000000E+00  0.00000000E+00
  0.00000000E+00  0.00000000E+00  0.00000000E+00
  0.00000000E+00  0.00000000E+00  0.00000000E+00
  0.00000000E+00  0.00000000E+00  0.00000000E+00
  0.00000000E+00  0.00000000E+00  0.00000000E+00
  0.00000000E+00  0.00000000E+00  0.00000000E+00
  0.00000000E+00  0.00000000E+00  0.00000000E+00
  0.00000000E+00  0.00000000E+00  0.00000000E+00
  0.00000000E+00  0.00000000E+00  0.00000000E+00
  0.00000000E+00  0.00000000E+00  0.00000000E+00
  0.00000000E+00  0.00000000E+00  0.00000000E+00
  0.00000000E+00  0.00000000E+00  0.00000000E+00
  0.00000000E+00  0.00000000E+00  0.00000000E+00
  0.00000000E+00  0.00000000E+00  0.00000000E+00
  0.00000000E+00  0.00000000E+00  0.00000000E+00
  0.00000000E+00  0.00000000E+00  0.00000000E+00
  0.00000000E+00  0.00000000E+00  0.00000000E+00
  0.00000000E+00  0.00000000E+00  0.00000000E+00
  0.00000000E+00  0.00000000E+00  0.00000000E+00
  0.00000000E+00  0.00000000E+00  0.00000000E+00
  0.00000000E+00  0.00000000E+00  0.00000000E+00
  0.00000000E+00  0.00000000E+00  0.00000000E+00
  0.00000000E+00  0.00000000E+00  0.00000000E+00
  0.00000000E+00  0.00000000E+00  0.00000000E+00
  0.00000000E+00  0.00000000E+00  0.00000000E+00
  0.00000000E+00  0.00000000E+00  0.00000000E+00
  0.00000000E+00  0.00000000E+00  0.00000000E+00
  0.00000000E+00  0.00000000E+00  0.00000000E+00
  0.00000000E+00  0.00000000E+00  0.00000000E+00
  0.00000000E+00  0.00000000E+00  0.00000000E+00
  0.00000000E+00  0.00000000E+00  0.00000000E+00
  0.00000000E+00  0.00000000E+00  0.00000000E+00
  0.00000000E+00  0.00000000E+00  0.00000000E+00
  0.00000000E+00  0.00000000E+00  0.00000000E+00
  0.00000000E+00  0.00000000E+00  0.00000000E+00
  0.00000000E+00  0.00000000E+00  0.00000000E+00
  0.00000000E+00  0.00000000E+00  0.00000000E+00
  0.00000000E+00  0.00000000E+00  0.00000000E+00
  0.00000000E+00  0.00000000E+00  0.00000000E+00
  0.00000000E+00  0.00000000E+00  0.00000000E+00
  0.00000000E+00  0.00000000E+00  0.00000000E+00
  0.00000000E+00  0.00000000E+00  0.00000000E+00
  0.00000000E+00  0.00000000E+00  0.00000000E+00
  0.00000000E+00  0.00000000E+00  0.00000000E+00
  0.00000000E+00  0.00000000E+00  0.00000000E+00
  0.00000000E+00  0.00000000E+00  0.00000000E+00
  0.00000000E+00  0.00000000E+00  0.00000000E+00
  0.00000000E+00  0.00000000E+00  0.00000000E+00
  0.00000000E+00  0.00000000E+00  0.00000000E+00
  0.00000000E+00  0.00000000E+00  0.00000000E+00
  0.00000000E+00  0.00000000E+00  0.00000000E+00
  0.00000000E+00  0.00000000E+00  0.00000000E+00
  0.00000000E+00  0.00000000E+00  0.00000000E+00
  0.00000000E+00  0.00000000E+00  0.00000000E+00
  0.00000000E+00  0.00000000E+00  0.00000000E+00
  0.00000000E+00  0.00000000E+00  0.00000000E+00
  0.00000000E+00  0.00000000E+00  0.00000000E+00
  0.00000000E+00  0.00000000E+00  0.00000000E+00
  0.00000000E+00  0.00000000E+00  0.00000000E+00
  0.00000000E+00  0.00000000E+00  0.00000000E+00
  0.00000000E+00  0.00000000E+00  0.00000000E+00
  0.00000000E+00  0.00000000E+00  0.00000000E+00
