Cd1 H1 C125 N1 O1                       
   1.00000000000000     
    19.8092327966039470   -0.0007240250487975   -0.2947900312494315
    -9.9056397892628514   17.0710783858255155    0.3053983222569811
    -0.4411782600082502    0.2745650948158710   29.7656648005200033
   Cd   H    C    N    O 
     1     1   125     1     1
Direct
  0.4397516852809221  0.4965485686349260  0.4400753662461087
  0.4800667355535101  0.5543364087910720  0.5188769048166788
  0.0415941557700729  0.0834534187809940  0.3995346823252616
  0.0409892919182125  0.2079411126315431  0.3991160344356750
  0.0407171240861501  0.3327798295644601  0.3978928343118222
  0.0409432758688954  0.4581859553595025  0.3972152512077685
  0.0415432228190353  0.5835755193228983  0.3974640372801769
  0.0421036560378363  0.7089203044390764  0.3980123508884938
  0.0423438484643968  0.8341428686952000  0.3987239937152187
  0.0422525553797567  0.9590793032624026  0.3993005600022949
  0.1673385176194091  0.0845194413606174  0.4005132391510857
  0.1664810911082765  0.2086824882755567  0.4013016218711311
  0.1657349997659423  0.3334079893571311  0.4006326937985959
  0.1649902134708941  0.4582981076712052  0.3981717987473766
  0.1655267672495264  0.5835790944491589  0.3976796526444190
  0.1664120427021451  0.7089348703081417  0.3979723932185460
  0.1670016595241639  0.8342064638196232  0.3985786011793857
  0.1673257921232765  0.9594545819718709  0.3994322982299565
  0.2924074002727374  0.0846261480837755  0.4004916320726643
  0.2929068539925204  0.2103887493490765  0.4033220375412350
  0.2910922003281444  0.3343348698876561  0.4079073787532665
  0.2895135034844195  0.4587252384970077  0.4052860027071735
  0.2892364617561439  0.5841738446152862  0.4004303807467541
  0.2906851959830730  0.7090005434826067  0.3991623521925377
  0.2915575251047040  0.8339828139799944  0.3989266179814239
  0.2919998054270871  0.9591920174753016  0.3993345046860078
  0.4170273175882256  0.0836682250533904  0.3998540923831838
  0.4174479632019760  0.2090876241703111  0.4011638515194176
  0.4187014726868000  0.3353522022355330  0.4059843365095203
  0.4149957575142871  0.7075182118626339  0.4025833559854557
  0.4161403352638635  0.8329863074470899  0.4003618644824853
  0.4166379221290731  0.9583209514416285  0.3996052763586328
  0.5416437975217847  0.0825587753658923  0.3994039715942616
  0.5421444985617572  0.2078445251853087  0.3993593831022001
  0.5429365380393216  0.3329788065542558  0.3998355358145665
  0.5464763031269834  0.4582396112175757  0.4039390645422744
  0.5507799359367056  0.5824650793364061  0.4146230333539691
  0.5392492570351568  0.7037680205321939  0.4071525095416009
  0.5405475891135040  0.8310920227759793  0.4021196984602629
  0.5412752202373001  0.9570913155207403  0.4000289118297421
  0.6662550201362816  0.0820395961323132  0.3992995786389641
  0.6667415744966909  0.2074301437193586  0.3989117287759026
  0.6673822813115019  0.3326323602910861  0.3984046014824396
  0.6691849333519663  0.4581548356586335  0.3978647118185437
  0.6710531379949023  0.5840329378345862  0.3997409230170026
  0.6672871909402914  0.7070801461670013  0.4027242282209648
  0.6653343663367220  0.8307910880272379  0.4022434300386795
  0.6658472713620626  0.9565715357685909  0.4004243121531438
  0.7909460708393600  0.0820020149714405  0.3991197236893424
  0.7912667032777193  0.2072747349726038  0.3985593691060246
  0.7918696347680508  0.3326502080115775  0.3982749594221510
  0.7928748992173920  0.4581252574714117  0.3979111850050631
  0.7937968926914956  0.5836149220001056  0.3976612770336393
  0.7933325616011858  0.7088407643210246  0.3990196211553164
  0.7917020268967470  0.8326950559810153  0.3999483275250639
  0.7907354563800250  0.9568383951921925  0.3999083604594313
  0.9160095050993909  0.0824964386587116  0.3989811879951272
  0.9159689625794871  0.2074839122845978  0.3983146719691179
  0.9162300947729896  0.3327119129575648  0.3977434979315821
  0.9168389489916238  0.4580550491924913  0.3976965817918071
  0.9176064489402288  0.5835817352957151  0.3978531653699512
  0.9177825925176886  0.7089837222271467  0.3982781344277853
  0.9174510689504213  0.8337980623742677  0.3990099377422343
  0.9165971440484630  0.9580681038696368  0.3993194832828025
  0.0838218554130697  0.0424542484294763  0.3997545294545402
  0.0830255651279085  0.1667289499609602  0.3998042853987411
  0.0823880636866134  0.2913552815190237  0.3989439167768781
  0.0822044358129439  0.4164125120883325  0.3974620612795333
  0.0825497196011778  0.5416937894803305  0.3972707982673832
  0.0832976594696254  0.6671064950353617  0.3977331281607762
  0.0838457249153614  0.7924913967990835  0.3984133913877457
  0.0839894766521935  0.9176304014492151  0.3991440922692525
  0.2089852533860762  0.0428158575950990  0.4002039373953478
  0.2089152150459508  0.1679112977220543  0.4018344032160955
  0.2075648975097943  0.2919412880641972  0.4028353893761180
  0.2064407626369135  0.4167866316525193  0.4003420139847040
  0.2064162266192901  0.5417964391014343  0.3984301008774742
  0.2076557177616715  0.6671847286497345  0.3981287309295973
  0.2083464004074465  0.7923966658007966  0.3984199945212404
  0.2088036470958386  0.9176519099654701  0.3990836963811034
  0.3337794692849431  0.0425730237215419  0.3998732043761025
  0.3342733392057606  0.1680275935822892  0.4016743680556552
  0.3343487531143423  0.2933171838474201  0.4066818489374253
  0.3267671024676625  0.4151077618024656  0.4128538633411815
  0.3315314915653482  0.5441275207371823  0.4040142991070814
  0.3319098352332772  0.6671668198243013  0.4005606663347600
  0.3329371512625532  0.7921685782384489  0.3994580369727413
  0.3334514608141114  0.9173048626748070  0.3992691639828856
  0.4584856138354953  0.0416436025796673  0.3996043413885529
  0.4588922430868725  0.1669894961748396  0.4000043195252790
  0.4597445885692232  0.2924945338605819  0.4019864370984266
  0.4653993984125231  0.4167751852121673  0.4085107987742578
  0.4541352350067994  0.6630591042688622  0.4057930334983054
  0.4575021069268530  0.7908256470068763  0.4017585608075176
  0.4580418427564414  0.9162387882923422  0.3999967820719850
  0.5830642322645677  0.0405560203558751  0.3995040253330556
  0.5835109654533159  0.1659548152946703  0.3991731493476014
  0.5842076620768597  0.2910425079498895  0.3989285177605399
  0.5862741456218771  0.4159768235997189  0.3994590340803489
  0.5896632272574309  0.5422644645236463  0.4055332301971681
  0.5837463649233594  0.6634440785513007  0.4085488634472809
  0.5811242860963625  0.7876579755681306  0.4038648729647816
  0.5825189060356156  0.9147569927854381  0.4007470639318630
  0.7076566692838925  0.0401537278038786  0.3995566348495609
  0.7081109328636572  0.1655891446735016  0.3989325926477558
  0.7086521705722248  0.2908411445953038  0.3985708003784832
  0.7098407703938547  0.4162732472544590  0.3978809137369093
  0.7113639331751925  0.5418056543270272  0.3976707780865616
  0.7103542460404980  0.6669588780016382  0.4003529346458867
  0.7081304670945893  0.7904109077998818  0.4013981823659691
  0.7071688191243758  0.9145006104565563  0.4008067755657838
  0.8325537271794839  0.0404411409241984  0.3992572791989242
  0.8327171278187505  0.1655863155962018  0.3985891085622815
  0.8331433871269928  0.2908985341708188  0.3981900422034861
  0.8338757907341813  0.4162127880510260  0.3980165264276492
  0.8347432357736883  0.5416518362633538  0.3978030437486952
  0.8348049556944729  0.6672182608489015  0.3982168501710233
  0.8342484194278245  0.7919844236681995  0.3993083671118982
  0.8330992675798232  0.9159769292312503  0.3997121226581081
  0.9581037177292711  0.0414053540856510  0.3992055752396039
  0.9576625487784166  0.1660016538569500  0.3986844770029204
  0.9575867271707871  0.2909464363029828  0.3978517689241182
  0.9579466873536392  0.4162652025313932  0.3974761349192445
  0.9586576203658692  0.5417308550044091  0.3976457819803083
  0.9591108088300131  0.6671368632517826  0.3979925676695822
  0.9592079376496302  0.7923701382547502  0.3986748812701737
  0.9588574477018911  0.9171565769832578  0.3991839421399180
  0.4101888661483244  0.5836563769354388  0.4066218691732482
  0.4277843994245119  0.5222175612163280  0.5061449940298810
 
  0.00000000E+00  0.00000000E+00  0.00000000E+00
  0.00000000E+00  0.00000000E+00  0.00000000E+00
  0.00000000E+00  0.00000000E+00  0.00000000E+00
  0.00000000E+00  0.00000000E+00  0.00000000E+00
  0.00000000E+00  0.00000000E+00  0.00000000E+00
  0.00000000E+00  0.00000000E+00  0.00000000E+00
  0.00000000E+00  0.00000000E+00  0.00000000E+00
  0.00000000E+00  0.00000000E+00  0.00000000E+00
  0.00000000E+00  0.00000000E+00  0.00000000E+00
  0.00000000E+00  0.00000000E+00  0.00000000E+00
  0.00000000E+00  0.00000000E+00  0.00000000E+00
  0.00000000E+00  0.00000000E+00  0.00000000E+00
  0.00000000E+00  0.00000000E+00  0.00000000E+00
  0.00000000E+00  0.00000000E+00  0.00000000E+00
  0.00000000E+00  0.00000000E+00  0.00000000E+00
  0.00000000E+00  0.00000000E+00  0.00000000E+00
  0.00000000E+00  0.00000000E+00  0.00000000E+00
  0.00000000E+00  0.00000000E+00  0.00000000E+00
  0.00000000E+00  0.00000000E+00  0.00000000E+00
  0.00000000E+00  0.00000000E+00  0.00000000E+00
  0.00000000E+00  0.00000000E+00  0.00000000E+00
  0.00000000E+00  0.00000000E+00  0.00000000E+00
  0.00000000E+00  0.00000000E+00  0.00000000E+00
  0.00000000E+00  0.00000000E+00  0.00000000E+00
  0.00000000E+00  0.00000000E+00  0.00000000E+00
  0.00000000E+00  0.00000000E+00  0.00000000E+00
  0.00000000E+00  0.00000000E+00  0.00000000E+00
  0.00000000E+00  0.00000000E+00  0.00000000E+00
  0.00000000E+00  0.00000000E+00  0.00000000E+00
  0.00000000E+00  0.00000000E+00  0.00000000E+00
  0.00000000E+00  0.00000000E+00  0.00000000E+00
  0.00000000E+00  0.00000000E+00  0.00000000E+00
  0.00000000E+00  0.00000000E+00  0.00000000E+00
  0.00000000E+00  0.00000000E+00  0.00000000E+00
  0.00000000E+00  0.00000000E+00  0.00000000E+00
  0.00000000E+00  0.00000000E+00  0.00000000E+00
  0.00000000E+00  0.00000000E+00  0.00000000E+00
  0.00000000E+00  0.00000000E+00  0.00000000E+00
  0.00000000E+00  0.00000000E+00  0.00000000E+00
  0.00000000E+00  0.00000000E+00  0.00000000E+00
  0.00000000E+00  0.00000000E+00  0.00000000E+00
  0.00000000E+00  0.00000000E+00  0.00000000E+00
  0.00000000E+00  0.00000000E+00  0.00000000E+00
  0.00000000E+00  0.00000000E+00  0.00000000E+00
  0.00000000E+00  0.00000000E+00  0.00000000E+00
  0.00000000E+00  0.00000000E+00  0.00000000E+00
  0.00000000E+00  0.00000000E+00  0.00000000E+00
  0.00000000E+00  0.00000000E+00  0.00000000E+00
  0.00000000E+00  0.00000000E+00  0.00000000E+00
  0.00000000E+00  0.00000000E+00  0.00000000E+00
  0.00000000E+00  0.00000000E+00  0.00000000E+00
  0.00000000E+00  0.00000000E+00  0.00000000E+00
  0.00000000E+00  0.00000000E+00  0.00000000E+00
  0.00000000E+00  0.00000000E+00  0.00000000E+00
  0.00000000E+00  0.00000000E+00  0.00000000E+00
  0.00000000E+00  0.00000000E+00  0.00000000E+00
  0.00000000E+00  0.00000000E+00  0.00000000E+00
  0.00000000E+00  0.00000000E+00  0.00000000E+00
  0.00000000E+00  0.00000000E+00  0.00000000E+00
  0.00000000E+00  0.00000000E+00  0.00000000E+00
  0.00000000E+00  0.00000000E+00  0.00000000E+00
  0.00000000E+00  0.00000000E+00  0.00000000E+00
  0.00000000E+00  0.00000000E+00  0.00000000E+00
  0.00000000E+00  0.00000000E+00  0.00000000E+00
  0.00000000E+00  0.00000000E+00  0.00000000E+00
  0.00000000E+00  0.00000000E+00  0.00000000E+00
  0.00000000E+00  0.00000000E+00  0.00000000E+00
  0.00000000E+00  0.00000000E+00  0.00000000E+00
  0.00000000E+00  0.00000000E+00  0.00000000E+00
  0.00000000E+00  0.00000000E+00  0.00000000E+00
  0.00000000E+00  0.00000000E+00  0.00000000E+00
  0.00000000E+00  0.00000000E+00  0.00000000E+00
  0.00000000E+00  0.00000000E+00  0.00000000E+00
  0.00000000E+00  0.00000000E+00  0.00000000E+00
  0.00000000E+00  0.00000000E+00  0.00000000E+00
  0.00000000E+00  0.00000000E+00  0.00000000E+00
  0.00000000E+00  0.00000000E+00  0.00000000E+00
  0.00000000E+00  0.00000000E+00  0.00000000E+00
  0.00000000E+00  0.00000000E+00  0.00000000E+00
  0.00000000E+00  0.00000000E+00  0.00000000E+00
  0.00000000E+00  0.00000000E+00  0.00000000E+00
  0.00000000E+00  0.00000000E+00  0.00000000E+00
  0.00000000E+00  0.00000000E+00  0.00000000E+00
  0.00000000E+00  0.00000000E+00  0.00000000E+00
  0.00000000E+00  0.00000000E+00  0.00000000E+00
  0.00000000E+00  0.00000000E+00  0.00000000E+00
  0.00000000E+00  0.00000000E+00  0.00000000E+00
  0.00000000E+00  0.00000000E+00  0.00000000E+00
  0.00000000E+00  0.00000000E+00  0.00000000E+00
  0.00000000E+00  0.00000000E+00  0.00000000E+00
  0.00000000E+00  0.00000000E+00  0.00000000E+00
  0.00000000E+00  0.00000000E+00  0.00000000E+00
  0.00000000E+00  0.00000000E+00  0.00000000E+00
  0.00000000E+00  0.00000000E+00  0.00000000E+00
  0.00000000E+00  0.00000000E+00  0.00000000E+00
  0.00000000E+00  0.00000000E+00  0.00000000E+00
  0.00000000E+00  0.00000000E+00  0.00000000E+00
  0.00000000E+00  0.00000000E+00  0.00000000E+00
  0.00000000E+00  0.00000000E+00  0.00000000E+00
  0.00000000E+00  0.00000000E+00  0.00000000E+00
  0.00000000E+00  0.00000000E+00  0.00000000E+00
  0.00000000E+00  0.00000000E+00  0.00000000E+00
  0.00000000E+00  0.00000000E+00  0.00000000E+00
  0.00000000E+00  0.00000000E+00  0.00000000E+00
  0.00000000E+00  0.00000000E+00  0.00000000E+00
  0.00000000E+00  0.00000000E+00  0.00000000E+00
  0.00000000E+00  0.00000000E+00  0.00000000E+00
  0.00000000E+00  0.00000000E+00  0.00000000E+00
  0.00000000E+00  0.00000000E+00  0.00000000E+00
  0.00000000E+00  0.00000000E+00  0.00000000E+00
  0.00000000E+00  0.00000000E+00  0.00000000E+00
  0.00000000E+00  0.00000000E+00  0.00000000E+00
  0.00000000E+00  0.00000000E+00  0.00000000E+00
  0.00000000E+00  0.00000000E+00  0.00000000E+00
  0.00000000E+00  0.00000000E+00  0.00000000E+00
  0.00000000E+00  0.00000000E+00  0.00000000E+00
  0.00000000E+00  0.00000000E+00  0.00000000E+00
  0.00000000E+00  0.00000000E+00  0.00000000E+00
  0.00000000E+00  0.00000000E+00  0.00000000E+00
  0.00000000E+00  0.00000000E+00  0.00000000E+00
  0.00000000E+00  0.00000000E+00  0.00000000E+00
  0.00000000E+00  0.00000000E+00  0.00000000E+00
  0.00000000E+00  0.00000000E+00  0.00000000E+00
  0.00000000E+00  0.00000000E+00  0.00000000E+00
  0.00000000E+00  0.00000000E+00  0.00000000E+00
  0.00000000E+00  0.00000000E+00  0.00000000E+00
  0.00000000E+00  0.00000000E+00  0.00000000E+00
  0.00000000E+00  0.00000000E+00  0.00000000E+00
  0.00000000E+00  0.00000000E+00  0.00000000E+00
