Zr1 C124 N2 O1                          
   1.00000000000000     
    19.8191645047068192   -0.0118221993094110   -0.0321380836050184
    -9.9200159597098665   17.0698576469881793   -0.0757069459952824
    -0.0481636957186632   -0.1596603245028303   29.7543937898437214
   Zr   C    N    O 
     1   124     2     1
Direct
  0.4406891008036711  0.5024428183064389  0.4427632071407083
  0.0419840028515071  0.0840107459987530  0.3994277668464229
  0.0412060737613190  0.2083099619687675  0.3988135294997567
  0.0406245572297904  0.3329722594156334  0.3984828662567007
  0.0406143010227896  0.4583943777938753  0.3988974335579014
  0.0412925066207147  0.5838380610345858  0.3997627653792121
  0.0419493774050554  0.7091984855510589  0.4001252603891549
  0.0423098036612597  0.8344720283109570  0.4000584254373708
  0.0424926089880454  0.9595936381525019  0.3998305876521715
  0.1679721054061829  0.0855404168647527  0.3997594094897969
  0.1670244682446390  0.2096156813559721  0.3992949459613248
  0.1657026839032252  0.3339324647982579  0.3987253419176636
  0.1643021570729080  0.4585263670100132  0.3976831446467683
  0.1651290908108151  0.5838495195564745  0.3983473917393336
  0.1662211820149019  0.7092632542404802  0.3995323957155266
  0.1669365837749714  0.8345965493748536  0.3999630132501455
  0.1674790496319784  0.9599940707155015  0.3998955564846979
  0.2926780365676584  0.0853008567479880  0.3997931204480045
  0.2942739687211093  0.2123648635480355  0.4012241724357847
  0.2915949925012259  0.3364488447121838  0.4045060846455895
  0.2882001430011075  0.4587044093968136  0.4038519525367479
  0.2886580136226231  0.5845664221753906  0.3992238013132904
  0.2904392402936799  0.7093267044803886  0.3988958114747496
  0.2914838000774425  0.8343091835098011  0.3995005499517622
  0.2920260266771676  0.9595818438273160  0.3997182917069899
  0.4171724677910115  0.0837878288443394  0.3995530688305792
  0.4177895434045527  0.2091638875924783  0.3997977779934540
  0.4214019504957722  0.3367500441071989  0.4037590263602920
  0.4147223841686563  0.7078232548878873  0.4002547248319550
  0.4160247189663426  0.8331597880925863  0.3992294131874269
  0.4166135391490747  0.9584554064230875  0.3995994131230297
  0.5417278073236317  0.0825383003437226  0.3997381363049575
  0.5423385698228198  0.2076805776042437  0.3994283113718531
  0.5435548321912083  0.3326069457248546  0.3993736547591058
  0.5446149617243126  0.4557624431172082  0.4014932414446513
  0.5461547208195191  0.5819126502353643  0.4047638004399176
  0.5390178297139323  0.7041530923236065  0.4028275783949517
  0.5404128576541517  0.8313185174078722  0.3999795542497079
  0.5412490024047982  0.9571485262512275  0.3996756740549967
  0.6663234706262251  0.0820623249728326  0.4000020191545078
  0.6668826366129657  0.2073908618249741  0.3998734089280776
  0.6677395250336057  0.3326430188702267  0.3992605188259958
  0.6692522760010714  0.4580048871190575  0.3980500993043770
  0.6694785746283114  0.5828265637896143  0.3975150871900229
  0.6669363850116746  0.7071728946639221  0.3983673928031591
  0.6652250459044734  0.8308523300577401  0.3996005910580276
  0.6658731238361038  0.9566340802678416  0.3999121452819568
  0.7910889253331612  0.0820977567418778  0.4000242646555714
  0.7913857252372626  0.2073213241243895  0.4001122912974132
  0.7920252857393957  0.3327308356791157  0.4000288799385184
  0.7929020541380046  0.4581918549431725  0.3994677680635571
  0.7934160769945579  0.5834878364044984  0.3985427925814164
  0.7926708471850632  0.7083906990962586  0.3983309254946334
  0.7916992681673330  0.8328258153769227  0.3990383442685542
  0.7908380952969574  0.9569729327813538  0.3997355711199257
  0.9162621293366467  0.0827585385100849  0.3997097775042273
  0.9160688865997892  0.2076008402030767  0.3995962323607291
  0.9162345671158818  0.3327992199133687  0.3997502070746735
  0.9167230771270379  0.4582197955334470  0.4000805237926452
  0.9173877328758353  0.5837354625177881  0.4000051937153575
  0.9175361848119032  0.7090615906767405  0.3996493954939526
  0.9172698776473558  0.8338808865460006  0.3996189124576642
  0.9167784462177297  0.9583720857506240  0.3997959627131285
  0.0843317932876551  0.0431989075265994  0.3996145132511933
  0.0834671243208807  0.1673423973233035  0.3989406326610822
  0.0824618338895888  0.2917448713572694  0.3983563881192739
  0.0817067930521747  0.4166165588631621  0.3980829600751304
  0.0822262690744430  0.5419451402787673  0.3989661144748438
  0.0831288244733542  0.6674244137832314  0.3998740726180590
  0.0837669157774829  0.7928478931254979  0.4001018603685123
  0.0841003073438650  0.9180738398409768  0.3999593444372208
  0.2092946432366835  0.0435498294825665  0.3998492716213847
  0.2099214323426310  0.1693526268453530  0.4000840561497826
  0.2081910754047619  0.2930357830288416  0.3999023079363321
  0.2057215839345666  0.4173132083335788  0.3988158332272030
  0.2058784087681926  0.5420924709349381  0.3979255834527137
  0.2073735688876392  0.6675067014472668  0.3988832253229053
  0.2082364549364027  0.7927734788602475  0.3997153350677096
  0.2088444342179361  0.9181129191156648  0.3998799394427011
  0.3338869870734695  0.0430483043039186  0.3996334430715750
  0.3347187191803588  0.1689333599390741  0.4001965610234566
  0.3361553371813125  0.2962109688501037  0.4040902062219606
  0.3282976047955571  0.4181053033711519  0.4103731278614844
  0.3304867535415234  0.5445367083541475  0.4037726469583423
  0.3315278395273442  0.6675448522158232  0.3993235371996391
  0.3327699164634086  0.7924978743955702  0.3991890503904305
  0.3334315777927375  0.9176483360216771  0.3996168880460161
  0.4585515058002573  0.0417461421124347  0.3996502092480334
  0.4590926356412849  0.1670330825946270  0.3994358780667861
  0.4603686560056140  0.2924262838305262  0.4003658600173476
  0.4538134848171767  0.6637707046846306  0.4039183277564174
  0.4573352997681996  0.7910693920397888  0.3995073439319086
  0.4579669485970886  0.9164011877683738  0.3994876653681851
  0.5831404471763895  0.0406083336239330  0.3998308525144487
  0.5836420640175333  0.1658694937591999  0.3996721916206452
  0.5846635215096858  0.2908317100153966  0.3991922443564131
  0.5864868214651137  0.4155292675158936  0.3988044701930852
  0.5868236062973367  0.5415042201299592  0.4003465892318567
  0.5834613667433202  0.6638000749132712  0.4015473854808908
  0.5808817703972875  0.7879269266703028  0.4005705324565089
  0.5824704813457533  0.9149261560131950  0.3998017450401781
  0.7077013070134739  0.0401799019501043  0.4000187611879283
  0.7082058577985282  0.1655656368939109  0.4000678670483461
  0.7089149258200439  0.2908878354113456  0.3997871788061448
  0.7099988794498232  0.4162788585622321  0.3988391916565430
  0.7108528850260030  0.5415709972439731  0.3976613051017227
  0.7094133353744969  0.6662026004234460  0.3976846982477621
  0.7081262043581292  0.7905732069006588  0.3987857457909020
  0.7071900052663038  0.9146481509519636  0.3997206483870205
  0.8327016741680242  0.0405807060615755  0.3998918889508341
  0.8328575087013119  0.1656984119518702  0.3999996957260677
  0.8332190642624631  0.2909613259871819  0.4000829162876564
  0.8338543895911857  0.4163130549532913  0.4000097007814993
  0.8345157019527834  0.5417337676083248  0.3994341847577287
  0.8344938988229448  0.6671540615088333  0.3988272738013229
  0.8339396958182389  0.7918331683968756  0.3989935605257851
  0.8332080615555656  0.9161711301869945  0.3996190887083264
  0.9584373901412132  0.0418217868668880  0.3996955765142715
  0.9578961628665286  0.1662781354403998  0.3993665462872223
  0.9576074291188243  0.2910855861337328  0.3992851386381799
  0.9577582857982823  0.4164149663133056  0.3996894109207252
  0.9584432093683174  0.5419491051286783  0.4000972134774027
  0.9589259847460033  0.6673584801809995  0.4000129446700739
  0.9590862714235977  0.7925536237549721  0.3998345679569004
  0.9589326959002785  0.9174142384279194  0.3998131786801449
  0.4092417847593545  0.5843580298451208  0.4083859998054004
  0.4660206220537673  0.4165337050059661  0.4061693979968178
  0.4494166829845713  0.5092702764717703  0.5030806187030686
 
  0.00000000E+00  0.00000000E+00  0.00000000E+00
  0.00000000E+00  0.00000000E+00  0.00000000E+00
  0.00000000E+00  0.00000000E+00  0.00000000E+00
  0.00000000E+00  0.00000000E+00  0.00000000E+00
  0.00000000E+00  0.00000000E+00  0.00000000E+00
  0.00000000E+00  0.00000000E+00  0.00000000E+00
  0.00000000E+00  0.00000000E+00  0.00000000E+00
  0.00000000E+00  0.00000000E+00  0.00000000E+00
  0.00000000E+00  0.00000000E+00  0.00000000E+00
  0.00000000E+00  0.00000000E+00  0.00000000E+00
  0.00000000E+00  0.00000000E+00  0.00000000E+00
  0.00000000E+00  0.00000000E+00  0.00000000E+00
  0.00000000E+00  0.00000000E+00  0.00000000E+00
  0.00000000E+00  0.00000000E+00  0.00000000E+00
  0.00000000E+00  0.00000000E+00  0.00000000E+00
  0.00000000E+00  0.00000000E+00  0.00000000E+00
  0.00000000E+00  0.00000000E+00  0.00000000E+00
  0.00000000E+00  0.00000000E+00  0.00000000E+00
  0.00000000E+00  0.00000000E+00  0.00000000E+00
  0.00000000E+00  0.00000000E+00  0.00000000E+00
  0.00000000E+00  0.00000000E+00  0.00000000E+00
  0.00000000E+00  0.00000000E+00  0.00000000E+00
  0.00000000E+00  0.00000000E+00  0.00000000E+00
  0.00000000E+00  0.00000000E+00  0.00000000E+00
  0.00000000E+00  0.00000000E+00  0.00000000E+00
  0.00000000E+00  0.00000000E+00  0.00000000E+00
  0.00000000E+00  0.00000000E+00  0.00000000E+00
  0.00000000E+00  0.00000000E+00  0.00000000E+00
  0.00000000E+00  0.00000000E+00  0.00000000E+00
  0.00000000E+00  0.00000000E+00  0.00000000E+00
  0.00000000E+00  0.00000000E+00  0.00000000E+00
  0.00000000E+00  0.00000000E+00  0.00000000E+00
  0.00000000E+00  0.00000000E+00  0.00000000E+00
  0.00000000E+00  0.00000000E+00  0.00000000E+00
  0.00000000E+00  0.00000000E+00  0.00000000E+00
  0.00000000E+00  0.00000000E+00  0.00000000E+00
  0.00000000E+00  0.00000000E+00  0.00000000E+00
  0.00000000E+00  0.00000000E+00  0.00000000E+00
  0.00000000E+00  0.00000000E+00  0.00000000E+00
  0.00000000E+00  0.00000000E+00  0.00000000E+00
  0.00000000E+00  0.00000000E+00  0.00000000E+00
  0.00000000E+00  0.00000000E+00  0.00000000E+00
  0.00000000E+00  0.00000000E+00  0.00000000E+00
  0.00000000E+00  0.00000000E+00  0.00000000E+00
  0.00000000E+00  0.00000000E+00  0.00000000E+00
  0.00000000E+00  0.00000000E+00  0.00000000E+00
  0.00000000E+00  0.00000000E+00  0.00000000E+00
  0.00000000E+00  0.00000000E+00  0.00000000E+00
  0.00000000E+00  0.00000000E+00  0.00000000E+00
  0.00000000E+00  0.00000000E+00  0.00000000E+00
  0.00000000E+00  0.00000000E+00  0.00000000E+00
  0.00000000E+00  0.00000000E+00  0.00000000E+00
  0.00000000E+00  0.00000000E+00  0.00000000E+00
  0.00000000E+00  0.00000000E+00  0.00000000E+00
  0.00000000E+00  0.00000000E+00  0.00000000E+00
  0.00000000E+00  0.00000000E+00  0.00000000E+00
  0.00000000E+00  0.00000000E+00  0.00000000E+00
  0.00000000E+00  0.00000000E+00  0.00000000E+00
  0.00000000E+00  0.00000000E+00  0.00000000E+00
  0.00000000E+00  0.00000000E+00  0.00000000E+00
  0.00000000E+00  0.00000000E+00  0.00000000E+00
  0.00000000E+00  0.00000000E+00  0.00000000E+00
  0.00000000E+00  0.00000000E+00  0.00000000E+00
  0.00000000E+00  0.00000000E+00  0.00000000E+00
  0.00000000E+00  0.00000000E+00  0.00000000E+00
  0.00000000E+00  0.00000000E+00  0.00000000E+00
  0.00000000E+00  0.00000000E+00  0.00000000E+00
  0.00000000E+00  0.00000000E+00  0.00000000E+00
  0.00000000E+00  0.00000000E+00  0.00000000E+00
  0.00000000E+00  0.00000000E+00  0.00000000E+00
  0.00000000E+00  0.00000000E+00  0.00000000E+00
  0.00000000E+00  0.00000000E+00  0.00000000E+00
  0.00000000E+00  0.00000000E+00  0.00000000E+00
  0.00000000E+00  0.00000000E+00  0.00000000E+00
  0.00000000E+00  0.00000000E+00  0.00000000E+00
  0.00000000E+00  0.00000000E+00  0.00000000E+00
  0.00000000E+00  0.00000000E+00  0.00000000E+00
  0.00000000E+00  0.00000000E+00  0.00000000E+00
  0.00000000E+00  0.00000000E+00  0.00000000E+00
  0.00000000E+00  0.00000000E+00  0.00000000E+00
  0.00000000E+00  0.00000000E+00  0.00000000E+00
  0.00000000E+00  0.00000000E+00  0.00000000E+00
  0.00000000E+00  0.00000000E+00  0.00000000E+00
  0.00000000E+00  0.00000000E+00  0.00000000E+00
  0.00000000E+00  0.00000000E+00  0.00000000E+00
  0.00000000E+00  0.00000000E+00  0.00000000E+00
  0.00000000E+00  0.00000000E+00  0.00000000E+00
  0.00000000E+00  0.00000000E+00  0.00000000E+00
  0.00000000E+00  0.00000000E+00  0.00000000E+00
  0.00000000E+00  0.00000000E+00  0.00000000E+00
  0.00000000E+00  0.00000000E+00  0.00000000E+00
  0.00000000E+00  0.00000000E+00  0.00000000E+00
  0.00000000E+00  0.00000000E+00  0.00000000E+00
  0.00000000E+00  0.00000000E+00  0.00000000E+00
  0.00000000E+00  0.00000000E+00  0.00000000E+00
  0.00000000E+00  0.00000000E+00  0.00000000E+00
  0.00000000E+00  0.00000000E+00  0.00000000E+00
  0.00000000E+00  0.00000000E+00  0.00000000E+00
  0.00000000E+00  0.00000000E+00  0.00000000E+00
  0.00000000E+00  0.00000000E+00  0.00000000E+00
  0.00000000E+00  0.00000000E+00  0.00000000E+00
  0.00000000E+00  0.00000000E+00  0.00000000E+00
  0.00000000E+00  0.00000000E+00  0.00000000E+00
  0.00000000E+00  0.00000000E+00  0.00000000E+00
  0.00000000E+00  0.00000000E+00  0.00000000E+00
  0.00000000E+00  0.00000000E+00  0.00000000E+00
  0.00000000E+00  0.00000000E+00  0.00000000E+00
  0.00000000E+00  0.00000000E+00  0.00000000E+00
  0.00000000E+00  0.00000000E+00  0.00000000E+00
  0.00000000E+00  0.00000000E+00  0.00000000E+00
  0.00000000E+00  0.00000000E+00  0.00000000E+00
  0.00000000E+00  0.00000000E+00  0.00000000E+00
  0.00000000E+00  0.00000000E+00  0.00000000E+00
  0.00000000E+00  0.00000000E+00  0.00000000E+00
  0.00000000E+00  0.00000000E+00  0.00000000E+00
  0.00000000E+00  0.00000000E+00  0.00000000E+00
  0.00000000E+00  0.00000000E+00  0.00000000E+00
  0.00000000E+00  0.00000000E+00  0.00000000E+00
  0.00000000E+00  0.00000000E+00  0.00000000E+00
  0.00000000E+00  0.00000000E+00  0.00000000E+00
  0.00000000E+00  0.00000000E+00  0.00000000E+00
  0.00000000E+00  0.00000000E+00  0.00000000E+00
  0.00000000E+00  0.00000000E+00  0.00000000E+00
  0.00000000E+00  0.00000000E+00  0.00000000E+00
  0.00000000E+00  0.00000000E+00  0.00000000E+00
  0.00000000E+00  0.00000000E+00  0.00000000E+00
  0.00000000E+00  0.00000000E+00  0.00000000E+00
  0.00000000E+00  0.00000000E+00  0.00000000E+00
