Ni1 H1 C124 N2 O1                       
   1.00000000000000     
    19.8001747536759289   -0.0154941353911078    0.0556975711794482
    -9.9137198901034704   17.0383772233442485    0.0636475969750909
     0.0828512695324007    0.1597437898014483   29.8413530471577140
   Ni   H    C    N    O 
     1     1   124     2     1
Direct
  0.4374747692569880  0.4992607270479370  0.4167356992667905
  0.4771942044148957  0.5599431228790942  0.4899768377238973
  0.0422082451794078  0.0842271938868858  0.4006023573830914
  0.0415297393407777  0.2084736833047383  0.4001429883346709
  0.0408512151318611  0.3329727222573512  0.3999185519757942
  0.0406143686469159  0.4582272868726248  0.4000683869601574
  0.0411501387543775  0.5836021867625727  0.3997082547007525
  0.0416911840024107  0.7089346274335381  0.3991265978434299
  0.0419883700414344  0.8342066664523905  0.3995156774448354
  0.0422701486787280  0.9594628466711858  0.4004071870177076
  0.1680273869581653  0.0856727162073008  0.4012914989466264
  0.1680645508483004  0.2106385816189336  0.4008943628394112
  0.1663238954781669  0.3342305733317371  0.3999983073708325
  0.1645463894235382  0.4585513932647934  0.4002060790727370
  0.1651792967620146  0.5836479651368461  0.4005294312910188
  0.1660820218706785  0.7089613603945568  0.4000931058525758
  0.1667283456251401  0.8343326880212927  0.3996947826026432
  0.1672839957772655  0.9598510561445703  0.4005598179658065
  0.2925750148640139  0.0853596608509408  0.4014800246168125
  0.2944018712210759  0.2126720652598589  0.4024077400696178
  0.2943587764525991  0.3387330045621560  0.4021442201193679
  0.2888992568232698  0.4596146286423493  0.4009555915098406
  0.2890006871461532  0.5841717091994958  0.4014954354638053
  0.2903589807961183  0.7088186388143828  0.4011482250358565
  0.2913368045961858  0.8339466969236224  0.4002617260715519
  0.2918752156686520  0.9594253157288516  0.4003468771387398
  0.4169903851588720  0.0839349017261113  0.4007568864621602
  0.4177007122416532  0.2100104664318789  0.4021550787368731
  0.4210771945010568  0.3385569086864157  0.4043372044059725
  0.4144055699081340  0.7059248816917139  0.4028931099283655
  0.4158260765583685  0.8322707812239606  0.4013073338339075
  0.4164415601833442  0.9580992376294165  0.4003792319347401
  0.5414770490126076  0.0823595626627872  0.4001858923301762
  0.5420881084472323  0.2077254470555031  0.4007670706859273
  0.5432020870659326  0.3327489124313616  0.4023388373214250
  0.5442102816929851  0.4562611357009296  0.4038841097496678
  0.5428685113012128  0.5782495481653435  0.4046984358129009
  0.5378578106134082  0.7025490431206195  0.4043978469637018
  0.5400148660620355  0.8304530949771135  0.4024885191225176
  0.5409933002607578  0.9566923785072932  0.4008580497117470
  0.6661147624556741  0.0818259026255509  0.4000020608698027
  0.6666522226331277  0.2072790725233206  0.3996214909188032
  0.6673818487604398  0.3325161960922880  0.4002745267931913
  0.6685743288956985  0.4577999376738727  0.4012213309332451
  0.6686554291812965  0.5823381110398547  0.4016009395218818
  0.6650233911056028  0.7052276272279007  0.4021736164693339
  0.6644419278457335  0.8300004043719846  0.4022340388640204
  0.6655302091936507  0.9561763778645676  0.4011854235103412
  0.7909204948167068  0.0818768164317161  0.4002016649125757
  0.7913118032194824  0.2072430210772414  0.3994843580277946
  0.7917719196950106  0.3325995102518730  0.3991521176351955
  0.7924465493062166  0.4579900604161136  0.3994031416589141
  0.7929129341947340  0.5832311259600920  0.3999888376045244
  0.7919393674367390  0.7079038090602667  0.4005044245818985
  0.7906644444933980  0.8318665163664235  0.4008450645625970
  0.7904570609099540  0.9565351090063789  0.4007318942305174
  0.9161669236555530  0.0826005292319487  0.4002255836660296
  0.9161196742968934  0.2075171727186185  0.3999328212929215
  0.9162024603427460  0.3326974721578936  0.3995745941956758
  0.9165136781709534  0.4580575068503738  0.3992237859327747
  0.9170569659398005  0.5835000494405228  0.3989893613236977
  0.9170743739823302  0.7087283330922406  0.3992363031293990
  0.9168040773511837  0.8335618741537011  0.3998863097760195
  0.9164076277367467  0.9580661685255473  0.4002796720568343
  0.0843446084040591  0.0432141101353502  0.4008305656802091
  0.0841501828989338  0.1678914525798198  0.4005306494789327
  0.0829113076850802  0.2918679404771524  0.3999001029761506
  0.0818610563295073  0.4165465866803588  0.4000803601731969
  0.0822163912681011  0.5417640256996571  0.4001773635615002
  0.0829361369740140  0.6671545456504302  0.3996051266306640
  0.0835208422369761  0.7925651707121539  0.3993419161515329
  0.0838649351635570  0.9178754403012478  0.4001802999796999
  0.2092151227424942  0.0435439861978212  0.4012310169634623
  0.2102983499810419  0.1696983956720152  0.4015287033218614
  0.2098650686402150  0.2945081846638158  0.4007244823954729
  0.2062091243046195  0.4174221777729018  0.4000475906229352
  0.2060576661368461  0.5419131664503961  0.4006076931097140
  0.2072729550674927  0.6672015170241502  0.4006407537294306
  0.2080735105153255  0.7924793086729598  0.3999525985253110
  0.2086586684554420  0.9179265655321758  0.4001630351316677
  0.3337313490465919  0.0430264320290375  0.4008703535966522
  0.3346427588291636  0.1692132823492779  0.4021853083597373
  0.3367848656576841  0.2970451944713999  0.4033578961073975
  0.3326334209575110  0.4217562848113574  0.4026541795539470
  0.3303317653330867  0.5433808034957626  0.4023249886444721
  0.3314422388773677  0.6669338234475577  0.4019612993168324
  0.3326083699189101  0.7919842126798216  0.4008951529326818
  0.3332592894536462  0.9173680477674612  0.4002191078290252
  0.4582740961383242  0.0416028252262875  0.4003808804773036
  0.4588696839597355  0.1674421831308657  0.4012203605088590
  0.4602163771196996  0.2937352403245885  0.4029997234408962
  0.4534203150697633  0.6609301604181219  0.4045275143051723
  0.4569725212733087  0.7896798836179965  0.4022708031799506
  0.4577416461259139  0.9157791326136493  0.4008200998805749
  0.5828723446101569  0.0403125811902267  0.4002593350173758
  0.5833862149149154  0.1657787037170927  0.4000877527610538
  0.5842952980300603  0.2908761590980852  0.4011149960295278
  0.5856101016366095  0.4155001887005532  0.4025122340389414
  0.5860027307198343  0.5400299478376908  0.4030697339377659
  0.5804769199065047  0.6610274565763576  0.4038055761820787
  0.5802587778175505  0.7869729156287838  0.4031926527934278
  0.5821404918228019  0.9143374934295413  0.4015309594194219
  0.7074967098983697  0.0398739378800618  0.4004133831953862
  0.7080607713382603  0.1654717617959969  0.3995603936052793
  0.7086230640982889  0.2907903930824424  0.3995372663396348
  0.7094636655988342  0.4160654716372569  0.4002407057656108
  0.7102148375144309  0.5411772283404258  0.4009416556740101
  0.7085506242293549  0.6654986839172542  0.4013966781418828
  0.7067218917198681  0.7890894537346699  0.4017580939865008
  0.7067224704527876  0.9140494436498117  0.4014193331558133
  0.8325276416027343  0.0403030750585444  0.4003606267289304
  0.8327982197252096  0.1655363794856279  0.3998442523162037
  0.8331040110535095  0.2908824970668128  0.3992700444004618
  0.8335467903028323  0.4161731974266524  0.3990834012475921
  0.8341207215100501  0.5415321122299213  0.3993425685546378
  0.8339699681806576  0.6668068506379748  0.3998414494651789
  0.8333005181364032  0.7913053581694562  0.4003465895036038
  0.8326166294595920  0.9155299031424988  0.4005519976271642
  0.9584122870608622  0.0417180149104516  0.4003354380195672
  0.9580135851083409  0.1662294478409100  0.4001123419960833
  0.9577243869464719  0.2910551084977704  0.3998559223924583
  0.9576743604988530  0.4162771237166085  0.3996232225502951
  0.9582089138081058  0.5417055725786465  0.3992123617870895
  0.9585658917106221  0.6670705104016905  0.3989598318447010
  0.9586757045701265  0.7922588113343452  0.3994486354180466
  0.9586495464130420  0.9171690425636529  0.4001346226467788
  0.4097094896990053  0.5799110894069771  0.4050465699776576
  0.4647003662344477  0.4194430231411218  0.4053250850962161
  0.4611635667197193  0.5078318597276547  0.4783656277319112
 
  0.00000000E+00  0.00000000E+00  0.00000000E+00
  0.00000000E+00  0.00000000E+00  0.00000000E+00
  0.00000000E+00  0.00000000E+00  0.00000000E+00
  0.00000000E+00  0.00000000E+00  0.00000000E+00
  0.00000000E+00  0.00000000E+00  0.00000000E+00
  0.00000000E+00  0.00000000E+00  0.00000000E+00
  0.00000000E+00  0.00000000E+00  0.00000000E+00
  0.00000000E+00  0.00000000E+00  0.00000000E+00
  0.00000000E+00  0.00000000E+00  0.00000000E+00
  0.00000000E+00  0.00000000E+00  0.00000000E+00
  0.00000000E+00  0.00000000E+00  0.00000000E+00
  0.00000000E+00  0.00000000E+00  0.00000000E+00
  0.00000000E+00  0.00000000E+00  0.00000000E+00
  0.00000000E+00  0.00000000E+00  0.00000000E+00
  0.00000000E+00  0.00000000E+00  0.00000000E+00
  0.00000000E+00  0.00000000E+00  0.00000000E+00
  0.00000000E+00  0.00000000E+00  0.00000000E+00
  0.00000000E+00  0.00000000E+00  0.00000000E+00
  0.00000000E+00  0.00000000E+00  0.00000000E+00
  0.00000000E+00  0.00000000E+00  0.00000000E+00
  0.00000000E+00  0.00000000E+00  0.00000000E+00
  0.00000000E+00  0.00000000E+00  0.00000000E+00
  0.00000000E+00  0.00000000E+00  0.00000000E+00
  0.00000000E+00  0.00000000E+00  0.00000000E+00
  0.00000000E+00  0.00000000E+00  0.00000000E+00
  0.00000000E+00  0.00000000E+00  0.00000000E+00
  0.00000000E+00  0.00000000E+00  0.00000000E+00
  0.00000000E+00  0.00000000E+00  0.00000000E+00
  0.00000000E+00  0.00000000E+00  0.00000000E+00
  0.00000000E+00  0.00000000E+00  0.00000000E+00
  0.00000000E+00  0.00000000E+00  0.00000000E+00
  0.00000000E+00  0.00000000E+00  0.00000000E+00
  0.00000000E+00  0.00000000E+00  0.00000000E+00
  0.00000000E+00  0.00000000E+00  0.00000000E+00
  0.00000000E+00  0.00000000E+00  0.00000000E+00
  0.00000000E+00  0.00000000E+00  0.00000000E+00
  0.00000000E+00  0.00000000E+00  0.00000000E+00
  0.00000000E+00  0.00000000E+00  0.00000000E+00
  0.00000000E+00  0.00000000E+00  0.00000000E+00
  0.00000000E+00  0.00000000E+00  0.00000000E+00
  0.00000000E+00  0.00000000E+00  0.00000000E+00
  0.00000000E+00  0.00000000E+00  0.00000000E+00
  0.00000000E+00  0.00000000E+00  0.00000000E+00
  0.00000000E+00  0.00000000E+00  0.00000000E+00
  0.00000000E+00  0.00000000E+00  0.00000000E+00
  0.00000000E+00  0.00000000E+00  0.00000000E+00
  0.00000000E+00  0.00000000E+00  0.00000000E+00
  0.00000000E+00  0.00000000E+00  0.00000000E+00
  0.00000000E+00  0.00000000E+00  0.00000000E+00
  0.00000000E+00  0.00000000E+00  0.00000000E+00
  0.00000000E+00  0.00000000E+00  0.00000000E+00
  0.00000000E+00  0.00000000E+00  0.00000000E+00
  0.00000000E+00  0.00000000E+00  0.00000000E+00
  0.00000000E+00  0.00000000E+00  0.00000000E+00
  0.00000000E+00  0.00000000E+00  0.00000000E+00
  0.00000000E+00  0.00000000E+00  0.00000000E+00
  0.00000000E+00  0.00000000E+00  0.00000000E+00
  0.00000000E+00  0.00000000E+00  0.00000000E+00
  0.00000000E+00  0.00000000E+00  0.00000000E+00
  0.00000000E+00  0.00000000E+00  0.00000000E+00
  0.00000000E+00  0.00000000E+00  0.00000000E+00
  0.00000000E+00  0.00000000E+00  0.00000000E+00
  0.00000000E+00  0.00000000E+00  0.00000000E+00
  0.00000000E+00  0.00000000E+00  0.00000000E+00
  0.00000000E+00  0.00000000E+00  0.00000000E+00
  0.00000000E+00  0.00000000E+00  0.00000000E+00
  0.00000000E+00  0.00000000E+00  0.00000000E+00
  0.00000000E+00  0.00000000E+00  0.00000000E+00
  0.00000000E+00  0.00000000E+00  0.00000000E+00
  0.00000000E+00  0.00000000E+00  0.00000000E+00
  0.00000000E+00  0.00000000E+00  0.00000000E+00
  0.00000000E+00  0.00000000E+00  0.00000000E+00
  0.00000000E+00  0.00000000E+00  0.00000000E+00
  0.00000000E+00  0.00000000E+00  0.00000000E+00
  0.00000000E+00  0.00000000E+00  0.00000000E+00
  0.00000000E+00  0.00000000E+00  0.00000000E+00
  0.00000000E+00  0.00000000E+00  0.00000000E+00
  0.00000000E+00  0.00000000E+00  0.00000000E+00
  0.00000000E+00  0.00000000E+00  0.00000000E+00
  0.00000000E+00  0.00000000E+00  0.00000000E+00
  0.00000000E+00  0.00000000E+00  0.00000000E+00
  0.00000000E+00  0.00000000E+00  0.00000000E+00
  0.00000000E+00  0.00000000E+00  0.00000000E+00
  0.00000000E+00  0.00000000E+00  0.00000000E+00
  0.00000000E+00  0.00000000E+00  0.00000000E+00
  0.00000000E+00  0.00000000E+00  0.00000000E+00
  0.00000000E+00  0.00000000E+00  0.00000000E+00
  0.00000000E+00  0.00000000E+00  0.00000000E+00
  0.00000000E+00  0.00000000E+00  0.00000000E+00
  0.00000000E+00  0.00000000E+00  0.00000000E+00
  0.00000000E+00  0.00000000E+00  0.00000000E+00
  0.00000000E+00  0.00000000E+00  0.00000000E+00
  0.00000000E+00  0.00000000E+00  0.00000000E+00
  0.00000000E+00  0.00000000E+00  0.00000000E+00
  0.00000000E+00  0.00000000E+00  0.00000000E+00
  0.00000000E+00  0.00000000E+00  0.00000000E+00
  0.00000000E+00  0.00000000E+00  0.00000000E+00
  0.00000000E+00  0.00000000E+00  0.00000000E+00
  0.00000000E+00  0.00000000E+00  0.00000000E+00
  0.00000000E+00  0.00000000E+00  0.00000000E+00
  0.00000000E+00  0.00000000E+00  0.00000000E+00
  0.00000000E+00  0.00000000E+00  0.00000000E+00
  0.00000000E+00  0.00000000E+00  0.00000000E+00
  0.00000000E+00  0.00000000E+00  0.00000000E+00
  0.00000000E+00  0.00000000E+00  0.00000000E+00
  0.00000000E+00  0.00000000E+00  0.00000000E+00
  0.00000000E+00  0.00000000E+00  0.00000000E+00
  0.00000000E+00  0.00000000E+00  0.00000000E+00
  0.00000000E+00  0.00000000E+00  0.00000000E+00
  0.00000000E+00  0.00000000E+00  0.00000000E+00
  0.00000000E+00  0.00000000E+00  0.00000000E+00
  0.00000000E+00  0.00000000E+00  0.00000000E+00
  0.00000000E+00  0.00000000E+00  0.00000000E+00
  0.00000000E+00  0.00000000E+00  0.00000000E+00
  0.00000000E+00  0.00000000E+00  0.00000000E+00
  0.00000000E+00  0.00000000E+00  0.00000000E+00
  0.00000000E+00  0.00000000E+00  0.00000000E+00
  0.00000000E+00  0.00000000E+00  0.00000000E+00
  0.00000000E+00  0.00000000E+00  0.00000000E+00
  0.00000000E+00  0.00000000E+00  0.00000000E+00
  0.00000000E+00  0.00000000E+00  0.00000000E+00
  0.00000000E+00  0.00000000E+00  0.00000000E+00
  0.00000000E+00  0.00000000E+00  0.00000000E+00
  0.00000000E+00  0.00000000E+00  0.00000000E+00
  0.00000000E+00  0.00000000E+00  0.00000000E+00
  0.00000000E+00  0.00000000E+00  0.00000000E+00
  0.00000000E+00  0.00000000E+00  0.00000000E+00
  0.00000000E+00  0.00000000E+00  0.00000000E+00
  0.00000000E+00  0.00000000E+00  0.00000000E+00
