W1 C123 N3                              
   1.00000000000000     
    19.8316510953439717    0.0228740780037038    0.0051864345130707
    -9.8959789096729853   17.0379222836689124   -0.0060585837616765
     0.0079052975321787   -0.0061515512227750   29.7601959476139086
   W    C    N 
     1   123     3
Direct
  0.4374639312444910  0.4997620983621994  0.4295148819057278
  0.0415055294991045  0.0835687647943517  0.3994728562057495
  0.0403352567757116  0.2076500618637571  0.3995069840100124
  0.0396275897302444  0.3326472623270308  0.3992906904416318
  0.0400904540790513  0.4580755084848744  0.3992292910569705
  0.0413883331262124  0.5836827925664960  0.3997530358760666
  0.0423891347033105  0.7091730877420892  0.4000355729607470
  0.0426238256834955  0.8343527756163822  0.4000410012215585
  0.0423511965028311  0.9592772619177200  0.3997854169187106
  0.1674205327074267  0.0848787740287875  0.3998828413204269
  0.1662432849582486  0.2090531836039841  0.3997076373437447
  0.1638006061888338  0.3327438593912490  0.4001928440962182
  0.1633775977492853  0.4580571411042284  0.3984358809606715
  0.1649851361632018  0.5835267684928958  0.3988630039246419
  0.1665224604803514  0.7088445285661719  0.3996955350109350
  0.1672155181783786  0.8342428969894726  0.4000800690569488
  0.1674396333812242  0.9596946940420206  0.4000258274980805
  0.2923830667697123  0.0853870202237512  0.3998789984294970
  0.2926481574722665  0.2119359089480126  0.4008397268823264
  0.2898250636470254  0.3359931464716391  0.4044507836587918
  0.2855868348130555  0.4568518168190771  0.4028946098578343
  0.2880158959390630  0.5824894335534558  0.3989768929107300
  0.2908237871759659  0.7081462788156329  0.3990944089404045
  0.2917656959149659  0.8337671620609942  0.3996941042772499
  0.2921311885479565  0.9593601856781350  0.3999183834658582
  0.4169226647778948  0.0840510490880219  0.3997280067919676
  0.4174552674914422  0.2101130859657845  0.3996697409291590
  0.4190408470889647  0.3375630657688763  0.4019500150045789
  0.4151199612635186  0.7060011422454273  0.3997962109359303
  0.4162598286252367  0.8322370081846855  0.3995171969720741
  0.4166823264662939  0.9581939438709709  0.3997670665905923
  0.5414488494863438  0.0826810737612901  0.3998538835201566
  0.5419500807793830  0.2084355648963869  0.3994387657593226
  0.5430977783163431  0.3342338804272749  0.3990999237471898
  0.5475946442332565  0.4602026436729345  0.4017876831978140
  0.5392695354896028  0.7023440119679970  0.4030912823053180
  0.5407516796843332  0.8304536177638283  0.4001572082618260
  0.5411728998381403  0.9568863287233512  0.3998388785790720
  0.6660177353306939  0.0821306014023612  0.4000536236728980
  0.6663946337908322  0.2075883904442752  0.3998707407639484
  0.6674031015084855  0.3330916370771809  0.3992415699298819
  0.6700656568423042  0.4589063555753119  0.3987225572427732
  0.6719545018625460  0.5847364874882203  0.3998917373004862
  0.6683014302656104  0.7076806830434210  0.4006535837133923
  0.6652784301510819  0.8308705420877257  0.4002288361611489
  0.6656997878255169  0.9566070434778481  0.4000027055347042
  0.7906787465469012  0.0820603894358047  0.4000123107671650
  0.7908874839614159  0.2073650577058959  0.4001087405497021
  0.7915768603275738  0.3328020790136599  0.3998758931790376
  0.7930620745839142  0.4583703465666070  0.3992925533358525
  0.7944661567758898  0.5840520140838117  0.3987702759408742
  0.7941840150207290  0.7094141591862682  0.3993660551027113
  0.7919926042737893  0.8331030645430443  0.3992894944177077
  0.7907444677332266  0.9570583788404923  0.3996820060771687
  0.9157406644797436  0.0825012792735465  0.3996501485282844
  0.9154236647917566  0.2073215691923506  0.3998280473174366
  0.9156112699187593  0.3326449502714374  0.3998220839155388
  0.9165755434971069  0.4582340467730064  0.3998440092274829
  0.9178467727084360  0.5838639607448604  0.3997106018202913
  0.9182429510870426  0.7092122026895032  0.3996051660389144
  0.9178507895885065  0.8342537836317576  0.3995779684427721
  0.9167005868388967  0.9583364932561801  0.3995183486319629
  0.0839536264828337  0.0427253297432613  0.3996815552846745
  0.0828348206623072  0.1669293514542891  0.3993810563244276
  0.0812780051829543  0.2910002374025965  0.3995428591254263
  0.0807993436400187  0.4159840497768996  0.3987957412287788
  0.0821226096180837  0.5416441210346294  0.3992778904999443
  0.0834570597149093  0.6671954454108018  0.3998900409390550
  0.0840680160761929  0.7925871163485381  0.4001325177975255
  0.0842151805209962  0.9178569280061026  0.3999982563688834
  0.2090297406855527  0.0432119633713970  0.3999681698170190
  0.2090445890336775  0.1686078365792831  0.4001445202019974
  0.2068564282838365  0.2924184888532524  0.4007947559410855
  0.2040743799193188  0.4161106177962265  0.3997494070892668
  0.2052612203201427  0.5411689433211966  0.3984788818285142
  0.2074728966820135  0.6668380791555606  0.3991987711830370
  0.2085770104004476  0.7923832416623064  0.3998664468987059
  0.2089459489507634  0.9178059757477304  0.4000309873076525
  0.3337704383169947  0.0430523633022972  0.3998265633115338
  0.3340391687418593  0.1692554196709701  0.4000428159011918
  0.3342592794631261  0.2962398313094835  0.4028257902680728
  0.3281525739638448  0.5407574664839043  0.4010360616297058
  0.3315854945716827  0.6659559924144255  0.3990672997843591
  0.3330969165400225  0.7916345983461973  0.3994118783117639
  0.3335072483133166  0.9172573214761591  0.3998179900786035
  0.4583095968782881  0.0417461570462924  0.3997834155087482
  0.4586657922389963  0.1676548621250900  0.3995498793977662
  0.4595366465202554  0.2938104206022825  0.3997511690404518
  0.4651433908625089  0.4202209544645202  0.4039937102428159
  0.4545538031082573  0.6616325825755857  0.4020244587590552
  0.4574785578933181  0.7896513118508374  0.3997005801566593
  0.4580351185747973  0.9159055914560542  0.3997045740500854
  0.5828268305722907  0.0405641172097382  0.3999473626558834
  0.5832429893593528  0.1662429047147647  0.3997288763370830
  0.5840654224524349  0.2918419687866693  0.3991040878700174
  0.5873615379202101  0.4177770424758924  0.3993467491979491
  0.5911057306285142  0.5443577725394153  0.4034544066866792
  0.5851470207599888  0.6635214604827672  0.4045695419189639
  0.5814191531449138  0.7873504095625401  0.4010544271737841
  0.5825117864028994  0.9145036985201663  0.3999187663077350
  0.7074319486668649  0.0402334268157082  0.4000449900182560
  0.7077618262015004  0.1656817085066621  0.4000825157923317
  0.7084325477733694  0.2911066009113326  0.3997040825506906
  0.7102539825741102  0.4165499930460603  0.3989406896002047
  0.7121265212184116  0.5421059508956220  0.3985566389486854
  0.7117120268747249  0.6678467048166847  0.4000502453315420
  0.7086231320860209  0.7909455081343302  0.3996461872528864
  0.7071327085554795  0.9147339554587988  0.3999170830472097
  0.8324411997297482  0.0406074375896317  0.3998006443981649
  0.8323665021498499  0.1656078224216465  0.4000434523885521
  0.8326452108120640  0.2908074375983062  0.4000103977022828
  0.8337426719071409  0.4162628893801382  0.3997483004488272
  0.8351431217975522  0.5419322220480426  0.3992289898257521
  0.8356023017454114  0.6675308635336908  0.3991903938120863
  0.8347714170824564  0.7925608891098718  0.3993693239185336
  0.8333224891443713  0.9164416282988105  0.3994428571456298
  0.9581695369407294  0.0416738408012954  0.3995356991949104
  0.9571857873905741  0.1658434597370082  0.3996412714483601
  0.9568730304541588  0.2908292685840169  0.3996603392505517
  0.9573413450741801  0.4161557550842546  0.3997216466274020
  0.9585655179816556  0.5417258665108405  0.3998464191677177
  0.9594799498592695  0.6673228541479620  0.3998220054398057
  0.9595832194417909  0.7927110203586061  0.3997857017914530
  0.9591448887719642  0.9175404617649096  0.3996230508870141
  0.4092695245370113  0.5806653829266971  0.4036433010849873
  0.5512852375599997  0.5842406395828811  0.4104054301636268
  0.3248589755847419  0.4161730942502643  0.4103718818989451
 
  0.00000000E+00  0.00000000E+00  0.00000000E+00
  0.00000000E+00  0.00000000E+00  0.00000000E+00
  0.00000000E+00  0.00000000E+00  0.00000000E+00
  0.00000000E+00  0.00000000E+00  0.00000000E+00
  0.00000000E+00  0.00000000E+00  0.00000000E+00
  0.00000000E+00  0.00000000E+00  0.00000000E+00
  0.00000000E+00  0.00000000E+00  0.00000000E+00
  0.00000000E+00  0.00000000E+00  0.00000000E+00
  0.00000000E+00  0.00000000E+00  0.00000000E+00
  0.00000000E+00  0.00000000E+00  0.00000000E+00
  0.00000000E+00  0.00000000E+00  0.00000000E+00
  0.00000000E+00  0.00000000E+00  0.00000000E+00
  0.00000000E+00  0.00000000E+00  0.00000000E+00
  0.00000000E+00  0.00000000E+00  0.00000000E+00
  0.00000000E+00  0.00000000E+00  0.00000000E+00
  0.00000000E+00  0.00000000E+00  0.00000000E+00
  0.00000000E+00  0.00000000E+00  0.00000000E+00
  0.00000000E+00  0.00000000E+00  0.00000000E+00
  0.00000000E+00  0.00000000E+00  0.00000000E+00
  0.00000000E+00  0.00000000E+00  0.00000000E+00
  0.00000000E+00  0.00000000E+00  0.00000000E+00
  0.00000000E+00  0.00000000E+00  0.00000000E+00
  0.00000000E+00  0.00000000E+00  0.00000000E+00
  0.00000000E+00  0.00000000E+00  0.00000000E+00
  0.00000000E+00  0.00000000E+00  0.00000000E+00
  0.00000000E+00  0.00000000E+00  0.00000000E+00
  0.00000000E+00  0.00000000E+00  0.00000000E+00
  0.00000000E+00  0.00000000E+00  0.00000000E+00
  0.00000000E+00  0.00000000E+00  0.00000000E+00
  0.00000000E+00  0.00000000E+00  0.00000000E+00
  0.00000000E+00  0.00000000E+00  0.00000000E+00
  0.00000000E+00  0.00000000E+00  0.00000000E+00
  0.00000000E+00  0.00000000E+00  0.00000000E+00
  0.00000000E+00  0.00000000E+00  0.00000000E+00
  0.00000000E+00  0.00000000E+00  0.00000000E+00
  0.00000000E+00  0.00000000E+00  0.00000000E+00
  0.00000000E+00  0.00000000E+00  0.00000000E+00
  0.00000000E+00  0.00000000E+00  0.00000000E+00
  0.00000000E+00  0.00000000E+00  0.00000000E+00
  0.00000000E+00  0.00000000E+00  0.00000000E+00
  0.00000000E+00  0.00000000E+00  0.00000000E+00
  0.00000000E+00  0.00000000E+00  0.00000000E+00
  0.00000000E+00  0.00000000E+00  0.00000000E+00
  0.00000000E+00  0.00000000E+00  0.00000000E+00
  0.00000000E+00  0.00000000E+00  0.00000000E+00
  0.00000000E+00  0.00000000E+00  0.00000000E+00
  0.00000000E+00  0.00000000E+00  0.00000000E+00
  0.00000000E+00  0.00000000E+00  0.00000000E+00
  0.00000000E+00  0.00000000E+00  0.00000000E+00
  0.00000000E+00  0.00000000E+00  0.00000000E+00
  0.00000000E+00  0.00000000E+00  0.00000000E+00
  0.00000000E+00  0.00000000E+00  0.00000000E+00
  0.00000000E+00  0.00000000E+00  0.00000000E+00
  0.00000000E+00  0.00000000E+00  0.00000000E+00
  0.00000000E+00  0.00000000E+00  0.00000000E+00
  0.00000000E+00  0.00000000E+00  0.00000000E+00
  0.00000000E+00  0.00000000E+00  0.00000000E+00
  0.00000000E+00  0.00000000E+00  0.00000000E+00
  0.00000000E+00  0.00000000E+00  0.00000000E+00
  0.00000000E+00  0.00000000E+00  0.00000000E+00
  0.00000000E+00  0.00000000E+00  0.00000000E+00
  0.00000000E+00  0.00000000E+00  0.00000000E+00
  0.00000000E+00  0.00000000E+00  0.00000000E+00
  0.00000000E+00  0.00000000E+00  0.00000000E+00
  0.00000000E+00  0.00000000E+00  0.00000000E+00
  0.00000000E+00  0.00000000E+00  0.00000000E+00
  0.00000000E+00  0.00000000E+00  0.00000000E+00
  0.00000000E+00  0.00000000E+00  0.00000000E+00
  0.00000000E+00  0.00000000E+00  0.00000000E+00
  0.00000000E+00  0.00000000E+00  0.00000000E+00
  0.00000000E+00  0.00000000E+00  0.00000000E+00
  0.00000000E+00  0.00000000E+00  0.00000000E+00
  0.00000000E+00  0.00000000E+00  0.00000000E+00
  0.00000000E+00  0.00000000E+00  0.00000000E+00
  0.00000000E+00  0.00000000E+00  0.00000000E+00
  0.00000000E+00  0.00000000E+00  0.00000000E+00
  0.00000000E+00  0.00000000E+00  0.00000000E+00
  0.00000000E+00  0.00000000E+00  0.00000000E+00
  0.00000000E+00  0.00000000E+00  0.00000000E+00
  0.00000000E+00  0.00000000E+00  0.00000000E+00
  0.00000000E+00  0.00000000E+00  0.00000000E+00
  0.00000000E+00  0.00000000E+00  0.00000000E+00
  0.00000000E+00  0.00000000E+00  0.00000000E+00
  0.00000000E+00  0.00000000E+00  0.00000000E+00
  0.00000000E+00  0.00000000E+00  0.00000000E+00
  0.00000000E+00  0.00000000E+00  0.00000000E+00
  0.00000000E+00  0.00000000E+00  0.00000000E+00
  0.00000000E+00  0.00000000E+00  0.00000000E+00
  0.00000000E+00  0.00000000E+00  0.00000000E+00
  0.00000000E+00  0.00000000E+00  0.00000000E+00
  0.00000000E+00  0.00000000E+00  0.00000000E+00
  0.00000000E+00  0.00000000E+00  0.00000000E+00
  0.00000000E+00  0.00000000E+00  0.00000000E+00
  0.00000000E+00  0.00000000E+00  0.00000000E+00
  0.00000000E+00  0.00000000E+00  0.00000000E+00
  0.00000000E+00  0.00000000E+00  0.00000000E+00
  0.00000000E+00  0.00000000E+00  0.00000000E+00
  0.00000000E+00  0.00000000E+00  0.00000000E+00
  0.00000000E+00  0.00000000E+00  0.00000000E+00
  0.00000000E+00  0.00000000E+00  0.00000000E+00
  0.00000000E+00  0.00000000E+00  0.00000000E+00
  0.00000000E+00  0.00000000E+00  0.00000000E+00
  0.00000000E+00  0.00000000E+00  0.00000000E+00
  0.00000000E+00  0.00000000E+00  0.00000000E+00
  0.00000000E+00  0.00000000E+00  0.00000000E+00
  0.00000000E+00  0.00000000E+00  0.00000000E+00
  0.00000000E+00  0.00000000E+00  0.00000000E+00
  0.00000000E+00  0.00000000E+00  0.00000000E+00
  0.00000000E+00  0.00000000E+00  0.00000000E+00
  0.00000000E+00  0.00000000E+00  0.00000000E+00
  0.00000000E+00  0.00000000E+00  0.00000000E+00
  0.00000000E+00  0.00000000E+00  0.00000000E+00
  0.00000000E+00  0.00000000E+00  0.00000000E+00
  0.00000000E+00  0.00000000E+00  0.00000000E+00
  0.00000000E+00  0.00000000E+00  0.00000000E+00
  0.00000000E+00  0.00000000E+00  0.00000000E+00
  0.00000000E+00  0.00000000E+00  0.00000000E+00
  0.00000000E+00  0.00000000E+00  0.00000000E+00
  0.00000000E+00  0.00000000E+00  0.00000000E+00
  0.00000000E+00  0.00000000E+00  0.00000000E+00
  0.00000000E+00  0.00000000E+00  0.00000000E+00
  0.00000000E+00  0.00000000E+00  0.00000000E+00
  0.00000000E+00  0.00000000E+00  0.00000000E+00
  0.00000000E+00  0.00000000E+00  0.00000000E+00
  0.00000000E+00  0.00000000E+00  0.00000000E+00
  0.00000000E+00  0.00000000E+00  0.00000000E+00
  0.00000000E+00  0.00000000E+00  0.00000000E+00
