W1 C123 N3 O1                           
   1.00000000000000     
    19.8104889586470030    0.0064071906567944   -0.0371776720346343
    -9.8994572916299504   17.0310512425548772   -0.0979644297200840
    -0.0557475936303132   -0.2039712250301354   29.8198633886122977
   W    C    N    O 
     1   123     3     1
Direct
  0.4377775042355213  0.5015619252628427  0.4332916954857435
  0.0420550653773630  0.0841835028777168  0.3995898415067181
  0.0411851322446794  0.2083105966606527  0.3997635622832575
  0.0405133964933483  0.3331014588577590  0.3993669263389685
  0.0406098542838352  0.4583001013699559  0.3990801483773009
  0.0414403704735805  0.5837871255311253  0.3994490164466386
  0.0422064969697020  0.7092315403766999  0.3998126867074645
  0.0424760815803195  0.8344374862150420  0.3998203004602343
  0.0424133438581182  0.9595161079458683  0.3995827368826564
  0.1678220344875204  0.0854263067298904  0.4001219230039706
  0.1675755232043827  0.2103715728788800  0.4006792108740196
  0.1652604272032035  0.3337682652708894  0.4005351751329115
  0.1643348317424998  0.4585231146390513  0.3987385866150433
  0.1652557731662432  0.5837627558873547  0.3987160543547613
  0.1664888235106176  0.7090060869769584  0.3994625774475085
  0.1671179780439543  0.8344133958130103  0.3998643790540444
  0.1674845758276444  0.9599445243072584  0.3998480613782207
  0.2926309976434460  0.0857569814859834  0.4000724218820975
  0.2932779169767372  0.2125308023187793  0.4018417511076499
  0.2924761205651430  0.3379973314614449  0.4043637813318421
  0.2875669534904375  0.4583334299620775  0.4018591984008560
  0.2885248225639631  0.5830502007830868  0.3988321345744244
  0.2908367699471206  0.7083838922511624  0.3990710644189155
  0.2917486220849964  0.8339243630129658  0.3995854747879115
  0.2921751513811661  0.9595664053419375  0.3997429995189696
  0.4170966647277007  0.0842154648733703  0.3995419660263831
  0.4177789004045245  0.2104598514313812  0.4000293912815987
  0.4198183492864138  0.3381476938417711  0.4037204791067615
  0.4150170168311116  0.7059741176114873  0.3999083485737908
  0.4162983138433112  0.8322714280775161  0.3995251064970041
  0.4167817335229957  0.9582977015947558  0.3996353507885057
  0.5416677468043943  0.0827753403440396  0.3996644313399682
  0.5421728802326149  0.2084939068877946  0.3992688459658684
  0.5432398638727912  0.3340931065354963  0.3994239573056866
  0.5466927123840765  0.4594154729045089  0.4020499567727968
  0.5386304767954538  0.7020002261111334  0.4026644131294506
  0.5407201054174385  0.8303957344567027  0.4003472287910156
  0.5412916407917655  0.9568943356122960  0.3998681864076229
  0.6662940701290717  0.0822234227821244  0.3999830649837489
  0.6666662910261590  0.2076352522655972  0.3996151297547292
  0.6675062891477832  0.3330490561577921  0.3989827085439620
  0.6695740016417145  0.4586149727606087  0.3985780713147518
  0.6704822749047390  0.5839935031567227  0.3997108255328030
  0.6665329051605490  0.7063858971487930  0.4006868022812925
  0.6648887290171407  0.8305078345857222  0.4004908563469234
  0.6657799345292464  0.9565357276419271  0.4001571334712117
  0.7909677097213299  0.0822077732029847  0.3999001860393017
  0.7912712230952379  0.2075266829991627  0.3998612942345975
  0.7918100367746052  0.3328651298479707  0.3995570002202365
  0.7929249148613672  0.4583257780971003  0.3990842068884663
  0.7937791357259688  0.5838290680038608  0.3989439800282239
  0.7931883210130167  0.7088940263145459  0.3994921811471310
  0.7912471775126524  0.8325292041225383  0.3996311743069127
  0.7906804652798336  0.9569508179951284  0.3997809733323072
  0.9161104762496728  0.0827811247722486  0.3995663207590094
  0.9159604265327126  0.2076472411956105  0.3996711504202222
  0.9160925153166162  0.3328641382307259  0.3995796293814385
  0.9167636724091012  0.4583378850380016  0.3995396250753176
  0.9175823832067784  0.5838386302342062  0.3995208572838077
  0.9177601139058962  0.7091115406539917  0.3995978760641999
  0.9174335436679040  0.8340979092137418  0.3995541100517025
  0.9166525759771603  0.9583792526847197  0.3994669806914606
  0.0842775237808208  0.0431462638710954  0.3996844256019274
  0.0838449957704386  0.1678192168253078  0.3998865904870357
  0.0824660276001552  0.2917559467791413  0.3998180364090557
  0.0816347072305303  0.4164141676713449  0.3989363980008481
  0.0823953053670134  0.5418775339351394  0.3990489416151900
  0.0833889584180209  0.6673393635009267  0.3996078129117651
  0.0839059782377685  0.7926964906841241  0.3998980429709806
  0.0841701979862972  0.9180023223524111  0.3997489798339474
  0.2092461185560914  0.0436189166902321  0.4000262064799711
  0.2097578621464021  0.1693741081634751  0.4008939528889335
  0.2089399516019656  0.2941328938481526  0.4015930121114017
  0.2056393367041595  0.4170289777167215  0.3999001759603362
  0.2058030828394249  0.5415981852142219  0.3984678405624942
  0.2075329352156135  0.6670725697048480  0.3990236752864941
  0.2084963705259665  0.7925526893870403  0.3996726966048416
  0.2089032967598065  0.9179849736756259  0.3998396360454594
  0.3338937577175362  0.0432963200761809  0.3997116037252046
  0.3343613393036096  0.1696507984348365  0.4006694144761109
  0.3353334943939776  0.2970803072449363  0.4040527575465062
  0.3291235884762848  0.5416653266574604  0.4006518107607481
  0.3316193825648384  0.6662415399530583  0.3991079517872841
  0.3330832535497772  0.7917916704506638  0.3993950435548253
  0.3335176248711371  0.9173992838265960  0.3996588264857585
  0.4584364295319787  0.0418485721765934  0.3995856234028023
  0.4588367075668019  0.1678312417876957  0.3994557350012074
  0.4599084700679946  0.2941236226583788  0.4004588054373002
  0.4648701160744828  0.4207769548639914  0.4067223936563992
  0.4543164340781465  0.6615661451453416  0.4021358678552011
  0.4574402497432502  0.7896177526660345  0.3997817547791436
  0.4580701318116327  0.9159348459247690  0.3996633617495953
  0.5830106339745950  0.0406162914987212  0.3998717718547727
  0.5834578012343243  0.1663077029479376  0.3994926159885081
  0.5842376724968599  0.2917815552492485  0.3990299852606345
  0.5868625738978132  0.4173756635948461  0.3993230318065182
  0.5891790066649591  0.5430818977902060  0.4021947321995394
  0.5828639772963303  0.6619433830760699  0.4032657793441807
  0.5811546869604202  0.7871623255440549  0.4011318361370610
  0.5825462568698527  0.9144634442840158  0.4001110598924255
  0.7076627062936549  0.0402964421483380  0.4000450660202224
  0.7080876156027341  0.1657859282075130  0.3998726004277625
  0.7086353966943856  0.2911579951953512  0.3993925019697359
  0.7100914231853482  0.4165002527369031  0.3987077896195992
  0.7112611067623780  0.5417882460157250  0.3987393404073827
  0.7104085396878478  0.6670348477215904  0.3999474805210082
  0.7075712648954758  0.7900030465336217  0.4000790629180593
  0.7070322448032029  0.9145357424833980  0.4001209079735199
  0.8326338264480424  0.0406661669462679  0.3997190645416230
  0.8327641848028403  0.1658169447288001  0.3998366321419003
  0.8330230205069011  0.2910016458935983  0.3997069963807507
  0.8338353095985337  0.4163735372397993  0.3994626531560364
  0.8347654816058383  0.5419208630714156  0.3991470293300077
  0.8348917958007430  0.6673015327807853  0.3993212528476114
  0.8341124034799078  0.7921262683993985  0.3995481909192685
  0.8330192159119498  0.9161097679653524  0.3995796244469439
  0.9584702376528084  0.0419187751820460  0.3994636355051268
  0.9578146700761049  0.1662511588232494  0.3996060882404258
  0.9575451822204458  0.2911906092209955  0.3995367999737353
  0.9577633162217364  0.4164110464145024  0.3994573600191560
  0.9585425656094101  0.5418720484446673  0.3995453157439142
  0.9591818178609661  0.6673621882570331  0.3996715208494164
  0.9592569014009058  0.7926692512988703  0.3996870871384439
  0.9589899983074190  0.9175266526872642  0.3994985593594686
  0.4099742058105175  0.5805619624866822  0.4040747491771913
  0.5469486122236770  0.5812554623300789  0.4064122906682406
  0.3297976251857191  0.4199613684526000  0.4071705537918191
  0.4406419343869882  0.4986254588562947  0.4911921509268574
 
  0.00000000E+00  0.00000000E+00  0.00000000E+00
  0.00000000E+00  0.00000000E+00  0.00000000E+00
  0.00000000E+00  0.00000000E+00  0.00000000E+00
  0.00000000E+00  0.00000000E+00  0.00000000E+00
  0.00000000E+00  0.00000000E+00  0.00000000E+00
  0.00000000E+00  0.00000000E+00  0.00000000E+00
  0.00000000E+00  0.00000000E+00  0.00000000E+00
  0.00000000E+00  0.00000000E+00  0.00000000E+00
  0.00000000E+00  0.00000000E+00  0.00000000E+00
  0.00000000E+00  0.00000000E+00  0.00000000E+00
  0.00000000E+00  0.00000000E+00  0.00000000E+00
  0.00000000E+00  0.00000000E+00  0.00000000E+00
  0.00000000E+00  0.00000000E+00  0.00000000E+00
  0.00000000E+00  0.00000000E+00  0.00000000E+00
  0.00000000E+00  0.00000000E+00  0.00000000E+00
  0.00000000E+00  0.00000000E+00  0.00000000E+00
  0.00000000E+00  0.00000000E+00  0.00000000E+00
  0.00000000E+00  0.00000000E+00  0.00000000E+00
  0.00000000E+00  0.00000000E+00  0.00000000E+00
  0.00000000E+00  0.00000000E+00  0.00000000E+00
  0.00000000E+00  0.00000000E+00  0.00000000E+00
  0.00000000E+00  0.00000000E+00  0.00000000E+00
  0.00000000E+00  0.00000000E+00  0.00000000E+00
  0.00000000E+00  0.00000000E+00  0.00000000E+00
  0.00000000E+00  0.00000000E+00  0.00000000E+00
  0.00000000E+00  0.00000000E+00  0.00000000E+00
  0.00000000E+00  0.00000000E+00  0.00000000E+00
  0.00000000E+00  0.00000000E+00  0.00000000E+00
  0.00000000E+00  0.00000000E+00  0.00000000E+00
  0.00000000E+00  0.00000000E+00  0.00000000E+00
  0.00000000E+00  0.00000000E+00  0.00000000E+00
  0.00000000E+00  0.00000000E+00  0.00000000E+00
  0.00000000E+00  0.00000000E+00  0.00000000E+00
  0.00000000E+00  0.00000000E+00  0.00000000E+00
  0.00000000E+00  0.00000000E+00  0.00000000E+00
  0.00000000E+00  0.00000000E+00  0.00000000E+00
  0.00000000E+00  0.00000000E+00  0.00000000E+00
  0.00000000E+00  0.00000000E+00  0.00000000E+00
  0.00000000E+00  0.00000000E+00  0.00000000E+00
  0.00000000E+00  0.00000000E+00  0.00000000E+00
  0.00000000E+00  0.00000000E+00  0.00000000E+00
  0.00000000E+00  0.00000000E+00  0.00000000E+00
  0.00000000E+00  0.00000000E+00  0.00000000E+00
  0.00000000E+00  0.00000000E+00  0.00000000E+00
  0.00000000E+00  0.00000000E+00  0.00000000E+00
  0.00000000E+00  0.00000000E+00  0.00000000E+00
  0.00000000E+00  0.00000000E+00  0.00000000E+00
  0.00000000E+00  0.00000000E+00  0.00000000E+00
  0.00000000E+00  0.00000000E+00  0.00000000E+00
  0.00000000E+00  0.00000000E+00  0.00000000E+00
  0.00000000E+00  0.00000000E+00  0.00000000E+00
  0.00000000E+00  0.00000000E+00  0.00000000E+00
  0.00000000E+00  0.00000000E+00  0.00000000E+00
  0.00000000E+00  0.00000000E+00  0.00000000E+00
  0.00000000E+00  0.00000000E+00  0.00000000E+00
  0.00000000E+00  0.00000000E+00  0.00000000E+00
  0.00000000E+00  0.00000000E+00  0.00000000E+00
  0.00000000E+00  0.00000000E+00  0.00000000E+00
  0.00000000E+00  0.00000000E+00  0.00000000E+00
  0.00000000E+00  0.00000000E+00  0.00000000E+00
  0.00000000E+00  0.00000000E+00  0.00000000E+00
  0.00000000E+00  0.00000000E+00  0.00000000E+00
  0.00000000E+00  0.00000000E+00  0.00000000E+00
  0.00000000E+00  0.00000000E+00  0.00000000E+00
  0.00000000E+00  0.00000000E+00  0.00000000E+00
  0.00000000E+00  0.00000000E+00  0.00000000E+00
  0.00000000E+00  0.00000000E+00  0.00000000E+00
  0.00000000E+00  0.00000000E+00  0.00000000E+00
  0.00000000E+00  0.00000000E+00  0.00000000E+00
  0.00000000E+00  0.00000000E+00  0.00000000E+00
  0.00000000E+00  0.00000000E+00  0.00000000E+00
  0.00000000E+00  0.00000000E+00  0.00000000E+00
  0.00000000E+00  0.00000000E+00  0.00000000E+00
  0.00000000E+00  0.00000000E+00  0.00000000E+00
  0.00000000E+00  0.00000000E+00  0.00000000E+00
  0.00000000E+00  0.00000000E+00  0.00000000E+00
  0.00000000E+00  0.00000000E+00  0.00000000E+00
  0.00000000E+00  0.00000000E+00  0.00000000E+00
  0.00000000E+00  0.00000000E+00  0.00000000E+00
  0.00000000E+00  0.00000000E+00  0.00000000E+00
  0.00000000E+00  0.00000000E+00  0.00000000E+00
  0.00000000E+00  0.00000000E+00  0.00000000E+00
  0.00000000E+00  0.00000000E+00  0.00000000E+00
  0.00000000E+00  0.00000000E+00  0.00000000E+00
  0.00000000E+00  0.00000000E+00  0.00000000E+00
  0.00000000E+00  0.00000000E+00  0.00000000E+00
  0.00000000E+00  0.00000000E+00  0.00000000E+00
  0.00000000E+00  0.00000000E+00  0.00000000E+00
  0.00000000E+00  0.00000000E+00  0.00000000E+00
  0.00000000E+00  0.00000000E+00  0.00000000E+00
  0.00000000E+00  0.00000000E+00  0.00000000E+00
  0.00000000E+00  0.00000000E+00  0.00000000E+00
  0.00000000E+00  0.00000000E+00  0.00000000E+00
  0.00000000E+00  0.00000000E+00  0.00000000E+00
  0.00000000E+00  0.00000000E+00  0.00000000E+00
  0.00000000E+00  0.00000000E+00  0.00000000E+00
  0.00000000E+00  0.00000000E+00  0.00000000E+00
  0.00000000E+00  0.00000000E+00  0.00000000E+00
  0.00000000E+00  0.00000000E+00  0.00000000E+00
  0.00000000E+00  0.00000000E+00  0.00000000E+00
  0.00000000E+00  0.00000000E+00  0.00000000E+00
  0.00000000E+00  0.00000000E+00  0.00000000E+00
  0.00000000E+00  0.00000000E+00  0.00000000E+00
  0.00000000E+00  0.00000000E+00  0.00000000E+00
  0.00000000E+00  0.00000000E+00  0.00000000E+00
  0.00000000E+00  0.00000000E+00  0.00000000E+00
  0.00000000E+00  0.00000000E+00  0.00000000E+00
  0.00000000E+00  0.00000000E+00  0.00000000E+00
  0.00000000E+00  0.00000000E+00  0.00000000E+00
  0.00000000E+00  0.00000000E+00  0.00000000E+00
  0.00000000E+00  0.00000000E+00  0.00000000E+00
  0.00000000E+00  0.00000000E+00  0.00000000E+00
  0.00000000E+00  0.00000000E+00  0.00000000E+00
  0.00000000E+00  0.00000000E+00  0.00000000E+00
  0.00000000E+00  0.00000000E+00  0.00000000E+00
  0.00000000E+00  0.00000000E+00  0.00000000E+00
  0.00000000E+00  0.00000000E+00  0.00000000E+00
  0.00000000E+00  0.00000000E+00  0.00000000E+00
  0.00000000E+00  0.00000000E+00  0.00000000E+00
  0.00000000E+00  0.00000000E+00  0.00000000E+00
  0.00000000E+00  0.00000000E+00  0.00000000E+00
  0.00000000E+00  0.00000000E+00  0.00000000E+00
  0.00000000E+00  0.00000000E+00  0.00000000E+00
  0.00000000E+00  0.00000000E+00  0.00000000E+00
  0.00000000E+00  0.00000000E+00  0.00000000E+00
  0.00000000E+00  0.00000000E+00  0.00000000E+00
  0.00000000E+00  0.00000000E+00  0.00000000E+00
  0.00000000E+00  0.00000000E+00  0.00000000E+00
