Mo1 C122 N4 O1                          
   1.00000000000000     
    19.8085026371001476    0.0000192488217656    0.0260222331701130
    -9.9042566673358508   17.0241385305227482   -0.0699149143795254
     0.0391806480846446   -0.0997209581528756   29.8394364096992248
   Mo   C    N    O 
     1   122     4     1
Direct
  0.4408136962468956  0.5006998791092967  0.4337266106020761
  0.0421593993157219  0.0842683848586855  0.3999093627937948
  0.0413421944739929  0.2084093770160883  0.3995785044667487
  0.0405192442390375  0.3331248864831606  0.3985445551657942
  0.0405128251502528  0.4582858838603154  0.3980761122643456
  0.0413350507398635  0.5837117751296501  0.3986631846115997
  0.0419772516185908  0.7090402757819502  0.3991094266810302
  0.0421984492534924  0.8342432944657192  0.3994084204889238
  0.0423620682704203  0.9595609719327330  0.3999009361664804
  0.1681656119394159  0.0858947344533529  0.4007719848503114
  0.1679014941226256  0.2108052061543032  0.4010771921188339
  0.1653182930551683  0.3339327724130193  0.4000623902919430
  0.1641623068223926  0.4586501807997456  0.3976743784971422
  0.1651635311388100  0.5837377992933456  0.3977845881033306
  0.1663891641333758  0.7088825463355491  0.3988380279287562
  0.1669061487324577  0.8342340212726227  0.3994340169566789
  0.1673358635713730  0.9598974319224416  0.4001159519616047
  0.2925501611985599  0.0858461170238887  0.4005540153725760
  0.2941306401255349  0.2135391153163907  0.4024106084778335
  0.2931077619403466  0.3397599001488585  0.4050311974212111
  0.2872470135674079  0.4584440827474467  0.4021566285160725
  0.2884673021064861  0.5830553641852316  0.3990072054075260
  0.2907718619144486  0.7084128446094933  0.3990891110148782
  0.2916512753372348  0.8338576859453680  0.3993422837032328
  0.2919616209087114  0.9594696598160204  0.3998407761357449
  0.4168842875479257  0.0841115079552389  0.3997386729196732
  0.4176329227595362  0.2104133044994027  0.4004652832029433
  0.4210068874741140  0.3388276315970293  0.4029149030519028
  0.4146747022493528  0.7056697127338151  0.4016921589006626
  0.4162048311636858  0.8321560051917644  0.3998669552702651
  0.4166605813109567  0.9582104228357945  0.3996187234260120
  0.5415054045382861  0.0826873160475615  0.3996255366456283
  0.5419809647893434  0.2083161229754695  0.3994808302681342
  0.5434313460449693  0.3338812863520428  0.3999035667189257
  0.5456232723768857  0.4582125676737916  0.4014995028552960
  0.5381035042440158  0.7015588151466962  0.4041297609380451
  0.5404891316628673  0.8301656673597027  0.4014117797183454
  0.5411874475140472  0.9567888378197363  0.4000419406599402
  0.6662104308303664  0.0822063773759080  0.3998627112541919
  0.6665862434597574  0.2076691711858732  0.3993754905555461
  0.6674904937479067  0.3330539442319920  0.3990951572103524
  0.6694063087123291  0.4585650618692736  0.3993244712787248
  0.6696856105231044  0.5831843807650267  0.3998472086804902
  0.6660379082717943  0.7060466988003991  0.4004300038114247
  0.6646132845394688  0.8302613283992850  0.4010257778731732
  0.6656554686468503  0.9564209304103660  0.4004167641896313
  0.7909487834127945  0.0822876129039433  0.3998110784297781
  0.7912394309926202  0.2075839173462508  0.3993180384526300
  0.7918008896038180  0.3328993812905064  0.3989951557626979
  0.7927554513203502  0.4582745577088816  0.3987835820830864
  0.7935107202153824  0.5836851844268676  0.3988906124207927
  0.7926095240168978  0.7084496306043108  0.3991510080741472
  0.7909760726801380  0.8323822230247088  0.3995611107988419
  0.7905490793032914  0.9568872731963941  0.3998500023228915
  0.9161026145699216  0.0827845887840364  0.3996288533057947
  0.9160438208110245  0.2077007223848494  0.3993119119909722
  0.9161002101409055  0.3329092621024348  0.3988479034188145
  0.9166472913534497  0.4583115464955053  0.3988180716096134
  0.9173754935496439  0.5836892715191478  0.3989418180287743
  0.9174272120226573  0.7088655628846880  0.3990040515172012
  0.9170756090182730  0.8338291929800707  0.3992359062997600
  0.9165485693894390  0.9583370835045740  0.3995531192185349
  0.0844502616124765  0.0433688873262441  0.4002022950205515
  0.0841185088647541  0.1680081385244128  0.4000675261211748
  0.0824608789193531  0.2917737183304205  0.3992281259978315
  0.0815304105900722  0.4164524348942658  0.3978736136266830
  0.0823050399334763  0.5418404070274392  0.3980298223131044
  0.0832315803687534  0.6672078362403875  0.3989052923566129
  0.0836832425516844  0.7925278518151714  0.3992478957465063
  0.0840313400097581  0.9179162901315455  0.3998434276174422
  0.2092804674649774  0.0437533188337194  0.4005853489341531
  0.2104287622834121  0.1700728430789824  0.4015721867249838
  0.2091443474620557  0.2946126107467348  0.4018655574898819
  0.2055184813572404  0.4171828639396076  0.3991046381805278
  0.2056387067552979  0.5415830596149860  0.3976317804903015
  0.2074651889436666  0.6670625321515750  0.3984254086904537
  0.2083955879689511  0.7924559183162575  0.3992373641708323
  0.2087071009814664  0.9178723238626233  0.3998393090057267
  0.3337259886933618  0.0432929320259553  0.4000081588087588
  0.3344567895235222  0.1699638865943936  0.4011286874807790
  0.3367039088122727  0.2987614286083670  0.4042721926533816
  0.3289515477210456  0.5418554803903961  0.4020981716971996
  0.3315160525616974  0.6663219507986217  0.3999166818947401
  0.3330192676027438  0.7917689391392215  0.3994060001231300
  0.3333795306998598  0.9173682699570650  0.3995904597487563
  0.4582837905709715  0.0418019504623094  0.3996223311144755
  0.4586833621914955  0.1677814412180598  0.3997777156251562
  0.4600902558664505  0.2941789026781975  0.4006266498061167
  0.4535344101362394  0.6606078448468355  0.4048869447928609
  0.4572303080517826  0.7894223485137067  0.4008765835993890
  0.4579858890212135  0.9158697173498590  0.3997666471867377
  0.5828968783044778  0.0405794814906433  0.3998589306236026
  0.5833029734740292  0.1662612956488190  0.3994398357005825
  0.5842112979282080  0.2916901516809220  0.3994514166972730
  0.5865681333454331  0.4170215235220733  0.3999352082868687
  0.5875774470594254  0.5420760572585620  0.4014305373869234
  0.5823541091631699  0.6615014055122395  0.4027770516428101
  0.5807238467144369  0.7867230598205485  0.4023031232703339
  0.5823988444397904  0.9142956021420307  0.4006017204914918
  0.7075516544733746  0.0402526668272448  0.4000307821444696
  0.7080489097628347  0.1658673680926698  0.3995111120678337
  0.7086070061768399  0.2912175796938903  0.3991041523106013
  0.7098552498431653  0.4164151142032472  0.3989503587318391
  0.7109317648561140  0.5415818310451667  0.3992705711637736
  0.7096596869740054  0.6663122865183219  0.3996719508059530
  0.7073269326125018  0.7898082455952941  0.4002751598765102
  0.7068244618732952  0.9143416611646884  0.4003930901650833
  0.8326134112018754  0.0406943755146639  0.3997662999298618
  0.8327793601211436  0.1659039676354299  0.3994769711310837
  0.8330108964480960  0.2910657579296143  0.3990510395345981
  0.8337156941244364  0.4163958009998449  0.3988569242542144
  0.8345294357294618  0.5417974880478675  0.3987934782319549
  0.8344891543499329  0.6670456761866455  0.3989155159612643
  0.8337192512680737  0.7918229182034098  0.3992139645723430
  0.8328633481343367  0.9160385654425724  0.3995697120969090
  0.9585057034096407  0.0419237796820734  0.3996391630323572
  0.9578846370552183  0.1662918260253760  0.3994739374713578
  0.9576175745179665  0.2912677728337631  0.3988681368003081
  0.9576624187484218  0.4163971108479938  0.3986342862879826
  0.9583955094861379  0.5417796703386686  0.3988701467066900
  0.9589332263006877  0.6671877149672489  0.3990605496504986
  0.9589395509121243  0.7924208313498317  0.3992151069173323
  0.9588629133507283  0.9174324540684944  0.3995470089854162
  0.4088860918134389  0.5797292472256185  0.4078951787890935
  0.5459574789218122  0.5808495134966231  0.4045415425708062
  0.3293957331058921  0.4207294823212905  0.4079920657857252
  0.4652742315859590  0.4195377772376001  0.4046991037621072
  0.4499261401626560  0.5020915185536661  0.4897821559818018
 
  0.00000000E+00  0.00000000E+00  0.00000000E+00
  0.00000000E+00  0.00000000E+00  0.00000000E+00
  0.00000000E+00  0.00000000E+00  0.00000000E+00
  0.00000000E+00  0.00000000E+00  0.00000000E+00
  0.00000000E+00  0.00000000E+00  0.00000000E+00
  0.00000000E+00  0.00000000E+00  0.00000000E+00
  0.00000000E+00  0.00000000E+00  0.00000000E+00
  0.00000000E+00  0.00000000E+00  0.00000000E+00
  0.00000000E+00  0.00000000E+00  0.00000000E+00
  0.00000000E+00  0.00000000E+00  0.00000000E+00
  0.00000000E+00  0.00000000E+00  0.00000000E+00
  0.00000000E+00  0.00000000E+00  0.00000000E+00
  0.00000000E+00  0.00000000E+00  0.00000000E+00
  0.00000000E+00  0.00000000E+00  0.00000000E+00
  0.00000000E+00  0.00000000E+00  0.00000000E+00
  0.00000000E+00  0.00000000E+00  0.00000000E+00
  0.00000000E+00  0.00000000E+00  0.00000000E+00
  0.00000000E+00  0.00000000E+00  0.00000000E+00
  0.00000000E+00  0.00000000E+00  0.00000000E+00
  0.00000000E+00  0.00000000E+00  0.00000000E+00
  0.00000000E+00  0.00000000E+00  0.00000000E+00
  0.00000000E+00  0.00000000E+00  0.00000000E+00
  0.00000000E+00  0.00000000E+00  0.00000000E+00
  0.00000000E+00  0.00000000E+00  0.00000000E+00
  0.00000000E+00  0.00000000E+00  0.00000000E+00
  0.00000000E+00  0.00000000E+00  0.00000000E+00
  0.00000000E+00  0.00000000E+00  0.00000000E+00
  0.00000000E+00  0.00000000E+00  0.00000000E+00
  0.00000000E+00  0.00000000E+00  0.00000000E+00
  0.00000000E+00  0.00000000E+00  0.00000000E+00
  0.00000000E+00  0.00000000E+00  0.00000000E+00
  0.00000000E+00  0.00000000E+00  0.00000000E+00
  0.00000000E+00  0.00000000E+00  0.00000000E+00
  0.00000000E+00  0.00000000E+00  0.00000000E+00
  0.00000000E+00  0.00000000E+00  0.00000000E+00
  0.00000000E+00  0.00000000E+00  0.00000000E+00
  0.00000000E+00  0.00000000E+00  0.00000000E+00
  0.00000000E+00  0.00000000E+00  0.00000000E+00
  0.00000000E+00  0.00000000E+00  0.00000000E+00
  0.00000000E+00  0.00000000E+00  0.00000000E+00
  0.00000000E+00  0.00000000E+00  0.00000000E+00
  0.00000000E+00  0.00000000E+00  0.00000000E+00
  0.00000000E+00  0.00000000E+00  0.00000000E+00
  0.00000000E+00  0.00000000E+00  0.00000000E+00
  0.00000000E+00  0.00000000E+00  0.00000000E+00
  0.00000000E+00  0.00000000E+00  0.00000000E+00
  0.00000000E+00  0.00000000E+00  0.00000000E+00
  0.00000000E+00  0.00000000E+00  0.00000000E+00
  0.00000000E+00  0.00000000E+00  0.00000000E+00
  0.00000000E+00  0.00000000E+00  0.00000000E+00
  0.00000000E+00  0.00000000E+00  0.00000000E+00
  0.00000000E+00  0.00000000E+00  0.00000000E+00
  0.00000000E+00  0.00000000E+00  0.00000000E+00
  0.00000000E+00  0.00000000E+00  0.00000000E+00
  0.00000000E+00  0.00000000E+00  0.00000000E+00
  0.00000000E+00  0.00000000E+00  0.00000000E+00
  0.00000000E+00  0.00000000E+00  0.00000000E+00
  0.00000000E+00  0.00000000E+00  0.00000000E+00
  0.00000000E+00  0.00000000E+00  0.00000000E+00
  0.00000000E+00  0.00000000E+00  0.00000000E+00
  0.00000000E+00  0.00000000E+00  0.00000000E+00
  0.00000000E+00  0.00000000E+00  0.00000000E+00
  0.00000000E+00  0.00000000E+00  0.00000000E+00
  0.00000000E+00  0.00000000E+00  0.00000000E+00
  0.00000000E+00  0.00000000E+00  0.00000000E+00
  0.00000000E+00  0.00000000E+00  0.00000000E+00
  0.00000000E+00  0.00000000E+00  0.00000000E+00
  0.00000000E+00  0.00000000E+00  0.00000000E+00
  0.00000000E+00  0.00000000E+00  0.00000000E+00
  0.00000000E+00  0.00000000E+00  0.00000000E+00
  0.00000000E+00  0.00000000E+00  0.00000000E+00
  0.00000000E+00  0.00000000E+00  0.00000000E+00
  0.00000000E+00  0.00000000E+00  0.00000000E+00
  0.00000000E+00  0.00000000E+00  0.00000000E+00
  0.00000000E+00  0.00000000E+00  0.00000000E+00
  0.00000000E+00  0.00000000E+00  0.00000000E+00
  0.00000000E+00  0.00000000E+00  0.00000000E+00
  0.00000000E+00  0.00000000E+00  0.00000000E+00
  0.00000000E+00  0.00000000E+00  0.00000000E+00
  0.00000000E+00  0.00000000E+00  0.00000000E+00
  0.00000000E+00  0.00000000E+00  0.00000000E+00
  0.00000000E+00  0.00000000E+00  0.00000000E+00
  0.00000000E+00  0.00000000E+00  0.00000000E+00
  0.00000000E+00  0.00000000E+00  0.00000000E+00
  0.00000000E+00  0.00000000E+00  0.00000000E+00
  0.00000000E+00  0.00000000E+00  0.00000000E+00
  0.00000000E+00  0.00000000E+00  0.00000000E+00
  0.00000000E+00  0.00000000E+00  0.00000000E+00
  0.00000000E+00  0.00000000E+00  0.00000000E+00
  0.00000000E+00  0.00000000E+00  0.00000000E+00
  0.00000000E+00  0.00000000E+00  0.00000000E+00
  0.00000000E+00  0.00000000E+00  0.00000000E+00
  0.00000000E+00  0.00000000E+00  0.00000000E+00
  0.00000000E+00  0.00000000E+00  0.00000000E+00
  0.00000000E+00  0.00000000E+00  0.00000000E+00
  0.00000000E+00  0.00000000E+00  0.00000000E+00
  0.00000000E+00  0.00000000E+00  0.00000000E+00
  0.00000000E+00  0.00000000E+00  0.00000000E+00
  0.00000000E+00  0.00000000E+00  0.00000000E+00
  0.00000000E+00  0.00000000E+00  0.00000000E+00
  0.00000000E+00  0.00000000E+00  0.00000000E+00
  0.00000000E+00  0.00000000E+00  0.00000000E+00
  0.00000000E+00  0.00000000E+00  0.00000000E+00
  0.00000000E+00  0.00000000E+00  0.00000000E+00
  0.00000000E+00  0.00000000E+00  0.00000000E+00
  0.00000000E+00  0.00000000E+00  0.00000000E+00
  0.00000000E+00  0.00000000E+00  0.00000000E+00
  0.00000000E+00  0.00000000E+00  0.00000000E+00
  0.00000000E+00  0.00000000E+00  0.00000000E+00
  0.00000000E+00  0.00000000E+00  0.00000000E+00
  0.00000000E+00  0.00000000E+00  0.00000000E+00
  0.00000000E+00  0.00000000E+00  0.00000000E+00
  0.00000000E+00  0.00000000E+00  0.00000000E+00
  0.00000000E+00  0.00000000E+00  0.00000000E+00
  0.00000000E+00  0.00000000E+00  0.00000000E+00
  0.00000000E+00  0.00000000E+00  0.00000000E+00
  0.00000000E+00  0.00000000E+00  0.00000000E+00
  0.00000000E+00  0.00000000E+00  0.00000000E+00
  0.00000000E+00  0.00000000E+00  0.00000000E+00
  0.00000000E+00  0.00000000E+00  0.00000000E+00
  0.00000000E+00  0.00000000E+00  0.00000000E+00
  0.00000000E+00  0.00000000E+00  0.00000000E+00
  0.00000000E+00  0.00000000E+00  0.00000000E+00
  0.00000000E+00  0.00000000E+00  0.00000000E+00
  0.00000000E+00  0.00000000E+00  0.00000000E+00
  0.00000000E+00  0.00000000E+00  0.00000000E+00
  0.00000000E+00  0.00000000E+00  0.00000000E+00
  0.00000000E+00  0.00000000E+00  0.00000000E+00
