Re1 H1 C126 O2                          
   1.00000000000000     
    19.8030719498392926   -0.0002828564849230    0.0150361259794054
    -9.9017792256587605   17.0640557784110527   -0.0917675243842113
     0.0226059721647326   -0.1469649574484212   29.7784221062662482
   Re   H    C    O 
     1     1   126     2
Direct
  0.4405809152145058  0.5011063014144136  0.4317998494096400
  0.5404895447850304  0.5650445978228803  0.5209671586911623
  0.0421034329475625  0.0841601264363467  0.3997056117227731
  0.0411778020698488  0.2082385619896992  0.3995759060384728
  0.0406268739394395  0.3328860013989619  0.3997876529967493
  0.0405774038316941  0.4583177686348340  0.3997798271226896
  0.0412970030523189  0.5837334955489450  0.3997758916866174
  0.0419714933451991  0.7090323510009358  0.3998739891343249
  0.0422998116654874  0.8343751941938038  0.3999786627442743
  0.0423804415186311  0.9594299416752100  0.3999056078961339
  0.1675583405609674  0.0850808358429963  0.3997839366254460
  0.1675164023951582  0.2100509670444639  0.3996298486076152
  0.1656318337710744  0.3334284783344087  0.4000416673647429
  0.1643202120395778  0.4583741037824836  0.4001784457761282
  0.1652632723503335  0.5835743050396300  0.3998341737462643
  0.1664702798308008  0.7090217880553256  0.3998596183277236
  0.1669768096420521  0.8343404365474995  0.3999526552011494
  0.1673616629657838  0.9597375245634396  0.3999935053521366
  0.2924562752843398  0.0850014834748471  0.3997444601619667
  0.2930760955535042  0.2112416317474696  0.4001961245723808
  0.2936572113016230  0.3375335898946166  0.4016479429740196
  0.2874215897502979  0.4579693965910784  0.4022387705741449
  0.2889869578303193  0.5837827897745698  0.4003297378970489
  0.2909552469907388  0.7087981524319920  0.3996113281565008
  0.2916122596422976  0.8339081763554392  0.3998176220957446
  0.2920045958139711  0.9593313080900872  0.3998876596184249
  0.4170061166442556  0.0839109047033129  0.3996759232727362
  0.4174144542347658  0.2096242129815082  0.3995329940274140
  0.4184767140063993  0.3362921226250051  0.4013435979866979
  0.4113451377673504  0.5795485102665443  0.4039795437427804
  0.4154846739319232  0.7064362408472232  0.3994582820325508
  0.4162319900939028  0.8326155918284104  0.3995536095541197
  0.4166157086375982  0.9582793357149685  0.3998583315248369
  0.5415430828934302  0.0827444099819419  0.3998419614613771
  0.5419927554069882  0.2080873874675956  0.3995864322359054
  0.5427659227118379  0.3333249977803516  0.4001453562242371
  0.5450311445384103  0.4577892674590412  0.4024351565707341
  0.5439520428363268  0.5811859756987919  0.4040149938619880
  0.5402296223866987  0.7055995371438176  0.4002252877193225
  0.5407285610799629  0.8316054480436273  0.3995803831022144
  0.5412460919356978  0.9572816849253624  0.3998710582034410
  0.6662145445812856  0.0823007130951272  0.3999882901560534
  0.6665761511058164  0.2076051807332540  0.3998594834522051
  0.6671725283143173  0.3328292346326879  0.3998543875579109
  0.6688317755507205  0.4583048687904112  0.4004514025698708
  0.6695904001679824  0.5837814683888883  0.4006302329458702
  0.6663121427100910  0.7069885748270377  0.3991585236650222
  0.6658229458441755  0.8317057239450543  0.3994797778485311
  0.6659956462125874  0.9570287655176648  0.3999550131304346
  0.7910919172941505  0.0823422491675155  0.3999730654584984
  0.7912084371851852  0.2074668256977945  0.3999616389013117
  0.7916865059161609  0.3328310635445180  0.3998151891353305
  0.7925776700859212  0.4583122383777589  0.3998006488608606
  0.7931422814600982  0.5835880641979706  0.3999123281989747
  0.7927825524868856  0.7088403594258711  0.3996307869506302
  0.7915815939639750  0.8329061003215864  0.3995127037405614
  0.7910805708436807  0.9574183524278397  0.3998632697361950
  0.9163114984822464  0.0829034803267997  0.3998367844690597
  0.9160270402678962  0.2076724844429331  0.3998496009449436
  0.9160940141726877  0.3328680426812038  0.3998211340078279
  0.9165163599244079  0.4581841228481224  0.3997064598937966
  0.9172709293706319  0.5837306222855231  0.3997638052445486
  0.9174796339291724  0.7090602102096644  0.3998980768771075
  0.9173027405040156  0.8340065154613022  0.3998682749419286
  0.9168216604862474  0.9585033652519845  0.3999079891706235
  0.0841228960068382  0.0429349386146472  0.3997794303673482
  0.0837894373215898  0.1676093470031803  0.3995357706194333
  0.0823153389552924  0.2914196441741887  0.3996850347433137
  0.0817953470344276  0.4166113917562260  0.3998508552161877
  0.0823217697684492  0.5418263438022124  0.3997939991457297
  0.0832642902672084  0.6672546938870203  0.3998492546993763
  0.0837978126192292  0.7926777005808522  0.3999413612901127
  0.0840220809475386  0.9178882072865798  0.3999836628344910
  0.2090960693367225  0.0432023562816103  0.3998893827481592
  0.2092902765393974  0.1686598580978904  0.3998233826439334
  0.2092460042593503  0.2938337575024810  0.4000725609176306
  0.2053312280162985  0.4164815461553858  0.4006312617561439
  0.2060546353969660  0.5418621690603257  0.4001177916646663
  0.2077932367164859  0.6673006433617563  0.3997894238724608
  0.2083935500725566  0.7924903089309401  0.3998847094299631
  0.2088107841643236  0.9178385219805718  0.3999813033188379
  0.3337417467129422  0.0428160438840915  0.3997557163530642
  0.3342671084895840  0.1685649094112380  0.3997512988143362
  0.3348399850222372  0.2947185627163936  0.4012984629645278
  0.3319743267205058  0.4209421476005230  0.4047084479330593
  0.3296452844913695  0.5423898945867058  0.4019273218220952
  0.3322774973982407  0.6668207003084936  0.3996744378748479
  0.3329869079551716  0.7919709529880828  0.3996325830565947
  0.3334431810230991  0.9173062206453259  0.3998549160361886
  0.4583810255847269  0.0417253010158081  0.3998222730124393
  0.4587719511808623  0.1673103812107600  0.3994953874998455
  0.4594621108197605  0.2932448125385836  0.3999058873955033
  0.4630785174771511  0.4192216626809755  0.4047752078638662
  0.4562424694976588  0.6628079340403885  0.4006843369815240
  0.4575352183888753  0.7902002842683605  0.3993475206579340
  0.4579888350671231  0.9160583308845615  0.3997861773513728
  0.5830124299519125  0.0407673358588422  0.3999254086399885
  0.5833662595060969  0.1661722218104592  0.3997573201762488
  0.5840369520715648  0.2913305644535800  0.3997494448063950
  0.5859551175642699  0.4164105743259188  0.4010011418227999
  0.5873056433787084  0.5424128487439596  0.4020591123632892
  0.5822636549123861  0.6640047619000629  0.4002456510548978
  0.5819617425409918  0.7890750951021620  0.3996050865418403
  0.5825668238175490  0.9151620443479876  0.3998299198038937
  0.7077277878564801  0.0404703658832690  0.4000188822128743
  0.7080126637764400  0.1657995082624438  0.3999601219961956
  0.7084904439521205  0.2910716898025112  0.3998316210924042
  0.7096410276720094  0.4165491675499601  0.3999472221689445
  0.7105863702181333  0.5418496531311860  0.4003664018726866
  0.7095146855797209  0.6668715452062236  0.3996564651806789
  0.7079034647890408  0.7906267264786307  0.3991881942994675
  0.7075889747382400  0.9152645935752513  0.3997920759625651
  0.8328301842934295  0.0408869368680563  0.3999198562995800
  0.8327502425529694  0.1658290962253283  0.3999443920992390
  0.8330236215924075  0.2911033120251061  0.3998681982347145
  0.8336058831813760  0.4163841512835527  0.3997517767630184
  0.8343231614635913  0.5418170632697382  0.3998063790000563
  0.8344050598590428  0.6673135448823170  0.3998489087424730
  0.8339953694410955  0.7920955660371762  0.3996282247385811
  0.8332376807176177  0.9163108516576235  0.3998174347493337
  0.9585179055150908  0.0419495707203074  0.3998364253841215
  0.9578661230551638  0.1663015198858092  0.3997329442566070
  0.9575649342617670  0.2911397101679944  0.3998217532548324
  0.9576312811321924  0.4163895654613952  0.3997478664535581
  0.9583838204930082  0.5419242647022192  0.3997226412262468
  0.9589051472412208  0.6672793100482244  0.3998468095546038
  0.9590548935815157  0.7925492126561769  0.3999347734875788
  0.9589313778638595  0.9174376081577384  0.3999120139724832
  0.5101880476957782  0.5088073468622338  0.5139383750049542
  0.4382079724228036  0.5050395436480357  0.4946285620251596
 
  0.00000000E+00  0.00000000E+00  0.00000000E+00
  0.00000000E+00  0.00000000E+00  0.00000000E+00
  0.00000000E+00  0.00000000E+00  0.00000000E+00
  0.00000000E+00  0.00000000E+00  0.00000000E+00
  0.00000000E+00  0.00000000E+00  0.00000000E+00
  0.00000000E+00  0.00000000E+00  0.00000000E+00
  0.00000000E+00  0.00000000E+00  0.00000000E+00
  0.00000000E+00  0.00000000E+00  0.00000000E+00
  0.00000000E+00  0.00000000E+00  0.00000000E+00
  0.00000000E+00  0.00000000E+00  0.00000000E+00
  0.00000000E+00  0.00000000E+00  0.00000000E+00
  0.00000000E+00  0.00000000E+00  0.00000000E+00
  0.00000000E+00  0.00000000E+00  0.00000000E+00
  0.00000000E+00  0.00000000E+00  0.00000000E+00
  0.00000000E+00  0.00000000E+00  0.00000000E+00
  0.00000000E+00  0.00000000E+00  0.00000000E+00
  0.00000000E+00  0.00000000E+00  0.00000000E+00
  0.00000000E+00  0.00000000E+00  0.00000000E+00
  0.00000000E+00  0.00000000E+00  0.00000000E+00
  0.00000000E+00  0.00000000E+00  0.00000000E+00
  0.00000000E+00  0.00000000E+00  0.00000000E+00
  0.00000000E+00  0.00000000E+00  0.00000000E+00
  0.00000000E+00  0.00000000E+00  0.00000000E+00
  0.00000000E+00  0.00000000E+00  0.00000000E+00
  0.00000000E+00  0.00000000E+00  0.00000000E+00
  0.00000000E+00  0.00000000E+00  0.00000000E+00
  0.00000000E+00  0.00000000E+00  0.00000000E+00
  0.00000000E+00  0.00000000E+00  0.00000000E+00
  0.00000000E+00  0.00000000E+00  0.00000000E+00
  0.00000000E+00  0.00000000E+00  0.00000000E+00
  0.00000000E+00  0.00000000E+00  0.00000000E+00
  0.00000000E+00  0.00000000E+00  0.00000000E+00
  0.00000000E+00  0.00000000E+00  0.00000000E+00
  0.00000000E+00  0.00000000E+00  0.00000000E+00
  0.00000000E+00  0.00000000E+00  0.00000000E+00
  0.00000000E+00  0.00000000E+00  0.00000000E+00
  0.00000000E+00  0.00000000E+00  0.00000000E+00
  0.00000000E+00  0.00000000E+00  0.00000000E+00
  0.00000000E+00  0.00000000E+00  0.00000000E+00
  0.00000000E+00  0.00000000E+00  0.00000000E+00
  0.00000000E+00  0.00000000E+00  0.00000000E+00
  0.00000000E+00  0.00000000E+00  0.00000000E+00
  0.00000000E+00  0.00000000E+00  0.00000000E+00
  0.00000000E+00  0.00000000E+00  0.00000000E+00
  0.00000000E+00  0.00000000E+00  0.00000000E+00
  0.00000000E+00  0.00000000E+00  0.00000000E+00
  0.00000000E+00  0.00000000E+00  0.00000000E+00
  0.00000000E+00  0.00000000E+00  0.00000000E+00
  0.00000000E+00  0.00000000E+00  0.00000000E+00
  0.00000000E+00  0.00000000E+00  0.00000000E+00
  0.00000000E+00  0.00000000E+00  0.00000000E+00
  0.00000000E+00  0.00000000E+00  0.00000000E+00
  0.00000000E+00  0.00000000E+00  0.00000000E+00
  0.00000000E+00  0.00000000E+00  0.00000000E+00
  0.00000000E+00  0.00000000E+00  0.00000000E+00
  0.00000000E+00  0.00000000E+00  0.00000000E+00
  0.00000000E+00  0.00000000E+00  0.00000000E+00
  0.00000000E+00  0.00000000E+00  0.00000000E+00
  0.00000000E+00  0.00000000E+00  0.00000000E+00
  0.00000000E+00  0.00000000E+00  0.00000000E+00
  0.00000000E+00  0.00000000E+00  0.00000000E+00
  0.00000000E+00  0.00000000E+00  0.00000000E+00
  0.00000000E+00  0.00000000E+00  0.00000000E+00
  0.00000000E+00  0.00000000E+00  0.00000000E+00
  0.00000000E+00  0.00000000E+00  0.00000000E+00
  0.00000000E+00  0.00000000E+00  0.00000000E+00
  0.00000000E+00  0.00000000E+00  0.00000000E+00
  0.00000000E+00  0.00000000E+00  0.00000000E+00
  0.00000000E+00  0.00000000E+00  0.00000000E+00
  0.00000000E+00  0.00000000E+00  0.00000000E+00
  0.00000000E+00  0.00000000E+00  0.00000000E+00
  0.00000000E+00  0.00000000E+00  0.00000000E+00
  0.00000000E+00  0.00000000E+00  0.00000000E+00
  0.00000000E+00  0.00000000E+00  0.00000000E+00
  0.00000000E+00  0.00000000E+00  0.00000000E+00
  0.00000000E+00  0.00000000E+00  0.00000000E+00
  0.00000000E+00  0.00000000E+00  0.00000000E+00
  0.00000000E+00  0.00000000E+00  0.00000000E+00
  0.00000000E+00  0.00000000E+00  0.00000000E+00
  0.00000000E+00  0.00000000E+00  0.00000000E+00
  0.00000000E+00  0.00000000E+00  0.00000000E+00
  0.00000000E+00  0.00000000E+00  0.00000000E+00
  0.00000000E+00  0.00000000E+00  0.00000000E+00
  0.00000000E+00  0.00000000E+00  0.00000000E+00
  0.00000000E+00  0.00000000E+00  0.00000000E+00
  0.00000000E+00  0.00000000E+00  0.00000000E+00
  0.00000000E+00  0.00000000E+00  0.00000000E+00
  0.00000000E+00  0.00000000E+00  0.00000000E+00
  0.00000000E+00  0.00000000E+00  0.00000000E+00
  0.00000000E+00  0.00000000E+00  0.00000000E+00
  0.00000000E+00  0.00000000E+00  0.00000000E+00
  0.00000000E+00  0.00000000E+00  0.00000000E+00
  0.00000000E+00  0.00000000E+00  0.00000000E+00
  0.00000000E+00  0.00000000E+00  0.00000000E+00
  0.00000000E+00  0.00000000E+00  0.00000000E+00
  0.00000000E+00  0.00000000E+00  0.00000000E+00
  0.00000000E+00  0.00000000E+00  0.00000000E+00
  0.00000000E+00  0.00000000E+00  0.00000000E+00
  0.00000000E+00  0.00000000E+00  0.00000000E+00
  0.00000000E+00  0.00000000E+00  0.00000000E+00
  0.00000000E+00  0.00000000E+00  0.00000000E+00
  0.00000000E+00  0.00000000E+00  0.00000000E+00
  0.00000000E+00  0.00000000E+00  0.00000000E+00
  0.00000000E+00  0.00000000E+00  0.00000000E+00
  0.00000000E+00  0.00000000E+00  0.00000000E+00
  0.00000000E+00  0.00000000E+00  0.00000000E+00
  0.00000000E+00  0.00000000E+00  0.00000000E+00
  0.00000000E+00  0.00000000E+00  0.00000000E+00
  0.00000000E+00  0.00000000E+00  0.00000000E+00
  0.00000000E+00  0.00000000E+00  0.00000000E+00
  0.00000000E+00  0.00000000E+00  0.00000000E+00
  0.00000000E+00  0.00000000E+00  0.00000000E+00
  0.00000000E+00  0.00000000E+00  0.00000000E+00
  0.00000000E+00  0.00000000E+00  0.00000000E+00
  0.00000000E+00  0.00000000E+00  0.00000000E+00
  0.00000000E+00  0.00000000E+00  0.00000000E+00
  0.00000000E+00  0.00000000E+00  0.00000000E+00
  0.00000000E+00  0.00000000E+00  0.00000000E+00
  0.00000000E+00  0.00000000E+00  0.00000000E+00
  0.00000000E+00  0.00000000E+00  0.00000000E+00
  0.00000000E+00  0.00000000E+00  0.00000000E+00
  0.00000000E+00  0.00000000E+00  0.00000000E+00
  0.00000000E+00  0.00000000E+00  0.00000000E+00
  0.00000000E+00  0.00000000E+00  0.00000000E+00
  0.00000000E+00  0.00000000E+00  0.00000000E+00
  0.00000000E+00  0.00000000E+00  0.00000000E+00
  0.00000000E+00  0.00000000E+00  0.00000000E+00
  0.00000000E+00  0.00000000E+00  0.00000000E+00
  0.00000000E+00  0.00000000E+00  0.00000000E+00
  0.00000000E+00  0.00000000E+00  0.00000000E+00
