Cr1 C123 N3 O1                          
   1.00000000000000     
    19.7911613486418148    0.0075550565964019   -0.0005917002179396
    -9.8889118181325166   17.0202122883744131   -0.0386918206921875
    -0.0008199989585603   -0.0683353366743729   29.8656391024622003
   Cr   C    N    O 
     1   123     3     1
Direct
  0.4367274892636539  0.5004112117847325  0.4260232018535963
  0.0420725279750276  0.0841538737106666  0.3997795845349538
  0.0413273937128197  0.2083561562353651  0.3998507877919212
  0.0407494724124403  0.3331335195411580  0.3997017282291292
  0.0408830897112497  0.4582818039814406  0.3995492036789559
  0.0415265961462041  0.5836772500748939  0.3997212065015562
  0.0421106178127080  0.7090406379054448  0.3998750989025626
  0.0422998110989352  0.8342338249991790  0.3998802724276118
  0.0422904779091592  0.9593602066634727  0.3997535982853477
  0.1677306399382392  0.0853010618735132  0.4002470441230468
  0.1677595021841085  0.2104681149982967  0.4007408401780162
  0.1656034556889203  0.3337966377362535  0.4007064388052716
  0.1649585307329770  0.4584581649304019  0.3997664491877359
  0.1656247359802581  0.5835983468925476  0.3995415092968577
  0.1665789701291732  0.7088211536719403  0.3997637632214415
  0.1670635545312461  0.8342147066538587  0.3999541230651326
  0.1673769357750121  0.9597577998886376  0.3999671753532547
  0.2925165931027623  0.0856258070899171  0.4002350981546561
  0.2931625385321523  0.2124077510736915  0.4017665569886344
  0.2931801046198771  0.3386114279803523  0.4034852044095527
  0.2887761610108447  0.4582162459511880  0.4018979122766616
  0.2892135162472259  0.5828532256007959  0.4000160357617867
  0.2910340692746023  0.7081792386641966  0.3997285618863009
  0.2917891616833322  0.8337278647883390  0.3997401087795638
  0.2921197639447529  0.9594125083316095  0.3998240747686196
  0.4169959941179521  0.0842542380932149  0.3997577908384699
  0.4175869477505328  0.2106859803078435  0.4004772644278514
  0.4192797812695809  0.3387277087674803  0.4032806561380406
  0.4151393863403194  0.7054512063000548  0.4006203952103523
  0.4163328085259508  0.8320309603018119  0.3999230513219275
  0.4167583700030054  0.9582034208707263  0.3996789295988474
  0.5415882653124495  0.0828412324809527  0.3996746490653724
  0.5419832743956708  0.2086218920834820  0.3996728538653027
  0.5428595290587331  0.3342898580397337  0.4003479917854013
  0.5456284177780323  0.4596891481730079  0.4024572865758874
  0.5384876937117540  0.7017009037645345  0.4026465628460395
  0.5406789156111199  0.8302435057222294  0.4007128502474258
  0.5412743121426130  0.9568529523679135  0.3999674145373733
  0.6662486420281485  0.0822671141066245  0.3999653987570168
  0.6665527163136941  0.2077322703394344  0.3997060203756081
  0.6672164615563556  0.3331511105402937  0.3995300749795773
  0.6688902200316503  0.4586340301173917  0.3997934371129109
  0.6697202785727399  0.5838864803930804  0.4007488057914544
  0.6659640288528135  0.7059137186939052  0.4011614229303005
  0.6647542019859471  0.8303646961384655  0.4007897750422118
  0.6657261102200648  0.9564937957141489  0.4002514138382191
  0.7909627489846254  0.0822381428559788  0.3999461580013375
  0.7912608382072884  0.2075930287718687  0.3999715389597664
  0.7916852566308381  0.3329245682594708  0.3996981474817630
  0.7925646400690817  0.4582905291203492  0.3994326156947349
  0.7932919680059609  0.5836924497260769  0.3995035309774727
  0.7928572989203496  0.7087054055176989  0.3998879867217435
  0.7909877951292476  0.8323023973425636  0.3999224110372105
  0.7905959202311089  0.9568957544621159  0.3999085828626545
  0.9161399127461479  0.0827800355836532  0.3996400795113467
  0.9160451625544409  0.2077032257676940  0.3997667422487780
  0.9161648395548819  0.3329120269706629  0.3997492052314505
  0.9167121873708028  0.4582972185557270  0.3996534581051545
  0.9173672092855361  0.5836881423946720  0.3996265671446357
  0.9174930778091744  0.7088978630447660  0.3996781497302004
  0.9172096937845332  0.8338898681674228  0.3996848267673810
  0.9165329532878018  0.9582522888086374  0.3995984550281808
  0.0841948258244419  0.0430242367545827  0.3998682843860566
  0.0839647659239107  0.1678459558763502  0.4000380427232682
  0.0826696764316722  0.2917728425596330  0.3999949503799198
  0.0820745701708046  0.4164495618208973  0.3995819897087148
  0.0826630047923513  0.5418199886079370  0.3995877516044381
  0.0834360345731918  0.6672146721175045  0.3998131432685462
  0.0838028371241741  0.7925113252651660  0.3999544504552549
  0.0840297484614330  0.9178115078422965  0.3998718568643106
  0.2091510996765096  0.0434603990168238  0.4001487640250587
  0.2096841147900522  0.1692403580318516  0.4009271664830553
  0.2093066339004352  0.2943414379198803  0.4014497794385921
  0.2064242871922210  0.4169989187132547  0.4006056695045696
  0.2064099881664541  0.5415084487111909  0.3996514508944937
  0.2077476135675990  0.6669046138161527  0.3996365325426277
  0.2085279411935594  0.7923707380256949  0.3998414722380668
  0.2088350209882905  0.9177989688174990  0.3999350778218874
  0.3337910180298957  0.0431821471889413  0.3998815595371045
  0.3342223390015259  0.1695625784307035  0.4008464952781123
  0.3351331409800665  0.2969316346285338  0.4034295439767089
  0.3302149975678622  0.5414851225290156  0.4011248644846026
  0.3319128328257754  0.6659885351110516  0.4000283667925795
  0.3331377516827449  0.7915568816224103  0.3997532200765729
  0.3335106931330916  0.9172401275736513  0.3997253206784964
  0.4583531805464897  0.0418343685351785  0.3996511755462635
  0.4586909543406612  0.1679766088255580  0.3998700570838652
  0.4595993928842516  0.2945099514152660  0.4010083773374782
  0.4636319427489379  0.4215169536309712  0.4052989805247378
  0.4543773514957893  0.6605737025933416  0.4021483694170419
  0.4574562917341972  0.7892567576137233  0.4003643782904026
  0.4580608264703925  0.9157883555546145  0.3998258726723301
  0.5829501119178692  0.0406354520872379  0.3998542051360326
  0.5833334251559140  0.1664228374863688  0.3996136123519514
  0.5839416703516207  0.2919535405366869  0.3997320831687197
  0.5860515965771084  0.4175204729728634  0.4005517177878768
  0.5879959893760721  0.5430159682233807  0.4025576592316538
  0.5818523128310902  0.6609343240167581  0.4031121992183536
  0.5810218178136870  0.7869170521225405  0.4014226849483574
  0.5824867370708378  0.9143716114104888  0.4002909047689392
  0.7076130709426111  0.0402904239297109  0.4000626291344386
  0.7080200876717113  0.1658628092085116  0.3999169349304725
  0.7084665091313994  0.2912859469518899  0.3996131860629358
  0.7096128090866874  0.4165652742710570  0.3994511928701286
  0.7106277844494981  0.5417669344517838  0.3998449694408433
  0.7099538736477232  0.6668249589143768  0.4005774280382169
  0.7072096888234934  0.7896566901255315  0.4005034956304057
  0.7069408337341928  0.9144343092340248  0.4002952654286119
  0.8326159025007188  0.0406461395609935  0.3997935200285645
  0.8327818017609876  0.1658686216028475  0.3999223066902662
  0.8330220396737946  0.2910943879684421  0.3998507452936401
  0.8336860729433475  0.4164362223674589  0.3995956680457186
  0.8344195346397629  0.5418553942787455  0.3994519477473933
  0.8345500329543862  0.6671321240718490  0.3996364689708019
  0.8338601517833345  0.7919192608763292  0.3997811705284510
  0.8328438639316593  0.9159407233575469  0.3997461224856150
  0.9584271578510845  0.0418430712477407  0.3995912443389996
  0.9579105453893371  0.1662919225213175  0.3996786594676542
  0.9576997315933203  0.2912708186774642  0.3997181801033515
  0.9578959975598440  0.4164482277824252  0.3996614488420825
  0.9585116750290353  0.5418061882934136  0.3996806209389481
  0.9590020298045397  0.6671835381395682  0.3997328719111148
  0.9590362300301493  0.7924507582322167  0.3997543070363368
  0.9588226812924281  0.9173410352902297  0.3996468366802058
  0.4107554651696753  0.5794955474693096  0.4029987018835559
  0.5449900237087595  0.5801595711528397  0.4050551145350644
  0.3316329245677487  0.4204120067013944  0.4050030698185933
  0.4372693754471392  0.4971864256273239  0.4790107832190378
 
  0.00000000E+00  0.00000000E+00  0.00000000E+00
  0.00000000E+00  0.00000000E+00  0.00000000E+00
  0.00000000E+00  0.00000000E+00  0.00000000E+00
  0.00000000E+00  0.00000000E+00  0.00000000E+00
  0.00000000E+00  0.00000000E+00  0.00000000E+00
  0.00000000E+00  0.00000000E+00  0.00000000E+00
  0.00000000E+00  0.00000000E+00  0.00000000E+00
  0.00000000E+00  0.00000000E+00  0.00000000E+00
  0.00000000E+00  0.00000000E+00  0.00000000E+00
  0.00000000E+00  0.00000000E+00  0.00000000E+00
  0.00000000E+00  0.00000000E+00  0.00000000E+00
  0.00000000E+00  0.00000000E+00  0.00000000E+00
  0.00000000E+00  0.00000000E+00  0.00000000E+00
  0.00000000E+00  0.00000000E+00  0.00000000E+00
  0.00000000E+00  0.00000000E+00  0.00000000E+00
  0.00000000E+00  0.00000000E+00  0.00000000E+00
  0.00000000E+00  0.00000000E+00  0.00000000E+00
  0.00000000E+00  0.00000000E+00  0.00000000E+00
  0.00000000E+00  0.00000000E+00  0.00000000E+00
  0.00000000E+00  0.00000000E+00  0.00000000E+00
  0.00000000E+00  0.00000000E+00  0.00000000E+00
  0.00000000E+00  0.00000000E+00  0.00000000E+00
  0.00000000E+00  0.00000000E+00  0.00000000E+00
  0.00000000E+00  0.00000000E+00  0.00000000E+00
  0.00000000E+00  0.00000000E+00  0.00000000E+00
  0.00000000E+00  0.00000000E+00  0.00000000E+00
  0.00000000E+00  0.00000000E+00  0.00000000E+00
  0.00000000E+00  0.00000000E+00  0.00000000E+00
  0.00000000E+00  0.00000000E+00  0.00000000E+00
  0.00000000E+00  0.00000000E+00  0.00000000E+00
  0.00000000E+00  0.00000000E+00  0.00000000E+00
  0.00000000E+00  0.00000000E+00  0.00000000E+00
  0.00000000E+00  0.00000000E+00  0.00000000E+00
  0.00000000E+00  0.00000000E+00  0.00000000E+00
  0.00000000E+00  0.00000000E+00  0.00000000E+00
  0.00000000E+00  0.00000000E+00  0.00000000E+00
  0.00000000E+00  0.00000000E+00  0.00000000E+00
  0.00000000E+00  0.00000000E+00  0.00000000E+00
  0.00000000E+00  0.00000000E+00  0.00000000E+00
  0.00000000E+00  0.00000000E+00  0.00000000E+00
  0.00000000E+00  0.00000000E+00  0.00000000E+00
  0.00000000E+00  0.00000000E+00  0.00000000E+00
  0.00000000E+00  0.00000000E+00  0.00000000E+00
  0.00000000E+00  0.00000000E+00  0.00000000E+00
  0.00000000E+00  0.00000000E+00  0.00000000E+00
  0.00000000E+00  0.00000000E+00  0.00000000E+00
  0.00000000E+00  0.00000000E+00  0.00000000E+00
  0.00000000E+00  0.00000000E+00  0.00000000E+00
  0.00000000E+00  0.00000000E+00  0.00000000E+00
  0.00000000E+00  0.00000000E+00  0.00000000E+00
  0.00000000E+00  0.00000000E+00  0.00000000E+00
  0.00000000E+00  0.00000000E+00  0.00000000E+00
  0.00000000E+00  0.00000000E+00  0.00000000E+00
  0.00000000E+00  0.00000000E+00  0.00000000E+00
  0.00000000E+00  0.00000000E+00  0.00000000E+00
  0.00000000E+00  0.00000000E+00  0.00000000E+00
  0.00000000E+00  0.00000000E+00  0.00000000E+00
  0.00000000E+00  0.00000000E+00  0.00000000E+00
  0.00000000E+00  0.00000000E+00  0.00000000E+00
  0.00000000E+00  0.00000000E+00  0.00000000E+00
  0.00000000E+00  0.00000000E+00  0.00000000E+00
  0.00000000E+00  0.00000000E+00  0.00000000E+00
  0.00000000E+00  0.00000000E+00  0.00000000E+00
  0.00000000E+00  0.00000000E+00  0.00000000E+00
  0.00000000E+00  0.00000000E+00  0.00000000E+00
  0.00000000E+00  0.00000000E+00  0.00000000E+00
  0.00000000E+00  0.00000000E+00  0.00000000E+00
  0.00000000E+00  0.00000000E+00  0.00000000E+00
  0.00000000E+00  0.00000000E+00  0.00000000E+00
  0.00000000E+00  0.00000000E+00  0.00000000E+00
  0.00000000E+00  0.00000000E+00  0.00000000E+00
  0.00000000E+00  0.00000000E+00  0.00000000E+00
  0.00000000E+00  0.00000000E+00  0.00000000E+00
  0.00000000E+00  0.00000000E+00  0.00000000E+00
  0.00000000E+00  0.00000000E+00  0.00000000E+00
  0.00000000E+00  0.00000000E+00  0.00000000E+00
  0.00000000E+00  0.00000000E+00  0.00000000E+00
  0.00000000E+00  0.00000000E+00  0.00000000E+00
  0.00000000E+00  0.00000000E+00  0.00000000E+00
  0.00000000E+00  0.00000000E+00  0.00000000E+00
  0.00000000E+00  0.00000000E+00  0.00000000E+00
  0.00000000E+00  0.00000000E+00  0.00000000E+00
  0.00000000E+00  0.00000000E+00  0.00000000E+00
  0.00000000E+00  0.00000000E+00  0.00000000E+00
  0.00000000E+00  0.00000000E+00  0.00000000E+00
  0.00000000E+00  0.00000000E+00  0.00000000E+00
  0.00000000E+00  0.00000000E+00  0.00000000E+00
  0.00000000E+00  0.00000000E+00  0.00000000E+00
  0.00000000E+00  0.00000000E+00  0.00000000E+00
  0.00000000E+00  0.00000000E+00  0.00000000E+00
  0.00000000E+00  0.00000000E+00  0.00000000E+00
  0.00000000E+00  0.00000000E+00  0.00000000E+00
  0.00000000E+00  0.00000000E+00  0.00000000E+00
  0.00000000E+00  0.00000000E+00  0.00000000E+00
  0.00000000E+00  0.00000000E+00  0.00000000E+00
  0.00000000E+00  0.00000000E+00  0.00000000E+00
  0.00000000E+00  0.00000000E+00  0.00000000E+00
  0.00000000E+00  0.00000000E+00  0.00000000E+00
  0.00000000E+00  0.00000000E+00  0.00000000E+00
  0.00000000E+00  0.00000000E+00  0.00000000E+00
  0.00000000E+00  0.00000000E+00  0.00000000E+00
  0.00000000E+00  0.00000000E+00  0.00000000E+00
  0.00000000E+00  0.00000000E+00  0.00000000E+00
  0.00000000E+00  0.00000000E+00  0.00000000E+00
  0.00000000E+00  0.00000000E+00  0.00000000E+00
  0.00000000E+00  0.00000000E+00  0.00000000E+00
  0.00000000E+00  0.00000000E+00  0.00000000E+00
  0.00000000E+00  0.00000000E+00  0.00000000E+00
  0.00000000E+00  0.00000000E+00  0.00000000E+00
  0.00000000E+00  0.00000000E+00  0.00000000E+00
  0.00000000E+00  0.00000000E+00  0.00000000E+00
  0.00000000E+00  0.00000000E+00  0.00000000E+00
  0.00000000E+00  0.00000000E+00  0.00000000E+00
  0.00000000E+00  0.00000000E+00  0.00000000E+00
  0.00000000E+00  0.00000000E+00  0.00000000E+00
  0.00000000E+00  0.00000000E+00  0.00000000E+00
  0.00000000E+00  0.00000000E+00  0.00000000E+00
  0.00000000E+00  0.00000000E+00  0.00000000E+00
  0.00000000E+00  0.00000000E+00  0.00000000E+00
  0.00000000E+00  0.00000000E+00  0.00000000E+00
  0.00000000E+00  0.00000000E+00  0.00000000E+00
  0.00000000E+00  0.00000000E+00  0.00000000E+00
  0.00000000E+00  0.00000000E+00  0.00000000E+00
  0.00000000E+00  0.00000000E+00  0.00000000E+00
  0.00000000E+00  0.00000000E+00  0.00000000E+00
  0.00000000E+00  0.00000000E+00  0.00000000E+00
  0.00000000E+00  0.00000000E+00  0.00000000E+00
  0.00000000E+00  0.00000000E+00  0.00000000E+00
