H1 Au1 C123 N3                          
   1.00000000000000     
    19.8459893842948816    0.0057309004298902   -0.0070352136328584
    -9.9178449543582783   17.0324935643987523   -0.0067865808532726
    -0.0102360122704597   -0.0182116084644485   29.7631073978814662
   H    Au   C    N 
     1     1   123     3
Direct
  0.4376713856192730  0.5004295597877421  0.4768302385533772
  0.4372286534023561  0.4989937176676118  0.4163269479793247
  0.0416912258122735  0.0839282379629041  0.3999644614837976
  0.0405183603388007  0.2078875423080583  0.4000085706246033
  0.0397398807059592  0.3327114423505913  0.3993937664259931
  0.0399864934826104  0.4581345262554523  0.3987466474120507
  0.0411919097650288  0.5838796582211320  0.3987529521711585
  0.0423349532163405  0.7094568424962947  0.3991048819630482
  0.0426670744001769  0.8346975998126498  0.3994393400180335
  0.0425021812754693  0.9596663025297599  0.3996951987308130
  0.1677916349599935  0.0855789014491952  0.4005171377767868
  0.1668173209396636  0.2098660343094746  0.4014970809261403
  0.1642020869025737  0.3333132596056262  0.4011833903765467
  0.1631821330060537  0.4583850596150959  0.3996922676250984
  0.1644542104472359  0.5838442270190534  0.3987709845900798
  0.1662412480150974  0.7092452572599675  0.3990372093049198
  0.1671569205876155  0.8347304380575239  0.3994613596040852
  0.1676181324549960  0.9602497380204261  0.3998020158094595
  0.2927125195239473  0.0859990278153304  0.4005914827630797
  0.2932707134255382  0.2127571423977453  0.4030973741528961
  0.2912098012478855  0.3374209110320013  0.4048727411823869
  0.2857394748352171  0.4581237837462834  0.4035101753313973
  0.2870776270712618  0.5832636111392229  0.4010033708359076
  0.2902050676548393  0.7086893700247137  0.3995833880690134
  0.2915585824481443  0.8341973162271186  0.3994056908704338
  0.2922295187312798  0.9598499242316024  0.3997144159722874
  0.4171603799604273  0.0842623419951026  0.3999492792402257
  0.4179495117447258  0.2103643587058882  0.4016895073308449
  0.4200808012381283  0.3376724046337406  0.4069643031121808
  0.4141672888023623  0.7063943385565247  0.4020091589529367
  0.4159059750615433  0.8323935985766232  0.3998277460999773
  0.4166680603066489  0.9583534634782405  0.3996220667113646
  0.5416058112025048  0.0824712201722799  0.3996309517302292
  0.5423813077177754  0.2082257498797321  0.4000504582029555
  0.5439479120240629  0.3337739198485293  0.4022197971294357
  0.5491036891387552  0.4594299726954555  0.4062556785677492
  0.5380718867484966  0.7012127735758217  0.4050488539665174
  0.5403379276525525  0.8299381890844383  0.4013038722237668
  0.5410243410994794  0.9564984385241890  0.3998174564270252
  0.6660465121782730  0.0816861081921391  0.3996313915139980
  0.6666576162310626  0.2072188013911284  0.3994473985627858
  0.6678984295465912  0.3327387913000084  0.3995911871563840
  0.6707707735217973  0.4584983080457566  0.4006712484254545
  0.6723300332944303  0.5842376780222315  0.4024694366321033
  0.6671513236591671  0.7063089500451086  0.4028124820189117
  0.6646281233186362  0.8299186180025107  0.4015775820709113
  0.6654500198234676  0.9559621466043748  0.4001495694699762
  0.7905781918154832  0.0816029147382082  0.3996505063096519
  0.7909671065649869  0.2070084795670763  0.3993629331461890
  0.7918345250336976  0.3325322132168964  0.3990423191504849
  0.7934530747126654  0.4581975763865013  0.3989387621179145
  0.7947234031559098  0.5839150876722040  0.3995810188315898
  0.7939450624250469  0.7090606337733958  0.4003193627267650
  0.7914279198265841  0.8323780525766586  0.4003858505591678
  0.7903594643283181  0.9564070152360866  0.3999682168485529
  0.9156771239948730  0.0823040150263734  0.3996827557992473
  0.9154073329572805  0.2071247953490963  0.3994541110904296
  0.9156901516086925  0.3324969541420426  0.3990398737118278
  0.9167035237488236  0.4581796899381319  0.3987362311643204
  0.9179185373932115  0.5839099502673517  0.3988173598579744
  0.9182023657223987  0.7092910067651762  0.3992571949890099
  0.9177231220376040  0.8341890140817776  0.3995835496205913
  0.9165551719420819  0.9581738792970336  0.3996916906680311
  0.0842105768883280  0.0432565230281968  0.3999895865236537
  0.0831918225997729  0.1674421208545104  0.4003915735404495
  0.0815048789319009  0.2912855894184766  0.4000561959690689
  0.0806872279934853  0.4161053706423519  0.3991210355100550
  0.0817630670744678  0.5418138304526886  0.3986536510694349
  0.0832512204356600  0.6674809344030562  0.3989434582762806
  0.0840014248473093  0.7929652566661416  0.3993463840389191
  0.0843117773162123  0.9182646229382195  0.3996397517389847
  0.2092956389169283  0.0438538832478548  0.4002699070880293
  0.2095188111154206  0.1693872465508425  0.4016629955103419
  0.2076080765713276  0.2934278928444354  0.4024818277068460
  0.2040967973923260  0.4166901220759444  0.4011940915407332
  0.2045771072761617  0.5415613572980362  0.3994070447727145
  0.2069741897968514  0.6672414733363200  0.3990075604881662
  0.2083589439936268  0.7928351996989522  0.3993180083328570
  0.2090068623924512  0.9183174299333331  0.3996696517679775
  0.3339782657421684  0.0435746945267127  0.4000214082421869
  0.3344740316117509  0.1698366805314158  0.4018761810977986
  0.3351920966421906  0.2971162403530357  0.4055885379771493
  0.3273469315854439  0.5420732234441891  0.4041128148549041
  0.3307644459083985  0.6665469666086276  0.4008438534195491
  0.3326958503523330  0.7920047052053363  0.3995314800056077
  0.3334437006152237  0.9176380070075527  0.3995656689591413
  0.4584180217917822  0.0418145386143932  0.3997055885759511
  0.4590200906821260  0.1677937386425497  0.4003836346744808
  0.4604658616575150  0.2939713395929910  0.4034244621542993
  0.4676747049598104  0.4192590513141261  0.4104695783532692
  0.4530852279605219  0.6617001222891926  0.4053450628648969
  0.4569878848720381  0.7898096841594171  0.4008318989826573
  0.4578323406109072  0.9159455884929447  0.3996862292713226
  0.5828001401909911  0.0401949865113349  0.3996519182631898
  0.5835032760341995  0.1659959413142966  0.3996229975982445
  0.5846851619313173  0.2914494448038026  0.4004034126434140
  0.5882532593569245  0.4169824796170419  0.4027330341926658
  0.5913847502725031  0.5430750932421339  0.4052207242076330
  0.5833206231331168  0.6615698831238654  0.4052161670387609
  0.5806586430575981  0.7863526627438012  0.4027147041394066
  0.5822052868710473  0.9139266470307583  0.4003129407321802
  0.7072996992267500  0.0396925649098722  0.3997524975868141
  0.7078517094895771  0.1652491524591725  0.3994670030718395
  0.7087502531556326  0.2907634158553931  0.3992655642085013
  0.7107809579923081  0.4162441931656384  0.3994754722802635
  0.7125287493459656  0.5417785977294954  0.4007765381591166
  0.7113008365117107  0.6671789704495047  0.4018260269245284
  0.7077867586250559  0.7898553402138303  0.4015148790707365
  0.7066769021132533  0.9139355348836617  0.4004392430473696
  0.8322351346930755  0.0401256436865642  0.3997139151698916
  0.8323287102480282  0.1652531227251162  0.3994731070612090
  0.8327646905357285  0.2905382770172279  0.3991410166024840
  0.8339793421636644  0.4160817305599730  0.3988276254680304
  0.8353227136216984  0.5418656587744191  0.3989633622003390
  0.8355006769017687  0.6674382380526842  0.3996192920173004
  0.8345164689338576  0.7921986122711540  0.4000183419754628
  0.8329400053655590  0.9158500738718739  0.3999323549060359
  0.9581622412511546  0.0416256213119469  0.3997221608806165
  0.9572313745172196  0.1657890944213814  0.3996553143066276
  0.9569332994954073  0.2907302863084497  0.3992482765329892
  0.9573411072491244  0.4161054826233510  0.3988099386661855
  0.9585052235557133  0.5417834035081994  0.3987278862730261
  0.9594545984527403  0.6674787234055835  0.3990276059863411
  0.9595478245039890  0.7928562820920235  0.3994051332758564
  0.9591092449060173  0.9175982755698642  0.3996193149807605
  0.4070390470716532  0.5823547914392363  0.4084514324432693
  0.5502319808042183  0.5816157564844942  0.4068403068121704
  0.3257305180788222  0.4178127029445997  0.4056171152788041
 
  0.00000000E+00  0.00000000E+00  0.00000000E+00
  0.00000000E+00  0.00000000E+00  0.00000000E+00
  0.00000000E+00  0.00000000E+00  0.00000000E+00
  0.00000000E+00  0.00000000E+00  0.00000000E+00
  0.00000000E+00  0.00000000E+00  0.00000000E+00
  0.00000000E+00  0.00000000E+00  0.00000000E+00
  0.00000000E+00  0.00000000E+00  0.00000000E+00
  0.00000000E+00  0.00000000E+00  0.00000000E+00
  0.00000000E+00  0.00000000E+00  0.00000000E+00
  0.00000000E+00  0.00000000E+00  0.00000000E+00
  0.00000000E+00  0.00000000E+00  0.00000000E+00
  0.00000000E+00  0.00000000E+00  0.00000000E+00
  0.00000000E+00  0.00000000E+00  0.00000000E+00
  0.00000000E+00  0.00000000E+00  0.00000000E+00
  0.00000000E+00  0.00000000E+00  0.00000000E+00
  0.00000000E+00  0.00000000E+00  0.00000000E+00
  0.00000000E+00  0.00000000E+00  0.00000000E+00
  0.00000000E+00  0.00000000E+00  0.00000000E+00
  0.00000000E+00  0.00000000E+00  0.00000000E+00
  0.00000000E+00  0.00000000E+00  0.00000000E+00
  0.00000000E+00  0.00000000E+00  0.00000000E+00
  0.00000000E+00  0.00000000E+00  0.00000000E+00
  0.00000000E+00  0.00000000E+00  0.00000000E+00
  0.00000000E+00  0.00000000E+00  0.00000000E+00
  0.00000000E+00  0.00000000E+00  0.00000000E+00
  0.00000000E+00  0.00000000E+00  0.00000000E+00
  0.00000000E+00  0.00000000E+00  0.00000000E+00
  0.00000000E+00  0.00000000E+00  0.00000000E+00
  0.00000000E+00  0.00000000E+00  0.00000000E+00
  0.00000000E+00  0.00000000E+00  0.00000000E+00
  0.00000000E+00  0.00000000E+00  0.00000000E+00
  0.00000000E+00  0.00000000E+00  0.00000000E+00
  0.00000000E+00  0.00000000E+00  0.00000000E+00
  0.00000000E+00  0.00000000E+00  0.00000000E+00
  0.00000000E+00  0.00000000E+00  0.00000000E+00
  0.00000000E+00  0.00000000E+00  0.00000000E+00
  0.00000000E+00  0.00000000E+00  0.00000000E+00
  0.00000000E+00  0.00000000E+00  0.00000000E+00
  0.00000000E+00  0.00000000E+00  0.00000000E+00
  0.00000000E+00  0.00000000E+00  0.00000000E+00
  0.00000000E+00  0.00000000E+00  0.00000000E+00
  0.00000000E+00  0.00000000E+00  0.00000000E+00
  0.00000000E+00  0.00000000E+00  0.00000000E+00
  0.00000000E+00  0.00000000E+00  0.00000000E+00
  0.00000000E+00  0.00000000E+00  0.00000000E+00
  0.00000000E+00  0.00000000E+00  0.00000000E+00
  0.00000000E+00  0.00000000E+00  0.00000000E+00
  0.00000000E+00  0.00000000E+00  0.00000000E+00
  0.00000000E+00  0.00000000E+00  0.00000000E+00
  0.00000000E+00  0.00000000E+00  0.00000000E+00
  0.00000000E+00  0.00000000E+00  0.00000000E+00
  0.00000000E+00  0.00000000E+00  0.00000000E+00
  0.00000000E+00  0.00000000E+00  0.00000000E+00
  0.00000000E+00  0.00000000E+00  0.00000000E+00
  0.00000000E+00  0.00000000E+00  0.00000000E+00
  0.00000000E+00  0.00000000E+00  0.00000000E+00
  0.00000000E+00  0.00000000E+00  0.00000000E+00
  0.00000000E+00  0.00000000E+00  0.00000000E+00
  0.00000000E+00  0.00000000E+00  0.00000000E+00
  0.00000000E+00  0.00000000E+00  0.00000000E+00
  0.00000000E+00  0.00000000E+00  0.00000000E+00
  0.00000000E+00  0.00000000E+00  0.00000000E+00
  0.00000000E+00  0.00000000E+00  0.00000000E+00
  0.00000000E+00  0.00000000E+00  0.00000000E+00
  0.00000000E+00  0.00000000E+00  0.00000000E+00
  0.00000000E+00  0.00000000E+00  0.00000000E+00
  0.00000000E+00  0.00000000E+00  0.00000000E+00
  0.00000000E+00  0.00000000E+00  0.00000000E+00
  0.00000000E+00  0.00000000E+00  0.00000000E+00
  0.00000000E+00  0.00000000E+00  0.00000000E+00
  0.00000000E+00  0.00000000E+00  0.00000000E+00
  0.00000000E+00  0.00000000E+00  0.00000000E+00
  0.00000000E+00  0.00000000E+00  0.00000000E+00
  0.00000000E+00  0.00000000E+00  0.00000000E+00
  0.00000000E+00  0.00000000E+00  0.00000000E+00
  0.00000000E+00  0.00000000E+00  0.00000000E+00
  0.00000000E+00  0.00000000E+00  0.00000000E+00
  0.00000000E+00  0.00000000E+00  0.00000000E+00
  0.00000000E+00  0.00000000E+00  0.00000000E+00
  0.00000000E+00  0.00000000E+00  0.00000000E+00
  0.00000000E+00  0.00000000E+00  0.00000000E+00
  0.00000000E+00  0.00000000E+00  0.00000000E+00
  0.00000000E+00  0.00000000E+00  0.00000000E+00
  0.00000000E+00  0.00000000E+00  0.00000000E+00
  0.00000000E+00  0.00000000E+00  0.00000000E+00
  0.00000000E+00  0.00000000E+00  0.00000000E+00
  0.00000000E+00  0.00000000E+00  0.00000000E+00
  0.00000000E+00  0.00000000E+00  0.00000000E+00
  0.00000000E+00  0.00000000E+00  0.00000000E+00
  0.00000000E+00  0.00000000E+00  0.00000000E+00
  0.00000000E+00  0.00000000E+00  0.00000000E+00
  0.00000000E+00  0.00000000E+00  0.00000000E+00
  0.00000000E+00  0.00000000E+00  0.00000000E+00
  0.00000000E+00  0.00000000E+00  0.00000000E+00
  0.00000000E+00  0.00000000E+00  0.00000000E+00
  0.00000000E+00  0.00000000E+00  0.00000000E+00
  0.00000000E+00  0.00000000E+00  0.00000000E+00
  0.00000000E+00  0.00000000E+00  0.00000000E+00
  0.00000000E+00  0.00000000E+00  0.00000000E+00
  0.00000000E+00  0.00000000E+00  0.00000000E+00
  0.00000000E+00  0.00000000E+00  0.00000000E+00
  0.00000000E+00  0.00000000E+00  0.00000000E+00
  0.00000000E+00  0.00000000E+00  0.00000000E+00
  0.00000000E+00  0.00000000E+00  0.00000000E+00
  0.00000000E+00  0.00000000E+00  0.00000000E+00
  0.00000000E+00  0.00000000E+00  0.00000000E+00
  0.00000000E+00  0.00000000E+00  0.00000000E+00
  0.00000000E+00  0.00000000E+00  0.00000000E+00
  0.00000000E+00  0.00000000E+00  0.00000000E+00
  0.00000000E+00  0.00000000E+00  0.00000000E+00
  0.00000000E+00  0.00000000E+00  0.00000000E+00
  0.00000000E+00  0.00000000E+00  0.00000000E+00
  0.00000000E+00  0.00000000E+00  0.00000000E+00
  0.00000000E+00  0.00000000E+00  0.00000000E+00
  0.00000000E+00  0.00000000E+00  0.00000000E+00
  0.00000000E+00  0.00000000E+00  0.00000000E+00
  0.00000000E+00  0.00000000E+00  0.00000000E+00
  0.00000000E+00  0.00000000E+00  0.00000000E+00
  0.00000000E+00  0.00000000E+00  0.00000000E+00
  0.00000000E+00  0.00000000E+00  0.00000000E+00
  0.00000000E+00  0.00000000E+00  0.00000000E+00
  0.00000000E+00  0.00000000E+00  0.00000000E+00
  0.00000000E+00  0.00000000E+00  0.00000000E+00
  0.00000000E+00  0.00000000E+00  0.00000000E+00
  0.00000000E+00  0.00000000E+00  0.00000000E+00
  0.00000000E+00  0.00000000E+00  0.00000000E+00
  0.00000000E+00  0.00000000E+00  0.00000000E+00
  0.00000000E+00  0.00000000E+00  0.00000000E+00
