H1 Au1 C124 N2 O1                       
   1.00000000000000     
    19.8598853812030676   -0.0045591086425503    0.0225643136011183
    -9.9342288747486673   17.0500080370764735   -0.0245167852577008
     0.0337392957809947   -0.0230498867440189   29.7207405521379897
   H    Au   C    N    O 
     1     1   124     2     1
Direct
  0.4834545215155630  0.5492502726333406  0.4989093595336112
  0.4373362777093996  0.4998854807286852  0.4139284988913567
  0.0419169038148972  0.0840898325327388  0.3997316000509323
  0.0406164362009136  0.2080016921168608  0.3996934419451831
  0.0397153665354430  0.3326331388430225  0.3992932430736207
  0.0397652230282125  0.4582654772995789  0.3988878863937669
  0.0410765871695037  0.5839692979218343  0.3987586383244496
  0.0421708900233757  0.7095302367984953  0.3989554252432997
  0.0426249082987221  0.8348670321774335  0.3992953765799564
  0.0427204734901913  0.9599297740067748  0.3995333725529473
  0.1682516429844013  0.0860905602142492  0.4005970689254734
  0.1669254678049103  0.2099694723728762  0.4013033762223654
  0.1644276234979692  0.3335561355700137  0.4013239969540365
  0.1625597565513537  0.4583862747021247  0.4003315904652629
  0.1642963458452009  0.5839575903146059  0.3997348855097292
  0.1661010158641559  0.7094721821155721  0.3993719735255256
  0.1670791925134847  0.8349250497730153  0.3993047217722229
  0.1677317802582079  0.9604540602384123  0.3997294428246028
  0.2929228539887270  0.0858595892887045  0.4006953044433835
  0.2945968655765932  0.2131796290138691  0.4029744238860969
  0.2914321367365365  0.3371243247791691  0.4053491640888746
  0.2848765689499484  0.4587325659494046  0.4046838187250597
  0.2870437564478274  0.5844210774332376  0.4024445569011454
  0.2900435688412156  0.7092444368674099  0.4006325826302796
  0.2914301109780009  0.8344047675380100  0.3996230401216840
  0.2921749569936221  0.9598972453361625  0.3995521196186771
  0.4172683451332043  0.0840437592879631  0.4000195027575961
  0.4180866343161087  0.2098902178135714  0.4020191131152651
  0.4217230621486626  0.3379133023379493  0.4051181073672598
  0.4140238072150369  0.7065877872348639  0.4031933222606664
  0.4157605883694791  0.8326231474868536  0.4007107244717437
  0.4165656212824571  0.9583171782767910  0.3995501216974207
  0.5416095286773652  0.0822621111648219  0.3995205459887994
  0.5424369168321427  0.2076280169191211  0.4003988205940979
  0.5441531569360559  0.3327231202265255  0.4021794186164199
  0.5477639396776856  0.4568435139714554  0.4046434867059377
  0.5486977781371839  0.5810984089170579  0.4081693614507185
  0.5382066633243281  0.7025639410783641  0.4052355925947572
  0.5399693820921284  0.8303758983286790  0.4019669559511133
  0.5409913800348640  0.9565867024273800  0.4000354352718323
  0.6660130385752081  0.0815259269868388  0.3995031729915714
  0.6667693966900763  0.2070391362637709  0.3994354168734012
  0.6680182338446446  0.3324659486480669  0.4000007959708787
  0.6705322514796779  0.4581317726506143  0.4009430382930098
  0.6717023994903464  0.5832617822275599  0.4021266641649280
  0.6672375699915876  0.7066471562600786  0.4026911198285317
  0.6647736224932803  0.8300468287980792  0.4017483383264655
  0.6654406985763783  0.9559382151955483  0.4003466478496485
  0.7906576647700896  0.0815309148769676  0.3995226542337200
  0.7910139477302132  0.2068428340904778  0.3992010456728362
  0.7919255599752925  0.3324212254368291  0.3989919278770360
  0.7933720974829235  0.4581288208061067  0.3990682464241647
  0.7945786069153773  0.5837551093378853  0.3994558489951191
  0.7934832570417791  0.7086921133193196  0.4000696425803160
  0.7916867037595444  0.8325600350064474  0.4001450687776936
  0.7904739503158849  0.9564399421011572  0.3998639312527171
  0.9158535044913035  0.0823625040490533  0.3993672750796516
  0.9154956201739984  0.2071132957585174  0.3991855524959754
  0.9157235295984663  0.3324498990829071  0.3988164032300573
  0.9165603087812142  0.4581383170890241  0.3985351044408678
  0.9178156281736968  0.5839174802815312  0.3986439180104537
  0.9180755626202283  0.7093700318655546  0.3990589722576088
  0.9176552842084770  0.8341522420587214  0.3993513665555000
  0.9167343641159557  0.9582903284573752  0.3994243989435761
  0.0845573745957136  0.0435845943983379  0.3998973539546611
  0.0833312983592243  0.1674718458118985  0.4001090232089881
  0.0815124508917991  0.2913416317458254  0.3999329939415105
  0.0803844618181302  0.4162770767769803  0.3993130488703243
  0.0815988433989281  0.5419110472599172  0.3990126252049382
  0.0831054900483486  0.6676319525174130  0.3989816513665388
  0.0840142791790044  0.7932021348648037  0.3992032952558741
  0.0844135674114093  0.9184993544695170  0.3995211863595640
  0.2096069260282704  0.0441084258864361  0.4003488055000319
  0.2102178985405834  0.1699967420610959  0.4017001845554224
  0.2077602284455625  0.2934054759896259  0.4024619019058548
  0.2032495288208540  0.4167671077315221  0.4017686635838781
  0.2044170688647210  0.5419000954867011  0.4007130409867302
  0.2069652236387906  0.6675892820547303  0.3998862506428806
  0.2082538609452617  0.7930250727595274  0.3994027953990247
  0.2090701866027837  0.9185349367391419  0.3994948056623380
  0.3340682225684731  0.0434742409714298  0.4000264546420101
  0.3350261272389317  0.1696879689454053  0.4019407020895381
  0.3366971761105341  0.2974944290373841  0.4050204164086348
  0.3262365354006034  0.4189693092353149  0.4078458277079047
  0.3270605281210818  0.5431301030326234  0.4045974666860130
  0.3307881974295132  0.6673098298335854  0.4020838550159010
  0.3325785425789474  0.7924381736487921  0.4002848189706706
  0.3334728377073484  0.9177967617522600  0.3994852266627671
  0.4585256266480788  0.0417415204345940  0.3995667677327527
  0.4592620181585797  0.1674357807422331  0.4007762869479464
  0.4609307426185438  0.2934457675706422  0.4032078846821044
  0.4531944420465533  0.6621197637936739  0.4052577550071356
  0.4569019345385202  0.7901496756560779  0.4019867288677739
  0.4577953211382223  0.9160098791193743  0.4000012208566990
  0.5829113696953168  0.0401620033009396  0.3995687479819786
  0.5836058745629831  0.1656660710477128  0.3996891522710446
  0.5849482763784797  0.2908153598098925  0.4007653576223477
  0.5878748267086172  0.4156099260960145  0.4025947455337294
  0.5900437214997704  0.5412926013325842  0.4050199487360799
  0.5835233417851288  0.6629415518673023  0.4057089077677735
  0.5803700389974425  0.7868826759459988  0.4030851379680738
  0.5821254955478845  0.9142023317290572  0.4007088406802975
  0.7073362143214884  0.0395908997178396  0.3997357909604746
  0.7079619272032204  0.1651390826491742  0.3993063128599907
  0.7089225565000946  0.2905964732876999  0.3994206218598096
  0.7106714795262633  0.4160914708746510  0.3998807261131703
  0.7124119554317038  0.5416505859910230  0.4005985536824781
  0.7105461566577544  0.6664729407570200  0.4015774641140786
  0.7080771157929634  0.7900663026382125  0.4013934308429821
  0.7067686534876870  0.9139370933911121  0.4005727032623035
  0.8323406204221877  0.0400948808837265  0.3995212664675850
  0.8324007096753486  0.1651661009951400  0.3992852068446412
  0.8328666253602243  0.2905165718705454  0.3989507756492726
  0.8339061651654627  0.4160738098461971  0.3987531272792249
  0.8352089437588311  0.5417771271130165  0.3989371471217903
  0.8352719175272491  0.6673972915013699  0.3994052812829734
  0.8343934162255084  0.7920244685983857  0.3997558235347156
  0.8331256251199829  0.9159404330208488  0.3997162003899036
  0.9583287668221071  0.0417291917204396  0.3994274074576300
  0.9573652272581185  0.1658638619107232  0.3993195049626055
  0.9569310015330943  0.2906521753115326  0.3990121395372285
  0.9571711519595608  0.4161326376782538  0.3986579419197244
  0.9584338058550463  0.5419117650640514  0.3985324624638287
  0.9593044319921914  0.6675927341320826  0.3988254653817399
  0.9595134531878059  0.7928968378662080  0.3992219456920747
  0.9592027948223966  0.9176524865328847  0.3993754113631975
  0.4064883337649460  0.5815264869026364  0.4058808632302193
  0.4683432789574328  0.4184161509344984  0.4056132027725757
  0.4392409495116578  0.4982274746689119  0.4907153765431657
 
  0.00000000E+00  0.00000000E+00  0.00000000E+00
  0.00000000E+00  0.00000000E+00  0.00000000E+00
  0.00000000E+00  0.00000000E+00  0.00000000E+00
  0.00000000E+00  0.00000000E+00  0.00000000E+00
  0.00000000E+00  0.00000000E+00  0.00000000E+00
  0.00000000E+00  0.00000000E+00  0.00000000E+00
  0.00000000E+00  0.00000000E+00  0.00000000E+00
  0.00000000E+00  0.00000000E+00  0.00000000E+00
  0.00000000E+00  0.00000000E+00  0.00000000E+00
  0.00000000E+00  0.00000000E+00  0.00000000E+00
  0.00000000E+00  0.00000000E+00  0.00000000E+00
  0.00000000E+00  0.00000000E+00  0.00000000E+00
  0.00000000E+00  0.00000000E+00  0.00000000E+00
  0.00000000E+00  0.00000000E+00  0.00000000E+00
  0.00000000E+00  0.00000000E+00  0.00000000E+00
  0.00000000E+00  0.00000000E+00  0.00000000E+00
  0.00000000E+00  0.00000000E+00  0.00000000E+00
  0.00000000E+00  0.00000000E+00  0.00000000E+00
  0.00000000E+00  0.00000000E+00  0.00000000E+00
  0.00000000E+00  0.00000000E+00  0.00000000E+00
  0.00000000E+00  0.00000000E+00  0.00000000E+00
  0.00000000E+00  0.00000000E+00  0.00000000E+00
  0.00000000E+00  0.00000000E+00  0.00000000E+00
  0.00000000E+00  0.00000000E+00  0.00000000E+00
  0.00000000E+00  0.00000000E+00  0.00000000E+00
  0.00000000E+00  0.00000000E+00  0.00000000E+00
  0.00000000E+00  0.00000000E+00  0.00000000E+00
  0.00000000E+00  0.00000000E+00  0.00000000E+00
  0.00000000E+00  0.00000000E+00  0.00000000E+00
  0.00000000E+00  0.00000000E+00  0.00000000E+00
  0.00000000E+00  0.00000000E+00  0.00000000E+00
  0.00000000E+00  0.00000000E+00  0.00000000E+00
  0.00000000E+00  0.00000000E+00  0.00000000E+00
  0.00000000E+00  0.00000000E+00  0.00000000E+00
  0.00000000E+00  0.00000000E+00  0.00000000E+00
  0.00000000E+00  0.00000000E+00  0.00000000E+00
  0.00000000E+00  0.00000000E+00  0.00000000E+00
  0.00000000E+00  0.00000000E+00  0.00000000E+00
  0.00000000E+00  0.00000000E+00  0.00000000E+00
  0.00000000E+00  0.00000000E+00  0.00000000E+00
  0.00000000E+00  0.00000000E+00  0.00000000E+00
  0.00000000E+00  0.00000000E+00  0.00000000E+00
  0.00000000E+00  0.00000000E+00  0.00000000E+00
  0.00000000E+00  0.00000000E+00  0.00000000E+00
  0.00000000E+00  0.00000000E+00  0.00000000E+00
  0.00000000E+00  0.00000000E+00  0.00000000E+00
  0.00000000E+00  0.00000000E+00  0.00000000E+00
  0.00000000E+00  0.00000000E+00  0.00000000E+00
  0.00000000E+00  0.00000000E+00  0.00000000E+00
  0.00000000E+00  0.00000000E+00  0.00000000E+00
  0.00000000E+00  0.00000000E+00  0.00000000E+00
  0.00000000E+00  0.00000000E+00  0.00000000E+00
  0.00000000E+00  0.00000000E+00  0.00000000E+00
  0.00000000E+00  0.00000000E+00  0.00000000E+00
  0.00000000E+00  0.00000000E+00  0.00000000E+00
  0.00000000E+00  0.00000000E+00  0.00000000E+00
  0.00000000E+00  0.00000000E+00  0.00000000E+00
  0.00000000E+00  0.00000000E+00  0.00000000E+00
  0.00000000E+00  0.00000000E+00  0.00000000E+00
  0.00000000E+00  0.00000000E+00  0.00000000E+00
  0.00000000E+00  0.00000000E+00  0.00000000E+00
  0.00000000E+00  0.00000000E+00  0.00000000E+00
  0.00000000E+00  0.00000000E+00  0.00000000E+00
  0.00000000E+00  0.00000000E+00  0.00000000E+00
  0.00000000E+00  0.00000000E+00  0.00000000E+00
  0.00000000E+00  0.00000000E+00  0.00000000E+00
  0.00000000E+00  0.00000000E+00  0.00000000E+00
  0.00000000E+00  0.00000000E+00  0.00000000E+00
  0.00000000E+00  0.00000000E+00  0.00000000E+00
  0.00000000E+00  0.00000000E+00  0.00000000E+00
  0.00000000E+00  0.00000000E+00  0.00000000E+00
  0.00000000E+00  0.00000000E+00  0.00000000E+00
  0.00000000E+00  0.00000000E+00  0.00000000E+00
  0.00000000E+00  0.00000000E+00  0.00000000E+00
  0.00000000E+00  0.00000000E+00  0.00000000E+00
  0.00000000E+00  0.00000000E+00  0.00000000E+00
  0.00000000E+00  0.00000000E+00  0.00000000E+00
  0.00000000E+00  0.00000000E+00  0.00000000E+00
  0.00000000E+00  0.00000000E+00  0.00000000E+00
  0.00000000E+00  0.00000000E+00  0.00000000E+00
  0.00000000E+00  0.00000000E+00  0.00000000E+00
  0.00000000E+00  0.00000000E+00  0.00000000E+00
  0.00000000E+00  0.00000000E+00  0.00000000E+00
  0.00000000E+00  0.00000000E+00  0.00000000E+00
  0.00000000E+00  0.00000000E+00  0.00000000E+00
  0.00000000E+00  0.00000000E+00  0.00000000E+00
  0.00000000E+00  0.00000000E+00  0.00000000E+00
  0.00000000E+00  0.00000000E+00  0.00000000E+00
  0.00000000E+00  0.00000000E+00  0.00000000E+00
  0.00000000E+00  0.00000000E+00  0.00000000E+00
  0.00000000E+00  0.00000000E+00  0.00000000E+00
  0.00000000E+00  0.00000000E+00  0.00000000E+00
  0.00000000E+00  0.00000000E+00  0.00000000E+00
  0.00000000E+00  0.00000000E+00  0.00000000E+00
  0.00000000E+00  0.00000000E+00  0.00000000E+00
  0.00000000E+00  0.00000000E+00  0.00000000E+00
  0.00000000E+00  0.00000000E+00  0.00000000E+00
  0.00000000E+00  0.00000000E+00  0.00000000E+00
  0.00000000E+00  0.00000000E+00  0.00000000E+00
  0.00000000E+00  0.00000000E+00  0.00000000E+00
  0.00000000E+00  0.00000000E+00  0.00000000E+00
  0.00000000E+00  0.00000000E+00  0.00000000E+00
  0.00000000E+00  0.00000000E+00  0.00000000E+00
  0.00000000E+00  0.00000000E+00  0.00000000E+00
  0.00000000E+00  0.00000000E+00  0.00000000E+00
  0.00000000E+00  0.00000000E+00  0.00000000E+00
  0.00000000E+00  0.00000000E+00  0.00000000E+00
  0.00000000E+00  0.00000000E+00  0.00000000E+00
  0.00000000E+00  0.00000000E+00  0.00000000E+00
  0.00000000E+00  0.00000000E+00  0.00000000E+00
  0.00000000E+00  0.00000000E+00  0.00000000E+00
  0.00000000E+00  0.00000000E+00  0.00000000E+00
  0.00000000E+00  0.00000000E+00  0.00000000E+00
  0.00000000E+00  0.00000000E+00  0.00000000E+00
  0.00000000E+00  0.00000000E+00  0.00000000E+00
  0.00000000E+00  0.00000000E+00  0.00000000E+00
  0.00000000E+00  0.00000000E+00  0.00000000E+00
  0.00000000E+00  0.00000000E+00  0.00000000E+00
  0.00000000E+00  0.00000000E+00  0.00000000E+00
  0.00000000E+00  0.00000000E+00  0.00000000E+00
  0.00000000E+00  0.00000000E+00  0.00000000E+00
  0.00000000E+00  0.00000000E+00  0.00000000E+00
  0.00000000E+00  0.00000000E+00  0.00000000E+00
  0.00000000E+00  0.00000000E+00  0.00000000E+00
  0.00000000E+00  0.00000000E+00  0.00000000E+00
  0.00000000E+00  0.00000000E+00  0.00000000E+00
  0.00000000E+00  0.00000000E+00  0.00000000E+00
  0.00000000E+00  0.00000000E+00  0.00000000E+00
  0.00000000E+00  0.00000000E+00  0.00000000E+00
