Ti1 H1 C125 N1 O2                       
   1.00000000000000     
    19.8047806783950868   -0.0107443305532662   -0.1952403368594123
    -9.9116509065435299   17.0701208729776610   -0.0878662226565956
    -0.2930234903765176   -0.3233916083277291   29.7800709228416807
   Ti   H    C    N    O 
     1     1   125     1     2
Direct
  0.4359709628835063  0.5015136253317651  0.4353497118034505
  0.5348065076809878  0.5597893540318966  0.5082049274034454
  0.0420693050372253  0.0840409738729694  0.3995581035139864
  0.0414733774083329  0.2084689426890887  0.3993290279315623
  0.0410418168284461  0.3331245718083025  0.3990240157934895
  0.0410434172329861  0.4584661240189006  0.3991298994901304
  0.0416077498210827  0.5838504567925946  0.3997997069418274
  0.0421322764325189  0.7091168315853599  0.4001776461259971
  0.0424077400200488  0.8344091351631705  0.4000027930054400
  0.0424646869460608  0.9594580057099346  0.3996729971348857
  0.1677420709807978  0.0851206943048236  0.3999892108741205
  0.1672558596974217  0.2096857292523672  0.4004347804369820
  0.1663229860849876  0.3340683074577533  0.3999758322071112
  0.1650562599361992  0.4586003580216829  0.3991341818219183
  0.1656372440870355  0.5837763481869399  0.3987972792673349
  0.1665273316256388  0.7091256512038677  0.3995200901898689
  0.1671590821147338  0.8344614173984570  0.3998631274660655
  0.1675301411602353  0.9597766140394851  0.3997000784083633
  0.2927410068629350  0.0850415611773390  0.4000983277234487
  0.2936117088770833  0.2114124076235570  0.4023956907257832
  0.2928518593356507  0.3366892145221532  0.4035914210599233
  0.2897632573560056  0.4590229311214786  0.4018863773253057
  0.2894983860624383  0.5844935646801154  0.3998145184814152
  0.2909646338022254  0.7092708856595792  0.3991577890928495
  0.2917775828194352  0.8342042112041320  0.3994546334855917
  0.2921797054391215  0.9594278103932238  0.3995196046274656
  0.4172731278803909  0.0838580710659427  0.3994048989381506
  0.4178675162189416  0.2093531411389436  0.4008025440173049
  0.4200973380293893  0.3362781754258012  0.4066753095093036
  0.4153057249421888  0.7076706257330571  0.4006055171633044
  0.4163945244854658  0.8331906424647544  0.3995203244196482
  0.4168729461434949  0.9585234692273146  0.3995033621818794
  0.5419079828769366  0.0828225455435441  0.3995021333236692
  0.5424039024879114  0.2080075583453424  0.3991086088204096
  0.5432171112722237  0.3330929285032837  0.4003727226273033
  0.5454306980755579  0.4574865056959784  0.4053068557961165
  0.5460136081435205  0.5817337570722172  0.4100988932351778
  0.5394462727514959  0.7045306551784605  0.4038947995954586
  0.5408144631509916  0.8315969034635181  0.4002907111035129
  0.5415467433867095  0.9574375590303886  0.3997317633912700
  0.6665907980498099  0.0824108876368032  0.4000416704159936
  0.6670153033948687  0.2076835054509788  0.3995076279788911
  0.6675295911479018  0.3327949467398394  0.3985641595575525
  0.6688476232496270  0.4580718625447806  0.3980499845618303
  0.6696209411444645  0.5836251648957925  0.3992576806850133
  0.6666916293296067  0.7070652420457973  0.4004969331578954
  0.6654516150914597  0.8312302101345004  0.4002976227382085
  0.6661692963783844  0.9570112727802929  0.3999767980707245
  0.7913697011891303  0.0824441115814885  0.3999629459982889
  0.7916318140067653  0.2076275051705793  0.4000852809813316
  0.7920836401111581  0.3329402499476569  0.3996840987298356
  0.7928213843494594  0.4583269371116689  0.3986464980215947
  0.7932232187709712  0.5835279091174796  0.3977632623568516
  0.7928146357168325  0.7087360727135232  0.3982305208711431
  0.7915959034689979  0.8328616604236668  0.3990029809164485
  0.7910561856885449  0.9572742701729519  0.3996502999238315
  0.9164382977309273  0.0829535781912536  0.3995596326009516
  0.9163605853202736  0.2078648880903103  0.3995258500792692
  0.9165054123085959  0.3330384136078408  0.3997103978411675
  0.9169309246637074  0.4583543125808485  0.3999393934209794
  0.9174720605871732  0.5837784597301530  0.3996284960125044
  0.9175903502818983  0.7090877667490495  0.3992693839315815
  0.9173786119583837  0.8339709309840105  0.3993084226037020
  0.9168249601701364  0.9584537172830417  0.3995036680738098
  0.0842123361685297  0.0429658941920926  0.3996398887440508
  0.0836953919780335  0.1674358528361889  0.3996565728214795
  0.0828248227996598  0.2918451162547798  0.3992406487478232
  0.0822929290301769  0.4167575292894338  0.3988568298741372
  0.0826583951352727  0.5419818930307925  0.3991612403361348
  0.0834101750432263  0.6673686347905390  0.3999122376108388
  0.0839521954922872  0.7927624403016342  0.4001303578816506
  0.0841587796541890  0.9179493086756020  0.3998027384598499
  0.2093090546106628  0.0432738908785925  0.3998948902639724
  0.2095451160301848  0.1687581698302280  0.4008310371758147
  0.2088742855901319  0.2932930299627160  0.4009704254329183
  0.2065888079453465  0.4173947916796290  0.4001659181182619
  0.2065400985326063  0.5420578719877965  0.3989631331516333
  0.2078013485315577  0.6674386713308260  0.3990370513076179
  0.2085377349593650  0.7926416939662287  0.3996355766963043
  0.2089963506954173  0.9179397456411986  0.3996630531080650
  0.3340141571993228  0.0428709691361921  0.3995815887048833
  0.3347156051093563  0.1685786375770995  0.4012355766781574
  0.3355538784493279  0.2947735645891549  0.4051780537164135
  0.3317706186714891  0.4193920385298547  0.4043056605653503
  0.3315593027531423  0.5444702106609659  0.4019430484515949
  0.3322093359891819  0.6675837057991553  0.3997347413622075
  0.3331951369092447  0.7924717255213964  0.3993408734908829
  0.3336630865056497  0.9175570247496944  0.3994978588483286
  0.4587294187446635  0.0418650643309531  0.3994185477434096
  0.4591370805092461  0.1671608593034365  0.3995201900143466
  0.4601134790308289  0.2928058526019423  0.4022647574909416
  0.4647902495245450  0.4186538819333447  0.4115133871737582
  0.4548946864866238  0.6636637529996333  0.4033122370140473
  0.4577599143478632  0.7910719201363113  0.3999879409587699
  0.4583028809767088  0.9165168506173965  0.3995667119266926
  0.5833872907442788  0.0409228080060563  0.3998014675416514
  0.5837993753680434  0.1662106795191325  0.3992435994511520
  0.5844457105774392  0.2912453206531034  0.3989851805272281
  0.5861000370843409  0.4161434124209276  0.4002640902086559
  0.5878508003001687  0.5424969233735510  0.4046443965225084
  0.5829924491916345  0.6634287188576686  0.4048885992800193
  0.5813424633097256  0.7883140883966521  0.4013220915717633
  0.5828439086208080  0.9152642094403600  0.3999041868601341
  0.7080279619219205  0.0405628667325004  0.4000500142712905
  0.7084505171099089  0.1659371192665982  0.4000117227812679
  0.7088814728006755  0.2911347377189341  0.3992018688167533
  0.7098112871404010  0.4164486973203346  0.3980557097101674
  0.7105874786890105  0.5417175427377854  0.3976873361339036
  0.7095863448969132  0.6667636670079544  0.3989514286240240
  0.7079490542915189  0.7904962551700189  0.3996074759014669
  0.7074329545762770  0.9149497841704339  0.3998817318345305
  0.8329411287271692  0.0408622186705896  0.3997473249123786
  0.8331022911637752  0.1659763204668170  0.3999353222498345
  0.8334364271846917  0.2912541374568182  0.3999825422150416
  0.8339635108543194  0.4165186167010193  0.3995836841741400
  0.8344883099641059  0.5418270204440903  0.3986085962685511
  0.8344632812833721  0.6672616948547641  0.3982507367907091
  0.8340277455352754  0.7920194241276139  0.3987509380688808
  0.8332455243734298  0.9162737912763274  0.3993908408450960
  0.9585193577835971  0.0418879810928293  0.3995290886482505
  0.9581125022046963  0.1664551422614685  0.3993741447169661
  0.9579232556825756  0.2913405284081079  0.3993469084401757
  0.9580874759599158  0.4165796390718534  0.3996763515557718
  0.9586802904508999  0.5420348828386758  0.3999976315697049
  0.9590569832702560  0.6673792599649061  0.3998298732134787
  0.9591437559156276  0.7925652428876098  0.3996272781800119
  0.9589816381974610  0.9174239915934652  0.3995559756782971
  0.4109244948650084  0.5833413584115249  0.4050800123804368
  0.5000362318061138  0.5047048918978978  0.4992798037164770
  0.4225406342633375  0.4986642928230297  0.4985434464792753
 
  0.00000000E+00  0.00000000E+00  0.00000000E+00
  0.00000000E+00  0.00000000E+00  0.00000000E+00
  0.00000000E+00  0.00000000E+00  0.00000000E+00
  0.00000000E+00  0.00000000E+00  0.00000000E+00
  0.00000000E+00  0.00000000E+00  0.00000000E+00
  0.00000000E+00  0.00000000E+00  0.00000000E+00
  0.00000000E+00  0.00000000E+00  0.00000000E+00
  0.00000000E+00  0.00000000E+00  0.00000000E+00
  0.00000000E+00  0.00000000E+00  0.00000000E+00
  0.00000000E+00  0.00000000E+00  0.00000000E+00
  0.00000000E+00  0.00000000E+00  0.00000000E+00
  0.00000000E+00  0.00000000E+00  0.00000000E+00
  0.00000000E+00  0.00000000E+00  0.00000000E+00
  0.00000000E+00  0.00000000E+00  0.00000000E+00
  0.00000000E+00  0.00000000E+00  0.00000000E+00
  0.00000000E+00  0.00000000E+00  0.00000000E+00
  0.00000000E+00  0.00000000E+00  0.00000000E+00
  0.00000000E+00  0.00000000E+00  0.00000000E+00
  0.00000000E+00  0.00000000E+00  0.00000000E+00
  0.00000000E+00  0.00000000E+00  0.00000000E+00
  0.00000000E+00  0.00000000E+00  0.00000000E+00
  0.00000000E+00  0.00000000E+00  0.00000000E+00
  0.00000000E+00  0.00000000E+00  0.00000000E+00
  0.00000000E+00  0.00000000E+00  0.00000000E+00
  0.00000000E+00  0.00000000E+00  0.00000000E+00
  0.00000000E+00  0.00000000E+00  0.00000000E+00
  0.00000000E+00  0.00000000E+00  0.00000000E+00
  0.00000000E+00  0.00000000E+00  0.00000000E+00
  0.00000000E+00  0.00000000E+00  0.00000000E+00
  0.00000000E+00  0.00000000E+00  0.00000000E+00
  0.00000000E+00  0.00000000E+00  0.00000000E+00
  0.00000000E+00  0.00000000E+00  0.00000000E+00
  0.00000000E+00  0.00000000E+00  0.00000000E+00
  0.00000000E+00  0.00000000E+00  0.00000000E+00
  0.00000000E+00  0.00000000E+00  0.00000000E+00
  0.00000000E+00  0.00000000E+00  0.00000000E+00
  0.00000000E+00  0.00000000E+00  0.00000000E+00
  0.00000000E+00  0.00000000E+00  0.00000000E+00
  0.00000000E+00  0.00000000E+00  0.00000000E+00
  0.00000000E+00  0.00000000E+00  0.00000000E+00
  0.00000000E+00  0.00000000E+00  0.00000000E+00
  0.00000000E+00  0.00000000E+00  0.00000000E+00
  0.00000000E+00  0.00000000E+00  0.00000000E+00
  0.00000000E+00  0.00000000E+00  0.00000000E+00
  0.00000000E+00  0.00000000E+00  0.00000000E+00
  0.00000000E+00  0.00000000E+00  0.00000000E+00
  0.00000000E+00  0.00000000E+00  0.00000000E+00
  0.00000000E+00  0.00000000E+00  0.00000000E+00
  0.00000000E+00  0.00000000E+00  0.00000000E+00
  0.00000000E+00  0.00000000E+00  0.00000000E+00
  0.00000000E+00  0.00000000E+00  0.00000000E+00
  0.00000000E+00  0.00000000E+00  0.00000000E+00
  0.00000000E+00  0.00000000E+00  0.00000000E+00
  0.00000000E+00  0.00000000E+00  0.00000000E+00
  0.00000000E+00  0.00000000E+00  0.00000000E+00
  0.00000000E+00  0.00000000E+00  0.00000000E+00
  0.00000000E+00  0.00000000E+00  0.00000000E+00
  0.00000000E+00  0.00000000E+00  0.00000000E+00
  0.00000000E+00  0.00000000E+00  0.00000000E+00
  0.00000000E+00  0.00000000E+00  0.00000000E+00
  0.00000000E+00  0.00000000E+00  0.00000000E+00
  0.00000000E+00  0.00000000E+00  0.00000000E+00
  0.00000000E+00  0.00000000E+00  0.00000000E+00
  0.00000000E+00  0.00000000E+00  0.00000000E+00
  0.00000000E+00  0.00000000E+00  0.00000000E+00
  0.00000000E+00  0.00000000E+00  0.00000000E+00
  0.00000000E+00  0.00000000E+00  0.00000000E+00
  0.00000000E+00  0.00000000E+00  0.00000000E+00
  0.00000000E+00  0.00000000E+00  0.00000000E+00
  0.00000000E+00  0.00000000E+00  0.00000000E+00
  0.00000000E+00  0.00000000E+00  0.00000000E+00
  0.00000000E+00  0.00000000E+00  0.00000000E+00
  0.00000000E+00  0.00000000E+00  0.00000000E+00
  0.00000000E+00  0.00000000E+00  0.00000000E+00
  0.00000000E+00  0.00000000E+00  0.00000000E+00
  0.00000000E+00  0.00000000E+00  0.00000000E+00
  0.00000000E+00  0.00000000E+00  0.00000000E+00
  0.00000000E+00  0.00000000E+00  0.00000000E+00
  0.00000000E+00  0.00000000E+00  0.00000000E+00
  0.00000000E+00  0.00000000E+00  0.00000000E+00
  0.00000000E+00  0.00000000E+00  0.00000000E+00
  0.00000000E+00  0.00000000E+00  0.00000000E+00
  0.00000000E+00  0.00000000E+00  0.00000000E+00
  0.00000000E+00  0.00000000E+00  0.00000000E+00
  0.00000000E+00  0.00000000E+00  0.00000000E+00
  0.00000000E+00  0.00000000E+00  0.00000000E+00
  0.00000000E+00  0.00000000E+00  0.00000000E+00
  0.00000000E+00  0.00000000E+00  0.00000000E+00
  0.00000000E+00  0.00000000E+00  0.00000000E+00
  0.00000000E+00  0.00000000E+00  0.00000000E+00
  0.00000000E+00  0.00000000E+00  0.00000000E+00
  0.00000000E+00  0.00000000E+00  0.00000000E+00
  0.00000000E+00  0.00000000E+00  0.00000000E+00
  0.00000000E+00  0.00000000E+00  0.00000000E+00
  0.00000000E+00  0.00000000E+00  0.00000000E+00
  0.00000000E+00  0.00000000E+00  0.00000000E+00
  0.00000000E+00  0.00000000E+00  0.00000000E+00
  0.00000000E+00  0.00000000E+00  0.00000000E+00
  0.00000000E+00  0.00000000E+00  0.00000000E+00
  0.00000000E+00  0.00000000E+00  0.00000000E+00
  0.00000000E+00  0.00000000E+00  0.00000000E+00
  0.00000000E+00  0.00000000E+00  0.00000000E+00
  0.00000000E+00  0.00000000E+00  0.00000000E+00
  0.00000000E+00  0.00000000E+00  0.00000000E+00
  0.00000000E+00  0.00000000E+00  0.00000000E+00
  0.00000000E+00  0.00000000E+00  0.00000000E+00
  0.00000000E+00  0.00000000E+00  0.00000000E+00
  0.00000000E+00  0.00000000E+00  0.00000000E+00
  0.00000000E+00  0.00000000E+00  0.00000000E+00
  0.00000000E+00  0.00000000E+00  0.00000000E+00
  0.00000000E+00  0.00000000E+00  0.00000000E+00
  0.00000000E+00  0.00000000E+00  0.00000000E+00
  0.00000000E+00  0.00000000E+00  0.00000000E+00
  0.00000000E+00  0.00000000E+00  0.00000000E+00
  0.00000000E+00  0.00000000E+00  0.00000000E+00
  0.00000000E+00  0.00000000E+00  0.00000000E+00
  0.00000000E+00  0.00000000E+00  0.00000000E+00
  0.00000000E+00  0.00000000E+00  0.00000000E+00
  0.00000000E+00  0.00000000E+00  0.00000000E+00
  0.00000000E+00  0.00000000E+00  0.00000000E+00
  0.00000000E+00  0.00000000E+00  0.00000000E+00
  0.00000000E+00  0.00000000E+00  0.00000000E+00
  0.00000000E+00  0.00000000E+00  0.00000000E+00
  0.00000000E+00  0.00000000E+00  0.00000000E+00
  0.00000000E+00  0.00000000E+00  0.00000000E+00
  0.00000000E+00  0.00000000E+00  0.00000000E+00
  0.00000000E+00  0.00000000E+00  0.00000000E+00
  0.00000000E+00  0.00000000E+00  0.00000000E+00
  0.00000000E+00  0.00000000E+00  0.00000000E+00
  0.00000000E+00  0.00000000E+00  0.00000000E+00
