Sc1 H1 C124 N2 O2                       
   1.00000000000000     
    19.8194222356989620   -0.0139639026885297   -0.1580500330928645
    -9.9222532012242901   17.0668651149891168   -0.0258092686638003
    -0.2370696632998692   -0.1828924950098752   29.7631774634702708
   Sc   H    C    N    O 
     1     1   124     2     2
Direct
  0.4388871808130934  0.5022030849153034  0.4413019035039235
  0.5440092894607813  0.5619762342794506  0.5170134179478449
  0.0421541341143787  0.0840954130020115  0.3995525457056695
  0.0413446145741376  0.2083364195585126  0.3990192286675467
  0.0407468944497317  0.3329649837511514  0.3987394652436534
  0.0406686556254329  0.4584063724296513  0.3991229609057869
  0.0413280746268779  0.5838161416548902  0.3998267438571561
  0.0420155380760824  0.7091813910034556  0.4001044274719009
  0.0424285840601313  0.8345114133253853  0.4000876791772955
  0.0426514864388227  0.9596452010905142  0.3999377575215030
  0.1681600344874136  0.0857018427940192  0.3998520559198310
  0.1673386306832655  0.2098890039274158  0.3995461168734630
  0.1659201741732134  0.3340300016685285  0.3989536478779719
  0.1643987403958040  0.4585770562234697  0.3982630405669137
  0.1651880540459666  0.5838431346705897  0.3987047564230117
  0.1662895821339180  0.7093053656725650  0.3996058745406230
  0.1670344690095190  0.8346712112331770  0.3999656088255362
  0.1675823131393836  0.9600716474482767  0.3999447473628099
  0.2928228745662218  0.0854219095488522  0.3999069560899165
  0.2945913661890974  0.2126197826140903  0.4014496398647569
  0.2924946424123357  0.3373183906876132  0.4037150461969226
  0.2886971179467622  0.4587197999914022  0.4025569431041986
  0.2888096775532353  0.5846497541364897  0.3994918795671746
  0.2904874160110455  0.7093521574209679  0.3991245868391655
  0.2915725391945848  0.8343705744109711  0.3996227538887714
  0.2921177284547936  0.9596242550465173  0.3997875601438404
  0.4173053700218403  0.0838435146788506  0.3995769628138838
  0.4179760160442000  0.2092989298270556  0.3999241298725662
  0.4220360308351042  0.3373134063595362  0.4044571033194508
  0.4148132803297835  0.7076237380398142  0.4003571572676755
  0.4161187356103419  0.8331264492542184  0.3994713784483435
  0.4167621182671328  0.9584839993884440  0.3997117595001448
  0.5418135246531395  0.0825000180826365  0.3997749605388178
  0.5424590284504743  0.2076991755115597  0.3993736127681812
  0.5436999060774770  0.3326604957464599  0.3994856894320276
  0.5446117106512949  0.4557916564296896  0.4026778688526664
  0.5457548181121610  0.5812210929899858  0.4070368865027258
  0.5390753897288623  0.7039039061817718  0.4031068730989736
  0.5404274114084786  0.8311985267777975  0.4001309455055138
  0.5413123704007978  0.9570865507098911  0.3997847466173445
  0.6664044511651152  0.0820002768659742  0.4000277972133794
  0.6669867522208047  0.2073812869650449  0.3998286167813216
  0.6677795755236740  0.3325832235355057  0.3991257743815228
  0.6692285186031908  0.4579863398923866  0.3979858217952139
  0.6692601701540821  0.5827305185985829  0.3980306184480894
  0.6667426485310807  0.7068681780788141  0.3991363610606567
  0.6652920282017776  0.8307814453651114  0.3999046492143515
  0.6659215146766381  0.9565464434063780  0.3999849837291283
  0.7911967986856487  0.0820320807346005  0.4000441322029103
  0.7915231081344251  0.2072771555034328  0.4000886910269408
  0.7921104274697776  0.3326845266227737  0.3999688175189377
  0.7929700900651226  0.4581782647680209  0.3993323308059750
  0.7933608893447048  0.5834138400326379  0.3984375566206341
  0.7927255790408825  0.7083866749587970  0.3984189565088294
  0.7917205251708639  0.8327705774819496  0.3991265083457375
  0.7909343293719271  0.9569347479225419  0.3997983359350978
  0.9163879357458909  0.0827131219727947  0.3997828068328916
  0.9162139433178574  0.2075916425045947  0.3996737822676326
  0.9163224136856869  0.3327315496833489  0.3997962773073728
  0.9167795813343088  0.4581881845236044  0.4000874351459910
  0.9174387432784146  0.5836886588596901  0.3999631025080674
  0.9176067726936863  0.7090410468402074  0.3996137032788601
  0.9173577601790326  0.8338791806944693  0.3996524873277584
  0.9168655699217959  0.9583403964869617  0.3998384028196400
  0.0844796830965372  0.0432496101479602  0.3997245711079495
  0.0836745097351893  0.1674166650342003  0.3991873459593686
  0.0825863396519968  0.2917604799912835  0.3986293018626473
  0.0817996886410548  0.4166406197908569  0.3984748228632805
  0.0822580340067456  0.5419182937780548  0.3991767888179774
  0.0831936300093462  0.6674331370942087  0.3999004871140320
  0.0838370825548043  0.7928516602535191  0.4000847313865066
  0.0841917248927392  0.9181222322126974  0.4000287933554194
  0.2094928615918605  0.0436514471553271  0.3999341627265688
  0.2101839882304085  0.1695213696633061  0.4002124636087233
  0.2087221892342074  0.2934033438829121  0.3999773314790315
  0.2059214486894941  0.4173691950439363  0.3990710136473084
  0.2059168050161137  0.5420916285784514  0.3984703877205775
  0.2074676712781077  0.6675544496639244  0.3991054125563782
  0.2083390674393973  0.7927860812337356  0.3997633936965447
  0.2089708486677617  0.9181597249784224  0.3999201729712826
  0.3340350289826735  0.0431047727931241  0.3997039455288928
  0.3349539006554716  0.1690687846923133  0.4004075004672651
  0.3366351834816999  0.2965672824513815  0.4041417392591008
  0.3303683181711381  0.4194746971495867  0.4073014649908387
  0.3308971732221444  0.5445897292363117  0.4026723882507313
  0.3316044164289351  0.6675593898563813  0.3995221295315196
  0.3328468576087660  0.7925124473624421  0.3993844116781188
  0.3335107134383903  0.9176740318483025  0.3997284837973726
  0.4586156942094563  0.0417364772901786  0.3997089561546322
  0.4591822364710266  0.1670641913979242  0.3994354202366442
  0.4605757434636825  0.2926656805179335  0.4006653924469416
  0.4537618949647556  0.6632035330965629  0.4034017798553506
  0.4573993943249233  0.7909727834722470  0.3997653370454233
  0.4580339185594568  0.9163499369789579  0.3996395365348657
  0.5832555166885219  0.0405799736875731  0.3998963776034922
  0.5837631515182253  0.1658321786813850  0.3996431295996173
  0.5847764993881004  0.2908354375671731  0.3991060672054729
  0.5863914241277666  0.4155380994509800  0.3990260012102749
  0.5867621907180089  0.5415719486983313  0.4017825413033695
  0.5832116007261250  0.6631624579382106  0.4027484563891852
  0.5809229503099583  0.7877215083086191  0.4008448862754117
  0.5825337089862686  0.9148145978544338  0.3998918713050559
  0.7077930464493420  0.0401311459896334  0.4000418738333832
  0.7082993531013934  0.1654872577949939  0.4000514379499210
  0.7090221656800333  0.2908484591798803  0.3996926574140535
  0.7099870365366143  0.4162789245990682  0.3986523480952497
  0.7107756441912261  0.5415129056746769  0.3976867542895348
  0.7093899179596296  0.6661305654750882  0.3981709483827256
  0.7080273672202982  0.7903433338216571  0.3991417111192315
  0.7072486416834732  0.9145508771429236  0.3998436937711182
  0.8328007008818810  0.0405632060649397  0.3999433114728307
  0.8329457763208019  0.1656384479494847  0.4000175468167960
  0.8333211988423673  0.2909355167120757  0.4000612854740146
  0.8339242179702194  0.4162972942111425  0.3999551484806256
  0.8345344774123157  0.5416834172018289  0.3993200996359875
  0.8345041939089102  0.6671040556343152  0.3987784192995901
  0.8339956804342505  0.7917897009981474  0.3990414735589224
  0.8332857111884072  0.9161228225471285  0.3996478741200186
  0.9585831208941920  0.0418558066564750  0.3997662875908167
  0.9580120091069301  0.1662660317850234  0.3994806114067702
  0.9576938530337910  0.2910852677792456  0.3993945917848856
  0.9578470383990898  0.4164191366799868  0.3997648741766835
  0.9585294256089439  0.5419340628411724  0.4001076452130313
  0.9589833663155585  0.6673645451830880  0.3999875161411635
  0.9591587575338335  0.7925381224129414  0.3998437570080531
  0.9590341564627376  0.9174542017881714  0.3998812156249884
  0.4096503696216877  0.5836618428006880  0.4062543569630598
  0.4664448901624529  0.4169739863527052  0.4078555025998940
  0.5036350474551836  0.5092685769569176  0.5071386208310523
  0.4324330966996606  0.5170372441522501  0.5080550716999889
 
  0.00000000E+00  0.00000000E+00  0.00000000E+00
  0.00000000E+00  0.00000000E+00  0.00000000E+00
  0.00000000E+00  0.00000000E+00  0.00000000E+00
  0.00000000E+00  0.00000000E+00  0.00000000E+00
  0.00000000E+00  0.00000000E+00  0.00000000E+00
  0.00000000E+00  0.00000000E+00  0.00000000E+00
  0.00000000E+00  0.00000000E+00  0.00000000E+00
  0.00000000E+00  0.00000000E+00  0.00000000E+00
  0.00000000E+00  0.00000000E+00  0.00000000E+00
  0.00000000E+00  0.00000000E+00  0.00000000E+00
  0.00000000E+00  0.00000000E+00  0.00000000E+00
  0.00000000E+00  0.00000000E+00  0.00000000E+00
  0.00000000E+00  0.00000000E+00  0.00000000E+00
  0.00000000E+00  0.00000000E+00  0.00000000E+00
  0.00000000E+00  0.00000000E+00  0.00000000E+00
  0.00000000E+00  0.00000000E+00  0.00000000E+00
  0.00000000E+00  0.00000000E+00  0.00000000E+00
  0.00000000E+00  0.00000000E+00  0.00000000E+00
  0.00000000E+00  0.00000000E+00  0.00000000E+00
  0.00000000E+00  0.00000000E+00  0.00000000E+00
  0.00000000E+00  0.00000000E+00  0.00000000E+00
  0.00000000E+00  0.00000000E+00  0.00000000E+00
  0.00000000E+00  0.00000000E+00  0.00000000E+00
  0.00000000E+00  0.00000000E+00  0.00000000E+00
  0.00000000E+00  0.00000000E+00  0.00000000E+00
  0.00000000E+00  0.00000000E+00  0.00000000E+00
  0.00000000E+00  0.00000000E+00  0.00000000E+00
  0.00000000E+00  0.00000000E+00  0.00000000E+00
  0.00000000E+00  0.00000000E+00  0.00000000E+00
  0.00000000E+00  0.00000000E+00  0.00000000E+00
  0.00000000E+00  0.00000000E+00  0.00000000E+00
  0.00000000E+00  0.00000000E+00  0.00000000E+00
  0.00000000E+00  0.00000000E+00  0.00000000E+00
  0.00000000E+00  0.00000000E+00  0.00000000E+00
  0.00000000E+00  0.00000000E+00  0.00000000E+00
  0.00000000E+00  0.00000000E+00  0.00000000E+00
  0.00000000E+00  0.00000000E+00  0.00000000E+00
  0.00000000E+00  0.00000000E+00  0.00000000E+00
  0.00000000E+00  0.00000000E+00  0.00000000E+00
  0.00000000E+00  0.00000000E+00  0.00000000E+00
  0.00000000E+00  0.00000000E+00  0.00000000E+00
  0.00000000E+00  0.00000000E+00  0.00000000E+00
  0.00000000E+00  0.00000000E+00  0.00000000E+00
  0.00000000E+00  0.00000000E+00  0.00000000E+00
  0.00000000E+00  0.00000000E+00  0.00000000E+00
  0.00000000E+00  0.00000000E+00  0.00000000E+00
  0.00000000E+00  0.00000000E+00  0.00000000E+00
  0.00000000E+00  0.00000000E+00  0.00000000E+00
  0.00000000E+00  0.00000000E+00  0.00000000E+00
  0.00000000E+00  0.00000000E+00  0.00000000E+00
  0.00000000E+00  0.00000000E+00  0.00000000E+00
  0.00000000E+00  0.00000000E+00  0.00000000E+00
  0.00000000E+00  0.00000000E+00  0.00000000E+00
  0.00000000E+00  0.00000000E+00  0.00000000E+00
  0.00000000E+00  0.00000000E+00  0.00000000E+00
  0.00000000E+00  0.00000000E+00  0.00000000E+00
  0.00000000E+00  0.00000000E+00  0.00000000E+00
  0.00000000E+00  0.00000000E+00  0.00000000E+00
  0.00000000E+00  0.00000000E+00  0.00000000E+00
  0.00000000E+00  0.00000000E+00  0.00000000E+00
  0.00000000E+00  0.00000000E+00  0.00000000E+00
  0.00000000E+00  0.00000000E+00  0.00000000E+00
  0.00000000E+00  0.00000000E+00  0.00000000E+00
  0.00000000E+00  0.00000000E+00  0.00000000E+00
  0.00000000E+00  0.00000000E+00  0.00000000E+00
  0.00000000E+00  0.00000000E+00  0.00000000E+00
  0.00000000E+00  0.00000000E+00  0.00000000E+00
  0.00000000E+00  0.00000000E+00  0.00000000E+00
  0.00000000E+00  0.00000000E+00  0.00000000E+00
  0.00000000E+00  0.00000000E+00  0.00000000E+00
  0.00000000E+00  0.00000000E+00  0.00000000E+00
  0.00000000E+00  0.00000000E+00  0.00000000E+00
  0.00000000E+00  0.00000000E+00  0.00000000E+00
  0.00000000E+00  0.00000000E+00  0.00000000E+00
  0.00000000E+00  0.00000000E+00  0.00000000E+00
  0.00000000E+00  0.00000000E+00  0.00000000E+00
  0.00000000E+00  0.00000000E+00  0.00000000E+00
  0.00000000E+00  0.00000000E+00  0.00000000E+00
  0.00000000E+00  0.00000000E+00  0.00000000E+00
  0.00000000E+00  0.00000000E+00  0.00000000E+00
  0.00000000E+00  0.00000000E+00  0.00000000E+00
  0.00000000E+00  0.00000000E+00  0.00000000E+00
  0.00000000E+00  0.00000000E+00  0.00000000E+00
  0.00000000E+00  0.00000000E+00  0.00000000E+00
  0.00000000E+00  0.00000000E+00  0.00000000E+00
  0.00000000E+00  0.00000000E+00  0.00000000E+00
  0.00000000E+00  0.00000000E+00  0.00000000E+00
  0.00000000E+00  0.00000000E+00  0.00000000E+00
  0.00000000E+00  0.00000000E+00  0.00000000E+00
  0.00000000E+00  0.00000000E+00  0.00000000E+00
  0.00000000E+00  0.00000000E+00  0.00000000E+00
  0.00000000E+00  0.00000000E+00  0.00000000E+00
  0.00000000E+00  0.00000000E+00  0.00000000E+00
  0.00000000E+00  0.00000000E+00  0.00000000E+00
  0.00000000E+00  0.00000000E+00  0.00000000E+00
  0.00000000E+00  0.00000000E+00  0.00000000E+00
  0.00000000E+00  0.00000000E+00  0.00000000E+00
  0.00000000E+00  0.00000000E+00  0.00000000E+00
  0.00000000E+00  0.00000000E+00  0.00000000E+00
  0.00000000E+00  0.00000000E+00  0.00000000E+00
  0.00000000E+00  0.00000000E+00  0.00000000E+00
  0.00000000E+00  0.00000000E+00  0.00000000E+00
  0.00000000E+00  0.00000000E+00  0.00000000E+00
  0.00000000E+00  0.00000000E+00  0.00000000E+00
  0.00000000E+00  0.00000000E+00  0.00000000E+00
  0.00000000E+00  0.00000000E+00  0.00000000E+00
  0.00000000E+00  0.00000000E+00  0.00000000E+00
  0.00000000E+00  0.00000000E+00  0.00000000E+00
  0.00000000E+00  0.00000000E+00  0.00000000E+00
  0.00000000E+00  0.00000000E+00  0.00000000E+00
  0.00000000E+00  0.00000000E+00  0.00000000E+00
  0.00000000E+00  0.00000000E+00  0.00000000E+00
  0.00000000E+00  0.00000000E+00  0.00000000E+00
  0.00000000E+00  0.00000000E+00  0.00000000E+00
  0.00000000E+00  0.00000000E+00  0.00000000E+00
  0.00000000E+00  0.00000000E+00  0.00000000E+00
  0.00000000E+00  0.00000000E+00  0.00000000E+00
  0.00000000E+00  0.00000000E+00  0.00000000E+00
  0.00000000E+00  0.00000000E+00  0.00000000E+00
  0.00000000E+00  0.00000000E+00  0.00000000E+00
  0.00000000E+00  0.00000000E+00  0.00000000E+00
  0.00000000E+00  0.00000000E+00  0.00000000E+00
  0.00000000E+00  0.00000000E+00  0.00000000E+00
  0.00000000E+00  0.00000000E+00  0.00000000E+00
  0.00000000E+00  0.00000000E+00  0.00000000E+00
  0.00000000E+00  0.00000000E+00  0.00000000E+00
  0.00000000E+00  0.00000000E+00  0.00000000E+00
  0.00000000E+00  0.00000000E+00  0.00000000E+00
  0.00000000E+00  0.00000000E+00  0.00000000E+00
  0.00000000E+00  0.00000000E+00  0.00000000E+00
