V1 C123 N3                              
   1.00000000000000     
    19.8112365777213419    0.0106896433084258    0.0029783212698423
    -9.8963071407027936   17.0346324912869562   -0.0036299117866912
     0.0044910266973820   -0.0037835275304887   29.8072307354412658
   V    C    N 
     1   123     3
Direct
  0.4375282998692488  0.4995095065669362  0.4254423841974653
  0.0417469282631021  0.0838149935813298  0.3996408313747173
  0.0409556564080349  0.2080934418485229  0.3996649308132002
  0.0403104433449430  0.3329673947290892  0.3994945019746831
  0.0405220440487916  0.4581737571382528  0.3993808194079655
  0.0413971404136502  0.5836515847066494  0.3997395141045809
  0.0421544647286700  0.7090523941235547  0.3999405672958790
  0.0423802830742798  0.8342335638630889  0.3999490944786890
  0.0422488586005746  0.9592755078562331  0.3998544671410979
  0.1674916828964469  0.0849386682980686  0.4000328247740864
  0.1670120906606561  0.2097064395843072  0.4001855566857321
  0.1649086924915029  0.3333947491566542  0.4006762426764357
  0.1642764338665459  0.4583808112793217  0.3992355692837904
  0.1652133357863491  0.5835732947012261  0.3991637957407990
  0.1664830354563523  0.7087860886174941  0.3997430956485165
  0.1670897936991315  0.8341662418729355  0.3999926176896614
  0.1673400374147434  0.9596530342694660  0.3999994373537586
  0.2923769901206164  0.0853672970421719  0.3999962974909455
  0.2927941843789243  0.2119684135162924  0.4007377311319059
  0.2917228710696039  0.3372651915418544  0.4034754458781232
  0.2875947966392025  0.4578151415063434  0.4028569355055955
  0.2885949795627811  0.5827294735045891  0.3996950140966176
  0.2908420598182063  0.7082095652474538  0.3994229152411586
  0.2917358385167089  0.8337141448449265  0.3997810378625104
  0.2920991517440454  0.9593153139707833  0.3999200200320984
  0.4169370010489818  0.0840221564410696  0.3998223017200677
  0.4174981829789876  0.2101709441412307  0.3999309802080989
  0.4192291989314704  0.3379782746283890  0.4011023374902479
  0.4150213336128590  0.7059648225327383  0.4002191651740718
  0.4162795152506914  0.8322416575080529  0.3997482523193057
  0.4167227369034011  0.9581977101211854  0.3998061298130923
  0.5415244536408225  0.0827348693299287  0.3998370539921688
  0.5419950085783646  0.2084333877067839  0.3997154421007015
  0.5429912237237621  0.3340934114171635  0.3996619536848328
  0.5462500355364420  0.4595469381303733  0.4003931416521360
  0.5386920335826025  0.7021197243114468  0.4019212188864075
  0.5407571030727827  0.8304715178204537  0.4003568569519280
  0.5412177525630872  0.9568598007826734  0.3999536009606321
  0.6661727468733286  0.0822191111819947  0.4000068581583882
  0.6664825756580159  0.2076394671082205  0.3998428542074958
  0.6673322137177169  0.3330360335884531  0.3997316782159296
  0.6694898627724132  0.4586727666372663  0.3999618022889570
  0.6706640326532229  0.5841437152035526  0.4003548413655311
  0.6669160275907308  0.7067595041554541  0.4006101349415034
  0.6649945060502486  0.8306608608587601  0.4003835220576871
  0.6657325862903671  0.9565907064777390  0.4001420656365932
  0.7908627994679364  0.0821786397514963  0.3999986437194248
  0.7911326345492199  0.2075048059529711  0.3999873518975940
  0.7916433331121309  0.3328382466155410  0.3998881695505105
  0.7928463581278202  0.4582717265278591  0.3997895761873443
  0.7938401642487729  0.5837846884928874  0.3998012367597880
  0.7933852281634662  0.7089943196072438  0.3999630831503036
  0.7914114844268550  0.8326677824278785  0.3998131238946749
  0.7906722285425148  0.9569735398836741  0.3999398048122729
  0.9160245237090631  0.0827221759382630  0.3997398649876172
  0.9158412068918973  0.2075674284530831  0.3998281520685871
  0.9159737809716612  0.3328012808532536  0.3998054642909643
  0.9166540144057940  0.4582482458967123  0.3998187201402361
  0.9175393243141056  0.5837127583302215  0.3998232467428194
  0.9177285805227651  0.7089710084428039  0.3998011041673999
  0.9174118184041787  0.8340082093406497  0.3997717497293691
  0.9166089872175300  0.9583085343789793  0.3997140083434656
  0.0840174004730194  0.0428124734611550  0.3998322403835309
  0.0834219080993709  0.1673860039704508  0.3996690346719989
  0.0822310552745350  0.2915263752225118  0.3997852592515501
  0.0815305374878685  0.4162537350375852  0.3991816092272647
  0.0823616678524115  0.5417497526625319  0.3994127284063089
  0.0833794951635052  0.6671735596470817  0.3998529881207140
  0.0838393198153217  0.7924878226152589  0.3999924188176823
  0.0840433235625926  0.9177646372840674  0.3999574018276864
  0.2090000385683088  0.0432262508513024  0.4000210470443391
  0.2092710912274673  0.1687545144372977  0.4003460120517767
  0.2082572375637930  0.2933781217096511  0.4012488675020474
  0.2056676603149304  0.4168418305769914  0.4005962627579162
  0.2057490288052415  0.5413683059906186  0.3990921392554944
  0.2075021322552495  0.6668667951692121  0.3994127176589908
  0.2085117445195930  0.7923430629362687  0.3998771507593665
  0.2088293520623879  0.9177313136342641  0.3999787352430577
  0.3337434321301392  0.0430440835766477  0.3998962016771875
  0.3340156394058711  0.1691862420094240  0.4001576145879866
  0.3345552347187182  0.2963403055809496  0.4020047930719743
  0.3293716832450714  0.5414800502466759  0.4016661890560126
  0.3316280583382787  0.6660843256390878  0.3996356931075353
  0.3330459032301923  0.7915875198299970  0.3996217680452773
  0.3334520390051140  0.9171794222905993  0.3998455281329688
  0.4582999133014815  0.0417058836793840  0.3998013777314273
  0.4586403727670294  0.1676526726862068  0.3997907775625151
  0.4595340302370511  0.2938793546518262  0.3999083695389870
  0.4640601010968432  0.4205559143395374  0.4017917629085078
  0.4541833065446256  0.6612088529715037  0.4018952960243044
  0.4574311455811405  0.7896433906409411  0.4000025253464401
  0.4580217258387602  0.9159162899392955  0.3998200433314839
  0.5828753897909603  0.0405877007661807  0.3999440554332603
  0.5832879178745117  0.1662902140596627  0.3997829860072384
  0.5840384549825512  0.2917294435830250  0.3996563021216499
  0.5866614154884313  0.4174396629521344  0.3998319135189157
  0.5892019253965189  0.5435163724741419  0.4013666693584690
  0.5831023598029486  0.6620063959841551  0.4022784492949660
  0.5812037609242888  0.7872194982262946  0.4008549970068336
  0.5825154818993141  0.9144813767013530  0.4001272821359279
  0.7075457926293669  0.0402834354731159  0.4000632817099704
  0.7079249442825337  0.1657714943023344  0.3999719589963807
  0.7084540793020488  0.2911655504901614  0.3998051571929183
  0.7099699301424055  0.4164885815778078  0.3998181466071725
  0.7113500606150867  0.5418291642235789  0.3999536288460289
  0.7106469405796260  0.6672455187046299  0.4003934418507072
  0.7078683441650764  0.7902960089847957  0.4001206300850919
  0.7070334561107875  0.9146270043657767  0.4001307455935220
  0.8325805293811552  0.0406489033569855  0.3999048914356032
  0.8326500774852018  0.1657706373362056  0.3999650396666205
  0.8328680921696808  0.2909504873539821  0.3999314368953741
  0.8337365794826928  0.4163118769662499  0.3998434888037280
  0.8347355867287726  0.5418328095924221  0.3997642361451966
  0.8349293527965660  0.6672349976532792  0.3998191896045785
  0.8342053542863122  0.7921626002283985  0.3997926854677669
  0.8330832739828067  0.9161892117600934  0.3997861095166766
  0.9583050811628040  0.0417479151916087  0.3996600304874613
  0.9576799200886627  0.1661547546375127  0.3997100279059513
  0.9574293932706708  0.2911240531777438  0.3997054884552671
  0.9576443399648090  0.4163168210008408  0.3997194513269226
  0.9584843589598036  0.5417375409426674  0.3998149637328810
  0.9591192415155477  0.6671978320067528  0.3998590779582243
  0.9591740687950380  0.7925178708842803  0.3998396747491431
  0.9588964863853116  0.9173876947121262  0.3997669987136286
  0.4101095781589232  0.5805459308417404  0.4040492294611402
  0.5471769072605718  0.5816584496430652  0.4043476014811053
  0.3291122546732112  0.4185405422126411  0.4075250391831627
 
  0.00000000E+00  0.00000000E+00  0.00000000E+00
  0.00000000E+00  0.00000000E+00  0.00000000E+00
  0.00000000E+00  0.00000000E+00  0.00000000E+00
  0.00000000E+00  0.00000000E+00  0.00000000E+00
  0.00000000E+00  0.00000000E+00  0.00000000E+00
  0.00000000E+00  0.00000000E+00  0.00000000E+00
  0.00000000E+00  0.00000000E+00  0.00000000E+00
  0.00000000E+00  0.00000000E+00  0.00000000E+00
  0.00000000E+00  0.00000000E+00  0.00000000E+00
  0.00000000E+00  0.00000000E+00  0.00000000E+00
  0.00000000E+00  0.00000000E+00  0.00000000E+00
  0.00000000E+00  0.00000000E+00  0.00000000E+00
  0.00000000E+00  0.00000000E+00  0.00000000E+00
  0.00000000E+00  0.00000000E+00  0.00000000E+00
  0.00000000E+00  0.00000000E+00  0.00000000E+00
  0.00000000E+00  0.00000000E+00  0.00000000E+00
  0.00000000E+00  0.00000000E+00  0.00000000E+00
  0.00000000E+00  0.00000000E+00  0.00000000E+00
  0.00000000E+00  0.00000000E+00  0.00000000E+00
  0.00000000E+00  0.00000000E+00  0.00000000E+00
  0.00000000E+00  0.00000000E+00  0.00000000E+00
  0.00000000E+00  0.00000000E+00  0.00000000E+00
  0.00000000E+00  0.00000000E+00  0.00000000E+00
  0.00000000E+00  0.00000000E+00  0.00000000E+00
  0.00000000E+00  0.00000000E+00  0.00000000E+00
  0.00000000E+00  0.00000000E+00  0.00000000E+00
  0.00000000E+00  0.00000000E+00  0.00000000E+00
  0.00000000E+00  0.00000000E+00  0.00000000E+00
  0.00000000E+00  0.00000000E+00  0.00000000E+00
  0.00000000E+00  0.00000000E+00  0.00000000E+00
  0.00000000E+00  0.00000000E+00  0.00000000E+00
  0.00000000E+00  0.00000000E+00  0.00000000E+00
  0.00000000E+00  0.00000000E+00  0.00000000E+00
  0.00000000E+00  0.00000000E+00  0.00000000E+00
  0.00000000E+00  0.00000000E+00  0.00000000E+00
  0.00000000E+00  0.00000000E+00  0.00000000E+00
  0.00000000E+00  0.00000000E+00  0.00000000E+00
  0.00000000E+00  0.00000000E+00  0.00000000E+00
  0.00000000E+00  0.00000000E+00  0.00000000E+00
  0.00000000E+00  0.00000000E+00  0.00000000E+00
  0.00000000E+00  0.00000000E+00  0.00000000E+00
  0.00000000E+00  0.00000000E+00  0.00000000E+00
  0.00000000E+00  0.00000000E+00  0.00000000E+00
  0.00000000E+00  0.00000000E+00  0.00000000E+00
  0.00000000E+00  0.00000000E+00  0.00000000E+00
  0.00000000E+00  0.00000000E+00  0.00000000E+00
  0.00000000E+00  0.00000000E+00  0.00000000E+00
  0.00000000E+00  0.00000000E+00  0.00000000E+00
  0.00000000E+00  0.00000000E+00  0.00000000E+00
  0.00000000E+00  0.00000000E+00  0.00000000E+00
  0.00000000E+00  0.00000000E+00  0.00000000E+00
  0.00000000E+00  0.00000000E+00  0.00000000E+00
  0.00000000E+00  0.00000000E+00  0.00000000E+00
  0.00000000E+00  0.00000000E+00  0.00000000E+00
  0.00000000E+00  0.00000000E+00  0.00000000E+00
  0.00000000E+00  0.00000000E+00  0.00000000E+00
  0.00000000E+00  0.00000000E+00  0.00000000E+00
  0.00000000E+00  0.00000000E+00  0.00000000E+00
  0.00000000E+00  0.00000000E+00  0.00000000E+00
  0.00000000E+00  0.00000000E+00  0.00000000E+00
  0.00000000E+00  0.00000000E+00  0.00000000E+00
  0.00000000E+00  0.00000000E+00  0.00000000E+00
  0.00000000E+00  0.00000000E+00  0.00000000E+00
  0.00000000E+00  0.00000000E+00  0.00000000E+00
  0.00000000E+00  0.00000000E+00  0.00000000E+00
  0.00000000E+00  0.00000000E+00  0.00000000E+00
  0.00000000E+00  0.00000000E+00  0.00000000E+00
  0.00000000E+00  0.00000000E+00  0.00000000E+00
  0.00000000E+00  0.00000000E+00  0.00000000E+00
  0.00000000E+00  0.00000000E+00  0.00000000E+00
  0.00000000E+00  0.00000000E+00  0.00000000E+00
  0.00000000E+00  0.00000000E+00  0.00000000E+00
  0.00000000E+00  0.00000000E+00  0.00000000E+00
  0.00000000E+00  0.00000000E+00  0.00000000E+00
  0.00000000E+00  0.00000000E+00  0.00000000E+00
  0.00000000E+00  0.00000000E+00  0.00000000E+00
  0.00000000E+00  0.00000000E+00  0.00000000E+00
  0.00000000E+00  0.00000000E+00  0.00000000E+00
  0.00000000E+00  0.00000000E+00  0.00000000E+00
  0.00000000E+00  0.00000000E+00  0.00000000E+00
  0.00000000E+00  0.00000000E+00  0.00000000E+00
  0.00000000E+00  0.00000000E+00  0.00000000E+00
  0.00000000E+00  0.00000000E+00  0.00000000E+00
  0.00000000E+00  0.00000000E+00  0.00000000E+00
  0.00000000E+00  0.00000000E+00  0.00000000E+00
  0.00000000E+00  0.00000000E+00  0.00000000E+00
  0.00000000E+00  0.00000000E+00  0.00000000E+00
  0.00000000E+00  0.00000000E+00  0.00000000E+00
  0.00000000E+00  0.00000000E+00  0.00000000E+00
  0.00000000E+00  0.00000000E+00  0.00000000E+00
  0.00000000E+00  0.00000000E+00  0.00000000E+00
  0.00000000E+00  0.00000000E+00  0.00000000E+00
  0.00000000E+00  0.00000000E+00  0.00000000E+00
  0.00000000E+00  0.00000000E+00  0.00000000E+00
  0.00000000E+00  0.00000000E+00  0.00000000E+00
  0.00000000E+00  0.00000000E+00  0.00000000E+00
  0.00000000E+00  0.00000000E+00  0.00000000E+00
  0.00000000E+00  0.00000000E+00  0.00000000E+00
  0.00000000E+00  0.00000000E+00  0.00000000E+00
  0.00000000E+00  0.00000000E+00  0.00000000E+00
  0.00000000E+00  0.00000000E+00  0.00000000E+00
  0.00000000E+00  0.00000000E+00  0.00000000E+00
  0.00000000E+00  0.00000000E+00  0.00000000E+00
  0.00000000E+00  0.00000000E+00  0.00000000E+00
  0.00000000E+00  0.00000000E+00  0.00000000E+00
  0.00000000E+00  0.00000000E+00  0.00000000E+00
  0.00000000E+00  0.00000000E+00  0.00000000E+00
  0.00000000E+00  0.00000000E+00  0.00000000E+00
  0.00000000E+00  0.00000000E+00  0.00000000E+00
  0.00000000E+00  0.00000000E+00  0.00000000E+00
  0.00000000E+00  0.00000000E+00  0.00000000E+00
  0.00000000E+00  0.00000000E+00  0.00000000E+00
  0.00000000E+00  0.00000000E+00  0.00000000E+00
  0.00000000E+00  0.00000000E+00  0.00000000E+00
  0.00000000E+00  0.00000000E+00  0.00000000E+00
  0.00000000E+00  0.00000000E+00  0.00000000E+00
  0.00000000E+00  0.00000000E+00  0.00000000E+00
  0.00000000E+00  0.00000000E+00  0.00000000E+00
  0.00000000E+00  0.00000000E+00  0.00000000E+00
  0.00000000E+00  0.00000000E+00  0.00000000E+00
  0.00000000E+00  0.00000000E+00  0.00000000E+00
  0.00000000E+00  0.00000000E+00  0.00000000E+00
  0.00000000E+00  0.00000000E+00  0.00000000E+00
  0.00000000E+00  0.00000000E+00  0.00000000E+00
  0.00000000E+00  0.00000000E+00  0.00000000E+00
  0.00000000E+00  0.00000000E+00  0.00000000E+00
  0.00000000E+00  0.00000000E+00  0.00000000E+00
