Nb1 C125 N1                             
   1.00000000000000     
    19.7910066072201154   -0.0118057878073651    0.0086386746936788
    -9.9057590779337072   17.0736133328685149   -0.0055967285920708
     0.0130342274319609   -0.0022469309823964   29.7892214930836552
   Nb   C    N 
     1   125     1
Direct
  0.4398259462125538  0.4999772563871619  0.4322216935664899
  0.0419068344271411  0.0839285664598571  0.3999117286478102
  0.0416040706274629  0.2085461284632234  0.3997371143237722
  0.0411763781204274  0.3332309721571694  0.3998615172405308
  0.0410646357267175  0.4583504356200874  0.3998428418238615
  0.0414004245608653  0.5836331663300603  0.3999658485212657
  0.0418022049654560  0.7088910886273651  0.4000656994482086
  0.0419591306838596  0.8340244259789275  0.4000601507336634
  0.0419756193255184  0.9590410153221274  0.4000424535481904
  0.1672169066556884  0.0844874672026194  0.3998268190260725
  0.1673634710964990  0.2096888334125337  0.3995016910142073
  0.1665914103232256  0.3341982926014196  0.3999943542166652
  0.1654106089949101  0.4586422550072208  0.4002422213392171
  0.1656515331932210  0.5837227926796169  0.3997659798266461
  0.1662778032084917  0.7088773346938014  0.3998693939489313
  0.1667348531254702  0.8340677896468977  0.4000758090712314
  0.1670026752232154  0.9592733205628858  0.4000114252735560
  0.2921360600518636  0.0843960171388063  0.3998179846962454
  0.2926219847565760  0.2101546455702465  0.3997701797122969
  0.2932077460671880  0.3362867708244193  0.4005475943647376
  0.2905408732912301  0.4596769944034180  0.4020993895379534
  0.2896461117655273  0.5842604636053254  0.4005567746332518
  0.2907767843057845  0.7088907313227104  0.3996783529698767
  0.2914692123053859  0.8338809470408265  0.3998589440160004
  0.2918026811445981  0.9590043589308146  0.4000098704843150
  0.4168978941103401  0.0835679453718112  0.3999120297411460
  0.4172698513900655  0.2089568523753672  0.3995779375567382
  0.4180987489220651  0.3349817981731316  0.4006846759968630
  0.4151324519080792  0.7072495838306295  0.3998526375894511
  0.4161262302450864  0.8328553476973573  0.3996051042839561
  0.4165642190709413  0.9582467940720570  0.4000256348435279
  0.5416132380388129  0.0827365192312453  0.4000173365108899
  0.5420311699121415  0.2079324499435095  0.3997112509433258
  0.5426920191926462  0.3329677956063463  0.4003445541156534
  0.5444070772295616  0.4574750661153703  0.4023851634156881
  0.5433611107869190  0.5810586897924205  0.4013156261331897
  0.5389563724813755  0.7048135093540405  0.4007925053564787
  0.5406925357605091  0.8317636982826642  0.3998501878803464
  0.5412667037691287  0.9574196299222004  0.3999230356822740
  0.6663750924699218  0.0824231518180457  0.4000505779438935
  0.6667462047769752  0.2076268396403397  0.3999302918230363
  0.6672988843718880  0.3328109858255460  0.3998096324965351
  0.6685131004864454  0.4580869816164730  0.4006104085887184
  0.6690231866628411  0.5833726999498021  0.4007807990610177
  0.6660325767522582  0.7069189537759705  0.3995690022463844
  0.6651635676019375  0.8313906928737300  0.3998204020387921
  0.6659497591676405  0.9570919601919761  0.3999204212221071
  0.7912042123252455  0.0824659098355089  0.4000092236032893
  0.7914547237476642  0.2076197811522137  0.4001072062113058
  0.7918808825042933  0.3328462986815167  0.3999275533423878
  0.7925266758052049  0.4581797413442537  0.3997289020003915
  0.7929481176918702  0.5834626796272009  0.3998840725916366
  0.7922995196637550  0.7084579111884338  0.3997719660125298
  0.7911764956405732  0.8326671475717334  0.3997549964294860
  0.7908831328792729  0.9572891400714503  0.3998969263385020
  0.9163378642716585  0.0829618113107008  0.3999743223750613
  0.9163047884855963  0.2078389373717949  0.3999582575225967
  0.9164043672559994  0.3329487800017907  0.4000053600263243
  0.9167640740627943  0.4582448517518845  0.3999933775153515
  0.9171732285985322  0.5835580697214396  0.3999033861737716
  0.9171790588383233  0.7087861944680339  0.3998635599528024
  0.9169395891530059  0.8336877440534470  0.3999014999838747
  0.9165318357578895  0.9582930293438392  0.4000196793882043
  0.0837633161739902  0.0425362027679289  0.3999410905262142
  0.0837506043367399  0.1674517276871213  0.3997040402105139
  0.0831600482301566  0.2919911693331685  0.3997894477706316
  0.0824273062842839  0.4166494462270719  0.3998580202392252
  0.0826046110714241  0.5418467219978411  0.3998224500899205
  0.0831185646325706  0.6671144003503447  0.3999928847104098
  0.0834926540107905  0.7923480126506631  0.4001044009470626
  0.0836543700319568  0.9174766371379844  0.4000542371503353
  0.2087532843190912  0.0426957900209829  0.3998972146332997
  0.2090539905899818  0.1680667673638840  0.3996650203533659
  0.2092323577159828  0.2933962566669299  0.3995834929449181
  0.2072086612560040  0.4175314584681165  0.4007971323791046
  0.2066874711610333  0.5419595335485671  0.4001117344753763
  0.2075470972825042  0.6671384528802690  0.3997418095101094
  0.2081868517820335  0.7923323231002817  0.3999511810707347
  0.2085285879138412  0.9174942028269021  0.4000485861646861
  0.3335983494945031  0.0424158995161374  0.3999154524143240
  0.3339486034947156  0.1678504856806700  0.3996894860945361
  0.3344166250811223  0.2936343833938890  0.4004472648807846
  0.3334879934407969  0.4197240336055881  0.4032425350243970
  0.3312518329061017  0.5437755404750489  0.4021880319070417
  0.3319618466745485  0.6672400315877174  0.3999696854130431
  0.3329111710078168  0.7921147005145293  0.3996481069441137
  0.3333075400097316  0.9171674016086003  0.3999933864826379
  0.4583800452202054  0.0416075532859645  0.4000504033246112
  0.4587074450248840  0.1669190399124520  0.3997108530238452
  0.4592804756231280  0.2923493324273325  0.3998090966444887
  0.4617763886695613  0.4176928528244691  0.4034268271308235
  0.4550977539459350  0.6636542731768387  0.4013543230761948
  0.4575180462210670  0.7907094346672450  0.3995452902563403
  0.4579887882313159  0.9162415462525718  0.3998614868693813
  0.5830829124929074  0.0408641591197932  0.4000284801656334
  0.5834712269380790  0.1661144317265843  0.3998580069388982
  0.5840318078594181  0.2911876492317442  0.3998488296147418
  0.5855839198611389  0.4160761861261199  0.4014218152544884
  0.5864041366267725  0.5416513583811545  0.4013278236069538
  0.5817529289480327  0.6635921208701331  0.4002038758446294
  0.5812981784931757  0.7889238843217129  0.4000649331835717
  0.5826625503226807  0.9154016479450077  0.3998806728361872
  0.7078312957575522  0.0406080338622095  0.3999943774403353
  0.7082218894247875  0.1658940509198524  0.4000754098672875
  0.7086243245142126  0.2910738956174247  0.3998374270783985
  0.7094895021741757  0.4163131024126706  0.3998562035589196
  0.7101625016823021  0.5415794311860533  0.4005134539589019
  0.7090256929289375  0.6664955025219120  0.3999171338253365
  0.7074956225864114  0.7903632730674036  0.3996333758978922
  0.7072452970118784  0.9150833612534334  0.3998588919568910
  0.8328334471044807  0.0408633425575806  0.3999683305259422
  0.8329873847902858  0.1659520768019930  0.4000495923361161
  0.8332203034995042  0.2910740444482783  0.4000503785429214
  0.8337005498417179  0.4163433908480658  0.3998682950838769
  0.8341810353156712  0.5416727707017449  0.3997688136740705
  0.8340764444762367  0.6669685992643670  0.3998119560907806
  0.8335380889144561  0.7917193730190260  0.3997515232938291
  0.8329385331749775  0.9161311445081717  0.3999060302809930
  0.9583453251818800  0.0417689624742761  0.4000139495085934
  0.9581236533047908  0.1664400291241957  0.3998845996047178
  0.9579543080566604  0.2913132420826813  0.3999206840795432
  0.9579998691705770  0.4164426243210393  0.3999711542341763
  0.9583822992838795  0.5417330672659596  0.4000005358640248
  0.9586713098946030  0.6670549660805695  0.3999596906264951
  0.9587130851370399  0.7922397138311452  0.3999388223129022
  0.9585522273731506  0.9170973805682869  0.4000243333418442
  0.4117081440716965  0.5826515286374547  0.4043502899850905
 
  0.00000000E+00  0.00000000E+00  0.00000000E+00
  0.00000000E+00  0.00000000E+00  0.00000000E+00
  0.00000000E+00  0.00000000E+00  0.00000000E+00
  0.00000000E+00  0.00000000E+00  0.00000000E+00
  0.00000000E+00  0.00000000E+00  0.00000000E+00
  0.00000000E+00  0.00000000E+00  0.00000000E+00
  0.00000000E+00  0.00000000E+00  0.00000000E+00
  0.00000000E+00  0.00000000E+00  0.00000000E+00
  0.00000000E+00  0.00000000E+00  0.00000000E+00
  0.00000000E+00  0.00000000E+00  0.00000000E+00
  0.00000000E+00  0.00000000E+00  0.00000000E+00
  0.00000000E+00  0.00000000E+00  0.00000000E+00
  0.00000000E+00  0.00000000E+00  0.00000000E+00
  0.00000000E+00  0.00000000E+00  0.00000000E+00
  0.00000000E+00  0.00000000E+00  0.00000000E+00
  0.00000000E+00  0.00000000E+00  0.00000000E+00
  0.00000000E+00  0.00000000E+00  0.00000000E+00
  0.00000000E+00  0.00000000E+00  0.00000000E+00
  0.00000000E+00  0.00000000E+00  0.00000000E+00
  0.00000000E+00  0.00000000E+00  0.00000000E+00
  0.00000000E+00  0.00000000E+00  0.00000000E+00
  0.00000000E+00  0.00000000E+00  0.00000000E+00
  0.00000000E+00  0.00000000E+00  0.00000000E+00
  0.00000000E+00  0.00000000E+00  0.00000000E+00
  0.00000000E+00  0.00000000E+00  0.00000000E+00
  0.00000000E+00  0.00000000E+00  0.00000000E+00
  0.00000000E+00  0.00000000E+00  0.00000000E+00
  0.00000000E+00  0.00000000E+00  0.00000000E+00
  0.00000000E+00  0.00000000E+00  0.00000000E+00
  0.00000000E+00  0.00000000E+00  0.00000000E+00
  0.00000000E+00  0.00000000E+00  0.00000000E+00
  0.00000000E+00  0.00000000E+00  0.00000000E+00
  0.00000000E+00  0.00000000E+00  0.00000000E+00
  0.00000000E+00  0.00000000E+00  0.00000000E+00
  0.00000000E+00  0.00000000E+00  0.00000000E+00
  0.00000000E+00  0.00000000E+00  0.00000000E+00
  0.00000000E+00  0.00000000E+00  0.00000000E+00
  0.00000000E+00  0.00000000E+00  0.00000000E+00
  0.00000000E+00  0.00000000E+00  0.00000000E+00
  0.00000000E+00  0.00000000E+00  0.00000000E+00
  0.00000000E+00  0.00000000E+00  0.00000000E+00
  0.00000000E+00  0.00000000E+00  0.00000000E+00
  0.00000000E+00  0.00000000E+00  0.00000000E+00
  0.00000000E+00  0.00000000E+00  0.00000000E+00
  0.00000000E+00  0.00000000E+00  0.00000000E+00
  0.00000000E+00  0.00000000E+00  0.00000000E+00
  0.00000000E+00  0.00000000E+00  0.00000000E+00
  0.00000000E+00  0.00000000E+00  0.00000000E+00
  0.00000000E+00  0.00000000E+00  0.00000000E+00
  0.00000000E+00  0.00000000E+00  0.00000000E+00
  0.00000000E+00  0.00000000E+00  0.00000000E+00
  0.00000000E+00  0.00000000E+00  0.00000000E+00
  0.00000000E+00  0.00000000E+00  0.00000000E+00
  0.00000000E+00  0.00000000E+00  0.00000000E+00
  0.00000000E+00  0.00000000E+00  0.00000000E+00
  0.00000000E+00  0.00000000E+00  0.00000000E+00
  0.00000000E+00  0.00000000E+00  0.00000000E+00
  0.00000000E+00  0.00000000E+00  0.00000000E+00
  0.00000000E+00  0.00000000E+00  0.00000000E+00
  0.00000000E+00  0.00000000E+00  0.00000000E+00
  0.00000000E+00  0.00000000E+00  0.00000000E+00
  0.00000000E+00  0.00000000E+00  0.00000000E+00
  0.00000000E+00  0.00000000E+00  0.00000000E+00
  0.00000000E+00  0.00000000E+00  0.00000000E+00
  0.00000000E+00  0.00000000E+00  0.00000000E+00
  0.00000000E+00  0.00000000E+00  0.00000000E+00
  0.00000000E+00  0.00000000E+00  0.00000000E+00
  0.00000000E+00  0.00000000E+00  0.00000000E+00
  0.00000000E+00  0.00000000E+00  0.00000000E+00
  0.00000000E+00  0.00000000E+00  0.00000000E+00
  0.00000000E+00  0.00000000E+00  0.00000000E+00
  0.00000000E+00  0.00000000E+00  0.00000000E+00
  0.00000000E+00  0.00000000E+00  0.00000000E+00
  0.00000000E+00  0.00000000E+00  0.00000000E+00
  0.00000000E+00  0.00000000E+00  0.00000000E+00
  0.00000000E+00  0.00000000E+00  0.00000000E+00
  0.00000000E+00  0.00000000E+00  0.00000000E+00
  0.00000000E+00  0.00000000E+00  0.00000000E+00
  0.00000000E+00  0.00000000E+00  0.00000000E+00
  0.00000000E+00  0.00000000E+00  0.00000000E+00
  0.00000000E+00  0.00000000E+00  0.00000000E+00
  0.00000000E+00  0.00000000E+00  0.00000000E+00
  0.00000000E+00  0.00000000E+00  0.00000000E+00
  0.00000000E+00  0.00000000E+00  0.00000000E+00
  0.00000000E+00  0.00000000E+00  0.00000000E+00
  0.00000000E+00  0.00000000E+00  0.00000000E+00
  0.00000000E+00  0.00000000E+00  0.00000000E+00
  0.00000000E+00  0.00000000E+00  0.00000000E+00
  0.00000000E+00  0.00000000E+00  0.00000000E+00
  0.00000000E+00  0.00000000E+00  0.00000000E+00
  0.00000000E+00  0.00000000E+00  0.00000000E+00
  0.00000000E+00  0.00000000E+00  0.00000000E+00
  0.00000000E+00  0.00000000E+00  0.00000000E+00
  0.00000000E+00  0.00000000E+00  0.00000000E+00
  0.00000000E+00  0.00000000E+00  0.00000000E+00
  0.00000000E+00  0.00000000E+00  0.00000000E+00
  0.00000000E+00  0.00000000E+00  0.00000000E+00
  0.00000000E+00  0.00000000E+00  0.00000000E+00
  0.00000000E+00  0.00000000E+00  0.00000000E+00
  0.00000000E+00  0.00000000E+00  0.00000000E+00
  0.00000000E+00  0.00000000E+00  0.00000000E+00
  0.00000000E+00  0.00000000E+00  0.00000000E+00
  0.00000000E+00  0.00000000E+00  0.00000000E+00
  0.00000000E+00  0.00000000E+00  0.00000000E+00
  0.00000000E+00  0.00000000E+00  0.00000000E+00
  0.00000000E+00  0.00000000E+00  0.00000000E+00
  0.00000000E+00  0.00000000E+00  0.00000000E+00
  0.00000000E+00  0.00000000E+00  0.00000000E+00
  0.00000000E+00  0.00000000E+00  0.00000000E+00
  0.00000000E+00  0.00000000E+00  0.00000000E+00
  0.00000000E+00  0.00000000E+00  0.00000000E+00
  0.00000000E+00  0.00000000E+00  0.00000000E+00
  0.00000000E+00  0.00000000E+00  0.00000000E+00
  0.00000000E+00  0.00000000E+00  0.00000000E+00
  0.00000000E+00  0.00000000E+00  0.00000000E+00
  0.00000000E+00  0.00000000E+00  0.00000000E+00
  0.00000000E+00  0.00000000E+00  0.00000000E+00
  0.00000000E+00  0.00000000E+00  0.00000000E+00
  0.00000000E+00  0.00000000E+00  0.00000000E+00
  0.00000000E+00  0.00000000E+00  0.00000000E+00
  0.00000000E+00  0.00000000E+00  0.00000000E+00
  0.00000000E+00  0.00000000E+00  0.00000000E+00
  0.00000000E+00  0.00000000E+00  0.00000000E+00
  0.00000000E+00  0.00000000E+00  0.00000000E+00
  0.00000000E+00  0.00000000E+00  0.00000000E+00
  0.00000000E+00  0.00000000E+00  0.00000000E+00
  0.00000000E+00  0.00000000E+00  0.00000000E+00
