Ni1 H1 C123 N3 O1                       
   1.00000000000000     
    19.8001642437839784    0.0032840412739851   -0.0236945721935535
    -9.8968178907976547   17.0133427724785946   -0.1039813958434872
    -0.0358758665225393   -0.2012563096259398   29.8691095880587056
   Ni   H    C    N    O 
     1     1   123     3     1
Direct
  0.4368104020801055  0.4984232646699774  0.4121984636506504
  0.4800162766633804  0.5450362484898161  0.4874080527343896
  0.0421082533234310  0.0843061787342917  0.4003975999221778
  0.0411481963710210  0.2083233739733507  0.4007260280928939
  0.0405652114007181  0.3329677838416572  0.4004892278003251
  0.0407898479414329  0.4582098568704769  0.3998294304221205
  0.0414843939757623  0.5836727163785943  0.3992740029559754
  0.0422112346656285  0.7091380663701647  0.3991471081939182
  0.0425316279470689  0.8344913307436215  0.3993719157441634
  0.0425105838797916  0.9596467746702809  0.3998532646620340
  0.1679633037355178  0.0858003824227861  0.4010854122223033
  0.1677568838132080  0.2107113804482713  0.4021585781365299
  0.1654640268447891  0.3338774364188160  0.4021830294396276
  0.1647587737638869  0.4584534174189627  0.4016428697465318
  0.1653827253808270  0.5835848728775934  0.4005624235024718
  0.1664998859586760  0.7089627730768021  0.3996303780779030
  0.1671795307044719  0.8344817279905854  0.3993362023261745
  0.1676158094933916  0.9601512651544575  0.3999235414236833
  0.2927948309564214  0.0860469879886838  0.4010533681195897
  0.2935927734313389  0.2131241001007781  0.4030280076219430
  0.2933400570388619  0.3395041858076742  0.4037575074198699
  0.2888130332812086  0.4581548914400491  0.4029010284729544
  0.2888305415865569  0.5830934224369093  0.4023051976340014
  0.2906820802150960  0.7083640570572216  0.4010401895054510
  0.2917073841857608  0.8338868605980454  0.3998010592653676
  0.2922440759896407  0.9597240775379384  0.3997832382296599
  0.4171701917045136  0.0844504414622188  0.4003075434187596
  0.4178635097531255  0.2109651425693440  0.4019688357631320
  0.4198467412171263  0.3392568466364388  0.4046830797639634
  0.4146167042413080  0.7055319402771936  0.4026972313798901
  0.4161251216193770  0.8320664655639154  0.4009484304876759
  0.4167268991802747  0.9582665281966929  0.3998694916973830
  0.5415769223045889  0.0826577913251722  0.3998164592072823
  0.5421810627093977  0.2085536250848559  0.4005501549265447
  0.5433128165100010  0.3342465627442323  0.4023226225486000
  0.5465217206235753  0.4597366266108685  0.4043042212807164
  0.5379835002823391  0.7008400257189371  0.4040357708619537
  0.5403257956945348  0.8297529182463741  0.4021064848794659
  0.5411105709416412  0.9564933143235809  0.4004003938749873
  0.6660822735405812  0.0818739434284758  0.3997119843762421
  0.6665861095497194  0.2075061654274357  0.3995815830205764
  0.6674545065337373  0.3330224544892900  0.4002795690544079
  0.6693976688671455  0.4586006146885325  0.4017039370401863
  0.6704780556095741  0.5840716214244137  0.4030857926793925
  0.6658572624888228  0.7054280847060825  0.4029471941136814
  0.6645345825756636  0.8297790327053608  0.4020986810022172
  0.6655185904011501  0.9559873568926188  0.4007013342300676
  0.7907669479077889  0.0818366712914658  0.3996990637352237
  0.7911191498075100  0.2072445605121691  0.3992781514230120
  0.7917288561448022  0.3327373593123810  0.3992114055327599
  0.7928454849427561  0.4582968897715325  0.3996583462814670
  0.7937170826419390  0.5837617692800593  0.4006108320388013
  0.7932386777772849  0.7087835441874868  0.4011485021062620
  0.7909916634858826  0.8320539933404645  0.4009984756875511
  0.7903907841586194  0.9564695484098644  0.4003742476448514
  0.9159875791760420  0.0825520021699130  0.3998504233071318
  0.9158653422515369  0.2074623124795864  0.3996620711627603
  0.9160614297915055  0.3327345392056096  0.3992927543535985
  0.9167397986077251  0.4581907665184162  0.3990287822759682
  0.9175432565226898  0.5837271011228655  0.3992137752205799
  0.9177816480309761  0.7090827371468034  0.3996641751216023
  0.9174180412833118  0.8340044107878616  0.3998668277328038
  0.9165366984781638  0.9581848733620546  0.3998945980828698
  0.0843940743765173  0.0433789342800311  0.4004003665465538
  0.0839577421525558  0.1679991403910748  0.4011112693261766
  0.0823800566667679  0.2917068184944541  0.4011400526808196
  0.0819779589041511  0.4164417392248576  0.4006640881020858
  0.0825218149345748  0.5417846409997704  0.3998283697324236
  0.0834219987619674  0.6672822994099048  0.3992758339601230
  0.0840062568193240  0.7927778205735675  0.3992483377709514
  0.0842586191212255  0.9181505977288742  0.3996656878443903
  0.2094414521105392  0.0439610759540523  0.4007062905798291
  0.2099063609145861  0.1697727492202132  0.4021682476833460
  0.2092441450227811  0.2946619368445608  0.4028389609712035
  0.2063046425493908  0.4170298401557120  0.4024208934315142
  0.2061150373423417  0.5416058371880822  0.4015210664574165
  0.2076021311261646  0.6670570294565171  0.4003749027134577
  0.2085257824426723  0.7925567109611618  0.3995054642760843
  0.2090226281658378  0.9181639312734055  0.3996245393703957
  0.3339891562660878  0.0435406654930107  0.4003300654711862
  0.3346075286959089  0.1700796814406670  0.4021390728016164
  0.3357731430499103  0.2977028660116033  0.4042659504197542
  0.3303572961654748  0.5422497988946730  0.4031150559453051
  0.3315659397411159  0.6661800527654511  0.4021211504146617
  0.3329447715890901  0.7916844965890818  0.4005537893430363
  0.3335601466118072  0.9174484147752380  0.3997059466258364
  0.4584214257400304  0.0419218059447573  0.3999047510061533
  0.4589432323382277  0.1681447025530161  0.4009061461804809
  0.4600643837756721  0.2948661637823887  0.4029097208767142
  0.4647402741676236  0.4223091020446217  0.4058161143201616
  0.4533388378397227  0.6601366304206728  0.4039100307619827
  0.4571772481366838  0.7892897746938500  0.4019904137935773
  0.4579425877953860  0.9157345817646524  0.4003370566295572
  0.5828657146675059  0.0403160773629410  0.3998782505525997
  0.5834037190710439  0.1662763757962604  0.3998809403432277
  0.5842815240501590  0.2919143487535081  0.4010210629007638
  0.5866074017976431  0.4173925050666095  0.4027753412057575
  0.5886387494261008  0.5430294487256710  0.4041987687740151
  0.5814503031953852  0.6597989571518397  0.4041650293406684
  0.5805843316475264  0.7860088233216137  0.4028887516282206
  0.5822368038459541  0.9138940671889669  0.4010805903255439
  0.7074302696479546  0.0398402652187755  0.3999513841913657
  0.7079416180667738  0.1655678697379713  0.3994223686350780
  0.7085489688613006  0.2910836948149503  0.3995798497483736
  0.7099778216219376  0.4165387403736341  0.4004463067893525
  0.7111892236743289  0.5418877988364900  0.4018611847462707
  0.7103075953395973  0.6668442121282032  0.4024549086895576
  0.7070971557936020  0.7892551426363350  0.4020587917324075
  0.7067070736142831  0.9139021465291013  0.4010503027149973
  0.8324066037839724  0.0402859676898487  0.3998651100838767
  0.8325791544694513  0.1655420945314731  0.3994285201212631
  0.8329683664030693  0.2908807164467807  0.3991386477604174
  0.8337970660025094  0.4163275129592237  0.3991681736788738
  0.8346943610816616  0.5418674805104181  0.3997227943111069
  0.8348885338040853  0.6672918124975193  0.4004598100606777
  0.8340909245394678  0.7919460761538715  0.4006047747756812
  0.8327921693370504  0.9156941957587906  0.4003378207631130
  0.9583939637527166  0.0418221958676666  0.3999382371717238
  0.9577416511360066  0.1661425236545876  0.3999981076355847
  0.9575246357304024  0.2910781464826860  0.3997282325806741
  0.9578413257060578  0.4163257649125022  0.3992536728327973
  0.9585788107047140  0.5418255262715136  0.3990507008785473
  0.9591942320072600  0.6673396449151663  0.3992593101195363
  0.9593022425486856  0.7926587857104026  0.3995588688244497
  0.9590033226753213  0.9174947437332311  0.3997761889436813
  0.4096938089462679  0.5797655883509287  0.4042162349522402
  0.5449338347011953  0.5788807522359244  0.4045943008005416
  0.3315223067480051  0.4207794775454334  0.4028219946737242
  0.4325509462921572  0.4984816658609048  0.4766746780394416
 
  0.00000000E+00  0.00000000E+00  0.00000000E+00
  0.00000000E+00  0.00000000E+00  0.00000000E+00
  0.00000000E+00  0.00000000E+00  0.00000000E+00
  0.00000000E+00  0.00000000E+00  0.00000000E+00
  0.00000000E+00  0.00000000E+00  0.00000000E+00
  0.00000000E+00  0.00000000E+00  0.00000000E+00
  0.00000000E+00  0.00000000E+00  0.00000000E+00
  0.00000000E+00  0.00000000E+00  0.00000000E+00
  0.00000000E+00  0.00000000E+00  0.00000000E+00
  0.00000000E+00  0.00000000E+00  0.00000000E+00
  0.00000000E+00  0.00000000E+00  0.00000000E+00
  0.00000000E+00  0.00000000E+00  0.00000000E+00
  0.00000000E+00  0.00000000E+00  0.00000000E+00
  0.00000000E+00  0.00000000E+00  0.00000000E+00
  0.00000000E+00  0.00000000E+00  0.00000000E+00
  0.00000000E+00  0.00000000E+00  0.00000000E+00
  0.00000000E+00  0.00000000E+00  0.00000000E+00
  0.00000000E+00  0.00000000E+00  0.00000000E+00
  0.00000000E+00  0.00000000E+00  0.00000000E+00
  0.00000000E+00  0.00000000E+00  0.00000000E+00
  0.00000000E+00  0.00000000E+00  0.00000000E+00
  0.00000000E+00  0.00000000E+00  0.00000000E+00
  0.00000000E+00  0.00000000E+00  0.00000000E+00
  0.00000000E+00  0.00000000E+00  0.00000000E+00
  0.00000000E+00  0.00000000E+00  0.00000000E+00
  0.00000000E+00  0.00000000E+00  0.00000000E+00
  0.00000000E+00  0.00000000E+00  0.00000000E+00
  0.00000000E+00  0.00000000E+00  0.00000000E+00
  0.00000000E+00  0.00000000E+00  0.00000000E+00
  0.00000000E+00  0.00000000E+00  0.00000000E+00
  0.00000000E+00  0.00000000E+00  0.00000000E+00
  0.00000000E+00  0.00000000E+00  0.00000000E+00
  0.00000000E+00  0.00000000E+00  0.00000000E+00
  0.00000000E+00  0.00000000E+00  0.00000000E+00
  0.00000000E+00  0.00000000E+00  0.00000000E+00
  0.00000000E+00  0.00000000E+00  0.00000000E+00
  0.00000000E+00  0.00000000E+00  0.00000000E+00
  0.00000000E+00  0.00000000E+00  0.00000000E+00
  0.00000000E+00  0.00000000E+00  0.00000000E+00
  0.00000000E+00  0.00000000E+00  0.00000000E+00
  0.00000000E+00  0.00000000E+00  0.00000000E+00
  0.00000000E+00  0.00000000E+00  0.00000000E+00
  0.00000000E+00  0.00000000E+00  0.00000000E+00
  0.00000000E+00  0.00000000E+00  0.00000000E+00
  0.00000000E+00  0.00000000E+00  0.00000000E+00
  0.00000000E+00  0.00000000E+00  0.00000000E+00
  0.00000000E+00  0.00000000E+00  0.00000000E+00
  0.00000000E+00  0.00000000E+00  0.00000000E+00
  0.00000000E+00  0.00000000E+00  0.00000000E+00
  0.00000000E+00  0.00000000E+00  0.00000000E+00
  0.00000000E+00  0.00000000E+00  0.00000000E+00
  0.00000000E+00  0.00000000E+00  0.00000000E+00
  0.00000000E+00  0.00000000E+00  0.00000000E+00
  0.00000000E+00  0.00000000E+00  0.00000000E+00
  0.00000000E+00  0.00000000E+00  0.00000000E+00
  0.00000000E+00  0.00000000E+00  0.00000000E+00
  0.00000000E+00  0.00000000E+00  0.00000000E+00
  0.00000000E+00  0.00000000E+00  0.00000000E+00
  0.00000000E+00  0.00000000E+00  0.00000000E+00
  0.00000000E+00  0.00000000E+00  0.00000000E+00
  0.00000000E+00  0.00000000E+00  0.00000000E+00
  0.00000000E+00  0.00000000E+00  0.00000000E+00
  0.00000000E+00  0.00000000E+00  0.00000000E+00
  0.00000000E+00  0.00000000E+00  0.00000000E+00
  0.00000000E+00  0.00000000E+00  0.00000000E+00
  0.00000000E+00  0.00000000E+00  0.00000000E+00
  0.00000000E+00  0.00000000E+00  0.00000000E+00
  0.00000000E+00  0.00000000E+00  0.00000000E+00
  0.00000000E+00  0.00000000E+00  0.00000000E+00
  0.00000000E+00  0.00000000E+00  0.00000000E+00
  0.00000000E+00  0.00000000E+00  0.00000000E+00
  0.00000000E+00  0.00000000E+00  0.00000000E+00
  0.00000000E+00  0.00000000E+00  0.00000000E+00
  0.00000000E+00  0.00000000E+00  0.00000000E+00
  0.00000000E+00  0.00000000E+00  0.00000000E+00
  0.00000000E+00  0.00000000E+00  0.00000000E+00
  0.00000000E+00  0.00000000E+00  0.00000000E+00
  0.00000000E+00  0.00000000E+00  0.00000000E+00
  0.00000000E+00  0.00000000E+00  0.00000000E+00
  0.00000000E+00  0.00000000E+00  0.00000000E+00
  0.00000000E+00  0.00000000E+00  0.00000000E+00
  0.00000000E+00  0.00000000E+00  0.00000000E+00
  0.00000000E+00  0.00000000E+00  0.00000000E+00
  0.00000000E+00  0.00000000E+00  0.00000000E+00
  0.00000000E+00  0.00000000E+00  0.00000000E+00
  0.00000000E+00  0.00000000E+00  0.00000000E+00
  0.00000000E+00  0.00000000E+00  0.00000000E+00
  0.00000000E+00  0.00000000E+00  0.00000000E+00
  0.00000000E+00  0.00000000E+00  0.00000000E+00
  0.00000000E+00  0.00000000E+00  0.00000000E+00
  0.00000000E+00  0.00000000E+00  0.00000000E+00
  0.00000000E+00  0.00000000E+00  0.00000000E+00
  0.00000000E+00  0.00000000E+00  0.00000000E+00
  0.00000000E+00  0.00000000E+00  0.00000000E+00
  0.00000000E+00  0.00000000E+00  0.00000000E+00
  0.00000000E+00  0.00000000E+00  0.00000000E+00
  0.00000000E+00  0.00000000E+00  0.00000000E+00
  0.00000000E+00  0.00000000E+00  0.00000000E+00
  0.00000000E+00  0.00000000E+00  0.00000000E+00
  0.00000000E+00  0.00000000E+00  0.00000000E+00
  0.00000000E+00  0.00000000E+00  0.00000000E+00
  0.00000000E+00  0.00000000E+00  0.00000000E+00
  0.00000000E+00  0.00000000E+00  0.00000000E+00
  0.00000000E+00  0.00000000E+00  0.00000000E+00
  0.00000000E+00  0.00000000E+00  0.00000000E+00
  0.00000000E+00  0.00000000E+00  0.00000000E+00
  0.00000000E+00  0.00000000E+00  0.00000000E+00
  0.00000000E+00  0.00000000E+00  0.00000000E+00
  0.00000000E+00  0.00000000E+00  0.00000000E+00
  0.00000000E+00  0.00000000E+00  0.00000000E+00
  0.00000000E+00  0.00000000E+00  0.00000000E+00
  0.00000000E+00  0.00000000E+00  0.00000000E+00
  0.00000000E+00  0.00000000E+00  0.00000000E+00
  0.00000000E+00  0.00000000E+00  0.00000000E+00
  0.00000000E+00  0.00000000E+00  0.00000000E+00
  0.00000000E+00  0.00000000E+00  0.00000000E+00
  0.00000000E+00  0.00000000E+00  0.00000000E+00
  0.00000000E+00  0.00000000E+00  0.00000000E+00
  0.00000000E+00  0.00000000E+00  0.00000000E+00
  0.00000000E+00  0.00000000E+00  0.00000000E+00
  0.00000000E+00  0.00000000E+00  0.00000000E+00
  0.00000000E+00  0.00000000E+00  0.00000000E+00
  0.00000000E+00  0.00000000E+00  0.00000000E+00
  0.00000000E+00  0.00000000E+00  0.00000000E+00
  0.00000000E+00  0.00000000E+00  0.00000000E+00
  0.00000000E+00  0.00000000E+00  0.00000000E+00
  0.00000000E+00  0.00000000E+00  0.00000000E+00
  0.00000000E+00  0.00000000E+00  0.00000000E+00
  0.00000000E+00  0.00000000E+00  0.00000000E+00
