Sc1 H1 C123 N3                          
   1.00000000000000     
    19.8118450563806547    0.0074178897068479   -0.0642135250404571
    -9.8994068309778367   17.0442835314191186   -0.0693654567337513
    -0.0964089682191967   -0.1772635951206171   29.7936637067781227
   Sc   H    C    N 
     1     1   123     3
Direct
  0.4381877704573608  0.5020568455842416  0.4376737470418844
  0.4428029953991500  0.5056080894748890  0.5006793247022271
  0.0418425572140434  0.0839906769213054  0.3995530093082417
  0.0408818299981988  0.2081158711286066  0.3993893463326489
  0.0403204390197648  0.3329196494548988  0.3990127284151461
  0.0405904625381413  0.4582461806431488  0.3989919262223703
  0.0415261945352983  0.5837828433186689  0.3996705514419800
  0.0422935687027141  0.7091895333463597  0.4000282312172703
  0.0425734095438682  0.8345053554459222  0.3999195240085279
  0.0425018180605257  0.9595518543011441  0.3997062830544524
  0.1677254934118666  0.0853711699428738  0.4000056301208012
  0.1668991711690248  0.2096923534802110  0.4002889989357662
  0.1649860438044522  0.3334446748209736  0.4000894269547295
  0.1643409896883461  0.4583674066991499  0.3986562195634178
  0.1653475946822892  0.5835798288685577  0.3985852284055757
  0.1665517556626978  0.7089754392063633  0.3994637298478248
  0.1672492177606300  0.8344678302492270  0.3998648852210698
  0.1675705059998074  0.9599733626884356  0.3997687096322948
  0.2926440495546879  0.0856206155973634  0.3999560506803645
  0.2932461635198729  0.2124796478428835  0.4017230102003337
  0.2914863850328966  0.3375931264637567  0.4041595093654403
  0.2878684041472703  0.4571655501758144  0.4026455779327242
  0.2888792465334322  0.5829657113364276  0.3992528099905409
  0.2908361770840974  0.7084553398460873  0.3989425210866455
  0.2917765152385530  0.8339224166835556  0.3995646680537874
  0.2922308659846365  0.9595788953794377  0.3997401237522722
  0.4171678207010380  0.0840744043518907  0.3995054052981713
  0.4177344059994786  0.2098974007892150  0.3998263409938556
  0.4200639040244509  0.3373760070523186  0.4035709387235221
  0.4150108155513677  0.7065829648033641  0.3997562434509154
  0.4162835766861195  0.8325028087869664  0.3993698446249932
  0.4168075747885110  0.9583136884383198  0.3997047966622856
  0.5417030898606008  0.0827401934643795  0.3996510162250249
  0.5422499047029463  0.2083990500237041  0.3990406322740433
  0.5432756174529370  0.3339877036553294  0.3991746015921606
  0.5454776530597077  0.4588245893505383  0.4021895640776011
  0.5389986936746607  0.7024715643158379  0.4023021909623068
  0.5406775562574954  0.8305281916498815  0.4000578011427829
  0.5412827137858023  0.9568629312164718  0.3998288369592347
  0.6662294949111450  0.0821333056232022  0.3999822467113963
  0.6666777866554108  0.2076143599836272  0.3995161863563800
  0.6674854458728303  0.3330076967970613  0.3987817310582959
  0.6693274127937359  0.4585479783054505  0.3982932596090529
  0.6704571467567937  0.5842349010162234  0.3990821346630966
  0.6674188062105346  0.7071878074089356  0.3998692550719048
  0.6651603459210503  0.8307108168988010  0.4000911761873754
  0.6658077794091624  0.9565489534524177  0.4000218539076043
  0.7908930885102119  0.0821020955696136  0.3999891650466630
  0.7911801543851871  0.2074105746329711  0.3999380668033375
  0.7917906153166910  0.3328378427859930  0.3997015761443793
  0.7928847190059261  0.4583619372159840  0.3991364623139033
  0.7936657622778908  0.5837549621836517  0.3986557859057669
  0.7935273100303736  0.7090934149128122  0.3989638122155169
  0.7916955566242420  0.8328564744476934  0.3993785915467426
  0.7907244921265415  0.9569613050196064  0.3997872536153327
  0.9160054402070900  0.0826804239224053  0.3996654262397202
  0.9158111266526218  0.2075385012505604  0.3995845479896807
  0.9160214891801962  0.3328179107965284  0.3996700745269966
  0.9167596377802939  0.4583026254947306  0.3999390718592025
  0.9176263894181700  0.5838349540889944  0.3998299972421390
  0.9178965623807697  0.7091416928836970  0.3996148105931145
  0.9176276839935154  0.8341550828673407  0.3996208612983101
  0.9167601654061192  0.9584197972473307  0.3996928953724912
  0.0841951988813050  0.0430847232970581  0.3996658215380094
  0.0833729726313812  0.1674007610584591  0.3995737504655345
  0.0820298236942510  0.2914451945875133  0.3993068032229481
  0.0816420813572972  0.4163864984088125  0.3986565777196611
  0.0824675681443132  0.5418419651039952  0.3990025243677470
  0.0834635190616425  0.6673293759490632  0.3997744201680491
  0.0840378826101759  0.7927495504885240  0.4000052728917782
  0.0842349482483356  0.9180281763230547  0.3997824181134053
  0.2092771209513588  0.0435409140183327  0.3999208471659614
  0.2094121818426101  0.1690784696046535  0.4007051067943076
  0.2079594208004980  0.2932156692406789  0.4011218934811450
  0.2055698655135704  0.4167930588035975  0.3999377942849467
  0.2060161249005887  0.5415248716460715  0.3985266364362933
  0.2076324896337180  0.6670940269182624  0.3989245166940580
  0.2085799776044037  0.7925572743734919  0.3996683963455104
  0.2090313488308630  0.9180346461267589  0.3997853665159993
  0.3339618838223027  0.0432318950839480  0.3996674606893317
  0.3344478608604228  0.1694153853872549  0.4005335203663320
  0.3352612908121141  0.2964832749313192  0.4039982825808998
  0.3306627407419440  0.5425039953919005  0.4017226995256629
  0.3317857245742837  0.6663490637364073  0.3991462686440920
  0.3330770692530747  0.7918102834213759  0.3992574530289668
  0.3335882854049059  0.9173958396939154  0.3997330339033800
  0.4585246860764187  0.0417874874099741  0.3996276255785624
  0.4589313725311188  0.1674895137477200  0.3992880466898625
  0.4599065192341662  0.2934254989579722  0.4002354699802183
  0.4643332910071819  0.4196061573248764  0.4065738827282913
  0.4541039145304747  0.6618991382831673  0.4020595682323629
  0.4574785377799083  0.7900705711421483  0.3995391210331528
  0.4581076456687135  0.9160263378614537  0.3996440139027421
  0.5830197166937652  0.0405447817445660  0.3998922368098583
  0.5835210954837472  0.1662608050134552  0.3993482054258152
  0.5843456512958083  0.2917356119234095  0.3987624774877331
  0.5866106674878916  0.4173434788890214  0.3991773771888492
  0.5886924079841628  0.5440143080150551  0.4019718377999756
  0.5838733653127659  0.6624893989211867  0.4024998372638210
  0.5811987191432613  0.7870751503027855  0.4007234025272795
  0.5825436948188060  0.9144419027409200  0.3999373463542528
  0.7076183017989266  0.0401939386485188  0.4000442781581877
  0.7080170060638910  0.1657139026048841  0.3998801734735684
  0.7086440570261454  0.2911319504105055  0.3993195614039527
  0.7100304174223686  0.4166164019334049  0.3985331792574006
  0.7111626486560046  0.5419316957226233  0.3983105676393646
  0.7106448330873525  0.6672725363616705  0.3991409353362179
  0.7081644667942282  0.7905547318482067  0.3995655163751085
  0.7071148307884645  0.9145700128251756  0.3999220909819751
  0.8325659170376477  0.0405713771009984  0.3998567877179297
  0.8326272153949341  0.1656697402264547  0.3998906776240176
  0.8329815455538279  0.2909779789323667  0.3998792382732527
  0.8338246624540098  0.4164052937676789  0.3997285914698848
  0.8347500760338535  0.5419163057693206  0.3991939498749390
  0.8350015723482412  0.6673659183257254  0.3990326875151106
  0.8343842449334610  0.7922477779456634  0.3992980105351321
  0.8332313691853697  0.9162384643177063  0.3996349217501754
  0.9583344493449346  0.0418025825095147  0.3996274623389150
  0.9576024418472419  0.1660947060580300  0.3994705233144999
  0.9573905839206982  0.2910822602364370  0.3993717892304753
  0.9577044417560513  0.4163586505575349  0.3996133072235702
  0.9586168123850695  0.5419023015274874  0.3999794024220873
  0.9592875885118394  0.6673685623095548  0.3999078901071892
  0.9593874066951755  0.7926758593294949  0.3997616229906846
  0.9591145614977347  0.9175445031154649  0.3997211413881577
  0.4103943339980027  0.5820855662052494  0.4043612091577166
  0.5482805592166102  0.5829496337620949  0.4053261434981141
  0.3278286279091184  0.4178351101719281  0.4068378002419333
 
  0.00000000E+00  0.00000000E+00  0.00000000E+00
  0.00000000E+00  0.00000000E+00  0.00000000E+00
  0.00000000E+00  0.00000000E+00  0.00000000E+00
  0.00000000E+00  0.00000000E+00  0.00000000E+00
  0.00000000E+00  0.00000000E+00  0.00000000E+00
  0.00000000E+00  0.00000000E+00  0.00000000E+00
  0.00000000E+00  0.00000000E+00  0.00000000E+00
  0.00000000E+00  0.00000000E+00  0.00000000E+00
  0.00000000E+00  0.00000000E+00  0.00000000E+00
  0.00000000E+00  0.00000000E+00  0.00000000E+00
  0.00000000E+00  0.00000000E+00  0.00000000E+00
  0.00000000E+00  0.00000000E+00  0.00000000E+00
  0.00000000E+00  0.00000000E+00  0.00000000E+00
  0.00000000E+00  0.00000000E+00  0.00000000E+00
  0.00000000E+00  0.00000000E+00  0.00000000E+00
  0.00000000E+00  0.00000000E+00  0.00000000E+00
  0.00000000E+00  0.00000000E+00  0.00000000E+00
  0.00000000E+00  0.00000000E+00  0.00000000E+00
  0.00000000E+00  0.00000000E+00  0.00000000E+00
  0.00000000E+00  0.00000000E+00  0.00000000E+00
  0.00000000E+00  0.00000000E+00  0.00000000E+00
  0.00000000E+00  0.00000000E+00  0.00000000E+00
  0.00000000E+00  0.00000000E+00  0.00000000E+00
  0.00000000E+00  0.00000000E+00  0.00000000E+00
  0.00000000E+00  0.00000000E+00  0.00000000E+00
  0.00000000E+00  0.00000000E+00  0.00000000E+00
  0.00000000E+00  0.00000000E+00  0.00000000E+00
  0.00000000E+00  0.00000000E+00  0.00000000E+00
  0.00000000E+00  0.00000000E+00  0.00000000E+00
  0.00000000E+00  0.00000000E+00  0.00000000E+00
  0.00000000E+00  0.00000000E+00  0.00000000E+00
  0.00000000E+00  0.00000000E+00  0.00000000E+00
  0.00000000E+00  0.00000000E+00  0.00000000E+00
  0.00000000E+00  0.00000000E+00  0.00000000E+00
  0.00000000E+00  0.00000000E+00  0.00000000E+00
  0.00000000E+00  0.00000000E+00  0.00000000E+00
  0.00000000E+00  0.00000000E+00  0.00000000E+00
  0.00000000E+00  0.00000000E+00  0.00000000E+00
  0.00000000E+00  0.00000000E+00  0.00000000E+00
  0.00000000E+00  0.00000000E+00  0.00000000E+00
  0.00000000E+00  0.00000000E+00  0.00000000E+00
  0.00000000E+00  0.00000000E+00  0.00000000E+00
  0.00000000E+00  0.00000000E+00  0.00000000E+00
  0.00000000E+00  0.00000000E+00  0.00000000E+00
  0.00000000E+00  0.00000000E+00  0.00000000E+00
  0.00000000E+00  0.00000000E+00  0.00000000E+00
  0.00000000E+00  0.00000000E+00  0.00000000E+00
  0.00000000E+00  0.00000000E+00  0.00000000E+00
  0.00000000E+00  0.00000000E+00  0.00000000E+00
  0.00000000E+00  0.00000000E+00  0.00000000E+00
  0.00000000E+00  0.00000000E+00  0.00000000E+00
  0.00000000E+00  0.00000000E+00  0.00000000E+00
  0.00000000E+00  0.00000000E+00  0.00000000E+00
  0.00000000E+00  0.00000000E+00  0.00000000E+00
  0.00000000E+00  0.00000000E+00  0.00000000E+00
  0.00000000E+00  0.00000000E+00  0.00000000E+00
  0.00000000E+00  0.00000000E+00  0.00000000E+00
  0.00000000E+00  0.00000000E+00  0.00000000E+00
  0.00000000E+00  0.00000000E+00  0.00000000E+00
  0.00000000E+00  0.00000000E+00  0.00000000E+00
  0.00000000E+00  0.00000000E+00  0.00000000E+00
  0.00000000E+00  0.00000000E+00  0.00000000E+00
  0.00000000E+00  0.00000000E+00  0.00000000E+00
  0.00000000E+00  0.00000000E+00  0.00000000E+00
  0.00000000E+00  0.00000000E+00  0.00000000E+00
  0.00000000E+00  0.00000000E+00  0.00000000E+00
  0.00000000E+00  0.00000000E+00  0.00000000E+00
  0.00000000E+00  0.00000000E+00  0.00000000E+00
  0.00000000E+00  0.00000000E+00  0.00000000E+00
  0.00000000E+00  0.00000000E+00  0.00000000E+00
  0.00000000E+00  0.00000000E+00  0.00000000E+00
  0.00000000E+00  0.00000000E+00  0.00000000E+00
  0.00000000E+00  0.00000000E+00  0.00000000E+00
  0.00000000E+00  0.00000000E+00  0.00000000E+00
  0.00000000E+00  0.00000000E+00  0.00000000E+00
  0.00000000E+00  0.00000000E+00  0.00000000E+00
  0.00000000E+00  0.00000000E+00  0.00000000E+00
  0.00000000E+00  0.00000000E+00  0.00000000E+00
  0.00000000E+00  0.00000000E+00  0.00000000E+00
  0.00000000E+00  0.00000000E+00  0.00000000E+00
  0.00000000E+00  0.00000000E+00  0.00000000E+00
  0.00000000E+00  0.00000000E+00  0.00000000E+00
  0.00000000E+00  0.00000000E+00  0.00000000E+00
  0.00000000E+00  0.00000000E+00  0.00000000E+00
  0.00000000E+00  0.00000000E+00  0.00000000E+00
  0.00000000E+00  0.00000000E+00  0.00000000E+00
  0.00000000E+00  0.00000000E+00  0.00000000E+00
  0.00000000E+00  0.00000000E+00  0.00000000E+00
  0.00000000E+00  0.00000000E+00  0.00000000E+00
  0.00000000E+00  0.00000000E+00  0.00000000E+00
  0.00000000E+00  0.00000000E+00  0.00000000E+00
  0.00000000E+00  0.00000000E+00  0.00000000E+00
  0.00000000E+00  0.00000000E+00  0.00000000E+00
  0.00000000E+00  0.00000000E+00  0.00000000E+00
  0.00000000E+00  0.00000000E+00  0.00000000E+00
  0.00000000E+00  0.00000000E+00  0.00000000E+00
  0.00000000E+00  0.00000000E+00  0.00000000E+00
  0.00000000E+00  0.00000000E+00  0.00000000E+00
  0.00000000E+00  0.00000000E+00  0.00000000E+00
  0.00000000E+00  0.00000000E+00  0.00000000E+00
  0.00000000E+00  0.00000000E+00  0.00000000E+00
  0.00000000E+00  0.00000000E+00  0.00000000E+00
  0.00000000E+00  0.00000000E+00  0.00000000E+00
  0.00000000E+00  0.00000000E+00  0.00000000E+00
  0.00000000E+00  0.00000000E+00  0.00000000E+00
  0.00000000E+00  0.00000000E+00  0.00000000E+00
  0.00000000E+00  0.00000000E+00  0.00000000E+00
  0.00000000E+00  0.00000000E+00  0.00000000E+00
  0.00000000E+00  0.00000000E+00  0.00000000E+00
  0.00000000E+00  0.00000000E+00  0.00000000E+00
  0.00000000E+00  0.00000000E+00  0.00000000E+00
  0.00000000E+00  0.00000000E+00  0.00000000E+00
  0.00000000E+00  0.00000000E+00  0.00000000E+00
  0.00000000E+00  0.00000000E+00  0.00000000E+00
  0.00000000E+00  0.00000000E+00  0.00000000E+00
  0.00000000E+00  0.00000000E+00  0.00000000E+00
  0.00000000E+00  0.00000000E+00  0.00000000E+00
  0.00000000E+00  0.00000000E+00  0.00000000E+00
  0.00000000E+00  0.00000000E+00  0.00000000E+00
  0.00000000E+00  0.00000000E+00  0.00000000E+00
  0.00000000E+00  0.00000000E+00  0.00000000E+00
  0.00000000E+00  0.00000000E+00  0.00000000E+00
  0.00000000E+00  0.00000000E+00  0.00000000E+00
  0.00000000E+00  0.00000000E+00  0.00000000E+00
  0.00000000E+00  0.00000000E+00  0.00000000E+00
  0.00000000E+00  0.00000000E+00  0.00000000E+00
  0.00000000E+00  0.00000000E+00  0.00000000E+00
  0.00000000E+00  0.00000000E+00  0.00000000E+00
