Ag1 C123 N3                             
   1.00000000000000     
    19.8408375831302308    0.0044631821508965   -0.0027634574745121
    -9.9164582381689463   17.0399132422910498   -0.0094415663142702
    -0.0041648460916105   -0.0187608089458260   29.7589776618225699
   Ag   C    N 
     1   123     3
Direct
  0.4373459561391714  0.4991300021460620  0.4070236310113664
  0.0416891522256283  0.0838894349018441  0.4000407610452487
  0.0406694909178598  0.2079616787495441  0.4001049118477653
  0.0399240346516067  0.3328102150760496  0.3995630095851623
  0.0401228116823799  0.4581734841974315  0.3988911018605668
  0.0412088127712669  0.5838491266050889  0.3986729201321557
  0.0422478394203215  0.7094097620291868  0.3989683243077824
  0.0425393469891248  0.8345901293008701  0.3993279217461140
  0.0424005137349217  0.9595527320383082  0.3996343130038212
  0.1676530800625761  0.0853161950829862  0.4005559002471534
  0.1668476332739975  0.2097534489010531  0.4015740108175460
  0.1644180808641695  0.3333697441010352  0.4017149095180932
  0.1634498356512228  0.4584865886920382  0.4005099181157345
  0.1645337176518097  0.5838692261620588  0.3993245404236773
  0.1662179331489631  0.7091977798114818  0.3989525230506460
  0.1670672408082321  0.8346347076733469  0.3992564486888497
  0.1674794636751582  0.9600750548610001  0.3996869430226953
  0.2925571040110694  0.0857631340929935  0.4006006707155814
  0.2930003535279515  0.2122730978508248  0.4026133939248979
  0.2913928635502722  0.3371931259784433  0.4042903057551690
  0.2862861939337775  0.4583055612369788  0.4040119023482331
  0.2872434412817754  0.5832890417976129  0.4018769442640848
  0.2902442930845632  0.7086735309605323  0.4000041308252416
  0.2915251987693358  0.8341519084695276  0.3993083479073365
  0.2921476380520498  0.9597319283473689  0.3995593930737232
  0.4170879017658778  0.0841470121230525  0.4000243459878140
  0.4178160521542164  0.2100999574131253  0.4019030238337187
  0.4196117086617004  0.3374214836556667  0.4049031998154727
  0.4143147103730168  0.7067081578801735  0.4022246930340089
  0.4159379832332331  0.8325112473664301  0.4001925624129772
  0.4166637128751913  0.9583755493626552  0.3995312764254905
  0.5416050208665901  0.0825279474954649  0.3995045125905614
  0.5423205358609472  0.2082279564108556  0.4002135824700883
  0.5437522144742102  0.3337040219163758  0.4024881728754772
  0.5488036981360139  0.4596683297298562  0.4055433367207664
  0.5382645032145997  0.7016279022065727  0.4040209961383030
  0.5404600899176328  0.8302246727947635  0.4014042728219470
  0.5410720775082615  0.9566384252953011  0.3999101749603977
  0.6661063593886920  0.0818155826967453  0.3995403861513571
  0.6666464592533722  0.2072724039517343  0.3992469058647439
  0.6678429770311214  0.3327532470150606  0.3997358266184322
  0.6706620628705867  0.4585383404184583  0.4013570071980127
  0.6720599764879869  0.5842003331241868  0.4029818826901120
  0.6671449505731541  0.7064883551157979  0.4029508338389520
  0.6647175054101480  0.8302038761020237  0.4016261537299671
  0.6655544635049819  0.9561587679850537  0.4002260747422202
  0.7906744145029814  0.0817436343166104  0.3996082726121416
  0.7910501549123427  0.2071051482448277  0.3993063728688211
  0.7918610050914709  0.3325711778696476  0.3988626955668226
  0.7933640352663296  0.4581770035131673  0.3989153898776601
  0.7945705935134121  0.5838787684321559  0.3996608326138070
  0.7937721838256860  0.7090412151229192  0.4004552563465161
  0.7914079810690184  0.8324384785699352  0.4005566914263732
  0.7904391102306090  0.9565589230463951  0.4000603237436404
  0.9157805190520780  0.0824049803100395  0.3996470792049563
  0.9155534866494029  0.2072245753584128  0.3993979168028156
  0.9158002456992168  0.3325551497853239  0.3989886558725237
  0.9167400233684577  0.4582050473215590  0.3986231715770854
  0.9178527120853828  0.5838755424182819  0.3986630573531010
  0.9180480589957858  0.7092053800455987  0.3991045044570510
  0.9176255960976084  0.8341555614362173  0.3995325387893986
  0.9165401982648581  0.9582008735573967  0.3997349872820082
  0.0841205072641874  0.0431150361103720  0.4000273025200357
  0.0832403853577802  0.1674157303928484  0.4005191168138383
  0.0817617202335693  0.2913987662504067  0.4003418082003569
  0.0809048715834028  0.4161661802383881  0.3994656279084675
  0.0818466913543214  0.5418192366641259  0.3988211715501638
  0.0831977489512681  0.6674297254130234  0.3988137518569618
  0.0839033182836925  0.7928729899435362  0.3992323263602244
  0.0841960863149786  0.9181348844585636  0.3995254884993126
  0.2091539271107632  0.0436352956128310  0.4002420189695096
  0.2093835721660008  0.1690801356987729  0.4016056920937079
  0.2077094289050344  0.2933101678695279  0.4026079005960763
  0.2045430341724625  0.4168253731533654  0.4020749867458739
  0.2047194280076438  0.5415897742964442  0.4004272409608520
  0.2069960251827865  0.6672209855743548  0.3993010251262648
  0.2083136245289066  0.7927798177660308  0.3991180943077442
  0.2088922402357287  0.9181825688208555  0.3994853767478321
  0.3338929931011416  0.0434154951206631  0.4000236738969996
  0.3342569832124400  0.1694838103894803  0.4017740272425716
  0.3347369885697525  0.2965822020972043  0.4041972596872850
  0.3276810201887160  0.5420578278059436  0.4038877284460252
  0.3308901843969063  0.6666115212691851  0.4013813271912150
  0.3327052909412605  0.7919939523142109  0.3997502899419815
  0.3334106725622691  0.9175871308506157  0.3994170633240873
  0.4583904589884112  0.0417999247321032  0.3996124851005142
  0.4589665011309504  0.1676757290149803  0.4006747361507021
  0.4603068234656511  0.2935877704868412  0.4032233340913057
  0.4670069401901446  0.4185250218258688  0.4065350190199021
  0.4533861693795654  0.6619724606439987  0.4039998928769763
  0.4570750734211050  0.7900352459418913  0.4012416664297300
  0.4578750304171810  0.9160395771311302  0.3998064727256034
  0.5828419339327776  0.0403076585831084  0.3995738866751447
  0.5834990611251794  0.1660244410702875  0.3995129050975001
  0.5846044690506805  0.2914315330144687  0.4006949769399764
  0.5880920978111472  0.4169911526591420  0.4032716459889553
  0.5911519586524894  0.5431529481053801  0.4053628253264064
  0.5830710867695602  0.6616994941158870  0.4046895131473426
  0.5808481996881394  0.7867722949368737  0.4024388235871025
  0.5823100483795508  0.9141509461506064  0.4004541711119492
  0.7074055131773487  0.0398525322658756  0.3997397523304093
  0.7079140606914684  0.1653561295183921  0.3993212497156764
  0.7087461698006606  0.2908198429350048  0.3991154961997110
  0.7106852898301603  0.4162281001088071  0.3997788236144673
  0.7123740913234272  0.5417248438258048  0.4012318926991455
  0.7111930225038345  0.6672518194601548  0.4021600763823538
  0.7077728079011519  0.7899788502880519  0.4016940475576088
  0.7067733968128844  0.9141560439777741  0.4005534084559874
  0.8323465744242879  0.0402508426666120  0.3996943163932182
  0.8324466548198037  0.1653657237165416  0.3994298660894120
  0.8328377602138300  0.2905888351492791  0.3990450339914671
  0.8339638395233749  0.4161033518063083  0.3986602554457895
  0.8352191063642657  0.5418318928123559  0.3988975268073763
  0.8353626183556933  0.6673665949459301  0.3995942961289467
  0.8344055005353105  0.7921829096004833  0.4000969873212924
  0.8329621421161003  0.9159386032477357  0.4000507914379640
  0.9581817034708757  0.0416457392385838  0.3997450553251675
  0.9573815785226717  0.1658747391347547  0.3996180917496838
  0.9571034360184183  0.2908242984976028  0.3992253564216853
  0.9574289786040017  0.4161382631235787  0.3987783002588107
  0.9584828156828124  0.5417529989723723  0.3986047318496012
  0.9593385459933464  0.6674138464155864  0.3988665105598468
  0.9594202932670258  0.7927752984125007  0.3992801588001081
  0.9590215384795189  0.9175312955160033  0.3995896260388715
  0.4079371813182790  0.5825723606060411  0.4052816711749641
  0.5496774852994825  0.5818058672506916  0.4065259013173027
  0.3265019878570707  0.4176949015123630  0.4055739781224404
 
  0.00000000E+00  0.00000000E+00  0.00000000E+00
  0.00000000E+00  0.00000000E+00  0.00000000E+00
  0.00000000E+00  0.00000000E+00  0.00000000E+00
  0.00000000E+00  0.00000000E+00  0.00000000E+00
  0.00000000E+00  0.00000000E+00  0.00000000E+00
  0.00000000E+00  0.00000000E+00  0.00000000E+00
  0.00000000E+00  0.00000000E+00  0.00000000E+00
  0.00000000E+00  0.00000000E+00  0.00000000E+00
  0.00000000E+00  0.00000000E+00  0.00000000E+00
  0.00000000E+00  0.00000000E+00  0.00000000E+00
  0.00000000E+00  0.00000000E+00  0.00000000E+00
  0.00000000E+00  0.00000000E+00  0.00000000E+00
  0.00000000E+00  0.00000000E+00  0.00000000E+00
  0.00000000E+00  0.00000000E+00  0.00000000E+00
  0.00000000E+00  0.00000000E+00  0.00000000E+00
  0.00000000E+00  0.00000000E+00  0.00000000E+00
  0.00000000E+00  0.00000000E+00  0.00000000E+00
  0.00000000E+00  0.00000000E+00  0.00000000E+00
  0.00000000E+00  0.00000000E+00  0.00000000E+00
  0.00000000E+00  0.00000000E+00  0.00000000E+00
  0.00000000E+00  0.00000000E+00  0.00000000E+00
  0.00000000E+00  0.00000000E+00  0.00000000E+00
  0.00000000E+00  0.00000000E+00  0.00000000E+00
  0.00000000E+00  0.00000000E+00  0.00000000E+00
  0.00000000E+00  0.00000000E+00  0.00000000E+00
  0.00000000E+00  0.00000000E+00  0.00000000E+00
  0.00000000E+00  0.00000000E+00  0.00000000E+00
  0.00000000E+00  0.00000000E+00  0.00000000E+00
  0.00000000E+00  0.00000000E+00  0.00000000E+00
  0.00000000E+00  0.00000000E+00  0.00000000E+00
  0.00000000E+00  0.00000000E+00  0.00000000E+00
  0.00000000E+00  0.00000000E+00  0.00000000E+00
  0.00000000E+00  0.00000000E+00  0.00000000E+00
  0.00000000E+00  0.00000000E+00  0.00000000E+00
  0.00000000E+00  0.00000000E+00  0.00000000E+00
  0.00000000E+00  0.00000000E+00  0.00000000E+00
  0.00000000E+00  0.00000000E+00  0.00000000E+00
  0.00000000E+00  0.00000000E+00  0.00000000E+00
  0.00000000E+00  0.00000000E+00  0.00000000E+00
  0.00000000E+00  0.00000000E+00  0.00000000E+00
  0.00000000E+00  0.00000000E+00  0.00000000E+00
  0.00000000E+00  0.00000000E+00  0.00000000E+00
  0.00000000E+00  0.00000000E+00  0.00000000E+00
  0.00000000E+00  0.00000000E+00  0.00000000E+00
  0.00000000E+00  0.00000000E+00  0.00000000E+00
  0.00000000E+00  0.00000000E+00  0.00000000E+00
  0.00000000E+00  0.00000000E+00  0.00000000E+00
  0.00000000E+00  0.00000000E+00  0.00000000E+00
  0.00000000E+00  0.00000000E+00  0.00000000E+00
  0.00000000E+00  0.00000000E+00  0.00000000E+00
  0.00000000E+00  0.00000000E+00  0.00000000E+00
  0.00000000E+00  0.00000000E+00  0.00000000E+00
  0.00000000E+00  0.00000000E+00  0.00000000E+00
  0.00000000E+00  0.00000000E+00  0.00000000E+00
  0.00000000E+00  0.00000000E+00  0.00000000E+00
  0.00000000E+00  0.00000000E+00  0.00000000E+00
  0.00000000E+00  0.00000000E+00  0.00000000E+00
  0.00000000E+00  0.00000000E+00  0.00000000E+00
  0.00000000E+00  0.00000000E+00  0.00000000E+00
  0.00000000E+00  0.00000000E+00  0.00000000E+00
  0.00000000E+00  0.00000000E+00  0.00000000E+00
  0.00000000E+00  0.00000000E+00  0.00000000E+00
  0.00000000E+00  0.00000000E+00  0.00000000E+00
  0.00000000E+00  0.00000000E+00  0.00000000E+00
  0.00000000E+00  0.00000000E+00  0.00000000E+00
  0.00000000E+00  0.00000000E+00  0.00000000E+00
  0.00000000E+00  0.00000000E+00  0.00000000E+00
  0.00000000E+00  0.00000000E+00  0.00000000E+00
  0.00000000E+00  0.00000000E+00  0.00000000E+00
  0.00000000E+00  0.00000000E+00  0.00000000E+00
  0.00000000E+00  0.00000000E+00  0.00000000E+00
  0.00000000E+00  0.00000000E+00  0.00000000E+00
  0.00000000E+00  0.00000000E+00  0.00000000E+00
  0.00000000E+00  0.00000000E+00  0.00000000E+00
  0.00000000E+00  0.00000000E+00  0.00000000E+00
  0.00000000E+00  0.00000000E+00  0.00000000E+00
  0.00000000E+00  0.00000000E+00  0.00000000E+00
  0.00000000E+00  0.00000000E+00  0.00000000E+00
  0.00000000E+00  0.00000000E+00  0.00000000E+00
  0.00000000E+00  0.00000000E+00  0.00000000E+00
  0.00000000E+00  0.00000000E+00  0.00000000E+00
  0.00000000E+00  0.00000000E+00  0.00000000E+00
  0.00000000E+00  0.00000000E+00  0.00000000E+00
  0.00000000E+00  0.00000000E+00  0.00000000E+00
  0.00000000E+00  0.00000000E+00  0.00000000E+00
  0.00000000E+00  0.00000000E+00  0.00000000E+00
  0.00000000E+00  0.00000000E+00  0.00000000E+00
  0.00000000E+00  0.00000000E+00  0.00000000E+00
  0.00000000E+00  0.00000000E+00  0.00000000E+00
  0.00000000E+00  0.00000000E+00  0.00000000E+00
  0.00000000E+00  0.00000000E+00  0.00000000E+00
  0.00000000E+00  0.00000000E+00  0.00000000E+00
  0.00000000E+00  0.00000000E+00  0.00000000E+00
  0.00000000E+00  0.00000000E+00  0.00000000E+00
  0.00000000E+00  0.00000000E+00  0.00000000E+00
  0.00000000E+00  0.00000000E+00  0.00000000E+00
  0.00000000E+00  0.00000000E+00  0.00000000E+00
  0.00000000E+00  0.00000000E+00  0.00000000E+00
  0.00000000E+00  0.00000000E+00  0.00000000E+00
  0.00000000E+00  0.00000000E+00  0.00000000E+00
  0.00000000E+00  0.00000000E+00  0.00000000E+00
  0.00000000E+00  0.00000000E+00  0.00000000E+00
  0.00000000E+00  0.00000000E+00  0.00000000E+00
  0.00000000E+00  0.00000000E+00  0.00000000E+00
  0.00000000E+00  0.00000000E+00  0.00000000E+00
  0.00000000E+00  0.00000000E+00  0.00000000E+00
  0.00000000E+00  0.00000000E+00  0.00000000E+00
  0.00000000E+00  0.00000000E+00  0.00000000E+00
  0.00000000E+00  0.00000000E+00  0.00000000E+00
  0.00000000E+00  0.00000000E+00  0.00000000E+00
  0.00000000E+00  0.00000000E+00  0.00000000E+00
  0.00000000E+00  0.00000000E+00  0.00000000E+00
  0.00000000E+00  0.00000000E+00  0.00000000E+00
  0.00000000E+00  0.00000000E+00  0.00000000E+00
  0.00000000E+00  0.00000000E+00  0.00000000E+00
  0.00000000E+00  0.00000000E+00  0.00000000E+00
  0.00000000E+00  0.00000000E+00  0.00000000E+00
  0.00000000E+00  0.00000000E+00  0.00000000E+00
  0.00000000E+00  0.00000000E+00  0.00000000E+00
  0.00000000E+00  0.00000000E+00  0.00000000E+00
  0.00000000E+00  0.00000000E+00  0.00000000E+00
  0.00000000E+00  0.00000000E+00  0.00000000E+00
  0.00000000E+00  0.00000000E+00  0.00000000E+00
  0.00000000E+00  0.00000000E+00  0.00000000E+00
  0.00000000E+00  0.00000000E+00  0.00000000E+00
  0.00000000E+00  0.00000000E+00  0.00000000E+00
  0.00000000E+00  0.00000000E+00  0.00000000E+00
