Mn1 H1 C122 N4 O1                       
   1.00000000000000     
    19.8041959127442020   -0.0002514959729222   -0.0367753829262984
    -9.9022884619040958   17.0221571084395649   -0.0249074485316466
    -0.0554588321629943   -0.0759091231629695   29.8495500536706544
   Mn   H    C    N    O 
     1     1   122     4     1
Direct
  0.4379373437460785  0.5001676691727681  0.4199605911292039
  0.4724505335724700  0.5452194412647486  0.5014527969686782
  0.0422429949065659  0.0842797589043229  0.4000888234689768
  0.0413388309058860  0.2084180779466251  0.4001241185591837
  0.0405387114388063  0.3330659437382195  0.3997941597964569
  0.0406234947788917  0.4582475314255348  0.3992989682941257
  0.0414012704622095  0.5837117738970505  0.3991756542770020
  0.0421093425828758  0.7091221671417856  0.3993276123638978
  0.0423838788408162  0.8343482007397824  0.3995584689701701
  0.0425059514184980  0.9595765674019177  0.3998259276527776
  0.1682870848653977  0.0859036470460168  0.4008232610257707
  0.1678706709843212  0.2106057896024183  0.4015862410205244
  0.1654670898362625  0.3338801494275074  0.4015776194295242
  0.1644140131940333  0.4585675666805713  0.4005502420126774
  0.1653036638880536  0.5836518663908095  0.3997531638967047
  0.1664373730050741  0.7089008458271451  0.3994552269474738
  0.1670579190336241  0.8343503328146582  0.3995165036080195
  0.1675440411625004  0.9599955426419271  0.3999452903003373
  0.2927228937682500  0.0858945871733212  0.4008167020827216
  0.2943118725176816  0.2134926999374613  0.4028193616228890
  0.2930669997847204  0.3392112586891542  0.4046962965147003
  0.2878679842312124  0.4581892671148537  0.4039600025989856
  0.2887310153114839  0.5829816587502918  0.4017140740909682
  0.2907749942087108  0.7083600471109790  0.4003484865777693
  0.2916977485160785  0.8338825382330342  0.3996495564460574
  0.2921685890877654  0.9595716523661508  0.3997839337579165
  0.4171453530037965  0.0842724738489693  0.4001106882387973
  0.4178354167986313  0.2105696412380880  0.4015422608355976
  0.4212965727430600  0.3391823940349639  0.4043670646656849
  0.4147805644959064  0.7058425076557526  0.4023315704255879
  0.4162149531616777  0.8321483539232872  0.4004703220081680
  0.4167497232919075  0.9582635253199143  0.3997371112486050
  0.5416463097080637  0.0826847474057928  0.3997101446745077
  0.5421706795571097  0.2084019008311344  0.4001649512012904
  0.5435121305361790  0.3338407557383078  0.4013571763116417
  0.5454239027395005  0.4581440137913262  0.4032734905917366
  0.5384766195740696  0.7018279812891279  0.4043936740405201
  0.5405983669483732  0.8302045912949225  0.4017451302656880
  0.5412158615765748  0.9567221064373896  0.4001863299180428
  0.6662518132379773  0.0821263541814474  0.3997603720357645
  0.6666727547963802  0.2075840768538697  0.3995782060444313
  0.6676236754608098  0.3330703407594626  0.3997853251060803
  0.6692352476231562  0.4585610198405163  0.4002912551564819
  0.6693523917850612  0.5829766423897382  0.4013138704597523
  0.6661854325690939  0.7058782794595544  0.4021198369753591
  0.6647080081822168  0.8302077297100894  0.4017164948099747
  0.6657362251305301  0.9563814556552899  0.4005259965769525
  0.7909526906430600  0.0821330198120620  0.3997361367689365
  0.7913005956764678  0.2075219466406466  0.3994651356219450
  0.7918396089578650  0.3328587239315866  0.3992840013778576
  0.7927002836172647  0.4582496540278100  0.3993046749527238
  0.7934311066170636  0.5836556767611114  0.3996812414146689
  0.7926636265862186  0.7083612656048288  0.4002990464765830
  0.7910392572777312  0.8321680569896373  0.4004856416994400
  0.7905996540263658  0.9567384726719794  0.4001807135300837
  0.9161387940849366  0.0827041807276743  0.3996651393687998
  0.9159896895339159  0.2075819546597018  0.3995074435624133
  0.9161023635171546  0.3328647102834879  0.3992579318352512
  0.9166850991308237  0.4583173508165004  0.3990920141232550
  0.9173826800106895  0.5837162508819276  0.3991959400413521
  0.9175495951442372  0.7089027890799287  0.3994862587721215
  0.9172724569450423  0.8338889281166786  0.3997148580920395
  0.9166206266478980  0.9582768856484165  0.3997713163375280
  0.0845627175549524  0.0433880756842271  0.4001988563053018
  0.0841342369348013  0.1679687495276596  0.4005161628316856
  0.0824660184812487  0.2917371826366804  0.4004082044670199
  0.0816784839071829  0.4164152002787063  0.3997545617249756
  0.0824137375618861  0.5418194294055496  0.3993058655804873
  0.0832805600290598  0.6672082692338250  0.3992903170372486
  0.0838186206152116  0.7925524076279231  0.3994756228101224
  0.0841842581733587  0.9179599967571122  0.3997528126082699
  0.2094180951135982  0.0437358542273927  0.4005237034905207
  0.2104739004647413  0.1699430474043595  0.4018431402287561
  0.2090278012592037  0.2942979949602602  0.4024842278243810
  0.2057974141553345  0.4171174658515824  0.4017974659864478
  0.2058721034797628  0.5415035287157082  0.4005313328129887
  0.2075065113763870  0.6669987900508048  0.3997863643084898
  0.2084519938433118  0.7924948743376277  0.3994997444120472
  0.2088723533501167  0.9179605874967720  0.3997217635065340
  0.3339276986230288  0.0433833131642274  0.4001918062361511
  0.3345764170101049  0.1699271834140248  0.4018124863078043
  0.3367515287183167  0.2983566992284779  0.4045319931148441
  0.3297243405795953  0.5419441575543757  0.4039080650589284
  0.3316164582468772  0.6662286434485623  0.4014591052404484
  0.3329650503173696  0.7916847052945712  0.4000898399063928
  0.3334903964929055  0.9174028825008378  0.3996587499937476
  0.4583971951948058  0.0418346699283632  0.3997610567697905
  0.4589296754562895  0.1679432223507149  0.4005399811219164
  0.4603803315267783  0.2942488476769753  0.4022602362304752
  0.4539159081121227  0.6609749765160728  0.4045263822350691
  0.4573145164217465  0.7895254861444059  0.4014845701715046
  0.4580069397912325  0.9158287920640760  0.4000717060684380
  0.5829625029458327  0.0405092312990405  0.3998128262672367
  0.5834350077929216  0.1661978196055500  0.3997306840073662
  0.5843596432359419  0.2917141718463583  0.4003699220988253
  0.5864135060298210  0.4170846910970596  0.4013776805934910
  0.5873388644523416  0.5419029655134011  0.4032559290749447
  0.5821907258298182  0.6610088132469372  0.4042381233462606
  0.5809110353213640  0.7867117571367501  0.4026871042606999
  0.5824326357880807  0.9142268062202703  0.4007926560683828
  0.7075991352462623  0.0401123339821723  0.3999559777904480
  0.7080695408184567  0.1657316591049778  0.3995644269136918
  0.7086798915853336  0.2911670194327129  0.3994857651422237
  0.7098188254035591  0.4164144324858015  0.3997024655735260
  0.7107198795692824  0.5415028755241948  0.4002717647587843
  0.7097075028368138  0.6662457348338080  0.4012455279537619
  0.7073257201365877  0.7895512460462157  0.4014292938392927
  0.7068874721450911  0.9142412028619162  0.4007919877350474
  0.8326386414433244  0.0405248462297010  0.3997951610364581
  0.8327412014503821  0.1657338062383005  0.3995162432728918
  0.8330253734415365  0.2909707579467025  0.3992981741488961
  0.8337129749470691  0.4163608348829726  0.3991739125837981
  0.8344864421253675  0.5418242761295744  0.3993114126486859
  0.8345828305035781  0.6670035548901296  0.3997631532692054
  0.8338140051397858  0.7916999992524083  0.4001148299006729
  0.8329304520345318  0.9158536602653129  0.4000846284256241
  0.9585414256372999  0.0418524833400866  0.3997473340766788
  0.9578691638497290  0.1662215367929960  0.3996563181815418
  0.9575652564833561  0.2911716772250159  0.3994484654112966
  0.9577205991519975  0.4163682755027835  0.3991502084852527
  0.9584127241780962  0.5417703992291223  0.3991097745256482
  0.9590073070035814  0.6672138723441279  0.3993068365589352
  0.9591294875330192  0.7925029251636602  0.3995636149729620
  0.9590074622884117  0.9174106776158482  0.3997185568179944
  0.4100100472714203  0.5807833817280255  0.4064345648631758
  0.5459814556474356  0.5808109509224337  0.4058446216575504
  0.3293111844222594  0.4194239798867301  0.4064668183582967
  0.4652732138888283  0.4193319079568312  0.4057748227137736
  0.4401511622450656  0.4979800629862652  0.4838694392966900
 
  0.00000000E+00  0.00000000E+00  0.00000000E+00
  0.00000000E+00  0.00000000E+00  0.00000000E+00
  0.00000000E+00  0.00000000E+00  0.00000000E+00
  0.00000000E+00  0.00000000E+00  0.00000000E+00
  0.00000000E+00  0.00000000E+00  0.00000000E+00
  0.00000000E+00  0.00000000E+00  0.00000000E+00
  0.00000000E+00  0.00000000E+00  0.00000000E+00
  0.00000000E+00  0.00000000E+00  0.00000000E+00
  0.00000000E+00  0.00000000E+00  0.00000000E+00
  0.00000000E+00  0.00000000E+00  0.00000000E+00
  0.00000000E+00  0.00000000E+00  0.00000000E+00
  0.00000000E+00  0.00000000E+00  0.00000000E+00
  0.00000000E+00  0.00000000E+00  0.00000000E+00
  0.00000000E+00  0.00000000E+00  0.00000000E+00
  0.00000000E+00  0.00000000E+00  0.00000000E+00
  0.00000000E+00  0.00000000E+00  0.00000000E+00
  0.00000000E+00  0.00000000E+00  0.00000000E+00
  0.00000000E+00  0.00000000E+00  0.00000000E+00
  0.00000000E+00  0.00000000E+00  0.00000000E+00
  0.00000000E+00  0.00000000E+00  0.00000000E+00
  0.00000000E+00  0.00000000E+00  0.00000000E+00
  0.00000000E+00  0.00000000E+00  0.00000000E+00
  0.00000000E+00  0.00000000E+00  0.00000000E+00
  0.00000000E+00  0.00000000E+00  0.00000000E+00
  0.00000000E+00  0.00000000E+00  0.00000000E+00
  0.00000000E+00  0.00000000E+00  0.00000000E+00
  0.00000000E+00  0.00000000E+00  0.00000000E+00
  0.00000000E+00  0.00000000E+00  0.00000000E+00
  0.00000000E+00  0.00000000E+00  0.00000000E+00
  0.00000000E+00  0.00000000E+00  0.00000000E+00
  0.00000000E+00  0.00000000E+00  0.00000000E+00
  0.00000000E+00  0.00000000E+00  0.00000000E+00
  0.00000000E+00  0.00000000E+00  0.00000000E+00
  0.00000000E+00  0.00000000E+00  0.00000000E+00
  0.00000000E+00  0.00000000E+00  0.00000000E+00
  0.00000000E+00  0.00000000E+00  0.00000000E+00
  0.00000000E+00  0.00000000E+00  0.00000000E+00
  0.00000000E+00  0.00000000E+00  0.00000000E+00
  0.00000000E+00  0.00000000E+00  0.00000000E+00
  0.00000000E+00  0.00000000E+00  0.00000000E+00
  0.00000000E+00  0.00000000E+00  0.00000000E+00
  0.00000000E+00  0.00000000E+00  0.00000000E+00
  0.00000000E+00  0.00000000E+00  0.00000000E+00
  0.00000000E+00  0.00000000E+00  0.00000000E+00
  0.00000000E+00  0.00000000E+00  0.00000000E+00
  0.00000000E+00  0.00000000E+00  0.00000000E+00
  0.00000000E+00  0.00000000E+00  0.00000000E+00
  0.00000000E+00  0.00000000E+00  0.00000000E+00
  0.00000000E+00  0.00000000E+00  0.00000000E+00
  0.00000000E+00  0.00000000E+00  0.00000000E+00
  0.00000000E+00  0.00000000E+00  0.00000000E+00
  0.00000000E+00  0.00000000E+00  0.00000000E+00
  0.00000000E+00  0.00000000E+00  0.00000000E+00
  0.00000000E+00  0.00000000E+00  0.00000000E+00
  0.00000000E+00  0.00000000E+00  0.00000000E+00
  0.00000000E+00  0.00000000E+00  0.00000000E+00
  0.00000000E+00  0.00000000E+00  0.00000000E+00
  0.00000000E+00  0.00000000E+00  0.00000000E+00
  0.00000000E+00  0.00000000E+00  0.00000000E+00
  0.00000000E+00  0.00000000E+00  0.00000000E+00
  0.00000000E+00  0.00000000E+00  0.00000000E+00
  0.00000000E+00  0.00000000E+00  0.00000000E+00
  0.00000000E+00  0.00000000E+00  0.00000000E+00
  0.00000000E+00  0.00000000E+00  0.00000000E+00
  0.00000000E+00  0.00000000E+00  0.00000000E+00
  0.00000000E+00  0.00000000E+00  0.00000000E+00
  0.00000000E+00  0.00000000E+00  0.00000000E+00
  0.00000000E+00  0.00000000E+00  0.00000000E+00
  0.00000000E+00  0.00000000E+00  0.00000000E+00
  0.00000000E+00  0.00000000E+00  0.00000000E+00
  0.00000000E+00  0.00000000E+00  0.00000000E+00
  0.00000000E+00  0.00000000E+00  0.00000000E+00
  0.00000000E+00  0.00000000E+00  0.00000000E+00
  0.00000000E+00  0.00000000E+00  0.00000000E+00
  0.00000000E+00  0.00000000E+00  0.00000000E+00
  0.00000000E+00  0.00000000E+00  0.00000000E+00
  0.00000000E+00  0.00000000E+00  0.00000000E+00
  0.00000000E+00  0.00000000E+00  0.00000000E+00
  0.00000000E+00  0.00000000E+00  0.00000000E+00
  0.00000000E+00  0.00000000E+00  0.00000000E+00
  0.00000000E+00  0.00000000E+00  0.00000000E+00
  0.00000000E+00  0.00000000E+00  0.00000000E+00
  0.00000000E+00  0.00000000E+00  0.00000000E+00
  0.00000000E+00  0.00000000E+00  0.00000000E+00
  0.00000000E+00  0.00000000E+00  0.00000000E+00
  0.00000000E+00  0.00000000E+00  0.00000000E+00
  0.00000000E+00  0.00000000E+00  0.00000000E+00
  0.00000000E+00  0.00000000E+00  0.00000000E+00
  0.00000000E+00  0.00000000E+00  0.00000000E+00
  0.00000000E+00  0.00000000E+00  0.00000000E+00
  0.00000000E+00  0.00000000E+00  0.00000000E+00
  0.00000000E+00  0.00000000E+00  0.00000000E+00
  0.00000000E+00  0.00000000E+00  0.00000000E+00
  0.00000000E+00  0.00000000E+00  0.00000000E+00
  0.00000000E+00  0.00000000E+00  0.00000000E+00
  0.00000000E+00  0.00000000E+00  0.00000000E+00
  0.00000000E+00  0.00000000E+00  0.00000000E+00
  0.00000000E+00  0.00000000E+00  0.00000000E+00
  0.00000000E+00  0.00000000E+00  0.00000000E+00
  0.00000000E+00  0.00000000E+00  0.00000000E+00
  0.00000000E+00  0.00000000E+00  0.00000000E+00
  0.00000000E+00  0.00000000E+00  0.00000000E+00
  0.00000000E+00  0.00000000E+00  0.00000000E+00
  0.00000000E+00  0.00000000E+00  0.00000000E+00
  0.00000000E+00  0.00000000E+00  0.00000000E+00
  0.00000000E+00  0.00000000E+00  0.00000000E+00
  0.00000000E+00  0.00000000E+00  0.00000000E+00
  0.00000000E+00  0.00000000E+00  0.00000000E+00
  0.00000000E+00  0.00000000E+00  0.00000000E+00
  0.00000000E+00  0.00000000E+00  0.00000000E+00
  0.00000000E+00  0.00000000E+00  0.00000000E+00
  0.00000000E+00  0.00000000E+00  0.00000000E+00
  0.00000000E+00  0.00000000E+00  0.00000000E+00
  0.00000000E+00  0.00000000E+00  0.00000000E+00
  0.00000000E+00  0.00000000E+00  0.00000000E+00
  0.00000000E+00  0.00000000E+00  0.00000000E+00
  0.00000000E+00  0.00000000E+00  0.00000000E+00
  0.00000000E+00  0.00000000E+00  0.00000000E+00
  0.00000000E+00  0.00000000E+00  0.00000000E+00
  0.00000000E+00  0.00000000E+00  0.00000000E+00
  0.00000000E+00  0.00000000E+00  0.00000000E+00
  0.00000000E+00  0.00000000E+00  0.00000000E+00
  0.00000000E+00  0.00000000E+00  0.00000000E+00
  0.00000000E+00  0.00000000E+00  0.00000000E+00
  0.00000000E+00  0.00000000E+00  0.00000000E+00
  0.00000000E+00  0.00000000E+00  0.00000000E+00
  0.00000000E+00  0.00000000E+00  0.00000000E+00
  0.00000000E+00  0.00000000E+00  0.00000000E+00
  0.00000000E+00  0.00000000E+00  0.00000000E+00
