Ni1 C122 N4 O1                          
   1.00000000000000     
    19.7966912742407324   -0.0000048366905611    0.0091084693130361
    -9.8983556441150995   17.0061579237990657   -0.0180455983914789
     0.0137705718678550   -0.0233676119387699   29.8884706400555054
   Ni   C    N    O 
     1   122     4     1
Direct
  0.4365420227328733  0.4980313092386938  0.4117101271026019
  0.0422853974273201  0.0843860580163705  0.4003302839109460
  0.0412949114660878  0.2083774496321762  0.4003612415720711
  0.0405353083854552  0.3330208923320929  0.4000564966911583
  0.0406097596910220  0.4582187388944439  0.3995669057941797
  0.0413337690441729  0.5836468126590780  0.3992871641083834
  0.0420206916099788  0.7090507336159272  0.3993072351800534
  0.0423528542682266  0.8344187034032964  0.3996165022346816
  0.0425067458293573  0.9596915952601864  0.4000344633386219
  0.1683643196680037  0.0861609208477885  0.4010186996296999
  0.1680901340062888  0.2109694319823451  0.4018361048103685
  0.1655148658272853  0.3339625968774033  0.4017836014765842
  0.1644657677367201  0.4584663477364961  0.4009331468066748
  0.1652757161491084  0.5835544872460735  0.4000802403508745
  0.1664189310025542  0.7088864831159573  0.3996149594089199
  0.1670750686445736  0.8344149413568855  0.3996265686788424
  0.1675851422624771  0.9601548616053286  0.4001799429764334
  0.2928147238402842  0.0861539151420205  0.4010302294510451
  0.2945282605433639  0.2140426822057211  0.4026493493595801
  0.2936955502940089  0.3401281355452720  0.4037181370972099
  0.2880674230918496  0.4583265980182984  0.4030493232149658
  0.2887196642959517  0.5830015303802347  0.4019537854517127
  0.2906737094342562  0.7082664823495189  0.4006362593770740
  0.2916760290325208  0.8338555955905975  0.3999173355839419
  0.2922052964269797  0.9596938398037278  0.4000555705132985
  0.4171104546180469  0.0843802209122571  0.4003561752463554
  0.4178769113857455  0.2109600529194913  0.4018438874525095
  0.4214265532000329  0.3401338450541143  0.4037316576749347
  0.4145780340996293  0.7052168342831953  0.4026919440692693
  0.4160743103816042  0.8318904962104579  0.4008828979768855
  0.4166630749204339  0.9581489523005886  0.4000033857134940
  0.5415163317281154  0.0825429931031842  0.3998898610225804
  0.5420842720151504  0.2083696107170223  0.4003673442190528
  0.5434301551622328  0.3339546208563040  0.4017930565732838
  0.5452524356552185  0.4583298933254626  0.4030607777075245
  0.5378470367594818  0.7007002603812602  0.4035549863613053
  0.5402637542592876  0.8296177743197036  0.4019586595891161
  0.5410425059894846  0.9564306690483644  0.4005113243845345
  0.6660711303926123  0.0818654798409399  0.3999277330944561
  0.6665719709749709  0.2075038504660209  0.3996418893420514
  0.6674828843081579  0.3330275451874725  0.4000590435088307
  0.6689925773469072  0.4584723687085880  0.4009527201022218
  0.6692772046508069  0.5830184074018238  0.4019723636480950
  0.6656285138214154  0.7052189250566334  0.4027010073545140
  0.6643619947839728  0.8296192772196080  0.4019663970945969
  0.6654691231150471  0.9559308679082418  0.4008298295990173
  0.7907998867765978  0.0818668536428952  0.3999458174839135
  0.7911608583699846  0.2073293152061575  0.3994720367150524
  0.7917445228960605  0.3327822802666838  0.3993517544734006
  0.7925993083017080  0.4582178993254524  0.3995852427073165
  0.7932627122078207  0.5835537542677286  0.4001069463233926
  0.7926004929240166  0.7082785221518112  0.4006508052031402
  0.7908273864255222  0.8319006619412455  0.4008926382456075
  0.7903970610056164  0.9564360280819535  0.4005170283407226
  0.9160332388475318  0.0825511200959013  0.3998943830547126
  0.9159346442712095  0.2074981835974697  0.3996576505016217
  0.9160302157032248  0.3327803011905031  0.3993579062749605
  0.9166108116807419  0.4582301982066727  0.3991718868347916
  0.9173002837991328  0.5836493634572608  0.3993087421004609
  0.9174610948942965  0.7088831668188835  0.3996294136833007
  0.9171926046731471  0.8338547244360628  0.3999071871584750
  0.9164956886872072  0.9581525342048001  0.3999948359979221
  0.0846045980442571  0.0435354590801097  0.4004438738787305
  0.0842278980744518  0.1681163784993693  0.4008050689294609
  0.0824611223522228  0.2917536002536712  0.4006349435453405
  0.0817552742168152  0.4164444253939142  0.4001103059654771
  0.0823727660377535  0.5417889879510992  0.3995638300270377
  0.0832677260644012  0.6672208764706772  0.3993568808041328
  0.0838270886207499  0.7926531023314012  0.3994743540485067
  0.0842001959167116  0.9181214853606958  0.3999279655107189
  0.2095271662818488  0.0440436597068131  0.4007780893087213
  0.2106397692523568  0.1703755097615568  0.4018960570131653
  0.2094517160746347  0.2948455568257892  0.4026514581680705
  0.2058568981439557  0.4170625478986752  0.4020177155044348
  0.2059628368863150  0.5415264328723112  0.4008957901913451
  0.2075090694382199  0.6669782788243265  0.4000359720466557
  0.2084497658604194  0.7925001363452607  0.3996725234570624
  0.2089341795240221  0.9181202995611806  0.3999426657430293
  0.3339401441195489  0.0435294071934227  0.4004668362532627
  0.3347410656967683  0.1703669434725432  0.4019075402800538
  0.3371043786193198  0.2992079522687244  0.4037277913697362
  0.3298985326557294  0.5419594216567937  0.4029622694647249
  0.3315441431605041  0.6660723182949793  0.4017861206421817
  0.3328945505107382  0.7916051805739273  0.4004187732183963
  0.3334774035968783  0.9174088268963242  0.3999210980092918
  0.4583300215699747  0.0418158393415944  0.3999852771155458
  0.4588907283119073  0.1681026039228364  0.4008215351814261
  0.4603894649207098  0.2948387118720271  0.4026664385385223
  0.4534523576677132  0.6597259861295252  0.4035576451792496
  0.4570767552229507  0.7890373643228485  0.4019177070797659
  0.4578728118861747  0.9155923689217998  0.4004034810876240
  0.5827980311342910  0.0402556664210596  0.4000463950490220
  0.5833328907173945  0.1661295780351747  0.3998698786000341
  0.5842895426623478  0.2917483459631323  0.4006345708305594
  0.5861827517764373  0.4170425761009657  0.4020308523687167
  0.5870514253800196  0.5419596081587645  0.4029710498681131
  0.5812433007229550  0.6597207370910825  0.4035586286813239
  0.5804401639549824  0.7858811935925983  0.4026504720285238
  0.5821845695581975  0.9137967369879647  0.4010922946225238
  0.7074051377707531  0.0398161625355775  0.4001936046977307
  0.7079189316873131  0.1655671380794123  0.3996043090875807
  0.7085842916571984  0.2911230940905147  0.3996034209581508
  0.7096727078591836  0.4164445787699796  0.4001287967108529
  0.7105461992034644  0.5415278559202441  0.4009243800342387
  0.7095240203713080  0.6660869018964101  0.4018005486981487
  0.7069607773724678  0.7890409567580491  0.4019370435272416
  0.7066255401987255  0.9138015114870521  0.4010908764445653
  0.8324651612442494  0.0402587137783967  0.4000647755659010
  0.8326425542371964  0.1655648543398918  0.3996175892989153
  0.8329530286487444  0.2909284198033249  0.3992995447119606
  0.8336434889603780  0.4163611682655319  0.3992952735411870
  0.8344029682733918  0.5417936277362059  0.3995846221677906
  0.8344659200198841  0.6669785081217495  0.4000586446083232
  0.8337170115225803  0.7916222189386074  0.4004210649709765
  0.8327311041023981  0.9156042816372459  0.4004037324650436
  0.9584947302181857  0.0418202255757705  0.3999656756200345
  0.9578151946225995  0.1661296878429986  0.3998731165039529
  0.9575228969084383  0.2911187180627572  0.3996102131733286
  0.9577108091572337  0.4163606334128860  0.3992922044191697
  0.9583883120008119  0.5417865963745375  0.3991788787379993
  0.9589470978541090  0.6672160574811654  0.3993704392645248
  0.9590539695929350  0.7924944588584317  0.3996657546153647
  0.9589426599157090  0.9174142107742023  0.3999045218419671
  0.4095362101901530  0.5791712860603953  0.4032307221934691
  0.5445965459413052  0.5791478781964776  0.4032109823751444
  0.3305102952383069  0.4209098789032542  0.4033243707061505
  0.4653821545845861  0.4209298604224280  0.4033321492338958
  0.4384580722687960  0.5019064165533828  0.4719177032626050
 
  0.00000000E+00  0.00000000E+00  0.00000000E+00
  0.00000000E+00  0.00000000E+00  0.00000000E+00
  0.00000000E+00  0.00000000E+00  0.00000000E+00
  0.00000000E+00  0.00000000E+00  0.00000000E+00
  0.00000000E+00  0.00000000E+00  0.00000000E+00
  0.00000000E+00  0.00000000E+00  0.00000000E+00
  0.00000000E+00  0.00000000E+00  0.00000000E+00
  0.00000000E+00  0.00000000E+00  0.00000000E+00
  0.00000000E+00  0.00000000E+00  0.00000000E+00
  0.00000000E+00  0.00000000E+00  0.00000000E+00
  0.00000000E+00  0.00000000E+00  0.00000000E+00
  0.00000000E+00  0.00000000E+00  0.00000000E+00
  0.00000000E+00  0.00000000E+00  0.00000000E+00
  0.00000000E+00  0.00000000E+00  0.00000000E+00
  0.00000000E+00  0.00000000E+00  0.00000000E+00
  0.00000000E+00  0.00000000E+00  0.00000000E+00
  0.00000000E+00  0.00000000E+00  0.00000000E+00
  0.00000000E+00  0.00000000E+00  0.00000000E+00
  0.00000000E+00  0.00000000E+00  0.00000000E+00
  0.00000000E+00  0.00000000E+00  0.00000000E+00
  0.00000000E+00  0.00000000E+00  0.00000000E+00
  0.00000000E+00  0.00000000E+00  0.00000000E+00
  0.00000000E+00  0.00000000E+00  0.00000000E+00
  0.00000000E+00  0.00000000E+00  0.00000000E+00
  0.00000000E+00  0.00000000E+00  0.00000000E+00
  0.00000000E+00  0.00000000E+00  0.00000000E+00
  0.00000000E+00  0.00000000E+00  0.00000000E+00
  0.00000000E+00  0.00000000E+00  0.00000000E+00
  0.00000000E+00  0.00000000E+00  0.00000000E+00
  0.00000000E+00  0.00000000E+00  0.00000000E+00
  0.00000000E+00  0.00000000E+00  0.00000000E+00
  0.00000000E+00  0.00000000E+00  0.00000000E+00
  0.00000000E+00  0.00000000E+00  0.00000000E+00
  0.00000000E+00  0.00000000E+00  0.00000000E+00
  0.00000000E+00  0.00000000E+00  0.00000000E+00
  0.00000000E+00  0.00000000E+00  0.00000000E+00
  0.00000000E+00  0.00000000E+00  0.00000000E+00
  0.00000000E+00  0.00000000E+00  0.00000000E+00
  0.00000000E+00  0.00000000E+00  0.00000000E+00
  0.00000000E+00  0.00000000E+00  0.00000000E+00
  0.00000000E+00  0.00000000E+00  0.00000000E+00
  0.00000000E+00  0.00000000E+00  0.00000000E+00
  0.00000000E+00  0.00000000E+00  0.00000000E+00
  0.00000000E+00  0.00000000E+00  0.00000000E+00
  0.00000000E+00  0.00000000E+00  0.00000000E+00
  0.00000000E+00  0.00000000E+00  0.00000000E+00
  0.00000000E+00  0.00000000E+00  0.00000000E+00
  0.00000000E+00  0.00000000E+00  0.00000000E+00
  0.00000000E+00  0.00000000E+00  0.00000000E+00
  0.00000000E+00  0.00000000E+00  0.00000000E+00
  0.00000000E+00  0.00000000E+00  0.00000000E+00
  0.00000000E+00  0.00000000E+00  0.00000000E+00
  0.00000000E+00  0.00000000E+00  0.00000000E+00
  0.00000000E+00  0.00000000E+00  0.00000000E+00
  0.00000000E+00  0.00000000E+00  0.00000000E+00
  0.00000000E+00  0.00000000E+00  0.00000000E+00
  0.00000000E+00  0.00000000E+00  0.00000000E+00
  0.00000000E+00  0.00000000E+00  0.00000000E+00
  0.00000000E+00  0.00000000E+00  0.00000000E+00
  0.00000000E+00  0.00000000E+00  0.00000000E+00
  0.00000000E+00  0.00000000E+00  0.00000000E+00
  0.00000000E+00  0.00000000E+00  0.00000000E+00
  0.00000000E+00  0.00000000E+00  0.00000000E+00
  0.00000000E+00  0.00000000E+00  0.00000000E+00
  0.00000000E+00  0.00000000E+00  0.00000000E+00
  0.00000000E+00  0.00000000E+00  0.00000000E+00
  0.00000000E+00  0.00000000E+00  0.00000000E+00
  0.00000000E+00  0.00000000E+00  0.00000000E+00
  0.00000000E+00  0.00000000E+00  0.00000000E+00
  0.00000000E+00  0.00000000E+00  0.00000000E+00
  0.00000000E+00  0.00000000E+00  0.00000000E+00
  0.00000000E+00  0.00000000E+00  0.00000000E+00
  0.00000000E+00  0.00000000E+00  0.00000000E+00
  0.00000000E+00  0.00000000E+00  0.00000000E+00
  0.00000000E+00  0.00000000E+00  0.00000000E+00
  0.00000000E+00  0.00000000E+00  0.00000000E+00
  0.00000000E+00  0.00000000E+00  0.00000000E+00
  0.00000000E+00  0.00000000E+00  0.00000000E+00
  0.00000000E+00  0.00000000E+00  0.00000000E+00
  0.00000000E+00  0.00000000E+00  0.00000000E+00
  0.00000000E+00  0.00000000E+00  0.00000000E+00
  0.00000000E+00  0.00000000E+00  0.00000000E+00
  0.00000000E+00  0.00000000E+00  0.00000000E+00
  0.00000000E+00  0.00000000E+00  0.00000000E+00
  0.00000000E+00  0.00000000E+00  0.00000000E+00
  0.00000000E+00  0.00000000E+00  0.00000000E+00
  0.00000000E+00  0.00000000E+00  0.00000000E+00
  0.00000000E+00  0.00000000E+00  0.00000000E+00
  0.00000000E+00  0.00000000E+00  0.00000000E+00
  0.00000000E+00  0.00000000E+00  0.00000000E+00
  0.00000000E+00  0.00000000E+00  0.00000000E+00
  0.00000000E+00  0.00000000E+00  0.00000000E+00
  0.00000000E+00  0.00000000E+00  0.00000000E+00
  0.00000000E+00  0.00000000E+00  0.00000000E+00
  0.00000000E+00  0.00000000E+00  0.00000000E+00
  0.00000000E+00  0.00000000E+00  0.00000000E+00
  0.00000000E+00  0.00000000E+00  0.00000000E+00
  0.00000000E+00  0.00000000E+00  0.00000000E+00
  0.00000000E+00  0.00000000E+00  0.00000000E+00
  0.00000000E+00  0.00000000E+00  0.00000000E+00
  0.00000000E+00  0.00000000E+00  0.00000000E+00
  0.00000000E+00  0.00000000E+00  0.00000000E+00
  0.00000000E+00  0.00000000E+00  0.00000000E+00
  0.00000000E+00  0.00000000E+00  0.00000000E+00
  0.00000000E+00  0.00000000E+00  0.00000000E+00
  0.00000000E+00  0.00000000E+00  0.00000000E+00
  0.00000000E+00  0.00000000E+00  0.00000000E+00
  0.00000000E+00  0.00000000E+00  0.00000000E+00
  0.00000000E+00  0.00000000E+00  0.00000000E+00
  0.00000000E+00  0.00000000E+00  0.00000000E+00
  0.00000000E+00  0.00000000E+00  0.00000000E+00
  0.00000000E+00  0.00000000E+00  0.00000000E+00
  0.00000000E+00  0.00000000E+00  0.00000000E+00
  0.00000000E+00  0.00000000E+00  0.00000000E+00
  0.00000000E+00  0.00000000E+00  0.00000000E+00
  0.00000000E+00  0.00000000E+00  0.00000000E+00
  0.00000000E+00  0.00000000E+00  0.00000000E+00
  0.00000000E+00  0.00000000E+00  0.00000000E+00
  0.00000000E+00  0.00000000E+00  0.00000000E+00
  0.00000000E+00  0.00000000E+00  0.00000000E+00
  0.00000000E+00  0.00000000E+00  0.00000000E+00
  0.00000000E+00  0.00000000E+00  0.00000000E+00
  0.00000000E+00  0.00000000E+00  0.00000000E+00
  0.00000000E+00  0.00000000E+00  0.00000000E+00
  0.00000000E+00  0.00000000E+00  0.00000000E+00
  0.00000000E+00  0.00000000E+00  0.00000000E+00
  0.00000000E+00  0.00000000E+00  0.00000000E+00
  0.00000000E+00  0.00000000E+00  0.00000000E+00
