H1 Pd1 C125 N1 O2                       
   1.00000000000000     
    19.7968509920296221   -0.0380677360666516    0.5603342751901501
    -9.9307112151360037   17.0679926058105771    0.0511069196475726
     0.8410955874880275    0.5784338934089732   29.8483835630145755
   H    Pd   C    N    O 
     1     1   125     1     2
Direct
  0.5638834335851853  0.5576265473739819  0.5155182518451458
  0.4316776605026248  0.4962460421516008  0.4294074384343819
  0.0415790348624848  0.0838364081807332  0.3992873066017334
  0.0414033824196625  0.2083835388993660  0.3985707564533292
  0.0410952440638668  0.3330323094761035  0.3976307421320038
  0.0407947725885547  0.4582539418245331  0.3975447281932942
  0.0409232329166012  0.5835648609372506  0.3980396010143088
  0.0412561806274226  0.7088190114514734  0.3984572414043852
  0.0414726542066086  0.8340253967000362  0.3987962698858644
  0.0416001981619402  0.9590713791210267  0.3991516915733640
  0.1671019820446532  0.0849445746820557  0.3999069932875887
  0.1673476006072522  0.2100102039604852  0.3998568020593052
  0.1667556453673704  0.3344238488942815  0.3980049792773694
  0.1651130840752789  0.4588195817566184  0.3973430051611556
  0.1649231642190826  0.5838227839346499  0.3978548657196809
  0.1655947447500818  0.7090362085202785  0.3986167656588560
  0.1662195959244326  0.8342672785030550  0.3989379620359613
  0.1666739769579791  0.9595300302624683  0.3993576808646155
  0.2918526503352923  0.0846582498620131  0.4007365826635388
  0.2926979535415575  0.2109174372614376  0.4028866980891238
  0.2936533192710448  0.3372922930933325  0.4020168055660532
  0.2901506300541162  0.4601275679255594  0.3992336155906172
  0.2884107730777472  0.5848917198516034  0.3990018926016895
  0.2897269269315689  0.7092957177684501  0.3994357338805615
  0.2907887130448970  0.8340985675040664  0.3992844524584967
  0.2913269949041490  0.9592126653402968  0.3994656135386898
  0.4164716340770122  0.0833991475748468  0.4002294539005501
  0.4168507825666275  0.2085993793468443  0.4028866091635829
  0.4178937348113914  0.3345383438242246  0.4103436026098370
  0.4134592953163604  0.7077242531216026  0.4024270435411194
  0.4152307754284387  0.8330289644609585  0.4003867187621515
  0.4159832036219500  0.9582256217270758  0.3996641959771776
  0.5412042332378659  0.0821899758540670  0.3996712692291705
  0.5416880402713934  0.2071584804169525  0.4008021407701627
  0.5422459953910602  0.3316106445114298  0.4045197015578436
  0.5439602585516453  0.4550525892130993  0.4110030053149757
  0.5439746562206390  0.5782284824346582  0.4101262336813388
  0.5364297723857282  0.7028341122550328  0.4063773194896957
  0.5393134237916255  0.8307247906238172  0.4024109175397968
  0.5405680046201923  0.9567728774057319  0.4002795497150032
  0.6658817080095331  0.0816515965233052  0.3995722547218377
  0.6665116984808608  0.2069323966233508  0.3992160580575231
  0.6670549674513568  0.3319087529299650  0.4000451403046217
  0.6682554245045813  0.4569372336263446  0.4016598903823587
  0.6685956560213069  0.5821582985481468  0.4028559436900926
  0.6638971681111733  0.7046760260716609  0.4030036501238043
  0.6636855489894031  0.8298282180428942  0.4024097478316007
  0.6650692851764286  0.9560756462626512  0.4007682896617499
  0.7906582647560830  0.0816861669588784  0.3994764487252623
  0.7911818186001882  0.2069570817016921  0.3987317142443013
  0.7917450428156925  0.3322838080303476  0.3983001176586162
  0.7924305879025320  0.4576476286855951  0.3984861241319686
  0.7926322358730068  0.5828289671046436  0.3991141425900128
  0.7914802795008241  0.7076991524449161  0.3997657020266054
  0.7899093189439631  0.8314817807079502  0.4002969176399808
  0.7899113797660677  0.9562842342724407  0.4001860183650661
  0.9158139932229047  0.0823984747102713  0.3992624943098036
  0.9160574350552221  0.2074158183729770  0.3985479557846724
  0.9162648642186259  0.3325785848783432  0.3979289826332615
  0.9165519880126370  0.4578812649493961  0.3977925454264143
  0.9168839647292051  0.5833032368587485  0.3980533071997925
  0.9166640268717298  0.7085218116782266  0.3984380483630046
  0.9162632571980422  0.8332893221202867  0.3990032924448010
  0.9157842219044048  0.9576978182566875  0.3994047083774754
  0.0835376208393980  0.0426791931841149  0.3993817930386377
  0.0835947846380214  0.1674745695920186  0.3991732869843554
  0.0830669688073758  0.2919249254940055  0.3978451148852621
  0.0822866725411194  0.4166953749098202  0.3973660188800759
  0.0820399644821884  0.5417825513496280  0.3977710128294064
  0.0825233759180329  0.6671223898384238  0.3983688807853208
  0.0829953268321144  0.7924647875510789  0.3987407561587491
  0.0832468108393987  0.9175915988211337  0.3990742666852930
  0.2084796708066735  0.0430046678152309  0.3999904002507715
  0.2090587121450867  0.1686491118298188  0.4006479996264332
  0.2094718106159538  0.2939516288252171  0.3996351709638804
  0.2070892252352363  0.4178470048006835  0.3977438502546760
  0.2059234559461950  0.5422821215388670  0.3975632549737717
  0.2068174256678623  0.6673989266494348  0.3985578971525428
  0.2075564146009804  0.7925004764457623  0.3989383820953437
  0.2080879752304272  0.9177272729576500  0.3992276227717612
  0.3331814835717105  0.0425513913375045  0.4000990722311294
  0.3336817137832553  0.1680116508453724  0.4024489849289036
  0.3344684348343948  0.2941450893057754  0.4057649307244002
  0.3327763180067438  0.4207110387993929  0.4011342595845632
  0.3302617663753411  0.5449105628266201  0.4014041043893238
  0.3307549581454827  0.6676404961466273  0.4003531199639151
  0.3320463280306836  0.7923700983948140  0.3997339490097113
  0.3327607816786012  0.9173689488880806  0.3994204018702252
  0.4579441941022904  0.0414494448376165  0.3997709863483689
  0.4583304422868869  0.1665473719331855  0.4011782371981162
  0.4589132894914315  0.2916724400784638  0.4057600117653308
  0.4621862733400369  0.4155984715402789  0.4175007584372224
  0.4519549186994594  0.6632950017741969  0.4060299490668385
  0.4563230153975592  0.7908911092663397  0.4017197204094811
  0.4572939514829262  0.9162002266532042  0.4000560177537144
  0.5825799658917208  0.0402265873920111  0.3997550858559519
  0.5831817043988469  0.1654788636303136  0.3997595187181516
  0.5837564829029829  0.2901980118787488  0.4016281236860543
  0.5851486191517973  0.4144319505870447  0.4052893564818928
  0.5858829852625249  0.5392217829253991  0.4080580207465523
  0.5786301128530891  0.6604865546206051  0.4063541092504825
  0.5793611004991365  0.7869551985380272  0.4038648281262264
  0.5816376649111309  0.9144157974040621  0.4011463488887373
  0.7071825663250573  0.0397103600154789  0.3998861259140945
  0.7078944216207061  0.1652005073489847  0.3990858046568992
  0.7084408634439444  0.2903622019367483  0.3989968750573681
  0.7093356724942560  0.4155187722091956  0.3997703296929990
  0.7098458195332157  0.5405638276150995  0.4010006827968610
  0.7078279460158338  0.6652344886882177  0.4016174690073783
  0.7057367096256829  0.7886700844449211  0.4018436453544251
  0.7061035248106283  0.9138144072041976  0.4010846444968167
  0.8321215848207888  0.0400700509430058  0.3996264668453607
  0.8326147777528251  0.1653331497359747  0.3989108398282750
  0.8330867284646376  0.2906196866264391  0.3982450130591689
  0.8335699159340084  0.4158744315662178  0.3980481049367428
  0.8339296858893106  0.5411933083146833  0.3983658405139683
  0.8334638133603254  0.6665105044004448  0.3989142082654454
  0.8326949490349741  0.7910284425284829  0.3995451224124900
  0.8319176548444538  0.9151465113244599  0.3999124186998359
  0.9578087742191487  0.0413461527688187  0.3992950746041247
  0.9578029499033118  0.1660580267306687  0.3987929352727567
  0.9577868908211509  0.2909861717233940  0.3980186828798037
  0.9577691060504698  0.4161689143647499  0.3977023790290790
  0.9580561891806776  0.5415695390259664  0.3979184031000416
  0.9581961063900928  0.6669068199004218  0.3982470524041759
  0.9581383793130240  0.7920207764903336  0.3986792175595300
  0.9579797624781481  0.9168104107280532  0.3991448839392763
  0.4075486825234532  0.5838197045892437  0.4076507295694612
  0.5105397680539695  0.5132163746117814  0.5134136630264678
  0.4758675414026642  0.5481555345906280  0.4882090513674171
 
  0.00000000E+00  0.00000000E+00  0.00000000E+00
  0.00000000E+00  0.00000000E+00  0.00000000E+00
  0.00000000E+00  0.00000000E+00  0.00000000E+00
  0.00000000E+00  0.00000000E+00  0.00000000E+00
  0.00000000E+00  0.00000000E+00  0.00000000E+00
  0.00000000E+00  0.00000000E+00  0.00000000E+00
  0.00000000E+00  0.00000000E+00  0.00000000E+00
  0.00000000E+00  0.00000000E+00  0.00000000E+00
  0.00000000E+00  0.00000000E+00  0.00000000E+00
  0.00000000E+00  0.00000000E+00  0.00000000E+00
  0.00000000E+00  0.00000000E+00  0.00000000E+00
  0.00000000E+00  0.00000000E+00  0.00000000E+00
  0.00000000E+00  0.00000000E+00  0.00000000E+00
  0.00000000E+00  0.00000000E+00  0.00000000E+00
  0.00000000E+00  0.00000000E+00  0.00000000E+00
  0.00000000E+00  0.00000000E+00  0.00000000E+00
  0.00000000E+00  0.00000000E+00  0.00000000E+00
  0.00000000E+00  0.00000000E+00  0.00000000E+00
  0.00000000E+00  0.00000000E+00  0.00000000E+00
  0.00000000E+00  0.00000000E+00  0.00000000E+00
  0.00000000E+00  0.00000000E+00  0.00000000E+00
  0.00000000E+00  0.00000000E+00  0.00000000E+00
  0.00000000E+00  0.00000000E+00  0.00000000E+00
  0.00000000E+00  0.00000000E+00  0.00000000E+00
  0.00000000E+00  0.00000000E+00  0.00000000E+00
  0.00000000E+00  0.00000000E+00  0.00000000E+00
  0.00000000E+00  0.00000000E+00  0.00000000E+00
  0.00000000E+00  0.00000000E+00  0.00000000E+00
  0.00000000E+00  0.00000000E+00  0.00000000E+00
  0.00000000E+00  0.00000000E+00  0.00000000E+00
  0.00000000E+00  0.00000000E+00  0.00000000E+00
  0.00000000E+00  0.00000000E+00  0.00000000E+00
  0.00000000E+00  0.00000000E+00  0.00000000E+00
  0.00000000E+00  0.00000000E+00  0.00000000E+00
  0.00000000E+00  0.00000000E+00  0.00000000E+00
  0.00000000E+00  0.00000000E+00  0.00000000E+00
  0.00000000E+00  0.00000000E+00  0.00000000E+00
  0.00000000E+00  0.00000000E+00  0.00000000E+00
  0.00000000E+00  0.00000000E+00  0.00000000E+00
  0.00000000E+00  0.00000000E+00  0.00000000E+00
  0.00000000E+00  0.00000000E+00  0.00000000E+00
  0.00000000E+00  0.00000000E+00  0.00000000E+00
  0.00000000E+00  0.00000000E+00  0.00000000E+00
  0.00000000E+00  0.00000000E+00  0.00000000E+00
  0.00000000E+00  0.00000000E+00  0.00000000E+00
  0.00000000E+00  0.00000000E+00  0.00000000E+00
  0.00000000E+00  0.00000000E+00  0.00000000E+00
  0.00000000E+00  0.00000000E+00  0.00000000E+00
  0.00000000E+00  0.00000000E+00  0.00000000E+00
  0.00000000E+00  0.00000000E+00  0.00000000E+00
  0.00000000E+00  0.00000000E+00  0.00000000E+00
  0.00000000E+00  0.00000000E+00  0.00000000E+00
  0.00000000E+00  0.00000000E+00  0.00000000E+00
  0.00000000E+00  0.00000000E+00  0.00000000E+00
  0.00000000E+00  0.00000000E+00  0.00000000E+00
  0.00000000E+00  0.00000000E+00  0.00000000E+00
  0.00000000E+00  0.00000000E+00  0.00000000E+00
  0.00000000E+00  0.00000000E+00  0.00000000E+00
  0.00000000E+00  0.00000000E+00  0.00000000E+00
  0.00000000E+00  0.00000000E+00  0.00000000E+00
  0.00000000E+00  0.00000000E+00  0.00000000E+00
  0.00000000E+00  0.00000000E+00  0.00000000E+00
  0.00000000E+00  0.00000000E+00  0.00000000E+00
  0.00000000E+00  0.00000000E+00  0.00000000E+00
  0.00000000E+00  0.00000000E+00  0.00000000E+00
  0.00000000E+00  0.00000000E+00  0.00000000E+00
  0.00000000E+00  0.00000000E+00  0.00000000E+00
  0.00000000E+00  0.00000000E+00  0.00000000E+00
  0.00000000E+00  0.00000000E+00  0.00000000E+00
  0.00000000E+00  0.00000000E+00  0.00000000E+00
  0.00000000E+00  0.00000000E+00  0.00000000E+00
  0.00000000E+00  0.00000000E+00  0.00000000E+00
  0.00000000E+00  0.00000000E+00  0.00000000E+00
  0.00000000E+00  0.00000000E+00  0.00000000E+00
  0.00000000E+00  0.00000000E+00  0.00000000E+00
  0.00000000E+00  0.00000000E+00  0.00000000E+00
  0.00000000E+00  0.00000000E+00  0.00000000E+00
  0.00000000E+00  0.00000000E+00  0.00000000E+00
  0.00000000E+00  0.00000000E+00  0.00000000E+00
  0.00000000E+00  0.00000000E+00  0.00000000E+00
  0.00000000E+00  0.00000000E+00  0.00000000E+00
  0.00000000E+00  0.00000000E+00  0.00000000E+00
  0.00000000E+00  0.00000000E+00  0.00000000E+00
  0.00000000E+00  0.00000000E+00  0.00000000E+00
  0.00000000E+00  0.00000000E+00  0.00000000E+00
  0.00000000E+00  0.00000000E+00  0.00000000E+00
  0.00000000E+00  0.00000000E+00  0.00000000E+00
  0.00000000E+00  0.00000000E+00  0.00000000E+00
  0.00000000E+00  0.00000000E+00  0.00000000E+00
  0.00000000E+00  0.00000000E+00  0.00000000E+00
  0.00000000E+00  0.00000000E+00  0.00000000E+00
  0.00000000E+00  0.00000000E+00  0.00000000E+00
  0.00000000E+00  0.00000000E+00  0.00000000E+00
  0.00000000E+00  0.00000000E+00  0.00000000E+00
  0.00000000E+00  0.00000000E+00  0.00000000E+00
  0.00000000E+00  0.00000000E+00  0.00000000E+00
  0.00000000E+00  0.00000000E+00  0.00000000E+00
  0.00000000E+00  0.00000000E+00  0.00000000E+00
  0.00000000E+00  0.00000000E+00  0.00000000E+00
  0.00000000E+00  0.00000000E+00  0.00000000E+00
  0.00000000E+00  0.00000000E+00  0.00000000E+00
  0.00000000E+00  0.00000000E+00  0.00000000E+00
  0.00000000E+00  0.00000000E+00  0.00000000E+00
  0.00000000E+00  0.00000000E+00  0.00000000E+00
  0.00000000E+00  0.00000000E+00  0.00000000E+00
  0.00000000E+00  0.00000000E+00  0.00000000E+00
  0.00000000E+00  0.00000000E+00  0.00000000E+00
  0.00000000E+00  0.00000000E+00  0.00000000E+00
  0.00000000E+00  0.00000000E+00  0.00000000E+00
  0.00000000E+00  0.00000000E+00  0.00000000E+00
  0.00000000E+00  0.00000000E+00  0.00000000E+00
  0.00000000E+00  0.00000000E+00  0.00000000E+00
  0.00000000E+00  0.00000000E+00  0.00000000E+00
  0.00000000E+00  0.00000000E+00  0.00000000E+00
  0.00000000E+00  0.00000000E+00  0.00000000E+00
  0.00000000E+00  0.00000000E+00  0.00000000E+00
  0.00000000E+00  0.00000000E+00  0.00000000E+00
  0.00000000E+00  0.00000000E+00  0.00000000E+00
  0.00000000E+00  0.00000000E+00  0.00000000E+00
  0.00000000E+00  0.00000000E+00  0.00000000E+00
  0.00000000E+00  0.00000000E+00  0.00000000E+00
  0.00000000E+00  0.00000000E+00  0.00000000E+00
  0.00000000E+00  0.00000000E+00  0.00000000E+00
  0.00000000E+00  0.00000000E+00  0.00000000E+00
  0.00000000E+00  0.00000000E+00  0.00000000E+00
  0.00000000E+00  0.00000000E+00  0.00000000E+00
  0.00000000E+00  0.00000000E+00  0.00000000E+00
  0.00000000E+00  0.00000000E+00  0.00000000E+00
  0.00000000E+00  0.00000000E+00  0.00000000E+00
  0.00000000E+00  0.00000000E+00  0.00000000E+00
