Hf1 C124 N2                             
   1.00000000000000     
    19.8131776686781471   -0.0220072228592612    0.0008064411270825
    -9.9257036633296831   17.0702800624424640   -0.0006364075258975
     0.0012116193944043   -0.0004068229410330   29.7706209750582822
   Hf   C    N 
     1   124     2
Direct
  0.4374964200795078  0.4999974529533303  0.4332641475801789
  0.0421113793008592  0.0840572298364242  0.3999532395302737
  0.0416767642020838  0.2086176622611290  0.3997773691698551
  0.0409617693537349  0.3332314138217965  0.3997806785974323
  0.0407202099208319  0.4583672917196497  0.3998054672109665
  0.0412556751827716  0.5837409696477779  0.3999765895587988
  0.0417983992836267  0.7090350380771828  0.4000961518277049
  0.0420116456941608  0.8341629992734929  0.4000563802853688
  0.0421649091400452  0.9592902257233966  0.4000165632478207
  0.1678621260307009  0.0852156336588028  0.3998967237199651
  0.1676830927696276  0.2101021892471684  0.3996013375252631
  0.1664149704473770  0.3343058250411451  0.3994781162143011
  0.1647026303737195  0.4587929692321568  0.3997999805480500
  0.1652432688789715  0.5839159843656212  0.3995714356650782
  0.1661992694739315  0.7090258783548558  0.3998539787824260
  0.1667331648723196  0.8342230075646299  0.4000755039131873
  0.1671673762756569  0.9595481724750464  0.3999806805191184
  0.2923304921367050  0.0847493954324199  0.3998634392473437
  0.2938696804434623  0.2114590002992851  0.4001141635912908
  0.2935575215930102  0.3373510938201807  0.4001540805815595
  0.2891876954704802  0.4599309866928024  0.4009318778612538
  0.2889356781497030  0.5843659201695939  0.4006652819344186
  0.2906439479379107  0.7090841110864471  0.3997533594966233
  0.2914466791838256  0.8340573279161402  0.3998649660015666
  0.2918758135695075  0.9592211176218588  0.3999968712841799
  0.4169807448209171  0.0836297863870646  0.3998337667702786
  0.4175256760213308  0.2091102453511251  0.3995717423153266
  0.4201917275256509  0.3359994291384795  0.4020212591191337
  0.4149499422113515  0.7074922143429310  0.4001622344099356
  0.4160702999287850  0.8329827036400828  0.3995843504529650
  0.4165781359181301  0.9583208842098269  0.4000262989406514
  0.5416584219183905  0.0826159336522097  0.4000280837893053
  0.5421381093168088  0.2077017148237066  0.3996774262452933
  0.5433213433375785  0.3324942322870927  0.4002521456701030
  0.5450627816880574  0.4561242364903246  0.4024254487756616
  0.5428348750744164  0.5797468224427574  0.4015505630459060
  0.5385674099638661  0.7042372164597048  0.4010137271367643
  0.5406435624145600  0.8315875334071645  0.3998664046983998
  0.5412634840496757  0.9572932373355193  0.3999270002135548
  0.6663858833761896  0.0822693463229471  0.4000481588846584
  0.6668241970691196  0.2074766735757187  0.3999759708835108
  0.6676801800357279  0.3327187795066115  0.3997006656757291
  0.6690475819724909  0.4579999100805204  0.3997832383833278
  0.6686364969068821  0.5822602181279712  0.3999125344218447
  0.6656886409021612  0.7063006643731750  0.3993682425071652
  0.6649453279868820  0.8310222620760992  0.3998165753704838
  0.6659148288926813  0.9568995946987940  0.3999217498219311
  0.7912024775111781  0.0823343453812238  0.4000050603697561
  0.7914834837517943  0.2075281639620356  0.4000990645115729
  0.7919985761504049  0.3327882573600028  0.3999920690143108
  0.7927268484114884  0.4581051405687616  0.3997091632004129
  0.7931578016557875  0.5834058434614375  0.3996981648730217
  0.7920007022028835  0.7080092993812515  0.3996669463542217
  0.7909806723364050  0.8323062404210299  0.3997674511054822
  0.7907983737246557  0.9570288371291118  0.3999220129314940
  0.9163616856163903  0.0828780831470212  0.3999987330975921
  0.9162935469320497  0.2077432448644731  0.3999682260330739
  0.9163593390401693  0.3328985579555788  0.4000515361281547
  0.9167328082070680  0.4582673075874422  0.4000990831530508
  0.9172250789661192  0.5836145032252396  0.4000104156900399
  0.9171668445151361  0.7087615267002859  0.3999349790251451
  0.9168626167736746  0.8336068893814866  0.3999775251036016
  0.9165425731303236  0.9582383014892576  0.4000421455112502
  0.0841869844482090  0.0429494208471465  0.3999603400194419
  0.0840038131205145  0.1676587340371998  0.3997693857601106
  0.0830176077995118  0.2919860991004453  0.3996452458795509
  0.0818804291970764  0.4166131316884528  0.3997172372178168
  0.0822816144350561  0.5419196269948017  0.3997205695219561
  0.0830169181354942  0.6672262398681432  0.3999884181262974
  0.0835000457676251  0.7924723469082886  0.4000980978867307
  0.0837962366102676  0.9176618231295615  0.4000164829975097
  0.2090784692856721  0.0430978365893950  0.3999287161950149
  0.2100229105895972  0.1689674600609068  0.3998268257669008
  0.2092992174371115  0.2936749488889984  0.3993541616958243
  0.2063967805326178  0.4177365902181521  0.3999271684344892
  0.2059888261779717  0.5420281675638675  0.3997897528421130
  0.2073237259134810  0.6673076606857660  0.3996919042774653
  0.2081599242182708  0.7925375937978789  0.3999619704066711
  0.2085991413527948  0.9177317926372079  0.4000363103917766
  0.3337071644580282  0.0426921198183949  0.3998823563915529
  0.3343263313920234  0.1684013328063537  0.3998536535849367
  0.3364089077390455  0.2957416953698489  0.4010021762389547
  0.3321609465212823  0.4202347586424757  0.4015587749563591
  0.3299514222101292  0.5438870882634302  0.4024619011964763
  0.3316828842416005  0.6675268572234949  0.4002539980713021
  0.3328529000543369  0.7923138154357678  0.3996698990226012
  0.3333456483645833  0.9173877871184730  0.3999843258170049
  0.4584223177555338  0.0416751864141350  0.4000375318699695
  0.4589169929497199  0.1670160393859802  0.3995807345524987
  0.4600422602527090  0.2925108603039466  0.4001615437986360
  0.4547968187733081  0.6639945110382187  0.4020255506263912
  0.4574517946167013  0.7908938422804431  0.3995789241475680
  0.4580046643954452  0.9163559680025262  0.3998476501874275
  0.5831172808495211  0.0407661775706081  0.4000421458908278
  0.5835383094781555  0.1659495495000785  0.3998859757204435
  0.5843561010169483  0.2909452111028478  0.3997568068814526
  0.5860919420980107  0.4156563284025974  0.4006630059746421
  0.5858401101270979  0.5400742161356447  0.4008886298139895
  0.5814227612704661  0.6626223602452052  0.4001684321478911
  0.5810902403702828  0.7885207528517962  0.4001169522496296
  0.5826527692085772  0.9152546626884123  0.3998855860573520
  0.7078247311285508  0.0404443428825070  0.3999822507049332
  0.7082432094240479  0.1657741317790791  0.4000901424827677
  0.7088041870430714  0.2909895820571552  0.3998683743975073
  0.7097688621266580  0.4161176624562308  0.3995706457462111
  0.7103413185103590  0.5412189578083688  0.3997820768611586
  0.7086014960097758  0.6656784149547821  0.3994881856568596
  0.7072864689785946  0.7898754024743396  0.3996018312034696
  0.7071230153302520  0.9147777573591255  0.3998625881647691
  0.8328445282541058  0.0407061446573915  0.3999818542936597
  0.8329865136590383  0.1658346389338842  0.4000377606487902
  0.8332123233261506  0.2909612198708846  0.4000977605240680
  0.8337446083842938  0.4162769598603067  0.3999614949831393
  0.8342815688148628  0.5416391905297779  0.3997838700696212
  0.8340684707083273  0.6667782695963413  0.3997821473564041
  0.8333320153215253  0.7913637104224258  0.3998050469385278
  0.8328879725143209  0.9159195041032806  0.3999384775898666
  0.9584621264489170  0.0417489976612589  0.4000334794146118
  0.9581425176825196  0.1663921727396340  0.3999332113198266
  0.9578598420138199  0.2912521698567396  0.3999270443278776
  0.9577807920221910  0.4163762738683512  0.4000290664560368
  0.9582814700250878  0.5417376991597458  0.4000993533898866
  0.9586572025691434  0.6671019313888001  0.4000316802535041
  0.9587181485357257  0.7922666864823332  0.3999893890396638
  0.9586534419358892  0.9171261145661060  0.4000409188993231
  0.4107087705277676  0.5829844116301897  0.4059142281154116
  0.4642945255185276  0.4170209822463092  0.4058954310163577
 
  0.00000000E+00  0.00000000E+00  0.00000000E+00
  0.00000000E+00  0.00000000E+00  0.00000000E+00
  0.00000000E+00  0.00000000E+00  0.00000000E+00
  0.00000000E+00  0.00000000E+00  0.00000000E+00
  0.00000000E+00  0.00000000E+00  0.00000000E+00
  0.00000000E+00  0.00000000E+00  0.00000000E+00
  0.00000000E+00  0.00000000E+00  0.00000000E+00
  0.00000000E+00  0.00000000E+00  0.00000000E+00
  0.00000000E+00  0.00000000E+00  0.00000000E+00
  0.00000000E+00  0.00000000E+00  0.00000000E+00
  0.00000000E+00  0.00000000E+00  0.00000000E+00
  0.00000000E+00  0.00000000E+00  0.00000000E+00
  0.00000000E+00  0.00000000E+00  0.00000000E+00
  0.00000000E+00  0.00000000E+00  0.00000000E+00
  0.00000000E+00  0.00000000E+00  0.00000000E+00
  0.00000000E+00  0.00000000E+00  0.00000000E+00
  0.00000000E+00  0.00000000E+00  0.00000000E+00
  0.00000000E+00  0.00000000E+00  0.00000000E+00
  0.00000000E+00  0.00000000E+00  0.00000000E+00
  0.00000000E+00  0.00000000E+00  0.00000000E+00
  0.00000000E+00  0.00000000E+00  0.00000000E+00
  0.00000000E+00  0.00000000E+00  0.00000000E+00
  0.00000000E+00  0.00000000E+00  0.00000000E+00
  0.00000000E+00  0.00000000E+00  0.00000000E+00
  0.00000000E+00  0.00000000E+00  0.00000000E+00
  0.00000000E+00  0.00000000E+00  0.00000000E+00
  0.00000000E+00  0.00000000E+00  0.00000000E+00
  0.00000000E+00  0.00000000E+00  0.00000000E+00
  0.00000000E+00  0.00000000E+00  0.00000000E+00
  0.00000000E+00  0.00000000E+00  0.00000000E+00
  0.00000000E+00  0.00000000E+00  0.00000000E+00
  0.00000000E+00  0.00000000E+00  0.00000000E+00
  0.00000000E+00  0.00000000E+00  0.00000000E+00
  0.00000000E+00  0.00000000E+00  0.00000000E+00
  0.00000000E+00  0.00000000E+00  0.00000000E+00
  0.00000000E+00  0.00000000E+00  0.00000000E+00
  0.00000000E+00  0.00000000E+00  0.00000000E+00
  0.00000000E+00  0.00000000E+00  0.00000000E+00
  0.00000000E+00  0.00000000E+00  0.00000000E+00
  0.00000000E+00  0.00000000E+00  0.00000000E+00
  0.00000000E+00  0.00000000E+00  0.00000000E+00
  0.00000000E+00  0.00000000E+00  0.00000000E+00
  0.00000000E+00  0.00000000E+00  0.00000000E+00
  0.00000000E+00  0.00000000E+00  0.00000000E+00
  0.00000000E+00  0.00000000E+00  0.00000000E+00
  0.00000000E+00  0.00000000E+00  0.00000000E+00
  0.00000000E+00  0.00000000E+00  0.00000000E+00
  0.00000000E+00  0.00000000E+00  0.00000000E+00
  0.00000000E+00  0.00000000E+00  0.00000000E+00
  0.00000000E+00  0.00000000E+00  0.00000000E+00
  0.00000000E+00  0.00000000E+00  0.00000000E+00
  0.00000000E+00  0.00000000E+00  0.00000000E+00
  0.00000000E+00  0.00000000E+00  0.00000000E+00
  0.00000000E+00  0.00000000E+00  0.00000000E+00
  0.00000000E+00  0.00000000E+00  0.00000000E+00
  0.00000000E+00  0.00000000E+00  0.00000000E+00
  0.00000000E+00  0.00000000E+00  0.00000000E+00
  0.00000000E+00  0.00000000E+00  0.00000000E+00
  0.00000000E+00  0.00000000E+00  0.00000000E+00
  0.00000000E+00  0.00000000E+00  0.00000000E+00
  0.00000000E+00  0.00000000E+00  0.00000000E+00
  0.00000000E+00  0.00000000E+00  0.00000000E+00
  0.00000000E+00  0.00000000E+00  0.00000000E+00
  0.00000000E+00  0.00000000E+00  0.00000000E+00
  0.00000000E+00  0.00000000E+00  0.00000000E+00
  0.00000000E+00  0.00000000E+00  0.00000000E+00
  0.00000000E+00  0.00000000E+00  0.00000000E+00
  0.00000000E+00  0.00000000E+00  0.00000000E+00
  0.00000000E+00  0.00000000E+00  0.00000000E+00
  0.00000000E+00  0.00000000E+00  0.00000000E+00
  0.00000000E+00  0.00000000E+00  0.00000000E+00
  0.00000000E+00  0.00000000E+00  0.00000000E+00
  0.00000000E+00  0.00000000E+00  0.00000000E+00
  0.00000000E+00  0.00000000E+00  0.00000000E+00
  0.00000000E+00  0.00000000E+00  0.00000000E+00
  0.00000000E+00  0.00000000E+00  0.00000000E+00
  0.00000000E+00  0.00000000E+00  0.00000000E+00
  0.00000000E+00  0.00000000E+00  0.00000000E+00
  0.00000000E+00  0.00000000E+00  0.00000000E+00
  0.00000000E+00  0.00000000E+00  0.00000000E+00
  0.00000000E+00  0.00000000E+00  0.00000000E+00
  0.00000000E+00  0.00000000E+00  0.00000000E+00
  0.00000000E+00  0.00000000E+00  0.00000000E+00
  0.00000000E+00  0.00000000E+00  0.00000000E+00
  0.00000000E+00  0.00000000E+00  0.00000000E+00
  0.00000000E+00  0.00000000E+00  0.00000000E+00
  0.00000000E+00  0.00000000E+00  0.00000000E+00
  0.00000000E+00  0.00000000E+00  0.00000000E+00
  0.00000000E+00  0.00000000E+00  0.00000000E+00
  0.00000000E+00  0.00000000E+00  0.00000000E+00
  0.00000000E+00  0.00000000E+00  0.00000000E+00
  0.00000000E+00  0.00000000E+00  0.00000000E+00
  0.00000000E+00  0.00000000E+00  0.00000000E+00
  0.00000000E+00  0.00000000E+00  0.00000000E+00
  0.00000000E+00  0.00000000E+00  0.00000000E+00
  0.00000000E+00  0.00000000E+00  0.00000000E+00
  0.00000000E+00  0.00000000E+00  0.00000000E+00
  0.00000000E+00  0.00000000E+00  0.00000000E+00
  0.00000000E+00  0.00000000E+00  0.00000000E+00
  0.00000000E+00  0.00000000E+00  0.00000000E+00
  0.00000000E+00  0.00000000E+00  0.00000000E+00
  0.00000000E+00  0.00000000E+00  0.00000000E+00
  0.00000000E+00  0.00000000E+00  0.00000000E+00
  0.00000000E+00  0.00000000E+00  0.00000000E+00
  0.00000000E+00  0.00000000E+00  0.00000000E+00
  0.00000000E+00  0.00000000E+00  0.00000000E+00
  0.00000000E+00  0.00000000E+00  0.00000000E+00
  0.00000000E+00  0.00000000E+00  0.00000000E+00
  0.00000000E+00  0.00000000E+00  0.00000000E+00
  0.00000000E+00  0.00000000E+00  0.00000000E+00
  0.00000000E+00  0.00000000E+00  0.00000000E+00
  0.00000000E+00  0.00000000E+00  0.00000000E+00
  0.00000000E+00  0.00000000E+00  0.00000000E+00
  0.00000000E+00  0.00000000E+00  0.00000000E+00
  0.00000000E+00  0.00000000E+00  0.00000000E+00
  0.00000000E+00  0.00000000E+00  0.00000000E+00
  0.00000000E+00  0.00000000E+00  0.00000000E+00
  0.00000000E+00  0.00000000E+00  0.00000000E+00
  0.00000000E+00  0.00000000E+00  0.00000000E+00
  0.00000000E+00  0.00000000E+00  0.00000000E+00
  0.00000000E+00  0.00000000E+00  0.00000000E+00
  0.00000000E+00  0.00000000E+00  0.00000000E+00
  0.00000000E+00  0.00000000E+00  0.00000000E+00
  0.00000000E+00  0.00000000E+00  0.00000000E+00
  0.00000000E+00  0.00000000E+00  0.00000000E+00
  0.00000000E+00  0.00000000E+00  0.00000000E+00
  0.00000000E+00  0.00000000E+00  0.00000000E+00
