Co1 C125 N1                             
   1.00000000000000     
    19.8041766023235297   -0.0204671736528656    0.0096794328119081
    -9.9198331343727659   17.0510839896581494   -0.0042422690867895
     0.0145134726824349    0.0011490878865732   29.8163569799178134
   Co   C    N 
     1   125     1
Direct
  0.4371439832110698  0.4994281491201578  0.4160101939869899
  0.0420793305724386  0.0840925334290322  0.3998156389062941
  0.0416019413603592  0.2084703809483525  0.3996855921814647
  0.0411910510834529  0.3331253800882885  0.3997020645825659
  0.0409816434750154  0.4583785076627284  0.3994032812424386
  0.0413708932874377  0.5837064404902469  0.3993482390481037
  0.0417496377191071  0.7089131295968463  0.3995202097332520
  0.0419818863129697  0.8341612836049762  0.3996445927519190
  0.0421146099673381  0.9592457582119135  0.3997375143675706
  0.1676496977312288  0.0852473872974241  0.4002715010355842
  0.1678385597259431  0.2103635423618653  0.4005085283940475
  0.1666567305242929  0.3343082769527495  0.4004772080888273
  0.1650655517008587  0.4587565907725532  0.4007100119027742
  0.1653654026101535  0.5837736634093741  0.3995799162526243
  0.1662072639653500  0.7090645277524259  0.3995671402344788
  0.1667757637218865  0.8343045002911947  0.3997818426707143
  0.1672109815064017  0.9597163765080581  0.4000483853717103
  0.2926121904449724  0.0852303036438610  0.4004542659681847
  0.2936471996655323  0.2118329266876514  0.4016393952954050
  0.2943405209719929  0.3382457748496363  0.4010937435493997
  0.2898288005528173  0.4598208180913345  0.4017880062398829
  0.2890803408371587  0.5845874209550077  0.4013699702673553
  0.2905202491507708  0.7092028604542122  0.4000286051769650
  0.2914456927013050  0.8340891905501653  0.3996345973788639
  0.2919307443018410  0.9593896235122821  0.3998203003227134
  0.4170729894868576  0.0839502552809439  0.3996919002943575
  0.4178654287277767  0.2099556354853709  0.4010415686658401
  0.4200856114718080  0.3375990596033195  0.4054247346576884
  0.4145043881231612  0.7068265636282892  0.4019726788469875
  0.4160702233453554  0.8328105698520865  0.3999163205806598
  0.4166028192252733  0.9583652815120495  0.3995163346502091
  0.5416944071636128  0.0826484109280414  0.3995644646712979
  0.5422335219168458  0.2078985383485308  0.3997414949660165
  0.5432010214107585  0.3328698064715538  0.4014819098877237
  0.5455366985905818  0.4570290788561241  0.4047473966822459
  0.5415937231237925  0.5771102325197345  0.4021302292079516
  0.5381028126859611  0.7029864629197980  0.4027594911938142
  0.5402373798708803  0.8308706842316933  0.4011114832084999
  0.5412250084740760  0.9570753449576752  0.3999538098693569
  0.6663641049081831  0.0821304790968037  0.3998848242060972
  0.6668624823705703  0.2074272985533790  0.3996416174882706
  0.6675090443242737  0.3325722714234285  0.3995495058840339
  0.6689989504704359  0.4578000665657638  0.4001653259048681
  0.6694226227063629  0.5830443436650832  0.4011605725331907
  0.6648598058630717  0.7054215331837436  0.4009432236260250
  0.6646584649273155  0.8303459092231914  0.4009747711587901
  0.6657630979571239  0.9565091218236551  0.4004216138353460
  0.7911415938436268  0.0821593683641634  0.3999071935944993
  0.7915281254796446  0.2074070674959797  0.3996612755752398
  0.7919806077770380  0.3327115063382270  0.3994939728114354
  0.7927796297660183  0.4580959166140851  0.3993930659433281
  0.7931593345784738  0.5832790421549339  0.3997260222898282
  0.7921641509139483  0.7082737105052765  0.3997900986789035
  0.7907475283582557  0.8321143857175122  0.4001434214838783
  0.7906019915063719  0.9568289675889821  0.4000910392246301
  0.9162625315522416  0.0827394479866146  0.3996040101331259
  0.9163546754234047  0.2077296262790978  0.3995145947398368
  0.9164874830736129  0.3328938712478464  0.3994009396516905
  0.9168074959971220  0.4581469328733928  0.3993119596987755
  0.9172524183553467  0.5835307264982125  0.3993694472646284
  0.9171447933642757  0.7087670823905777  0.3994440301304811
  0.9168516462154004  0.8336366076378900  0.3994747365502652
  0.9163961266340386  0.9581085563487458  0.3995818247087363
  0.0840481239119219  0.0428992421969061  0.3999225954616140
  0.0840311507211704  0.1677387768508935  0.4000295841630578
  0.0831270463658979  0.2919351881898872  0.3998690973309139
  0.0823341126119997  0.4167668335444702  0.3998432295793322
  0.0824623210448499  0.5418911995273430  0.3993467829834842
  0.0830862997751316  0.6672392499577415  0.3994951737439220
  0.0835197116034686  0.7925528218148892  0.3996795238735352
  0.0837620975393024  0.9177585425743814  0.3998310761072447
  0.2091223032661848  0.0433802052560552  0.4003029526765453
  0.2096728202267952  0.1690923354320724  0.4006829202010049
  0.2099108660451224  0.2943525871776995  0.4005805263247030
  0.2069044373124229  0.4176492699724215  0.4013522343881126
  0.2062359450498978  0.5421008657611452  0.4003211719897812
  0.2074547714561909  0.6673944859777018  0.3995901457312858
  0.2081894018245828  0.7925499078791990  0.3996972907583341
  0.2086316613907658  0.9178270181277640  0.3999214876388953
  0.3337683167373098  0.0429112267194663  0.3999733581466643
  0.3345849052424022  0.1689252931989409  0.4011720350704345
  0.3357806018130718  0.2956006269513610  0.4030750235318704
  0.3341215815187414  0.4220771628135622  0.4010460544127634
  0.3308715608739340  0.5444248256774947  0.4036222619078328
  0.3316000541033908  0.6674050023893908  0.4012462857384442
  0.3327979277186249  0.7922965613262204  0.3997582920404528
  0.3333562548201943  0.9174529020292755  0.3996160887113788
  0.4584112811209775  0.0417719796828120  0.3995136997642961
  0.4589379872467497  0.1673879776978690  0.3999595341256753
  0.4600537143178428  0.2935416790945113  0.4024921974573610
  0.4639223495665695  0.4206654531052181  0.4096335341543906
  0.4532644721685028  0.6619593463610904  0.4043632223962251
  0.4571559349598602  0.7903706689063135  0.4008295139456723
  0.4579684204607119  0.9162228224888077  0.3996781736460526
  0.5831110717685025  0.0406491735681813  0.3997691150700569
  0.5835924074693186  0.1660253394344574  0.3995826130104307
  0.5843136229033208  0.2910562812153782  0.4000568655421755
  0.5861553942977592  0.4157456048234996  0.4016138113546539
  0.5871328707520176  0.5408631766645028  0.4023877425591537
  0.5801218795295171  0.6608923722075671  0.4013617425865030
  0.5804663969144055  0.7872398750918496  0.4016984847170333
  0.5823210981331967  0.9146751812738011  0.4004953097594415
  0.7077322925382213  0.0402024914509984  0.4000948188778310
  0.7082561297381418  0.1656856558716625  0.3997326895527412
  0.7087829846866395  0.2909045436589823  0.3995361201099170
  0.7098563803816719  0.4161688319648840  0.3995078130187901
  0.7105944208825280  0.5413277734382060  0.4004024968724177
  0.7088574148011794  0.6660854178001114  0.4004593421347458
  0.7067498688375846  0.7893256696508012  0.4008414474637629
  0.7068865764491814  0.9143501708017859  0.4004907402286489
  0.8326559095599586  0.0405737812192966  0.3998546608341195
  0.8329964693035794  0.1657746153807456  0.3996864317662905
  0.8333564190702741  0.2910489502993908  0.3995032347896766
  0.8338629861378873  0.4163005081616626  0.3994018108363148
  0.8343807013620530  0.5415961816966971  0.3994535811886717
  0.8340170798166958  0.6669141833831663  0.3996206145314271
  0.8334273731001394  0.7916156343637348  0.3996975064429781
  0.8326469792122457  0.9157309896777609  0.3999063859596444
  0.9583367401200180  0.0417255526555865  0.3995775729272647
  0.9581318147393296  0.1663501238912956  0.3995121275242370
  0.9580072556453033  0.2912722014122381  0.3994675247020490
  0.9580144288343526  0.4164411171820842  0.3993010218229677
  0.9584517212978765  0.5418281887470622  0.3993115400874970
  0.9586787981643795  0.6671279486781027  0.3994176517332349
  0.9586718139895427  0.7922739584752168  0.3994640623514933
  0.9585448429401148  0.9171267211741998  0.3995390595238230
  0.4097770167238305  0.5818376145880314  0.4074653426699849
 
  0.00000000E+00  0.00000000E+00  0.00000000E+00
  0.00000000E+00  0.00000000E+00  0.00000000E+00
  0.00000000E+00  0.00000000E+00  0.00000000E+00
  0.00000000E+00  0.00000000E+00  0.00000000E+00
  0.00000000E+00  0.00000000E+00  0.00000000E+00
  0.00000000E+00  0.00000000E+00  0.00000000E+00
  0.00000000E+00  0.00000000E+00  0.00000000E+00
  0.00000000E+00  0.00000000E+00  0.00000000E+00
  0.00000000E+00  0.00000000E+00  0.00000000E+00
  0.00000000E+00  0.00000000E+00  0.00000000E+00
  0.00000000E+00  0.00000000E+00  0.00000000E+00
  0.00000000E+00  0.00000000E+00  0.00000000E+00
  0.00000000E+00  0.00000000E+00  0.00000000E+00
  0.00000000E+00  0.00000000E+00  0.00000000E+00
  0.00000000E+00  0.00000000E+00  0.00000000E+00
  0.00000000E+00  0.00000000E+00  0.00000000E+00
  0.00000000E+00  0.00000000E+00  0.00000000E+00
  0.00000000E+00  0.00000000E+00  0.00000000E+00
  0.00000000E+00  0.00000000E+00  0.00000000E+00
  0.00000000E+00  0.00000000E+00  0.00000000E+00
  0.00000000E+00  0.00000000E+00  0.00000000E+00
  0.00000000E+00  0.00000000E+00  0.00000000E+00
  0.00000000E+00  0.00000000E+00  0.00000000E+00
  0.00000000E+00  0.00000000E+00  0.00000000E+00
  0.00000000E+00  0.00000000E+00  0.00000000E+00
  0.00000000E+00  0.00000000E+00  0.00000000E+00
  0.00000000E+00  0.00000000E+00  0.00000000E+00
  0.00000000E+00  0.00000000E+00  0.00000000E+00
  0.00000000E+00  0.00000000E+00  0.00000000E+00
  0.00000000E+00  0.00000000E+00  0.00000000E+00
  0.00000000E+00  0.00000000E+00  0.00000000E+00
  0.00000000E+00  0.00000000E+00  0.00000000E+00
  0.00000000E+00  0.00000000E+00  0.00000000E+00
  0.00000000E+00  0.00000000E+00  0.00000000E+00
  0.00000000E+00  0.00000000E+00  0.00000000E+00
  0.00000000E+00  0.00000000E+00  0.00000000E+00
  0.00000000E+00  0.00000000E+00  0.00000000E+00
  0.00000000E+00  0.00000000E+00  0.00000000E+00
  0.00000000E+00  0.00000000E+00  0.00000000E+00
  0.00000000E+00  0.00000000E+00  0.00000000E+00
  0.00000000E+00  0.00000000E+00  0.00000000E+00
  0.00000000E+00  0.00000000E+00  0.00000000E+00
  0.00000000E+00  0.00000000E+00  0.00000000E+00
  0.00000000E+00  0.00000000E+00  0.00000000E+00
  0.00000000E+00  0.00000000E+00  0.00000000E+00
  0.00000000E+00  0.00000000E+00  0.00000000E+00
  0.00000000E+00  0.00000000E+00  0.00000000E+00
  0.00000000E+00  0.00000000E+00  0.00000000E+00
  0.00000000E+00  0.00000000E+00  0.00000000E+00
  0.00000000E+00  0.00000000E+00  0.00000000E+00
  0.00000000E+00  0.00000000E+00  0.00000000E+00
  0.00000000E+00  0.00000000E+00  0.00000000E+00
  0.00000000E+00  0.00000000E+00  0.00000000E+00
  0.00000000E+00  0.00000000E+00  0.00000000E+00
  0.00000000E+00  0.00000000E+00  0.00000000E+00
  0.00000000E+00  0.00000000E+00  0.00000000E+00
  0.00000000E+00  0.00000000E+00  0.00000000E+00
  0.00000000E+00  0.00000000E+00  0.00000000E+00
  0.00000000E+00  0.00000000E+00  0.00000000E+00
  0.00000000E+00  0.00000000E+00  0.00000000E+00
  0.00000000E+00  0.00000000E+00  0.00000000E+00
  0.00000000E+00  0.00000000E+00  0.00000000E+00
  0.00000000E+00  0.00000000E+00  0.00000000E+00
  0.00000000E+00  0.00000000E+00  0.00000000E+00
  0.00000000E+00  0.00000000E+00  0.00000000E+00
  0.00000000E+00  0.00000000E+00  0.00000000E+00
  0.00000000E+00  0.00000000E+00  0.00000000E+00
  0.00000000E+00  0.00000000E+00  0.00000000E+00
  0.00000000E+00  0.00000000E+00  0.00000000E+00
  0.00000000E+00  0.00000000E+00  0.00000000E+00
  0.00000000E+00  0.00000000E+00  0.00000000E+00
  0.00000000E+00  0.00000000E+00  0.00000000E+00
  0.00000000E+00  0.00000000E+00  0.00000000E+00
  0.00000000E+00  0.00000000E+00  0.00000000E+00
  0.00000000E+00  0.00000000E+00  0.00000000E+00
  0.00000000E+00  0.00000000E+00  0.00000000E+00
  0.00000000E+00  0.00000000E+00  0.00000000E+00
  0.00000000E+00  0.00000000E+00  0.00000000E+00
  0.00000000E+00  0.00000000E+00  0.00000000E+00
  0.00000000E+00  0.00000000E+00  0.00000000E+00
  0.00000000E+00  0.00000000E+00  0.00000000E+00
  0.00000000E+00  0.00000000E+00  0.00000000E+00
  0.00000000E+00  0.00000000E+00  0.00000000E+00
  0.00000000E+00  0.00000000E+00  0.00000000E+00
  0.00000000E+00  0.00000000E+00  0.00000000E+00
  0.00000000E+00  0.00000000E+00  0.00000000E+00
  0.00000000E+00  0.00000000E+00  0.00000000E+00
  0.00000000E+00  0.00000000E+00  0.00000000E+00
  0.00000000E+00  0.00000000E+00  0.00000000E+00
  0.00000000E+00  0.00000000E+00  0.00000000E+00
  0.00000000E+00  0.00000000E+00  0.00000000E+00
  0.00000000E+00  0.00000000E+00  0.00000000E+00
  0.00000000E+00  0.00000000E+00  0.00000000E+00
  0.00000000E+00  0.00000000E+00  0.00000000E+00
  0.00000000E+00  0.00000000E+00  0.00000000E+00
  0.00000000E+00  0.00000000E+00  0.00000000E+00
  0.00000000E+00  0.00000000E+00  0.00000000E+00
  0.00000000E+00  0.00000000E+00  0.00000000E+00
  0.00000000E+00  0.00000000E+00  0.00000000E+00
  0.00000000E+00  0.00000000E+00  0.00000000E+00
  0.00000000E+00  0.00000000E+00  0.00000000E+00
  0.00000000E+00  0.00000000E+00  0.00000000E+00
  0.00000000E+00  0.00000000E+00  0.00000000E+00
  0.00000000E+00  0.00000000E+00  0.00000000E+00
  0.00000000E+00  0.00000000E+00  0.00000000E+00
  0.00000000E+00  0.00000000E+00  0.00000000E+00
  0.00000000E+00  0.00000000E+00  0.00000000E+00
  0.00000000E+00  0.00000000E+00  0.00000000E+00
  0.00000000E+00  0.00000000E+00  0.00000000E+00
  0.00000000E+00  0.00000000E+00  0.00000000E+00
  0.00000000E+00  0.00000000E+00  0.00000000E+00
  0.00000000E+00  0.00000000E+00  0.00000000E+00
  0.00000000E+00  0.00000000E+00  0.00000000E+00
  0.00000000E+00  0.00000000E+00  0.00000000E+00
  0.00000000E+00  0.00000000E+00  0.00000000E+00
  0.00000000E+00  0.00000000E+00  0.00000000E+00
  0.00000000E+00  0.00000000E+00  0.00000000E+00
  0.00000000E+00  0.00000000E+00  0.00000000E+00
  0.00000000E+00  0.00000000E+00  0.00000000E+00
  0.00000000E+00  0.00000000E+00  0.00000000E+00
  0.00000000E+00  0.00000000E+00  0.00000000E+00
  0.00000000E+00  0.00000000E+00  0.00000000E+00
  0.00000000E+00  0.00000000E+00  0.00000000E+00
  0.00000000E+00  0.00000000E+00  0.00000000E+00
  0.00000000E+00  0.00000000E+00  0.00000000E+00
  0.00000000E+00  0.00000000E+00  0.00000000E+00
  0.00000000E+00  0.00000000E+00  0.00000000E+00
