Cu1 C123 N3                             
   1.00000000000000     
    19.8027605491741774    0.0041866061155091    0.0191849994614373
    -9.8976647859237978   17.0220295798810142   -0.0302436574380521
     0.0286235502155134   -0.0355666160690091   29.8478235240606047
   Cu   C    N 
     1   123     3
Direct
  0.4371731129799810  0.4996791545801672  0.4049711089984517
  0.0420183241465679  0.0842231963821290  0.4001584252217829
  0.0411384610679623  0.2082866633789306  0.4003285910233262
  0.0404489273922148  0.3329998376571158  0.4002874616265246
  0.0406055622339806  0.4581831689974419  0.3997514291919597
  0.0413527217262058  0.5837281514867467  0.3993658482382978
  0.0421605803072940  0.7092347642381576  0.3994313306127261
  0.0424093783764915  0.8344909249700149  0.3995732832174359
  0.0423990014803849  0.9596040423790375  0.3997452119803476
  0.1678267278426516  0.0855632714355121  0.4004093479492753
  0.1676698220016865  0.2105516830860799  0.4012663913310671
  0.1653871474387902  0.3338284758157629  0.4013892348967997
  0.1645604388154792  0.4584972212290775  0.4013375720986115
  0.1651821717285873  0.5836446607445569  0.4000591317048023
  0.1663979661468880  0.7089903532312640  0.3994926486524328
  0.1671047482086996  0.8344772947565152  0.3995682435287261
  0.1675138248511649  0.9600810838634427  0.3998129345887866
  0.2926211076188324  0.0858939460131821  0.4007119976186764
  0.2932936608172388  0.2127176020102485  0.4018197593805750
  0.2931895598537074  0.3388318658023085  0.4013199452420488
  0.2884054575011527  0.4584759992055099  0.4020191981975667
  0.2885573828908751  0.5830056037182826  0.4016066186225207
  0.2906246836987150  0.7083320451661109  0.4006267728684781
  0.2916406870555186  0.8338943791056761  0.3997090423482460
  0.2921889403876791  0.9596619628471454  0.3997379315490342
  0.4170743947439046  0.0843053463696144  0.4003304053009185
  0.4177447728212356  0.2106748689599841  0.4020701253911940
  0.4194951009025954  0.3387026437350277  0.4049376397788659
  0.4146076156865644  0.7056109736492694  0.4023205071093143
  0.4160894200034536  0.8320432595158412  0.4005754588244436
  0.4166775036607506  0.9582162393480557  0.3998193778173250
  0.5415412827195237  0.0825626965201917  0.3997786652139855
  0.5421568018042440  0.2084714621002047  0.4006708086114200
  0.5431821723472098  0.3340704373900171  0.4025503565212049
  0.5465428346903307  0.4596628792573372  0.4041576913612927
  0.5380125766595462  0.7011145106642909  0.4030804034251784
  0.5403970424371726  0.8298628950573305  0.4015681946908093
  0.5410744457419412  0.9565042253494792  0.4001698050379676
  0.6660699913651145  0.0818418300770897  0.3997394251751709
  0.6665263133377175  0.2073900105029049  0.3996474090157712
  0.6674391711354899  0.3329354823179359  0.4001759005263206
  0.6693911371877956  0.4585172604469869  0.4010297684123055
  0.6703657134552884  0.5838824121421144  0.4022626326880349
  0.6659639077164509  0.7056257879182788  0.4019312361288127
  0.6644881308699617  0.8298951949791514  0.4013732551444830
  0.6655035699626487  0.9560484344922903  0.4004071311589570
  0.7907448259349958  0.0818091191271064  0.3998265162275571
  0.7910979536884114  0.2072190808182081  0.3996756184800664
  0.7917198806371460  0.3326708449700130  0.3993863454862691
  0.7928342099957127  0.4581956442928304  0.3995664367706959
  0.7936665695306147  0.5836637625253110  0.4000659544173213
  0.7930911464606393  0.7087190610525272  0.4004612924089201
  0.7909593775314546  0.8321075924982454  0.4007735602391952
  0.7903916363458682  0.9565168385333167  0.4002219705593052
  0.9159581057165873  0.0825535650101378  0.3998421410078427
  0.9158250732256262  0.2074157980214202  0.3997381445138882
  0.9159815053428493  0.3326805248583503  0.3995675184892843
  0.9167011802143441  0.4581990430574414  0.3992622678002294
  0.9175254834002368  0.5837571614577436  0.3992321352822484
  0.9176934086421643  0.7090588781319030  0.3995261266868689
  0.9173452742044380  0.8340011789198724  0.3997584680329405
  0.9165015407785058  0.9582003254710163  0.3999306677386291
  0.0842692228375100  0.0432591675713753  0.4000544835806550
  0.0838536840628322  0.1679052289992727  0.4006628639923854
  0.0824652059811146  0.2917458695546262  0.4006128811659629
  0.0817565720972533  0.4163686283465975  0.4004335864123833
  0.0823204794680481  0.5417999088278068  0.3996757828846054
  0.0832847123708774  0.6672994099827763  0.3993570256140032
  0.0838717524996656  0.7927571148142052  0.3996073414321493
  0.0841456154758901  0.9180960542113112  0.3996555896981529
  0.2092503313992168  0.0437494321167148  0.4002735948752573
  0.2097167262636813  0.1694789081478521  0.4010500066875772
  0.2091088306762032  0.2944332459389685  0.4016452033237402
  0.2061297753126217  0.4170824210210617  0.4021750325515859
  0.2058170259551971  0.5415489339623754  0.4008006733842852
  0.2073774383785376  0.6670030172683019  0.3999324671187872
  0.2084207237571295  0.7925691673999278  0.3995334784546934
  0.2089177216963612  0.9181054047300339  0.3996611823799993
  0.3339003103916333  0.0434236591906891  0.4002388831153265
  0.3343453892320433  0.1697669192928906  0.4017160229589249
  0.3352027044202200  0.2971411389997486  0.4026287935946046
  0.3295087713417637  0.5418513511027534  0.4031677960487468
  0.3314206168537699  0.6661683654003485  0.4017059691364641
  0.3328976133617583  0.7916761925113441  0.4002670086086254
  0.3334553132168392  0.9174107396705290  0.3996866699280859
  0.4583316569554530  0.0417879542356175  0.3998798858229646
  0.4588508819253901  0.1679784975334433  0.4009891122670516
  0.4599262329190017  0.2943748452286753  0.4034373692736122
  0.4648042197988634  0.4207853239891471  0.4084119778587750
  0.4536078212748363  0.6605219619945679  0.4040367706259819
  0.4571298956796185  0.7892708744646477  0.4014705797650472
  0.4578910397579759  0.9157090943591744  0.4001513757075144
  0.5828025174473258  0.0402864397286665  0.3997822083111877
  0.5833607288525294  0.1661436144178344  0.3999148366311482
  0.5842036332577712  0.2917345118824796  0.4011272515691376
  0.5865911017497126  0.4172720691089692  0.4022389894035351
  0.5888071362094039  0.5428738697730627  0.4028844336791126
  0.5815982183932431  0.6603731970608834  0.4023127517543162
  0.5806532926372141  0.7863404210666858  0.4021140138090758
  0.5822636448087811  0.9139601578189355  0.4006944626621489
  0.7074076991548487  0.0398477787098382  0.3999542556805117
  0.7078901250174515  0.1654628458959110  0.3996158784954930
  0.7085114254276982  0.2909618504816264  0.3996039115742285
  0.7099375168767087  0.4164157135306046  0.4001834670516939
  0.7111522516072319  0.5416899099900201  0.4011934258870967
  0.7102291067533071  0.6667918457425654  0.4014710497805324
  0.7071298584482113  0.7893835617081139  0.4014845551337282
  0.7066762125525564  0.9139782996727795  0.4006014763265088
  0.8324110232418046  0.0403010454918544  0.3998932168134496
  0.8325833219558282  0.1654891567596514  0.3997192289219904
  0.8329058424574524  0.2907560954839408  0.3995209425827080
  0.8337507112494416  0.4162191772392755  0.3992990354601345
  0.8346841661820475  0.5418120515277695  0.3994759065742306
  0.8348002842225436  0.6671644082174301  0.3999452326070241
  0.8340015806585978  0.7919190434212812  0.4002668075025871
  0.8327719546572534  0.9157401118727591  0.4002908258305773
  0.9583455561183936  0.0417875988353167  0.3999027150717410
  0.9577224412449179  0.1660999737914126  0.3998657621225810
  0.9574570621765242  0.2910189115182972  0.3998176200856639
  0.9577034024961031  0.4162588390234673  0.3994473635778859
  0.9584706766534660  0.5417702844119987  0.3992396262166891
  0.9591441739601778  0.6673132070933274  0.3993395396633380
  0.9592054131146315  0.7926536006401315  0.3995487539575553
  0.9589317271569510  0.9174753892681149  0.3997757028061334
  0.4095904280412530  0.5800969130158716  0.4066291532978994
  0.5456008117056590  0.5796417111180906  0.4011229498738571
  0.3309822006843804  0.4203099421749866  0.3988694188529729
 
  0.00000000E+00  0.00000000E+00  0.00000000E+00
  0.00000000E+00  0.00000000E+00  0.00000000E+00
  0.00000000E+00  0.00000000E+00  0.00000000E+00
  0.00000000E+00  0.00000000E+00  0.00000000E+00
  0.00000000E+00  0.00000000E+00  0.00000000E+00
  0.00000000E+00  0.00000000E+00  0.00000000E+00
  0.00000000E+00  0.00000000E+00  0.00000000E+00
  0.00000000E+00  0.00000000E+00  0.00000000E+00
  0.00000000E+00  0.00000000E+00  0.00000000E+00
  0.00000000E+00  0.00000000E+00  0.00000000E+00
  0.00000000E+00  0.00000000E+00  0.00000000E+00
  0.00000000E+00  0.00000000E+00  0.00000000E+00
  0.00000000E+00  0.00000000E+00  0.00000000E+00
  0.00000000E+00  0.00000000E+00  0.00000000E+00
  0.00000000E+00  0.00000000E+00  0.00000000E+00
  0.00000000E+00  0.00000000E+00  0.00000000E+00
  0.00000000E+00  0.00000000E+00  0.00000000E+00
  0.00000000E+00  0.00000000E+00  0.00000000E+00
  0.00000000E+00  0.00000000E+00  0.00000000E+00
  0.00000000E+00  0.00000000E+00  0.00000000E+00
  0.00000000E+00  0.00000000E+00  0.00000000E+00
  0.00000000E+00  0.00000000E+00  0.00000000E+00
  0.00000000E+00  0.00000000E+00  0.00000000E+00
  0.00000000E+00  0.00000000E+00  0.00000000E+00
  0.00000000E+00  0.00000000E+00  0.00000000E+00
  0.00000000E+00  0.00000000E+00  0.00000000E+00
  0.00000000E+00  0.00000000E+00  0.00000000E+00
  0.00000000E+00  0.00000000E+00  0.00000000E+00
  0.00000000E+00  0.00000000E+00  0.00000000E+00
  0.00000000E+00  0.00000000E+00  0.00000000E+00
  0.00000000E+00  0.00000000E+00  0.00000000E+00
  0.00000000E+00  0.00000000E+00  0.00000000E+00
  0.00000000E+00  0.00000000E+00  0.00000000E+00
  0.00000000E+00  0.00000000E+00  0.00000000E+00
  0.00000000E+00  0.00000000E+00  0.00000000E+00
  0.00000000E+00  0.00000000E+00  0.00000000E+00
  0.00000000E+00  0.00000000E+00  0.00000000E+00
  0.00000000E+00  0.00000000E+00  0.00000000E+00
  0.00000000E+00  0.00000000E+00  0.00000000E+00
  0.00000000E+00  0.00000000E+00  0.00000000E+00
  0.00000000E+00  0.00000000E+00  0.00000000E+00
  0.00000000E+00  0.00000000E+00  0.00000000E+00
  0.00000000E+00  0.00000000E+00  0.00000000E+00
  0.00000000E+00  0.00000000E+00  0.00000000E+00
  0.00000000E+00  0.00000000E+00  0.00000000E+00
  0.00000000E+00  0.00000000E+00  0.00000000E+00
  0.00000000E+00  0.00000000E+00  0.00000000E+00
  0.00000000E+00  0.00000000E+00  0.00000000E+00
  0.00000000E+00  0.00000000E+00  0.00000000E+00
  0.00000000E+00  0.00000000E+00  0.00000000E+00
  0.00000000E+00  0.00000000E+00  0.00000000E+00
  0.00000000E+00  0.00000000E+00  0.00000000E+00
  0.00000000E+00  0.00000000E+00  0.00000000E+00
  0.00000000E+00  0.00000000E+00  0.00000000E+00
  0.00000000E+00  0.00000000E+00  0.00000000E+00
  0.00000000E+00  0.00000000E+00  0.00000000E+00
  0.00000000E+00  0.00000000E+00  0.00000000E+00
  0.00000000E+00  0.00000000E+00  0.00000000E+00
  0.00000000E+00  0.00000000E+00  0.00000000E+00
  0.00000000E+00  0.00000000E+00  0.00000000E+00
  0.00000000E+00  0.00000000E+00  0.00000000E+00
  0.00000000E+00  0.00000000E+00  0.00000000E+00
  0.00000000E+00  0.00000000E+00  0.00000000E+00
  0.00000000E+00  0.00000000E+00  0.00000000E+00
  0.00000000E+00  0.00000000E+00  0.00000000E+00
  0.00000000E+00  0.00000000E+00  0.00000000E+00
  0.00000000E+00  0.00000000E+00  0.00000000E+00
  0.00000000E+00  0.00000000E+00  0.00000000E+00
  0.00000000E+00  0.00000000E+00  0.00000000E+00
  0.00000000E+00  0.00000000E+00  0.00000000E+00
  0.00000000E+00  0.00000000E+00  0.00000000E+00
  0.00000000E+00  0.00000000E+00  0.00000000E+00
  0.00000000E+00  0.00000000E+00  0.00000000E+00
  0.00000000E+00  0.00000000E+00  0.00000000E+00
  0.00000000E+00  0.00000000E+00  0.00000000E+00
  0.00000000E+00  0.00000000E+00  0.00000000E+00
  0.00000000E+00  0.00000000E+00  0.00000000E+00
  0.00000000E+00  0.00000000E+00  0.00000000E+00
  0.00000000E+00  0.00000000E+00  0.00000000E+00
  0.00000000E+00  0.00000000E+00  0.00000000E+00
  0.00000000E+00  0.00000000E+00  0.00000000E+00
  0.00000000E+00  0.00000000E+00  0.00000000E+00
  0.00000000E+00  0.00000000E+00  0.00000000E+00
  0.00000000E+00  0.00000000E+00  0.00000000E+00
  0.00000000E+00  0.00000000E+00  0.00000000E+00
  0.00000000E+00  0.00000000E+00  0.00000000E+00
  0.00000000E+00  0.00000000E+00  0.00000000E+00
  0.00000000E+00  0.00000000E+00  0.00000000E+00
  0.00000000E+00  0.00000000E+00  0.00000000E+00
  0.00000000E+00  0.00000000E+00  0.00000000E+00
  0.00000000E+00  0.00000000E+00  0.00000000E+00
  0.00000000E+00  0.00000000E+00  0.00000000E+00
  0.00000000E+00  0.00000000E+00  0.00000000E+00
  0.00000000E+00  0.00000000E+00  0.00000000E+00
  0.00000000E+00  0.00000000E+00  0.00000000E+00
  0.00000000E+00  0.00000000E+00  0.00000000E+00
  0.00000000E+00  0.00000000E+00  0.00000000E+00
  0.00000000E+00  0.00000000E+00  0.00000000E+00
  0.00000000E+00  0.00000000E+00  0.00000000E+00
  0.00000000E+00  0.00000000E+00  0.00000000E+00
  0.00000000E+00  0.00000000E+00  0.00000000E+00
  0.00000000E+00  0.00000000E+00  0.00000000E+00
  0.00000000E+00  0.00000000E+00  0.00000000E+00
  0.00000000E+00  0.00000000E+00  0.00000000E+00
  0.00000000E+00  0.00000000E+00  0.00000000E+00
  0.00000000E+00  0.00000000E+00  0.00000000E+00
  0.00000000E+00  0.00000000E+00  0.00000000E+00
  0.00000000E+00  0.00000000E+00  0.00000000E+00
  0.00000000E+00  0.00000000E+00  0.00000000E+00
  0.00000000E+00  0.00000000E+00  0.00000000E+00
  0.00000000E+00  0.00000000E+00  0.00000000E+00
  0.00000000E+00  0.00000000E+00  0.00000000E+00
  0.00000000E+00  0.00000000E+00  0.00000000E+00
  0.00000000E+00  0.00000000E+00  0.00000000E+00
  0.00000000E+00  0.00000000E+00  0.00000000E+00
  0.00000000E+00  0.00000000E+00  0.00000000E+00
  0.00000000E+00  0.00000000E+00  0.00000000E+00
  0.00000000E+00  0.00000000E+00  0.00000000E+00
  0.00000000E+00  0.00000000E+00  0.00000000E+00
  0.00000000E+00  0.00000000E+00  0.00000000E+00
  0.00000000E+00  0.00000000E+00  0.00000000E+00
  0.00000000E+00  0.00000000E+00  0.00000000E+00
  0.00000000E+00  0.00000000E+00  0.00000000E+00
  0.00000000E+00  0.00000000E+00  0.00000000E+00
  0.00000000E+00  0.00000000E+00  0.00000000E+00
  0.00000000E+00  0.00000000E+00  0.00000000E+00
  0.00000000E+00  0.00000000E+00  0.00000000E+00
