Ni1 H1 C123 N3                          
   1.00000000000000     
    19.8048732685864373    0.0055279258473299    0.2286283204870689
    -9.8978123563823708   17.0148582913277053   -0.3963774127109208
     0.3442332214930881   -0.4927726592251946   29.8681138466806786
   Ni   H    C    N 
     1     1   123     3
Direct
  0.4372912964703788  0.5022835829091414  0.4060234433855376
  0.4483724869642479  0.4449190190743840  0.4455961799462591
  0.0420671444005623  0.0847149688807980  0.4009178717497460
  0.0409998895338152  0.2086906003027986  0.4009086291581097
  0.0401866266897591  0.3332057262084611  0.4002409201927216
  0.0403622428788930  0.4584095806913315  0.3997013031644827
  0.0412981853745430  0.5839901175342034  0.3993287951286144
  0.0421912011366933  0.7095276340174146  0.3991171700905708
  0.0424762123520716  0.8348595661683986  0.3993687596671743
  0.0424573985072264  0.9600414552911627  0.4001218285172579
  0.1679057736556190  0.0862104958866947  0.4009898115139875
  0.1677664511505741  0.2113755984697150  0.4021181984433488
  0.1652224871952028  0.3343394115412412  0.4015979964404661
  0.1641839135194575  0.4588091097099141  0.4008620881121427
  0.1650448540306246  0.5839175632388428  0.4000125650126943
  0.1663574459014387  0.7092755648530935  0.3994509466362450
  0.1670895943543497  0.8348248314865959  0.3994131538867159
  0.1675173370814167  0.9604587716033270  0.3999420221610787
  0.2925271919260066  0.0862680498375061  0.4011571438195215
  0.2933403096909984  0.2133327811045592  0.4029618712655304
  0.2934985696618470  0.3405817863657447  0.4032930428648518
  0.2878738907930434  0.4588134682553640  0.4020973908954213
  0.2884286529222546  0.5834753636509128  0.4011308250784177
  0.2905048103908657  0.7087575280717824  0.4005924658455396
  0.2915703865940680  0.8342718907807669  0.4000741130695598
  0.2921206632840216  0.9600664067850504  0.4002213216324428
  0.4169810219014654  0.0846936042364680  0.4009193712630306
  0.4175606153433111  0.2111088390642077  0.4021619545285187
  0.4189975663547554  0.3383570250253008  0.4067186759355904
  0.4143952399877464  0.7059366531386647  0.4020659801142100
  0.4159559030487269  0.8324154734198927  0.4009197983656049
  0.4165697319828700  0.9585864688932398  0.4005658448235409
  0.5413883660732300  0.0829684086342074  0.4004508864734857
  0.5419258617935406  0.2089047712907902  0.4010746004001277
  0.5432181786568351  0.3347690330515565  0.4032458267879926
  0.5478210177838329  0.4610214415652301  0.4069491053260830
  0.5377394146712950  0.7013643946859252  0.4031482340313894
  0.5401690805320001  0.8301480695670219  0.4016931974266404
  0.5409158234000817  0.9568061747940382  0.4005986385187252
  0.6658666842787063  0.0821096053904233  0.3999324321403778
  0.6663656327356836  0.2077625011668289  0.3999161537609707
  0.6673982099296185  0.3334588928729763  0.4004530446677300
  0.6696185739165699  0.4592123141088424  0.4014591192280105
  0.6704460269837318  0.5844956302141345  0.4030954107631570
  0.6656094684890883  0.7057856990709733  0.4021843917504449
  0.6642676129351914  0.8301426214857195  0.4016352098337210
  0.6653456931434029  0.9563039341446853  0.4006091822149236
  0.7905574760364585  0.0820699016076931  0.3998941527480413
  0.7908925263422364  0.2074482859772360  0.3993854604238015
  0.7915458674016408  0.3329627210685079  0.3993902985327697
  0.7928256225023550  0.4586071949116515  0.3997868202316093
  0.7938191208086049  0.5842451951263056  0.4004444839460276
  0.7930890865442531  0.7090936083118309  0.4006714243041718
  0.7908232827104092  0.8323611885725868  0.4010274761428452
  0.7902527055560028  0.9567795794730231  0.4006539799130466
  0.9158292308496532  0.0828274910007720  0.4004587766887207
  0.9156052748271052  0.2076264232228574  0.3997763996875575
  0.9157571978119339  0.3328839595687016  0.3992839986925286
  0.9165808323389252  0.4584795743308562  0.3993591273122771
  0.9175332043924778  0.5840955492263440  0.3994307608148395
  0.9177835771059476  0.7094291727010363  0.3995915111945311
  0.9173880878455162  0.8343761135315904  0.4000274277055438
  0.9164590885144209  0.9585484732894647  0.4005472781060997
  0.0843387329540915  0.0437841600696759  0.4006373318941406
  0.0839659718761669  0.1684801281136480  0.4013809848513952
  0.0821401429173724  0.2920272941151704  0.4008931100888650
  0.0814601547036345  0.4166363051531379  0.4002462654765881
  0.0821907920498789  0.5420478223269519  0.3996724370533887
  0.0832714262465970  0.6675670939927155  0.3991809487632506
  0.0839406104207573  0.7930863654494803  0.3991886771318286
  0.0842165264961539  0.9185038184323873  0.3997167746691843
  0.2093145354142771  0.0442543687007243  0.4006619927240896
  0.2098913387443113  0.1702018248629812  0.4019933618149323
  0.2092260543113210  0.2953337238271228  0.4024676923913716
  0.2056952020906729  0.4174855193089134  0.4016618484845752
  0.2056307998452043  0.5418617201303028  0.4005224116270363
  0.2073558066167155  0.6673599655046341  0.3999432136356391
  0.2084028894025386  0.7928966023088292  0.3995642324028960
  0.2089190768612548  0.9185003910714080  0.3997849302846411
  0.3338181334428071  0.0438336993736677  0.4007431444446106
  0.3343028490242637  0.1703697084104418  0.4022307693109075
  0.3358676323781009  0.2982312723320492  0.4045787846511689
  0.3294085037682593  0.5425533664143517  0.4025081527349556
  0.3313481607491713  0.6666531169656087  0.4013647607571434
  0.3327884734162679  0.7920830345223386  0.4005187842281807
  0.3334069962849466  0.9178218968490002  0.4002966749614229
  0.4582260228135545  0.0421921747254287  0.4006622408449506
  0.4587246027329476  0.1683771571256294  0.4013246866138662
  0.4596094053302431  0.2949358052130225  0.4037023008106857
  0.4647658324104845  0.4228276939934941  0.4131118958088218
  0.4533197080434986  0.6607943727576537  0.4034208946463783
  0.4569728785622272  0.7896494070201530  0.4015759480778099
  0.4577874475291033  0.9160677741128820  0.4007076423997596
  0.5826346197576006  0.0406094630823507  0.4002709602416858
  0.5831649746476878  0.1665743501962109  0.4004133005101079
  0.5840183084639290  0.2924614916446011  0.4015269070702958
  0.5868909831025372  0.4183434625202226  0.4034753995958634
  0.5885948383924563  0.5433370609778777  0.4047738749367008
  0.5811619625468821  0.6603151806847281  0.4030069828205464
  0.5804121843926934  0.7865020403159596  0.4022290377715226
  0.5820959932049553  0.9142305339736641  0.4009293222270456
  0.7072246002809478  0.0400732063250027  0.4000490297671970
  0.7076901196116633  0.1657876049582224  0.3996486945613787
  0.7083447226651984  0.2913882143307249  0.3997953220571500
  0.7099745895353391  0.4168985421099654  0.4003264759280240
  0.7112447131229328  0.5423885354023805  0.4017643156959896
  0.7102190520818429  0.6672001056195184  0.4018220861508043
  0.7068752849516856  0.7895004283620112  0.4016392311751333
  0.7065106290815448  0.9142070251778791  0.4009282701096525
  0.8322896329525262  0.0405388542525375  0.4002794789374686
  0.8323449958387863  0.1657101918520930  0.3995557145997690
  0.8326839161415062  0.2909898492500170  0.3992313383046502
  0.8336544833020592  0.4165476801921328  0.3994458693492530
  0.8347219157302551  0.5422431083363034  0.3998149891457554
  0.8348969913205159  0.6676198824623727  0.4002123609751989
  0.8339972618097738  0.7922703215871304  0.4004966909147376
  0.8326926625900382  0.9160017695689702  0.4007698259234208
  0.9583290971582547  0.0421410936453741  0.4006592860070441
  0.9575430712962544  0.1663625431038568  0.4003521969879317
  0.9572252477033133  0.2912326254283492  0.3996706497384502
  0.9574872721528590  0.4164710818167826  0.3993594941504888
  0.9584096852485544  0.5420489882146897  0.3993542561381233
  0.9591818809455233  0.6676558270061179  0.3993082957590748
  0.9592786921683623  0.7929896578595877  0.3995633895952165
  0.9589930795430969  0.9178380857326792  0.4002297032457485
  0.4092538505497366  0.5802888266235068  0.4050342317200346
  0.5444457656880688  0.5794698971131573  0.4032788448938078
  0.3311722925941698  0.4217450266284325  0.4017749869331256
 
  0.00000000E+00  0.00000000E+00  0.00000000E+00
  0.00000000E+00  0.00000000E+00  0.00000000E+00
  0.00000000E+00  0.00000000E+00  0.00000000E+00
  0.00000000E+00  0.00000000E+00  0.00000000E+00
  0.00000000E+00  0.00000000E+00  0.00000000E+00
  0.00000000E+00  0.00000000E+00  0.00000000E+00
  0.00000000E+00  0.00000000E+00  0.00000000E+00
  0.00000000E+00  0.00000000E+00  0.00000000E+00
  0.00000000E+00  0.00000000E+00  0.00000000E+00
  0.00000000E+00  0.00000000E+00  0.00000000E+00
  0.00000000E+00  0.00000000E+00  0.00000000E+00
  0.00000000E+00  0.00000000E+00  0.00000000E+00
  0.00000000E+00  0.00000000E+00  0.00000000E+00
  0.00000000E+00  0.00000000E+00  0.00000000E+00
  0.00000000E+00  0.00000000E+00  0.00000000E+00
  0.00000000E+00  0.00000000E+00  0.00000000E+00
  0.00000000E+00  0.00000000E+00  0.00000000E+00
  0.00000000E+00  0.00000000E+00  0.00000000E+00
  0.00000000E+00  0.00000000E+00  0.00000000E+00
  0.00000000E+00  0.00000000E+00  0.00000000E+00
  0.00000000E+00  0.00000000E+00  0.00000000E+00
  0.00000000E+00  0.00000000E+00  0.00000000E+00
  0.00000000E+00  0.00000000E+00  0.00000000E+00
  0.00000000E+00  0.00000000E+00  0.00000000E+00
  0.00000000E+00  0.00000000E+00  0.00000000E+00
  0.00000000E+00  0.00000000E+00  0.00000000E+00
  0.00000000E+00  0.00000000E+00  0.00000000E+00
  0.00000000E+00  0.00000000E+00  0.00000000E+00
  0.00000000E+00  0.00000000E+00  0.00000000E+00
  0.00000000E+00  0.00000000E+00  0.00000000E+00
  0.00000000E+00  0.00000000E+00  0.00000000E+00
  0.00000000E+00  0.00000000E+00  0.00000000E+00
  0.00000000E+00  0.00000000E+00  0.00000000E+00
  0.00000000E+00  0.00000000E+00  0.00000000E+00
  0.00000000E+00  0.00000000E+00  0.00000000E+00
  0.00000000E+00  0.00000000E+00  0.00000000E+00
  0.00000000E+00  0.00000000E+00  0.00000000E+00
  0.00000000E+00  0.00000000E+00  0.00000000E+00
  0.00000000E+00  0.00000000E+00  0.00000000E+00
  0.00000000E+00  0.00000000E+00  0.00000000E+00
  0.00000000E+00  0.00000000E+00  0.00000000E+00
  0.00000000E+00  0.00000000E+00  0.00000000E+00
  0.00000000E+00  0.00000000E+00  0.00000000E+00
  0.00000000E+00  0.00000000E+00  0.00000000E+00
  0.00000000E+00  0.00000000E+00  0.00000000E+00
  0.00000000E+00  0.00000000E+00  0.00000000E+00
  0.00000000E+00  0.00000000E+00  0.00000000E+00
  0.00000000E+00  0.00000000E+00  0.00000000E+00
  0.00000000E+00  0.00000000E+00  0.00000000E+00
  0.00000000E+00  0.00000000E+00  0.00000000E+00
  0.00000000E+00  0.00000000E+00  0.00000000E+00
  0.00000000E+00  0.00000000E+00  0.00000000E+00
  0.00000000E+00  0.00000000E+00  0.00000000E+00
  0.00000000E+00  0.00000000E+00  0.00000000E+00
  0.00000000E+00  0.00000000E+00  0.00000000E+00
  0.00000000E+00  0.00000000E+00  0.00000000E+00
  0.00000000E+00  0.00000000E+00  0.00000000E+00
  0.00000000E+00  0.00000000E+00  0.00000000E+00
  0.00000000E+00  0.00000000E+00  0.00000000E+00
  0.00000000E+00  0.00000000E+00  0.00000000E+00
  0.00000000E+00  0.00000000E+00  0.00000000E+00
  0.00000000E+00  0.00000000E+00  0.00000000E+00
  0.00000000E+00  0.00000000E+00  0.00000000E+00
  0.00000000E+00  0.00000000E+00  0.00000000E+00
  0.00000000E+00  0.00000000E+00  0.00000000E+00
  0.00000000E+00  0.00000000E+00  0.00000000E+00
  0.00000000E+00  0.00000000E+00  0.00000000E+00
  0.00000000E+00  0.00000000E+00  0.00000000E+00
  0.00000000E+00  0.00000000E+00  0.00000000E+00
  0.00000000E+00  0.00000000E+00  0.00000000E+00
  0.00000000E+00  0.00000000E+00  0.00000000E+00
  0.00000000E+00  0.00000000E+00  0.00000000E+00
  0.00000000E+00  0.00000000E+00  0.00000000E+00
  0.00000000E+00  0.00000000E+00  0.00000000E+00
  0.00000000E+00  0.00000000E+00  0.00000000E+00
  0.00000000E+00  0.00000000E+00  0.00000000E+00
  0.00000000E+00  0.00000000E+00  0.00000000E+00
  0.00000000E+00  0.00000000E+00  0.00000000E+00
  0.00000000E+00  0.00000000E+00  0.00000000E+00
  0.00000000E+00  0.00000000E+00  0.00000000E+00
  0.00000000E+00  0.00000000E+00  0.00000000E+00
  0.00000000E+00  0.00000000E+00  0.00000000E+00
  0.00000000E+00  0.00000000E+00  0.00000000E+00
  0.00000000E+00  0.00000000E+00  0.00000000E+00
  0.00000000E+00  0.00000000E+00  0.00000000E+00
  0.00000000E+00  0.00000000E+00  0.00000000E+00
  0.00000000E+00  0.00000000E+00  0.00000000E+00
  0.00000000E+00  0.00000000E+00  0.00000000E+00
  0.00000000E+00  0.00000000E+00  0.00000000E+00
  0.00000000E+00  0.00000000E+00  0.00000000E+00
  0.00000000E+00  0.00000000E+00  0.00000000E+00
  0.00000000E+00  0.00000000E+00  0.00000000E+00
  0.00000000E+00  0.00000000E+00  0.00000000E+00
  0.00000000E+00  0.00000000E+00  0.00000000E+00
  0.00000000E+00  0.00000000E+00  0.00000000E+00
  0.00000000E+00  0.00000000E+00  0.00000000E+00
  0.00000000E+00  0.00000000E+00  0.00000000E+00
  0.00000000E+00  0.00000000E+00  0.00000000E+00
  0.00000000E+00  0.00000000E+00  0.00000000E+00
  0.00000000E+00  0.00000000E+00  0.00000000E+00
  0.00000000E+00  0.00000000E+00  0.00000000E+00
  0.00000000E+00  0.00000000E+00  0.00000000E+00
  0.00000000E+00  0.00000000E+00  0.00000000E+00
  0.00000000E+00  0.00000000E+00  0.00000000E+00
  0.00000000E+00  0.00000000E+00  0.00000000E+00
  0.00000000E+00  0.00000000E+00  0.00000000E+00
  0.00000000E+00  0.00000000E+00  0.00000000E+00
  0.00000000E+00  0.00000000E+00  0.00000000E+00
  0.00000000E+00  0.00000000E+00  0.00000000E+00
  0.00000000E+00  0.00000000E+00  0.00000000E+00
  0.00000000E+00  0.00000000E+00  0.00000000E+00
  0.00000000E+00  0.00000000E+00  0.00000000E+00
  0.00000000E+00  0.00000000E+00  0.00000000E+00
  0.00000000E+00  0.00000000E+00  0.00000000E+00
  0.00000000E+00  0.00000000E+00  0.00000000E+00
  0.00000000E+00  0.00000000E+00  0.00000000E+00
  0.00000000E+00  0.00000000E+00  0.00000000E+00
  0.00000000E+00  0.00000000E+00  0.00000000E+00
  0.00000000E+00  0.00000000E+00  0.00000000E+00
  0.00000000E+00  0.00000000E+00  0.00000000E+00
  0.00000000E+00  0.00000000E+00  0.00000000E+00
  0.00000000E+00  0.00000000E+00  0.00000000E+00
  0.00000000E+00  0.00000000E+00  0.00000000E+00
  0.00000000E+00  0.00000000E+00  0.00000000E+00
  0.00000000E+00  0.00000000E+00  0.00000000E+00
  0.00000000E+00  0.00000000E+00  0.00000000E+00
  0.00000000E+00  0.00000000E+00  0.00000000E+00
  0.00000000E+00  0.00000000E+00  0.00000000E+00
