V1 C126 O1                              
   1.00000000000000     
    19.8244095624592056   -0.0001735305133231   -0.0438274719773918
    -9.9124037128114519   17.0693563501175625   -0.0535639537239993
    -0.0657147968588748   -0.1313719131824178   29.7370226353287954
   V    C    O 
     1   126     1
Direct
  0.4380085412887105  0.5007198265091825  0.4306828898675275
  0.0418358682559213  0.0837809193495859  0.3995606286167219
  0.0409905606552321  0.2081212560389236  0.3993319277439627
  0.0406144522260729  0.3329578153302280  0.3991352438424425
  0.0407211056382729  0.4583488146072982  0.3992117676232106
  0.0414322406681002  0.5836998143531793  0.3996158561153919
  0.0419943344431818  0.7089495676439971  0.3998564317673854
  0.0422698607694034  0.8342613212482298  0.3998714730483966
  0.0422838830209584  0.9592296673279733  0.3997401219053478
  0.1674218091543715  0.0848455029666855  0.4001402259728665
  0.1667422644091552  0.2092634043518545  0.4001567787325776
  0.1652954562631017  0.3331250741496852  0.3999346199988832
  0.1644161226396727  0.4583672161848458  0.3990397552355142
  0.1653537747138119  0.5836108763612313  0.3989775362674121
  0.1664927189063234  0.7089111212822792  0.3994832886887870
  0.1670191964629031  0.8342003328438673  0.3998280158982776
  0.1673003623870331  0.9595160112975145  0.3999813703337065
  0.2925046096496776  0.0848111694349551  0.4001333273443337
  0.2931050620601273  0.2110521048176747  0.4015433988310529
  0.2917630196972385  0.3360844047806626  0.4040377363557568
  0.2874540865813900  0.4576588615483310  0.4031797898124330
  0.2891914468796946  0.5839568235023511  0.3999423879031043
  0.2910215170900423  0.7088661506543582  0.3991560101725494
  0.2915451972748483  0.8338123413295960  0.3994085027689984
  0.2919805517124332  0.9591601689583615  0.3997253997639220
  0.4169792279630194  0.0837119222469374  0.3995852150450768
  0.4176204273013321  0.2092842655881177  0.4001036487476485
  0.4195469641986950  0.3362697093220308  0.4036505182015360
  0.4116606244525610  0.5821621713864088  0.4068201629348016
  0.4154921717188094  0.7075562741308847  0.4005410200413838
  0.4163209315745640  0.8330601389641976  0.3993484793000175
  0.4166800979925085  0.9583810334819874  0.3994495072449676
  0.5417112576487818  0.0828687040266498  0.3995872099038814
  0.5421767147594109  0.2080815733144896  0.3994104514355742
  0.5429383131680569  0.3331275024722115  0.3996690082465221
  0.5454300841553693  0.4576885361528686  0.4023043558151759
  0.5454657889167898  0.5818018961699872  0.4060445634223878
  0.5405294359074587  0.7058856596687945  0.4033625082272340
  0.5408626609196360  0.8318757509957269  0.4003450985417016
  0.5413466568337393  0.9574846321198826  0.3996318681912129
  0.6663514563702788  0.0824854327963469  0.3998553888486912
  0.6667076235468101  0.2077258903330475  0.3996813217678401
  0.6674050121860057  0.3329371954608346  0.3991773724118058
  0.6690805379861997  0.4583648843232591  0.3987736518126229
  0.6699128903017930  0.5839792963418705  0.3994490687437034
  0.6671161639438301  0.7075180133089291  0.4003181646327286
  0.6661196080890699  0.8319042586324570  0.4003446930051830
  0.6661437175040101  0.9572166346243641  0.4000297923227157
  0.7911978919232184  0.0825278527614653  0.3998255204230669
  0.7913436505939890  0.2076681484960372  0.3998490112715209
  0.7917767278878163  0.3329601719460270  0.3997000806140228
  0.7927334867510674  0.4583691695873703  0.3992948387492270
  0.7933872686318348  0.5836557096565027  0.3989174844166642
  0.7929666531545857  0.7089561669767894  0.3991263984570674
  0.7918489870225346  0.8331473684689085  0.3994392207456488
  0.7912390757792339  0.9575562042421031  0.3997158707825339
  0.9162384338817943  0.0829458940804914  0.3995160887175462
  0.9160806982557592  0.2077793069949616  0.3995540646997814
  0.9162153164932563  0.3329788775044061  0.3996140781935947
  0.9166771059079077  0.4582802574996847  0.3997025613100603
  0.9173602612430464  0.5837237359780589  0.3996703595480363
  0.9175196718190767  0.7089976615839064  0.3995451357217607
  0.9173821076980097  0.8339196886711384  0.3995005494274422
  0.9168173496446322  0.9584982511031696  0.3994911910777663
  0.0839654034801425  0.0427010639972880  0.3997803241808889
  0.0833473014348938  0.1671131844525540  0.3995283502538481
  0.0822119780026643  0.2912768446742706  0.3992550537033829
  0.0818119173890559  0.4165405187930187  0.3989541512830400
  0.0824465590989363  0.5418079192790277  0.3992416716772092
  0.0833247534218785  0.6671852203679045  0.3996976707586471
  0.0837800564302540  0.7925145857684079  0.3998987428256242
  0.0839731202136590  0.9177104301842525  0.3998936497517490
  0.2090476256679184  0.0430074382527428  0.4001381221394788
  0.2091350162734324  0.1683783546592061  0.4006180361695050
  0.2080583753788939  0.2926818966017710  0.4008783220971094
  0.2053338449147163  0.4162353255159496  0.4001030832240257
  0.2061292787066125  0.5417973773782201  0.3990103021712983
  0.2077565869657068  0.6672081498091700  0.3991347986030986
  0.2083868436049768  0.7923628095106713  0.3995919514759863
  0.2087698467757035  0.9176462932137142  0.3998680357092144
  0.3337903803794245  0.0426404851899419  0.3997847477899210
  0.3343517240975374  0.1683557647828485  0.4005763647506050
  0.3348452056172864  0.2944716781655595  0.4038138411919814
  0.3297327326121930  0.4183054193614085  0.4071328711212637
  0.3299571305639060  0.5426377229648881  0.4030503932661877
  0.3322849051830006  0.6670585546876669  0.3997190947711187
  0.3329715281120037  0.7920393837117252  0.3992257035127728
  0.3333752234375689  0.9171996625696782  0.3995096325539195
  0.4584074021937996  0.0416899163819160  0.3995095049277135
  0.4588219339074047  0.1670826465693956  0.3995688952832804
  0.4597564824742417  0.2927447631722671  0.4006479468386853
  0.4639036065516748  0.4186497256859570  0.4062931718646733
  0.4558561847376179  0.6642696422488643  0.4035979662368255
  0.4575942267466986  0.7909650063380474  0.3998696005852039
  0.4581475827340716  0.9164125903056104  0.3994238051817328
  0.5831325469413048  0.0409506428930739  0.3996816600099914
  0.5835387028297517  0.1662435379970125  0.3995479826794621
  0.5841319496685301  0.2912363113446710  0.3992396331481007
  0.5860632201350559  0.4162398543685508  0.3995923538043412
  0.5878790325784740  0.5426019900223805  0.4021891440201246
  0.5834428472991383  0.6640930602949072  0.4032559272049319
  0.5821884092001224  0.7892332200602156  0.4011902085656033
  0.5826798563482101  0.9153794744552778  0.3999505801256487
  0.7078697446436655  0.0406839260471771  0.3999201667662873
  0.7080904219743830  0.1659292930827226  0.3998435492998010
  0.7086065078182752  0.2911770604454410  0.3995447072423323
  0.7098379705951647  0.4165393608638613  0.3989428939590577
  0.7108104251335949  0.5418327237701955  0.3987324312334635
  0.7099021102823945  0.6671002427605868  0.3994534477299269
  0.7084485425096069  0.7909631984351614  0.3998572542607006
  0.7077973572383467  0.9154085469018818  0.4000087729010334
  0.8329033154450483  0.0410099119991115  0.3996777003067969
  0.8328966671236562  0.1659744658864168  0.3997737907611503
  0.8331247249027035  0.2912220667384527  0.3997874673248010
  0.8337169387883343  0.4164523928556660  0.3996411973404824
  0.8344638204214788  0.5418373117715636  0.3993031065077522
  0.8345693005081239  0.6672725599239168  0.3991313841624257
  0.8341795312394275  0.7921221294125096  0.3993044843060923
  0.8333808805419826  0.9164983855091383  0.3995252115364852
  0.9584014436625661  0.0417833637624517  0.3994776214026542
  0.9577894536501199  0.1663170916748833  0.3994293197398966
  0.9576436721391128  0.2912201346250652  0.3994298815764238
  0.9578143456380054  0.4164602568521759  0.3995609447878534
  0.9584782355152960  0.5418829848542628  0.3997260684462419
  0.9589160843510233  0.6672142352626566  0.3997479582285126
  0.9590857323364490  0.7924570630883577  0.3996722486187555
  0.9589393630543720  0.9172965651750824  0.3995656150379451
  0.4405259914041861  0.5017818539850866  0.4851154734542536
 
  0.00000000E+00  0.00000000E+00  0.00000000E+00
  0.00000000E+00  0.00000000E+00  0.00000000E+00
  0.00000000E+00  0.00000000E+00  0.00000000E+00
  0.00000000E+00  0.00000000E+00  0.00000000E+00
  0.00000000E+00  0.00000000E+00  0.00000000E+00
  0.00000000E+00  0.00000000E+00  0.00000000E+00
  0.00000000E+00  0.00000000E+00  0.00000000E+00
  0.00000000E+00  0.00000000E+00  0.00000000E+00
  0.00000000E+00  0.00000000E+00  0.00000000E+00
  0.00000000E+00  0.00000000E+00  0.00000000E+00
  0.00000000E+00  0.00000000E+00  0.00000000E+00
  0.00000000E+00  0.00000000E+00  0.00000000E+00
  0.00000000E+00  0.00000000E+00  0.00000000E+00
  0.00000000E+00  0.00000000E+00  0.00000000E+00
  0.00000000E+00  0.00000000E+00  0.00000000E+00
  0.00000000E+00  0.00000000E+00  0.00000000E+00
  0.00000000E+00  0.00000000E+00  0.00000000E+00
  0.00000000E+00  0.00000000E+00  0.00000000E+00
  0.00000000E+00  0.00000000E+00  0.00000000E+00
  0.00000000E+00  0.00000000E+00  0.00000000E+00
  0.00000000E+00  0.00000000E+00  0.00000000E+00
  0.00000000E+00  0.00000000E+00  0.00000000E+00
  0.00000000E+00  0.00000000E+00  0.00000000E+00
  0.00000000E+00  0.00000000E+00  0.00000000E+00
  0.00000000E+00  0.00000000E+00  0.00000000E+00
  0.00000000E+00  0.00000000E+00  0.00000000E+00
  0.00000000E+00  0.00000000E+00  0.00000000E+00
  0.00000000E+00  0.00000000E+00  0.00000000E+00
  0.00000000E+00  0.00000000E+00  0.00000000E+00
  0.00000000E+00  0.00000000E+00  0.00000000E+00
  0.00000000E+00  0.00000000E+00  0.00000000E+00
  0.00000000E+00  0.00000000E+00  0.00000000E+00
  0.00000000E+00  0.00000000E+00  0.00000000E+00
  0.00000000E+00  0.00000000E+00  0.00000000E+00
  0.00000000E+00  0.00000000E+00  0.00000000E+00
  0.00000000E+00  0.00000000E+00  0.00000000E+00
  0.00000000E+00  0.00000000E+00  0.00000000E+00
  0.00000000E+00  0.00000000E+00  0.00000000E+00
  0.00000000E+00  0.00000000E+00  0.00000000E+00
  0.00000000E+00  0.00000000E+00  0.00000000E+00
  0.00000000E+00  0.00000000E+00  0.00000000E+00
  0.00000000E+00  0.00000000E+00  0.00000000E+00
  0.00000000E+00  0.00000000E+00  0.00000000E+00
  0.00000000E+00  0.00000000E+00  0.00000000E+00
  0.00000000E+00  0.00000000E+00  0.00000000E+00
  0.00000000E+00  0.00000000E+00  0.00000000E+00
  0.00000000E+00  0.00000000E+00  0.00000000E+00
  0.00000000E+00  0.00000000E+00  0.00000000E+00
  0.00000000E+00  0.00000000E+00  0.00000000E+00
  0.00000000E+00  0.00000000E+00  0.00000000E+00
  0.00000000E+00  0.00000000E+00  0.00000000E+00
  0.00000000E+00  0.00000000E+00  0.00000000E+00
  0.00000000E+00  0.00000000E+00  0.00000000E+00
  0.00000000E+00  0.00000000E+00  0.00000000E+00
  0.00000000E+00  0.00000000E+00  0.00000000E+00
  0.00000000E+00  0.00000000E+00  0.00000000E+00
  0.00000000E+00  0.00000000E+00  0.00000000E+00
  0.00000000E+00  0.00000000E+00  0.00000000E+00
  0.00000000E+00  0.00000000E+00  0.00000000E+00
  0.00000000E+00  0.00000000E+00  0.00000000E+00
  0.00000000E+00  0.00000000E+00  0.00000000E+00
  0.00000000E+00  0.00000000E+00  0.00000000E+00
  0.00000000E+00  0.00000000E+00  0.00000000E+00
  0.00000000E+00  0.00000000E+00  0.00000000E+00
  0.00000000E+00  0.00000000E+00  0.00000000E+00
  0.00000000E+00  0.00000000E+00  0.00000000E+00
  0.00000000E+00  0.00000000E+00  0.00000000E+00
  0.00000000E+00  0.00000000E+00  0.00000000E+00
  0.00000000E+00  0.00000000E+00  0.00000000E+00
  0.00000000E+00  0.00000000E+00  0.00000000E+00
  0.00000000E+00  0.00000000E+00  0.00000000E+00
  0.00000000E+00  0.00000000E+00  0.00000000E+00
  0.00000000E+00  0.00000000E+00  0.00000000E+00
  0.00000000E+00  0.00000000E+00  0.00000000E+00
  0.00000000E+00  0.00000000E+00  0.00000000E+00
  0.00000000E+00  0.00000000E+00  0.00000000E+00
  0.00000000E+00  0.00000000E+00  0.00000000E+00
  0.00000000E+00  0.00000000E+00  0.00000000E+00
  0.00000000E+00  0.00000000E+00  0.00000000E+00
  0.00000000E+00  0.00000000E+00  0.00000000E+00
  0.00000000E+00  0.00000000E+00  0.00000000E+00
  0.00000000E+00  0.00000000E+00  0.00000000E+00
  0.00000000E+00  0.00000000E+00  0.00000000E+00
  0.00000000E+00  0.00000000E+00  0.00000000E+00
  0.00000000E+00  0.00000000E+00  0.00000000E+00
  0.00000000E+00  0.00000000E+00  0.00000000E+00
  0.00000000E+00  0.00000000E+00  0.00000000E+00
  0.00000000E+00  0.00000000E+00  0.00000000E+00
  0.00000000E+00  0.00000000E+00  0.00000000E+00
  0.00000000E+00  0.00000000E+00  0.00000000E+00
  0.00000000E+00  0.00000000E+00  0.00000000E+00
  0.00000000E+00  0.00000000E+00  0.00000000E+00
  0.00000000E+00  0.00000000E+00  0.00000000E+00
  0.00000000E+00  0.00000000E+00  0.00000000E+00
  0.00000000E+00  0.00000000E+00  0.00000000E+00
  0.00000000E+00  0.00000000E+00  0.00000000E+00
  0.00000000E+00  0.00000000E+00  0.00000000E+00
  0.00000000E+00  0.00000000E+00  0.00000000E+00
  0.00000000E+00  0.00000000E+00  0.00000000E+00
  0.00000000E+00  0.00000000E+00  0.00000000E+00
  0.00000000E+00  0.00000000E+00  0.00000000E+00
  0.00000000E+00  0.00000000E+00  0.00000000E+00
  0.00000000E+00  0.00000000E+00  0.00000000E+00
  0.00000000E+00  0.00000000E+00  0.00000000E+00
  0.00000000E+00  0.00000000E+00  0.00000000E+00
  0.00000000E+00  0.00000000E+00  0.00000000E+00
  0.00000000E+00  0.00000000E+00  0.00000000E+00
  0.00000000E+00  0.00000000E+00  0.00000000E+00
  0.00000000E+00  0.00000000E+00  0.00000000E+00
  0.00000000E+00  0.00000000E+00  0.00000000E+00
  0.00000000E+00  0.00000000E+00  0.00000000E+00
  0.00000000E+00  0.00000000E+00  0.00000000E+00
  0.00000000E+00  0.00000000E+00  0.00000000E+00
  0.00000000E+00  0.00000000E+00  0.00000000E+00
  0.00000000E+00  0.00000000E+00  0.00000000E+00
  0.00000000E+00  0.00000000E+00  0.00000000E+00
  0.00000000E+00  0.00000000E+00  0.00000000E+00
  0.00000000E+00  0.00000000E+00  0.00000000E+00
  0.00000000E+00  0.00000000E+00  0.00000000E+00
  0.00000000E+00  0.00000000E+00  0.00000000E+00
  0.00000000E+00  0.00000000E+00  0.00000000E+00
  0.00000000E+00  0.00000000E+00  0.00000000E+00
  0.00000000E+00  0.00000000E+00  0.00000000E+00
  0.00000000E+00  0.00000000E+00  0.00000000E+00
  0.00000000E+00  0.00000000E+00  0.00000000E+00
  0.00000000E+00  0.00000000E+00  0.00000000E+00
  0.00000000E+00  0.00000000E+00  0.00000000E+00
  0.00000000E+00  0.00000000E+00  0.00000000E+00
