H1 W1 C124 N2 O2                        
   1.00000000000000     
    19.7838560214391705   -0.0309829251838258   -0.4173683873961856
    -9.9224816226450265   17.0399969724848930   -0.4773485439836930
    -0.6279494336818581   -1.1980136024795762   29.9372930391833343
   H    W    C    N    O 
     1     1   124     2     2
Direct
  0.4834486671213161  0.4803947482931580  0.5194262091990820
  0.4461049122036743  0.5073188539751218  0.4453552798283478
  0.0432044828578105  0.0852168875842772  0.4007481416895617
  0.0426715293583370  0.2094849361499949  0.4003399577745270
  0.0417661369195566  0.3337031803479134  0.3985583626540050
  0.0412040538284531  0.4586067376598704  0.3968474632025367
  0.0414759009742774  0.5838856252276670  0.3965603195029779
  0.0420036713041810  0.7092927753248558  0.3974177508166256
  0.0425468249361606  0.8347998902095948  0.3989798796453291
  0.0429777218739242  0.9602049011068017  0.4002286569050614
  0.1690297297672920  0.0865625573996614  0.4020256379196139
  0.1695484811841109  0.2119619026909232  0.4028546710202396
  0.1678660346493741  0.3355406402205592  0.4019985658149932
  0.1656150375341499  0.4592572619632632  0.3981371247015051
  0.1657293148831429  0.5840403991400021  0.3968087791412563
  0.1665497328892561  0.7093470204326106  0.3972420881303684
  0.1673193384396887  0.8348457796036249  0.3986365654845139
  0.1680125347135199  0.9605559430255224  0.4003773246533022
  0.2934405943032381  0.0860534060517452  0.4015936828142512
  0.2957770906148837  0.2137844592310997  0.4046709985321029
  0.2966469219375588  0.3408028724210911  0.4089890114959902
  0.2907484057808480  0.4616376696476678  0.4057185636536331
  0.2900180513788626  0.5850257278149738  0.3992331550056859
  0.2911115487705017  0.7094373731953934  0.3980796688969798
  0.2919912403853686  0.8345183596525418  0.3985853960904751
  0.2925849040473454  0.9600166439856248  0.3998388405580839
  0.4177370503648047  0.0843616010976325  0.4002176811547131
  0.4185991783996186  0.2101529133516420  0.4014423184150491
  0.4226217863648061  0.3384568375250488  0.4053630759557117
  0.4157399097311102  0.7076133864896537  0.4013449195668453
  0.4167054446429158  0.8332272820771878  0.3996664350210184
  0.4171716361311837  0.9587710246458382  0.3995785427648156
  0.5422136237117697  0.0830355324570274  0.3994595040013102
  0.5427086049387778  0.2081795369536567  0.3991320105878315
  0.5437515921721835  0.3330895510052008  0.3993318437698230
  0.5448660146859396  0.4565847638228174  0.4028882877594455
  0.5459377651079018  0.5821975633768681  0.4133938405899947
  0.5399426772405485  0.7051104214000653  0.4067873139307279
  0.5413378787988392  0.8319279687918274  0.4017329684674959
  0.5418644403569702  0.9576347113080549  0.3999750115000789
  0.6668720220847156  0.0826100066527408  0.3993707628682120
  0.6672707567326577  0.2078311963001278  0.3984489364114142
  0.6678161445598526  0.3328694490106162  0.3974025475754018
  0.6687533229602353  0.4581168196653251  0.3973822514996221
  0.6684534820244465  0.5828528322881883  0.4004756310334571
  0.6663330283810390  0.7069718132931631  0.4030873577384013
  0.6658186041691148  0.8316188284596130  0.4022558677255576
  0.6665681373243122  0.9573308610110641  0.4005243196679151
  0.7917815327998016  0.0827527053868672  0.3994949707372881
  0.7919792127539839  0.2078492424466372  0.3985196616086848
  0.7922946081714930  0.3330213242785089  0.3973565774920882
  0.7926398147196861  0.4581871374019813  0.3965071590017107
  0.7927564274982859  0.5834152989094289  0.3969921051978905
  0.7922414889982627  0.7084379670088676  0.3992490240022410
  0.7915743102061384  0.8329134290896756  0.4002184969940452
  0.7914444995170715  0.9576096394225022  0.4001853000147292
  0.9171135704528498  0.0835489918251212  0.3998102992141656
  0.9169951258932539  0.2082726307745929  0.3989657266473006
  0.9168320234415581  0.3331977052000253  0.3976417043118269
  0.9168935153901291  0.4583635605232496  0.3967253196526930
  0.9172075704580377  0.5837480696890287  0.3966793085567328
  0.9173173902487305  0.7090721861050916  0.3978051720528435
  0.9173649890620030  0.8341646264123361  0.3992612839048926
  0.9172853102636304  0.9589649273612878  0.3999641390964802
  0.0852060317296074  0.0440554599090108  0.4010081992686717
  0.0853655920949786  0.1689795168122880  0.4011874629181302
  0.0841056150412288  0.2928614357305451  0.4001727504776113
  0.0827134081061864  0.4171185705238594  0.3975623841809574
  0.0826663545402939  0.5420948512847484  0.3965349523851705
  0.0832790669190408  0.6674950158062883  0.3969547793273946
  0.0839709361164900  0.7930286484675609  0.3983077649709393
  0.0845273768016718  0.9185548011260255  0.3999239711657885
  0.2100726476868866  0.0443062354380673  0.4014983456297909
  0.2115652055936260  0.1707230060432404  0.4034755073457370
  0.2116952375251191  0.2961028787175888  0.4042750243404625
  0.2078044807404575  0.4186993420365546  0.4010812232910491
  0.2068473107297389  0.5424917205407057  0.3976624658369093
  0.2078073053960919  0.6676383148702099  0.3971577799067803
  0.2086388772456060  0.7929575834497645  0.3980510438729432
  0.2093075437433451  0.9185368621367855  0.3996466090896436
  0.3344992425176597  0.0436251684891521  0.4005738834671367
  0.3356779922310234  0.1699546392287644  0.4026577495700646
  0.3386294206133112  0.2984268048710423  0.4075072450451669
  0.3348816347182534  0.4249043511029434  0.4140772416107123
  0.3320927891756570  0.5453736997864187  0.4032357376542607
  0.3324701452969939  0.6678802758976099  0.3992529837823520
  0.3333495526098457  0.7926665190237423  0.3986934620661635
  0.3339149344717164  0.9179626877593723  0.3993064245722468
  0.4590181926060337  0.0421788282686667  0.3997545613168818
  0.4596310352164737  0.1677139541888728  0.4001943519877800
  0.4610923313338842  0.2935559329731491  0.4015926829216505
  0.4551903622716504  0.6634956246801340  0.4051342276714308
  0.4581022239591449  0.7910721305807568  0.4008602902582626
  0.4585464570164426  0.9166501525021968  0.3997215108076232
  0.5836347733784983  0.0411197857154254  0.3995721023715043
  0.5840520570669784  0.1663401281143251  0.3989826528741509
  0.5847715775144733  0.2912452968320992  0.3983639522813698
  0.5860613445664432  0.4160413016444918  0.3990530537951170
  0.5864837273334886  0.5412950430172185  0.4050925246637613
  0.5831362093720911  0.6641770787887971  0.4081072743656542
  0.5818734752805796  0.7888173421847855  0.4035903179389420
  0.5832114330586713  0.9155293609175040  0.4006783479481177
  0.7083479761482837  0.0408100816334226  0.3997369098229139
  0.7087017353204021  0.1660790525047182  0.3987659995061097
  0.7091252573428254  0.2912451125287836  0.3976705346730007
  0.7096616919736165  0.4163356143735774  0.3967745075776632
  0.7099372801943666  0.5414477325259723  0.3976281896768999
  0.7089832128623234  0.6663182555394098  0.4010263718160469
  0.7079741737332054  0.7905472696529418  0.4016457591597558
  0.7078514673290510  0.9153304309077676  0.4009231268488080
  0.8334662952573254  0.0412651279122545  0.3997418557361240
  0.8336042003988758  0.1662880657115602  0.3989716373754485
  0.8336823127824348  0.2913518881243384  0.3978299962809428
  0.8338934985238515  0.4164644391657399  0.3967862027100992
  0.8341078053780264  0.5417271248228389  0.3965083902720592
  0.8340952319905500  0.6671141413543198  0.3978478221134306
  0.8338360763603740  0.7919536108096559  0.3995280402968150
  0.8335431428508545  0.9165546021317833  0.4000516561551513
  0.9593451465337841  0.0426263885108639  0.4001374444011344
  0.9589796106176937  0.1670946861326991  0.3996332803505124
  0.9585316493672589  0.2917175463161102  0.3983027790927319
  0.9581906272635936  0.4166601286889944  0.3970213940655288
  0.9584493899136605  0.5419837567761300  0.3965786120931624
  0.9587908955386215  0.6673891609839251  0.3972065243344249
  0.9591303848489353  0.7927651623736921  0.3986804166692008
  0.9593179834608838  0.9178513757545300  0.3998047515067298
  0.4117966970295017  0.5833604695394686  0.4068678093865853
  0.4660961680072475  0.4187032237305616  0.4068198082674198
  0.4811395303872770  0.4593583737471506  0.4888744207926688
  0.4291043035499507  0.5570199331119685  0.4894181444188405
 
  0.00000000E+00  0.00000000E+00  0.00000000E+00
  0.00000000E+00  0.00000000E+00  0.00000000E+00
  0.00000000E+00  0.00000000E+00  0.00000000E+00
  0.00000000E+00  0.00000000E+00  0.00000000E+00
  0.00000000E+00  0.00000000E+00  0.00000000E+00
  0.00000000E+00  0.00000000E+00  0.00000000E+00
  0.00000000E+00  0.00000000E+00  0.00000000E+00
  0.00000000E+00  0.00000000E+00  0.00000000E+00
  0.00000000E+00  0.00000000E+00  0.00000000E+00
  0.00000000E+00  0.00000000E+00  0.00000000E+00
  0.00000000E+00  0.00000000E+00  0.00000000E+00
  0.00000000E+00  0.00000000E+00  0.00000000E+00
  0.00000000E+00  0.00000000E+00  0.00000000E+00
  0.00000000E+00  0.00000000E+00  0.00000000E+00
  0.00000000E+00  0.00000000E+00  0.00000000E+00
  0.00000000E+00  0.00000000E+00  0.00000000E+00
  0.00000000E+00  0.00000000E+00  0.00000000E+00
  0.00000000E+00  0.00000000E+00  0.00000000E+00
  0.00000000E+00  0.00000000E+00  0.00000000E+00
  0.00000000E+00  0.00000000E+00  0.00000000E+00
  0.00000000E+00  0.00000000E+00  0.00000000E+00
  0.00000000E+00  0.00000000E+00  0.00000000E+00
  0.00000000E+00  0.00000000E+00  0.00000000E+00
  0.00000000E+00  0.00000000E+00  0.00000000E+00
  0.00000000E+00  0.00000000E+00  0.00000000E+00
  0.00000000E+00  0.00000000E+00  0.00000000E+00
  0.00000000E+00  0.00000000E+00  0.00000000E+00
  0.00000000E+00  0.00000000E+00  0.00000000E+00
  0.00000000E+00  0.00000000E+00  0.00000000E+00
  0.00000000E+00  0.00000000E+00  0.00000000E+00
  0.00000000E+00  0.00000000E+00  0.00000000E+00
  0.00000000E+00  0.00000000E+00  0.00000000E+00
  0.00000000E+00  0.00000000E+00  0.00000000E+00
  0.00000000E+00  0.00000000E+00  0.00000000E+00
  0.00000000E+00  0.00000000E+00  0.00000000E+00
  0.00000000E+00  0.00000000E+00  0.00000000E+00
  0.00000000E+00  0.00000000E+00  0.00000000E+00
  0.00000000E+00  0.00000000E+00  0.00000000E+00
  0.00000000E+00  0.00000000E+00  0.00000000E+00
  0.00000000E+00  0.00000000E+00  0.00000000E+00
  0.00000000E+00  0.00000000E+00  0.00000000E+00
  0.00000000E+00  0.00000000E+00  0.00000000E+00
  0.00000000E+00  0.00000000E+00  0.00000000E+00
  0.00000000E+00  0.00000000E+00  0.00000000E+00
  0.00000000E+00  0.00000000E+00  0.00000000E+00
  0.00000000E+00  0.00000000E+00  0.00000000E+00
  0.00000000E+00  0.00000000E+00  0.00000000E+00
  0.00000000E+00  0.00000000E+00  0.00000000E+00
  0.00000000E+00  0.00000000E+00  0.00000000E+00
  0.00000000E+00  0.00000000E+00  0.00000000E+00
  0.00000000E+00  0.00000000E+00  0.00000000E+00
  0.00000000E+00  0.00000000E+00  0.00000000E+00
  0.00000000E+00  0.00000000E+00  0.00000000E+00
  0.00000000E+00  0.00000000E+00  0.00000000E+00
  0.00000000E+00  0.00000000E+00  0.00000000E+00
  0.00000000E+00  0.00000000E+00  0.00000000E+00
  0.00000000E+00  0.00000000E+00  0.00000000E+00
  0.00000000E+00  0.00000000E+00  0.00000000E+00
  0.00000000E+00  0.00000000E+00  0.00000000E+00
  0.00000000E+00  0.00000000E+00  0.00000000E+00
  0.00000000E+00  0.00000000E+00  0.00000000E+00
  0.00000000E+00  0.00000000E+00  0.00000000E+00
  0.00000000E+00  0.00000000E+00  0.00000000E+00
  0.00000000E+00  0.00000000E+00  0.00000000E+00
  0.00000000E+00  0.00000000E+00  0.00000000E+00
  0.00000000E+00  0.00000000E+00  0.00000000E+00
  0.00000000E+00  0.00000000E+00  0.00000000E+00
  0.00000000E+00  0.00000000E+00  0.00000000E+00
  0.00000000E+00  0.00000000E+00  0.00000000E+00
  0.00000000E+00  0.00000000E+00  0.00000000E+00
  0.00000000E+00  0.00000000E+00  0.00000000E+00
  0.00000000E+00  0.00000000E+00  0.00000000E+00
  0.00000000E+00  0.00000000E+00  0.00000000E+00
  0.00000000E+00  0.00000000E+00  0.00000000E+00
  0.00000000E+00  0.00000000E+00  0.00000000E+00
  0.00000000E+00  0.00000000E+00  0.00000000E+00
  0.00000000E+00  0.00000000E+00  0.00000000E+00
  0.00000000E+00  0.00000000E+00  0.00000000E+00
  0.00000000E+00  0.00000000E+00  0.00000000E+00
  0.00000000E+00  0.00000000E+00  0.00000000E+00
  0.00000000E+00  0.00000000E+00  0.00000000E+00
  0.00000000E+00  0.00000000E+00  0.00000000E+00
  0.00000000E+00  0.00000000E+00  0.00000000E+00
  0.00000000E+00  0.00000000E+00  0.00000000E+00
  0.00000000E+00  0.00000000E+00  0.00000000E+00
  0.00000000E+00  0.00000000E+00  0.00000000E+00
  0.00000000E+00  0.00000000E+00  0.00000000E+00
  0.00000000E+00  0.00000000E+00  0.00000000E+00
  0.00000000E+00  0.00000000E+00  0.00000000E+00
  0.00000000E+00  0.00000000E+00  0.00000000E+00
  0.00000000E+00  0.00000000E+00  0.00000000E+00
  0.00000000E+00  0.00000000E+00  0.00000000E+00
  0.00000000E+00  0.00000000E+00  0.00000000E+00
  0.00000000E+00  0.00000000E+00  0.00000000E+00
  0.00000000E+00  0.00000000E+00  0.00000000E+00
  0.00000000E+00  0.00000000E+00  0.00000000E+00
  0.00000000E+00  0.00000000E+00  0.00000000E+00
  0.00000000E+00  0.00000000E+00  0.00000000E+00
  0.00000000E+00  0.00000000E+00  0.00000000E+00
  0.00000000E+00  0.00000000E+00  0.00000000E+00
  0.00000000E+00  0.00000000E+00  0.00000000E+00
  0.00000000E+00  0.00000000E+00  0.00000000E+00
  0.00000000E+00  0.00000000E+00  0.00000000E+00
  0.00000000E+00  0.00000000E+00  0.00000000E+00
  0.00000000E+00  0.00000000E+00  0.00000000E+00
  0.00000000E+00  0.00000000E+00  0.00000000E+00
  0.00000000E+00  0.00000000E+00  0.00000000E+00
  0.00000000E+00  0.00000000E+00  0.00000000E+00
  0.00000000E+00  0.00000000E+00  0.00000000E+00
  0.00000000E+00  0.00000000E+00  0.00000000E+00
  0.00000000E+00  0.00000000E+00  0.00000000E+00
  0.00000000E+00  0.00000000E+00  0.00000000E+00
  0.00000000E+00  0.00000000E+00  0.00000000E+00
  0.00000000E+00  0.00000000E+00  0.00000000E+00
  0.00000000E+00  0.00000000E+00  0.00000000E+00
  0.00000000E+00  0.00000000E+00  0.00000000E+00
  0.00000000E+00  0.00000000E+00  0.00000000E+00
  0.00000000E+00  0.00000000E+00  0.00000000E+00
  0.00000000E+00  0.00000000E+00  0.00000000E+00
  0.00000000E+00  0.00000000E+00  0.00000000E+00
  0.00000000E+00  0.00000000E+00  0.00000000E+00
  0.00000000E+00  0.00000000E+00  0.00000000E+00
  0.00000000E+00  0.00000000E+00  0.00000000E+00
  0.00000000E+00  0.00000000E+00  0.00000000E+00
  0.00000000E+00  0.00000000E+00  0.00000000E+00
  0.00000000E+00  0.00000000E+00  0.00000000E+00
  0.00000000E+00  0.00000000E+00  0.00000000E+00
  0.00000000E+00  0.00000000E+00  0.00000000E+00
  0.00000000E+00  0.00000000E+00  0.00000000E+00
  0.00000000E+00  0.00000000E+00  0.00000000E+00
