Co1 C123 N3                             
   1.00000000000000     
    19.8078203106738222    0.0008115413501465    0.0260159584301356
    -9.9030297660071671   17.0198765667284064   -0.0372288536457403
     0.0389917297018433   -0.0418918008368182   29.8469708620624701
   Co   C    N 
     1   123     3
Direct
  0.4361567563443161  0.4978525150368268  0.4059903431863484
  0.0421019104521763  0.0843359518457141  0.3999915818768654
  0.0410691363352767  0.2083028125497644  0.4001066383358733
  0.0403609991850461  0.3328804001369137  0.3999079777715679
  0.0406613204416713  0.4581624999288135  0.3995223473037424
  0.0414458120978764  0.5836699668360429  0.3994012117706900
  0.0421710585446977  0.7090961696087479  0.3994957768266557
  0.0424642582158487  0.8345444753263379  0.3995991070003070
  0.0424815555074539  0.9596812949412481  0.3997661760323811
  0.1679474201070757  0.0859129602632679  0.4004051830596204
  0.1678527781192116  0.2109649987848438  0.4011501548926819
  0.1653474005857950  0.3338570390379166  0.4012706377164721
  0.1644639092927611  0.4583566530876537  0.4006128973827915
  0.1651954802380706  0.5834847453933407  0.3998400639639941
  0.1664637293000064  0.7089493274599534  0.3995421444048433
  0.1671557267162402  0.8345049117028979  0.3996344205666336
  0.1675877928660259  0.9601869897817191  0.3998567996448485
  0.2927762118810719  0.0860024214798217  0.4004177849418538
  0.2936689851685998  0.2132060755776040  0.4017517033924051
  0.2935032809025387  0.3399215953611802  0.4031390775070648
  0.2881778855580325  0.4580642062035398  0.4029556441075389
  0.2885259641356770  0.5830121016982585  0.4014636781412637
  0.2906829291606547  0.7084449819757259  0.4001124245165077
  0.2916603507256667  0.8339021573604681  0.3996555589412893
  0.2921601159713441  0.9597103519096559  0.3997794252349150
  0.4170921136943557  0.0842759993048153  0.3999979340085484
  0.4178957500846659  0.2107814919629205  0.4011143544956537
  0.4199786235882610  0.3387500387674495  0.4031728722616477
  0.4144827503373813  0.7056029886955609  0.4016170715984774
  0.4160540927658699  0.8320985542026551  0.4001987562903304
  0.4166498619859031  0.9582234616289257  0.3997019293511788
  0.5415105034121034  0.0825922841735237  0.3997252131144714
  0.5421024563001602  0.2083347835660271  0.4000865398806682
  0.5433413180398456  0.3340238867557698  0.4012993570800101
  0.5464327788721575  0.4591507022854973  0.4032612845411285
  0.5378404987896800  0.7007931574293796  0.4028217771471312
  0.5401750783795727  0.8296862399212287  0.4010548686434652
  0.5410413258459897  0.9564469149439840  0.4000352278678903
  0.6660009137340197  0.0818075710225311  0.3997858656010122
  0.6665548463500310  0.2074068570883265  0.3996255875085662
  0.6675065858455783  0.3329040198391651  0.3998756429543618
  0.6694490514871199  0.4584206170036449  0.4006977023818654
  0.6702861478216395  0.5837292743072883  0.4016830818033952
  0.6657084934519882  0.7053067269324397  0.4019037604084418
  0.6643724594439918  0.8296329184171465  0.4011633995778628
  0.6654315685429784  0.9559327443040606  0.4002739682213702
  0.7906931762879368  0.0817942763747261  0.3997900891265435
  0.7910802556284149  0.2072299405645801  0.3996095354388153
  0.7917237654230026  0.3326784182118208  0.3994767875408471
  0.7929044259309418  0.4582237376431321  0.3995182299248587
  0.7936979811864383  0.5836276920673183  0.3998814041927849
  0.7930630953950655  0.7086941292896496  0.4002771806610554
  0.7909073788580143  0.8319986580962542  0.4003736742080639
  0.7902681107721937  0.9564001326439985  0.4000914495411679
  0.9159233777134366  0.0825317055873354  0.3997133245624820
  0.9157684180579496  0.2073909062900632  0.3996388067277521
  0.9159943102098418  0.3326947947762311  0.3995027352368857
  0.9167246502169197  0.4581687383896757  0.3993696768080011
  0.9175405858743441  0.5837063398843256  0.3993934224141946
  0.9177444770283699  0.7090469931857460  0.3995502834223780
  0.9173454278145042  0.8339987900311182  0.3996986770315256
  0.9164720153763537  0.9582126105764667  0.3997302742338048
  0.0843657046099107  0.0434022801173302  0.4000361662852428
  0.0840242923928092  0.1680603258123458  0.4003694062002376
  0.0823013877376582  0.2916447560587563  0.4003419535133466
  0.0817671176724850  0.4163660396298905  0.3999120966816413
  0.0823853401729135  0.5417371277493167  0.3995108197644859
  0.0833684124040093  0.6672244540433263  0.3994818339677778
  0.0839548084672922  0.7927422508571729  0.3995926217731365
  0.0842436507436230  0.9182043575916884  0.3997283101945364
  0.2094500494199318  0.0439831331723019  0.4002195759496628
  0.2099385043989156  0.1699004848473456  0.4010943789367271
  0.2094449772550991  0.2949689552533269  0.4019090472107166
  0.2061272846615397  0.4170102690109092  0.4016110508491456
  0.2057247116926464  0.5413627400742470  0.4005639243201112
  0.2075383120243969  0.6670228591579581  0.3997524237623272
  0.2084792022365915  0.7925480590238431  0.3996013788108045
  0.2089630975326848  0.9181935829470113  0.3997387471785213
  0.3339221173346892  0.0434619254055128  0.4000522345507767
  0.3346926632808010  0.1701025619247245  0.4010930497618400
  0.3360881038107728  0.2977429704987607  0.4029878020259756
  0.3298692567952507  0.5423158568118204  0.4028521488655407
  0.3315046019335046  0.6662392217448453  0.4010366571954112
  0.3328837917222470  0.7917387500011249  0.3999223567434056
  0.3334824384873051  0.9174547363050347  0.3996782403916454
  0.4583572974860623  0.0418269120421460  0.3997431885910311
  0.4588913904427797  0.1679210023528328  0.4003455539617513
  0.4600203491698892  0.2946061549946285  0.4018967196885090
  0.4638649176933646  0.4226797362813027  0.4043143119554489
  0.4530893708689583  0.6601602797050176  0.4028447615248679
  0.4570618801244605  0.7893604955651780  0.4009438830880556
  0.4578876092612556  0.9157394567188413  0.3999201615075032
  0.5828047949338824  0.0402922868326316  0.3998086612430650
  0.5833556089087706  0.1661603603885167  0.3997384336012926
  0.5841960017629759  0.2917969885377756  0.4003214333851803
  0.5866155220088041  0.4173126136016246  0.4017367705426330
  0.5884148765902603  0.5425997487237210  0.4032143545154377
  0.5814641979294731  0.6596280301556554  0.4031079605171292
  0.5803316996044561  0.7856998554414479  0.4017479226196142
  0.5821332572173761  0.9137773680107004  0.4004241949015265
  0.7073180318356961  0.0397104098221424  0.3999144012515977
  0.7078905162637616  0.1655204157782110  0.3996570104534620
  0.7085329890506165  0.2910071431642579  0.3995886993430344
  0.7100268458774739  0.4164214633299525  0.3999078544701539
  0.7110815303662305  0.5415856042841802  0.4006793347002296
  0.7101169471537416  0.6666059680779565  0.4012769331402621
  0.7070134202076922  0.7891216262251167  0.4011616317671261
  0.7065464423454800  0.9137444846136075  0.4004726259170785
  0.8323431803723874  0.0402247155844842  0.3998168543571425
  0.8325154285556904  0.1654874486050082  0.3996465899159738
  0.8329120821715408  0.2908212465926535  0.3995107325593399
  0.8338148101995235  0.4162730718361495  0.3994130997900867
  0.8347122095429760  0.5417965693195315  0.3995112903233374
  0.8347634264990342  0.6671408652591591  0.3998330875483302
  0.8339848236694152  0.7918719882515104  0.4000491787770926
  0.8327314697001570  0.9156533010549596  0.4000256263722637
  0.9583584708451647  0.0418187109743809  0.3997339834790847
  0.9576403657561137  0.1660701304906376  0.3997394400022014
  0.9574220260994615  0.2910020486494558  0.3996149835062928
  0.9577158576317769  0.4162524172404329  0.3994242773468878
  0.9585482588081252  0.5418037747788503  0.3993600638455134
  0.9591231361733029  0.6672833114427843  0.3994452719940653
  0.9592319432797322  0.7926307332413798  0.3995775357712708
  0.9589672786601701  0.9174793451176764  0.3996870848606939
  0.4091746590317787  0.5799475410711785  0.4036241958109312
  0.5449075287111421  0.5789346262249194  0.4041258248581725
  0.3322482820017968  0.4215013521257426  0.4039253469345007
 
  0.00000000E+00  0.00000000E+00  0.00000000E+00
  0.00000000E+00  0.00000000E+00  0.00000000E+00
  0.00000000E+00  0.00000000E+00  0.00000000E+00
  0.00000000E+00  0.00000000E+00  0.00000000E+00
  0.00000000E+00  0.00000000E+00  0.00000000E+00
  0.00000000E+00  0.00000000E+00  0.00000000E+00
  0.00000000E+00  0.00000000E+00  0.00000000E+00
  0.00000000E+00  0.00000000E+00  0.00000000E+00
  0.00000000E+00  0.00000000E+00  0.00000000E+00
  0.00000000E+00  0.00000000E+00  0.00000000E+00
  0.00000000E+00  0.00000000E+00  0.00000000E+00
  0.00000000E+00  0.00000000E+00  0.00000000E+00
  0.00000000E+00  0.00000000E+00  0.00000000E+00
  0.00000000E+00  0.00000000E+00  0.00000000E+00
  0.00000000E+00  0.00000000E+00  0.00000000E+00
  0.00000000E+00  0.00000000E+00  0.00000000E+00
  0.00000000E+00  0.00000000E+00  0.00000000E+00
  0.00000000E+00  0.00000000E+00  0.00000000E+00
  0.00000000E+00  0.00000000E+00  0.00000000E+00
  0.00000000E+00  0.00000000E+00  0.00000000E+00
  0.00000000E+00  0.00000000E+00  0.00000000E+00
  0.00000000E+00  0.00000000E+00  0.00000000E+00
  0.00000000E+00  0.00000000E+00  0.00000000E+00
  0.00000000E+00  0.00000000E+00  0.00000000E+00
  0.00000000E+00  0.00000000E+00  0.00000000E+00
  0.00000000E+00  0.00000000E+00  0.00000000E+00
  0.00000000E+00  0.00000000E+00  0.00000000E+00
  0.00000000E+00  0.00000000E+00  0.00000000E+00
  0.00000000E+00  0.00000000E+00  0.00000000E+00
  0.00000000E+00  0.00000000E+00  0.00000000E+00
  0.00000000E+00  0.00000000E+00  0.00000000E+00
  0.00000000E+00  0.00000000E+00  0.00000000E+00
  0.00000000E+00  0.00000000E+00  0.00000000E+00
  0.00000000E+00  0.00000000E+00  0.00000000E+00
  0.00000000E+00  0.00000000E+00  0.00000000E+00
  0.00000000E+00  0.00000000E+00  0.00000000E+00
  0.00000000E+00  0.00000000E+00  0.00000000E+00
  0.00000000E+00  0.00000000E+00  0.00000000E+00
  0.00000000E+00  0.00000000E+00  0.00000000E+00
  0.00000000E+00  0.00000000E+00  0.00000000E+00
  0.00000000E+00  0.00000000E+00  0.00000000E+00
  0.00000000E+00  0.00000000E+00  0.00000000E+00
  0.00000000E+00  0.00000000E+00  0.00000000E+00
  0.00000000E+00  0.00000000E+00  0.00000000E+00
  0.00000000E+00  0.00000000E+00  0.00000000E+00
  0.00000000E+00  0.00000000E+00  0.00000000E+00
  0.00000000E+00  0.00000000E+00  0.00000000E+00
  0.00000000E+00  0.00000000E+00  0.00000000E+00
  0.00000000E+00  0.00000000E+00  0.00000000E+00
  0.00000000E+00  0.00000000E+00  0.00000000E+00
  0.00000000E+00  0.00000000E+00  0.00000000E+00
  0.00000000E+00  0.00000000E+00  0.00000000E+00
  0.00000000E+00  0.00000000E+00  0.00000000E+00
  0.00000000E+00  0.00000000E+00  0.00000000E+00
  0.00000000E+00  0.00000000E+00  0.00000000E+00
  0.00000000E+00  0.00000000E+00  0.00000000E+00
  0.00000000E+00  0.00000000E+00  0.00000000E+00
  0.00000000E+00  0.00000000E+00  0.00000000E+00
  0.00000000E+00  0.00000000E+00  0.00000000E+00
  0.00000000E+00  0.00000000E+00  0.00000000E+00
  0.00000000E+00  0.00000000E+00  0.00000000E+00
  0.00000000E+00  0.00000000E+00  0.00000000E+00
  0.00000000E+00  0.00000000E+00  0.00000000E+00
  0.00000000E+00  0.00000000E+00  0.00000000E+00
  0.00000000E+00  0.00000000E+00  0.00000000E+00
  0.00000000E+00  0.00000000E+00  0.00000000E+00
  0.00000000E+00  0.00000000E+00  0.00000000E+00
  0.00000000E+00  0.00000000E+00  0.00000000E+00
  0.00000000E+00  0.00000000E+00  0.00000000E+00
  0.00000000E+00  0.00000000E+00  0.00000000E+00
  0.00000000E+00  0.00000000E+00  0.00000000E+00
  0.00000000E+00  0.00000000E+00  0.00000000E+00
  0.00000000E+00  0.00000000E+00  0.00000000E+00
  0.00000000E+00  0.00000000E+00  0.00000000E+00
  0.00000000E+00  0.00000000E+00  0.00000000E+00
  0.00000000E+00  0.00000000E+00  0.00000000E+00
  0.00000000E+00  0.00000000E+00  0.00000000E+00
  0.00000000E+00  0.00000000E+00  0.00000000E+00
  0.00000000E+00  0.00000000E+00  0.00000000E+00
  0.00000000E+00  0.00000000E+00  0.00000000E+00
  0.00000000E+00  0.00000000E+00  0.00000000E+00
  0.00000000E+00  0.00000000E+00  0.00000000E+00
  0.00000000E+00  0.00000000E+00  0.00000000E+00
  0.00000000E+00  0.00000000E+00  0.00000000E+00
  0.00000000E+00  0.00000000E+00  0.00000000E+00
  0.00000000E+00  0.00000000E+00  0.00000000E+00
  0.00000000E+00  0.00000000E+00  0.00000000E+00
  0.00000000E+00  0.00000000E+00  0.00000000E+00
  0.00000000E+00  0.00000000E+00  0.00000000E+00
  0.00000000E+00  0.00000000E+00  0.00000000E+00
  0.00000000E+00  0.00000000E+00  0.00000000E+00
  0.00000000E+00  0.00000000E+00  0.00000000E+00
  0.00000000E+00  0.00000000E+00  0.00000000E+00
  0.00000000E+00  0.00000000E+00  0.00000000E+00
  0.00000000E+00  0.00000000E+00  0.00000000E+00
  0.00000000E+00  0.00000000E+00  0.00000000E+00
  0.00000000E+00  0.00000000E+00  0.00000000E+00
  0.00000000E+00  0.00000000E+00  0.00000000E+00
  0.00000000E+00  0.00000000E+00  0.00000000E+00
  0.00000000E+00  0.00000000E+00  0.00000000E+00
  0.00000000E+00  0.00000000E+00  0.00000000E+00
  0.00000000E+00  0.00000000E+00  0.00000000E+00
  0.00000000E+00  0.00000000E+00  0.00000000E+00
  0.00000000E+00  0.00000000E+00  0.00000000E+00
  0.00000000E+00  0.00000000E+00  0.00000000E+00
  0.00000000E+00  0.00000000E+00  0.00000000E+00
  0.00000000E+00  0.00000000E+00  0.00000000E+00
  0.00000000E+00  0.00000000E+00  0.00000000E+00
  0.00000000E+00  0.00000000E+00  0.00000000E+00
  0.00000000E+00  0.00000000E+00  0.00000000E+00
  0.00000000E+00  0.00000000E+00  0.00000000E+00
  0.00000000E+00  0.00000000E+00  0.00000000E+00
  0.00000000E+00  0.00000000E+00  0.00000000E+00
  0.00000000E+00  0.00000000E+00  0.00000000E+00
  0.00000000E+00  0.00000000E+00  0.00000000E+00
  0.00000000E+00  0.00000000E+00  0.00000000E+00
  0.00000000E+00  0.00000000E+00  0.00000000E+00
  0.00000000E+00  0.00000000E+00  0.00000000E+00
  0.00000000E+00  0.00000000E+00  0.00000000E+00
  0.00000000E+00  0.00000000E+00  0.00000000E+00
  0.00000000E+00  0.00000000E+00  0.00000000E+00
  0.00000000E+00  0.00000000E+00  0.00000000E+00
  0.00000000E+00  0.00000000E+00  0.00000000E+00
  0.00000000E+00  0.00000000E+00  0.00000000E+00
  0.00000000E+00  0.00000000E+00  0.00000000E+00
  0.00000000E+00  0.00000000E+00  0.00000000E+00
  0.00000000E+00  0.00000000E+00  0.00000000E+00
