Ag1 H1 C125 N1 O2                       
   1.00000000000000     
    19.8664527532892841   -0.0028946532968937    0.0871562598573698
    -9.9358087402913497   17.0691640256987789   -0.0303884639974553
     0.1300804743699864    0.0230659044019703   29.6766535007516090
   Ag   H    C    N    O 
     1     1   125     1     2
Direct
  0.4370149390750755  0.4993823758992130  0.4076676655925732
  0.5344531580474592  0.5482115842527475  0.5075128579474281
  0.0414654086113391  0.0837511393527699  0.3999072231267290
  0.0402703149634757  0.2077825677418346  0.3999026107456408
  0.0396195322241313  0.3324900080916378  0.3995066772392208
  0.0398676911542092  0.4581838088078277  0.3990155988585985
  0.0411379343388839  0.5838969004507633  0.3985570017768685
  0.0422059943955900  0.7094168382316061  0.3984873596375799
  0.0426344843921779  0.8347954296832329  0.3989078760335676
  0.0425002868235762  0.9596916585735653  0.3994923911058231
  0.1675633710878049  0.0854133009544827  0.4002665692431706
  0.1661227645809283  0.2091956897531030  0.4007899249897092
  0.1642779210346807  0.3333062724521537  0.4006034169851988
  0.1627789751880930  0.4582384476176335  0.4000446023761240
  0.1643021970235879  0.5838332107222372  0.3995415402672509
  0.1660832163501965  0.7094184229669174  0.3990330100903041
  0.1670689194428815  0.8348519004279835  0.3989410028287573
  0.1675782231726772  0.9602479545793908  0.3994414355456044
  0.2926835777939626  0.0854680269178472  0.4004795103343367
  0.2933619426565883  0.2118636354611398  0.4018418379473327
  0.2905646295853693  0.3358039806997677  0.4026578073117830
  0.2857883468475427  0.4584460855617349  0.4018719503371731
  0.2870677059888380  0.5845393110839270  0.4008855533126650
  0.2899795278768337  0.7094015042021671  0.4001213495143909
  0.2913581680833798  0.8344128560010972  0.3995899257794283
  0.2920361774494825  0.9597547646736750  0.3996350852437179
  0.4171191258850488  0.0838793213665573  0.4002306609041819
  0.4178598337619880  0.2094101688787078  0.4015907634508016
  0.4199745342932123  0.3364266131558422  0.4042017181781006
  0.4140203513356127  0.7074912289569777  0.4015398350086058
  0.4156977260513941  0.8330101031115946  0.4003210110587165
  0.4164765160207131  0.9584286935349121  0.3998463359275202
  0.5415350198994398  0.0823295884494216  0.3997223089996774
  0.5423857927827795  0.2076347343672329  0.4004774387779235
  0.5438125698460741  0.3327403394305495  0.4023560036308704
  0.5484082214870281  0.4576874695300108  0.4057370643098634
  0.5493940499145964  0.5817071948247829  0.4079222252506197
  0.5383252826276429  0.7030549950678409  0.4035717539126836
  0.5399695718393123  0.8307018142736876  0.4010264686207941
  0.5409271743697095  0.9567626183437332  0.3999077416543253
  0.6659476206400359  0.0815837193280859  0.3992758088879866
  0.6666826212942656  0.2070172872438783  0.3993354323426984
  0.6678564709329849  0.3323382221963088  0.4002258937209441
  0.6707006913918309  0.4580435751944201  0.4018544304782267
  0.6726928524753371  0.5842169195011957  0.4034989524496348
  0.6676456001003716  0.7071797015027337  0.4029873160562356
  0.6649156020304345  0.8303624409365504  0.4013638474015311
  0.6654174472416293  0.9560996367602665  0.4000020681335558
  0.7905468587437363  0.0815761647979040  0.3992571815485652
  0.7909018347713447  0.2068169073285458  0.3987839504800624
  0.7918412834300289  0.3323672757428857  0.3988144260590195
  0.7934793878369322  0.4581298440430609  0.3993713752936715
  0.7947963345640823  0.5838013224530954  0.4002672526470674
  0.7939982336860545  0.7091757818196316  0.4009067767197526
  0.7918486672069803  0.8328043841117871  0.4006100984399758
  0.7904311243793966  0.9565615305716675  0.3999724366997561
  0.9156346977905724  0.0822901507575924  0.3995889882818634
  0.9153365445102354  0.2070760159137094  0.3991431903713887
  0.9156529996821272  0.3324030431167136  0.3986751082651891
  0.9166196261870726  0.4580509408578916  0.3984610931852997
  0.9179300315851986  0.5838845730873752  0.3986160309138082
  0.9182322725255982  0.7094336390772505  0.3991759340373374
  0.9177731146388554  0.8342360831019291  0.3996296004929112
  0.9166028326825971  0.9582422962649473  0.3997755901869389
  0.0840453718295516  0.0431532405841826  0.3998598505089865
  0.0827089677367049  0.1669957072823780  0.4001713084126087
  0.0812335838004701  0.2911182762676953  0.3999763735162012
  0.0805644527690741  0.4162082236053842  0.3995093047684812
  0.0816404003491468  0.5418040510065282  0.3989954071599980
  0.0831316412388497  0.6675369930860446  0.3985810350596073
  0.0840111916904506  0.7931280549924822  0.3986886597992317
  0.0842831394067064  0.9183517617438509  0.3992245642830899
  0.2092787026749266  0.0437324193057245  0.4000673180979215
  0.2091525987946829  0.1690153199361022  0.4009636041572077
  0.2069319938508298  0.2925577905714141  0.4012644882648799
  0.2035975198571773  0.4166033773151968  0.4006714277069900
  0.2044927493643376  0.5418424251321106  0.4001098137858726
  0.2069776213717279  0.6675621710213065  0.3995651371258048
  0.2082352725728617  0.7929524598299534  0.3991458546502514
  0.2089670378045944  0.9183726420276069  0.3992827698411606
  0.3339193607119197  0.0431993602865443  0.4001123500412921
  0.3346489897846925  0.1689990427709912  0.4013751811554684
  0.3349718360162509  0.2952878250207079  0.4031216079814436
  0.3260607280694304  0.4175059467229871  0.4032030500106927
  0.3280427871883766  0.5439482746783095  0.4020147018261722
  0.3308107227406413  0.6675195379938730  0.4008517032350138
  0.3325388754281424  0.7925506902391569  0.4000251835636595
  0.3333822447190317  0.9177534872801306  0.3996762637081853
  0.4584468517273246  0.0417227984909816  0.3999089343869003
  0.4591131587531601  0.1671308280020705  0.4007412602713248
  0.4604191153616847  0.2928066911627432  0.4027572944714533
  0.4671299954849341  0.4182387815184323  0.4062985782749724
  0.4530494805135882  0.6630472730003324  0.4029714222598095
  0.4569322267135248  0.7907961258133729  0.4009687185276786
  0.4577488883094392  0.9162481943815300  0.4000023337630612
  0.5828489431186922  0.0402541458605481  0.3995637151209714
  0.5835690847561663  0.1656975058252426  0.3997924193967820
  0.5847869869235144  0.2907855881407219  0.4009544393306153
  0.5880476511461248  0.4157031465526106  0.4033018211169250
  0.5912554758245538  0.5425455933457735  0.4062868063517529
  0.5836299951525816  0.6631691876139512  0.4050177180868874
  0.5804161965330857  0.7870926129504102  0.4019683620538312
  0.5821030481488156  0.9144068110940872  0.4002556901841722
  0.7072670123433474  0.0396442432877275  0.3994172488349172
  0.7078816438629232  0.1651376577678035  0.3990130671288494
  0.7087927470941912  0.2905131107579820  0.3993599367887871
  0.7108104331392485  0.4160959998554715  0.4003787125339746
  0.7127956152542879  0.5418275548480993  0.4018154600598682
  0.7111468377637854  0.6672124490186480  0.4025328457548619
  0.7082790159189782  0.7904529310449356  0.4015625156935009
  0.7067582410039255  0.9141008829353696  0.4003753570062556
  0.8321787628080548  0.0401243807039010  0.3995471622818971
  0.8322369099354282  0.1651371545851744  0.3989719495090808
  0.8328203684453201  0.2905179798329358  0.3986236791623732
  0.8339860448342928  0.4160449630570377  0.3987323246275479
  0.8353643864736315  0.5417650382844703  0.3992998439571533
  0.8354956029412047  0.6675890357031994  0.4000904174684234
  0.8346606047724658  0.7923225273607627  0.4003520256613376
  0.8330826691455102  0.9160392256730242  0.4000656727236164
  0.9579905960571362  0.0415562040062993  0.3997382430203300
  0.9570982121756154  0.1657470287912299  0.3995236827966521
  0.9568132496253364  0.2905793580193898  0.3990556375073166
  0.9572454127097748  0.4160688246487499  0.3986285281623184
  0.9585316328087584  0.5418807976616389  0.3984025144437073
  0.9593896725662899  0.6675700076221233  0.3986397681278187
  0.9595649597997642  0.7929157556477515  0.3991712291253411
  0.9590853222593202  0.9175954958131891  0.3995902144950708
  0.4068128492172051  0.5834047998349979  0.4033349140672924
  0.4912847627169401  0.5028041040341054  0.5233527272723405
  0.4258796174584723  0.4924371125887402  0.5033899525829201
 
  0.00000000E+00  0.00000000E+00  0.00000000E+00
  0.00000000E+00  0.00000000E+00  0.00000000E+00
  0.00000000E+00  0.00000000E+00  0.00000000E+00
  0.00000000E+00  0.00000000E+00  0.00000000E+00
  0.00000000E+00  0.00000000E+00  0.00000000E+00
  0.00000000E+00  0.00000000E+00  0.00000000E+00
  0.00000000E+00  0.00000000E+00  0.00000000E+00
  0.00000000E+00  0.00000000E+00  0.00000000E+00
  0.00000000E+00  0.00000000E+00  0.00000000E+00
  0.00000000E+00  0.00000000E+00  0.00000000E+00
  0.00000000E+00  0.00000000E+00  0.00000000E+00
  0.00000000E+00  0.00000000E+00  0.00000000E+00
  0.00000000E+00  0.00000000E+00  0.00000000E+00
  0.00000000E+00  0.00000000E+00  0.00000000E+00
  0.00000000E+00  0.00000000E+00  0.00000000E+00
  0.00000000E+00  0.00000000E+00  0.00000000E+00
  0.00000000E+00  0.00000000E+00  0.00000000E+00
  0.00000000E+00  0.00000000E+00  0.00000000E+00
  0.00000000E+00  0.00000000E+00  0.00000000E+00
  0.00000000E+00  0.00000000E+00  0.00000000E+00
  0.00000000E+00  0.00000000E+00  0.00000000E+00
  0.00000000E+00  0.00000000E+00  0.00000000E+00
  0.00000000E+00  0.00000000E+00  0.00000000E+00
  0.00000000E+00  0.00000000E+00  0.00000000E+00
  0.00000000E+00  0.00000000E+00  0.00000000E+00
  0.00000000E+00  0.00000000E+00  0.00000000E+00
  0.00000000E+00  0.00000000E+00  0.00000000E+00
  0.00000000E+00  0.00000000E+00  0.00000000E+00
  0.00000000E+00  0.00000000E+00  0.00000000E+00
  0.00000000E+00  0.00000000E+00  0.00000000E+00
  0.00000000E+00  0.00000000E+00  0.00000000E+00
  0.00000000E+00  0.00000000E+00  0.00000000E+00
  0.00000000E+00  0.00000000E+00  0.00000000E+00
  0.00000000E+00  0.00000000E+00  0.00000000E+00
  0.00000000E+00  0.00000000E+00  0.00000000E+00
  0.00000000E+00  0.00000000E+00  0.00000000E+00
  0.00000000E+00  0.00000000E+00  0.00000000E+00
  0.00000000E+00  0.00000000E+00  0.00000000E+00
  0.00000000E+00  0.00000000E+00  0.00000000E+00
  0.00000000E+00  0.00000000E+00  0.00000000E+00
  0.00000000E+00  0.00000000E+00  0.00000000E+00
  0.00000000E+00  0.00000000E+00  0.00000000E+00
  0.00000000E+00  0.00000000E+00  0.00000000E+00
  0.00000000E+00  0.00000000E+00  0.00000000E+00
  0.00000000E+00  0.00000000E+00  0.00000000E+00
  0.00000000E+00  0.00000000E+00  0.00000000E+00
  0.00000000E+00  0.00000000E+00  0.00000000E+00
  0.00000000E+00  0.00000000E+00  0.00000000E+00
  0.00000000E+00  0.00000000E+00  0.00000000E+00
  0.00000000E+00  0.00000000E+00  0.00000000E+00
  0.00000000E+00  0.00000000E+00  0.00000000E+00
  0.00000000E+00  0.00000000E+00  0.00000000E+00
  0.00000000E+00  0.00000000E+00  0.00000000E+00
  0.00000000E+00  0.00000000E+00  0.00000000E+00
  0.00000000E+00  0.00000000E+00  0.00000000E+00
  0.00000000E+00  0.00000000E+00  0.00000000E+00
  0.00000000E+00  0.00000000E+00  0.00000000E+00
  0.00000000E+00  0.00000000E+00  0.00000000E+00
  0.00000000E+00  0.00000000E+00  0.00000000E+00
  0.00000000E+00  0.00000000E+00  0.00000000E+00
  0.00000000E+00  0.00000000E+00  0.00000000E+00
  0.00000000E+00  0.00000000E+00  0.00000000E+00
  0.00000000E+00  0.00000000E+00  0.00000000E+00
  0.00000000E+00  0.00000000E+00  0.00000000E+00
  0.00000000E+00  0.00000000E+00  0.00000000E+00
  0.00000000E+00  0.00000000E+00  0.00000000E+00
  0.00000000E+00  0.00000000E+00  0.00000000E+00
  0.00000000E+00  0.00000000E+00  0.00000000E+00
  0.00000000E+00  0.00000000E+00  0.00000000E+00
  0.00000000E+00  0.00000000E+00  0.00000000E+00
  0.00000000E+00  0.00000000E+00  0.00000000E+00
  0.00000000E+00  0.00000000E+00  0.00000000E+00
  0.00000000E+00  0.00000000E+00  0.00000000E+00
  0.00000000E+00  0.00000000E+00  0.00000000E+00
  0.00000000E+00  0.00000000E+00  0.00000000E+00
  0.00000000E+00  0.00000000E+00  0.00000000E+00
  0.00000000E+00  0.00000000E+00  0.00000000E+00
  0.00000000E+00  0.00000000E+00  0.00000000E+00
  0.00000000E+00  0.00000000E+00  0.00000000E+00
  0.00000000E+00  0.00000000E+00  0.00000000E+00
  0.00000000E+00  0.00000000E+00  0.00000000E+00
  0.00000000E+00  0.00000000E+00  0.00000000E+00
  0.00000000E+00  0.00000000E+00  0.00000000E+00
  0.00000000E+00  0.00000000E+00  0.00000000E+00
  0.00000000E+00  0.00000000E+00  0.00000000E+00
  0.00000000E+00  0.00000000E+00  0.00000000E+00
  0.00000000E+00  0.00000000E+00  0.00000000E+00
  0.00000000E+00  0.00000000E+00  0.00000000E+00
  0.00000000E+00  0.00000000E+00  0.00000000E+00
  0.00000000E+00  0.00000000E+00  0.00000000E+00
  0.00000000E+00  0.00000000E+00  0.00000000E+00
  0.00000000E+00  0.00000000E+00  0.00000000E+00
  0.00000000E+00  0.00000000E+00  0.00000000E+00
  0.00000000E+00  0.00000000E+00  0.00000000E+00
  0.00000000E+00  0.00000000E+00  0.00000000E+00
  0.00000000E+00  0.00000000E+00  0.00000000E+00
  0.00000000E+00  0.00000000E+00  0.00000000E+00
  0.00000000E+00  0.00000000E+00  0.00000000E+00
  0.00000000E+00  0.00000000E+00  0.00000000E+00
  0.00000000E+00  0.00000000E+00  0.00000000E+00
  0.00000000E+00  0.00000000E+00  0.00000000E+00
  0.00000000E+00  0.00000000E+00  0.00000000E+00
  0.00000000E+00  0.00000000E+00  0.00000000E+00
  0.00000000E+00  0.00000000E+00  0.00000000E+00
  0.00000000E+00  0.00000000E+00  0.00000000E+00
  0.00000000E+00  0.00000000E+00  0.00000000E+00
  0.00000000E+00  0.00000000E+00  0.00000000E+00
  0.00000000E+00  0.00000000E+00  0.00000000E+00
  0.00000000E+00  0.00000000E+00  0.00000000E+00
  0.00000000E+00  0.00000000E+00  0.00000000E+00
  0.00000000E+00  0.00000000E+00  0.00000000E+00
  0.00000000E+00  0.00000000E+00  0.00000000E+00
  0.00000000E+00  0.00000000E+00  0.00000000E+00
  0.00000000E+00  0.00000000E+00  0.00000000E+00
  0.00000000E+00  0.00000000E+00  0.00000000E+00
  0.00000000E+00  0.00000000E+00  0.00000000E+00
  0.00000000E+00  0.00000000E+00  0.00000000E+00
  0.00000000E+00  0.00000000E+00  0.00000000E+00
  0.00000000E+00  0.00000000E+00  0.00000000E+00
  0.00000000E+00  0.00000000E+00  0.00000000E+00
  0.00000000E+00  0.00000000E+00  0.00000000E+00
  0.00000000E+00  0.00000000E+00  0.00000000E+00
  0.00000000E+00  0.00000000E+00  0.00000000E+00
  0.00000000E+00  0.00000000E+00  0.00000000E+00
  0.00000000E+00  0.00000000E+00  0.00000000E+00
  0.00000000E+00  0.00000000E+00  0.00000000E+00
  0.00000000E+00  0.00000000E+00  0.00000000E+00
  0.00000000E+00  0.00000000E+00  0.00000000E+00
  0.00000000E+00  0.00000000E+00  0.00000000E+00
  0.00000000E+00  0.00000000E+00  0.00000000E+00
