Zn1 C126                                
   1.00000000000000     
    19.8341765142055486   -0.0000111858767109   -0.0018431934719754
    -9.9170997105223293   17.0693680556731167    0.0008707804573383
    -0.0027516175082682   -0.0000875261587389   29.7214933794889653
   Zn   C 
     1   126
Direct
  0.4375109375331952  0.5000000360946413  0.4073969387948308
  0.0417927139465736  0.0838776933993450  0.3998203399593255
  0.0405983082577455  0.2078224216187026  0.3998041115125023
  0.0400298156233487  0.3325517106561449  0.3994317314468023
  0.0401815609625604  0.4582235425329364  0.3991130942352595
  0.0412008377707479  0.5837948769843256  0.3992751114462531
  0.0420969276056165  0.7091886503727546  0.3995136745627188
  0.0425092446158184  0.8345558232878704  0.3996644273765043
  0.0424688350793214  0.9595175018881684  0.3997517900323565
  0.1675946072096002  0.0851878950594760  0.4003385917918189
  0.1668033406605755  0.2094790143002717  0.4013122745963503
  0.1646625943849396  0.3329893754421075  0.4016345883122910
  0.1634201085195938  0.4581621401651197  0.4006211270700128
  0.1647951427016640  0.5836871407091968  0.3994411405788889
  0.1663457419624897  0.7092213385236970  0.3993372155822518
  0.1670372685609527  0.8345649636943332  0.3996644344619457
  0.1674853394946415  0.9599533264493607  0.3997985797838221
  0.2925989507563651  0.0852006851925411  0.4003084222354331
  0.2932850145006307  0.2115795676106559  0.4023574947665034
  0.2921552798678030  0.3365803072406359  0.4045197071105679
  0.2859947094778902  0.4577985854828421  0.4044971334982337
  0.2880052151485767  0.5840489394844408  0.4022230003023664
  0.2905452942287977  0.7089921441368133  0.4000758207098711
  0.2915138466616183  0.8340903763824232  0.3995716366408921
  0.2920608962769756  0.9595176118577721  0.3997577668134681
  0.4170871279569445  0.0838630961637814  0.3998121757930426
  0.4176925729843540  0.2094819749946492  0.4013134133921499
  0.4194347352302263  0.3365555673324163  0.4044928630645800
  0.4093792694683115  0.5814584905677878  0.4059793063956933
  0.4149442639061818  0.7070103816667747  0.4025828105061544
  0.4160401812740551  0.8327983950292249  0.4001543632054660
  0.4165797947427793  0.9583194249432256  0.3996742574206743
  0.5415696277729161  0.0825373386040566  0.3996692576755397
  0.5422268963926828  0.2078288447726640  0.3997958164153804
  0.5433467902912026  0.3330060978707978  0.4015860529144189
  0.5467924703469528  0.4577932418112666  0.4044465402396961
  0.5470882848858568  0.5814839250930760  0.4059459652707739
  0.5400594886747865  0.7051121845293911  0.4040871578446490
  0.5404835588128123  0.8312446298072270  0.4013790192564471
  0.5411327359088851  0.9570293761986021  0.3999002754872693
  0.6661018095856126  0.0819547814809375  0.3997693188306913
  0.6666547972558291  0.2073182040702345  0.3995349395938577
  0.6675162555945225  0.3325668460489685  0.3994252669559952
  0.6697414438482208  0.4581741816216631  0.4005825988466764
  0.6710442775301555  0.5840476892909391  0.4021800145256129
  0.6670921579946653  0.7070107170370870  0.4025618131541447
  0.6657535820608914  0.8312232465171715  0.4013747156302106
  0.6657967800711599  0.9565795556567127  0.4000603427968430
  0.7908632412738913  0.0819491934474776  0.3997762341001482
  0.7910514645154703  0.2071220812135499  0.3996021091258908
  0.7917638452810440  0.3326060465507714  0.3993915019689969
  0.7930148268904830  0.4582367976255538  0.3991036442573222
  0.7938627605006942  0.5836793247341963  0.3994266909071468
  0.7934426675180661  0.7089815336522070  0.4000454524548029
  0.7917784035518520  0.8328046489746158  0.4001462186256524
  0.7908903177797559  0.9570305131533375  0.3998816823587037
  0.9159779437616810  0.0825336193017168  0.3996699737395648
  0.9156464912067754  0.2072973813396756  0.3995302417810339
  0.9158273404702756  0.3326052024803238  0.3993975842892933
  0.9165386005026570  0.4581081992426229  0.3993358046398022
  0.9175617662797841  0.5837952909221485  0.3992726071231704
  0.9178578047875410  0.7092088475695402  0.3993354726281805
  0.9175786341675759  0.8340843999184711  0.3995728334461183
  0.9167599077780572  0.9583235484085366  0.3996746041435705
  0.0841037090966357  0.0429698845130830  0.3999011131965429
  0.0832431536571105  0.1672014632088332  0.4001553242945513
  0.0815539818178778  0.2910078628010069  0.4000758011657293
  0.0811093052279397  0.4163130530450717  0.3994409987536087
  0.0819589006837488  0.5417755782759677  0.3991136560524389
  0.0832227241440458  0.6673939033264737  0.3993975805883956
  0.0839310700370183  0.7928806545634391  0.3996021510843196
  0.0841478031447599  0.9180473303290894  0.3997698350931474
  0.2092172908275633  0.0434207423383550  0.4000603008618638
  0.2092390253622250  0.1687550466145664  0.4013799695655526
  0.2079339532301004  0.2929886239865450  0.4025837647224983
  0.2039550579931534  0.4159498256651151  0.4022229545301418
  0.2052571426417909  0.5418370318330074  0.4006211046330155
  0.2074780130503773  0.6674467357757424  0.3994317281958235
  0.2083502053442588  0.7927020145038507  0.3995310770603939
  0.2089129474533165  0.9180505710408853  0.3997767059064607
  0.3338604032047586  0.0429700708891241  0.3998813775400747
  0.3345298832792117  0.1687769847205408  0.4013746918923640
  0.3349477179004564  0.2948870657891478  0.4040874339992516
  0.3279208022810077  0.4185396883282532  0.4059793973634405
  0.3281957799366558  0.5422014881465747  0.4044971193226130
  0.3316725662137547  0.6670108160460968  0.4016344609773695
  0.3327760078132811  0.7921765014492882  0.3998039960567600
  0.3334451141557257  0.9174656532837163  0.3996698478186540
  0.4584379813041253  0.0416757835185907  0.3996744744036565
  0.4589726324136959  0.1671942684048527  0.4001458302766602
  0.4600788178229292  0.2929879904221421  0.4025618360615768
  0.4656041951382710  0.4185159163058105  0.4059459577079531
  0.4555753008630965  0.6634207761340674  0.4045188382392753
  0.4573239134743793  0.7905208662913190  0.4013111675940109
  0.4579160333733145  0.9161222529526331  0.3998193663084661
  0.5829511342077776  0.0404809186885486  0.3997515210330393
  0.5834931642373393  0.1659113826511488  0.3995729674802719
  0.5844595796343129  0.2910169889695784  0.4000463120205255
  0.5869957247392760  0.4159528562028885  0.4021800070081260
  0.5889992607159833  0.5422068594265718  0.4044465442512505
  0.5828785833926984  0.6634444280381211  0.4044929108289489
  0.5817042899583530  0.7884203135246038  0.4023566745647907
  0.5824055844737358  0.9148119050997320  0.4003383397187774
  0.7075301471876360  0.0400467491010307  0.3997978759031265
  0.7079515901574668  0.1654408587911127  0.3996653014784339
  0.7086481475730178  0.2907884598710309  0.3993353857188670
  0.7101838834679132  0.4163230388900653  0.3994266469302489
  0.7115667950885199  0.5418266161406481  0.4005826539092737
  0.7103401480521002  0.6669943656933649  0.4015859398102548
  0.7082098111162894  0.7905187152362831  0.4013134221700623
  0.7073968132807961  0.9147988514032632  0.4003091335290961
  0.8325431696653032  0.0404827788927965  0.3997584631091912
  0.8324738400852818  0.1654354630532066  0.3996634013274953
  0.8329089235807623  0.2908097885903748  0.3995136703612429
  0.8337687176677472  0.4162056302536569  0.3992733025835921
  0.8347793905599812  0.5417641186902817  0.3991034989447751
  0.8349502975242791  0.6674347034915685  0.3994251517801005
  0.8344001919677499  0.7921746577379797  0.3997949723618696
  0.8332245394680332  0.9161371565544321  0.3998121539100464
  0.9582623459782232  0.0416803582056251  0.3996743699994982
  0.9574254429162451  0.1659097727734400  0.3995714828632059
  0.9571261745685357  0.2907782658615276  0.3993370791616874
  0.9574083272636178  0.4162060353937130  0.3992749422408176
  0.9584331742820161  0.5418923791214157  0.3993354951329685
  0.9591597255054637  0.6673958930198384  0.3993913621084523
  0.9593403362146909  0.7926868796174733  0.3995340895061883
  0.9590358619185904  0.9174658783015061  0.3996699725605014
 
  0.00000000E+00  0.00000000E+00  0.00000000E+00
  0.00000000E+00  0.00000000E+00  0.00000000E+00
  0.00000000E+00  0.00000000E+00  0.00000000E+00
  0.00000000E+00  0.00000000E+00  0.00000000E+00
  0.00000000E+00  0.00000000E+00  0.00000000E+00
  0.00000000E+00  0.00000000E+00  0.00000000E+00
  0.00000000E+00  0.00000000E+00  0.00000000E+00
  0.00000000E+00  0.00000000E+00  0.00000000E+00
  0.00000000E+00  0.00000000E+00  0.00000000E+00
  0.00000000E+00  0.00000000E+00  0.00000000E+00
  0.00000000E+00  0.00000000E+00  0.00000000E+00
  0.00000000E+00  0.00000000E+00  0.00000000E+00
  0.00000000E+00  0.00000000E+00  0.00000000E+00
  0.00000000E+00  0.00000000E+00  0.00000000E+00
  0.00000000E+00  0.00000000E+00  0.00000000E+00
  0.00000000E+00  0.00000000E+00  0.00000000E+00
  0.00000000E+00  0.00000000E+00  0.00000000E+00
  0.00000000E+00  0.00000000E+00  0.00000000E+00
  0.00000000E+00  0.00000000E+00  0.00000000E+00
  0.00000000E+00  0.00000000E+00  0.00000000E+00
  0.00000000E+00  0.00000000E+00  0.00000000E+00
  0.00000000E+00  0.00000000E+00  0.00000000E+00
  0.00000000E+00  0.00000000E+00  0.00000000E+00
  0.00000000E+00  0.00000000E+00  0.00000000E+00
  0.00000000E+00  0.00000000E+00  0.00000000E+00
  0.00000000E+00  0.00000000E+00  0.00000000E+00
  0.00000000E+00  0.00000000E+00  0.00000000E+00
  0.00000000E+00  0.00000000E+00  0.00000000E+00
  0.00000000E+00  0.00000000E+00  0.00000000E+00
  0.00000000E+00  0.00000000E+00  0.00000000E+00
  0.00000000E+00  0.00000000E+00  0.00000000E+00
  0.00000000E+00  0.00000000E+00  0.00000000E+00
  0.00000000E+00  0.00000000E+00  0.00000000E+00
  0.00000000E+00  0.00000000E+00  0.00000000E+00
  0.00000000E+00  0.00000000E+00  0.00000000E+00
  0.00000000E+00  0.00000000E+00  0.00000000E+00
  0.00000000E+00  0.00000000E+00  0.00000000E+00
  0.00000000E+00  0.00000000E+00  0.00000000E+00
  0.00000000E+00  0.00000000E+00  0.00000000E+00
  0.00000000E+00  0.00000000E+00  0.00000000E+00
  0.00000000E+00  0.00000000E+00  0.00000000E+00
  0.00000000E+00  0.00000000E+00  0.00000000E+00
  0.00000000E+00  0.00000000E+00  0.00000000E+00
  0.00000000E+00  0.00000000E+00  0.00000000E+00
  0.00000000E+00  0.00000000E+00  0.00000000E+00
  0.00000000E+00  0.00000000E+00  0.00000000E+00
  0.00000000E+00  0.00000000E+00  0.00000000E+00
  0.00000000E+00  0.00000000E+00  0.00000000E+00
  0.00000000E+00  0.00000000E+00  0.00000000E+00
  0.00000000E+00  0.00000000E+00  0.00000000E+00
  0.00000000E+00  0.00000000E+00  0.00000000E+00
  0.00000000E+00  0.00000000E+00  0.00000000E+00
  0.00000000E+00  0.00000000E+00  0.00000000E+00
  0.00000000E+00  0.00000000E+00  0.00000000E+00
  0.00000000E+00  0.00000000E+00  0.00000000E+00
  0.00000000E+00  0.00000000E+00  0.00000000E+00
  0.00000000E+00  0.00000000E+00  0.00000000E+00
  0.00000000E+00  0.00000000E+00  0.00000000E+00
  0.00000000E+00  0.00000000E+00  0.00000000E+00
  0.00000000E+00  0.00000000E+00  0.00000000E+00
  0.00000000E+00  0.00000000E+00  0.00000000E+00
  0.00000000E+00  0.00000000E+00  0.00000000E+00
  0.00000000E+00  0.00000000E+00  0.00000000E+00
  0.00000000E+00  0.00000000E+00  0.00000000E+00
  0.00000000E+00  0.00000000E+00  0.00000000E+00
  0.00000000E+00  0.00000000E+00  0.00000000E+00
  0.00000000E+00  0.00000000E+00  0.00000000E+00
  0.00000000E+00  0.00000000E+00  0.00000000E+00
  0.00000000E+00  0.00000000E+00  0.00000000E+00
  0.00000000E+00  0.00000000E+00  0.00000000E+00
  0.00000000E+00  0.00000000E+00  0.00000000E+00
  0.00000000E+00  0.00000000E+00  0.00000000E+00
  0.00000000E+00  0.00000000E+00  0.00000000E+00
  0.00000000E+00  0.00000000E+00  0.00000000E+00
  0.00000000E+00  0.00000000E+00  0.00000000E+00
  0.00000000E+00  0.00000000E+00  0.00000000E+00
  0.00000000E+00  0.00000000E+00  0.00000000E+00
  0.00000000E+00  0.00000000E+00  0.00000000E+00
  0.00000000E+00  0.00000000E+00  0.00000000E+00
  0.00000000E+00  0.00000000E+00  0.00000000E+00
  0.00000000E+00  0.00000000E+00  0.00000000E+00
  0.00000000E+00  0.00000000E+00  0.00000000E+00
  0.00000000E+00  0.00000000E+00  0.00000000E+00
  0.00000000E+00  0.00000000E+00  0.00000000E+00
  0.00000000E+00  0.00000000E+00  0.00000000E+00
  0.00000000E+00  0.00000000E+00  0.00000000E+00
  0.00000000E+00  0.00000000E+00  0.00000000E+00
  0.00000000E+00  0.00000000E+00  0.00000000E+00
  0.00000000E+00  0.00000000E+00  0.00000000E+00
  0.00000000E+00  0.00000000E+00  0.00000000E+00
  0.00000000E+00  0.00000000E+00  0.00000000E+00
  0.00000000E+00  0.00000000E+00  0.00000000E+00
  0.00000000E+00  0.00000000E+00  0.00000000E+00
  0.00000000E+00  0.00000000E+00  0.00000000E+00
  0.00000000E+00  0.00000000E+00  0.00000000E+00
  0.00000000E+00  0.00000000E+00  0.00000000E+00
  0.00000000E+00  0.00000000E+00  0.00000000E+00
  0.00000000E+00  0.00000000E+00  0.00000000E+00
  0.00000000E+00  0.00000000E+00  0.00000000E+00
  0.00000000E+00  0.00000000E+00  0.00000000E+00
  0.00000000E+00  0.00000000E+00  0.00000000E+00
  0.00000000E+00  0.00000000E+00  0.00000000E+00
  0.00000000E+00  0.00000000E+00  0.00000000E+00
  0.00000000E+00  0.00000000E+00  0.00000000E+00
  0.00000000E+00  0.00000000E+00  0.00000000E+00
  0.00000000E+00  0.00000000E+00  0.00000000E+00
  0.00000000E+00  0.00000000E+00  0.00000000E+00
  0.00000000E+00  0.00000000E+00  0.00000000E+00
  0.00000000E+00  0.00000000E+00  0.00000000E+00
  0.00000000E+00  0.00000000E+00  0.00000000E+00
  0.00000000E+00  0.00000000E+00  0.00000000E+00
  0.00000000E+00  0.00000000E+00  0.00000000E+00
  0.00000000E+00  0.00000000E+00  0.00000000E+00
  0.00000000E+00  0.00000000E+00  0.00000000E+00
  0.00000000E+00  0.00000000E+00  0.00000000E+00
  0.00000000E+00  0.00000000E+00  0.00000000E+00
  0.00000000E+00  0.00000000E+00  0.00000000E+00
  0.00000000E+00  0.00000000E+00  0.00000000E+00
  0.00000000E+00  0.00000000E+00  0.00000000E+00
  0.00000000E+00  0.00000000E+00  0.00000000E+00
  0.00000000E+00  0.00000000E+00  0.00000000E+00
  0.00000000E+00  0.00000000E+00  0.00000000E+00
  0.00000000E+00  0.00000000E+00  0.00000000E+00
  0.00000000E+00  0.00000000E+00  0.00000000E+00
  0.00000000E+00  0.00000000E+00  0.00000000E+00
  0.00000000E+00  0.00000000E+00  0.00000000E+00
  0.00000000E+00  0.00000000E+00  0.00000000E+00
