Ta1 C122 N4 O1                          
   1.00000000000000     
    19.7972673188563348    0.0001114468353328    0.1208347241820905
    -9.8984221572222992   17.0414606115092582   -0.1165711158865479
     0.1819815461543658   -0.0982247992787838   29.8269937836367589
   Ta   C    N    O 
     1   122     4     1
Direct
  0.4451281733079867  0.5009623982486552  0.4306516533493059
  0.0420756581000718  0.0843083942713768  0.3998934418903694
  0.0412523270611289  0.2084787621361527  0.4000226558012129
  0.0404189780075901  0.3331625985853818  0.3994236174752983
  0.0404249851257491  0.4582787173004439  0.3985822346827481
  0.0411590029227906  0.5837091323875410  0.3987396967796675
  0.0418783336258463  0.7090688364413978  0.3994582651995653
  0.0421026373221478  0.8342155665827193  0.3997606660763514
  0.0422953346379834  0.9595112691247107  0.3997408788070009
  0.1678185712516920  0.0854292460152437  0.4000524106926179
  0.1676684434403534  0.2104563279426304  0.4007146986540956
  0.1652601590436870  0.3339175320289151  0.4014564840471360
  0.1643099588498043  0.4585817596575512  0.3998620892966796
  0.1651351515308974  0.5836986494306238  0.3990921993922830
  0.1662435064168848  0.7088654215724010  0.3991089226874586
  0.1668193415888729  0.8341986249548333  0.3994487429436253
  0.1671836658337090  0.9596826694796458  0.3997020684773956
  0.2922833921754028  0.0852460998005409  0.3995031055250086
  0.2934788552899921  0.2124483481080515  0.4006832052286000
  0.2925590687485525  0.3385528246504930  0.4043719318785360
  0.2876289908586701  0.4584369906177534  0.4041553319506661
  0.2886012418088751  0.5830286117358109  0.4012260597866232
  0.2906277999948073  0.7082836297852508  0.4001664329724491
  0.2914877007176230  0.8337376952060364  0.3996420088082342
  0.2918599397815651  0.9592726266144881  0.3994566098196558
  0.4168386857333621  0.0838374587523714  0.3993679421060139
  0.4172604098974098  0.2095645904286957  0.3991358543480041
  0.4198656440619206  0.3364646412881579  0.3997121769948105
  0.4148836933486395  0.7061175966769518  0.4016636525608064
  0.4160458637102495  0.8322500170805334  0.4001588198174182
  0.4165135303598344  0.9580924286309354  0.3997012350918245
  0.5414394132065821  0.0826622601874927  0.3996612521126430
  0.5419494838043115  0.2081906222358963  0.3996307971450548
  0.5432277637427280  0.3337214892382656  0.3997142648952973
  0.5445877198332607  0.4579887050656005  0.3989868330203643
  0.5386235593571385  0.7028112942550283  0.4013172035796206
  0.5405713019591062  0.8307296997742361  0.4004450835447418
  0.5411248782141862  0.9569419865591980  0.3999986194428750
  0.6661445663750686  0.0822597263812645  0.3997579221274860
  0.6665889832061468  0.2076930176889539  0.3999542451129504
  0.6673578931525417  0.3330894539779491  0.4007142428117426
  0.6687538210436482  0.4584622286844830  0.4013495801598920
  0.6692172254870429  0.5832729786976738  0.4001573249080422
  0.6665878059622905  0.7070863903242730  0.3984289544437817
  0.6649980883166309  0.8309904963330939  0.3994781913683810
  0.6657446244447817  0.9567837208179052  0.3998818053353498
  0.7909652595528183  0.0823651452052978  0.3995331418855708
  0.7911532062015781  0.2075862764187646  0.3995893106986362
  0.7916684039748261  0.3328817996071634  0.4000369778364740
  0.7925057886579135  0.4583112869882788  0.4011012543006959
  0.7931346951879196  0.5837125951056898  0.4013343565161527
  0.7924644079141001  0.7084242977406232  0.4000431086036642
  0.7913287143357146  0.8327975315652228  0.3993764063413842
  0.7907378383995861  0.9572041568087015  0.3994555461173023
  0.9161927484516154  0.0829705670163320  0.3995652282566725
  0.9158892028898943  0.2077436183985248  0.3993415661117675
  0.9159963203363031  0.3328915756558756  0.3989051764071300
  0.9164673132697031  0.4583035954360616  0.3993091283582795
  0.9171361185485304  0.5836871112050529  0.4002542728008239
  0.9173684332980093  0.7089198037931695  0.4004166502975093
  0.9170578517489955  0.8338745685745985  0.3998096320785269
  0.9166700240456080  0.9584805170804830  0.3996049257138783
  0.0842639734642569  0.0431897847205225  0.3999046502231448
  0.0839267162900380  0.1679290298064532  0.4001652133371054
  0.0824666328183885  0.2918934723566237  0.4002341359361251
  0.0815116530633936  0.4164295175153916  0.3991084337044059
  0.0821760214573206  0.5418180873589329  0.3985919426944713
  0.0831040603687119  0.6671824352099438  0.3989386777001764
  0.0835882475069947  0.7925086585250970  0.3995872755976762
  0.0839325251534615  0.9178607027776778  0.3997352913300959
  0.2090289810517383  0.0433624458528683  0.3997953590985699
  0.2099353992849367  0.1694370094159844  0.4005489508242890
  0.2089294439174151  0.2941334908946493  0.4020582217025550
  0.2056903672344167  0.4171745797814734  0.4014733605131935
  0.2057708104792055  0.5415772720738347  0.3998046368022962
  0.2072820511068488  0.6669697075294001  0.3994180452182792
  0.2081545330885753  0.7923599052946143  0.3993586273667009
  0.2086278995569757  0.9177554443069454  0.3995408708339991
  0.3335824044608607  0.0429351420593586  0.3993682679242894
  0.3340805083748097  0.1691638895195469  0.3995808297521442
  0.3359116470372656  0.2973917583958053  0.4020273344190055
  0.3293007639065394  0.5418523038086287  0.4039049457778738
  0.3314152631804330  0.6663003938518450  0.4011916624166492
  0.3328160009251623  0.7916975795071154  0.4000266300555952
  0.3332485618534390  0.9171732363192993  0.3995743924451398
  0.4582362974283207  0.0416627490731802  0.3995785518106373
  0.4585944476187701  0.1673256154494830  0.3992900346332267
  0.4595510488111959  0.2930167499411989  0.3988840229235474
  0.4541412690265133  0.6617766890176198  0.4037239766458042
  0.4572802888835295  0.7897604802163292  0.4005521912740303
  0.4578139611762472  0.9158601786660493  0.3999478635228793
  0.5828337826379874  0.0405996691749908  0.3997987944697153
  0.5832325676917103  0.1662272795146305  0.3997501790160777
  0.5840977797525175  0.2916773100755743  0.4000765902571958
  0.5860080436948872  0.4168377697684369  0.4004501744704923
  0.5866202471523151  0.5420743124754269  0.3986430176634039
  0.5834615870399246  0.6636545619999326  0.3989280604351690
  0.5811051238250293  0.7877256499981267  0.4003545101664021
  0.5824505848137340  0.9147204260140572  0.4001299066393995
  0.7075669050785146  0.0404353597108527  0.3997338927661903
  0.7079502827270616  0.1658869683127661  0.3997732236067149
  0.7085033148326406  0.2911704065759614  0.4003461776062444
  0.7094803055593296  0.4163997861382795  0.4013009670660560
  0.7103408721931249  0.5416737201754516  0.4013003057377074
  0.7095482019829760  0.6663786938673855  0.3993868637720964
  0.7077447418397825  0.7905588585693232  0.3990146176803723
  0.7071107848860289  0.9149005957147155  0.3995740205966086
  0.8326866448302053  0.0408560231874415  0.3994815732205496
  0.8327039217119034  0.1659048683741797  0.3994378571869248
  0.8328868126988050  0.2910253293988108  0.3994370997182571
  0.8334980870225189  0.4163924499019818  0.4002032761017137
  0.8342342441441701  0.5417962869697893  0.4011356412606223
  0.8343032665841439  0.6670178446384429  0.4007661824309343
  0.8337939535560215  0.7919125283910521  0.3997023051440940
  0.8330747557204957  0.9162906551052916  0.3994723403616605
  0.9585402822848571  0.0420603368534999  0.3996756983648225
  0.9578688522690307  0.1663997150320578  0.3996132391468971
  0.9574689509390721  0.2912286865030218  0.3990791554451817
  0.9575116268551491  0.4163681429598340  0.3987021366101378
  0.9581860810932031  0.5417662008369879  0.3993371318190301
  0.9588064212591569  0.6672018750191360  0.4000931629225439
  0.9589288363550531  0.7923996383305834  0.3999801006068014
  0.9588332435411200  0.9174443271640161  0.3996608295188755
  0.4099849057224602  0.5808298873442957  0.4076835066901870
  0.5463702157993547  0.5830718569356346  0.3987022834363491
  0.3294162710419287  0.4196332075268409  0.4082790376588417
  0.4633623022974094  0.4170182811919214  0.3996144158672532
  0.4575519205679323  0.5035481986459490  0.4889442325804322
 
  0.00000000E+00  0.00000000E+00  0.00000000E+00
  0.00000000E+00  0.00000000E+00  0.00000000E+00
  0.00000000E+00  0.00000000E+00  0.00000000E+00
  0.00000000E+00  0.00000000E+00  0.00000000E+00
  0.00000000E+00  0.00000000E+00  0.00000000E+00
  0.00000000E+00  0.00000000E+00  0.00000000E+00
  0.00000000E+00  0.00000000E+00  0.00000000E+00
  0.00000000E+00  0.00000000E+00  0.00000000E+00
  0.00000000E+00  0.00000000E+00  0.00000000E+00
  0.00000000E+00  0.00000000E+00  0.00000000E+00
  0.00000000E+00  0.00000000E+00  0.00000000E+00
  0.00000000E+00  0.00000000E+00  0.00000000E+00
  0.00000000E+00  0.00000000E+00  0.00000000E+00
  0.00000000E+00  0.00000000E+00  0.00000000E+00
  0.00000000E+00  0.00000000E+00  0.00000000E+00
  0.00000000E+00  0.00000000E+00  0.00000000E+00
  0.00000000E+00  0.00000000E+00  0.00000000E+00
  0.00000000E+00  0.00000000E+00  0.00000000E+00
  0.00000000E+00  0.00000000E+00  0.00000000E+00
  0.00000000E+00  0.00000000E+00  0.00000000E+00
  0.00000000E+00  0.00000000E+00  0.00000000E+00
  0.00000000E+00  0.00000000E+00  0.00000000E+00
  0.00000000E+00  0.00000000E+00  0.00000000E+00
  0.00000000E+00  0.00000000E+00  0.00000000E+00
  0.00000000E+00  0.00000000E+00  0.00000000E+00
  0.00000000E+00  0.00000000E+00  0.00000000E+00
  0.00000000E+00  0.00000000E+00  0.00000000E+00
  0.00000000E+00  0.00000000E+00  0.00000000E+00
  0.00000000E+00  0.00000000E+00  0.00000000E+00
  0.00000000E+00  0.00000000E+00  0.00000000E+00
  0.00000000E+00  0.00000000E+00  0.00000000E+00
  0.00000000E+00  0.00000000E+00  0.00000000E+00
  0.00000000E+00  0.00000000E+00  0.00000000E+00
  0.00000000E+00  0.00000000E+00  0.00000000E+00
  0.00000000E+00  0.00000000E+00  0.00000000E+00
  0.00000000E+00  0.00000000E+00  0.00000000E+00
  0.00000000E+00  0.00000000E+00  0.00000000E+00
  0.00000000E+00  0.00000000E+00  0.00000000E+00
  0.00000000E+00  0.00000000E+00  0.00000000E+00
  0.00000000E+00  0.00000000E+00  0.00000000E+00
  0.00000000E+00  0.00000000E+00  0.00000000E+00
  0.00000000E+00  0.00000000E+00  0.00000000E+00
  0.00000000E+00  0.00000000E+00  0.00000000E+00
  0.00000000E+00  0.00000000E+00  0.00000000E+00
  0.00000000E+00  0.00000000E+00  0.00000000E+00
  0.00000000E+00  0.00000000E+00  0.00000000E+00
  0.00000000E+00  0.00000000E+00  0.00000000E+00
  0.00000000E+00  0.00000000E+00  0.00000000E+00
  0.00000000E+00  0.00000000E+00  0.00000000E+00
  0.00000000E+00  0.00000000E+00  0.00000000E+00
  0.00000000E+00  0.00000000E+00  0.00000000E+00
  0.00000000E+00  0.00000000E+00  0.00000000E+00
  0.00000000E+00  0.00000000E+00  0.00000000E+00
  0.00000000E+00  0.00000000E+00  0.00000000E+00
  0.00000000E+00  0.00000000E+00  0.00000000E+00
  0.00000000E+00  0.00000000E+00  0.00000000E+00
  0.00000000E+00  0.00000000E+00  0.00000000E+00
  0.00000000E+00  0.00000000E+00  0.00000000E+00
  0.00000000E+00  0.00000000E+00  0.00000000E+00
  0.00000000E+00  0.00000000E+00  0.00000000E+00
  0.00000000E+00  0.00000000E+00  0.00000000E+00
  0.00000000E+00  0.00000000E+00  0.00000000E+00
  0.00000000E+00  0.00000000E+00  0.00000000E+00
  0.00000000E+00  0.00000000E+00  0.00000000E+00
  0.00000000E+00  0.00000000E+00  0.00000000E+00
  0.00000000E+00  0.00000000E+00  0.00000000E+00
  0.00000000E+00  0.00000000E+00  0.00000000E+00
  0.00000000E+00  0.00000000E+00  0.00000000E+00
  0.00000000E+00  0.00000000E+00  0.00000000E+00
  0.00000000E+00  0.00000000E+00  0.00000000E+00
  0.00000000E+00  0.00000000E+00  0.00000000E+00
  0.00000000E+00  0.00000000E+00  0.00000000E+00
  0.00000000E+00  0.00000000E+00  0.00000000E+00
  0.00000000E+00  0.00000000E+00  0.00000000E+00
  0.00000000E+00  0.00000000E+00  0.00000000E+00
  0.00000000E+00  0.00000000E+00  0.00000000E+00
  0.00000000E+00  0.00000000E+00  0.00000000E+00
  0.00000000E+00  0.00000000E+00  0.00000000E+00
  0.00000000E+00  0.00000000E+00  0.00000000E+00
  0.00000000E+00  0.00000000E+00  0.00000000E+00
  0.00000000E+00  0.00000000E+00  0.00000000E+00
  0.00000000E+00  0.00000000E+00  0.00000000E+00
  0.00000000E+00  0.00000000E+00  0.00000000E+00
  0.00000000E+00  0.00000000E+00  0.00000000E+00
  0.00000000E+00  0.00000000E+00  0.00000000E+00
  0.00000000E+00  0.00000000E+00  0.00000000E+00
  0.00000000E+00  0.00000000E+00  0.00000000E+00
  0.00000000E+00  0.00000000E+00  0.00000000E+00
  0.00000000E+00  0.00000000E+00  0.00000000E+00
  0.00000000E+00  0.00000000E+00  0.00000000E+00
  0.00000000E+00  0.00000000E+00  0.00000000E+00
  0.00000000E+00  0.00000000E+00  0.00000000E+00
  0.00000000E+00  0.00000000E+00  0.00000000E+00
  0.00000000E+00  0.00000000E+00  0.00000000E+00
  0.00000000E+00  0.00000000E+00  0.00000000E+00
  0.00000000E+00  0.00000000E+00  0.00000000E+00
  0.00000000E+00  0.00000000E+00  0.00000000E+00
  0.00000000E+00  0.00000000E+00  0.00000000E+00
  0.00000000E+00  0.00000000E+00  0.00000000E+00
  0.00000000E+00  0.00000000E+00  0.00000000E+00
  0.00000000E+00  0.00000000E+00  0.00000000E+00
  0.00000000E+00  0.00000000E+00  0.00000000E+00
  0.00000000E+00  0.00000000E+00  0.00000000E+00
  0.00000000E+00  0.00000000E+00  0.00000000E+00
  0.00000000E+00  0.00000000E+00  0.00000000E+00
  0.00000000E+00  0.00000000E+00  0.00000000E+00
  0.00000000E+00  0.00000000E+00  0.00000000E+00
  0.00000000E+00  0.00000000E+00  0.00000000E+00
  0.00000000E+00  0.00000000E+00  0.00000000E+00
  0.00000000E+00  0.00000000E+00  0.00000000E+00
  0.00000000E+00  0.00000000E+00  0.00000000E+00
  0.00000000E+00  0.00000000E+00  0.00000000E+00
  0.00000000E+00  0.00000000E+00  0.00000000E+00
  0.00000000E+00  0.00000000E+00  0.00000000E+00
  0.00000000E+00  0.00000000E+00  0.00000000E+00
  0.00000000E+00  0.00000000E+00  0.00000000E+00
  0.00000000E+00  0.00000000E+00  0.00000000E+00
  0.00000000E+00  0.00000000E+00  0.00000000E+00
  0.00000000E+00  0.00000000E+00  0.00000000E+00
  0.00000000E+00  0.00000000E+00  0.00000000E+00
  0.00000000E+00  0.00000000E+00  0.00000000E+00
  0.00000000E+00  0.00000000E+00  0.00000000E+00
  0.00000000E+00  0.00000000E+00  0.00000000E+00
  0.00000000E+00  0.00000000E+00  0.00000000E+00
  0.00000000E+00  0.00000000E+00  0.00000000E+00
  0.00000000E+00  0.00000000E+00  0.00000000E+00
  0.00000000E+00  0.00000000E+00  0.00000000E+00
  0.00000000E+00  0.00000000E+00  0.00000000E+00
