La1 H1 C124 N2 O2                       
   1.00000000000000     
    19.8166077518567683   -0.0201695980656687   -0.1353274604303869
    -9.9264478433435936   17.0724943825958277    0.0716465136929478
    -0.2029369119250956    0.0066904105316562   29.7613834611653125
   La   H    C    N    O 
     1     1   124     2     2
Direct
  0.4406931565607585  0.5023176799587822  0.4567184106700613
  0.5649376405368212  0.5800736199128593  0.5363368518402581
  0.0421195159969759  0.0840259273001873  0.3996321034055651
  0.0414275383577748  0.2083580184825458  0.3989792813389261
  0.0408644505906491  0.3330053887818404  0.3987745388878232
  0.0407359110616554  0.4583802523716263  0.3991846586728247
  0.0412325766901962  0.5837496040282806  0.3998586785901612
  0.0417765925696749  0.7090595325088814  0.4000898160844343
  0.0421818182715567  0.8343573094344523  0.4001025526018878
  0.0424579830888484  0.9595176152697668  0.4000119836696187
  0.1680529983404427  0.0855404330989578  0.3998941672854767
  0.1673922575663636  0.2098700398110615  0.3990642413382162
  0.1661189317377242  0.3341288326404532  0.3981887822811316
  0.1645734965058519  0.4586135131405294  0.3978248675203798
  0.1651424441064407  0.5838660121151825  0.3984122135947848
  0.1660989945700077  0.7092315987932910  0.3994708368384500
  0.1668269952040042  0.8345174476658136  0.4000176010643109
  0.1674110697327764  0.9599212866762253  0.4001099100148997
  0.2927111706714324  0.0851922400329082  0.4000158964169255
  0.2944678567821357  0.2123530972892633  0.4011348209450873
  0.2927100792967338  0.3373795354764215  0.4022594703622140
  0.2892262923364878  0.4588777244166681  0.4009363457784336
  0.2888477324028154  0.5847448415238385  0.3983735928256210
  0.2903213992736359  0.7094083489062719  0.3987753816148883
  0.2913772027555867  0.8342817500867874  0.3995548590395312
  0.2919781816836486  0.9594966479131549  0.3999553339782703
  0.4171950445483516  0.0835825648861025  0.3997118872066498
  0.4179083851481208  0.2088313811746031  0.3996614809276799
  0.4218421086074194  0.3365147173830769  0.4030029306470957
  0.4146037811722271  0.7079130605809791  0.3998898962119719
  0.4159585141463389  0.8332052701571213  0.3993970808017711
  0.4165883729140653  0.9583597974957188  0.3998011672190502
  0.5417989091424705  0.0823589194981762  0.3998594613727438
  0.5424548517821636  0.2074158809566380  0.3992533898179879
  0.5436022119656025  0.3322587104312528  0.3986411577162681
  0.5438682606351811  0.4550779333984935  0.4002757891179452
  0.5440250643599308  0.5802594480590249  0.4034991231508644
  0.5387358308299633  0.7038185524284697  0.4029952970366427
  0.5403370836435772  0.8312175722108410  0.4004209168383778
  0.5412514265252600  0.9570522294668522  0.3998782798435750
  0.6664220089935826  0.0819096394889780  0.4000232639541315
  0.6670286018896565  0.2072270466669992  0.3997902974319545
  0.6677839316808496  0.3323930585127627  0.3988053610451936
  0.6689994640113188  0.4577169665732710  0.3975274967320490
  0.6687644552544265  0.5824445988637342  0.3975126817979454
  0.6662813734955327  0.7066207424475915  0.3985271101999523
  0.6651055466432425  0.8306473033769218  0.4000618765972185
  0.6658865179644918  0.9565000195850565  0.4001216461083135
  0.7912075960119093  0.0819730065098652  0.4000365498581127
  0.7915563256706671  0.2071998601908816  0.4001147707114291
  0.7921275831485506  0.3325747192329057  0.3999283257695279
  0.7928117405608152  0.4580025710683324  0.3991947217295773
  0.7930883343055221  0.5832472617962527  0.3984075475567929
  0.7923376720331783  0.7081318937246029  0.3984440087273088
  0.7914646312061471  0.8325549545731622  0.3992486358120712
  0.7908435455239345  0.9568353850862583  0.3998696071701829
  0.9163908393532240  0.0827039919116130  0.3998900329402899
  0.9162713054553571  0.2075553564078372  0.3998185975802868
  0.9164076948005672  0.3327324376166994  0.3999874300841083
  0.9167402785550425  0.4580846583616349  0.4001519261404589
  0.9172149928259239  0.5835617151623019  0.3999588244939326
  0.9173153501093537  0.7088730762772977  0.3996511737521348
  0.9171171823496169  0.8337105304334924  0.3996627231071439
  0.9167596102951654  0.9582416707576160  0.3999175644647647
  0.0843782297304568  0.0431322128794573  0.3997996415130033
  0.0837214252801569  0.1674219571882424  0.3991080070649465
  0.0827593026073417  0.2918212737793204  0.3984251109511492
  0.0819228026872438  0.4166667651077483  0.3984041592260094
  0.0822350260331833  0.5419194290507720  0.3991594870379341
  0.0829969541016455  0.6673246115927846  0.3998595515426616
  0.0836293536682477  0.7927303873855897  0.4000960735723214
  0.0840251648167920  0.9179715007187790  0.4001122604508559
  0.2093139007549181  0.0434637480961823  0.4000794323275634
  0.2100860816437047  0.1693695305304013  0.3999717420887770
  0.2088365302295612  0.2934028816007456  0.3988674592152767
  0.2062096445675114  0.4175011089665436  0.3982341837758425
  0.2060189922393778  0.5422145094351355  0.3978194363512438
  0.2072969797070396  0.6675414213093492  0.3988094787685428
  0.2081189411931900  0.7927050236112984  0.3997060369675731
  0.2087676323741667  0.9180302987541007  0.4000796671654010
  0.3339086743977475  0.0429221714442161  0.3998612236892859
  0.3348393474076711  0.1687684950559610  0.4003140013746562
  0.3365414595861596  0.2962127753899956  0.4032971437821667
  0.3312165921007539  0.4197510926738835  0.4051651819729939
  0.3311814950982090  0.5448027672823172  0.4011888586175325
  0.3314794087240663  0.6676907881569969  0.3988493702309125
  0.3326766081229043  0.7925332136898474  0.3992020958779018
  0.3333716179473685  0.9175856948369641  0.3998046317790830
  0.4585961930503559  0.0415982511113119  0.3998383801784179
  0.4591912713871165  0.1667530399780562  0.3994043913108710
  0.4605251517499467  0.2920285195234129  0.3998060528944357
  0.4534917257334500  0.6635378513091947  0.4030613747607408
  0.4572685507602467  0.7911453653531010  0.3997063985281025
  0.4579619845188550  0.9163645335864130  0.3996893411584043
  0.5832121640249186  0.0404705945506373  0.3999467737511508
  0.5837744547471714  0.1656787825501590  0.3996498132408723
  0.5847601666365096  0.2905452304522341  0.3987180537297227
  0.5861894175544546  0.4151986889905555  0.3979027082658663
  0.5857995887544036  0.5410102555500478  0.3995842799259027
  0.5824976201056863  0.6626597579829994  0.4014160480482427
  0.5807656213490271  0.7876779648728010  0.4011378255593677
  0.5824708673758091  0.9148088657787492  0.4001141569746166
  0.7077965750009310  0.0400453255429332  0.4000413068640156
  0.7083551690750822  0.1654233522452138  0.4000384666168216
  0.7090153333147758  0.2907043323595411  0.3995566821370864
  0.7098848045230157  0.4160640584954385  0.3983703008419254
  0.7104111888645760  0.5413253847334213  0.3975139704491057
  0.7089392735201084  0.6658419965228988  0.3978253181131547
  0.7077786704537868  0.7901475692821021  0.3991134129461349
  0.7071557960339595  0.9144637706846626  0.3999967358492161
  0.8327798306415697  0.0404569630651411  0.3999820580877301
  0.8330159644387463  0.1655766175745603  0.4000626383683046
  0.8333706049844398  0.2908549323835323  0.4001419947033371
  0.8338646429224787  0.4161673456638899  0.3999088895006909
  0.8343164314813362  0.5415354615960584  0.3992451952103981
  0.8342116486840817  0.6669293464632837  0.3988323122976740
  0.8337136551278646  0.7915854595900170  0.3990945023482413
  0.8331136313282761  0.9159425338221503  0.3997374508795712
  0.9585223227198736  0.0417286832664516  0.3998824925904421
  0.9580960446849806  0.1662455989065730  0.3995939763531530
  0.9578165223743178  0.2910602304034716  0.3995965919597733
  0.9578573279607867  0.4163440096571556  0.3999262257802309
  0.9583675012568161  0.5418054053329715  0.4001441598289207
  0.9587310534953426  0.6671747617279395  0.3999946990473640
  0.9589157288547611  0.7923914780155115  0.3998530517012885
  0.9588559212049402  0.9172606934173554  0.3999238006879031
  0.4096337199981788  0.5840277506407232  0.4056993992724794
  0.4657128046398576  0.4160202411797871  0.4050541997047107
  0.5208455018146005  0.5278961009355160  0.5301111019110794
  0.4545226735833916  0.5434754359759523  0.5307710039452154
 
  0.00000000E+00  0.00000000E+00  0.00000000E+00
  0.00000000E+00  0.00000000E+00  0.00000000E+00
  0.00000000E+00  0.00000000E+00  0.00000000E+00
  0.00000000E+00  0.00000000E+00  0.00000000E+00
  0.00000000E+00  0.00000000E+00  0.00000000E+00
  0.00000000E+00  0.00000000E+00  0.00000000E+00
  0.00000000E+00  0.00000000E+00  0.00000000E+00
  0.00000000E+00  0.00000000E+00  0.00000000E+00
  0.00000000E+00  0.00000000E+00  0.00000000E+00
  0.00000000E+00  0.00000000E+00  0.00000000E+00
  0.00000000E+00  0.00000000E+00  0.00000000E+00
  0.00000000E+00  0.00000000E+00  0.00000000E+00
  0.00000000E+00  0.00000000E+00  0.00000000E+00
  0.00000000E+00  0.00000000E+00  0.00000000E+00
  0.00000000E+00  0.00000000E+00  0.00000000E+00
  0.00000000E+00  0.00000000E+00  0.00000000E+00
  0.00000000E+00  0.00000000E+00  0.00000000E+00
  0.00000000E+00  0.00000000E+00  0.00000000E+00
  0.00000000E+00  0.00000000E+00  0.00000000E+00
  0.00000000E+00  0.00000000E+00  0.00000000E+00
  0.00000000E+00  0.00000000E+00  0.00000000E+00
  0.00000000E+00  0.00000000E+00  0.00000000E+00
  0.00000000E+00  0.00000000E+00  0.00000000E+00
  0.00000000E+00  0.00000000E+00  0.00000000E+00
  0.00000000E+00  0.00000000E+00  0.00000000E+00
  0.00000000E+00  0.00000000E+00  0.00000000E+00
  0.00000000E+00  0.00000000E+00  0.00000000E+00
  0.00000000E+00  0.00000000E+00  0.00000000E+00
  0.00000000E+00  0.00000000E+00  0.00000000E+00
  0.00000000E+00  0.00000000E+00  0.00000000E+00
  0.00000000E+00  0.00000000E+00  0.00000000E+00
  0.00000000E+00  0.00000000E+00  0.00000000E+00
  0.00000000E+00  0.00000000E+00  0.00000000E+00
  0.00000000E+00  0.00000000E+00  0.00000000E+00
  0.00000000E+00  0.00000000E+00  0.00000000E+00
  0.00000000E+00  0.00000000E+00  0.00000000E+00
  0.00000000E+00  0.00000000E+00  0.00000000E+00
  0.00000000E+00  0.00000000E+00  0.00000000E+00
  0.00000000E+00  0.00000000E+00  0.00000000E+00
  0.00000000E+00  0.00000000E+00  0.00000000E+00
  0.00000000E+00  0.00000000E+00  0.00000000E+00
  0.00000000E+00  0.00000000E+00  0.00000000E+00
  0.00000000E+00  0.00000000E+00  0.00000000E+00
  0.00000000E+00  0.00000000E+00  0.00000000E+00
  0.00000000E+00  0.00000000E+00  0.00000000E+00
  0.00000000E+00  0.00000000E+00  0.00000000E+00
  0.00000000E+00  0.00000000E+00  0.00000000E+00
  0.00000000E+00  0.00000000E+00  0.00000000E+00
  0.00000000E+00  0.00000000E+00  0.00000000E+00
  0.00000000E+00  0.00000000E+00  0.00000000E+00
  0.00000000E+00  0.00000000E+00  0.00000000E+00
  0.00000000E+00  0.00000000E+00  0.00000000E+00
  0.00000000E+00  0.00000000E+00  0.00000000E+00
  0.00000000E+00  0.00000000E+00  0.00000000E+00
  0.00000000E+00  0.00000000E+00  0.00000000E+00
  0.00000000E+00  0.00000000E+00  0.00000000E+00
  0.00000000E+00  0.00000000E+00  0.00000000E+00
  0.00000000E+00  0.00000000E+00  0.00000000E+00
  0.00000000E+00  0.00000000E+00  0.00000000E+00
  0.00000000E+00  0.00000000E+00  0.00000000E+00
  0.00000000E+00  0.00000000E+00  0.00000000E+00
  0.00000000E+00  0.00000000E+00  0.00000000E+00
  0.00000000E+00  0.00000000E+00  0.00000000E+00
  0.00000000E+00  0.00000000E+00  0.00000000E+00
  0.00000000E+00  0.00000000E+00  0.00000000E+00
  0.00000000E+00  0.00000000E+00  0.00000000E+00
  0.00000000E+00  0.00000000E+00  0.00000000E+00
  0.00000000E+00  0.00000000E+00  0.00000000E+00
  0.00000000E+00  0.00000000E+00  0.00000000E+00
  0.00000000E+00  0.00000000E+00  0.00000000E+00
  0.00000000E+00  0.00000000E+00  0.00000000E+00
  0.00000000E+00  0.00000000E+00  0.00000000E+00
  0.00000000E+00  0.00000000E+00  0.00000000E+00
  0.00000000E+00  0.00000000E+00  0.00000000E+00
  0.00000000E+00  0.00000000E+00  0.00000000E+00
  0.00000000E+00  0.00000000E+00  0.00000000E+00
  0.00000000E+00  0.00000000E+00  0.00000000E+00
  0.00000000E+00  0.00000000E+00  0.00000000E+00
  0.00000000E+00  0.00000000E+00  0.00000000E+00
  0.00000000E+00  0.00000000E+00  0.00000000E+00
  0.00000000E+00  0.00000000E+00  0.00000000E+00
  0.00000000E+00  0.00000000E+00  0.00000000E+00
  0.00000000E+00  0.00000000E+00  0.00000000E+00
  0.00000000E+00  0.00000000E+00  0.00000000E+00
  0.00000000E+00  0.00000000E+00  0.00000000E+00
  0.00000000E+00  0.00000000E+00  0.00000000E+00
  0.00000000E+00  0.00000000E+00  0.00000000E+00
  0.00000000E+00  0.00000000E+00  0.00000000E+00
  0.00000000E+00  0.00000000E+00  0.00000000E+00
  0.00000000E+00  0.00000000E+00  0.00000000E+00
  0.00000000E+00  0.00000000E+00  0.00000000E+00
  0.00000000E+00  0.00000000E+00  0.00000000E+00
  0.00000000E+00  0.00000000E+00  0.00000000E+00
  0.00000000E+00  0.00000000E+00  0.00000000E+00
  0.00000000E+00  0.00000000E+00  0.00000000E+00
  0.00000000E+00  0.00000000E+00  0.00000000E+00
  0.00000000E+00  0.00000000E+00  0.00000000E+00
  0.00000000E+00  0.00000000E+00  0.00000000E+00
  0.00000000E+00  0.00000000E+00  0.00000000E+00
  0.00000000E+00  0.00000000E+00  0.00000000E+00
  0.00000000E+00  0.00000000E+00  0.00000000E+00
  0.00000000E+00  0.00000000E+00  0.00000000E+00
  0.00000000E+00  0.00000000E+00  0.00000000E+00
  0.00000000E+00  0.00000000E+00  0.00000000E+00
  0.00000000E+00  0.00000000E+00  0.00000000E+00
  0.00000000E+00  0.00000000E+00  0.00000000E+00
  0.00000000E+00  0.00000000E+00  0.00000000E+00
  0.00000000E+00  0.00000000E+00  0.00000000E+00
  0.00000000E+00  0.00000000E+00  0.00000000E+00
  0.00000000E+00  0.00000000E+00  0.00000000E+00
  0.00000000E+00  0.00000000E+00  0.00000000E+00
  0.00000000E+00  0.00000000E+00  0.00000000E+00
  0.00000000E+00  0.00000000E+00  0.00000000E+00
  0.00000000E+00  0.00000000E+00  0.00000000E+00
  0.00000000E+00  0.00000000E+00  0.00000000E+00
  0.00000000E+00  0.00000000E+00  0.00000000E+00
  0.00000000E+00  0.00000000E+00  0.00000000E+00
  0.00000000E+00  0.00000000E+00  0.00000000E+00
  0.00000000E+00  0.00000000E+00  0.00000000E+00
  0.00000000E+00  0.00000000E+00  0.00000000E+00
  0.00000000E+00  0.00000000E+00  0.00000000E+00
  0.00000000E+00  0.00000000E+00  0.00000000E+00
  0.00000000E+00  0.00000000E+00  0.00000000E+00
  0.00000000E+00  0.00000000E+00  0.00000000E+00
  0.00000000E+00  0.00000000E+00  0.00000000E+00
  0.00000000E+00  0.00000000E+00  0.00000000E+00
  0.00000000E+00  0.00000000E+00  0.00000000E+00
  0.00000000E+00  0.00000000E+00  0.00000000E+00
  0.00000000E+00  0.00000000E+00  0.00000000E+00
  0.00000000E+00  0.00000000E+00  0.00000000E+00
