H1 Ru1 C123 N3 O1                       
   1.00000000000000     
    19.8107123131117149    0.0362613290534436    0.3358945753760075
    -9.8735536429899771   17.0013159930056084   -0.3934278410797631
     0.5058379506711019   -0.3956568143759267   29.8579123570707026
   H    Ru   C    N    O 
     1     1   123     3     1
Direct
  0.5013259512644971  0.5239120018812542  0.4973917096196379
  0.4358684102635701  0.5012397804269053  0.4254676613204550
  0.0414825579103186  0.0841605534199985  0.3997334632812866
  0.0399091020629253  0.2078798367868459  0.3999145335523182
  0.0391598701606496  0.3325924442710841  0.3991766639019905
  0.0399081592043827  0.4580532355228844  0.3987789865341020
  0.0414957648798488  0.5838342846600716  0.3992317160638251
  0.0427153233681461  0.7095521443417083  0.3994084943356731
  0.0430096793388973  0.8349679652438442  0.3993559935817918
  0.0426314670359170  0.9599792027672258  0.3993193240827404
  0.1676649343206653  0.0859668986974900  0.4003651193749612
  0.1664173867611155  0.2101697728377803  0.4010169348290599
  0.1634251331945371  0.3330546726347375  0.4008118441878545
  0.1632466681597746  0.4577772390940202  0.3978117432803448
  0.1651014315743985  0.5832748966096138  0.3981973548423234
  0.1667444109611274  0.7089707316781088  0.3992689219755494
  0.1675136639589060  0.8347177285940659  0.3996653861165602
  0.1677626300314010  0.9604566660801966  0.3997640361399862
  0.2925826297862967  0.0864122549995752  0.4003443987548471
  0.2928866509739459  0.2134362598459853  0.4023817786098949
  0.2901944793483013  0.3382495518509444  0.4063848681916792
  0.2855937669920148  0.4569070257690182  0.4024485055190472
  0.2883712850634141  0.5819395957983924  0.3972493306612697
  0.2909070592301961  0.7077208272065517  0.3980781505842505
  0.2918840856699379  0.8338210564678502  0.3995500307153793
  0.2923142118755401  0.9599930167535879  0.3999189485582759
  0.4169303829865078  0.0849265500242152  0.3999479886397027
  0.4174029481602134  0.2118707372140561  0.4005133737947325
  0.4186676533115970  0.3404133415097927  0.4027330228770497
  0.4149137493091206  0.7043427488839549  0.3982853809832693
  0.4160864518969596  0.8315964745318686  0.3993411008736513
  0.4165657889932322  0.9582939182452754  0.3998843317378175
  0.5410917807458671  0.0829175180771405  0.3997371004603931
  0.5416517328314473  0.2091501682530524  0.3993493309452013
  0.5428582922199975  0.3354031244803000  0.3995547931617368
  0.5474871031983413  0.4619659179700976  0.4031061093708563
  0.5383332596507437  0.7010551246232796  0.4028544269718906
  0.5401492383072882  0.8295252845484071  0.3999932207744553
  0.5407440288068035  0.9564779475935874  0.3998783567958443
  0.6654189934385885  0.0819224288973337  0.3997661348194808
  0.6659445451663021  0.2078069021655432  0.3992842807634375
  0.6670274097499940  0.3336060693114692  0.3988606004213914
  0.6697223573837089  0.4595530240357664  0.3996123039308906
  0.6720697744582319  0.5854685359130511  0.4022681627264408
  0.6674691462436534  0.7070072994436798  0.4025319628879136
  0.6645954719156564  0.8301324566074777  0.4009193878050334
  0.6650686923532870  0.9560535402669669  0.4000732544789528
  0.7900425942914414  0.0818257280350484  0.3997259343690241
  0.7902640488057896  0.2072924810383764  0.3994950737620401
  0.7911376104333873  0.3329687647186663  0.3991132964358656
  0.7928861419410426  0.4587491621896281  0.3988445703980933
  0.7945833933857116  0.5845387714460065  0.3990888949962847
  0.7943311117638598  0.7097337874344635  0.4001752104863147
  0.7916131846206005  0.8328137835065295  0.3998680140374861
  0.7901500781866393  0.9566668565952706  0.3998045963432650
  0.9152661201354322  0.0824535351222924  0.3995678077077453
  0.9147854006385348  0.2072527132553349  0.3995987129869972
  0.9151271681241044  0.3326759377746973  0.3993310308686807
  0.9163952914767085  0.4584178540416341  0.3991885289852801
  0.9179735167903719  0.5842063633785415  0.3990717137424178
  0.9185817998551572  0.7097018162266914  0.3991661443837871
  0.9180395330379234  0.8346326100193007  0.3992628038363732
  0.9165383399813453  0.9584815338151456  0.3994293485198339
  0.0842041458653470  0.0435601616464017  0.3997073112117516
  0.0829125458423268  0.1676333887294918  0.4000942811503082
  0.0808686704687934  0.2911496657720286  0.3998869478936951
  0.0806524229451405  0.4159280506218649  0.3984255033402075
  0.0821949321081741  0.5416587998296293  0.3987704304020558
  0.0836979002215994  0.6674552728057416  0.3993966369843162
  0.0844779000293204  0.7931420263327833  0.3994977613177673
  0.0845784542219168  0.9185602749146882  0.3994407043951183
  0.2093750930872811  0.0442451719982519  0.4001787547238451
  0.2093170103627807  0.1698780435886730  0.4014312837073876
  0.2071234413219545  0.2937247368200753  0.4022037542076439
  0.2039666162295183  0.4159620696287424  0.3994894079235436
  0.2054482307378264  0.5408316970729929  0.3976144998725670
  0.2076638980120681  0.6667324741567225  0.3984935648584274
  0.2087627697029324  0.7926294462865972  0.3995385233374409
  0.2092619454423978  0.9184629372314586  0.3997882214873841
  0.3338644752316834  0.0438916154638407  0.4000377702643771
  0.3341962971454369  0.1706484966104665  0.4010275662698184
  0.3346448073784399  0.2982448861504710  0.4046698570238865
  0.3286013776508029  0.5399634463047225  0.3983903135589213
  0.3316301596666479  0.6652200272420449  0.3972701505057900
  0.3330470682865581  0.7913295764377417  0.3990098346434405
  0.3335627359195260  0.9175209730560968  0.3998453757285452
  0.4581049031182642  0.0421417083035802  0.3998613346661649
  0.4585148247842950  0.1688158815538799  0.3998696661881457
  0.4593062451557962  0.2961354115202337  0.4006251120356119
  0.4648759009515605  0.4251054495930895  0.4042088962220723
  0.4543013107359847  0.6594147449711074  0.3993246348254282
  0.4571592120463978  0.7885508068361141  0.3992486963600854
  0.4577068794766092  0.9155130330094202  0.3998001250473520
  0.5823390936954933  0.0404104603098587  0.3998390654327142
  0.5828157690501188  0.1666535899460020  0.3994055881893850
  0.5837121809171807  0.2927432483288193  0.3990171158521885
  0.5868679487219143  0.4188582351312048  0.4003330040559362
  0.5907575092447607  0.5451590988875301  0.4064801713220635
  0.5839243656197025  0.6622852464877613  0.4064507688320433
  0.5806641437069651  0.7862213642200205  0.4012232471453571
  0.5819343419493408  0.9138631018222281  0.3999523542556583
  0.7068115063592604  0.0398678303400711  0.3998755228988151
  0.7072024309565287  0.1656897498003341  0.3995104776211635
  0.7079872066262326  0.2914481374835629  0.3990187747183044
  0.7099838883340073  0.4171144053678762  0.3989014412239449
  0.7121689822480378  0.5427972554495261  0.3998385071381427
  0.7117824939898654  0.6681191369447482  0.4019384813158516
  0.7080020278811827  0.7902812260068149  0.4007324749133330
  0.7065134540056763  0.9141026262940294  0.4002206338223467
  0.8318554017313100  0.0403136486212080  0.3996402606379197
  0.8317113917518866  0.1654478263332417  0.3996256880306906
  0.8321237966260748  0.2908889336729720  0.3993332919774919
  0.8335070403807350  0.4165814771779817  0.3990198519613725
  0.8352107112929802  0.5423747632530327  0.3988559217455923
  0.8358242262498907  0.6679870207700516  0.3993852069002116
  0.8349175126745378  0.7927584635247811  0.3996891387561075
  0.8329806467481056  0.9161893718405479  0.3996382035286255
  0.9579888458646004  0.0418657965503676  0.3995470756201119
  0.9567308765788214  0.1658797954396853  0.3996390309122623
  0.9563826707099433  0.2908102674813176  0.3994077540486058
  0.9570822644569289  0.4162631511876426  0.3992032556786116
  0.9586354655958451  0.5420421809407198  0.3992190380629195
  0.9598016029528414  0.6677970730166395  0.3991774989389623
  0.9599524583318626  0.7932118325595255  0.3992515414309431
  0.9593247536953001  0.9179530460697218  0.3992351131336694
  0.4094553761970773  0.5769683749177300  0.3976054958635319
  0.5490280286196207  0.5831740162341266  0.4132020530283050
  0.3261875534384273  0.4190464527214751  0.4118160154675571
  0.4466500106632655  0.4975870649441942  0.4884208096913878
 
  0.00000000E+00  0.00000000E+00  0.00000000E+00
  0.00000000E+00  0.00000000E+00  0.00000000E+00
  0.00000000E+00  0.00000000E+00  0.00000000E+00
  0.00000000E+00  0.00000000E+00  0.00000000E+00
  0.00000000E+00  0.00000000E+00  0.00000000E+00
  0.00000000E+00  0.00000000E+00  0.00000000E+00
  0.00000000E+00  0.00000000E+00  0.00000000E+00
  0.00000000E+00  0.00000000E+00  0.00000000E+00
  0.00000000E+00  0.00000000E+00  0.00000000E+00
  0.00000000E+00  0.00000000E+00  0.00000000E+00
  0.00000000E+00  0.00000000E+00  0.00000000E+00
  0.00000000E+00  0.00000000E+00  0.00000000E+00
  0.00000000E+00  0.00000000E+00  0.00000000E+00
  0.00000000E+00  0.00000000E+00  0.00000000E+00
  0.00000000E+00  0.00000000E+00  0.00000000E+00
  0.00000000E+00  0.00000000E+00  0.00000000E+00
  0.00000000E+00  0.00000000E+00  0.00000000E+00
  0.00000000E+00  0.00000000E+00  0.00000000E+00
  0.00000000E+00  0.00000000E+00  0.00000000E+00
  0.00000000E+00  0.00000000E+00  0.00000000E+00
  0.00000000E+00  0.00000000E+00  0.00000000E+00
  0.00000000E+00  0.00000000E+00  0.00000000E+00
  0.00000000E+00  0.00000000E+00  0.00000000E+00
  0.00000000E+00  0.00000000E+00  0.00000000E+00
  0.00000000E+00  0.00000000E+00  0.00000000E+00
  0.00000000E+00  0.00000000E+00  0.00000000E+00
  0.00000000E+00  0.00000000E+00  0.00000000E+00
  0.00000000E+00  0.00000000E+00  0.00000000E+00
  0.00000000E+00  0.00000000E+00  0.00000000E+00
  0.00000000E+00  0.00000000E+00  0.00000000E+00
  0.00000000E+00  0.00000000E+00  0.00000000E+00
  0.00000000E+00  0.00000000E+00  0.00000000E+00
  0.00000000E+00  0.00000000E+00  0.00000000E+00
  0.00000000E+00  0.00000000E+00  0.00000000E+00
  0.00000000E+00  0.00000000E+00  0.00000000E+00
  0.00000000E+00  0.00000000E+00  0.00000000E+00
  0.00000000E+00  0.00000000E+00  0.00000000E+00
  0.00000000E+00  0.00000000E+00  0.00000000E+00
  0.00000000E+00  0.00000000E+00  0.00000000E+00
  0.00000000E+00  0.00000000E+00  0.00000000E+00
  0.00000000E+00  0.00000000E+00  0.00000000E+00
  0.00000000E+00  0.00000000E+00  0.00000000E+00
  0.00000000E+00  0.00000000E+00  0.00000000E+00
  0.00000000E+00  0.00000000E+00  0.00000000E+00
  0.00000000E+00  0.00000000E+00  0.00000000E+00
  0.00000000E+00  0.00000000E+00  0.00000000E+00
  0.00000000E+00  0.00000000E+00  0.00000000E+00
  0.00000000E+00  0.00000000E+00  0.00000000E+00
  0.00000000E+00  0.00000000E+00  0.00000000E+00
  0.00000000E+00  0.00000000E+00  0.00000000E+00
  0.00000000E+00  0.00000000E+00  0.00000000E+00
  0.00000000E+00  0.00000000E+00  0.00000000E+00
  0.00000000E+00  0.00000000E+00  0.00000000E+00
  0.00000000E+00  0.00000000E+00  0.00000000E+00
  0.00000000E+00  0.00000000E+00  0.00000000E+00
  0.00000000E+00  0.00000000E+00  0.00000000E+00
  0.00000000E+00  0.00000000E+00  0.00000000E+00
  0.00000000E+00  0.00000000E+00  0.00000000E+00
  0.00000000E+00  0.00000000E+00  0.00000000E+00
  0.00000000E+00  0.00000000E+00  0.00000000E+00
  0.00000000E+00  0.00000000E+00  0.00000000E+00
  0.00000000E+00  0.00000000E+00  0.00000000E+00
  0.00000000E+00  0.00000000E+00  0.00000000E+00
  0.00000000E+00  0.00000000E+00  0.00000000E+00
  0.00000000E+00  0.00000000E+00  0.00000000E+00
  0.00000000E+00  0.00000000E+00  0.00000000E+00
  0.00000000E+00  0.00000000E+00  0.00000000E+00
  0.00000000E+00  0.00000000E+00  0.00000000E+00
  0.00000000E+00  0.00000000E+00  0.00000000E+00
  0.00000000E+00  0.00000000E+00  0.00000000E+00
  0.00000000E+00  0.00000000E+00  0.00000000E+00
  0.00000000E+00  0.00000000E+00  0.00000000E+00
  0.00000000E+00  0.00000000E+00  0.00000000E+00
  0.00000000E+00  0.00000000E+00  0.00000000E+00
  0.00000000E+00  0.00000000E+00  0.00000000E+00
  0.00000000E+00  0.00000000E+00  0.00000000E+00
  0.00000000E+00  0.00000000E+00  0.00000000E+00
  0.00000000E+00  0.00000000E+00  0.00000000E+00
  0.00000000E+00  0.00000000E+00  0.00000000E+00
  0.00000000E+00  0.00000000E+00  0.00000000E+00
  0.00000000E+00  0.00000000E+00  0.00000000E+00
  0.00000000E+00  0.00000000E+00  0.00000000E+00
  0.00000000E+00  0.00000000E+00  0.00000000E+00
  0.00000000E+00  0.00000000E+00  0.00000000E+00
  0.00000000E+00  0.00000000E+00  0.00000000E+00
  0.00000000E+00  0.00000000E+00  0.00000000E+00
  0.00000000E+00  0.00000000E+00  0.00000000E+00
  0.00000000E+00  0.00000000E+00  0.00000000E+00
  0.00000000E+00  0.00000000E+00  0.00000000E+00
  0.00000000E+00  0.00000000E+00  0.00000000E+00
  0.00000000E+00  0.00000000E+00  0.00000000E+00
  0.00000000E+00  0.00000000E+00  0.00000000E+00
  0.00000000E+00  0.00000000E+00  0.00000000E+00
  0.00000000E+00  0.00000000E+00  0.00000000E+00
  0.00000000E+00  0.00000000E+00  0.00000000E+00
  0.00000000E+00  0.00000000E+00  0.00000000E+00
  0.00000000E+00  0.00000000E+00  0.00000000E+00
  0.00000000E+00  0.00000000E+00  0.00000000E+00
  0.00000000E+00  0.00000000E+00  0.00000000E+00
  0.00000000E+00  0.00000000E+00  0.00000000E+00
  0.00000000E+00  0.00000000E+00  0.00000000E+00
  0.00000000E+00  0.00000000E+00  0.00000000E+00
  0.00000000E+00  0.00000000E+00  0.00000000E+00
  0.00000000E+00  0.00000000E+00  0.00000000E+00
  0.00000000E+00  0.00000000E+00  0.00000000E+00
  0.00000000E+00  0.00000000E+00  0.00000000E+00
  0.00000000E+00  0.00000000E+00  0.00000000E+00
  0.00000000E+00  0.00000000E+00  0.00000000E+00
  0.00000000E+00  0.00000000E+00  0.00000000E+00
  0.00000000E+00  0.00000000E+00  0.00000000E+00
  0.00000000E+00  0.00000000E+00  0.00000000E+00
  0.00000000E+00  0.00000000E+00  0.00000000E+00
  0.00000000E+00  0.00000000E+00  0.00000000E+00
  0.00000000E+00  0.00000000E+00  0.00000000E+00
  0.00000000E+00  0.00000000E+00  0.00000000E+00
  0.00000000E+00  0.00000000E+00  0.00000000E+00
  0.00000000E+00  0.00000000E+00  0.00000000E+00
  0.00000000E+00  0.00000000E+00  0.00000000E+00
  0.00000000E+00  0.00000000E+00  0.00000000E+00
  0.00000000E+00  0.00000000E+00  0.00000000E+00
  0.00000000E+00  0.00000000E+00  0.00000000E+00
  0.00000000E+00  0.00000000E+00  0.00000000E+00
  0.00000000E+00  0.00000000E+00  0.00000000E+00
  0.00000000E+00  0.00000000E+00  0.00000000E+00
  0.00000000E+00  0.00000000E+00  0.00000000E+00
  0.00000000E+00  0.00000000E+00  0.00000000E+00
  0.00000000E+00  0.00000000E+00  0.00000000E+00
  0.00000000E+00  0.00000000E+00  0.00000000E+00
  0.00000000E+00  0.00000000E+00  0.00000000E+00
