Ni1 C124 N2                             
   1.00000000000000     
    19.8210240744000146   -0.0047583145064050    0.0111916239333707
    -9.9149020071015439   17.0348823470322159   -0.0055169459512100
     0.0168441611060529    0.0001465120228492   29.8055863763740447
   Ni   C    N 
     1   124     2
Direct
  0.4374856630733892  0.5000067344633629  0.4049838589172436
  0.0421186017412298  0.0842574481859084  0.4000384018848004
  0.0410287927975202  0.2082410517949858  0.4001853950496385
  0.0402993895798903  0.3327675444531912  0.4000417558793166
  0.0403758407383240  0.4582765309696108  0.3995917176126490
  0.0412943826415810  0.5837641612656822  0.3992869604517134
  0.0420058655998624  0.7091651805315369  0.3993275805913635
  0.0424538906756435  0.8346103276379994  0.3995168700095595
  0.0426200333439424  0.9598070514779282  0.3997361860757563
  0.1683085855857250  0.0861624977157957  0.4006036034104678
  0.1675060411408850  0.2104567729368643  0.4015085107249772
  0.1653168864971353  0.3338850990760976  0.4018509777182716
  0.1637787240504173  0.4583374324070521  0.4012363774986946
  0.1650220690450649  0.5836718893039697  0.4002367442564461
  0.1662960592045911  0.7091659706730361  0.3995924741521805
  0.1670691159308375  0.8346645790780824  0.3995228969527586
  0.1676839080079136  0.9603540884335522  0.3998830700515436
  0.2929613711440904  0.0859684908312753  0.4006212806358749
  0.2947551669285106  0.2135363442004706  0.4020896395550796
  0.2929910464727147  0.3386413769087249  0.4034993739994965
  0.2873293105884429  0.4585607982950987  0.4036183852921201
  0.2884607627694387  0.5841544970214929  0.4022233114986039
  0.2904302244986551  0.7089343763993585  0.4006657416911278
  0.2915767728617891  0.8341256882712166  0.3997252884673407
  0.2921415458775495  0.9597523448941077  0.3997425665715131
  0.4172174077198937  0.0842112712627680  0.4000782990853132
  0.4179546574244777  0.2103406715188253  0.4015364521897434
  0.4218445089056431  0.3394732168157706  0.4034390970016857
  0.4144424376479253  0.7058401688197753  0.4023621138963555
  0.4159390924424288  0.8323116580816173  0.4005914184971491
  0.4165678357106111  0.9582222972267711  0.3997175694273302
  0.5415253377054318  0.0824058033450802  0.3996694945388172
  0.5422343478516554  0.2079109816403532  0.4002802550745662
  0.5435958227348751  0.3330863370981721  0.4017922039238015
  0.5452919716620155  0.4567287996196050  0.4034637954842437
  0.5434932942777474  0.5784527502583225  0.4043312288068264
  0.5382321664007716  0.7022229795171430  0.4032137841100987
  0.5399882404517944  0.8301463740904632  0.4014581817762533
  0.5410104373724346  0.9565666295007125  0.4001202209547356
  0.6660023874039073  0.0816731281989119  0.3996947421642226
  0.6666505679817671  0.2072681982851099  0.3995626978111734
  0.6675613608592831  0.3326517368049864  0.4000513030023974
  0.6693912875934896  0.4581762867247281  0.4011444261891137
  0.6699733255266261  0.5830108430479025  0.4022268450509522
  0.6660960080130562  0.7058093860498598  0.4023850832427875
  0.6646510146935106  0.8298271460227892  0.4014520827626585
  0.6654436650374052  0.9559363573665021  0.4003564170531425
  0.7907405768423312  0.0816800774264857  0.3996571762738518
  0.7911028172003457  0.2070717034727415  0.3994196585037525
  0.7917966381094431  0.3326063561098724  0.3993146552081356
  0.7928222028259303  0.4581747415254929  0.3995172251010911
  0.7936223564500480  0.5835346090736560  0.4001024016126836
  0.7928458281210990  0.7084019818145005  0.4006211254201369
  0.7912826860640890  0.8322787094139255  0.4005832598131369
  0.7904229552480946  0.9564397151740640  0.4000905207481761
  0.9160340703416009  0.0825231681815712  0.3996103668231278
  0.9157895118703938  0.2073573437055219  0.3995025503712071
  0.9159791967757749  0.3326272515393923  0.3993216620629020
  0.9165526261361067  0.4581089175263403  0.3991160142363618
  0.9174599190688307  0.5837197197136097  0.3992121424081738
  0.9176703839004567  0.7091205871310663  0.3995254140575556
  0.9173273839121472  0.8339141394492740  0.3997057274029054
  0.9166042679785883  0.9582038313775820  0.3997023996354242
  0.0845947389545290  0.0435552920496995  0.4001010519308841
  0.0837235709552929  0.1677176307462718  0.4005385975961408
  0.0821474033444822  0.2915932446097856  0.4006230534606592
  0.0813690283209782  0.4164626683049542  0.4002015426114426
  0.0821624229197888  0.5418190387985454  0.3996098400506265
  0.0831989112622929  0.6673847892963775  0.3993673275710958
  0.0839053314721404  0.7929185528642060  0.3994508618090580
  0.0842743205376169  0.9183174271347000  0.3997007162492910
  0.2095801260069860  0.0440694665027692  0.4003624939951058
  0.2103481668478226  0.1701696606955186  0.4014393864775256
  0.2089030408898696  0.2942006170130968  0.4023870088233368
  0.2050128190495622  0.4169917512717866  0.4022958951890185
  0.2055916430358448  0.5418265870573808  0.4012413785344632
  0.2074321630140957  0.6673471664402971  0.4000996079400710
  0.2083549298138101  0.7927249234837751  0.3995705186094875
  0.2090057538197197  0.9183239358133211  0.3997029860486731
  0.3340022729739753  0.0434388875288677  0.4001138381199006
  0.3350167498801032  0.1698591302296437  0.4014527835829584
  0.3367573320075559  0.2977773239267206  0.4032138645063919
  0.3314843173935989  0.4215569846829559  0.4043696563426565
  0.3296876556473671  0.5432803230177934  0.4035155523965201
  0.3314003697294273  0.6669240676864951  0.4017957557700954
  0.3327743190243198  0.7920887693694264  0.4002629674226706
  0.3334762943892906  0.9175895136635168  0.3996568560673138
  0.4584384025248752  0.0417800963692398  0.3997265249351266
  0.4590673990345703  0.1676977483977329  0.4006068646939725
  0.4605612540564101  0.2941704758660642  0.4023654375215227
  0.4531421089058733  0.6605315823843050  0.4034489824521927
  0.4570464192562375  0.7896712731280694  0.4015216133865833
  0.4577934430628045  0.9157960944297922  0.4000718267312646
  0.5828666330140483  0.0402424815895440  0.3997474344245557
  0.5834275189620985  0.1658646919114319  0.3997388199520278
  0.5845689140792993  0.2910696724127707  0.4006580967184384
  0.5865203142419981  0.4158485036126643  0.4021861040543397
  0.5876467140956181  0.5414447057592389  0.4035562837024720
  0.5820059851625309  0.6613761479157526  0.4034878017974419
  0.5802394838944759  0.7864659014981911  0.4021047143972835
  0.5820572009932999  0.9140355729379968  0.4006176760132783
  0.7073272746880046  0.0396449073987763  0.3998647044966278
  0.7079359648919383  0.1653300878915784  0.3995048577942570
  0.7086969850959147  0.2908268290249733  0.3995508676528564
  0.7099596765062361  0.4163224789976875  0.4001467107262346
  0.7112144618018243  0.5416617220809175  0.4011317742573149
  0.7096724152914965  0.6661181986216698  0.4018218799539970
  0.7074901857985293  0.7895435212806735  0.4015307352157226
  0.7067096702266248  0.9138328962803826  0.4005940238385122
  0.8324001911320849  0.0401903035975205  0.3997061428335893
  0.8325612171220408  0.1653817691173535  0.3994734366553626
  0.8329890761170645  0.2908225784634431  0.3992989988766860
  0.8337004318477522  0.4162325148370158  0.3992229938988176
  0.8346071850269554  0.5417130205472573  0.3994965589409241
  0.8346946611695689  0.6672262077270829  0.3999938700686109
  0.8339783027080014  0.7917623626492400  0.4002314137593698
  0.8329011106226959  0.9157427279623647  0.4000580851365894
  0.9584134707133343  0.0417994869085930  0.3996871831931337
  0.9576880970026639  0.1660891960854598  0.3996463036040839
  0.9573307828223098  0.2908785563671872  0.3995281494883549
  0.9575401735947756  0.4162767263268879  0.3992552614258074
  0.9584467822010398  0.5418842244294858  0.3991212682733652
  0.9590108580307627  0.6673639689437414  0.3993123326172262
  0.9592238487355284  0.7926500675945658  0.3995458412985243
  0.9589834491335228  0.9174793006288677  0.3996437145954959
  0.4086904837665879  0.5796948657817849  0.4042547732767103
  0.4662791243209678  0.4203106288970921  0.4042184155653789
 
  0.00000000E+00  0.00000000E+00  0.00000000E+00
  0.00000000E+00  0.00000000E+00  0.00000000E+00
  0.00000000E+00  0.00000000E+00  0.00000000E+00
  0.00000000E+00  0.00000000E+00  0.00000000E+00
  0.00000000E+00  0.00000000E+00  0.00000000E+00
  0.00000000E+00  0.00000000E+00  0.00000000E+00
  0.00000000E+00  0.00000000E+00  0.00000000E+00
  0.00000000E+00  0.00000000E+00  0.00000000E+00
  0.00000000E+00  0.00000000E+00  0.00000000E+00
  0.00000000E+00  0.00000000E+00  0.00000000E+00
  0.00000000E+00  0.00000000E+00  0.00000000E+00
  0.00000000E+00  0.00000000E+00  0.00000000E+00
  0.00000000E+00  0.00000000E+00  0.00000000E+00
  0.00000000E+00  0.00000000E+00  0.00000000E+00
  0.00000000E+00  0.00000000E+00  0.00000000E+00
  0.00000000E+00  0.00000000E+00  0.00000000E+00
  0.00000000E+00  0.00000000E+00  0.00000000E+00
  0.00000000E+00  0.00000000E+00  0.00000000E+00
  0.00000000E+00  0.00000000E+00  0.00000000E+00
  0.00000000E+00  0.00000000E+00  0.00000000E+00
  0.00000000E+00  0.00000000E+00  0.00000000E+00
  0.00000000E+00  0.00000000E+00  0.00000000E+00
  0.00000000E+00  0.00000000E+00  0.00000000E+00
  0.00000000E+00  0.00000000E+00  0.00000000E+00
  0.00000000E+00  0.00000000E+00  0.00000000E+00
  0.00000000E+00  0.00000000E+00  0.00000000E+00
  0.00000000E+00  0.00000000E+00  0.00000000E+00
  0.00000000E+00  0.00000000E+00  0.00000000E+00
  0.00000000E+00  0.00000000E+00  0.00000000E+00
  0.00000000E+00  0.00000000E+00  0.00000000E+00
  0.00000000E+00  0.00000000E+00  0.00000000E+00
  0.00000000E+00  0.00000000E+00  0.00000000E+00
  0.00000000E+00  0.00000000E+00  0.00000000E+00
  0.00000000E+00  0.00000000E+00  0.00000000E+00
  0.00000000E+00  0.00000000E+00  0.00000000E+00
  0.00000000E+00  0.00000000E+00  0.00000000E+00
  0.00000000E+00  0.00000000E+00  0.00000000E+00
  0.00000000E+00  0.00000000E+00  0.00000000E+00
  0.00000000E+00  0.00000000E+00  0.00000000E+00
  0.00000000E+00  0.00000000E+00  0.00000000E+00
  0.00000000E+00  0.00000000E+00  0.00000000E+00
  0.00000000E+00  0.00000000E+00  0.00000000E+00
  0.00000000E+00  0.00000000E+00  0.00000000E+00
  0.00000000E+00  0.00000000E+00  0.00000000E+00
  0.00000000E+00  0.00000000E+00  0.00000000E+00
  0.00000000E+00  0.00000000E+00  0.00000000E+00
  0.00000000E+00  0.00000000E+00  0.00000000E+00
  0.00000000E+00  0.00000000E+00  0.00000000E+00
  0.00000000E+00  0.00000000E+00  0.00000000E+00
  0.00000000E+00  0.00000000E+00  0.00000000E+00
  0.00000000E+00  0.00000000E+00  0.00000000E+00
  0.00000000E+00  0.00000000E+00  0.00000000E+00
  0.00000000E+00  0.00000000E+00  0.00000000E+00
  0.00000000E+00  0.00000000E+00  0.00000000E+00
  0.00000000E+00  0.00000000E+00  0.00000000E+00
  0.00000000E+00  0.00000000E+00  0.00000000E+00
  0.00000000E+00  0.00000000E+00  0.00000000E+00
  0.00000000E+00  0.00000000E+00  0.00000000E+00
  0.00000000E+00  0.00000000E+00  0.00000000E+00
  0.00000000E+00  0.00000000E+00  0.00000000E+00
  0.00000000E+00  0.00000000E+00  0.00000000E+00
  0.00000000E+00  0.00000000E+00  0.00000000E+00
  0.00000000E+00  0.00000000E+00  0.00000000E+00
  0.00000000E+00  0.00000000E+00  0.00000000E+00
  0.00000000E+00  0.00000000E+00  0.00000000E+00
  0.00000000E+00  0.00000000E+00  0.00000000E+00
  0.00000000E+00  0.00000000E+00  0.00000000E+00
  0.00000000E+00  0.00000000E+00  0.00000000E+00
  0.00000000E+00  0.00000000E+00  0.00000000E+00
  0.00000000E+00  0.00000000E+00  0.00000000E+00
  0.00000000E+00  0.00000000E+00  0.00000000E+00
  0.00000000E+00  0.00000000E+00  0.00000000E+00
  0.00000000E+00  0.00000000E+00  0.00000000E+00
  0.00000000E+00  0.00000000E+00  0.00000000E+00
  0.00000000E+00  0.00000000E+00  0.00000000E+00
  0.00000000E+00  0.00000000E+00  0.00000000E+00
  0.00000000E+00  0.00000000E+00  0.00000000E+00
  0.00000000E+00  0.00000000E+00  0.00000000E+00
  0.00000000E+00  0.00000000E+00  0.00000000E+00
  0.00000000E+00  0.00000000E+00  0.00000000E+00
  0.00000000E+00  0.00000000E+00  0.00000000E+00
  0.00000000E+00  0.00000000E+00  0.00000000E+00
  0.00000000E+00  0.00000000E+00  0.00000000E+00
  0.00000000E+00  0.00000000E+00  0.00000000E+00
  0.00000000E+00  0.00000000E+00  0.00000000E+00
  0.00000000E+00  0.00000000E+00  0.00000000E+00
  0.00000000E+00  0.00000000E+00  0.00000000E+00
  0.00000000E+00  0.00000000E+00  0.00000000E+00
  0.00000000E+00  0.00000000E+00  0.00000000E+00
  0.00000000E+00  0.00000000E+00  0.00000000E+00
  0.00000000E+00  0.00000000E+00  0.00000000E+00
  0.00000000E+00  0.00000000E+00  0.00000000E+00
  0.00000000E+00  0.00000000E+00  0.00000000E+00
  0.00000000E+00  0.00000000E+00  0.00000000E+00
  0.00000000E+00  0.00000000E+00  0.00000000E+00
  0.00000000E+00  0.00000000E+00  0.00000000E+00
  0.00000000E+00  0.00000000E+00  0.00000000E+00
  0.00000000E+00  0.00000000E+00  0.00000000E+00
  0.00000000E+00  0.00000000E+00  0.00000000E+00
  0.00000000E+00  0.00000000E+00  0.00000000E+00
  0.00000000E+00  0.00000000E+00  0.00000000E+00
  0.00000000E+00  0.00000000E+00  0.00000000E+00
  0.00000000E+00  0.00000000E+00  0.00000000E+00
  0.00000000E+00  0.00000000E+00  0.00000000E+00
  0.00000000E+00  0.00000000E+00  0.00000000E+00
  0.00000000E+00  0.00000000E+00  0.00000000E+00
  0.00000000E+00  0.00000000E+00  0.00000000E+00
  0.00000000E+00  0.00000000E+00  0.00000000E+00
  0.00000000E+00  0.00000000E+00  0.00000000E+00
  0.00000000E+00  0.00000000E+00  0.00000000E+00
  0.00000000E+00  0.00000000E+00  0.00000000E+00
  0.00000000E+00  0.00000000E+00  0.00000000E+00
  0.00000000E+00  0.00000000E+00  0.00000000E+00
  0.00000000E+00  0.00000000E+00  0.00000000E+00
  0.00000000E+00  0.00000000E+00  0.00000000E+00
  0.00000000E+00  0.00000000E+00  0.00000000E+00
  0.00000000E+00  0.00000000E+00  0.00000000E+00
  0.00000000E+00  0.00000000E+00  0.00000000E+00
  0.00000000E+00  0.00000000E+00  0.00000000E+00
  0.00000000E+00  0.00000000E+00  0.00000000E+00
  0.00000000E+00  0.00000000E+00  0.00000000E+00
  0.00000000E+00  0.00000000E+00  0.00000000E+00
  0.00000000E+00  0.00000000E+00  0.00000000E+00
  0.00000000E+00  0.00000000E+00  0.00000000E+00
  0.00000000E+00  0.00000000E+00  0.00000000E+00
  0.00000000E+00  0.00000000E+00  0.00000000E+00
  0.00000000E+00  0.00000000E+00  0.00000000E+00
