Cu1 H1 C122 N4                          
   1.00000000000000     
    19.8102421119531762    0.0000230525405755    0.0089573007808426
    -9.9051012398759077   17.0209117805663475   -0.0045250041764125
     0.0134802457108304   -0.0000815730494447   29.8420912325243819
   Cu   H    C    N 
     1     1   122     4
Direct
  0.4374854647606511  0.5000003279286368  0.4253511612288113
  0.4374463992459140  0.4999998921464718  0.4753241749148053
  0.0420718120063954  0.0842489663766546  0.4000106428508885
  0.0408955063834731  0.2081336589102624  0.4002198503779111
  0.0401774029935818  0.3328006900490114  0.3999192019503113
  0.0403564408751894  0.4581523474425095  0.3995471027286568
  0.0412771586758659  0.5837629062167132  0.3993933815858690
  0.0421556604812565  0.7093096042041821  0.3994573514378836
  0.0425834641214250  0.8347361161420732  0.3995988741770571
  0.0427030381049961  0.9599171829290820  0.3997842987216761
  0.1684036122421702  0.0863208273552495  0.4005357909967151
  0.1674126104595358  0.2104620404953385  0.4015682141537547
  0.1649416492285641  0.3336052618488961  0.4015949419706347
  0.1640867270356389  0.4583415528595225  0.4002742285576381
  0.1650574608564989  0.5836131399825312  0.3998929445952199
  0.1663402578901043  0.7091230260664904  0.3995915557523226
  0.1671584630219986  0.8347427511803701  0.3995853403119294
  0.1677355895223862  0.9604392529197550  0.3998114328718592
  0.2929332731558024  0.0863067785532013  0.4005279869223967
  0.2946237291018607  0.2142339703961144  0.4023376258822010
  0.2923946625263503  0.3394283192400781  0.4041159157627190
  0.2876314618908515  0.4573850262762280  0.4028579769297680
  0.2884659292069991  0.5831197793372530  0.4013471412279778
  0.2904286784956425  0.7085214502886411  0.4004900616638452
  0.2915608932173980  0.8340506319970293  0.3997623075481040
  0.2922477819850502  0.9599060086857105  0.3997451380908953
  0.4171990055384582  0.0842347244263602  0.4000452404927063
  0.4180491786703179  0.2104578043367420  0.4016286998558065
  0.4220223418119372  0.3394342638205201  0.4041065251614342
  0.4143436850933795  0.7059405447886307  0.4027499269011147
  0.4159225770537735  0.8322281907526038  0.4004690599264984
  0.4166252032277554  0.9582334155704350  0.3997612193994804
  0.5415613948359651  0.0823930221568601  0.3997545642710378
  0.5422417734846178  0.2081336553276464  0.4002895642004099
  0.5436490660018147  0.3336091383689449  0.4015566223602405
  0.5447251447474585  0.4573886103883540  0.4027457264992942
  0.5379276920725771  0.7008486068381378  0.4035386908612077
  0.5400922207514545  0.8296199887842038  0.4015211062971257
  0.5409673009768005  0.9563219333216142  0.4000637534408422
  0.6659900861610100  0.0815895895090241  0.3997184633958202
  0.6665782507867928  0.2072324513001004  0.3996431691103624
  0.6676008716150763  0.3328046644301808  0.3998875382587087
  0.6692416929461670  0.4583518213268424  0.4001153188070252
  0.6696418007977654  0.5831253486734944  0.4012225406393686
  0.6665906389501387  0.7059471892091989  0.4027690403903888
  0.6645469456217712  0.8296344989907699  0.4015604390609401
  0.6653904236119011  0.9557502588236614  0.4002403582031001
  0.7906366358316207  0.0815791485271553  0.3996936301465517
  0.7910110238528557  0.2070131186264182  0.3995505353410331
  0.7917124877423573  0.3325680255127950  0.3994209850527793
  0.7927708225437344  0.4581699152586157  0.3994328637867445
  0.7935293621205164  0.5836059166348235  0.3997707392244265
  0.7930735964589517  0.7085299815333830  0.4004952241526206
  0.7913245664612829  0.8322360055196958  0.4005463130942210
  0.7903851727732154  0.9563337665565487  0.4000575410366986
  0.9158728109326918  0.0824037659638955  0.3997134361231038
  0.9156589270760854  0.2072485767157525  0.3996150108845829
  0.9158446649428489  0.3325756223494368  0.3994385910838589
  0.9165517977225964  0.4581401490674253  0.3993221391483237
  0.9174519389685184  0.5837719878843912  0.3993330154562662
  0.9177639986739664  0.7091287778405587  0.3995889025480276
  0.9175080716630652  0.8340623251211379  0.3998233406931544
  0.9166590546425476  0.9582475304798310  0.3997828719928340
  0.0846443697599478  0.0436776660725570  0.4000639747482325
  0.0836942780820235  0.1677717034998052  0.4004677396280182
  0.0819072053567320  0.2914774392618270  0.4004894519474048
  0.0814433848527370  0.4163864118595226  0.3998926883536270
  0.0822031670402754  0.5418471704611610  0.3995469095907271
  0.0832684806740930  0.6674246622251730  0.3994375769240868
  0.0839984212722490  0.7929882025665490  0.3995502927127826
  0.0843996006390544  0.9184103541860710  0.3997186562260194
  0.2096399673527272  0.0442502906126278  0.4002400102013099
  0.2104727812685514  0.1703794061252716  0.4015206572385883
  0.2084043551725626  0.2940609835488039  0.4027489005019108
  0.2053466353796231  0.4168804590153141  0.4013461654116874
  0.2057449458214369  0.5416583314007611  0.4002739568993527
  0.2073774149508928  0.6671999737538130  0.3999194706693603
  0.2084111840674768  0.7927517411842495  0.3996151063354982
  0.2090576421346053  0.9184195746343020  0.3996938959638537
  0.3340517095221366  0.0436663350997302  0.4000576263626959
  0.3349135487056539  0.1703679556770976  0.4015608307511183
  0.3370802834780790  0.2991514343484297  0.4035386884666596
  0.3302453750132282  0.5426146691516480  0.4028584043524908
  0.3313346094120920  0.6663937249539351  0.4015963474191306
  0.3327621527967866  0.7918670753603823  0.4002210817314893
  0.3334686664876684  0.9175956643912165  0.3997137002346730
  0.4584107242199926  0.0417513305103185  0.3997824699394611
  0.4590878124666934  0.1677644002690994  0.4005462340054312
  0.4606438147014588  0.2940534453089788  0.4027686231562649
  0.4529690554827033  0.6605745480872129  0.4041167548437691
  0.4569513084107057  0.7895385835452994  0.4015693225235513
  0.4578225166229970  0.9157518103090739  0.4000116717376698
  0.5827858247174033  0.0400825350765851  0.3997839537931607
  0.5834446057658917  0.1659374606638429  0.3998220502003166
  0.5845426580690758  0.2914727216413406  0.4004941824775997
  0.5865159473353698  0.4168769131311381  0.4012224778625859
  0.5873359136827173  0.5426104111298146  0.4027462620385283
  0.5825863465342663  0.6605632105883947  0.4041072396492640
  0.5803900036476146  0.7857654460542510  0.4023379593860444
  0.5820823644877055  0.9136792235716672  0.4005358841966831
  0.7072956912657673  0.0395625229197330  0.3998108980230564
  0.7078471400919775  0.1652641270061491  0.3995986121205283
  0.7086342346696696  0.2908721883491440  0.3995889847870659
  0.7099190471677126  0.4163948661821262  0.3997709324643038
  0.7108856353413462  0.5416490220530749  0.4001156072472281
  0.7100369800549911  0.6663882172557705  0.4015573378351912
  0.7075910550451346  0.7895413564391776  0.4016287884584767
  0.7066260130244461  0.9136927266431234  0.4005276803787229
  0.8323427557933740  0.0400942142646325  0.3997447415841608
  0.8324168746314962  0.1652577175260748  0.3995851109230482
  0.8328449637631981  0.2906889101227531  0.3994581442361878
  0.8336781646509543  0.4162279872227833  0.3993343419382405
  0.8345975278827995  0.5418317262623009  0.3994321095742100
  0.8347921819387768  0.6671935011816442  0.3998878262860159
  0.8341058945338744  0.7918650651103004  0.4002901722291763
  0.8329645537954187  0.9157655068386321  0.4000453805796921
  0.9583910271503245  0.0417666830387483  0.3997605077106465
  0.9575095982930812  0.1659492199275222  0.3997614050834370
  0.9572164536473362  0.2908757856990309  0.3995919662058911
  0.9575140472131417  0.4162359666636122  0.3993944457568382
  0.9584118653675507  0.5418598109425466  0.3993217395946947
  0.9591430824936794  0.6674312408734463  0.3994202734928429
  0.9593458026118681  0.7927676437435685  0.3996437898079295
  0.9591686005536353  0.9176076965171504  0.3997548825238993
  0.4090945845797078  0.5804324819132490  0.4048858294099147
  0.5463161508673050  0.5804352576859322  0.4048364520780856
  0.3286618277989245  0.4195668595878367  0.4048855736876616
  0.4658828157378775  0.4195675841884622  0.4048358969917821
 
  0.00000000E+00  0.00000000E+00  0.00000000E+00
  0.00000000E+00  0.00000000E+00  0.00000000E+00
  0.00000000E+00  0.00000000E+00  0.00000000E+00
  0.00000000E+00  0.00000000E+00  0.00000000E+00
  0.00000000E+00  0.00000000E+00  0.00000000E+00
  0.00000000E+00  0.00000000E+00  0.00000000E+00
  0.00000000E+00  0.00000000E+00  0.00000000E+00
  0.00000000E+00  0.00000000E+00  0.00000000E+00
  0.00000000E+00  0.00000000E+00  0.00000000E+00
  0.00000000E+00  0.00000000E+00  0.00000000E+00
  0.00000000E+00  0.00000000E+00  0.00000000E+00
  0.00000000E+00  0.00000000E+00  0.00000000E+00
  0.00000000E+00  0.00000000E+00  0.00000000E+00
  0.00000000E+00  0.00000000E+00  0.00000000E+00
  0.00000000E+00  0.00000000E+00  0.00000000E+00
  0.00000000E+00  0.00000000E+00  0.00000000E+00
  0.00000000E+00  0.00000000E+00  0.00000000E+00
  0.00000000E+00  0.00000000E+00  0.00000000E+00
  0.00000000E+00  0.00000000E+00  0.00000000E+00
  0.00000000E+00  0.00000000E+00  0.00000000E+00
  0.00000000E+00  0.00000000E+00  0.00000000E+00
  0.00000000E+00  0.00000000E+00  0.00000000E+00
  0.00000000E+00  0.00000000E+00  0.00000000E+00
  0.00000000E+00  0.00000000E+00  0.00000000E+00
  0.00000000E+00  0.00000000E+00  0.00000000E+00
  0.00000000E+00  0.00000000E+00  0.00000000E+00
  0.00000000E+00  0.00000000E+00  0.00000000E+00
  0.00000000E+00  0.00000000E+00  0.00000000E+00
  0.00000000E+00  0.00000000E+00  0.00000000E+00
  0.00000000E+00  0.00000000E+00  0.00000000E+00
  0.00000000E+00  0.00000000E+00  0.00000000E+00
  0.00000000E+00  0.00000000E+00  0.00000000E+00
  0.00000000E+00  0.00000000E+00  0.00000000E+00
  0.00000000E+00  0.00000000E+00  0.00000000E+00
  0.00000000E+00  0.00000000E+00  0.00000000E+00
  0.00000000E+00  0.00000000E+00  0.00000000E+00
  0.00000000E+00  0.00000000E+00  0.00000000E+00
  0.00000000E+00  0.00000000E+00  0.00000000E+00
  0.00000000E+00  0.00000000E+00  0.00000000E+00
  0.00000000E+00  0.00000000E+00  0.00000000E+00
  0.00000000E+00  0.00000000E+00  0.00000000E+00
  0.00000000E+00  0.00000000E+00  0.00000000E+00
  0.00000000E+00  0.00000000E+00  0.00000000E+00
  0.00000000E+00  0.00000000E+00  0.00000000E+00
  0.00000000E+00  0.00000000E+00  0.00000000E+00
  0.00000000E+00  0.00000000E+00  0.00000000E+00
  0.00000000E+00  0.00000000E+00  0.00000000E+00
  0.00000000E+00  0.00000000E+00  0.00000000E+00
  0.00000000E+00  0.00000000E+00  0.00000000E+00
  0.00000000E+00  0.00000000E+00  0.00000000E+00
  0.00000000E+00  0.00000000E+00  0.00000000E+00
  0.00000000E+00  0.00000000E+00  0.00000000E+00
  0.00000000E+00  0.00000000E+00  0.00000000E+00
  0.00000000E+00  0.00000000E+00  0.00000000E+00
  0.00000000E+00  0.00000000E+00  0.00000000E+00
  0.00000000E+00  0.00000000E+00  0.00000000E+00
  0.00000000E+00  0.00000000E+00  0.00000000E+00
  0.00000000E+00  0.00000000E+00  0.00000000E+00
  0.00000000E+00  0.00000000E+00  0.00000000E+00
  0.00000000E+00  0.00000000E+00  0.00000000E+00
  0.00000000E+00  0.00000000E+00  0.00000000E+00
  0.00000000E+00  0.00000000E+00  0.00000000E+00
  0.00000000E+00  0.00000000E+00  0.00000000E+00
  0.00000000E+00  0.00000000E+00  0.00000000E+00
  0.00000000E+00  0.00000000E+00  0.00000000E+00
  0.00000000E+00  0.00000000E+00  0.00000000E+00
  0.00000000E+00  0.00000000E+00  0.00000000E+00
  0.00000000E+00  0.00000000E+00  0.00000000E+00
  0.00000000E+00  0.00000000E+00  0.00000000E+00
  0.00000000E+00  0.00000000E+00  0.00000000E+00
  0.00000000E+00  0.00000000E+00  0.00000000E+00
  0.00000000E+00  0.00000000E+00  0.00000000E+00
  0.00000000E+00  0.00000000E+00  0.00000000E+00
  0.00000000E+00  0.00000000E+00  0.00000000E+00
  0.00000000E+00  0.00000000E+00  0.00000000E+00
  0.00000000E+00  0.00000000E+00  0.00000000E+00
  0.00000000E+00  0.00000000E+00  0.00000000E+00
  0.00000000E+00  0.00000000E+00  0.00000000E+00
  0.00000000E+00  0.00000000E+00  0.00000000E+00
  0.00000000E+00  0.00000000E+00  0.00000000E+00
  0.00000000E+00  0.00000000E+00  0.00000000E+00
  0.00000000E+00  0.00000000E+00  0.00000000E+00
  0.00000000E+00  0.00000000E+00  0.00000000E+00
  0.00000000E+00  0.00000000E+00  0.00000000E+00
  0.00000000E+00  0.00000000E+00  0.00000000E+00
  0.00000000E+00  0.00000000E+00  0.00000000E+00
  0.00000000E+00  0.00000000E+00  0.00000000E+00
  0.00000000E+00  0.00000000E+00  0.00000000E+00
  0.00000000E+00  0.00000000E+00  0.00000000E+00
  0.00000000E+00  0.00000000E+00  0.00000000E+00
  0.00000000E+00  0.00000000E+00  0.00000000E+00
  0.00000000E+00  0.00000000E+00  0.00000000E+00
  0.00000000E+00  0.00000000E+00  0.00000000E+00
  0.00000000E+00  0.00000000E+00  0.00000000E+00
  0.00000000E+00  0.00000000E+00  0.00000000E+00
  0.00000000E+00  0.00000000E+00  0.00000000E+00
  0.00000000E+00  0.00000000E+00  0.00000000E+00
  0.00000000E+00  0.00000000E+00  0.00000000E+00
  0.00000000E+00  0.00000000E+00  0.00000000E+00
  0.00000000E+00  0.00000000E+00  0.00000000E+00
  0.00000000E+00  0.00000000E+00  0.00000000E+00
  0.00000000E+00  0.00000000E+00  0.00000000E+00
  0.00000000E+00  0.00000000E+00  0.00000000E+00
  0.00000000E+00  0.00000000E+00  0.00000000E+00
  0.00000000E+00  0.00000000E+00  0.00000000E+00
  0.00000000E+00  0.00000000E+00  0.00000000E+00
  0.00000000E+00  0.00000000E+00  0.00000000E+00
  0.00000000E+00  0.00000000E+00  0.00000000E+00
  0.00000000E+00  0.00000000E+00  0.00000000E+00
  0.00000000E+00  0.00000000E+00  0.00000000E+00
  0.00000000E+00  0.00000000E+00  0.00000000E+00
  0.00000000E+00  0.00000000E+00  0.00000000E+00
  0.00000000E+00  0.00000000E+00  0.00000000E+00
  0.00000000E+00  0.00000000E+00  0.00000000E+00
  0.00000000E+00  0.00000000E+00  0.00000000E+00
  0.00000000E+00  0.00000000E+00  0.00000000E+00
  0.00000000E+00  0.00000000E+00  0.00000000E+00
  0.00000000E+00  0.00000000E+00  0.00000000E+00
  0.00000000E+00  0.00000000E+00  0.00000000E+00
  0.00000000E+00  0.00000000E+00  0.00000000E+00
  0.00000000E+00  0.00000000E+00  0.00000000E+00
  0.00000000E+00  0.00000000E+00  0.00000000E+00
  0.00000000E+00  0.00000000E+00  0.00000000E+00
  0.00000000E+00  0.00000000E+00  0.00000000E+00
  0.00000000E+00  0.00000000E+00  0.00000000E+00
  0.00000000E+00  0.00000000E+00  0.00000000E+00
  0.00000000E+00  0.00000000E+00  0.00000000E+00
  0.00000000E+00  0.00000000E+00  0.00000000E+00
