Mn1 C122 N4 O1                          
   1.00000000000000     
    19.7971448700138772   -0.0000421209254062    0.0032727604245632
    -9.8986058025172259   17.0059751608403928   -0.0235380559326708
     0.0048453599331668   -0.0384513448114917   29.8881643029832880
   Mn   C    N    O 
     1   122     4     1
Direct
  0.4376655010455477  0.5002130953359599  0.4214447354326145
  0.0423442037430510  0.0844253440146264  0.4001120174573106
  0.0413697727956880  0.2084323626366723  0.4001341152789624
  0.0405423257958121  0.3330580860055977  0.3997499789190295
  0.0405947735197126  0.4582284263275502  0.3992979621647251
  0.0413618163314848  0.5836816861569518  0.3991954884932862
  0.0420571005192277  0.7090872155036395  0.3993595654051994
  0.0423460136555392  0.8343367464314506  0.3995903535942661
  0.0425331571313041  0.9596398518346330  0.3998352426266746
  0.1683412162102914  0.0860626343376235  0.4008087150830725
  0.1682627356967050  0.2110860563235476  0.4016396221185393
  0.1655359797594551  0.3340218553110681  0.4015015659996633
  0.1643813656133568  0.4585225772991343  0.4005141821816297
  0.1652720112301150  0.5836220925435337  0.3997234332543820
  0.1664302302712345  0.7088942528172737  0.3994530089809544
  0.1670294303337127  0.8343371867511874  0.3995575726488003
  0.1675385237452508  0.9600371841469696  0.3999416587667678
  0.2927626905085217  0.0860604115108204  0.4008015559429315
  0.2944766828511293  0.2139253659285497  0.4029026144129825
  0.2938381513244902  0.3402723030358630  0.4045180866878659
  0.2878728372148475  0.4584657472295118  0.4034887627822978
  0.2886970058137941  0.5829214734416076  0.4015843316994677
  0.2907846079912387  0.7082410090985213  0.4003454811778626
  0.2916870713141755  0.8338215586006090  0.3996584671366922
  0.2921495442193233  0.9596308636918486  0.3997904227406729
  0.4171259238524949  0.0844172457026616  0.4001257138516355
  0.4178500388688224  0.2110786594684624  0.4016562378273471
  0.4214561745811032  0.3402641011901509  0.4044578483040849
  0.4147382935545217  0.7050480329034191  0.4023291427135690
  0.4161764800013513  0.8318504361390753  0.4005491773881528
  0.4166997557583385  0.9581807845221123  0.3997470132394198
  0.5415804144722720  0.0826615855417694  0.3997251616141229
  0.5420931676952232  0.2084298131556842  0.4001790299416305
  0.5435010390254418  0.3340147177518254  0.4014606959662224
  0.5456168090135868  0.4584628924785202  0.4033190303606659
  0.5379055824798397  0.7007885455084910  0.4045454696799065
  0.5403886985293279  0.8297399534098980  0.4018209811526488
  0.5411623946247842  0.9565615961119390  0.4001951493737715
  0.6661749372692390  0.0820140240266694  0.3997681515762951
  0.6666283971193181  0.2075621934876185  0.3995664892121447
  0.6675280767547433  0.3330539134408404  0.3997577426604089
  0.6691544783006482  0.4585231726017475  0.4003975757340111
  0.6692503135699603  0.5829354434772048  0.4014815501834219
  0.6653431947020986  0.7050625480884740  0.4022930631287288
  0.6643888336267720  0.8297467134164500  0.4018182236271561
  0.6655854091740987  0.9561318132128991  0.4004875881029226
  0.7908860647301242  0.0820139618178090  0.3997314634911570
  0.7912320277413679  0.2074331278357881  0.3995136122410863
  0.7917637060474597  0.3328173706644851  0.3993133661770693
  0.7926439329104111  0.4582292546019283  0.3992664286013327
  0.7933620671634334  0.5836230254745254  0.3996522988038046
  0.7924828708873454  0.7082483329545900  0.4003378734527933
  0.7907171993834275  0.8318627796452974  0.4005700160105682
  0.7904502156893518  0.9565660478852455  0.4001752685444686
  0.9161312234737298  0.0826667982459786  0.3996723111715403
  0.9159632823952316  0.2075635767263375  0.3995193306120822
  0.9160726485633608  0.3328201833760869  0.3992969345985670
  0.9166361724573936  0.4582639771601552  0.3991197339290573
  0.9173369239243607  0.5836837539768704  0.3991784584393395
  0.9174900210659328  0.7088979924715039  0.3994656785151185
  0.9171740248979009  0.8338325406534617  0.3997041633171808
  0.9165349631873388  0.9581897244559014  0.3997643852928872
  0.0846334338663116  0.0435028136872394  0.4002028901421206
  0.0843579635201444  0.1682153097465628  0.4005768264429547
  0.0825728736593194  0.2918254089848795  0.4003831852356641
  0.0816654689185440  0.4164224185752918  0.3997283866316833
  0.0824004669717065  0.5418276853099434  0.3993009519308817
  0.0832876103549312  0.6672302826504303  0.3993156170513282
  0.0838211910498407  0.7926142514326089  0.3995160410995815
  0.0841856221718629  0.9180373558540637  0.3997710183499522
  0.2094844865331290  0.0439219003829416  0.4005019910450659
  0.2106829302801075  0.1703288263783503  0.4018655003060827
  0.2097300903855769  0.2950226981571293  0.4024056225272403
  0.2058062996939142  0.4171249469101247  0.4016320521228258
  0.2058751714716226  0.5415110517125560  0.4005038316645512
  0.2075235278795562  0.6669925447024122  0.3997459982473507
  0.2084348408569204  0.7924935933494343  0.3995229229979541
  0.2088945893654024  0.9180378795893185  0.3997360176317132
  0.3339113524577904  0.0434924885337493  0.4001852177307325
  0.3346720918720326  0.1703176891394561  0.4018709785114135
  0.3371692744604375  0.2993149774208876  0.4046453897002204
  0.3294371404356070  0.5416136050425797  0.4034554323487937
  0.3315420714279973  0.6660368871016253  0.4014278573863143
  0.3329645426614768  0.7916210271002514  0.4001100245081650
  0.3334945875606010  0.9173956303622173  0.3996758787516371
  0.4583768145703306  0.0418789061252716  0.3997731058479471
  0.4588843295768741  0.1682000868413169  0.4006120838124355
  0.4603102144685456  0.2950089002644600  0.4023835822722175
  0.4536137446976800  0.6598278697260556  0.4044239180721991
  0.4572051411063605  0.7889746602693543  0.4015926229694325
  0.4579471115006850  0.9156384611265328  0.4000952659802909
  0.5829233839814665  0.0404222815052425  0.3998279087293246
  0.5833736687122566  0.1662327072791149  0.3997186697063464
  0.5842651324855324  0.2918094433530089  0.4004008455359211
  0.5863395797907992  0.4171248478156954  0.4015128561663422
  0.5871953399645309  0.5416194058128245  0.4032964826768133
  0.5812432267482521  0.6598372947401365  0.4043573092306424
  0.5805961121782408  0.7861611057714014  0.4028250784624476
  0.5823046914998441  0.9139960337533611  0.4007910363805661
  0.7075278446024073  0.0400121278566778  0.3999316202446769
  0.7080327652588680  0.1657145474728729  0.3995847378478891
  0.7086225657364222  0.2911575860995508  0.3994717722642946
  0.7097709622738458  0.4164203349293130  0.3996821844670863
  0.7106488125031668  0.5415136764298057  0.4003870904756011
  0.7095231192384475  0.6660468084828434  0.4013796299041621
  0.7068112655821420  0.7889846862422257  0.4015960476045275
  0.7067344522381047  0.9140003493769853  0.4007811506726225
  0.8325529333886718  0.0404271761961005  0.3997800376924207
  0.8327221164552601  0.1657131161267416  0.3995517543203951
  0.8329949161675249  0.2909645962663091  0.3993491540879304
  0.8336875926327036  0.4163735410878427  0.3991868805888488
  0.8344437742307493  0.5418321013476534  0.3992497397348662
  0.8344931628248896  0.6669961711233683  0.3997264725274437
  0.8336981838204379  0.7916269001901344  0.4001394387183113
  0.8327442829102258  0.9156435470328900  0.4001043381330334
  0.9585559398564090  0.0418844698003882  0.3997546626643528
  0.9578986789514773  0.1662403238820155  0.3996553365496615
  0.9575618908035006  0.2911641946287032  0.3994433615570442
  0.9577015753127193  0.4163754402731674  0.3991861376380160
  0.9584070502161445  0.5418011472282543  0.3991225633607899
  0.9589645233629143  0.6672328682236566  0.3993164109540374
  0.9590886823457426  0.7924937608142684  0.3995579885512652
  0.9589484189545501  0.9174015961505763  0.3997240145781868
  0.4096739813242581  0.5786699429348945  0.4059697397770853
  0.5440275276248998  0.5786792516775598  0.4058274777274513
  0.3310664698759823  0.4214456608310883  0.4060537049524985
  0.4654053673287872  0.4214422153866316  0.4059026702214140
  0.4381945189154102  0.5006545655029472  0.4747991841540075
 
  0.00000000E+00  0.00000000E+00  0.00000000E+00
  0.00000000E+00  0.00000000E+00  0.00000000E+00
  0.00000000E+00  0.00000000E+00  0.00000000E+00
  0.00000000E+00  0.00000000E+00  0.00000000E+00
  0.00000000E+00  0.00000000E+00  0.00000000E+00
  0.00000000E+00  0.00000000E+00  0.00000000E+00
  0.00000000E+00  0.00000000E+00  0.00000000E+00
  0.00000000E+00  0.00000000E+00  0.00000000E+00
  0.00000000E+00  0.00000000E+00  0.00000000E+00
  0.00000000E+00  0.00000000E+00  0.00000000E+00
  0.00000000E+00  0.00000000E+00  0.00000000E+00
  0.00000000E+00  0.00000000E+00  0.00000000E+00
  0.00000000E+00  0.00000000E+00  0.00000000E+00
  0.00000000E+00  0.00000000E+00  0.00000000E+00
  0.00000000E+00  0.00000000E+00  0.00000000E+00
  0.00000000E+00  0.00000000E+00  0.00000000E+00
  0.00000000E+00  0.00000000E+00  0.00000000E+00
  0.00000000E+00  0.00000000E+00  0.00000000E+00
  0.00000000E+00  0.00000000E+00  0.00000000E+00
  0.00000000E+00  0.00000000E+00  0.00000000E+00
  0.00000000E+00  0.00000000E+00  0.00000000E+00
  0.00000000E+00  0.00000000E+00  0.00000000E+00
  0.00000000E+00  0.00000000E+00  0.00000000E+00
  0.00000000E+00  0.00000000E+00  0.00000000E+00
  0.00000000E+00  0.00000000E+00  0.00000000E+00
  0.00000000E+00  0.00000000E+00  0.00000000E+00
  0.00000000E+00  0.00000000E+00  0.00000000E+00
  0.00000000E+00  0.00000000E+00  0.00000000E+00
  0.00000000E+00  0.00000000E+00  0.00000000E+00
  0.00000000E+00  0.00000000E+00  0.00000000E+00
  0.00000000E+00  0.00000000E+00  0.00000000E+00
  0.00000000E+00  0.00000000E+00  0.00000000E+00
  0.00000000E+00  0.00000000E+00  0.00000000E+00
  0.00000000E+00  0.00000000E+00  0.00000000E+00
  0.00000000E+00  0.00000000E+00  0.00000000E+00
  0.00000000E+00  0.00000000E+00  0.00000000E+00
  0.00000000E+00  0.00000000E+00  0.00000000E+00
  0.00000000E+00  0.00000000E+00  0.00000000E+00
  0.00000000E+00  0.00000000E+00  0.00000000E+00
  0.00000000E+00  0.00000000E+00  0.00000000E+00
  0.00000000E+00  0.00000000E+00  0.00000000E+00
  0.00000000E+00  0.00000000E+00  0.00000000E+00
  0.00000000E+00  0.00000000E+00  0.00000000E+00
  0.00000000E+00  0.00000000E+00  0.00000000E+00
  0.00000000E+00  0.00000000E+00  0.00000000E+00
  0.00000000E+00  0.00000000E+00  0.00000000E+00
  0.00000000E+00  0.00000000E+00  0.00000000E+00
  0.00000000E+00  0.00000000E+00  0.00000000E+00
  0.00000000E+00  0.00000000E+00  0.00000000E+00
  0.00000000E+00  0.00000000E+00  0.00000000E+00
  0.00000000E+00  0.00000000E+00  0.00000000E+00
  0.00000000E+00  0.00000000E+00  0.00000000E+00
  0.00000000E+00  0.00000000E+00  0.00000000E+00
  0.00000000E+00  0.00000000E+00  0.00000000E+00
  0.00000000E+00  0.00000000E+00  0.00000000E+00
  0.00000000E+00  0.00000000E+00  0.00000000E+00
  0.00000000E+00  0.00000000E+00  0.00000000E+00
  0.00000000E+00  0.00000000E+00  0.00000000E+00
  0.00000000E+00  0.00000000E+00  0.00000000E+00
  0.00000000E+00  0.00000000E+00  0.00000000E+00
  0.00000000E+00  0.00000000E+00  0.00000000E+00
  0.00000000E+00  0.00000000E+00  0.00000000E+00
  0.00000000E+00  0.00000000E+00  0.00000000E+00
  0.00000000E+00  0.00000000E+00  0.00000000E+00
  0.00000000E+00  0.00000000E+00  0.00000000E+00
  0.00000000E+00  0.00000000E+00  0.00000000E+00
  0.00000000E+00  0.00000000E+00  0.00000000E+00
  0.00000000E+00  0.00000000E+00  0.00000000E+00
  0.00000000E+00  0.00000000E+00  0.00000000E+00
  0.00000000E+00  0.00000000E+00  0.00000000E+00
  0.00000000E+00  0.00000000E+00  0.00000000E+00
  0.00000000E+00  0.00000000E+00  0.00000000E+00
  0.00000000E+00  0.00000000E+00  0.00000000E+00
  0.00000000E+00  0.00000000E+00  0.00000000E+00
  0.00000000E+00  0.00000000E+00  0.00000000E+00
  0.00000000E+00  0.00000000E+00  0.00000000E+00
  0.00000000E+00  0.00000000E+00  0.00000000E+00
  0.00000000E+00  0.00000000E+00  0.00000000E+00
  0.00000000E+00  0.00000000E+00  0.00000000E+00
  0.00000000E+00  0.00000000E+00  0.00000000E+00
  0.00000000E+00  0.00000000E+00  0.00000000E+00
  0.00000000E+00  0.00000000E+00  0.00000000E+00
  0.00000000E+00  0.00000000E+00  0.00000000E+00
  0.00000000E+00  0.00000000E+00  0.00000000E+00
  0.00000000E+00  0.00000000E+00  0.00000000E+00
  0.00000000E+00  0.00000000E+00  0.00000000E+00
  0.00000000E+00  0.00000000E+00  0.00000000E+00
  0.00000000E+00  0.00000000E+00  0.00000000E+00
  0.00000000E+00  0.00000000E+00  0.00000000E+00
  0.00000000E+00  0.00000000E+00  0.00000000E+00
  0.00000000E+00  0.00000000E+00  0.00000000E+00
  0.00000000E+00  0.00000000E+00  0.00000000E+00
  0.00000000E+00  0.00000000E+00  0.00000000E+00
  0.00000000E+00  0.00000000E+00  0.00000000E+00
  0.00000000E+00  0.00000000E+00  0.00000000E+00
  0.00000000E+00  0.00000000E+00  0.00000000E+00
  0.00000000E+00  0.00000000E+00  0.00000000E+00
  0.00000000E+00  0.00000000E+00  0.00000000E+00
  0.00000000E+00  0.00000000E+00  0.00000000E+00
  0.00000000E+00  0.00000000E+00  0.00000000E+00
  0.00000000E+00  0.00000000E+00  0.00000000E+00
  0.00000000E+00  0.00000000E+00  0.00000000E+00
  0.00000000E+00  0.00000000E+00  0.00000000E+00
  0.00000000E+00  0.00000000E+00  0.00000000E+00
  0.00000000E+00  0.00000000E+00  0.00000000E+00
  0.00000000E+00  0.00000000E+00  0.00000000E+00
  0.00000000E+00  0.00000000E+00  0.00000000E+00
  0.00000000E+00  0.00000000E+00  0.00000000E+00
  0.00000000E+00  0.00000000E+00  0.00000000E+00
  0.00000000E+00  0.00000000E+00  0.00000000E+00
  0.00000000E+00  0.00000000E+00  0.00000000E+00
  0.00000000E+00  0.00000000E+00  0.00000000E+00
  0.00000000E+00  0.00000000E+00  0.00000000E+00
  0.00000000E+00  0.00000000E+00  0.00000000E+00
  0.00000000E+00  0.00000000E+00  0.00000000E+00
  0.00000000E+00  0.00000000E+00  0.00000000E+00
  0.00000000E+00  0.00000000E+00  0.00000000E+00
  0.00000000E+00  0.00000000E+00  0.00000000E+00
  0.00000000E+00  0.00000000E+00  0.00000000E+00
  0.00000000E+00  0.00000000E+00  0.00000000E+00
  0.00000000E+00  0.00000000E+00  0.00000000E+00
  0.00000000E+00  0.00000000E+00  0.00000000E+00
  0.00000000E+00  0.00000000E+00  0.00000000E+00
  0.00000000E+00  0.00000000E+00  0.00000000E+00
  0.00000000E+00  0.00000000E+00  0.00000000E+00
  0.00000000E+00  0.00000000E+00  0.00000000E+00
  0.00000000E+00  0.00000000E+00  0.00000000E+00
  0.00000000E+00  0.00000000E+00  0.00000000E+00
