Co1 H1 C126                             
   1.00000000000000     
    19.8013028617370068   -0.0000021953827293    0.4400074588944851
    -9.9006528795506625   17.0463689483542993   -0.2199516718866268
     0.6615583285116873    0.0000911420488898   29.8256965320302179
   Co   H    C 
     1     1   126
Direct
  0.4353339592983967  0.5000005251364208  0.4182276046837771
  0.4724428711684367  0.5000010352533403  0.4596022960570313
  0.0414254124763192  0.0839945112567094  0.3998428019823029
  0.0404882777381271  0.2081209507394295  0.3999334358829831
  0.0399927478236336  0.3328761125580141  0.4001696833348214
  0.0399862658239870  0.4582413975148401  0.4001793577919355
  0.0408540072224823  0.5837016590417781  0.3996347094261711
  0.0415666822627229  0.7090872632812290  0.3992591673227041
  0.0418039647110805  0.8343992039195427  0.3992913204376849
  0.0418440654482612  0.9594397540743652  0.3995008308376721
  0.1671198840551743  0.0853450696947560  0.4001724291920515
  0.1667602061069002  0.2100768715006529  0.4002420881836379
  0.1649619394030022  0.3333327175751348  0.3999975684916897
  0.1637612848330121  0.4583444082613296  0.4006737859557585
  0.1646455495904440  0.5835580246837615  0.4004177319121609
  0.1659425374980026  0.7089849027955443  0.3999285045694450
  0.1665753940164839  0.8344178741726541  0.3996421840165305
  0.1668936419091756  0.9598404613299468  0.3997763801000321
  0.2920113587220738  0.0852928530329794  0.4008089202311210
  0.2927262547379791  0.2117218784351386  0.4022747313416787
  0.2927461383582002  0.3377643913154486  0.4012434916784184
  0.2871397380243965  0.4580461406762339  0.3992990037109385
  0.2884865555151879  0.5835717022786031  0.4002422190582764
  0.2904598590383931  0.7086836746300986  0.4000427976199922
  0.2910523352747531  0.8338910783160666  0.3997811216219423
  0.2915691910995769  0.9594822460747928  0.3998298569736835
  0.4165251671699743  0.0840972947419898  0.4002976606006015
  0.4170845443295796  0.2102559059882696  0.4025104878916743
  0.4182701747462709  0.3376678014533291  0.4076404662352543
  0.4114662607442436  0.5790504140036815  0.4008358897798623
  0.4147928363936009  0.7063003412945151  0.4000495482316374
  0.4156385397768570  0.8325030884955983  0.4000242320359449
  0.4161287170257778  0.9583151623636051  0.3997379808821496
  0.5411133982230031  0.0827311543229013  0.3995665729246229
  0.5415331682073454  0.2082028099816238  0.4006070656995518
  0.5422344499269949  0.3333850686204797  0.4037227586394775
  0.5451607151416372  0.4582638784970251  0.4093553149953686
  0.5410592381120053  0.5789323256356780  0.4133377800751509
  0.5389806300011344  0.7042990610532006  0.4041691836870061
  0.5399569557918246  0.8309580929333721  0.4006854916567340
  0.5405848966392065  0.9569838701437982  0.3997479580470081
  0.6656211755831311  0.0820623830591560  0.3994873460005611
  0.6661113331778004  0.2075150058737898  0.3992681059402101
  0.6668651104806942  0.3329368235009034  0.4001021526048298
  0.6684236432538880  0.4583610454387703  0.4019968246469789
  0.6688019671616700  0.5834734671765414  0.4045368787207935
  0.6650094618965928  0.7060935655353049  0.4046878518060065
  0.6647617538078094  0.8309571908399351  0.4020931811936392
  0.6651973757132240  0.9565119427207022  0.4002511110188103
  0.7903849188387794  0.0820386871775029  0.3997193587921307
  0.7906897190394561  0.2073458593384400  0.3994359086790877
  0.7912399355250539  0.3327536044927556  0.3989201650179423
  0.7922567127906186  0.4582350914622553  0.3990967990427757
  0.7928581294554157  0.5835555732926119  0.4001554785180138
  0.7919227638243107  0.7085278158013242  0.4013651521055013
  0.7906318386620061  0.8323561807382218  0.4010614095857209
  0.7902808661913941  0.9569565035167589  0.4002829221966406
  0.9155584477926898  0.0826542061195171  0.3997409673575616
  0.9154017699972190  0.2075022293279962  0.3997718909556053
  0.9155712533396552  0.3327781451198926  0.3996217518610627
  0.9161489832495713  0.4581983060391274  0.3990903397243546
  0.9169104118376447  0.5836973455068443  0.3988018726205538
  0.9170053630920050  0.7089672748710218  0.3991902313266686
  0.9167182411766867  0.8338375829463800  0.3996430475935443
  0.9160550653641658  0.9582197520307314  0.3997762535166695
  0.0836012608479928  0.0430171425526863  0.3997487020858904
  0.0831363956404987  0.1674973831179449  0.4000254177324190
  0.0817775557603944  0.2913165797752545  0.4000430984705303
  0.0810887328852906  0.4164428957769081  0.4004177211312734
  0.0817462506765413  0.5417591653480709  0.4001794151598886
  0.0827927192622125  0.6672210815376061  0.3996215479149045
  0.0833432921343773  0.7926530822999089  0.3994347091911778
  0.0835578178914985  0.9179374963225996  0.3994881087802994
  0.2086851609352878  0.0434885636541930  0.4002536546572958
  0.2089981090571784  0.1690425212917281  0.4006877422964166
  0.2084928336851945  0.2937007251478910  0.4000517719221418
  0.2049155834127056  0.4164297426717632  0.4002432966245922
  0.2054169772849012  0.5416558025599377  0.4006737081092439
  0.2071158550697115  0.6671214603060992  0.4001698132742869
  0.2078994639044429  0.7924978142476241  0.3997715624900726
  0.2083455228446899  0.9179605009659649  0.3997192285836755
  0.3333226444233082  0.0430416036155191  0.4002838281595743
  0.3338038884005727  0.1690429532814793  0.4020963612561964
  0.3346818565123910  0.2957024945896878  0.4041727904426096
  0.3324169438905389  0.4209510916499564  0.4008369708471610
  0.3290945906892195  0.5419551231986668  0.3992981132480964
  0.3316291393469512  0.6666683657025506  0.3999957952242249
  0.3323677648347387  0.7918802732661004  0.3999325220474009
  0.3329050130602358  0.9173454238939593  0.3997399498049000
  0.4578352467697368  0.0417791171564182  0.3997769589146305
  0.4582751705273956  0.1676433411030084  0.4010642976547966
  0.4589157040199831  0.2939056949474980  0.4046925576035640
  0.4621260167386690  0.4210677731148477  0.4133386506346435
  0.4549808963859527  0.6622349188790989  0.4012416095907398
  0.4566823773755044  0.7899239400787522  0.4002397476776613
  0.4574304862380637  0.9160051327578630  0.3998425102118894
  0.5824036422381698  0.0405593776653631  0.3995012442527805
  0.5828797700699985  0.1661617251391460  0.3996422902830630
  0.5833949200873179  0.2914731405866091  0.4013663296452434
  0.5853263426892745  0.4165261246386126  0.4045398182662545
  0.5868961936927052  0.5417358369972407  0.4093543271730373
  0.5806044607674993  0.6623316115876383  0.4076371905196225
  0.5810034751159381  0.7882772490088387  0.4022715327553164
  0.5817736841777092  0.9146551320828437  0.4001703271738533
  0.7070543513682408  0.0401606068168767  0.3997755238396167
  0.7074044539550856  0.1656006586119812  0.3992914275725871
  0.7080372423070024  0.2910321591211356  0.3991917888525146
  0.7093018364553724  0.4164445381414809  0.4001573479683793
  0.7100612029416250  0.5416390133171090  0.4019957477680560
  0.7088481864234500  0.6666134812764365  0.4037198592838482
  0.7068291529187497  0.7897436136512754  0.4025074837848678
  0.7067179702952526  0.9147059552921522  0.4008060035293824
  0.8320889473696245  0.0405192638626153  0.3998298625799697
  0.8321585188410803  0.1655830519189836  0.3996438099233620
  0.8324797901169134  0.2909125081670266  0.3992610007623194
  0.8332131744622089  0.4163023418337862  0.3988030501636111
  0.8340221691925552  0.5417654558513834  0.3990958367519644
  0.8339293118671013  0.6670642651253184  0.4001009192837927
  0.8333310389576709  0.7917972573713143  0.4006060711448692
  0.8324287653797553  0.9159031110919970  0.4002960550800271
  0.9578147515859754  0.0416856753693435  0.3997386889937525
  0.9571632342517147  0.1661094394511445  0.3997820534250542
  0.9569592894363550  0.2910161285709366  0.3999284288935830
  0.9571535356650221  0.4162996096062410  0.3996348199702028
  0.9579508596243813  0.5418014094281600  0.3990900050829814
  0.9584865873645001  0.6672462189242240  0.3989180908366359
  0.9585969026755988  0.7924848344677812  0.3992672898192130
  0.9583829115627978  0.9172694412090419  0.3995671982559368
 
  0.00000000E+00  0.00000000E+00  0.00000000E+00
  0.00000000E+00  0.00000000E+00  0.00000000E+00
  0.00000000E+00  0.00000000E+00  0.00000000E+00
  0.00000000E+00  0.00000000E+00  0.00000000E+00
  0.00000000E+00  0.00000000E+00  0.00000000E+00
  0.00000000E+00  0.00000000E+00  0.00000000E+00
  0.00000000E+00  0.00000000E+00  0.00000000E+00
  0.00000000E+00  0.00000000E+00  0.00000000E+00
  0.00000000E+00  0.00000000E+00  0.00000000E+00
  0.00000000E+00  0.00000000E+00  0.00000000E+00
  0.00000000E+00  0.00000000E+00  0.00000000E+00
  0.00000000E+00  0.00000000E+00  0.00000000E+00
  0.00000000E+00  0.00000000E+00  0.00000000E+00
  0.00000000E+00  0.00000000E+00  0.00000000E+00
  0.00000000E+00  0.00000000E+00  0.00000000E+00
  0.00000000E+00  0.00000000E+00  0.00000000E+00
  0.00000000E+00  0.00000000E+00  0.00000000E+00
  0.00000000E+00  0.00000000E+00  0.00000000E+00
  0.00000000E+00  0.00000000E+00  0.00000000E+00
  0.00000000E+00  0.00000000E+00  0.00000000E+00
  0.00000000E+00  0.00000000E+00  0.00000000E+00
  0.00000000E+00  0.00000000E+00  0.00000000E+00
  0.00000000E+00  0.00000000E+00  0.00000000E+00
  0.00000000E+00  0.00000000E+00  0.00000000E+00
  0.00000000E+00  0.00000000E+00  0.00000000E+00
  0.00000000E+00  0.00000000E+00  0.00000000E+00
  0.00000000E+00  0.00000000E+00  0.00000000E+00
  0.00000000E+00  0.00000000E+00  0.00000000E+00
  0.00000000E+00  0.00000000E+00  0.00000000E+00
  0.00000000E+00  0.00000000E+00  0.00000000E+00
  0.00000000E+00  0.00000000E+00  0.00000000E+00
  0.00000000E+00  0.00000000E+00  0.00000000E+00
  0.00000000E+00  0.00000000E+00  0.00000000E+00
  0.00000000E+00  0.00000000E+00  0.00000000E+00
  0.00000000E+00  0.00000000E+00  0.00000000E+00
  0.00000000E+00  0.00000000E+00  0.00000000E+00
  0.00000000E+00  0.00000000E+00  0.00000000E+00
  0.00000000E+00  0.00000000E+00  0.00000000E+00
  0.00000000E+00  0.00000000E+00  0.00000000E+00
  0.00000000E+00  0.00000000E+00  0.00000000E+00
  0.00000000E+00  0.00000000E+00  0.00000000E+00
  0.00000000E+00  0.00000000E+00  0.00000000E+00
  0.00000000E+00  0.00000000E+00  0.00000000E+00
  0.00000000E+00  0.00000000E+00  0.00000000E+00
  0.00000000E+00  0.00000000E+00  0.00000000E+00
  0.00000000E+00  0.00000000E+00  0.00000000E+00
  0.00000000E+00  0.00000000E+00  0.00000000E+00
  0.00000000E+00  0.00000000E+00  0.00000000E+00
  0.00000000E+00  0.00000000E+00  0.00000000E+00
  0.00000000E+00  0.00000000E+00  0.00000000E+00
  0.00000000E+00  0.00000000E+00  0.00000000E+00
  0.00000000E+00  0.00000000E+00  0.00000000E+00
  0.00000000E+00  0.00000000E+00  0.00000000E+00
  0.00000000E+00  0.00000000E+00  0.00000000E+00
  0.00000000E+00  0.00000000E+00  0.00000000E+00
  0.00000000E+00  0.00000000E+00  0.00000000E+00
  0.00000000E+00  0.00000000E+00  0.00000000E+00
  0.00000000E+00  0.00000000E+00  0.00000000E+00
  0.00000000E+00  0.00000000E+00  0.00000000E+00
  0.00000000E+00  0.00000000E+00  0.00000000E+00
  0.00000000E+00  0.00000000E+00  0.00000000E+00
  0.00000000E+00  0.00000000E+00  0.00000000E+00
  0.00000000E+00  0.00000000E+00  0.00000000E+00
  0.00000000E+00  0.00000000E+00  0.00000000E+00
  0.00000000E+00  0.00000000E+00  0.00000000E+00
  0.00000000E+00  0.00000000E+00  0.00000000E+00
  0.00000000E+00  0.00000000E+00  0.00000000E+00
  0.00000000E+00  0.00000000E+00  0.00000000E+00
  0.00000000E+00  0.00000000E+00  0.00000000E+00
  0.00000000E+00  0.00000000E+00  0.00000000E+00
  0.00000000E+00  0.00000000E+00  0.00000000E+00
  0.00000000E+00  0.00000000E+00  0.00000000E+00
  0.00000000E+00  0.00000000E+00  0.00000000E+00
  0.00000000E+00  0.00000000E+00  0.00000000E+00
  0.00000000E+00  0.00000000E+00  0.00000000E+00
  0.00000000E+00  0.00000000E+00  0.00000000E+00
  0.00000000E+00  0.00000000E+00  0.00000000E+00
  0.00000000E+00  0.00000000E+00  0.00000000E+00
  0.00000000E+00  0.00000000E+00  0.00000000E+00
  0.00000000E+00  0.00000000E+00  0.00000000E+00
  0.00000000E+00  0.00000000E+00  0.00000000E+00
  0.00000000E+00  0.00000000E+00  0.00000000E+00
  0.00000000E+00  0.00000000E+00  0.00000000E+00
  0.00000000E+00  0.00000000E+00  0.00000000E+00
  0.00000000E+00  0.00000000E+00  0.00000000E+00
  0.00000000E+00  0.00000000E+00  0.00000000E+00
  0.00000000E+00  0.00000000E+00  0.00000000E+00
  0.00000000E+00  0.00000000E+00  0.00000000E+00
  0.00000000E+00  0.00000000E+00  0.00000000E+00
  0.00000000E+00  0.00000000E+00  0.00000000E+00
  0.00000000E+00  0.00000000E+00  0.00000000E+00
  0.00000000E+00  0.00000000E+00  0.00000000E+00
  0.00000000E+00  0.00000000E+00  0.00000000E+00
  0.00000000E+00  0.00000000E+00  0.00000000E+00
  0.00000000E+00  0.00000000E+00  0.00000000E+00
  0.00000000E+00  0.00000000E+00  0.00000000E+00
  0.00000000E+00  0.00000000E+00  0.00000000E+00
  0.00000000E+00  0.00000000E+00  0.00000000E+00
  0.00000000E+00  0.00000000E+00  0.00000000E+00
  0.00000000E+00  0.00000000E+00  0.00000000E+00
  0.00000000E+00  0.00000000E+00  0.00000000E+00
  0.00000000E+00  0.00000000E+00  0.00000000E+00
  0.00000000E+00  0.00000000E+00  0.00000000E+00
  0.00000000E+00  0.00000000E+00  0.00000000E+00
  0.00000000E+00  0.00000000E+00  0.00000000E+00
  0.00000000E+00  0.00000000E+00  0.00000000E+00
  0.00000000E+00  0.00000000E+00  0.00000000E+00
  0.00000000E+00  0.00000000E+00  0.00000000E+00
  0.00000000E+00  0.00000000E+00  0.00000000E+00
  0.00000000E+00  0.00000000E+00  0.00000000E+00
  0.00000000E+00  0.00000000E+00  0.00000000E+00
  0.00000000E+00  0.00000000E+00  0.00000000E+00
  0.00000000E+00  0.00000000E+00  0.00000000E+00
  0.00000000E+00  0.00000000E+00  0.00000000E+00
  0.00000000E+00  0.00000000E+00  0.00000000E+00
  0.00000000E+00  0.00000000E+00  0.00000000E+00
  0.00000000E+00  0.00000000E+00  0.00000000E+00
  0.00000000E+00  0.00000000E+00  0.00000000E+00
  0.00000000E+00  0.00000000E+00  0.00000000E+00
  0.00000000E+00  0.00000000E+00  0.00000000E+00
  0.00000000E+00  0.00000000E+00  0.00000000E+00
  0.00000000E+00  0.00000000E+00  0.00000000E+00
  0.00000000E+00  0.00000000E+00  0.00000000E+00
  0.00000000E+00  0.00000000E+00  0.00000000E+00
  0.00000000E+00  0.00000000E+00  0.00000000E+00
  0.00000000E+00  0.00000000E+00  0.00000000E+00
  0.00000000E+00  0.00000000E+00  0.00000000E+00
  0.00000000E+00  0.00000000E+00  0.00000000E+00
