Fe1 H1 C122 N4                          
   1.00000000000000     
    19.8059572773803012    0.0004075932186326    0.0153498735490549
    -9.9026316778277579   17.0024999606833518   -0.0052725905890076
     0.0231893817676037    0.0041727229339140   29.8805459933315767
   Fe   H    C    N 
     1     1   122     4
Direct
  0.4374421771431780  0.4999953059703839  0.4094793206860651
  0.4373953237033289  0.4999784605928280  0.4593544818817412
  0.0423709300756309  0.0845388867336592  0.4002511587353739
  0.0412236393153129  0.2083893954534530  0.4004819989066681
  0.0402630786956134  0.3329463196170618  0.4001549403953521
  0.0403016403543734  0.4581749417702391  0.3994997576694213
  0.0412689271576319  0.5837987612508037  0.3990226586417849
  0.0421888965872721  0.7093624384382792  0.3991663056983025
  0.0425341086094856  0.8346961035695974  0.3994114594854833
  0.0426988603536145  0.9599541347142545  0.3996850262608913
  0.1685368792019686  0.0864548340414373  0.4009877591426952
  0.1682295860280177  0.2113044567323334  0.4020799002849742
  0.1652351913618501  0.3339603297270551  0.4022810795722185
  0.1639499162210166  0.4585177548979487  0.4015124832982013
  0.1649754392634642  0.5836691540701773  0.4003083425915464
  0.1663954639591786  0.7090767111799735  0.3994600031806216
  0.1672009095884184  0.8346964766269793  0.3993844212815615
  0.1677594648226056  0.9604418159425629  0.3998372973214380
  0.2929718334161023  0.0864264748726609  0.4009481788533830
  0.2946416952199366  0.2142709053605124  0.4029989310648027
  0.2937759212715140  0.3404602968610023  0.4043688913858316
  0.2872034985454334  0.4585012342014593  0.4039658183996946
  0.2882870158799539  0.5828955259653231  0.4026559211411512
  0.2905995994898034  0.7082604433095627  0.4009522842628823
  0.2917057311110124  0.8339628790275873  0.3996783753899084
  0.2923441835643394  0.9599361167163224  0.3996414749227385
  0.4172301876906166  0.0845051132727321  0.4002839959440415
  0.4180745405561806  0.2112681526103775  0.4021143686043274
  0.4216120359703538  0.3404342487168703  0.4043815638338737
  0.4144199743691577  0.7048181271749316  0.4029532376767572
  0.4160174587096022  0.8316945546295612  0.4009591670636900
  0.4167052352395559  0.9581526450686955  0.3997455670064270
  0.5415361999435486  0.0824392327058652  0.3996262238087788
  0.5422090007430733  0.2083891755398589  0.4005659915540923
  0.5436751183075604  0.3339480983559158  0.4023160936865429
  0.5461985733697283  0.4584785538465445  0.4039425014233474
  0.5376376688407473  0.7003210689541584  0.4042915049099195
  0.5401636009133142  0.8293379885805621  0.4021407768685057
  0.5410027162979645  0.9561871416110981  0.4002583232711690
  0.6659943160224996  0.0815790102197508  0.3996087602190872
  0.6665549292207285  0.2072730853452771  0.3994961460827424
  0.6676646257895298  0.3329609669331725  0.4001596177046819
  0.6694927762983233  0.4585032508920572  0.4014481614811427
  0.6695514718261879  0.5828884496047239  0.4026482896186774
  0.6653933842404308  0.7048593810033819  0.4029992655168590
  0.6642362737844856  0.8293720044027695  0.4021217183557604
  0.6653679152307195  0.9556527260325536  0.4005816339610493
  0.7906629598459425  0.0815644060946870  0.3995790648519293
  0.7910498705277200  0.2070554789873314  0.3993478719105564
  0.7917338892463115  0.3326255588848319  0.3991673773254947
  0.7928249713949529  0.4581820579533194  0.3994107322896230
  0.7936357660837003  0.5836534071616176  0.4002363627679298
  0.7926611480729374  0.7082754583944665  0.4010017758838876
  0.7907510112991439  0.8317207336154737  0.4010235747015485
  0.7902876741429631  0.9562063007050357  0.4002248259873785
  0.9160151456246440  0.0824755122920000  0.3995750253243658
  0.9157611321320908  0.2072837675887537  0.3994383649772131
  0.9158886847834580  0.3326318012381828  0.3991551208313835
  0.9165884249199597  0.4582020597942027  0.3988118506350322
  0.9174787141910665  0.5838010642586016  0.3989895188625742
  0.9176707598714141  0.7090823094363059  0.3994949815412540
  0.9173239103261239  0.8339849364227967  0.3997564917321684
  0.9165647232180212  0.9581881631351116  0.3997754729952930
  0.0848107809849330  0.0438248243519087  0.4002547438801509
  0.0843185426120825  0.1683106500896903  0.4009632426802963
  0.0823291408633493  0.2917402963145523  0.4009593133073724
  0.0812909536325479  0.4163254960873763  0.4003133555099575
  0.0821232058982306  0.5418321126811431  0.3994965461487801
  0.0832519354921007  0.6673760644564862  0.3991464145060984
  0.0839849506811776  0.7929441136015309  0.3993409918129906
  0.0844082441245888  0.9184227958564871  0.3996036376438185
  0.2097030517512421  0.0443503538123050  0.4005754814683689
  0.2108143184600279  0.1706646254209651  0.4021393942082342
  0.2095864499297320  0.2951760036340342  0.4029548389016294
  0.2053722158288364  0.4171019321577074  0.4026581943766090
  0.2054148005190649  0.5414834576631276  0.4015098956553094
  0.2073098526719335  0.6670644555316080  0.4001467216360339
  0.2084645993679250  0.7927107338584416  0.3994342445331129
  0.2090860002131797  0.9184261293525897  0.3995729419098254
  0.3340763067266308  0.0437958766391305  0.4002223224018840
  0.3348587264607993  0.1706298540821129  0.4021174229592843
  0.3373135877392506  0.2996772635195900  0.4042905895685476
  0.3286886292962219  0.5414992615713171  0.4039649694530472
  0.3312616701353891  0.6660404192371818  0.4022764232335516
  0.3328298119456643  0.7916094395822060  0.4004767509838364
  0.3335278022391813  0.9175174606110175  0.3995715632764139
  0.4583688082659952  0.0418132215354721  0.3997746358196614
  0.4590277185163040  0.1682837332940869  0.4010199869343223
  0.4605259187516225  0.2951410623698015  0.4029987799525720
  0.4533083028424128  0.6595410333487406  0.4043693840452988
  0.4569115039601860  0.7886948550929067  0.4020779819563234
  0.4578210329631557  0.9154531318539827  0.4002505099979029
  0.5827324067627244  0.0400403531233305  0.3996893498060776
  0.5833317328228116  0.1660233401349402  0.3997606069860880
  0.5843742565967555  0.2917194030194301  0.4010056662525432
  0.5866339298069437  0.4171094366072275  0.4026510224902430
  0.5876955521413919  0.5415094877259526  0.4039409399909879
  0.5811675352533965  0.6595561405973394  0.4043811345439606
  0.5803567246362443  0.7857220132325639  0.4030019732935936
  0.5820617278952963  0.9135361250847917  0.4009924155603525
  0.7073121113707759  0.0395639551247035  0.3998441734395673
  0.7078321093718312  0.1653132803666644  0.3994174389125933
  0.7085736439283667  0.2909168991890543  0.3995034288152935
  0.7099653045833081  0.4163420026423166  0.4002392351530311
  0.7109685553100534  0.5414968673303617  0.4014481519876448
  0.7097152588914286  0.6660527043983033  0.4023143070589980
  0.7067954024273457  0.7887232260364792  0.4021170846083181
  0.7065330824929721  0.9135716794058587  0.4009521082984803
  0.8323970027260834  0.0400688468176244  0.3996444718650226
  0.8325049795038117  0.1653205255598832  0.3993894302007879
  0.8328170380999174  0.2906390334286001  0.3991746205856820
  0.8336537041130938  0.4161958260011899  0.3989923766350182
  0.8346261797444834  0.5418216979484770  0.3994085740960311
  0.8346939757364920  0.6670442699728037  0.4001537602111974
  0.8338108616674005  0.7916096199268020  0.4005660322066724
  0.8327170869231366  0.9154916251889902  0.4002871627426147
  0.9585511991543056  0.0418544581261904  0.3997479578903484
  0.9577453587184190  0.1660546149917778  0.3996817970400475
  0.9573066034961181  0.2909267089024847  0.3994668043558219
  0.9574631214680910  0.4162013461684637  0.3990286882786905
  0.9583740162333320  0.5418072867885276  0.3988103924401133
  0.9590988792704087  0.6673846280741678  0.3991613315286378
  0.9592669349556442  0.7927225413416785  0.3994873022848695
  0.9590892637559000  0.9175588350337565  0.3996239218274086
  0.4092934868840142  0.5780643602011032  0.4051220245036855
  0.5436925702379727  0.5780747025611355  0.4051008158091638
  0.3312242862855347  0.4219310174934419  0.4051218595059796
  0.4656135538756027  0.4219223347390738  0.4051037683693849
 
  0.00000000E+00  0.00000000E+00  0.00000000E+00
  0.00000000E+00  0.00000000E+00  0.00000000E+00
  0.00000000E+00  0.00000000E+00  0.00000000E+00
  0.00000000E+00  0.00000000E+00  0.00000000E+00
  0.00000000E+00  0.00000000E+00  0.00000000E+00
  0.00000000E+00  0.00000000E+00  0.00000000E+00
  0.00000000E+00  0.00000000E+00  0.00000000E+00
  0.00000000E+00  0.00000000E+00  0.00000000E+00
  0.00000000E+00  0.00000000E+00  0.00000000E+00
  0.00000000E+00  0.00000000E+00  0.00000000E+00
  0.00000000E+00  0.00000000E+00  0.00000000E+00
  0.00000000E+00  0.00000000E+00  0.00000000E+00
  0.00000000E+00  0.00000000E+00  0.00000000E+00
  0.00000000E+00  0.00000000E+00  0.00000000E+00
  0.00000000E+00  0.00000000E+00  0.00000000E+00
  0.00000000E+00  0.00000000E+00  0.00000000E+00
  0.00000000E+00  0.00000000E+00  0.00000000E+00
  0.00000000E+00  0.00000000E+00  0.00000000E+00
  0.00000000E+00  0.00000000E+00  0.00000000E+00
  0.00000000E+00  0.00000000E+00  0.00000000E+00
  0.00000000E+00  0.00000000E+00  0.00000000E+00
  0.00000000E+00  0.00000000E+00  0.00000000E+00
  0.00000000E+00  0.00000000E+00  0.00000000E+00
  0.00000000E+00  0.00000000E+00  0.00000000E+00
  0.00000000E+00  0.00000000E+00  0.00000000E+00
  0.00000000E+00  0.00000000E+00  0.00000000E+00
  0.00000000E+00  0.00000000E+00  0.00000000E+00
  0.00000000E+00  0.00000000E+00  0.00000000E+00
  0.00000000E+00  0.00000000E+00  0.00000000E+00
  0.00000000E+00  0.00000000E+00  0.00000000E+00
  0.00000000E+00  0.00000000E+00  0.00000000E+00
  0.00000000E+00  0.00000000E+00  0.00000000E+00
  0.00000000E+00  0.00000000E+00  0.00000000E+00
  0.00000000E+00  0.00000000E+00  0.00000000E+00
  0.00000000E+00  0.00000000E+00  0.00000000E+00
  0.00000000E+00  0.00000000E+00  0.00000000E+00
  0.00000000E+00  0.00000000E+00  0.00000000E+00
  0.00000000E+00  0.00000000E+00  0.00000000E+00
  0.00000000E+00  0.00000000E+00  0.00000000E+00
  0.00000000E+00  0.00000000E+00  0.00000000E+00
  0.00000000E+00  0.00000000E+00  0.00000000E+00
  0.00000000E+00  0.00000000E+00  0.00000000E+00
  0.00000000E+00  0.00000000E+00  0.00000000E+00
  0.00000000E+00  0.00000000E+00  0.00000000E+00
  0.00000000E+00  0.00000000E+00  0.00000000E+00
  0.00000000E+00  0.00000000E+00  0.00000000E+00
  0.00000000E+00  0.00000000E+00  0.00000000E+00
  0.00000000E+00  0.00000000E+00  0.00000000E+00
  0.00000000E+00  0.00000000E+00  0.00000000E+00
  0.00000000E+00  0.00000000E+00  0.00000000E+00
  0.00000000E+00  0.00000000E+00  0.00000000E+00
  0.00000000E+00  0.00000000E+00  0.00000000E+00
  0.00000000E+00  0.00000000E+00  0.00000000E+00
  0.00000000E+00  0.00000000E+00  0.00000000E+00
  0.00000000E+00  0.00000000E+00  0.00000000E+00
  0.00000000E+00  0.00000000E+00  0.00000000E+00
  0.00000000E+00  0.00000000E+00  0.00000000E+00
  0.00000000E+00  0.00000000E+00  0.00000000E+00
  0.00000000E+00  0.00000000E+00  0.00000000E+00
  0.00000000E+00  0.00000000E+00  0.00000000E+00
  0.00000000E+00  0.00000000E+00  0.00000000E+00
  0.00000000E+00  0.00000000E+00  0.00000000E+00
  0.00000000E+00  0.00000000E+00  0.00000000E+00
  0.00000000E+00  0.00000000E+00  0.00000000E+00
  0.00000000E+00  0.00000000E+00  0.00000000E+00
  0.00000000E+00  0.00000000E+00  0.00000000E+00
  0.00000000E+00  0.00000000E+00  0.00000000E+00
  0.00000000E+00  0.00000000E+00  0.00000000E+00
  0.00000000E+00  0.00000000E+00  0.00000000E+00
  0.00000000E+00  0.00000000E+00  0.00000000E+00
  0.00000000E+00  0.00000000E+00  0.00000000E+00
  0.00000000E+00  0.00000000E+00  0.00000000E+00
  0.00000000E+00  0.00000000E+00  0.00000000E+00
  0.00000000E+00  0.00000000E+00  0.00000000E+00
  0.00000000E+00  0.00000000E+00  0.00000000E+00
  0.00000000E+00  0.00000000E+00  0.00000000E+00
  0.00000000E+00  0.00000000E+00  0.00000000E+00
  0.00000000E+00  0.00000000E+00  0.00000000E+00
  0.00000000E+00  0.00000000E+00  0.00000000E+00
  0.00000000E+00  0.00000000E+00  0.00000000E+00
  0.00000000E+00  0.00000000E+00  0.00000000E+00
  0.00000000E+00  0.00000000E+00  0.00000000E+00
  0.00000000E+00  0.00000000E+00  0.00000000E+00
  0.00000000E+00  0.00000000E+00  0.00000000E+00
  0.00000000E+00  0.00000000E+00  0.00000000E+00
  0.00000000E+00  0.00000000E+00  0.00000000E+00
  0.00000000E+00  0.00000000E+00  0.00000000E+00
  0.00000000E+00  0.00000000E+00  0.00000000E+00
  0.00000000E+00  0.00000000E+00  0.00000000E+00
  0.00000000E+00  0.00000000E+00  0.00000000E+00
  0.00000000E+00  0.00000000E+00  0.00000000E+00
  0.00000000E+00  0.00000000E+00  0.00000000E+00
  0.00000000E+00  0.00000000E+00  0.00000000E+00
  0.00000000E+00  0.00000000E+00  0.00000000E+00
  0.00000000E+00  0.00000000E+00  0.00000000E+00
  0.00000000E+00  0.00000000E+00  0.00000000E+00
  0.00000000E+00  0.00000000E+00  0.00000000E+00
  0.00000000E+00  0.00000000E+00  0.00000000E+00
  0.00000000E+00  0.00000000E+00  0.00000000E+00
  0.00000000E+00  0.00000000E+00  0.00000000E+00
  0.00000000E+00  0.00000000E+00  0.00000000E+00
  0.00000000E+00  0.00000000E+00  0.00000000E+00
  0.00000000E+00  0.00000000E+00  0.00000000E+00
  0.00000000E+00  0.00000000E+00  0.00000000E+00
  0.00000000E+00  0.00000000E+00  0.00000000E+00
  0.00000000E+00  0.00000000E+00  0.00000000E+00
  0.00000000E+00  0.00000000E+00  0.00000000E+00
  0.00000000E+00  0.00000000E+00  0.00000000E+00
  0.00000000E+00  0.00000000E+00  0.00000000E+00
  0.00000000E+00  0.00000000E+00  0.00000000E+00
  0.00000000E+00  0.00000000E+00  0.00000000E+00
  0.00000000E+00  0.00000000E+00  0.00000000E+00
  0.00000000E+00  0.00000000E+00  0.00000000E+00
  0.00000000E+00  0.00000000E+00  0.00000000E+00
  0.00000000E+00  0.00000000E+00  0.00000000E+00
  0.00000000E+00  0.00000000E+00  0.00000000E+00
  0.00000000E+00  0.00000000E+00  0.00000000E+00
  0.00000000E+00  0.00000000E+00  0.00000000E+00
  0.00000000E+00  0.00000000E+00  0.00000000E+00
  0.00000000E+00  0.00000000E+00  0.00000000E+00
  0.00000000E+00  0.00000000E+00  0.00000000E+00
  0.00000000E+00  0.00000000E+00  0.00000000E+00
  0.00000000E+00  0.00000000E+00  0.00000000E+00
  0.00000000E+00  0.00000000E+00  0.00000000E+00
  0.00000000E+00  0.00000000E+00  0.00000000E+00
  0.00000000E+00  0.00000000E+00  0.00000000E+00
  0.00000000E+00  0.00000000E+00  0.00000000E+00
  0.00000000E+00  0.00000000E+00  0.00000000E+00
