Ni1 H1 C122 N4 O2                       
   1.00000000000000     
    19.7946850443957310    0.0000883241106361    0.0753753841114265
    -9.8973329202412721   17.0024491708098040   -0.0491915554021529
     0.1138391446609305   -0.0198441603467022   29.8983584762558685
   Ni   H    C    N    O 
     1     1   122     4     2
Direct
  0.4373162437686625  0.4999498671145085  0.4070686848361090
  0.5260682323420026  0.5473744909596410  0.5103253332296837
  0.0423250877081842  0.0844992788181121  0.4004270879231399
  0.0413530309312793  0.2084970615938736  0.4005701375770307
  0.0404641742475327  0.3330362905074569  0.4004251384646033
  0.0405277221900476  0.4582112079128891  0.3998875286282695
  0.0413167532801795  0.5836863189909766  0.3992869121730130
  0.0420388125600461  0.7091380023574927  0.3991050606680049
  0.0423413151140424  0.8344410697611482  0.3993533586635972
  0.0425195601835780  0.9597711361745445  0.3999394758148297
  0.1684223851284709  0.0862913630618926  0.4009270938383360
  0.1682783562953754  0.2112402604041916  0.4016286016603511
  0.1655107435598222  0.3340526510323546  0.4017445717125687
  0.1643357587003194  0.4585300111644753  0.4014537647107060
  0.1652076755611416  0.5836012753417917  0.4006471003922085
  0.1663906711464640  0.7088977560032753  0.3997177353037318
  0.1670504894185671  0.8344372420811945  0.3993597856972462
  0.1675722154649563  0.9602112514549437  0.3999129698225694
  0.2927624969855699  0.0862780384467152  0.4009556878411441
  0.2945759570685776  0.2142810416460654  0.4022188848355412
  0.2941121349520386  0.3407058886792124  0.4028385262870373
  0.2879343703862002  0.4583819056963740  0.4026288078216367
  0.2886925443438225  0.5828623218670582  0.4021470314399533
  0.2906456214010261  0.7081826187606074  0.4010340642997491
  0.2916484631702980  0.8337984506352099  0.3999619219359393
  0.2921766731775084  0.9597464077128853  0.3999254619106055
  0.4170774954073930  0.0844661876991804  0.4004706901449696
  0.4178322201914447  0.2112140247586118  0.4018187882885231
  0.4214060432725930  0.3406900498948253  0.4031812222851613
  0.4144976239844086  0.7048443061596545  0.4023289034668943
  0.4160443143890230  0.8317031594858574  0.4009353279370734
  0.4166386507383129  0.9581339450658458  0.4000655873688497
  0.5414702572179755  0.0825749078253728  0.3999057659118445
  0.5420495556423208  0.2084712072446792  0.4006770531496089
  0.5433777491261348  0.3340214451351818  0.4022298152714477
  0.5452081120931851  0.4583400386424650  0.4035069003938470
  0.5376880560931364  0.7005679995005243  0.4031650206888215
  0.5402446303442354  0.8295387524619147  0.4017282872522914
  0.5410093689709299  0.9563572786983860  0.4004180648396077
  0.6660419986773577  0.0818670417817915  0.3996434092637312
  0.6664999038069729  0.2074629341060716  0.3995941340858924
  0.6674579614836821  0.3330155059371774  0.4005733098852156
  0.6690130451256242  0.4584968690009458  0.4020033130654052
  0.6690058438465474  0.5828611571214769  0.4027963663481297
  0.6652203780724979  0.7048916113003620  0.4025878567274945
  0.6641796536061743  0.8295492471361656  0.4017724498458685
  0.6654321351878684  0.9559444622366979  0.4005779972181903
  0.7907699883829420  0.0818791966207157  0.3996372839145711
  0.7911504196752320  0.2073304664664967  0.3991948184533696
  0.7916814780921847  0.3327513069014411  0.3992786447358784
  0.7925651950643690  0.4582066981884486  0.3999648258506839
  0.7932646887658085  0.5836032701051439  0.4008629780302915
  0.7924434216537605  0.7082079735305840  0.4011945404215844
  0.7905996605135869  0.8317475928179582  0.4009942257130119
  0.7902835445463651  0.9563897704186481  0.4004008574973775
  0.9160542351576314  0.0826241237386950  0.3998858197995159
  0.9159212513813613  0.2074988839513685  0.3996194890356317
  0.9160067918240993  0.3327722428461928  0.3992962200680370
  0.9165715544485207  0.4582417119824077  0.3990545291814912
  0.9172846261681729  0.5836976733330324  0.3992730083579813
  0.9174281038029577  0.7089158186982231  0.3997086451472516
  0.9171169190697922  0.8338425859488463  0.3999769628741717
  0.9164503677343854  0.9581887331471162  0.4000543228394719
  0.0846675998516212  0.0436648662320235  0.4004230615832289
  0.0843480102555260  0.1683057453157540  0.4008914340165329
  0.0824549308602919  0.2918139330022467  0.4009456892739363
  0.0816031659770253  0.4164047682329354  0.4006262902192911
  0.0823248413740230  0.5417968493553624  0.3998902261820740
  0.0832374495072589  0.6672348338620955  0.3992884589548422
  0.0838235462240618  0.7926806160934066  0.3991919989128936
  0.0841790825113412  0.9181422745105278  0.3996671823972086
  0.2094944272889980  0.0440792123234289  0.4006147799195882
  0.2107373927166179  0.1705068810978805  0.4016683041030675
  0.2096547930835326  0.2951702314228044  0.4021333309074763
  0.2058184051402690  0.4171335452872033  0.4019971853904641
  0.2058120493616509  0.5414790352478023  0.4014881079692885
  0.2074243373067138  0.6669705537955352  0.4004700236027459
  0.2084220502256924  0.7925126659542520  0.3996205706658652
  0.2089010096546902  0.9181382825236120  0.3996638577734251
  0.3338954979456585  0.0436399773873860  0.4004421083017233
  0.3346553014289079  0.1704942422272407  0.4017503610854511
  0.3371484284434630  0.2994748228046187  0.4029745318501279
  0.3295290636994582  0.5415819164782347  0.4027717894495875
  0.3314624624637592  0.6659455837809238  0.4019285184493183
  0.3328521186733922  0.7915012406463087  0.4006182576124163
  0.3334335431221240  0.9173856312623775  0.3999086252291030
  0.4582609557407848  0.0418253270164720  0.4000713633724748
  0.4588528930149518  0.1682736446079911  0.4010067421153775
  0.4603382674829665  0.2951420232115686  0.4025181764857271
  0.4533980163447578  0.6592999836054002  0.4030960901149153
  0.4570442649985985  0.7887766010495917  0.4017270187748246
  0.4578363718141106  0.9155144486218246  0.4004430647769863
  0.5827486729656048  0.0402455302637728  0.3999111302453279
  0.5832721765978816  0.1661706695391805  0.3999783381982532
  0.5842271133718780  0.2917896107050497  0.4011669959396094
  0.5861185995936159  0.4170986322114738  0.4027429534867785
  0.5868457129226091  0.5415521572862412  0.4036291502708776
  0.5807360312732192  0.6593535096475481  0.4033442411284828
  0.5803239924511489  0.7857935253071926  0.4023105259840434
  0.5821500484336262  0.9137474923092438  0.4009228472361520
  0.7073723457129990  0.0398114528028627  0.3998678446641926
  0.7079020696112590  0.1655615175395862  0.3993447945432578
  0.7085154090958951  0.2910843977998501  0.3997118255680816
  0.7096580652245309  0.4163870360736147  0.4008661254078710
  0.7105113621772026  0.5414671298965806  0.4020049598219569
  0.7093603635858691  0.6659667788249897  0.4022943467343942
  0.7066422183481993  0.7888225215701217  0.4018406637482907
  0.7065145831204359  0.9137617318393119  0.4009272844010883
  0.8324422876657154  0.0402776766409144  0.3998927204562532
  0.8326215492849072  0.1655794014717362  0.3993614223723509
  0.8329061675172881  0.2908737677060674  0.3991168639896273
  0.8335857406384090  0.4163096687404361  0.3992774168548396
  0.8343625951147662  0.5417955881078014  0.3999579480588868
  0.8344429956990673  0.6669765307855081  0.4005787223645810
  0.8335939896727932  0.7915390510356974  0.4006796698509900
  0.8326356471324154  0.9155547118585066  0.4004358173416913
  0.9585087930155956  0.0418773988369240  0.4000484858340322
  0.9578529790173754  0.1662093663220593  0.3999454586928882
  0.9574986489040511  0.2911106741256825  0.3997066029528008
  0.9576271746136533  0.4163239800947339  0.3992927711927154
  0.9583395888762594  0.5417686069194211  0.3990589321925016
  0.9589346005471590  0.6672582821040793  0.3992650605206478
  0.9590431898252907  0.7925402657139234  0.3995950385022659
  0.9589121631727375  0.9174424807533390  0.3999151791734398
  0.4096187018176025  0.5786191035829878  0.4032288410412054
  0.5437941066222355  0.5786178644853763  0.4037966103046333
  0.3309547522180068  0.4213472151378904  0.4028576066240425
  0.4651969537903185  0.4213417830919183  0.4034038071720048
  0.4906967197052209  0.4928246239040018  0.5009774157386353
  0.4301608815062045  0.4977201399401941  0.4792572690535546
 
  0.00000000E+00  0.00000000E+00  0.00000000E+00
  0.00000000E+00  0.00000000E+00  0.00000000E+00
  0.00000000E+00  0.00000000E+00  0.00000000E+00
  0.00000000E+00  0.00000000E+00  0.00000000E+00
  0.00000000E+00  0.00000000E+00  0.00000000E+00
  0.00000000E+00  0.00000000E+00  0.00000000E+00
  0.00000000E+00  0.00000000E+00  0.00000000E+00
  0.00000000E+00  0.00000000E+00  0.00000000E+00
  0.00000000E+00  0.00000000E+00  0.00000000E+00
  0.00000000E+00  0.00000000E+00  0.00000000E+00
  0.00000000E+00  0.00000000E+00  0.00000000E+00
  0.00000000E+00  0.00000000E+00  0.00000000E+00
  0.00000000E+00  0.00000000E+00  0.00000000E+00
  0.00000000E+00  0.00000000E+00  0.00000000E+00
  0.00000000E+00  0.00000000E+00  0.00000000E+00
  0.00000000E+00  0.00000000E+00  0.00000000E+00
  0.00000000E+00  0.00000000E+00  0.00000000E+00
  0.00000000E+00  0.00000000E+00  0.00000000E+00
  0.00000000E+00  0.00000000E+00  0.00000000E+00
  0.00000000E+00  0.00000000E+00  0.00000000E+00
  0.00000000E+00  0.00000000E+00  0.00000000E+00
  0.00000000E+00  0.00000000E+00  0.00000000E+00
  0.00000000E+00  0.00000000E+00  0.00000000E+00
  0.00000000E+00  0.00000000E+00  0.00000000E+00
  0.00000000E+00  0.00000000E+00  0.00000000E+00
  0.00000000E+00  0.00000000E+00  0.00000000E+00
  0.00000000E+00  0.00000000E+00  0.00000000E+00
  0.00000000E+00  0.00000000E+00  0.00000000E+00
  0.00000000E+00  0.00000000E+00  0.00000000E+00
  0.00000000E+00  0.00000000E+00  0.00000000E+00
  0.00000000E+00  0.00000000E+00  0.00000000E+00
  0.00000000E+00  0.00000000E+00  0.00000000E+00
  0.00000000E+00  0.00000000E+00  0.00000000E+00
  0.00000000E+00  0.00000000E+00  0.00000000E+00
  0.00000000E+00  0.00000000E+00  0.00000000E+00
  0.00000000E+00  0.00000000E+00  0.00000000E+00
  0.00000000E+00  0.00000000E+00  0.00000000E+00
  0.00000000E+00  0.00000000E+00  0.00000000E+00
  0.00000000E+00  0.00000000E+00  0.00000000E+00
  0.00000000E+00  0.00000000E+00  0.00000000E+00
  0.00000000E+00  0.00000000E+00  0.00000000E+00
  0.00000000E+00  0.00000000E+00  0.00000000E+00
  0.00000000E+00  0.00000000E+00  0.00000000E+00
  0.00000000E+00  0.00000000E+00  0.00000000E+00
  0.00000000E+00  0.00000000E+00  0.00000000E+00
  0.00000000E+00  0.00000000E+00  0.00000000E+00
  0.00000000E+00  0.00000000E+00  0.00000000E+00
  0.00000000E+00  0.00000000E+00  0.00000000E+00
  0.00000000E+00  0.00000000E+00  0.00000000E+00
  0.00000000E+00  0.00000000E+00  0.00000000E+00
  0.00000000E+00  0.00000000E+00  0.00000000E+00
  0.00000000E+00  0.00000000E+00  0.00000000E+00
  0.00000000E+00  0.00000000E+00  0.00000000E+00
  0.00000000E+00  0.00000000E+00  0.00000000E+00
  0.00000000E+00  0.00000000E+00  0.00000000E+00
  0.00000000E+00  0.00000000E+00  0.00000000E+00
  0.00000000E+00  0.00000000E+00  0.00000000E+00
  0.00000000E+00  0.00000000E+00  0.00000000E+00
  0.00000000E+00  0.00000000E+00  0.00000000E+00
  0.00000000E+00  0.00000000E+00  0.00000000E+00
  0.00000000E+00  0.00000000E+00  0.00000000E+00
  0.00000000E+00  0.00000000E+00  0.00000000E+00
  0.00000000E+00  0.00000000E+00  0.00000000E+00
  0.00000000E+00  0.00000000E+00  0.00000000E+00
  0.00000000E+00  0.00000000E+00  0.00000000E+00
  0.00000000E+00  0.00000000E+00  0.00000000E+00
  0.00000000E+00  0.00000000E+00  0.00000000E+00
  0.00000000E+00  0.00000000E+00  0.00000000E+00
  0.00000000E+00  0.00000000E+00  0.00000000E+00
  0.00000000E+00  0.00000000E+00  0.00000000E+00
  0.00000000E+00  0.00000000E+00  0.00000000E+00
  0.00000000E+00  0.00000000E+00  0.00000000E+00
  0.00000000E+00  0.00000000E+00  0.00000000E+00
  0.00000000E+00  0.00000000E+00  0.00000000E+00
  0.00000000E+00  0.00000000E+00  0.00000000E+00
  0.00000000E+00  0.00000000E+00  0.00000000E+00
  0.00000000E+00  0.00000000E+00  0.00000000E+00
  0.00000000E+00  0.00000000E+00  0.00000000E+00
  0.00000000E+00  0.00000000E+00  0.00000000E+00
  0.00000000E+00  0.00000000E+00  0.00000000E+00
  0.00000000E+00  0.00000000E+00  0.00000000E+00
  0.00000000E+00  0.00000000E+00  0.00000000E+00
  0.00000000E+00  0.00000000E+00  0.00000000E+00
  0.00000000E+00  0.00000000E+00  0.00000000E+00
  0.00000000E+00  0.00000000E+00  0.00000000E+00
  0.00000000E+00  0.00000000E+00  0.00000000E+00
  0.00000000E+00  0.00000000E+00  0.00000000E+00
  0.00000000E+00  0.00000000E+00  0.00000000E+00
  0.00000000E+00  0.00000000E+00  0.00000000E+00
  0.00000000E+00  0.00000000E+00  0.00000000E+00
  0.00000000E+00  0.00000000E+00  0.00000000E+00
  0.00000000E+00  0.00000000E+00  0.00000000E+00
  0.00000000E+00  0.00000000E+00  0.00000000E+00
  0.00000000E+00  0.00000000E+00  0.00000000E+00
  0.00000000E+00  0.00000000E+00  0.00000000E+00
  0.00000000E+00  0.00000000E+00  0.00000000E+00
  0.00000000E+00  0.00000000E+00  0.00000000E+00
  0.00000000E+00  0.00000000E+00  0.00000000E+00
  0.00000000E+00  0.00000000E+00  0.00000000E+00
  0.00000000E+00  0.00000000E+00  0.00000000E+00
  0.00000000E+00  0.00000000E+00  0.00000000E+00
  0.00000000E+00  0.00000000E+00  0.00000000E+00
  0.00000000E+00  0.00000000E+00  0.00000000E+00
  0.00000000E+00  0.00000000E+00  0.00000000E+00
  0.00000000E+00  0.00000000E+00  0.00000000E+00
  0.00000000E+00  0.00000000E+00  0.00000000E+00
  0.00000000E+00  0.00000000E+00  0.00000000E+00
  0.00000000E+00  0.00000000E+00  0.00000000E+00
  0.00000000E+00  0.00000000E+00  0.00000000E+00
  0.00000000E+00  0.00000000E+00  0.00000000E+00
  0.00000000E+00  0.00000000E+00  0.00000000E+00
  0.00000000E+00  0.00000000E+00  0.00000000E+00
  0.00000000E+00  0.00000000E+00  0.00000000E+00
  0.00000000E+00  0.00000000E+00  0.00000000E+00
  0.00000000E+00  0.00000000E+00  0.00000000E+00
  0.00000000E+00  0.00000000E+00  0.00000000E+00
  0.00000000E+00  0.00000000E+00  0.00000000E+00
  0.00000000E+00  0.00000000E+00  0.00000000E+00
  0.00000000E+00  0.00000000E+00  0.00000000E+00
  0.00000000E+00  0.00000000E+00  0.00000000E+00
  0.00000000E+00  0.00000000E+00  0.00000000E+00
  0.00000000E+00  0.00000000E+00  0.00000000E+00
  0.00000000E+00  0.00000000E+00  0.00000000E+00
  0.00000000E+00  0.00000000E+00  0.00000000E+00
  0.00000000E+00  0.00000000E+00  0.00000000E+00
  0.00000000E+00  0.00000000E+00  0.00000000E+00
  0.00000000E+00  0.00000000E+00  0.00000000E+00
  0.00000000E+00  0.00000000E+00  0.00000000E+00
  0.00000000E+00  0.00000000E+00  0.00000000E+00
  0.00000000E+00  0.00000000E+00  0.00000000E+00
