Cd1 H1 C122 N4                          
   1.00000000000000     
    19.8052852053088273   -0.0003996637720033   -0.0783216554445665
    -9.9030278236691824   17.0303878059745699   -0.1083694418167374
    -0.1178223103311443   -0.2581824600201319   29.8360191103184818
   Cd   H    C    N 
     1     1   122     4
Direct
  0.4400701427835895  0.5021307699681158  0.4500589217456160
  0.4451588087812418  0.5059779739517551  0.5068597497783007
  0.0422050272994483  0.0843019809818589  0.3997513073828626
  0.0411788638267017  0.2083646864952482  0.3992111714973732
  0.0404545880017477  0.3330192643356158  0.3984878318318494
  0.0406241772845878  0.4583153072015373  0.3984251786942137
  0.0414236710109677  0.5838192740075758  0.3992988929067535
  0.0422264313421678  0.7093137166409077  0.3998884101422144
  0.0425956270155771  0.8347136351905800  0.3999835661822489
  0.0427506338968762  0.9599242676551003  0.4000059889104173
  0.1684492978698423  0.0862280704451352  0.4004543907992601
  0.1674832389301333  0.2103502024867289  0.4004688346024227
  0.1653809759694447  0.3338335060705628  0.3995995187702582
  0.1645033915271149  0.4585108028835382  0.3977627652719073
  0.1653306038304657  0.5836531765762467  0.3979479367703699
  0.1664655349483749  0.7091248169756973  0.3991783593035146
  0.1672246954096568  0.8346980779241726  0.3998924709075412
  0.1677621765905460  0.9603768003559598  0.4000561383682517
  0.2929429106283596  0.0861893967530554  0.4004509371216438
  0.2946645758768122  0.2140992673415099  0.4023044250852558
  0.2923348505584809  0.3392551675182649  0.4043051947703574
  0.2883858969791808  0.4573111696347364  0.4024401585239030
  0.2890113562433805  0.5831693068956192  0.3986878032327337
  0.2906585755021742  0.7086278303084592  0.3986339865187024
  0.2917059597803790  0.8341011074620717  0.3995028036518027
  0.2923168430792825  0.9598758013024700  0.3999776574864877
  0.4172517131489291  0.0842707585051428  0.3998384742865848
  0.4180202894260500  0.2103279788148485  0.4003313958749252
  0.4221458667829834  0.3392556875113412  0.4034622034154708
  0.4147110510945488  0.7065052753654146  0.4000244763574582
  0.4161569440884201  0.8325386619918683  0.3993577323414561
  0.4167389206100389  0.9584128990109959  0.3998311418785601
  0.5416637355833048  0.0826424357513174  0.3998887928444491
  0.5423052821687647  0.2083450288828801  0.3993013702252503
  0.5435514571736669  0.3337903623407697  0.3989852163042266
  0.5439391081719805  0.4572278644814897  0.4005908368785355
  0.5384614228540612  0.7017732561867621  0.4026262839945564
  0.5404384260814522  0.8302248706413718  0.4003571777877185
  0.5411580164383958  0.9566987609406432  0.3999941492084690
  0.6661996396595621  0.0819750561743020  0.4002080047833673
  0.6667026093209879  0.2075149550200146  0.3996543432149111
  0.6676506598734099  0.3330054628522844  0.3986562143792989
  0.6690531749899203  0.4584780252350698  0.3973045436423130
  0.6691848733301227  0.5831292412789779  0.3976698354099394
  0.6668525773810811  0.7064811239889501  0.3994775125519858
  0.6648992575869688  0.8302315969029492  0.4003261905494226
  0.6657139258920344  0.9562900177112765  0.4002679450464016
  0.7909315618547629  0.0819743514134744  0.4001140534987104
  0.7912284925853752  0.2073198510217326  0.3999325827187812
  0.7918844212606095  0.3328122335867037  0.3995874081343360
  0.7927700065475505  0.4583162891580183  0.3988247135944721
  0.7933538115463573  0.5836364918350097  0.3980772075820863
  0.7930226420855133  0.7086162858244328  0.3985858821289636
  0.7915032623446934  0.8325528771370073  0.3994650050128246
  0.7906780461261806  0.9567312736164846  0.4000268060152794
  0.9161489758175633  0.0826841869315390  0.3997860185881896
  0.9159384912410261  0.2075314238823576  0.3994218110438771
  0.9160652561173901  0.3328206482184436  0.3993024124075441
  0.9167029658266987  0.4582833644664384  0.3996330387556540
  0.9174904650574046  0.5838320064033574  0.3995633128193027
  0.9177424555225753  0.7091361514217843  0.3994016635271889
  0.9175245465073713  0.8341319539261919  0.3996579133437851
  0.9168537365324946  0.9584563302337130  0.3998725471424238
  0.0847304528913235  0.0436720636434065  0.4000244726902053
  0.0838331729630697  0.1677849085614081  0.3996069358366489
  0.0821995314872763  0.2916288183987534  0.3988723279684746
  0.0817891562665950  0.4165367833254406  0.3979663173750974
  0.0824134812712306  0.5418712720855734  0.3984677747791452
  0.0833327978295143  0.6673973808981092  0.3995045783660405
  0.0840294642162383  0.7929422228506839  0.3999794301588726
  0.0844082343973225  0.9183370807582584  0.4000269809945473
  0.2096108365913293  0.0440519779190210  0.4003580084835576
  0.2104773021489307  0.1701918383590341  0.4011652647547491
  0.2084259722930957  0.2938621835242435  0.4010573880071991
  0.2059612459892089  0.4170823035445115  0.3991366168912904
  0.2061031332110124  0.5416824096318145  0.3976461989169373
  0.2075274138101174  0.6672054829127380  0.3985023897859674
  0.2084994898007542  0.7927280204833214  0.3995668828309457
  0.2090729803685808  0.9183257108743114  0.3999738960314813
  0.3340672289834694  0.0436028643691528  0.4000574618727193
  0.3348840082661482  0.1701630263863389  0.4010979710456539
  0.3370119567744823  0.2987650326361221  0.4043012423572927
  0.3313317267834170  0.5431497112364699  0.4020194766043752
  0.3316719333887294  0.6664502032289056  0.3989496073373408
  0.3329162029057789  0.7919150414905572  0.3991217009194060
  0.3335466769576074  0.9176201699218680  0.3998259325482910
  0.4584794368052358  0.0418712487628294  0.3998560915388664
  0.4590901289510149  0.1677578908861122  0.3996573486953872
  0.4605816986649541  0.2938410658807150  0.4004803643451408
  0.4533278031099970  0.6612772840643282  0.4029020038109143
  0.4572714824095802  0.7900108617583486  0.3997229495738635
  0.4579910716775801  0.9160328120214970  0.3997152156558892
  0.5829460363640214  0.0404346193586954  0.4000961168930114
  0.5835065230002653  0.1661467335345664  0.3995878326666160
  0.5845407492252586  0.2916139592517754  0.3987888609948391
  0.5861802696012461  0.4170368371797828  0.3980819657311790
  0.5868284671121212  0.5430836044172308  0.4001661583231232
  0.5830408173720114  0.6612106391624565  0.4020191891012604
  0.5807392157775683  0.7863544608239665  0.4010549957595603
  0.5823533284629777  0.9141618591976760  0.4001740867190782
  0.7075486284830849  0.0399524722653673  0.4002422278207327
  0.7080196947268512  0.1655753449653676  0.4000331816429042
  0.7087182405094754  0.2910915858394594  0.3993182704640802
  0.7098287239594621  0.4165450411602410  0.3981265851403353
  0.7106281349710197  0.5416652125603357  0.3972111697048489
  0.7098312571269340  0.6664333727874043  0.3983807864172600
  0.7078364652790319  0.7900155994652678  0.3996449455275500
  0.7069346757689003  0.9141705234709354  0.4002019962263321
  0.8326496401787576  0.0404507877373834  0.4000314752691297
  0.8326882835781405  0.1655824719492987  0.3998780049665195
  0.8330282757062702  0.2909100857808234  0.3997145177594242
  0.8337675013569200  0.4163729244111399  0.3995211957850049
  0.8345344976964916  0.5418787516312512  0.3988318356121650
  0.8347391385292259  0.6672023106420788  0.3986393115535138
  0.8341016015009932  0.7919254655918028  0.3992397152208049
  0.8331915024176462  0.9160622449869823  0.3998185295297814
  0.9585802264228029  0.0419197210712082  0.3997935880472915
  0.9577942609572383  0.1661756740042579  0.3994075095911115
  0.9574886269484881  0.2910952284031826  0.3989980002543099
  0.9577067617060766  0.4163708351136379  0.3991898076043243
  0.9585213030123367  0.5419354301558578  0.3996792786991086
  0.9591814054920991  0.6674201521798018  0.3997023850982315
  0.9593419130841837  0.7927411969365551  0.3997247131321227
  0.9592520868435411  0.9176735233672172  0.3999014800091623
  0.4098864719792567  0.5819979196441715  0.4058142998491066
  0.5470911119693196  0.5818185639079574  0.4039401182951385
  0.3281670241289710  0.4187274769345580  0.4068891905374181
  0.4657001739405954  0.4187552836685383  0.4050662263323622
 
  0.00000000E+00  0.00000000E+00  0.00000000E+00
  0.00000000E+00  0.00000000E+00  0.00000000E+00
  0.00000000E+00  0.00000000E+00  0.00000000E+00
  0.00000000E+00  0.00000000E+00  0.00000000E+00
  0.00000000E+00  0.00000000E+00  0.00000000E+00
  0.00000000E+00  0.00000000E+00  0.00000000E+00
  0.00000000E+00  0.00000000E+00  0.00000000E+00
  0.00000000E+00  0.00000000E+00  0.00000000E+00
  0.00000000E+00  0.00000000E+00  0.00000000E+00
  0.00000000E+00  0.00000000E+00  0.00000000E+00
  0.00000000E+00  0.00000000E+00  0.00000000E+00
  0.00000000E+00  0.00000000E+00  0.00000000E+00
  0.00000000E+00  0.00000000E+00  0.00000000E+00
  0.00000000E+00  0.00000000E+00  0.00000000E+00
  0.00000000E+00  0.00000000E+00  0.00000000E+00
  0.00000000E+00  0.00000000E+00  0.00000000E+00
  0.00000000E+00  0.00000000E+00  0.00000000E+00
  0.00000000E+00  0.00000000E+00  0.00000000E+00
  0.00000000E+00  0.00000000E+00  0.00000000E+00
  0.00000000E+00  0.00000000E+00  0.00000000E+00
  0.00000000E+00  0.00000000E+00  0.00000000E+00
  0.00000000E+00  0.00000000E+00  0.00000000E+00
  0.00000000E+00  0.00000000E+00  0.00000000E+00
  0.00000000E+00  0.00000000E+00  0.00000000E+00
  0.00000000E+00  0.00000000E+00  0.00000000E+00
  0.00000000E+00  0.00000000E+00  0.00000000E+00
  0.00000000E+00  0.00000000E+00  0.00000000E+00
  0.00000000E+00  0.00000000E+00  0.00000000E+00
  0.00000000E+00  0.00000000E+00  0.00000000E+00
  0.00000000E+00  0.00000000E+00  0.00000000E+00
  0.00000000E+00  0.00000000E+00  0.00000000E+00
  0.00000000E+00  0.00000000E+00  0.00000000E+00
  0.00000000E+00  0.00000000E+00  0.00000000E+00
  0.00000000E+00  0.00000000E+00  0.00000000E+00
  0.00000000E+00  0.00000000E+00  0.00000000E+00
  0.00000000E+00  0.00000000E+00  0.00000000E+00
  0.00000000E+00  0.00000000E+00  0.00000000E+00
  0.00000000E+00  0.00000000E+00  0.00000000E+00
  0.00000000E+00  0.00000000E+00  0.00000000E+00
  0.00000000E+00  0.00000000E+00  0.00000000E+00
  0.00000000E+00  0.00000000E+00  0.00000000E+00
  0.00000000E+00  0.00000000E+00  0.00000000E+00
  0.00000000E+00  0.00000000E+00  0.00000000E+00
  0.00000000E+00  0.00000000E+00  0.00000000E+00
  0.00000000E+00  0.00000000E+00  0.00000000E+00
  0.00000000E+00  0.00000000E+00  0.00000000E+00
  0.00000000E+00  0.00000000E+00  0.00000000E+00
  0.00000000E+00  0.00000000E+00  0.00000000E+00
  0.00000000E+00  0.00000000E+00  0.00000000E+00
  0.00000000E+00  0.00000000E+00  0.00000000E+00
  0.00000000E+00  0.00000000E+00  0.00000000E+00
  0.00000000E+00  0.00000000E+00  0.00000000E+00
  0.00000000E+00  0.00000000E+00  0.00000000E+00
  0.00000000E+00  0.00000000E+00  0.00000000E+00
  0.00000000E+00  0.00000000E+00  0.00000000E+00
  0.00000000E+00  0.00000000E+00  0.00000000E+00
  0.00000000E+00  0.00000000E+00  0.00000000E+00
  0.00000000E+00  0.00000000E+00  0.00000000E+00
  0.00000000E+00  0.00000000E+00  0.00000000E+00
  0.00000000E+00  0.00000000E+00  0.00000000E+00
  0.00000000E+00  0.00000000E+00  0.00000000E+00
  0.00000000E+00  0.00000000E+00  0.00000000E+00
  0.00000000E+00  0.00000000E+00  0.00000000E+00
  0.00000000E+00  0.00000000E+00  0.00000000E+00
  0.00000000E+00  0.00000000E+00  0.00000000E+00
  0.00000000E+00  0.00000000E+00  0.00000000E+00
  0.00000000E+00  0.00000000E+00  0.00000000E+00
  0.00000000E+00  0.00000000E+00  0.00000000E+00
  0.00000000E+00  0.00000000E+00  0.00000000E+00
  0.00000000E+00  0.00000000E+00  0.00000000E+00
  0.00000000E+00  0.00000000E+00  0.00000000E+00
  0.00000000E+00  0.00000000E+00  0.00000000E+00
  0.00000000E+00  0.00000000E+00  0.00000000E+00
  0.00000000E+00  0.00000000E+00  0.00000000E+00
  0.00000000E+00  0.00000000E+00  0.00000000E+00
  0.00000000E+00  0.00000000E+00  0.00000000E+00
  0.00000000E+00  0.00000000E+00  0.00000000E+00
  0.00000000E+00  0.00000000E+00  0.00000000E+00
  0.00000000E+00  0.00000000E+00  0.00000000E+00
  0.00000000E+00  0.00000000E+00  0.00000000E+00
  0.00000000E+00  0.00000000E+00  0.00000000E+00
  0.00000000E+00  0.00000000E+00  0.00000000E+00
  0.00000000E+00  0.00000000E+00  0.00000000E+00
  0.00000000E+00  0.00000000E+00  0.00000000E+00
  0.00000000E+00  0.00000000E+00  0.00000000E+00
  0.00000000E+00  0.00000000E+00  0.00000000E+00
  0.00000000E+00  0.00000000E+00  0.00000000E+00
  0.00000000E+00  0.00000000E+00  0.00000000E+00
  0.00000000E+00  0.00000000E+00  0.00000000E+00
  0.00000000E+00  0.00000000E+00  0.00000000E+00
  0.00000000E+00  0.00000000E+00  0.00000000E+00
  0.00000000E+00  0.00000000E+00  0.00000000E+00
  0.00000000E+00  0.00000000E+00  0.00000000E+00
  0.00000000E+00  0.00000000E+00  0.00000000E+00
  0.00000000E+00  0.00000000E+00  0.00000000E+00
  0.00000000E+00  0.00000000E+00  0.00000000E+00
  0.00000000E+00  0.00000000E+00  0.00000000E+00
  0.00000000E+00  0.00000000E+00  0.00000000E+00
  0.00000000E+00  0.00000000E+00  0.00000000E+00
  0.00000000E+00  0.00000000E+00  0.00000000E+00
  0.00000000E+00  0.00000000E+00  0.00000000E+00
  0.00000000E+00  0.00000000E+00  0.00000000E+00
  0.00000000E+00  0.00000000E+00  0.00000000E+00
  0.00000000E+00  0.00000000E+00  0.00000000E+00
  0.00000000E+00  0.00000000E+00  0.00000000E+00
  0.00000000E+00  0.00000000E+00  0.00000000E+00
  0.00000000E+00  0.00000000E+00  0.00000000E+00
  0.00000000E+00  0.00000000E+00  0.00000000E+00
  0.00000000E+00  0.00000000E+00  0.00000000E+00
  0.00000000E+00  0.00000000E+00  0.00000000E+00
  0.00000000E+00  0.00000000E+00  0.00000000E+00
  0.00000000E+00  0.00000000E+00  0.00000000E+00
  0.00000000E+00  0.00000000E+00  0.00000000E+00
  0.00000000E+00  0.00000000E+00  0.00000000E+00
  0.00000000E+00  0.00000000E+00  0.00000000E+00
  0.00000000E+00  0.00000000E+00  0.00000000E+00
  0.00000000E+00  0.00000000E+00  0.00000000E+00
  0.00000000E+00  0.00000000E+00  0.00000000E+00
  0.00000000E+00  0.00000000E+00  0.00000000E+00
  0.00000000E+00  0.00000000E+00  0.00000000E+00
  0.00000000E+00  0.00000000E+00  0.00000000E+00
  0.00000000E+00  0.00000000E+00  0.00000000E+00
  0.00000000E+00  0.00000000E+00  0.00000000E+00
  0.00000000E+00  0.00000000E+00  0.00000000E+00
  0.00000000E+00  0.00000000E+00  0.00000000E+00
  0.00000000E+00  0.00000000E+00  0.00000000E+00
  0.00000000E+00  0.00000000E+00  0.00000000E+00
  0.00000000E+00  0.00000000E+00  0.00000000E+00
