Zn1 H1 C124 N2                          
   1.00000000000000     
    19.8246574514461855   -0.0217887045661180   -0.0113029641922434
    -9.9313670606735425   17.0599320484268482   -0.0118765108232962
    -0.0170128043384322   -0.0306333228703888   29.7712916113882962
   Zn   H    C    N 
     1     1   124     2
Direct
  0.4376993772938320  0.5001429673547335  0.4259007332620307
  0.4415412883276897  0.5035715855249293  0.4792031255273497
  0.0421923916375991  0.0842505033751366  0.3997106308240227
  0.0414501384418721  0.2084715334088479  0.3996864546801412
  0.0407388427558299  0.3330404549639779  0.3991512974463087
  0.0405689094001432  0.4584336394547239  0.3989988083853545
  0.0411623089084029  0.5838732653318645  0.3994389898216990
  0.0418097072878423  0.7092398977510237  0.3997530965065265
  0.0421725055861062  0.8345272807544876  0.3997065424957663
  0.0424468528903535  0.9596992147065428  0.3996358694066144
  0.1681909144993192  0.0858937423531870  0.4004447938005057
  0.1677574827075246  0.2104317732156706  0.4011194090252212
  0.1659997727131366  0.3342701757154179  0.4009023923184232
  0.1642548646127123  0.4587334502229330  0.3989142545229593
  0.1649454787906601  0.5839981422417082  0.3987965985318999
  0.1660633776728905  0.7093451859383391  0.3994396976709727
  0.1668112391311765  0.8346817255352007  0.3999166853810375
  0.1674477152572884  0.9601637390168259  0.3999264136976740
  0.2927744750776617  0.0855473847197010  0.4002885456459229
  0.2946461825560529  0.2129287261212588  0.4025827594467639
  0.2932655318175251  0.3381300350151530  0.4065078724937529
  0.2881628629080629  0.4596272085800224  0.4044212413888473
  0.2883849475615372  0.5847682482911617  0.4001333521474831
  0.2902202464118257  0.7093833783932594  0.3992756357881921
  0.2913460113088133  0.8343606372083897  0.3996253657169134
  0.2919825969883802  0.9596854298786713  0.3998962285410999
  0.4171797432450396  0.0838114037808602  0.3997461387535474
  0.4179760615295958  0.2093591910085224  0.4008053015689370
  0.4218899142127269  0.3374290726266495  0.4040091283355590
  0.4143586370841623  0.7073901774915341  0.4014802201878626
  0.4158374265501529  0.8329572038040867  0.3998614950728056
  0.4165372217769472  0.9583728348638715  0.3997065282270403
  0.5417095692327034  0.0823552874199139  0.3997658525046119
  0.5424333205206365  0.2075472942380197  0.3995007121829765
  0.5437700841760615  0.3324876486000069  0.4001169553800716
  0.5450058346418764  0.4556254237789915  0.4026147647089966
  0.5455280431003892  0.5797374233758614  0.4098359775225193
  0.5381590249335628  0.7030484337737625  0.4048752741811241
  0.5401282075987555  0.8307829969535004  0.4011517605726047
  0.5411187475738973  0.9568574635683478  0.3999397901191726
  0.6662807065723437  0.0817990327624203  0.3999739758284873
  0.6669400589325416  0.2072014458806977  0.3996821545211905
  0.6678431711782229  0.3324538129166373  0.3990541006500378
  0.6693756120413511  0.4578074712771185  0.3991327114270287
  0.6693324708052188  0.5825178678396867  0.4006371260887484
  0.6658535505987020  0.7059442536334031  0.4023755286443295
  0.6647079569462347  0.8302203984714598  0.4014925855426194
  0.6656450425509234  0.9562405404390442  0.4002335816276435
  0.7910118300209181  0.0818537129340224  0.3997501448419539
  0.7914058399702335  0.2071230422637029  0.3998355687673905
  0.7920925368764348  0.3325751258628588  0.3995906608373927
  0.7929454298934152  0.4580455209087554  0.3990425729757773
  0.7933271864496978  0.5833584936366188  0.3989186008628838
  0.7923498780430155  0.7081340231823909  0.3998276222205747
  0.7910935487034698  0.8322383366025043  0.4000407346642228
  0.7905612072355301  0.9566198143781716  0.3998653983704650
  0.9162464297775472  0.0826815382635893  0.3995143955089314
  0.9161485347838206  0.2075194638700802  0.3995204414320415
  0.9162823518433370  0.3327218479809199  0.3995358015816070
  0.9167296551709809  0.4581792306744056  0.3995929990810521
  0.9173030215124907  0.5836959648942325  0.3994808972110383
  0.9173526192465246  0.7089983377123955  0.3994229863962464
  0.9170563101864601  0.8337937564195081  0.3995241682765697
  0.9165907158736872  0.9582252323620007  0.3995100884680566
  0.0844815812335003  0.0434215522982549  0.3998676399283329
  0.0839595318063513  0.1677853543966403  0.3999895204422778
  0.0826912875354021  0.2918915997356563  0.3997050666131333
  0.0816801528002264  0.4166585711299132  0.3987670740421440
  0.0820711919489729  0.5419911733874674  0.3989826939969955
  0.0829622668265720  0.6674672369450869  0.3995921273485402
  0.0836381361583409  0.7929055023252829  0.3998318351667655
  0.0840477669743575  0.9181780458294813  0.3997330453346199
  0.2094057463205837  0.0438080027626256  0.4002062275436818
  0.2103486310871795  0.1698493431153287  0.4015176417802409
  0.2091877603432931  0.2941127069959759  0.4024632442616385
  0.2057100240806932  0.4175279755640616  0.4006444335451738
  0.2056745126347238  0.5422438771048160  0.3990425574269020
  0.2071965364697562  0.6676087443398406  0.3990416685344061
  0.2081025608155307  0.7928638113584422  0.3997044210143034
  0.2087743190594908  0.9182517835255147  0.3999801041153823
  0.3339069868526443  0.0431929263087913  0.3999002158837465
  0.3349183881152545  0.1692924699355542  0.4011518788740154
  0.3368977469441823  0.2970768791097149  0.4050762465636509
  0.3296021819384996  0.4204473297856788  0.4105220140659023
  0.3300696424969052  0.5444423342977210  0.4027506185481523
  0.3312843524758384  0.6675863996567127  0.4000899862153204
  0.3326049908390865  0.7925281026895026  0.3995057918905198
  0.3333574752453454  0.9177155786509406  0.3997599610865060
  0.4585233238953337  0.0416958553068991  0.3997047826501728
  0.4591953893948602  0.1670997397182708  0.3998531298371072
  0.4606879903330887  0.2926825289051030  0.4015105218433656
  0.4531656643913798  0.6626685119763024  0.4039200924851737
  0.4570663867582184  0.7907153525428026  0.4007954418879293
  0.4578506970943574  0.9162391262579852  0.3997660640288916
  0.5830658639728751  0.0403682607582309  0.3999039426988601
  0.5836958962274675  0.1657114356018705  0.3996124111487716
  0.5848072918152606  0.2906778465769008  0.3992918036642885
  0.5866690906103069  0.4152842665133377  0.4001430983813802
  0.5868674049786736  0.5404119940804665  0.4041144892706802
  0.5817698870147675  0.6620074243508255  0.4061664167590737
  0.5804139654174132  0.7871750423785691  0.4025310928455526
  0.5822562035002254  0.9145083927958779  0.4003402416056854
  0.7076039500638945  0.0398784406361916  0.3999441882990845
  0.7082239254371006  0.1653683409311975  0.3999087930865083
  0.7089916202375187  0.2907111239532107  0.3994287976575853
  0.7100903078026803  0.4160516998214506  0.3988828111591324
  0.7107681426229883  0.5412989684656238  0.3990298086319433
  0.7090329149180791  0.6657792310141116  0.4009286318710430
  0.7072845373329634  0.7896099935345017  0.4011149762143557
  0.7068568241559664  0.9141600510660571  0.4004426862833296
  0.8326183225343673  0.0403398020968793  0.3996393547887950
  0.8328769233609156  0.1655042155323940  0.3997121653775442
  0.8332367577479833  0.2907874286979827  0.3997457044349696
  0.8338652034690526  0.4161670985264069  0.3994603323272481
  0.8344404408988496  0.5415979840060683  0.3990883484285256
  0.8342896473345875  0.6669894001828188  0.3992911146442083
  0.8336075222499416  0.7915620383348049  0.3997632104684967
  0.8328608290192249  0.9157802280346738  0.3997336367746315
  0.9584702290323981  0.0418161168605625  0.3995008703329651
  0.9580116047729167  0.1662526149544605  0.3994876550330124
  0.9576777691191748  0.2910386786972318  0.3993561800269447
  0.9577078902866831  0.4163359599968655  0.3994436263268447
  0.9583024344135725  0.5418750054173811  0.3995916886104451
  0.9587610216537823  0.6673185900213929  0.3995665816617528
  0.9589047344310899  0.7925268263550576  0.3995490283064112
  0.9588180785268833  0.9173667530318251  0.3995165012866835
  0.4086701919594096  0.5830143201139886  0.4046494960308654
  0.4664208262771573  0.4170945651807272  0.4046357289897981
 
  0.00000000E+00  0.00000000E+00  0.00000000E+00
  0.00000000E+00  0.00000000E+00  0.00000000E+00
  0.00000000E+00  0.00000000E+00  0.00000000E+00
  0.00000000E+00  0.00000000E+00  0.00000000E+00
  0.00000000E+00  0.00000000E+00  0.00000000E+00
  0.00000000E+00  0.00000000E+00  0.00000000E+00
  0.00000000E+00  0.00000000E+00  0.00000000E+00
  0.00000000E+00  0.00000000E+00  0.00000000E+00
  0.00000000E+00  0.00000000E+00  0.00000000E+00
  0.00000000E+00  0.00000000E+00  0.00000000E+00
  0.00000000E+00  0.00000000E+00  0.00000000E+00
  0.00000000E+00  0.00000000E+00  0.00000000E+00
  0.00000000E+00  0.00000000E+00  0.00000000E+00
  0.00000000E+00  0.00000000E+00  0.00000000E+00
  0.00000000E+00  0.00000000E+00  0.00000000E+00
  0.00000000E+00  0.00000000E+00  0.00000000E+00
  0.00000000E+00  0.00000000E+00  0.00000000E+00
  0.00000000E+00  0.00000000E+00  0.00000000E+00
  0.00000000E+00  0.00000000E+00  0.00000000E+00
  0.00000000E+00  0.00000000E+00  0.00000000E+00
  0.00000000E+00  0.00000000E+00  0.00000000E+00
  0.00000000E+00  0.00000000E+00  0.00000000E+00
  0.00000000E+00  0.00000000E+00  0.00000000E+00
  0.00000000E+00  0.00000000E+00  0.00000000E+00
  0.00000000E+00  0.00000000E+00  0.00000000E+00
  0.00000000E+00  0.00000000E+00  0.00000000E+00
  0.00000000E+00  0.00000000E+00  0.00000000E+00
  0.00000000E+00  0.00000000E+00  0.00000000E+00
  0.00000000E+00  0.00000000E+00  0.00000000E+00
  0.00000000E+00  0.00000000E+00  0.00000000E+00
  0.00000000E+00  0.00000000E+00  0.00000000E+00
  0.00000000E+00  0.00000000E+00  0.00000000E+00
  0.00000000E+00  0.00000000E+00  0.00000000E+00
  0.00000000E+00  0.00000000E+00  0.00000000E+00
  0.00000000E+00  0.00000000E+00  0.00000000E+00
  0.00000000E+00  0.00000000E+00  0.00000000E+00
  0.00000000E+00  0.00000000E+00  0.00000000E+00
  0.00000000E+00  0.00000000E+00  0.00000000E+00
  0.00000000E+00  0.00000000E+00  0.00000000E+00
  0.00000000E+00  0.00000000E+00  0.00000000E+00
  0.00000000E+00  0.00000000E+00  0.00000000E+00
  0.00000000E+00  0.00000000E+00  0.00000000E+00
  0.00000000E+00  0.00000000E+00  0.00000000E+00
  0.00000000E+00  0.00000000E+00  0.00000000E+00
  0.00000000E+00  0.00000000E+00  0.00000000E+00
  0.00000000E+00  0.00000000E+00  0.00000000E+00
  0.00000000E+00  0.00000000E+00  0.00000000E+00
  0.00000000E+00  0.00000000E+00  0.00000000E+00
  0.00000000E+00  0.00000000E+00  0.00000000E+00
  0.00000000E+00  0.00000000E+00  0.00000000E+00
  0.00000000E+00  0.00000000E+00  0.00000000E+00
  0.00000000E+00  0.00000000E+00  0.00000000E+00
  0.00000000E+00  0.00000000E+00  0.00000000E+00
  0.00000000E+00  0.00000000E+00  0.00000000E+00
  0.00000000E+00  0.00000000E+00  0.00000000E+00
  0.00000000E+00  0.00000000E+00  0.00000000E+00
  0.00000000E+00  0.00000000E+00  0.00000000E+00
  0.00000000E+00  0.00000000E+00  0.00000000E+00
  0.00000000E+00  0.00000000E+00  0.00000000E+00
  0.00000000E+00  0.00000000E+00  0.00000000E+00
  0.00000000E+00  0.00000000E+00  0.00000000E+00
  0.00000000E+00  0.00000000E+00  0.00000000E+00
  0.00000000E+00  0.00000000E+00  0.00000000E+00
  0.00000000E+00  0.00000000E+00  0.00000000E+00
  0.00000000E+00  0.00000000E+00  0.00000000E+00
  0.00000000E+00  0.00000000E+00  0.00000000E+00
  0.00000000E+00  0.00000000E+00  0.00000000E+00
  0.00000000E+00  0.00000000E+00  0.00000000E+00
  0.00000000E+00  0.00000000E+00  0.00000000E+00
  0.00000000E+00  0.00000000E+00  0.00000000E+00
  0.00000000E+00  0.00000000E+00  0.00000000E+00
  0.00000000E+00  0.00000000E+00  0.00000000E+00
  0.00000000E+00  0.00000000E+00  0.00000000E+00
  0.00000000E+00  0.00000000E+00  0.00000000E+00
  0.00000000E+00  0.00000000E+00  0.00000000E+00
  0.00000000E+00  0.00000000E+00  0.00000000E+00
  0.00000000E+00  0.00000000E+00  0.00000000E+00
  0.00000000E+00  0.00000000E+00  0.00000000E+00
  0.00000000E+00  0.00000000E+00  0.00000000E+00
  0.00000000E+00  0.00000000E+00  0.00000000E+00
  0.00000000E+00  0.00000000E+00  0.00000000E+00
  0.00000000E+00  0.00000000E+00  0.00000000E+00
  0.00000000E+00  0.00000000E+00  0.00000000E+00
  0.00000000E+00  0.00000000E+00  0.00000000E+00
  0.00000000E+00  0.00000000E+00  0.00000000E+00
  0.00000000E+00  0.00000000E+00  0.00000000E+00
  0.00000000E+00  0.00000000E+00  0.00000000E+00
  0.00000000E+00  0.00000000E+00  0.00000000E+00
  0.00000000E+00  0.00000000E+00  0.00000000E+00
  0.00000000E+00  0.00000000E+00  0.00000000E+00
  0.00000000E+00  0.00000000E+00  0.00000000E+00
  0.00000000E+00  0.00000000E+00  0.00000000E+00
  0.00000000E+00  0.00000000E+00  0.00000000E+00
  0.00000000E+00  0.00000000E+00  0.00000000E+00
  0.00000000E+00  0.00000000E+00  0.00000000E+00
  0.00000000E+00  0.00000000E+00  0.00000000E+00
  0.00000000E+00  0.00000000E+00  0.00000000E+00
  0.00000000E+00  0.00000000E+00  0.00000000E+00
  0.00000000E+00  0.00000000E+00  0.00000000E+00
  0.00000000E+00  0.00000000E+00  0.00000000E+00
  0.00000000E+00  0.00000000E+00  0.00000000E+00
  0.00000000E+00  0.00000000E+00  0.00000000E+00
  0.00000000E+00  0.00000000E+00  0.00000000E+00
  0.00000000E+00  0.00000000E+00  0.00000000E+00
  0.00000000E+00  0.00000000E+00  0.00000000E+00
  0.00000000E+00  0.00000000E+00  0.00000000E+00
  0.00000000E+00  0.00000000E+00  0.00000000E+00
  0.00000000E+00  0.00000000E+00  0.00000000E+00
  0.00000000E+00  0.00000000E+00  0.00000000E+00
  0.00000000E+00  0.00000000E+00  0.00000000E+00
  0.00000000E+00  0.00000000E+00  0.00000000E+00
  0.00000000E+00  0.00000000E+00  0.00000000E+00
  0.00000000E+00  0.00000000E+00  0.00000000E+00
  0.00000000E+00  0.00000000E+00  0.00000000E+00
  0.00000000E+00  0.00000000E+00  0.00000000E+00
  0.00000000E+00  0.00000000E+00  0.00000000E+00
  0.00000000E+00  0.00000000E+00  0.00000000E+00
  0.00000000E+00  0.00000000E+00  0.00000000E+00
  0.00000000E+00  0.00000000E+00  0.00000000E+00
  0.00000000E+00  0.00000000E+00  0.00000000E+00
  0.00000000E+00  0.00000000E+00  0.00000000E+00
  0.00000000E+00  0.00000000E+00  0.00000000E+00
  0.00000000E+00  0.00000000E+00  0.00000000E+00
  0.00000000E+00  0.00000000E+00  0.00000000E+00
  0.00000000E+00  0.00000000E+00  0.00000000E+00
  0.00000000E+00  0.00000000E+00  0.00000000E+00
  0.00000000E+00  0.00000000E+00  0.00000000E+00
  0.00000000E+00  0.00000000E+00  0.00000000E+00
