Fe1 C126 O1                             
   1.00000000000000     
    19.7909465775498177   -0.0000483949069972   -0.0297551990802258
    -9.8955255662642614   17.0581968110193465   -0.0288863908712175
    -0.0448388586172421   -0.0767952083339406   29.8062156182163811
   Fe   C    O 
     1   126     1
Direct
  0.4380646807089477  0.5006941452686391  0.4247136176510438
  0.0420661065133956  0.0840190799769331  0.3997391593327464
  0.0411980040586499  0.2081756789142446  0.3995834316863380
  0.0408055962566394  0.3328543376007360  0.3993567070527604
  0.0408753253976215  0.4582854211388039  0.3993953969300890
  0.0414706264199154  0.5836694863883807  0.3996075851340422
  0.0419617050621071  0.7088763857277414  0.3996751741524847
  0.0422905321460476  0.8342962592986254  0.3997953373458571
  0.0423383973454747  0.9592991082439468  0.3998021442270598
  0.1675768503499384  0.0850210217669343  0.4001724105758981
  0.1675278783338499  0.2099432101797660  0.4004684793366238
  0.1658212329904387  0.3333782154039184  0.4002405639983593
  0.1647760578821291  0.4582814727697837  0.3993786697295363
  0.1656090083208994  0.5834971448666479  0.3992312164222724
  0.1665923215597687  0.7089564960160715  0.3995044752423738
  0.1670352107447002  0.8342751934732675  0.3997663669052329
  0.1673729860431905  0.9596848294254627  0.4000229582214061
  0.2925212852976742  0.0850192696259668  0.4001312271534943
  0.2932325798616091  0.2113881802238708  0.4015906083325973
  0.2937169111570981  0.3374931293036241  0.4034511311405637
  0.2882822000910181  0.4579185916760196  0.4023708427887911
  0.2895119502838384  0.5837058882868149  0.3999449043849879
  0.2911349945703350  0.7087434660897927  0.3995409030949943
  0.2916499482161541  0.8338297543306084  0.3995704896571937
  0.2920049666188689  0.9592685347067231  0.3997549672678602
  0.4170044228923686  0.0840011821574365  0.3996937496953805
  0.4174662155975710  0.2099241729834915  0.4004046721966503
  0.4188958072087985  0.3374777267369424  0.4033712921351267
  0.4116243332811109  0.5799498203533133  0.4049422665052873
  0.4155679272739548  0.7064469302839100  0.4008436611298620
  0.4163021304028618  0.8326397698766428  0.3999577949028890
  0.4166188545773792  0.9582847425158363  0.3996391329032107
  0.5416186611201539  0.0828254146787373  0.3996512064808613
  0.5420201680988939  0.2081734298821374  0.3995293178122310
  0.5426406488717959  0.3333761745228969  0.4001071357006509
  0.5447371882615428  0.4579066799590379  0.4021667438756111
  0.5434620479776839  0.5799495491811228  0.4048102777868934
  0.5402512691022636  0.7053867729201357  0.4028566431659328
  0.5407625102472622  0.8315092105268604  0.4010030864599585
  0.5413061606307963  0.9572896605677670  0.4000358511213946
  0.6662373163972006  0.0823028025995143  0.3998808770033619
  0.6666123459880637  0.2076838995267281  0.3997153266079465
  0.6671172622596089  0.3328465759858190  0.3992873699139423
  0.6685724637707224  0.4582675140540928  0.3992066515170904
  0.6692692362329140  0.5836945065327939  0.3997666333559664
  0.6659750951417394  0.7064574480969767  0.4007447560602202
  0.6658439548836341  0.8315223104671645  0.4009514803557366
  0.6660233670548621  0.9569793736681262  0.4003422519761699
  0.7911304080449071  0.0823102850005029  0.3998553818690027
  0.7912443067581947  0.2074576119127727  0.3999276638733420
  0.7917302286799028  0.3328629065681312  0.3997716052092031
  0.7924923108544490  0.4582992130315304  0.3993539965301096
  0.7929404980298571  0.5834909416900089  0.3991484761921313
  0.7926869433603656  0.7087418107813903  0.3994715635990076
  0.7914286149012995  0.8326488911739176  0.3999003029857917
  0.7910638813646500  0.9573065801502025  0.3999760604582718
  0.9162848485190693  0.0828338305947440  0.3996296933481247
  0.9161126600576139  0.2076821645878439  0.3996962352531028
  0.9161866083142201  0.3328519095569007  0.3997602497591970
  0.9165800763828926  0.4580880254514454  0.3997518476479627
  0.9172562579638566  0.5836602535144664  0.3995764561219630
  0.9174250335042373  0.7089599585319277  0.3994753336160244
  0.9172492707641240  0.8338463541072230  0.3995607843582079
  0.9167353764992470  0.9582919653936202  0.3996487280475662
  0.0841071903322970  0.0428068241049360  0.3998702012164159
  0.0837829405431307  0.1675103151414064  0.3997917975609440
  0.0824405082742174  0.2913671554103843  0.3995882985520893
  0.0821659348014521  0.4166081740558596  0.3992326812855254
  0.0826351491237958  0.5417882760461410  0.3993875211527680
  0.0833631920152271  0.6672001562530241  0.3996091981983909
  0.0838100752315114  0.7925937263988132  0.3997788220596092
  0.0840170489648671  0.9178079201756191  0.3999296017953355
  0.2091146893593816  0.0431703466452973  0.4001234583655915
  0.2093596580451305  0.1686677273701207  0.4007405157439052
  0.2092737913770364  0.2937608470604900  0.4011520961227930
  0.2058795985235875  0.4163943064014219  0.4002122975295705
  0.2065078359157155  0.5418010939098252  0.3993274483048950
  0.2080257280262003  0.6672890761222874  0.3993556638456539
  0.2084693875600721  0.7924169061223125  0.3995833320248749
  0.2088306290894195  0.9177844208071093  0.3998794417817493
  0.3337469834036852  0.0427871419881356  0.3998139404542087
  0.3343604848797526  0.1686528496854791  0.4006971996814457
  0.3349952872066169  0.2948610419358673  0.4033972044553522
  0.3319172039605718  0.4204170311281743  0.4056703697731905
  0.3304102760284664  0.5422436860420561  0.4020470314477578
  0.3324933295344792  0.6667428460800409  0.3999785797303872
  0.3330705783858434  0.7919358798670402  0.3996449295832321
  0.3334402224357902  0.9172406584533235  0.3996291265716465
  0.4584115536821756  0.0417950002534653  0.3996148793095102
  0.4587746653789395  0.1675043376129324  0.3997339333943231
  0.4595693709404287  0.2937387019114936  0.4010664812994449
  0.4636354634404540  0.4204059916512080  0.4055089494222983
  0.4563239170106925  0.6627858450391741  0.4027808028845286
  0.4576260367024076  0.7902351257228517  0.4005852212565557
  0.4580492496132749  0.9161116119901394  0.3998579119424335
  0.5830529066478931  0.0407933382967229  0.3998234894658665
  0.5834096748028941  0.1662555603808542  0.3995807001544165
  0.5839993888655428  0.2913608309323195  0.3994889609554662
  0.5855969628782844  0.4163889401938334  0.4000368233786631
  0.5869255524475321  0.5422365730775596  0.4018592811734436
  0.5815824738150397  0.6627965453228271  0.4026872834821731
  0.5819638405207286  0.7888323551795509  0.4016116587125751
  0.5825963942421097  0.9151176989944148  0.4004948031537339
  0.7077589936021980  0.0404465771188924  0.3999773041442864
  0.7080151485433248  0.1658025732446831  0.3998699085495119
  0.7085099066872402  0.2911444693726040  0.3995692720943751
  0.7095084561904486  0.4166037860680376  0.3991318584706534
  0.7103489602034969  0.5417774029227402  0.3991665241947615
  0.7093310384453702  0.6667401092500569  0.3998603611562075
  0.7077057000193534  0.7902503734401733  0.4005058235619074
  0.7075975253669853  0.9151320178282987  0.4004468093653912
  0.8328041782344684  0.0408076330838298  0.3997728796505697
  0.8328333264985872  0.1658119527464024  0.3998540941211530
  0.8331027313275641  0.2911596271387111  0.3999138936577467
  0.8336087078741912  0.4163722555018268  0.3996765649942375
  0.8342263238924943  0.5417990901185163  0.3993367295932728
  0.8343262436177454  0.6672887410915678  0.3993008569615668
  0.8339402530717663  0.7919342238686014  0.3996044676627122
  0.8331330777639536  0.9161153945437590  0.3998182341191665
  0.9584480254246444  0.0417966979027113  0.3996398036594826
  0.9578949065005418  0.1662629785990717  0.3995799126303439
  0.9576992766441705  0.2911414612236598  0.3995806182803960
  0.9578241024890417  0.4163601836940174  0.3996782445154849
  0.9584967461667588  0.5419047469428477  0.3996872108891338
  0.9588905865784270  0.6671935537357427  0.3995928664662145
  0.9590138907731500  0.7924319751154982  0.3995906858731146
  0.9588665810928347  0.9172499178622431  0.3996428924040245
  0.4393470714822172  0.5024207229935342  0.4767719204654952
 
  0.00000000E+00  0.00000000E+00  0.00000000E+00
  0.00000000E+00  0.00000000E+00  0.00000000E+00
  0.00000000E+00  0.00000000E+00  0.00000000E+00
  0.00000000E+00  0.00000000E+00  0.00000000E+00
  0.00000000E+00  0.00000000E+00  0.00000000E+00
  0.00000000E+00  0.00000000E+00  0.00000000E+00
  0.00000000E+00  0.00000000E+00  0.00000000E+00
  0.00000000E+00  0.00000000E+00  0.00000000E+00
  0.00000000E+00  0.00000000E+00  0.00000000E+00
  0.00000000E+00  0.00000000E+00  0.00000000E+00
  0.00000000E+00  0.00000000E+00  0.00000000E+00
  0.00000000E+00  0.00000000E+00  0.00000000E+00
  0.00000000E+00  0.00000000E+00  0.00000000E+00
  0.00000000E+00  0.00000000E+00  0.00000000E+00
  0.00000000E+00  0.00000000E+00  0.00000000E+00
  0.00000000E+00  0.00000000E+00  0.00000000E+00
  0.00000000E+00  0.00000000E+00  0.00000000E+00
  0.00000000E+00  0.00000000E+00  0.00000000E+00
  0.00000000E+00  0.00000000E+00  0.00000000E+00
  0.00000000E+00  0.00000000E+00  0.00000000E+00
  0.00000000E+00  0.00000000E+00  0.00000000E+00
  0.00000000E+00  0.00000000E+00  0.00000000E+00
  0.00000000E+00  0.00000000E+00  0.00000000E+00
  0.00000000E+00  0.00000000E+00  0.00000000E+00
  0.00000000E+00  0.00000000E+00  0.00000000E+00
  0.00000000E+00  0.00000000E+00  0.00000000E+00
  0.00000000E+00  0.00000000E+00  0.00000000E+00
  0.00000000E+00  0.00000000E+00  0.00000000E+00
  0.00000000E+00  0.00000000E+00  0.00000000E+00
  0.00000000E+00  0.00000000E+00  0.00000000E+00
  0.00000000E+00  0.00000000E+00  0.00000000E+00
  0.00000000E+00  0.00000000E+00  0.00000000E+00
  0.00000000E+00  0.00000000E+00  0.00000000E+00
  0.00000000E+00  0.00000000E+00  0.00000000E+00
  0.00000000E+00  0.00000000E+00  0.00000000E+00
  0.00000000E+00  0.00000000E+00  0.00000000E+00
  0.00000000E+00  0.00000000E+00  0.00000000E+00
  0.00000000E+00  0.00000000E+00  0.00000000E+00
  0.00000000E+00  0.00000000E+00  0.00000000E+00
  0.00000000E+00  0.00000000E+00  0.00000000E+00
  0.00000000E+00  0.00000000E+00  0.00000000E+00
  0.00000000E+00  0.00000000E+00  0.00000000E+00
  0.00000000E+00  0.00000000E+00  0.00000000E+00
  0.00000000E+00  0.00000000E+00  0.00000000E+00
  0.00000000E+00  0.00000000E+00  0.00000000E+00
  0.00000000E+00  0.00000000E+00  0.00000000E+00
  0.00000000E+00  0.00000000E+00  0.00000000E+00
  0.00000000E+00  0.00000000E+00  0.00000000E+00
  0.00000000E+00  0.00000000E+00  0.00000000E+00
  0.00000000E+00  0.00000000E+00  0.00000000E+00
  0.00000000E+00  0.00000000E+00  0.00000000E+00
  0.00000000E+00  0.00000000E+00  0.00000000E+00
  0.00000000E+00  0.00000000E+00  0.00000000E+00
  0.00000000E+00  0.00000000E+00  0.00000000E+00
  0.00000000E+00  0.00000000E+00  0.00000000E+00
  0.00000000E+00  0.00000000E+00  0.00000000E+00
  0.00000000E+00  0.00000000E+00  0.00000000E+00
  0.00000000E+00  0.00000000E+00  0.00000000E+00
  0.00000000E+00  0.00000000E+00  0.00000000E+00
  0.00000000E+00  0.00000000E+00  0.00000000E+00
  0.00000000E+00  0.00000000E+00  0.00000000E+00
  0.00000000E+00  0.00000000E+00  0.00000000E+00
  0.00000000E+00  0.00000000E+00  0.00000000E+00
  0.00000000E+00  0.00000000E+00  0.00000000E+00
  0.00000000E+00  0.00000000E+00  0.00000000E+00
  0.00000000E+00  0.00000000E+00  0.00000000E+00
  0.00000000E+00  0.00000000E+00  0.00000000E+00
  0.00000000E+00  0.00000000E+00  0.00000000E+00
  0.00000000E+00  0.00000000E+00  0.00000000E+00
  0.00000000E+00  0.00000000E+00  0.00000000E+00
  0.00000000E+00  0.00000000E+00  0.00000000E+00
  0.00000000E+00  0.00000000E+00  0.00000000E+00
  0.00000000E+00  0.00000000E+00  0.00000000E+00
  0.00000000E+00  0.00000000E+00  0.00000000E+00
  0.00000000E+00  0.00000000E+00  0.00000000E+00
  0.00000000E+00  0.00000000E+00  0.00000000E+00
  0.00000000E+00  0.00000000E+00  0.00000000E+00
  0.00000000E+00  0.00000000E+00  0.00000000E+00
  0.00000000E+00  0.00000000E+00  0.00000000E+00
  0.00000000E+00  0.00000000E+00  0.00000000E+00
  0.00000000E+00  0.00000000E+00  0.00000000E+00
  0.00000000E+00  0.00000000E+00  0.00000000E+00
  0.00000000E+00  0.00000000E+00  0.00000000E+00
  0.00000000E+00  0.00000000E+00  0.00000000E+00
  0.00000000E+00  0.00000000E+00  0.00000000E+00
  0.00000000E+00  0.00000000E+00  0.00000000E+00
  0.00000000E+00  0.00000000E+00  0.00000000E+00
  0.00000000E+00  0.00000000E+00  0.00000000E+00
  0.00000000E+00  0.00000000E+00  0.00000000E+00
  0.00000000E+00  0.00000000E+00  0.00000000E+00
  0.00000000E+00  0.00000000E+00  0.00000000E+00
  0.00000000E+00  0.00000000E+00  0.00000000E+00
  0.00000000E+00  0.00000000E+00  0.00000000E+00
  0.00000000E+00  0.00000000E+00  0.00000000E+00
  0.00000000E+00  0.00000000E+00  0.00000000E+00
  0.00000000E+00  0.00000000E+00  0.00000000E+00
  0.00000000E+00  0.00000000E+00  0.00000000E+00
  0.00000000E+00  0.00000000E+00  0.00000000E+00
  0.00000000E+00  0.00000000E+00  0.00000000E+00
  0.00000000E+00  0.00000000E+00  0.00000000E+00
  0.00000000E+00  0.00000000E+00  0.00000000E+00
  0.00000000E+00  0.00000000E+00  0.00000000E+00
  0.00000000E+00  0.00000000E+00  0.00000000E+00
  0.00000000E+00  0.00000000E+00  0.00000000E+00
  0.00000000E+00  0.00000000E+00  0.00000000E+00
  0.00000000E+00  0.00000000E+00  0.00000000E+00
  0.00000000E+00  0.00000000E+00  0.00000000E+00
  0.00000000E+00  0.00000000E+00  0.00000000E+00
  0.00000000E+00  0.00000000E+00  0.00000000E+00
  0.00000000E+00  0.00000000E+00  0.00000000E+00
  0.00000000E+00  0.00000000E+00  0.00000000E+00
  0.00000000E+00  0.00000000E+00  0.00000000E+00
  0.00000000E+00  0.00000000E+00  0.00000000E+00
  0.00000000E+00  0.00000000E+00  0.00000000E+00
  0.00000000E+00  0.00000000E+00  0.00000000E+00
  0.00000000E+00  0.00000000E+00  0.00000000E+00
  0.00000000E+00  0.00000000E+00  0.00000000E+00
  0.00000000E+00  0.00000000E+00  0.00000000E+00
  0.00000000E+00  0.00000000E+00  0.00000000E+00
  0.00000000E+00  0.00000000E+00  0.00000000E+00
  0.00000000E+00  0.00000000E+00  0.00000000E+00
  0.00000000E+00  0.00000000E+00  0.00000000E+00
  0.00000000E+00  0.00000000E+00  0.00000000E+00
  0.00000000E+00  0.00000000E+00  0.00000000E+00
  0.00000000E+00  0.00000000E+00  0.00000000E+00
  0.00000000E+00  0.00000000E+00  0.00000000E+00
  0.00000000E+00  0.00000000E+00  0.00000000E+00
  0.00000000E+00  0.00000000E+00  0.00000000E+00
