Ta1 H1 C126 O1                          
   1.00000000000000     
    19.8247608639471018   -0.0020169894334701   -0.0775316973727793
    -9.9148601311616655   17.0808360373501351   -0.2029267123280229
    -0.1160468626055523   -0.4200773024138033   29.7237865124992737
   Ta   H    C    O 
     1     1   126     1
Direct
  0.4417288764739730  0.5031435753243716  0.4352375342748205
  0.4812701376123620  0.5362245270627432  0.5228038364198546
  0.0419022040626049  0.0839974336952913  0.3995891549041058
  0.0408559988758808  0.2080525374958291  0.3994040293397523
  0.0403907408704073  0.3328144846093762  0.3989256000182942
  0.0405431631134037  0.4584156518755937  0.3987263727624859
  0.0414009069391755  0.5839315596595893  0.3991760664327077
  0.0421917313278635  0.7092942101692964  0.3994590396762072
  0.0425606598589325  0.8346409741169083  0.3996245583124963
  0.0425294157794909  0.9595791839107572  0.3996704458819416
  0.1676122270399191  0.0851841215577478  0.4002674833955842
  0.1668633277656727  0.2095071327053763  0.4006197164196130
  0.1651105159914863  0.3332555741343260  0.4004909436026278
  0.1640337702022329  0.4583688403431828  0.3989900692514513
  0.1651589825940478  0.5838088742669080  0.3985442145932238
  0.1665197164540702  0.7093518042650087  0.3990581086376814
  0.1671568144234644  0.8346652174591498  0.3995304207251326
  0.1675398303920235  0.9599995797405809  0.3998585388456420
  0.2926237300512484  0.0851683022664361  0.4000168975324354
  0.2932689903626702  0.2114626103858456  0.4019835931245461
  0.2919585084234559  0.3363612718317617  0.4052900066841950
  0.2868800752012978  0.4578528545650433  0.4044905390206222
  0.2886797925404199  0.5842324386825550  0.3999972610330632
  0.2908182268362806  0.7092174059433904  0.3986823914547840
  0.2916391392563326  0.8342556832188197  0.3989922561273923
  0.2921378457210178  0.9595961186344952  0.3994407916273504
  0.4171994318131539  0.0839159000123952  0.3993483347897226
  0.4177094879444216  0.2092550064417776  0.4000052210805892
  0.4194595218572992  0.3358128201417899  0.4036384201183864
  0.4110061459741021  0.5826690633294225  0.4076370717590737
  0.4153836756739689  0.7077463467875551  0.4002104818507264
  0.4162312778109395  0.8332325555019303  0.3988656032479684
  0.4167029091630078  0.9585421337437935  0.3991549063993765
  0.5417445718178221  0.0827989978130817  0.3994138893985875
  0.5423318575155460  0.2079794150930392  0.3992176822296227
  0.5432357744754798  0.3330547210174272  0.3994571856610140
  0.5457549258982538  0.4573879773096926  0.4017474138857605
  0.5463714955281282  0.5824294600912719  0.4041529788375652
  0.5405070192851864  0.7061074315850741  0.4027228688248479
  0.5407729465232189  0.8318858805255127  0.3998495641899244
  0.5413404591846416  0.9574561745175907  0.3994058700030919
  0.6663476488614081  0.0823230126641404  0.3996025792124413
  0.6668414685303636  0.2076179231128461  0.3993580162086771
  0.6675674153912391  0.3327775850829128  0.3988756535521915
  0.6694059087034867  0.4582475523555194  0.3984859427057326
  0.6704911998778010  0.5840425682190556  0.3990558782026724
  0.6673624015579709  0.7077282795164214  0.3994611468638003
  0.6660805945887253  0.8318413926306186  0.3995878108721857
  0.6660739976196798  0.9570721008867111  0.3995866109101918
  0.7911161424261055  0.0822952189045144  0.3995166196204665
  0.7913030762703236  0.2074404300842792  0.3994744385481738
  0.7919364494823616  0.3328572307443604  0.3992007131479495
  0.7929901767202204  0.4583858939144340  0.3988368178534256
  0.7936581879530761  0.5837276125558452  0.3985683298224436
  0.7933492355112305  0.7091009912831798  0.3986357561230724
  0.7920332425862759  0.8331967829709642  0.3988578504809742
  0.7911741479259813  0.9574128938810185  0.3992235649319413
  0.9162120997784378  0.0827995924735116  0.3993950288791733
  0.9159385802010609  0.2075978890045103  0.3993362537487824
  0.9160987826296146  0.3328424720893119  0.3991120414936321
  0.9167246280471020  0.4582846659300123  0.3991962238480065
  0.9175988173701232  0.5839048268233074  0.3992224335568527
  0.9178399565587334  0.7092722573127990  0.3991527147546222
  0.9176337043119752  0.8341889576166647  0.3991721800114396
  0.9169507040451227  0.9585368912405821  0.3992426274241994
  0.0841408087659834  0.0430174244581439  0.3998082324303089
  0.0833195843490623  0.1672698836787866  0.3997055350762656
  0.0818937609251612  0.2912544436234346  0.3993656304703840
  0.0815891152593516  0.4165835792652537  0.3986235858701979
  0.0822867083464387  0.5419604125407509  0.3987858137618338
  0.0833889574223837  0.6675304132919945  0.3992777909106696
  0.0840231118704337  0.7929819659493296  0.3995950219111780
  0.0842167377192843  0.9181205112760583  0.3997710464604481
  0.2092549242379382  0.0434276776035921  0.4001283634856127
  0.2092333466912298  0.1687141549530410  0.4010113217364208
  0.2081410044709773  0.2930142303927697  0.4017379169205448
  0.2047949044036474  0.4163571334718802  0.4006848253214102
  0.2058375909127614  0.5420686243770735  0.3988110857286974
  0.2077313728079239  0.6676027083293591  0.3987196515094813
  0.2084741824168548  0.7928161785450990  0.3992069093212354
  0.2090024543444983  0.9181558147461261  0.3996314590078093
  0.3339538203032551  0.0430038162349629  0.3995405597113053
  0.3345434798719978  0.1686740972844221  0.4006060337353751
  0.3349760732180780  0.2947856309175140  0.4045222068539299
  0.3292440614784221  0.4190321500141185  0.4089589809951417
  0.3295320239452028  0.5432427799786056  0.4039293183900676
  0.3320652405023590  0.6673100906636869  0.3994029197055320
  0.3329679386559410  0.7923972617286379  0.3987277621911720
  0.3335564282324614  0.9176173582921365  0.3991638333023127
  0.4585964469639543  0.0418584371369883  0.3992908324185496
  0.4590600549406418  0.1671253425931330  0.3993815976329600
  0.4599478824253723  0.2926270411076625  0.4005166249371804
  0.4645405780124403  0.4182759059003353  0.4056406921934857
  0.4560221397903624  0.6648081460609737  0.4035362688088124
  0.4575812953207153  0.7911116454642207  0.3993654162281796
  0.4581057508026365  0.9164903886187354  0.3990968826617358
  0.5831871375811970  0.0408695335641652  0.3995199221834944
  0.5836722788057472  0.1661591058698374  0.3993407608755172
  0.5844966025975367  0.2911567148085861  0.3990175335118922
  0.5866441906501356  0.4161585331225998  0.3993873916619817
  0.5884222125629839  0.5428587588716863  0.4012813587764928
  0.5837414771375131  0.6648472459137599  0.4020387819156847
  0.5820963610765671  0.7892231859858803  0.4005455710070027
  0.5826824109888931  0.9153484526833011  0.3995915951365667
  0.7077961579688301  0.0404638278016501  0.3995743373231144
  0.7081739609719987  0.1657759462614450  0.3995155408321224
  0.7087952868031332  0.2910664404708304  0.3991550752061160
  0.7101115323760816  0.4165443563606264  0.3985655975505903
  0.7112243437426826  0.5419547164767694  0.3984502900125008
  0.7101699247653630  0.6671849948784596  0.3988266162507513
  0.7085576037716501  0.7911148537332997  0.3991141594303807
  0.7076941151221703  0.9153069714362271  0.3993976450025373
  0.8328110556679990  0.0408371776323444  0.3993922869810285
  0.8327569622319888  0.1657698230538807  0.3995059096059647
  0.8331424551650484  0.2910882693114037  0.3992983932400603
  0.8338838900024927  0.4164289454737549  0.3991332691860400
  0.8347217180835589  0.5419122194463313  0.3988724511682529
  0.8348503236590801  0.6675114761899023  0.3987782821845455
  0.8344219842627509  0.7923209961496618  0.3988357855777832
  0.8334565741593206  0.9164653630855967  0.3990591392866878
  0.9584092811676100  0.0418668281808706  0.3993818123333377
  0.9576539979446306  0.1661553173316318  0.3993466531734493
  0.9574321352842615  0.2910391366221584  0.3990748565678381
  0.9576936476543072  0.4164390814645456  0.3990266470711067
  0.9585829705919944  0.5420576371968903  0.3992802328713086
  0.9592018813721179  0.6674928459043429  0.3993144180208643
  0.9593542689865427  0.7927319525710466  0.3993372610443305
  0.9591222016530502  0.9175740916690914  0.3993551232339379
  0.4415798801997212  0.5061750788493239  0.4998845869411850
 
  0.00000000E+00  0.00000000E+00  0.00000000E+00
  0.00000000E+00  0.00000000E+00  0.00000000E+00
  0.00000000E+00  0.00000000E+00  0.00000000E+00
  0.00000000E+00  0.00000000E+00  0.00000000E+00
  0.00000000E+00  0.00000000E+00  0.00000000E+00
  0.00000000E+00  0.00000000E+00  0.00000000E+00
  0.00000000E+00  0.00000000E+00  0.00000000E+00
  0.00000000E+00  0.00000000E+00  0.00000000E+00
  0.00000000E+00  0.00000000E+00  0.00000000E+00
  0.00000000E+00  0.00000000E+00  0.00000000E+00
  0.00000000E+00  0.00000000E+00  0.00000000E+00
  0.00000000E+00  0.00000000E+00  0.00000000E+00
  0.00000000E+00  0.00000000E+00  0.00000000E+00
  0.00000000E+00  0.00000000E+00  0.00000000E+00
  0.00000000E+00  0.00000000E+00  0.00000000E+00
  0.00000000E+00  0.00000000E+00  0.00000000E+00
  0.00000000E+00  0.00000000E+00  0.00000000E+00
  0.00000000E+00  0.00000000E+00  0.00000000E+00
  0.00000000E+00  0.00000000E+00  0.00000000E+00
  0.00000000E+00  0.00000000E+00  0.00000000E+00
  0.00000000E+00  0.00000000E+00  0.00000000E+00
  0.00000000E+00  0.00000000E+00  0.00000000E+00
  0.00000000E+00  0.00000000E+00  0.00000000E+00
  0.00000000E+00  0.00000000E+00  0.00000000E+00
  0.00000000E+00  0.00000000E+00  0.00000000E+00
  0.00000000E+00  0.00000000E+00  0.00000000E+00
  0.00000000E+00  0.00000000E+00  0.00000000E+00
  0.00000000E+00  0.00000000E+00  0.00000000E+00
  0.00000000E+00  0.00000000E+00  0.00000000E+00
  0.00000000E+00  0.00000000E+00  0.00000000E+00
  0.00000000E+00  0.00000000E+00  0.00000000E+00
  0.00000000E+00  0.00000000E+00  0.00000000E+00
  0.00000000E+00  0.00000000E+00  0.00000000E+00
  0.00000000E+00  0.00000000E+00  0.00000000E+00
  0.00000000E+00  0.00000000E+00  0.00000000E+00
  0.00000000E+00  0.00000000E+00  0.00000000E+00
  0.00000000E+00  0.00000000E+00  0.00000000E+00
  0.00000000E+00  0.00000000E+00  0.00000000E+00
  0.00000000E+00  0.00000000E+00  0.00000000E+00
  0.00000000E+00  0.00000000E+00  0.00000000E+00
  0.00000000E+00  0.00000000E+00  0.00000000E+00
  0.00000000E+00  0.00000000E+00  0.00000000E+00
  0.00000000E+00  0.00000000E+00  0.00000000E+00
  0.00000000E+00  0.00000000E+00  0.00000000E+00
  0.00000000E+00  0.00000000E+00  0.00000000E+00
  0.00000000E+00  0.00000000E+00  0.00000000E+00
  0.00000000E+00  0.00000000E+00  0.00000000E+00
  0.00000000E+00  0.00000000E+00  0.00000000E+00
  0.00000000E+00  0.00000000E+00  0.00000000E+00
  0.00000000E+00  0.00000000E+00  0.00000000E+00
  0.00000000E+00  0.00000000E+00  0.00000000E+00
  0.00000000E+00  0.00000000E+00  0.00000000E+00
  0.00000000E+00  0.00000000E+00  0.00000000E+00
  0.00000000E+00  0.00000000E+00  0.00000000E+00
  0.00000000E+00  0.00000000E+00  0.00000000E+00
  0.00000000E+00  0.00000000E+00  0.00000000E+00
  0.00000000E+00  0.00000000E+00  0.00000000E+00
  0.00000000E+00  0.00000000E+00  0.00000000E+00
  0.00000000E+00  0.00000000E+00  0.00000000E+00
  0.00000000E+00  0.00000000E+00  0.00000000E+00
  0.00000000E+00  0.00000000E+00  0.00000000E+00
  0.00000000E+00  0.00000000E+00  0.00000000E+00
  0.00000000E+00  0.00000000E+00  0.00000000E+00
  0.00000000E+00  0.00000000E+00  0.00000000E+00
  0.00000000E+00  0.00000000E+00  0.00000000E+00
  0.00000000E+00  0.00000000E+00  0.00000000E+00
  0.00000000E+00  0.00000000E+00  0.00000000E+00
  0.00000000E+00  0.00000000E+00  0.00000000E+00
  0.00000000E+00  0.00000000E+00  0.00000000E+00
  0.00000000E+00  0.00000000E+00  0.00000000E+00
  0.00000000E+00  0.00000000E+00  0.00000000E+00
  0.00000000E+00  0.00000000E+00  0.00000000E+00
  0.00000000E+00  0.00000000E+00  0.00000000E+00
  0.00000000E+00  0.00000000E+00  0.00000000E+00
  0.00000000E+00  0.00000000E+00  0.00000000E+00
  0.00000000E+00  0.00000000E+00  0.00000000E+00
  0.00000000E+00  0.00000000E+00  0.00000000E+00
  0.00000000E+00  0.00000000E+00  0.00000000E+00
  0.00000000E+00  0.00000000E+00  0.00000000E+00
  0.00000000E+00  0.00000000E+00  0.00000000E+00
  0.00000000E+00  0.00000000E+00  0.00000000E+00
  0.00000000E+00  0.00000000E+00  0.00000000E+00
  0.00000000E+00  0.00000000E+00  0.00000000E+00
  0.00000000E+00  0.00000000E+00  0.00000000E+00
  0.00000000E+00  0.00000000E+00  0.00000000E+00
  0.00000000E+00  0.00000000E+00  0.00000000E+00
  0.00000000E+00  0.00000000E+00  0.00000000E+00
  0.00000000E+00  0.00000000E+00  0.00000000E+00
  0.00000000E+00  0.00000000E+00  0.00000000E+00
  0.00000000E+00  0.00000000E+00  0.00000000E+00
  0.00000000E+00  0.00000000E+00  0.00000000E+00
  0.00000000E+00  0.00000000E+00  0.00000000E+00
  0.00000000E+00  0.00000000E+00  0.00000000E+00
  0.00000000E+00  0.00000000E+00  0.00000000E+00
  0.00000000E+00  0.00000000E+00  0.00000000E+00
  0.00000000E+00  0.00000000E+00  0.00000000E+00
  0.00000000E+00  0.00000000E+00  0.00000000E+00
  0.00000000E+00  0.00000000E+00  0.00000000E+00
  0.00000000E+00  0.00000000E+00  0.00000000E+00
  0.00000000E+00  0.00000000E+00  0.00000000E+00
  0.00000000E+00  0.00000000E+00  0.00000000E+00
  0.00000000E+00  0.00000000E+00  0.00000000E+00
  0.00000000E+00  0.00000000E+00  0.00000000E+00
  0.00000000E+00  0.00000000E+00  0.00000000E+00
  0.00000000E+00  0.00000000E+00  0.00000000E+00
  0.00000000E+00  0.00000000E+00  0.00000000E+00
  0.00000000E+00  0.00000000E+00  0.00000000E+00
  0.00000000E+00  0.00000000E+00  0.00000000E+00
  0.00000000E+00  0.00000000E+00  0.00000000E+00
  0.00000000E+00  0.00000000E+00  0.00000000E+00
  0.00000000E+00  0.00000000E+00  0.00000000E+00
  0.00000000E+00  0.00000000E+00  0.00000000E+00
  0.00000000E+00  0.00000000E+00  0.00000000E+00
  0.00000000E+00  0.00000000E+00  0.00000000E+00
  0.00000000E+00  0.00000000E+00  0.00000000E+00
  0.00000000E+00  0.00000000E+00  0.00000000E+00
  0.00000000E+00  0.00000000E+00  0.00000000E+00
  0.00000000E+00  0.00000000E+00  0.00000000E+00
  0.00000000E+00  0.00000000E+00  0.00000000E+00
  0.00000000E+00  0.00000000E+00  0.00000000E+00
  0.00000000E+00  0.00000000E+00  0.00000000E+00
  0.00000000E+00  0.00000000E+00  0.00000000E+00
  0.00000000E+00  0.00000000E+00  0.00000000E+00
  0.00000000E+00  0.00000000E+00  0.00000000E+00
  0.00000000E+00  0.00000000E+00  0.00000000E+00
  0.00000000E+00  0.00000000E+00  0.00000000E+00
  0.00000000E+00  0.00000000E+00  0.00000000E+00
  0.00000000E+00  0.00000000E+00  0.00000000E+00
  0.00000000E+00  0.00000000E+00  0.00000000E+00
