La1 C126 O1                             
   1.00000000000000     
    19.4716282693029186   -0.0006883090487595    0.1956803313719953
    -9.7357699634091794   17.1705960711117100   -0.0334977631472694
     0.2955855784540365    0.1122304347534909   30.1003858545134726
   La   C    O 
     1   126     1
Direct
  0.4463093459823924  0.5111661960839280  0.4788335758683726
  0.0413400904458845  0.0820901170795122  0.4000014645060876
  0.0442488544562930  0.2094746750569531  0.3995549820799248
  0.0462156628072734  0.3348739345700088  0.3992386148104173
  0.0462412091620537  0.4585931110192302  0.3992688379653002
  0.0428962566042370  0.5818991032687164  0.3993594580650940
  0.0401479636093088  0.7056410091587317  0.3994959060572235
  0.0392870105596166  0.8301429790928505  0.3997524782366411
  0.0395060821232677  0.9552889207809588  0.4000563375898575
  0.1639993794114388  0.0787237032458099  0.4003949923783126
  0.1666484023124779  0.2056264793549002  0.3998667686480453
  0.1725681896968720  0.3340428850358267  0.3990305841985243
  0.1767614203838083  0.4584583767596560  0.3988081608834986
  0.1725568714177520  0.5819266869904390  0.3991447169853292
  0.1676221808238894  0.7059222143456966  0.3994780870399730
  0.1655288725936753  0.8301360177637558  0.3998113987970147
  0.1645730495273741  0.9544468833259799  0.4002452338852099
  0.2894013270653111  0.0787486063556901  0.4004819107553813
  0.2877246914295051  0.2008384743855006  0.4003810890861841
  0.2929661426576877  0.3277551528741079  0.3993028816703025
  0.3107463886869017  0.4573984390539786  0.3980688523506038
  0.3038645868642961  0.5823877551891442  0.3986875569797835
  0.2947630448108851  0.7068219984326003  0.3993780419730225
  0.2920019515560682  0.8312970036022943  0.3996798089436315
  0.2904898458147555  0.9553249108458215  0.4000474311829014
  0.4154538696963352  0.0821395122839702  0.4001462899481900
  0.4136245983525085  0.2056584079101545  0.4003289054296639
  0.4094587214930813  0.3277643323679585  0.3999240891000276
  0.4406607815020436  0.5907732822411113  0.3976111668675813
  0.4210253788383823  0.7107178689626248  0.3998071784330657
  0.4181584818831514  0.8344208064376790  0.4000542191427276
  0.4166492741432659  0.9582605933055334  0.3999217899409397
  0.5415970983243684  0.0852850714869119  0.3998631971331406
  0.5399173228546952  0.2095194202180043  0.3998841059780272
  0.5361962349050270  0.3340690487513291  0.3996838065541569
  0.5215293071830883  0.4574497248053720  0.3983493715251670
  0.5248337381094653  0.5907871283842885  0.3976105045001805
  0.5465450274263957  0.7184458591799837  0.4002406025737240
  0.5440208733037334  0.8387677738318164  0.4007748132214057
  0.5427634058524717  0.9615759819511122  0.4001905338968467
  0.6677868781127809  0.0867419727456620  0.3998331898403455
  0.6663656869853742  0.2108798461871482  0.3996065541495582
  0.6633805687979394  0.3349062604604255  0.3995371879432589
  0.6564645314656531  0.4584886802271964  0.3992407514790259
  0.6533487409497298  0.5824290980724739  0.3988465418647483
  0.6643505852848115  0.7107098064057302  0.3998924499114632
  0.6693966890759999  0.8387608231991898  0.4007227708204028
  0.6687143656821289  0.9627340878239888  0.4004266447711741
  0.7936400773411230  0.0867233652722699  0.4000037275668358
  0.7929661279577261  0.2112570404025710  0.3997100286026349
  0.7910825075692279  0.3351950427404586  0.3994683307976346
  0.7870697331748016  0.4585858428009609  0.3994377945039777
  0.7841011051113100  0.5819239923911638  0.3993571113816832
  0.7867486260677653  0.7067948074115342  0.3995307643014988
  0.7909214089909830  0.8343824107483462  0.4001275167213394
  0.7934950672833776  0.9615359719996827  0.4002109316702190
  0.9183615811200976  0.0852226688844615  0.3998789733459499
  0.9191815848135646  0.2108498958634876  0.3996926168687983
  0.9188088763155091  0.3351970676918238  0.3994664445649276
  0.9166363800340571  0.4585547759862186  0.3993819468306543
  0.9136948993878831  0.5818815115185109  0.3994046477688016
  0.9129799794093383  0.7059171717686898  0.3994596251428521
  0.9139570127841399  0.8312658200850301  0.3997518507939908
  0.9163063059415676  0.9582226930790178  0.4000115514588154
  0.0810759971280551  0.0382062104725416  0.4001783774333088
  0.0836014937453734  0.1653481842107405  0.3998094249921271
  0.0878043018984576  0.2929478769651950  0.3992280468765539
  0.0905163024098683  0.4178486124472759  0.3990958177227793
  0.0875368614874638  0.5412043381393857  0.3992807303696321
  0.0834927566683942  0.6645886439685988  0.3994402139251838
  0.0815947695071871  0.7885268972414257  0.3996763349592966
  0.0809289330162386  0.9130411324247696  0.4000192336548282
  0.2058609193882328  0.0370628916558456  0.4004742582280460
  0.2051330692553094  0.1610378466085329  0.4002762356068219
  0.2102114262668399  0.2890990832754630  0.3994022773186272
  0.2213686546911288  0.4173846169165446  0.3986911820311311
  0.2181616710283853  0.5413015338279752  0.3988334758875909
  0.2112333276495324  0.6649000571198346  0.3993096938117605
  0.2082202773982166  0.7889071754054950  0.3996333929237059
  0.2067980016339198  0.9130477639467043  0.4000672701512716
  0.3318360175887033  0.0382412124021106  0.4002626338322614
  0.3305476073379254  0.1610516460438367  0.4005021030176126
  0.3280035452016485  0.2813875767813067  0.3999905140889302
  0.3497777276236648  0.4091013506873088  0.3981950172507173
  0.3531117910212900  0.5423429508996614  0.3978333148082785
  0.3384500866747913  0.6657692880878332  0.3991978406969146
  0.3346867167181376  0.7903005062179563  0.3996829426491495
  0.3330132311219654  0.9145283317405573  0.3998385784790389
  0.4579557210209630  0.0415255615893115  0.3999683949901219
  0.4564282712999332  0.1653887360862011  0.4001618676947268
  0.4535653176638894  0.2891330209225014  0.4000915134179804
  0.4339488624789719  0.4091178174849405  0.3986034761533223
  0.4651881038334092  0.6721391358577730  0.3995012557427090
  0.4609402779035458  0.7941819643552840  0.4003508291219543
  0.4591396698381481  0.9176750333015711  0.4000727012131204
  0.5841092744373312  0.0444857637000949  0.3999157951114856
  0.5825877098771982  0.1685145330175490  0.3997522887344170
  0.5798596468101843  0.2929938648620047  0.3997135163166853
  0.5708356010320819  0.4174014923541450  0.3992442912884511
  0.5641416058979121  0.5423850107195632  0.3977619931423758
  0.5816395623666257  0.6721337380560908  0.3995698533325621
  0.5868125748322346  0.7990053938226371  0.4008607235278938
  0.5851878322722363  0.9210826684077944  0.4005539956701629
  0.7100248380530439  0.0453457089787231  0.4000669746150261
  0.7090491961555766  0.1696480880570286  0.3996697404378672
  0.7069625729863830  0.2938573386263685  0.3995261973787824
  0.7020721274895046  0.4178651933361433  0.3994310635067234
  0.6979020832311890  0.5413436355921847  0.3991317299813689
  0.7020355167056606  0.6657759454264398  0.3993486722840239
  0.7078632938239678  0.7941507255589546  0.4003736168716113
  0.7105595209834333  0.9210558739929068  0.4005096056213373
  0.8350591180752284  0.0444513882238200  0.4000258236361442
  0.8352740077588580  0.1696297006467972  0.3998474056725565
  0.8344115303161084  0.2941412667517735  0.3995475228096915
  0.8317061728582670  0.4178972347564028  0.3994280597956367
  0.8283728444493290  0.5411936087132992  0.3994259913154664
  0.8283732368893206  0.6648873986380984  0.3994082394089934
  0.8302820976402727  0.7902619957356973  0.3997911643976958
  0.8332115326734523  0.9176385326620710  0.4001318416880179
  0.9582704119060488  0.0414894064883186  0.3999681106500295
  0.9605714338471357  0.1684547198381298  0.3996990118959035
  0.9615751044928664  0.2938363868192916  0.3994893806847343
  0.9609049595350396  0.4178868375663563  0.3993697990279275
  0.9579638528298514  0.5412171796233178  0.3993702420295132
  0.9557653516407605  0.6645757283804040  0.3994319118006572
  0.9553697541912254  0.7888993158794508  0.3996024716617787
  0.9562058354721815  0.9144867488708648  0.3999412070148015
  0.4975708336419573  0.5452044792568330  0.5320161113581173
 
  0.00000000E+00  0.00000000E+00  0.00000000E+00
  0.00000000E+00  0.00000000E+00  0.00000000E+00
  0.00000000E+00  0.00000000E+00  0.00000000E+00
  0.00000000E+00  0.00000000E+00  0.00000000E+00
  0.00000000E+00  0.00000000E+00  0.00000000E+00
  0.00000000E+00  0.00000000E+00  0.00000000E+00
  0.00000000E+00  0.00000000E+00  0.00000000E+00
  0.00000000E+00  0.00000000E+00  0.00000000E+00
  0.00000000E+00  0.00000000E+00  0.00000000E+00
  0.00000000E+00  0.00000000E+00  0.00000000E+00
  0.00000000E+00  0.00000000E+00  0.00000000E+00
  0.00000000E+00  0.00000000E+00  0.00000000E+00
  0.00000000E+00  0.00000000E+00  0.00000000E+00
  0.00000000E+00  0.00000000E+00  0.00000000E+00
  0.00000000E+00  0.00000000E+00  0.00000000E+00
  0.00000000E+00  0.00000000E+00  0.00000000E+00
  0.00000000E+00  0.00000000E+00  0.00000000E+00
  0.00000000E+00  0.00000000E+00  0.00000000E+00
  0.00000000E+00  0.00000000E+00  0.00000000E+00
  0.00000000E+00  0.00000000E+00  0.00000000E+00
  0.00000000E+00  0.00000000E+00  0.00000000E+00
  0.00000000E+00  0.00000000E+00  0.00000000E+00
  0.00000000E+00  0.00000000E+00  0.00000000E+00
  0.00000000E+00  0.00000000E+00  0.00000000E+00
  0.00000000E+00  0.00000000E+00  0.00000000E+00
  0.00000000E+00  0.00000000E+00  0.00000000E+00
  0.00000000E+00  0.00000000E+00  0.00000000E+00
  0.00000000E+00  0.00000000E+00  0.00000000E+00
  0.00000000E+00  0.00000000E+00  0.00000000E+00
  0.00000000E+00  0.00000000E+00  0.00000000E+00
  0.00000000E+00  0.00000000E+00  0.00000000E+00
  0.00000000E+00  0.00000000E+00  0.00000000E+00
  0.00000000E+00  0.00000000E+00  0.00000000E+00
  0.00000000E+00  0.00000000E+00  0.00000000E+00
  0.00000000E+00  0.00000000E+00  0.00000000E+00
  0.00000000E+00  0.00000000E+00  0.00000000E+00
  0.00000000E+00  0.00000000E+00  0.00000000E+00
  0.00000000E+00  0.00000000E+00  0.00000000E+00
  0.00000000E+00  0.00000000E+00  0.00000000E+00
  0.00000000E+00  0.00000000E+00  0.00000000E+00
  0.00000000E+00  0.00000000E+00  0.00000000E+00
  0.00000000E+00  0.00000000E+00  0.00000000E+00
  0.00000000E+00  0.00000000E+00  0.00000000E+00
  0.00000000E+00  0.00000000E+00  0.00000000E+00
  0.00000000E+00  0.00000000E+00  0.00000000E+00
  0.00000000E+00  0.00000000E+00  0.00000000E+00
  0.00000000E+00  0.00000000E+00  0.00000000E+00
  0.00000000E+00  0.00000000E+00  0.00000000E+00
  0.00000000E+00  0.00000000E+00  0.00000000E+00
  0.00000000E+00  0.00000000E+00  0.00000000E+00
  0.00000000E+00  0.00000000E+00  0.00000000E+00
  0.00000000E+00  0.00000000E+00  0.00000000E+00
  0.00000000E+00  0.00000000E+00  0.00000000E+00
  0.00000000E+00  0.00000000E+00  0.00000000E+00
  0.00000000E+00  0.00000000E+00  0.00000000E+00
  0.00000000E+00  0.00000000E+00  0.00000000E+00
  0.00000000E+00  0.00000000E+00  0.00000000E+00
  0.00000000E+00  0.00000000E+00  0.00000000E+00
  0.00000000E+00  0.00000000E+00  0.00000000E+00
  0.00000000E+00  0.00000000E+00  0.00000000E+00
  0.00000000E+00  0.00000000E+00  0.00000000E+00
  0.00000000E+00  0.00000000E+00  0.00000000E+00
  0.00000000E+00  0.00000000E+00  0.00000000E+00
  0.00000000E+00  0.00000000E+00  0.00000000E+00
  0.00000000E+00  0.00000000E+00  0.00000000E+00
  0.00000000E+00  0.00000000E+00  0.00000000E+00
  0.00000000E+00  0.00000000E+00  0.00000000E+00
  0.00000000E+00  0.00000000E+00  0.00000000E+00
  0.00000000E+00  0.00000000E+00  0.00000000E+00
  0.00000000E+00  0.00000000E+00  0.00000000E+00
  0.00000000E+00  0.00000000E+00  0.00000000E+00
  0.00000000E+00  0.00000000E+00  0.00000000E+00
  0.00000000E+00  0.00000000E+00  0.00000000E+00
  0.00000000E+00  0.00000000E+00  0.00000000E+00
  0.00000000E+00  0.00000000E+00  0.00000000E+00
  0.00000000E+00  0.00000000E+00  0.00000000E+00
  0.00000000E+00  0.00000000E+00  0.00000000E+00
  0.00000000E+00  0.00000000E+00  0.00000000E+00
  0.00000000E+00  0.00000000E+00  0.00000000E+00
  0.00000000E+00  0.00000000E+00  0.00000000E+00
  0.00000000E+00  0.00000000E+00  0.00000000E+00
  0.00000000E+00  0.00000000E+00  0.00000000E+00
  0.00000000E+00  0.00000000E+00  0.00000000E+00
  0.00000000E+00  0.00000000E+00  0.00000000E+00
  0.00000000E+00  0.00000000E+00  0.00000000E+00
  0.00000000E+00  0.00000000E+00  0.00000000E+00
  0.00000000E+00  0.00000000E+00  0.00000000E+00
  0.00000000E+00  0.00000000E+00  0.00000000E+00
  0.00000000E+00  0.00000000E+00  0.00000000E+00
  0.00000000E+00  0.00000000E+00  0.00000000E+00
  0.00000000E+00  0.00000000E+00  0.00000000E+00
  0.00000000E+00  0.00000000E+00  0.00000000E+00
  0.00000000E+00  0.00000000E+00  0.00000000E+00
  0.00000000E+00  0.00000000E+00  0.00000000E+00
  0.00000000E+00  0.00000000E+00  0.00000000E+00
  0.00000000E+00  0.00000000E+00  0.00000000E+00
  0.00000000E+00  0.00000000E+00  0.00000000E+00
  0.00000000E+00  0.00000000E+00  0.00000000E+00
  0.00000000E+00  0.00000000E+00  0.00000000E+00
  0.00000000E+00  0.00000000E+00  0.00000000E+00
  0.00000000E+00  0.00000000E+00  0.00000000E+00
  0.00000000E+00  0.00000000E+00  0.00000000E+00
  0.00000000E+00  0.00000000E+00  0.00000000E+00
  0.00000000E+00  0.00000000E+00  0.00000000E+00
  0.00000000E+00  0.00000000E+00  0.00000000E+00
  0.00000000E+00  0.00000000E+00  0.00000000E+00
  0.00000000E+00  0.00000000E+00  0.00000000E+00
  0.00000000E+00  0.00000000E+00  0.00000000E+00
  0.00000000E+00  0.00000000E+00  0.00000000E+00
  0.00000000E+00  0.00000000E+00  0.00000000E+00
  0.00000000E+00  0.00000000E+00  0.00000000E+00
  0.00000000E+00  0.00000000E+00  0.00000000E+00
  0.00000000E+00  0.00000000E+00  0.00000000E+00
  0.00000000E+00  0.00000000E+00  0.00000000E+00
  0.00000000E+00  0.00000000E+00  0.00000000E+00
  0.00000000E+00  0.00000000E+00  0.00000000E+00
  0.00000000E+00  0.00000000E+00  0.00000000E+00
  0.00000000E+00  0.00000000E+00  0.00000000E+00
  0.00000000E+00  0.00000000E+00  0.00000000E+00
  0.00000000E+00  0.00000000E+00  0.00000000E+00
  0.00000000E+00  0.00000000E+00  0.00000000E+00
  0.00000000E+00  0.00000000E+00  0.00000000E+00
  0.00000000E+00  0.00000000E+00  0.00000000E+00
  0.00000000E+00  0.00000000E+00  0.00000000E+00
  0.00000000E+00  0.00000000E+00  0.00000000E+00
  0.00000000E+00  0.00000000E+00  0.00000000E+00
  0.00000000E+00  0.00000000E+00  0.00000000E+00
  0.00000000E+00  0.00000000E+00  0.00000000E+00
