Ta1 H1 C124 N2 O1                       
   1.00000000000000     
    19.8044709996025077   -0.0192697206110739   -0.0643973193412604
    -9.9191803679500286   17.0643940484049601   -0.0710006453414773
    -0.0969921930308796   -0.1802870995048213   29.7929957907957856
   Ta   H    C    N    O 
     1     1   124     2     1
Direct
  0.4429543163301193  0.5023629374958535  0.4307761539564993
  0.4828875270994903  0.5457207473451801  0.5176170470904323
  0.0423698244391975  0.0843318244645114  0.3996702701357229
  0.0418217679410666  0.2087721398838748  0.3995574750224281
  0.0410410779375294  0.3333052230075629  0.3996979751212550
  0.0407841872356009  0.4584257126198898  0.3995886830804880
  0.0413233690690299  0.5837718576980160  0.3996016981110522
  0.0418561440389546  0.7090735205106622  0.3998582029670806
  0.0421018907030853  0.8342438530547992  0.3999424304427028
  0.0423168589488358  0.9594400420017685  0.3998329177448193
  0.1680084871765043  0.0854002963220345  0.3996890549901984
  0.1680368872447344  0.2105017314696169  0.3995175199299548
  0.1665735139254796  0.3344666599940014  0.4001957024178649
  0.1648027507969939  0.4588492172409082  0.4005769007579956
  0.1653855566837142  0.5839073215332752  0.4000251996730785
  0.1662863274545505  0.7090215888639371  0.3997455879045840
  0.1668155526873735  0.8342578819259517  0.3998520733884995
  0.1672696517629518  0.9596401420861964  0.3998118045390109
  0.2924093126700714  0.0848768485983955  0.3997113786752729
  0.2939626312945469  0.2116645710199612  0.4002143546132071
  0.2941055587628231  0.3380917119741501  0.4014601794109128
  0.2892383138145442  0.4600288971046241  0.4025627538196231
  0.2892445164652540  0.5843627603721767  0.4015160935380848
  0.2907654905634220  0.7090044024859086  0.4001450996544541
  0.2915355430680640  0.8340346639108075  0.3997486475683447
  0.2919514064235499  0.9592943326313924  0.3997535278536152
  0.4170443733798068  0.0837253409445284  0.3996757753196130
  0.4175725392035238  0.2093024905472503  0.3997306969888643
  0.4199292164166267  0.3360434357908950  0.4013160394487061
  0.4150631703288441  0.7070310935256849  0.4003236469815830
  0.4161507060329133  0.8328055143305172  0.3996627373705792
  0.4166318779987395  0.9583026695043194  0.3997657107447856
  0.5416934388452886  0.0826772653135413  0.3997959752127588
  0.5421577540168352  0.2077989792901584  0.3998552613012329
  0.5433290144077031  0.3326894302459088  0.4006985229347196
  0.5449954579741439  0.4564005729151540  0.4010018132726942
  0.5428310577509606  0.5804672438958632  0.3983144543973600
  0.5386185294882881  0.7042839719375185  0.3998370889314242
  0.5406696074221884  0.8315628043456529  0.3996486279488657
  0.5413004731641956  0.9573095148686064  0.3997526438834803
  0.6664240053447583  0.0823501164065772  0.3999174373184298
  0.6668478023776981  0.2075549008470924  0.3998799785733640
  0.6676605379538553  0.3328189478713562  0.4001452318706172
  0.6689519070880584  0.4581051263619020  0.4006051145308342
  0.6685951322491103  0.5824906758832117  0.3999015967069629
  0.6658343844209309  0.7065962525981192  0.3982138477302613
  0.6649652163737134  0.8311344804183476  0.3991870919435544
  0.6659561412351490  0.9569827856250359  0.3997906700547976
  0.7912684703599333  0.0824413944225122  0.3998413908069532
  0.7915399837978245  0.2076214227978188  0.3998875661721126
  0.7920033068783290  0.3328543487697645  0.3998209488687026
  0.7927026875026858  0.4581866141838634  0.3999739573498909
  0.7931197625586481  0.5835093545195149  0.4000363844351627
  0.7920332213225461  0.7081115214194729  0.3995376464431020
  0.7911218512559567  0.8324985789867687  0.3994545960562051
  0.7908912010766308  0.9571780276763359  0.3997287705080678
  0.9164973091699214  0.0830083960012289  0.3997849922174968
  0.9163751884159433  0.2078265645289316  0.3996538604638947
  0.9164081351553675  0.3329757799686626  0.3995462498725878
  0.9167508280093560  0.4583279745353343  0.3996762057714598
  0.9172214446441357  0.5836621540566503  0.3998514719720833
  0.9172172891216354  0.7088300634224090  0.3999349641726455
  0.9169702916212559  0.8337274528352883  0.3998350935638433
  0.9167168826977155  0.9584341634152248  0.3998713630760343
  0.0843596320409041  0.0431286946476152  0.3996930753971384
  0.0843150664387671  0.1679662519625657  0.3995033063784807
  0.0831393613043750  0.2921163133796361  0.3997332196561867
  0.0819772931612894  0.4166964602010230  0.3998404021299375
  0.0823872416567586  0.5419670382904733  0.3996586841427833
  0.0830849744687962  0.6672492533760022  0.3996922852365352
  0.0835868124980290  0.7925142874496253  0.3999415548142437
  0.0838979842771145  0.9177635850963429  0.3998579709920791
  0.2091860617096933  0.0432245495648622  0.3997611297379650
  0.2101933030111310  0.1692013838777112  0.3997558075260251
  0.2097704603431892  0.2941865221844794  0.3999546037365689
  0.2064810526779546  0.4177526482310622  0.4011428575178785
  0.2061862538021654  0.5420477148502499  0.4006922699461322
  0.2074500413538360  0.6673072275682471  0.3999812060638104
  0.2082514021401986  0.7925393838963716  0.3997639101584937
  0.2086799998857911  0.9177801499789746  0.3998220085708304
  0.3337603408148049  0.0427796146839720  0.3996804251229434
  0.3344031366278386  0.1686074105716571  0.3998317006930164
  0.3365110575346166  0.2960310940339932  0.4012393799170998
  0.3329277326601160  0.4210822858897779  0.4037103321497740
  0.3300994977125271  0.5436661063574780  0.4030469416745373
  0.3318535753463890  0.6674205694840755  0.4007753669978024
  0.3329318715326235  0.7922305415583614  0.3997989976238273
  0.3334042275210317  0.9173843411886679  0.3997599668783047
  0.4584539319426101  0.0416933132375504  0.3997588659341238
  0.4589554328702841  0.1671431802571725  0.3996919963275609
  0.4599906181567797  0.2927559376211469  0.4002304104569019
  0.4549854740458685  0.6634070741152015  0.4015420371953872
  0.4574883550062190  0.7905976995671246  0.3996087817709129
  0.4580356200484963  0.9162483687659577  0.3997099850264736
  0.5831492622760910  0.0408003827259392  0.3998343581852637
  0.5835634185521811  0.1660327242145567  0.3998025957295830
  0.5843442641204712  0.2911016386092421  0.4002437247763031
  0.5860539552234372  0.4157952226048521  0.4011162735253371
  0.5855501860624391  0.5400695628699311  0.3992881200332981
  0.5816974697326314  0.6632050616682582  0.3981969632477017
  0.5811502691199991  0.7886278982472309  0.3994557121553646
  0.5826800914939549  0.9152793133391631  0.3997470770134394
  0.7078833897175616  0.0405393638285053  0.3998824984152777
  0.7082919906757931  0.1658679303214411  0.3999396916240523
  0.7088130889275449  0.2910682446958139  0.3999256028409081
  0.7097257353700916  0.4162133376443201  0.4002063946282547
  0.7102434486261630  0.5414057126698846  0.4003633778930425
  0.7086268935412193  0.6658179240288955  0.3990512825668560
  0.7073963472584620  0.7900777821541647  0.3988747864744647
  0.7071827575887299  0.9148994865613904  0.3995865847366098
  0.8329429417862928  0.0408260549114820  0.3998180428394560
  0.8330544709757982  0.1659315979993023  0.3998095554516765
  0.8332593536732765  0.2910486106664215  0.3997388771014630
  0.8337509991449135  0.4163576370390037  0.3998259008736785
  0.8342738015173253  0.5417207290910916  0.3999663855523639
  0.8340777706150605  0.6668640838051352  0.3998845005771833
  0.8334235941968917  0.7915116797874794  0.3995877960352988
  0.8330514506294895  0.9161083870421616  0.3997547328266496
  0.9586836014830937  0.0419568438977700  0.3998131450894930
  0.9582781081603413  0.1665147533622850  0.3996443359468626
  0.9579325803308387  0.2913359289742958  0.3995595431311445
  0.9578260542140543  0.4164446277058008  0.3995194373366416
  0.9583194974440969  0.5417906304504095  0.3997016888736517
  0.9587027194208233  0.6671572750980984  0.3999022186501828
  0.9588020803340718  0.7923381526009421  0.3999119915223192
  0.9587947788268657  0.9172663835833587  0.3998853135380362
  0.4110613671702389  0.5820704637450158  0.4052794252212415
  0.4639689923167011  0.4174697647985907  0.4033747043071630
  0.4455077952841520  0.5111034967479287  0.4951057238830777
 
  0.00000000E+00  0.00000000E+00  0.00000000E+00
  0.00000000E+00  0.00000000E+00  0.00000000E+00
  0.00000000E+00  0.00000000E+00  0.00000000E+00
  0.00000000E+00  0.00000000E+00  0.00000000E+00
  0.00000000E+00  0.00000000E+00  0.00000000E+00
  0.00000000E+00  0.00000000E+00  0.00000000E+00
  0.00000000E+00  0.00000000E+00  0.00000000E+00
  0.00000000E+00  0.00000000E+00  0.00000000E+00
  0.00000000E+00  0.00000000E+00  0.00000000E+00
  0.00000000E+00  0.00000000E+00  0.00000000E+00
  0.00000000E+00  0.00000000E+00  0.00000000E+00
  0.00000000E+00  0.00000000E+00  0.00000000E+00
  0.00000000E+00  0.00000000E+00  0.00000000E+00
  0.00000000E+00  0.00000000E+00  0.00000000E+00
  0.00000000E+00  0.00000000E+00  0.00000000E+00
  0.00000000E+00  0.00000000E+00  0.00000000E+00
  0.00000000E+00  0.00000000E+00  0.00000000E+00
  0.00000000E+00  0.00000000E+00  0.00000000E+00
  0.00000000E+00  0.00000000E+00  0.00000000E+00
  0.00000000E+00  0.00000000E+00  0.00000000E+00
  0.00000000E+00  0.00000000E+00  0.00000000E+00
  0.00000000E+00  0.00000000E+00  0.00000000E+00
  0.00000000E+00  0.00000000E+00  0.00000000E+00
  0.00000000E+00  0.00000000E+00  0.00000000E+00
  0.00000000E+00  0.00000000E+00  0.00000000E+00
  0.00000000E+00  0.00000000E+00  0.00000000E+00
  0.00000000E+00  0.00000000E+00  0.00000000E+00
  0.00000000E+00  0.00000000E+00  0.00000000E+00
  0.00000000E+00  0.00000000E+00  0.00000000E+00
  0.00000000E+00  0.00000000E+00  0.00000000E+00
  0.00000000E+00  0.00000000E+00  0.00000000E+00
  0.00000000E+00  0.00000000E+00  0.00000000E+00
  0.00000000E+00  0.00000000E+00  0.00000000E+00
  0.00000000E+00  0.00000000E+00  0.00000000E+00
  0.00000000E+00  0.00000000E+00  0.00000000E+00
  0.00000000E+00  0.00000000E+00  0.00000000E+00
  0.00000000E+00  0.00000000E+00  0.00000000E+00
  0.00000000E+00  0.00000000E+00  0.00000000E+00
  0.00000000E+00  0.00000000E+00  0.00000000E+00
  0.00000000E+00  0.00000000E+00  0.00000000E+00
  0.00000000E+00  0.00000000E+00  0.00000000E+00
  0.00000000E+00  0.00000000E+00  0.00000000E+00
  0.00000000E+00  0.00000000E+00  0.00000000E+00
  0.00000000E+00  0.00000000E+00  0.00000000E+00
  0.00000000E+00  0.00000000E+00  0.00000000E+00
  0.00000000E+00  0.00000000E+00  0.00000000E+00
  0.00000000E+00  0.00000000E+00  0.00000000E+00
  0.00000000E+00  0.00000000E+00  0.00000000E+00
  0.00000000E+00  0.00000000E+00  0.00000000E+00
  0.00000000E+00  0.00000000E+00  0.00000000E+00
  0.00000000E+00  0.00000000E+00  0.00000000E+00
  0.00000000E+00  0.00000000E+00  0.00000000E+00
  0.00000000E+00  0.00000000E+00  0.00000000E+00
  0.00000000E+00  0.00000000E+00  0.00000000E+00
  0.00000000E+00  0.00000000E+00  0.00000000E+00
  0.00000000E+00  0.00000000E+00  0.00000000E+00
  0.00000000E+00  0.00000000E+00  0.00000000E+00
  0.00000000E+00  0.00000000E+00  0.00000000E+00
  0.00000000E+00  0.00000000E+00  0.00000000E+00
  0.00000000E+00  0.00000000E+00  0.00000000E+00
  0.00000000E+00  0.00000000E+00  0.00000000E+00
  0.00000000E+00  0.00000000E+00  0.00000000E+00
  0.00000000E+00  0.00000000E+00  0.00000000E+00
  0.00000000E+00  0.00000000E+00  0.00000000E+00
  0.00000000E+00  0.00000000E+00  0.00000000E+00
  0.00000000E+00  0.00000000E+00  0.00000000E+00
  0.00000000E+00  0.00000000E+00  0.00000000E+00
  0.00000000E+00  0.00000000E+00  0.00000000E+00
  0.00000000E+00  0.00000000E+00  0.00000000E+00
  0.00000000E+00  0.00000000E+00  0.00000000E+00
  0.00000000E+00  0.00000000E+00  0.00000000E+00
  0.00000000E+00  0.00000000E+00  0.00000000E+00
  0.00000000E+00  0.00000000E+00  0.00000000E+00
  0.00000000E+00  0.00000000E+00  0.00000000E+00
  0.00000000E+00  0.00000000E+00  0.00000000E+00
  0.00000000E+00  0.00000000E+00  0.00000000E+00
  0.00000000E+00  0.00000000E+00  0.00000000E+00
  0.00000000E+00  0.00000000E+00  0.00000000E+00
  0.00000000E+00  0.00000000E+00  0.00000000E+00
  0.00000000E+00  0.00000000E+00  0.00000000E+00
  0.00000000E+00  0.00000000E+00  0.00000000E+00
  0.00000000E+00  0.00000000E+00  0.00000000E+00
  0.00000000E+00  0.00000000E+00  0.00000000E+00
  0.00000000E+00  0.00000000E+00  0.00000000E+00
  0.00000000E+00  0.00000000E+00  0.00000000E+00
  0.00000000E+00  0.00000000E+00  0.00000000E+00
  0.00000000E+00  0.00000000E+00  0.00000000E+00
  0.00000000E+00  0.00000000E+00  0.00000000E+00
  0.00000000E+00  0.00000000E+00  0.00000000E+00
  0.00000000E+00  0.00000000E+00  0.00000000E+00
  0.00000000E+00  0.00000000E+00  0.00000000E+00
  0.00000000E+00  0.00000000E+00  0.00000000E+00
  0.00000000E+00  0.00000000E+00  0.00000000E+00
  0.00000000E+00  0.00000000E+00  0.00000000E+00
  0.00000000E+00  0.00000000E+00  0.00000000E+00
  0.00000000E+00  0.00000000E+00  0.00000000E+00
  0.00000000E+00  0.00000000E+00  0.00000000E+00
  0.00000000E+00  0.00000000E+00  0.00000000E+00
  0.00000000E+00  0.00000000E+00  0.00000000E+00
  0.00000000E+00  0.00000000E+00  0.00000000E+00
  0.00000000E+00  0.00000000E+00  0.00000000E+00
  0.00000000E+00  0.00000000E+00  0.00000000E+00
  0.00000000E+00  0.00000000E+00  0.00000000E+00
  0.00000000E+00  0.00000000E+00  0.00000000E+00
  0.00000000E+00  0.00000000E+00  0.00000000E+00
  0.00000000E+00  0.00000000E+00  0.00000000E+00
  0.00000000E+00  0.00000000E+00  0.00000000E+00
  0.00000000E+00  0.00000000E+00  0.00000000E+00
  0.00000000E+00  0.00000000E+00  0.00000000E+00
  0.00000000E+00  0.00000000E+00  0.00000000E+00
  0.00000000E+00  0.00000000E+00  0.00000000E+00
  0.00000000E+00  0.00000000E+00  0.00000000E+00
  0.00000000E+00  0.00000000E+00  0.00000000E+00
  0.00000000E+00  0.00000000E+00  0.00000000E+00
  0.00000000E+00  0.00000000E+00  0.00000000E+00
  0.00000000E+00  0.00000000E+00  0.00000000E+00
  0.00000000E+00  0.00000000E+00  0.00000000E+00
  0.00000000E+00  0.00000000E+00  0.00000000E+00
  0.00000000E+00  0.00000000E+00  0.00000000E+00
  0.00000000E+00  0.00000000E+00  0.00000000E+00
  0.00000000E+00  0.00000000E+00  0.00000000E+00
  0.00000000E+00  0.00000000E+00  0.00000000E+00
  0.00000000E+00  0.00000000E+00  0.00000000E+00
  0.00000000E+00  0.00000000E+00  0.00000000E+00
  0.00000000E+00  0.00000000E+00  0.00000000E+00
  0.00000000E+00  0.00000000E+00  0.00000000E+00
  0.00000000E+00  0.00000000E+00  0.00000000E+00
  0.00000000E+00  0.00000000E+00  0.00000000E+00
  0.00000000E+00  0.00000000E+00  0.00000000E+00
