La1 H1 C125 N1 O2                       
   1.00000000000000     
    19.7798552663612490   -0.0096983690220686   -0.0790140957468491
    -9.8990965789065708   17.0904139397073180    0.0979257869204469
    -0.1189470011196506    0.1018063472502437   29.7756849840966566
   La   H    C    N    O 
     1     1   125     1     2
Direct
  0.4418672984093151  0.5074735313482129  0.4606485659039930
  0.5696841082007826  0.5826892308384579  0.5389445791874319
  0.0417499514667537  0.0835675622255602  0.3997998999211029
  0.0415998534704108  0.2083690157255276  0.3993207803694224
  0.0414517499924026  0.3330807607397841  0.3989422340213215
  0.0414346716774096  0.4581913487817086  0.3989050057806547
  0.0414863136781037  0.5833413717707836  0.3994185046304735
  0.0417355170878940  0.7085125388475124  0.3996663189182858
  0.0419056429452112  0.8337091450587969  0.3997986618771305
  0.0419449958205819  0.9587581298243409  0.4000332235448631
  0.1669918785207146  0.0840019353757489  0.4000387351508470
  0.1668309543275125  0.2087841930786310  0.3996080236422559
  0.1668906615238767  0.3339261717690178  0.3989103745561241
  0.1662234754235177  0.4584210186331514  0.3979323712521596
  0.1659203618034659  0.5834544937064626  0.3979832048785766
  0.1662930722666808  0.7086185447834394  0.3991762765113436
  0.1666878808223404  0.8337717249694824  0.3997602070820167
  0.1669302867292334  0.9589142306537023  0.4000923362696995
  0.2920398609762331  0.0838963839467196  0.4000282997463779
  0.2924589617633179  0.2095419817720933  0.4006488215497867
  0.2923007630841978  0.3349930286687217  0.4018248027098596
  0.2924975686683954  0.4590491823120345  0.4007054277773137
  0.2901596268637766  0.5843756623114068  0.3981195477075681
  0.2908357714988595  0.7090101889941797  0.3984719348132618
  0.2914165935166235  0.8337297144472192  0.3994178686285212
  0.2916772030874855  0.9586867589993527  0.3999429663843622
  0.4168049991488845  0.0832589508082453  0.3997546544541478
  0.4170730769543375  0.2082638482809563  0.3997466680592606
  0.4181023609849517  0.3342682295495801  0.4018845508179029
  0.4153703119130213  0.7083338892105854  0.4001203442928856
  0.4162063257409817  0.8333148152492675  0.3992859651344171
  0.4165056756874698  0.9582517662246808  0.3997319644874371
  0.5416090179901678  0.0827327601331610  0.3998150263149805
  0.5419436593446477  0.2077867436553564  0.3993364198099856
  0.5423216750691571  0.3328561866689190  0.3990322594036861
  0.5425259370945772  0.4576048612337145  0.4001333158698197
  0.5446175646836694  0.5819720856793796  0.4061512255643411
  0.5396474667068366  0.7052870262302398  0.4043655355397016
  0.5408249565126135  0.8320661267772635  0.4007582480217782
  0.5413606530260685  0.9575693956294263  0.3998892085642734
  0.6664257540410006  0.0824996772833839  0.3998511453502193
  0.6667153780712095  0.2076310343002375  0.3996547449463079
  0.6669897862886068  0.3326852847399562  0.3989777750640076
  0.6676574560545780  0.4579423903128169  0.3981171061582101
  0.6688463271108922  0.5835779815537300  0.3977025286346809
  0.6667279225653001  0.7076306742743691  0.3990097899222225
  0.6656094269979358  0.8316710651750708  0.4004394866242198
  0.6661511501525650  0.9572895691737945  0.4002425164871863
  0.7913423963028386  0.0825740329939752  0.3998457139897142
  0.7914954431518516  0.2076057447296100  0.3997183653596276
  0.7917966322802693  0.3327769748008947  0.3996013971084421
  0.7922019852748841  0.4580545878579543  0.3990421947325709
  0.7926731215603724  0.5832769435904528  0.3982136664403393
  0.7924904508355985  0.7085576374695228  0.3982485005673150
  0.7916565327407900  0.8330379237022485  0.3990712478652862
  0.7910741733867095  0.9574655462317547  0.3997757859175210
  0.9164300874678449  0.0829586617455015  0.3998555515483819
  0.9164415341340835  0.2078732795176265  0.3997157520912031
  0.9165425189419135  0.3328848310479398  0.3996315206689200
  0.9167440078381660  0.4579833128637111  0.3996510043599185
  0.9170613967193846  0.5832855885144719  0.3995386055297249
  0.9171618374849864  0.7086037413488236  0.3992730037099145
  0.9170135704227915  0.8335670383230747  0.3993866961561143
  0.9166533217296567  0.9582591634209380  0.3997545154931220
  0.0836054514175954  0.0421599233628575  0.3999920753394683
  0.0834038480742381  0.1669059416931025  0.3994638358037010
  0.0832656215939319  0.2918192243059317  0.3988708302691785
  0.0831023409248282  0.4166353990430099  0.3984698146119344
  0.0828471628816757  0.5416204619035998  0.3987605565256984
  0.0831384707488789  0.6668186067482662  0.3994762899459062
  0.0834669093705087  0.7920733185122534  0.3997260590645433
  0.0835701811508503  0.9171677911382826  0.4000198941433835
  0.2086080918015816  0.0422411181923980  0.4001293745113761
  0.2086433847369452  0.1674087189130496  0.4000619180855281
  0.2085638118803501  0.2923290243807576  0.3997272989519503
  0.2083583818152628  0.4173622112327027  0.3986892249636946
  0.2072332395879815  0.5419198957130491  0.3974565146111051
  0.2077507747341458  0.6670422846268014  0.3984436980027480
  0.2081511899155918  0.7920451836138784  0.3994926607554479
  0.2084661129615012  0.9171560160677317  0.3999689882066753
  0.3334859442459329  0.0420057547788602  0.3999200212051159
  0.3338994784626606  0.1672007959317552  0.4001257522503087
  0.3339630680576123  0.2923577893629216  0.4020482328415358
  0.3326345453412885  0.4170933873148833  0.4036254360521608
  0.3331862886955856  0.5448494146364578  0.4013090242563452
  0.3322622786962320  0.6674764311830056  0.3986846664217022
  0.3329454420815815  0.7921845130969950  0.3990137712405376
  0.3332630944382625  0.9170002192909377  0.3997477126963691
  0.4583806150499971  0.0414946235631695  0.3998033567469651
  0.4586184365231352  0.1664775175925380  0.3995162707503208
  0.4590778799483687  0.2915949759364644  0.3998975944330173
  0.4607899936829320  0.4160657819156101  0.4031797690703526
  0.4547418266793927  0.6646080857004408  0.4040387233185991
  0.4577451604329633  0.7915617100071550  0.3998197381889405
  0.4580536799865392  0.9164799665646649  0.3996280068912026
  0.5831762417469460  0.0409392235764345  0.3998817850024289
  0.5834554186239495  0.1660960310607463  0.3996314816771513
  0.5838736177355563  0.2910858019997840  0.3989356385969339
  0.5844071152159637  0.4159985068424646  0.3987378682532964
  0.5860765087204856  0.5427256405689874  0.4003215346631241
  0.5831413755365271  0.6641198912436261  0.4030859022148995
  0.5814806062973095  0.7889103549924782  0.4018679794964294
  0.5827843255810677  0.9155673384688379  0.4002678612796964
  0.7079487794943474  0.0407111911649513  0.3999446074150209
  0.7082579338573930  0.1659444266146551  0.3997471590271741
  0.7085195102798570  0.2910483818998681  0.3994527771388569
  0.7089744419512394  0.4163127495025631  0.3986107008109354
  0.7098528611110629  0.5416502496218886  0.3976131358546265
  0.7092616013944540  0.6667651269204983  0.3979644269553341
  0.7081128819028223  0.7909571927342716  0.3992630326315036
  0.7074874505941852  0.9152833868320361  0.4001214679075468
  0.8329221713857471  0.0409641164968979  0.3998565021986218
  0.8330967850068257  0.1660374846655061  0.3997653068507370
  0.8333291982277309  0.2911747774171812  0.3997217981468006
  0.8335946126332697  0.4162950788382165  0.3995196128599629
  0.8339794199199151  0.5414948879763145  0.3989902869853807
  0.8340424498232452  0.6669252009599373  0.3985283321474416
  0.8337836026351924  0.7918427013414105  0.3988384859292475
  0.8331830107923091  0.9163191657284548  0.3995447807806244
  0.9583012966628633  0.0416432674518005  0.3998630290332218
  0.9582091266034291  0.1664403189805042  0.3996883715919723
  0.9581513439993401  0.2913080657196491  0.3994966111280169
  0.9582247019618426  0.4163512502134068  0.3995056448206507
  0.9584392077614219  0.5415937266808606  0.3996612871349195
  0.9586224356948324  0.6668306420397985  0.3995664665625641
  0.9586988636281176  0.7920025108057210  0.3995178511639141
  0.9585594182937766  0.9169464147583533  0.3997772341789295
  0.4115403641550230  0.5848992574375663  0.4068544504605187
  0.5253130833593327  0.5322585896693142  0.5304365578376954
  0.4592796154575413  0.5480347425668208  0.5343899472335037
 
  0.00000000E+00  0.00000000E+00  0.00000000E+00
  0.00000000E+00  0.00000000E+00  0.00000000E+00
  0.00000000E+00  0.00000000E+00  0.00000000E+00
  0.00000000E+00  0.00000000E+00  0.00000000E+00
  0.00000000E+00  0.00000000E+00  0.00000000E+00
  0.00000000E+00  0.00000000E+00  0.00000000E+00
  0.00000000E+00  0.00000000E+00  0.00000000E+00
  0.00000000E+00  0.00000000E+00  0.00000000E+00
  0.00000000E+00  0.00000000E+00  0.00000000E+00
  0.00000000E+00  0.00000000E+00  0.00000000E+00
  0.00000000E+00  0.00000000E+00  0.00000000E+00
  0.00000000E+00  0.00000000E+00  0.00000000E+00
  0.00000000E+00  0.00000000E+00  0.00000000E+00
  0.00000000E+00  0.00000000E+00  0.00000000E+00
  0.00000000E+00  0.00000000E+00  0.00000000E+00
  0.00000000E+00  0.00000000E+00  0.00000000E+00
  0.00000000E+00  0.00000000E+00  0.00000000E+00
  0.00000000E+00  0.00000000E+00  0.00000000E+00
  0.00000000E+00  0.00000000E+00  0.00000000E+00
  0.00000000E+00  0.00000000E+00  0.00000000E+00
  0.00000000E+00  0.00000000E+00  0.00000000E+00
  0.00000000E+00  0.00000000E+00  0.00000000E+00
  0.00000000E+00  0.00000000E+00  0.00000000E+00
  0.00000000E+00  0.00000000E+00  0.00000000E+00
  0.00000000E+00  0.00000000E+00  0.00000000E+00
  0.00000000E+00  0.00000000E+00  0.00000000E+00
  0.00000000E+00  0.00000000E+00  0.00000000E+00
  0.00000000E+00  0.00000000E+00  0.00000000E+00
  0.00000000E+00  0.00000000E+00  0.00000000E+00
  0.00000000E+00  0.00000000E+00  0.00000000E+00
  0.00000000E+00  0.00000000E+00  0.00000000E+00
  0.00000000E+00  0.00000000E+00  0.00000000E+00
  0.00000000E+00  0.00000000E+00  0.00000000E+00
  0.00000000E+00  0.00000000E+00  0.00000000E+00
  0.00000000E+00  0.00000000E+00  0.00000000E+00
  0.00000000E+00  0.00000000E+00  0.00000000E+00
  0.00000000E+00  0.00000000E+00  0.00000000E+00
  0.00000000E+00  0.00000000E+00  0.00000000E+00
  0.00000000E+00  0.00000000E+00  0.00000000E+00
  0.00000000E+00  0.00000000E+00  0.00000000E+00
  0.00000000E+00  0.00000000E+00  0.00000000E+00
  0.00000000E+00  0.00000000E+00  0.00000000E+00
  0.00000000E+00  0.00000000E+00  0.00000000E+00
  0.00000000E+00  0.00000000E+00  0.00000000E+00
  0.00000000E+00  0.00000000E+00  0.00000000E+00
  0.00000000E+00  0.00000000E+00  0.00000000E+00
  0.00000000E+00  0.00000000E+00  0.00000000E+00
  0.00000000E+00  0.00000000E+00  0.00000000E+00
  0.00000000E+00  0.00000000E+00  0.00000000E+00
  0.00000000E+00  0.00000000E+00  0.00000000E+00
  0.00000000E+00  0.00000000E+00  0.00000000E+00
  0.00000000E+00  0.00000000E+00  0.00000000E+00
  0.00000000E+00  0.00000000E+00  0.00000000E+00
  0.00000000E+00  0.00000000E+00  0.00000000E+00
  0.00000000E+00  0.00000000E+00  0.00000000E+00
  0.00000000E+00  0.00000000E+00  0.00000000E+00
  0.00000000E+00  0.00000000E+00  0.00000000E+00
  0.00000000E+00  0.00000000E+00  0.00000000E+00
  0.00000000E+00  0.00000000E+00  0.00000000E+00
  0.00000000E+00  0.00000000E+00  0.00000000E+00
  0.00000000E+00  0.00000000E+00  0.00000000E+00
  0.00000000E+00  0.00000000E+00  0.00000000E+00
  0.00000000E+00  0.00000000E+00  0.00000000E+00
  0.00000000E+00  0.00000000E+00  0.00000000E+00
  0.00000000E+00  0.00000000E+00  0.00000000E+00
  0.00000000E+00  0.00000000E+00  0.00000000E+00
  0.00000000E+00  0.00000000E+00  0.00000000E+00
  0.00000000E+00  0.00000000E+00  0.00000000E+00
  0.00000000E+00  0.00000000E+00  0.00000000E+00
  0.00000000E+00  0.00000000E+00  0.00000000E+00
  0.00000000E+00  0.00000000E+00  0.00000000E+00
  0.00000000E+00  0.00000000E+00  0.00000000E+00
  0.00000000E+00  0.00000000E+00  0.00000000E+00
  0.00000000E+00  0.00000000E+00  0.00000000E+00
  0.00000000E+00  0.00000000E+00  0.00000000E+00
  0.00000000E+00  0.00000000E+00  0.00000000E+00
  0.00000000E+00  0.00000000E+00  0.00000000E+00
  0.00000000E+00  0.00000000E+00  0.00000000E+00
  0.00000000E+00  0.00000000E+00  0.00000000E+00
  0.00000000E+00  0.00000000E+00  0.00000000E+00
  0.00000000E+00  0.00000000E+00  0.00000000E+00
  0.00000000E+00  0.00000000E+00  0.00000000E+00
  0.00000000E+00  0.00000000E+00  0.00000000E+00
  0.00000000E+00  0.00000000E+00  0.00000000E+00
  0.00000000E+00  0.00000000E+00  0.00000000E+00
  0.00000000E+00  0.00000000E+00  0.00000000E+00
  0.00000000E+00  0.00000000E+00  0.00000000E+00
  0.00000000E+00  0.00000000E+00  0.00000000E+00
  0.00000000E+00  0.00000000E+00  0.00000000E+00
  0.00000000E+00  0.00000000E+00  0.00000000E+00
  0.00000000E+00  0.00000000E+00  0.00000000E+00
  0.00000000E+00  0.00000000E+00  0.00000000E+00
  0.00000000E+00  0.00000000E+00  0.00000000E+00
  0.00000000E+00  0.00000000E+00  0.00000000E+00
  0.00000000E+00  0.00000000E+00  0.00000000E+00
  0.00000000E+00  0.00000000E+00  0.00000000E+00
  0.00000000E+00  0.00000000E+00  0.00000000E+00
  0.00000000E+00  0.00000000E+00  0.00000000E+00
  0.00000000E+00  0.00000000E+00  0.00000000E+00
  0.00000000E+00  0.00000000E+00  0.00000000E+00
  0.00000000E+00  0.00000000E+00  0.00000000E+00
  0.00000000E+00  0.00000000E+00  0.00000000E+00
  0.00000000E+00  0.00000000E+00  0.00000000E+00
  0.00000000E+00  0.00000000E+00  0.00000000E+00
  0.00000000E+00  0.00000000E+00  0.00000000E+00
  0.00000000E+00  0.00000000E+00  0.00000000E+00
  0.00000000E+00  0.00000000E+00  0.00000000E+00
  0.00000000E+00  0.00000000E+00  0.00000000E+00
  0.00000000E+00  0.00000000E+00  0.00000000E+00
  0.00000000E+00  0.00000000E+00  0.00000000E+00
  0.00000000E+00  0.00000000E+00  0.00000000E+00
  0.00000000E+00  0.00000000E+00  0.00000000E+00
  0.00000000E+00  0.00000000E+00  0.00000000E+00
  0.00000000E+00  0.00000000E+00  0.00000000E+00
  0.00000000E+00  0.00000000E+00  0.00000000E+00
  0.00000000E+00  0.00000000E+00  0.00000000E+00
  0.00000000E+00  0.00000000E+00  0.00000000E+00
  0.00000000E+00  0.00000000E+00  0.00000000E+00
  0.00000000E+00  0.00000000E+00  0.00000000E+00
  0.00000000E+00  0.00000000E+00  0.00000000E+00
  0.00000000E+00  0.00000000E+00  0.00000000E+00
  0.00000000E+00  0.00000000E+00  0.00000000E+00
  0.00000000E+00  0.00000000E+00  0.00000000E+00
  0.00000000E+00  0.00000000E+00  0.00000000E+00
  0.00000000E+00  0.00000000E+00  0.00000000E+00
  0.00000000E+00  0.00000000E+00  0.00000000E+00
  0.00000000E+00  0.00000000E+00  0.00000000E+00
  0.00000000E+00  0.00000000E+00  0.00000000E+00
  0.00000000E+00  0.00000000E+00  0.00000000E+00
  0.00000000E+00  0.00000000E+00  0.00000000E+00
