La1 H1 C123 N3 O2                       
   1.00000000000000     
    19.8081791713041326    0.0085319225991785   -0.0403416201006067
    -9.8967970035433339   17.0480097793453496   -0.0155504461974242
    -0.0605518286112095   -0.0623451412357058   29.7905800159982128
   La   H    C    N    O 
     1     1   123     3     2
Direct
  0.4373692796684684  0.5052703597038842  0.4572798511495611
  0.5667763978583193  0.5801506043159542  0.5388967025938096
  0.0417248002476430  0.0838172109076066  0.3994238797143095
  0.0407907645410050  0.2079760091415518  0.3991768667108872
  0.0402939801853089  0.3328182112376407  0.3988508867354674
  0.0406144910751503  0.4581292883237508  0.3989567796786813
  0.0414844078540337  0.5836329364714047  0.3995578750519967
  0.0422240811424080  0.7090475123726083  0.3998422458355710
  0.0425306790988653  0.8343830925116248  0.3998330613496738
  0.0424452273098345  0.9594290404105063  0.3996493599620118
  0.1676369041519388  0.0852028311785964  0.3998023101052181
  0.1667203056105171  0.2094339397479773  0.3996942764578694
  0.1649734338380149  0.3332937529111404  0.3991160306498960
  0.1645204906219332  0.4582196917429354  0.3979671943374821
  0.1654238632087555  0.5834573701122050  0.3984963987319822
  0.1665049860261008  0.7088304967411371  0.3994615078885577
  0.1671523672145639  0.8343044719254649  0.3998763576203816
  0.1674945874572334  0.9598327259391904  0.3998718986742649
  0.2925537200514214  0.0854368170032652  0.3998136382641992
  0.2931903351891207  0.2122857090685484  0.4014310290171617
  0.2912613151422128  0.3372959571382461  0.4034796198984901
  0.2884157599495737  0.4568347708138052  0.4008745108475266
  0.2890621473540307  0.5828255256987402  0.3981509651187763
  0.2907853487786693  0.7083219073493939  0.3987708691220090
  0.2916995713077025  0.8338063453714003  0.3995094587374987
  0.2921364613126005  0.9594317318404435  0.3997077761999002
  0.4170603568228457  0.0839612556278830  0.3993554237988411
  0.4176352772288430  0.2097797331822840  0.3992501372566061
  0.4200851004424120  0.3372144209494734  0.4046050359825924
  0.4150025796150061  0.7067588467290935  0.3990612173587098
  0.4161965199059789  0.8324993006721798  0.3992888662248830
  0.4167046888112171  0.9582389724271703  0.3996043081982985
  0.5415687555529632  0.0826479140773611  0.3995433108730766
  0.5421458166665061  0.2083009684954242  0.3987808959704343
  0.5431428630741186  0.3339241481173068  0.3986099607390050
  0.5449146637303466  0.4586589687885403  0.4029604038909399
  0.5390441266294483  0.7025483533903226  0.4023007332803388
  0.5406423787562797  0.8305349417265594  0.4000636950320036
  0.5411899756224077  0.9568250957299904  0.3997338493569261
  0.6661439519647997  0.0820661261597620  0.3998783394294678
  0.6665826174477708  0.2075289196312596  0.3994688522491719
  0.6673691158567845  0.3329460409200911  0.3985050236789626
  0.6690059482489035  0.4584631597115572  0.3976468383988816
  0.6701825349708062  0.5840827907968192  0.3986617129488876
  0.6675807600076415  0.7072923378720258  0.3996443499378314
  0.6651775348377696  0.8306988844670603  0.4002209815032332
  0.6657338636000716  0.9564857404922835  0.4000461040920294
  0.7908207280460315  0.0820279798954870  0.3998962152118519
  0.7910931869681648  0.2073433385052533  0.3998599418422857
  0.7916984000138605  0.3327600224330586  0.3995618577069187
  0.7927254584529929  0.4582661117863020  0.3988585345544505
  0.7935156738045257  0.5836504477451503  0.3984175060224167
  0.7934795353051054  0.7089617215215795  0.3988053127810687
  0.7917473927902299  0.8328406845194207  0.3993047367237385
  0.7906896748078998  0.9568955062944061  0.3997465097853661
  0.9159330680021723  0.0825752420287867  0.3995711282131087
  0.9157253011801232  0.2074411737248172  0.3995658152160934
  0.9159522976512955  0.3327299969959228  0.3996017237215574
  0.9166657611288690  0.4581770005239025  0.3996745132616721
  0.9175211218168502  0.5836871939440268  0.3995268611985122
  0.9178414650504041  0.7090149025938756  0.3994233786550083
  0.9175997411175726  0.8340466427001676  0.3994515621400661
  0.9167227179398874  0.9583333091224254  0.3995466430140600
  0.0841114789422715  0.0429533473981827  0.3995582530330222
  0.0832396016189287  0.1672215189023577  0.3992881755477584
  0.0819789968164095  0.2913310806341233  0.3989042114604956
  0.0817010177519827  0.4162551734408685  0.3984425166069339
  0.0824674692190500  0.5416758257205913  0.3990034154943175
  0.0834035343561020  0.6671642255041880  0.3996759044510365
  0.0839500535660997  0.7925867801572402  0.3999033832034909
  0.0841461808898325  0.9178792149064577  0.3998102250451622
  0.2091775144368101  0.0433663322576479  0.3999011654128481
  0.2093226967444804  0.1688872794074192  0.4002414818237495
  0.2077528578492828  0.2928708314302587  0.4000816420018225
  0.2057971026982933  0.4166597060407999  0.3986804249903284
  0.2061661252126554  0.5414046455015162  0.3979219512970544
  0.2075729803166940  0.6669207413442062  0.3988985754505954
  0.2084920180540799  0.7923935426765016  0.3996550897705452
  0.2089371692776107  0.9178594556416055  0.3998629374731376
  0.3338479184316108  0.0430766184593276  0.3995709791829528
  0.3343541753294503  0.1692247056128817  0.4001779161851737
  0.3351686173302350  0.2961439594938115  0.4042954225586839
  0.3312341079484991  0.5424419994824132  0.3998909471260785
  0.3317644725466641  0.6662600935467679  0.3984842677878664
  0.3329786794201921  0.7917039921569070  0.3991797474567027
  0.3334810614324688  0.9172553091147373  0.3996268551201697
  0.4583933986073712  0.0416718826030679  0.3995286747444724
  0.4588326515374949  0.1673837898266117  0.3989405727990673
  0.4597651212646410  0.2933357252231371  0.3997015539743545
  0.4641745489879723  0.4190929138806659  0.4102895187066279
  0.4540376042545310  0.6620233559444993  0.4011396866060383
  0.4574145058829887  0.7901476098081101  0.3993567628135389
  0.4579964404855217  0.9159893935000678  0.3995698462235797
  0.5829146596932154  0.0404710185040808  0.3997566180741439
  0.5833948168393798  0.1661879652257083  0.3992531225989799
  0.5841837146532418  0.2916899600181334  0.3983766193125509
  0.5861708285859860  0.4173135356475502  0.3985691838072539
  0.5882095976869429  0.5439161816503726  0.4020279051962823
  0.5840660820614585  0.6625113289551332  0.4024277887681158
  0.5811907958149242  0.7870920683380892  0.4008728633110104
  0.5824630666777612  0.9144175004876640  0.3999403821339536
  0.7075194526615076  0.0400995618509782  0.3999692980427468
  0.7079136638802188  0.1656177923180197  0.3998120010543566
  0.7085061045807221  0.2910456295174594  0.3992133777161343
  0.7097694203303903  0.4164931228351026  0.3981262811781705
  0.7109109422000242  0.5418157962248168  0.3978808882891688
  0.7105648812592248  0.6671405013608206  0.3988621733625496
  0.7082769164190940  0.7906148735816376  0.3995244784456471
  0.7070703066995734  0.9145218750428205  0.3999955874717239
  0.8324757720865400  0.0404857786259046  0.3997577364781569
  0.8325236201471584  0.1655740354936798  0.3998356190706502
  0.8328842859471715  0.2908741717358351  0.3997774144483091
  0.8336965716187376  0.4162999027856888  0.3994888168130806
  0.8345975753266310  0.5417829399997373  0.3989271390754878
  0.8349141624102302  0.6672397651242039  0.3988693866886253
  0.8343541901446672  0.7921461101909862  0.3991643176419098
  0.8332080963257011  0.9161857687267201  0.3995474731906552
  0.9582303047504525  0.0416644479238448  0.3995118882278527
  0.9575108108596125  0.1659873803694824  0.3994120382022804
  0.9573217617786974  0.2909796689627210  0.3993599397031044
  0.9576740454628870  0.4162470624486163  0.3995079864679450
  0.9585337415744828  0.5417502895368149  0.3996890892407762
  0.9591984510844785  0.6672161948387569  0.3996476332534884
  0.9593087241566761  0.7925564066363724  0.3996032841257517
  0.9590381983609931  0.9174323786110284  0.3995633555440231
  0.4108287589385237  0.5824627381707672  0.4027633265711473
  0.5483952123907339  0.5832571863748258  0.4055729770671417
  0.3278896531652831  0.4171838761755239  0.4057610867794375
  0.5258805584835149  0.5295907429415077  0.5274610473908535
  0.4558204936686284  0.5386118888735435  0.5321661402064333
 
  0.00000000E+00  0.00000000E+00  0.00000000E+00
  0.00000000E+00  0.00000000E+00  0.00000000E+00
  0.00000000E+00  0.00000000E+00  0.00000000E+00
  0.00000000E+00  0.00000000E+00  0.00000000E+00
  0.00000000E+00  0.00000000E+00  0.00000000E+00
  0.00000000E+00  0.00000000E+00  0.00000000E+00
  0.00000000E+00  0.00000000E+00  0.00000000E+00
  0.00000000E+00  0.00000000E+00  0.00000000E+00
  0.00000000E+00  0.00000000E+00  0.00000000E+00
  0.00000000E+00  0.00000000E+00  0.00000000E+00
  0.00000000E+00  0.00000000E+00  0.00000000E+00
  0.00000000E+00  0.00000000E+00  0.00000000E+00
  0.00000000E+00  0.00000000E+00  0.00000000E+00
  0.00000000E+00  0.00000000E+00  0.00000000E+00
  0.00000000E+00  0.00000000E+00  0.00000000E+00
  0.00000000E+00  0.00000000E+00  0.00000000E+00
  0.00000000E+00  0.00000000E+00  0.00000000E+00
  0.00000000E+00  0.00000000E+00  0.00000000E+00
  0.00000000E+00  0.00000000E+00  0.00000000E+00
  0.00000000E+00  0.00000000E+00  0.00000000E+00
  0.00000000E+00  0.00000000E+00  0.00000000E+00
  0.00000000E+00  0.00000000E+00  0.00000000E+00
  0.00000000E+00  0.00000000E+00  0.00000000E+00
  0.00000000E+00  0.00000000E+00  0.00000000E+00
  0.00000000E+00  0.00000000E+00  0.00000000E+00
  0.00000000E+00  0.00000000E+00  0.00000000E+00
  0.00000000E+00  0.00000000E+00  0.00000000E+00
  0.00000000E+00  0.00000000E+00  0.00000000E+00
  0.00000000E+00  0.00000000E+00  0.00000000E+00
  0.00000000E+00  0.00000000E+00  0.00000000E+00
  0.00000000E+00  0.00000000E+00  0.00000000E+00
  0.00000000E+00  0.00000000E+00  0.00000000E+00
  0.00000000E+00  0.00000000E+00  0.00000000E+00
  0.00000000E+00  0.00000000E+00  0.00000000E+00
  0.00000000E+00  0.00000000E+00  0.00000000E+00
  0.00000000E+00  0.00000000E+00  0.00000000E+00
  0.00000000E+00  0.00000000E+00  0.00000000E+00
  0.00000000E+00  0.00000000E+00  0.00000000E+00
  0.00000000E+00  0.00000000E+00  0.00000000E+00
  0.00000000E+00  0.00000000E+00  0.00000000E+00
  0.00000000E+00  0.00000000E+00  0.00000000E+00
  0.00000000E+00  0.00000000E+00  0.00000000E+00
  0.00000000E+00  0.00000000E+00  0.00000000E+00
  0.00000000E+00  0.00000000E+00  0.00000000E+00
  0.00000000E+00  0.00000000E+00  0.00000000E+00
  0.00000000E+00  0.00000000E+00  0.00000000E+00
  0.00000000E+00  0.00000000E+00  0.00000000E+00
  0.00000000E+00  0.00000000E+00  0.00000000E+00
  0.00000000E+00  0.00000000E+00  0.00000000E+00
  0.00000000E+00  0.00000000E+00  0.00000000E+00
  0.00000000E+00  0.00000000E+00  0.00000000E+00
  0.00000000E+00  0.00000000E+00  0.00000000E+00
  0.00000000E+00  0.00000000E+00  0.00000000E+00
  0.00000000E+00  0.00000000E+00  0.00000000E+00
  0.00000000E+00  0.00000000E+00  0.00000000E+00
  0.00000000E+00  0.00000000E+00  0.00000000E+00
  0.00000000E+00  0.00000000E+00  0.00000000E+00
  0.00000000E+00  0.00000000E+00  0.00000000E+00
  0.00000000E+00  0.00000000E+00  0.00000000E+00
  0.00000000E+00  0.00000000E+00  0.00000000E+00
  0.00000000E+00  0.00000000E+00  0.00000000E+00
  0.00000000E+00  0.00000000E+00  0.00000000E+00
  0.00000000E+00  0.00000000E+00  0.00000000E+00
  0.00000000E+00  0.00000000E+00  0.00000000E+00
  0.00000000E+00  0.00000000E+00  0.00000000E+00
  0.00000000E+00  0.00000000E+00  0.00000000E+00
  0.00000000E+00  0.00000000E+00  0.00000000E+00
  0.00000000E+00  0.00000000E+00  0.00000000E+00
  0.00000000E+00  0.00000000E+00  0.00000000E+00
  0.00000000E+00  0.00000000E+00  0.00000000E+00
  0.00000000E+00  0.00000000E+00  0.00000000E+00
  0.00000000E+00  0.00000000E+00  0.00000000E+00
  0.00000000E+00  0.00000000E+00  0.00000000E+00
  0.00000000E+00  0.00000000E+00  0.00000000E+00
  0.00000000E+00  0.00000000E+00  0.00000000E+00
  0.00000000E+00  0.00000000E+00  0.00000000E+00
  0.00000000E+00  0.00000000E+00  0.00000000E+00
  0.00000000E+00  0.00000000E+00  0.00000000E+00
  0.00000000E+00  0.00000000E+00  0.00000000E+00
  0.00000000E+00  0.00000000E+00  0.00000000E+00
  0.00000000E+00  0.00000000E+00  0.00000000E+00
  0.00000000E+00  0.00000000E+00  0.00000000E+00
  0.00000000E+00  0.00000000E+00  0.00000000E+00
  0.00000000E+00  0.00000000E+00  0.00000000E+00
  0.00000000E+00  0.00000000E+00  0.00000000E+00
  0.00000000E+00  0.00000000E+00  0.00000000E+00
  0.00000000E+00  0.00000000E+00  0.00000000E+00
  0.00000000E+00  0.00000000E+00  0.00000000E+00
  0.00000000E+00  0.00000000E+00  0.00000000E+00
  0.00000000E+00  0.00000000E+00  0.00000000E+00
  0.00000000E+00  0.00000000E+00  0.00000000E+00
  0.00000000E+00  0.00000000E+00  0.00000000E+00
  0.00000000E+00  0.00000000E+00  0.00000000E+00
  0.00000000E+00  0.00000000E+00  0.00000000E+00
  0.00000000E+00  0.00000000E+00  0.00000000E+00
  0.00000000E+00  0.00000000E+00  0.00000000E+00
  0.00000000E+00  0.00000000E+00  0.00000000E+00
  0.00000000E+00  0.00000000E+00  0.00000000E+00
  0.00000000E+00  0.00000000E+00  0.00000000E+00
  0.00000000E+00  0.00000000E+00  0.00000000E+00
  0.00000000E+00  0.00000000E+00  0.00000000E+00
  0.00000000E+00  0.00000000E+00  0.00000000E+00
  0.00000000E+00  0.00000000E+00  0.00000000E+00
  0.00000000E+00  0.00000000E+00  0.00000000E+00
  0.00000000E+00  0.00000000E+00  0.00000000E+00
  0.00000000E+00  0.00000000E+00  0.00000000E+00
  0.00000000E+00  0.00000000E+00  0.00000000E+00
  0.00000000E+00  0.00000000E+00  0.00000000E+00
  0.00000000E+00  0.00000000E+00  0.00000000E+00
  0.00000000E+00  0.00000000E+00  0.00000000E+00
  0.00000000E+00  0.00000000E+00  0.00000000E+00
  0.00000000E+00  0.00000000E+00  0.00000000E+00
  0.00000000E+00  0.00000000E+00  0.00000000E+00
  0.00000000E+00  0.00000000E+00  0.00000000E+00
  0.00000000E+00  0.00000000E+00  0.00000000E+00
  0.00000000E+00  0.00000000E+00  0.00000000E+00
  0.00000000E+00  0.00000000E+00  0.00000000E+00
  0.00000000E+00  0.00000000E+00  0.00000000E+00
  0.00000000E+00  0.00000000E+00  0.00000000E+00
  0.00000000E+00  0.00000000E+00  0.00000000E+00
  0.00000000E+00  0.00000000E+00  0.00000000E+00
  0.00000000E+00  0.00000000E+00  0.00000000E+00
  0.00000000E+00  0.00000000E+00  0.00000000E+00
  0.00000000E+00  0.00000000E+00  0.00000000E+00
  0.00000000E+00  0.00000000E+00  0.00000000E+00
  0.00000000E+00  0.00000000E+00  0.00000000E+00
  0.00000000E+00  0.00000000E+00  0.00000000E+00
  0.00000000E+00  0.00000000E+00  0.00000000E+00
  0.00000000E+00  0.00000000E+00  0.00000000E+00
  0.00000000E+00  0.00000000E+00  0.00000000E+00
