Ag1 C126 O1                             
   1.00000000000000     
    19.7375579583852350   -0.0002181605813872    0.0201125852740807
    -9.8689375496905267   17.0995766385628478    0.0214143973665639
     0.0301078837431099    0.0544379530064019   29.8145287223385935
   Ag   C    O 
     1   126     1
Direct
  0.4366796201584807  0.4990707937553403  0.4379141712814016
  0.0416501355252291  0.0833602594112124  0.3996192719947442
  0.0415320834992580  0.2082146257640188  0.3996349909906822
  0.0415702446062758  0.3331557474422848  0.3991752847827896
  0.0416625503665818  0.4583046852850644  0.3989870531258688
  0.0416013192277586  0.5832816102077818  0.3990519544378745
  0.0416255031806882  0.7082975469283282  0.3992138788051991
  0.0417097165082304  0.8334180648817947  0.3993791798560835
  0.0416935026071947  0.9583818343849964  0.3994861376470709
  0.1666511396979887  0.0833872194998875  0.4002529870111976
  0.1666616402129950  0.2082766663646872  0.4008900662178330
  0.1665596584112927  0.3331247462658943  0.4001250248696966
  0.1666614637379979  0.4582333077153584  0.3987538416946797
  0.1667433264592739  0.5832880997749831  0.3989725095712910
  0.1666637928142629  0.7083750552989396  0.3991890521213111
  0.1666501054776172  0.8333928965930421  0.3994138829833739
  0.1666941149102772  0.9584453620284953  0.3996812417739433
  0.2916944843890732  0.0833756898149036  0.4002983277176365
  0.2916853993810450  0.2084226842583342  0.4023372021312853
  0.2921811336317497  0.3337207485724531  0.4043158239893569
  0.2917164868204782  0.4577110491841312  0.4009550593024246
  0.2918005915375929  0.5836930784674292  0.3992915546726556
  0.2915723151814787  0.7084750938814300  0.3995985770363472
  0.2916131915605744  0.8333700292462044  0.3994143786104723
  0.2916512035269119  0.9583502163651603  0.3994853716399439
  0.4166544059913950  0.0832999529774784  0.3995900383732736
  0.4165632743873523  0.2082140801001545  0.4009526674942012
  0.4164685848252145  0.3335590032959149  0.4047401751000600
  0.4154313559129117  0.5847669572707130  0.4053403702570154
  0.4165150131770640  0.7082786878680019  0.4017982244056220
  0.4165948436670467  0.8333034350479870  0.4000269291604640
  0.4165841507588957  0.9582767881322438  0.3994051058168651
  0.5415735950767496  0.0831808835511346  0.3993341973587952
  0.5416212835212281  0.2081632895226707  0.3995737279222528
  0.5415241681460402  0.3331111016130927  0.4002406717263486
  0.5408905813432439  0.4576879933385568  0.4016620081570144
  0.5444726301089963  0.5849351615415813  0.4060651963281222
  0.5419298752013690  0.7089205161013067  0.4044767007897481
  0.5415370544799175  0.8333444482845689  0.4013957429240125
  0.5415753539628538  0.9582403022416400  0.3997798015786451
  0.6665570022266871  0.0831764957073773  0.3995257493292525
  0.6666032406181691  0.2082307836561507  0.3992964087965763
  0.6665296586127251  0.3331381711157521  0.3991478231023026
  0.6664864321067746  0.4582248082591013  0.3987961066074849
  0.6667898848455394  0.5836962345662362  0.3995190223478859
  0.6667599134767711  0.7083251171850664  0.4020199758023484
  0.6667734700089897  0.8333719002571230  0.4014776817892190
  0.6666110343825928  0.9582675741708360  0.4001578274555566
  0.7915777094151193  0.0831972612404627  0.3995510421147543
  0.7915460702337672  0.2081611118334045  0.3993811563622167
  0.7915777245848320  0.3332412256570699  0.3991728597038076
  0.7915550555055433  0.4583093090490573  0.3990051257142405
  0.7914674830935042  0.5833305800978704  0.3989848726962797
  0.7918619911633840  0.7084967543694063  0.3996239773392283
  0.7917047739824106  0.8333559024712831  0.4000249856994249
  0.7916403791961130  0.9582695605790220  0.3997978033755758
  0.9166113079419553  0.0832423843297587  0.3993785601190052
  0.9165860292210849  0.2082537343718166  0.3993308076951009
  0.9166110769435579  0.3332404082567461  0.3991801372470835
  0.9165940754283354  0.4582453933332535  0.3990803070091832
  0.9166122101444074  0.5833050818834068  0.3990663178054139
  0.9166568111611672  0.7083912631982343  0.3991729652536639
  0.9167453285956608  0.8334273263594276  0.3993889818117434
  0.9166829418608958  0.9583337517079707  0.3994196256737159
  0.0833076918779794  0.0416860122534046  0.3997277481822442
  0.0832677456629280  0.1666223884134361  0.3999137728564937
  0.0830503270819652  0.2914683622593827  0.3995467980740960
  0.0833856759908357  0.4166348869029891  0.3989618461249524
  0.0833419392973530  0.5416295635107631  0.3989821266113792
  0.0833172997266283  0.6666758079807538  0.3991317416268514
  0.0833494303230359  0.7917540473273075  0.3993551220483806
  0.0833363268583121  0.9167449498264809  0.3995180575924221
  0.2083141303864937  0.0416680057012644  0.4000852192919707
  0.2081616582699872  0.1665964216292678  0.4011959602326658
  0.2082131490171276  0.2916594734390590  0.4016568911849130
  0.2080383262078073  0.4162491968925249  0.3992546503903109
  0.2084298168304343  0.5417218241528022  0.3987802468828460
  0.2083852253766057  0.6667594380753162  0.3991792754477425
  0.2082944331904403  0.7916780126472516  0.3993188963037995
  0.2083413561630899  0.9167230355733871  0.3995360898970404
  0.3333233608294859  0.0416573680395590  0.3997298904883987
  0.3333684912841227  0.1665691083126614  0.4012731879276948
  0.3330148513457137  0.2910562366938946  0.4044443683882390
  0.3305508673767472  0.4152490625197406  0.4058164203674813
  0.3340603526971455  0.5421941532339467  0.4008644161373528
  0.3334147210476998  0.6667994933410161  0.4002115988656888
  0.3332918109321725  0.7917177121126995  0.3996917344923693
  0.3333278086080176  0.9166906301031812  0.3993817883003267
  0.4583182479318311  0.0416010567144867  0.3993632269664782
  0.4583032731773294  0.1665722167950416  0.3998718797323492
  0.4584003811572923  0.2915739983715161  0.4018517729714895
  0.4597001501704511  0.4149575417889503  0.4067826744706184
  0.4584771646505985  0.6662377862298358  0.4042793294333193
  0.4583510523867770  0.7916683772178849  0.4010712647598516
  0.4582338695210057  0.9165643363403931  0.3996844682906180
  0.5832635617398177  0.0415558345928011  0.3994733903925593
  0.5832993953334369  0.1665068722864937  0.3993347057097649
  0.5833612123612830  0.2914407347752629  0.3995263212138962
  0.5831525269180012  0.4162420057950568  0.3994801014823929
  0.5829972445607996  0.5421638961871655  0.4015250741392242
  0.5827679256149262  0.6663369977514053  0.4046353628137621
  0.5832317647678029  0.7915342632163044  0.4025509011866792
  0.5832307169143316  0.9165460090751555  0.4003740200885443
  0.7082020112499235  0.0414694632729899  0.3997023607273167
  0.7082495162196526  0.1665149068566968  0.3993968657193475
  0.7082399940932134  0.2915399511181658  0.3991821954133525
  0.7081525027941404  0.4166220417478532  0.3989391183207887
  0.7081806447033157  0.5417157289070993  0.3988410648195807
  0.7083362101704842  0.6668162947932608  0.4003465180787128
  0.7083027043085224  0.7917000370162353  0.4011682479832861
  0.7082833530502013  0.9165657430590820  0.4004116447493288
  0.8332681290187284  0.0415819661215803  0.3994979980702712
  0.8332244755490394  0.1665325617075920  0.3994313337241594
  0.8332883138739615  0.2916315099069817  0.3992551793638671
  0.8332910115100406  0.4166319527772913  0.3990949242515209
  0.8332123635864394  0.5416461786414024  0.3990119442142068
  0.8333197980827972  0.6668061825130756  0.3991960190210915
  0.8333980335005400  0.7917458768589583  0.3996804714620792
  0.8333122998019259  0.9166160080845207  0.3996865555700066
  0.9582803615459358  0.0416596053570137  0.3994003923415950
  0.9581911057624733  0.1665477158552398  0.3994000117780070
  0.9582511771099553  0.2915650698522966  0.3992148284976563
  0.9582717540550324  0.4166443335476100  0.3990873380398463
  0.9582969241749455  0.5416829828312456  0.3990585142604270
  0.9582972296907177  0.6666893812208552  0.3991339131895253
  0.9583515598543444  0.7917061344053798  0.3992942418601370
  0.9583649434312369  0.9167472199771416  0.3993874249875264
  0.4462838005340909  0.5081771895555314  0.5034170496804734
 
  0.00000000E+00  0.00000000E+00  0.00000000E+00
  0.00000000E+00  0.00000000E+00  0.00000000E+00
  0.00000000E+00  0.00000000E+00  0.00000000E+00
  0.00000000E+00  0.00000000E+00  0.00000000E+00
  0.00000000E+00  0.00000000E+00  0.00000000E+00
  0.00000000E+00  0.00000000E+00  0.00000000E+00
  0.00000000E+00  0.00000000E+00  0.00000000E+00
  0.00000000E+00  0.00000000E+00  0.00000000E+00
  0.00000000E+00  0.00000000E+00  0.00000000E+00
  0.00000000E+00  0.00000000E+00  0.00000000E+00
  0.00000000E+00  0.00000000E+00  0.00000000E+00
  0.00000000E+00  0.00000000E+00  0.00000000E+00
  0.00000000E+00  0.00000000E+00  0.00000000E+00
  0.00000000E+00  0.00000000E+00  0.00000000E+00
  0.00000000E+00  0.00000000E+00  0.00000000E+00
  0.00000000E+00  0.00000000E+00  0.00000000E+00
  0.00000000E+00  0.00000000E+00  0.00000000E+00
  0.00000000E+00  0.00000000E+00  0.00000000E+00
  0.00000000E+00  0.00000000E+00  0.00000000E+00
  0.00000000E+00  0.00000000E+00  0.00000000E+00
  0.00000000E+00  0.00000000E+00  0.00000000E+00
  0.00000000E+00  0.00000000E+00  0.00000000E+00
  0.00000000E+00  0.00000000E+00  0.00000000E+00
  0.00000000E+00  0.00000000E+00  0.00000000E+00
  0.00000000E+00  0.00000000E+00  0.00000000E+00
  0.00000000E+00  0.00000000E+00  0.00000000E+00
  0.00000000E+00  0.00000000E+00  0.00000000E+00
  0.00000000E+00  0.00000000E+00  0.00000000E+00
  0.00000000E+00  0.00000000E+00  0.00000000E+00
  0.00000000E+00  0.00000000E+00  0.00000000E+00
  0.00000000E+00  0.00000000E+00  0.00000000E+00
  0.00000000E+00  0.00000000E+00  0.00000000E+00
  0.00000000E+00  0.00000000E+00  0.00000000E+00
  0.00000000E+00  0.00000000E+00  0.00000000E+00
  0.00000000E+00  0.00000000E+00  0.00000000E+00
  0.00000000E+00  0.00000000E+00  0.00000000E+00
  0.00000000E+00  0.00000000E+00  0.00000000E+00
  0.00000000E+00  0.00000000E+00  0.00000000E+00
  0.00000000E+00  0.00000000E+00  0.00000000E+00
  0.00000000E+00  0.00000000E+00  0.00000000E+00
  0.00000000E+00  0.00000000E+00  0.00000000E+00
  0.00000000E+00  0.00000000E+00  0.00000000E+00
  0.00000000E+00  0.00000000E+00  0.00000000E+00
  0.00000000E+00  0.00000000E+00  0.00000000E+00
  0.00000000E+00  0.00000000E+00  0.00000000E+00
  0.00000000E+00  0.00000000E+00  0.00000000E+00
  0.00000000E+00  0.00000000E+00  0.00000000E+00
  0.00000000E+00  0.00000000E+00  0.00000000E+00
  0.00000000E+00  0.00000000E+00  0.00000000E+00
  0.00000000E+00  0.00000000E+00  0.00000000E+00
  0.00000000E+00  0.00000000E+00  0.00000000E+00
  0.00000000E+00  0.00000000E+00  0.00000000E+00
  0.00000000E+00  0.00000000E+00  0.00000000E+00
  0.00000000E+00  0.00000000E+00  0.00000000E+00
  0.00000000E+00  0.00000000E+00  0.00000000E+00
  0.00000000E+00  0.00000000E+00  0.00000000E+00
  0.00000000E+00  0.00000000E+00  0.00000000E+00
  0.00000000E+00  0.00000000E+00  0.00000000E+00
  0.00000000E+00  0.00000000E+00  0.00000000E+00
  0.00000000E+00  0.00000000E+00  0.00000000E+00
  0.00000000E+00  0.00000000E+00  0.00000000E+00
  0.00000000E+00  0.00000000E+00  0.00000000E+00
  0.00000000E+00  0.00000000E+00  0.00000000E+00
  0.00000000E+00  0.00000000E+00  0.00000000E+00
  0.00000000E+00  0.00000000E+00  0.00000000E+00
  0.00000000E+00  0.00000000E+00  0.00000000E+00
  0.00000000E+00  0.00000000E+00  0.00000000E+00
  0.00000000E+00  0.00000000E+00  0.00000000E+00
  0.00000000E+00  0.00000000E+00  0.00000000E+00
  0.00000000E+00  0.00000000E+00  0.00000000E+00
  0.00000000E+00  0.00000000E+00  0.00000000E+00
  0.00000000E+00  0.00000000E+00  0.00000000E+00
  0.00000000E+00  0.00000000E+00  0.00000000E+00
  0.00000000E+00  0.00000000E+00  0.00000000E+00
  0.00000000E+00  0.00000000E+00  0.00000000E+00
  0.00000000E+00  0.00000000E+00  0.00000000E+00
  0.00000000E+00  0.00000000E+00  0.00000000E+00
  0.00000000E+00  0.00000000E+00  0.00000000E+00
  0.00000000E+00  0.00000000E+00  0.00000000E+00
  0.00000000E+00  0.00000000E+00  0.00000000E+00
  0.00000000E+00  0.00000000E+00  0.00000000E+00
  0.00000000E+00  0.00000000E+00  0.00000000E+00
  0.00000000E+00  0.00000000E+00  0.00000000E+00
  0.00000000E+00  0.00000000E+00  0.00000000E+00
  0.00000000E+00  0.00000000E+00  0.00000000E+00
  0.00000000E+00  0.00000000E+00  0.00000000E+00
  0.00000000E+00  0.00000000E+00  0.00000000E+00
  0.00000000E+00  0.00000000E+00  0.00000000E+00
  0.00000000E+00  0.00000000E+00  0.00000000E+00
  0.00000000E+00  0.00000000E+00  0.00000000E+00
  0.00000000E+00  0.00000000E+00  0.00000000E+00
  0.00000000E+00  0.00000000E+00  0.00000000E+00
  0.00000000E+00  0.00000000E+00  0.00000000E+00
  0.00000000E+00  0.00000000E+00  0.00000000E+00
  0.00000000E+00  0.00000000E+00  0.00000000E+00
  0.00000000E+00  0.00000000E+00  0.00000000E+00
  0.00000000E+00  0.00000000E+00  0.00000000E+00
  0.00000000E+00  0.00000000E+00  0.00000000E+00
  0.00000000E+00  0.00000000E+00  0.00000000E+00
  0.00000000E+00  0.00000000E+00  0.00000000E+00
  0.00000000E+00  0.00000000E+00  0.00000000E+00
  0.00000000E+00  0.00000000E+00  0.00000000E+00
  0.00000000E+00  0.00000000E+00  0.00000000E+00
  0.00000000E+00  0.00000000E+00  0.00000000E+00
  0.00000000E+00  0.00000000E+00  0.00000000E+00
  0.00000000E+00  0.00000000E+00  0.00000000E+00
  0.00000000E+00  0.00000000E+00  0.00000000E+00
  0.00000000E+00  0.00000000E+00  0.00000000E+00
  0.00000000E+00  0.00000000E+00  0.00000000E+00
  0.00000000E+00  0.00000000E+00  0.00000000E+00
  0.00000000E+00  0.00000000E+00  0.00000000E+00
  0.00000000E+00  0.00000000E+00  0.00000000E+00
  0.00000000E+00  0.00000000E+00  0.00000000E+00
  0.00000000E+00  0.00000000E+00  0.00000000E+00
  0.00000000E+00  0.00000000E+00  0.00000000E+00
  0.00000000E+00  0.00000000E+00  0.00000000E+00
  0.00000000E+00  0.00000000E+00  0.00000000E+00
  0.00000000E+00  0.00000000E+00  0.00000000E+00
  0.00000000E+00  0.00000000E+00  0.00000000E+00
  0.00000000E+00  0.00000000E+00  0.00000000E+00
  0.00000000E+00  0.00000000E+00  0.00000000E+00
  0.00000000E+00  0.00000000E+00  0.00000000E+00
  0.00000000E+00  0.00000000E+00  0.00000000E+00
  0.00000000E+00  0.00000000E+00  0.00000000E+00
  0.00000000E+00  0.00000000E+00  0.00000000E+00
  0.00000000E+00  0.00000000E+00  0.00000000E+00
  0.00000000E+00  0.00000000E+00  0.00000000E+00
  0.00000000E+00  0.00000000E+00  0.00000000E+00
