H1 Ru1 C124 N2 O2                       
   1.00000000000000     
    19.8047961626233828   -0.0393643210762568   -0.1914606871988699
    -9.9365963888474607   17.0478775028577125    0.0266186179002589
    -0.2881006417422629   -0.1214464248200485   29.8409465471907254
   H    Ru   C    N    O 
     1     1   124     2     2
Direct
  0.5339319693824249  0.5457149138851257  0.5170740703456502
  0.4401015424633918  0.5018457514694776  0.4281907237773503
  0.0428355633553974  0.0847583019943101  0.3998252658923941
  0.0424364963957370  0.2090727086109062  0.3994885502210964
  0.0415607820566682  0.3334683557775126  0.3989547779301280
  0.0409431544031292  0.4585833014617181  0.3988256010958611
  0.0412111440793063  0.5839611110442410  0.3993148100420310
  0.0416750182185886  0.7092713249499628  0.3997536536742214
  0.0419745230990758  0.8344591732721195  0.3998160224768542
  0.0424082856164671  0.9597194223451824  0.3998566695893633
  0.1685447621699406  0.0861009861391784  0.4002306193106849
  0.1692770053659179  0.2116595783769747  0.4003710041269040
  0.1675092406736358  0.3352272971580503  0.3996430311638929
  0.1650003779282020  0.4593470668337165  0.3991218265542129
  0.1650522411468873  0.5842849719949901  0.3988586725769279
  0.1659805854653333  0.7094284343306142  0.3993510758949922
  0.1666969510980213  0.8346573750256647  0.3996813032869471
  0.1674111428724372  0.9601250562294437  0.3998663471989625
  0.2928731364000061  0.0854870301593124  0.4002050087306744
  0.2950706287845088  0.2128578936413676  0.4016069447115759
  0.2965964872039150  0.3401957753052566  0.4025157005443086
  0.2897496609466838  0.4614458472933909  0.4019921606663500
  0.2886562843590030  0.5851922485039209  0.4008688687690202
  0.2902287397531630  0.7095363199203079  0.3999015707671404
  0.2913144466139617  0.8343920283308356  0.3995232837271828
  0.2920205890900636  0.9596437538639108  0.3996797617592447
  0.4173108974263337  0.0837717048753700  0.3997724219657138
  0.4182256119730123  0.2094916297710120  0.4003579317187924
  0.4220514777102479  0.3374453517464640  0.4037894552302663
  0.4142594120419101  0.7070128841083603  0.4020749922290614
  0.4159105935030672  0.8328420927350213  0.3998926667348731
  0.4166452821917130  0.9583195645891485  0.3995832914115257
  0.5419214013900387  0.0822821140914379  0.3997632024209147
  0.5426134401538777  0.2073999687083255  0.3998944653283794
  0.5439919717916308  0.3321340630362937  0.4001274349406453
  0.5454547109764722  0.4553629121162486  0.4006613789513195
  0.5411031358438295  0.5761346703482548  0.4000253642803132
  0.5375097322607310  0.7025981260823767  0.4031055224037174
  0.5401883350367828  0.8306834421256478  0.4009687346610833
  0.5412722857252907  0.9567971320658865  0.3998198807774662
  0.6665839786161253  0.0817634449255111  0.3998389281553374
  0.6672274602758170  0.2070831814089876  0.3999689271025650
  0.6681561873553714  0.3323079809322602  0.3996813441504601
  0.6694190810534637  0.4575030055890464  0.3984841460270355
  0.6684085365326133  0.5815890125231099  0.3974161786643867
  0.6639416251723917  0.7043405272406612  0.3987636192517166
  0.6642968562532793  0.8298271631806341  0.4002457596953771
  0.6658100330744562  0.9561761206808476  0.4000678181303306
  0.7913922661444317  0.0819320819077489  0.3997208286333448
  0.7918864684806332  0.2071963977672770  0.3997262924799312
  0.7924286110259505  0.3325092240792611  0.3998817661922180
  0.7930670334485472  0.4578884276816496  0.3995606839419474
  0.7930981230312922  0.5830740269041268  0.3988620390032392
  0.7915183151981968  0.7075537435338920  0.3985643107146075
  0.7902876927379606  0.8315132077232893  0.3994193565013138
  0.7906252469157210  0.9564853643384835  0.3998050310466995
  0.9166827735957357  0.0828533325970933  0.3996819791410076
  0.9167784467930806  0.2077081289272416  0.3993798691291978
  0.9167784152397233  0.3328235116976634  0.3993090474126461
  0.9169782164089755  0.4582072064466134  0.3996014753904868
  0.9172727082503098  0.5836289184385767  0.3997636289687043
  0.9169767245163652  0.7087674736432985  0.3996165107822964
  0.9166838855392037  0.8335634225390842  0.3996086519951589
  0.9165535923843187  0.9581667077762254  0.3997351132527224
  0.0847400457578582  0.0436034350662435  0.3999431854808555
  0.0851676941734560  0.1686561309791541  0.3998321242585750
  0.0839086732487867  0.2925739050483593  0.3992136083440253
  0.0822846886953858  0.4170086747571518  0.3987843065302240
  0.0822140284444829  0.5421701673371205  0.3988587221473953
  0.0828526564202162  0.6675350863338037  0.3994721510550429
  0.0834406018623848  0.7928550350432545  0.3997664356944799
  0.0839400470472556  0.9181280707084177  0.3998480414409410
  0.2095164250361641  0.0438369942413198  0.4001197097008984
  0.2110772172289583  0.1702004614196558  0.4007503554865956
  0.2115689687588526  0.2958713171601738  0.4005918801159137
  0.2070853445073992  0.4185514067011972  0.3998075274046207
  0.2058885092645364  0.5426171202809130  0.3991561641081977
  0.2070947824537513  0.6677670236124383  0.3992622015003914
  0.2080394601783484  0.7929399545841419  0.3995355736303077
  0.2087119295564782  0.9182316156452613  0.3997497332186593
  0.3339982405249906  0.0431617530173894  0.3998399541742484
  0.3350871650904527  0.1692870512044152  0.4007821025265353
  0.3380129854942980  0.2974534101124048  0.4032776130066149
  0.3347055955659859  0.4241397138498014  0.4041635617762487
  0.3298181781875538  0.5447892794628614  0.4041448888491990
  0.3312197373557111  0.6678980819787375  0.4011389271931175
  0.3326283260758054  0.7926156057174295  0.3997341273149866
  0.3333770724131068  0.9177143584909064  0.3995606151601933
  0.4586443973004211  0.0416573230194222  0.3996804129426801
  0.4593644776431191  0.1671281960454417  0.3998924003421196
  0.4609721137428202  0.2929273081771332  0.4009574745323737
  0.4534074030617469  0.6626139828757343  0.4053924341535637
  0.4570534553784693  0.7904366341598561  0.4007215959866728
  0.4579684932471272  0.9161816382223011  0.3996767946453509
  0.5832687683198037  0.0403312880834317  0.3997678807352805
  0.5839383320271507  0.1656184106539382  0.3998891055866560
  0.5849571424529951  0.2905454877263414  0.3998212769480327
  0.5865596657346223  0.4149938809215606  0.3992081444247270
  0.5857877857915390  0.5387895830536885  0.3981428320528216
  0.5789519341807052  0.6599056169802435  0.4002068439729403
  0.5802758940322579  0.7870666727462312  0.4014713321260575
  0.5824058004943697  0.9144673891056598  0.4002266027976872
  0.7078897347680295  0.0398723981876933  0.3998482757117170
  0.7085813956943882  0.1653618750577002  0.3998982248925085
  0.7092681082165132  0.2906324845943885  0.3999424487905436
  0.7101948120748974  0.4158081290350186  0.3992149781496317
  0.7103824438191123  0.5407458562643093  0.3981297133240408
  0.7078922745851821  0.6648989112176992  0.3978317309301208
  0.7061771469327631  0.7884995145053106  0.3995067643527681
  0.7068076111571254  0.9139095047506572  0.4000152377203154
  0.8329521310752763  0.0403782645406094  0.3997508577367389
  0.8333827321546882  0.1655966504425938  0.3995788790653382
  0.8336561989821194  0.2907863353113294  0.3996785401863116
  0.8340684159367449  0.4160835008326512  0.3998205534589679
  0.8343681019380681  0.5414735978743598  0.3994876798518730
  0.8337988355921839  0.6666162930214510  0.3989977332178729
  0.8329754662125575  0.7910374815518412  0.3992088001655696
  0.8325881430822074  0.9153883268109123  0.3996972820829174
  0.9588764210377940  0.0419749008121840  0.3997481142723986
  0.9587315540115668  0.1665464108302403  0.3994912694331301
  0.9583817611940616  0.2913073810696543  0.3991413267697967
  0.9580641170200691  0.4164212488039814  0.3992164331296322
  0.9583371928700413  0.5418323485399048  0.3996173203654296
  0.9585541885195730  0.6672300961940706  0.3997994196561843
  0.9585936300663731  0.7923733482625367  0.3997123394445270
  0.9587017681315958  0.9172597802193359  0.3997567288275980
  0.4090721743277010  0.5825563086382400  0.4101855038745808
  0.4662828650921889  0.4179517668331223  0.4066559146184512
  0.4830278508933491  0.4971612140527182  0.5140863902768802
  0.4386025628536905  0.5290037104220521  0.4884545246781565
 
  0.00000000E+00  0.00000000E+00  0.00000000E+00
  0.00000000E+00  0.00000000E+00  0.00000000E+00
  0.00000000E+00  0.00000000E+00  0.00000000E+00
  0.00000000E+00  0.00000000E+00  0.00000000E+00
  0.00000000E+00  0.00000000E+00  0.00000000E+00
  0.00000000E+00  0.00000000E+00  0.00000000E+00
  0.00000000E+00  0.00000000E+00  0.00000000E+00
  0.00000000E+00  0.00000000E+00  0.00000000E+00
  0.00000000E+00  0.00000000E+00  0.00000000E+00
  0.00000000E+00  0.00000000E+00  0.00000000E+00
  0.00000000E+00  0.00000000E+00  0.00000000E+00
  0.00000000E+00  0.00000000E+00  0.00000000E+00
  0.00000000E+00  0.00000000E+00  0.00000000E+00
  0.00000000E+00  0.00000000E+00  0.00000000E+00
  0.00000000E+00  0.00000000E+00  0.00000000E+00
  0.00000000E+00  0.00000000E+00  0.00000000E+00
  0.00000000E+00  0.00000000E+00  0.00000000E+00
  0.00000000E+00  0.00000000E+00  0.00000000E+00
  0.00000000E+00  0.00000000E+00  0.00000000E+00
  0.00000000E+00  0.00000000E+00  0.00000000E+00
  0.00000000E+00  0.00000000E+00  0.00000000E+00
  0.00000000E+00  0.00000000E+00  0.00000000E+00
  0.00000000E+00  0.00000000E+00  0.00000000E+00
  0.00000000E+00  0.00000000E+00  0.00000000E+00
  0.00000000E+00  0.00000000E+00  0.00000000E+00
  0.00000000E+00  0.00000000E+00  0.00000000E+00
  0.00000000E+00  0.00000000E+00  0.00000000E+00
  0.00000000E+00  0.00000000E+00  0.00000000E+00
  0.00000000E+00  0.00000000E+00  0.00000000E+00
  0.00000000E+00  0.00000000E+00  0.00000000E+00
  0.00000000E+00  0.00000000E+00  0.00000000E+00
  0.00000000E+00  0.00000000E+00  0.00000000E+00
  0.00000000E+00  0.00000000E+00  0.00000000E+00
  0.00000000E+00  0.00000000E+00  0.00000000E+00
  0.00000000E+00  0.00000000E+00  0.00000000E+00
  0.00000000E+00  0.00000000E+00  0.00000000E+00
  0.00000000E+00  0.00000000E+00  0.00000000E+00
  0.00000000E+00  0.00000000E+00  0.00000000E+00
  0.00000000E+00  0.00000000E+00  0.00000000E+00
  0.00000000E+00  0.00000000E+00  0.00000000E+00
  0.00000000E+00  0.00000000E+00  0.00000000E+00
  0.00000000E+00  0.00000000E+00  0.00000000E+00
  0.00000000E+00  0.00000000E+00  0.00000000E+00
  0.00000000E+00  0.00000000E+00  0.00000000E+00
  0.00000000E+00  0.00000000E+00  0.00000000E+00
  0.00000000E+00  0.00000000E+00  0.00000000E+00
  0.00000000E+00  0.00000000E+00  0.00000000E+00
  0.00000000E+00  0.00000000E+00  0.00000000E+00
  0.00000000E+00  0.00000000E+00  0.00000000E+00
  0.00000000E+00  0.00000000E+00  0.00000000E+00
  0.00000000E+00  0.00000000E+00  0.00000000E+00
  0.00000000E+00  0.00000000E+00  0.00000000E+00
  0.00000000E+00  0.00000000E+00  0.00000000E+00
  0.00000000E+00  0.00000000E+00  0.00000000E+00
  0.00000000E+00  0.00000000E+00  0.00000000E+00
  0.00000000E+00  0.00000000E+00  0.00000000E+00
  0.00000000E+00  0.00000000E+00  0.00000000E+00
  0.00000000E+00  0.00000000E+00  0.00000000E+00
  0.00000000E+00  0.00000000E+00  0.00000000E+00
  0.00000000E+00  0.00000000E+00  0.00000000E+00
  0.00000000E+00  0.00000000E+00  0.00000000E+00
  0.00000000E+00  0.00000000E+00  0.00000000E+00
  0.00000000E+00  0.00000000E+00  0.00000000E+00
  0.00000000E+00  0.00000000E+00  0.00000000E+00
  0.00000000E+00  0.00000000E+00  0.00000000E+00
  0.00000000E+00  0.00000000E+00  0.00000000E+00
  0.00000000E+00  0.00000000E+00  0.00000000E+00
  0.00000000E+00  0.00000000E+00  0.00000000E+00
  0.00000000E+00  0.00000000E+00  0.00000000E+00
  0.00000000E+00  0.00000000E+00  0.00000000E+00
  0.00000000E+00  0.00000000E+00  0.00000000E+00
  0.00000000E+00  0.00000000E+00  0.00000000E+00
  0.00000000E+00  0.00000000E+00  0.00000000E+00
  0.00000000E+00  0.00000000E+00  0.00000000E+00
  0.00000000E+00  0.00000000E+00  0.00000000E+00
  0.00000000E+00  0.00000000E+00  0.00000000E+00
  0.00000000E+00  0.00000000E+00  0.00000000E+00
  0.00000000E+00  0.00000000E+00  0.00000000E+00
  0.00000000E+00  0.00000000E+00  0.00000000E+00
  0.00000000E+00  0.00000000E+00  0.00000000E+00
  0.00000000E+00  0.00000000E+00  0.00000000E+00
  0.00000000E+00  0.00000000E+00  0.00000000E+00
  0.00000000E+00  0.00000000E+00  0.00000000E+00
  0.00000000E+00  0.00000000E+00  0.00000000E+00
  0.00000000E+00  0.00000000E+00  0.00000000E+00
  0.00000000E+00  0.00000000E+00  0.00000000E+00
  0.00000000E+00  0.00000000E+00  0.00000000E+00
  0.00000000E+00  0.00000000E+00  0.00000000E+00
  0.00000000E+00  0.00000000E+00  0.00000000E+00
  0.00000000E+00  0.00000000E+00  0.00000000E+00
  0.00000000E+00  0.00000000E+00  0.00000000E+00
  0.00000000E+00  0.00000000E+00  0.00000000E+00
  0.00000000E+00  0.00000000E+00  0.00000000E+00
  0.00000000E+00  0.00000000E+00  0.00000000E+00
  0.00000000E+00  0.00000000E+00  0.00000000E+00
  0.00000000E+00  0.00000000E+00  0.00000000E+00
  0.00000000E+00  0.00000000E+00  0.00000000E+00
  0.00000000E+00  0.00000000E+00  0.00000000E+00
  0.00000000E+00  0.00000000E+00  0.00000000E+00
  0.00000000E+00  0.00000000E+00  0.00000000E+00
  0.00000000E+00  0.00000000E+00  0.00000000E+00
  0.00000000E+00  0.00000000E+00  0.00000000E+00
  0.00000000E+00  0.00000000E+00  0.00000000E+00
  0.00000000E+00  0.00000000E+00  0.00000000E+00
  0.00000000E+00  0.00000000E+00  0.00000000E+00
  0.00000000E+00  0.00000000E+00  0.00000000E+00
  0.00000000E+00  0.00000000E+00  0.00000000E+00
  0.00000000E+00  0.00000000E+00  0.00000000E+00
  0.00000000E+00  0.00000000E+00  0.00000000E+00
  0.00000000E+00  0.00000000E+00  0.00000000E+00
  0.00000000E+00  0.00000000E+00  0.00000000E+00
  0.00000000E+00  0.00000000E+00  0.00000000E+00
  0.00000000E+00  0.00000000E+00  0.00000000E+00
  0.00000000E+00  0.00000000E+00  0.00000000E+00
  0.00000000E+00  0.00000000E+00  0.00000000E+00
  0.00000000E+00  0.00000000E+00  0.00000000E+00
  0.00000000E+00  0.00000000E+00  0.00000000E+00
  0.00000000E+00  0.00000000E+00  0.00000000E+00
  0.00000000E+00  0.00000000E+00  0.00000000E+00
  0.00000000E+00  0.00000000E+00  0.00000000E+00
  0.00000000E+00  0.00000000E+00  0.00000000E+00
  0.00000000E+00  0.00000000E+00  0.00000000E+00
  0.00000000E+00  0.00000000E+00  0.00000000E+00
  0.00000000E+00  0.00000000E+00  0.00000000E+00
  0.00000000E+00  0.00000000E+00  0.00000000E+00
  0.00000000E+00  0.00000000E+00  0.00000000E+00
  0.00000000E+00  0.00000000E+00  0.00000000E+00
  0.00000000E+00  0.00000000E+00  0.00000000E+00
  0.00000000E+00  0.00000000E+00  0.00000000E+00
  0.00000000E+00  0.00000000E+00  0.00000000E+00
