Rh1 C125 N1 O1                          
   1.00000000000000     
    19.7958523861210089   -0.0130427565674774    0.1082702024824867
    -9.9085506364768943   17.0428293753249278   -0.3058627443455224
     0.1627369225178607   -0.4399114470120196   29.8442074793986833
   Rh   C    N    O 
     1   125     1     1
Direct
  0.4378452142115767  0.5004788429336319  0.4323703747064996
  0.0421545911637626  0.0845511828375230  0.3997662322097693
  0.0415731502997080  0.2088174840397667  0.3995941342227609
  0.0410192547152534  0.3333616229730622  0.3990511373380514
  0.0409247429909253  0.4585958803162929  0.3992351617670608
  0.0414774244088777  0.5840480829234204  0.3997530819470608
  0.0419601597165789  0.7094081686495880  0.3997955438283008
  0.0421759068514761  0.8346651807074547  0.3995459758111172
  0.0422475001635618  0.9597533581532967  0.3995229154063748
  0.1677642214776572  0.0857564569171968  0.4004680081880632
  0.1679705969765427  0.2109579963242006  0.4009435080238181
  0.1665247996605461  0.3346500259866138  0.3997371841404966
  0.1650292914792648  0.4588924394652229  0.3981839282019332
  0.1655201025095437  0.5840145412396238  0.3990403230769035
  0.1663314619040513  0.7093852080552464  0.3998544314099385
  0.1669199667079990  0.8347635300677207  0.3998257598443251
  0.1673603380033281  0.9602024627185138  0.3997590497751151
  0.2926382188280421  0.0856903547383636  0.4005954692028531
  0.2935504740784474  0.2122671281137344  0.4031851541703695
  0.2942139141967605  0.3386490247461125  0.4050092353860155
  0.2895151327208252  0.4603607636939029  0.4006784524123192
  0.2893971647747927  0.5844758413470571  0.3986038802590173
  0.2906854873322972  0.7092237285464437  0.3993514459597248
  0.2915289558086413  0.8343930821573790  0.3997669230880887
  0.2920291573990796  0.9597983070010527  0.3997142952347187
  0.4171212244433955  0.0843530105540418  0.3998899093379339
  0.4178041006089386  0.2104400402681116  0.4015547444594338
  0.4194649030966504  0.3379434864046966  0.4061420426845960
  0.4147657161639356  0.7066714158117965  0.4001387101325605
  0.4160412186220516  0.8328167333110846  0.3997486487934540
  0.4166187840006999  0.9585996145854809  0.3996141768190968
  0.5416524965199524  0.0828488299292889  0.3996929510624203
  0.5422337872093376  0.2082614850838437  0.3999436562387004
  0.5431707246488616  0.3334185143608552  0.4009228413542554
  0.5462026727290558  0.4582256321187719  0.4038918480380956
  0.5441138925326251  0.5794137674703270  0.4079223846539319
  0.5381373444315075  0.7035345421995806  0.4027813665972815
  0.5402861426640014  0.8310644242854329  0.4004133280978364
  0.5411252842660701  0.9572060169712854  0.3998547444133894
  0.6662561315104606  0.0822472818085613  0.3998216086784641
  0.6667957491197584  0.2076331103464788  0.3995706505259723
  0.6675118134349155  0.3328721828686158  0.3993112639544920
  0.6691259380185988  0.4582217185450576  0.3989855105734267
  0.6696234758357229  0.5834775058591131  0.4000937801266406
  0.6650437132653619  0.7057447702923585  0.4011624237848939
  0.6645846012260083  0.8306177765021058  0.4007482260233313
  0.6656567070580666  0.9566730361420382  0.4001874266836177
  0.7910085964502919  0.0822629127142300  0.3998676215871076
  0.7913826164526706  0.2075342528976360  0.3997043525408489
  0.7919549736501672  0.3328951134680819  0.3994203670700784
  0.7928451097158398  0.4583285967370869  0.3989283245215345
  0.7932980942051893  0.5836306274097436  0.3986518832847267
  0.7923564167281336  0.7085834490670594  0.3992549135576528
  0.7906564157755664  0.8322388912437370  0.3996950036617735
  0.7905445282041486  0.9569786497694690  0.3999281714262531
  0.9161963980912892  0.0829824947379959  0.3996516780882582
  0.9161915374046959  0.2078591598189573  0.3995553271057470
  0.9163453808795295  0.3330244697120467  0.3995110074451450
  0.9168445183621946  0.4584437095842021  0.3995637745028247
  0.9174168309769906  0.5839111380880192  0.3992927826416039
  0.9173741495065065  0.7091739386787365  0.3991591633505096
  0.9170082178895500  0.8340283465286624  0.3993115197066758
  0.9164135774429572  0.9584131910917033  0.3995678707875142
  0.0841782843000678  0.0434171545705399  0.3998290952596396
  0.0841364645114414  0.1682367217106798  0.3999425252030007
  0.0830393550227589  0.2922510564645718  0.3993053117489238
  0.0822089098572825  0.4168894701264341  0.3987295686684793
  0.0825368354915216  0.5421684930026087  0.3993828911832976
  0.0832205114145711  0.6676243154749204  0.3998893302488959
  0.0837023998660995  0.7930197672122108  0.3997881825958507
  0.0839637397912533  0.9182695263463264  0.3995559942154755
  0.2092419354613237  0.0438677687339287  0.4002745936099858
  0.2098057701515284  0.1696399877336371  0.4015834643329785
  0.2098424547676807  0.2948845318247205  0.4015244178521665
  0.2066411182722193  0.4177686962663088  0.3987185304679384
  0.2064723745804072  0.5422195346939206  0.3983960367738852
  0.2075510907787221  0.6675731765922965  0.3994531927964930
  0.2082991643019030  0.7929255022072598  0.3998683413252884
  0.2088072299625768  0.9183260974000993  0.3997300729024409
  0.3338724195200718  0.0433673309959973  0.3999504949828629
  0.3345775854436015  0.1694667311830261  0.4018830762147979
  0.3355599182874202  0.2961118342235089  0.4059164987914118
  0.3319679535896025  0.4219654151076880  0.4069705198369448
  0.3309068112989992  0.5439090312063476  0.3997008557106221
  0.3317902283368742  0.6673537719449159  0.3991798130165122
  0.3328728073003077  0.7924689024529644  0.3996720540023773
  0.3334063605587547  0.9177850271962945  0.3996729823258061
  0.4584542643061821  0.0420723309826484  0.3996508816796707
  0.4589779469521270  0.1678570768604989  0.4003031725564111
  0.4601102519387349  0.2941368356875280  0.4025820131099710
  0.4653542684125645  0.4205583822908191  0.4091587351198963
  0.4541083364069954  0.6621491578595049  0.4018497429613450
  0.4572081584234642  0.7902886559710511  0.4000413605961218
  0.4579115698425730  0.9163283792698976  0.3997106881876095
  0.5829991245765248  0.0407815171513535  0.3997797481845574
  0.5835734583397318  0.1662654878579358  0.3996759662511680
  0.5843614987879086  0.2914690436308146  0.3999137910054493
  0.5863447785795776  0.4162816642249745  0.4004540775542142
  0.5875906524542656  0.5415102844169212  0.4034862679963446
  0.5803028635931657  0.6617588085714365  0.4039865664615899
  0.5806184826257414  0.7877795013151009  0.4012513563938796
  0.5823566789405716  0.9149347491419376  0.4001316364153423
  0.7076296285558625  0.0403436131707336  0.3999632832771512
  0.7081608937674697  0.1657930779143203  0.3996900833522540
  0.7087601592246886  0.2911231326027708  0.3993797988205248
  0.7099240851264881  0.4164320227492063  0.3988827046603367
  0.7106723492551569  0.5416637352436451  0.3988854190491795
  0.7090171211765592  0.6664316183542300  0.4000616187513172
  0.7067097515948882  0.7894864022736490  0.4003629714595694
  0.7068489798052530  0.9145661122244103  0.4002841450441318
  0.8326164092802479  0.0407167311901522  0.3998101357538319
  0.8328578318248995  0.1658742797983602  0.3997345046738840
  0.8332374301773934  0.2911343826581945  0.3995883285287775
  0.8338873891494004  0.4164918158965929  0.3993341018777819
  0.8344926607798493  0.5418972662883600  0.3988464761567354
  0.8342550448486510  0.6672446963238209  0.3989161428207968
  0.8335388289980012  0.7918614796460068  0.3993739708759699
  0.8326416421460048  0.9159176350017135  0.3997108704669360
  0.9584053945180101  0.0420514536732434  0.3996219139042149
  0.9580494195874881  0.1665583351580553  0.3995540898595132
  0.9578340642873157  0.2914039231699361  0.3993841992976364
  0.9579583903612255  0.4166400325368413  0.3995298041690440
  0.9585402971220647  0.5421045249473876  0.3996206036670147
  0.9588848554463661  0.6675160677974606  0.3994066726275692
  0.9588738903533661  0.7927116668426597  0.3993306706748979
  0.9587080021863456  0.9175432637961517  0.3994332082138839
  0.4106557974738180  0.5810619294752378  0.4020353735262529
  0.4417606143848042  0.4734235494445215  0.4869774500283774
 
  0.00000000E+00  0.00000000E+00  0.00000000E+00
  0.00000000E+00  0.00000000E+00  0.00000000E+00
  0.00000000E+00  0.00000000E+00  0.00000000E+00
  0.00000000E+00  0.00000000E+00  0.00000000E+00
  0.00000000E+00  0.00000000E+00  0.00000000E+00
  0.00000000E+00  0.00000000E+00  0.00000000E+00
  0.00000000E+00  0.00000000E+00  0.00000000E+00
  0.00000000E+00  0.00000000E+00  0.00000000E+00
  0.00000000E+00  0.00000000E+00  0.00000000E+00
  0.00000000E+00  0.00000000E+00  0.00000000E+00
  0.00000000E+00  0.00000000E+00  0.00000000E+00
  0.00000000E+00  0.00000000E+00  0.00000000E+00
  0.00000000E+00  0.00000000E+00  0.00000000E+00
  0.00000000E+00  0.00000000E+00  0.00000000E+00
  0.00000000E+00  0.00000000E+00  0.00000000E+00
  0.00000000E+00  0.00000000E+00  0.00000000E+00
  0.00000000E+00  0.00000000E+00  0.00000000E+00
  0.00000000E+00  0.00000000E+00  0.00000000E+00
  0.00000000E+00  0.00000000E+00  0.00000000E+00
  0.00000000E+00  0.00000000E+00  0.00000000E+00
  0.00000000E+00  0.00000000E+00  0.00000000E+00
  0.00000000E+00  0.00000000E+00  0.00000000E+00
  0.00000000E+00  0.00000000E+00  0.00000000E+00
  0.00000000E+00  0.00000000E+00  0.00000000E+00
  0.00000000E+00  0.00000000E+00  0.00000000E+00
  0.00000000E+00  0.00000000E+00  0.00000000E+00
  0.00000000E+00  0.00000000E+00  0.00000000E+00
  0.00000000E+00  0.00000000E+00  0.00000000E+00
  0.00000000E+00  0.00000000E+00  0.00000000E+00
  0.00000000E+00  0.00000000E+00  0.00000000E+00
  0.00000000E+00  0.00000000E+00  0.00000000E+00
  0.00000000E+00  0.00000000E+00  0.00000000E+00
  0.00000000E+00  0.00000000E+00  0.00000000E+00
  0.00000000E+00  0.00000000E+00  0.00000000E+00
  0.00000000E+00  0.00000000E+00  0.00000000E+00
  0.00000000E+00  0.00000000E+00  0.00000000E+00
  0.00000000E+00  0.00000000E+00  0.00000000E+00
  0.00000000E+00  0.00000000E+00  0.00000000E+00
  0.00000000E+00  0.00000000E+00  0.00000000E+00
  0.00000000E+00  0.00000000E+00  0.00000000E+00
  0.00000000E+00  0.00000000E+00  0.00000000E+00
  0.00000000E+00  0.00000000E+00  0.00000000E+00
  0.00000000E+00  0.00000000E+00  0.00000000E+00
  0.00000000E+00  0.00000000E+00  0.00000000E+00
  0.00000000E+00  0.00000000E+00  0.00000000E+00
  0.00000000E+00  0.00000000E+00  0.00000000E+00
  0.00000000E+00  0.00000000E+00  0.00000000E+00
  0.00000000E+00  0.00000000E+00  0.00000000E+00
  0.00000000E+00  0.00000000E+00  0.00000000E+00
  0.00000000E+00  0.00000000E+00  0.00000000E+00
  0.00000000E+00  0.00000000E+00  0.00000000E+00
  0.00000000E+00  0.00000000E+00  0.00000000E+00
  0.00000000E+00  0.00000000E+00  0.00000000E+00
  0.00000000E+00  0.00000000E+00  0.00000000E+00
  0.00000000E+00  0.00000000E+00  0.00000000E+00
  0.00000000E+00  0.00000000E+00  0.00000000E+00
  0.00000000E+00  0.00000000E+00  0.00000000E+00
  0.00000000E+00  0.00000000E+00  0.00000000E+00
  0.00000000E+00  0.00000000E+00  0.00000000E+00
  0.00000000E+00  0.00000000E+00  0.00000000E+00
  0.00000000E+00  0.00000000E+00  0.00000000E+00
  0.00000000E+00  0.00000000E+00  0.00000000E+00
  0.00000000E+00  0.00000000E+00  0.00000000E+00
  0.00000000E+00  0.00000000E+00  0.00000000E+00
  0.00000000E+00  0.00000000E+00  0.00000000E+00
  0.00000000E+00  0.00000000E+00  0.00000000E+00
  0.00000000E+00  0.00000000E+00  0.00000000E+00
  0.00000000E+00  0.00000000E+00  0.00000000E+00
  0.00000000E+00  0.00000000E+00  0.00000000E+00
  0.00000000E+00  0.00000000E+00  0.00000000E+00
  0.00000000E+00  0.00000000E+00  0.00000000E+00
  0.00000000E+00  0.00000000E+00  0.00000000E+00
  0.00000000E+00  0.00000000E+00  0.00000000E+00
  0.00000000E+00  0.00000000E+00  0.00000000E+00
  0.00000000E+00  0.00000000E+00  0.00000000E+00
  0.00000000E+00  0.00000000E+00  0.00000000E+00
  0.00000000E+00  0.00000000E+00  0.00000000E+00
  0.00000000E+00  0.00000000E+00  0.00000000E+00
  0.00000000E+00  0.00000000E+00  0.00000000E+00
  0.00000000E+00  0.00000000E+00  0.00000000E+00
  0.00000000E+00  0.00000000E+00  0.00000000E+00
  0.00000000E+00  0.00000000E+00  0.00000000E+00
  0.00000000E+00  0.00000000E+00  0.00000000E+00
  0.00000000E+00  0.00000000E+00  0.00000000E+00
  0.00000000E+00  0.00000000E+00  0.00000000E+00
  0.00000000E+00  0.00000000E+00  0.00000000E+00
  0.00000000E+00  0.00000000E+00  0.00000000E+00
  0.00000000E+00  0.00000000E+00  0.00000000E+00
  0.00000000E+00  0.00000000E+00  0.00000000E+00
  0.00000000E+00  0.00000000E+00  0.00000000E+00
  0.00000000E+00  0.00000000E+00  0.00000000E+00
  0.00000000E+00  0.00000000E+00  0.00000000E+00
  0.00000000E+00  0.00000000E+00  0.00000000E+00
  0.00000000E+00  0.00000000E+00  0.00000000E+00
  0.00000000E+00  0.00000000E+00  0.00000000E+00
  0.00000000E+00  0.00000000E+00  0.00000000E+00
  0.00000000E+00  0.00000000E+00  0.00000000E+00
  0.00000000E+00  0.00000000E+00  0.00000000E+00
  0.00000000E+00  0.00000000E+00  0.00000000E+00
  0.00000000E+00  0.00000000E+00  0.00000000E+00
  0.00000000E+00  0.00000000E+00  0.00000000E+00
  0.00000000E+00  0.00000000E+00  0.00000000E+00
  0.00000000E+00  0.00000000E+00  0.00000000E+00
  0.00000000E+00  0.00000000E+00  0.00000000E+00
  0.00000000E+00  0.00000000E+00  0.00000000E+00
  0.00000000E+00  0.00000000E+00  0.00000000E+00
  0.00000000E+00  0.00000000E+00  0.00000000E+00
  0.00000000E+00  0.00000000E+00  0.00000000E+00
  0.00000000E+00  0.00000000E+00  0.00000000E+00
  0.00000000E+00  0.00000000E+00  0.00000000E+00
  0.00000000E+00  0.00000000E+00  0.00000000E+00
  0.00000000E+00  0.00000000E+00  0.00000000E+00
  0.00000000E+00  0.00000000E+00  0.00000000E+00
  0.00000000E+00  0.00000000E+00  0.00000000E+00
  0.00000000E+00  0.00000000E+00  0.00000000E+00
  0.00000000E+00  0.00000000E+00  0.00000000E+00
  0.00000000E+00  0.00000000E+00  0.00000000E+00
  0.00000000E+00  0.00000000E+00  0.00000000E+00
  0.00000000E+00  0.00000000E+00  0.00000000E+00
  0.00000000E+00  0.00000000E+00  0.00000000E+00
  0.00000000E+00  0.00000000E+00  0.00000000E+00
  0.00000000E+00  0.00000000E+00  0.00000000E+00
  0.00000000E+00  0.00000000E+00  0.00000000E+00
  0.00000000E+00  0.00000000E+00  0.00000000E+00
  0.00000000E+00  0.00000000E+00  0.00000000E+00
  0.00000000E+00  0.00000000E+00  0.00000000E+00
  0.00000000E+00  0.00000000E+00  0.00000000E+00
  0.00000000E+00  0.00000000E+00  0.00000000E+00
