Hf1 C123 N3 O1                          
   1.00000000000000     
    19.8154652185087343    0.0051115044678520   -0.1224803107941034
    -9.9030533682503474   17.0499430903941480   -0.0932240145018433
    -0.1837309648244298   -0.2694296489414441   29.7825558017878222
   Hf   C    N    O 
     1   123     3     1
Direct
  0.4368424098153270  0.5025342519192952  0.4395237266154827
  0.0418776730365569  0.0839371554270350  0.3997186572368367
  0.0409417826781647  0.2081198341558037  0.3994962310036978
  0.0403613958124602  0.3329777165353662  0.3990761778940223
  0.0406006727236214  0.4583052286029849  0.3991559510339711
  0.0415449426772550  0.5838196429089979  0.3998445836111191
  0.0423477715505445  0.7092130364517140  0.4003174517120290
  0.0426133197114134  0.8344760779193293  0.4000435155748033
  0.0425584710993072  0.9595247957603759  0.3997455927917616
  0.1677759310731121  0.0852876753917432  0.4001431382807267
  0.1668775975969760  0.2095574819506633  0.4004041384717986
  0.1649865131234521  0.3334355224473680  0.3999708742334779
  0.1642544745737660  0.4583995403112439  0.3983472741566488
  0.1652937159752913  0.5836469564303400  0.3984635135990915
  0.1665860625778191  0.7090138780223741  0.3995812408102709
  0.1672883754660084  0.8344426861886594  0.3999909988930900
  0.1675849249227377  0.9598991997379493  0.3998462311290057
  0.2926675327268488  0.0854916719609587  0.4000450892451806
  0.2933100971969979  0.2123031459425281  0.4019630969627174
  0.2912486058042905  0.3370508396155555  0.4041851838812289
  0.2876165868293579  0.4572495286554371  0.4017165758230849
  0.2886631786556523  0.5830724010391852  0.3985676628079459
  0.2908435450722528  0.7085368536844084  0.3986403651329623
  0.2918348871222716  0.8339568953355675  0.3994289983829309
  0.2922623979986066  0.9595369247165121  0.3996616884544382
  0.4172132175905350  0.0840125467049895  0.3994538578942479
  0.4177855029773961  0.2096716673084627  0.3997040103010059
  0.4202183318334836  0.3366968092349424  0.4048200339558611
  0.4150712525921910  0.7070537504856579  0.3993418542645402
  0.4163748387671176  0.8327260185912961  0.3992323090971195
  0.4168588492987809  0.9583801829418417  0.3995701212051487
  0.5417683309455994  0.0828002765824799  0.3995356965228090
  0.5423424994790693  0.2083748338311969  0.3987697010039112
  0.5433989195129562  0.3338829235642187  0.3990112821493759
  0.5460554877567052  0.4587626326588785  0.4038068098297671
  0.5392149062497281  0.7028010610138822  0.4027744306822484
  0.5408708502655307  0.8307999839430873  0.3999412823832003
  0.5414010009978274  0.9570461971127524  0.3997349796479433
  0.6663581509693297  0.0823006411789845  0.4001174277661774
  0.6667988512548422  0.2077061339592502  0.3994107453325988
  0.6676117202533005  0.3330622369906513  0.3982943448682458
  0.6694048336289891  0.4585529338730592  0.3975777076884836
  0.6705724420757300  0.5842427630727097  0.3990872793046037
  0.6676372928903692  0.7074440267706632  0.4000630567949217
  0.6653165284889191  0.8309410972831701  0.4000302281655729
  0.6659736253437976  0.9567759576585511  0.4000524238074469
  0.7910356778941517  0.0822546286464196  0.4001765994265675
  0.7912941712356859  0.2075245844862036  0.4001185444298018
  0.7919003843443410  0.3329345502588495  0.3995646296549579
  0.7929648980942592  0.4584283895612413  0.3986308056088971
  0.7936990105354886  0.5838084486095286  0.3979267237067850
  0.7935143569851247  0.7091011924163912  0.3984946688008228
  0.7918173582989826  0.8329837561918392  0.3990638796386197
  0.7908650717545143  0.9571087251911803  0.3995812662510388
  0.9161124714554379  0.0827168361020648  0.3996241716640713
  0.9159032873793642  0.2075984417205633  0.3997025591909750
  0.9160965944944006  0.3328874387092038  0.3998055425172706
  0.9168146144430688  0.4583525073720026  0.3999114931660447
  0.9176643021829893  0.5838557025535164  0.3996070283028149
  0.9179231792856701  0.7091443440507904  0.3993865080233837
  0.9176547257310053  0.8341454858807328  0.3993475926294069
  0.9168633068909691  0.9584417299651022  0.3995466276785640
  0.0842585538580346  0.0430683623373867  0.3998130847649893
  0.0833759107765690  0.1673595948337386  0.3997529994433230
  0.0820702451953210  0.2914772472401397  0.3993508118868816
  0.0815806284782575  0.4163989854040233  0.3986779638241021
  0.0824264320374449  0.5418757679518801  0.3991294930412863
  0.0834845467964773  0.6673490294295817  0.4000321196919248
  0.0840905233901615  0.7927382365108541  0.4002803516872230
  0.0842617760041655  0.9179691835627707  0.3998650691530367
  0.2092902633119549  0.0434492308367970  0.4000381227398607
  0.2094763369626098  0.1690006994597566  0.4008280247039070
  0.2078263077224018  0.2929870460738992  0.4010587149765778
  0.2053714572799590  0.4167697053957121  0.3994837307017378
  0.2058686438619251  0.5415780508620065  0.3981026990000016
  0.2076149149305745  0.6671444839744601  0.3988096455536962
  0.2086210264929440  0.7925657814557316  0.3996949641004716
  0.2090455010498180  0.9179756184325256  0.3997952506464766
  0.3339905086782071  0.0431705752310493  0.3996676207960465
  0.3345104953535690  0.1692802126345905  0.4006328579120674
  0.3353897876813703  0.2963132434258304  0.4046296072702724
  0.3302992743038546  0.5425785565655749  0.4006808808344798
  0.3317623759946035  0.6665034209644901  0.3986360494634095
  0.3331414522880269  0.7919097919470880  0.3990667064399758
  0.3336261803335692  0.9174063903227369  0.3995916885379813
  0.4585782419884353  0.0418073140115942  0.3995181042174627
  0.4590365135238771  0.1674072045886950  0.3991259771777117
  0.4600313904145191  0.2931481318583798  0.4002883316960065
  0.4652548365007123  0.4186216152460602  0.4102255429536326
  0.4542859844821720  0.6627452561170138  0.4017768974441122
  0.4576174026336857  0.7904222138488800  0.3993545007767257
  0.4581922275117771  0.9161952340737297  0.3995332727238280
  0.5831221468649604  0.0406913655316532  0.3998397880299422
  0.5836241805641169  0.1663405123879976  0.3991718828001376
  0.5844526415343572  0.2917459001151941  0.3983636378668217
  0.5867568979650557  0.4172519802641476  0.3990600835989740
  0.5891865042076262  0.5439678629665486  0.4035296473568082
  0.5844003366983991  0.6631117702580266  0.4036381364704176
  0.5814050266260614  0.7873815709378648  0.4008093338289772
  0.5826958247398585  0.9146801852030284  0.3998634980749154
  0.7077751997839919  0.0404021586740404  0.4002409312222640
  0.7081510819920023  0.1658574422549336  0.3999912570033302
  0.7087510798235034  0.2912239755706497  0.3990590414180684
  0.7100860656617080  0.4166275046082352  0.3978537676003548
  0.7111739305550261  0.5419125611392035  0.3976327071135972
  0.7106710660669070  0.6673149495143562  0.3990397569948065
  0.7083033777420239  0.7907728199378082  0.3994101548438898
  0.7072582960049475  0.9147854502179402  0.3998104944015613
  0.8326928148258147  0.0407109574987708  0.3997985381814848
  0.8327706509193813  0.1658152773322789  0.4001096959477633
  0.8330743327060556  0.2910595610957264  0.3999497940631676
  0.8338996151769085  0.4164834541718685  0.3995215951928370
  0.8347882979572437  0.5419661861887457  0.3986353668989202
  0.8350208777434284  0.6673777446189796  0.3984942633443610
  0.8344065237825816  0.7922895287061019  0.3989080370760258
  0.8333481947981245  0.9163665440413139  0.3993714743473390
  0.9584125916102870  0.0418219890906151  0.3996162853450775
  0.9576990472665055  0.1661526027093435  0.3995227349858628
  0.9574505413997072  0.2911369404632417  0.3994990412794545
  0.9577417919542039  0.4163994599463274  0.3997593261493851
  0.9586375257058234  0.5419273699300878  0.3999721032593831
  0.9593186891819901  0.6673683701827531  0.3998964870427332
  0.9594124583532563  0.7926472922206880  0.3996585460081807
  0.9591776074176613  0.9175459268236545  0.3995964301980611
  0.4102773559198842  0.5829513856749188  0.4035846108126586
  0.5494973576049750  0.5836909519494045  0.4081155733875889
  0.3272523529094057  0.4174039916128062  0.4063600628808830
  0.4353852661014624  0.5001818939760476  0.4998886497211795
 
  0.00000000E+00  0.00000000E+00  0.00000000E+00
  0.00000000E+00  0.00000000E+00  0.00000000E+00
  0.00000000E+00  0.00000000E+00  0.00000000E+00
  0.00000000E+00  0.00000000E+00  0.00000000E+00
  0.00000000E+00  0.00000000E+00  0.00000000E+00
  0.00000000E+00  0.00000000E+00  0.00000000E+00
  0.00000000E+00  0.00000000E+00  0.00000000E+00
  0.00000000E+00  0.00000000E+00  0.00000000E+00
  0.00000000E+00  0.00000000E+00  0.00000000E+00
  0.00000000E+00  0.00000000E+00  0.00000000E+00
  0.00000000E+00  0.00000000E+00  0.00000000E+00
  0.00000000E+00  0.00000000E+00  0.00000000E+00
  0.00000000E+00  0.00000000E+00  0.00000000E+00
  0.00000000E+00  0.00000000E+00  0.00000000E+00
  0.00000000E+00  0.00000000E+00  0.00000000E+00
  0.00000000E+00  0.00000000E+00  0.00000000E+00
  0.00000000E+00  0.00000000E+00  0.00000000E+00
  0.00000000E+00  0.00000000E+00  0.00000000E+00
  0.00000000E+00  0.00000000E+00  0.00000000E+00
  0.00000000E+00  0.00000000E+00  0.00000000E+00
  0.00000000E+00  0.00000000E+00  0.00000000E+00
  0.00000000E+00  0.00000000E+00  0.00000000E+00
  0.00000000E+00  0.00000000E+00  0.00000000E+00
  0.00000000E+00  0.00000000E+00  0.00000000E+00
  0.00000000E+00  0.00000000E+00  0.00000000E+00
  0.00000000E+00  0.00000000E+00  0.00000000E+00
  0.00000000E+00  0.00000000E+00  0.00000000E+00
  0.00000000E+00  0.00000000E+00  0.00000000E+00
  0.00000000E+00  0.00000000E+00  0.00000000E+00
  0.00000000E+00  0.00000000E+00  0.00000000E+00
  0.00000000E+00  0.00000000E+00  0.00000000E+00
  0.00000000E+00  0.00000000E+00  0.00000000E+00
  0.00000000E+00  0.00000000E+00  0.00000000E+00
  0.00000000E+00  0.00000000E+00  0.00000000E+00
  0.00000000E+00  0.00000000E+00  0.00000000E+00
  0.00000000E+00  0.00000000E+00  0.00000000E+00
  0.00000000E+00  0.00000000E+00  0.00000000E+00
  0.00000000E+00  0.00000000E+00  0.00000000E+00
  0.00000000E+00  0.00000000E+00  0.00000000E+00
  0.00000000E+00  0.00000000E+00  0.00000000E+00
  0.00000000E+00  0.00000000E+00  0.00000000E+00
  0.00000000E+00  0.00000000E+00  0.00000000E+00
  0.00000000E+00  0.00000000E+00  0.00000000E+00
  0.00000000E+00  0.00000000E+00  0.00000000E+00
  0.00000000E+00  0.00000000E+00  0.00000000E+00
  0.00000000E+00  0.00000000E+00  0.00000000E+00
  0.00000000E+00  0.00000000E+00  0.00000000E+00
  0.00000000E+00  0.00000000E+00  0.00000000E+00
  0.00000000E+00  0.00000000E+00  0.00000000E+00
  0.00000000E+00  0.00000000E+00  0.00000000E+00
  0.00000000E+00  0.00000000E+00  0.00000000E+00
  0.00000000E+00  0.00000000E+00  0.00000000E+00
  0.00000000E+00  0.00000000E+00  0.00000000E+00
  0.00000000E+00  0.00000000E+00  0.00000000E+00
  0.00000000E+00  0.00000000E+00  0.00000000E+00
  0.00000000E+00  0.00000000E+00  0.00000000E+00
  0.00000000E+00  0.00000000E+00  0.00000000E+00
  0.00000000E+00  0.00000000E+00  0.00000000E+00
  0.00000000E+00  0.00000000E+00  0.00000000E+00
  0.00000000E+00  0.00000000E+00  0.00000000E+00
  0.00000000E+00  0.00000000E+00  0.00000000E+00
  0.00000000E+00  0.00000000E+00  0.00000000E+00
  0.00000000E+00  0.00000000E+00  0.00000000E+00
  0.00000000E+00  0.00000000E+00  0.00000000E+00
  0.00000000E+00  0.00000000E+00  0.00000000E+00
  0.00000000E+00  0.00000000E+00  0.00000000E+00
  0.00000000E+00  0.00000000E+00  0.00000000E+00
  0.00000000E+00  0.00000000E+00  0.00000000E+00
  0.00000000E+00  0.00000000E+00  0.00000000E+00
  0.00000000E+00  0.00000000E+00  0.00000000E+00
  0.00000000E+00  0.00000000E+00  0.00000000E+00
  0.00000000E+00  0.00000000E+00  0.00000000E+00
  0.00000000E+00  0.00000000E+00  0.00000000E+00
  0.00000000E+00  0.00000000E+00  0.00000000E+00
  0.00000000E+00  0.00000000E+00  0.00000000E+00
  0.00000000E+00  0.00000000E+00  0.00000000E+00
  0.00000000E+00  0.00000000E+00  0.00000000E+00
  0.00000000E+00  0.00000000E+00  0.00000000E+00
  0.00000000E+00  0.00000000E+00  0.00000000E+00
  0.00000000E+00  0.00000000E+00  0.00000000E+00
  0.00000000E+00  0.00000000E+00  0.00000000E+00
  0.00000000E+00  0.00000000E+00  0.00000000E+00
  0.00000000E+00  0.00000000E+00  0.00000000E+00
  0.00000000E+00  0.00000000E+00  0.00000000E+00
  0.00000000E+00  0.00000000E+00  0.00000000E+00
  0.00000000E+00  0.00000000E+00  0.00000000E+00
  0.00000000E+00  0.00000000E+00  0.00000000E+00
  0.00000000E+00  0.00000000E+00  0.00000000E+00
  0.00000000E+00  0.00000000E+00  0.00000000E+00
  0.00000000E+00  0.00000000E+00  0.00000000E+00
  0.00000000E+00  0.00000000E+00  0.00000000E+00
  0.00000000E+00  0.00000000E+00  0.00000000E+00
  0.00000000E+00  0.00000000E+00  0.00000000E+00
  0.00000000E+00  0.00000000E+00  0.00000000E+00
  0.00000000E+00  0.00000000E+00  0.00000000E+00
  0.00000000E+00  0.00000000E+00  0.00000000E+00
  0.00000000E+00  0.00000000E+00  0.00000000E+00
  0.00000000E+00  0.00000000E+00  0.00000000E+00
  0.00000000E+00  0.00000000E+00  0.00000000E+00
  0.00000000E+00  0.00000000E+00  0.00000000E+00
  0.00000000E+00  0.00000000E+00  0.00000000E+00
  0.00000000E+00  0.00000000E+00  0.00000000E+00
  0.00000000E+00  0.00000000E+00  0.00000000E+00
  0.00000000E+00  0.00000000E+00  0.00000000E+00
  0.00000000E+00  0.00000000E+00  0.00000000E+00
  0.00000000E+00  0.00000000E+00  0.00000000E+00
  0.00000000E+00  0.00000000E+00  0.00000000E+00
  0.00000000E+00  0.00000000E+00  0.00000000E+00
  0.00000000E+00  0.00000000E+00  0.00000000E+00
  0.00000000E+00  0.00000000E+00  0.00000000E+00
  0.00000000E+00  0.00000000E+00  0.00000000E+00
  0.00000000E+00  0.00000000E+00  0.00000000E+00
  0.00000000E+00  0.00000000E+00  0.00000000E+00
  0.00000000E+00  0.00000000E+00  0.00000000E+00
  0.00000000E+00  0.00000000E+00  0.00000000E+00
  0.00000000E+00  0.00000000E+00  0.00000000E+00
  0.00000000E+00  0.00000000E+00  0.00000000E+00
  0.00000000E+00  0.00000000E+00  0.00000000E+00
  0.00000000E+00  0.00000000E+00  0.00000000E+00
  0.00000000E+00  0.00000000E+00  0.00000000E+00
  0.00000000E+00  0.00000000E+00  0.00000000E+00
  0.00000000E+00  0.00000000E+00  0.00000000E+00
  0.00000000E+00  0.00000000E+00  0.00000000E+00
  0.00000000E+00  0.00000000E+00  0.00000000E+00
  0.00000000E+00  0.00000000E+00  0.00000000E+00
  0.00000000E+00  0.00000000E+00  0.00000000E+00
  0.00000000E+00  0.00000000E+00  0.00000000E+00
  0.00000000E+00  0.00000000E+00  0.00000000E+00
