Mn1 C126                                
   1.00000000000000     
    19.7979712314361755   -0.0000391748539223   -0.0004142595648425
    -9.8990183962781195   17.1003149791633255    0.0001926138828294
    -0.0006227610269212   -0.0000252560466196   29.7219822828354623
   Mn   C 
     1   126
Direct
  0.4375082463117038  0.5000000510574500  0.4205850733978749
  0.0415481140754111  0.0833670525838833  0.3998189516744333
  0.0410345608990857  0.2079373911053327  0.3997303233676670
  0.0408572426492577  0.3328742186238124  0.3996914994616930
  0.0409758736903314  0.4582867119575116  0.3998044438422038
  0.0414372976879904  0.5835136674396817  0.3999392720317336
  0.0418314203370436  0.7086666159757143  0.4000386416400683
  0.0420377398216161  0.8338686551705928  0.4000130030714978
  0.0420117201362795  0.9588392415963068  0.3999346522140774
  0.1669493655801804  0.0839659107936548  0.3999185636713494
  0.1663210728152018  0.2083396087676737  0.3999836307549721
  0.1655135341063131  0.3329084696346645  0.3999677031863486
  0.1649970952166706  0.4581625164767270  0.3995742349254689
  0.1657764220141682  0.5834857325067155  0.3996523865561588
  0.1665197522382303  0.7087411412098059  0.3998554185391328
  0.1668339060383887  0.8338742751122763  0.3999995688554739
  0.1670191592905251  0.9590437173066233  0.3999457105981250
  0.2920158281027999  0.0839650537503424  0.3999011367798810
  0.2922801692468981  0.2095551234463347  0.4005991525464787
  0.2912652147834492  0.3341645933313048  0.4024363702448441
  0.2886807633252114  0.4572202359116483  0.4018472405434504
  0.2898287850105035  0.5839472814991300  0.3999853126940598
  0.2910783020263057  0.7088239759913959  0.3996708192132037
  0.2915715009066587  0.8337047875497735  0.3998494827947246
  0.2918228129623426  0.9588390645234320  0.3999086787116000
  0.4168208570178148  0.0833727335235583  0.3998011754018951
  0.4170208360702203  0.2083416878576513  0.3999675493883919
  0.4179023468747389  0.3341601941262708  0.4024308965718520
  0.4127220543178183  0.5841164959634113  0.4046321953758563
  0.4159411887970129  0.7083584811119588  0.4005558223805780
  0.4163789461270453  0.8334020641229548  0.3997279069667574
  0.4165920231509006  0.9583798717062380  0.3998611672456280
  0.5416135947809083  0.0829644277929938  0.3999021507818437
  0.5419055289367292  0.2079431432971439  0.3997315548955532
  0.5423938377657503  0.3329085596772541  0.3999608027617232
  0.5435388419513711  0.4572208873417937  0.4018473768724740
  0.5464052875617150  0.5841238134787028  0.4046270710710346
  0.5412871147816679  0.7075690244866154  0.4020484507072712
  0.5411730672529376  0.8327275599698640  0.4001244388888968
  0.5414520302376549  0.9578612249426652  0.3998806994353581
  0.6664024002536710  0.0827257344194560  0.3999742377466678
  0.6666483497030700  0.2078685813357758  0.3999240900480957
  0.6670156598467646  0.3328732581193835  0.3996783876462522
  0.6681669766615983  0.4581615678977349  0.3995685363792847
  0.6691161391038833  0.5839436102020199  0.3999848243618556
  0.6674236881204232  0.7083622881675028  0.4005441799684054
  0.6665569505551380  0.8327238256323450  0.4001065265620211
  0.6663465725414299  0.9576973721337089  0.3999150515747627
  0.7913163165415233  0.0827216031521171  0.3999557856143135
  0.7913743735531392  0.2077559162064307  0.4000425322846814
  0.7916884637611709  0.3329766315491207  0.3999524606966611
  0.7923112986601709  0.4582848997817041  0.3997822241591865
  0.7927071785541293  0.5834825053766427  0.3996361673565975
  0.7927411254573457  0.7088163326374737  0.3996633055160869
  0.7920254267804239  0.8334011463109252  0.3997147125869768
  0.7914064730662307  0.9578583466726279  0.3998573722487911
  0.9163494905148409  0.0829580030919913  0.3998851604609096
  0.9162173853188442  0.2078681431586913  0.3999136487544261
  0.9162818882657745  0.3329779926874565  0.3999632242842706
  0.9165928961687727  0.4581823071745266  0.3999874351258996
  0.9170775589793306  0.5835109379322062  0.3999246360395281
  0.9172163768013714  0.7087364177981637  0.3998445626256612
  0.9171291862744684  0.8337034032906563  0.3998651837145374
  0.9167821267857784  0.9583749502098258  0.3998616527512691
  0.0835906213407368  0.0421392219161941  0.3998808626982792
  0.0829764095772644  0.1665977322643717  0.3997275829915384
  0.0822532146153178  0.2911767937599165  0.3996698002655248
  0.0822903114392535  0.4165143004057442  0.3996523160739683
  0.0826890835140278  0.5417131951585873  0.3998044988026001
  0.0833037621377339  0.6670223969691732  0.3999634610273016
  0.0836178919009047  0.7922439019680104  0.4000426904186366
  0.0836767489851712  0.9172754266007521  0.3999752863607008
  0.2086497009152450  0.0423033875696621  0.3999161333511814
  0.2084450185707044  0.1672720231405880  0.4001245251189426
  0.2075825883398001  0.2916411710530569  0.4005552287568077
  0.2058813509317370  0.4160527521613896  0.3999855048580785
  0.2068344599267119  0.5418380369699158  0.3995741693623768
  0.2079829590152866  0.6671259669272220  0.3996923348579264
  0.2083493007277408  0.7921317318710618  0.3999137916317288
  0.2085940594772252  0.9172782570743316  0.3999559069985435
  0.3335489885576927  0.0421415983940519  0.3998570094862718
  0.3338336513153010  0.1672766953418048  0.4001059499832469
  0.3337182210233976  0.2924308708909855  0.4020484120903053
  0.3286066804799840  0.4158854362506313  0.4046318118373124
  0.3314608238824974  0.5427803738784591  0.4018468261740988
  0.3326047834915862  0.6670912251724141  0.3999690017657861
  0.3330970737120245  0.7920626302228585  0.3997323917514944
  0.3333917443129167  0.9170416398918817  0.3998849905399556
  0.4584074555739353  0.0416243748314618  0.3998610197392377
  0.4586245946690583  0.1665982074608826  0.3997140228357244
  0.4590619702294340  0.2916384036053457  0.4005433701035274
  0.4622814170117602  0.4158749259763124  0.4046280744616905
  0.4571002925507426  0.6658352457116571  0.4024365425296941
  0.4579813520623793  0.7916602972251086  0.3999840323768862
  0.4581812136945390  0.9166332035837712  0.3998187497499509
  0.5831726279976122  0.0411609265906561  0.3999322710866875
  0.5834259629368918  0.1662962466178928  0.3998646897055397
  0.5839242135455659  0.2911824086703369  0.3996629376172534
  0.5851719430810224  0.4160537721282899  0.3999839964113836
  0.5863183896773094  0.5427795676607367  0.4018475992313008
  0.5837425443483294  0.6658402078645127  0.4024311308913926
  0.5827249306490239  0.7904452240123945  0.4005991302707412
  0.5829825615758633  0.9160338642443051  0.3999180121002356
  0.7079752378063782  0.0409563227259066  0.3999445650119225
  0.7081692968936307  0.1661318660081125  0.4000128524103145
  0.7084793317283502  0.2912623829178303  0.3998449908973579
  0.7092276354086289  0.4165223549279025  0.3996369773569294
  0.7100050656762158  0.5418379841479537  0.3995687070783679
  0.7094854600937222  0.6670911985542182  0.3999614502517349
  0.7086791827807859  0.7916589246472818  0.3999685918332502
  0.7080497719522673  0.9160356545609559  0.3999009595674855
  0.8329837380536703  0.0411616196807961  0.3999089570859483
  0.8329593508380690  0.1661260409452809  0.3999993019945154
  0.8331651035891465  0.2913325068495518  0.4000383518644356
  0.8335660512982013  0.4164874455391593  0.3999254635076733
  0.8340255775045572  0.5417134718809686  0.3997815410827386
  0.8341427335959672  0.6671259722440803  0.3996783142974820
  0.8339622466089877  0.7920564200033364  0.3997318671955877
  0.8334476119380090  0.9166277329378688  0.3998015708141745
  0.9582124821979582  0.0416203329836630  0.3998612731222928
  0.9578665055061792  0.1662955322508386  0.3998489994848848
  0.9577785296144129  0.2912589356898263  0.3998552524741382
  0.9579238290400826  0.4164860434625548  0.3999389661498165
  0.9584105800382873  0.5418170630402246  0.3999874835933894
  0.9587113500310003  0.6670227320017181  0.3999522913770437
  0.9587800476769252  0.7921317209105574  0.3999235934913223
  0.9586486051686591  0.9170360613933177  0.3999021831745212
 
  0.00000000E+00  0.00000000E+00  0.00000000E+00
  0.00000000E+00  0.00000000E+00  0.00000000E+00
  0.00000000E+00  0.00000000E+00  0.00000000E+00
  0.00000000E+00  0.00000000E+00  0.00000000E+00
  0.00000000E+00  0.00000000E+00  0.00000000E+00
  0.00000000E+00  0.00000000E+00  0.00000000E+00
  0.00000000E+00  0.00000000E+00  0.00000000E+00
  0.00000000E+00  0.00000000E+00  0.00000000E+00
  0.00000000E+00  0.00000000E+00  0.00000000E+00
  0.00000000E+00  0.00000000E+00  0.00000000E+00
  0.00000000E+00  0.00000000E+00  0.00000000E+00
  0.00000000E+00  0.00000000E+00  0.00000000E+00
  0.00000000E+00  0.00000000E+00  0.00000000E+00
  0.00000000E+00  0.00000000E+00  0.00000000E+00
  0.00000000E+00  0.00000000E+00  0.00000000E+00
  0.00000000E+00  0.00000000E+00  0.00000000E+00
  0.00000000E+00  0.00000000E+00  0.00000000E+00
  0.00000000E+00  0.00000000E+00  0.00000000E+00
  0.00000000E+00  0.00000000E+00  0.00000000E+00
  0.00000000E+00  0.00000000E+00  0.00000000E+00
  0.00000000E+00  0.00000000E+00  0.00000000E+00
  0.00000000E+00  0.00000000E+00  0.00000000E+00
  0.00000000E+00  0.00000000E+00  0.00000000E+00
  0.00000000E+00  0.00000000E+00  0.00000000E+00
  0.00000000E+00  0.00000000E+00  0.00000000E+00
  0.00000000E+00  0.00000000E+00  0.00000000E+00
  0.00000000E+00  0.00000000E+00  0.00000000E+00
  0.00000000E+00  0.00000000E+00  0.00000000E+00
  0.00000000E+00  0.00000000E+00  0.00000000E+00
  0.00000000E+00  0.00000000E+00  0.00000000E+00
  0.00000000E+00  0.00000000E+00  0.00000000E+00
  0.00000000E+00  0.00000000E+00  0.00000000E+00
  0.00000000E+00  0.00000000E+00  0.00000000E+00
  0.00000000E+00  0.00000000E+00  0.00000000E+00
  0.00000000E+00  0.00000000E+00  0.00000000E+00
  0.00000000E+00  0.00000000E+00  0.00000000E+00
  0.00000000E+00  0.00000000E+00  0.00000000E+00
  0.00000000E+00  0.00000000E+00  0.00000000E+00
  0.00000000E+00  0.00000000E+00  0.00000000E+00
  0.00000000E+00  0.00000000E+00  0.00000000E+00
  0.00000000E+00  0.00000000E+00  0.00000000E+00
  0.00000000E+00  0.00000000E+00  0.00000000E+00
  0.00000000E+00  0.00000000E+00  0.00000000E+00
  0.00000000E+00  0.00000000E+00  0.00000000E+00
  0.00000000E+00  0.00000000E+00  0.00000000E+00
  0.00000000E+00  0.00000000E+00  0.00000000E+00
  0.00000000E+00  0.00000000E+00  0.00000000E+00
  0.00000000E+00  0.00000000E+00  0.00000000E+00
  0.00000000E+00  0.00000000E+00  0.00000000E+00
  0.00000000E+00  0.00000000E+00  0.00000000E+00
  0.00000000E+00  0.00000000E+00  0.00000000E+00
  0.00000000E+00  0.00000000E+00  0.00000000E+00
  0.00000000E+00  0.00000000E+00  0.00000000E+00
  0.00000000E+00  0.00000000E+00  0.00000000E+00
  0.00000000E+00  0.00000000E+00  0.00000000E+00
  0.00000000E+00  0.00000000E+00  0.00000000E+00
  0.00000000E+00  0.00000000E+00  0.00000000E+00
  0.00000000E+00  0.00000000E+00  0.00000000E+00
  0.00000000E+00  0.00000000E+00  0.00000000E+00
  0.00000000E+00  0.00000000E+00  0.00000000E+00
  0.00000000E+00  0.00000000E+00  0.00000000E+00
  0.00000000E+00  0.00000000E+00  0.00000000E+00
  0.00000000E+00  0.00000000E+00  0.00000000E+00
  0.00000000E+00  0.00000000E+00  0.00000000E+00
  0.00000000E+00  0.00000000E+00  0.00000000E+00
  0.00000000E+00  0.00000000E+00  0.00000000E+00
  0.00000000E+00  0.00000000E+00  0.00000000E+00
  0.00000000E+00  0.00000000E+00  0.00000000E+00
  0.00000000E+00  0.00000000E+00  0.00000000E+00
  0.00000000E+00  0.00000000E+00  0.00000000E+00
  0.00000000E+00  0.00000000E+00  0.00000000E+00
  0.00000000E+00  0.00000000E+00  0.00000000E+00
  0.00000000E+00  0.00000000E+00  0.00000000E+00
  0.00000000E+00  0.00000000E+00  0.00000000E+00
  0.00000000E+00  0.00000000E+00  0.00000000E+00
  0.00000000E+00  0.00000000E+00  0.00000000E+00
  0.00000000E+00  0.00000000E+00  0.00000000E+00
  0.00000000E+00  0.00000000E+00  0.00000000E+00
  0.00000000E+00  0.00000000E+00  0.00000000E+00
  0.00000000E+00  0.00000000E+00  0.00000000E+00
  0.00000000E+00  0.00000000E+00  0.00000000E+00
  0.00000000E+00  0.00000000E+00  0.00000000E+00
  0.00000000E+00  0.00000000E+00  0.00000000E+00
  0.00000000E+00  0.00000000E+00  0.00000000E+00
  0.00000000E+00  0.00000000E+00  0.00000000E+00
  0.00000000E+00  0.00000000E+00  0.00000000E+00
  0.00000000E+00  0.00000000E+00  0.00000000E+00
  0.00000000E+00  0.00000000E+00  0.00000000E+00
  0.00000000E+00  0.00000000E+00  0.00000000E+00
  0.00000000E+00  0.00000000E+00  0.00000000E+00
  0.00000000E+00  0.00000000E+00  0.00000000E+00
  0.00000000E+00  0.00000000E+00  0.00000000E+00
  0.00000000E+00  0.00000000E+00  0.00000000E+00
  0.00000000E+00  0.00000000E+00  0.00000000E+00
  0.00000000E+00  0.00000000E+00  0.00000000E+00
  0.00000000E+00  0.00000000E+00  0.00000000E+00
  0.00000000E+00  0.00000000E+00  0.00000000E+00
  0.00000000E+00  0.00000000E+00  0.00000000E+00
  0.00000000E+00  0.00000000E+00  0.00000000E+00
  0.00000000E+00  0.00000000E+00  0.00000000E+00
  0.00000000E+00  0.00000000E+00  0.00000000E+00
  0.00000000E+00  0.00000000E+00  0.00000000E+00
  0.00000000E+00  0.00000000E+00  0.00000000E+00
  0.00000000E+00  0.00000000E+00  0.00000000E+00
  0.00000000E+00  0.00000000E+00  0.00000000E+00
  0.00000000E+00  0.00000000E+00  0.00000000E+00
  0.00000000E+00  0.00000000E+00  0.00000000E+00
  0.00000000E+00  0.00000000E+00  0.00000000E+00
  0.00000000E+00  0.00000000E+00  0.00000000E+00
  0.00000000E+00  0.00000000E+00  0.00000000E+00
  0.00000000E+00  0.00000000E+00  0.00000000E+00
  0.00000000E+00  0.00000000E+00  0.00000000E+00
  0.00000000E+00  0.00000000E+00  0.00000000E+00
  0.00000000E+00  0.00000000E+00  0.00000000E+00
  0.00000000E+00  0.00000000E+00  0.00000000E+00
  0.00000000E+00  0.00000000E+00  0.00000000E+00
  0.00000000E+00  0.00000000E+00  0.00000000E+00
  0.00000000E+00  0.00000000E+00  0.00000000E+00
  0.00000000E+00  0.00000000E+00  0.00000000E+00
  0.00000000E+00  0.00000000E+00  0.00000000E+00
  0.00000000E+00  0.00000000E+00  0.00000000E+00
  0.00000000E+00  0.00000000E+00  0.00000000E+00
  0.00000000E+00  0.00000000E+00  0.00000000E+00
  0.00000000E+00  0.00000000E+00  0.00000000E+00
  0.00000000E+00  0.00000000E+00  0.00000000E+00
  0.00000000E+00  0.00000000E+00  0.00000000E+00
  0.00000000E+00  0.00000000E+00  0.00000000E+00
