Zr1 C126 O1                             
   1.00000000000000     
    19.7569779988420748   -0.0005452775628760   -0.0739179089692614
    -9.8787362063829711   17.1142697263754755   -0.1372809358160500
    -0.1112360601922277   -0.3023991962574092   29.7633007532309186
   Zr   C    O 
     1   126     1
Direct
  0.4407777328058203  0.5026601027335846  0.4486320151232985
  0.0415687728220692  0.0833113144520261  0.3991806215248718
  0.0413694270200715  0.2081528140364651  0.3990469342718385
  0.0414325187393893  0.3332201773509226  0.3987222782971236
  0.0415808017623661  0.4584928213829816  0.3986801326355768
  0.0417009670420971  0.5835356468346882  0.3990076102542161
  0.0418306973259563  0.7085517274748383  0.3993272922205294
  0.0419115392209833  0.8336326806962814  0.3993506717750415
  0.0418634423594102  0.9585515829828677  0.3992243132770034
  0.1667007193470654  0.0834522693905565  0.3997763874587066
  0.1662698797662357  0.2079392367511461  0.4005001456901687
  0.1662144087786085  0.3331381692379264  0.4003466548218997
  0.1662682158248386  0.4583321533582481  0.3989284812389498
  0.1665365585944301  0.5835044281652473  0.3985552256469840
  0.1667117040087154  0.7086368928999383  0.3989781952713884
  0.1668052325398286  0.8336251652890722  0.3992951857571146
  0.1668671255521769  0.9586512350280361  0.3993020300450593
  0.2918538871005317  0.0834855390007479  0.3997488829051321
  0.2919003426768000  0.2087188716627514  0.4020731106182014
  0.2909910083573290  0.3331370405116663  0.4052183553705747
  0.2911568311886765  0.4575369346164258  0.4034562022342640
  0.2913351954981312  0.5839661436134094  0.3998145006820403
  0.2915436027831206  0.7087997267129922  0.3988459014653556
  0.2917533112703460  0.8336719623337584  0.3990825523929535
  0.2917876671854939  0.9585764020471526  0.3992091906548486
  0.4168572126081157  0.0833502918467298  0.3992458830381073
  0.4167551707198466  0.2079602005196579  0.4004234951401609
  0.4172298215589257  0.3331420771418495  0.4044266717070513
  0.4156270625900339  0.5862755801903324  0.4077518363188720
  0.4167049276963795  0.7091982564857119  0.4005043223876918
  0.4167198061702549  0.8338370037479284  0.3991773709098091
  0.4167309914196539  0.9585300986400312  0.3991719798903052
  0.5417801939492163  0.0833402212274879  0.3992053607397967
  0.5418655715758091  0.2081749290709603  0.3991552142798555
  0.5419784665161751  0.3331449900061057  0.4000676690668630
  0.5414468779608957  0.4574967426859047  0.4020610142776773
  0.5457023243205117  0.5860697924841162  0.4059014945988573
  0.5422322931877703  0.7093324366642195  0.4028810324190396
  0.5416867220939309  0.8337168946933212  0.4000628983132128
  0.5417820303326871  0.9585177886760216  0.3994308063562920
  0.6667334289689654  0.0833647128862845  0.3994872400462113
  0.6668358970362396  0.2083274018299922  0.3991066517073430
  0.6668388621754854  0.3332083739681361  0.3988477433585174
  0.6671076467169080  0.4583002199369066  0.3988353439263057
  0.6677236343819175  0.5839411289854595  0.3993583955272956
  0.6675651745828736  0.7091642255962807  0.4001379147383674
  0.6671072019991621  0.8336881312383030  0.3999962652011547
  0.6668050138043652  0.9585207852775052  0.3996712844473381
  0.7917418033266860  0.0833577144451474  0.3994775388786890
  0.7917096668789649  0.2083220601701370  0.3993149798915339
  0.7918241718389673  0.3333778065535479  0.3990535790604786
  0.7919701597904132  0.4584728325670633  0.3988359197277642
  0.7920268765373244  0.5834908729580330  0.3986428143548427
  0.7923309075490652  0.7087830597107987  0.3988952932535637
  0.7922103659350495  0.8338153745004211  0.3992588369008960
  0.7918141317268904  0.9584880481224752  0.3994478236125217
  0.9166668126751667  0.0833292793520966  0.3991557039362040
  0.9165702532827223  0.2083293270468560  0.3990642951290199
  0.9166463408560473  0.3333872328599159  0.3989969318512031
  0.9167497980043888  0.4584167616224705  0.3990269560286951
  0.9169261340001197  0.5835358723956078  0.3990888524067857
  0.9170256653307433  0.7086457146769003  0.3990955789913942
  0.9170047589459053  0.8336576330858079  0.3992063105692784
  0.9168801933169005  0.9585027558367609  0.3992067044646371
  0.0834151347670306  0.0417830421661366  0.3993109075850073
  0.0830109184980920  0.1664359285201415  0.3993577041250622
  0.0828667369042426  0.2914690644415499  0.3991031176413595
  0.0831538596689092  0.4167479040600284  0.3985947938979670
  0.0832237947375062  0.5417871860784392  0.3987132319394794
  0.0834157033493101  0.6669160277682651  0.3991432286223295
  0.0835449796496263  0.7920032921841725  0.3993647470056139
  0.0835156304727893  0.9169533564989759  0.3992933966876041
  0.2084546853875001  0.0418013333138142  0.3995789550752648
  0.2081551940005850  0.1666516898699875  0.4008375849969047
  0.2076881328438844  0.2911944641841755  0.4016995227801773
  0.2075088196410456  0.4163537400754125  0.4003516470730155
  0.2080666726356541  0.5419122656789125  0.3987990094871106
  0.2083515901847477  0.6670357503570603  0.3986870900922290
  0.2084023884994770  0.7919687131870937  0.3991459673120473
  0.2085370633682073  0.9169609321336428  0.3992681357362088
  0.3334807816765886  0.0418269350297860  0.3993238007439096
  0.3335931907379975  0.1666813900122900  0.4007403458619225
  0.3331827734211010  0.2912512047543945  0.4046856520672178
  0.3296826126280842  0.4146804270677807  0.4091113515949820
  0.3339199716088024  0.5429863670682897  0.4029342605229108
  0.3332531668959322  0.6671780383911354  0.3996116499513287
  0.3333619795705352  0.7921161576619008  0.3989824161075847
  0.3334746814065085  0.9169672771866911  0.3991534333806195
  0.4585302788923613  0.0417733684727424  0.3991639177239266
  0.4585308389898237  0.1664720495166226  0.3994350396431637
  0.4585769310161935  0.2911934717220661  0.4013059872942432
  0.4601566130779706  0.4147347280863593  0.4072736409832203
  0.4582167377339404  0.6674712413047861  0.4035245769847438
  0.4585203715369676  0.7923971144852511  0.3997367395842845
  0.4584083887072795  0.9169705580534560  0.3992467017769802
  0.5834947710881522  0.0417585286206549  0.3993921806561756
  0.5834930372514588  0.1666199831939874  0.3990866797048062
  0.5836683009772576  0.2914744856979071  0.3991546680005313
  0.5839160665579715  0.4163174380556759  0.3998576284172899
  0.5841361799436513  0.5429106707528775  0.4015633527274158
  0.5843382120168653  0.6674103885575909  0.4027573720026115
  0.5834177580365486  0.7917266216113826  0.4008106315335068
  0.5834134618949163  0.9168722648529812  0.3996529063957854
  0.7083932517289965  0.0416716938835029  0.3995899771619617
  0.7084536243718181  0.1666887412941315  0.3993399448239613
  0.7085257398755928  0.2916337527825032  0.3989497809308808
  0.7086569811769553  0.4167299401927908  0.3987277905661729
  0.7089211122424632  0.5419046695573471  0.3987083482659128
  0.7089891221694409  0.6671406821435494  0.3993494032583429
  0.7089720223134232  0.7923727531448368  0.3996773656354740
  0.7085430521359455  0.9168524764995860  0.3996539714155057
  0.8333647094719733  0.0417306783073801  0.3993831188671235
  0.8333254159945119  0.1666863149817968  0.3993255612539916
  0.8334279402796279  0.2917603935842152  0.3991686183906354
  0.8335312991587537  0.4167592748815530  0.3990031127475627
  0.8336333753280828  0.5417788559232948  0.3988521481661108
  0.8337654888627716  0.6670281500532750  0.3987885982481524
  0.8338304627617951  0.7920824040871743  0.3991032615744656
  0.8336284458469050  0.9169244958556827  0.3993130811773677
  0.9583259769781619  0.0417339604174072  0.3991177903430054
  0.9581980618050484  0.1666009797272330  0.3990118385588842
  0.9581872797684393  0.2916383201785926  0.3988714751653255
  0.9583067659092368  0.4167649757599426  0.3989088303171810
  0.9584833948484082  0.5418881016767463  0.3990816107859152
  0.9585985136517222  0.6669203006454586  0.3992116933918050
  0.9586510201120921  0.7919565432549693  0.3992611729032648
  0.9585616022092411  0.9169321472912669  0.3992137618944871
  0.4473599687910862  0.5057103249343295  0.5091078913531943
 
  0.00000000E+00  0.00000000E+00  0.00000000E+00
  0.00000000E+00  0.00000000E+00  0.00000000E+00
  0.00000000E+00  0.00000000E+00  0.00000000E+00
  0.00000000E+00  0.00000000E+00  0.00000000E+00
  0.00000000E+00  0.00000000E+00  0.00000000E+00
  0.00000000E+00  0.00000000E+00  0.00000000E+00
  0.00000000E+00  0.00000000E+00  0.00000000E+00
  0.00000000E+00  0.00000000E+00  0.00000000E+00
  0.00000000E+00  0.00000000E+00  0.00000000E+00
  0.00000000E+00  0.00000000E+00  0.00000000E+00
  0.00000000E+00  0.00000000E+00  0.00000000E+00
  0.00000000E+00  0.00000000E+00  0.00000000E+00
  0.00000000E+00  0.00000000E+00  0.00000000E+00
  0.00000000E+00  0.00000000E+00  0.00000000E+00
  0.00000000E+00  0.00000000E+00  0.00000000E+00
  0.00000000E+00  0.00000000E+00  0.00000000E+00
  0.00000000E+00  0.00000000E+00  0.00000000E+00
  0.00000000E+00  0.00000000E+00  0.00000000E+00
  0.00000000E+00  0.00000000E+00  0.00000000E+00
  0.00000000E+00  0.00000000E+00  0.00000000E+00
  0.00000000E+00  0.00000000E+00  0.00000000E+00
  0.00000000E+00  0.00000000E+00  0.00000000E+00
  0.00000000E+00  0.00000000E+00  0.00000000E+00
  0.00000000E+00  0.00000000E+00  0.00000000E+00
  0.00000000E+00  0.00000000E+00  0.00000000E+00
  0.00000000E+00  0.00000000E+00  0.00000000E+00
  0.00000000E+00  0.00000000E+00  0.00000000E+00
  0.00000000E+00  0.00000000E+00  0.00000000E+00
  0.00000000E+00  0.00000000E+00  0.00000000E+00
  0.00000000E+00  0.00000000E+00  0.00000000E+00
  0.00000000E+00  0.00000000E+00  0.00000000E+00
  0.00000000E+00  0.00000000E+00  0.00000000E+00
  0.00000000E+00  0.00000000E+00  0.00000000E+00
  0.00000000E+00  0.00000000E+00  0.00000000E+00
  0.00000000E+00  0.00000000E+00  0.00000000E+00
  0.00000000E+00  0.00000000E+00  0.00000000E+00
  0.00000000E+00  0.00000000E+00  0.00000000E+00
  0.00000000E+00  0.00000000E+00  0.00000000E+00
  0.00000000E+00  0.00000000E+00  0.00000000E+00
  0.00000000E+00  0.00000000E+00  0.00000000E+00
  0.00000000E+00  0.00000000E+00  0.00000000E+00
  0.00000000E+00  0.00000000E+00  0.00000000E+00
  0.00000000E+00  0.00000000E+00  0.00000000E+00
  0.00000000E+00  0.00000000E+00  0.00000000E+00
  0.00000000E+00  0.00000000E+00  0.00000000E+00
  0.00000000E+00  0.00000000E+00  0.00000000E+00
  0.00000000E+00  0.00000000E+00  0.00000000E+00
  0.00000000E+00  0.00000000E+00  0.00000000E+00
  0.00000000E+00  0.00000000E+00  0.00000000E+00
  0.00000000E+00  0.00000000E+00  0.00000000E+00
  0.00000000E+00  0.00000000E+00  0.00000000E+00
  0.00000000E+00  0.00000000E+00  0.00000000E+00
  0.00000000E+00  0.00000000E+00  0.00000000E+00
  0.00000000E+00  0.00000000E+00  0.00000000E+00
  0.00000000E+00  0.00000000E+00  0.00000000E+00
  0.00000000E+00  0.00000000E+00  0.00000000E+00
  0.00000000E+00  0.00000000E+00  0.00000000E+00
  0.00000000E+00  0.00000000E+00  0.00000000E+00
  0.00000000E+00  0.00000000E+00  0.00000000E+00
  0.00000000E+00  0.00000000E+00  0.00000000E+00
  0.00000000E+00  0.00000000E+00  0.00000000E+00
  0.00000000E+00  0.00000000E+00  0.00000000E+00
  0.00000000E+00  0.00000000E+00  0.00000000E+00
  0.00000000E+00  0.00000000E+00  0.00000000E+00
  0.00000000E+00  0.00000000E+00  0.00000000E+00
  0.00000000E+00  0.00000000E+00  0.00000000E+00
  0.00000000E+00  0.00000000E+00  0.00000000E+00
  0.00000000E+00  0.00000000E+00  0.00000000E+00
  0.00000000E+00  0.00000000E+00  0.00000000E+00
  0.00000000E+00  0.00000000E+00  0.00000000E+00
  0.00000000E+00  0.00000000E+00  0.00000000E+00
  0.00000000E+00  0.00000000E+00  0.00000000E+00
  0.00000000E+00  0.00000000E+00  0.00000000E+00
  0.00000000E+00  0.00000000E+00  0.00000000E+00
  0.00000000E+00  0.00000000E+00  0.00000000E+00
  0.00000000E+00  0.00000000E+00  0.00000000E+00
  0.00000000E+00  0.00000000E+00  0.00000000E+00
  0.00000000E+00  0.00000000E+00  0.00000000E+00
  0.00000000E+00  0.00000000E+00  0.00000000E+00
  0.00000000E+00  0.00000000E+00  0.00000000E+00
  0.00000000E+00  0.00000000E+00  0.00000000E+00
  0.00000000E+00  0.00000000E+00  0.00000000E+00
  0.00000000E+00  0.00000000E+00  0.00000000E+00
  0.00000000E+00  0.00000000E+00  0.00000000E+00
  0.00000000E+00  0.00000000E+00  0.00000000E+00
  0.00000000E+00  0.00000000E+00  0.00000000E+00
  0.00000000E+00  0.00000000E+00  0.00000000E+00
  0.00000000E+00  0.00000000E+00  0.00000000E+00
  0.00000000E+00  0.00000000E+00  0.00000000E+00
  0.00000000E+00  0.00000000E+00  0.00000000E+00
  0.00000000E+00  0.00000000E+00  0.00000000E+00
  0.00000000E+00  0.00000000E+00  0.00000000E+00
  0.00000000E+00  0.00000000E+00  0.00000000E+00
  0.00000000E+00  0.00000000E+00  0.00000000E+00
  0.00000000E+00  0.00000000E+00  0.00000000E+00
  0.00000000E+00  0.00000000E+00  0.00000000E+00
  0.00000000E+00  0.00000000E+00  0.00000000E+00
  0.00000000E+00  0.00000000E+00  0.00000000E+00
  0.00000000E+00  0.00000000E+00  0.00000000E+00
  0.00000000E+00  0.00000000E+00  0.00000000E+00
  0.00000000E+00  0.00000000E+00  0.00000000E+00
  0.00000000E+00  0.00000000E+00  0.00000000E+00
  0.00000000E+00  0.00000000E+00  0.00000000E+00
  0.00000000E+00  0.00000000E+00  0.00000000E+00
  0.00000000E+00  0.00000000E+00  0.00000000E+00
  0.00000000E+00  0.00000000E+00  0.00000000E+00
  0.00000000E+00  0.00000000E+00  0.00000000E+00
  0.00000000E+00  0.00000000E+00  0.00000000E+00
  0.00000000E+00  0.00000000E+00  0.00000000E+00
  0.00000000E+00  0.00000000E+00  0.00000000E+00
  0.00000000E+00  0.00000000E+00  0.00000000E+00
  0.00000000E+00  0.00000000E+00  0.00000000E+00
  0.00000000E+00  0.00000000E+00  0.00000000E+00
  0.00000000E+00  0.00000000E+00  0.00000000E+00
  0.00000000E+00  0.00000000E+00  0.00000000E+00
  0.00000000E+00  0.00000000E+00  0.00000000E+00
  0.00000000E+00  0.00000000E+00  0.00000000E+00
  0.00000000E+00  0.00000000E+00  0.00000000E+00
  0.00000000E+00  0.00000000E+00  0.00000000E+00
  0.00000000E+00  0.00000000E+00  0.00000000E+00
  0.00000000E+00  0.00000000E+00  0.00000000E+00
  0.00000000E+00  0.00000000E+00  0.00000000E+00
  0.00000000E+00  0.00000000E+00  0.00000000E+00
  0.00000000E+00  0.00000000E+00  0.00000000E+00
  0.00000000E+00  0.00000000E+00  0.00000000E+00
  0.00000000E+00  0.00000000E+00  0.00000000E+00
  0.00000000E+00  0.00000000E+00  0.00000000E+00
  0.00000000E+00  0.00000000E+00  0.00000000E+00
