Cd1 H1 C126 O1                          
   1.00000000000000     
    19.7514884312217092   -0.0001435685526909    0.0021971469426005
    -9.8758799797685182   17.1082192924447831    0.0579464507584732
     0.0032496782972124    0.1024245670851075   29.7786116540495946
   Cd   H    C    O 
     1     1   126     1
Direct
  0.4371494309610681  0.4986898530047792  0.4461098877050246
  0.4790631772361433  0.5555416705687590  0.5253319478610670
  0.0415316158764091  0.0832462317886354  0.3994840370960691
  0.0413277370912095  0.2080910134843231  0.3991740507438715
  0.0413741702784255  0.3330734067927421  0.3983194264821872
  0.0415324223249533  0.4583126563059094  0.3980557904948274
  0.0416053686667491  0.5833580184766489  0.3982929586026934
  0.0416988686161741  0.7084116177673592  0.3985989454134022
  0.0418083501320846  0.8334855519167137  0.3989661582016134
  0.0417470696023449  0.9584219909524977  0.3992980957742155
  0.1666103847861373  0.0833921325075477  0.4005270182626467
  0.1663396652404088  0.2080276582223210  0.4010399238779866
  0.1662331062067189  0.3330020905472186  0.3996176365537414
  0.1663179423507293  0.4582060248795942  0.3975352476983272
  0.1665559044550857  0.5833390687186965  0.3978944559066561
  0.1666043968042440  0.7084880533640692  0.3985520445524561
  0.1666845311328240  0.8335039325669206  0.3988929976701102
  0.1667473968244323  0.9585167717708510  0.3995358338786297
  0.2917376352803903  0.0834011867334868  0.4005653449669062
  0.2917051132350788  0.2084906126856440  0.4029368992044224
  0.2913520521825803  0.3332454364946276  0.4053911335569407
  0.2910356410398942  0.4575987449949759  0.4020080606666332
  0.2914991570345521  0.5837867012573711  0.3987177603940103
  0.2914688362866796  0.7085929887768437  0.3988399101385355
  0.2915945477484905  0.8334807960026425  0.3990288458882995
  0.2916693382989233  0.9584365982728675  0.3993044924251614
  0.4166952196368967  0.0832496900220168  0.3995708054550156
  0.4166329650501825  0.2079911648310594  0.4010646063639738
  0.4167565705183489  0.3331396297689287  0.4048808581633170
  0.4147291454816567  0.5852952933161463  0.4073214306594434
  0.4163701273962589  0.7085793515952611  0.4017652272814796
  0.4165246613231393  0.8334452812851095  0.3997746751365092
  0.4165908211863224  0.9583377288381582  0.3992338760409301
  0.5416264415830104  0.0831497971112032  0.3991738465144055
  0.5417449123089493  0.2080783179612455  0.3992649010634856
  0.5417024155729669  0.3329807600068971  0.3996292241824796
  0.5414279185397034  0.4575712217397829  0.4014018025270451
  0.5454631550337811  0.5854231050709126  0.4058242897119204
  0.5418821213163131  0.7088726127294280  0.4049136075969790
  0.5414658987873253  0.8333452309725774  0.4016984064569818
  0.5415621589626143  0.9582192520087917  0.3997842885007128
  0.6665371720184797  0.0830984408014336  0.3992735240182267
  0.6666585497245091  0.2081166018289791  0.3989184679140885
  0.6666533402240521  0.3330581723790745  0.3984101822808058
  0.6668460276843253  0.4581970226283774  0.3976813278044443
  0.6672253802335624  0.5837699225026596  0.3987847926572102
  0.6671949427758622  0.7086141720466507  0.4017072210025318
  0.6668342714264479  0.8333273231932842  0.4017192576007779
  0.6665673439904117  0.9581674193075223  0.4003432050136144
  0.7915235844917967  0.0830909559985234  0.3992118135780761
  0.7915207036786818  0.2080770632338787  0.3988134021646444
  0.7916470309410488  0.3331895706316417  0.3985082779685259
  0.7917330968425159  0.4583055203275880  0.3980603381717130
  0.7917400232918805  0.5833419922640473  0.3979987330049233
  0.7920953154819319  0.7085856789062864  0.3990101272941961
  0.7919068929517505  0.8334402621283005  0.3998707501324682
  0.7916147918488946  0.9582084115219099  0.3997745522260212
  0.9164999701276980  0.0831517540567955  0.3991212146341724
  0.9164318166054928  0.2081242810025753  0.3988061275110470
  0.9165087924790297  0.3332017046070833  0.3984765320368952
  0.9166003416434189  0.4582406635287514  0.3982859730984523
  0.9167261778910218  0.5833751125282580  0.3982939213935393
  0.9168395027128249  0.7084769553360836  0.3986164124567666
  0.9168688100898938  0.8334586259254551  0.3990638346542942
  0.9167127779357812  0.9583152276890780  0.3991965969794646
  0.0833021100954558  0.0416936573307259  0.3997175845162914
  0.0830256512069022  0.1664662151033399  0.3997155433496528
  0.0828076013195895  0.2913319174192461  0.3988214055313270
  0.0831472126489214  0.4166180363719237  0.3978682461771021
  0.0832190574011513  0.5416551079936989  0.3980565028979596
  0.0833086976026878  0.6667619351205282  0.3984704071705399
  0.0834303439542008  0.7918610290713868  0.3988091375655588
  0.0834002293253534  0.9168198448872624  0.3992544288415201
  0.2083476234405336  0.0417330421134513  0.4002814803763653
  0.2080675983769230  0.1665518627459076  0.4016754560987852
  0.2076832723013695  0.2912856519136868  0.4018069184154022
  0.2075594640075894  0.4161520618641836  0.3986699032601907
  0.2081563181366275  0.5417680401214577  0.3975907895001560
  0.2083058224635128  0.6668725965631523  0.3983380920443613
  0.2083067476111385  0.7918164089959244  0.3988192543314193
  0.2084089801262884  0.9168327940629358  0.3992150581133109
  0.3333668197463231  0.0417151133063033  0.3997636321040539
  0.3334293261697454  0.1665595471873610  0.4016767318672244
  0.3329422191618949  0.2909905022439333  0.4051989590281259
  0.3288269922747532  0.4143871286238753  0.4081640591393444
  0.3335388932695125  0.5422350070116456  0.4018486441684795
  0.3332446092260017  0.6669124766958558  0.3996281428213093
  0.3332145236004590  0.7918384016905889  0.3992051592163344
  0.3333224303812939  0.9167777534682989  0.3991532793780135
  0.4583609642392413  0.0415994580314200  0.3992391638434384
  0.4584148588986260  0.1664569565207515  0.3998094724972585
  0.4585343556583829  0.2912099282740723  0.4016512672583019
  0.4603666287349998  0.4142120376931112  0.4068226539764849
  0.4580798019575366  0.6665350027642161  0.4050327664464704
  0.4582743961853574  0.7918630608017875  0.4010685948609148
  0.4582510250503434  0.9166682833820050  0.3995477556279104
  0.5832822730229046  0.0414887230158764  0.3993399747554794
  0.5833745396299472  0.1664647986690473  0.3990797642022297
  0.5834932813484254  0.2913224684637449  0.3989307526895025
  0.5835407021631305  0.4161240437042212  0.3986900593526868
  0.5835469890689778  0.5422194913727516  0.4012233863093362
  0.5833738677529887  0.6665937848252842  0.4045027554432600
  0.5831778339269152  0.7914230691215585  0.4029173665679864
  0.5831782343627956  0.9165212704551693  0.4005958624798200
  0.7081865444079199  0.0413910090419335  0.3995593283755753
  0.7082928741055818  0.1664369032956340  0.3989856559374934
  0.7083524077281995  0.2914635895212095  0.3986187328411464
  0.7084160465244406  0.4166091205078533  0.3979374079760826
  0.7085513236950333  0.5417551224007014  0.3977663830773803
  0.7086090362140285  0.6668920181570369  0.3997251229434501
  0.7085638749408270  0.7918751828886583  0.4011676459965838
  0.7082995301817745  0.9165028069318878  0.4006079533458525
  0.8332007215611864  0.0415030632229224  0.3992932937847070
  0.8331324519984584  0.1664282774677781  0.3988898725827666
  0.8332643531518866  0.2915408167062871  0.3986152297593388
  0.8333486552447243  0.4165977011397342  0.3983080775301621
  0.8333997592267955  0.5416602479999866  0.3980674272379814
  0.8335277775804463  0.6668733994290175  0.3984704228875706
  0.8336006688785557  0.7918228101351074  0.3993038370640890
  0.8333891983945586  0.9166607941149646  0.3995623022060908
  0.9582063845386560  0.0415877251125620  0.3991810960377737
  0.9580691012308017  0.1664571979742861  0.3990028020975766
  0.9580729234002776  0.2914622851401418  0.3985442278905746
  0.9582119079367022  0.4166060284475014  0.3983010049836235
  0.9583484130261314  0.5417260524065006  0.3982790756509552
  0.9584300679726153  0.6667637764374429  0.3984893462043357
  0.9584980137735075  0.7918110681765320  0.3989058222842169
  0.9584384898555046  0.9167806152322190  0.3991343716200956
  0.4493951291011157  0.5016447786246232  0.5150818121926537
 
  0.00000000E+00  0.00000000E+00  0.00000000E+00
  0.00000000E+00  0.00000000E+00  0.00000000E+00
  0.00000000E+00  0.00000000E+00  0.00000000E+00
  0.00000000E+00  0.00000000E+00  0.00000000E+00
  0.00000000E+00  0.00000000E+00  0.00000000E+00
  0.00000000E+00  0.00000000E+00  0.00000000E+00
  0.00000000E+00  0.00000000E+00  0.00000000E+00
  0.00000000E+00  0.00000000E+00  0.00000000E+00
  0.00000000E+00  0.00000000E+00  0.00000000E+00
  0.00000000E+00  0.00000000E+00  0.00000000E+00
  0.00000000E+00  0.00000000E+00  0.00000000E+00
  0.00000000E+00  0.00000000E+00  0.00000000E+00
  0.00000000E+00  0.00000000E+00  0.00000000E+00
  0.00000000E+00  0.00000000E+00  0.00000000E+00
  0.00000000E+00  0.00000000E+00  0.00000000E+00
  0.00000000E+00  0.00000000E+00  0.00000000E+00
  0.00000000E+00  0.00000000E+00  0.00000000E+00
  0.00000000E+00  0.00000000E+00  0.00000000E+00
  0.00000000E+00  0.00000000E+00  0.00000000E+00
  0.00000000E+00  0.00000000E+00  0.00000000E+00
  0.00000000E+00  0.00000000E+00  0.00000000E+00
  0.00000000E+00  0.00000000E+00  0.00000000E+00
  0.00000000E+00  0.00000000E+00  0.00000000E+00
  0.00000000E+00  0.00000000E+00  0.00000000E+00
  0.00000000E+00  0.00000000E+00  0.00000000E+00
  0.00000000E+00  0.00000000E+00  0.00000000E+00
  0.00000000E+00  0.00000000E+00  0.00000000E+00
  0.00000000E+00  0.00000000E+00  0.00000000E+00
  0.00000000E+00  0.00000000E+00  0.00000000E+00
  0.00000000E+00  0.00000000E+00  0.00000000E+00
  0.00000000E+00  0.00000000E+00  0.00000000E+00
  0.00000000E+00  0.00000000E+00  0.00000000E+00
  0.00000000E+00  0.00000000E+00  0.00000000E+00
  0.00000000E+00  0.00000000E+00  0.00000000E+00
  0.00000000E+00  0.00000000E+00  0.00000000E+00
  0.00000000E+00  0.00000000E+00  0.00000000E+00
  0.00000000E+00  0.00000000E+00  0.00000000E+00
  0.00000000E+00  0.00000000E+00  0.00000000E+00
  0.00000000E+00  0.00000000E+00  0.00000000E+00
  0.00000000E+00  0.00000000E+00  0.00000000E+00
  0.00000000E+00  0.00000000E+00  0.00000000E+00
  0.00000000E+00  0.00000000E+00  0.00000000E+00
  0.00000000E+00  0.00000000E+00  0.00000000E+00
  0.00000000E+00  0.00000000E+00  0.00000000E+00
  0.00000000E+00  0.00000000E+00  0.00000000E+00
  0.00000000E+00  0.00000000E+00  0.00000000E+00
  0.00000000E+00  0.00000000E+00  0.00000000E+00
  0.00000000E+00  0.00000000E+00  0.00000000E+00
  0.00000000E+00  0.00000000E+00  0.00000000E+00
  0.00000000E+00  0.00000000E+00  0.00000000E+00
  0.00000000E+00  0.00000000E+00  0.00000000E+00
  0.00000000E+00  0.00000000E+00  0.00000000E+00
  0.00000000E+00  0.00000000E+00  0.00000000E+00
  0.00000000E+00  0.00000000E+00  0.00000000E+00
  0.00000000E+00  0.00000000E+00  0.00000000E+00
  0.00000000E+00  0.00000000E+00  0.00000000E+00
  0.00000000E+00  0.00000000E+00  0.00000000E+00
  0.00000000E+00  0.00000000E+00  0.00000000E+00
  0.00000000E+00  0.00000000E+00  0.00000000E+00
  0.00000000E+00  0.00000000E+00  0.00000000E+00
  0.00000000E+00  0.00000000E+00  0.00000000E+00
  0.00000000E+00  0.00000000E+00  0.00000000E+00
  0.00000000E+00  0.00000000E+00  0.00000000E+00
  0.00000000E+00  0.00000000E+00  0.00000000E+00
  0.00000000E+00  0.00000000E+00  0.00000000E+00
  0.00000000E+00  0.00000000E+00  0.00000000E+00
  0.00000000E+00  0.00000000E+00  0.00000000E+00
  0.00000000E+00  0.00000000E+00  0.00000000E+00
  0.00000000E+00  0.00000000E+00  0.00000000E+00
  0.00000000E+00  0.00000000E+00  0.00000000E+00
  0.00000000E+00  0.00000000E+00  0.00000000E+00
  0.00000000E+00  0.00000000E+00  0.00000000E+00
  0.00000000E+00  0.00000000E+00  0.00000000E+00
  0.00000000E+00  0.00000000E+00  0.00000000E+00
  0.00000000E+00  0.00000000E+00  0.00000000E+00
  0.00000000E+00  0.00000000E+00  0.00000000E+00
  0.00000000E+00  0.00000000E+00  0.00000000E+00
  0.00000000E+00  0.00000000E+00  0.00000000E+00
  0.00000000E+00  0.00000000E+00  0.00000000E+00
  0.00000000E+00  0.00000000E+00  0.00000000E+00
  0.00000000E+00  0.00000000E+00  0.00000000E+00
  0.00000000E+00  0.00000000E+00  0.00000000E+00
  0.00000000E+00  0.00000000E+00  0.00000000E+00
  0.00000000E+00  0.00000000E+00  0.00000000E+00
  0.00000000E+00  0.00000000E+00  0.00000000E+00
  0.00000000E+00  0.00000000E+00  0.00000000E+00
  0.00000000E+00  0.00000000E+00  0.00000000E+00
  0.00000000E+00  0.00000000E+00  0.00000000E+00
  0.00000000E+00  0.00000000E+00  0.00000000E+00
  0.00000000E+00  0.00000000E+00  0.00000000E+00
  0.00000000E+00  0.00000000E+00  0.00000000E+00
  0.00000000E+00  0.00000000E+00  0.00000000E+00
  0.00000000E+00  0.00000000E+00  0.00000000E+00
  0.00000000E+00  0.00000000E+00  0.00000000E+00
  0.00000000E+00  0.00000000E+00  0.00000000E+00
  0.00000000E+00  0.00000000E+00  0.00000000E+00
  0.00000000E+00  0.00000000E+00  0.00000000E+00
  0.00000000E+00  0.00000000E+00  0.00000000E+00
  0.00000000E+00  0.00000000E+00  0.00000000E+00
  0.00000000E+00  0.00000000E+00  0.00000000E+00
  0.00000000E+00  0.00000000E+00  0.00000000E+00
  0.00000000E+00  0.00000000E+00  0.00000000E+00
  0.00000000E+00  0.00000000E+00  0.00000000E+00
  0.00000000E+00  0.00000000E+00  0.00000000E+00
  0.00000000E+00  0.00000000E+00  0.00000000E+00
  0.00000000E+00  0.00000000E+00  0.00000000E+00
  0.00000000E+00  0.00000000E+00  0.00000000E+00
  0.00000000E+00  0.00000000E+00  0.00000000E+00
  0.00000000E+00  0.00000000E+00  0.00000000E+00
  0.00000000E+00  0.00000000E+00  0.00000000E+00
  0.00000000E+00  0.00000000E+00  0.00000000E+00
  0.00000000E+00  0.00000000E+00  0.00000000E+00
  0.00000000E+00  0.00000000E+00  0.00000000E+00
  0.00000000E+00  0.00000000E+00  0.00000000E+00
  0.00000000E+00  0.00000000E+00  0.00000000E+00
  0.00000000E+00  0.00000000E+00  0.00000000E+00
  0.00000000E+00  0.00000000E+00  0.00000000E+00
  0.00000000E+00  0.00000000E+00  0.00000000E+00
  0.00000000E+00  0.00000000E+00  0.00000000E+00
  0.00000000E+00  0.00000000E+00  0.00000000E+00
  0.00000000E+00  0.00000000E+00  0.00000000E+00
  0.00000000E+00  0.00000000E+00  0.00000000E+00
  0.00000000E+00  0.00000000E+00  0.00000000E+00
  0.00000000E+00  0.00000000E+00  0.00000000E+00
  0.00000000E+00  0.00000000E+00  0.00000000E+00
  0.00000000E+00  0.00000000E+00  0.00000000E+00
  0.00000000E+00  0.00000000E+00  0.00000000E+00
  0.00000000E+00  0.00000000E+00  0.00000000E+00
  0.00000000E+00  0.00000000E+00  0.00000000E+00
