H1 Os1 C124 N2                          
   1.00000000000000     
    19.8123056020867381   -0.0344979700452006   -0.2369738763752823
    -9.9359521223329903   17.0459287420069145    0.2038079172595339
    -0.3559822724039646    0.1485282768439644   29.8304730348783025
   H    Os   C    N 
     1     1   124     2
Direct
  0.4288093940018046  0.5282003083175918  0.4781705553806521
  0.4393372495989778  0.4988065819076369  0.4290445400115193
  0.0428349418808229  0.0846303988196341  0.3997584767535005
  0.0424110326745199  0.2089619282495763  0.3992588196661865
  0.0414395939825381  0.3333748812945636  0.3986662173652843
  0.0407393542357584  0.4584571579349975  0.3986443144967796
  0.0411235110847567  0.5838256173123877  0.3991070740004509
  0.0416747342963191  0.7092159682293678  0.3993424131984399
  0.0420509290607141  0.8343709997671003  0.3994993007604938
  0.0424708166371645  0.9596343857254643  0.3997474408312426
  0.1685981444171634  0.0860508744332532  0.4002914840275916
  0.1693080575536314  0.2116096520650426  0.4003612408309840
  0.1673611378826870  0.3351223100559134  0.3992465070726109
  0.1646404715169975  0.4592925649520143  0.3988155999286732
  0.1649710571184844  0.5842249819686358  0.3991641777443476
  0.1659677334610908  0.7093241389253785  0.3995132991522181
  0.1667028536037242  0.8345481840556029  0.3995528543800559
  0.1674030353400454  0.9600271512915460  0.3998602871704152
  0.2929163941123972  0.0853804572261780  0.4003205677337850
  0.2950787955717948  0.2127432852144294  0.4016976576400379
  0.2966274306679305  0.3401777414809575  0.4025883708690725
  0.2889338442960406  0.4614288101182468  0.4016648074904489
  0.2884806036096867  0.5850414444447108  0.4012546254365414
  0.2901863514340342  0.7093238236504404  0.4007590239384488
  0.2913325656763354  0.8342737873310975  0.3995943699611411
  0.2920864809422793  0.9595690291853783  0.3995536022750719
  0.4172832905362995  0.0836267337754687  0.3997439602493288
  0.4182479635071792  0.2093559962321740  0.4006971731969506
  0.4219921017829000  0.3369477392035173  0.4045991259078622
  0.4141502507863881  0.7065556337506156  0.4033857738520357
  0.4158866375240098  0.8325581795010708  0.4004118506543197
  0.4166780846210929  0.9581505729631020  0.3993356309483041
  0.5418450276310005  0.0820981880747948  0.3995300748269444
  0.5425998265807530  0.2072507010651846  0.4001108291931639
  0.5441225540524467  0.3319268885889781  0.4007331343045181
  0.5462212550646224  0.4552717680468513  0.4020639817681861
  0.5413551686915432  0.5761035487065075  0.4022162766437655
  0.5373187386750781  0.7021579785507240  0.4045094949304750
  0.5401405993403483  0.8303763628167917  0.4018521165994218
  0.5412192018495039  0.9565775104955873  0.3997679148677147
  0.6665602763052128  0.0816178161372163  0.3995372982746770
  0.6672271574337428  0.2069456048358173  0.3998089374640295
  0.6682008000595561  0.3322048340553151  0.3995739785507051
  0.6696660238362103  0.4575032470367232  0.3985186169782061
  0.6686392640069290  0.5815813195377850  0.3984280695830642
  0.6639769243344181  0.7042209702912001  0.4000616649396355
  0.6642441212151173  0.8295744823162365  0.4010743822132915
  0.6657531124968438  0.9559823777267298  0.4000850628844673
  0.7913202700251449  0.0817320754330040  0.3995333620502990
  0.7917681903495685  0.2069717948282092  0.3995931919546217
  0.7924026088485563  0.3324350883410261  0.3995240814497902
  0.7931107806927904  0.4578227517283645  0.3989001013928444
  0.7931830820922620  0.5830652574524400  0.3984406561104040
  0.7915274935608378  0.7074879906916552  0.3986950911869981
  0.7902979269577121  0.8313883323381303  0.3996564266635519
  0.7906180772462356  0.9563192381179222  0.3997391887567081
  0.9166645168570694  0.0827237763901810  0.3994846411613356
  0.9166831701050696  0.2075033657952206  0.3992549500094058
  0.9167101231493561  0.3326969890240917  0.3991390686988101
  0.9169133125900238  0.4581104241945596  0.3990850468499881
  0.9172787042479660  0.5835614515112405  0.3990550468977582
  0.9170026598654326  0.7086999766976093  0.3990240765003019
  0.9167227385890702  0.8334665592051759  0.3992783340134338
  0.9166000238552461  0.9580457502191633  0.3995832623969571
  0.0848114928486230  0.0435328303124668  0.3999410751026451
  0.0851809580821320  0.1685759747144254  0.3997000658954288
  0.0838090105323701  0.2924553120899652  0.3988729821512940
  0.0820108788268856  0.4168734664695213  0.3985222187754817
  0.0821369320182493  0.5420584254655404  0.3988352141890835
  0.0828666405860009  0.6674469799373919  0.3993134906596531
  0.0835047540053352  0.7927958377694433  0.3994679843647046
  0.0839912192466096  0.9180323251815886  0.3997203175917817
  0.2095768172835933  0.0437729697125515  0.4001827342840458
  0.2111360471418069  0.1701333908499537  0.4008122458298615
  0.2116075462294504  0.2958602147622304  0.4005661146003098
  0.2066697090785337  0.4185251802411711  0.3993085981657408
  0.2057304731604541  0.5425206648462970  0.3992605928875400
  0.2070416542826643  0.6676317887978681  0.3997915548960282
  0.2080450601835994  0.7928348216255078  0.3995591698383405
  0.2087299574973338  0.9181093545482795  0.3996895969293097
  0.3340362871403260  0.0430446065613871  0.3998076426089802
  0.3351154200866167  0.1691663094187979  0.4010106512781836
  0.3381364335385624  0.2974580414595724  0.4034386439303774
  0.3340075999390419  0.4242605553212550  0.4045290422135245
  0.3293349291926861  0.5444484068365311  0.4042532369500421
  0.3311540436112257  0.6677085828527622  0.4021718885883828
  0.3326191267453874  0.7924030522602049  0.4002624272163902
  0.3334340561946884  0.9175912634224579  0.3993777347897974
  0.4585540371768205  0.0414547781486262  0.3994466424750166
  0.4593580472848905  0.1669852017514968  0.4001236683994530
  0.4610403291338333  0.2927690558683434  0.4015229671482382
  0.4532243504421447  0.6619692255205186  0.4067663335826552
  0.4569788537688680  0.7900628239302642  0.4017562715750800
  0.4579503289498867  0.9159624848148660  0.3996669963329114
  0.5832370297144769  0.0401197982124609  0.3994896573048648
  0.5839132867486992  0.1654514980701418  0.3998122215610529
  0.5850070891041140  0.2903965568965785  0.4001368634975762
  0.5868703240889420  0.4149128940733542  0.3997768715822924
  0.5861694651335991  0.5386655241735450  0.3995899552173559
  0.5790392904848893  0.6599017160641718  0.4018851057515079
  0.5802416890589897  0.7867895499982995  0.4025940242255903
  0.5823337810905347  0.9142088718586308  0.4005019047071653
  0.7078798288763093  0.0397402886034410  0.3996018079927965
  0.7085182075611416  0.1651844140657289  0.3996656207836898
  0.7092679390165577  0.2905154194154347  0.3997059401562316
  0.7103007954024056  0.4156792476139626  0.3988810733090906
  0.7105476041553811  0.5407124976332784  0.3983174803105071
  0.7079704623630225  0.6648815166062719  0.3987114904470145
  0.7062008777173662  0.7883381212249240  0.4003396929500572
  0.7067767559982167  0.9136990201685047  0.4002555578961021
  0.8329278991232362  0.0402269879800047  0.3995483869832717
  0.8332669279851839  0.1653725311407349  0.3994723072816070
  0.8335862253426251  0.2906155277582302  0.3995083632424055
  0.8340975834048007  0.4160168400380237  0.3992272265641981
  0.8344327475356843  0.5414138466785967  0.3987516598992763
  0.8338334984953076  0.6665352407205543  0.3986242104037678
  0.8329875850713588  0.7909525859329041  0.3991715534863869
  0.8326607025554837  0.9153018859519833  0.3996596325543502
  0.9588814326571069  0.0418452028821188  0.3996018148202312
  0.9587038264557279  0.1664044982916853  0.3993085779095881
  0.9583077482973387  0.2911579156047969  0.3989849796686444
  0.9579377778056821  0.4162968813036259  0.3989362916328482
  0.9583063585686512  0.5417090190399328  0.3990903103569146
  0.9586083504818192  0.6671753954893006  0.3991732653045370
  0.9586768219479309  0.7923047982741598  0.3992601654020050
  0.9587812694490270  0.9171765305646604  0.3995453125970305
  0.4085690965218019  0.5812781613699406  0.4116340415368188
  0.4668281535567490  0.4175085511752291  0.4092330263727078
 
  0.00000000E+00  0.00000000E+00  0.00000000E+00
  0.00000000E+00  0.00000000E+00  0.00000000E+00
  0.00000000E+00  0.00000000E+00  0.00000000E+00
  0.00000000E+00  0.00000000E+00  0.00000000E+00
  0.00000000E+00  0.00000000E+00  0.00000000E+00
  0.00000000E+00  0.00000000E+00  0.00000000E+00
  0.00000000E+00  0.00000000E+00  0.00000000E+00
  0.00000000E+00  0.00000000E+00  0.00000000E+00
  0.00000000E+00  0.00000000E+00  0.00000000E+00
  0.00000000E+00  0.00000000E+00  0.00000000E+00
  0.00000000E+00  0.00000000E+00  0.00000000E+00
  0.00000000E+00  0.00000000E+00  0.00000000E+00
  0.00000000E+00  0.00000000E+00  0.00000000E+00
  0.00000000E+00  0.00000000E+00  0.00000000E+00
  0.00000000E+00  0.00000000E+00  0.00000000E+00
  0.00000000E+00  0.00000000E+00  0.00000000E+00
  0.00000000E+00  0.00000000E+00  0.00000000E+00
  0.00000000E+00  0.00000000E+00  0.00000000E+00
  0.00000000E+00  0.00000000E+00  0.00000000E+00
  0.00000000E+00  0.00000000E+00  0.00000000E+00
  0.00000000E+00  0.00000000E+00  0.00000000E+00
  0.00000000E+00  0.00000000E+00  0.00000000E+00
  0.00000000E+00  0.00000000E+00  0.00000000E+00
  0.00000000E+00  0.00000000E+00  0.00000000E+00
  0.00000000E+00  0.00000000E+00  0.00000000E+00
  0.00000000E+00  0.00000000E+00  0.00000000E+00
  0.00000000E+00  0.00000000E+00  0.00000000E+00
  0.00000000E+00  0.00000000E+00  0.00000000E+00
  0.00000000E+00  0.00000000E+00  0.00000000E+00
  0.00000000E+00  0.00000000E+00  0.00000000E+00
  0.00000000E+00  0.00000000E+00  0.00000000E+00
  0.00000000E+00  0.00000000E+00  0.00000000E+00
  0.00000000E+00  0.00000000E+00  0.00000000E+00
  0.00000000E+00  0.00000000E+00  0.00000000E+00
  0.00000000E+00  0.00000000E+00  0.00000000E+00
  0.00000000E+00  0.00000000E+00  0.00000000E+00
  0.00000000E+00  0.00000000E+00  0.00000000E+00
  0.00000000E+00  0.00000000E+00  0.00000000E+00
  0.00000000E+00  0.00000000E+00  0.00000000E+00
  0.00000000E+00  0.00000000E+00  0.00000000E+00
  0.00000000E+00  0.00000000E+00  0.00000000E+00
  0.00000000E+00  0.00000000E+00  0.00000000E+00
  0.00000000E+00  0.00000000E+00  0.00000000E+00
  0.00000000E+00  0.00000000E+00  0.00000000E+00
  0.00000000E+00  0.00000000E+00  0.00000000E+00
  0.00000000E+00  0.00000000E+00  0.00000000E+00
  0.00000000E+00  0.00000000E+00  0.00000000E+00
  0.00000000E+00  0.00000000E+00  0.00000000E+00
  0.00000000E+00  0.00000000E+00  0.00000000E+00
  0.00000000E+00  0.00000000E+00  0.00000000E+00
  0.00000000E+00  0.00000000E+00  0.00000000E+00
  0.00000000E+00  0.00000000E+00  0.00000000E+00
  0.00000000E+00  0.00000000E+00  0.00000000E+00
  0.00000000E+00  0.00000000E+00  0.00000000E+00
  0.00000000E+00  0.00000000E+00  0.00000000E+00
  0.00000000E+00  0.00000000E+00  0.00000000E+00
  0.00000000E+00  0.00000000E+00  0.00000000E+00
  0.00000000E+00  0.00000000E+00  0.00000000E+00
  0.00000000E+00  0.00000000E+00  0.00000000E+00
  0.00000000E+00  0.00000000E+00  0.00000000E+00
  0.00000000E+00  0.00000000E+00  0.00000000E+00
  0.00000000E+00  0.00000000E+00  0.00000000E+00
  0.00000000E+00  0.00000000E+00  0.00000000E+00
  0.00000000E+00  0.00000000E+00  0.00000000E+00
  0.00000000E+00  0.00000000E+00  0.00000000E+00
  0.00000000E+00  0.00000000E+00  0.00000000E+00
  0.00000000E+00  0.00000000E+00  0.00000000E+00
  0.00000000E+00  0.00000000E+00  0.00000000E+00
  0.00000000E+00  0.00000000E+00  0.00000000E+00
  0.00000000E+00  0.00000000E+00  0.00000000E+00
  0.00000000E+00  0.00000000E+00  0.00000000E+00
  0.00000000E+00  0.00000000E+00  0.00000000E+00
  0.00000000E+00  0.00000000E+00  0.00000000E+00
  0.00000000E+00  0.00000000E+00  0.00000000E+00
  0.00000000E+00  0.00000000E+00  0.00000000E+00
  0.00000000E+00  0.00000000E+00  0.00000000E+00
  0.00000000E+00  0.00000000E+00  0.00000000E+00
  0.00000000E+00  0.00000000E+00  0.00000000E+00
  0.00000000E+00  0.00000000E+00  0.00000000E+00
  0.00000000E+00  0.00000000E+00  0.00000000E+00
  0.00000000E+00  0.00000000E+00  0.00000000E+00
  0.00000000E+00  0.00000000E+00  0.00000000E+00
  0.00000000E+00  0.00000000E+00  0.00000000E+00
  0.00000000E+00  0.00000000E+00  0.00000000E+00
  0.00000000E+00  0.00000000E+00  0.00000000E+00
  0.00000000E+00  0.00000000E+00  0.00000000E+00
  0.00000000E+00  0.00000000E+00  0.00000000E+00
  0.00000000E+00  0.00000000E+00  0.00000000E+00
  0.00000000E+00  0.00000000E+00  0.00000000E+00
  0.00000000E+00  0.00000000E+00  0.00000000E+00
  0.00000000E+00  0.00000000E+00  0.00000000E+00
  0.00000000E+00  0.00000000E+00  0.00000000E+00
  0.00000000E+00  0.00000000E+00  0.00000000E+00
  0.00000000E+00  0.00000000E+00  0.00000000E+00
  0.00000000E+00  0.00000000E+00  0.00000000E+00
  0.00000000E+00  0.00000000E+00  0.00000000E+00
  0.00000000E+00  0.00000000E+00  0.00000000E+00
  0.00000000E+00  0.00000000E+00  0.00000000E+00
  0.00000000E+00  0.00000000E+00  0.00000000E+00
  0.00000000E+00  0.00000000E+00  0.00000000E+00
  0.00000000E+00  0.00000000E+00  0.00000000E+00
  0.00000000E+00  0.00000000E+00  0.00000000E+00
  0.00000000E+00  0.00000000E+00  0.00000000E+00
  0.00000000E+00  0.00000000E+00  0.00000000E+00
  0.00000000E+00  0.00000000E+00  0.00000000E+00
  0.00000000E+00  0.00000000E+00  0.00000000E+00
  0.00000000E+00  0.00000000E+00  0.00000000E+00
  0.00000000E+00  0.00000000E+00  0.00000000E+00
  0.00000000E+00  0.00000000E+00  0.00000000E+00
  0.00000000E+00  0.00000000E+00  0.00000000E+00
  0.00000000E+00  0.00000000E+00  0.00000000E+00
  0.00000000E+00  0.00000000E+00  0.00000000E+00
  0.00000000E+00  0.00000000E+00  0.00000000E+00
  0.00000000E+00  0.00000000E+00  0.00000000E+00
  0.00000000E+00  0.00000000E+00  0.00000000E+00
  0.00000000E+00  0.00000000E+00  0.00000000E+00
  0.00000000E+00  0.00000000E+00  0.00000000E+00
  0.00000000E+00  0.00000000E+00  0.00000000E+00
  0.00000000E+00  0.00000000E+00  0.00000000E+00
  0.00000000E+00  0.00000000E+00  0.00000000E+00
  0.00000000E+00  0.00000000E+00  0.00000000E+00
  0.00000000E+00  0.00000000E+00  0.00000000E+00
  0.00000000E+00  0.00000000E+00  0.00000000E+00
  0.00000000E+00  0.00000000E+00  0.00000000E+00
  0.00000000E+00  0.00000000E+00  0.00000000E+00
  0.00000000E+00  0.00000000E+00  0.00000000E+00
  0.00000000E+00  0.00000000E+00  0.00000000E+00
  0.00000000E+00  0.00000000E+00  0.00000000E+00
