H1 Pd1 C126 O1                          
   1.00000000000000     
    19.7821790880486219   -0.0146314076559276    0.2498195070341026
    -9.9034540490496124   17.0720496713991921    0.2173408521369936
     0.3753849992755546    0.5958086458710304   29.8244138675142665
   H    Pd   C    O 
     1     1   126     1
Direct
  0.5146532006200885  0.5831500438737520  0.4950047494931848
  0.4331624745874438  0.4961619908704561  0.4312457159888050
  0.0416681955272292  0.0835836130456475  0.3994633479783010
  0.0411846204323794  0.2080517028137431  0.3989839461528115
  0.0408414081597362  0.3328221211120378  0.3987769663826238
  0.0406827816407726  0.4580769371207868  0.3991759843407973
  0.0409702605254209  0.5833293083329488  0.3994442448725641
  0.0414078308556302  0.7085220079052492  0.3995628291918364
  0.0416103359099086  0.8336848551861983  0.3997477121637596
  0.0416923437960906  0.9587149630112928  0.3997412080785973
  0.1669874703137136  0.0842777403924005  0.3995171938216141
  0.1672265884690126  0.2094530128593965  0.3989949706295106
  0.1660888103347580  0.3333949154546602  0.3979082550791916
  0.1650193227552230  0.4583068242645195  0.3979024926048745
  0.1652793837088772  0.5834446316396659  0.3985821589800227
  0.1660302970817244  0.7086291122016956  0.3993965148281616
  0.1663903359358215  0.8337444540700429  0.3998988528699751
  0.1666973872948954  0.9589546403967047  0.3998922908320674
  0.2918410940531344  0.0840751942753718  0.3997878279101629
  0.2924578100776133  0.2100317874954682  0.4005173272159239
  0.2934427901946982  0.3364531023598703  0.4008170792626805
  0.2891026863663105  0.4582208469918237  0.3987500455280684
  0.2892653989417073  0.5838578169800188  0.3987899344074899
  0.2905920320934811  0.7086218039752210  0.3991688462052952
  0.2911247091904300  0.8335399956871670  0.3996609585797546
  0.2914735369436769  0.9586863536053729  0.3998281751009221
  0.4165609580179435  0.0832716891363343  0.3994106647875721
  0.4168995115845565  0.2086191548306254  0.3999379491379641
  0.4175638600791580  0.3343018002234422  0.4053731865594345
  0.4104571513718160  0.5817249277726078  0.4064214809649071
  0.4149578429651361  0.7070959522116657  0.4012781398830238
  0.4158512005270415  0.8327233317101213  0.3998509450236413
  0.4162338002723429  0.9580017370219422  0.3997168504539099
  0.5413197999767004  0.0824907460857802  0.3994112128539893
  0.5416814265405473  0.2076119119232734  0.3989949407365674
  0.5421863478750419  0.3324721925926223  0.4003536915540215
  0.5432996137146476  0.4563846656994872  0.4052437295861812
  0.5440970076957314  0.5805460182667125  0.4089910384474825
  0.5394096867931851  0.7054946997998394  0.4053525031388576
  0.5403333747993641  0.8315330991563126  0.4012548870529005
  0.5409567842561521  0.9571627704059790  0.3998916892126526
  0.6660404137121498  0.0821184896039484  0.3998259583414567
  0.6664002177975981  0.2073702627167775  0.3992977974834479
  0.6669031602575133  0.3325291276083673  0.3986033967032684
  0.6678287183797724  0.4577328171713556  0.3988065535387881
  0.6680895153901973  0.5829119853715110  0.4004420344530128
  0.6653992249135303  0.7060900268453518  0.4023892987875637
  0.6653499381298845  0.8313297420596130  0.4016110740800485
  0.6657228384595496  0.9568174848379095  0.4003337991586023
  0.7909350644628934  0.0821529788580198  0.4000434223466022
  0.7910945654051708  0.2072933746099318  0.3999354955804003
  0.7914828915270112  0.3325927863048989  0.3994164970049982
  0.7920524276799418  0.4579381114100028  0.3985819592470440
  0.7923085778304904  0.5831365386760952  0.3983748416308402
  0.7918925416125403  0.7081146706122409  0.3992985466656162
  0.7908560585023826  0.8322448341878087  0.4000339260727731
  0.7907677214290171  0.9570748294517202  0.4001074852660290
  0.9160559969242585  0.0825993026963930  0.3997793172130839
  0.9159896556907255  0.2075026100758434  0.3997699119750459
  0.9160592897507884  0.3326657712567359  0.3998567021325509
  0.9162924251492705  0.4579150425513228  0.3995650482053040
  0.9166919183858288  0.5832727853435965  0.3990786403006873
  0.9167695889535822  0.7084610602589608  0.3990017898009547
  0.9166091177655710  0.8333360566213395  0.3994987010289106
  0.9162667103829083  0.9579363302961862  0.3997952834708431
  0.0835000507863432  0.0422155044985342  0.3995598645788844
  0.0835192307447830  0.1671206405028534  0.3990490687062442
  0.0825884085447885  0.2913286800651237  0.3983446059807300
  0.0821194722000158  0.4164186583879106  0.3985426555557208
  0.0822089487420335  0.5415409720866942  0.3990885493595135
  0.0827890732569236  0.6668128342071431  0.3994966209857735
  0.0831515724898942  0.7920295166024371  0.3997813289107451
  0.0833249301719791  0.9171207747552476  0.3998559182593664
  0.2084867452161539  0.0424022859748681  0.3997577663112292
  0.2088366257218467  0.1678406001369528  0.3994644367393206
  0.2091427295148432  0.2932193432384089  0.3988137863248980
  0.2064255368020956  0.4165299132033020  0.3976160775560756
  0.2063603831478986  0.5417801395116316  0.3980932889218096
  0.2074268561420966  0.6669720199493373  0.3989379714136101
  0.2078637394554358  0.7920017735947120  0.3996864830007883
  0.2081954251455192  0.9171601040050856  0.3999481974867640
  0.3332680047362424  0.0420783302956766  0.3996789870505280
  0.3336761289976473  0.1675375131716536  0.4001666477648707
  0.3341803947574991  0.2932360265581602  0.4027062224855827
  0.3321976186468462  0.4193753678131857  0.4015603463992312
  0.3302316947835908  0.5422726637853775  0.4002431548758077
  0.3319227598454151  0.6667769720700432  0.3996805673140129
  0.3325653416085113  0.7917703837513291  0.3995349683003165
  0.3329869564779339  0.9168493014020617  0.3997747669682757
  0.4580492158954113  0.0413332362691858  0.3995090057906223
  0.4583927748578523  0.1666176380564893  0.3992046974845406
  0.4589095058829496  0.2918962844734059  0.4015251414756113
  0.4617693379423702  0.4153581670570780  0.4118626238871368
  0.4555898954522701  0.6638038906669977  0.4045783847816871
  0.4571757822452289  0.7905495564635084  0.4006677259271771
  0.4576918581112515  0.9160238652102262  0.3998257716642962
  0.5827774898405903  0.0405870812346627  0.3996671335877580
  0.5831542876650768  0.1658542450193233  0.3991549947082366
  0.5836445255574366  0.2908423174841368  0.3989684228092921
  0.5846979711532345  0.4155406500780464  0.4006800523010067
  0.5850816563636791  0.5405147182716882  0.4045789484880282
  0.5807300790792814  0.6627292562080975  0.4059443342709299
  0.5814686392977524  0.7888764829240873  0.4027584951574423
  0.5822875572482358  0.9150730258890993  0.4003854798162044
  0.7075271280443302  0.0402823240626097  0.4000403347115197
  0.7078292130126416  0.1655878208186470  0.3997241003224122
  0.7082642221223356  0.2908193792010033  0.3990158357564729
  0.7089891453330205  0.4160933275457324  0.3983535858282260
  0.7093701954349911  0.5412057648963722  0.3987981448289241
  0.7083622196751164  0.6659299911156558  0.4005353509217940
  0.7070617409275044  0.7898335209307672  0.4012268137066726
  0.7072293275893937  0.9149242533163184  0.4005788429121071
  0.8325896587755249  0.0405809073310901  0.3999748510189189
  0.8326440661722542  0.1656230510597491  0.4000095370610494
  0.8328742627877078  0.2908631721145807  0.3998773681573296
  0.8332515771448054  0.4160973494130883  0.3992211614974322
  0.8336376063737635  0.5414034265443414  0.3985466174075980
  0.8335883723918157  0.6666505184542713  0.3987043491926248
  0.8331972677866687  0.7913200102318340  0.3995418220646329
  0.8326471995539501  0.9157400872584088  0.3999484591690248
  0.9580639278618805  0.0413989769534787  0.3997217067038359
  0.9577388214699813  0.1660418437041030  0.3995606594266520
  0.9575943039144420  0.2909670388803153  0.3995857245541081
  0.9575796861233385  0.4161577334995856  0.3996872351668248
  0.9579340818146721  0.5414972017086195  0.3994418546536499
  0.9582433018124225  0.6667434982075940  0.3992045092136825
  0.9583137977676951  0.7918396104135558  0.3994093210148757
  0.9582539392661802  0.9167285796962846  0.3997133158485729
  0.4730426815429180  0.5289633855840720  0.4923489870810301
 
  0.00000000E+00  0.00000000E+00  0.00000000E+00
  0.00000000E+00  0.00000000E+00  0.00000000E+00
  0.00000000E+00  0.00000000E+00  0.00000000E+00
  0.00000000E+00  0.00000000E+00  0.00000000E+00
  0.00000000E+00  0.00000000E+00  0.00000000E+00
  0.00000000E+00  0.00000000E+00  0.00000000E+00
  0.00000000E+00  0.00000000E+00  0.00000000E+00
  0.00000000E+00  0.00000000E+00  0.00000000E+00
  0.00000000E+00  0.00000000E+00  0.00000000E+00
  0.00000000E+00  0.00000000E+00  0.00000000E+00
  0.00000000E+00  0.00000000E+00  0.00000000E+00
  0.00000000E+00  0.00000000E+00  0.00000000E+00
  0.00000000E+00  0.00000000E+00  0.00000000E+00
  0.00000000E+00  0.00000000E+00  0.00000000E+00
  0.00000000E+00  0.00000000E+00  0.00000000E+00
  0.00000000E+00  0.00000000E+00  0.00000000E+00
  0.00000000E+00  0.00000000E+00  0.00000000E+00
  0.00000000E+00  0.00000000E+00  0.00000000E+00
  0.00000000E+00  0.00000000E+00  0.00000000E+00
  0.00000000E+00  0.00000000E+00  0.00000000E+00
  0.00000000E+00  0.00000000E+00  0.00000000E+00
  0.00000000E+00  0.00000000E+00  0.00000000E+00
  0.00000000E+00  0.00000000E+00  0.00000000E+00
  0.00000000E+00  0.00000000E+00  0.00000000E+00
  0.00000000E+00  0.00000000E+00  0.00000000E+00
  0.00000000E+00  0.00000000E+00  0.00000000E+00
  0.00000000E+00  0.00000000E+00  0.00000000E+00
  0.00000000E+00  0.00000000E+00  0.00000000E+00
  0.00000000E+00  0.00000000E+00  0.00000000E+00
  0.00000000E+00  0.00000000E+00  0.00000000E+00
  0.00000000E+00  0.00000000E+00  0.00000000E+00
  0.00000000E+00  0.00000000E+00  0.00000000E+00
  0.00000000E+00  0.00000000E+00  0.00000000E+00
  0.00000000E+00  0.00000000E+00  0.00000000E+00
  0.00000000E+00  0.00000000E+00  0.00000000E+00
  0.00000000E+00  0.00000000E+00  0.00000000E+00
  0.00000000E+00  0.00000000E+00  0.00000000E+00
  0.00000000E+00  0.00000000E+00  0.00000000E+00
  0.00000000E+00  0.00000000E+00  0.00000000E+00
  0.00000000E+00  0.00000000E+00  0.00000000E+00
  0.00000000E+00  0.00000000E+00  0.00000000E+00
  0.00000000E+00  0.00000000E+00  0.00000000E+00
  0.00000000E+00  0.00000000E+00  0.00000000E+00
  0.00000000E+00  0.00000000E+00  0.00000000E+00
  0.00000000E+00  0.00000000E+00  0.00000000E+00
  0.00000000E+00  0.00000000E+00  0.00000000E+00
  0.00000000E+00  0.00000000E+00  0.00000000E+00
  0.00000000E+00  0.00000000E+00  0.00000000E+00
  0.00000000E+00  0.00000000E+00  0.00000000E+00
  0.00000000E+00  0.00000000E+00  0.00000000E+00
  0.00000000E+00  0.00000000E+00  0.00000000E+00
  0.00000000E+00  0.00000000E+00  0.00000000E+00
  0.00000000E+00  0.00000000E+00  0.00000000E+00
  0.00000000E+00  0.00000000E+00  0.00000000E+00
  0.00000000E+00  0.00000000E+00  0.00000000E+00
  0.00000000E+00  0.00000000E+00  0.00000000E+00
  0.00000000E+00  0.00000000E+00  0.00000000E+00
  0.00000000E+00  0.00000000E+00  0.00000000E+00
  0.00000000E+00  0.00000000E+00  0.00000000E+00
  0.00000000E+00  0.00000000E+00  0.00000000E+00
  0.00000000E+00  0.00000000E+00  0.00000000E+00
  0.00000000E+00  0.00000000E+00  0.00000000E+00
  0.00000000E+00  0.00000000E+00  0.00000000E+00
  0.00000000E+00  0.00000000E+00  0.00000000E+00
  0.00000000E+00  0.00000000E+00  0.00000000E+00
  0.00000000E+00  0.00000000E+00  0.00000000E+00
  0.00000000E+00  0.00000000E+00  0.00000000E+00
  0.00000000E+00  0.00000000E+00  0.00000000E+00
  0.00000000E+00  0.00000000E+00  0.00000000E+00
  0.00000000E+00  0.00000000E+00  0.00000000E+00
  0.00000000E+00  0.00000000E+00  0.00000000E+00
  0.00000000E+00  0.00000000E+00  0.00000000E+00
  0.00000000E+00  0.00000000E+00  0.00000000E+00
  0.00000000E+00  0.00000000E+00  0.00000000E+00
  0.00000000E+00  0.00000000E+00  0.00000000E+00
  0.00000000E+00  0.00000000E+00  0.00000000E+00
  0.00000000E+00  0.00000000E+00  0.00000000E+00
  0.00000000E+00  0.00000000E+00  0.00000000E+00
  0.00000000E+00  0.00000000E+00  0.00000000E+00
  0.00000000E+00  0.00000000E+00  0.00000000E+00
  0.00000000E+00  0.00000000E+00  0.00000000E+00
  0.00000000E+00  0.00000000E+00  0.00000000E+00
  0.00000000E+00  0.00000000E+00  0.00000000E+00
  0.00000000E+00  0.00000000E+00  0.00000000E+00
  0.00000000E+00  0.00000000E+00  0.00000000E+00
  0.00000000E+00  0.00000000E+00  0.00000000E+00
  0.00000000E+00  0.00000000E+00  0.00000000E+00
  0.00000000E+00  0.00000000E+00  0.00000000E+00
  0.00000000E+00  0.00000000E+00  0.00000000E+00
  0.00000000E+00  0.00000000E+00  0.00000000E+00
  0.00000000E+00  0.00000000E+00  0.00000000E+00
  0.00000000E+00  0.00000000E+00  0.00000000E+00
  0.00000000E+00  0.00000000E+00  0.00000000E+00
  0.00000000E+00  0.00000000E+00  0.00000000E+00
  0.00000000E+00  0.00000000E+00  0.00000000E+00
  0.00000000E+00  0.00000000E+00  0.00000000E+00
  0.00000000E+00  0.00000000E+00  0.00000000E+00
  0.00000000E+00  0.00000000E+00  0.00000000E+00
  0.00000000E+00  0.00000000E+00  0.00000000E+00
  0.00000000E+00  0.00000000E+00  0.00000000E+00
  0.00000000E+00  0.00000000E+00  0.00000000E+00
  0.00000000E+00  0.00000000E+00  0.00000000E+00
  0.00000000E+00  0.00000000E+00  0.00000000E+00
  0.00000000E+00  0.00000000E+00  0.00000000E+00
  0.00000000E+00  0.00000000E+00  0.00000000E+00
  0.00000000E+00  0.00000000E+00  0.00000000E+00
  0.00000000E+00  0.00000000E+00  0.00000000E+00
  0.00000000E+00  0.00000000E+00  0.00000000E+00
  0.00000000E+00  0.00000000E+00  0.00000000E+00
  0.00000000E+00  0.00000000E+00  0.00000000E+00
  0.00000000E+00  0.00000000E+00  0.00000000E+00
  0.00000000E+00  0.00000000E+00  0.00000000E+00
  0.00000000E+00  0.00000000E+00  0.00000000E+00
  0.00000000E+00  0.00000000E+00  0.00000000E+00
  0.00000000E+00  0.00000000E+00  0.00000000E+00
  0.00000000E+00  0.00000000E+00  0.00000000E+00
  0.00000000E+00  0.00000000E+00  0.00000000E+00
  0.00000000E+00  0.00000000E+00  0.00000000E+00
  0.00000000E+00  0.00000000E+00  0.00000000E+00
  0.00000000E+00  0.00000000E+00  0.00000000E+00
  0.00000000E+00  0.00000000E+00  0.00000000E+00
  0.00000000E+00  0.00000000E+00  0.00000000E+00
  0.00000000E+00  0.00000000E+00  0.00000000E+00
  0.00000000E+00  0.00000000E+00  0.00000000E+00
  0.00000000E+00  0.00000000E+00  0.00000000E+00
  0.00000000E+00  0.00000000E+00  0.00000000E+00
  0.00000000E+00  0.00000000E+00  0.00000000E+00
  0.00000000E+00  0.00000000E+00  0.00000000E+00
  0.00000000E+00  0.00000000E+00  0.00000000E+00
