Ta1 H1 C125 N1 O2                       
   1.00000000000000     
    19.8067450578165563   -0.0103297180548360   -0.1426542375105657
    -9.9118267850111490   17.0708096061737464   -0.1675384685028368
    -0.2141828141676308   -0.4162987960912630   29.7765176294338509
   Ta   H    C    N    O 
     1     1   125     1     2
Direct
  0.4329455751447583  0.5018657550006633  0.4362757087266391
  0.5365580858887542  0.5606524397621994  0.5114522659808793
  0.0419455060430849  0.0839439792114543  0.3995739582522477
  0.0414841326724112  0.2084786526777847  0.3995180075436398
  0.0410492528927028  0.3332205143888207  0.3995114007102223
  0.0410780625300738  0.4584966975876544  0.3994786187801881
  0.0416773285107348  0.5839298255321619  0.3998003689969912
  0.0422147547901249  0.7092267287105446  0.3999627417684948
  0.0424105501372950  0.8344276048848112  0.3997621240794750
  0.0423553821664701  0.9594066045982921  0.3995226757424833
  0.1676755281585140  0.0850420451984328  0.3998135339798102
  0.1671560160948308  0.2095537506067339  0.4000920314481146
  0.1663121608512394  0.3341101606043200  0.4003330573104235
  0.1651166035728036  0.4587254117284462  0.4001078605676818
  0.1656759722660445  0.5839430573231847  0.3994466980175949
  0.1666122114823598  0.7092313536764152  0.3997057265260400
  0.1671883097673744  0.8345158891183688  0.3998196011212953
  0.1674849610275045  0.9598031737942688  0.3996813362609286
  0.2926906977385411  0.0850690165809799  0.3999631468598738
  0.2934356190996050  0.2111963778935376  0.4016146477512708
  0.2924761293564632  0.3357794933443635  0.4024225804545951
  0.2898426729307422  0.4595911467688061  0.4022386376433288
  0.2894540743255696  0.5844627068807126  0.4006096788588650
  0.2910753575291413  0.7092382930285014  0.3993960897049912
  0.2918401840334083  0.8343003962599183  0.3993971392043336
  0.2922024514878785  0.9595091940014906  0.3994905995965667
  0.4172874094718766  0.0840853861321471  0.3994728313933027
  0.4178509963400034  0.2097258777971018  0.4005619954673353
  0.4197952917849174  0.3369208406333118  0.4054177777142473
  0.4154516137446510  0.7077559366398243  0.4000527937937906
  0.4163942793020758  0.8332323820366426  0.3992021875351101
  0.4169067900417834  0.9586578363549244  0.3993359531045649
  0.5419139740423246  0.0829648897653502  0.3995069581962362
  0.5424235181362729  0.2082135575118814  0.3994843856933347
  0.5432873518912172  0.3333341292354001  0.4008210683858646
  0.5461249715967564  0.4579879907622381  0.4053810809114153
  0.5449804185053028  0.5809615953571446  0.4088069010988499
  0.5393821592630352  0.7047467520347527  0.4028206093928097
  0.5409362484110466  0.8317752956046615  0.3997298170627168
  0.5415428096833970  0.9575711566594726  0.3994440747739600
  0.6665844090085798  0.0825041995871521  0.3997947313141511
  0.6670115398980748  0.2077739477250990  0.3995709922393386
  0.6676456538970778  0.3329288284039625  0.3991140253188864
  0.6692564842960153  0.4583144976985608  0.3992422202805788
  0.6698885603202802  0.5836870321154389  0.4004577005491189
  0.6663578632594845  0.7067559231076204  0.4004337176584774
  0.6654045407787185  0.8313376330018707  0.3998665732665797
  0.6661238686137142  0.9571160313039117  0.3996175844731198
  0.7913130905521442  0.0824650186175283  0.3997533945107183
  0.7916219946515271  0.2076934642911208  0.3998875791931069
  0.7921450880700940  0.3330070519132919  0.3995244235848462
  0.7929786213728747  0.4583637445669203  0.3988931257978338
  0.7934590649006231  0.5836152180765657  0.3985612000850985
  0.7928539069374951  0.7087643839287107  0.3988198710478544
  0.7913531866009419  0.8326617330880215  0.3989667889417244
  0.7909787139329246  0.9572533319297244  0.3993361531877493
  0.9163584919048893  0.0829331520439553  0.3994873926092790
  0.9163335417996388  0.2078585132221395  0.3996451739200738
  0.9165233476187163  0.3330613205979215  0.3996912533801082
  0.9170145349486540  0.4584110734796947  0.3996267029368207
  0.9176184431055880  0.5838496462864373  0.3994595294200352
  0.9176260135907156  0.7090886160976785  0.3992789895853134
  0.9173281600332944  0.8339387720925628  0.3991855317736241
  0.9166806861166210  0.9583480775378370  0.3993076300604105
  0.0841207618446663  0.0428878422513781  0.3995746038518352
  0.0835970495328938  0.1673716608388666  0.3996722872494066
  0.0829181328319149  0.2919161116047685  0.3996548996496624
  0.0822422434652532  0.4167173134225634  0.3995057299830931
  0.0827086524248727  0.5420603080545225  0.3995402986101978
  0.0834795812542125  0.6674557465055422  0.3999178671693971
  0.0839481127011721  0.7927807694718804  0.3999319698869754
  0.0841057576938312  0.9179084332607804  0.3996523758378340
  0.2092379824181366  0.0432194101371521  0.3998021354921792
  0.2094842273102695  0.1685988763014351  0.4003692411809836
  0.2086998911442562  0.2930326047903916  0.4004833308780407
  0.2066634094442285  0.4175614697707709  0.4010929771147603
  0.2065057963242040  0.5421312415329954  0.3999158994231909
  0.2077830753154042  0.6674917336991321  0.3994610285982004
  0.2085882610292996  0.7927681906880690  0.3996789132052880
  0.2090005282005874  0.9180018148070179  0.3996734375443441
  0.3340212994684985  0.0429645572065766  0.3995665328590992
  0.3346114303490763  0.1685827799629462  0.4008001378562427
  0.3353642607956268  0.2946503407458009  0.4038562985705998
  0.3315906682013229  0.4185549239493374  0.4038799589891713
  0.3308553311819196  0.5441660381565189  0.4021725897246852
  0.3321816642836348  0.6676645359504976  0.3999323543877529
  0.3332347514846883  0.7925177843470187  0.3992563120799201
  0.3336693793909329  0.9176234895049764  0.3993688350948575
  0.4587370302088215  0.0420254288919059  0.3994070096986918
  0.4591401152777423  0.1674601722241780  0.3996714110414887
  0.4600931128538546  0.2933657748396195  0.4018867548820582
  0.4647264104590528  0.4199089369025427  0.4101477621625244
  0.4557004051369805  0.6646441173729005  0.4023000458990880
  0.4578134245191767  0.7911175715666379  0.3994259108739312
  0.4582887105966599  0.9166157565533034  0.3992961042325460
  0.5833577101415680  0.0410331525741635  0.3996048582696113
  0.5838104341324597  0.1663537363578695  0.3994555009716262
  0.5844890283879923  0.2914072226438676  0.3995490319082488
  0.5864534852795480  0.4164471732704204  0.4012088824467146
  0.5882826464199087  0.5424333903173945  0.4047832943722622
  0.5823350141664138  0.6630662356907517  0.4040093421547860
  0.5815200218127523  0.7887419587739599  0.4006595504850255
  0.5828791944539342  0.9154373582981495  0.3995171357315230
  0.7079895586512055  0.0406380458428423  0.3997595623565635
  0.7084497526640439  0.1660150774708881  0.3998249375411062
  0.7089326504431321  0.2912231895118979  0.3993471661514306
  0.7100360871683711  0.4165283617612320  0.3987702046056347
  0.7109360918904980  0.5417736032476709  0.3989945293558387
  0.7096562491978946  0.6668048908865424  0.3996790042145000
  0.7077145677297866  0.7902887226662525  0.3994423057682749
  0.7073815514476258  0.9150068106171512  0.3995207031367392
  0.8329024233967778  0.0408586392505398  0.3995205328125548
  0.8330906220649896  0.1659915683698732  0.3998369436907390
  0.8334213612824345  0.2912354227807421  0.3997710728068044
  0.8340511145517329  0.4165247810136691  0.3993937561036097
  0.8346626426747189  0.5418833692277875  0.3988706293872858
  0.8345984530933339  0.6672741046812670  0.3987828069062542
  0.8339598589277268  0.7919455670431035  0.3988977923536214
  0.8330749905844009  0.9161567871325623  0.3991569260312599
  0.9584013859307392  0.0417752605160923  0.3994596081284195
  0.9580916850028722  0.1664216642461244  0.3994888807975370
  0.9579271969238869  0.2913432896855930  0.3995805021961630
  0.9581168679484056  0.4165851357504876  0.3996270663088518
  0.9587353115249897  0.5420386541999151  0.3997217993763151
  0.9591261985764908  0.6673823386086335  0.3996397937581264
  0.9591493748487437  0.7925719235784348  0.3994581017514976
  0.9589034168367055  0.9173636506778087  0.3993404470542301
  0.4116815230760905  0.5837365068486573  0.4049812933877384
  0.5045643010773702  0.5066560446639045  0.4995753743607748
  0.4236275516255201  0.4936475200802429  0.5028466937449391
 
  0.00000000E+00  0.00000000E+00  0.00000000E+00
  0.00000000E+00  0.00000000E+00  0.00000000E+00
  0.00000000E+00  0.00000000E+00  0.00000000E+00
  0.00000000E+00  0.00000000E+00  0.00000000E+00
  0.00000000E+00  0.00000000E+00  0.00000000E+00
  0.00000000E+00  0.00000000E+00  0.00000000E+00
  0.00000000E+00  0.00000000E+00  0.00000000E+00
  0.00000000E+00  0.00000000E+00  0.00000000E+00
  0.00000000E+00  0.00000000E+00  0.00000000E+00
  0.00000000E+00  0.00000000E+00  0.00000000E+00
  0.00000000E+00  0.00000000E+00  0.00000000E+00
  0.00000000E+00  0.00000000E+00  0.00000000E+00
  0.00000000E+00  0.00000000E+00  0.00000000E+00
  0.00000000E+00  0.00000000E+00  0.00000000E+00
  0.00000000E+00  0.00000000E+00  0.00000000E+00
  0.00000000E+00  0.00000000E+00  0.00000000E+00
  0.00000000E+00  0.00000000E+00  0.00000000E+00
  0.00000000E+00  0.00000000E+00  0.00000000E+00
  0.00000000E+00  0.00000000E+00  0.00000000E+00
  0.00000000E+00  0.00000000E+00  0.00000000E+00
  0.00000000E+00  0.00000000E+00  0.00000000E+00
  0.00000000E+00  0.00000000E+00  0.00000000E+00
  0.00000000E+00  0.00000000E+00  0.00000000E+00
  0.00000000E+00  0.00000000E+00  0.00000000E+00
  0.00000000E+00  0.00000000E+00  0.00000000E+00
  0.00000000E+00  0.00000000E+00  0.00000000E+00
  0.00000000E+00  0.00000000E+00  0.00000000E+00
  0.00000000E+00  0.00000000E+00  0.00000000E+00
  0.00000000E+00  0.00000000E+00  0.00000000E+00
  0.00000000E+00  0.00000000E+00  0.00000000E+00
  0.00000000E+00  0.00000000E+00  0.00000000E+00
  0.00000000E+00  0.00000000E+00  0.00000000E+00
  0.00000000E+00  0.00000000E+00  0.00000000E+00
  0.00000000E+00  0.00000000E+00  0.00000000E+00
  0.00000000E+00  0.00000000E+00  0.00000000E+00
  0.00000000E+00  0.00000000E+00  0.00000000E+00
  0.00000000E+00  0.00000000E+00  0.00000000E+00
  0.00000000E+00  0.00000000E+00  0.00000000E+00
  0.00000000E+00  0.00000000E+00  0.00000000E+00
  0.00000000E+00  0.00000000E+00  0.00000000E+00
  0.00000000E+00  0.00000000E+00  0.00000000E+00
  0.00000000E+00  0.00000000E+00  0.00000000E+00
  0.00000000E+00  0.00000000E+00  0.00000000E+00
  0.00000000E+00  0.00000000E+00  0.00000000E+00
  0.00000000E+00  0.00000000E+00  0.00000000E+00
  0.00000000E+00  0.00000000E+00  0.00000000E+00
  0.00000000E+00  0.00000000E+00  0.00000000E+00
  0.00000000E+00  0.00000000E+00  0.00000000E+00
  0.00000000E+00  0.00000000E+00  0.00000000E+00
  0.00000000E+00  0.00000000E+00  0.00000000E+00
  0.00000000E+00  0.00000000E+00  0.00000000E+00
  0.00000000E+00  0.00000000E+00  0.00000000E+00
  0.00000000E+00  0.00000000E+00  0.00000000E+00
  0.00000000E+00  0.00000000E+00  0.00000000E+00
  0.00000000E+00  0.00000000E+00  0.00000000E+00
  0.00000000E+00  0.00000000E+00  0.00000000E+00
  0.00000000E+00  0.00000000E+00  0.00000000E+00
  0.00000000E+00  0.00000000E+00  0.00000000E+00
  0.00000000E+00  0.00000000E+00  0.00000000E+00
  0.00000000E+00  0.00000000E+00  0.00000000E+00
  0.00000000E+00  0.00000000E+00  0.00000000E+00
  0.00000000E+00  0.00000000E+00  0.00000000E+00
  0.00000000E+00  0.00000000E+00  0.00000000E+00
  0.00000000E+00  0.00000000E+00  0.00000000E+00
  0.00000000E+00  0.00000000E+00  0.00000000E+00
  0.00000000E+00  0.00000000E+00  0.00000000E+00
  0.00000000E+00  0.00000000E+00  0.00000000E+00
  0.00000000E+00  0.00000000E+00  0.00000000E+00
  0.00000000E+00  0.00000000E+00  0.00000000E+00
  0.00000000E+00  0.00000000E+00  0.00000000E+00
  0.00000000E+00  0.00000000E+00  0.00000000E+00
  0.00000000E+00  0.00000000E+00  0.00000000E+00
  0.00000000E+00  0.00000000E+00  0.00000000E+00
  0.00000000E+00  0.00000000E+00  0.00000000E+00
  0.00000000E+00  0.00000000E+00  0.00000000E+00
  0.00000000E+00  0.00000000E+00  0.00000000E+00
  0.00000000E+00  0.00000000E+00  0.00000000E+00
  0.00000000E+00  0.00000000E+00  0.00000000E+00
  0.00000000E+00  0.00000000E+00  0.00000000E+00
  0.00000000E+00  0.00000000E+00  0.00000000E+00
  0.00000000E+00  0.00000000E+00  0.00000000E+00
  0.00000000E+00  0.00000000E+00  0.00000000E+00
  0.00000000E+00  0.00000000E+00  0.00000000E+00
  0.00000000E+00  0.00000000E+00  0.00000000E+00
  0.00000000E+00  0.00000000E+00  0.00000000E+00
  0.00000000E+00  0.00000000E+00  0.00000000E+00
  0.00000000E+00  0.00000000E+00  0.00000000E+00
  0.00000000E+00  0.00000000E+00  0.00000000E+00
  0.00000000E+00  0.00000000E+00  0.00000000E+00
  0.00000000E+00  0.00000000E+00  0.00000000E+00
  0.00000000E+00  0.00000000E+00  0.00000000E+00
  0.00000000E+00  0.00000000E+00  0.00000000E+00
  0.00000000E+00  0.00000000E+00  0.00000000E+00
  0.00000000E+00  0.00000000E+00  0.00000000E+00
  0.00000000E+00  0.00000000E+00  0.00000000E+00
  0.00000000E+00  0.00000000E+00  0.00000000E+00
  0.00000000E+00  0.00000000E+00  0.00000000E+00
  0.00000000E+00  0.00000000E+00  0.00000000E+00
  0.00000000E+00  0.00000000E+00  0.00000000E+00
  0.00000000E+00  0.00000000E+00  0.00000000E+00
  0.00000000E+00  0.00000000E+00  0.00000000E+00
  0.00000000E+00  0.00000000E+00  0.00000000E+00
  0.00000000E+00  0.00000000E+00  0.00000000E+00
  0.00000000E+00  0.00000000E+00  0.00000000E+00
  0.00000000E+00  0.00000000E+00  0.00000000E+00
  0.00000000E+00  0.00000000E+00  0.00000000E+00
  0.00000000E+00  0.00000000E+00  0.00000000E+00
  0.00000000E+00  0.00000000E+00  0.00000000E+00
  0.00000000E+00  0.00000000E+00  0.00000000E+00
  0.00000000E+00  0.00000000E+00  0.00000000E+00
  0.00000000E+00  0.00000000E+00  0.00000000E+00
  0.00000000E+00  0.00000000E+00  0.00000000E+00
  0.00000000E+00  0.00000000E+00  0.00000000E+00
  0.00000000E+00  0.00000000E+00  0.00000000E+00
  0.00000000E+00  0.00000000E+00  0.00000000E+00
  0.00000000E+00  0.00000000E+00  0.00000000E+00
  0.00000000E+00  0.00000000E+00  0.00000000E+00
  0.00000000E+00  0.00000000E+00  0.00000000E+00
  0.00000000E+00  0.00000000E+00  0.00000000E+00
  0.00000000E+00  0.00000000E+00  0.00000000E+00
  0.00000000E+00  0.00000000E+00  0.00000000E+00
  0.00000000E+00  0.00000000E+00  0.00000000E+00
  0.00000000E+00  0.00000000E+00  0.00000000E+00
  0.00000000E+00  0.00000000E+00  0.00000000E+00
  0.00000000E+00  0.00000000E+00  0.00000000E+00
  0.00000000E+00  0.00000000E+00  0.00000000E+00
  0.00000000E+00  0.00000000E+00  0.00000000E+00
  0.00000000E+00  0.00000000E+00  0.00000000E+00
  0.00000000E+00  0.00000000E+00  0.00000000E+00
  0.00000000E+00  0.00000000E+00  0.00000000E+00
