Zn1 H1 C124 N2 O2                       
   1.00000000000000     
    19.8278413056213516   -0.0214547531617178    0.0481506484907959
    -9.9326526236318546   17.0592748082716490   -0.0326571704767390
     0.0722761038219636   -0.0148942104255724   29.7675060985390445
   Zn   H    C    N    O 
     1     1   124     2     2
Direct
  0.4373561987781288  0.4995816817256317  0.4238506446690646
  0.5329161992101030  0.5539802110036787  0.5209110917640443
  0.0421339610585120  0.0842702194187656  0.3998334152971443
  0.0413039403905211  0.2084235135666949  0.3998758494493482
  0.0405982866573003  0.3329767393677749  0.3993778341511743
  0.0404393580027552  0.4583859438996325  0.3992808482350085
  0.0410859518745544  0.5838548631070052  0.3995333118886649
  0.0417825641730455  0.7092766329636614  0.3997279051583942
  0.0421938038157682  0.8345972725984797  0.3996664748338701
  0.0424717107956314  0.9597513662860570  0.3996358142709325
  0.1681847889629803  0.0859877246615593  0.4004721454304853
  0.1676239462512839  0.2104150646303495  0.4008997118000604
  0.1658453315451050  0.3342161263545176  0.4004131117495094
  0.1640940082051100  0.4586898073183702  0.3988245460033257
  0.1648356500594952  0.5839729255695530  0.3991276693738219
  0.1660038000871973  0.7094058288900538  0.3996474411925647
  0.1667989249978182  0.8347647176852532  0.3999191719564688
  0.1674743538575048  0.9602612584544920  0.3999727269425644
  0.2927580798601971  0.0856256789145110  0.4002636536205809
  0.2946524592272849  0.2130552084829781  0.4020456101236178
  0.2930580677114862  0.3381941266008865  0.4052978400447375
  0.2879527871404917  0.4593691396974252  0.4031329281191273
  0.2882495305567537  0.5848052372709057  0.4000248924511222
  0.2901240678745330  0.7094419876260204  0.3995425245358964
  0.2912759156990108  0.8344169264225808  0.3997447247814477
  0.2919623640883605  0.9597529952537088  0.3998866161141065
  0.4171536561239132  0.0838075599468605  0.3998019710852164
  0.4179640887609494  0.2092944420337094  0.4007010029217224
  0.4219085058675577  0.3372862065641085  0.4032397676098083
  0.4142498725612673  0.7074962334923038  0.4011621188019207
  0.4157726029267971  0.8330409483649697  0.3999994888754180
  0.4164850073022477  0.9584054603120592  0.3997617453248974
  0.5416509026457981  0.0823307629273763  0.3997910573998777
  0.5423931813027836  0.2074854387125318  0.3996110916414210
  0.5437997382114774  0.3323945099200220  0.4002276138210853
  0.5451021329648087  0.4554436018855232  0.4026319339491891
  0.5455599111123863  0.5797582095273049  0.4093964922842714
  0.5380176227047233  0.7029720946693188  0.4038802817767325
  0.5399929412614385  0.8307439900342627  0.4009289905998240
  0.5410265510098884  0.9568374347916321  0.3999900797716716
  0.6661785431036581  0.0817370044701514  0.3999587891798484
  0.6668845763091087  0.2071632855446475  0.3997723528327877
  0.6678359636003327  0.3324069161744229  0.3993126028460621
  0.6694864749375020  0.4577768509388965  0.3993634334424341
  0.6694690108935936  0.5825720717642755  0.4003718602361458
  0.6658759525627955  0.7059587014838644  0.4019426569254954
  0.6646455232933871  0.8301834904619217  0.4012762086644764
  0.6655657659077746  0.9561857351445537  0.4002842932739480
  0.7909183707344523  0.0817780135783884  0.3997290412183181
  0.7913200426447674  0.2070655827639327  0.3998055932669385
  0.7920194917597857  0.3325314059185708  0.3996435922160454
  0.7929778905201781  0.4580609664586606  0.3992175171798137
  0.7933774096041986  0.5833647053070934  0.3991189070921619
  0.7924422735064721  0.7082053715147779  0.3998935632275549
  0.7910976456457109  0.8322680393806294  0.4001100955752432
  0.7905118451298673  0.9565801822055080  0.3999345433325940
  0.9161652276683323  0.0826213608381399  0.3994982404373728
  0.9160281846881343  0.2074547142940464  0.3995205383525210
  0.9161507916968116  0.3326502572133394  0.3995500657829583
  0.9166354409723710  0.4581287545225645  0.3995935266217933
  0.9172997918895712  0.5836961377357659  0.3995068397658311
  0.9173879867922929  0.7090556988084831  0.3994752967493856
  0.9170855490584672  0.8338478048270005  0.3995737676963363
  0.9165721423157576  0.9582275130394297  0.3995291465066190
  0.0844499616530424  0.0434650477257998  0.3999576129769413
  0.0838311104855627  0.1677426093396048  0.4000928921755509
  0.0825296631579393  0.2918421893115967  0.3997910337163065
  0.0815533001811875  0.4166476044558918  0.3990545057442436
  0.0819693932331195  0.5419691899260977  0.3992633906320988
  0.0829102455517271  0.6674887494465906  0.3996639376286095
  0.0836093862186969  0.7929509392206663  0.3998143065191742
  0.0840430358857505  0.9182447237505665  0.3997451276583007
  0.2093759315940834  0.0438817802705228  0.4002575464585398
  0.2102836675650105  0.1699111897272157  0.4012560759333705
  0.2090250405330840  0.2940650967597531  0.4018082398662962
  0.2054962349954202  0.4174709983567447  0.3997992303657277
  0.2055189318328386  0.5422502505834386  0.3991087321222728
  0.2070893874449782  0.6676293160618293  0.3993979357588858
  0.2080382556499262  0.7928916911684976  0.3998054717653202
  0.2087700582955738  0.9183198155536395  0.3999574096706703
  0.3338915679634361  0.0432468118258416  0.3999242379253085
  0.3349168795422041  0.1693593504626079  0.4009144380362436
  0.3368474791301438  0.2971527950858473  0.4040783942127772
  0.3292930567239300  0.4203744770051251  0.4092876200463075
  0.3300023731101538  0.5445839279567886  0.4018953867835072
  0.3311413793957306  0.6676359923351296  0.4000454726858592
  0.3325173401478868  0.7925510450676175  0.3997271117394725
  0.3333097621041538  0.9177446930745641  0.3997928549923074
  0.4584785515845930  0.0416904571424729  0.3997471770580727
  0.4591526632271289  0.1670297071890087  0.3999151569745388
  0.4606956408736554  0.2925517818222350  0.4013490744605985
  0.4530275103463228  0.6627602318864249  0.4028365413101883
  0.4569449683433865  0.7907653557802751  0.4007037576129742
  0.4577698343090822  0.9162496983855775  0.3998659657080635
  0.5830005625348224  0.0403309675287446  0.3999124314137806
  0.5836691309404213  0.1656732078425682  0.3996904442204527
  0.5848178584057091  0.2906010131617108  0.3994773320336454
  0.5868015795672092  0.4151847868559799  0.4004470454067797
  0.5869898064037276  0.5406073457082390  0.4038031338468855
  0.5817088439497862  0.6618564364434845  0.4052893544214566
  0.5802650442031562  0.7870589582611256  0.4019905015815065
  0.5821805601926883  0.9144670484264928  0.4003316137525022
  0.7074941102843908  0.0397949076724583  0.3999697784834809
  0.7081388683991638  0.1652983984182605  0.3999242163275769
  0.7089436204949741  0.2906575628752810  0.3995778285622438
  0.7101259672975982  0.4160434691056478  0.3991179867022459
  0.7108678612110773  0.5413116289792231  0.3991585815207931
  0.7090981593048472  0.6658229828729922  0.4007069659786635
  0.7072772044215252  0.7896208582488173  0.4009607185683699
  0.7067743124971018  0.9140877024029974  0.4004729981878768
  0.8325286448612046  0.0402821802672992  0.3996181106853076
  0.8327503949868995  0.1654206261772569  0.3996425526431456
  0.8331467105982999  0.2907408748757498  0.3997198269456577
  0.8338263071633947  0.4161519023909744  0.3995130037934763
  0.8344832960157906  0.5416187924740477  0.3992445813427833
  0.8343346199524517  0.6670381937177209  0.3994256791132381
  0.8336553825118829  0.7916087891681769  0.3998756940588070
  0.8328369470197746  0.9157550163138352  0.3998132884566801
  0.9584167880408845  0.0417886730602036  0.3995397991541745
  0.9578787826741602  0.1661756183760893  0.3995839182099594
  0.9575458410583810  0.2909773849642407  0.3994604506156992
  0.9576054764740998  0.4163067051878430  0.3995289654026506
  0.9582825392086977  0.5418881917458094  0.3995887695050395
  0.9587667814748058  0.6673601339896891  0.3995620014119288
  0.9589165712579013  0.7925664255884500  0.3995400486852270
  0.9588304706342705  0.9174146537621638  0.3994984369430033
  0.4084772499940397  0.5832075632627628  0.4027192188238739
  0.4666880493939921  0.4168288991506722  0.4034514325302188
  0.4971521733274991  0.4991848988503498  0.5125204831344159
  0.4347892112913165  0.5038640298530734  0.4915925567551116
 
  0.00000000E+00  0.00000000E+00  0.00000000E+00
  0.00000000E+00  0.00000000E+00  0.00000000E+00
  0.00000000E+00  0.00000000E+00  0.00000000E+00
  0.00000000E+00  0.00000000E+00  0.00000000E+00
  0.00000000E+00  0.00000000E+00  0.00000000E+00
  0.00000000E+00  0.00000000E+00  0.00000000E+00
  0.00000000E+00  0.00000000E+00  0.00000000E+00
  0.00000000E+00  0.00000000E+00  0.00000000E+00
  0.00000000E+00  0.00000000E+00  0.00000000E+00
  0.00000000E+00  0.00000000E+00  0.00000000E+00
  0.00000000E+00  0.00000000E+00  0.00000000E+00
  0.00000000E+00  0.00000000E+00  0.00000000E+00
  0.00000000E+00  0.00000000E+00  0.00000000E+00
  0.00000000E+00  0.00000000E+00  0.00000000E+00
  0.00000000E+00  0.00000000E+00  0.00000000E+00
  0.00000000E+00  0.00000000E+00  0.00000000E+00
  0.00000000E+00  0.00000000E+00  0.00000000E+00
  0.00000000E+00  0.00000000E+00  0.00000000E+00
  0.00000000E+00  0.00000000E+00  0.00000000E+00
  0.00000000E+00  0.00000000E+00  0.00000000E+00
  0.00000000E+00  0.00000000E+00  0.00000000E+00
  0.00000000E+00  0.00000000E+00  0.00000000E+00
  0.00000000E+00  0.00000000E+00  0.00000000E+00
  0.00000000E+00  0.00000000E+00  0.00000000E+00
  0.00000000E+00  0.00000000E+00  0.00000000E+00
  0.00000000E+00  0.00000000E+00  0.00000000E+00
  0.00000000E+00  0.00000000E+00  0.00000000E+00
  0.00000000E+00  0.00000000E+00  0.00000000E+00
  0.00000000E+00  0.00000000E+00  0.00000000E+00
  0.00000000E+00  0.00000000E+00  0.00000000E+00
  0.00000000E+00  0.00000000E+00  0.00000000E+00
  0.00000000E+00  0.00000000E+00  0.00000000E+00
  0.00000000E+00  0.00000000E+00  0.00000000E+00
  0.00000000E+00  0.00000000E+00  0.00000000E+00
  0.00000000E+00  0.00000000E+00  0.00000000E+00
  0.00000000E+00  0.00000000E+00  0.00000000E+00
  0.00000000E+00  0.00000000E+00  0.00000000E+00
  0.00000000E+00  0.00000000E+00  0.00000000E+00
  0.00000000E+00  0.00000000E+00  0.00000000E+00
  0.00000000E+00  0.00000000E+00  0.00000000E+00
  0.00000000E+00  0.00000000E+00  0.00000000E+00
  0.00000000E+00  0.00000000E+00  0.00000000E+00
  0.00000000E+00  0.00000000E+00  0.00000000E+00
  0.00000000E+00  0.00000000E+00  0.00000000E+00
  0.00000000E+00  0.00000000E+00  0.00000000E+00
  0.00000000E+00  0.00000000E+00  0.00000000E+00
  0.00000000E+00  0.00000000E+00  0.00000000E+00
  0.00000000E+00  0.00000000E+00  0.00000000E+00
  0.00000000E+00  0.00000000E+00  0.00000000E+00
  0.00000000E+00  0.00000000E+00  0.00000000E+00
  0.00000000E+00  0.00000000E+00  0.00000000E+00
  0.00000000E+00  0.00000000E+00  0.00000000E+00
  0.00000000E+00  0.00000000E+00  0.00000000E+00
  0.00000000E+00  0.00000000E+00  0.00000000E+00
  0.00000000E+00  0.00000000E+00  0.00000000E+00
  0.00000000E+00  0.00000000E+00  0.00000000E+00
  0.00000000E+00  0.00000000E+00  0.00000000E+00
  0.00000000E+00  0.00000000E+00  0.00000000E+00
  0.00000000E+00  0.00000000E+00  0.00000000E+00
  0.00000000E+00  0.00000000E+00  0.00000000E+00
  0.00000000E+00  0.00000000E+00  0.00000000E+00
  0.00000000E+00  0.00000000E+00  0.00000000E+00
  0.00000000E+00  0.00000000E+00  0.00000000E+00
  0.00000000E+00  0.00000000E+00  0.00000000E+00
  0.00000000E+00  0.00000000E+00  0.00000000E+00
  0.00000000E+00  0.00000000E+00  0.00000000E+00
  0.00000000E+00  0.00000000E+00  0.00000000E+00
  0.00000000E+00  0.00000000E+00  0.00000000E+00
  0.00000000E+00  0.00000000E+00  0.00000000E+00
  0.00000000E+00  0.00000000E+00  0.00000000E+00
  0.00000000E+00  0.00000000E+00  0.00000000E+00
  0.00000000E+00  0.00000000E+00  0.00000000E+00
  0.00000000E+00  0.00000000E+00  0.00000000E+00
  0.00000000E+00  0.00000000E+00  0.00000000E+00
  0.00000000E+00  0.00000000E+00  0.00000000E+00
  0.00000000E+00  0.00000000E+00  0.00000000E+00
  0.00000000E+00  0.00000000E+00  0.00000000E+00
  0.00000000E+00  0.00000000E+00  0.00000000E+00
  0.00000000E+00  0.00000000E+00  0.00000000E+00
  0.00000000E+00  0.00000000E+00  0.00000000E+00
  0.00000000E+00  0.00000000E+00  0.00000000E+00
  0.00000000E+00  0.00000000E+00  0.00000000E+00
  0.00000000E+00  0.00000000E+00  0.00000000E+00
  0.00000000E+00  0.00000000E+00  0.00000000E+00
  0.00000000E+00  0.00000000E+00  0.00000000E+00
  0.00000000E+00  0.00000000E+00  0.00000000E+00
  0.00000000E+00  0.00000000E+00  0.00000000E+00
  0.00000000E+00  0.00000000E+00  0.00000000E+00
  0.00000000E+00  0.00000000E+00  0.00000000E+00
  0.00000000E+00  0.00000000E+00  0.00000000E+00
  0.00000000E+00  0.00000000E+00  0.00000000E+00
  0.00000000E+00  0.00000000E+00  0.00000000E+00
  0.00000000E+00  0.00000000E+00  0.00000000E+00
  0.00000000E+00  0.00000000E+00  0.00000000E+00
  0.00000000E+00  0.00000000E+00  0.00000000E+00
  0.00000000E+00  0.00000000E+00  0.00000000E+00
  0.00000000E+00  0.00000000E+00  0.00000000E+00
  0.00000000E+00  0.00000000E+00  0.00000000E+00
  0.00000000E+00  0.00000000E+00  0.00000000E+00
  0.00000000E+00  0.00000000E+00  0.00000000E+00
  0.00000000E+00  0.00000000E+00  0.00000000E+00
  0.00000000E+00  0.00000000E+00  0.00000000E+00
  0.00000000E+00  0.00000000E+00  0.00000000E+00
  0.00000000E+00  0.00000000E+00  0.00000000E+00
  0.00000000E+00  0.00000000E+00  0.00000000E+00
  0.00000000E+00  0.00000000E+00  0.00000000E+00
  0.00000000E+00  0.00000000E+00  0.00000000E+00
  0.00000000E+00  0.00000000E+00  0.00000000E+00
  0.00000000E+00  0.00000000E+00  0.00000000E+00
  0.00000000E+00  0.00000000E+00  0.00000000E+00
  0.00000000E+00  0.00000000E+00  0.00000000E+00
  0.00000000E+00  0.00000000E+00  0.00000000E+00
  0.00000000E+00  0.00000000E+00  0.00000000E+00
  0.00000000E+00  0.00000000E+00  0.00000000E+00
  0.00000000E+00  0.00000000E+00  0.00000000E+00
  0.00000000E+00  0.00000000E+00  0.00000000E+00
  0.00000000E+00  0.00000000E+00  0.00000000E+00
  0.00000000E+00  0.00000000E+00  0.00000000E+00
  0.00000000E+00  0.00000000E+00  0.00000000E+00
  0.00000000E+00  0.00000000E+00  0.00000000E+00
  0.00000000E+00  0.00000000E+00  0.00000000E+00
  0.00000000E+00  0.00000000E+00  0.00000000E+00
  0.00000000E+00  0.00000000E+00  0.00000000E+00
  0.00000000E+00  0.00000000E+00  0.00000000E+00
  0.00000000E+00  0.00000000E+00  0.00000000E+00
  0.00000000E+00  0.00000000E+00  0.00000000E+00
  0.00000000E+00  0.00000000E+00  0.00000000E+00
  0.00000000E+00  0.00000000E+00  0.00000000E+00
  0.00000000E+00  0.00000000E+00  0.00000000E+00
  0.00000000E+00  0.00000000E+00  0.00000000E+00
