Ag1 H1 C126 O2                          
   1.00000000000000     
    19.8811808543797675    0.0002435361796840   -0.0121009668500021
    -9.9403990919618206   17.0718145693870547    0.0228387916502950
    -0.0179687274763184    0.0291973173754367   29.6467892449039923
   Ag   H    C    O 
     1     1   126     2
Direct
  0.4373543110006160  0.4998654751536155  0.4078106606241406
  0.5326902519434854  0.5514199254098194  0.5128858412159591
  0.0416058102543050  0.0837060193295762  0.3996956858174711
  0.0401255666560015  0.2075686095731045  0.3997908735541869
  0.0393994421337126  0.3324214738282194  0.3995015933418976
  0.0396138982715282  0.4581900588818282  0.3988851969406515
  0.0410522493890072  0.5839369316053699  0.3986001328591525
  0.0422625921186104  0.7094475376504525  0.3987930678746550
  0.0427070483359088  0.8348094606334411  0.3992080498575641
  0.0426097031244128  0.9596614482332467  0.3995468543385663
  0.1676500481918975  0.0853803818301466  0.4002846037631965
  0.1662007945780397  0.2092206474058643  0.4008479524621166
  0.1636766008871455  0.3326267797824216  0.4011509796288609
  0.1622361251612257  0.4581828814328406  0.4004386355137279
  0.1639779382038719  0.5838605566087245  0.3994805877176608
  0.1661601191151868  0.7094454797634611  0.3990707655722228
  0.1671498110771192  0.8348061426907226  0.3991607970501720
  0.1676111167122284  0.9601384518178505  0.3996595461464694
  0.2927748617799047  0.0853822721803490  0.4002635390746105
  0.2934270029876989  0.2118237787068606  0.4016349957045375
  0.2907079310860775  0.3361488594283611  0.4036779705049856
  0.2838643003773075  0.4575338142080956  0.4041751953016190
  0.2866944702778533  0.5841775970530747  0.4018944230404990
  0.2901711709032001  0.7092808372914384  0.4001111175444610
  0.2913451755390550  0.8342948284639050  0.3994275787166767
  0.2921147214929370  0.9596567169586279  0.3995647971648340
  0.4171422310829659  0.0836857273602990  0.3997392319535197
  0.4180537708591543  0.2092064523397333  0.4007424165475760
  0.4204588156032114  0.3361713393466778  0.4030331709941574
  0.4078306007684474  0.5820770444799763  0.4059683784206395
  0.4143940731271737  0.7074747670925206  0.4020374881068474
  0.4158312025987959  0.8330656779102673  0.4000792825360349
  0.4165785337915368  0.9583774634526697  0.3994708919595413
  0.5416710864948732  0.0823494387313157  0.3994874226321640
  0.5424884219618015  0.2075785347995290  0.3998438446772445
  0.5439574282417236  0.3326182565772708  0.4008106847205202
  0.5485911613849584  0.4574954922239409  0.4028716970609297
  0.5491341221249337  0.5820106429835821  0.4049645734160371
  0.5397253017638840  0.7045304596138172  0.4034310413157640
  0.5402906014527291  0.8310841241628122  0.4011085777494595
  0.5410287056933030  0.9568882469248561  0.3998105412459477
  0.6660687588653381  0.0816904733912091  0.3994286317538339
  0.6667593338561305  0.2070484125699157  0.3993607854756491
  0.6680565623339931  0.3324130950516125  0.3996766468149139
  0.6709641958361134  0.4581622694297274  0.4003216057265401
  0.6725058857261872  0.5841853844872544  0.4013211141959390
  0.6681150719637008  0.7074919796176042  0.4017246881732582
  0.6658083710744801  0.8310768406541229  0.4010900419800966
  0.6656922719661648  0.9563462461340749  0.4001379640589381
  0.7906985583488921  0.0816935895909915  0.3994182380664322
  0.7909812771341193  0.2069116266318775  0.3990339964789375
  0.7918916263165460  0.3324395913891058  0.3989654687045658
  0.7936078554401531  0.4581791625893924  0.3991749798839022
  0.7949269519624932  0.5838534054271309  0.3996807590411753
  0.7941682877969968  0.7092733820977342  0.4001582323672652
  0.7922709452286533  0.8330612397700212  0.4001226343327478
  0.7908912777305891  0.9568786345693877  0.3998444700869799
  0.9157471648725229  0.0823511533268076  0.3994398490185600
  0.9153374310778560  0.2070572834842579  0.3992277574753588
  0.9156244618623043  0.3324482654525351  0.3988064537039042
  0.9165897793820423  0.4581197945731103  0.3985524546798656
  0.9179449511521600  0.5839415846323449  0.3987830802254162
  0.9183412255442295  0.7094364871874399  0.3993181805298077
  0.9179918170923278  0.8342938934036865  0.3995433565652027
  0.9168720301366978  0.9583797836338719  0.3994897997829334
  0.0841535059586378  0.0431130622966009  0.3998051841757316
  0.0827837531586382  0.1669303231741010  0.4000309103217261
  0.0808985557105982  0.2907016201941192  0.4000473097032209
  0.0801131956631406  0.4161256732617830  0.3994694060780816
  0.0814182213875609  0.5418063914049440  0.3988703282668071
  0.0831731065690971  0.6675475855485118  0.3987369624044290
  0.0840642816526534  0.7930843233197011  0.3990108048196062
  0.0843699444043912  0.9182988020315889  0.3994578090199711
  0.2093495300475074  0.0436462902188061  0.4001221848802354
  0.2092289095380912  0.1689102519477120  0.4009690096036471
  0.2069301183985777  0.2924982098270442  0.4018175768387166
  0.2025212016851647  0.4157990417509295  0.4017508190464548
  0.2040381874419406  0.5418059682755210  0.4004816876199962
  0.2069633452909498  0.6675722571847297  0.3995137379278899
  0.2082734273359468  0.7929412019968735  0.3992069362239862
  0.2090033655123757  0.9182973913660678  0.3994588232190914
  0.3340029965341864  0.0431105560547109  0.3998302557617954
  0.3347217536929030  0.1689186774755569  0.4008933105367427
  0.3352310942624313  0.2954554798121224  0.4030609051938239
  0.3257093180268882  0.4178127916608876  0.4057218447634445
  0.3263067774436899  0.5424354552778605  0.4042698947808979
  0.3310214505114967  0.6673618051031792  0.4013220402247822
  0.3325347647682714  0.7924268792011880  0.3998133591590003
  0.3333866729160473  0.9176419146271783  0.3994579057812691
  0.4584728500931356  0.0416164312949778  0.3994962728044254
  0.4591909309148023  0.1669374399478804  0.4000406203750642
  0.4605899254159290  0.2925036110496336  0.4014090817556557
  0.4670522024221462  0.4179056138309139  0.4044101039368085
  0.4544820756263543  0.6637867525300377  0.4039565403882746
  0.4569602145400314  0.7907750852768139  0.4009888302633535
  0.4578845106748215  0.9162967610761288  0.3997083146179387
  0.5829424689782039  0.0403420706500005  0.3995389918020095
  0.5836731776147374  0.1657063255221926  0.3995396120760100
  0.5848423748203498  0.2907182263530513  0.4000486464125612
  0.5882607872639514  0.4157801452362199  0.4011473636621834
  0.5910902161473195  0.5424181328159524  0.4031104799589494
  0.5842815485394851  0.6637769439991472  0.4035316771182383
  0.5815762510710774  0.7881504489085226  0.4018788419239711
  0.5822507538471960  0.9146176745541945  0.4003345352963411
  0.7074556015128840  0.0398426482700616  0.3996149986370519
  0.7078834057073466  0.1651852223953392  0.3992096683729973
  0.7088788908635015  0.2905535439096282  0.3993249788255113
  0.7110341221697687  0.4161162345786328  0.3996708316171220
  0.7127962129240792  0.5417899841067090  0.4003516626003689
  0.7113621073287721  0.6673593073641003  0.4010300476421600
  0.7088620050438368  0.7908014412004395  0.4009428269250607
  0.7073949424129479  0.9146031229919641  0.4003397310126383
  0.8324506982363900  0.0403307704621875  0.3995330785965550
  0.8323370342731173  0.1651848336806117  0.3991542828672483
  0.8328004239692085  0.2905470360007817  0.3988592458524669
  0.8339692968285566  0.4160403609434520  0.3988169732663894
  0.8354175236588668  0.5417907092214397  0.3991612530132628
  0.8356430243184031  0.6675563520156206  0.3997158625725636
  0.8349218963929477  0.7924041576884062  0.3999084825625875
  0.8334635540201966  0.9163014279624294  0.3997603386202154
  0.9582104149864229  0.0416120578503247  0.3994614483286160
  0.9570516354956918  0.1656894716510174  0.3994322002444921
  0.9567081245438286  0.2905455356183362  0.3991160164410849
  0.9570965654894605  0.4160485132364434  0.3986421900577721
  0.9584508848874682  0.5418559330100395  0.3985325312652190
  0.9594415586187890  0.6675406049257819  0.3989184547111527
  0.9597046544001581  0.7929389394984557  0.3993567635265036
  0.9593261742768060  0.9176441137336863  0.3994867645419773
  0.4894175968719325  0.4984534238923137  0.5205406309745293
  0.4247956736393886  0.4978154247184899  0.5055149443918318
 
  0.00000000E+00  0.00000000E+00  0.00000000E+00
  0.00000000E+00  0.00000000E+00  0.00000000E+00
  0.00000000E+00  0.00000000E+00  0.00000000E+00
  0.00000000E+00  0.00000000E+00  0.00000000E+00
  0.00000000E+00  0.00000000E+00  0.00000000E+00
  0.00000000E+00  0.00000000E+00  0.00000000E+00
  0.00000000E+00  0.00000000E+00  0.00000000E+00
  0.00000000E+00  0.00000000E+00  0.00000000E+00
  0.00000000E+00  0.00000000E+00  0.00000000E+00
  0.00000000E+00  0.00000000E+00  0.00000000E+00
  0.00000000E+00  0.00000000E+00  0.00000000E+00
  0.00000000E+00  0.00000000E+00  0.00000000E+00
  0.00000000E+00  0.00000000E+00  0.00000000E+00
  0.00000000E+00  0.00000000E+00  0.00000000E+00
  0.00000000E+00  0.00000000E+00  0.00000000E+00
  0.00000000E+00  0.00000000E+00  0.00000000E+00
  0.00000000E+00  0.00000000E+00  0.00000000E+00
  0.00000000E+00  0.00000000E+00  0.00000000E+00
  0.00000000E+00  0.00000000E+00  0.00000000E+00
  0.00000000E+00  0.00000000E+00  0.00000000E+00
  0.00000000E+00  0.00000000E+00  0.00000000E+00
  0.00000000E+00  0.00000000E+00  0.00000000E+00
  0.00000000E+00  0.00000000E+00  0.00000000E+00
  0.00000000E+00  0.00000000E+00  0.00000000E+00
  0.00000000E+00  0.00000000E+00  0.00000000E+00
  0.00000000E+00  0.00000000E+00  0.00000000E+00
  0.00000000E+00  0.00000000E+00  0.00000000E+00
  0.00000000E+00  0.00000000E+00  0.00000000E+00
  0.00000000E+00  0.00000000E+00  0.00000000E+00
  0.00000000E+00  0.00000000E+00  0.00000000E+00
  0.00000000E+00  0.00000000E+00  0.00000000E+00
  0.00000000E+00  0.00000000E+00  0.00000000E+00
  0.00000000E+00  0.00000000E+00  0.00000000E+00
  0.00000000E+00  0.00000000E+00  0.00000000E+00
  0.00000000E+00  0.00000000E+00  0.00000000E+00
  0.00000000E+00  0.00000000E+00  0.00000000E+00
  0.00000000E+00  0.00000000E+00  0.00000000E+00
  0.00000000E+00  0.00000000E+00  0.00000000E+00
  0.00000000E+00  0.00000000E+00  0.00000000E+00
  0.00000000E+00  0.00000000E+00  0.00000000E+00
  0.00000000E+00  0.00000000E+00  0.00000000E+00
  0.00000000E+00  0.00000000E+00  0.00000000E+00
  0.00000000E+00  0.00000000E+00  0.00000000E+00
  0.00000000E+00  0.00000000E+00  0.00000000E+00
  0.00000000E+00  0.00000000E+00  0.00000000E+00
  0.00000000E+00  0.00000000E+00  0.00000000E+00
  0.00000000E+00  0.00000000E+00  0.00000000E+00
  0.00000000E+00  0.00000000E+00  0.00000000E+00
  0.00000000E+00  0.00000000E+00  0.00000000E+00
  0.00000000E+00  0.00000000E+00  0.00000000E+00
  0.00000000E+00  0.00000000E+00  0.00000000E+00
  0.00000000E+00  0.00000000E+00  0.00000000E+00
  0.00000000E+00  0.00000000E+00  0.00000000E+00
  0.00000000E+00  0.00000000E+00  0.00000000E+00
  0.00000000E+00  0.00000000E+00  0.00000000E+00
  0.00000000E+00  0.00000000E+00  0.00000000E+00
  0.00000000E+00  0.00000000E+00  0.00000000E+00
  0.00000000E+00  0.00000000E+00  0.00000000E+00
  0.00000000E+00  0.00000000E+00  0.00000000E+00
  0.00000000E+00  0.00000000E+00  0.00000000E+00
  0.00000000E+00  0.00000000E+00  0.00000000E+00
  0.00000000E+00  0.00000000E+00  0.00000000E+00
  0.00000000E+00  0.00000000E+00  0.00000000E+00
  0.00000000E+00  0.00000000E+00  0.00000000E+00
  0.00000000E+00  0.00000000E+00  0.00000000E+00
  0.00000000E+00  0.00000000E+00  0.00000000E+00
  0.00000000E+00  0.00000000E+00  0.00000000E+00
  0.00000000E+00  0.00000000E+00  0.00000000E+00
  0.00000000E+00  0.00000000E+00  0.00000000E+00
  0.00000000E+00  0.00000000E+00  0.00000000E+00
  0.00000000E+00  0.00000000E+00  0.00000000E+00
  0.00000000E+00  0.00000000E+00  0.00000000E+00
  0.00000000E+00  0.00000000E+00  0.00000000E+00
  0.00000000E+00  0.00000000E+00  0.00000000E+00
  0.00000000E+00  0.00000000E+00  0.00000000E+00
  0.00000000E+00  0.00000000E+00  0.00000000E+00
  0.00000000E+00  0.00000000E+00  0.00000000E+00
  0.00000000E+00  0.00000000E+00  0.00000000E+00
  0.00000000E+00  0.00000000E+00  0.00000000E+00
  0.00000000E+00  0.00000000E+00  0.00000000E+00
  0.00000000E+00  0.00000000E+00  0.00000000E+00
  0.00000000E+00  0.00000000E+00  0.00000000E+00
  0.00000000E+00  0.00000000E+00  0.00000000E+00
  0.00000000E+00  0.00000000E+00  0.00000000E+00
  0.00000000E+00  0.00000000E+00  0.00000000E+00
  0.00000000E+00  0.00000000E+00  0.00000000E+00
  0.00000000E+00  0.00000000E+00  0.00000000E+00
  0.00000000E+00  0.00000000E+00  0.00000000E+00
  0.00000000E+00  0.00000000E+00  0.00000000E+00
  0.00000000E+00  0.00000000E+00  0.00000000E+00
  0.00000000E+00  0.00000000E+00  0.00000000E+00
  0.00000000E+00  0.00000000E+00  0.00000000E+00
  0.00000000E+00  0.00000000E+00  0.00000000E+00
  0.00000000E+00  0.00000000E+00  0.00000000E+00
  0.00000000E+00  0.00000000E+00  0.00000000E+00
  0.00000000E+00  0.00000000E+00  0.00000000E+00
  0.00000000E+00  0.00000000E+00  0.00000000E+00
  0.00000000E+00  0.00000000E+00  0.00000000E+00
  0.00000000E+00  0.00000000E+00  0.00000000E+00
  0.00000000E+00  0.00000000E+00  0.00000000E+00
  0.00000000E+00  0.00000000E+00  0.00000000E+00
  0.00000000E+00  0.00000000E+00  0.00000000E+00
  0.00000000E+00  0.00000000E+00  0.00000000E+00
  0.00000000E+00  0.00000000E+00  0.00000000E+00
  0.00000000E+00  0.00000000E+00  0.00000000E+00
  0.00000000E+00  0.00000000E+00  0.00000000E+00
  0.00000000E+00  0.00000000E+00  0.00000000E+00
  0.00000000E+00  0.00000000E+00  0.00000000E+00
  0.00000000E+00  0.00000000E+00  0.00000000E+00
  0.00000000E+00  0.00000000E+00  0.00000000E+00
  0.00000000E+00  0.00000000E+00  0.00000000E+00
  0.00000000E+00  0.00000000E+00  0.00000000E+00
  0.00000000E+00  0.00000000E+00  0.00000000E+00
  0.00000000E+00  0.00000000E+00  0.00000000E+00
  0.00000000E+00  0.00000000E+00  0.00000000E+00
  0.00000000E+00  0.00000000E+00  0.00000000E+00
  0.00000000E+00  0.00000000E+00  0.00000000E+00
  0.00000000E+00  0.00000000E+00  0.00000000E+00
  0.00000000E+00  0.00000000E+00  0.00000000E+00
  0.00000000E+00  0.00000000E+00  0.00000000E+00
  0.00000000E+00  0.00000000E+00  0.00000000E+00
  0.00000000E+00  0.00000000E+00  0.00000000E+00
  0.00000000E+00  0.00000000E+00  0.00000000E+00
  0.00000000E+00  0.00000000E+00  0.00000000E+00
  0.00000000E+00  0.00000000E+00  0.00000000E+00
  0.00000000E+00  0.00000000E+00  0.00000000E+00
  0.00000000E+00  0.00000000E+00  0.00000000E+00
  0.00000000E+00  0.00000000E+00  0.00000000E+00
  0.00000000E+00  0.00000000E+00  0.00000000E+00
  0.00000000E+00  0.00000000E+00  0.00000000E+00
