Ta1 C123 N3 O1                          
   1.00000000000000     
    19.8029189279852815    0.0065080964027115   -0.0976774780207698
    -9.8958760310106637   17.0481797129301569   -0.0555716432202116
    -0.1469200449417408   -0.1824051420212850   29.8015485290806197
   Ta   C    N    O 
     1   123     3     1
Direct
  0.4319663720816433  0.5013804236935330  0.4318231853021058
  0.0417246009286258  0.0837424088757698  0.3995061305802461
  0.0411106155378477  0.2081315840764343  0.3997455309793380
  0.0406739910752435  0.3331095310818851  0.4002287985331951
  0.0409013566799934  0.4583614069870575  0.4002322004530051
  0.0416566931734103  0.5837789130722097  0.4000594523503579
  0.0422668172026836  0.7091667737382218  0.3998212878725497
  0.0424459239174023  0.8343035488709408  0.3997753300158441
  0.0423428919858368  0.9592968956847050  0.3996012654359551
  0.1675774146566413  0.0848625499000634  0.3996759563626570
  0.1668424264758937  0.2092742619749652  0.3998861925847593
  0.1653181361198697  0.3335112652077305  0.4005857929782744
  0.1648315019563431  0.4584681565130394  0.4006141850391804
  0.1656723382533540  0.5838102813879861  0.4002284539214682
  0.1666186616639200  0.7090032979910297  0.4000887240787376
  0.1671939273401822  0.8343132258398043  0.3999605517972633
  0.1674353387842594  0.9596751173866219  0.3998086313232101
  0.2925616647139316  0.0853672595828291  0.3998585369515785
  0.2929203703786076  0.2116340531502937  0.4010310848232947
  0.2910707872902696  0.3355394577771433  0.4017390805142144
  0.2885439659058819  0.4578717434129840  0.4006370532119322
  0.2891816870422662  0.5831428646832071  0.3999481261734004
  0.2909855701571052  0.7084022172533713  0.3996211314704898
  0.2918689316996138  0.8339486112142915  0.3998406719864054
  0.2922642285974227  0.9595039340414578  0.3998076487615261
  0.4172084147758548  0.0842418946917954  0.3995534768124264
  0.4177011054721588  0.2102012575888515  0.3998986720479616
  0.4196368932329864  0.3377542470389632  0.4035064677591210
  0.4154374967989676  0.7072052042038803  0.3986738962873317
  0.4163990852625519  0.8327768208685197  0.3994853065448098
  0.4169130900063938  0.9584949686500713  0.3997788904378280
  0.5418211324029168  0.0829346022793668  0.3996626879893516
  0.5422776979064847  0.2085924793885753  0.3993708548028206
  0.5432333178297082  0.3341393993627489  0.4002865299177130
  0.5462418049719316  0.4593415375250922  0.4040414795061618
  0.5393041193661726  0.7031366854554387  0.4009052889716624
  0.5410326077105192  0.8310144653370424  0.3995170479669892
  0.5414727243595022  0.9571935977705260  0.3997906827246649
  0.6664672660072447  0.0823850038584931  0.3998703256599153
  0.6667911961629569  0.2077498664848537  0.3994887134754342
  0.6675511151584699  0.3331080822271651  0.3992542376413440
  0.6694395765765638  0.4586596428773831  0.3996792063375121
  0.6702954477813914  0.5840725876142329  0.4009705350807795
  0.6667484687790465  0.7066911964499377  0.4005388689799513
  0.6653026443601927  0.8309957457474930  0.4000348422660284
  0.6660090615427529  0.9568300149225805  0.4000122390023833
  0.7911157974989422  0.0822891571456272  0.3999574816006136
  0.7914087172228541  0.2076405973200178  0.3998575675536233
  0.7919514446274932  0.3329824797337967  0.3994441798325809
  0.7929373299653822  0.4583534043930890  0.3991276144216607
  0.7936673156847206  0.5837664351664572  0.3992972166603275
  0.7932136176864754  0.7088568857146360  0.3997811057920231
  0.7913817535304336  0.8325783128264048  0.3997149116829212
  0.7908557224714049  0.9570603408606821  0.3999410945125143
  0.9161514375092353  0.0827447218230570  0.3997091395366689
  0.9160375552001512  0.2076925447224786  0.3999246567539147
  0.9162807474498000  0.3329741991802714  0.4000484679326853
  0.9169414782930436  0.4584189478724316  0.3996812208225735
  0.9176376414870457  0.5838192254658485  0.3994146423703009
  0.9177555786010958  0.7090148517873065  0.3995713236829486
  0.9174012472517650  0.8339626364277901  0.3997215695532478
  0.9166125245487200  0.9582094160575361  0.3997067603326723
  0.0840734213809431  0.0427800103335065  0.3995044155687546
  0.0832982207797891  0.1671694530613015  0.3996124293384423
  0.0825031028085669  0.2916544797085129  0.4001596993043839
  0.0819564669011062  0.4164136806336716  0.4003529516652659
  0.0827018458263832  0.5418938316587969  0.4002316125330979
  0.0835188553497617  0.6673029317717544  0.4000599795861701
  0.0839297515504183  0.7925850594393665  0.3998415450242909
  0.0841034444627567  0.9177899166179654  0.3997267943293568
  0.2091191988241733  0.0431861724574757  0.3997841977806545
  0.2093266941868870  0.1685714941426250  0.4001072155231017
  0.2079633142835993  0.2926504313024751  0.4003453871394709
  0.2060228748380442  0.4169283948449173  0.4010045541981480
  0.2064847012532308  0.5417300880033903  0.4004263483594392
  0.2077049759888004  0.6670532787383308  0.4000146758746436
  0.2085855550363414  0.7925001213215981  0.3999875436537212
  0.2089813630198843  0.9178416056464673  0.3999240960771112
  0.3339738382977832  0.0431626042350683  0.3996698323462909
  0.3342443260905343  0.1690778508735511  0.4003256945944837
  0.3348082250593557  0.2957902400855865  0.4026347123233081
  0.3306511427858523  0.5420251985154996  0.3992927754209422
  0.3319046223942376  0.6664098535916481  0.3992554801582969
  0.3331833708182523  0.7918713096329483  0.3996105428665826
  0.3336324624835795  0.9173959292830721  0.3998110836981444
  0.4585974091454741  0.0419666473226435  0.3996682635625731
  0.4589188553311259  0.1677816907147664  0.3994844251463059
  0.4598310839396481  0.2938791222976518  0.4006522575030587
  0.4643902631863869  0.4202020989055458  0.4075608449243606
  0.4552868744125288  0.6636730796036667  0.3992198099222585
  0.4577245340502522  0.7904738157090471  0.3990987385998163
  0.4582122243242024  0.9162778652761214  0.3997533673774640
  0.5831863296975360  0.0407965942595755  0.3998181080776848
  0.5835875568793690  0.1664417726687456  0.3994402645264678
  0.5843114356405139  0.2918551056694472  0.3994710258247027
  0.5867112006719173  0.4174407809082173  0.4009035994879141
  0.5888298590401965  0.5434024254243230  0.4038773140697004
  0.5830466996795820  0.6623374505039981  0.4026340837374017
  0.5816537258835147  0.7879307616524728  0.4000755229524452
  0.5827973773511286  0.9148793926605585  0.3997777896124855
  0.7078356357951873  0.0404556222742448  0.4000050083107096
  0.7082113829314511  0.1658866927636376  0.3997365510678141
  0.7087448089592153  0.2912440885302429  0.3993302400416304
  0.7100518795048375  0.4165618078844451  0.3991415854057141
  0.7110905326513864  0.5418197030850940  0.3997422247184128
  0.7103771637291649  0.6670748828021335  0.4004449364297495
  0.7077722509768047  0.7902525034340645  0.3997888608262832
  0.7073017987837710  0.9148387759288061  0.4000223948482793
  0.8327370171861059  0.0406985916867610  0.3998867753965865
  0.8328762545481404  0.1658733585719878  0.3999202300666063
  0.8331740736318867  0.2910938834867521  0.3997870727137605
  0.8339425599152351  0.4164328075641158  0.3993564180112171
  0.8347452766222719  0.5418801594538024  0.3991947985154977
  0.8348536069822589  0.6672148373798992  0.3995156273364556
  0.8341285006794419  0.7920382782281000  0.3997055535465339
  0.8330778350227993  0.9160754747535448  0.3998290931503946
  0.9582823282766504  0.0416450955717112  0.3996121610801749
  0.9578328191249544  0.1662014786371393  0.3997204323661408
  0.9576582993685782  0.2912202276200772  0.4001106703224555
  0.9580051455221532  0.4165103244760868  0.4000356191869546
  0.9586973158153131  0.5418668650673094  0.3997059866468518
  0.9592065379303285  0.6672686946369911  0.3995574957153070
  0.9592352364737019  0.7925365992854136  0.3997426883276150
  0.9589424055908806  0.9173497947967528  0.3996725314144891
  0.4120928344202616  0.5833036482486941  0.3991418493151965
  0.5470387869575934  0.5819782143443005  0.4066034308996091
  0.3286125507335299  0.4166234928284977  0.4027471256942950
  0.4363105691008479  0.5007543169450377  0.4907894492020886
 
  0.00000000E+00  0.00000000E+00  0.00000000E+00
  0.00000000E+00  0.00000000E+00  0.00000000E+00
  0.00000000E+00  0.00000000E+00  0.00000000E+00
  0.00000000E+00  0.00000000E+00  0.00000000E+00
  0.00000000E+00  0.00000000E+00  0.00000000E+00
  0.00000000E+00  0.00000000E+00  0.00000000E+00
  0.00000000E+00  0.00000000E+00  0.00000000E+00
  0.00000000E+00  0.00000000E+00  0.00000000E+00
  0.00000000E+00  0.00000000E+00  0.00000000E+00
  0.00000000E+00  0.00000000E+00  0.00000000E+00
  0.00000000E+00  0.00000000E+00  0.00000000E+00
  0.00000000E+00  0.00000000E+00  0.00000000E+00
  0.00000000E+00  0.00000000E+00  0.00000000E+00
  0.00000000E+00  0.00000000E+00  0.00000000E+00
  0.00000000E+00  0.00000000E+00  0.00000000E+00
  0.00000000E+00  0.00000000E+00  0.00000000E+00
  0.00000000E+00  0.00000000E+00  0.00000000E+00
  0.00000000E+00  0.00000000E+00  0.00000000E+00
  0.00000000E+00  0.00000000E+00  0.00000000E+00
  0.00000000E+00  0.00000000E+00  0.00000000E+00
  0.00000000E+00  0.00000000E+00  0.00000000E+00
  0.00000000E+00  0.00000000E+00  0.00000000E+00
  0.00000000E+00  0.00000000E+00  0.00000000E+00
  0.00000000E+00  0.00000000E+00  0.00000000E+00
  0.00000000E+00  0.00000000E+00  0.00000000E+00
  0.00000000E+00  0.00000000E+00  0.00000000E+00
  0.00000000E+00  0.00000000E+00  0.00000000E+00
  0.00000000E+00  0.00000000E+00  0.00000000E+00
  0.00000000E+00  0.00000000E+00  0.00000000E+00
  0.00000000E+00  0.00000000E+00  0.00000000E+00
  0.00000000E+00  0.00000000E+00  0.00000000E+00
  0.00000000E+00  0.00000000E+00  0.00000000E+00
  0.00000000E+00  0.00000000E+00  0.00000000E+00
  0.00000000E+00  0.00000000E+00  0.00000000E+00
  0.00000000E+00  0.00000000E+00  0.00000000E+00
  0.00000000E+00  0.00000000E+00  0.00000000E+00
  0.00000000E+00  0.00000000E+00  0.00000000E+00
  0.00000000E+00  0.00000000E+00  0.00000000E+00
  0.00000000E+00  0.00000000E+00  0.00000000E+00
  0.00000000E+00  0.00000000E+00  0.00000000E+00
  0.00000000E+00  0.00000000E+00  0.00000000E+00
  0.00000000E+00  0.00000000E+00  0.00000000E+00
  0.00000000E+00  0.00000000E+00  0.00000000E+00
  0.00000000E+00  0.00000000E+00  0.00000000E+00
  0.00000000E+00  0.00000000E+00  0.00000000E+00
  0.00000000E+00  0.00000000E+00  0.00000000E+00
  0.00000000E+00  0.00000000E+00  0.00000000E+00
  0.00000000E+00  0.00000000E+00  0.00000000E+00
  0.00000000E+00  0.00000000E+00  0.00000000E+00
  0.00000000E+00  0.00000000E+00  0.00000000E+00
  0.00000000E+00  0.00000000E+00  0.00000000E+00
  0.00000000E+00  0.00000000E+00  0.00000000E+00
  0.00000000E+00  0.00000000E+00  0.00000000E+00
  0.00000000E+00  0.00000000E+00  0.00000000E+00
  0.00000000E+00  0.00000000E+00  0.00000000E+00
  0.00000000E+00  0.00000000E+00  0.00000000E+00
  0.00000000E+00  0.00000000E+00  0.00000000E+00
  0.00000000E+00  0.00000000E+00  0.00000000E+00
  0.00000000E+00  0.00000000E+00  0.00000000E+00
  0.00000000E+00  0.00000000E+00  0.00000000E+00
  0.00000000E+00  0.00000000E+00  0.00000000E+00
  0.00000000E+00  0.00000000E+00  0.00000000E+00
  0.00000000E+00  0.00000000E+00  0.00000000E+00
  0.00000000E+00  0.00000000E+00  0.00000000E+00
  0.00000000E+00  0.00000000E+00  0.00000000E+00
  0.00000000E+00  0.00000000E+00  0.00000000E+00
  0.00000000E+00  0.00000000E+00  0.00000000E+00
  0.00000000E+00  0.00000000E+00  0.00000000E+00
  0.00000000E+00  0.00000000E+00  0.00000000E+00
  0.00000000E+00  0.00000000E+00  0.00000000E+00
  0.00000000E+00  0.00000000E+00  0.00000000E+00
  0.00000000E+00  0.00000000E+00  0.00000000E+00
  0.00000000E+00  0.00000000E+00  0.00000000E+00
  0.00000000E+00  0.00000000E+00  0.00000000E+00
  0.00000000E+00  0.00000000E+00  0.00000000E+00
  0.00000000E+00  0.00000000E+00  0.00000000E+00
  0.00000000E+00  0.00000000E+00  0.00000000E+00
  0.00000000E+00  0.00000000E+00  0.00000000E+00
  0.00000000E+00  0.00000000E+00  0.00000000E+00
  0.00000000E+00  0.00000000E+00  0.00000000E+00
  0.00000000E+00  0.00000000E+00  0.00000000E+00
  0.00000000E+00  0.00000000E+00  0.00000000E+00
  0.00000000E+00  0.00000000E+00  0.00000000E+00
  0.00000000E+00  0.00000000E+00  0.00000000E+00
  0.00000000E+00  0.00000000E+00  0.00000000E+00
  0.00000000E+00  0.00000000E+00  0.00000000E+00
  0.00000000E+00  0.00000000E+00  0.00000000E+00
  0.00000000E+00  0.00000000E+00  0.00000000E+00
  0.00000000E+00  0.00000000E+00  0.00000000E+00
  0.00000000E+00  0.00000000E+00  0.00000000E+00
  0.00000000E+00  0.00000000E+00  0.00000000E+00
  0.00000000E+00  0.00000000E+00  0.00000000E+00
  0.00000000E+00  0.00000000E+00  0.00000000E+00
  0.00000000E+00  0.00000000E+00  0.00000000E+00
  0.00000000E+00  0.00000000E+00  0.00000000E+00
  0.00000000E+00  0.00000000E+00  0.00000000E+00
  0.00000000E+00  0.00000000E+00  0.00000000E+00
  0.00000000E+00  0.00000000E+00  0.00000000E+00
  0.00000000E+00  0.00000000E+00  0.00000000E+00
  0.00000000E+00  0.00000000E+00  0.00000000E+00
  0.00000000E+00  0.00000000E+00  0.00000000E+00
  0.00000000E+00  0.00000000E+00  0.00000000E+00
  0.00000000E+00  0.00000000E+00  0.00000000E+00
  0.00000000E+00  0.00000000E+00  0.00000000E+00
  0.00000000E+00  0.00000000E+00  0.00000000E+00
  0.00000000E+00  0.00000000E+00  0.00000000E+00
  0.00000000E+00  0.00000000E+00  0.00000000E+00
  0.00000000E+00  0.00000000E+00  0.00000000E+00
  0.00000000E+00  0.00000000E+00  0.00000000E+00
  0.00000000E+00  0.00000000E+00  0.00000000E+00
  0.00000000E+00  0.00000000E+00  0.00000000E+00
  0.00000000E+00  0.00000000E+00  0.00000000E+00
  0.00000000E+00  0.00000000E+00  0.00000000E+00
  0.00000000E+00  0.00000000E+00  0.00000000E+00
  0.00000000E+00  0.00000000E+00  0.00000000E+00
  0.00000000E+00  0.00000000E+00  0.00000000E+00
  0.00000000E+00  0.00000000E+00  0.00000000E+00
  0.00000000E+00  0.00000000E+00  0.00000000E+00
  0.00000000E+00  0.00000000E+00  0.00000000E+00
  0.00000000E+00  0.00000000E+00  0.00000000E+00
  0.00000000E+00  0.00000000E+00  0.00000000E+00
  0.00000000E+00  0.00000000E+00  0.00000000E+00
  0.00000000E+00  0.00000000E+00  0.00000000E+00
  0.00000000E+00  0.00000000E+00  0.00000000E+00
  0.00000000E+00  0.00000000E+00  0.00000000E+00
  0.00000000E+00  0.00000000E+00  0.00000000E+00
  0.00000000E+00  0.00000000E+00  0.00000000E+00
  0.00000000E+00  0.00000000E+00  0.00000000E+00
