Zn1 H1 C125 N1 O2                       
   1.00000000000000     
    19.8146332945921095   -0.0057002618264501   -0.0032049677202062
    -9.9123956614859399   17.0607458812888453    0.1048746347099391
    -0.0048741155007505    0.1798167953213514   29.7718952379554089
   Zn   H    C    N    O 
     1     1   125     1     2
Direct
  0.4377910561450773  0.5005445497268173  0.4187883097913930
  0.5301634960925071  0.5435541864923199  0.5117149729851945
  0.0417338248483428  0.0837902232450403  0.4002831661716809
  0.0410815790226799  0.2081388846821388  0.4001850786159984
  0.0406446288926026  0.3327985800838530  0.3995384252471620
  0.0407407452680055  0.4581493059467597  0.3990853511403966
  0.0413771317190733  0.5836053482007003  0.3989196491429351
  0.0420021999501395  0.7089945005649453  0.3988862086153716
  0.0422624119761057  0.8342900050454969  0.3993985657299738
  0.0422237491638594  0.9592780286931673  0.4000579708153879
  0.1674092475192399  0.0849379665679222  0.4008876771654601
  0.1669619880495709  0.2095220349234214  0.4014626795883000
  0.1658169857571945  0.3337486220967333  0.4011060584564859
  0.1647125579422725  0.4583527409745194  0.3996958606105948
  0.1652430728266067  0.5835846637011007  0.3994608681887178
  0.1662797942999175  0.7089992955523868  0.3991076176629968
  0.1669231767443223  0.8343637778383365  0.3990407727441905
  0.1673194679800595  0.9597082870283179  0.3998140821539052
  0.2924343794087867  0.0849723279640638  0.4006619850708154
  0.2930497417590340  0.2111215970174343  0.4023051157765858
  0.2923760652524634  0.3363005358704941  0.4049876360018474
  0.2891824478785550  0.4591844872398821  0.4030486188312699
  0.2887728241473516  0.5841866281834374  0.4010042064681836
  0.2904932271688161  0.7089423333444328  0.4002527467860273
  0.2914670381431359  0.8340072156550767  0.3996647591052632
  0.2919562283016141  0.9593452550589895  0.3997336937914834
  0.4169869152925065  0.0838174399568732  0.4001773020218089
  0.4174693297720988  0.2095363805491834  0.4009941655992349
  0.4188242954988813  0.3366569302755750  0.4023880060357405
  0.4145908451581176  0.7068682053334135  0.4022269904567376
  0.4159196802705672  0.8326703682805338  0.4007921315226666
  0.4165230275581418  0.9582370047739128  0.3999575647039239
  0.5415223251120469  0.0824561276551416  0.3996929342405298
  0.5420769748467177  0.2078191740828760  0.4000281077871343
  0.5429514540203255  0.3329953103935868  0.4004798385991208
  0.5460081763019334  0.4580977902144409  0.4022134135550731
  0.5467572590579292  0.5804466912592456  0.4084091088505719
  0.5383590309831029  0.7032005337454975  0.4047769780343320
  0.5401774070854963  0.8307508788903427  0.4019941412438373
  0.5410508371522651  0.9568409270068178  0.4001899505392590
  0.6660969301513133  0.0818358038742924  0.3993141555948216
  0.6666182118280055  0.2072661121701606  0.3992152117346509
  0.6673311274475818  0.3325160177326542  0.3996622620906382
  0.6691959777970783  0.4580033750242221  0.4003705146283880
  0.6708033695370975  0.5837379012534033  0.4020157198567048
  0.6663668772976429  0.7063500857647568  0.4032527183140223
  0.6648217630482148  0.8303970710993095  0.4022427887573751
  0.6655732154298279  0.9562855535225495  0.4004998663942075
  0.7908300117412058  0.0818280589892203  0.3996828507755173
  0.7911537181712168  0.2070937418558002  0.3990722777091086
  0.7917750882424016  0.3325144981342312  0.3990629580394087
  0.7928357125880536  0.4580472105242959  0.3994013042000320
  0.7937251122832212  0.5834811070035326  0.3999789990677894
  0.7930614443455568  0.7086565443446246  0.4009511099229101
  0.7912479051032687  0.8323627906227247  0.4009041041608816
  0.7905199010150007  0.9566445289871247  0.4003955287853809
  0.9159810247771254  0.0824832527682471  0.3999992853018581
  0.9158996321310835  0.2073750143379242  0.3995789998689300
  0.9161133530799274  0.3325867374684761  0.3990998933191781
  0.9167148636787745  0.4579937790331882  0.3990139235213829
  0.9175124414404423  0.5835669702142453  0.3991629973684023
  0.9176375188409251  0.7089719534292369  0.3995536505018500
  0.9172717574049341  0.8337982084996159  0.4000363258619636
  0.9164709184220978  0.9580580812162832  0.4001867182271681
  0.0839121632833719  0.0427849622873975  0.4003926161996957
  0.0833604222203358  0.1672278142383745  0.4004964500976712
  0.0824151301775129  0.2915282308097296  0.4001842091866930
  0.0819771159838504  0.4164106029387214  0.3993281589046809
  0.0823427943835142  0.5417002150722234  0.3990595037546445
  0.0831981624289854  0.6671869278650173  0.3988564527474434
  0.0837647591343830  0.7926465845967898  0.3990053628216770
  0.0839647106036884  0.9178350474045299  0.3997515658377449
  0.2090236851644885  0.0431851344897714  0.4005073614422406
  0.2091119684642171  0.1685161428577492  0.4017529203540677
  0.2083412789738660  0.2931009394533969  0.4024112033196999
  0.2061910132732601  0.4169853480486409  0.4006930134256587
  0.2060231345474074  0.5417878844837886  0.3999705899828051
  0.2074447551624713  0.6672048141131226  0.3995815401966737
  0.2082586495094259  0.7925131507465779  0.3991667164466282
  0.2087824766697668  0.9178814813909710  0.3994361275979392
  0.3337472308880424  0.0428154146108559  0.4001848888841918
  0.3342984992207252  0.1685085873033874  0.4013171937754335
  0.3346442248631037  0.2944144567412800  0.4036680512578316
  0.3294529418842496  0.4181086553686642  0.4076771338320167
  0.3304586665867251  0.5438010396826894  0.4022476672780438
  0.3315691531181367  0.6670903443981973  0.4010825450221635
  0.3327553792331143  0.7921192750599628  0.4002624323810047
  0.3333666549353637  0.9173773805971185  0.3997695205229111
  0.4583805527667982  0.0416474039840978  0.3999305197293727
  0.4588209059422041  0.1672067790124079  0.4004021283602475
  0.4597429383803083  0.2931040307335476  0.4011585911660258
  0.4645392619069911  0.4185940370666540  0.4021776449777207
  0.4537780890879720  0.6623391790067117  0.4035807164866715
  0.4571625403966377  0.7903406146679949  0.4018062002644072
  0.4578392921573736  0.9160387834496452  0.4002753744697234
  0.5829067400791350  0.0403924860979392  0.3996180972058132
  0.5834237862801883  0.1658717839561980  0.3996198865581385
  0.5842199026997863  0.2910118901142031  0.4000113681513802
  0.5862332498412836  0.4158609213615104  0.4008126215072588
  0.5887634855667396  0.5418290076009483  0.4041652064858350
  0.5819611308734454  0.6622632779236320  0.4058932494358704
  0.5805870618812065  0.7872900869679634  0.4031474905011830
  0.5822532254457076  0.9145119490038508  0.4008418478787476
  0.7074782331286809  0.0399038798044700  0.3996906437880857
  0.7079836710277359  0.1654048786697477  0.3990361530760578
  0.7085768948284596  0.2907350406174465  0.3992532171092758
  0.7098650759832340  0.4161685286865714  0.3997522221599012
  0.7113161957694820  0.5416152622456406  0.4005749732404151
  0.7099266742756173  0.6666320624884471  0.4022362217890662
  0.7074954146528056  0.7898510046027917  0.4020638538404533
  0.7068472636818366  0.9142130539736787  0.4009998649698454
  0.8324495072483294  0.0402898019873749  0.3999896909895568
  0.8326197124726550  0.1654168916105129  0.3994134821267201
  0.8330236739920464  0.2907379922437675  0.3990166130411449
  0.8337702628196195  0.4161084659803328  0.3991231682120448
  0.8346746446678094  0.5415863661698195  0.3994572564388342
  0.8346651970600794  0.6671532671168663  0.4001281267661229
  0.8339861336474433  0.7918373639091946  0.4006163331526544
  0.8328430123239060  0.9157836696873155  0.4004190036226566
  0.9581517689597070  0.0415272124614534  0.4001306890967475
  0.9576989484939979  0.1660195194591984  0.3998964978528072
  0.9575247501832922  0.2908886560791753  0.3993576213843859
  0.9577793010615634  0.4161694364321989  0.3990300870814700
  0.9585140352632651  0.5416977132280678  0.3989918296657770
  0.9589990564302556  0.6671783746268374  0.3991411795900263
  0.9590720603951147  0.7924419921185978  0.3996348958475861
  0.9587708493365945  0.9172127457748641  0.4000745130821515
  0.4094218009679459  0.5823046639258567  0.4028105927792496
  0.4817578993990306  0.4935044595169526  0.5079059829958051
  0.4333803277442460  0.5183474890911970  0.4851672440030310
 
  0.00000000E+00  0.00000000E+00  0.00000000E+00
  0.00000000E+00  0.00000000E+00  0.00000000E+00
  0.00000000E+00  0.00000000E+00  0.00000000E+00
  0.00000000E+00  0.00000000E+00  0.00000000E+00
  0.00000000E+00  0.00000000E+00  0.00000000E+00
  0.00000000E+00  0.00000000E+00  0.00000000E+00
  0.00000000E+00  0.00000000E+00  0.00000000E+00
  0.00000000E+00  0.00000000E+00  0.00000000E+00
  0.00000000E+00  0.00000000E+00  0.00000000E+00
  0.00000000E+00  0.00000000E+00  0.00000000E+00
  0.00000000E+00  0.00000000E+00  0.00000000E+00
  0.00000000E+00  0.00000000E+00  0.00000000E+00
  0.00000000E+00  0.00000000E+00  0.00000000E+00
  0.00000000E+00  0.00000000E+00  0.00000000E+00
  0.00000000E+00  0.00000000E+00  0.00000000E+00
  0.00000000E+00  0.00000000E+00  0.00000000E+00
  0.00000000E+00  0.00000000E+00  0.00000000E+00
  0.00000000E+00  0.00000000E+00  0.00000000E+00
  0.00000000E+00  0.00000000E+00  0.00000000E+00
  0.00000000E+00  0.00000000E+00  0.00000000E+00
  0.00000000E+00  0.00000000E+00  0.00000000E+00
  0.00000000E+00  0.00000000E+00  0.00000000E+00
  0.00000000E+00  0.00000000E+00  0.00000000E+00
  0.00000000E+00  0.00000000E+00  0.00000000E+00
  0.00000000E+00  0.00000000E+00  0.00000000E+00
  0.00000000E+00  0.00000000E+00  0.00000000E+00
  0.00000000E+00  0.00000000E+00  0.00000000E+00
  0.00000000E+00  0.00000000E+00  0.00000000E+00
  0.00000000E+00  0.00000000E+00  0.00000000E+00
  0.00000000E+00  0.00000000E+00  0.00000000E+00
  0.00000000E+00  0.00000000E+00  0.00000000E+00
  0.00000000E+00  0.00000000E+00  0.00000000E+00
  0.00000000E+00  0.00000000E+00  0.00000000E+00
  0.00000000E+00  0.00000000E+00  0.00000000E+00
  0.00000000E+00  0.00000000E+00  0.00000000E+00
  0.00000000E+00  0.00000000E+00  0.00000000E+00
  0.00000000E+00  0.00000000E+00  0.00000000E+00
  0.00000000E+00  0.00000000E+00  0.00000000E+00
  0.00000000E+00  0.00000000E+00  0.00000000E+00
  0.00000000E+00  0.00000000E+00  0.00000000E+00
  0.00000000E+00  0.00000000E+00  0.00000000E+00
  0.00000000E+00  0.00000000E+00  0.00000000E+00
  0.00000000E+00  0.00000000E+00  0.00000000E+00
  0.00000000E+00  0.00000000E+00  0.00000000E+00
  0.00000000E+00  0.00000000E+00  0.00000000E+00
  0.00000000E+00  0.00000000E+00  0.00000000E+00
  0.00000000E+00  0.00000000E+00  0.00000000E+00
  0.00000000E+00  0.00000000E+00  0.00000000E+00
  0.00000000E+00  0.00000000E+00  0.00000000E+00
  0.00000000E+00  0.00000000E+00  0.00000000E+00
  0.00000000E+00  0.00000000E+00  0.00000000E+00
  0.00000000E+00  0.00000000E+00  0.00000000E+00
  0.00000000E+00  0.00000000E+00  0.00000000E+00
  0.00000000E+00  0.00000000E+00  0.00000000E+00
  0.00000000E+00  0.00000000E+00  0.00000000E+00
  0.00000000E+00  0.00000000E+00  0.00000000E+00
  0.00000000E+00  0.00000000E+00  0.00000000E+00
  0.00000000E+00  0.00000000E+00  0.00000000E+00
  0.00000000E+00  0.00000000E+00  0.00000000E+00
  0.00000000E+00  0.00000000E+00  0.00000000E+00
  0.00000000E+00  0.00000000E+00  0.00000000E+00
  0.00000000E+00  0.00000000E+00  0.00000000E+00
  0.00000000E+00  0.00000000E+00  0.00000000E+00
  0.00000000E+00  0.00000000E+00  0.00000000E+00
  0.00000000E+00  0.00000000E+00  0.00000000E+00
  0.00000000E+00  0.00000000E+00  0.00000000E+00
  0.00000000E+00  0.00000000E+00  0.00000000E+00
  0.00000000E+00  0.00000000E+00  0.00000000E+00
  0.00000000E+00  0.00000000E+00  0.00000000E+00
  0.00000000E+00  0.00000000E+00  0.00000000E+00
  0.00000000E+00  0.00000000E+00  0.00000000E+00
  0.00000000E+00  0.00000000E+00  0.00000000E+00
  0.00000000E+00  0.00000000E+00  0.00000000E+00
  0.00000000E+00  0.00000000E+00  0.00000000E+00
  0.00000000E+00  0.00000000E+00  0.00000000E+00
  0.00000000E+00  0.00000000E+00  0.00000000E+00
  0.00000000E+00  0.00000000E+00  0.00000000E+00
  0.00000000E+00  0.00000000E+00  0.00000000E+00
  0.00000000E+00  0.00000000E+00  0.00000000E+00
  0.00000000E+00  0.00000000E+00  0.00000000E+00
  0.00000000E+00  0.00000000E+00  0.00000000E+00
  0.00000000E+00  0.00000000E+00  0.00000000E+00
  0.00000000E+00  0.00000000E+00  0.00000000E+00
  0.00000000E+00  0.00000000E+00  0.00000000E+00
  0.00000000E+00  0.00000000E+00  0.00000000E+00
  0.00000000E+00  0.00000000E+00  0.00000000E+00
  0.00000000E+00  0.00000000E+00  0.00000000E+00
  0.00000000E+00  0.00000000E+00  0.00000000E+00
  0.00000000E+00  0.00000000E+00  0.00000000E+00
  0.00000000E+00  0.00000000E+00  0.00000000E+00
  0.00000000E+00  0.00000000E+00  0.00000000E+00
  0.00000000E+00  0.00000000E+00  0.00000000E+00
  0.00000000E+00  0.00000000E+00  0.00000000E+00
  0.00000000E+00  0.00000000E+00  0.00000000E+00
  0.00000000E+00  0.00000000E+00  0.00000000E+00
  0.00000000E+00  0.00000000E+00  0.00000000E+00
  0.00000000E+00  0.00000000E+00  0.00000000E+00
  0.00000000E+00  0.00000000E+00  0.00000000E+00
  0.00000000E+00  0.00000000E+00  0.00000000E+00
  0.00000000E+00  0.00000000E+00  0.00000000E+00
  0.00000000E+00  0.00000000E+00  0.00000000E+00
  0.00000000E+00  0.00000000E+00  0.00000000E+00
  0.00000000E+00  0.00000000E+00  0.00000000E+00
  0.00000000E+00  0.00000000E+00  0.00000000E+00
  0.00000000E+00  0.00000000E+00  0.00000000E+00
  0.00000000E+00  0.00000000E+00  0.00000000E+00
  0.00000000E+00  0.00000000E+00  0.00000000E+00
  0.00000000E+00  0.00000000E+00  0.00000000E+00
  0.00000000E+00  0.00000000E+00  0.00000000E+00
  0.00000000E+00  0.00000000E+00  0.00000000E+00
  0.00000000E+00  0.00000000E+00  0.00000000E+00
  0.00000000E+00  0.00000000E+00  0.00000000E+00
  0.00000000E+00  0.00000000E+00  0.00000000E+00
  0.00000000E+00  0.00000000E+00  0.00000000E+00
  0.00000000E+00  0.00000000E+00  0.00000000E+00
  0.00000000E+00  0.00000000E+00  0.00000000E+00
  0.00000000E+00  0.00000000E+00  0.00000000E+00
  0.00000000E+00  0.00000000E+00  0.00000000E+00
  0.00000000E+00  0.00000000E+00  0.00000000E+00
  0.00000000E+00  0.00000000E+00  0.00000000E+00
  0.00000000E+00  0.00000000E+00  0.00000000E+00
  0.00000000E+00  0.00000000E+00  0.00000000E+00
  0.00000000E+00  0.00000000E+00  0.00000000E+00
  0.00000000E+00  0.00000000E+00  0.00000000E+00
  0.00000000E+00  0.00000000E+00  0.00000000E+00
  0.00000000E+00  0.00000000E+00  0.00000000E+00
  0.00000000E+00  0.00000000E+00  0.00000000E+00
  0.00000000E+00  0.00000000E+00  0.00000000E+00
  0.00000000E+00  0.00000000E+00  0.00000000E+00
  0.00000000E+00  0.00000000E+00  0.00000000E+00
