Cu1 H1 C126                             
   1.00000000000000     
    19.8376478860730785   -0.0000868652332623    0.0046693417087754
    -9.9189002032139353   17.0503333762918885   -0.0024899214375328
     0.0069999021676949   -0.0002715712760257   29.7495339909164755
   Cu   H    C 
     1     1   126
Direct
  0.4374684919918369  0.5000005612470144  0.4089980789315557
  0.4374422442800956  0.5000019745125838  0.4607912672963786
  0.0419057443976344  0.0839775018724705  0.3999599703750950
  0.0407145487119722  0.2079679200944727  0.4002684116582843
  0.0400430865071974  0.3326812784361347  0.3999463878230380
  0.0401374980450405  0.4582034529397301  0.3992273465065505
  0.0412119533206622  0.5838051383980841  0.3989086251745204
  0.0421261123921883  0.7092258633571673  0.3991516977047265
  0.0424677983340429  0.8345951229179782  0.3993668616204314
  0.0424895469991696  0.9595816647563263  0.3994873955766231
  0.1677291925710387  0.0854744089934628  0.4007734279863636
  0.1670306601905719  0.2099547595163554  0.4020767724009161
  0.1647500848405358  0.3331277913838108  0.4024478530263355
  0.1634193090390887  0.4582988535193449  0.4014041829161422
  0.1646760491129744  0.5836633420212920  0.4000192295770669
  0.1663732877644364  0.7091809092966237  0.3993378544393041
  0.1671505597961878  0.8346164215435921  0.3993796377756629
  0.1675561866625921  0.9600465834804710  0.3997814185997572
  0.2927787872753050  0.0854864873992406  0.4007436684551318
  0.2934794305064663  0.2119912451064064  0.4030731056728442
  0.2925699295258201  0.3375530463826473  0.4051907564375816
  0.2859246122262851  0.4580462805553175  0.4050693779456674
  0.2880031336894984  0.5837782904060230  0.4030508159465218
  0.2906420871773667  0.7088675851604317  0.4008072528715854
  0.2915274358089801  0.8340538062388200  0.3995056195970258
  0.2921634473233404  0.9596021902546237  0.3994823252658491
  0.4171257188928113  0.0839991870347866  0.3999404298696629
  0.4179269897198096  0.2099820966268347  0.4020211235690842
  0.4199388008512247  0.3375679390661667  0.4051439972645046
  0.4098191714074407  0.5797403769312235  0.4061720344150501
  0.4148055858738152  0.7064706795902026  0.4033509110724039
  0.4160359236784577  0.8325841723915149  0.4007130070402010
  0.4166710713449248  0.9583241071178004  0.3994414541721226
  0.5416498982453806  0.0825555423814806  0.3993546435701130
  0.5422722110555570  0.2079877284493020  0.4002626202144425
  0.5433551399457078  0.3331418200453700  0.4023963147312960
  0.5470688294221034  0.4580491597172002  0.4049831649928869
  0.5448522526131823  0.5797232024009982  0.4061069939443933
  0.5396060703163944  0.7042582978854479  0.4048027091764720
  0.5403678888251818  0.8308806318869532  0.4020367502138746
  0.5410780871659409  0.9568687308966776  0.4000105143543807
  0.6661032465426544  0.0818771169416810  0.3995405551608477
  0.6666393386776140  0.2073102624694728  0.3993238133145571
  0.6676330676402116  0.3327042221013556  0.3999034417684515
  0.6698371146884526  0.4583042790270002  0.4013227229112332
  0.6707210806764646  0.5837732391834275  0.4029678612840810
  0.6666162123531898  0.7064456299780804  0.4032828521623019
  0.6654938964458658  0.8308623309178498  0.4020034976475004
  0.6657091261816642  0.9563757087972671  0.4004164532631921
  0.7908226934481775  0.0818549839187224  0.3995366975743795
  0.7910788708662904  0.2071428507247889  0.3993576725117428
  0.7917657672081952  0.3326264309625814  0.3990534764361574
  0.7930217754963986  0.4582093415506170  0.3991619141800443
  0.7939318017717470  0.5836507808401558  0.3999548462288903
  0.7932016519610078  0.7088479915333927  0.4007728290725786
  0.7915420186824953  0.8325507390573562  0.4006886502765756
  0.7908151226767222  0.9568492746170636  0.3999801505501675
  0.9159529340025695  0.0825296889652396  0.3993594298717731
  0.9156674544723570  0.2072744818543918  0.3993491589694939
  0.9158742202976229  0.3326159180704926  0.3990795402009437
  0.9165614011883594  0.4581472345954287  0.3987512506709357
  0.9175529349023579  0.5837985813988765  0.3988692338878578
  0.9178000350270801  0.7091543315790626  0.3993062961412198
  0.9175402090298790  0.8340257452595009  0.3994953309820121
  0.9166989919499384  0.9582945175663180  0.3994343458320929
  0.0842107186893846  0.0431323025709183  0.4000102149769128
  0.0834532135096574  0.1674174407189315  0.4007178352567694
  0.0817758754129194  0.2911347201613075  0.4008082642474532
  0.0810146820226932  0.4163378582695341  0.4000188817976290
  0.0819367508922974  0.5417964137585264  0.3992272035230768
  0.0832592633045615  0.6673818588646820  0.3990802954372921
  0.0839372626025962  0.7928560838922765  0.3993564934078147
  0.0842276724278468  0.9181229923502938  0.3995376658629283
  0.2093339584040476  0.0436244989056446  0.4004153516167346
  0.2094883368467268  0.1691208767579586  0.4020415413609838
  0.2083359154491017  0.2935313595155086  0.4033540363302527
  0.2042247769279010  0.4162220919515542  0.4030508678270756
  0.2051214133372708  0.5416999647384406  0.4014040270536962
  0.2073639287117419  0.6673169083646344  0.3999473380679077
  0.2083935531424438  0.7927223372304535  0.3993482267618712
  0.2089686444830152  0.9181436274466575  0.3995352128821891
  0.3339677035467897  0.0431509421712308  0.3999813573535881
  0.3346321154467959  0.1691377107895802  0.4020055401550734
  0.3353480263304409  0.2957427620956484  0.4048056969355779
  0.3300791052446608  0.4202595342305830  0.4061721717758511
  0.3278779806635306  0.5419525614646852  0.4050694293697143
  0.3316238372134268  0.6668707471021686  0.4024464911339576
  0.3327472917657734  0.7920303965444242  0.4002655712919506
  0.3334241089334180  0.9174687975235846  0.3993583857336090
  0.4584065329804877  0.0417056026930151  0.3994369863438180
  0.4589928713362416  0.1674494863729223  0.4006907726811703
  0.4601706088623725  0.2935541840410249  0.4032831354592369
  0.4651295536102140  0.4202773495340362  0.4061085774521675
  0.4550175757631035  0.6624466739191680  0.4051890385649816
  0.4570765943579599  0.7900455310100692  0.4020719001335133
  0.4579295888121468  0.9160224917642842  0.3999576144022755
  0.5829092014415099  0.0404195081771965  0.3994908903276043
  0.5835159676677796  0.1659747951417615  0.3994956936564509
  0.5843547940210091  0.2911516042103647  0.4007714998881053
  0.5869488215045701  0.4162268094073961  0.4029668141901001
  0.5890200946802525  0.5419513896338607  0.4049830241074012
  0.5823716066465501  0.6624322311139551  0.4051426377487427
  0.5814894081122333  0.7880094563291848  0.4030691088532826
  0.5822566985790546  0.9145264977012429  0.4007721387423843
  0.7075103489870989  0.0399538481993707  0.3997837587898947
  0.7078744863492586  0.1654058273430707  0.3993680012229953
  0.7086480805979287  0.2908453697280568  0.3993027684763165
  0.7102842926430930  0.4163478696769831  0.3999520939390519
  0.7115347721033222  0.5416950601471069  0.4013237657378390
  0.7102144745813732  0.6668585295803628  0.4023965206532477
  0.7079455039669991  0.7900171458476992  0.4020195768781715
  0.7072932011476469  0.9145134269133155  0.4007437101234748
  0.8325625599551145  0.0403986594739788  0.3994829202182654
  0.8325363536374066  0.1653852932807476  0.3993815018005298
  0.8329041188869485  0.2907758753210322  0.3991505572538082
  0.8337585872864188  0.4162009140738420  0.3988657916128618
  0.8348161830587156  0.5417898352485936  0.3991640627572284
  0.8349308149245320  0.6672950772677337  0.3999067316972209
  0.8342867635731641  0.7920129801265573  0.4002619188264919
  0.8331270214289496  0.9160002856494736  0.3999380383921244
  0.9583483696610372  0.0416759422186367  0.3994419150688666
  0.9574752507657042  0.1659474879737359  0.3995074432022071
  0.9571935235671100  0.2908199940582809  0.3993371101814964
  0.9574109458962260  0.4161957002410814  0.3989080365844641
  0.9584173013194895  0.5418513607079904  0.3987521654467993
  0.9591431994733467  0.6673726073347467  0.3990575138110271
  0.9593311541928721  0.7926893820527530  0.3993252546547137
  0.9590968142761694  0.9174452949435958  0.3993518788788790
 
  0.00000000E+00  0.00000000E+00  0.00000000E+00
  0.00000000E+00  0.00000000E+00  0.00000000E+00
  0.00000000E+00  0.00000000E+00  0.00000000E+00
  0.00000000E+00  0.00000000E+00  0.00000000E+00
  0.00000000E+00  0.00000000E+00  0.00000000E+00
  0.00000000E+00  0.00000000E+00  0.00000000E+00
  0.00000000E+00  0.00000000E+00  0.00000000E+00
  0.00000000E+00  0.00000000E+00  0.00000000E+00
  0.00000000E+00  0.00000000E+00  0.00000000E+00
  0.00000000E+00  0.00000000E+00  0.00000000E+00
  0.00000000E+00  0.00000000E+00  0.00000000E+00
  0.00000000E+00  0.00000000E+00  0.00000000E+00
  0.00000000E+00  0.00000000E+00  0.00000000E+00
  0.00000000E+00  0.00000000E+00  0.00000000E+00
  0.00000000E+00  0.00000000E+00  0.00000000E+00
  0.00000000E+00  0.00000000E+00  0.00000000E+00
  0.00000000E+00  0.00000000E+00  0.00000000E+00
  0.00000000E+00  0.00000000E+00  0.00000000E+00
  0.00000000E+00  0.00000000E+00  0.00000000E+00
  0.00000000E+00  0.00000000E+00  0.00000000E+00
  0.00000000E+00  0.00000000E+00  0.00000000E+00
  0.00000000E+00  0.00000000E+00  0.00000000E+00
  0.00000000E+00  0.00000000E+00  0.00000000E+00
  0.00000000E+00  0.00000000E+00  0.00000000E+00
  0.00000000E+00  0.00000000E+00  0.00000000E+00
  0.00000000E+00  0.00000000E+00  0.00000000E+00
  0.00000000E+00  0.00000000E+00  0.00000000E+00
  0.00000000E+00  0.00000000E+00  0.00000000E+00
  0.00000000E+00  0.00000000E+00  0.00000000E+00
  0.00000000E+00  0.00000000E+00  0.00000000E+00
  0.00000000E+00  0.00000000E+00  0.00000000E+00
  0.00000000E+00  0.00000000E+00  0.00000000E+00
  0.00000000E+00  0.00000000E+00  0.00000000E+00
  0.00000000E+00  0.00000000E+00  0.00000000E+00
  0.00000000E+00  0.00000000E+00  0.00000000E+00
  0.00000000E+00  0.00000000E+00  0.00000000E+00
  0.00000000E+00  0.00000000E+00  0.00000000E+00
  0.00000000E+00  0.00000000E+00  0.00000000E+00
  0.00000000E+00  0.00000000E+00  0.00000000E+00
  0.00000000E+00  0.00000000E+00  0.00000000E+00
  0.00000000E+00  0.00000000E+00  0.00000000E+00
  0.00000000E+00  0.00000000E+00  0.00000000E+00
  0.00000000E+00  0.00000000E+00  0.00000000E+00
  0.00000000E+00  0.00000000E+00  0.00000000E+00
  0.00000000E+00  0.00000000E+00  0.00000000E+00
  0.00000000E+00  0.00000000E+00  0.00000000E+00
  0.00000000E+00  0.00000000E+00  0.00000000E+00
  0.00000000E+00  0.00000000E+00  0.00000000E+00
  0.00000000E+00  0.00000000E+00  0.00000000E+00
  0.00000000E+00  0.00000000E+00  0.00000000E+00
  0.00000000E+00  0.00000000E+00  0.00000000E+00
  0.00000000E+00  0.00000000E+00  0.00000000E+00
  0.00000000E+00  0.00000000E+00  0.00000000E+00
  0.00000000E+00  0.00000000E+00  0.00000000E+00
  0.00000000E+00  0.00000000E+00  0.00000000E+00
  0.00000000E+00  0.00000000E+00  0.00000000E+00
  0.00000000E+00  0.00000000E+00  0.00000000E+00
  0.00000000E+00  0.00000000E+00  0.00000000E+00
  0.00000000E+00  0.00000000E+00  0.00000000E+00
  0.00000000E+00  0.00000000E+00  0.00000000E+00
  0.00000000E+00  0.00000000E+00  0.00000000E+00
  0.00000000E+00  0.00000000E+00  0.00000000E+00
  0.00000000E+00  0.00000000E+00  0.00000000E+00
  0.00000000E+00  0.00000000E+00  0.00000000E+00
  0.00000000E+00  0.00000000E+00  0.00000000E+00
  0.00000000E+00  0.00000000E+00  0.00000000E+00
  0.00000000E+00  0.00000000E+00  0.00000000E+00
  0.00000000E+00  0.00000000E+00  0.00000000E+00
  0.00000000E+00  0.00000000E+00  0.00000000E+00
  0.00000000E+00  0.00000000E+00  0.00000000E+00
  0.00000000E+00  0.00000000E+00  0.00000000E+00
  0.00000000E+00  0.00000000E+00  0.00000000E+00
  0.00000000E+00  0.00000000E+00  0.00000000E+00
  0.00000000E+00  0.00000000E+00  0.00000000E+00
  0.00000000E+00  0.00000000E+00  0.00000000E+00
  0.00000000E+00  0.00000000E+00  0.00000000E+00
  0.00000000E+00  0.00000000E+00  0.00000000E+00
  0.00000000E+00  0.00000000E+00  0.00000000E+00
  0.00000000E+00  0.00000000E+00  0.00000000E+00
  0.00000000E+00  0.00000000E+00  0.00000000E+00
  0.00000000E+00  0.00000000E+00  0.00000000E+00
  0.00000000E+00  0.00000000E+00  0.00000000E+00
  0.00000000E+00  0.00000000E+00  0.00000000E+00
  0.00000000E+00  0.00000000E+00  0.00000000E+00
  0.00000000E+00  0.00000000E+00  0.00000000E+00
  0.00000000E+00  0.00000000E+00  0.00000000E+00
  0.00000000E+00  0.00000000E+00  0.00000000E+00
  0.00000000E+00  0.00000000E+00  0.00000000E+00
  0.00000000E+00  0.00000000E+00  0.00000000E+00
  0.00000000E+00  0.00000000E+00  0.00000000E+00
  0.00000000E+00  0.00000000E+00  0.00000000E+00
  0.00000000E+00  0.00000000E+00  0.00000000E+00
  0.00000000E+00  0.00000000E+00  0.00000000E+00
  0.00000000E+00  0.00000000E+00  0.00000000E+00
  0.00000000E+00  0.00000000E+00  0.00000000E+00
  0.00000000E+00  0.00000000E+00  0.00000000E+00
  0.00000000E+00  0.00000000E+00  0.00000000E+00
  0.00000000E+00  0.00000000E+00  0.00000000E+00
  0.00000000E+00  0.00000000E+00  0.00000000E+00
  0.00000000E+00  0.00000000E+00  0.00000000E+00
  0.00000000E+00  0.00000000E+00  0.00000000E+00
  0.00000000E+00  0.00000000E+00  0.00000000E+00
  0.00000000E+00  0.00000000E+00  0.00000000E+00
  0.00000000E+00  0.00000000E+00  0.00000000E+00
  0.00000000E+00  0.00000000E+00  0.00000000E+00
  0.00000000E+00  0.00000000E+00  0.00000000E+00
  0.00000000E+00  0.00000000E+00  0.00000000E+00
  0.00000000E+00  0.00000000E+00  0.00000000E+00
  0.00000000E+00  0.00000000E+00  0.00000000E+00
  0.00000000E+00  0.00000000E+00  0.00000000E+00
  0.00000000E+00  0.00000000E+00  0.00000000E+00
  0.00000000E+00  0.00000000E+00  0.00000000E+00
  0.00000000E+00  0.00000000E+00  0.00000000E+00
  0.00000000E+00  0.00000000E+00  0.00000000E+00
  0.00000000E+00  0.00000000E+00  0.00000000E+00
  0.00000000E+00  0.00000000E+00  0.00000000E+00
  0.00000000E+00  0.00000000E+00  0.00000000E+00
  0.00000000E+00  0.00000000E+00  0.00000000E+00
  0.00000000E+00  0.00000000E+00  0.00000000E+00
  0.00000000E+00  0.00000000E+00  0.00000000E+00
  0.00000000E+00  0.00000000E+00  0.00000000E+00
  0.00000000E+00  0.00000000E+00  0.00000000E+00
  0.00000000E+00  0.00000000E+00  0.00000000E+00
  0.00000000E+00  0.00000000E+00  0.00000000E+00
  0.00000000E+00  0.00000000E+00  0.00000000E+00
  0.00000000E+00  0.00000000E+00  0.00000000E+00
  0.00000000E+00  0.00000000E+00  0.00000000E+00
  0.00000000E+00  0.00000000E+00  0.00000000E+00
