Sc1 H1 C126 O1                          
   1.00000000000000     
    19.7484797547502069   -0.0001541301558209   -0.0397546829130508
    -9.8743625980329988   17.1170507598781967   -0.0831833370012433
    -0.0599416886697349   -0.1790981400957559   29.7686353053327366
   Sc   H    C    O 
     1     1   126     1
Direct
  0.4431910351702121  0.5052488640964506  0.4446196531808506
  0.4862625726574238  0.5482830192185723  0.5361254719542138
  0.0415635699508638  0.0831900652005615  0.3994929653701768
  0.0414722164772359  0.2081059916518286  0.3991989343565261
  0.0416194547513985  0.3331028321240643  0.3989689567902825
  0.0417865337373438  0.4583369594454450  0.3992265508022007
  0.0417430261240069  0.5833580568504311  0.3997522099337928
  0.0417000561549979  0.7083400541569995  0.3999041262427219
  0.0417787504273017  0.8334036569118484  0.3998711421213748
  0.0417362863389761  0.9583354134306479  0.3998166167877191
  0.1665664330098570  0.0832414283371986  0.3998882992968411
  0.1663297258998650  0.2078466413609304  0.4001207309250999
  0.1665263552891400  0.3330682558075477  0.3996925409940873
  0.1667345833438197  0.4581963680813994  0.3984929003283088
  0.1667925979514670  0.5833326190594731  0.3988201306023491
  0.1667080348623353  0.7084737146086704  0.3995553877471615
  0.1666898624175213  0.8334294295656348  0.3997927928298725
  0.1667098504501833  0.9584046266572627  0.3997093493524311
  0.2916995351255077  0.0832731176773782  0.3998401220610668
  0.2916976399440273  0.2083704045418410  0.4013846647040420
  0.2912981903146510  0.3331182923149492  0.4040596002064568
  0.2920722591210692  0.4573685071831103  0.4016934468813312
  0.2918341734250980  0.5837935897510500  0.3987316517280883
  0.2916015838409845  0.7086649868634141  0.3989489327467989
  0.2916875117712776  0.8335237580607804  0.3997064995736740
  0.2916479518273182  0.9583660059401546  0.3997697889990522
  0.4166783000297400  0.0832433217429671  0.3995808720774225
  0.4165706079053460  0.2078726518500453  0.3999366538759410
  0.4168197045916925  0.3331073507530625  0.4026306119641877
  0.4164427271707143  0.5859310242055328  0.4036696021149300
  0.4167126143582466  0.7091104988846759  0.3994696177932391
  0.4166837838565247  0.8337930730058749  0.3994983102725352
  0.4166702953667781  0.9584927579858532  0.3998391994445680
  0.5416989928536751  0.0833494485793910  0.3998424012279455
  0.5417167596911900  0.2081651309609455  0.3993499219245886
  0.5415975327731382  0.3330879780096528  0.3992046090740484
  0.5403243689949513  0.4573079619577753  0.3994882561161525
  0.5445445420503274  0.5858485218137272  0.4005938116025108
  0.5422648747016013  0.7095572630831170  0.4004767057992890
  0.5416483162200291  0.8337923616205589  0.3998903592158742
  0.5417383976803116  0.9585591273736941  0.3999936564362483
  0.6666837005189250  0.0833609803332376  0.3999786032181272
  0.6667159790135005  0.2083009524717056  0.3996914163840539
  0.6665692058297334  0.3331409111250491  0.3991441256361275
  0.6665492067013450  0.4582001988030963  0.3983856811496477
  0.6670619285641973  0.5838143700804141  0.3979896657059146
  0.6673893423761635  0.7091079664412172  0.3987303386610172
  0.6671389957517260  0.8337731739239433  0.3997176413907145
  0.6667613537987861  0.9585195244871051  0.4000612858189894
  0.7917114728935805  0.0833475502106308  0.3999474615652330
  0.7916624924837404  0.2082646244669949  0.3998265035961784
  0.7916949130816704  0.3332739884813219  0.3997433856067091
  0.7916679889737411  0.4583493407616047  0.3994032993689604
  0.7916070078342616  0.5833148310764433  0.3989532846432186
  0.7921016412117075  0.7086426178211818  0.3989629208103728
  0.7921287875308914  0.8337470486780580  0.3995161754963021
  0.7918285577175144  0.9585073489813738  0.3999971116197953
  0.9166732936157514  0.0833032828686790  0.3997287526860631
  0.9166220367140162  0.2082702214935512  0.3995584645087961
  0.9166712800727773  0.3332673938914415  0.3996684357675147
  0.9166988303200504  0.4582598487989609  0.3999181181113877
  0.9167202056307321  0.5833503682895141  0.3998372677746789
  0.9168076914875654  0.7084538007391724  0.3997195194649273
  0.9168722042676218  0.8334976676099034  0.3998512444258025
  0.9168351912273958  0.9584419689056503  0.3998882558686275
  0.0832795826596991  0.0415720511687330  0.3996734277381879
  0.0830603031256820  0.1663565334603342  0.3993635372036908
  0.0830548138789000  0.2913964800751009  0.3990376130909304
  0.0835082705590409  0.4166792781101229  0.3987694346950679
  0.0834241979879872  0.5416419366577385  0.3992775420250663
  0.0833911371468010  0.6667548889607460  0.3997770946685566
  0.0834132557219200  0.7917884972935483  0.3998670261966165
  0.0833568191244626  0.9167184744871897  0.3997933875226662
  0.2082844007383798  0.0415913960700100  0.3998088735994821
  0.2080169087718907  0.1664071290460682  0.4005099358610901
  0.2078530737575792  0.2911378623799816  0.4009988955525458
  0.2081601994012215  0.4162703311561624  0.3993333533658673
  0.2084853823374156  0.5418089253388488  0.3984472086875709
  0.2084530833142158  0.6669066355909664  0.3990713558590850
  0.2083469335077960  0.7917974300442088  0.3997260824509677
  0.2083757002485441  0.9167334194343698  0.3997433422955078
  0.3333237993950878  0.0416082350574890  0.3996741777161658
  0.3334245479467599  0.1664252053388836  0.4003406273066983
  0.3329275005572588  0.2908366220605382  0.4034202798124119
  0.3308289582939132  0.4147382423031224  0.4069859369071740
  0.3347438078309884  0.5428158158692606  0.4006198841830422
  0.3334074438279919  0.6670110152155566  0.3989029222683834
  0.3333374170257596  0.7919694770408287  0.3993725666005472
  0.3333897802671678  0.9168010260605438  0.3998336593917308
  0.4584130667195098  0.0417146948400898  0.3997604107557850
  0.4583676193671862  0.1663859195894798  0.3994496570191745
  0.4583231418866577  0.2911327372661383  0.4002460791266473
  0.4589221675457599  0.4147455855525408  0.4037221851117709
  0.4583895894064918  0.6673326253414400  0.4009790984202005
  0.4584844489780089  0.7923385709637231  0.3995150142204216
  0.4583943441986197  0.9169500489290182  0.3998124747262385
  0.5834252027077514  0.0417868129508429  0.4000153125723884
  0.5833715637308583  0.1666087263029312  0.3996307448060773
  0.5834297295240162  0.2914186425536545  0.3990795618338211
  0.5832485030902633  0.4162694560215543  0.3986323634355152
  0.5831184326239075  0.5427986402752336  0.3984380235790597
  0.5839016187952680  0.6673332248675905  0.3996303778049824
  0.5834510026826000  0.7919208783181563  0.3999300651181221
  0.5833601168709652  0.9169010728597461  0.4000046461100544
  0.7083564784358453  0.0416781448240417  0.4000247998300225
  0.7083835477895758  0.1666543277063111  0.3998532098527534
  0.7083504705961455  0.2915895402515174  0.3995443558697351
  0.7082752749543799  0.4167042886524643  0.3989344506413229
  0.7083914538065541  0.5418195814913060  0.3983098518780491
  0.7086157446360473  0.6670088671570276  0.3983963828234923
  0.7088637153888809  0.7923301852628218  0.3992927985368352
  0.7085488497864360  0.9168881658841733  0.3999763816606930
  0.8333672789245471  0.0417290918197915  0.3999672584587717
  0.8333128382306514  0.1666260922905088  0.3997889114839396
  0.8333828253511718  0.2916853452494371  0.3998125907057418
  0.8333753912932745  0.4166598558711573  0.3997741025667698
  0.8333205881125362  0.5416443539518789  0.3994445473199372
  0.8334715276976388  0.6668862152473765  0.3992293540230130
  0.8336558234097815  0.7919259975684650  0.3994615535156673
  0.8335568953527901  0.9168760626881129  0.3998739167956206
  0.9582959614540050  0.0416525316875822  0.3996830496907919
  0.9582590750222869  0.1665641668287132  0.3994623120740504
  0.9583028235620341  0.2915605920486204  0.3993793736915965
  0.9584060413832277  0.4166431809148252  0.3996836884086080
  0.9584472544197908  0.5417455968404045  0.3999449341493592
  0.9584246428022112  0.6667380724980273  0.3998588921309453
  0.9584680973766542  0.7917598109863462  0.3998610498752173
  0.9584362911461962  0.9167647745452820  0.3999280390742148
  0.4645413272675037  0.5294155014165479  0.5066230005684258
 
  0.00000000E+00  0.00000000E+00  0.00000000E+00
  0.00000000E+00  0.00000000E+00  0.00000000E+00
  0.00000000E+00  0.00000000E+00  0.00000000E+00
  0.00000000E+00  0.00000000E+00  0.00000000E+00
  0.00000000E+00  0.00000000E+00  0.00000000E+00
  0.00000000E+00  0.00000000E+00  0.00000000E+00
  0.00000000E+00  0.00000000E+00  0.00000000E+00
  0.00000000E+00  0.00000000E+00  0.00000000E+00
  0.00000000E+00  0.00000000E+00  0.00000000E+00
  0.00000000E+00  0.00000000E+00  0.00000000E+00
  0.00000000E+00  0.00000000E+00  0.00000000E+00
  0.00000000E+00  0.00000000E+00  0.00000000E+00
  0.00000000E+00  0.00000000E+00  0.00000000E+00
  0.00000000E+00  0.00000000E+00  0.00000000E+00
  0.00000000E+00  0.00000000E+00  0.00000000E+00
  0.00000000E+00  0.00000000E+00  0.00000000E+00
  0.00000000E+00  0.00000000E+00  0.00000000E+00
  0.00000000E+00  0.00000000E+00  0.00000000E+00
  0.00000000E+00  0.00000000E+00  0.00000000E+00
  0.00000000E+00  0.00000000E+00  0.00000000E+00
  0.00000000E+00  0.00000000E+00  0.00000000E+00
  0.00000000E+00  0.00000000E+00  0.00000000E+00
  0.00000000E+00  0.00000000E+00  0.00000000E+00
  0.00000000E+00  0.00000000E+00  0.00000000E+00
  0.00000000E+00  0.00000000E+00  0.00000000E+00
  0.00000000E+00  0.00000000E+00  0.00000000E+00
  0.00000000E+00  0.00000000E+00  0.00000000E+00
  0.00000000E+00  0.00000000E+00  0.00000000E+00
  0.00000000E+00  0.00000000E+00  0.00000000E+00
  0.00000000E+00  0.00000000E+00  0.00000000E+00
  0.00000000E+00  0.00000000E+00  0.00000000E+00
  0.00000000E+00  0.00000000E+00  0.00000000E+00
  0.00000000E+00  0.00000000E+00  0.00000000E+00
  0.00000000E+00  0.00000000E+00  0.00000000E+00
  0.00000000E+00  0.00000000E+00  0.00000000E+00
  0.00000000E+00  0.00000000E+00  0.00000000E+00
  0.00000000E+00  0.00000000E+00  0.00000000E+00
  0.00000000E+00  0.00000000E+00  0.00000000E+00
  0.00000000E+00  0.00000000E+00  0.00000000E+00
  0.00000000E+00  0.00000000E+00  0.00000000E+00
  0.00000000E+00  0.00000000E+00  0.00000000E+00
  0.00000000E+00  0.00000000E+00  0.00000000E+00
  0.00000000E+00  0.00000000E+00  0.00000000E+00
  0.00000000E+00  0.00000000E+00  0.00000000E+00
  0.00000000E+00  0.00000000E+00  0.00000000E+00
  0.00000000E+00  0.00000000E+00  0.00000000E+00
  0.00000000E+00  0.00000000E+00  0.00000000E+00
  0.00000000E+00  0.00000000E+00  0.00000000E+00
  0.00000000E+00  0.00000000E+00  0.00000000E+00
  0.00000000E+00  0.00000000E+00  0.00000000E+00
  0.00000000E+00  0.00000000E+00  0.00000000E+00
  0.00000000E+00  0.00000000E+00  0.00000000E+00
  0.00000000E+00  0.00000000E+00  0.00000000E+00
  0.00000000E+00  0.00000000E+00  0.00000000E+00
  0.00000000E+00  0.00000000E+00  0.00000000E+00
  0.00000000E+00  0.00000000E+00  0.00000000E+00
  0.00000000E+00  0.00000000E+00  0.00000000E+00
  0.00000000E+00  0.00000000E+00  0.00000000E+00
  0.00000000E+00  0.00000000E+00  0.00000000E+00
  0.00000000E+00  0.00000000E+00  0.00000000E+00
  0.00000000E+00  0.00000000E+00  0.00000000E+00
  0.00000000E+00  0.00000000E+00  0.00000000E+00
  0.00000000E+00  0.00000000E+00  0.00000000E+00
  0.00000000E+00  0.00000000E+00  0.00000000E+00
  0.00000000E+00  0.00000000E+00  0.00000000E+00
  0.00000000E+00  0.00000000E+00  0.00000000E+00
  0.00000000E+00  0.00000000E+00  0.00000000E+00
  0.00000000E+00  0.00000000E+00  0.00000000E+00
  0.00000000E+00  0.00000000E+00  0.00000000E+00
  0.00000000E+00  0.00000000E+00  0.00000000E+00
  0.00000000E+00  0.00000000E+00  0.00000000E+00
  0.00000000E+00  0.00000000E+00  0.00000000E+00
  0.00000000E+00  0.00000000E+00  0.00000000E+00
  0.00000000E+00  0.00000000E+00  0.00000000E+00
  0.00000000E+00  0.00000000E+00  0.00000000E+00
  0.00000000E+00  0.00000000E+00  0.00000000E+00
  0.00000000E+00  0.00000000E+00  0.00000000E+00
  0.00000000E+00  0.00000000E+00  0.00000000E+00
  0.00000000E+00  0.00000000E+00  0.00000000E+00
  0.00000000E+00  0.00000000E+00  0.00000000E+00
  0.00000000E+00  0.00000000E+00  0.00000000E+00
  0.00000000E+00  0.00000000E+00  0.00000000E+00
  0.00000000E+00  0.00000000E+00  0.00000000E+00
  0.00000000E+00  0.00000000E+00  0.00000000E+00
  0.00000000E+00  0.00000000E+00  0.00000000E+00
  0.00000000E+00  0.00000000E+00  0.00000000E+00
  0.00000000E+00  0.00000000E+00  0.00000000E+00
  0.00000000E+00  0.00000000E+00  0.00000000E+00
  0.00000000E+00  0.00000000E+00  0.00000000E+00
  0.00000000E+00  0.00000000E+00  0.00000000E+00
  0.00000000E+00  0.00000000E+00  0.00000000E+00
  0.00000000E+00  0.00000000E+00  0.00000000E+00
  0.00000000E+00  0.00000000E+00  0.00000000E+00
  0.00000000E+00  0.00000000E+00  0.00000000E+00
  0.00000000E+00  0.00000000E+00  0.00000000E+00
  0.00000000E+00  0.00000000E+00  0.00000000E+00
  0.00000000E+00  0.00000000E+00  0.00000000E+00
  0.00000000E+00  0.00000000E+00  0.00000000E+00
  0.00000000E+00  0.00000000E+00  0.00000000E+00
  0.00000000E+00  0.00000000E+00  0.00000000E+00
  0.00000000E+00  0.00000000E+00  0.00000000E+00
  0.00000000E+00  0.00000000E+00  0.00000000E+00
  0.00000000E+00  0.00000000E+00  0.00000000E+00
  0.00000000E+00  0.00000000E+00  0.00000000E+00
  0.00000000E+00  0.00000000E+00  0.00000000E+00
  0.00000000E+00  0.00000000E+00  0.00000000E+00
  0.00000000E+00  0.00000000E+00  0.00000000E+00
  0.00000000E+00  0.00000000E+00  0.00000000E+00
  0.00000000E+00  0.00000000E+00  0.00000000E+00
  0.00000000E+00  0.00000000E+00  0.00000000E+00
  0.00000000E+00  0.00000000E+00  0.00000000E+00
  0.00000000E+00  0.00000000E+00  0.00000000E+00
  0.00000000E+00  0.00000000E+00  0.00000000E+00
  0.00000000E+00  0.00000000E+00  0.00000000E+00
  0.00000000E+00  0.00000000E+00  0.00000000E+00
  0.00000000E+00  0.00000000E+00  0.00000000E+00
  0.00000000E+00  0.00000000E+00  0.00000000E+00
  0.00000000E+00  0.00000000E+00  0.00000000E+00
  0.00000000E+00  0.00000000E+00  0.00000000E+00
  0.00000000E+00  0.00000000E+00  0.00000000E+00
  0.00000000E+00  0.00000000E+00  0.00000000E+00
  0.00000000E+00  0.00000000E+00  0.00000000E+00
  0.00000000E+00  0.00000000E+00  0.00000000E+00
  0.00000000E+00  0.00000000E+00  0.00000000E+00
  0.00000000E+00  0.00000000E+00  0.00000000E+00
  0.00000000E+00  0.00000000E+00  0.00000000E+00
  0.00000000E+00  0.00000000E+00  0.00000000E+00
  0.00000000E+00  0.00000000E+00  0.00000000E+00
  0.00000000E+00  0.00000000E+00  0.00000000E+00
