Hf1 C125 N1 O1                          
   1.00000000000000     
    19.7986061641535365   -0.0071205839923191   -0.1586720375117918
    -9.9054750352431817   17.0915745205989751   -0.0334811473944615
    -0.2380993903069118   -0.1962618889626699   29.7456004894291972
   Hf   C    N    O 
     1   125     1     1
Direct
  0.4381454448881322  0.5040645367789235  0.4437439155075148
  0.0417860977756867  0.0836944568662812  0.3994168329107966
  0.0413557383684071  0.2083321202609597  0.3992609948076453
  0.0410625456496040  0.3331169415009124  0.3987458213855893
  0.0410838814412489  0.4584158493329325  0.3985519695766238
  0.0415383948469515  0.5837553018551995  0.3990580037283797
  0.0420475088398066  0.7089902461998389  0.3994499627942417
  0.0422624242118827  0.8341751629534725  0.3992609673840083
  0.0422447075377487  0.9591264174016684  0.3991666153107684
  0.1672651061699514  0.0844068983470149  0.3998702164960445
  0.1666331057452174  0.2087690112193684  0.4004875249448536
  0.1662760702571285  0.3338299490307637  0.4000088775010710
  0.1653436236660766  0.4585389604203048  0.3986721044377065
  0.1656437504290084  0.5837178944820351  0.3981783243962283
  0.1664631760723070  0.7090097509672068  0.3989187391586986
  0.1670034846567151  0.8342205577311799  0.3993444783517475
  0.1672957964710608  0.9593819814095144  0.3994007593931180
  0.2923437479929984  0.0843054830227627  0.3998540717855527
  0.2928045251075352  0.2100045052436847  0.4017481415780224
  0.2916151572912026  0.3345078637276688  0.4036479613958903
  0.2905311075148452  0.4590283415552320  0.4025019509401748
  0.2894996191383691  0.5845336018386356  0.3995880663095437
  0.2909148480966327  0.7092538679861136  0.3988061873805429
  0.2916642806361732  0.8340536166115740  0.3989682993473936
  0.2919712328721208  0.9590450382413241  0.3992596621205251
  0.4170540552682289  0.0834591217006700  0.3993775442884773
  0.4173680088268649  0.2083865437600291  0.4005038058835097
  0.4187676825121318  0.3340659243574031  0.4054888656803645
  0.4154744212354824  0.7083613189963094  0.4010105453543211
  0.4163522752741599  0.8333578420870301  0.3992061748727291
  0.4167305064046369  0.9584087373413734  0.3990988665463464
  0.5417721201018539  0.0827959711563315  0.3992170980053533
  0.5421836718005455  0.2078869717971774  0.3992251700903953
  0.5428573204694430  0.3329616091087890  0.4004388248692636
  0.5443039700675660  0.4576296233614953  0.4049924547646722
  0.5487302067071665  0.5844911732521154  0.4125022097835463
  0.5401586285654216  0.7055123348418399  0.4053195112656886
  0.5409570068007247  0.8320056598017629  0.4004806692196987
  0.5414824864316862  0.9575411755939920  0.3992702293635074
  0.6664674594499791  0.0824596725137361  0.3993146757063217
  0.6668598876984079  0.2077145709676561  0.3991827419160917
  0.6673424002781126  0.3328724526426338  0.3988034724446733
  0.6684271549311649  0.4581743864565780  0.3983960377988309
  0.6696684608345758  0.5838865834096716  0.3987988819471241
  0.6676244391374786  0.7081707759694157  0.4002124509651113
  0.6658114477584289  0.8317492317981486  0.4002280663880694
  0.6662138160525374  0.9572237294448956  0.3995530993387567
  0.7913169402530714  0.0825142798723615  0.3992619060090777
  0.7914813544665859  0.2076146137586088  0.3993490086393888
  0.7919413773480909  0.3329424261440574  0.3992035986966107
  0.7926032645213803  0.4583391194220085  0.3985143918646977
  0.7931518725870768  0.5835974314807039  0.3975415750016841
  0.7929477550742139  0.7088754682599017  0.3976733481170385
  0.7920053324240508  0.8332977486754404  0.3983797253523623
  0.7911703523195377  0.9574862571036722  0.3990916258058323
  0.9163926108048225  0.0829523034956123  0.3991394371929294
  0.9162717938284639  0.2078598174215880  0.3990307149520057
  0.9164172929931522  0.3329940127347444  0.3990678826447163
  0.9168090060893099  0.4582958461973325  0.3991799378810725
  0.9173634586138321  0.5837167897981965  0.3989479971174084
  0.9175526388483883  0.7090375214659436  0.3984622014112476
  0.9173616675088041  0.8339222957024875  0.3985072716300226
  0.9168296363928180  0.9584449156080534  0.3988664961535417
  0.0838492343575789  0.0424948665732777  0.3994584464523127
  0.0832592778966929  0.1669364454858074  0.3996566340340973
  0.0827837400704243  0.2917130108572314  0.3991337087954985
  0.0824476477005854  0.4166577166937369  0.3984750066814278
  0.0826223492122952  0.5418779891295075  0.3984964226112046
  0.0833281954939540  0.6672280422165013  0.3992271780709554
  0.0838081750811936  0.7925228654525651  0.3994837926462961
  0.0839411369261240  0.9176073254054353  0.3992594220805611
  0.2089441888979340  0.0426705514541524  0.3997112999853940
  0.2088680743916806  0.1677802288475164  0.4006591178603455
  0.2079917277627019  0.2921498835319797  0.4011393196238342
  0.2069759695704873  0.4172436779566360  0.4000094389869676
  0.2066273035630481  0.5420087655175774  0.3983666874501906
  0.2077525288496415  0.6673202447320089  0.3985119551088829
  0.2084123220666078  0.7924410363478106  0.3990820977082825
  0.2088089706986040  0.9175789008445453  0.3993215076318029
  0.3337606525539623  0.0423316610764246  0.3994495226055037
  0.3342148569939427  0.1675893256765037  0.4007223635396459
  0.3344501883813422  0.2928915698579895  0.4042672524687522
  0.3293007530425330  0.4162554218856954  0.4059146094032361
  0.3320444294181525  0.5450281941591955  0.4030026704583956
  0.3322309999239632  0.6676491077626382  0.3996838619453505
  0.3331332684691592  0.7924133570642435  0.3989505220437906
  0.3335412408039190  0.9173098009059983  0.3991060080557697
  0.4585844338778086  0.0416346088589312  0.3992052088981723
  0.4588891513420729  0.1665979219028355  0.3995490051999110
  0.4595545607611697  0.2916016621386366  0.4018215922344111
  0.4632939207786032  0.4155004951626012  0.4106566574531567
  0.4552029672617932  0.6649525470843832  0.4049658009893531
  0.4578365601426967  0.7915108840417956  0.4000572152953826
  0.4582182439354159  0.9165376769309014  0.3991252667143889
  0.5832627066162163  0.0409141171615195  0.3992570693534289
  0.5836159930877520  0.1661307751420099  0.3991480908195861
  0.5842099355698382  0.2911806236955289  0.3991662935130999
  0.5854953420696071  0.4161821587259378  0.4005107785061640
  0.5879252306947380  0.5434075029689852  0.4048933210829033
  0.5847717379135503  0.6654636516284367  0.4059646230653899
  0.5816955629871382  0.7889545974076451  0.4018323418187048
  0.5828573175044194  0.9154670533997973  0.3996439245787397
  0.7079387007803860  0.0406194536905708  0.3993524646285741
  0.7082739425301474  0.1659146616464225  0.3993204537083719
  0.7087047211451001  0.2911420297949632  0.3990519682020779
  0.7094658734135220  0.4164841442972088  0.3983570587734122
  0.7104392903943186  0.5418501320176056  0.3975706316348949
  0.7098697240100145  0.6670538761515926  0.3985083483993713
  0.7085691223112596  0.7912604822732884  0.3991911463068663
  0.7075820078248980  0.9152672102431909  0.3995341377784931
  0.8329154847826125  0.0409318457921721  0.3991593277475970
  0.8329925702980541  0.1659711142526889  0.3992281994006177
  0.8332836738253739  0.2911888109356927  0.3993174440040863
  0.8337677732889467  0.4164908323396004  0.3990511407616657
  0.8343522783061772  0.5418051210023788  0.3983144792002530
  0.8344552217085036  0.6672302097862961  0.3976804597331182
  0.8341188804999679  0.7921044174923310  0.3980588992415963
  0.8333877009322528  0.9164695314175038  0.3987578492389702
  0.9583690882820594  0.0417658542324348  0.3991242573430041
  0.9580299213817667  0.1663897315069599  0.3990997226585637
  0.9578709343413335  0.2912650845930290  0.3988819568720499
  0.9580223364425341  0.4164978920910472  0.3989857097842538
  0.9585784447903563  0.5419636926964647  0.3992229709814585
  0.9589762505662053  0.6672705019541032  0.3990286604236159
  0.9590585756460646  0.7923970687031340  0.3987719121396421
  0.9588477644619964  0.9172482988105048  0.3988493569626777
  0.4108934134950757  0.5852079315834197  0.4078716929216034
  0.4402192515146924  0.5097821925261824  0.5046837514767144
 
  0.00000000E+00  0.00000000E+00  0.00000000E+00
  0.00000000E+00  0.00000000E+00  0.00000000E+00
  0.00000000E+00  0.00000000E+00  0.00000000E+00
  0.00000000E+00  0.00000000E+00  0.00000000E+00
  0.00000000E+00  0.00000000E+00  0.00000000E+00
  0.00000000E+00  0.00000000E+00  0.00000000E+00
  0.00000000E+00  0.00000000E+00  0.00000000E+00
  0.00000000E+00  0.00000000E+00  0.00000000E+00
  0.00000000E+00  0.00000000E+00  0.00000000E+00
  0.00000000E+00  0.00000000E+00  0.00000000E+00
  0.00000000E+00  0.00000000E+00  0.00000000E+00
  0.00000000E+00  0.00000000E+00  0.00000000E+00
  0.00000000E+00  0.00000000E+00  0.00000000E+00
  0.00000000E+00  0.00000000E+00  0.00000000E+00
  0.00000000E+00  0.00000000E+00  0.00000000E+00
  0.00000000E+00  0.00000000E+00  0.00000000E+00
  0.00000000E+00  0.00000000E+00  0.00000000E+00
  0.00000000E+00  0.00000000E+00  0.00000000E+00
  0.00000000E+00  0.00000000E+00  0.00000000E+00
  0.00000000E+00  0.00000000E+00  0.00000000E+00
  0.00000000E+00  0.00000000E+00  0.00000000E+00
  0.00000000E+00  0.00000000E+00  0.00000000E+00
  0.00000000E+00  0.00000000E+00  0.00000000E+00
  0.00000000E+00  0.00000000E+00  0.00000000E+00
  0.00000000E+00  0.00000000E+00  0.00000000E+00
  0.00000000E+00  0.00000000E+00  0.00000000E+00
  0.00000000E+00  0.00000000E+00  0.00000000E+00
  0.00000000E+00  0.00000000E+00  0.00000000E+00
  0.00000000E+00  0.00000000E+00  0.00000000E+00
  0.00000000E+00  0.00000000E+00  0.00000000E+00
  0.00000000E+00  0.00000000E+00  0.00000000E+00
  0.00000000E+00  0.00000000E+00  0.00000000E+00
  0.00000000E+00  0.00000000E+00  0.00000000E+00
  0.00000000E+00  0.00000000E+00  0.00000000E+00
  0.00000000E+00  0.00000000E+00  0.00000000E+00
  0.00000000E+00  0.00000000E+00  0.00000000E+00
  0.00000000E+00  0.00000000E+00  0.00000000E+00
  0.00000000E+00  0.00000000E+00  0.00000000E+00
  0.00000000E+00  0.00000000E+00  0.00000000E+00
  0.00000000E+00  0.00000000E+00  0.00000000E+00
  0.00000000E+00  0.00000000E+00  0.00000000E+00
  0.00000000E+00  0.00000000E+00  0.00000000E+00
  0.00000000E+00  0.00000000E+00  0.00000000E+00
  0.00000000E+00  0.00000000E+00  0.00000000E+00
  0.00000000E+00  0.00000000E+00  0.00000000E+00
  0.00000000E+00  0.00000000E+00  0.00000000E+00
  0.00000000E+00  0.00000000E+00  0.00000000E+00
  0.00000000E+00  0.00000000E+00  0.00000000E+00
  0.00000000E+00  0.00000000E+00  0.00000000E+00
  0.00000000E+00  0.00000000E+00  0.00000000E+00
  0.00000000E+00  0.00000000E+00  0.00000000E+00
  0.00000000E+00  0.00000000E+00  0.00000000E+00
  0.00000000E+00  0.00000000E+00  0.00000000E+00
  0.00000000E+00  0.00000000E+00  0.00000000E+00
  0.00000000E+00  0.00000000E+00  0.00000000E+00
  0.00000000E+00  0.00000000E+00  0.00000000E+00
  0.00000000E+00  0.00000000E+00  0.00000000E+00
  0.00000000E+00  0.00000000E+00  0.00000000E+00
  0.00000000E+00  0.00000000E+00  0.00000000E+00
  0.00000000E+00  0.00000000E+00  0.00000000E+00
  0.00000000E+00  0.00000000E+00  0.00000000E+00
  0.00000000E+00  0.00000000E+00  0.00000000E+00
  0.00000000E+00  0.00000000E+00  0.00000000E+00
  0.00000000E+00  0.00000000E+00  0.00000000E+00
  0.00000000E+00  0.00000000E+00  0.00000000E+00
  0.00000000E+00  0.00000000E+00  0.00000000E+00
  0.00000000E+00  0.00000000E+00  0.00000000E+00
  0.00000000E+00  0.00000000E+00  0.00000000E+00
  0.00000000E+00  0.00000000E+00  0.00000000E+00
  0.00000000E+00  0.00000000E+00  0.00000000E+00
  0.00000000E+00  0.00000000E+00  0.00000000E+00
  0.00000000E+00  0.00000000E+00  0.00000000E+00
  0.00000000E+00  0.00000000E+00  0.00000000E+00
  0.00000000E+00  0.00000000E+00  0.00000000E+00
  0.00000000E+00  0.00000000E+00  0.00000000E+00
  0.00000000E+00  0.00000000E+00  0.00000000E+00
  0.00000000E+00  0.00000000E+00  0.00000000E+00
  0.00000000E+00  0.00000000E+00  0.00000000E+00
  0.00000000E+00  0.00000000E+00  0.00000000E+00
  0.00000000E+00  0.00000000E+00  0.00000000E+00
  0.00000000E+00  0.00000000E+00  0.00000000E+00
  0.00000000E+00  0.00000000E+00  0.00000000E+00
  0.00000000E+00  0.00000000E+00  0.00000000E+00
  0.00000000E+00  0.00000000E+00  0.00000000E+00
  0.00000000E+00  0.00000000E+00  0.00000000E+00
  0.00000000E+00  0.00000000E+00  0.00000000E+00
  0.00000000E+00  0.00000000E+00  0.00000000E+00
  0.00000000E+00  0.00000000E+00  0.00000000E+00
  0.00000000E+00  0.00000000E+00  0.00000000E+00
  0.00000000E+00  0.00000000E+00  0.00000000E+00
  0.00000000E+00  0.00000000E+00  0.00000000E+00
  0.00000000E+00  0.00000000E+00  0.00000000E+00
  0.00000000E+00  0.00000000E+00  0.00000000E+00
  0.00000000E+00  0.00000000E+00  0.00000000E+00
  0.00000000E+00  0.00000000E+00  0.00000000E+00
  0.00000000E+00  0.00000000E+00  0.00000000E+00
  0.00000000E+00  0.00000000E+00  0.00000000E+00
  0.00000000E+00  0.00000000E+00  0.00000000E+00
  0.00000000E+00  0.00000000E+00  0.00000000E+00
  0.00000000E+00  0.00000000E+00  0.00000000E+00
  0.00000000E+00  0.00000000E+00  0.00000000E+00
  0.00000000E+00  0.00000000E+00  0.00000000E+00
  0.00000000E+00  0.00000000E+00  0.00000000E+00
  0.00000000E+00  0.00000000E+00  0.00000000E+00
  0.00000000E+00  0.00000000E+00  0.00000000E+00
  0.00000000E+00  0.00000000E+00  0.00000000E+00
  0.00000000E+00  0.00000000E+00  0.00000000E+00
  0.00000000E+00  0.00000000E+00  0.00000000E+00
  0.00000000E+00  0.00000000E+00  0.00000000E+00
  0.00000000E+00  0.00000000E+00  0.00000000E+00
  0.00000000E+00  0.00000000E+00  0.00000000E+00
  0.00000000E+00  0.00000000E+00  0.00000000E+00
  0.00000000E+00  0.00000000E+00  0.00000000E+00
  0.00000000E+00  0.00000000E+00  0.00000000E+00
  0.00000000E+00  0.00000000E+00  0.00000000E+00
  0.00000000E+00  0.00000000E+00  0.00000000E+00
  0.00000000E+00  0.00000000E+00  0.00000000E+00
  0.00000000E+00  0.00000000E+00  0.00000000E+00
  0.00000000E+00  0.00000000E+00  0.00000000E+00
  0.00000000E+00  0.00000000E+00  0.00000000E+00
  0.00000000E+00  0.00000000E+00  0.00000000E+00
  0.00000000E+00  0.00000000E+00  0.00000000E+00
  0.00000000E+00  0.00000000E+00  0.00000000E+00
  0.00000000E+00  0.00000000E+00  0.00000000E+00
  0.00000000E+00  0.00000000E+00  0.00000000E+00
  0.00000000E+00  0.00000000E+00  0.00000000E+00
  0.00000000E+00  0.00000000E+00  0.00000000E+00
  0.00000000E+00  0.00000000E+00  0.00000000E+00
