Ir1 C126 O1                             
   1.00000000000000     
    19.8052973723952341   -0.0001302758428768   -0.0716736912976901
    -9.9027833490208863   17.0497258198682466   -0.0486321702451169
    -0.1077872008400628   -0.1475860143080950   29.8003449390712554
   Ir   C    O 
     1   126     1
Direct
  0.4386422325191162  0.5011460421361194  0.4331290801190103
  0.0421886167377717  0.0841854444894727  0.3993309998014020
  0.0412068260560479  0.2081972828800060  0.3993209045318457
  0.0405713038573005  0.3328249232760615  0.3990047376313926
  0.0405733282052557  0.4582378545947563  0.3987600680693440
  0.0413491656799602  0.5837181719369291  0.3990547825180576
  0.0420848756130834  0.7090647625611882  0.3994878620763392
  0.0424144879087788  0.8344306269459192  0.3996501176577096
  0.0424806880223214  0.9594880261875031  0.3994456587142254
  0.1677774775179335  0.0852956307927100  0.3998954281053101
  0.1676964928757942  0.2102646786869697  0.4005040724406799
  0.1655903712845762  0.3334535862719279  0.4002695643645949
  0.1642254465852093  0.4583638804076300  0.3988499159223424
  0.1652310924586085  0.5836048394823876  0.3986379377849181
  0.1665314180033585  0.7090372220810887  0.3992447936980085
  0.1670797844753820  0.8344123851789723  0.3996399540091379
  0.1674690612670108  0.9598509114803772  0.3997189481144946
  0.2926156614718577  0.0853019713431091  0.3999003132214946
  0.2934433308786419  0.2117378711721245  0.4019701191429598
  0.2938037559304702  0.3377818425209944  0.4047662936226421
  0.2870975292452880  0.4583992656509133  0.4030250314114985
  0.2888087845320777  0.5836918942749818  0.3998778620133602
  0.2910038018501325  0.7087850479673053  0.3992029058570737
  0.2916706312941587  0.8339441441981671  0.3993246427863178
  0.2920914013001209  0.9594607328933377  0.3994584137335063
  0.4170818132598491  0.0841441320623284  0.3993425919802656
  0.4176875876910404  0.2102707557603957  0.4004089636099856
  0.4192286821825966  0.3378074275790064  0.4044480905531659
  0.4104330750455687  0.5795661252791519  0.4075297846021020
  0.4154143008143360  0.7062561217868057  0.4011252816029947
  0.4162889545356434  0.8325210651546208  0.3995162179424322
  0.4166690128406138  0.9583152924197376  0.3992380876589339
  0.5415795163497695  0.0827215613721577  0.3993005306919802
  0.5420764486929138  0.2081650515781981  0.3993372971961524
  0.5430136274301153  0.3334389522949717  0.4000312773683798
  0.5464619367789193  0.4583617016260782  0.4022494853897850
  0.5443373242520373  0.5794577622951128  0.4068454267733604
  0.5400225360184796  0.7048459759826493  0.4038455417148866
  0.5407441961422200  0.8312552879074318  0.4006132760979038
  0.5412693137993101  0.9571524649376896  0.3995477479007811
  0.6662489845819120  0.0822228483832726  0.3996631187401469
  0.6666269546920957  0.2075249070912321  0.3994175305404954
  0.6673657866595533  0.3328132803231431  0.3990582875851288
  0.6692918923457170  0.4583755111054367  0.3986934849480851
  0.6700096376939022  0.5836698245749149  0.3993245407345647
  0.6659583923648125  0.7062214612722840  0.4007041592796606
  0.6656070378881771  0.8312575747277018  0.4005171841244392
  0.6659578244854872  0.9568271821589953  0.3999318251634942
  0.7910868734894738  0.0822531689125957  0.3996738637466142
  0.7912421519266317  0.2073843053612008  0.3996611841099655
  0.7917883208729815  0.3327499604609173  0.3992844372014207
  0.7927898984126645  0.4582427386940136  0.3989232951884685
  0.7935029625665416  0.5836152647729179  0.3987102365490031
  0.7929111117413329  0.7088026070800321  0.3990924319236717
  0.7913541581354254  0.8325657092289802  0.3994393193740839
  0.7909762963959566  0.9572013095728240  0.3995112230082220
  0.9162737191396353  0.0827906735758461  0.3993033567849530
  0.9160217235747643  0.2075635480040134  0.3994277599130189
  0.9161001690150193  0.3327685263813354  0.3992343711163255
  0.9166127349042237  0.4581123064899064  0.3990689466442366
  0.9174730265366928  0.5837443461028851  0.3991472540164907
  0.9176232565482730  0.7090718642087971  0.3992866286728798
  0.9173955164414306  0.8339858554917324  0.3993263551373874
  0.9167643843321582  0.9583774379253961  0.3992311273684985
  0.0842625222929402  0.0430418574515422  0.3994682390007555
  0.0839193602811786  0.1676836974967393  0.3995511084297618
  0.0823360820825030  0.2913851307295915  0.3993349567332820
  0.0816604083716673  0.4164818133085336  0.3986922737189078
  0.0823372884958792  0.5418204967784666  0.3987627169550429
  0.0833357229071778  0.6672940993046086  0.3992810959093106
  0.0839089483784487  0.7927338159259255  0.3996737533969126
  0.0841255656230810  0.9179535420295218  0.3996327254603411
  0.2092496445333001  0.0434015898623704  0.3998584750658872
  0.2096570547063350  0.1690307686775404  0.4007630516198183
  0.2093549201315532  0.2940639148618311  0.4015741970807755
  0.2052433460624029  0.4165385022346073  0.4001442267908336
  0.2058872440310060  0.5417727962676123  0.3987715439842454
  0.2077444038936786  0.6672950162342959  0.3989550293406776
  0.2084531403597527  0.7925433223174936  0.3994428888947471
  0.2088971207528016  0.9179321238843112  0.3996458660265863
  0.3338348824012023  0.0430133505239208  0.3994889856811093
  0.3344864612972931  0.1690288449314212  0.4007269128851113
  0.3354138775597656  0.2955893308556857  0.4044999408487072
  0.3312314090434022  0.4210585867538220  0.4080077250090606
  0.3288618842952019  0.5419739555505981  0.4027916065017485
  0.3322123144003098  0.6667913925342397  0.3999424481957900
  0.3330456632781977  0.7919874769604975  0.3992994785610312
  0.3334894495772633  0.9173739369071051  0.3993223449968837
  0.4583964242023544  0.0418028037033130  0.3992144932705684
  0.4588529255467509  0.1676516020366536  0.3995464736736472
  0.4598828072979977  0.2940738115997349  0.4012982345935240
  0.4651511195916943  0.4211126181265415  0.4074223648737201
  0.4562497555582688  0.6626972477495018  0.4041308507431992
  0.4575368184329515  0.7900348973758319  0.4002844697973617
  0.4580323177134691  0.9160398894314575  0.3993835061715292
  0.5830227359222235  0.0406872802865874  0.3994807479794133
  0.5834186284370833  0.1661407794867341  0.3992968771232108
  0.5841674629935342  0.2913471737973207  0.3993032882785995
  0.5864434807672212  0.4165139516269722  0.3997142897194457
  0.5882537612923658  0.5419530780587515  0.4019377804650274
  0.5816179388802728  0.6626381494918182  0.4037122846138126
  0.5818720977934606  0.7886188675234359  0.4015922614225981
  0.5825739949721546  0.9149646996866760  0.3999460856689553
  0.7077107283851404  0.0403426885530630  0.3997805621423569
  0.7080240454640186  0.1657023733121433  0.3996273549391022
  0.7085651072652384  0.2910255046075823  0.3992723418768828
  0.7099347033904613  0.4164845922510588  0.3987719967567025
  0.7110046067748093  0.5417738550049449  0.3985808369577858
  0.7097003816730465  0.6667909531832844  0.3995518606602053
  0.7075840507533554  0.7900268110563313  0.4000920332661496
  0.7074523024339476  0.9149616428912403  0.3999087409834751
  0.8327689528766744  0.0407256702450337  0.3994768273887540
  0.8327720997900580  0.1657349082451691  0.3996497365706637
  0.8330716341792350  0.2910278494172354  0.3994351050518719
  0.8337407867068957  0.4163042920920631  0.3991183291144057
  0.8345734164008561  0.5418205319948280  0.3989272983760307
  0.8346356394123031  0.6673225999838515  0.3989807873342817
  0.8340283259901379  0.7920190796411533  0.3992553749209992
  0.8330911158955452  0.9160682680898729  0.3993579544551163
  0.9585146578584378  0.0418567600010550  0.3992079813921487
  0.9578388275421686  0.1661901397818626  0.3992889750023866
  0.9575749909916141  0.2910524943745589  0.3992234318505292
  0.9576775411047888  0.4163223428134822  0.3990281703679673
  0.9585074018669203  0.5419164412572497  0.3990866986373314
  0.9590727780815010  0.6673222225474453  0.3993262714732184
  0.9591923788691626  0.7926061654160417  0.3994632542331717
  0.9589856918937762  0.9174369462621454  0.3993175694123725
  0.4404491440932042  0.5039207252659913  0.4918159770521063
 
  0.00000000E+00  0.00000000E+00  0.00000000E+00
  0.00000000E+00  0.00000000E+00  0.00000000E+00
  0.00000000E+00  0.00000000E+00  0.00000000E+00
  0.00000000E+00  0.00000000E+00  0.00000000E+00
  0.00000000E+00  0.00000000E+00  0.00000000E+00
  0.00000000E+00  0.00000000E+00  0.00000000E+00
  0.00000000E+00  0.00000000E+00  0.00000000E+00
  0.00000000E+00  0.00000000E+00  0.00000000E+00
  0.00000000E+00  0.00000000E+00  0.00000000E+00
  0.00000000E+00  0.00000000E+00  0.00000000E+00
  0.00000000E+00  0.00000000E+00  0.00000000E+00
  0.00000000E+00  0.00000000E+00  0.00000000E+00
  0.00000000E+00  0.00000000E+00  0.00000000E+00
  0.00000000E+00  0.00000000E+00  0.00000000E+00
  0.00000000E+00  0.00000000E+00  0.00000000E+00
  0.00000000E+00  0.00000000E+00  0.00000000E+00
  0.00000000E+00  0.00000000E+00  0.00000000E+00
  0.00000000E+00  0.00000000E+00  0.00000000E+00
  0.00000000E+00  0.00000000E+00  0.00000000E+00
  0.00000000E+00  0.00000000E+00  0.00000000E+00
  0.00000000E+00  0.00000000E+00  0.00000000E+00
  0.00000000E+00  0.00000000E+00  0.00000000E+00
  0.00000000E+00  0.00000000E+00  0.00000000E+00
  0.00000000E+00  0.00000000E+00  0.00000000E+00
  0.00000000E+00  0.00000000E+00  0.00000000E+00
  0.00000000E+00  0.00000000E+00  0.00000000E+00
  0.00000000E+00  0.00000000E+00  0.00000000E+00
  0.00000000E+00  0.00000000E+00  0.00000000E+00
  0.00000000E+00  0.00000000E+00  0.00000000E+00
  0.00000000E+00  0.00000000E+00  0.00000000E+00
  0.00000000E+00  0.00000000E+00  0.00000000E+00
  0.00000000E+00  0.00000000E+00  0.00000000E+00
  0.00000000E+00  0.00000000E+00  0.00000000E+00
  0.00000000E+00  0.00000000E+00  0.00000000E+00
  0.00000000E+00  0.00000000E+00  0.00000000E+00
  0.00000000E+00  0.00000000E+00  0.00000000E+00
  0.00000000E+00  0.00000000E+00  0.00000000E+00
  0.00000000E+00  0.00000000E+00  0.00000000E+00
  0.00000000E+00  0.00000000E+00  0.00000000E+00
  0.00000000E+00  0.00000000E+00  0.00000000E+00
  0.00000000E+00  0.00000000E+00  0.00000000E+00
  0.00000000E+00  0.00000000E+00  0.00000000E+00
  0.00000000E+00  0.00000000E+00  0.00000000E+00
  0.00000000E+00  0.00000000E+00  0.00000000E+00
  0.00000000E+00  0.00000000E+00  0.00000000E+00
  0.00000000E+00  0.00000000E+00  0.00000000E+00
  0.00000000E+00  0.00000000E+00  0.00000000E+00
  0.00000000E+00  0.00000000E+00  0.00000000E+00
  0.00000000E+00  0.00000000E+00  0.00000000E+00
  0.00000000E+00  0.00000000E+00  0.00000000E+00
  0.00000000E+00  0.00000000E+00  0.00000000E+00
  0.00000000E+00  0.00000000E+00  0.00000000E+00
  0.00000000E+00  0.00000000E+00  0.00000000E+00
  0.00000000E+00  0.00000000E+00  0.00000000E+00
  0.00000000E+00  0.00000000E+00  0.00000000E+00
  0.00000000E+00  0.00000000E+00  0.00000000E+00
  0.00000000E+00  0.00000000E+00  0.00000000E+00
  0.00000000E+00  0.00000000E+00  0.00000000E+00
  0.00000000E+00  0.00000000E+00  0.00000000E+00
  0.00000000E+00  0.00000000E+00  0.00000000E+00
  0.00000000E+00  0.00000000E+00  0.00000000E+00
  0.00000000E+00  0.00000000E+00  0.00000000E+00
  0.00000000E+00  0.00000000E+00  0.00000000E+00
  0.00000000E+00  0.00000000E+00  0.00000000E+00
  0.00000000E+00  0.00000000E+00  0.00000000E+00
  0.00000000E+00  0.00000000E+00  0.00000000E+00
  0.00000000E+00  0.00000000E+00  0.00000000E+00
  0.00000000E+00  0.00000000E+00  0.00000000E+00
  0.00000000E+00  0.00000000E+00  0.00000000E+00
  0.00000000E+00  0.00000000E+00  0.00000000E+00
  0.00000000E+00  0.00000000E+00  0.00000000E+00
  0.00000000E+00  0.00000000E+00  0.00000000E+00
  0.00000000E+00  0.00000000E+00  0.00000000E+00
  0.00000000E+00  0.00000000E+00  0.00000000E+00
  0.00000000E+00  0.00000000E+00  0.00000000E+00
  0.00000000E+00  0.00000000E+00  0.00000000E+00
  0.00000000E+00  0.00000000E+00  0.00000000E+00
  0.00000000E+00  0.00000000E+00  0.00000000E+00
  0.00000000E+00  0.00000000E+00  0.00000000E+00
  0.00000000E+00  0.00000000E+00  0.00000000E+00
  0.00000000E+00  0.00000000E+00  0.00000000E+00
  0.00000000E+00  0.00000000E+00  0.00000000E+00
  0.00000000E+00  0.00000000E+00  0.00000000E+00
  0.00000000E+00  0.00000000E+00  0.00000000E+00
  0.00000000E+00  0.00000000E+00  0.00000000E+00
  0.00000000E+00  0.00000000E+00  0.00000000E+00
  0.00000000E+00  0.00000000E+00  0.00000000E+00
  0.00000000E+00  0.00000000E+00  0.00000000E+00
  0.00000000E+00  0.00000000E+00  0.00000000E+00
  0.00000000E+00  0.00000000E+00  0.00000000E+00
  0.00000000E+00  0.00000000E+00  0.00000000E+00
  0.00000000E+00  0.00000000E+00  0.00000000E+00
  0.00000000E+00  0.00000000E+00  0.00000000E+00
  0.00000000E+00  0.00000000E+00  0.00000000E+00
  0.00000000E+00  0.00000000E+00  0.00000000E+00
  0.00000000E+00  0.00000000E+00  0.00000000E+00
  0.00000000E+00  0.00000000E+00  0.00000000E+00
  0.00000000E+00  0.00000000E+00  0.00000000E+00
  0.00000000E+00  0.00000000E+00  0.00000000E+00
  0.00000000E+00  0.00000000E+00  0.00000000E+00
  0.00000000E+00  0.00000000E+00  0.00000000E+00
  0.00000000E+00  0.00000000E+00  0.00000000E+00
  0.00000000E+00  0.00000000E+00  0.00000000E+00
  0.00000000E+00  0.00000000E+00  0.00000000E+00
  0.00000000E+00  0.00000000E+00  0.00000000E+00
  0.00000000E+00  0.00000000E+00  0.00000000E+00
  0.00000000E+00  0.00000000E+00  0.00000000E+00
  0.00000000E+00  0.00000000E+00  0.00000000E+00
  0.00000000E+00  0.00000000E+00  0.00000000E+00
  0.00000000E+00  0.00000000E+00  0.00000000E+00
  0.00000000E+00  0.00000000E+00  0.00000000E+00
  0.00000000E+00  0.00000000E+00  0.00000000E+00
  0.00000000E+00  0.00000000E+00  0.00000000E+00
  0.00000000E+00  0.00000000E+00  0.00000000E+00
  0.00000000E+00  0.00000000E+00  0.00000000E+00
  0.00000000E+00  0.00000000E+00  0.00000000E+00
  0.00000000E+00  0.00000000E+00  0.00000000E+00
  0.00000000E+00  0.00000000E+00  0.00000000E+00
  0.00000000E+00  0.00000000E+00  0.00000000E+00
  0.00000000E+00  0.00000000E+00  0.00000000E+00
  0.00000000E+00  0.00000000E+00  0.00000000E+00
  0.00000000E+00  0.00000000E+00  0.00000000E+00
  0.00000000E+00  0.00000000E+00  0.00000000E+00
  0.00000000E+00  0.00000000E+00  0.00000000E+00
  0.00000000E+00  0.00000000E+00  0.00000000E+00
  0.00000000E+00  0.00000000E+00  0.00000000E+00
  0.00000000E+00  0.00000000E+00  0.00000000E+00
  0.00000000E+00  0.00000000E+00  0.00000000E+00
