Cu1 C122 N4 O1                          
   1.00000000000000     
    19.8073805275595269    0.0031518019413860    0.0115117684058880
    -9.9009704336394435   17.0179253636004368   -0.0084585910040898
     0.0173293979993322   -0.0047381850985328   29.8489020748280325
   Cu   C    N    O 
     1   122     4     1
Direct
  0.4384417770671420  0.5021188102675039  0.4308330209396569
  0.0420734408508461  0.0842469348554246  0.4002075483450976
  0.0409493397753047  0.2081848085879214  0.4004284180756919
  0.0402460871745847  0.3328329386279504  0.4000958190955922
  0.0404381988922075  0.4581963197460677  0.3996456330186043
  0.0412814633748371  0.5837518983649921  0.3994023974821426
  0.0421116288702866  0.7092630753232246  0.3993672950164333
  0.0425267329494293  0.8346859215323957  0.3995331455973333
  0.0426673836222369  0.9598777456190911  0.3998280944165848
  0.1683635595007202  0.0862737610734008  0.4006555468318254
  0.1674562497224863  0.2104760085385255  0.4014330507711253
  0.1651289083424152  0.3337022047308509  0.4012002276510568
  0.1642639584239618  0.4583809224435271  0.4001635082560885
  0.1651400751853885  0.5835805207137759  0.4000028324535521
  0.1663368911560658  0.7090932884843409  0.3996825321467830
  0.1671290660092817  0.8346919771660389  0.3995121765502071
  0.1677088588271071  0.9604056642264251  0.3998235568551147
  0.2929198125464590  0.0862582531438848  0.4006296278420213
  0.2946244081845302  0.2142318251225712  0.4020318233313856
  0.2925523823994255  0.3395773900388330  0.4029015205407396
  0.2880302542498764  0.4571921685846853  0.4015831619687274
  0.2886908579228558  0.5831212028260855  0.4007688137178573
  0.2904609679608317  0.7085076380329360  0.4006478800713024
  0.2915539263999288  0.8340204553805847  0.3998898903227688
  0.2922275957319331  0.9598680372601277  0.3997840200454831
  0.4171926753086543  0.0842144981280084  0.4002187483788402
  0.4180233845762236  0.2104313031506606  0.4014936836285807
  0.4220275425658170  0.3395315114933919  0.4028930231184832
  0.4143961104481120  0.7059789180293203  0.4019781573406987
  0.4159516655647864  0.8322434046008490  0.4006543219705766
  0.4166221399171431  0.9582337448260110  0.3998868833124161
  0.5415689488463372  0.0824111584472371  0.3998337670815142
  0.5422466546399215  0.2081637180883570  0.4004715406358551
  0.5435605048592821  0.3336511966031063  0.4012211849417867
  0.5441276009613640  0.4571440754234392  0.4014626648150770
  0.5379957028983842  0.7010148806878460  0.4028113691088856
  0.5401034196938866  0.8296954675320307  0.4014458515479674
  0.5409882352016999  0.9563657586970929  0.4001885127702176
  0.6660047255974220  0.0816287996061473  0.3996897437262727
  0.6665850177100803  0.2072743767921454  0.3996743353542547
  0.6675669767803115  0.3328300323672245  0.4000442147696658
  0.6690796128914046  0.4583636640686486  0.4000361622743761
  0.6693538167344435  0.5830958171192938  0.4005547946882920
  0.6664618507871645  0.7059257680222416  0.4018814036041934
  0.6645730156646180  0.8296994139270076  0.4014566406024235
  0.6654248646661499  0.9558205750586805  0.4003462270307075
  0.7906683627328424  0.0816228401763650  0.3996640475531555
  0.7910329173152053  0.2070489017521621  0.3994336389922176
  0.7917199803890815  0.3326076321601456  0.3994050222293088
  0.7926992500157528  0.4581906089311699  0.3995622949808987
  0.7933440463848226  0.5835497940469051  0.3998894280028757
  0.7929466284239317  0.7084809288734897  0.4006047795396528
  0.7912474554978062  0.8322102951092295  0.4007096206288565
  0.7903996490936616  0.9563722662126707  0.4001728151710451
  0.9158946896567418  0.0824318799154185  0.3997950352319560
  0.9157023448335369  0.2072910499561501  0.3996601665077435
  0.9158838110328547  0.3326243941125813  0.3994262893313786
  0.9165434386506450  0.4581439223791576  0.3992848643490224
  0.9173843341026113  0.5837512722312278  0.3993644938087985
  0.9176869487533674  0.7090889080072630  0.3996741772899716
  0.9174324177495520  0.8340213547401875  0.3999473173517544
  0.9166398434812152  0.9582415992766521  0.3999197123922636
  0.0846364608110183  0.0436275379878676  0.4001988948637927
  0.0837500788375290  0.1677638154672705  0.4006705504102691
  0.0820034111129698  0.2914919619987488  0.4006305896779951
  0.0815833472835151  0.4164042076641102  0.4000004978164373
  0.0822407060195031  0.5417878004941012  0.3996405400944492
  0.0832420243998051  0.6673537222074742  0.3994215794772287
  0.0839599876950462  0.7929255526429503  0.3994361068131048
  0.0843632200603647  0.9183539079852268  0.3996877779159366
  0.2096100321652935  0.0441731607886720  0.4003454070245079
  0.2104509047366313  0.1703288354146919  0.4014547917972620
  0.2085019077264416  0.2940659839797425  0.4019420448548942
  0.2056012172118978  0.4168727581226226  0.4007142686735433
  0.2058739783516004  0.5416007512036846  0.4001836228414846
  0.2073955453296879  0.6671535209381173  0.4000952168623480
  0.2083958788845773  0.7926941181647298  0.3996546569784516
  0.2090322588867934  0.9183559764008916  0.3996658799908892
  0.3340319557500873  0.0436129199695422  0.4001705110764452
  0.3349035251463416  0.1702957203180752  0.4014785603832592
  0.3370259367982524  0.2990421051644278  0.4027976713852940
  0.3307352099152126  0.5427164589692484  0.4016269118594766
  0.3314001528286138  0.6663078093262144  0.4012634279487221
  0.3327561819726353  0.7918148487105213  0.4004200257051774
  0.3334578289475216  0.9175547383749005  0.3997886077942208
  0.4584108854283217  0.0417324770149746  0.3999082791601999
  0.4590557326065081  0.1677367438093048  0.4007194695867659
  0.4605806099638455  0.2940002317285770  0.4020047740316060
  0.4530390342022454  0.6605801724198966  0.4029631439168627
  0.4569841905715403  0.7895624568213438  0.4014268764204224
  0.4578329481116187  0.9157552846573311  0.4001923888993025
  0.5828105839527258  0.0401076571694351  0.3998249407731264
  0.5834425974044231  0.1659431214634690  0.3999362096558011
  0.5845066550218475  0.2914546806337311  0.4006316297329919
  0.5862798117849327  0.4168183282904181  0.4006527593434713
  0.5869419343897676  0.5426696411199283  0.4014387191245402
  0.5824582462229485  0.6605126300741947  0.4028515035435307
  0.5804173606422930  0.7858278900059150  0.4020183526544474
  0.5821088223597524  0.9137409215382049  0.4006472619692298
  0.7073282076063667  0.0395808939694115  0.3998245345153325
  0.7078705770428448  0.1652869067946143  0.3995293727798581
  0.7086283007138762  0.2908786250077895  0.3996649976321989
  0.7098176522114079  0.4164030977005564  0.3998965911761145
  0.7106804821739584  0.5415692551327401  0.4000035907275154
  0.7098263153299675  0.6662729456210245  0.4011237876953689
  0.7075342364958691  0.7895187729979420  0.4014312519807177
  0.7066731817461572  0.9137403859763017  0.4006294030342863
  0.8323769167889880  0.0401124557817486  0.3997843982601983
  0.8324649714654671  0.1652870170984975  0.3995121691718507
  0.8328764168271190  0.2907109956014868  0.3993668683782728
  0.8336517109364229  0.4162156667784334  0.3993585110318332
  0.8344924123559355  0.5417686545663943  0.3995685461631534
  0.8346965672195501  0.6671233541195354  0.4000391027539872
  0.8340390841633455  0.7917863035732711  0.4004696579558297
  0.8329605561826543  0.9157468355729522  0.4002269821561640
  0.9584016923324233  0.0417520133909353  0.3998987553945145
  0.9575651881915881  0.1659674119635192  0.3998986872425370
  0.9572755237900860  0.2908890294640474  0.3996899733717246
  0.9575511094615802  0.4162285807484535  0.3994075655672233
  0.9583938797827039  0.5418287821409666  0.3992854055357475
  0.9590911186484438  0.6673597922113466  0.3994107397388212
  0.9592834194640811  0.7926958533718695  0.3996854391484964
  0.9591395995919112  0.9175605432664579  0.3998412533015379
  0.4093921505772717  0.5806262366937212  0.4036059485524752
  0.5461551779136904  0.5805732310240836  0.4034407530942734
  0.3288932882470363  0.4194400511175214  0.4034036389549837
  0.4655460593954892  0.4193850996377715  0.4033157998491341
  0.4370826302426457  0.4990212583952663  0.4893823483731836
 
  0.00000000E+00  0.00000000E+00  0.00000000E+00
  0.00000000E+00  0.00000000E+00  0.00000000E+00
  0.00000000E+00  0.00000000E+00  0.00000000E+00
  0.00000000E+00  0.00000000E+00  0.00000000E+00
  0.00000000E+00  0.00000000E+00  0.00000000E+00
  0.00000000E+00  0.00000000E+00  0.00000000E+00
  0.00000000E+00  0.00000000E+00  0.00000000E+00
  0.00000000E+00  0.00000000E+00  0.00000000E+00
  0.00000000E+00  0.00000000E+00  0.00000000E+00
  0.00000000E+00  0.00000000E+00  0.00000000E+00
  0.00000000E+00  0.00000000E+00  0.00000000E+00
  0.00000000E+00  0.00000000E+00  0.00000000E+00
  0.00000000E+00  0.00000000E+00  0.00000000E+00
  0.00000000E+00  0.00000000E+00  0.00000000E+00
  0.00000000E+00  0.00000000E+00  0.00000000E+00
  0.00000000E+00  0.00000000E+00  0.00000000E+00
  0.00000000E+00  0.00000000E+00  0.00000000E+00
  0.00000000E+00  0.00000000E+00  0.00000000E+00
  0.00000000E+00  0.00000000E+00  0.00000000E+00
  0.00000000E+00  0.00000000E+00  0.00000000E+00
  0.00000000E+00  0.00000000E+00  0.00000000E+00
  0.00000000E+00  0.00000000E+00  0.00000000E+00
  0.00000000E+00  0.00000000E+00  0.00000000E+00
  0.00000000E+00  0.00000000E+00  0.00000000E+00
  0.00000000E+00  0.00000000E+00  0.00000000E+00
  0.00000000E+00  0.00000000E+00  0.00000000E+00
  0.00000000E+00  0.00000000E+00  0.00000000E+00
  0.00000000E+00  0.00000000E+00  0.00000000E+00
  0.00000000E+00  0.00000000E+00  0.00000000E+00
  0.00000000E+00  0.00000000E+00  0.00000000E+00
  0.00000000E+00  0.00000000E+00  0.00000000E+00
  0.00000000E+00  0.00000000E+00  0.00000000E+00
  0.00000000E+00  0.00000000E+00  0.00000000E+00
  0.00000000E+00  0.00000000E+00  0.00000000E+00
  0.00000000E+00  0.00000000E+00  0.00000000E+00
  0.00000000E+00  0.00000000E+00  0.00000000E+00
  0.00000000E+00  0.00000000E+00  0.00000000E+00
  0.00000000E+00  0.00000000E+00  0.00000000E+00
  0.00000000E+00  0.00000000E+00  0.00000000E+00
  0.00000000E+00  0.00000000E+00  0.00000000E+00
  0.00000000E+00  0.00000000E+00  0.00000000E+00
  0.00000000E+00  0.00000000E+00  0.00000000E+00
  0.00000000E+00  0.00000000E+00  0.00000000E+00
  0.00000000E+00  0.00000000E+00  0.00000000E+00
  0.00000000E+00  0.00000000E+00  0.00000000E+00
  0.00000000E+00  0.00000000E+00  0.00000000E+00
  0.00000000E+00  0.00000000E+00  0.00000000E+00
  0.00000000E+00  0.00000000E+00  0.00000000E+00
  0.00000000E+00  0.00000000E+00  0.00000000E+00
  0.00000000E+00  0.00000000E+00  0.00000000E+00
  0.00000000E+00  0.00000000E+00  0.00000000E+00
  0.00000000E+00  0.00000000E+00  0.00000000E+00
  0.00000000E+00  0.00000000E+00  0.00000000E+00
  0.00000000E+00  0.00000000E+00  0.00000000E+00
  0.00000000E+00  0.00000000E+00  0.00000000E+00
  0.00000000E+00  0.00000000E+00  0.00000000E+00
  0.00000000E+00  0.00000000E+00  0.00000000E+00
  0.00000000E+00  0.00000000E+00  0.00000000E+00
  0.00000000E+00  0.00000000E+00  0.00000000E+00
  0.00000000E+00  0.00000000E+00  0.00000000E+00
  0.00000000E+00  0.00000000E+00  0.00000000E+00
  0.00000000E+00  0.00000000E+00  0.00000000E+00
  0.00000000E+00  0.00000000E+00  0.00000000E+00
  0.00000000E+00  0.00000000E+00  0.00000000E+00
  0.00000000E+00  0.00000000E+00  0.00000000E+00
  0.00000000E+00  0.00000000E+00  0.00000000E+00
  0.00000000E+00  0.00000000E+00  0.00000000E+00
  0.00000000E+00  0.00000000E+00  0.00000000E+00
  0.00000000E+00  0.00000000E+00  0.00000000E+00
  0.00000000E+00  0.00000000E+00  0.00000000E+00
  0.00000000E+00  0.00000000E+00  0.00000000E+00
  0.00000000E+00  0.00000000E+00  0.00000000E+00
  0.00000000E+00  0.00000000E+00  0.00000000E+00
  0.00000000E+00  0.00000000E+00  0.00000000E+00
  0.00000000E+00  0.00000000E+00  0.00000000E+00
  0.00000000E+00  0.00000000E+00  0.00000000E+00
  0.00000000E+00  0.00000000E+00  0.00000000E+00
  0.00000000E+00  0.00000000E+00  0.00000000E+00
  0.00000000E+00  0.00000000E+00  0.00000000E+00
  0.00000000E+00  0.00000000E+00  0.00000000E+00
  0.00000000E+00  0.00000000E+00  0.00000000E+00
  0.00000000E+00  0.00000000E+00  0.00000000E+00
  0.00000000E+00  0.00000000E+00  0.00000000E+00
  0.00000000E+00  0.00000000E+00  0.00000000E+00
  0.00000000E+00  0.00000000E+00  0.00000000E+00
  0.00000000E+00  0.00000000E+00  0.00000000E+00
  0.00000000E+00  0.00000000E+00  0.00000000E+00
  0.00000000E+00  0.00000000E+00  0.00000000E+00
  0.00000000E+00  0.00000000E+00  0.00000000E+00
  0.00000000E+00  0.00000000E+00  0.00000000E+00
  0.00000000E+00  0.00000000E+00  0.00000000E+00
  0.00000000E+00  0.00000000E+00  0.00000000E+00
  0.00000000E+00  0.00000000E+00  0.00000000E+00
  0.00000000E+00  0.00000000E+00  0.00000000E+00
  0.00000000E+00  0.00000000E+00  0.00000000E+00
  0.00000000E+00  0.00000000E+00  0.00000000E+00
  0.00000000E+00  0.00000000E+00  0.00000000E+00
  0.00000000E+00  0.00000000E+00  0.00000000E+00
  0.00000000E+00  0.00000000E+00  0.00000000E+00
  0.00000000E+00  0.00000000E+00  0.00000000E+00
  0.00000000E+00  0.00000000E+00  0.00000000E+00
  0.00000000E+00  0.00000000E+00  0.00000000E+00
  0.00000000E+00  0.00000000E+00  0.00000000E+00
  0.00000000E+00  0.00000000E+00  0.00000000E+00
  0.00000000E+00  0.00000000E+00  0.00000000E+00
  0.00000000E+00  0.00000000E+00  0.00000000E+00
  0.00000000E+00  0.00000000E+00  0.00000000E+00
  0.00000000E+00  0.00000000E+00  0.00000000E+00
  0.00000000E+00  0.00000000E+00  0.00000000E+00
  0.00000000E+00  0.00000000E+00  0.00000000E+00
  0.00000000E+00  0.00000000E+00  0.00000000E+00
  0.00000000E+00  0.00000000E+00  0.00000000E+00
  0.00000000E+00  0.00000000E+00  0.00000000E+00
  0.00000000E+00  0.00000000E+00  0.00000000E+00
  0.00000000E+00  0.00000000E+00  0.00000000E+00
  0.00000000E+00  0.00000000E+00  0.00000000E+00
  0.00000000E+00  0.00000000E+00  0.00000000E+00
  0.00000000E+00  0.00000000E+00  0.00000000E+00
  0.00000000E+00  0.00000000E+00  0.00000000E+00
  0.00000000E+00  0.00000000E+00  0.00000000E+00
  0.00000000E+00  0.00000000E+00  0.00000000E+00
  0.00000000E+00  0.00000000E+00  0.00000000E+00
  0.00000000E+00  0.00000000E+00  0.00000000E+00
  0.00000000E+00  0.00000000E+00  0.00000000E+00
  0.00000000E+00  0.00000000E+00  0.00000000E+00
  0.00000000E+00  0.00000000E+00  0.00000000E+00
  0.00000000E+00  0.00000000E+00  0.00000000E+00
  0.00000000E+00  0.00000000E+00  0.00000000E+00
