H1 Ru1 C123 N3                          
   1.00000000000000     
    19.8274765330400555    0.0206332705875094    0.1226890653205416
    -9.8954942401035950   17.0148749205360303   -0.3176774869768776
     0.1852580637033241   -0.4489366929149647   29.8166172732731880
   H    Ru   C    N 
     1     1   123     3
Direct
  0.4415268300415234  0.4656012061818899  0.4700513617761604
  0.4360791470111426  0.4999899463979745  0.4229641860126054
  0.0416993995176649  0.0843409458160668  0.3995959189743809
  0.0402110447795652  0.2080902841691001  0.3997100939965076
  0.0394761294053929  0.3327673139559849  0.3994437094193511
  0.0401215300578785  0.4582795098118112  0.3994769502137721
  0.0415797600198104  0.5840488589855090  0.3996929814620815
  0.0427202795428427  0.7097135642538058  0.3996832308578440
  0.0429956850264537  0.8351437969567996  0.3995390198110195
  0.0427380267067536  0.9601463493964800  0.3994153980564992
  0.1679146135661893  0.0862358769116081  0.4002752035781361
  0.1667700012401254  0.2104008052571862  0.4007714265744013
  0.1638898235374591  0.3333693283069905  0.4006585571202591
  0.1633396229471505  0.4581494258220247  0.3988997184758144
  0.1650465569687108  0.5836360554489789  0.3994178134076281
  0.1667101754170952  0.7092960085294241  0.3999079727807195
  0.1675145785536626  0.8349682129485898  0.3998033933949520
  0.1678597038115303  0.9606572756080894  0.3996749539959895
  0.2927947081978585  0.0864466786391398  0.4002962696323170
  0.2934591608996169  0.2136098802870993  0.4025162993695772
  0.2908408725960623  0.3385695065896173  0.4058101620437450
  0.2859130309825234  0.4572563212725727  0.4023320894322849
  0.2881281864868414  0.5826965927488510  0.3987771381659275
  0.2907572430736154  0.7083775007242393  0.3990902477514641
  0.2918605136626220  0.8341709084492628  0.3997931127675074
  0.2923612593563243  0.9601460027120196  0.3996843248400241
  0.4171525675910436  0.0848088290162821  0.3998069310741171
  0.4177958866598195  0.2114361281440890  0.4009816808271161
  0.4195567471173022  0.3393605122147905  0.4046166422034796
  0.4147409498151007  0.7055457628909245  0.3989309307574211
  0.4161039939502539  0.8322176051594660  0.3997319055641523
  0.4166661662986946  0.9585053596906643  0.3997962833196307
  0.5413776896172143  0.0828852512298935  0.3997010733885367
  0.5420474500013709  0.2089030102551389  0.3996216689248254
  0.5435241009341744  0.3349568387163313  0.4006498326680907
  0.5487417932770190  0.4613474640838964  0.4048265096701650
  0.5383237855037796  0.7010566489117641  0.4023694771435896
  0.5402213159708731  0.8297701644829838  0.4000048824506590
  0.5409345532137896  0.9566026138547482  0.3999708880984155
  0.6657047583506820  0.0819322865106431  0.3999818958410870
  0.6663477198013924  0.2077021725507336  0.3994080411806047
  0.6675550984418598  0.3334642690969559  0.3991095826892871
  0.6703380717127225  0.4593153016009306  0.3996038723492946
  0.6721771446262444  0.5851109761900899  0.4015845005606452
  0.6671734936298100  0.7065297229710236  0.4015649553947105
  0.6646167350988941  0.8300096925540509  0.4005429627304337
  0.6652839781587299  0.9560844480065274  0.4002516366885342
  0.7902944759815594  0.0818379671180444  0.3999555587821319
  0.7906135283616964  0.2072911538115342  0.3996476472576798
  0.7915328624500233  0.3329361785408031  0.3991562324599081
  0.7932927431354637  0.4587269659593222  0.3986386355239762
  0.7947481601529716  0.5844608253306729  0.3986900272013770
  0.7942115873935676  0.7095692003305308  0.3996179785419149
  0.7915208198594353  0.8326281777392527  0.3995741100089409
  0.7902369759308859  0.9566232800949469  0.3998968739297221
  0.9154837100084934  0.0825182052728299  0.3995509534027839
  0.9150949855234426  0.2073402513665782  0.3995906546160047
  0.9154611663650282  0.3327597962937871  0.3994809253488094
  0.9166926844822768  0.4585010715971991  0.3992423020746342
  0.9181169748212616  0.5842909400493179  0.3989529060123405
  0.9185825309242248  0.7097648500581651  0.3991012957760751
  0.9179948465067300  0.8346477301702490  0.3993186979401172
  0.9165881064841196  0.9585231465099019  0.3994339327236534
  0.0843836082232346  0.0437666262809011  0.3996546261857114
  0.0831953055043184  0.1678139755449095  0.3998775989484808
  0.0811743598607399  0.2913598667003707  0.3998428785231655
  0.0808528514565985  0.4162244646594649  0.3992031929205127
  0.0822215204590860  0.5419052249219612  0.3996133253610119
  0.0836998492990864  0.6676720003441150  0.3998711539793576
  0.0844913062847854  0.7933437986734402  0.3997419414847106
  0.0846296554856577  0.9187417017320513  0.3995117993320070
  0.2095851313177055  0.0444365905625132  0.4001042436782813
  0.2096947752413572  0.1701244662200188  0.4012668730560738
  0.2076044877974240  0.2939899137542883  0.4017731952411097
  0.2042236661074266  0.4163863980321338  0.3998638488481837
  0.2053423800773232  0.5413132253252668  0.3991210957158302
  0.2076301967547789  0.6671750992581753  0.3995180683873935
  0.2087512220057114  0.7929145570891246  0.3998817928718078
  0.2093122416061133  0.9186945984949106  0.3996690814937870
  0.3340441840168772  0.0439506581143000  0.3998255785829454
  0.3346604365890712  0.1706606146418272  0.4012634899398608
  0.3356888998425042  0.2983423201880455  0.4051496241294901
  0.3290098838142267  0.5413996695651984  0.3991909057817506
  0.3315232042349172  0.6660095049181900  0.3984842313018516
  0.3330218938469413  0.7918657117835646  0.3995554474181034
  0.3336533224529297  0.9177943757597460  0.3997662923380563
  0.4583728162539271  0.0422140499531428  0.3997061961641240
  0.4589268738525416  0.1685404834556038  0.4000471295596290
  0.4599206618287755  0.2955051195297830  0.4017743715033240
  0.4661698009864442  0.4241725030214075  0.4086062657114640
  0.4537992424047939  0.6605484785899937  0.3994695075128527
  0.4571946340272976  0.7894167256364889  0.3996240615969205
  0.4578697869400263  0.9159103532806243  0.3998958792436458
  0.5826457417787659  0.0404700857582659  0.3999259397931463
  0.5832079285905580  0.1665497974546879  0.3994803652737525
  0.5842218767917302  0.2925382294509624  0.3995780674216712
  0.5876639991277963  0.4184686583358403  0.4011689387853860
  0.5911684034596320  0.5445782321591750  0.4064397412330485
  0.5836629687541924  0.6615763804656419  0.4054762489136819
  0.5806597127046398  0.7861149835133466  0.4008808914815049
  0.5821060898537874  0.9139786823823014  0.4000456181586685
  0.7070768325993235  0.0398721344713992  0.4001521623955685
  0.7075716446113670  0.1656894907127962  0.3996835969540959
  0.7084015821630686  0.2913391263766728  0.3991465958117265
  0.7104898532607508  0.4169639464958539  0.3988748350796012
  0.7123618615743044  0.5425634029880161  0.3994590705948318
  0.7116776300100400  0.6677951338720507  0.4010234290107600
  0.7077944203741185  0.7899199919175953  0.4001421103375919
  0.7065982708744852  0.9140305241785992  0.4002334345554803
  0.8320507932510893  0.0403100069465806  0.3998023549499574
  0.8320093830514375  0.1654853607264826  0.3997507808551620
  0.8325090893610222  0.2909091279184102  0.3994291513448388
  0.8338726711614249  0.4165877407101333  0.3989443660154777
  0.8354089073337726  0.5423583090844492  0.3985743491221702
  0.8358195681795124  0.6679352547783297  0.3990234541709537
  0.8348232021609107  0.7926469969477876  0.3994089748243503
  0.8329927553062680  0.9160923349559265  0.3996060551456276
  0.9581238293761231  0.0419439631971385  0.3994638298259185
  0.9569876993562250  0.1659766156318441  0.3995351840751005
  0.9566941217070417  0.2909254552383195  0.3995086817434045
  0.9573411720234938  0.4163762687485988  0.3994790357579168
  0.9588006958868230  0.5421733422869276  0.3993078608862076
  0.9598288791542882  0.6679128434430732  0.3992045073713720
  0.9599506608854820  0.7933045237287820  0.3993523678809535
  0.9593628520906110  0.9180142350662389  0.3993480615651352
  0.4089511619463827  0.5794268231942913  0.3973614240393685
  0.5491729884861291  0.5824213419377077  0.4126472348670432
  0.3268715126224208  0.4192656243380513  0.4102681639112248
 
  0.00000000E+00  0.00000000E+00  0.00000000E+00
  0.00000000E+00  0.00000000E+00  0.00000000E+00
  0.00000000E+00  0.00000000E+00  0.00000000E+00
  0.00000000E+00  0.00000000E+00  0.00000000E+00
  0.00000000E+00  0.00000000E+00  0.00000000E+00
  0.00000000E+00  0.00000000E+00  0.00000000E+00
  0.00000000E+00  0.00000000E+00  0.00000000E+00
  0.00000000E+00  0.00000000E+00  0.00000000E+00
  0.00000000E+00  0.00000000E+00  0.00000000E+00
  0.00000000E+00  0.00000000E+00  0.00000000E+00
  0.00000000E+00  0.00000000E+00  0.00000000E+00
  0.00000000E+00  0.00000000E+00  0.00000000E+00
  0.00000000E+00  0.00000000E+00  0.00000000E+00
  0.00000000E+00  0.00000000E+00  0.00000000E+00
  0.00000000E+00  0.00000000E+00  0.00000000E+00
  0.00000000E+00  0.00000000E+00  0.00000000E+00
  0.00000000E+00  0.00000000E+00  0.00000000E+00
  0.00000000E+00  0.00000000E+00  0.00000000E+00
  0.00000000E+00  0.00000000E+00  0.00000000E+00
  0.00000000E+00  0.00000000E+00  0.00000000E+00
  0.00000000E+00  0.00000000E+00  0.00000000E+00
  0.00000000E+00  0.00000000E+00  0.00000000E+00
  0.00000000E+00  0.00000000E+00  0.00000000E+00
  0.00000000E+00  0.00000000E+00  0.00000000E+00
  0.00000000E+00  0.00000000E+00  0.00000000E+00
  0.00000000E+00  0.00000000E+00  0.00000000E+00
  0.00000000E+00  0.00000000E+00  0.00000000E+00
  0.00000000E+00  0.00000000E+00  0.00000000E+00
  0.00000000E+00  0.00000000E+00  0.00000000E+00
  0.00000000E+00  0.00000000E+00  0.00000000E+00
  0.00000000E+00  0.00000000E+00  0.00000000E+00
  0.00000000E+00  0.00000000E+00  0.00000000E+00
  0.00000000E+00  0.00000000E+00  0.00000000E+00
  0.00000000E+00  0.00000000E+00  0.00000000E+00
  0.00000000E+00  0.00000000E+00  0.00000000E+00
  0.00000000E+00  0.00000000E+00  0.00000000E+00
  0.00000000E+00  0.00000000E+00  0.00000000E+00
  0.00000000E+00  0.00000000E+00  0.00000000E+00
  0.00000000E+00  0.00000000E+00  0.00000000E+00
  0.00000000E+00  0.00000000E+00  0.00000000E+00
  0.00000000E+00  0.00000000E+00  0.00000000E+00
  0.00000000E+00  0.00000000E+00  0.00000000E+00
  0.00000000E+00  0.00000000E+00  0.00000000E+00
  0.00000000E+00  0.00000000E+00  0.00000000E+00
  0.00000000E+00  0.00000000E+00  0.00000000E+00
  0.00000000E+00  0.00000000E+00  0.00000000E+00
  0.00000000E+00  0.00000000E+00  0.00000000E+00
  0.00000000E+00  0.00000000E+00  0.00000000E+00
  0.00000000E+00  0.00000000E+00  0.00000000E+00
  0.00000000E+00  0.00000000E+00  0.00000000E+00
  0.00000000E+00  0.00000000E+00  0.00000000E+00
  0.00000000E+00  0.00000000E+00  0.00000000E+00
  0.00000000E+00  0.00000000E+00  0.00000000E+00
  0.00000000E+00  0.00000000E+00  0.00000000E+00
  0.00000000E+00  0.00000000E+00  0.00000000E+00
  0.00000000E+00  0.00000000E+00  0.00000000E+00
  0.00000000E+00  0.00000000E+00  0.00000000E+00
  0.00000000E+00  0.00000000E+00  0.00000000E+00
  0.00000000E+00  0.00000000E+00  0.00000000E+00
  0.00000000E+00  0.00000000E+00  0.00000000E+00
  0.00000000E+00  0.00000000E+00  0.00000000E+00
  0.00000000E+00  0.00000000E+00  0.00000000E+00
  0.00000000E+00  0.00000000E+00  0.00000000E+00
  0.00000000E+00  0.00000000E+00  0.00000000E+00
  0.00000000E+00  0.00000000E+00  0.00000000E+00
  0.00000000E+00  0.00000000E+00  0.00000000E+00
  0.00000000E+00  0.00000000E+00  0.00000000E+00
  0.00000000E+00  0.00000000E+00  0.00000000E+00
  0.00000000E+00  0.00000000E+00  0.00000000E+00
  0.00000000E+00  0.00000000E+00  0.00000000E+00
  0.00000000E+00  0.00000000E+00  0.00000000E+00
  0.00000000E+00  0.00000000E+00  0.00000000E+00
  0.00000000E+00  0.00000000E+00  0.00000000E+00
  0.00000000E+00  0.00000000E+00  0.00000000E+00
  0.00000000E+00  0.00000000E+00  0.00000000E+00
  0.00000000E+00  0.00000000E+00  0.00000000E+00
  0.00000000E+00  0.00000000E+00  0.00000000E+00
  0.00000000E+00  0.00000000E+00  0.00000000E+00
  0.00000000E+00  0.00000000E+00  0.00000000E+00
  0.00000000E+00  0.00000000E+00  0.00000000E+00
  0.00000000E+00  0.00000000E+00  0.00000000E+00
  0.00000000E+00  0.00000000E+00  0.00000000E+00
  0.00000000E+00  0.00000000E+00  0.00000000E+00
  0.00000000E+00  0.00000000E+00  0.00000000E+00
  0.00000000E+00  0.00000000E+00  0.00000000E+00
  0.00000000E+00  0.00000000E+00  0.00000000E+00
  0.00000000E+00  0.00000000E+00  0.00000000E+00
  0.00000000E+00  0.00000000E+00  0.00000000E+00
  0.00000000E+00  0.00000000E+00  0.00000000E+00
  0.00000000E+00  0.00000000E+00  0.00000000E+00
  0.00000000E+00  0.00000000E+00  0.00000000E+00
  0.00000000E+00  0.00000000E+00  0.00000000E+00
  0.00000000E+00  0.00000000E+00  0.00000000E+00
  0.00000000E+00  0.00000000E+00  0.00000000E+00
  0.00000000E+00  0.00000000E+00  0.00000000E+00
  0.00000000E+00  0.00000000E+00  0.00000000E+00
  0.00000000E+00  0.00000000E+00  0.00000000E+00
  0.00000000E+00  0.00000000E+00  0.00000000E+00
  0.00000000E+00  0.00000000E+00  0.00000000E+00
  0.00000000E+00  0.00000000E+00  0.00000000E+00
  0.00000000E+00  0.00000000E+00  0.00000000E+00
  0.00000000E+00  0.00000000E+00  0.00000000E+00
  0.00000000E+00  0.00000000E+00  0.00000000E+00
  0.00000000E+00  0.00000000E+00  0.00000000E+00
  0.00000000E+00  0.00000000E+00  0.00000000E+00
  0.00000000E+00  0.00000000E+00  0.00000000E+00
  0.00000000E+00  0.00000000E+00  0.00000000E+00
  0.00000000E+00  0.00000000E+00  0.00000000E+00
  0.00000000E+00  0.00000000E+00  0.00000000E+00
  0.00000000E+00  0.00000000E+00  0.00000000E+00
  0.00000000E+00  0.00000000E+00  0.00000000E+00
  0.00000000E+00  0.00000000E+00  0.00000000E+00
  0.00000000E+00  0.00000000E+00  0.00000000E+00
  0.00000000E+00  0.00000000E+00  0.00000000E+00
  0.00000000E+00  0.00000000E+00  0.00000000E+00
  0.00000000E+00  0.00000000E+00  0.00000000E+00
  0.00000000E+00  0.00000000E+00  0.00000000E+00
  0.00000000E+00  0.00000000E+00  0.00000000E+00
  0.00000000E+00  0.00000000E+00  0.00000000E+00
  0.00000000E+00  0.00000000E+00  0.00000000E+00
  0.00000000E+00  0.00000000E+00  0.00000000E+00
  0.00000000E+00  0.00000000E+00  0.00000000E+00
  0.00000000E+00  0.00000000E+00  0.00000000E+00
  0.00000000E+00  0.00000000E+00  0.00000000E+00
  0.00000000E+00  0.00000000E+00  0.00000000E+00
  0.00000000E+00  0.00000000E+00  0.00000000E+00
  0.00000000E+00  0.00000000E+00  0.00000000E+00
  0.00000000E+00  0.00000000E+00  0.00000000E+00
