H1 W1 C126                              
   1.00000000000000     
    19.8094420967539087   -0.0000721431523383   -0.0270387916420653
    -9.9048247309298407   17.0738102766205877   -0.0738256575973228
    -0.0406124787946934   -0.1521573414056080   29.7517453208524287
   H    W    C 
     1     1   126
Direct
  0.4444226499056407  0.5036340441657833  0.4887175967007824
  0.4399003118830759  0.5011543994449593  0.4301384052247368
  0.0419609636915072  0.0840069485175057  0.3996750104485034
  0.0410016539580169  0.2081088574722955  0.3996258752579664
  0.0405361561175562  0.3328526152436445  0.3999343649334451
  0.0405949059500545  0.4583473727927089  0.3997720775479742
  0.0413690089408758  0.5838086397755234  0.3997025177840114
  0.0420691419125116  0.7091541955671132  0.3998288814916675
  0.0423874328323562  0.8344620465312451  0.3999393760851089
  0.0424015929756954  0.9594290585021918  0.3998625789464353
  0.1675161942317804  0.0850096473562090  0.3996705676670378
  0.1671199833774615  0.2096670862836365  0.3996188251393835
  0.1654214315646361  0.3333123887024524  0.4007225854974913
  0.1642826752253256  0.4583439261334817  0.4012116295998873
  0.1652722391368648  0.5836488086405175  0.4001572637259432
  0.1664792014398500  0.7090885547044732  0.3998166360320383
  0.1670615448702401  0.8344436901941947  0.3999475924347862
  0.1674199939251105  0.9597901107340062  0.3999028218569731
  0.2924960842390706  0.0850040044570751  0.3996175813155776
  0.2930059730580715  0.2110525959460290  0.3997268023278336
  0.2927188391550417  0.3364182903661114  0.4013396319061946
  0.2874314454959885  0.4578340563588084  0.4035427833721830
  0.2889389313854888  0.5838944729220087  0.4018248801511409
  0.2909158076966091  0.7088906735810326  0.3999332586447468
  0.2916355839235148  0.8340135447334213  0.3997631077173317
  0.2920846666237886  0.9594200937186559  0.3998581306566015
  0.4171012725537248  0.0839256305980711  0.3996754654237569
  0.4175172613498388  0.2095240767408925  0.3994144934226869
  0.4185465461635197  0.3359993161040374  0.4004756059510851
  0.4118193152482916  0.5809973476557964  0.4038930601792745
  0.4154798102102742  0.7070019929387791  0.3996540150909863
  0.4162351278812306  0.8328487819862772  0.3995334476333013
  0.4166854844756071  0.9583868313859362  0.3998476875438335
  0.5416310335393143  0.0827338884115992  0.3998378494242960
  0.5421128089101582  0.2080473323845823  0.3997130516036427
  0.5429129914982979  0.3332469139546708  0.4006220125394905
  0.5453616718658996  0.4577764042069510  0.4024650908310040
  0.5445439991305800  0.5814077864860446  0.4022671076241110
  0.5403830446669075  0.7058171379311539  0.3995693507376519
  0.5407707132023967  0.8316927510589918  0.3993633550787459
  0.5412893847379375  0.9573112671624696  0.3998260101547581
  0.6662593617920277  0.0822415998671443  0.3999469125662298
  0.6666368694023770  0.2075185698400590  0.3998080116781726
  0.6673078892874186  0.3327891308478330  0.4001386378438663
  0.6690608091021217  0.4582820664116263  0.4015816230107317
  0.6700394780040275  0.5839099449151952  0.4016240396993008
  0.6666843642342219  0.7071729232395443  0.3992010764000890
  0.6658971916261398  0.8316977553973697  0.3992256114652273
  0.6659998075006853  0.9569649484039532  0.3998057405299714
  0.7910796991886522  0.0822722480302764  0.3999758429723345
  0.7912345897999444  0.2074344807932005  0.3999582305266729
  0.7917456736567481  0.3328106917476599  0.3997365280611985
  0.7927320509295855  0.4583218205722061  0.3999519412457208
  0.7933883045016840  0.5836351702045480  0.4004853641589122
  0.7930006767664952  0.7088946587853739  0.4000469542448158
  0.7917016619140060  0.8329289194860746  0.3995787547576320
  0.7910665352465315  0.9573294066358209  0.3998416489628320
  0.9162164468614430  0.0827903179736453  0.3998258284707207
  0.9159566638418997  0.2076036378094521  0.3998008803139670
  0.9160876868777715  0.3328640735513006  0.3997658129891976
  0.9166221097733191  0.4582687055785554  0.3996107371030590
  0.9174191861415755  0.5838077037075903  0.3997124896287427
  0.9176135388048865  0.7091267619793499  0.3998832391883531
  0.9173976189175267  0.8340508612511492  0.3998899518593497
  0.9168370350075641  0.9584702851335040  0.3999277788709183
  0.0840716923355844  0.0428816561196443  0.3997195415161792
  0.0835052350226147  0.1673723329568264  0.3995500171106844
  0.0821589741709060  0.2913238880156733  0.3999891716209590
  0.0817469901563389  0.4165687847471007  0.4001493820452744
  0.0823504397428673  0.5418734008961239  0.3997860175001173
  0.0833091296942603  0.6673533954597795  0.3998095782662708
  0.0838830343972298  0.7927733880589910  0.3999240686640650
  0.0840832657568693  0.9179299892433144  0.3999433104376125
  0.2091250276398374  0.0432202098708281  0.3997295331507852
  0.2091858863815481  0.1685288289662513  0.3996607935639210
  0.2086315961080690  0.2932492999919861  0.4002396381336845
  0.2052238334693696  0.4164095290243814  0.4020473106037707
  0.2060491568094553  0.5419056755146597  0.4011907010159001
  0.2077590423578894  0.6673436323821608  0.3999562653703573
  0.2084233103979228  0.7925654235136130  0.3998378463782831
  0.2088875433976720  0.9179163212006108  0.3999499499489180
  0.3338449614356861  0.0428715944825714  0.3997186080740709
  0.3343076890661787  0.1685022311041410  0.3994812217154320
  0.3346942738085674  0.2944346686221380  0.4005015083579007
  0.3310766119233884  0.4194459991480876  0.4046207863416560
  0.3297602501605271  0.5425304521805606  0.4032555453960437
  0.3322131124045495  0.6669392899229643  0.4004066412332257
  0.3329892866739567  0.7920937127627963  0.3996714130814811
  0.3335134104648988  0.9174068065203413  0.3998147965553247
  0.4584798023430082  0.0417672387154768  0.3998394608681913
  0.4588941721411825  0.1672728345250167  0.3995313956049544
  0.4595906555650625  0.2930365169867777  0.3997877818338170
  0.4632777651213955  0.4189582319743920  0.4030211729449122
  0.4564335525180224  0.6638837621654714  0.4004366312523807
  0.4575633844239250  0.7905659407404397  0.3992949858349204
  0.4580526257184291  0.9162151809946826  0.3997493321508620
  0.5830750980722572  0.0407539702196661  0.3998996028999074
  0.5834469964450761  0.1661045477477589  0.3997605155445909
  0.5841729974765979  0.2912730080382701  0.4001280957490566
  0.5862252176914673  0.4163342812660763  0.4019751633448260
  0.5877455777893374  0.5425079144488054  0.4021170663917658
  0.5826923127211255  0.6642551438266393  0.3995873131874321
  0.5820633367231124  0.7891738847947731  0.3991697478558493
  0.5826126185760365  0.9151944095077384  0.3997112291570459
  0.7077366815180240  0.0403847812650480  0.3999436768719249
  0.7080461934020250  0.1657039129441311  0.3999298990129243
  0.7085564808487166  0.2909938835808227  0.3998030627643783
  0.7098083688499901  0.4165015494243818  0.4004818200194342
  0.7108836745990679  0.5419040220482102  0.4015007118519135
  0.7097883912974333  0.6669508457478869  0.4002166048018992
  0.7080835708327825  0.7906774303971041  0.3991404195600629
  0.7075897537167162  0.9151905046330411  0.3996534407154653
  0.8327760488770491  0.0407768635540850  0.3999270720227554
  0.8327249232830486  0.1657469592802110  0.3999620113348176
  0.8330412560102712  0.2910626509436238  0.3998278084886855
  0.8337102031729211  0.4163933850301996  0.3996722006317162
  0.8345125471121226  0.5418449832799002  0.3999734671291546
  0.8345847867356625  0.6673340202267436  0.4001714002171642
  0.8341229418074606  0.7921225634781968  0.3997837121756141
  0.8332878214931160  0.9162982281598447  0.3998195019549150
  0.9584371205639660  0.0418527529196354  0.3998459370289803
  0.9577277580587571  0.1661715073328043  0.3996954485413317
  0.9575052786692375  0.2910938058797617  0.3997585617565734
  0.9576775207705497  0.4164263941167997  0.3996634022200026
  0.9584872796801960  0.5419863162628411  0.3996411514791231
  0.9590299183763265  0.6673743796786054  0.3997850878270864
  0.9591528986798183  0.7926049656130607  0.3998853913913490
  0.9589735864137781  0.9174416535317422  0.3999050472478570
 
  0.00000000E+00  0.00000000E+00  0.00000000E+00
  0.00000000E+00  0.00000000E+00  0.00000000E+00
  0.00000000E+00  0.00000000E+00  0.00000000E+00
  0.00000000E+00  0.00000000E+00  0.00000000E+00
  0.00000000E+00  0.00000000E+00  0.00000000E+00
  0.00000000E+00  0.00000000E+00  0.00000000E+00
  0.00000000E+00  0.00000000E+00  0.00000000E+00
  0.00000000E+00  0.00000000E+00  0.00000000E+00
  0.00000000E+00  0.00000000E+00  0.00000000E+00
  0.00000000E+00  0.00000000E+00  0.00000000E+00
  0.00000000E+00  0.00000000E+00  0.00000000E+00
  0.00000000E+00  0.00000000E+00  0.00000000E+00
  0.00000000E+00  0.00000000E+00  0.00000000E+00
  0.00000000E+00  0.00000000E+00  0.00000000E+00
  0.00000000E+00  0.00000000E+00  0.00000000E+00
  0.00000000E+00  0.00000000E+00  0.00000000E+00
  0.00000000E+00  0.00000000E+00  0.00000000E+00
  0.00000000E+00  0.00000000E+00  0.00000000E+00
  0.00000000E+00  0.00000000E+00  0.00000000E+00
  0.00000000E+00  0.00000000E+00  0.00000000E+00
  0.00000000E+00  0.00000000E+00  0.00000000E+00
  0.00000000E+00  0.00000000E+00  0.00000000E+00
  0.00000000E+00  0.00000000E+00  0.00000000E+00
  0.00000000E+00  0.00000000E+00  0.00000000E+00
  0.00000000E+00  0.00000000E+00  0.00000000E+00
  0.00000000E+00  0.00000000E+00  0.00000000E+00
  0.00000000E+00  0.00000000E+00  0.00000000E+00
  0.00000000E+00  0.00000000E+00  0.00000000E+00
  0.00000000E+00  0.00000000E+00  0.00000000E+00
  0.00000000E+00  0.00000000E+00  0.00000000E+00
  0.00000000E+00  0.00000000E+00  0.00000000E+00
  0.00000000E+00  0.00000000E+00  0.00000000E+00
  0.00000000E+00  0.00000000E+00  0.00000000E+00
  0.00000000E+00  0.00000000E+00  0.00000000E+00
  0.00000000E+00  0.00000000E+00  0.00000000E+00
  0.00000000E+00  0.00000000E+00  0.00000000E+00
  0.00000000E+00  0.00000000E+00  0.00000000E+00
  0.00000000E+00  0.00000000E+00  0.00000000E+00
  0.00000000E+00  0.00000000E+00  0.00000000E+00
  0.00000000E+00  0.00000000E+00  0.00000000E+00
  0.00000000E+00  0.00000000E+00  0.00000000E+00
  0.00000000E+00  0.00000000E+00  0.00000000E+00
  0.00000000E+00  0.00000000E+00  0.00000000E+00
  0.00000000E+00  0.00000000E+00  0.00000000E+00
  0.00000000E+00  0.00000000E+00  0.00000000E+00
  0.00000000E+00  0.00000000E+00  0.00000000E+00
  0.00000000E+00  0.00000000E+00  0.00000000E+00
  0.00000000E+00  0.00000000E+00  0.00000000E+00
  0.00000000E+00  0.00000000E+00  0.00000000E+00
  0.00000000E+00  0.00000000E+00  0.00000000E+00
  0.00000000E+00  0.00000000E+00  0.00000000E+00
  0.00000000E+00  0.00000000E+00  0.00000000E+00
  0.00000000E+00  0.00000000E+00  0.00000000E+00
  0.00000000E+00  0.00000000E+00  0.00000000E+00
  0.00000000E+00  0.00000000E+00  0.00000000E+00
  0.00000000E+00  0.00000000E+00  0.00000000E+00
  0.00000000E+00  0.00000000E+00  0.00000000E+00
  0.00000000E+00  0.00000000E+00  0.00000000E+00
  0.00000000E+00  0.00000000E+00  0.00000000E+00
  0.00000000E+00  0.00000000E+00  0.00000000E+00
  0.00000000E+00  0.00000000E+00  0.00000000E+00
  0.00000000E+00  0.00000000E+00  0.00000000E+00
  0.00000000E+00  0.00000000E+00  0.00000000E+00
  0.00000000E+00  0.00000000E+00  0.00000000E+00
  0.00000000E+00  0.00000000E+00  0.00000000E+00
  0.00000000E+00  0.00000000E+00  0.00000000E+00
  0.00000000E+00  0.00000000E+00  0.00000000E+00
  0.00000000E+00  0.00000000E+00  0.00000000E+00
  0.00000000E+00  0.00000000E+00  0.00000000E+00
  0.00000000E+00  0.00000000E+00  0.00000000E+00
  0.00000000E+00  0.00000000E+00  0.00000000E+00
  0.00000000E+00  0.00000000E+00  0.00000000E+00
  0.00000000E+00  0.00000000E+00  0.00000000E+00
  0.00000000E+00  0.00000000E+00  0.00000000E+00
  0.00000000E+00  0.00000000E+00  0.00000000E+00
  0.00000000E+00  0.00000000E+00  0.00000000E+00
  0.00000000E+00  0.00000000E+00  0.00000000E+00
  0.00000000E+00  0.00000000E+00  0.00000000E+00
  0.00000000E+00  0.00000000E+00  0.00000000E+00
  0.00000000E+00  0.00000000E+00  0.00000000E+00
  0.00000000E+00  0.00000000E+00  0.00000000E+00
  0.00000000E+00  0.00000000E+00  0.00000000E+00
  0.00000000E+00  0.00000000E+00  0.00000000E+00
  0.00000000E+00  0.00000000E+00  0.00000000E+00
  0.00000000E+00  0.00000000E+00  0.00000000E+00
  0.00000000E+00  0.00000000E+00  0.00000000E+00
  0.00000000E+00  0.00000000E+00  0.00000000E+00
  0.00000000E+00  0.00000000E+00  0.00000000E+00
  0.00000000E+00  0.00000000E+00  0.00000000E+00
  0.00000000E+00  0.00000000E+00  0.00000000E+00
  0.00000000E+00  0.00000000E+00  0.00000000E+00
  0.00000000E+00  0.00000000E+00  0.00000000E+00
  0.00000000E+00  0.00000000E+00  0.00000000E+00
  0.00000000E+00  0.00000000E+00  0.00000000E+00
  0.00000000E+00  0.00000000E+00  0.00000000E+00
  0.00000000E+00  0.00000000E+00  0.00000000E+00
  0.00000000E+00  0.00000000E+00  0.00000000E+00
  0.00000000E+00  0.00000000E+00  0.00000000E+00
  0.00000000E+00  0.00000000E+00  0.00000000E+00
  0.00000000E+00  0.00000000E+00  0.00000000E+00
  0.00000000E+00  0.00000000E+00  0.00000000E+00
  0.00000000E+00  0.00000000E+00  0.00000000E+00
  0.00000000E+00  0.00000000E+00  0.00000000E+00
  0.00000000E+00  0.00000000E+00  0.00000000E+00
  0.00000000E+00  0.00000000E+00  0.00000000E+00
  0.00000000E+00  0.00000000E+00  0.00000000E+00
  0.00000000E+00  0.00000000E+00  0.00000000E+00
  0.00000000E+00  0.00000000E+00  0.00000000E+00
  0.00000000E+00  0.00000000E+00  0.00000000E+00
  0.00000000E+00  0.00000000E+00  0.00000000E+00
  0.00000000E+00  0.00000000E+00  0.00000000E+00
  0.00000000E+00  0.00000000E+00  0.00000000E+00
  0.00000000E+00  0.00000000E+00  0.00000000E+00
  0.00000000E+00  0.00000000E+00  0.00000000E+00
  0.00000000E+00  0.00000000E+00  0.00000000E+00
  0.00000000E+00  0.00000000E+00  0.00000000E+00
  0.00000000E+00  0.00000000E+00  0.00000000E+00
  0.00000000E+00  0.00000000E+00  0.00000000E+00
  0.00000000E+00  0.00000000E+00  0.00000000E+00
  0.00000000E+00  0.00000000E+00  0.00000000E+00
  0.00000000E+00  0.00000000E+00  0.00000000E+00
  0.00000000E+00  0.00000000E+00  0.00000000E+00
  0.00000000E+00  0.00000000E+00  0.00000000E+00
  0.00000000E+00  0.00000000E+00  0.00000000E+00
  0.00000000E+00  0.00000000E+00  0.00000000E+00
  0.00000000E+00  0.00000000E+00  0.00000000E+00
  0.00000000E+00  0.00000000E+00  0.00000000E+00
  0.00000000E+00  0.00000000E+00  0.00000000E+00
