La1 H1 C123 N3 O1                       
   1.00000000000000     
    19.8083103781710399    0.0081620736664716    0.1616220648870847
    -9.8967873350281454   17.0467181131076266    0.0477852887443835
     0.2428055085538785    0.2243353465910986   29.7963787030387017
   La   H    C    N    O 
     1     1   123     3     1
Direct
  0.4332998828483083  0.5023095451284034  0.4563559712273013
  0.5173757141766284  0.5789746292279969  0.5453175563232812
  0.0414739355956806  0.0836449483506952  0.3995526853353999
  0.0405595360709389  0.2078353367362975  0.3992351805552897
  0.0400877410233501  0.3327087870568098  0.3989325561147030
  0.0404193826611767  0.4580271890117150  0.3990852227470256
  0.0412751620130635  0.5835191364999854  0.3995998933236108
  0.0420234177395776  0.7089373088624743  0.3997676832127352
  0.0423206655091908  0.8342552035038080  0.3997697113805516
  0.0422325186195675  0.9592945210307634  0.3997094167214457
  0.1674340813789988  0.0850806764983755  0.3998120134209288
  0.1664289108542955  0.2092331119766897  0.3995265406192557
  0.1647252226692740  0.3331468615878909  0.3986242054090044
  0.1643156702786614  0.4581319541207235  0.3978162927248508
  0.1652612079434119  0.5833867748526620  0.3985211586820935
  0.1663297777298014  0.7087438574833795  0.3994477758949070
  0.1669653318583692  0.8341881644418866  0.3998173028286571
  0.1673083991208537  0.9597176435162700  0.3998651206969025
  0.2923787562157645  0.0853328063091745  0.3998156096047660
  0.2929247478703532  0.2121280568319373  0.4011132173297413
  0.2908391594278939  0.3370246071617784  0.4019630106709079
  0.2881553342605244  0.4566033192510979  0.3992265486458986
  0.2889008971141860  0.5827409021140794  0.3977112862445839
  0.2906170819656024  0.7082551919589801  0.3987696722444639
  0.2915175848775078  0.8337084558763593  0.3995551864228356
  0.2919668691133109  0.9593217198367305  0.3997128490852163
  0.4168997429470400  0.0838620767250518  0.3993916250611668
  0.4174708119314135  0.2097139197513803  0.3991907227239267
  0.4196782523112063  0.3370425278226261  0.4041732299725940
  0.4148238089169105  0.7066518281315334  0.3988493686590994
  0.4160017747109205  0.8323945779259764  0.3993622402848427
  0.4165240433976736  0.9581274672548072  0.3996869872142615
  0.5414158008266208  0.0825396304832560  0.3995317217231777
  0.5420183617508940  0.2082341424100256  0.3987768368154398
  0.5430316209151558  0.3338616200929055  0.3986147628454851
  0.5447024034113910  0.4584509689024900  0.4029267029247345
  0.5386548005769486  0.7022117732939162  0.4020507345505985
  0.5404174410968374  0.8303608160956394  0.4000549303147309
  0.5410056709677119  0.9566893047190328  0.3997612220392295
  0.6659585428907636  0.0819146722886256  0.3998267460318927
  0.6664236542028045  0.2074227327225101  0.3994227710886323
  0.6672651607896904  0.3328800137364969  0.3984511932537245
  0.6689839230081275  0.4584346719860530  0.3976514454104340
  0.6700531280300137  0.5840050317489216  0.3987401379094582
  0.6672847276564736  0.7070431244578483  0.3996838634218386
  0.6649218685995347  0.8304776805468201  0.4002208407763451
  0.6655308522664738  0.9563136470499259  0.4000413664242541
  0.7906066853338464  0.0818579477482991  0.3998139859523935
  0.7908778226805186  0.2072040823188141  0.3998265763323887
  0.7915214561684238  0.3326658390213771  0.3995137654828719
  0.7925957408955459  0.4581983805784887  0.3988122969864419
  0.7934024822032544  0.5836006647760849  0.3983829258412843
  0.7933343893183272  0.7088807136764605  0.3987861290313501
  0.7915252236352760  0.8326670860400749  0.3993318712032346
  0.7904712155019729  0.9567146203436526  0.3997380291130144
  0.9157001655434881  0.0823964736219925  0.3996073543090629
  0.9154975827007147  0.2072947689098778  0.3995985527216382
  0.9157398094565892  0.3326068514035523  0.3996664621663604
  0.9164585474871568  0.4580596369509662  0.3997193978540578
  0.9173254391924139  0.5835879431132645  0.3995234881958493
  0.9176580473131877  0.7089169883630002  0.3993533523172625
  0.9173977116798203  0.8339216196824133  0.3994542702409538
  0.9164926547557422  0.9581541563580566  0.3996260614280664
  0.0839146176521365  0.0428207822711982  0.3996541728943685
  0.0829696053526536  0.1670442818487406  0.3993414431612832
  0.0817412632989159  0.2911984719509456  0.3988398772366450
  0.0815205815108499  0.4161849874513769  0.3985249355670380
  0.0822989537224133  0.5415929837868342  0.3990947791509702
  0.0832178291076754  0.6670405206462749  0.3996443248662184
  0.0837668826158753  0.7924745088863245  0.3998237110590932
  0.0839778985736881  0.9177689993794323  0.3998088371925652
  0.2089851289206111  0.0432385993195088  0.3999065895746965
  0.2090810547316932  0.1687219986108631  0.4000791853525296
  0.2073970134299004  0.2926289191591943  0.3994280445011898
  0.2055689016637063  0.4165682662510959  0.3980228354269928
  0.2060420843043195  0.5413608080030884  0.3977596106358649
  0.2074186339630348  0.6668279915363740  0.3989068444100572
  0.2083040725423498  0.7922851619937955  0.3996293708702076
  0.2087535472769471  0.9177538305459739  0.3998290088232904
  0.3336839230370575  0.0429797268139103  0.3995984353066266
  0.3341539910527414  0.1690951637282369  0.4000936025049334
  0.3347885286943898  0.2959389839058539  0.4034763358821058
  0.3310731042080111  0.5423192258344569  0.3987346594980128
  0.3316274639983250  0.6661832893271570  0.3982991953129192
  0.3328234495080646  0.7916076154084122  0.3992413040370603
  0.3333156764814407  0.9171602351752813  0.3996775815063513
  0.4582385900891047  0.0415748661190926  0.3995784800446526
  0.4586982396506962  0.1673085171341731  0.3989361497501307
  0.4596042517102742  0.2932640239148267  0.3996153722460973
  0.4635842131138415  0.4188230503703113  0.4098037676619039
  0.4537655774487571  0.6618072223122036  0.4006024680820479
  0.4572264525754246  0.7900107621312652  0.3993559502832796
  0.4578186553571675  0.9158718240955899  0.3996498268379768
  0.5827326957775008  0.0403406346225388  0.3997265513766727
  0.5832484892968635  0.1660994017116720  0.3992410839780260
  0.5840939789592438  0.2916246345500113  0.3983770756617165
  0.5861356096295323  0.4172561008314847  0.3985895275468726
  0.5879504573550278  0.5437469465599372  0.4020760775579247
  0.5835923274554220  0.6620905521443451  0.4023475190650194
  0.5808745395622611  0.7868075122941290  0.4008014133131289
  0.5822448780467693  0.9142334534633750  0.3999591611481397
  0.7073231901604351  0.0399338955148813  0.3999105749674534
  0.7077375936006605  0.1654961915445589  0.3997612866150667
  0.7083771048710967  0.2909538484307980  0.3991501124954697
  0.7097213655134164  0.4164571374085378  0.3980803885279620
  0.7108445901066732  0.5417963435038157  0.3979010713436769
  0.7103922479313121  0.6670395554711389  0.3988989166525302
  0.7080060613790347  0.7903818371631037  0.3995567545939175
  0.7068389283852898  0.9143079444457954  0.3999946215970576
  0.8322779103707110  0.0403334220909173  0.3997185696792522
  0.8323273674896065  0.1654428801278387  0.3997857200809311
  0.8327003782780060  0.2907582589051882  0.3997742149987981
  0.8335596830668298  0.4162146718235760  0.3994568449931230
  0.8344864685978463  0.5417339313729216  0.3988949725357889
  0.8347854104175697  0.6671722816968662  0.3988182008631702
  0.8341846051530935  0.7920196452989160  0.3991723560892271
  0.8329994989956391  0.9160136138723413  0.3995697411812267
  0.9580102643452636  0.0414981503247098  0.3996249091981405
  0.9572824934655485  0.1658408908746154  0.3994904924117287
  0.9571091902062157  0.2908564784415121  0.3994637190003433
  0.9574905813541968  0.4161441543308655  0.3996069492578629
  0.9583513562937399  0.5416398325947093  0.3997266945676746
  0.9590390258824347  0.6671085764778623  0.3995944522991228
  0.9591503014898140  0.7924466582132966  0.3995403578224019
  0.9588690462289435  0.9173127750076884  0.3996242647805155
  0.4105112249529301  0.5821487184076246  0.4015747707042293
  0.5477741852192330  0.5827214786091276  0.4053862727106968
  0.3274709454795680  0.4167888456885202  0.4030036506735122
  0.4899594650830082  0.5476764179897604  0.5198663739460607
 
  0.00000000E+00  0.00000000E+00  0.00000000E+00
  0.00000000E+00  0.00000000E+00  0.00000000E+00
  0.00000000E+00  0.00000000E+00  0.00000000E+00
  0.00000000E+00  0.00000000E+00  0.00000000E+00
  0.00000000E+00  0.00000000E+00  0.00000000E+00
  0.00000000E+00  0.00000000E+00  0.00000000E+00
  0.00000000E+00  0.00000000E+00  0.00000000E+00
  0.00000000E+00  0.00000000E+00  0.00000000E+00
  0.00000000E+00  0.00000000E+00  0.00000000E+00
  0.00000000E+00  0.00000000E+00  0.00000000E+00
  0.00000000E+00  0.00000000E+00  0.00000000E+00
  0.00000000E+00  0.00000000E+00  0.00000000E+00
  0.00000000E+00  0.00000000E+00  0.00000000E+00
  0.00000000E+00  0.00000000E+00  0.00000000E+00
  0.00000000E+00  0.00000000E+00  0.00000000E+00
  0.00000000E+00  0.00000000E+00  0.00000000E+00
  0.00000000E+00  0.00000000E+00  0.00000000E+00
  0.00000000E+00  0.00000000E+00  0.00000000E+00
  0.00000000E+00  0.00000000E+00  0.00000000E+00
  0.00000000E+00  0.00000000E+00  0.00000000E+00
  0.00000000E+00  0.00000000E+00  0.00000000E+00
  0.00000000E+00  0.00000000E+00  0.00000000E+00
  0.00000000E+00  0.00000000E+00  0.00000000E+00
  0.00000000E+00  0.00000000E+00  0.00000000E+00
  0.00000000E+00  0.00000000E+00  0.00000000E+00
  0.00000000E+00  0.00000000E+00  0.00000000E+00
  0.00000000E+00  0.00000000E+00  0.00000000E+00
  0.00000000E+00  0.00000000E+00  0.00000000E+00
  0.00000000E+00  0.00000000E+00  0.00000000E+00
  0.00000000E+00  0.00000000E+00  0.00000000E+00
  0.00000000E+00  0.00000000E+00  0.00000000E+00
  0.00000000E+00  0.00000000E+00  0.00000000E+00
  0.00000000E+00  0.00000000E+00  0.00000000E+00
  0.00000000E+00  0.00000000E+00  0.00000000E+00
  0.00000000E+00  0.00000000E+00  0.00000000E+00
  0.00000000E+00  0.00000000E+00  0.00000000E+00
  0.00000000E+00  0.00000000E+00  0.00000000E+00
  0.00000000E+00  0.00000000E+00  0.00000000E+00
  0.00000000E+00  0.00000000E+00  0.00000000E+00
  0.00000000E+00  0.00000000E+00  0.00000000E+00
  0.00000000E+00  0.00000000E+00  0.00000000E+00
  0.00000000E+00  0.00000000E+00  0.00000000E+00
  0.00000000E+00  0.00000000E+00  0.00000000E+00
  0.00000000E+00  0.00000000E+00  0.00000000E+00
  0.00000000E+00  0.00000000E+00  0.00000000E+00
  0.00000000E+00  0.00000000E+00  0.00000000E+00
  0.00000000E+00  0.00000000E+00  0.00000000E+00
  0.00000000E+00  0.00000000E+00  0.00000000E+00
  0.00000000E+00  0.00000000E+00  0.00000000E+00
  0.00000000E+00  0.00000000E+00  0.00000000E+00
  0.00000000E+00  0.00000000E+00  0.00000000E+00
  0.00000000E+00  0.00000000E+00  0.00000000E+00
  0.00000000E+00  0.00000000E+00  0.00000000E+00
  0.00000000E+00  0.00000000E+00  0.00000000E+00
  0.00000000E+00  0.00000000E+00  0.00000000E+00
  0.00000000E+00  0.00000000E+00  0.00000000E+00
  0.00000000E+00  0.00000000E+00  0.00000000E+00
  0.00000000E+00  0.00000000E+00  0.00000000E+00
  0.00000000E+00  0.00000000E+00  0.00000000E+00
  0.00000000E+00  0.00000000E+00  0.00000000E+00
  0.00000000E+00  0.00000000E+00  0.00000000E+00
  0.00000000E+00  0.00000000E+00  0.00000000E+00
  0.00000000E+00  0.00000000E+00  0.00000000E+00
  0.00000000E+00  0.00000000E+00  0.00000000E+00
  0.00000000E+00  0.00000000E+00  0.00000000E+00
  0.00000000E+00  0.00000000E+00  0.00000000E+00
  0.00000000E+00  0.00000000E+00  0.00000000E+00
  0.00000000E+00  0.00000000E+00  0.00000000E+00
  0.00000000E+00  0.00000000E+00  0.00000000E+00
  0.00000000E+00  0.00000000E+00  0.00000000E+00
  0.00000000E+00  0.00000000E+00  0.00000000E+00
  0.00000000E+00  0.00000000E+00  0.00000000E+00
  0.00000000E+00  0.00000000E+00  0.00000000E+00
  0.00000000E+00  0.00000000E+00  0.00000000E+00
  0.00000000E+00  0.00000000E+00  0.00000000E+00
  0.00000000E+00  0.00000000E+00  0.00000000E+00
  0.00000000E+00  0.00000000E+00  0.00000000E+00
  0.00000000E+00  0.00000000E+00  0.00000000E+00
  0.00000000E+00  0.00000000E+00  0.00000000E+00
  0.00000000E+00  0.00000000E+00  0.00000000E+00
  0.00000000E+00  0.00000000E+00  0.00000000E+00
  0.00000000E+00  0.00000000E+00  0.00000000E+00
  0.00000000E+00  0.00000000E+00  0.00000000E+00
  0.00000000E+00  0.00000000E+00  0.00000000E+00
  0.00000000E+00  0.00000000E+00  0.00000000E+00
  0.00000000E+00  0.00000000E+00  0.00000000E+00
  0.00000000E+00  0.00000000E+00  0.00000000E+00
  0.00000000E+00  0.00000000E+00  0.00000000E+00
  0.00000000E+00  0.00000000E+00  0.00000000E+00
  0.00000000E+00  0.00000000E+00  0.00000000E+00
  0.00000000E+00  0.00000000E+00  0.00000000E+00
  0.00000000E+00  0.00000000E+00  0.00000000E+00
  0.00000000E+00  0.00000000E+00  0.00000000E+00
  0.00000000E+00  0.00000000E+00  0.00000000E+00
  0.00000000E+00  0.00000000E+00  0.00000000E+00
  0.00000000E+00  0.00000000E+00  0.00000000E+00
  0.00000000E+00  0.00000000E+00  0.00000000E+00
  0.00000000E+00  0.00000000E+00  0.00000000E+00
  0.00000000E+00  0.00000000E+00  0.00000000E+00
  0.00000000E+00  0.00000000E+00  0.00000000E+00
  0.00000000E+00  0.00000000E+00  0.00000000E+00
  0.00000000E+00  0.00000000E+00  0.00000000E+00
  0.00000000E+00  0.00000000E+00  0.00000000E+00
  0.00000000E+00  0.00000000E+00  0.00000000E+00
  0.00000000E+00  0.00000000E+00  0.00000000E+00
  0.00000000E+00  0.00000000E+00  0.00000000E+00
  0.00000000E+00  0.00000000E+00  0.00000000E+00
  0.00000000E+00  0.00000000E+00  0.00000000E+00
  0.00000000E+00  0.00000000E+00  0.00000000E+00
  0.00000000E+00  0.00000000E+00  0.00000000E+00
  0.00000000E+00  0.00000000E+00  0.00000000E+00
  0.00000000E+00  0.00000000E+00  0.00000000E+00
  0.00000000E+00  0.00000000E+00  0.00000000E+00
  0.00000000E+00  0.00000000E+00  0.00000000E+00
  0.00000000E+00  0.00000000E+00  0.00000000E+00
  0.00000000E+00  0.00000000E+00  0.00000000E+00
  0.00000000E+00  0.00000000E+00  0.00000000E+00
  0.00000000E+00  0.00000000E+00  0.00000000E+00
  0.00000000E+00  0.00000000E+00  0.00000000E+00
  0.00000000E+00  0.00000000E+00  0.00000000E+00
  0.00000000E+00  0.00000000E+00  0.00000000E+00
  0.00000000E+00  0.00000000E+00  0.00000000E+00
  0.00000000E+00  0.00000000E+00  0.00000000E+00
  0.00000000E+00  0.00000000E+00  0.00000000E+00
  0.00000000E+00  0.00000000E+00  0.00000000E+00
  0.00000000E+00  0.00000000E+00  0.00000000E+00
  0.00000000E+00  0.00000000E+00  0.00000000E+00
  0.00000000E+00  0.00000000E+00  0.00000000E+00
  0.00000000E+00  0.00000000E+00  0.00000000E+00
