Fe1 C122 N4 O1                          
   1.00000000000000     
    19.7985889827469421    0.0000530269148306    0.0135648409437592
    -9.8992505986966179   17.0057708977064621   -0.0045668599344675
     0.0204713846968044    0.0038438084593153   29.8862234509769777
   Fe   C    N    O 
     1   122     4     1
Direct
  0.4374752898485144  0.4999939039015654  0.4171457703983773
  0.0422840128799095  0.0843779769949669  0.4002220677562922
  0.0412861647964769  0.2083893141894903  0.4000588657611068
  0.0404749903866306  0.3329867099459292  0.3996154172912640
  0.0405920115753081  0.4581929210224470  0.3993189621209073
  0.0413892179142309  0.5837039938115750  0.3993083206185113
  0.0420366639947357  0.7090534762673500  0.3993698641189617
  0.0423641271902783  0.8343885916778079  0.3996594423359090
  0.0425369654678515  0.9596734650221713  0.4000504246962775
  0.1683527734024863  0.0860817996767596  0.4008331586319565
  0.1681114419930612  0.2109656146404128  0.4015316586287826
  0.1654301315964222  0.3339268130112895  0.4013418999319521
  0.1643374125119519  0.4584976939944987  0.4003549374287977
  0.1652706311732860  0.5836352294795426  0.3995883073957239
  0.1664103524279741  0.7089016934664549  0.3994757833469535
  0.1670372011051421  0.8343813635847144  0.3996500140326908
  0.1675491113396770  0.9600908815560051  0.4001238149117056
  0.2927313305143932  0.0860772179423167  0.4008501820647083
  0.2944753890565615  0.2139543075917179  0.4028203956768361
  0.2936949383825281  0.3402273029675397  0.4044020193814962
  0.2877807313038634  0.4582541888478753  0.4034760780123694
  0.2886623276334502  0.5829342387568244  0.4015822450105119
  0.2906874557079365  0.7082624914404390  0.4001683068608610
  0.2916301153950562  0.8338153982228996  0.3997916186710089
  0.2921325798031416  0.9596612771227578  0.4000536371199831
  0.4170987053624406  0.0843812696227604  0.4002508206962017
  0.4178585731708792  0.2109578766335328  0.4015531216780852
  0.4215258721347063  0.3402254072360622  0.4043863887748257
  0.4146111141551604  0.7051356026050346  0.4023330689911375
  0.4161025297815146  0.8318599789830367  0.4005248444880099
  0.4166420154055432  0.9581509542902389  0.4000217989998419
  0.5415698580909564  0.0826118034060240  0.3999776873237438
  0.5421129812253470  0.2083939167216961  0.4000877518189577
  0.5434891566700583  0.3339241302985843  0.4013197109403462
  0.5454647577615370  0.4582513571550785  0.4033974801620525
  0.5378794315311990  0.7007674158711709  0.4044864579882135
  0.5403520712458498  0.8297137844791457  0.4018133332561999
  0.5411006843756783  0.9564765829565537  0.4003132768406906
  0.6661095469347800  0.0819328084012114  0.3999500255724990
  0.6665837284338392  0.2074961342544025  0.3996638313998252
  0.6675097067949366  0.3329855332894794  0.3996052924589455
  0.6691640645632377  0.4584995893562205  0.4002792419527205
  0.6692723654324282  0.5829414588618786  0.4015201407542334
  0.6655256862663715  0.7051394643027502  0.4023359321929691
  0.6643594631902315  0.8297140685149886  0.4018217773934643
  0.6655274288818637  0.9560478347345519  0.4006132025260413
  0.7908238039930150  0.0819393650489116  0.3999516681219825
  0.7911970171690448  0.2073905694761237  0.3995041185976015
  0.7917267345142284  0.3327670109222323  0.3993748711322845
  0.7926033157123497  0.4581932540620019  0.3992768450076120
  0.7933752555393033  0.5836424834250080  0.3995397011239436
  0.7925805914920683  0.7082761000060519  0.4001739921661807
  0.7907596601569725  0.8318678668388784  0.4005459418306931
  0.7903808887020973  0.9564848542744737  0.4003352415337815
  0.9160495933645675  0.0826268069887736  0.3999501312468115
  0.9159189019902857  0.2074986667885501  0.3996375137017514
  0.9160435004564774  0.3327651337020418  0.3993748696976361
  0.9166062508446513  0.4582052049015831  0.3992661112546294
  0.9173208201032726  0.5836980391807155  0.3992893630706711
  0.9175002051353456  0.7089119311764890  0.3994847486735837
  0.9172013352038190  0.8338245939216216  0.3998231507918155
  0.9165035880877189  0.9581575139246369  0.4000374392115105
  0.0846240111454587  0.0435243337075546  0.4003066068726135
  0.0842438053212369  0.1681384564662056  0.4005229889155338
  0.0824228910982042  0.2917361791647822  0.4001708990075132
  0.0816307049698690  0.4163605227086217  0.3995880615887896
  0.0823965619570250  0.5418072847856865  0.3993185134301862
  0.0832797019729582  0.6672354186032377  0.3993760787274341
  0.0838037065719565  0.7926126525866378  0.3994970805025924
  0.0841722975869786  0.9180641451793856  0.3999383902840916
  0.2094818999534395  0.0439564843908918  0.4006047843518299
  0.2106366212713389  0.1702881770468972  0.4018100122730329
  0.2094752531785963  0.2948661505923875  0.4023365705288088
  0.2057275365055612  0.4170618094496758  0.4015880654715927
  0.2058400719244028  0.5415003550819218  0.4003528789264341
  0.2074928323927378  0.6670181603224369  0.3996117786283497
  0.2084209706615562  0.7925020291587389  0.3996347474990134
  0.2088847751561712  0.9180607732680567  0.3999459339868129
  0.3338947076892664  0.0435160017316471  0.4003348766539393
  0.3346418900651308  0.1702871269630280  0.4018207236456048
  0.3371116950726275  0.2992309866891040  0.4044845932736482
  0.3295275077414418  0.5417449022899086  0.4034727271810066
  0.3315045572017473  0.6660741915274684  0.4013370466366806
  0.3328941243252462  0.7916076363216680  0.4000598054730947
  0.3334209912179270  0.9173744415667908  0.3999475586250366
  0.4583415265493495  0.0418403558713166  0.4000400110501323
  0.4588896620003574  0.1681336687863933  0.4005484056109670
  0.4603855570576471  0.2948591637221503  0.4023376030863282
  0.4534659719857879  0.6597699252195992  0.4043990282520331
  0.4571408869147322  0.7890312001059163  0.4015295275635515
  0.4578962128244372  0.9156158904219189  0.4002252450306816
  0.5828526530543091  0.0403218745050789  0.4000611744140700
  0.5833745497460433  0.1661784860285946  0.3998274346081662
  0.5843061673338299  0.2917290414508912  0.4001730698800308
  0.5863329353410915  0.4170601808565444  0.4015225419580907
  0.5872112369848033  0.5417472055627148  0.4033934498276651
  0.5812995226606371  0.6597739789309550  0.4043858694641561
  0.5805195099935366  0.7860436996950665  0.4028217879487906
  0.5822653777565939  0.9139177092810105  0.4008404348015855
  0.7074565251429891  0.0399114948891041  0.4001335020952895
  0.7079725137162917  0.1656115293856379  0.3996688523383374
  0.7085874978488181  0.2910935571350433  0.3994907009338647
  0.7097346773673658  0.4163636826460567  0.3995364720912065
  0.7106671641123607  0.5415049576779811  0.4002808275569787
  0.7095636190781733  0.6660767914686434  0.4013182728251019
  0.7069019960105211  0.7890444042663393  0.4015508041588095
  0.7066519723539924  0.9139218976801511  0.4008536888900496
  0.8324711314283573  0.0403386832568507  0.4000555631461372
  0.8326551137912263  0.1656208191576292  0.3996573854254524
  0.8329780280673758  0.2909450834431975  0.3993694030141271
  0.8336185337826942  0.4163020170325282  0.3992877929858064
  0.8344102306175172  0.5418131377386785  0.3992803654166728
  0.8345247923185602  0.6670197296891376  0.3996054897214551
  0.8337180952450384  0.7916057924718912  0.4000885781498321
  0.8327155204185323  0.9156170110628128  0.4002478590715175
  0.9584935561602664  0.0418471808118749  0.4000211045803229
  0.9578151592015701  0.1661865149883648  0.3997936659285581
  0.9575062535772527  0.2910983600117555  0.3994737002806558
  0.9576811825397381  0.4163013409028368  0.3993033809818015
  0.9584009906613138  0.5418019945905304  0.3992679375156736
  0.9589576421517129  0.6672381023560298  0.3993752670609257
  0.9590884242083018  0.7925073198491691  0.3996566549704004
  0.9589575341850258  0.9173893668324654  0.3999707264840850
  0.4095349463692448  0.5789673900103252  0.4054284213400983
  0.5444209390436789  0.5789706096380717  0.4053828553310468
  0.3305655460188874  0.4210284328339489  0.4054317950498104
  0.4654498529000919  0.4210255960176786  0.4053845932692544
  0.4374221052244132  0.4999713703665408  0.4723149478314461
 
  0.00000000E+00  0.00000000E+00  0.00000000E+00
  0.00000000E+00  0.00000000E+00  0.00000000E+00
  0.00000000E+00  0.00000000E+00  0.00000000E+00
  0.00000000E+00  0.00000000E+00  0.00000000E+00
  0.00000000E+00  0.00000000E+00  0.00000000E+00
  0.00000000E+00  0.00000000E+00  0.00000000E+00
  0.00000000E+00  0.00000000E+00  0.00000000E+00
  0.00000000E+00  0.00000000E+00  0.00000000E+00
  0.00000000E+00  0.00000000E+00  0.00000000E+00
  0.00000000E+00  0.00000000E+00  0.00000000E+00
  0.00000000E+00  0.00000000E+00  0.00000000E+00
  0.00000000E+00  0.00000000E+00  0.00000000E+00
  0.00000000E+00  0.00000000E+00  0.00000000E+00
  0.00000000E+00  0.00000000E+00  0.00000000E+00
  0.00000000E+00  0.00000000E+00  0.00000000E+00
  0.00000000E+00  0.00000000E+00  0.00000000E+00
  0.00000000E+00  0.00000000E+00  0.00000000E+00
  0.00000000E+00  0.00000000E+00  0.00000000E+00
  0.00000000E+00  0.00000000E+00  0.00000000E+00
  0.00000000E+00  0.00000000E+00  0.00000000E+00
  0.00000000E+00  0.00000000E+00  0.00000000E+00
  0.00000000E+00  0.00000000E+00  0.00000000E+00
  0.00000000E+00  0.00000000E+00  0.00000000E+00
  0.00000000E+00  0.00000000E+00  0.00000000E+00
  0.00000000E+00  0.00000000E+00  0.00000000E+00
  0.00000000E+00  0.00000000E+00  0.00000000E+00
  0.00000000E+00  0.00000000E+00  0.00000000E+00
  0.00000000E+00  0.00000000E+00  0.00000000E+00
  0.00000000E+00  0.00000000E+00  0.00000000E+00
  0.00000000E+00  0.00000000E+00  0.00000000E+00
  0.00000000E+00  0.00000000E+00  0.00000000E+00
  0.00000000E+00  0.00000000E+00  0.00000000E+00
  0.00000000E+00  0.00000000E+00  0.00000000E+00
  0.00000000E+00  0.00000000E+00  0.00000000E+00
  0.00000000E+00  0.00000000E+00  0.00000000E+00
  0.00000000E+00  0.00000000E+00  0.00000000E+00
  0.00000000E+00  0.00000000E+00  0.00000000E+00
  0.00000000E+00  0.00000000E+00  0.00000000E+00
  0.00000000E+00  0.00000000E+00  0.00000000E+00
  0.00000000E+00  0.00000000E+00  0.00000000E+00
  0.00000000E+00  0.00000000E+00  0.00000000E+00
  0.00000000E+00  0.00000000E+00  0.00000000E+00
  0.00000000E+00  0.00000000E+00  0.00000000E+00
  0.00000000E+00  0.00000000E+00  0.00000000E+00
  0.00000000E+00  0.00000000E+00  0.00000000E+00
  0.00000000E+00  0.00000000E+00  0.00000000E+00
  0.00000000E+00  0.00000000E+00  0.00000000E+00
  0.00000000E+00  0.00000000E+00  0.00000000E+00
  0.00000000E+00  0.00000000E+00  0.00000000E+00
  0.00000000E+00  0.00000000E+00  0.00000000E+00
  0.00000000E+00  0.00000000E+00  0.00000000E+00
  0.00000000E+00  0.00000000E+00  0.00000000E+00
  0.00000000E+00  0.00000000E+00  0.00000000E+00
  0.00000000E+00  0.00000000E+00  0.00000000E+00
  0.00000000E+00  0.00000000E+00  0.00000000E+00
  0.00000000E+00  0.00000000E+00  0.00000000E+00
  0.00000000E+00  0.00000000E+00  0.00000000E+00
  0.00000000E+00  0.00000000E+00  0.00000000E+00
  0.00000000E+00  0.00000000E+00  0.00000000E+00
  0.00000000E+00  0.00000000E+00  0.00000000E+00
  0.00000000E+00  0.00000000E+00  0.00000000E+00
  0.00000000E+00  0.00000000E+00  0.00000000E+00
  0.00000000E+00  0.00000000E+00  0.00000000E+00
  0.00000000E+00  0.00000000E+00  0.00000000E+00
  0.00000000E+00  0.00000000E+00  0.00000000E+00
  0.00000000E+00  0.00000000E+00  0.00000000E+00
  0.00000000E+00  0.00000000E+00  0.00000000E+00
  0.00000000E+00  0.00000000E+00  0.00000000E+00
  0.00000000E+00  0.00000000E+00  0.00000000E+00
  0.00000000E+00  0.00000000E+00  0.00000000E+00
  0.00000000E+00  0.00000000E+00  0.00000000E+00
  0.00000000E+00  0.00000000E+00  0.00000000E+00
  0.00000000E+00  0.00000000E+00  0.00000000E+00
  0.00000000E+00  0.00000000E+00  0.00000000E+00
  0.00000000E+00  0.00000000E+00  0.00000000E+00
  0.00000000E+00  0.00000000E+00  0.00000000E+00
  0.00000000E+00  0.00000000E+00  0.00000000E+00
  0.00000000E+00  0.00000000E+00  0.00000000E+00
  0.00000000E+00  0.00000000E+00  0.00000000E+00
  0.00000000E+00  0.00000000E+00  0.00000000E+00
  0.00000000E+00  0.00000000E+00  0.00000000E+00
  0.00000000E+00  0.00000000E+00  0.00000000E+00
  0.00000000E+00  0.00000000E+00  0.00000000E+00
  0.00000000E+00  0.00000000E+00  0.00000000E+00
  0.00000000E+00  0.00000000E+00  0.00000000E+00
  0.00000000E+00  0.00000000E+00  0.00000000E+00
  0.00000000E+00  0.00000000E+00  0.00000000E+00
  0.00000000E+00  0.00000000E+00  0.00000000E+00
  0.00000000E+00  0.00000000E+00  0.00000000E+00
  0.00000000E+00  0.00000000E+00  0.00000000E+00
  0.00000000E+00  0.00000000E+00  0.00000000E+00
  0.00000000E+00  0.00000000E+00  0.00000000E+00
  0.00000000E+00  0.00000000E+00  0.00000000E+00
  0.00000000E+00  0.00000000E+00  0.00000000E+00
  0.00000000E+00  0.00000000E+00  0.00000000E+00
  0.00000000E+00  0.00000000E+00  0.00000000E+00
  0.00000000E+00  0.00000000E+00  0.00000000E+00
  0.00000000E+00  0.00000000E+00  0.00000000E+00
  0.00000000E+00  0.00000000E+00  0.00000000E+00
  0.00000000E+00  0.00000000E+00  0.00000000E+00
  0.00000000E+00  0.00000000E+00  0.00000000E+00
  0.00000000E+00  0.00000000E+00  0.00000000E+00
  0.00000000E+00  0.00000000E+00  0.00000000E+00
  0.00000000E+00  0.00000000E+00  0.00000000E+00
  0.00000000E+00  0.00000000E+00  0.00000000E+00
  0.00000000E+00  0.00000000E+00  0.00000000E+00
  0.00000000E+00  0.00000000E+00  0.00000000E+00
  0.00000000E+00  0.00000000E+00  0.00000000E+00
  0.00000000E+00  0.00000000E+00  0.00000000E+00
  0.00000000E+00  0.00000000E+00  0.00000000E+00
  0.00000000E+00  0.00000000E+00  0.00000000E+00
  0.00000000E+00  0.00000000E+00  0.00000000E+00
  0.00000000E+00  0.00000000E+00  0.00000000E+00
  0.00000000E+00  0.00000000E+00  0.00000000E+00
  0.00000000E+00  0.00000000E+00  0.00000000E+00
  0.00000000E+00  0.00000000E+00  0.00000000E+00
  0.00000000E+00  0.00000000E+00  0.00000000E+00
  0.00000000E+00  0.00000000E+00  0.00000000E+00
  0.00000000E+00  0.00000000E+00  0.00000000E+00
  0.00000000E+00  0.00000000E+00  0.00000000E+00
  0.00000000E+00  0.00000000E+00  0.00000000E+00
  0.00000000E+00  0.00000000E+00  0.00000000E+00
  0.00000000E+00  0.00000000E+00  0.00000000E+00
  0.00000000E+00  0.00000000E+00  0.00000000E+00
  0.00000000E+00  0.00000000E+00  0.00000000E+00
  0.00000000E+00  0.00000000E+00  0.00000000E+00
  0.00000000E+00  0.00000000E+00  0.00000000E+00
  0.00000000E+00  0.00000000E+00  0.00000000E+00
