Cd1 C125 N1                             
   1.00000000000000     
    19.8610270617710043   -0.0035230915580844   -0.0207924318977483
    -9.9336114811585610   17.0788640324805492    0.0056845479043141
    -0.0312232832532793   -0.0081801381140934   29.6678973562488437
   Cd   C    N 
     1   125     1
Direct
  0.4376004677352253  0.5002632421453275  0.4152049851558088
  0.0415012551247734  0.0836720640604209  0.3995323936918521
  0.0405200053504277  0.2079007547892591  0.3993651135530660
  0.0398612933566574  0.3326402049894190  0.3982800538452234
  0.0400381333736030  0.4581792312242247  0.3974367098484848
  0.0412005238403651  0.5838556033826056  0.3975922131740691
  0.0421702268583716  0.7093285666289378  0.3981459519383217
  0.0425281282259748  0.8345922244327924  0.3985134207824849
  0.0423424830439196  0.9594715546260616  0.3989524682661872
  0.1674544845291032  0.0850330822340229  0.4005501341928530
  0.1661762311173933  0.2089978351831944  0.4018209910558774
  0.1645346598940782  0.3333403280203486  0.4015073330697668
  0.1630974874023723  0.4584080682551051  0.3992332725545237
  0.1644977761292811  0.5838927091612794  0.3981441059335011
  0.1661797060367816  0.7092856196268560  0.3983779033112322
  0.1670109019147162  0.8346111931910472  0.3989031240000485
  0.1674224269142265  0.9599117768236216  0.3993779224952637
  0.2924860233309385  0.0850932753718094  0.4005221376705116
  0.2930053483668103  0.2111221955910537  0.4035942011280851
  0.2905775840710988  0.3350773904879211  0.4070630944363430
  0.2859753915898188  0.4590913464572646  0.4056736411280830
  0.2872368501332366  0.5843627738516801  0.4017051380407129
  0.2902910329525923  0.7093122934051850  0.3995620934083011
  0.2914654142472832  0.8343504061614500  0.3990339612968435
  0.2920131297707415  0.9595558652292829  0.3992766762664205
  0.4170499545403123  0.0837893018357771  0.3996631227611963
  0.4176727364176900  0.2091298410855900  0.4020402613929726
  0.4191235340254988  0.3353423748457672  0.4072664875678336
  0.4144018765045795  0.7078040862203149  0.4030276688405748
  0.4158906169908710  0.8330984836899271  0.4002478454155029
  0.4165748659854248  0.9584510822487483  0.3993232036731325
  0.5415616841912838  0.0824721819751914  0.3991421614949115
  0.5422998447848048  0.2077552476243115  0.3996381764534802
  0.5437214662694584  0.3328255992716470  0.4025906595884780
  0.5491157256933403  0.4582549143757694  0.4082438058499480
  0.5518989581295215  0.5836252903917711  0.4128562543267968
  0.5386224799248970  0.7038793132433356  0.4063771990922557
  0.5403877664206729  0.8312041607626368  0.4019673124039007
  0.5410806964332249  0.9570337234908759  0.3998431518713241
  0.6660924447700458  0.0818713301228923  0.3993171812439706
  0.6666766100647322  0.2071809523070616  0.3987566968058077
  0.6678190289530744  0.3324893121440118  0.3988659118704656
  0.6707514317204292  0.4582714903040436  0.4008164471408328
  0.6726712673334223  0.5841670851726657  0.4036691892347542
  0.6679311912869721  0.7075729421179413  0.4041080780048095
  0.6651218391128313  0.8308578770578424  0.4022544691103387
  0.6656161789488306  0.9564942778238563  0.4002839686850348
  0.7907084611634878  0.0818427918936493  0.3990537209254196
  0.7910247681955740  0.2070424110868365  0.3986620849422848
  0.7918703226071984  0.3324842895197730  0.3980714779520100
  0.7934154979731751  0.4581368932642754  0.3977175752526326
  0.7947157730046206  0.5838148940934381  0.3985185906415864
  0.7938608155042707  0.7091565688946160  0.3999060691242864
  0.7918019840792756  0.8328829948521681  0.4002423533192335
  0.7905822535197368  0.9567908954473873  0.3997437865327999
  0.9157573215931385  0.0824339672157331  0.3988227638643924
  0.9155292607477387  0.2072287793856409  0.3983858473188573
  0.9157869314355480  0.3325188386285776  0.3978403267185677
  0.9166849766718117  0.4581038175419183  0.3974662372119807
  0.9179037117264507  0.5838485056484543  0.3974651916370514
  0.9180821411959450  0.7092937284332136  0.3979668690423436
  0.9176601877396784  0.8341511861551796  0.3985902711924940
  0.9165993597266606  0.9582913034983017  0.3989477430375925
  0.0839217775700533  0.0428939419548215  0.3996394954081352
  0.0828175433444733  0.1669458006912129  0.4001475989916887
  0.0815093501561708  0.2911692015231978  0.3994732432932301
  0.0807261837506767  0.4161868483151576  0.3979785900661768
  0.0817799627113373  0.5418175233309833  0.3975044929138086
  0.0831516500218330  0.6674290869506156  0.3980446270364819
  0.0839143554608328  0.7929037584798238  0.3985709638289885
  0.0841121548830758  0.9180520341219359  0.3989144036399959
  0.2090864149700497  0.0432956762852924  0.4001450355230313
  0.2089836113181057  0.1684387906083484  0.4020890215800623
  0.2068669581840354  0.2922061129294737  0.4033626375169972
  0.2039046729313987  0.4167471212341582  0.4016741038915869
  0.2045810136899743  0.5417920707940699  0.3993535015740572
  0.2070536064499739  0.6674864336406671  0.3985361854092527
  0.2082867249564587  0.7928363122365848  0.3987780517673857
  0.2088758200368730  0.9180993776365053  0.3992219647814177
  0.3338446649652734  0.0429909896406120  0.3997289177537385
  0.3343590919391465  0.1685162233391840  0.4020818012740676
  0.3344922152271717  0.2942867934520855  0.4065053899721740
  0.3242999328989490  0.4159792653095833  0.4102700008365526
  0.3274478627524421  0.5436588170859938  0.4051599865799227
  0.3310615728379504  0.6676341791162406  0.4013634859416487
  0.3327359180089903  0.7925191642081141  0.3995370434921184
  0.3334127581603610  0.9176270968562344  0.3991638958400272
  0.4584453891030090  0.0417093902772681  0.3992883788305487
  0.4590189512155756  0.1670546356236653  0.4003120026998083
  0.4602993520531634  0.2924011383326741  0.4039920460676872
  0.4676647327496108  0.4162681212737503  0.4100065638289369
  0.4540013934688553  0.6640587823117754  0.4060186612903922
  0.4572279978709263  0.7910171987302060  0.4017197042221861
  0.4578923617896530  0.9163606486797852  0.3997458003330868
  0.5829314782204109  0.0404740749844917  0.3993621685609275
  0.5835340376920696  0.1658229331586035  0.3989950166395452
  0.5846531049501396  0.2908800998745865  0.4000472200799123
  0.5881411335071189  0.4158964258681693  0.4038356677358833
  0.5918006215592323  0.5425032188473080  0.4087557356381168
  0.5839956157185329  0.6641090115298526  0.4080739029907385
  0.5808986199738996  0.7879362107362561  0.4035555281130828
  0.5823908795763749  0.9148308728393508  0.4006106113391190
  0.7074489070065875  0.0399910819643492  0.3995162996726346
  0.7079524143120119  0.1653541818297969  0.3989300606018680
  0.7087483767242236  0.2906552025283289  0.3984066461127702
  0.7107081519854042  0.4161237683586976  0.3987363795337008
  0.7127431396519033  0.5417819505361667  0.4006265086490416
  0.7110922890767227  0.6672765890859946  0.4025933160295729
  0.7084149096451064  0.7907209245893263  0.4020597318026182
  0.7069432102358127  0.9144642054092406  0.4006854563378807
  0.8323564813427156  0.0403357029509947  0.3990738160917393
  0.8323866659657971  0.1653307147124211  0.3986614578321019
  0.8328483233557398  0.2905935238314615  0.3982169154258087
  0.8339659108955492  0.4160531487538882  0.3976335552733695
  0.8352961267668351  0.5417569551598321  0.3976119589993618
  0.8353894352128822  0.6675061340456432  0.3985662461931334
  0.8344967623130843  0.7922314843179904  0.3994468917890812
  0.8331187803192404  0.9161557623165871  0.3995668834930782
  0.9580470051692787  0.0415413568119021  0.3989736355791508
  0.9572624456460118  0.1658379811265939  0.3986921397356725
  0.9570028179990862  0.2907207883017919  0.3980230294409648
  0.9573401866168563  0.4160913784647456  0.3974952488445392
  0.9585271949617791  0.5417962401348146  0.3974448856556896
  0.9593222526501214  0.6674379864278527  0.3977509960604717
  0.9594264436604166  0.7928000697598711  0.3982631806133528
  0.9589905603211911  0.9174975000435766  0.3987135862027286
  0.4072987907954120  0.5841736467281670  0.4076825249614223
 
  0.00000000E+00  0.00000000E+00  0.00000000E+00
  0.00000000E+00  0.00000000E+00  0.00000000E+00
  0.00000000E+00  0.00000000E+00  0.00000000E+00
  0.00000000E+00  0.00000000E+00  0.00000000E+00
  0.00000000E+00  0.00000000E+00  0.00000000E+00
  0.00000000E+00  0.00000000E+00  0.00000000E+00
  0.00000000E+00  0.00000000E+00  0.00000000E+00
  0.00000000E+00  0.00000000E+00  0.00000000E+00
  0.00000000E+00  0.00000000E+00  0.00000000E+00
  0.00000000E+00  0.00000000E+00  0.00000000E+00
  0.00000000E+00  0.00000000E+00  0.00000000E+00
  0.00000000E+00  0.00000000E+00  0.00000000E+00
  0.00000000E+00  0.00000000E+00  0.00000000E+00
  0.00000000E+00  0.00000000E+00  0.00000000E+00
  0.00000000E+00  0.00000000E+00  0.00000000E+00
  0.00000000E+00  0.00000000E+00  0.00000000E+00
  0.00000000E+00  0.00000000E+00  0.00000000E+00
  0.00000000E+00  0.00000000E+00  0.00000000E+00
  0.00000000E+00  0.00000000E+00  0.00000000E+00
  0.00000000E+00  0.00000000E+00  0.00000000E+00
  0.00000000E+00  0.00000000E+00  0.00000000E+00
  0.00000000E+00  0.00000000E+00  0.00000000E+00
  0.00000000E+00  0.00000000E+00  0.00000000E+00
  0.00000000E+00  0.00000000E+00  0.00000000E+00
  0.00000000E+00  0.00000000E+00  0.00000000E+00
  0.00000000E+00  0.00000000E+00  0.00000000E+00
  0.00000000E+00  0.00000000E+00  0.00000000E+00
  0.00000000E+00  0.00000000E+00  0.00000000E+00
  0.00000000E+00  0.00000000E+00  0.00000000E+00
  0.00000000E+00  0.00000000E+00  0.00000000E+00
  0.00000000E+00  0.00000000E+00  0.00000000E+00
  0.00000000E+00  0.00000000E+00  0.00000000E+00
  0.00000000E+00  0.00000000E+00  0.00000000E+00
  0.00000000E+00  0.00000000E+00  0.00000000E+00
  0.00000000E+00  0.00000000E+00  0.00000000E+00
  0.00000000E+00  0.00000000E+00  0.00000000E+00
  0.00000000E+00  0.00000000E+00  0.00000000E+00
  0.00000000E+00  0.00000000E+00  0.00000000E+00
  0.00000000E+00  0.00000000E+00  0.00000000E+00
  0.00000000E+00  0.00000000E+00  0.00000000E+00
  0.00000000E+00  0.00000000E+00  0.00000000E+00
  0.00000000E+00  0.00000000E+00  0.00000000E+00
  0.00000000E+00  0.00000000E+00  0.00000000E+00
  0.00000000E+00  0.00000000E+00  0.00000000E+00
  0.00000000E+00  0.00000000E+00  0.00000000E+00
  0.00000000E+00  0.00000000E+00  0.00000000E+00
  0.00000000E+00  0.00000000E+00  0.00000000E+00
  0.00000000E+00  0.00000000E+00  0.00000000E+00
  0.00000000E+00  0.00000000E+00  0.00000000E+00
  0.00000000E+00  0.00000000E+00  0.00000000E+00
  0.00000000E+00  0.00000000E+00  0.00000000E+00
  0.00000000E+00  0.00000000E+00  0.00000000E+00
  0.00000000E+00  0.00000000E+00  0.00000000E+00
  0.00000000E+00  0.00000000E+00  0.00000000E+00
  0.00000000E+00  0.00000000E+00  0.00000000E+00
  0.00000000E+00  0.00000000E+00  0.00000000E+00
  0.00000000E+00  0.00000000E+00  0.00000000E+00
  0.00000000E+00  0.00000000E+00  0.00000000E+00
  0.00000000E+00  0.00000000E+00  0.00000000E+00
  0.00000000E+00  0.00000000E+00  0.00000000E+00
  0.00000000E+00  0.00000000E+00  0.00000000E+00
  0.00000000E+00  0.00000000E+00  0.00000000E+00
  0.00000000E+00  0.00000000E+00  0.00000000E+00
  0.00000000E+00  0.00000000E+00  0.00000000E+00
  0.00000000E+00  0.00000000E+00  0.00000000E+00
  0.00000000E+00  0.00000000E+00  0.00000000E+00
  0.00000000E+00  0.00000000E+00  0.00000000E+00
  0.00000000E+00  0.00000000E+00  0.00000000E+00
  0.00000000E+00  0.00000000E+00  0.00000000E+00
  0.00000000E+00  0.00000000E+00  0.00000000E+00
  0.00000000E+00  0.00000000E+00  0.00000000E+00
  0.00000000E+00  0.00000000E+00  0.00000000E+00
  0.00000000E+00  0.00000000E+00  0.00000000E+00
  0.00000000E+00  0.00000000E+00  0.00000000E+00
  0.00000000E+00  0.00000000E+00  0.00000000E+00
  0.00000000E+00  0.00000000E+00  0.00000000E+00
  0.00000000E+00  0.00000000E+00  0.00000000E+00
  0.00000000E+00  0.00000000E+00  0.00000000E+00
  0.00000000E+00  0.00000000E+00  0.00000000E+00
  0.00000000E+00  0.00000000E+00  0.00000000E+00
  0.00000000E+00  0.00000000E+00  0.00000000E+00
  0.00000000E+00  0.00000000E+00  0.00000000E+00
  0.00000000E+00  0.00000000E+00  0.00000000E+00
  0.00000000E+00  0.00000000E+00  0.00000000E+00
  0.00000000E+00  0.00000000E+00  0.00000000E+00
  0.00000000E+00  0.00000000E+00  0.00000000E+00
  0.00000000E+00  0.00000000E+00  0.00000000E+00
  0.00000000E+00  0.00000000E+00  0.00000000E+00
  0.00000000E+00  0.00000000E+00  0.00000000E+00
  0.00000000E+00  0.00000000E+00  0.00000000E+00
  0.00000000E+00  0.00000000E+00  0.00000000E+00
  0.00000000E+00  0.00000000E+00  0.00000000E+00
  0.00000000E+00  0.00000000E+00  0.00000000E+00
  0.00000000E+00  0.00000000E+00  0.00000000E+00
  0.00000000E+00  0.00000000E+00  0.00000000E+00
  0.00000000E+00  0.00000000E+00  0.00000000E+00
  0.00000000E+00  0.00000000E+00  0.00000000E+00
  0.00000000E+00  0.00000000E+00  0.00000000E+00
  0.00000000E+00  0.00000000E+00  0.00000000E+00
  0.00000000E+00  0.00000000E+00  0.00000000E+00
  0.00000000E+00  0.00000000E+00  0.00000000E+00
  0.00000000E+00  0.00000000E+00  0.00000000E+00
  0.00000000E+00  0.00000000E+00  0.00000000E+00
  0.00000000E+00  0.00000000E+00  0.00000000E+00
  0.00000000E+00  0.00000000E+00  0.00000000E+00
  0.00000000E+00  0.00000000E+00  0.00000000E+00
  0.00000000E+00  0.00000000E+00  0.00000000E+00
  0.00000000E+00  0.00000000E+00  0.00000000E+00
  0.00000000E+00  0.00000000E+00  0.00000000E+00
  0.00000000E+00  0.00000000E+00  0.00000000E+00
  0.00000000E+00  0.00000000E+00  0.00000000E+00
  0.00000000E+00  0.00000000E+00  0.00000000E+00
  0.00000000E+00  0.00000000E+00  0.00000000E+00
  0.00000000E+00  0.00000000E+00  0.00000000E+00
  0.00000000E+00  0.00000000E+00  0.00000000E+00
  0.00000000E+00  0.00000000E+00  0.00000000E+00
  0.00000000E+00  0.00000000E+00  0.00000000E+00
  0.00000000E+00  0.00000000E+00  0.00000000E+00
  0.00000000E+00  0.00000000E+00  0.00000000E+00
  0.00000000E+00  0.00000000E+00  0.00000000E+00
  0.00000000E+00  0.00000000E+00  0.00000000E+00
  0.00000000E+00  0.00000000E+00  0.00000000E+00
  0.00000000E+00  0.00000000E+00  0.00000000E+00
  0.00000000E+00  0.00000000E+00  0.00000000E+00
  0.00000000E+00  0.00000000E+00  0.00000000E+00
  0.00000000E+00  0.00000000E+00  0.00000000E+00
  0.00000000E+00  0.00000000E+00  0.00000000E+00
