W1 C125 N1                              
   1.00000000000000     
    19.8269911554442366   -0.0108180103892089    0.0055558260762826
    -9.9229129385666326   17.0636728247792995   -0.0019813373019833
     0.0085645362576730    0.0013311854328785   29.7516189253738190
   W    C    N 
     1   125     1
Direct
  0.4402784851747502  0.4999332182362275  0.4324732859623320
  0.0418684034655716  0.0839720024657375  0.3995439150770606
  0.0412772807064881  0.2083476256868267  0.3994349236586783
  0.0406548369007773  0.3329940657796969  0.3992015074466586
  0.0405545023210207  0.4582852266393894  0.3987607695320820
  0.0413111887314341  0.5837355522950068  0.3988672866865710
  0.0419869824224754  0.7090859588995055  0.3993401509303312
  0.0422018984655100  0.8342060773171247  0.3996104928320700
  0.0421531145337349  0.9592546285270556  0.3996311618544546
  0.1674671474851121  0.0850640658504809  0.3997611435584829
  0.1673129435717610  0.2100011549622480  0.4000871595259127
  0.1657946178208142  0.3340074673142367  0.4007217058701431
  0.1641163565756364  0.4586352970259741  0.4004201500208239
  0.1650146853023330  0.5838203860805024  0.3993699837421069
  0.1662439618810428  0.7090539592212843  0.3991159036528975
  0.1668982099262424  0.8343619952307957  0.3994171146880692
  0.1672308881123107  0.9596959765100420  0.3996307794493225
  0.2923705433908343  0.0849317967759340  0.3994441094437987
  0.2931095943246199  0.2112360059782297  0.4005004876425913
  0.2930920966279440  0.3372376120588578  0.4031423643617353
  0.2877655745590622  0.4594552920336845  0.4044523691424861
  0.2883524060627690  0.5842531225482477  0.4020355382783314
  0.2905193297943952  0.7090203363832992  0.4001189918221799
  0.2914945616856428  0.8340778644668910  0.3993834853070913
  0.2919644534823266  0.9593200195766476  0.3993185847182167
  0.4170409650188544  0.0837834322539367  0.3992591595141265
  0.4175276959043588  0.2092607230041947  0.3995089896207439
  0.4190882185324324  0.3358701899662478  0.4023069471656665
  0.4146088916588081  0.7068627367383603  0.4016350330447276
  0.4159996940112419  0.8327400489167704  0.3998141486940190
  0.4166471464902990  0.9583474040391843  0.3994254674068687
  0.5416151617925196  0.0826544952366751  0.3996111250034968
  0.5421603193987050  0.2079093640590612  0.3997361244239580
  0.5432030172585760  0.3329124060420648  0.3999879967764482
  0.5466585353670126  0.4575585895914538  0.4016108965532064
  0.5452948407700462  0.5802333273706571  0.4027676348450271
  0.5382338511821277  0.7035966630631139  0.4021858273051429
  0.5403162522460048  0.8310763817502852  0.4003469639225385
  0.5411455430288661  0.9571436523952054  0.3997966554598620
  0.6662702779721830  0.0821838074145958  0.3997751246925961
  0.6667510954400063  0.2074952165599677  0.3999406326356403
  0.6676044679604549  0.3327027853950128  0.4004149161865663
  0.6697619437943547  0.4581883361784631  0.3998269316464251
  0.6705351244940322  0.5834925617752403  0.3989210418664214
  0.6661756960279549  0.7065294402259575  0.3991002416577289
  0.6647936206881462  0.8306907184169423  0.3996740682044234
  0.6656309958006521  0.9565845666927264  0.3998566909516942
  0.7909532957934585  0.0821035973148142  0.3996051846410900
  0.7913530034010073  0.2073619446502621  0.3995470674375459
  0.7919450875949073  0.3327123341691316  0.3999833701061219
  0.7930735635118021  0.4581777321361089  0.4005934345069324
  0.7937969581793950  0.5835701854787044  0.4000800128239015
  0.7927811139906583  0.7086349418397196  0.3992167603347184
  0.7911671787476512  0.8324835597039223  0.3990593339095505
  0.7906365341026516  0.9568636688820423  0.3993646464893411
  0.9161420917920889  0.0827121356301254  0.3993671407353179
  0.9160093464183641  0.2075703315014634  0.3992024652916319
  0.9162043969344693  0.3327644034935396  0.3990758263238114
  0.9167856560901075  0.4581968631488021  0.3994095614056360
  0.9175724079765791  0.5836750968679816  0.3999520755126715
  0.9174796159782401  0.7089075886639464  0.3998395021045874
  0.9171553029339191  0.8337866208140625  0.3994759535754036
  0.9165198479908339  0.9581935415340493  0.3993656669254902
  0.0839400010088853  0.0428453805594956  0.3996648344226238
  0.0836710802323212  0.1675508288168791  0.3996235712063890
  0.0825659513434861  0.2917102607880871  0.3996588332909424
  0.0815445048705555  0.4164644449305038  0.3992537968187023
  0.0821921264666749  0.5418296509588852  0.3987604053978460
  0.0831633082280311  0.6672838170608338  0.3990337115959385
  0.0837197045766268  0.7926129568459461  0.3994631036350016
  0.0838673416955380  0.9177304177725036  0.3996831730902363
  0.2089641232829433  0.0431981642367692  0.3996308723311196
  0.2093257354652747  0.1687475706357270  0.4000970237155075
  0.2089840937175645  0.2937861531327027  0.4010082147064876
  0.2054803044621533  0.4173400896298260  0.4016233465677987
  0.2055206835771811  0.5418888697712996  0.4005095501592123
  0.2072803727214151  0.6673020051848546  0.3994581719914665
  0.2082425218584129  0.7925871244866844  0.3992808015526578
  0.2087386516615476  0.9178786618765683  0.3995043571777065
  0.3337817050819813  0.0428453297742046  0.3992431793645891
  0.3342394056019593  0.1685271613137949  0.3997169475075111
  0.3350189184341471  0.2948463032085616  0.4022589019324780
  0.3309038564939709  0.4204441572417331  0.4069446617954919
  0.3289208237061664  0.5435457028295679  0.4049982986374216
  0.3314170983974840  0.6673424578943264  0.4014204568820641
  0.3328482496203558  0.7922369515312354  0.3997238308951224
  0.3334242665109087  0.9174185592460415  0.3993336967778816
  0.4584548646116652  0.0417390717157196  0.3994025577318921
  0.4588469181684899  0.1671388602951954  0.3993683984321135
  0.4597853136995657  0.2927528530357478  0.4000573907846519
  0.4646633032745339  0.4185376207719897  0.4055024760025618
  0.4540958029818757  0.6628149825787825  0.4040044517494495
  0.4572040662316003  0.7903840743426040  0.4003396332890098
  0.4579201413641646  0.9161921551053923  0.3996326342156653
  0.5830338864744267  0.0406916970765190  0.3997417521233624
  0.5835157321512755  0.1660477120836136  0.3997936447375054
  0.5843546994541831  0.2910823347201946  0.4000217483274734
  0.5869529599987363  0.4160577737589711  0.4000198276853514
  0.5887874247147176  0.5418374408796697  0.4003206795794200
  0.5818334164581578  0.6626882613640288  0.4010029402158891
  0.5806975252938904  0.7878960055270973  0.4006123698106257
  0.5823617538437548  0.9148751551895521  0.3999868750703059
  0.7075750951264772  0.0402073272955666  0.3997738616876172
  0.7081716022947384  0.1657277174099196  0.3997351639747239
  0.7087679758788233  0.2909658776214226  0.4002479277464610
  0.7102322742921997  0.4162545527594302  0.4004306640847761
  0.7114144366384696  0.5415817388698635  0.3995143655771343
  0.7096457831384926  0.6666396104630686  0.3987900557842612
  0.7075039844047090  0.7900682189105102  0.3991304671724224
  0.7069214406447984  0.9145161762180878  0.3995904009049433
  0.8326205548383323  0.0405596356644123  0.3994584964763056
  0.8327739849857768  0.1656623672831068  0.3994257243975859
  0.8331546586155379  0.2909007991346722  0.3994774500546066
  0.8339604797931851  0.4162788788289331  0.4001253475683460
  0.8347649046482911  0.5417111843461254  0.4004808229791761
  0.8345445234863782  0.6671312946894992  0.3998067156587135
  0.8338008496731267  0.7917970352965827  0.3992307622570218
  0.8329269810953573  0.9159751342113075  0.3992231388371434
  0.9583011063900611  0.0416826178206532  0.3994287732911576
  0.9578557068033540  0.1662256488479165  0.3992657912886929
  0.9576224907313090  0.2910777156802674  0.3990189847778124
  0.9577196498378172  0.4163091913182040  0.3989089408002607
  0.9585050042123833  0.5417932662653332  0.3993487495935061
  0.9589676672253552  0.6672429482579584  0.3997313977791375
  0.9589516233153101  0.7923866128088316  0.3996308376927678
  0.9587219518454897  0.9172178266920473  0.3994781352551041
  0.4091368127492477  0.5818655043554185  0.4086239182473665
 
  0.00000000E+00  0.00000000E+00  0.00000000E+00
  0.00000000E+00  0.00000000E+00  0.00000000E+00
  0.00000000E+00  0.00000000E+00  0.00000000E+00
  0.00000000E+00  0.00000000E+00  0.00000000E+00
  0.00000000E+00  0.00000000E+00  0.00000000E+00
  0.00000000E+00  0.00000000E+00  0.00000000E+00
  0.00000000E+00  0.00000000E+00  0.00000000E+00
  0.00000000E+00  0.00000000E+00  0.00000000E+00
  0.00000000E+00  0.00000000E+00  0.00000000E+00
  0.00000000E+00  0.00000000E+00  0.00000000E+00
  0.00000000E+00  0.00000000E+00  0.00000000E+00
  0.00000000E+00  0.00000000E+00  0.00000000E+00
  0.00000000E+00  0.00000000E+00  0.00000000E+00
  0.00000000E+00  0.00000000E+00  0.00000000E+00
  0.00000000E+00  0.00000000E+00  0.00000000E+00
  0.00000000E+00  0.00000000E+00  0.00000000E+00
  0.00000000E+00  0.00000000E+00  0.00000000E+00
  0.00000000E+00  0.00000000E+00  0.00000000E+00
  0.00000000E+00  0.00000000E+00  0.00000000E+00
  0.00000000E+00  0.00000000E+00  0.00000000E+00
  0.00000000E+00  0.00000000E+00  0.00000000E+00
  0.00000000E+00  0.00000000E+00  0.00000000E+00
  0.00000000E+00  0.00000000E+00  0.00000000E+00
  0.00000000E+00  0.00000000E+00  0.00000000E+00
  0.00000000E+00  0.00000000E+00  0.00000000E+00
  0.00000000E+00  0.00000000E+00  0.00000000E+00
  0.00000000E+00  0.00000000E+00  0.00000000E+00
  0.00000000E+00  0.00000000E+00  0.00000000E+00
  0.00000000E+00  0.00000000E+00  0.00000000E+00
  0.00000000E+00  0.00000000E+00  0.00000000E+00
  0.00000000E+00  0.00000000E+00  0.00000000E+00
  0.00000000E+00  0.00000000E+00  0.00000000E+00
  0.00000000E+00  0.00000000E+00  0.00000000E+00
  0.00000000E+00  0.00000000E+00  0.00000000E+00
  0.00000000E+00  0.00000000E+00  0.00000000E+00
  0.00000000E+00  0.00000000E+00  0.00000000E+00
  0.00000000E+00  0.00000000E+00  0.00000000E+00
  0.00000000E+00  0.00000000E+00  0.00000000E+00
  0.00000000E+00  0.00000000E+00  0.00000000E+00
  0.00000000E+00  0.00000000E+00  0.00000000E+00
  0.00000000E+00  0.00000000E+00  0.00000000E+00
  0.00000000E+00  0.00000000E+00  0.00000000E+00
  0.00000000E+00  0.00000000E+00  0.00000000E+00
  0.00000000E+00  0.00000000E+00  0.00000000E+00
  0.00000000E+00  0.00000000E+00  0.00000000E+00
  0.00000000E+00  0.00000000E+00  0.00000000E+00
  0.00000000E+00  0.00000000E+00  0.00000000E+00
  0.00000000E+00  0.00000000E+00  0.00000000E+00
  0.00000000E+00  0.00000000E+00  0.00000000E+00
  0.00000000E+00  0.00000000E+00  0.00000000E+00
  0.00000000E+00  0.00000000E+00  0.00000000E+00
  0.00000000E+00  0.00000000E+00  0.00000000E+00
  0.00000000E+00  0.00000000E+00  0.00000000E+00
  0.00000000E+00  0.00000000E+00  0.00000000E+00
  0.00000000E+00  0.00000000E+00  0.00000000E+00
  0.00000000E+00  0.00000000E+00  0.00000000E+00
  0.00000000E+00  0.00000000E+00  0.00000000E+00
  0.00000000E+00  0.00000000E+00  0.00000000E+00
  0.00000000E+00  0.00000000E+00  0.00000000E+00
  0.00000000E+00  0.00000000E+00  0.00000000E+00
  0.00000000E+00  0.00000000E+00  0.00000000E+00
  0.00000000E+00  0.00000000E+00  0.00000000E+00
  0.00000000E+00  0.00000000E+00  0.00000000E+00
  0.00000000E+00  0.00000000E+00  0.00000000E+00
  0.00000000E+00  0.00000000E+00  0.00000000E+00
  0.00000000E+00  0.00000000E+00  0.00000000E+00
  0.00000000E+00  0.00000000E+00  0.00000000E+00
  0.00000000E+00  0.00000000E+00  0.00000000E+00
  0.00000000E+00  0.00000000E+00  0.00000000E+00
  0.00000000E+00  0.00000000E+00  0.00000000E+00
  0.00000000E+00  0.00000000E+00  0.00000000E+00
  0.00000000E+00  0.00000000E+00  0.00000000E+00
  0.00000000E+00  0.00000000E+00  0.00000000E+00
  0.00000000E+00  0.00000000E+00  0.00000000E+00
  0.00000000E+00  0.00000000E+00  0.00000000E+00
  0.00000000E+00  0.00000000E+00  0.00000000E+00
  0.00000000E+00  0.00000000E+00  0.00000000E+00
  0.00000000E+00  0.00000000E+00  0.00000000E+00
  0.00000000E+00  0.00000000E+00  0.00000000E+00
  0.00000000E+00  0.00000000E+00  0.00000000E+00
  0.00000000E+00  0.00000000E+00  0.00000000E+00
  0.00000000E+00  0.00000000E+00  0.00000000E+00
  0.00000000E+00  0.00000000E+00  0.00000000E+00
  0.00000000E+00  0.00000000E+00  0.00000000E+00
  0.00000000E+00  0.00000000E+00  0.00000000E+00
  0.00000000E+00  0.00000000E+00  0.00000000E+00
  0.00000000E+00  0.00000000E+00  0.00000000E+00
  0.00000000E+00  0.00000000E+00  0.00000000E+00
  0.00000000E+00  0.00000000E+00  0.00000000E+00
  0.00000000E+00  0.00000000E+00  0.00000000E+00
  0.00000000E+00  0.00000000E+00  0.00000000E+00
  0.00000000E+00  0.00000000E+00  0.00000000E+00
  0.00000000E+00  0.00000000E+00  0.00000000E+00
  0.00000000E+00  0.00000000E+00  0.00000000E+00
  0.00000000E+00  0.00000000E+00  0.00000000E+00
  0.00000000E+00  0.00000000E+00  0.00000000E+00
  0.00000000E+00  0.00000000E+00  0.00000000E+00
  0.00000000E+00  0.00000000E+00  0.00000000E+00
  0.00000000E+00  0.00000000E+00  0.00000000E+00
  0.00000000E+00  0.00000000E+00  0.00000000E+00
  0.00000000E+00  0.00000000E+00  0.00000000E+00
  0.00000000E+00  0.00000000E+00  0.00000000E+00
  0.00000000E+00  0.00000000E+00  0.00000000E+00
  0.00000000E+00  0.00000000E+00  0.00000000E+00
  0.00000000E+00  0.00000000E+00  0.00000000E+00
  0.00000000E+00  0.00000000E+00  0.00000000E+00
  0.00000000E+00  0.00000000E+00  0.00000000E+00
  0.00000000E+00  0.00000000E+00  0.00000000E+00
  0.00000000E+00  0.00000000E+00  0.00000000E+00
  0.00000000E+00  0.00000000E+00  0.00000000E+00
  0.00000000E+00  0.00000000E+00  0.00000000E+00
  0.00000000E+00  0.00000000E+00  0.00000000E+00
  0.00000000E+00  0.00000000E+00  0.00000000E+00
  0.00000000E+00  0.00000000E+00  0.00000000E+00
  0.00000000E+00  0.00000000E+00  0.00000000E+00
  0.00000000E+00  0.00000000E+00  0.00000000E+00
  0.00000000E+00  0.00000000E+00  0.00000000E+00
  0.00000000E+00  0.00000000E+00  0.00000000E+00
  0.00000000E+00  0.00000000E+00  0.00000000E+00
  0.00000000E+00  0.00000000E+00  0.00000000E+00
  0.00000000E+00  0.00000000E+00  0.00000000E+00
  0.00000000E+00  0.00000000E+00  0.00000000E+00
  0.00000000E+00  0.00000000E+00  0.00000000E+00
  0.00000000E+00  0.00000000E+00  0.00000000E+00
  0.00000000E+00  0.00000000E+00  0.00000000E+00
  0.00000000E+00  0.00000000E+00  0.00000000E+00
  0.00000000E+00  0.00000000E+00  0.00000000E+00
