Zr1 H1 C124 N2                          
   1.00000000000000     
    19.8108982069903306   -0.0167704514395673   -0.0601482037691208
    -9.9201173638628823   17.0685833379863361   -0.1087990166112499
    -0.0903651743596449   -0.2418651343883791   29.7746656082576422
   Zr   H    C    N 
     1     1   124     2
Direct
  0.4394875542516086  0.5015236671224442  0.4388700177354850
  0.4432072062443576  0.5031454946904519  0.5029188847779599
  0.0421034032531211  0.0840776184673758  0.3995844423903465
  0.0414961602915358  0.2085320586002879  0.3992603138682133
  0.0408444592190472  0.3331635431782273  0.3989704288038437
  0.0407367571575453  0.4584839263701380  0.3989513836552073
  0.0413700296332754  0.5838952599093278  0.3994975297132849
  0.0419533917973894  0.7091924619064223  0.3999729132590559
  0.0422401773728953  0.8344061925404362  0.3999323779605248
  0.0423814512880763  0.9594845057452347  0.3997118654155300
  0.1679777258701318  0.0853980414546643  0.3999134047017772
  0.1674523197910211  0.2099644418654908  0.3999107022528498
  0.1661870080340023  0.3342061161573046  0.3998420195117252
  0.1646171925582314  0.4587792485008387  0.3991993597217211
  0.1653048459985592  0.5839604015032783  0.3988481118851146
  0.1663146661832261  0.7092171801056565  0.3993788765612067
  0.1669230711209443  0.8344862523903892  0.3997747644013744
  0.1673923087676213  0.9598181589063561  0.3998206392291448
  0.2925671442092078  0.0850321954747743  0.3999219945536527
  0.2941729133511940  0.2119677118842081  0.4012870012053018
  0.2928579442239463  0.3370968039608969  0.4033372397227801
  0.2889650141160976  0.4594832402845513  0.4032442321186020
  0.2890434915777971  0.5845183159619453  0.4004844964671735
  0.2906986701397477  0.7093295723985560  0.3992749091241214
  0.2915661397998692  0.8342892590191953  0.3993082768985878
  0.2920282746531823  0.9594687940447257  0.3995624409603277
  0.4171492431333979  0.0837659373666651  0.3995231855276102
  0.4177164556626626  0.2092312416598227  0.3999997989158274
  0.4207828412888094  0.3365038769606319  0.4035299005969450
  0.4150244967957821  0.7077226267394356  0.4006425821487835
  0.4161587998725974  0.8331904306090260  0.3992175929125365
  0.4167011584170196  0.9585098009702664  0.3993777145756748
  0.5417961240581529  0.0827177781011099  0.3995970075936884
  0.5422845592478407  0.2077619643717893  0.3994277342859592
  0.5434509439320534  0.3326392365070479  0.3998888087571889
  0.5448720376576873  0.4561100636435723  0.4023015217279201
  0.5447307361776846  0.5812478561870861  0.4045675906644134
  0.5388936819558838  0.7044438632926185  0.4025464745440908
  0.5406244299321794  0.8316456506390193  0.3999108527195322
  0.5413765578755001  0.9574040304800434  0.3995000460373799
  0.6664740567944984  0.0823409018215018  0.3998858851088715
  0.6669404763185930  0.2075656686101012  0.3997480075539769
  0.6677784671528396  0.3327795456887152  0.3992633941404167
  0.6691821192886084  0.4581430603979711  0.3986942313112650
  0.6689880573768933  0.5826338187745511  0.3988663544446261
  0.6662677905792227  0.7067591861203413  0.3991083683166429
  0.6651973485028781  0.8311352066181373  0.3996084426771448
  0.6659930475124454  0.9569576409944803  0.3996985312264841
  0.7912491751356263  0.0823793984324701  0.3997586385519994
  0.7915547570282482  0.2075849380804931  0.3998657210530066
  0.7921033979638616  0.3328936467363186  0.3997783155325660
  0.7928681879887106  0.4582525659881988  0.3992842074906813
  0.7933149237439820  0.5835161112604020  0.3986449366141132
  0.7924373956044223  0.7083324490726419  0.3985310588704750
  0.7913696069208597  0.8326568822172794  0.3989352102298339
  0.7909086223829040  0.9571481727056925  0.3994404192699040
  0.9163793620720274  0.0829214416748729  0.3995168990824337
  0.9162683373711782  0.2077823168354035  0.3994000660176815
  0.9163766608665207  0.3329792767131921  0.3994450206633656
  0.9168005214562538  0.4583593985112854  0.3996830747514674
  0.9173952441508855  0.5837899578041602  0.3997536596341390
  0.9174107307970226  0.7089949518233163  0.3995290942171154
  0.9171455554410258  0.8338314325763443  0.3993712560689588
  0.9167288974994581  0.9584106356253207  0.3994985362991235
  0.0843078795801989  0.0430947629577091  0.3996897726208131
  0.0838232621123362  0.1675541626408092  0.3994861811265334
  0.0827556466696968  0.2918742749881426  0.3991630537782603
  0.0818749380517254  0.4166993178313454  0.3988120116045105
  0.0823489097989965  0.5420106386485165  0.3989873434342826
  0.0831630898463811  0.6674122273570141  0.3996582618717905
  0.0837171327279424  0.7927259558098080  0.3999715123504836
  0.0840147178138179  0.9179023145401424  0.3998452465962646
  0.2092555051197499  0.0433179689985755  0.3999048115880717
  0.2100056661153731  0.1691383063345261  0.4003572092358659
  0.2089215427331114  0.2934904076583912  0.4004638662083181
  0.2062436217035050  0.4176311714508145  0.4003300658525535
  0.2060560375566750  0.5421060638034415  0.3991985195431250
  0.2074589353559700  0.6675041481068559  0.3990912126072426
  0.2083005387338445  0.7927362432641712  0.3995083449359131
  0.2087980176868823  0.9179623850132282  0.3997275620388618
  0.3338710004367555  0.0429039862503943  0.3996311104913820
  0.3345921402697252  0.1686679205756968  0.4004118748594100
  0.3364548577278090  0.2960205753315092  0.4033352178986260
  0.3306621353289777  0.4192861254381618  0.4064780853703436
  0.3305340093066369  0.5443775925173059  0.4035946562354293
  0.3317958667431732  0.6676694631027000  0.4001169643929028
  0.3329347950428092  0.7925288317414733  0.3992019783562184
  0.3334765294152323  0.9175882329831494  0.3993874224731184
  0.4585815493621169  0.0417942448424313  0.3994971515511186
  0.4590650290978286  0.1670848273575621  0.3995228038204102
  0.4602263753272691  0.2926023037801873  0.4006577249238093
  0.4545953055074161  0.6640041947447149  0.4035570109665279
  0.4574929139278792  0.7910513039793310  0.3996338854274239
  0.4580994102765504  0.9165081357388219  0.3993047321048363
  0.5832550610859267  0.0408469616590354  0.3996879938069060
  0.5836729725947818  0.1660217941760787  0.3995628738187753
  0.5845329540421240  0.2909637279007803  0.3993468794832443
  0.5862451520877690  0.4157905118184472  0.3997687615131718
  0.5863393617244157  0.5409560584197253  0.4013988052413682
  0.5824355468765209  0.6633086970659349  0.4018756855341510
  0.5810712318843912  0.7883850455382405  0.4005392341117106
  0.5826721287589994  0.9152729076245893  0.3996299609504648
  0.7078641645989772  0.0404582307262692  0.3998325262199327
  0.7083362600905868  0.1658254789017377  0.3999358096434468
  0.7089350001075237  0.2910800101605133  0.3996375476490298
  0.7099211377694842  0.4162995065657302  0.3989180396595978
  0.7105886806997500  0.5414529740520109  0.3984198836902875
  0.7090096547556596  0.6660370347173546  0.3985491076377559
  0.7077296911960111  0.7902767902942600  0.3990077154061609
  0.7072454903736850  0.9148517951427954  0.3995153788862802
  0.8328737626986354  0.0407739875701321  0.3995943886310288
  0.8330060037982110  0.1658739904493078  0.3997125455985669
  0.8333212081008291  0.2911108967036910  0.3997618410801406
  0.8338771397960102  0.4164004120078043  0.3997046878481984
  0.8344662338956810  0.5417560991769060  0.3992493101373396
  0.8343437149801157  0.6670494324413742  0.3988375488949868
  0.8337125753093675  0.7916844207333557  0.3988773886581929
  0.8331211962308099  0.9161527938895041  0.3993097001802361
  0.9585143732995552  0.0418358201087628  0.3995620056518924
  0.9580828225842124  0.1664028774180031  0.3993449926829374
  0.9578117708243041  0.2912585117612944  0.3992045376403294
  0.9578387498613946  0.4165083228261397  0.3993718403199220
  0.9584626882103334  0.5419575939919329  0.3997482004460690
  0.9588790355738988  0.6673158203808084  0.3998738992747912
  0.9589671330330524  0.7924764349290042  0.3996750241488464
  0.9588707883945324  0.9173381159301006  0.3995506451962104
  0.4104770017368995  0.5838136101090712  0.4075060010833739
  0.4651698267893320  0.4169928219679214  0.4065978779814331
 
  0.00000000E+00  0.00000000E+00  0.00000000E+00
  0.00000000E+00  0.00000000E+00  0.00000000E+00
  0.00000000E+00  0.00000000E+00  0.00000000E+00
  0.00000000E+00  0.00000000E+00  0.00000000E+00
  0.00000000E+00  0.00000000E+00  0.00000000E+00
  0.00000000E+00  0.00000000E+00  0.00000000E+00
  0.00000000E+00  0.00000000E+00  0.00000000E+00
  0.00000000E+00  0.00000000E+00  0.00000000E+00
  0.00000000E+00  0.00000000E+00  0.00000000E+00
  0.00000000E+00  0.00000000E+00  0.00000000E+00
  0.00000000E+00  0.00000000E+00  0.00000000E+00
  0.00000000E+00  0.00000000E+00  0.00000000E+00
  0.00000000E+00  0.00000000E+00  0.00000000E+00
  0.00000000E+00  0.00000000E+00  0.00000000E+00
  0.00000000E+00  0.00000000E+00  0.00000000E+00
  0.00000000E+00  0.00000000E+00  0.00000000E+00
  0.00000000E+00  0.00000000E+00  0.00000000E+00
  0.00000000E+00  0.00000000E+00  0.00000000E+00
  0.00000000E+00  0.00000000E+00  0.00000000E+00
  0.00000000E+00  0.00000000E+00  0.00000000E+00
  0.00000000E+00  0.00000000E+00  0.00000000E+00
  0.00000000E+00  0.00000000E+00  0.00000000E+00
  0.00000000E+00  0.00000000E+00  0.00000000E+00
  0.00000000E+00  0.00000000E+00  0.00000000E+00
  0.00000000E+00  0.00000000E+00  0.00000000E+00
  0.00000000E+00  0.00000000E+00  0.00000000E+00
  0.00000000E+00  0.00000000E+00  0.00000000E+00
  0.00000000E+00  0.00000000E+00  0.00000000E+00
  0.00000000E+00  0.00000000E+00  0.00000000E+00
  0.00000000E+00  0.00000000E+00  0.00000000E+00
  0.00000000E+00  0.00000000E+00  0.00000000E+00
  0.00000000E+00  0.00000000E+00  0.00000000E+00
  0.00000000E+00  0.00000000E+00  0.00000000E+00
  0.00000000E+00  0.00000000E+00  0.00000000E+00
  0.00000000E+00  0.00000000E+00  0.00000000E+00
  0.00000000E+00  0.00000000E+00  0.00000000E+00
  0.00000000E+00  0.00000000E+00  0.00000000E+00
  0.00000000E+00  0.00000000E+00  0.00000000E+00
  0.00000000E+00  0.00000000E+00  0.00000000E+00
  0.00000000E+00  0.00000000E+00  0.00000000E+00
  0.00000000E+00  0.00000000E+00  0.00000000E+00
  0.00000000E+00  0.00000000E+00  0.00000000E+00
  0.00000000E+00  0.00000000E+00  0.00000000E+00
  0.00000000E+00  0.00000000E+00  0.00000000E+00
  0.00000000E+00  0.00000000E+00  0.00000000E+00
  0.00000000E+00  0.00000000E+00  0.00000000E+00
  0.00000000E+00  0.00000000E+00  0.00000000E+00
  0.00000000E+00  0.00000000E+00  0.00000000E+00
  0.00000000E+00  0.00000000E+00  0.00000000E+00
  0.00000000E+00  0.00000000E+00  0.00000000E+00
  0.00000000E+00  0.00000000E+00  0.00000000E+00
  0.00000000E+00  0.00000000E+00  0.00000000E+00
  0.00000000E+00  0.00000000E+00  0.00000000E+00
  0.00000000E+00  0.00000000E+00  0.00000000E+00
  0.00000000E+00  0.00000000E+00  0.00000000E+00
  0.00000000E+00  0.00000000E+00  0.00000000E+00
  0.00000000E+00  0.00000000E+00  0.00000000E+00
  0.00000000E+00  0.00000000E+00  0.00000000E+00
  0.00000000E+00  0.00000000E+00  0.00000000E+00
  0.00000000E+00  0.00000000E+00  0.00000000E+00
  0.00000000E+00  0.00000000E+00  0.00000000E+00
  0.00000000E+00  0.00000000E+00  0.00000000E+00
  0.00000000E+00  0.00000000E+00  0.00000000E+00
  0.00000000E+00  0.00000000E+00  0.00000000E+00
  0.00000000E+00  0.00000000E+00  0.00000000E+00
  0.00000000E+00  0.00000000E+00  0.00000000E+00
  0.00000000E+00  0.00000000E+00  0.00000000E+00
  0.00000000E+00  0.00000000E+00  0.00000000E+00
  0.00000000E+00  0.00000000E+00  0.00000000E+00
  0.00000000E+00  0.00000000E+00  0.00000000E+00
  0.00000000E+00  0.00000000E+00  0.00000000E+00
  0.00000000E+00  0.00000000E+00  0.00000000E+00
  0.00000000E+00  0.00000000E+00  0.00000000E+00
  0.00000000E+00  0.00000000E+00  0.00000000E+00
  0.00000000E+00  0.00000000E+00  0.00000000E+00
  0.00000000E+00  0.00000000E+00  0.00000000E+00
  0.00000000E+00  0.00000000E+00  0.00000000E+00
  0.00000000E+00  0.00000000E+00  0.00000000E+00
  0.00000000E+00  0.00000000E+00  0.00000000E+00
  0.00000000E+00  0.00000000E+00  0.00000000E+00
  0.00000000E+00  0.00000000E+00  0.00000000E+00
  0.00000000E+00  0.00000000E+00  0.00000000E+00
  0.00000000E+00  0.00000000E+00  0.00000000E+00
  0.00000000E+00  0.00000000E+00  0.00000000E+00
  0.00000000E+00  0.00000000E+00  0.00000000E+00
  0.00000000E+00  0.00000000E+00  0.00000000E+00
  0.00000000E+00  0.00000000E+00  0.00000000E+00
  0.00000000E+00  0.00000000E+00  0.00000000E+00
  0.00000000E+00  0.00000000E+00  0.00000000E+00
  0.00000000E+00  0.00000000E+00  0.00000000E+00
  0.00000000E+00  0.00000000E+00  0.00000000E+00
  0.00000000E+00  0.00000000E+00  0.00000000E+00
  0.00000000E+00  0.00000000E+00  0.00000000E+00
  0.00000000E+00  0.00000000E+00  0.00000000E+00
  0.00000000E+00  0.00000000E+00  0.00000000E+00
  0.00000000E+00  0.00000000E+00  0.00000000E+00
  0.00000000E+00  0.00000000E+00  0.00000000E+00
  0.00000000E+00  0.00000000E+00  0.00000000E+00
  0.00000000E+00  0.00000000E+00  0.00000000E+00
  0.00000000E+00  0.00000000E+00  0.00000000E+00
  0.00000000E+00  0.00000000E+00  0.00000000E+00
  0.00000000E+00  0.00000000E+00  0.00000000E+00
  0.00000000E+00  0.00000000E+00  0.00000000E+00
  0.00000000E+00  0.00000000E+00  0.00000000E+00
  0.00000000E+00  0.00000000E+00  0.00000000E+00
  0.00000000E+00  0.00000000E+00  0.00000000E+00
  0.00000000E+00  0.00000000E+00  0.00000000E+00
  0.00000000E+00  0.00000000E+00  0.00000000E+00
  0.00000000E+00  0.00000000E+00  0.00000000E+00
  0.00000000E+00  0.00000000E+00  0.00000000E+00
  0.00000000E+00  0.00000000E+00  0.00000000E+00
  0.00000000E+00  0.00000000E+00  0.00000000E+00
  0.00000000E+00  0.00000000E+00  0.00000000E+00
  0.00000000E+00  0.00000000E+00  0.00000000E+00
  0.00000000E+00  0.00000000E+00  0.00000000E+00
  0.00000000E+00  0.00000000E+00  0.00000000E+00
  0.00000000E+00  0.00000000E+00  0.00000000E+00
  0.00000000E+00  0.00000000E+00  0.00000000E+00
  0.00000000E+00  0.00000000E+00  0.00000000E+00
  0.00000000E+00  0.00000000E+00  0.00000000E+00
  0.00000000E+00  0.00000000E+00  0.00000000E+00
  0.00000000E+00  0.00000000E+00  0.00000000E+00
  0.00000000E+00  0.00000000E+00  0.00000000E+00
  0.00000000E+00  0.00000000E+00  0.00000000E+00
  0.00000000E+00  0.00000000E+00  0.00000000E+00
  0.00000000E+00  0.00000000E+00  0.00000000E+00
  0.00000000E+00  0.00000000E+00  0.00000000E+00
  0.00000000E+00  0.00000000E+00  0.00000000E+00
