V1 H1 C125 N1                           
   1.00000000000000     
    19.7912818576302705   -0.0103852714320754    0.0213196573198644
    -9.9046613932133365   17.0662437871183101   -0.1169475493613869
     0.0319678351803733   -0.1855534956671750   29.8016185223546088
   V    H    C    N 
     1     1   125     1
Direct
  0.4408309862455534  0.5015580914586182  0.4264295144992032
  0.4457077048664267  0.4974592549504024  0.4821786432817283
  0.0420264233988691  0.0841365211508319  0.3996629760764311
  0.0416060673207063  0.2086594261351450  0.3997790232201689
  0.0411477586519722  0.3332426001900418  0.4000138051213510
  0.0410521098750419  0.4584317049278476  0.3996859731069712
  0.0414561220956429  0.5837246490319407  0.3994982861138341
  0.0418577070997341  0.7089476919145700  0.3997289388091477
  0.0420618818148967  0.8342107734535098  0.3999106081507180
  0.0421462189499822  0.9592987031988069  0.3997860286926522
  0.1674176503702313  0.0849328920039733  0.3997665197426324
  0.1675298080655273  0.2100618511415452  0.3999716232740168
  0.1666478540580394  0.3343579595574702  0.4009103404506553
  0.1653280591153004  0.4587096770636846  0.4013472263824142
  0.1656523126049084  0.5836970773767776  0.4002160513874289
  0.1663701736888023  0.7089513365774054  0.3996451881589301
  0.1668692939105115  0.8342355575369349  0.3998260011855191
  0.1671994073672929  0.9595654696854459  0.3998662125428153
  0.2923453644255137  0.0847809944046400  0.3997906645722651
  0.2930075115821077  0.2109377329372129  0.4002924560547704
  0.2936642071727871  0.3373439736954585  0.4012844001464139
  0.2903943058309332  0.4595436684383296  0.4027858911266797
  0.2897101829385625  0.5843433290121459  0.4016721642732748
  0.2908702562222155  0.7090286302039466  0.4001246592872816
  0.2915896640135958  0.8340069708735550  0.3996826550672311
  0.2919242079843901  0.9592351759079265  0.3997411001846320
  0.4169856764400934  0.0837980261867613  0.3996734022914936
  0.4173764885219478  0.2093367987986443  0.4001136892651923
  0.4185043686057024  0.3358925191854507  0.4016247441787056
  0.4151341336379495  0.7071233105088965  0.4003728316375059
  0.4161845934861089  0.8328915936254181  0.3997839646445229
  0.4166454460036753  0.9583789267332002  0.3997382666334648
  0.5416265601940594  0.0828031900604743  0.3996714438208382
  0.5420365810838005  0.2080529887351445  0.3998757135362075
  0.5426976496104144  0.3331934711455249  0.4014937429769781
  0.5442759178232331  0.4576144219531906  0.4030545892551150
  0.5435677804137929  0.5807040884634743  0.4009520945303741
  0.5388067258075583  0.7044609432543404  0.4002549822771740
  0.5405756610621995  0.8315844144405933  0.3999447026020749
  0.5412808871357938  0.9573889901020776  0.3999061969218180
  0.6663382936653065  0.0824121407601222  0.3999486408833829
  0.6667179389372189  0.2076980879224295  0.3997082972582003
  0.6672237956169470  0.3328645949699638  0.4002355014288680
  0.6685210441412908  0.4581899555906559  0.4017014850033054
  0.6692203952823641  0.5835518985012960  0.4013809991805273
  0.6659131804866972  0.7067550476206256  0.3995385814718255
  0.6651164464176468  0.8312442091977442  0.3997400781749552
  0.6659028374723406  0.9570144760717382  0.4000249182774347
  0.7911705390671521  0.0824719281369117  0.3999433735730228
  0.7914276665383860  0.2076641943090408  0.3999202833109484
  0.7918656910803102  0.3329486961367980  0.3996817840065062
  0.7925430204304483  0.4582828064381417  0.3998714466137854
  0.7929747113379398  0.5834769982766963  0.4003163831150574
  0.7924164268075349  0.7086294162551402  0.3999453940254060
  0.7912000649908040  0.8327144824427359  0.3997361571688927
  0.7908564825302129  0.9572902333938044  0.3999218703109856
  0.9163481506912883  0.0830251159330448  0.3997282298372914
  0.9162920635349099  0.2078977332888089  0.3996635433879743
  0.9164114608212055  0.3330394539004281  0.3995548952356496
  0.9167476519168538  0.4582829705635288  0.3994417034089461
  0.9172251147904903  0.5836420428163067  0.3996040180849810
  0.9172475391021491  0.7089122998117577  0.3997407827870402
  0.9170270722260843  0.8338441147618700  0.3997523439867812
  0.9165939477923377  0.9584281078040670  0.3998126103445691
  0.0839345635617680  0.0428277103698514  0.3997097442095570
  0.0838596926795158  0.1676677154685561  0.3997402921278239
  0.0830706240901349  0.2920319555954072  0.4001937898314706
  0.0824311173912114  0.4168081458287582  0.4002755340262206
  0.0826171397547299  0.5419168679653000  0.3997072475437206
  0.0831858107336640  0.6672060341286855  0.3995931340044753
  0.0836156993801525  0.7925255692226074  0.3998750711995708
  0.0837951892463045  0.9177084295043239  0.3999062140742504
  0.2089477586876818  0.0430327476461730  0.3997847330309389
  0.2092272224154322  0.1685299342323504  0.3999521148204467
  0.2094576953556836  0.2938810447824659  0.4005111230268661
  0.2071453087484742  0.4176454324033645  0.4019774266493309
  0.2066676505375377  0.5420356883175445  0.4012115750039708
  0.2076704674542977  0.6672613164545581  0.3999591475913165
  0.2083242677645385  0.7924678743271834  0.3996812091637386
  0.2086986623141601  0.9177140823510649  0.3998534652589179
  0.3336877293993716  0.0426760738670733  0.3997248702413647
  0.3341856482126392  0.1683058618833285  0.4000226030948774
  0.3348285506016183  0.2943475309909838  0.4010943665537470
  0.3335790362798403  0.4205403957989883  0.4031517469190852
  0.3315940897504816  0.5441548426882277  0.4027556486589969
  0.3320808960628861  0.6673457619835801  0.4007493201473530
  0.3329963784772126  0.7922219546942028  0.3997961494160180
  0.3334207290746621  0.9173532483545935  0.3996904369327039
  0.4584362482663152  0.0417551817702988  0.3996883941184023
  0.4587625959767664  0.1671489502652265  0.3998263955039099
  0.4593775591861586  0.2928698488060714  0.4008569422483031
  0.4620763764445167  0.4187125480886636  0.4042077641402632
  0.4547910616787921  0.6630481272901838  0.4012242486937673
  0.4575102054330366  0.7906720019323791  0.3998638500818224
  0.4580231834664699  0.9162962455020000  0.3997951094516041
  0.5831052732261385  0.0408870918506887  0.3998380722586806
  0.5834681870122749  0.1662174465232013  0.3996470416760564
  0.5840331848773904  0.2913312357342771  0.4005102309629062
  0.5855347272242227  0.4162987164550107  0.4026303007312185
  0.5867117547205477  0.5420304798655221  0.4016733343278411
  0.5815533589245048  0.6631017769233348  0.3997423490541123
  0.5810818740295555  0.7884639825077315  0.3998926453165704
  0.5825867698376866  0.9152627609027966  0.3999980006949291
  0.7077822324538293  0.0405568162365664  0.4000145382680525
  0.7081776902074403  0.1659295633217418  0.3998917967222025
  0.7086003454209645  0.2911653684099573  0.3997681615000925
  0.7094959216318528  0.4164874787893218  0.4005050723586789
  0.7103184711340415  0.5417325278802763  0.4014006076718007
  0.7090760537076544  0.6666196602219098  0.4001747752110950
  0.7074493560524878  0.7902937725252073  0.3995860654464775
  0.7071992015013923  0.9149687794561997  0.3999379998155286
  0.8328035017585336  0.0408791406754195  0.3998714862143535
  0.8329351101641334  0.1659762717675439  0.3998585233309043
  0.8332393261385651  0.2912351757358124  0.3997184028612458
  0.8337097782686662  0.4164706049583628  0.3995991829027949
  0.8342205985933281  0.5417541535483206  0.3998494406535987
  0.8341150960878010  0.6671137837409574  0.3999654287738122
  0.8336283422004956  0.7918633137098386  0.3997499849336198
  0.8329666608120337  0.9161794163363655  0.3998527839882114
  0.9584082881294298  0.0418962208121667  0.3997375358813838
  0.9581280276474696  0.1665219018435533  0.3996486245556453
  0.9579326898882089  0.2913782487646271  0.3996300118269004
  0.9579850143299969  0.4165342267115427  0.3994483427090300
  0.9584447230597043  0.5418994212314271  0.3994719329485987
  0.9587323259458915  0.6671833015715818  0.3996980078777557
  0.9587725685371846  0.7923782964106794  0.3997750632683057
  0.9586687679726892  0.9172796669086020  0.3997648922889669
  0.4114453749040315  0.5823028742304797  0.4036180588468307
 
  0.00000000E+00  0.00000000E+00  0.00000000E+00
  0.00000000E+00  0.00000000E+00  0.00000000E+00
  0.00000000E+00  0.00000000E+00  0.00000000E+00
  0.00000000E+00  0.00000000E+00  0.00000000E+00
  0.00000000E+00  0.00000000E+00  0.00000000E+00
  0.00000000E+00  0.00000000E+00  0.00000000E+00
  0.00000000E+00  0.00000000E+00  0.00000000E+00
  0.00000000E+00  0.00000000E+00  0.00000000E+00
  0.00000000E+00  0.00000000E+00  0.00000000E+00
  0.00000000E+00  0.00000000E+00  0.00000000E+00
  0.00000000E+00  0.00000000E+00  0.00000000E+00
  0.00000000E+00  0.00000000E+00  0.00000000E+00
  0.00000000E+00  0.00000000E+00  0.00000000E+00
  0.00000000E+00  0.00000000E+00  0.00000000E+00
  0.00000000E+00  0.00000000E+00  0.00000000E+00
  0.00000000E+00  0.00000000E+00  0.00000000E+00
  0.00000000E+00  0.00000000E+00  0.00000000E+00
  0.00000000E+00  0.00000000E+00  0.00000000E+00
  0.00000000E+00  0.00000000E+00  0.00000000E+00
  0.00000000E+00  0.00000000E+00  0.00000000E+00
  0.00000000E+00  0.00000000E+00  0.00000000E+00
  0.00000000E+00  0.00000000E+00  0.00000000E+00
  0.00000000E+00  0.00000000E+00  0.00000000E+00
  0.00000000E+00  0.00000000E+00  0.00000000E+00
  0.00000000E+00  0.00000000E+00  0.00000000E+00
  0.00000000E+00  0.00000000E+00  0.00000000E+00
  0.00000000E+00  0.00000000E+00  0.00000000E+00
  0.00000000E+00  0.00000000E+00  0.00000000E+00
  0.00000000E+00  0.00000000E+00  0.00000000E+00
  0.00000000E+00  0.00000000E+00  0.00000000E+00
  0.00000000E+00  0.00000000E+00  0.00000000E+00
  0.00000000E+00  0.00000000E+00  0.00000000E+00
  0.00000000E+00  0.00000000E+00  0.00000000E+00
  0.00000000E+00  0.00000000E+00  0.00000000E+00
  0.00000000E+00  0.00000000E+00  0.00000000E+00
  0.00000000E+00  0.00000000E+00  0.00000000E+00
  0.00000000E+00  0.00000000E+00  0.00000000E+00
  0.00000000E+00  0.00000000E+00  0.00000000E+00
  0.00000000E+00  0.00000000E+00  0.00000000E+00
  0.00000000E+00  0.00000000E+00  0.00000000E+00
  0.00000000E+00  0.00000000E+00  0.00000000E+00
  0.00000000E+00  0.00000000E+00  0.00000000E+00
  0.00000000E+00  0.00000000E+00  0.00000000E+00
  0.00000000E+00  0.00000000E+00  0.00000000E+00
  0.00000000E+00  0.00000000E+00  0.00000000E+00
  0.00000000E+00  0.00000000E+00  0.00000000E+00
  0.00000000E+00  0.00000000E+00  0.00000000E+00
  0.00000000E+00  0.00000000E+00  0.00000000E+00
  0.00000000E+00  0.00000000E+00  0.00000000E+00
  0.00000000E+00  0.00000000E+00  0.00000000E+00
  0.00000000E+00  0.00000000E+00  0.00000000E+00
  0.00000000E+00  0.00000000E+00  0.00000000E+00
  0.00000000E+00  0.00000000E+00  0.00000000E+00
  0.00000000E+00  0.00000000E+00  0.00000000E+00
  0.00000000E+00  0.00000000E+00  0.00000000E+00
  0.00000000E+00  0.00000000E+00  0.00000000E+00
  0.00000000E+00  0.00000000E+00  0.00000000E+00
  0.00000000E+00  0.00000000E+00  0.00000000E+00
  0.00000000E+00  0.00000000E+00  0.00000000E+00
  0.00000000E+00  0.00000000E+00  0.00000000E+00
  0.00000000E+00  0.00000000E+00  0.00000000E+00
  0.00000000E+00  0.00000000E+00  0.00000000E+00
  0.00000000E+00  0.00000000E+00  0.00000000E+00
  0.00000000E+00  0.00000000E+00  0.00000000E+00
  0.00000000E+00  0.00000000E+00  0.00000000E+00
  0.00000000E+00  0.00000000E+00  0.00000000E+00
  0.00000000E+00  0.00000000E+00  0.00000000E+00
  0.00000000E+00  0.00000000E+00  0.00000000E+00
  0.00000000E+00  0.00000000E+00  0.00000000E+00
  0.00000000E+00  0.00000000E+00  0.00000000E+00
  0.00000000E+00  0.00000000E+00  0.00000000E+00
  0.00000000E+00  0.00000000E+00  0.00000000E+00
  0.00000000E+00  0.00000000E+00  0.00000000E+00
  0.00000000E+00  0.00000000E+00  0.00000000E+00
  0.00000000E+00  0.00000000E+00  0.00000000E+00
  0.00000000E+00  0.00000000E+00  0.00000000E+00
  0.00000000E+00  0.00000000E+00  0.00000000E+00
  0.00000000E+00  0.00000000E+00  0.00000000E+00
  0.00000000E+00  0.00000000E+00  0.00000000E+00
  0.00000000E+00  0.00000000E+00  0.00000000E+00
  0.00000000E+00  0.00000000E+00  0.00000000E+00
  0.00000000E+00  0.00000000E+00  0.00000000E+00
  0.00000000E+00  0.00000000E+00  0.00000000E+00
  0.00000000E+00  0.00000000E+00  0.00000000E+00
  0.00000000E+00  0.00000000E+00  0.00000000E+00
  0.00000000E+00  0.00000000E+00  0.00000000E+00
  0.00000000E+00  0.00000000E+00  0.00000000E+00
  0.00000000E+00  0.00000000E+00  0.00000000E+00
  0.00000000E+00  0.00000000E+00  0.00000000E+00
  0.00000000E+00  0.00000000E+00  0.00000000E+00
  0.00000000E+00  0.00000000E+00  0.00000000E+00
  0.00000000E+00  0.00000000E+00  0.00000000E+00
  0.00000000E+00  0.00000000E+00  0.00000000E+00
  0.00000000E+00  0.00000000E+00  0.00000000E+00
  0.00000000E+00  0.00000000E+00  0.00000000E+00
  0.00000000E+00  0.00000000E+00  0.00000000E+00
  0.00000000E+00  0.00000000E+00  0.00000000E+00
  0.00000000E+00  0.00000000E+00  0.00000000E+00
  0.00000000E+00  0.00000000E+00  0.00000000E+00
  0.00000000E+00  0.00000000E+00  0.00000000E+00
  0.00000000E+00  0.00000000E+00  0.00000000E+00
  0.00000000E+00  0.00000000E+00  0.00000000E+00
  0.00000000E+00  0.00000000E+00  0.00000000E+00
  0.00000000E+00  0.00000000E+00  0.00000000E+00
  0.00000000E+00  0.00000000E+00  0.00000000E+00
  0.00000000E+00  0.00000000E+00  0.00000000E+00
  0.00000000E+00  0.00000000E+00  0.00000000E+00
  0.00000000E+00  0.00000000E+00  0.00000000E+00
  0.00000000E+00  0.00000000E+00  0.00000000E+00
  0.00000000E+00  0.00000000E+00  0.00000000E+00
  0.00000000E+00  0.00000000E+00  0.00000000E+00
  0.00000000E+00  0.00000000E+00  0.00000000E+00
  0.00000000E+00  0.00000000E+00  0.00000000E+00
  0.00000000E+00  0.00000000E+00  0.00000000E+00
  0.00000000E+00  0.00000000E+00  0.00000000E+00
  0.00000000E+00  0.00000000E+00  0.00000000E+00
  0.00000000E+00  0.00000000E+00  0.00000000E+00
  0.00000000E+00  0.00000000E+00  0.00000000E+00
  0.00000000E+00  0.00000000E+00  0.00000000E+00
  0.00000000E+00  0.00000000E+00  0.00000000E+00
  0.00000000E+00  0.00000000E+00  0.00000000E+00
  0.00000000E+00  0.00000000E+00  0.00000000E+00
  0.00000000E+00  0.00000000E+00  0.00000000E+00
  0.00000000E+00  0.00000000E+00  0.00000000E+00
  0.00000000E+00  0.00000000E+00  0.00000000E+00
  0.00000000E+00  0.00000000E+00  0.00000000E+00
  0.00000000E+00  0.00000000E+00  0.00000000E+00
  0.00000000E+00  0.00000000E+00  0.00000000E+00
