H1 Au1 C122 N4                          
   1.00000000000000     
    19.7848388354796043   -0.0033055480382206    0.0566007016228053
    -9.8955998391211946   17.0319306490095244   -0.1394793893991498
     0.0854466642966132   -0.1946550060684049   29.8655041277907003
   H    Au   C    N 
     1     1   122     4
Direct
  0.4738041724311987  0.5244156298139420  0.5045726434890210
  0.4260792440552007  0.4881225969048189  0.4603052323446704
  0.0422902444318901  0.0843588472867001  0.3996387093353210
  0.0413882550881522  0.2084451403282791  0.3991572909134200
  0.0408673660165004  0.3331538551484820  0.3984664864527824
  0.0409983979016390  0.4584197163973059  0.3986775905829307
  0.0414395649580981  0.5838011392124098  0.3995934303348972
  0.0420603284719320  0.7091914679131043  0.3999084486392444
  0.0424726943193866  0.8345854674292417  0.3999180771343492
  0.0426943224686645  0.9598059971165782  0.3999410155569389
  0.1683383210203817  0.0861149253100493  0.4004207397546096
  0.1677105663016443  0.2104445818469130  0.4001340577382523
  0.1658574882762464  0.3339971145748584  0.3993672024966616
  0.1653122520013915  0.4585684086150565  0.3971320912229043
  0.1656637562293494  0.5836257168309910  0.3984426838241328
  0.1664932657128987  0.7091143036553222  0.3997770897604505
  0.1671427958511663  0.8346153020159709  0.3999007321304472
  0.1677003222402220  0.9602775880165486  0.3999760325408376
  0.2929036174641808  0.0860899614134339  0.4003657086296069
  0.2944844708340797  0.2139481997388548  0.4017154425116222
  0.2925154913255635  0.3391205052875684  0.4051567141299416
  0.2895521532414755  0.4575269792333508  0.4030772643308800
  0.2895941102265090  0.5833484916508445  0.3988592002779613
  0.2907445097361062  0.7086730853401210  0.3993820062879653
  0.2917103808038604  0.8341131290071048  0.4000221724301851
  0.2922712393508966  0.9598285180877887  0.3999736383598921
  0.4172752889487445  0.0842592477043716  0.4000599875007201
  0.4178819028869079  0.2101972532574785  0.4006089999775458
  0.4216264425521304  0.3388705457240766  0.4006659428752318
  0.4147690880268642  0.7065882275991081  0.4000062045145830
  0.4162221232913230  0.8326927067608448  0.4000107359527159
  0.4168049441516306  0.9584670872553168  0.4000340390579414
  0.5417586410299980  0.0827678930303950  0.3999549558880240
  0.5422751106425592  0.2084354440438715  0.4000083674385428
  0.5431570462662130  0.3339139082044371  0.3995524154290134
  0.5417345969204554  0.4568423216495615  0.3969470361540586
  0.5383031778758578  0.7017285372626073  0.3999543841798762
  0.5403112668091160  0.8302075478500103  0.4002522619780777
  0.5412796503525533  0.9568212647580236  0.4002108337565006
  0.6662795354477054  0.0820756290305902  0.4001024665445689
  0.6667479190318001  0.2077044035161740  0.3998309072640982
  0.6673428120712731  0.3331342611517472  0.3997045502100695
  0.6680639516235201  0.4584473016437859  0.3990137622151432
  0.6680995637079900  0.5830522981400873  0.3983510345341388
  0.6665481487217393  0.7064235351279270  0.3995131218353754
  0.6649012133300692  0.8301795838856534  0.4001491434623486
  0.6657403407167867  0.9562802609299428  0.4003560037512051
  0.7910387869737388  0.0820551171367812  0.4002015389515464
  0.7913258566417610  0.2074476032107986  0.3999733931437831
  0.7917825945590249  0.3329442477676146  0.3998588923895536
  0.7923055495828777  0.4583964911594323  0.3996756093579531
  0.7926338055886657  0.5835113791202788  0.3994599141040913
  0.7926577614534942  0.7084620627195214  0.3998020237464388
  0.7914313418717376  0.8325680729490439  0.4002809059720701
  0.7907170812474932  0.9567926418723318  0.4003483749591496
  0.9162704520640395  0.0827689269537727  0.3998518152785080
  0.9161570279501641  0.2077138466100361  0.3996680608122445
  0.9162577870566623  0.3329762451074272  0.3996072766121289
  0.9166248845132786  0.4583372537614371  0.3998147218835456
  0.9171525196979838  0.5837700093471704  0.3998129792918145
  0.9174759511560974  0.7090434714304664  0.3999143408410370
  0.9173511095124612  0.8339982691808572  0.4001981941784483
  0.9168377024042940  0.9584290495587964  0.4001234235696370
  0.0846396541473591  0.0435293080895693  0.3999392846811169
  0.0839886262896474  0.1678534722105440  0.3993567855733021
  0.0825594593210355  0.2917902537944198  0.3987788707081161
  0.0824241800286366  0.4167415975771677  0.3978085663072212
  0.0826252138933374  0.5419247468245953  0.3988430051357911
  0.0833428170289445  0.6673884431591981  0.3998080394548808
  0.0839389296805251  0.7928821285262427  0.3998933270597067
  0.0843064536445212  0.9182449024456222  0.3999186667238979
  0.2095750221458633  0.0440041147519491  0.4003130620696555
  0.2103369157706816  0.1701022469362721  0.4010121458386713
  0.2088646651265970  0.2941057003860301  0.4009530022193556
  0.2069123944775434  0.4171212362567321  0.3983311506616738
  0.2067551111471639  0.5418896430493010  0.3977275300121952
  0.2077520176592205  0.6672839655427224  0.3992493770468624
  0.2085054676402204  0.7926739998726857  0.3999717089795826
  0.2090669899400415  0.9182776469630758  0.3998980792959608
  0.3340598315802986  0.0435205416437394  0.4000875314124228
  0.3348650715382372  0.1700507740729882  0.4008096847549953
  0.3367711808681821  0.2984631852016426  0.4031594171782338
  0.3327137279679588  0.5436918257888862  0.4015659808325736
  0.3318789990235959  0.6665337686343824  0.3993148194121470
  0.3329869220775935  0.7920071085857174  0.3998717823943607
  0.3336125426452620  0.9176266579240593  0.4000396431875274
  0.4585718937243786  0.0419284391829940  0.3999612450098283
  0.4590483619307046  0.1676871713184563  0.4002331786616892
  0.4602268606388499  0.2936596600590533  0.4002900533537712
  0.4532155420697983  0.6611051657635421  0.4009182894869139
  0.4572697816975221  0.7900872065639587  0.4000328864553617
  0.4580764998251696  0.9161025404877640  0.4001100003104208
  0.5830853613485760  0.0405071063721010  0.4000902260181206
  0.5835773847934836  0.1663050186395165  0.3998962003199734
  0.5843436162179667  0.2917639211384084  0.3997883460094076
  0.5850306024896119  0.4170577694402480  0.3986718874869828
  0.5848565345418234  0.5432159720178186  0.3966371290571880
  0.5825425443277213  0.6608556730876805  0.3989546501501756
  0.5806152951466198  0.7862450631411699  0.4001195846106574
  0.5823623551310082  0.9141821209539851  0.4003202873486677
  0.7076340410397925  0.0400017407666737  0.4002740562123778
  0.7081242073687879  0.1657340392771633  0.3999363172729216
  0.7086572610325702  0.2912492499726466  0.3998120755967385
  0.7092575192675205  0.4167451826266000  0.3995196378705814
  0.7097422302285077  0.5417819194926727  0.3989342552691684
  0.7092786431984461  0.6662451986550142  0.3992230157455010
  0.7077082585921860  0.7899520200189016  0.4000915852573109
  0.7069701779122245  0.9141588013042682  0.4003375227761430
  0.8326742812023591  0.0404914789421216  0.4001980802565750
  0.8328246857736332  0.1657158229798503  0.4000186390563852
  0.8331403648020526  0.2911450489491028  0.3998936859951072
  0.8335849949936316  0.4165250796443891  0.3998390705677925
  0.8340613303447689  0.5418911863800384  0.3996482194178051
  0.8343040035318442  0.6671605447334613  0.3997239276524486
  0.8338984519429926  0.7918153458670576  0.4001948408277018
  0.8331570697318856  0.9160217944604209  0.4003117638831127
  0.9586094639599068  0.0419382037517826  0.3998295899462082
  0.9579720889450664  0.1663096705665357  0.3995050542358459
  0.9577258013381506  0.2912720440108095  0.3992572420065074
  0.9578846351684641  0.4165342726634254  0.3994837734314217
  0.9584005298226745  0.5419908077986628  0.3998141566717594
  0.9589228819128404  0.6673629694748581  0.3998551646469609
  0.9591160268605522  0.7926048615964191  0.4000360393388020
  0.9591080861788722  0.9175433297209740  0.4001029835581608
  0.4107829973013220  0.5817552229470854  0.4029570081406643
  0.5450991689509168  0.5814734536100649  0.3968184677371648
  0.3284470036826851  0.4189829510182544  0.4110982948856096
  0.4634206599520106  0.4183080477791309  0.3979897857021668
 
  0.00000000E+00  0.00000000E+00  0.00000000E+00
  0.00000000E+00  0.00000000E+00  0.00000000E+00
  0.00000000E+00  0.00000000E+00  0.00000000E+00
  0.00000000E+00  0.00000000E+00  0.00000000E+00
  0.00000000E+00  0.00000000E+00  0.00000000E+00
  0.00000000E+00  0.00000000E+00  0.00000000E+00
  0.00000000E+00  0.00000000E+00  0.00000000E+00
  0.00000000E+00  0.00000000E+00  0.00000000E+00
  0.00000000E+00  0.00000000E+00  0.00000000E+00
  0.00000000E+00  0.00000000E+00  0.00000000E+00
  0.00000000E+00  0.00000000E+00  0.00000000E+00
  0.00000000E+00  0.00000000E+00  0.00000000E+00
  0.00000000E+00  0.00000000E+00  0.00000000E+00
  0.00000000E+00  0.00000000E+00  0.00000000E+00
  0.00000000E+00  0.00000000E+00  0.00000000E+00
  0.00000000E+00  0.00000000E+00  0.00000000E+00
  0.00000000E+00  0.00000000E+00  0.00000000E+00
  0.00000000E+00  0.00000000E+00  0.00000000E+00
  0.00000000E+00  0.00000000E+00  0.00000000E+00
  0.00000000E+00  0.00000000E+00  0.00000000E+00
  0.00000000E+00  0.00000000E+00  0.00000000E+00
  0.00000000E+00  0.00000000E+00  0.00000000E+00
  0.00000000E+00  0.00000000E+00  0.00000000E+00
  0.00000000E+00  0.00000000E+00  0.00000000E+00
  0.00000000E+00  0.00000000E+00  0.00000000E+00
  0.00000000E+00  0.00000000E+00  0.00000000E+00
  0.00000000E+00  0.00000000E+00  0.00000000E+00
  0.00000000E+00  0.00000000E+00  0.00000000E+00
  0.00000000E+00  0.00000000E+00  0.00000000E+00
  0.00000000E+00  0.00000000E+00  0.00000000E+00
  0.00000000E+00  0.00000000E+00  0.00000000E+00
  0.00000000E+00  0.00000000E+00  0.00000000E+00
  0.00000000E+00  0.00000000E+00  0.00000000E+00
  0.00000000E+00  0.00000000E+00  0.00000000E+00
  0.00000000E+00  0.00000000E+00  0.00000000E+00
  0.00000000E+00  0.00000000E+00  0.00000000E+00
  0.00000000E+00  0.00000000E+00  0.00000000E+00
  0.00000000E+00  0.00000000E+00  0.00000000E+00
  0.00000000E+00  0.00000000E+00  0.00000000E+00
  0.00000000E+00  0.00000000E+00  0.00000000E+00
  0.00000000E+00  0.00000000E+00  0.00000000E+00
  0.00000000E+00  0.00000000E+00  0.00000000E+00
  0.00000000E+00  0.00000000E+00  0.00000000E+00
  0.00000000E+00  0.00000000E+00  0.00000000E+00
  0.00000000E+00  0.00000000E+00  0.00000000E+00
  0.00000000E+00  0.00000000E+00  0.00000000E+00
  0.00000000E+00  0.00000000E+00  0.00000000E+00
  0.00000000E+00  0.00000000E+00  0.00000000E+00
  0.00000000E+00  0.00000000E+00  0.00000000E+00
  0.00000000E+00  0.00000000E+00  0.00000000E+00
  0.00000000E+00  0.00000000E+00  0.00000000E+00
  0.00000000E+00  0.00000000E+00  0.00000000E+00
  0.00000000E+00  0.00000000E+00  0.00000000E+00
  0.00000000E+00  0.00000000E+00  0.00000000E+00
  0.00000000E+00  0.00000000E+00  0.00000000E+00
  0.00000000E+00  0.00000000E+00  0.00000000E+00
  0.00000000E+00  0.00000000E+00  0.00000000E+00
  0.00000000E+00  0.00000000E+00  0.00000000E+00
  0.00000000E+00  0.00000000E+00  0.00000000E+00
  0.00000000E+00  0.00000000E+00  0.00000000E+00
  0.00000000E+00  0.00000000E+00  0.00000000E+00
  0.00000000E+00  0.00000000E+00  0.00000000E+00
  0.00000000E+00  0.00000000E+00  0.00000000E+00
  0.00000000E+00  0.00000000E+00  0.00000000E+00
  0.00000000E+00  0.00000000E+00  0.00000000E+00
  0.00000000E+00  0.00000000E+00  0.00000000E+00
  0.00000000E+00  0.00000000E+00  0.00000000E+00
  0.00000000E+00  0.00000000E+00  0.00000000E+00
  0.00000000E+00  0.00000000E+00  0.00000000E+00
  0.00000000E+00  0.00000000E+00  0.00000000E+00
  0.00000000E+00  0.00000000E+00  0.00000000E+00
  0.00000000E+00  0.00000000E+00  0.00000000E+00
  0.00000000E+00  0.00000000E+00  0.00000000E+00
  0.00000000E+00  0.00000000E+00  0.00000000E+00
  0.00000000E+00  0.00000000E+00  0.00000000E+00
  0.00000000E+00  0.00000000E+00  0.00000000E+00
  0.00000000E+00  0.00000000E+00  0.00000000E+00
  0.00000000E+00  0.00000000E+00  0.00000000E+00
  0.00000000E+00  0.00000000E+00  0.00000000E+00
  0.00000000E+00  0.00000000E+00  0.00000000E+00
  0.00000000E+00  0.00000000E+00  0.00000000E+00
  0.00000000E+00  0.00000000E+00  0.00000000E+00
  0.00000000E+00  0.00000000E+00  0.00000000E+00
  0.00000000E+00  0.00000000E+00  0.00000000E+00
  0.00000000E+00  0.00000000E+00  0.00000000E+00
  0.00000000E+00  0.00000000E+00  0.00000000E+00
  0.00000000E+00  0.00000000E+00  0.00000000E+00
  0.00000000E+00  0.00000000E+00  0.00000000E+00
  0.00000000E+00  0.00000000E+00  0.00000000E+00
  0.00000000E+00  0.00000000E+00  0.00000000E+00
  0.00000000E+00  0.00000000E+00  0.00000000E+00
  0.00000000E+00  0.00000000E+00  0.00000000E+00
  0.00000000E+00  0.00000000E+00  0.00000000E+00
  0.00000000E+00  0.00000000E+00  0.00000000E+00
  0.00000000E+00  0.00000000E+00  0.00000000E+00
  0.00000000E+00  0.00000000E+00  0.00000000E+00
  0.00000000E+00  0.00000000E+00  0.00000000E+00
  0.00000000E+00  0.00000000E+00  0.00000000E+00
  0.00000000E+00  0.00000000E+00  0.00000000E+00
  0.00000000E+00  0.00000000E+00  0.00000000E+00
  0.00000000E+00  0.00000000E+00  0.00000000E+00
  0.00000000E+00  0.00000000E+00  0.00000000E+00
  0.00000000E+00  0.00000000E+00  0.00000000E+00
  0.00000000E+00  0.00000000E+00  0.00000000E+00
  0.00000000E+00  0.00000000E+00  0.00000000E+00
  0.00000000E+00  0.00000000E+00  0.00000000E+00
  0.00000000E+00  0.00000000E+00  0.00000000E+00
  0.00000000E+00  0.00000000E+00  0.00000000E+00
  0.00000000E+00  0.00000000E+00  0.00000000E+00
  0.00000000E+00  0.00000000E+00  0.00000000E+00
  0.00000000E+00  0.00000000E+00  0.00000000E+00
  0.00000000E+00  0.00000000E+00  0.00000000E+00
  0.00000000E+00  0.00000000E+00  0.00000000E+00
  0.00000000E+00  0.00000000E+00  0.00000000E+00
  0.00000000E+00  0.00000000E+00  0.00000000E+00
  0.00000000E+00  0.00000000E+00  0.00000000E+00
  0.00000000E+00  0.00000000E+00  0.00000000E+00
  0.00000000E+00  0.00000000E+00  0.00000000E+00
  0.00000000E+00  0.00000000E+00  0.00000000E+00
  0.00000000E+00  0.00000000E+00  0.00000000E+00
  0.00000000E+00  0.00000000E+00  0.00000000E+00
  0.00000000E+00  0.00000000E+00  0.00000000E+00
  0.00000000E+00  0.00000000E+00  0.00000000E+00
  0.00000000E+00  0.00000000E+00  0.00000000E+00
  0.00000000E+00  0.00000000E+00  0.00000000E+00
  0.00000000E+00  0.00000000E+00  0.00000000E+00
  0.00000000E+00  0.00000000E+00  0.00000000E+00
  0.00000000E+00  0.00000000E+00  0.00000000E+00
