Fe1 C125 N1 O1                          
   1.00000000000000     
    19.7909865002556415   -0.0107359120862918    0.0232722962004928
    -9.9051300546246086   17.0449214068752362   -0.0948035984969409
     0.0348012291412893   -0.1466700703600373   29.8392258020383103
   Fe   C    N    O 
     1   125     1     1
Direct
  0.4373091042001754  0.5007992630921282  0.4258353873753002
  0.0421364390620085  0.0841960533817085  0.3997482654939419
  0.0415871417232392  0.2085577165196825  0.3994477419708055
  0.0411217154719828  0.3331244175496790  0.3990771043786797
  0.0410578333378048  0.4583744074744289  0.3990700105413416
  0.0415076316978157  0.5836906946501097  0.3991600414443202
  0.0418699380880538  0.7088980834859556  0.3992297672704417
  0.0421144886895361  0.8342274031906679  0.3994363024440045
  0.0422138813510548  0.9593350503136585  0.3997157465865975
  0.1676938781504552  0.0853119290333906  0.4004823043173734
  0.1679087995662903  0.2105136675199533  0.4006608925306913
  0.1665997644377692  0.3343031150953050  0.3998202453074341
  0.1652216575782250  0.4586218681264345  0.3989556702607249
  0.1657026710459075  0.5836546845122513  0.3991641336989936
  0.1664455659123523  0.7089709146026891  0.3994296806047333
  0.1669531593820614  0.8343167704980387  0.3996723579301553
  0.1673439824791310  0.9597673063690382  0.4000472483815845
  0.2926071777204099  0.0852796773261746  0.4007292671739813
  0.2934985827863845  0.2118312855935097  0.4025664366884102
  0.2942987065823333  0.3383574726228633  0.4036642657086597
  0.2899232639862543  0.4596402289446693  0.4010547864486240
  0.2896649455858135  0.5841779601085036  0.3998865335698132
  0.2909315414315415  0.7089825516606779  0.3997460883706250
  0.2916676226673536  0.8340448570291844  0.3997177877118225
  0.2920272749787023  0.9594321001816878  0.3999474082443603
  0.4170725174674962  0.0841574301189217  0.3999527307482042
  0.4176408059016720  0.2102149908830163  0.4014475279382093
  0.4193428222968806  0.3379626102956864  0.4053859549696160
  0.4149895156292046  0.7064813105018356  0.4011067552415998
  0.4162202455384694  0.8326946704071753  0.4002056228163689
  0.4166904017981826  0.9584285731395565  0.3997421463113418
  0.5416521399705790  0.0828388269743808  0.3995957801417054
  0.5421002823606615  0.2082027911438356  0.3998535104307607
  0.5428414519444917  0.3333602122903881  0.4012454850975076
  0.5451115195013756  0.4579319694428684  0.4039747642845656
  0.5428524473250239  0.5787106032089956  0.4061952674292345
  0.5383084559317979  0.7034495754925083  0.4031491094064348
  0.5404458981438877  0.8311451939511976  0.4012367570227703
  0.5412904977834611  0.9572528297610594  0.4001602313804796
  0.6663153817090151  0.0823129184735857  0.3998749105451126
  0.6667083776522642  0.2076676197869366  0.3993918974643672
  0.6672285594965219  0.3328353994814673  0.3994034540477427
  0.6686235506807138  0.4581506359463094  0.3996772886699101
  0.6692291702117413  0.5834377551362592  0.4004127158022333
  0.6651242163269805  0.7057762901639761  0.4013222870610366
  0.6647720459641664  0.8307092202756603  0.4014174864023109
  0.6657954866533270  0.9567545070598141  0.4007584813593376
  0.7911084913959096  0.0822993601214747  0.3999961136913768
  0.7914056066328643  0.2075588898731696  0.3995772179321929
  0.7918413297916246  0.3328894080725067  0.3991594240128107
  0.7925479684031398  0.4582584329426143  0.3989659088658006
  0.7929674489079441  0.5834401384794524  0.3990886442306338
  0.7922900302185508  0.7085114271386571  0.3996310227327267
  0.7908169792282943  0.8322695687149465  0.4002585743114125
  0.7906438997030094  0.9569838360666981  0.4004291389311451
  0.9162582696035069  0.0828487028962337  0.3996787852680829
  0.9162832356728137  0.2078002418425179  0.3994972287207751
  0.9164001953069936  0.3329737865756524  0.3993324399312190
  0.9167286978590828  0.4582191294643941  0.3990785726688605
  0.9172328960084730  0.5836201390139183  0.3989732515679413
  0.9172205547564481  0.7088608035695529  0.3991386697533428
  0.9169737479549628  0.8337550545690141  0.3995244514795140
  0.9164571362730888  0.9582283188685742  0.3997678517602919
  0.0841289138754519  0.0429766201493869  0.3999344367551936
  0.0840662860030622  0.1678129325207230  0.3998092747829016
  0.0830497186850202  0.2919182828188116  0.3993032098385427
  0.0824019224739821  0.4167056424436859  0.3989151050635669
  0.0826974227996745  0.5418881328683327  0.3990866366249890
  0.0832556606576654  0.6672088740109579  0.3992735323006136
  0.0836772511616226  0.7925577402364520  0.3994302983446069
  0.0839039271921859  0.9178091171397905  0.3997381800453801
  0.2091656103273953  0.0434037379244939  0.4004635819227785
  0.2096504080616734  0.1691245629194581  0.4012150483863666
  0.2098693954965890  0.2944803455645926  0.4010785248735420
  0.2069199906755663  0.4174969620784215  0.3994651758925569
  0.2066505936405296  0.5419169305687870  0.3991940632450418
  0.2077762360017041  0.6672687834485639  0.3994214543492652
  0.2084000253383854  0.7924977778738198  0.3996024555303387
  0.2087969931820012  0.9178689223439903  0.3999393080267651
  0.3338132684537226  0.0429918097921908  0.4001742143660681
  0.3344996883561520  0.1689956328608345  0.4016802306625566
  0.3354600301655434  0.2955642819987409  0.4046923121839250
  0.3333357323856119  0.4217070406763845  0.4048989129119113
  0.3313269818350049  0.5437178723386361  0.4009848910286201
  0.3320703660269975  0.6671541343510411  0.4001832636747807
  0.3330495174106931  0.7921688653704385  0.3998746179923719
  0.3334918713547974  0.9174561525937130  0.3997784204038091
  0.4584578695178076  0.0419191690720565  0.3996743498751868
  0.4588486785259032  0.1676593082465421  0.4002510521403294
  0.4597825932515029  0.2940047573014950  0.4025444962918841
  0.4639684256807566  0.4210271943596651  0.4081059741250171
  0.4543075599584815  0.6618460768150835  0.4026527758569584
  0.4574319452505485  0.7902306090219630  0.4008439437855094
  0.4580581292885405  0.9162153484682536  0.3999914947790325
  0.5830898981554538  0.0408227911501352  0.3998185690598376
  0.5834670262775823  0.1662421054330178  0.3995113013213547
  0.5840905752042458  0.2913908289402215  0.4000338905685957
  0.5856856059821912  0.4162678962827455  0.4011530117063448
  0.5870553076140453  0.5416579939600427  0.4032059914975056
  0.5803330427249394  0.6614443865549156  0.4035019361214645
  0.5807444116741882  0.7877773542419410  0.4019733561431979
  0.5824874257002898  0.9149653884066223  0.4007594781158199
  0.7077238132622908  0.0404053367894025  0.4002329011506115
  0.7081818385022262  0.1658847211603137  0.3995686275247183
  0.7085950498680302  0.2911329780465060  0.3992246887176867
  0.7095541227325471  0.4164518206062043  0.3992062485112810
  0.7103694330622915  0.5416121638687743  0.3995110871732250
  0.7089441933529778  0.6664247937045176  0.4003066138381894
  0.7068788626982376  0.7895915678761849  0.4009508137787289
  0.7069652735317745  0.9146020651958301  0.4009539945487418
  0.8326686301566146  0.0406731874481848  0.4000287468386566
  0.8329177027473753  0.1658833097117512  0.3996892244418520
  0.8332459106652974  0.2911996360920641  0.3993736559653197
  0.8337286731142163  0.4164457605034631  0.3990191296561053
  0.8342526834216599  0.5417498608952923  0.3989225056839403
  0.8340920566141836  0.6670972431443374  0.3992135623131828
  0.8335287003507085  0.7917265152122311  0.3997740489144292
  0.8327210818846882  0.9158691922404062  0.4001601690660535
  0.9583963306580738  0.0418320765454523  0.3996608968610185
  0.9580942426729372  0.1664075264853449  0.3994643978168385
  0.9579268903125183  0.2912967437007511  0.3992997772572126
  0.9580084132088932  0.4165029724082885  0.3991966561564909
  0.9585099325943628  0.5419078100261568  0.3990568128173584
  0.9587614387914950  0.6671737049145289  0.3990700419510240
  0.9587882467026831  0.7923540348725029  0.3993164036202385
  0.9586635114483837  0.9172151035676069  0.3996203111595685
  0.4108424329653881  0.5806915350246205  0.4030735768920742
  0.4373601823953649  0.4903063257851210  0.4780794018684694
 
  0.00000000E+00  0.00000000E+00  0.00000000E+00
  0.00000000E+00  0.00000000E+00  0.00000000E+00
  0.00000000E+00  0.00000000E+00  0.00000000E+00
  0.00000000E+00  0.00000000E+00  0.00000000E+00
  0.00000000E+00  0.00000000E+00  0.00000000E+00
  0.00000000E+00  0.00000000E+00  0.00000000E+00
  0.00000000E+00  0.00000000E+00  0.00000000E+00
  0.00000000E+00  0.00000000E+00  0.00000000E+00
  0.00000000E+00  0.00000000E+00  0.00000000E+00
  0.00000000E+00  0.00000000E+00  0.00000000E+00
  0.00000000E+00  0.00000000E+00  0.00000000E+00
  0.00000000E+00  0.00000000E+00  0.00000000E+00
  0.00000000E+00  0.00000000E+00  0.00000000E+00
  0.00000000E+00  0.00000000E+00  0.00000000E+00
  0.00000000E+00  0.00000000E+00  0.00000000E+00
  0.00000000E+00  0.00000000E+00  0.00000000E+00
  0.00000000E+00  0.00000000E+00  0.00000000E+00
  0.00000000E+00  0.00000000E+00  0.00000000E+00
  0.00000000E+00  0.00000000E+00  0.00000000E+00
  0.00000000E+00  0.00000000E+00  0.00000000E+00
  0.00000000E+00  0.00000000E+00  0.00000000E+00
  0.00000000E+00  0.00000000E+00  0.00000000E+00
  0.00000000E+00  0.00000000E+00  0.00000000E+00
  0.00000000E+00  0.00000000E+00  0.00000000E+00
  0.00000000E+00  0.00000000E+00  0.00000000E+00
  0.00000000E+00  0.00000000E+00  0.00000000E+00
  0.00000000E+00  0.00000000E+00  0.00000000E+00
  0.00000000E+00  0.00000000E+00  0.00000000E+00
  0.00000000E+00  0.00000000E+00  0.00000000E+00
  0.00000000E+00  0.00000000E+00  0.00000000E+00
  0.00000000E+00  0.00000000E+00  0.00000000E+00
  0.00000000E+00  0.00000000E+00  0.00000000E+00
  0.00000000E+00  0.00000000E+00  0.00000000E+00
  0.00000000E+00  0.00000000E+00  0.00000000E+00
  0.00000000E+00  0.00000000E+00  0.00000000E+00
  0.00000000E+00  0.00000000E+00  0.00000000E+00
  0.00000000E+00  0.00000000E+00  0.00000000E+00
  0.00000000E+00  0.00000000E+00  0.00000000E+00
  0.00000000E+00  0.00000000E+00  0.00000000E+00
  0.00000000E+00  0.00000000E+00  0.00000000E+00
  0.00000000E+00  0.00000000E+00  0.00000000E+00
  0.00000000E+00  0.00000000E+00  0.00000000E+00
  0.00000000E+00  0.00000000E+00  0.00000000E+00
  0.00000000E+00  0.00000000E+00  0.00000000E+00
  0.00000000E+00  0.00000000E+00  0.00000000E+00
  0.00000000E+00  0.00000000E+00  0.00000000E+00
  0.00000000E+00  0.00000000E+00  0.00000000E+00
  0.00000000E+00  0.00000000E+00  0.00000000E+00
  0.00000000E+00  0.00000000E+00  0.00000000E+00
  0.00000000E+00  0.00000000E+00  0.00000000E+00
  0.00000000E+00  0.00000000E+00  0.00000000E+00
  0.00000000E+00  0.00000000E+00  0.00000000E+00
  0.00000000E+00  0.00000000E+00  0.00000000E+00
  0.00000000E+00  0.00000000E+00  0.00000000E+00
  0.00000000E+00  0.00000000E+00  0.00000000E+00
  0.00000000E+00  0.00000000E+00  0.00000000E+00
  0.00000000E+00  0.00000000E+00  0.00000000E+00
  0.00000000E+00  0.00000000E+00  0.00000000E+00
  0.00000000E+00  0.00000000E+00  0.00000000E+00
  0.00000000E+00  0.00000000E+00  0.00000000E+00
  0.00000000E+00  0.00000000E+00  0.00000000E+00
  0.00000000E+00  0.00000000E+00  0.00000000E+00
  0.00000000E+00  0.00000000E+00  0.00000000E+00
  0.00000000E+00  0.00000000E+00  0.00000000E+00
  0.00000000E+00  0.00000000E+00  0.00000000E+00
  0.00000000E+00  0.00000000E+00  0.00000000E+00
  0.00000000E+00  0.00000000E+00  0.00000000E+00
  0.00000000E+00  0.00000000E+00  0.00000000E+00
  0.00000000E+00  0.00000000E+00  0.00000000E+00
  0.00000000E+00  0.00000000E+00  0.00000000E+00
  0.00000000E+00  0.00000000E+00  0.00000000E+00
  0.00000000E+00  0.00000000E+00  0.00000000E+00
  0.00000000E+00  0.00000000E+00  0.00000000E+00
  0.00000000E+00  0.00000000E+00  0.00000000E+00
  0.00000000E+00  0.00000000E+00  0.00000000E+00
  0.00000000E+00  0.00000000E+00  0.00000000E+00
  0.00000000E+00  0.00000000E+00  0.00000000E+00
  0.00000000E+00  0.00000000E+00  0.00000000E+00
  0.00000000E+00  0.00000000E+00  0.00000000E+00
  0.00000000E+00  0.00000000E+00  0.00000000E+00
  0.00000000E+00  0.00000000E+00  0.00000000E+00
  0.00000000E+00  0.00000000E+00  0.00000000E+00
  0.00000000E+00  0.00000000E+00  0.00000000E+00
  0.00000000E+00  0.00000000E+00  0.00000000E+00
  0.00000000E+00  0.00000000E+00  0.00000000E+00
  0.00000000E+00  0.00000000E+00  0.00000000E+00
  0.00000000E+00  0.00000000E+00  0.00000000E+00
  0.00000000E+00  0.00000000E+00  0.00000000E+00
  0.00000000E+00  0.00000000E+00  0.00000000E+00
  0.00000000E+00  0.00000000E+00  0.00000000E+00
  0.00000000E+00  0.00000000E+00  0.00000000E+00
  0.00000000E+00  0.00000000E+00  0.00000000E+00
  0.00000000E+00  0.00000000E+00  0.00000000E+00
  0.00000000E+00  0.00000000E+00  0.00000000E+00
  0.00000000E+00  0.00000000E+00  0.00000000E+00
  0.00000000E+00  0.00000000E+00  0.00000000E+00
  0.00000000E+00  0.00000000E+00  0.00000000E+00
  0.00000000E+00  0.00000000E+00  0.00000000E+00
  0.00000000E+00  0.00000000E+00  0.00000000E+00
  0.00000000E+00  0.00000000E+00  0.00000000E+00
  0.00000000E+00  0.00000000E+00  0.00000000E+00
  0.00000000E+00  0.00000000E+00  0.00000000E+00
  0.00000000E+00  0.00000000E+00  0.00000000E+00
  0.00000000E+00  0.00000000E+00  0.00000000E+00
  0.00000000E+00  0.00000000E+00  0.00000000E+00
  0.00000000E+00  0.00000000E+00  0.00000000E+00
  0.00000000E+00  0.00000000E+00  0.00000000E+00
  0.00000000E+00  0.00000000E+00  0.00000000E+00
  0.00000000E+00  0.00000000E+00  0.00000000E+00
  0.00000000E+00  0.00000000E+00  0.00000000E+00
  0.00000000E+00  0.00000000E+00  0.00000000E+00
  0.00000000E+00  0.00000000E+00  0.00000000E+00
  0.00000000E+00  0.00000000E+00  0.00000000E+00
  0.00000000E+00  0.00000000E+00  0.00000000E+00
  0.00000000E+00  0.00000000E+00  0.00000000E+00
  0.00000000E+00  0.00000000E+00  0.00000000E+00
  0.00000000E+00  0.00000000E+00  0.00000000E+00
  0.00000000E+00  0.00000000E+00  0.00000000E+00
  0.00000000E+00  0.00000000E+00  0.00000000E+00
  0.00000000E+00  0.00000000E+00  0.00000000E+00
  0.00000000E+00  0.00000000E+00  0.00000000E+00
  0.00000000E+00  0.00000000E+00  0.00000000E+00
  0.00000000E+00  0.00000000E+00  0.00000000E+00
  0.00000000E+00  0.00000000E+00  0.00000000E+00
  0.00000000E+00  0.00000000E+00  0.00000000E+00
  0.00000000E+00  0.00000000E+00  0.00000000E+00
  0.00000000E+00  0.00000000E+00  0.00000000E+00
  0.00000000E+00  0.00000000E+00  0.00000000E+00
