Ti1 C124 N2                             
   1.00000000000000     
    19.7965610161314771   -0.0218297061243183   -0.0000103036234820
    -9.9172048851909587   17.0637671694043433    0.0003608680460534
    -0.0000144228178924    0.0006258504046754   29.8068310582733460
   Ti   C    N 
     1   124     2
Direct
  0.4374725883701114  0.4999784037252730  0.4281052201243576
  0.0421805840199344  0.0841050873946448  0.3999515778012444
  0.0418307888518483  0.2086997829507028  0.3998401703005968
  0.0411917996348272  0.3332920715951458  0.3998506732395098
  0.0409353796639216  0.4583760312934509  0.3998537265000433
  0.0413249196671237  0.5836781736265201  0.3999887450360821
  0.0417467930520408  0.7089331207491184  0.4000936696601603
  0.0419406335181533  0.8340625110627071  0.4000696724304366
  0.0421246411969215  0.9592250837833003  0.4000298089865816
  0.1678434251782719  0.0851727884881783  0.3999211879333033
  0.1679036058572846  0.2102525645327053  0.3997975753046027
  0.1667683502227091  0.3344141214147840  0.3998300916959387
  0.1651719657400699  0.4588027779054860  0.4000665289629143
  0.1655172311163846  0.5838256552502957  0.3996903467433077
  0.1662543443085882  0.7089279620951849  0.3998946667441994
  0.1667326190230889  0.8341360335107965  0.4000907692639606
  0.1671331403227691  0.9594690046068985  0.3999924456146925
  0.2923237325939593  0.0847325859075316  0.3998961743124534
  0.2938785908869594  0.2114992458995191  0.4002294605037358
  0.2941450146155737  0.3377892947847568  0.4004433515577644
  0.2900851248546426  0.4600403922337879  0.4010639977402738
  0.2894938924611218  0.5843261024878866  0.4007145103693466
  0.2907697205807813  0.7089848555827770  0.3997715695404635
  0.2914882791772263  0.8339716243677603  0.3999073603639971
  0.2918727423515850  0.9591676139170803  0.4000111649131499
  0.4169657761306613  0.0836847678413968  0.3998748190801251
  0.4174795217379593  0.2092798973701600  0.3997108778637842
  0.4201746711713620  0.3366305924793714  0.4018532923960617
  0.4150639428448089  0.7071998399032998  0.4002394735034139
  0.4161459942284111  0.8328736402958651  0.3996861198806832
  0.4166049770455054  0.9583056986977212  0.4000337787132570
  0.5416626619756419  0.0826789748411755  0.4000489403965635
  0.5420731034343939  0.2077831997720699  0.3997404035634849
  0.5431006122348311  0.3326033965076294  0.4002302429186657
  0.5441357882445139  0.4561119960411225  0.4022058038336144
  0.5415012901979683  0.5792186621536335  0.4013762750663443
  0.5385875466736108  0.7042165447958246  0.4010861037805010
  0.5406625648925866  0.8315634126007992  0.3999623134797475
  0.5412959689135390  0.9573264616935633  0.3999513385771779
  0.6664183682221609  0.0823578901825156  0.4000609585395189
  0.6668065184023025  0.2075790527538922  0.4000063498205835
  0.6675318972349015  0.3327926952771178  0.3997439452992019
  0.6685888404147544  0.4580135623119757  0.3999977147798468
  0.6679822293728204  0.5822138814755229  0.4003487356594339
  0.6652534411898912  0.7060376812701443  0.3997859701590054
  0.6649300416818771  0.8310177590220663  0.3999266194446621
  0.6659463623658809  0.9569528870324985  0.3999221122516299
  0.7912589670073444  0.0824109450405834  0.4000377310113065
  0.7915312661898264  0.2076172996044347  0.4001070426886616
  0.7919700257863147  0.3328601813636414  0.4000160198446642
  0.7925324587098712  0.4581350776214685  0.3997648735941115
  0.7927849948874469  0.5833262040082956  0.3998127462818956
  0.7917192667686841  0.7079095303960796  0.3998036872049829
  0.7908245515639224  0.8322258974923988  0.3998375411023612
  0.7908177979023886  0.9570793303504177  0.3999179859964601
  0.9164312209424862  0.0829417772065296  0.4000110654328303
  0.9164024663237822  0.2078305574034685  0.3999815668142195
  0.9164507747046980  0.3329638411158387  0.4000478443819576
  0.9167328328876075  0.4582691837768605  0.4000884272542004
  0.9170986174314598  0.5835614085215017  0.4000029303392198
  0.9169945611462347  0.7086646280473526  0.3999343596312064
  0.9167495246924525  0.8335180891094608  0.3999749049965995
  0.9165165908153217  0.9582198381872135  0.4000271796761874
  0.0841754184828670  0.0429079989099964  0.3999596782950602
  0.0841664489980220  0.1677551043466195  0.3998439882920650
  0.0832867589320480  0.2920986336662325  0.3997894461291398
  0.0822441438078718  0.4166930682589053  0.3998354952843217
  0.0824838552218238  0.5418953133309690  0.3997886546877323
  0.0830468561827480  0.6671541135844155  0.4000160936106060
  0.0834697440455677  0.7923854242789493  0.4001017274235338
  0.0837412134490836  0.9175767230551609  0.4000439650803784
  0.2090417111992182  0.0430426090014400  0.3999309538127995
  0.2100417289689643  0.1689845501605248  0.3999420054210490
  0.2097284996177315  0.2939520140602437  0.3997599503646012
  0.2070341237584911  0.4177911474371889  0.4003363673526659
  0.2064403059706258  0.5420062039601591  0.3999953416996951
  0.2074661882447606  0.6672286252263911  0.3997398036241341
  0.2081865234092624  0.7924302672388424  0.3999927685005796
  0.2085762016324896  0.9176412237140479  0.4000511720189008
  0.3336802513963175  0.0426558186639333  0.3999086040318225
  0.3343022100050680  0.1684209807929939  0.3999452185982651
  0.3363768951137018  0.2957662753400028  0.4010660499557264
  0.3334987565097032  0.4207673315783657  0.4013317482626631
  0.3308900748349586  0.5438942956576874  0.4022140137329135
  0.3318927138195295  0.6674018723121458  0.4002363611546687
  0.3329173216058693  0.7922150382202366  0.3997285380688071
  0.3333475272181814  0.9173126950984964  0.4000088027295233
  0.4584072746878107  0.0416887834270852  0.4000434222488519
  0.4588422208836122  0.1671147372613578  0.3996757928060618
  0.4599112753843808  0.2927919297566642  0.4002325228096484
  0.4547979665996426  0.6633581009182270  0.4018591526588602
  0.4574938817569182  0.7907098088541293  0.3997311884284671
  0.4580220756628123  0.9162963880080930  0.3998932487658352
  0.5831279688811889  0.0408176184315165  0.4000505003950633
  0.5835068739057496  0.1660279524818959  0.3999308600582671
  0.5842234693038949  0.2910274874235710  0.3997763087883566
  0.5855361908409978  0.4156814286614716  0.4007028970531003
  0.5849365652989460  0.5399620682696895  0.4010841350198985
  0.5808276526390065  0.6621926914565931  0.4004809279204751
  0.5810810913793696  0.7884830057388610  0.4002325942306367
  0.5826552794137684  0.9152643991552444  0.3999154400540093
  0.7078566568018116  0.0405215426159456  0.3999929496866346
  0.7082597676425356  0.1658701806647228  0.4001013966829688
  0.7087490346911981  0.2910897489950380  0.3999096037338402
  0.7095066755452523  0.4162072851888267  0.3996795672665802
  0.7098592662417800  0.5412104146706120  0.4000773373617471
  0.7082315999761049  0.6655898381489270  0.3998534035916789
  0.7070707581135012  0.7897451550497985  0.3997991903562496
  0.7071434578410908  0.9148241196782739  0.3998846840326015
  0.8328888012609980  0.0407696467706839  0.3999986163443825
  0.8330599543622915  0.1659311473803065  0.4000628600749024
  0.8332658291442272  0.2910711377155238  0.4000965021309457
  0.8336845811673814  0.4163429202060522  0.3999758879400050
  0.8340751113842317  0.5416389602295490  0.3998158163726621
  0.8338203129872284  0.6667246986743511  0.3998408700129197
  0.8331863741356423  0.7913018771323573  0.3998585471336960
  0.8328283308312381  0.9158831272458444  0.3999288302203438
  0.9585005882453518  0.0417736133570749  0.4000260848455424
  0.9582602324237317  0.1664783656419757  0.3999453110086389
  0.9580154726015424  0.2913441415092348  0.3999410726797049
  0.9579126057314186  0.4164419200264149  0.4000290330224327
  0.9582875516308828  0.5417387166845948  0.4000845458240430
  0.9585639726662960  0.6670427576539393  0.4000211032629692
  0.9586067542763157  0.7921698526729631  0.3999883074389811
  0.9585886517272891  0.9170597822381318  0.4000393564758994
  0.4115618634719812  0.5823680434944265  0.4048040689678780
  0.4634505923995503  0.4176301058848905  0.4048037532612770
 
  0.00000000E+00  0.00000000E+00  0.00000000E+00
  0.00000000E+00  0.00000000E+00  0.00000000E+00
  0.00000000E+00  0.00000000E+00  0.00000000E+00
  0.00000000E+00  0.00000000E+00  0.00000000E+00
  0.00000000E+00  0.00000000E+00  0.00000000E+00
  0.00000000E+00  0.00000000E+00  0.00000000E+00
  0.00000000E+00  0.00000000E+00  0.00000000E+00
  0.00000000E+00  0.00000000E+00  0.00000000E+00
  0.00000000E+00  0.00000000E+00  0.00000000E+00
  0.00000000E+00  0.00000000E+00  0.00000000E+00
  0.00000000E+00  0.00000000E+00  0.00000000E+00
  0.00000000E+00  0.00000000E+00  0.00000000E+00
  0.00000000E+00  0.00000000E+00  0.00000000E+00
  0.00000000E+00  0.00000000E+00  0.00000000E+00
  0.00000000E+00  0.00000000E+00  0.00000000E+00
  0.00000000E+00  0.00000000E+00  0.00000000E+00
  0.00000000E+00  0.00000000E+00  0.00000000E+00
  0.00000000E+00  0.00000000E+00  0.00000000E+00
  0.00000000E+00  0.00000000E+00  0.00000000E+00
  0.00000000E+00  0.00000000E+00  0.00000000E+00
  0.00000000E+00  0.00000000E+00  0.00000000E+00
  0.00000000E+00  0.00000000E+00  0.00000000E+00
  0.00000000E+00  0.00000000E+00  0.00000000E+00
  0.00000000E+00  0.00000000E+00  0.00000000E+00
  0.00000000E+00  0.00000000E+00  0.00000000E+00
  0.00000000E+00  0.00000000E+00  0.00000000E+00
  0.00000000E+00  0.00000000E+00  0.00000000E+00
  0.00000000E+00  0.00000000E+00  0.00000000E+00
  0.00000000E+00  0.00000000E+00  0.00000000E+00
  0.00000000E+00  0.00000000E+00  0.00000000E+00
  0.00000000E+00  0.00000000E+00  0.00000000E+00
  0.00000000E+00  0.00000000E+00  0.00000000E+00
  0.00000000E+00  0.00000000E+00  0.00000000E+00
  0.00000000E+00  0.00000000E+00  0.00000000E+00
  0.00000000E+00  0.00000000E+00  0.00000000E+00
  0.00000000E+00  0.00000000E+00  0.00000000E+00
  0.00000000E+00  0.00000000E+00  0.00000000E+00
  0.00000000E+00  0.00000000E+00  0.00000000E+00
  0.00000000E+00  0.00000000E+00  0.00000000E+00
  0.00000000E+00  0.00000000E+00  0.00000000E+00
  0.00000000E+00  0.00000000E+00  0.00000000E+00
  0.00000000E+00  0.00000000E+00  0.00000000E+00
  0.00000000E+00  0.00000000E+00  0.00000000E+00
  0.00000000E+00  0.00000000E+00  0.00000000E+00
  0.00000000E+00  0.00000000E+00  0.00000000E+00
  0.00000000E+00  0.00000000E+00  0.00000000E+00
  0.00000000E+00  0.00000000E+00  0.00000000E+00
  0.00000000E+00  0.00000000E+00  0.00000000E+00
  0.00000000E+00  0.00000000E+00  0.00000000E+00
  0.00000000E+00  0.00000000E+00  0.00000000E+00
  0.00000000E+00  0.00000000E+00  0.00000000E+00
  0.00000000E+00  0.00000000E+00  0.00000000E+00
  0.00000000E+00  0.00000000E+00  0.00000000E+00
  0.00000000E+00  0.00000000E+00  0.00000000E+00
  0.00000000E+00  0.00000000E+00  0.00000000E+00
  0.00000000E+00  0.00000000E+00  0.00000000E+00
  0.00000000E+00  0.00000000E+00  0.00000000E+00
  0.00000000E+00  0.00000000E+00  0.00000000E+00
  0.00000000E+00  0.00000000E+00  0.00000000E+00
  0.00000000E+00  0.00000000E+00  0.00000000E+00
  0.00000000E+00  0.00000000E+00  0.00000000E+00
  0.00000000E+00  0.00000000E+00  0.00000000E+00
  0.00000000E+00  0.00000000E+00  0.00000000E+00
  0.00000000E+00  0.00000000E+00  0.00000000E+00
  0.00000000E+00  0.00000000E+00  0.00000000E+00
  0.00000000E+00  0.00000000E+00  0.00000000E+00
  0.00000000E+00  0.00000000E+00  0.00000000E+00
  0.00000000E+00  0.00000000E+00  0.00000000E+00
  0.00000000E+00  0.00000000E+00  0.00000000E+00
  0.00000000E+00  0.00000000E+00  0.00000000E+00
  0.00000000E+00  0.00000000E+00  0.00000000E+00
  0.00000000E+00  0.00000000E+00  0.00000000E+00
  0.00000000E+00  0.00000000E+00  0.00000000E+00
  0.00000000E+00  0.00000000E+00  0.00000000E+00
  0.00000000E+00  0.00000000E+00  0.00000000E+00
  0.00000000E+00  0.00000000E+00  0.00000000E+00
  0.00000000E+00  0.00000000E+00  0.00000000E+00
  0.00000000E+00  0.00000000E+00  0.00000000E+00
  0.00000000E+00  0.00000000E+00  0.00000000E+00
  0.00000000E+00  0.00000000E+00  0.00000000E+00
  0.00000000E+00  0.00000000E+00  0.00000000E+00
  0.00000000E+00  0.00000000E+00  0.00000000E+00
  0.00000000E+00  0.00000000E+00  0.00000000E+00
  0.00000000E+00  0.00000000E+00  0.00000000E+00
  0.00000000E+00  0.00000000E+00  0.00000000E+00
  0.00000000E+00  0.00000000E+00  0.00000000E+00
  0.00000000E+00  0.00000000E+00  0.00000000E+00
  0.00000000E+00  0.00000000E+00  0.00000000E+00
  0.00000000E+00  0.00000000E+00  0.00000000E+00
  0.00000000E+00  0.00000000E+00  0.00000000E+00
  0.00000000E+00  0.00000000E+00  0.00000000E+00
  0.00000000E+00  0.00000000E+00  0.00000000E+00
  0.00000000E+00  0.00000000E+00  0.00000000E+00
  0.00000000E+00  0.00000000E+00  0.00000000E+00
  0.00000000E+00  0.00000000E+00  0.00000000E+00
  0.00000000E+00  0.00000000E+00  0.00000000E+00
  0.00000000E+00  0.00000000E+00  0.00000000E+00
  0.00000000E+00  0.00000000E+00  0.00000000E+00
  0.00000000E+00  0.00000000E+00  0.00000000E+00
  0.00000000E+00  0.00000000E+00  0.00000000E+00
  0.00000000E+00  0.00000000E+00  0.00000000E+00
  0.00000000E+00  0.00000000E+00  0.00000000E+00
  0.00000000E+00  0.00000000E+00  0.00000000E+00
  0.00000000E+00  0.00000000E+00  0.00000000E+00
  0.00000000E+00  0.00000000E+00  0.00000000E+00
  0.00000000E+00  0.00000000E+00  0.00000000E+00
  0.00000000E+00  0.00000000E+00  0.00000000E+00
  0.00000000E+00  0.00000000E+00  0.00000000E+00
  0.00000000E+00  0.00000000E+00  0.00000000E+00
  0.00000000E+00  0.00000000E+00  0.00000000E+00
  0.00000000E+00  0.00000000E+00  0.00000000E+00
  0.00000000E+00  0.00000000E+00  0.00000000E+00
  0.00000000E+00  0.00000000E+00  0.00000000E+00
  0.00000000E+00  0.00000000E+00  0.00000000E+00
  0.00000000E+00  0.00000000E+00  0.00000000E+00
  0.00000000E+00  0.00000000E+00  0.00000000E+00
  0.00000000E+00  0.00000000E+00  0.00000000E+00
  0.00000000E+00  0.00000000E+00  0.00000000E+00
  0.00000000E+00  0.00000000E+00  0.00000000E+00
  0.00000000E+00  0.00000000E+00  0.00000000E+00
  0.00000000E+00  0.00000000E+00  0.00000000E+00
  0.00000000E+00  0.00000000E+00  0.00000000E+00
  0.00000000E+00  0.00000000E+00  0.00000000E+00
  0.00000000E+00  0.00000000E+00  0.00000000E+00
  0.00000000E+00  0.00000000E+00  0.00000000E+00
  0.00000000E+00  0.00000000E+00  0.00000000E+00
  0.00000000E+00  0.00000000E+00  0.00000000E+00
