Ag1 H1 C124 N2 O2                       
   1.00000000000000     
    19.8085284090775069   -0.0309766330640278    0.2329231706600590
    -9.9308876884275179   17.0774442794310879   -0.0886310520407543
     0.3498290275909953    0.0490618584761726   29.7771626655685502
   Ag   H    C    N    O 
     1     1   124     2     2
Direct
  0.4339240023253466  0.4986552310679431  0.4403495813157645
  0.5598025779597369  0.5660681654199288  0.5409551896682533
  0.0419941325737976  0.0841025726979384  0.3995586369654914
  0.0415961012618451  0.2085478194710991  0.3989104985798337
  0.0410622319023405  0.3331440823136840  0.3980773683666863
  0.0407700062399532  0.4583995817228263  0.3981074555180757
  0.0410257705364224  0.5837398781915495  0.3987043271393089
  0.0414430164382178  0.7090114912230069  0.3992182634515608
  0.0417170267556710  0.8341948921262842  0.3996916058370961
  0.0420138950717289  0.9593669913450128  0.3998473135005723
  0.1677287696301680  0.0853902362260735  0.4002802643099053
  0.1676377334282307  0.2101451072131565  0.4001966543410336
  0.1665195090369066  0.3343726303035285  0.3988666193160945
  0.1649321853460448  0.4588633030086167  0.3966821144715210
  0.1650690753726858  0.5839540370880852  0.3975221186104660
  0.1658345127335775  0.7092005647148553  0.3987739175315532
  0.1664539512708781  0.8343941226731997  0.3994910736676517
  0.1669750934786865  0.9597105526319947  0.3999455838848633
  0.2923073223282227  0.0849634762648850  0.4004034873865664
  0.2940395319163576  0.2120533578211166  0.4022859665162222
  0.2931828673959149  0.3374791252749738  0.4055447373493082
  0.2892558317994295  0.4600829274282725  0.4023439057570016
  0.2887994816306366  0.5849858600957446  0.3983821048588206
  0.2900719180751979  0.7094536513503449  0.3988525090793010
  0.2910815852474000  0.8342628266911112  0.3993914175319757
  0.2916393377957005  0.9593629361526189  0.3997593752229142
  0.4169123543644809  0.0834218921227866  0.3997437420897659
  0.4175627528137948  0.2085104128435470  0.4009162269843435
  0.4211276611277340  0.3358459426861880  0.4049158946928065
  0.4141716686230253  0.7082089386240046  0.4012098897336283
  0.4156623688880096  0.8333012776414477  0.4000019520638712
  0.4163579300320219  0.9583637313741631  0.3997190177926127
  0.5416331854690358  0.0823609942571276  0.3994587535683365
  0.5422560030152065  0.2072901735392774  0.3992472236225884
  0.5433572515397052  0.3319556607314122  0.4002115731286451
  0.5434042346674326  0.4545911815069502  0.4031301598579486
  0.5456977514562209  0.5810862512209765  0.4069486860418847
  0.5378854779497936  0.7040228887044059  0.4038124571016228
  0.5400287269847975  0.8313433918387897  0.4012637209949069
  0.5410453905966315  0.9571077170918012  0.4001195418730022
  0.6662835262297108  0.0819681381937844  0.3997325756769822
  0.6669135001496307  0.2072169494495708  0.3988667907609719
  0.6676781939487426  0.3323117307373295  0.3983116463065362
  0.6687022636916740  0.4574800042074809  0.3983907380464759
  0.6681892587917233  0.5820537127673846  0.3997646889826393
  0.6654901774103398  0.7061729932622707  0.4012566424509040
  0.6646631922302325  0.8306393516811921  0.4010650875929235
  0.6656587254979072  0.9565518517460652  0.4004023625293646
  0.7910590635653724  0.0820582174097436  0.4001253267765079
  0.7914476629848707  0.2072577102707791  0.3996295257504954
  0.7920417139612332  0.3325983111356134  0.3987108742955438
  0.7926322238052579  0.4579373891906802  0.3981572708895800
  0.7926887982197549  0.5831008178698547  0.3982869823174882
  0.7917153814605250  0.7078451745292565  0.3991042906229128
  0.7908561982498646  0.8322540292117089  0.3997358974665471
  0.7905631458059313  0.9568134707068053  0.4000165371351265
  0.9162349016691519  0.0827696680236296  0.3997151615730127
  0.9162527231606081  0.2076471806573444  0.3995185251372110
  0.9163625045235183  0.3327917982078358  0.3991948744573058
  0.9166302902104420  0.4581314146644238  0.3989266937640429
  0.9169443756252529  0.5835123589827169  0.3987680891592221
  0.9168518920426298  0.7087077101156366  0.3989652305622768
  0.9166136652821509  0.8335251813598015  0.3994462742290636
  0.9163743232037089  0.9581610928735185  0.3997665128744314
  0.0840499413749822  0.0430479862624119  0.3998365560323406
  0.0838687837696952  0.1676505939079334  0.3992721767192441
  0.0830797133912224  0.2920274880740050  0.3982981619761294
  0.0821238653036779  0.4167435210360104  0.3974100987757556
  0.0821248859037523  0.5419289753780371  0.3980218498503266
  0.0827123033368196  0.6673065873316200  0.3988890010624327
  0.0832239033759317  0.7926178015687910  0.3995228120255945
  0.0835526031003476  0.9177824073457929  0.3999041895042273
  0.2089068146468548  0.0432757485160197  0.4002564870382025
  0.2098895502803604  0.1692560134358148  0.4009984831136987
  0.2092440594264497  0.2938528384527201  0.4010127770193210
  0.2067105723201559  0.4177961871055128  0.3978842841669292
  0.2060519741636188  0.5423382371223187  0.3969896135280583
  0.2070377769222317  0.6675368986015786  0.3982649506246586
  0.2078150255586079  0.7926687041471715  0.3992080335105740
  0.2083726947013237  0.9178759057455805  0.3997308783619408
  0.3335653851032652  0.0427622668134213  0.3999763851148440
  0.3344245813755912  0.1685448770296179  0.4012164463829100
  0.3362705810885553  0.2959427388025312  0.4049587157116527
  0.3285498935051748  0.4194019694438583  0.4107816920185873
  0.3309429192267798  0.5451635248422189  0.4015520847891209
  0.3312073234175575  0.6678656701300044  0.3993773734622070
  0.3323894289107172  0.7925654000312506  0.3994354358208589
  0.3330916166954295  0.9175394571164316  0.3996364610142318
  0.4583659418200425  0.0415497530077803  0.3996110331757998
  0.4589296457358966  0.1665657247921659  0.3998327150844813
  0.4602522225408933  0.2916113402590709  0.4018423700795137
  0.4530752351929590  0.6639061025650375  0.4035857118763871
  0.4569243238689518  0.7913182435761722  0.4008429168419937
  0.4577240341552123  0.9164440515023193  0.3999532636000436
  0.5830350885250976  0.0405071126920458  0.3997339803809892
  0.5836383796110994  0.1656352318358553  0.3990642470528818
  0.5845811329539473  0.2903943997202936  0.3990229696187038
  0.5858366106092829  0.4148323483657786  0.3999358661761700
  0.5850658724583009  0.5396739249541049  0.4029008692883636
  0.5811130521048982  0.6627129091811278  0.4041357903784946
  0.5803657041690762  0.7878799010689894  0.4020820423764817
  0.5822422540777176  0.9149096171043336  0.4005706528290320
  0.7076155838413098  0.0400981750240730  0.4001046082994797
  0.7082391366724394  0.1654625066204568  0.3993677153337631
  0.7089207784039551  0.2906882652520889  0.3984631784856943
  0.7096805577718066  0.4158990731036806  0.3980348290674515
  0.7099167849038637  0.5409669082511930  0.3984502359679900
  0.7081829981952050  0.6654610747780783  0.3999141624417990
  0.7070588423823628  0.7898120196539680  0.4005375689753528
  0.7068550058367891  0.9144600540303569  0.4004274903225167
  0.8326018405789657  0.0404914918055500  0.3999973094676597
  0.8329268391474204  0.1656591172669529  0.3999464012753622
  0.8332759749373020  0.2908814976238538  0.3992941861253559
  0.8337243732178062  0.4161607839812356  0.3985866721296720
  0.8340104288032777  0.5414639216846829  0.3983220297541117
  0.8336928614184637  0.6667075299222763  0.3986805335749999
  0.8331338285846558  0.7913091731112313  0.3993579543299232
  0.8326709508894594  0.9157833711792276  0.3997976584710560
  0.9582856792680553  0.0417348307692131  0.3996894157139992
  0.9580741612759569  0.1663467697352391  0.3993676010455911
  0.9578774923076954  0.2911720732421806  0.3989854926753442
  0.9577951057079673  0.4163685198051784  0.3988939462779612
  0.9581095070206849  0.5417803380170253  0.3989030981535047
  0.9583522224959822  0.6670944735633207  0.3990002685436895
  0.9584147805844125  0.7922075664033519  0.3993821525166318
  0.9584037964638079  0.9171122592296652  0.3997193846555910
  0.4093199607501751  0.5846877244174921  0.4048283961968751
  0.4649316237166142  0.4149593740412491  0.4068963953054800
  0.5190504800853255  0.5202864047858829  0.5253666467242047
  0.4835067832165455  0.5561151118804074  0.5006367627043757
 
  0.00000000E+00  0.00000000E+00  0.00000000E+00
  0.00000000E+00  0.00000000E+00  0.00000000E+00
  0.00000000E+00  0.00000000E+00  0.00000000E+00
  0.00000000E+00  0.00000000E+00  0.00000000E+00
  0.00000000E+00  0.00000000E+00  0.00000000E+00
  0.00000000E+00  0.00000000E+00  0.00000000E+00
  0.00000000E+00  0.00000000E+00  0.00000000E+00
  0.00000000E+00  0.00000000E+00  0.00000000E+00
  0.00000000E+00  0.00000000E+00  0.00000000E+00
  0.00000000E+00  0.00000000E+00  0.00000000E+00
  0.00000000E+00  0.00000000E+00  0.00000000E+00
  0.00000000E+00  0.00000000E+00  0.00000000E+00
  0.00000000E+00  0.00000000E+00  0.00000000E+00
  0.00000000E+00  0.00000000E+00  0.00000000E+00
  0.00000000E+00  0.00000000E+00  0.00000000E+00
  0.00000000E+00  0.00000000E+00  0.00000000E+00
  0.00000000E+00  0.00000000E+00  0.00000000E+00
  0.00000000E+00  0.00000000E+00  0.00000000E+00
  0.00000000E+00  0.00000000E+00  0.00000000E+00
  0.00000000E+00  0.00000000E+00  0.00000000E+00
  0.00000000E+00  0.00000000E+00  0.00000000E+00
  0.00000000E+00  0.00000000E+00  0.00000000E+00
  0.00000000E+00  0.00000000E+00  0.00000000E+00
  0.00000000E+00  0.00000000E+00  0.00000000E+00
  0.00000000E+00  0.00000000E+00  0.00000000E+00
  0.00000000E+00  0.00000000E+00  0.00000000E+00
  0.00000000E+00  0.00000000E+00  0.00000000E+00
  0.00000000E+00  0.00000000E+00  0.00000000E+00
  0.00000000E+00  0.00000000E+00  0.00000000E+00
  0.00000000E+00  0.00000000E+00  0.00000000E+00
  0.00000000E+00  0.00000000E+00  0.00000000E+00
  0.00000000E+00  0.00000000E+00  0.00000000E+00
  0.00000000E+00  0.00000000E+00  0.00000000E+00
  0.00000000E+00  0.00000000E+00  0.00000000E+00
  0.00000000E+00  0.00000000E+00  0.00000000E+00
  0.00000000E+00  0.00000000E+00  0.00000000E+00
  0.00000000E+00  0.00000000E+00  0.00000000E+00
  0.00000000E+00  0.00000000E+00  0.00000000E+00
  0.00000000E+00  0.00000000E+00  0.00000000E+00
  0.00000000E+00  0.00000000E+00  0.00000000E+00
  0.00000000E+00  0.00000000E+00  0.00000000E+00
  0.00000000E+00  0.00000000E+00  0.00000000E+00
  0.00000000E+00  0.00000000E+00  0.00000000E+00
  0.00000000E+00  0.00000000E+00  0.00000000E+00
  0.00000000E+00  0.00000000E+00  0.00000000E+00
  0.00000000E+00  0.00000000E+00  0.00000000E+00
  0.00000000E+00  0.00000000E+00  0.00000000E+00
  0.00000000E+00  0.00000000E+00  0.00000000E+00
  0.00000000E+00  0.00000000E+00  0.00000000E+00
  0.00000000E+00  0.00000000E+00  0.00000000E+00
  0.00000000E+00  0.00000000E+00  0.00000000E+00
  0.00000000E+00  0.00000000E+00  0.00000000E+00
  0.00000000E+00  0.00000000E+00  0.00000000E+00
  0.00000000E+00  0.00000000E+00  0.00000000E+00
  0.00000000E+00  0.00000000E+00  0.00000000E+00
  0.00000000E+00  0.00000000E+00  0.00000000E+00
  0.00000000E+00  0.00000000E+00  0.00000000E+00
  0.00000000E+00  0.00000000E+00  0.00000000E+00
  0.00000000E+00  0.00000000E+00  0.00000000E+00
  0.00000000E+00  0.00000000E+00  0.00000000E+00
  0.00000000E+00  0.00000000E+00  0.00000000E+00
  0.00000000E+00  0.00000000E+00  0.00000000E+00
  0.00000000E+00  0.00000000E+00  0.00000000E+00
  0.00000000E+00  0.00000000E+00  0.00000000E+00
  0.00000000E+00  0.00000000E+00  0.00000000E+00
  0.00000000E+00  0.00000000E+00  0.00000000E+00
  0.00000000E+00  0.00000000E+00  0.00000000E+00
  0.00000000E+00  0.00000000E+00  0.00000000E+00
  0.00000000E+00  0.00000000E+00  0.00000000E+00
  0.00000000E+00  0.00000000E+00  0.00000000E+00
  0.00000000E+00  0.00000000E+00  0.00000000E+00
  0.00000000E+00  0.00000000E+00  0.00000000E+00
  0.00000000E+00  0.00000000E+00  0.00000000E+00
  0.00000000E+00  0.00000000E+00  0.00000000E+00
  0.00000000E+00  0.00000000E+00  0.00000000E+00
  0.00000000E+00  0.00000000E+00  0.00000000E+00
  0.00000000E+00  0.00000000E+00  0.00000000E+00
  0.00000000E+00  0.00000000E+00  0.00000000E+00
  0.00000000E+00  0.00000000E+00  0.00000000E+00
  0.00000000E+00  0.00000000E+00  0.00000000E+00
  0.00000000E+00  0.00000000E+00  0.00000000E+00
  0.00000000E+00  0.00000000E+00  0.00000000E+00
  0.00000000E+00  0.00000000E+00  0.00000000E+00
  0.00000000E+00  0.00000000E+00  0.00000000E+00
  0.00000000E+00  0.00000000E+00  0.00000000E+00
  0.00000000E+00  0.00000000E+00  0.00000000E+00
  0.00000000E+00  0.00000000E+00  0.00000000E+00
  0.00000000E+00  0.00000000E+00  0.00000000E+00
  0.00000000E+00  0.00000000E+00  0.00000000E+00
  0.00000000E+00  0.00000000E+00  0.00000000E+00
  0.00000000E+00  0.00000000E+00  0.00000000E+00
  0.00000000E+00  0.00000000E+00  0.00000000E+00
  0.00000000E+00  0.00000000E+00  0.00000000E+00
  0.00000000E+00  0.00000000E+00  0.00000000E+00
  0.00000000E+00  0.00000000E+00  0.00000000E+00
  0.00000000E+00  0.00000000E+00  0.00000000E+00
  0.00000000E+00  0.00000000E+00  0.00000000E+00
  0.00000000E+00  0.00000000E+00  0.00000000E+00
  0.00000000E+00  0.00000000E+00  0.00000000E+00
  0.00000000E+00  0.00000000E+00  0.00000000E+00
  0.00000000E+00  0.00000000E+00  0.00000000E+00
  0.00000000E+00  0.00000000E+00  0.00000000E+00
  0.00000000E+00  0.00000000E+00  0.00000000E+00
  0.00000000E+00  0.00000000E+00  0.00000000E+00
  0.00000000E+00  0.00000000E+00  0.00000000E+00
  0.00000000E+00  0.00000000E+00  0.00000000E+00
  0.00000000E+00  0.00000000E+00  0.00000000E+00
  0.00000000E+00  0.00000000E+00  0.00000000E+00
  0.00000000E+00  0.00000000E+00  0.00000000E+00
  0.00000000E+00  0.00000000E+00  0.00000000E+00
  0.00000000E+00  0.00000000E+00  0.00000000E+00
  0.00000000E+00  0.00000000E+00  0.00000000E+00
  0.00000000E+00  0.00000000E+00  0.00000000E+00
  0.00000000E+00  0.00000000E+00  0.00000000E+00
  0.00000000E+00  0.00000000E+00  0.00000000E+00
  0.00000000E+00  0.00000000E+00  0.00000000E+00
  0.00000000E+00  0.00000000E+00  0.00000000E+00
  0.00000000E+00  0.00000000E+00  0.00000000E+00
  0.00000000E+00  0.00000000E+00  0.00000000E+00
  0.00000000E+00  0.00000000E+00  0.00000000E+00
  0.00000000E+00  0.00000000E+00  0.00000000E+00
  0.00000000E+00  0.00000000E+00  0.00000000E+00
  0.00000000E+00  0.00000000E+00  0.00000000E+00
  0.00000000E+00  0.00000000E+00  0.00000000E+00
  0.00000000E+00  0.00000000E+00  0.00000000E+00
  0.00000000E+00  0.00000000E+00  0.00000000E+00
  0.00000000E+00  0.00000000E+00  0.00000000E+00
  0.00000000E+00  0.00000000E+00  0.00000000E+00
  0.00000000E+00  0.00000000E+00  0.00000000E+00
  0.00000000E+00  0.00000000E+00  0.00000000E+00
