Cu1 C125 N1                             
   1.00000000000000     
    19.8214953142646344   -0.0026435462489750    0.0153404150960365
    -9.9130778501493619   17.0481747718793883   -0.0136899569428858
     0.0229071811854830   -0.0102967893519538   29.7798002408632598
   Cu   C    N 
     1   125     1
Direct
  0.4374062538108138  0.5002631561137597  0.4051262128215480
  0.0418374018653427  0.0840303738136172  0.3999988029891580
  0.0408656449915239  0.2081268523637548  0.4001639082853699
  0.0403112269618812  0.3327056589479414  0.3999245923381241
  0.0404681621009890  0.4581871140159615  0.3994829332564427
  0.0413712509314318  0.5837691062465056  0.3992434217107103
  0.0421584511865680  0.7092187264839279  0.3994138528861909
  0.0425114828380842  0.8346137117120548  0.3995373723445639
  0.0424690754025310  0.9596280202724751  0.3996504322591839
  0.1677236942541092  0.0855333048440816  0.4004749183218428
  0.1670801009431646  0.2099981140318924  0.4014131894627294
  0.1654388527763039  0.3337991791367844  0.4017027292868049
  0.1640917916280596  0.4582931628284458  0.4010175891039363
  0.1650731225423668  0.5836420944133861  0.4000108680154794
  0.1663373054097368  0.7091849767925126  0.3994387532286703
  0.1671443634065280  0.8347019105116699  0.3995755168751864
  0.1676031762803422  0.9601843731436160  0.3997906169919313
  0.2927927244158834  0.0856032657302230  0.4005130667589591
  0.2935732765073530  0.2121515143912783  0.4021426830389106
  0.2926085013070516  0.3374262385181740  0.4034797554537674
  0.2881200439646910  0.4587906012254541  0.4034717118145256
  0.2884904514282040  0.5841529583668568  0.4020746944521436
  0.2904863188616176  0.7090497116182801  0.4004659872384827
  0.2915778100089458  0.8342053912590144  0.3996079479997956
  0.2921480854473048  0.9597219801561053  0.3996580451672297
  0.4171874835211721  0.0841777644555286  0.4000548059343365
  0.4178332632962360  0.2101864665516142  0.4016379423529491
  0.4196825139515261  0.3379607499997814  0.4037890313400446
  0.4145155587917013  0.7064481456254891  0.4022630489141385
  0.4159395779824449  0.8325745355103290  0.4004890743178066
  0.4165982155778936  0.9583601416720520  0.3997088643884112
  0.5415676674353044  0.0824954227043315  0.3996263053533800
  0.5422568638455215  0.2079864785152809  0.4002677142063404
  0.5432502110348891  0.3332304193220610  0.4021054166297157
  0.5464649864982497  0.4580539546497217  0.4041643019891043
  0.5451330248549247  0.5793223117097103  0.4048558767678450
  0.5382543864571195  0.7027203779777840  0.4033760824908783
  0.5400726771548519  0.8304918855311988  0.4013716690625049
  0.5410319312529038  0.9567358498577175  0.4000184612838364
  0.6660297662856901  0.0817094837276237  0.3996708510554242
  0.6666472170439002  0.2072326978522420  0.3994668384279342
  0.6674781364872010  0.3325775918520025  0.3999982012066961
  0.6695356219031668  0.4581225975067254  0.4014372199221652
  0.6710010023579509  0.5838764561804457  0.4026761748284050
  0.6662810712359238  0.7061349698150617  0.4026259847957451
  0.6647262864116082  0.8301408172106948  0.4014742529862268
  0.6654655188354307  0.9560730721326923  0.4002531713107206
  0.7906955219836618  0.0816609772472987  0.3996444169344269
  0.7910362401764180  0.2069587622144851  0.3996202666541652
  0.7917790298250078  0.3325023008608257  0.3992816970547036
  0.7929972108905819  0.4581604542837409  0.3994236751456453
  0.7939062264488285  0.5835912259062102  0.4001039112253223
  0.7932728881005872  0.7088095586600867  0.4006798656972449
  0.7912976282422882  0.8323446795441795  0.4005927396142212
  0.7904130674305703  0.9564932198977228  0.4000379458701689
  0.9158732326304262  0.0824214469463726  0.3996051300152752
  0.9156903485330801  0.2072591302520764  0.3994616011636378
  0.9159358637259779  0.3325299261511229  0.3993005863884069
  0.9166606883158953  0.4580357424583417  0.3991807318896519
  0.9176450271590875  0.5837380648986504  0.3991648868053732
  0.9178597850865777  0.7092048170657921  0.3993737679087643
  0.9174823745036620  0.8340014223111394  0.3995923501597077
  0.9165389019134668  0.9581517822411085  0.3996786251567818
  0.0841832218014009  0.0432051562399106  0.3999987505794871
  0.0834165190030835  0.1674811950471807  0.4005116852693635
  0.0820766263270376  0.2914786437765191  0.4005391017478642
  0.0815410312911293  0.4164068453275626  0.4000563947628532
  0.0822026863883951  0.5417845469961504  0.3994700640330718
  0.0832758444899371  0.6673912571542741  0.3993126401227536
  0.0839995240501694  0.7929689224578295  0.3996229372989022
  0.0842405843818640  0.9182378942781814  0.3996314758216184
  0.2093516242025342  0.0437530469834199  0.4002386691186597
  0.2094551481338755  0.1692494923588475  0.4013551006318162
  0.2085049691287916  0.2936864722072078  0.4022899116651836
  0.2054271435055139  0.4169727713657160  0.4021302201492448
  0.2056907462556397  0.5417897730379990  0.4009914250773799
  0.2074417326967302  0.6673433639918230  0.3998798038697758
  0.2083963308017529  0.7927644460281990  0.3994804042655153
  0.2090272364632194  0.9182920821323245  0.3996285954259176
  0.3339682248603762  0.0432639293255934  0.4000294301462847
  0.3346944478967231  0.1692343346377672  0.4014766727830128
  0.3352186649976571  0.2956142778573104  0.4033467637753647
  0.3308312406652124  0.4200265414366743  0.4042349275036847
  0.3298330025348151  0.5435691958535261  0.4034057400461141
  0.3314896692954650  0.6670867454533822  0.4016418161679876
  0.3328130593971190  0.7922369124659024  0.4001172836527488
  0.3334791231309276  0.9176282327176196  0.3996083884571510
  0.4584893438694337  0.0418301046148349  0.3997152910849469
  0.4590381029049577  0.1676125535965226  0.4006405973788372
  0.4601007838423913  0.2938916036454733  0.4026611239172531
  0.4650943132463147  0.4206853887063612  0.4046903687652902
  0.4536412737323421  0.6616782751146181  0.4034446892648485
  0.4571075726692777  0.7900667858351132  0.4014056653125861
  0.4578512216679402  0.9160095503984339  0.4000117383913427
  0.5828830593523562  0.0403202154834442  0.3996870638745286
  0.5835129041454750  0.1659482346548900  0.3996433998224592
  0.5844291056267672  0.2911766554550801  0.4007258504121634
  0.5866834029126538  0.4161054877001101  0.4027106504717733
  0.5891282622902000  0.5423011262472258  0.4041964926297369
  0.5818504149774092  0.6616647555365264  0.4038297751850625
  0.5803866614059271  0.7868685023688619  0.4021570667116555
  0.5821570305844891  0.9143109151280900  0.4004904673973607
  0.7073507079582037  0.0397109527161203  0.3998171441789450
  0.7079353424414568  0.1653183028298596  0.3995744793633448
  0.7086399471613970  0.2907579290080595  0.3994332849618532
  0.7101200051281442  0.4163299419979120  0.4001508770022988
  0.7115989714966304  0.5417837344536337  0.4014001212694110
  0.7101346670556565  0.6667703356619675  0.4020724719184913
  0.7074816012056396  0.7896717866139659  0.4015874390563707
  0.7067294469290265  0.9139760093700775  0.4005238108322814
  0.8323121463351846  0.0401557540684314  0.3996754704970684
  0.8324493669478176  0.1652784019205741  0.3995560481214901
  0.8329501712996027  0.2907067761700277  0.3994072885509365
  0.8338296859852676  0.4161859160548260  0.3991933469914059
  0.8348493350142578  0.5417379686176155  0.3994002874678676
  0.8348978119113633  0.6673568131083476  0.3999378293275717
  0.8341831187960769  0.7919761796889927  0.4002155721535392
  0.8328556134505984  0.9157621195606475  0.4000292561900890
  0.9581938891436850  0.0416540388969110  0.3996799087159313
  0.9575266858002619  0.1659638920932203  0.3996172108815692
  0.9572827020963837  0.2907988232886708  0.3994386358092622
  0.9575986975848806  0.4161887443898578  0.3992363005712559
  0.9585818393905617  0.5418870728545410  0.3991795153979756
  0.9592054253629730  0.6674227167365677  0.3992537882683914
  0.9593225338895802  0.7927069876875088  0.3994140730193431
  0.9589561288314670  0.9174494187351603  0.3995799477568348
  0.4088707174040381  0.5810549516229645  0.4041733593550707
 
  0.00000000E+00  0.00000000E+00  0.00000000E+00
  0.00000000E+00  0.00000000E+00  0.00000000E+00
  0.00000000E+00  0.00000000E+00  0.00000000E+00
  0.00000000E+00  0.00000000E+00  0.00000000E+00
  0.00000000E+00  0.00000000E+00  0.00000000E+00
  0.00000000E+00  0.00000000E+00  0.00000000E+00
  0.00000000E+00  0.00000000E+00  0.00000000E+00
  0.00000000E+00  0.00000000E+00  0.00000000E+00
  0.00000000E+00  0.00000000E+00  0.00000000E+00
  0.00000000E+00  0.00000000E+00  0.00000000E+00
  0.00000000E+00  0.00000000E+00  0.00000000E+00
  0.00000000E+00  0.00000000E+00  0.00000000E+00
  0.00000000E+00  0.00000000E+00  0.00000000E+00
  0.00000000E+00  0.00000000E+00  0.00000000E+00
  0.00000000E+00  0.00000000E+00  0.00000000E+00
  0.00000000E+00  0.00000000E+00  0.00000000E+00
  0.00000000E+00  0.00000000E+00  0.00000000E+00
  0.00000000E+00  0.00000000E+00  0.00000000E+00
  0.00000000E+00  0.00000000E+00  0.00000000E+00
  0.00000000E+00  0.00000000E+00  0.00000000E+00
  0.00000000E+00  0.00000000E+00  0.00000000E+00
  0.00000000E+00  0.00000000E+00  0.00000000E+00
  0.00000000E+00  0.00000000E+00  0.00000000E+00
  0.00000000E+00  0.00000000E+00  0.00000000E+00
  0.00000000E+00  0.00000000E+00  0.00000000E+00
  0.00000000E+00  0.00000000E+00  0.00000000E+00
  0.00000000E+00  0.00000000E+00  0.00000000E+00
  0.00000000E+00  0.00000000E+00  0.00000000E+00
  0.00000000E+00  0.00000000E+00  0.00000000E+00
  0.00000000E+00  0.00000000E+00  0.00000000E+00
  0.00000000E+00  0.00000000E+00  0.00000000E+00
  0.00000000E+00  0.00000000E+00  0.00000000E+00
  0.00000000E+00  0.00000000E+00  0.00000000E+00
  0.00000000E+00  0.00000000E+00  0.00000000E+00
  0.00000000E+00  0.00000000E+00  0.00000000E+00
  0.00000000E+00  0.00000000E+00  0.00000000E+00
  0.00000000E+00  0.00000000E+00  0.00000000E+00
  0.00000000E+00  0.00000000E+00  0.00000000E+00
  0.00000000E+00  0.00000000E+00  0.00000000E+00
  0.00000000E+00  0.00000000E+00  0.00000000E+00
  0.00000000E+00  0.00000000E+00  0.00000000E+00
  0.00000000E+00  0.00000000E+00  0.00000000E+00
  0.00000000E+00  0.00000000E+00  0.00000000E+00
  0.00000000E+00  0.00000000E+00  0.00000000E+00
  0.00000000E+00  0.00000000E+00  0.00000000E+00
  0.00000000E+00  0.00000000E+00  0.00000000E+00
  0.00000000E+00  0.00000000E+00  0.00000000E+00
  0.00000000E+00  0.00000000E+00  0.00000000E+00
  0.00000000E+00  0.00000000E+00  0.00000000E+00
  0.00000000E+00  0.00000000E+00  0.00000000E+00
  0.00000000E+00  0.00000000E+00  0.00000000E+00
  0.00000000E+00  0.00000000E+00  0.00000000E+00
  0.00000000E+00  0.00000000E+00  0.00000000E+00
  0.00000000E+00  0.00000000E+00  0.00000000E+00
  0.00000000E+00  0.00000000E+00  0.00000000E+00
  0.00000000E+00  0.00000000E+00  0.00000000E+00
  0.00000000E+00  0.00000000E+00  0.00000000E+00
  0.00000000E+00  0.00000000E+00  0.00000000E+00
  0.00000000E+00  0.00000000E+00  0.00000000E+00
  0.00000000E+00  0.00000000E+00  0.00000000E+00
  0.00000000E+00  0.00000000E+00  0.00000000E+00
  0.00000000E+00  0.00000000E+00  0.00000000E+00
  0.00000000E+00  0.00000000E+00  0.00000000E+00
  0.00000000E+00  0.00000000E+00  0.00000000E+00
  0.00000000E+00  0.00000000E+00  0.00000000E+00
  0.00000000E+00  0.00000000E+00  0.00000000E+00
  0.00000000E+00  0.00000000E+00  0.00000000E+00
  0.00000000E+00  0.00000000E+00  0.00000000E+00
  0.00000000E+00  0.00000000E+00  0.00000000E+00
  0.00000000E+00  0.00000000E+00  0.00000000E+00
  0.00000000E+00  0.00000000E+00  0.00000000E+00
  0.00000000E+00  0.00000000E+00  0.00000000E+00
  0.00000000E+00  0.00000000E+00  0.00000000E+00
  0.00000000E+00  0.00000000E+00  0.00000000E+00
  0.00000000E+00  0.00000000E+00  0.00000000E+00
  0.00000000E+00  0.00000000E+00  0.00000000E+00
  0.00000000E+00  0.00000000E+00  0.00000000E+00
  0.00000000E+00  0.00000000E+00  0.00000000E+00
  0.00000000E+00  0.00000000E+00  0.00000000E+00
  0.00000000E+00  0.00000000E+00  0.00000000E+00
  0.00000000E+00  0.00000000E+00  0.00000000E+00
  0.00000000E+00  0.00000000E+00  0.00000000E+00
  0.00000000E+00  0.00000000E+00  0.00000000E+00
  0.00000000E+00  0.00000000E+00  0.00000000E+00
  0.00000000E+00  0.00000000E+00  0.00000000E+00
  0.00000000E+00  0.00000000E+00  0.00000000E+00
  0.00000000E+00  0.00000000E+00  0.00000000E+00
  0.00000000E+00  0.00000000E+00  0.00000000E+00
  0.00000000E+00  0.00000000E+00  0.00000000E+00
  0.00000000E+00  0.00000000E+00  0.00000000E+00
  0.00000000E+00  0.00000000E+00  0.00000000E+00
  0.00000000E+00  0.00000000E+00  0.00000000E+00
  0.00000000E+00  0.00000000E+00  0.00000000E+00
  0.00000000E+00  0.00000000E+00  0.00000000E+00
  0.00000000E+00  0.00000000E+00  0.00000000E+00
  0.00000000E+00  0.00000000E+00  0.00000000E+00
  0.00000000E+00  0.00000000E+00  0.00000000E+00
  0.00000000E+00  0.00000000E+00  0.00000000E+00
  0.00000000E+00  0.00000000E+00  0.00000000E+00
  0.00000000E+00  0.00000000E+00  0.00000000E+00
  0.00000000E+00  0.00000000E+00  0.00000000E+00
  0.00000000E+00  0.00000000E+00  0.00000000E+00
  0.00000000E+00  0.00000000E+00  0.00000000E+00
  0.00000000E+00  0.00000000E+00  0.00000000E+00
  0.00000000E+00  0.00000000E+00  0.00000000E+00
  0.00000000E+00  0.00000000E+00  0.00000000E+00
  0.00000000E+00  0.00000000E+00  0.00000000E+00
  0.00000000E+00  0.00000000E+00  0.00000000E+00
  0.00000000E+00  0.00000000E+00  0.00000000E+00
  0.00000000E+00  0.00000000E+00  0.00000000E+00
  0.00000000E+00  0.00000000E+00  0.00000000E+00
  0.00000000E+00  0.00000000E+00  0.00000000E+00
  0.00000000E+00  0.00000000E+00  0.00000000E+00
  0.00000000E+00  0.00000000E+00  0.00000000E+00
  0.00000000E+00  0.00000000E+00  0.00000000E+00
  0.00000000E+00  0.00000000E+00  0.00000000E+00
  0.00000000E+00  0.00000000E+00  0.00000000E+00
  0.00000000E+00  0.00000000E+00  0.00000000E+00
  0.00000000E+00  0.00000000E+00  0.00000000E+00
  0.00000000E+00  0.00000000E+00  0.00000000E+00
  0.00000000E+00  0.00000000E+00  0.00000000E+00
  0.00000000E+00  0.00000000E+00  0.00000000E+00
  0.00000000E+00  0.00000000E+00  0.00000000E+00
  0.00000000E+00  0.00000000E+00  0.00000000E+00
  0.00000000E+00  0.00000000E+00  0.00000000E+00
  0.00000000E+00  0.00000000E+00  0.00000000E+00
  0.00000000E+00  0.00000000E+00  0.00000000E+00
