Nb1 C123 N3 O1                          
   1.00000000000000     
    19.7929468060150668    0.0068185725709711   -0.1255118445723792
    -9.8900626045115576   17.0520684039839949   -0.0828253948001559
    -0.1886683228222520   -0.2542575395223978   29.8110177359907880
   Nb   C    N    O 
     1   123     3     1
Direct
  0.4301550640599682  0.5014034775474451  0.4333168026825138
  0.0416812571820539  0.0836727268819148  0.3997284243754433
  0.0411667315378347  0.2081612101155474  0.3999306377682882
  0.0408847191352991  0.3332193851196575  0.4004912898172707
  0.0411443993232167  0.4584068930308294  0.4002588223592993
  0.0417753826172330  0.5837227897179200  0.3997711272774215
  0.0423246057616294  0.7090916592409695  0.3997625254778888
  0.0424613666325097  0.8342441323657684  0.3998868522903365
  0.0422914076635221  0.9592035679049998  0.3997776442473184
  0.1674749155576414  0.0847124524800392  0.4000225909965635
  0.1667277780539595  0.2090261357375407  0.4000638225275933
  0.1655189111247141  0.3335277733925966  0.4009946588360961
  0.1653276481545397  0.4584817279030418  0.4017794344354214
  0.1660010726876529  0.5837828753035391  0.4006202194171621
  0.1667460912896608  0.7089358178553710  0.3999283000542846
  0.1672292739445463  0.8342277034977376  0.3997713358872892
  0.1674301875778508  0.9596176061643633  0.3998242790170820
  0.2925371773349625  0.0852511618416291  0.4000357714373320
  0.2928195488604846  0.2113522986382078  0.4010011593227780
  0.2908822290216748  0.3349989955648365  0.4009327884899011
  0.2894566549731629  0.4575858845412845  0.4009166162492168
  0.2897432766687259  0.5832127510549556  0.4009137797391404
  0.2911982808124754  0.7084304956828044  0.3997844984289731
  0.2919406057192484  0.8339201074911065  0.3997177450201633
  0.2922456959309188  0.9594148950893058  0.3996701101329904
  0.4171699542781203  0.0842898463947266  0.3995454656913403
  0.4176545728286959  0.2102262122198230  0.3998639545753940
  0.4194136379085954  0.3377802392185569  0.4034036647273713
  0.4157054028494719  0.7074915768158453  0.3987552581355540
  0.4165315569483134  0.8329698244746834  0.3994320973969437
  0.4169403029963996  0.9585994197435280  0.3996912907571987
  0.5417967220179893  0.0830697535779887  0.3996464476784800
  0.5422579575883967  0.2087118610530744  0.3993022871665744
  0.5431388900600816  0.3342807269940199  0.4003142412618870
  0.5457048862758043  0.4594314073320564  0.4048115214523237
  0.5395535229228452  0.7035499989885347  0.4008487444299612
  0.5411851334632971  0.8313053895849081  0.3994288675093969
  0.5415648739779239  0.9574100897261981  0.3997764340724159
  0.6664977096786363  0.0825885562201327  0.4000858295116695
  0.6667988922726329  0.2079252020416895  0.3995656016813847
  0.6675116243789444  0.3332894389279747  0.3992572792951766
  0.6691668199253517  0.4587708228030922  0.3998020107105943
  0.6700354761147911  0.5841417148592588  0.4011490811144700
  0.6667321408250052  0.7067962885683312  0.4004691674371358
  0.6654530487892500  0.8312301347834389  0.3998824103848084
  0.6661371144469360  0.9570939276218259  0.4000203564617653
  0.7911901426828519  0.0824745012713134  0.3999921011792593
  0.7914409597142888  0.2077583411216151  0.3996446933897920
  0.7919595694993491  0.3330806161565603  0.3992865521785648
  0.7928767824232036  0.4584628583940354  0.3989899766125507
  0.7935205126796513  0.5838033244443691  0.3991617160482023
  0.7931627841606342  0.7089123469488857  0.3994897705470532
  0.7913675004137273  0.8326627143918509  0.3993479235483943
  0.7909180807808830  0.9572289478439467  0.3997187354657894
  0.9161923294671913  0.0828308396716145  0.3996335749918957
  0.9161292120091669  0.2078151442851894  0.3996862684395808
  0.9163709867266248  0.3330264551491681  0.3996243259042784
  0.9169984072894135  0.4584158108295340  0.3993222488092996
  0.9176597416255476  0.5838273286887491  0.3992173781030121
  0.9177363821981569  0.7089900959976574  0.3995215694361486
  0.9173713531070047  0.8339616330986249  0.3996178054874880
  0.9165940779981635  0.9582464493934927  0.3996110509677483
  0.0839956920693322  0.0426459558521029  0.3997869706151806
  0.0832522375852473  0.1670624827680401  0.3998885984070984
  0.0826454812324177  0.2917164030157590  0.4005230381007155
  0.0823624233360789  0.4165445205153858  0.4008902571622041
  0.0829496801558333  0.5419275521010763  0.4002398510977535
  0.0836201590879199  0.6672596613488090  0.3998264236146111
  0.0839605817127718  0.7925106538881470  0.3998747786467056
  0.0840925547309346  0.9177068684808517  0.3998408794242594
  0.2090892949219072  0.0430869661540466  0.4000219582742726
  0.2092107551743384  0.1683432008139166  0.4003010463956002
  0.2078561070973055  0.2923251664277844  0.4002435360331135
  0.2065678828958473  0.4169113782837593  0.4020234938013302
  0.2070496181737017  0.5418439261789184  0.4014381323872519
  0.2079670538641138  0.6670681237276664  0.4001497533031582
  0.2086359577735088  0.7924334868557484  0.3997953573781406
  0.2089700677582244  0.9177619215677727  0.3997067290651160
  0.3339325202006024  0.0430622267652832  0.3997181859952411
  0.3342472287589483  0.1689205729974633  0.4004051406431846
  0.3345950835352112  0.2953061183726943  0.4021863118697207
  0.3317293489894632  0.5422128088032000  0.3997726467541159
  0.3322227822050454  0.6664508660035313  0.3996439487445573
  0.3333428390497708  0.7919455352419148  0.3995816488503051
  0.3336589684003624  0.9173633395624879  0.3996976163398637
  0.4585782509905590  0.0420610669878224  0.3995964341205252
  0.4588982006953999  0.1678436135832002  0.3994319655389199
  0.4597380159028256  0.2939522818127220  0.4006093454458783
  0.4638279505367486  0.4200761366141471  0.4081789081510051
  0.4556558683779307  0.6640724535676453  0.3990414803051094
  0.4579343239578349  0.7907429686928813  0.3990908226468309
  0.4583088532986602  0.9164487283700425  0.3996452731203294
  0.5832079737337948  0.0409715123284428  0.3999190164656957
  0.5835496445610675  0.1665696185381902  0.3994525991229380
  0.5842680014895537  0.2919988375768229  0.3994212147801019
  0.5863748812364403  0.4175800693719880  0.4011873070797284
  0.5884291174063924  0.5436380861739294  0.4046288846383913
  0.5829955212238732  0.6623670740718404  0.4028487679502732
  0.5818033525551639  0.7881799525089511  0.4000050709518913
  0.5829215483998044  0.9151328010993398  0.3997316123251881
  0.7079041636988324  0.0406725898742429  0.4001699066506006
  0.7082052201020231  0.1660530630456458  0.3998188404137427
  0.7087185833369199  0.2914020173604980  0.3993399669381966
  0.7099388780289763  0.4167602431454849  0.3991307389913811
  0.7109071645636654  0.5419528753616094  0.3998026714127093
  0.7102470845065050  0.6671033687419469  0.4003180178285416
  0.7077607880707049  0.7903416025838499  0.3995705109229725
  0.7073950321807118  0.9150355174357484  0.3998511467331002
  0.8327868724295041  0.0408481245050071  0.3997987352207350
  0.8329558376260493  0.1660235408177900  0.3997525666173364
  0.8332036897137576  0.2911773180392153  0.3994287800712704
  0.8339120094019784  0.4164931277611298  0.3991372336886732
  0.8347067149430536  0.5419640780053915  0.3990003053925951
  0.8347912637387080  0.6672637158343437  0.3993558674513462
  0.8340873149397567  0.7920682786647335  0.3993902032584616
  0.8330649981707398  0.9161471290906761  0.3995204084206047
  0.9582677620171506  0.0416614589395088  0.3996347299351184
  0.9579117983005434  0.1662814278439957  0.3996703222043757
  0.9577960877585824  0.2913221030517132  0.3998657930773466
  0.9581534555652399  0.4165552313961801  0.3996803472297688
  0.9587487304237788  0.5418468982523627  0.3993835411583083
  0.9592218366847760  0.6672419930389921  0.3995012848680607
  0.9592273775554626  0.7925060793195462  0.3997430637174045
  0.9588967105356002  0.9173244574075519  0.3996960964169652
  0.4128771917365531  0.5839735085898653  0.3985774808375674
  0.5470491460380097  0.5823869003962039  0.4073645542811878
  0.3287695763269635  0.4156504558648996  0.4012471472959279
  0.4365085435816730  0.4999915948077678  0.4922387945707231
 
  0.00000000E+00  0.00000000E+00  0.00000000E+00
  0.00000000E+00  0.00000000E+00  0.00000000E+00
  0.00000000E+00  0.00000000E+00  0.00000000E+00
  0.00000000E+00  0.00000000E+00  0.00000000E+00
  0.00000000E+00  0.00000000E+00  0.00000000E+00
  0.00000000E+00  0.00000000E+00  0.00000000E+00
  0.00000000E+00  0.00000000E+00  0.00000000E+00
  0.00000000E+00  0.00000000E+00  0.00000000E+00
  0.00000000E+00  0.00000000E+00  0.00000000E+00
  0.00000000E+00  0.00000000E+00  0.00000000E+00
  0.00000000E+00  0.00000000E+00  0.00000000E+00
  0.00000000E+00  0.00000000E+00  0.00000000E+00
  0.00000000E+00  0.00000000E+00  0.00000000E+00
  0.00000000E+00  0.00000000E+00  0.00000000E+00
  0.00000000E+00  0.00000000E+00  0.00000000E+00
  0.00000000E+00  0.00000000E+00  0.00000000E+00
  0.00000000E+00  0.00000000E+00  0.00000000E+00
  0.00000000E+00  0.00000000E+00  0.00000000E+00
  0.00000000E+00  0.00000000E+00  0.00000000E+00
  0.00000000E+00  0.00000000E+00  0.00000000E+00
  0.00000000E+00  0.00000000E+00  0.00000000E+00
  0.00000000E+00  0.00000000E+00  0.00000000E+00
  0.00000000E+00  0.00000000E+00  0.00000000E+00
  0.00000000E+00  0.00000000E+00  0.00000000E+00
  0.00000000E+00  0.00000000E+00  0.00000000E+00
  0.00000000E+00  0.00000000E+00  0.00000000E+00
  0.00000000E+00  0.00000000E+00  0.00000000E+00
  0.00000000E+00  0.00000000E+00  0.00000000E+00
  0.00000000E+00  0.00000000E+00  0.00000000E+00
  0.00000000E+00  0.00000000E+00  0.00000000E+00
  0.00000000E+00  0.00000000E+00  0.00000000E+00
  0.00000000E+00  0.00000000E+00  0.00000000E+00
  0.00000000E+00  0.00000000E+00  0.00000000E+00
  0.00000000E+00  0.00000000E+00  0.00000000E+00
  0.00000000E+00  0.00000000E+00  0.00000000E+00
  0.00000000E+00  0.00000000E+00  0.00000000E+00
  0.00000000E+00  0.00000000E+00  0.00000000E+00
  0.00000000E+00  0.00000000E+00  0.00000000E+00
  0.00000000E+00  0.00000000E+00  0.00000000E+00
  0.00000000E+00  0.00000000E+00  0.00000000E+00
  0.00000000E+00  0.00000000E+00  0.00000000E+00
  0.00000000E+00  0.00000000E+00  0.00000000E+00
  0.00000000E+00  0.00000000E+00  0.00000000E+00
  0.00000000E+00  0.00000000E+00  0.00000000E+00
  0.00000000E+00  0.00000000E+00  0.00000000E+00
  0.00000000E+00  0.00000000E+00  0.00000000E+00
  0.00000000E+00  0.00000000E+00  0.00000000E+00
  0.00000000E+00  0.00000000E+00  0.00000000E+00
  0.00000000E+00  0.00000000E+00  0.00000000E+00
  0.00000000E+00  0.00000000E+00  0.00000000E+00
  0.00000000E+00  0.00000000E+00  0.00000000E+00
  0.00000000E+00  0.00000000E+00  0.00000000E+00
  0.00000000E+00  0.00000000E+00  0.00000000E+00
  0.00000000E+00  0.00000000E+00  0.00000000E+00
  0.00000000E+00  0.00000000E+00  0.00000000E+00
  0.00000000E+00  0.00000000E+00  0.00000000E+00
  0.00000000E+00  0.00000000E+00  0.00000000E+00
  0.00000000E+00  0.00000000E+00  0.00000000E+00
  0.00000000E+00  0.00000000E+00  0.00000000E+00
  0.00000000E+00  0.00000000E+00  0.00000000E+00
  0.00000000E+00  0.00000000E+00  0.00000000E+00
  0.00000000E+00  0.00000000E+00  0.00000000E+00
  0.00000000E+00  0.00000000E+00  0.00000000E+00
  0.00000000E+00  0.00000000E+00  0.00000000E+00
  0.00000000E+00  0.00000000E+00  0.00000000E+00
  0.00000000E+00  0.00000000E+00  0.00000000E+00
  0.00000000E+00  0.00000000E+00  0.00000000E+00
  0.00000000E+00  0.00000000E+00  0.00000000E+00
  0.00000000E+00  0.00000000E+00  0.00000000E+00
  0.00000000E+00  0.00000000E+00  0.00000000E+00
  0.00000000E+00  0.00000000E+00  0.00000000E+00
  0.00000000E+00  0.00000000E+00  0.00000000E+00
  0.00000000E+00  0.00000000E+00  0.00000000E+00
  0.00000000E+00  0.00000000E+00  0.00000000E+00
  0.00000000E+00  0.00000000E+00  0.00000000E+00
  0.00000000E+00  0.00000000E+00  0.00000000E+00
  0.00000000E+00  0.00000000E+00  0.00000000E+00
  0.00000000E+00  0.00000000E+00  0.00000000E+00
  0.00000000E+00  0.00000000E+00  0.00000000E+00
  0.00000000E+00  0.00000000E+00  0.00000000E+00
  0.00000000E+00  0.00000000E+00  0.00000000E+00
  0.00000000E+00  0.00000000E+00  0.00000000E+00
  0.00000000E+00  0.00000000E+00  0.00000000E+00
  0.00000000E+00  0.00000000E+00  0.00000000E+00
  0.00000000E+00  0.00000000E+00  0.00000000E+00
  0.00000000E+00  0.00000000E+00  0.00000000E+00
  0.00000000E+00  0.00000000E+00  0.00000000E+00
  0.00000000E+00  0.00000000E+00  0.00000000E+00
  0.00000000E+00  0.00000000E+00  0.00000000E+00
  0.00000000E+00  0.00000000E+00  0.00000000E+00
  0.00000000E+00  0.00000000E+00  0.00000000E+00
  0.00000000E+00  0.00000000E+00  0.00000000E+00
  0.00000000E+00  0.00000000E+00  0.00000000E+00
  0.00000000E+00  0.00000000E+00  0.00000000E+00
  0.00000000E+00  0.00000000E+00  0.00000000E+00
  0.00000000E+00  0.00000000E+00  0.00000000E+00
  0.00000000E+00  0.00000000E+00  0.00000000E+00
  0.00000000E+00  0.00000000E+00  0.00000000E+00
  0.00000000E+00  0.00000000E+00  0.00000000E+00
  0.00000000E+00  0.00000000E+00  0.00000000E+00
  0.00000000E+00  0.00000000E+00  0.00000000E+00
  0.00000000E+00  0.00000000E+00  0.00000000E+00
  0.00000000E+00  0.00000000E+00  0.00000000E+00
  0.00000000E+00  0.00000000E+00  0.00000000E+00
  0.00000000E+00  0.00000000E+00  0.00000000E+00
  0.00000000E+00  0.00000000E+00  0.00000000E+00
  0.00000000E+00  0.00000000E+00  0.00000000E+00
  0.00000000E+00  0.00000000E+00  0.00000000E+00
  0.00000000E+00  0.00000000E+00  0.00000000E+00
  0.00000000E+00  0.00000000E+00  0.00000000E+00
  0.00000000E+00  0.00000000E+00  0.00000000E+00
  0.00000000E+00  0.00000000E+00  0.00000000E+00
  0.00000000E+00  0.00000000E+00  0.00000000E+00
  0.00000000E+00  0.00000000E+00  0.00000000E+00
  0.00000000E+00  0.00000000E+00  0.00000000E+00
  0.00000000E+00  0.00000000E+00  0.00000000E+00
  0.00000000E+00  0.00000000E+00  0.00000000E+00
  0.00000000E+00  0.00000000E+00  0.00000000E+00
  0.00000000E+00  0.00000000E+00  0.00000000E+00
  0.00000000E+00  0.00000000E+00  0.00000000E+00
  0.00000000E+00  0.00000000E+00  0.00000000E+00
  0.00000000E+00  0.00000000E+00  0.00000000E+00
  0.00000000E+00  0.00000000E+00  0.00000000E+00
  0.00000000E+00  0.00000000E+00  0.00000000E+00
  0.00000000E+00  0.00000000E+00  0.00000000E+00
  0.00000000E+00  0.00000000E+00  0.00000000E+00
  0.00000000E+00  0.00000000E+00  0.00000000E+00
  0.00000000E+00  0.00000000E+00  0.00000000E+00
