V1 H1 C123 N3 O2                        
   1.00000000000000     
    19.7969386844655766    0.0100085401069177    0.0250923584804708
    -9.8897569880122003   17.0235703482127931   -0.0718529553737168
     0.0379824337942511   -0.1039300209100399   29.8491416222200563
   V    H    C    N    O 
     1     1   123     3     2
Direct
  0.4366291049537923  0.5010672398782618  0.4284117648925726
  0.4922829304473365  0.5085360911534460  0.5450071914284798
  0.0419216044468872  0.0841159532443423  0.3998358930338651
  0.0410947857227148  0.2082958543581416  0.3999039848913888
  0.0405125665909700  0.3330590396376876  0.3998207425580737
  0.0406954038152447  0.4582415114054220  0.3996270955257481
  0.0414406567221569  0.5836648330157681  0.3996672836771288
  0.0421105962930036  0.7090704770946673  0.3997752954725371
  0.0423482804382052  0.8343152837237584  0.3998329297835507
  0.0422883149223107  0.9594303873848193  0.3998200934513629
  0.1676778957547395  0.0853968170719774  0.4001982538053138
  0.1674199119812445  0.2103099941420324  0.4004752740700098
  0.1653294352622035  0.3337413435747503  0.4004572403226652
  0.1646882302571497  0.4584170041357337  0.3997729032044489
  0.1654897075100307  0.5835587333518166  0.3995523608792317
  0.1665075013848982  0.7088444965964270  0.3996651784789121
  0.1670372759740095  0.8342762631164324  0.3998120535582130
  0.1673799562723062  0.9598544049139867  0.3999279242238385
  0.2924820116634523  0.0856994089645704  0.4001680561711821
  0.2931407912540381  0.2125396547256819  0.4013129019225791
  0.2925463609633135  0.3383898669378334  0.4025285663997981
  0.2884787456449595  0.4577930027414718  0.4012607098567600
  0.2890740190877491  0.5828160861221761  0.3995968557661282
  0.2908996982920893  0.7082191266694302  0.3995115457328879
  0.2917023186850485  0.8337757359004899  0.3996911365172752
  0.2920738607699045  0.9594902720683174  0.3998306954962517
  0.4169409604752457  0.0843147268893646  0.3998077417399772
  0.4175475138301667  0.2107578296926536  0.4002802509463650
  0.4193114545669602  0.3388425049084182  0.4028381712815861
  0.4149938420847830  0.7056231041899178  0.3999496429884757
  0.4162292945722101  0.8321017240781766  0.3998526976671095
  0.4166654038439755  0.9582560070980791  0.3997950361341023
  0.5414827523653634  0.0828292225524142  0.3997861014293320
  0.5419283068344058  0.2086504093887617  0.3996213383220716
  0.5428569081265580  0.3343784644035822  0.4000678025104807
  0.5457041582112917  0.4597588788892588  0.4020954385063489
  0.5384980429777464  0.7016751646582462  0.4019522840972243
  0.5405400152737462  0.8301755875131056  0.4004354612550083
  0.5411387307658742  0.9567962662825447  0.4000048353786046
  0.6661058581770154  0.0821951690030205  0.3999505726653577
  0.6664614885056594  0.2077042936027405  0.3996844801326472
  0.6671821072133225  0.3331623107642993  0.3993977974810136
  0.6689842262260249  0.4587064462410191  0.3993241967353837
  0.6699029784315284  0.5839830549433103  0.3999937252936873
  0.6662049628072200  0.7060798416662937  0.4007048980749164
  0.6647180347667533  0.8303128704854188  0.4005848173684326
  0.6656087601937474  0.9564036507951028  0.4002258141670316
  0.7908130545874854  0.0821509054062826  0.3999257689796171
  0.7910988505884302  0.2075000370531595  0.3998136008695335
  0.7915872952560672  0.3328868592089774  0.3996062999496536
  0.7925766311635689  0.4583244517096862  0.3993678002047764
  0.7934044039072964  0.5837731065075192  0.3993349706216564
  0.7930016661086621  0.7087963185065823  0.3997527657232809
  0.7910521121897697  0.8323580332149915  0.3998643365326379
  0.7905126232670308  0.9568490679002182  0.3999518032285954
  0.9159915385872314  0.0827248822062129  0.3997266729874929
  0.9158507721568112  0.2076180976872920  0.3997630196220430
  0.9159806214909183  0.3328348537176957  0.3997060938478729
  0.9166204422023320  0.4582646122367394  0.3996255527904167
  0.9173795693718523  0.5837342362960369  0.3996256373175004
  0.9175752480719130  0.7089892613769969  0.3996850063755054
  0.9172889093249953  0.8339762239203246  0.3997387216649186
  0.9164900591197693  0.9582748595980910  0.3997071090100931
  0.0841445872240833  0.0430818727026323  0.3999144177426032
  0.0837351772555242  0.1677511974080496  0.4000135825797906
  0.0823451281173427  0.2916714511156265  0.4000276191284233
  0.0818540970149835  0.4164233783324726  0.3997032105779648
  0.0825217055101268  0.5417809361827475  0.3996203941964759
  0.0833705515774548  0.6672009732201165  0.3997156431108679
  0.0838397172004588  0.7925713159558271  0.3998218983029059
  0.0840535246649748  0.9178858371374141  0.3998575512213093
  0.2091478717254573  0.0435687929106761  0.4001107417910288
  0.2095873909568870  0.1693033021322072  0.4006932064770220
  0.2087836518604381  0.2940360542383306  0.4008971178630156
  0.2060648600248580  0.4169416427049700  0.4003446234852024
  0.2062630555278983  0.5415098240244104  0.3996111725795293
  0.2076492489308565  0.6669175819808416  0.3995586429974520
  0.2084674989422353  0.7924061747075566  0.3997142496487812
  0.2088171884687564  0.9178837262866174  0.3998542848599664
  0.3337530840970591  0.0432616540695659  0.3999026689043226
  0.3342149891591329  0.1696636126251263  0.4006191608524178
  0.3351788661389900  0.2970260721920333  0.4026674124988248
  0.3304113652755379  0.5417226941783101  0.4002625148608011
  0.3318109805195343  0.6660049147962456  0.3995259363730744
  0.3330369606407220  0.7915981049604542  0.3996610164461131
  0.3334422864565149  0.9173004380528292  0.3997635976299502
  0.4582787079634922  0.0418877664217474  0.3997729012370140
  0.4586562501776998  0.1680285004727897  0.3997990847289707
  0.4595360207088254  0.2945899023358333  0.4007599513680917
  0.4637270416387600  0.4220449247415934  0.4056708815794068
  0.4541846460288752  0.6607067275179407  0.4010273779240631
  0.4573390837630396  0.7893484639061975  0.4000636543389167
  0.4579635477131997  0.9158243395462851  0.3998866382402148
  0.5828321199224916  0.0405879453997236  0.3999278928453133
  0.5832645026213742  0.1664303381613623  0.3996591918291207
  0.5838957324902390  0.2920356746361702  0.3995639938937053
  0.5861473695897165  0.4177007550778962  0.4000473448249421
  0.5881949795414190  0.5432547397802050  0.4020349601400412
  0.5821947771967610  0.6610556309955278  0.4026463548065431
  0.5809351812515323  0.7867796956570217  0.4010063846501736
  0.5823609875525469  0.9142893444444553  0.4002162812505305
  0.7074812341360404  0.0401944843620135  0.4000457268558018
  0.7078866808208413  0.1658042193740316  0.3998264878930763
  0.7083784463951268  0.2912694254463180  0.3995460892951768
  0.7096553262362381  0.4166139398203177  0.3992413358531359
  0.7107764715440854  0.5418613973113269  0.3993098136730966
  0.7101056924896142  0.6669055487255443  0.4001538564004689
  0.7073126855641041  0.7897340622634642  0.4002466576958338
  0.7068515616724604  0.9143677092567449  0.4002573353258513
  0.8324932424539767  0.0405781283016094  0.3998481629809495
  0.8326001788511780  0.1657723171358231  0.3998300104197718
  0.8328574411650698  0.2910212676425620  0.3997170375546667
  0.8336272208288659  0.4164147336216281  0.3995549423185145
  0.8344810284181824  0.5418997462951981  0.3994248389561048
  0.8346668461982167  0.6672164067178357  0.3995646280678208
  0.8339515469691695  0.7919938127442514  0.3997614915289297
  0.8328425796107378  0.9159590403759662  0.3998006187663657
  0.9583198547681147  0.0418165546786075  0.3997062414002393
  0.9577132248925251  0.1662165135545654  0.3997501067851886
  0.9574690352587164  0.2911806379699436  0.3997545600510627
  0.9577358263615531  0.4163933181698528  0.3996644143329505
  0.9584634174701581  0.5418072495772444  0.3996473889370518
  0.9590579489881285  0.6672518971171896  0.3997110975589768
  0.9591224932400455  0.7925479345152961  0.3997638066294779
  0.9588569524425773  0.9174156605215120  0.3997388054574843
  0.4107509360753959  0.5798379526896609  0.4013129446090078
  0.5455779513845701  0.5805689579382771  0.4053005778227047
  0.3306594754278886  0.4196638467126562  0.4039150275502516
  0.5081270073013278  0.4993752858320980  0.5154679693149922
  0.4514013948317555  0.5064584337966870  0.4874202731592308
 
  0.00000000E+00  0.00000000E+00  0.00000000E+00
  0.00000000E+00  0.00000000E+00  0.00000000E+00
  0.00000000E+00  0.00000000E+00  0.00000000E+00
  0.00000000E+00  0.00000000E+00  0.00000000E+00
  0.00000000E+00  0.00000000E+00  0.00000000E+00
  0.00000000E+00  0.00000000E+00  0.00000000E+00
  0.00000000E+00  0.00000000E+00  0.00000000E+00
  0.00000000E+00  0.00000000E+00  0.00000000E+00
  0.00000000E+00  0.00000000E+00  0.00000000E+00
  0.00000000E+00  0.00000000E+00  0.00000000E+00
  0.00000000E+00  0.00000000E+00  0.00000000E+00
  0.00000000E+00  0.00000000E+00  0.00000000E+00
  0.00000000E+00  0.00000000E+00  0.00000000E+00
  0.00000000E+00  0.00000000E+00  0.00000000E+00
  0.00000000E+00  0.00000000E+00  0.00000000E+00
  0.00000000E+00  0.00000000E+00  0.00000000E+00
  0.00000000E+00  0.00000000E+00  0.00000000E+00
  0.00000000E+00  0.00000000E+00  0.00000000E+00
  0.00000000E+00  0.00000000E+00  0.00000000E+00
  0.00000000E+00  0.00000000E+00  0.00000000E+00
  0.00000000E+00  0.00000000E+00  0.00000000E+00
  0.00000000E+00  0.00000000E+00  0.00000000E+00
  0.00000000E+00  0.00000000E+00  0.00000000E+00
  0.00000000E+00  0.00000000E+00  0.00000000E+00
  0.00000000E+00  0.00000000E+00  0.00000000E+00
  0.00000000E+00  0.00000000E+00  0.00000000E+00
  0.00000000E+00  0.00000000E+00  0.00000000E+00
  0.00000000E+00  0.00000000E+00  0.00000000E+00
  0.00000000E+00  0.00000000E+00  0.00000000E+00
  0.00000000E+00  0.00000000E+00  0.00000000E+00
  0.00000000E+00  0.00000000E+00  0.00000000E+00
  0.00000000E+00  0.00000000E+00  0.00000000E+00
  0.00000000E+00  0.00000000E+00  0.00000000E+00
  0.00000000E+00  0.00000000E+00  0.00000000E+00
  0.00000000E+00  0.00000000E+00  0.00000000E+00
  0.00000000E+00  0.00000000E+00  0.00000000E+00
  0.00000000E+00  0.00000000E+00  0.00000000E+00
  0.00000000E+00  0.00000000E+00  0.00000000E+00
  0.00000000E+00  0.00000000E+00  0.00000000E+00
  0.00000000E+00  0.00000000E+00  0.00000000E+00
  0.00000000E+00  0.00000000E+00  0.00000000E+00
  0.00000000E+00  0.00000000E+00  0.00000000E+00
  0.00000000E+00  0.00000000E+00  0.00000000E+00
  0.00000000E+00  0.00000000E+00  0.00000000E+00
  0.00000000E+00  0.00000000E+00  0.00000000E+00
  0.00000000E+00  0.00000000E+00  0.00000000E+00
  0.00000000E+00  0.00000000E+00  0.00000000E+00
  0.00000000E+00  0.00000000E+00  0.00000000E+00
  0.00000000E+00  0.00000000E+00  0.00000000E+00
  0.00000000E+00  0.00000000E+00  0.00000000E+00
  0.00000000E+00  0.00000000E+00  0.00000000E+00
  0.00000000E+00  0.00000000E+00  0.00000000E+00
  0.00000000E+00  0.00000000E+00  0.00000000E+00
  0.00000000E+00  0.00000000E+00  0.00000000E+00
  0.00000000E+00  0.00000000E+00  0.00000000E+00
  0.00000000E+00  0.00000000E+00  0.00000000E+00
  0.00000000E+00  0.00000000E+00  0.00000000E+00
  0.00000000E+00  0.00000000E+00  0.00000000E+00
  0.00000000E+00  0.00000000E+00  0.00000000E+00
  0.00000000E+00  0.00000000E+00  0.00000000E+00
  0.00000000E+00  0.00000000E+00  0.00000000E+00
  0.00000000E+00  0.00000000E+00  0.00000000E+00
  0.00000000E+00  0.00000000E+00  0.00000000E+00
  0.00000000E+00  0.00000000E+00  0.00000000E+00
  0.00000000E+00  0.00000000E+00  0.00000000E+00
  0.00000000E+00  0.00000000E+00  0.00000000E+00
  0.00000000E+00  0.00000000E+00  0.00000000E+00
  0.00000000E+00  0.00000000E+00  0.00000000E+00
  0.00000000E+00  0.00000000E+00  0.00000000E+00
  0.00000000E+00  0.00000000E+00  0.00000000E+00
  0.00000000E+00  0.00000000E+00  0.00000000E+00
  0.00000000E+00  0.00000000E+00  0.00000000E+00
  0.00000000E+00  0.00000000E+00  0.00000000E+00
  0.00000000E+00  0.00000000E+00  0.00000000E+00
  0.00000000E+00  0.00000000E+00  0.00000000E+00
  0.00000000E+00  0.00000000E+00  0.00000000E+00
  0.00000000E+00  0.00000000E+00  0.00000000E+00
  0.00000000E+00  0.00000000E+00  0.00000000E+00
  0.00000000E+00  0.00000000E+00  0.00000000E+00
  0.00000000E+00  0.00000000E+00  0.00000000E+00
  0.00000000E+00  0.00000000E+00  0.00000000E+00
  0.00000000E+00  0.00000000E+00  0.00000000E+00
  0.00000000E+00  0.00000000E+00  0.00000000E+00
  0.00000000E+00  0.00000000E+00  0.00000000E+00
  0.00000000E+00  0.00000000E+00  0.00000000E+00
  0.00000000E+00  0.00000000E+00  0.00000000E+00
  0.00000000E+00  0.00000000E+00  0.00000000E+00
  0.00000000E+00  0.00000000E+00  0.00000000E+00
  0.00000000E+00  0.00000000E+00  0.00000000E+00
  0.00000000E+00  0.00000000E+00  0.00000000E+00
  0.00000000E+00  0.00000000E+00  0.00000000E+00
  0.00000000E+00  0.00000000E+00  0.00000000E+00
  0.00000000E+00  0.00000000E+00  0.00000000E+00
  0.00000000E+00  0.00000000E+00  0.00000000E+00
  0.00000000E+00  0.00000000E+00  0.00000000E+00
  0.00000000E+00  0.00000000E+00  0.00000000E+00
  0.00000000E+00  0.00000000E+00  0.00000000E+00
  0.00000000E+00  0.00000000E+00  0.00000000E+00
  0.00000000E+00  0.00000000E+00  0.00000000E+00
  0.00000000E+00  0.00000000E+00  0.00000000E+00
  0.00000000E+00  0.00000000E+00  0.00000000E+00
  0.00000000E+00  0.00000000E+00  0.00000000E+00
  0.00000000E+00  0.00000000E+00  0.00000000E+00
  0.00000000E+00  0.00000000E+00  0.00000000E+00
  0.00000000E+00  0.00000000E+00  0.00000000E+00
  0.00000000E+00  0.00000000E+00  0.00000000E+00
  0.00000000E+00  0.00000000E+00  0.00000000E+00
  0.00000000E+00  0.00000000E+00  0.00000000E+00
  0.00000000E+00  0.00000000E+00  0.00000000E+00
  0.00000000E+00  0.00000000E+00  0.00000000E+00
  0.00000000E+00  0.00000000E+00  0.00000000E+00
  0.00000000E+00  0.00000000E+00  0.00000000E+00
  0.00000000E+00  0.00000000E+00  0.00000000E+00
  0.00000000E+00  0.00000000E+00  0.00000000E+00
  0.00000000E+00  0.00000000E+00  0.00000000E+00
  0.00000000E+00  0.00000000E+00  0.00000000E+00
  0.00000000E+00  0.00000000E+00  0.00000000E+00
  0.00000000E+00  0.00000000E+00  0.00000000E+00
  0.00000000E+00  0.00000000E+00  0.00000000E+00
  0.00000000E+00  0.00000000E+00  0.00000000E+00
  0.00000000E+00  0.00000000E+00  0.00000000E+00
  0.00000000E+00  0.00000000E+00  0.00000000E+00
  0.00000000E+00  0.00000000E+00  0.00000000E+00
  0.00000000E+00  0.00000000E+00  0.00000000E+00
  0.00000000E+00  0.00000000E+00  0.00000000E+00
  0.00000000E+00  0.00000000E+00  0.00000000E+00
  0.00000000E+00  0.00000000E+00  0.00000000E+00
  0.00000000E+00  0.00000000E+00  0.00000000E+00
  0.00000000E+00  0.00000000E+00  0.00000000E+00
  0.00000000E+00  0.00000000E+00  0.00000000E+00
