Y1 H1 C125 N1                           
   1.00000000000000     
    19.7779379496952501   -0.0110099098334981   -0.0936107046614601
    -9.8986348314931121   17.0861319203449860   -0.0305289286559417
    -0.1405862374059102   -0.1345659839571748   29.7876339549215281
   Y    H    C    N 
     1     1   125     1
Direct
  0.4392468428015286  0.5083871584089934  0.4554532417880630
  0.4651860612958170  0.5259846770229826  0.5232662781117385
  0.0418052572041603  0.0836918586496489  0.3992076403367278
  0.0415902149603030  0.2084353399539935  0.3991505777764511
  0.0413971306007491  0.3331590051814574  0.3985336660301012
  0.0413818710722482  0.4583428666046010  0.3977124911732735
  0.0414461774739086  0.5835052452235373  0.3975358515821303
  0.0417117963121651  0.7086384815325903  0.3978047558040038
  0.0419239151055342  0.8338536675676186  0.3982562240397290
  0.0419906945616210  0.9589009563672540  0.3987772132840148
  0.1671048861209825  0.0842155437896740  0.3999380146412364
  0.1669125191378652  0.2089418942695915  0.4005745431987579
  0.1668493819721770  0.3340106612057210  0.4000765256299791
  0.1660507233763380  0.4585455143069615  0.3985994824415854
  0.1658557601861743  0.5836043649777944  0.3976511595262440
  0.1663009750175455  0.7087822733806451  0.3981271722512701
  0.1667091973796677  0.8339298584440874  0.3986298529706135
  0.1670061750183065  0.9591046209888897  0.3991714155473666
  0.2921513301423836  0.0840891978514587  0.4002390811741156
  0.2926851729848237  0.2098379776419033  0.4025452827888110
  0.2923944929447280  0.3351154477829639  0.4044646389559594
  0.2920688016791999  0.4592624460399669  0.4031783142178806
  0.2899888551802514  0.5844922641339924  0.3993646405090552
  0.2909141205030017  0.7091906345610589  0.3984806583787827
  0.2914803759425003  0.8339069185959999  0.3986445027835867
  0.2917455907835457  0.9588644993286481  0.3991077976595934
  0.4169009738768550  0.0834478031301109  0.3993513764583690
  0.4172075007201889  0.2084640681621757  0.4014108577839992
  0.4185142040699097  0.3344397833856155  0.4069384597863466
  0.4155133032640501  0.7085225211268220  0.4010631648851635
  0.4162938066729167  0.8334609869872434  0.3990297600164927
  0.4165796674386968  0.9584158336902029  0.3987969940674769
  0.5416561786372899  0.0828306786297680  0.3986310802398680
  0.5420321637682793  0.2079141581660702  0.3992801566491543
  0.5425157084235157  0.3329617804991478  0.4016657458952889
  0.5433086914735940  0.4576990747471067  0.4063867629507418
  0.5461978627433731  0.5829981899788453  0.4123190785831204
  0.5399218353747488  0.7055865423129355  0.4062206007382663
  0.5409562772855039  0.8322128469495094  0.4008610391400470
  0.5414211577488028  0.9576650953919712  0.3990512296411174
  0.6664571707992100  0.0825777372423374  0.3986333190451035
  0.6667569274051247  0.2077238096341708  0.3981551393203002
  0.6670410353412008  0.3327739315618500  0.3984740452112502
  0.6678071266222116  0.4580073056161199  0.3993931363565398
  0.6690402378344602  0.5836324937567707  0.4004237915144718
  0.6668626136410878  0.7077295119244537  0.4011216352286009
  0.6656996922217299  0.8318020923097530  0.4008786644571187
  0.6662301081875297  0.9574107771785829  0.3997005760156581
  0.7913688291969221  0.0826504233594752  0.3989159509533098
  0.7915290547737718  0.2077046401097627  0.3981297840178730
  0.7917925483135236  0.3328706958009166  0.3975095562230740
  0.7922073811058614  0.4581336007206535  0.3973323031840246
  0.7926536554172212  0.5833249833636874  0.3973577976261912
  0.7924775412929349  0.7086085433060668  0.3980599797566546
  0.7916723082175610  0.8331119986129656  0.3988126750931045
  0.7911082367273650  0.9575475851405413  0.3992160928664232
  0.9164476496441026  0.0830126514462050  0.3989720950471371
  0.9164455286239337  0.2079538881331679  0.3986413987489333
  0.9165378446358076  0.3330044171892688  0.3978655941805799
  0.9167140109431677  0.4581094904116731  0.3972157169902372
  0.9170358491537662  0.5833861968877161  0.3971316517474655
  0.9171356231174141  0.7086725100478259  0.3974100231636953
  0.9170141861492902  0.8336364508121117  0.3980437975319829
  0.9166877671108831  0.9583446204035755  0.3987069714812844
  0.0836818060580332  0.0423115325485703  0.3992622158567802
  0.0834395201427999  0.1670108603324479  0.3995354128323345
  0.0831751201215494  0.2918444322595375  0.3990800275710764
  0.0829699055512976  0.4167174614477421  0.3981792220964386
  0.0827872162979086  0.5417705787442874  0.3975764800582099
  0.0831125694673360  0.6669464403851185  0.3978350963296404
  0.0834664605078304  0.7921861994359702  0.3982440131838104
  0.0836209526842949  0.9173100770035997  0.3987375880595687
  0.2087177600382678  0.0424146947237136  0.3998225295951455
  0.2087880367624805  0.1676185587673819  0.4009667361202129
  0.2085795034667649  0.2924577359546865  0.4013851739451436
  0.2080400174410359  0.4174293369283489  0.4002152236276720
  0.2070723331256372  0.5420042272728123  0.3980536917112807
  0.2077670489948281  0.6671972585286154  0.3979912292126551
  0.2081817170034442  0.7922038523282972  0.3985081714881654
  0.2085200260562017  0.9173065976047067  0.3990113572133173
  0.3335725115997364  0.0421707774306035  0.3995465107812770
  0.3340255317457140  0.1673736801913411  0.4015185156998488
  0.3343090891455219  0.2926581922497346  0.4053003696261101
  0.3316735451753722  0.4170648957374071  0.4066873571517963
  0.3328913345182676  0.5451643097017947  0.4035300320513396
  0.3323431663720684  0.6676448812876353  0.3994573398193605
  0.3330181716723715  0.7923343872689763  0.3986745723608194
  0.3333277596125077  0.9171645379836891  0.3988399684101521
  0.4584376356606820  0.0416486136640199  0.3988458027854585
  0.4587232447060557  0.1666332633023584  0.3998916518118468
  0.4592685187102616  0.2917514470033334  0.4031474511814671
  0.4618433480194871  0.4160943760571910  0.4116545686301077
  0.4550092923221545  0.6650189641860849  0.4057822724327759
  0.4578512594484086  0.7916898822883947  0.4000845225321271
  0.4581166456448861  0.9166176466467403  0.3988979144167231
  0.5832038991087800  0.0410167098676970  0.3986952796835940
  0.5834943038251177  0.1661651843194528  0.3985726439136763
  0.5839506103276625  0.2911755557516189  0.3995906333691877
  0.5847405497345399  0.4160884433770670  0.4020541692181402
  0.5868765869296695  0.5429693938812186  0.4060590316719213
  0.5836353292966322  0.6645571615674386  0.4065541584380744
  0.5815990113309407  0.7890354087365005  0.4026045066046004
  0.5828620532762183  0.9156665917370275  0.3997878591432363
  0.7079784146053646  0.0407864699255846  0.3990535126730146
  0.7082680866243685  0.1659941311686507  0.3982068970409600
  0.7085275305533110  0.2911027578471549  0.3978827732165626
  0.7090268989349519  0.4163668923650320  0.3981904265194272
  0.7099101498193195  0.5416749609978669  0.3986223825214698
  0.7093038600984028  0.6667947019390642  0.3995823841751086
  0.7081473999543570  0.7910173056952862  0.3999818001991681
  0.7075373642251427  0.9153724617728388  0.3998702218811389
  0.8329331841921678  0.0410198648488849  0.3990433175609817
  0.8330968923720374  0.1660862531713323  0.3985592829657078
  0.8333169897662843  0.2912456402852888  0.3977579773208859
  0.8335770171536009  0.4163674095465449  0.3972196755705690
  0.8339578215545717  0.5415597365676018  0.3971147119097782
  0.8339964905065061  0.6669685456616530  0.3973988297178043
  0.8337638896341678  0.7918847137982673  0.3981591634253441
  0.8332040206428565  0.9163860038708040  0.3988764197116950
  0.9583321188253441  0.0417191071140797  0.3989309302524928
  0.9581821796870930  0.1664651620974846  0.3989227679168369
  0.9580978877601198  0.2913510058489546  0.3983550795587725
  0.9581809686269792  0.4164638770507052  0.3975639691351626
  0.9583959151942444  0.5417028746720398  0.3972418531244741
  0.9585881030498977  0.6669082248152824  0.3973734884086705
  0.9586858697224507  0.7920637682323283  0.3978442631662596
  0.9585727015618077  0.9170088965042462  0.3984681832473772
  0.4113592753005870  0.5854609937606472  0.4093603629476767
 
  0.00000000E+00  0.00000000E+00  0.00000000E+00
  0.00000000E+00  0.00000000E+00  0.00000000E+00
  0.00000000E+00  0.00000000E+00  0.00000000E+00
  0.00000000E+00  0.00000000E+00  0.00000000E+00
  0.00000000E+00  0.00000000E+00  0.00000000E+00
  0.00000000E+00  0.00000000E+00  0.00000000E+00
  0.00000000E+00  0.00000000E+00  0.00000000E+00
  0.00000000E+00  0.00000000E+00  0.00000000E+00
  0.00000000E+00  0.00000000E+00  0.00000000E+00
  0.00000000E+00  0.00000000E+00  0.00000000E+00
  0.00000000E+00  0.00000000E+00  0.00000000E+00
  0.00000000E+00  0.00000000E+00  0.00000000E+00
  0.00000000E+00  0.00000000E+00  0.00000000E+00
  0.00000000E+00  0.00000000E+00  0.00000000E+00
  0.00000000E+00  0.00000000E+00  0.00000000E+00
  0.00000000E+00  0.00000000E+00  0.00000000E+00
  0.00000000E+00  0.00000000E+00  0.00000000E+00
  0.00000000E+00  0.00000000E+00  0.00000000E+00
  0.00000000E+00  0.00000000E+00  0.00000000E+00
  0.00000000E+00  0.00000000E+00  0.00000000E+00
  0.00000000E+00  0.00000000E+00  0.00000000E+00
  0.00000000E+00  0.00000000E+00  0.00000000E+00
  0.00000000E+00  0.00000000E+00  0.00000000E+00
  0.00000000E+00  0.00000000E+00  0.00000000E+00
  0.00000000E+00  0.00000000E+00  0.00000000E+00
  0.00000000E+00  0.00000000E+00  0.00000000E+00
  0.00000000E+00  0.00000000E+00  0.00000000E+00
  0.00000000E+00  0.00000000E+00  0.00000000E+00
  0.00000000E+00  0.00000000E+00  0.00000000E+00
  0.00000000E+00  0.00000000E+00  0.00000000E+00
  0.00000000E+00  0.00000000E+00  0.00000000E+00
  0.00000000E+00  0.00000000E+00  0.00000000E+00
  0.00000000E+00  0.00000000E+00  0.00000000E+00
  0.00000000E+00  0.00000000E+00  0.00000000E+00
  0.00000000E+00  0.00000000E+00  0.00000000E+00
  0.00000000E+00  0.00000000E+00  0.00000000E+00
  0.00000000E+00  0.00000000E+00  0.00000000E+00
  0.00000000E+00  0.00000000E+00  0.00000000E+00
  0.00000000E+00  0.00000000E+00  0.00000000E+00
  0.00000000E+00  0.00000000E+00  0.00000000E+00
  0.00000000E+00  0.00000000E+00  0.00000000E+00
  0.00000000E+00  0.00000000E+00  0.00000000E+00
  0.00000000E+00  0.00000000E+00  0.00000000E+00
  0.00000000E+00  0.00000000E+00  0.00000000E+00
  0.00000000E+00  0.00000000E+00  0.00000000E+00
  0.00000000E+00  0.00000000E+00  0.00000000E+00
  0.00000000E+00  0.00000000E+00  0.00000000E+00
  0.00000000E+00  0.00000000E+00  0.00000000E+00
  0.00000000E+00  0.00000000E+00  0.00000000E+00
  0.00000000E+00  0.00000000E+00  0.00000000E+00
  0.00000000E+00  0.00000000E+00  0.00000000E+00
  0.00000000E+00  0.00000000E+00  0.00000000E+00
  0.00000000E+00  0.00000000E+00  0.00000000E+00
  0.00000000E+00  0.00000000E+00  0.00000000E+00
  0.00000000E+00  0.00000000E+00  0.00000000E+00
  0.00000000E+00  0.00000000E+00  0.00000000E+00
  0.00000000E+00  0.00000000E+00  0.00000000E+00
  0.00000000E+00  0.00000000E+00  0.00000000E+00
  0.00000000E+00  0.00000000E+00  0.00000000E+00
  0.00000000E+00  0.00000000E+00  0.00000000E+00
  0.00000000E+00  0.00000000E+00  0.00000000E+00
  0.00000000E+00  0.00000000E+00  0.00000000E+00
  0.00000000E+00  0.00000000E+00  0.00000000E+00
  0.00000000E+00  0.00000000E+00  0.00000000E+00
  0.00000000E+00  0.00000000E+00  0.00000000E+00
  0.00000000E+00  0.00000000E+00  0.00000000E+00
  0.00000000E+00  0.00000000E+00  0.00000000E+00
  0.00000000E+00  0.00000000E+00  0.00000000E+00
  0.00000000E+00  0.00000000E+00  0.00000000E+00
  0.00000000E+00  0.00000000E+00  0.00000000E+00
  0.00000000E+00  0.00000000E+00  0.00000000E+00
  0.00000000E+00  0.00000000E+00  0.00000000E+00
  0.00000000E+00  0.00000000E+00  0.00000000E+00
  0.00000000E+00  0.00000000E+00  0.00000000E+00
  0.00000000E+00  0.00000000E+00  0.00000000E+00
  0.00000000E+00  0.00000000E+00  0.00000000E+00
  0.00000000E+00  0.00000000E+00  0.00000000E+00
  0.00000000E+00  0.00000000E+00  0.00000000E+00
  0.00000000E+00  0.00000000E+00  0.00000000E+00
  0.00000000E+00  0.00000000E+00  0.00000000E+00
  0.00000000E+00  0.00000000E+00  0.00000000E+00
  0.00000000E+00  0.00000000E+00  0.00000000E+00
  0.00000000E+00  0.00000000E+00  0.00000000E+00
  0.00000000E+00  0.00000000E+00  0.00000000E+00
  0.00000000E+00  0.00000000E+00  0.00000000E+00
  0.00000000E+00  0.00000000E+00  0.00000000E+00
  0.00000000E+00  0.00000000E+00  0.00000000E+00
  0.00000000E+00  0.00000000E+00  0.00000000E+00
  0.00000000E+00  0.00000000E+00  0.00000000E+00
  0.00000000E+00  0.00000000E+00  0.00000000E+00
  0.00000000E+00  0.00000000E+00  0.00000000E+00
  0.00000000E+00  0.00000000E+00  0.00000000E+00
  0.00000000E+00  0.00000000E+00  0.00000000E+00
  0.00000000E+00  0.00000000E+00  0.00000000E+00
  0.00000000E+00  0.00000000E+00  0.00000000E+00
  0.00000000E+00  0.00000000E+00  0.00000000E+00
  0.00000000E+00  0.00000000E+00  0.00000000E+00
  0.00000000E+00  0.00000000E+00  0.00000000E+00
  0.00000000E+00  0.00000000E+00  0.00000000E+00
  0.00000000E+00  0.00000000E+00  0.00000000E+00
  0.00000000E+00  0.00000000E+00  0.00000000E+00
  0.00000000E+00  0.00000000E+00  0.00000000E+00
  0.00000000E+00  0.00000000E+00  0.00000000E+00
  0.00000000E+00  0.00000000E+00  0.00000000E+00
  0.00000000E+00  0.00000000E+00  0.00000000E+00
  0.00000000E+00  0.00000000E+00  0.00000000E+00
  0.00000000E+00  0.00000000E+00  0.00000000E+00
  0.00000000E+00  0.00000000E+00  0.00000000E+00
  0.00000000E+00  0.00000000E+00  0.00000000E+00
  0.00000000E+00  0.00000000E+00  0.00000000E+00
  0.00000000E+00  0.00000000E+00  0.00000000E+00
  0.00000000E+00  0.00000000E+00  0.00000000E+00
  0.00000000E+00  0.00000000E+00  0.00000000E+00
  0.00000000E+00  0.00000000E+00  0.00000000E+00
  0.00000000E+00  0.00000000E+00  0.00000000E+00
  0.00000000E+00  0.00000000E+00  0.00000000E+00
  0.00000000E+00  0.00000000E+00  0.00000000E+00
  0.00000000E+00  0.00000000E+00  0.00000000E+00
  0.00000000E+00  0.00000000E+00  0.00000000E+00
  0.00000000E+00  0.00000000E+00  0.00000000E+00
  0.00000000E+00  0.00000000E+00  0.00000000E+00
  0.00000000E+00  0.00000000E+00  0.00000000E+00
  0.00000000E+00  0.00000000E+00  0.00000000E+00
  0.00000000E+00  0.00000000E+00  0.00000000E+00
  0.00000000E+00  0.00000000E+00  0.00000000E+00
  0.00000000E+00  0.00000000E+00  0.00000000E+00
  0.00000000E+00  0.00000000E+00  0.00000000E+00
  0.00000000E+00  0.00000000E+00  0.00000000E+00
