Mn1 C123 N3                             
   1.00000000000000     
    19.8226506033330345    0.0029557557995687    0.0114140500615003
    -9.9086385778332318   17.0446062144945358   -0.0126445619295818
     0.0171864794418644   -0.0120112732691913   29.7794007633771400
   Mn   C    N 
     1   123     3
Direct
  0.4370366085260762  0.4995226474974834  0.4088565986163107
  0.0418515027900614  0.0838934191521735  0.3999664823242611
  0.0411149613933751  0.2081803832373186  0.4001715496102692
  0.0404813275905923  0.3330459579936115  0.3998811340502250
  0.0405646024334142  0.4582344485851746  0.3992662553642714
  0.0413347463945407  0.5836826621357365  0.3990712962097808
  0.0419818689080384  0.7089694083544338  0.3991912023516707
  0.0421844029089035  0.8340989486742858  0.3994613759042849
  0.0421454158999085  0.9591714326279231  0.3997373722195511
  0.1674989759934913  0.0848933143288744  0.4006613872780474
  0.1672133584143585  0.2098315953937631  0.4014650338576718
  0.1651079777244410  0.3335568834052255  0.4016229458042849
  0.1642586475321159  0.4585713481977318  0.4004396545653530
  0.1650847463394002  0.5837537565376805  0.3995559045713097
  0.1663346569482241  0.7088430333892541  0.3993881208065739
  0.1668949015077945  0.8341109989869292  0.3994722788015073
  0.1671913245101059  0.9595357217504878  0.3999700296955254
  0.2923146118108664  0.0852604588547708  0.4006402460438299
  0.2928286075571620  0.2118021406668613  0.4024029892006175
  0.2919771473117959  0.3372254360879980  0.4042635666003168
  0.2873650645919167  0.4582578020520939  0.4038736999032297
  0.2881588982949382  0.5831407116811816  0.4015877401645692
  0.2906748571519757  0.7084510954457200  0.4000338761851721
  0.2915856508062118  0.8338042391038354  0.3995591225329730
  0.2919693472456950  0.9592851430189663  0.3997462341195145
  0.4169497392327882  0.0839339121987252  0.3998243872391076
  0.4175597875763277  0.2097652514337305  0.4012522925534861
  0.4193851249844913  0.3368995600082446  0.4044949782344975
  0.4148848820985377  0.7066745228972734  0.4020077532192672
  0.4162111497489531  0.8324781360914997  0.4001335698162319
  0.4166890252837861  0.9582385141237778  0.3995653669235936
  0.5416535111195496  0.0827748239933193  0.3995656166321169
  0.5421468455811345  0.2083279114904168  0.3998468433521852
  0.5432233460249113  0.3337249064902698  0.4014614794536551
  0.5469085801973331  0.4590925774653196  0.4046815266944268
  0.5386176170964662  0.7023501957679443  0.4039526114997322
  0.5407915176194974  0.8307232238770257  0.4013665647642222
  0.5413078218825584  0.9570338752583057  0.4000593616558059
  0.6663284714526450  0.0823400836892750  0.3997679404246488
  0.6666643246453861  0.2076601404014813  0.3994544275822772
  0.6675189838979066  0.3329376057404191  0.3996704707902961
  0.6697103890986582  0.4585124741371838  0.4005908697869912
  0.6707088708472416  0.5839175592509439  0.4021794657105969
  0.6667571229875532  0.7066268810309434  0.4024215689630899
  0.6649114432551775  0.8307095517213656  0.4014862439154162
  0.6658440393846857  0.9567383271848213  0.4005225299833939
  0.7910227903734426  0.0822981524285230  0.3998094312368714
  0.7913233688336067  0.2076273005939766  0.3994065865402845
  0.7918035147937068  0.3328488155753638  0.3992008654833434
  0.7929084790186924  0.4582257725327421  0.3992812539402524
  0.7937746681176697  0.5836820665682355  0.3997896330814156
  0.7931203118390483  0.7087818975789676  0.4003241978427393
  0.7911976455881909  0.8325017421214352  0.4003191881733306
  0.7906484542022582  0.9569755553400808  0.4001105297370730
  0.9160778200559433  0.0827446546590415  0.3996804867763645
  0.9159993948163996  0.2076537569344475  0.3996057248404535
  0.9161258398619965  0.3328609341126584  0.3992340911052338
  0.9167151025603791  0.4582630429368248  0.3989624836743804
  0.9174815532896098  0.5836971181902852  0.3991021040581144
  0.9175341030825641  0.7088615616450309  0.3994604452352854
  0.9172149286253193  0.8338433238254510  0.3996099014282613
  0.9165036846616631  0.9582042836688897  0.3995847786039933
  0.0839930801748805  0.0427704037162920  0.4000854413304839
  0.0835937623679471  0.1675141212678345  0.4004428049765623
  0.0824052684545373  0.2916370901097456  0.4004527057337175
  0.0815649413914674  0.4163389460451348  0.3997293811635749
  0.0822778886894526  0.5417845029711178  0.3992301621238549
  0.0832316271660634  0.6671658639849706  0.3991887724108950
  0.0836342030447377  0.7923715280314501  0.3993635839149572
  0.0838709687411828  0.9176405363839810  0.3997301852414601
  0.2089009586553420  0.0431020509230163  0.4004763404141458
  0.2093303177510249  0.1687404093009212  0.4015071592301095
  0.2084264309249121  0.2934886612512840  0.4025114540756415
  0.2055371585907812  0.4170104560423798  0.4019102393861582
  0.2055156112214015  0.5415668811678953  0.4002883117572315
  0.2073474932091040  0.6670042609191256  0.3995998944611236
  0.2083243245518451  0.7923498035750494  0.3994669822841867
  0.2086750146951868  0.9176490653291780  0.3997384253947733
  0.3337073038045805  0.0429877089770910  0.4000479919111884
  0.3340356600171723  0.1690189285783987  0.4014460165227304
  0.3346628655427411  0.2960255177884921  0.4041105472397795
  0.3287583220607561  0.5419858155452054  0.4037106745388988
  0.3314561266231806  0.6664821905607466  0.4011354714790862
  0.3329588959134158  0.7917992664049623  0.3998426822623701
  0.3333537548308844  0.9172322001601571  0.3995742083832673
  0.4583625198162109  0.0417220155107582  0.3995509624443812
  0.4587451969444035  0.1674752528311484  0.4001672807416495
  0.4598140316261888  0.2932452456763441  0.4023995617153293
  0.4647841024080887  0.4186754050672487  0.4062708905119329
  0.4540332332655201  0.6621853571943429  0.4039323884475170
  0.4574327438152647  0.7901059434542961  0.4011054793090487
  0.4580609775686237  0.9160724136886634  0.3998455476026307
  0.5830283635183514  0.0407086627722624  0.3997687558317726
  0.5834622244387345  0.1662788785823129  0.3995451356395780
  0.5842424552981195  0.2915438853833116  0.4001107674590220
  0.5870188560019679  0.4170560936647365  0.4021417601998029
  0.5895289158967197  0.5430291756455459  0.4045413639634601
  0.5829167469471618  0.6620207804107783  0.4043149197319733
  0.5811564667470662  0.7873948659518788  0.4023255486717876
  0.5826286156343128  0.9146892838580899  0.4006355980909324
  0.7077067070374095  0.0404348023010199  0.4000329534157251
  0.7081140310645382  0.1658624075861698  0.3994870661227328
  0.7086354500009865  0.2911301172333058  0.3994049019530754
  0.7101113108266012  0.4163694656865450  0.3996694625551109
  0.7113487131475383  0.5416212662003932  0.4006501931679798
  0.7104377164146153  0.6670525412041965  0.4015980325484649
  0.7076368212408746  0.7901702234174928  0.4013569833893588
  0.7070114583860256  0.9146734881937078  0.4006848763077602
  0.8326243601289525  0.0406990707779822  0.3998201719293544
  0.8328335753240492  0.1658971775545862  0.3995518843046927
  0.8330576254024348  0.2910428392255174  0.3992120196210838
  0.8338050492530032  0.4162921816121261  0.3990845329344989
  0.8347058895603414  0.5417682086984260  0.3993177670459221
  0.8347690655793775  0.6671199709717516  0.3998344949933317
  0.8339576538669194  0.7919716757524057  0.3999988945484252
  0.8329121865443933  0.9160591300742166  0.3999050758696840
  0.9583228689009250  0.0417422603076495  0.3996383085017105
  0.9577859918637421  0.1662177810665734  0.3997585745624951
  0.9575885912945908  0.2911864351371056  0.3995297314184182
  0.9577436218090569  0.4163435840477652  0.3990940192125829
  0.9584408860540596  0.5417408509589363  0.3989597587093278
  0.9589740951375242  0.6671435083419360  0.3992030036936045
  0.9589810548931168  0.7923770722820985  0.3994833899022002
  0.9587604259883261  0.9172583376417360  0.3995704894257976
  0.4095321765114032  0.5821100813654437  0.4053242608827820
  0.5477331670513886  0.5817093231239341  0.4059949858310182
  0.3288126140470031  0.4184837303870406  0.4055141028223019
 
  0.00000000E+00  0.00000000E+00  0.00000000E+00
  0.00000000E+00  0.00000000E+00  0.00000000E+00
  0.00000000E+00  0.00000000E+00  0.00000000E+00
  0.00000000E+00  0.00000000E+00  0.00000000E+00
  0.00000000E+00  0.00000000E+00  0.00000000E+00
  0.00000000E+00  0.00000000E+00  0.00000000E+00
  0.00000000E+00  0.00000000E+00  0.00000000E+00
  0.00000000E+00  0.00000000E+00  0.00000000E+00
  0.00000000E+00  0.00000000E+00  0.00000000E+00
  0.00000000E+00  0.00000000E+00  0.00000000E+00
  0.00000000E+00  0.00000000E+00  0.00000000E+00
  0.00000000E+00  0.00000000E+00  0.00000000E+00
  0.00000000E+00  0.00000000E+00  0.00000000E+00
  0.00000000E+00  0.00000000E+00  0.00000000E+00
  0.00000000E+00  0.00000000E+00  0.00000000E+00
  0.00000000E+00  0.00000000E+00  0.00000000E+00
  0.00000000E+00  0.00000000E+00  0.00000000E+00
  0.00000000E+00  0.00000000E+00  0.00000000E+00
  0.00000000E+00  0.00000000E+00  0.00000000E+00
  0.00000000E+00  0.00000000E+00  0.00000000E+00
  0.00000000E+00  0.00000000E+00  0.00000000E+00
  0.00000000E+00  0.00000000E+00  0.00000000E+00
  0.00000000E+00  0.00000000E+00  0.00000000E+00
  0.00000000E+00  0.00000000E+00  0.00000000E+00
  0.00000000E+00  0.00000000E+00  0.00000000E+00
  0.00000000E+00  0.00000000E+00  0.00000000E+00
  0.00000000E+00  0.00000000E+00  0.00000000E+00
  0.00000000E+00  0.00000000E+00  0.00000000E+00
  0.00000000E+00  0.00000000E+00  0.00000000E+00
  0.00000000E+00  0.00000000E+00  0.00000000E+00
  0.00000000E+00  0.00000000E+00  0.00000000E+00
  0.00000000E+00  0.00000000E+00  0.00000000E+00
  0.00000000E+00  0.00000000E+00  0.00000000E+00
  0.00000000E+00  0.00000000E+00  0.00000000E+00
  0.00000000E+00  0.00000000E+00  0.00000000E+00
  0.00000000E+00  0.00000000E+00  0.00000000E+00
  0.00000000E+00  0.00000000E+00  0.00000000E+00
  0.00000000E+00  0.00000000E+00  0.00000000E+00
  0.00000000E+00  0.00000000E+00  0.00000000E+00
  0.00000000E+00  0.00000000E+00  0.00000000E+00
  0.00000000E+00  0.00000000E+00  0.00000000E+00
  0.00000000E+00  0.00000000E+00  0.00000000E+00
  0.00000000E+00  0.00000000E+00  0.00000000E+00
  0.00000000E+00  0.00000000E+00  0.00000000E+00
  0.00000000E+00  0.00000000E+00  0.00000000E+00
  0.00000000E+00  0.00000000E+00  0.00000000E+00
  0.00000000E+00  0.00000000E+00  0.00000000E+00
  0.00000000E+00  0.00000000E+00  0.00000000E+00
  0.00000000E+00  0.00000000E+00  0.00000000E+00
  0.00000000E+00  0.00000000E+00  0.00000000E+00
  0.00000000E+00  0.00000000E+00  0.00000000E+00
  0.00000000E+00  0.00000000E+00  0.00000000E+00
  0.00000000E+00  0.00000000E+00  0.00000000E+00
  0.00000000E+00  0.00000000E+00  0.00000000E+00
  0.00000000E+00  0.00000000E+00  0.00000000E+00
  0.00000000E+00  0.00000000E+00  0.00000000E+00
  0.00000000E+00  0.00000000E+00  0.00000000E+00
  0.00000000E+00  0.00000000E+00  0.00000000E+00
  0.00000000E+00  0.00000000E+00  0.00000000E+00
  0.00000000E+00  0.00000000E+00  0.00000000E+00
  0.00000000E+00  0.00000000E+00  0.00000000E+00
  0.00000000E+00  0.00000000E+00  0.00000000E+00
  0.00000000E+00  0.00000000E+00  0.00000000E+00
  0.00000000E+00  0.00000000E+00  0.00000000E+00
  0.00000000E+00  0.00000000E+00  0.00000000E+00
  0.00000000E+00  0.00000000E+00  0.00000000E+00
  0.00000000E+00  0.00000000E+00  0.00000000E+00
  0.00000000E+00  0.00000000E+00  0.00000000E+00
  0.00000000E+00  0.00000000E+00  0.00000000E+00
  0.00000000E+00  0.00000000E+00  0.00000000E+00
  0.00000000E+00  0.00000000E+00  0.00000000E+00
  0.00000000E+00  0.00000000E+00  0.00000000E+00
  0.00000000E+00  0.00000000E+00  0.00000000E+00
  0.00000000E+00  0.00000000E+00  0.00000000E+00
  0.00000000E+00  0.00000000E+00  0.00000000E+00
  0.00000000E+00  0.00000000E+00  0.00000000E+00
  0.00000000E+00  0.00000000E+00  0.00000000E+00
  0.00000000E+00  0.00000000E+00  0.00000000E+00
  0.00000000E+00  0.00000000E+00  0.00000000E+00
  0.00000000E+00  0.00000000E+00  0.00000000E+00
  0.00000000E+00  0.00000000E+00  0.00000000E+00
  0.00000000E+00  0.00000000E+00  0.00000000E+00
  0.00000000E+00  0.00000000E+00  0.00000000E+00
  0.00000000E+00  0.00000000E+00  0.00000000E+00
  0.00000000E+00  0.00000000E+00  0.00000000E+00
  0.00000000E+00  0.00000000E+00  0.00000000E+00
  0.00000000E+00  0.00000000E+00  0.00000000E+00
  0.00000000E+00  0.00000000E+00  0.00000000E+00
  0.00000000E+00  0.00000000E+00  0.00000000E+00
  0.00000000E+00  0.00000000E+00  0.00000000E+00
  0.00000000E+00  0.00000000E+00  0.00000000E+00
  0.00000000E+00  0.00000000E+00  0.00000000E+00
  0.00000000E+00  0.00000000E+00  0.00000000E+00
  0.00000000E+00  0.00000000E+00  0.00000000E+00
  0.00000000E+00  0.00000000E+00  0.00000000E+00
  0.00000000E+00  0.00000000E+00  0.00000000E+00
  0.00000000E+00  0.00000000E+00  0.00000000E+00
  0.00000000E+00  0.00000000E+00  0.00000000E+00
  0.00000000E+00  0.00000000E+00  0.00000000E+00
  0.00000000E+00  0.00000000E+00  0.00000000E+00
  0.00000000E+00  0.00000000E+00  0.00000000E+00
  0.00000000E+00  0.00000000E+00  0.00000000E+00
  0.00000000E+00  0.00000000E+00  0.00000000E+00
  0.00000000E+00  0.00000000E+00  0.00000000E+00
  0.00000000E+00  0.00000000E+00  0.00000000E+00
  0.00000000E+00  0.00000000E+00  0.00000000E+00
  0.00000000E+00  0.00000000E+00  0.00000000E+00
  0.00000000E+00  0.00000000E+00  0.00000000E+00
  0.00000000E+00  0.00000000E+00  0.00000000E+00
  0.00000000E+00  0.00000000E+00  0.00000000E+00
  0.00000000E+00  0.00000000E+00  0.00000000E+00
  0.00000000E+00  0.00000000E+00  0.00000000E+00
  0.00000000E+00  0.00000000E+00  0.00000000E+00
  0.00000000E+00  0.00000000E+00  0.00000000E+00
  0.00000000E+00  0.00000000E+00  0.00000000E+00
  0.00000000E+00  0.00000000E+00  0.00000000E+00
  0.00000000E+00  0.00000000E+00  0.00000000E+00
  0.00000000E+00  0.00000000E+00  0.00000000E+00
  0.00000000E+00  0.00000000E+00  0.00000000E+00
  0.00000000E+00  0.00000000E+00  0.00000000E+00
  0.00000000E+00  0.00000000E+00  0.00000000E+00
  0.00000000E+00  0.00000000E+00  0.00000000E+00
  0.00000000E+00  0.00000000E+00  0.00000000E+00
  0.00000000E+00  0.00000000E+00  0.00000000E+00
  0.00000000E+00  0.00000000E+00  0.00000000E+00
  0.00000000E+00  0.00000000E+00  0.00000000E+00
  0.00000000E+00  0.00000000E+00  0.00000000E+00
