Y1 C125 N1                              
   1.00000000000000     
    19.8155967201062104   -0.0134548548372569   -0.0210147289021692
    -9.9194493418767262   17.0785050139232730    0.0133908091476384
    -0.0314525208259315    0.0051393523886222   29.7451994760014955
   Y    C    N 
     1   125     1
Direct
  0.4330190485820691  0.5004736647796287  0.4507742414148209
  0.0418298978050601  0.0838876332827908  0.3990168062733208
  0.0411472745165519  0.2082430092368664  0.3987080526932501
  0.0406614517530628  0.3328958307953240  0.3982346108973728
  0.0406292386767662  0.4583074960936974  0.3980369409293274
  0.0412522228116969  0.5837213829305012  0.3984400743932621
  0.0418360729450824  0.7090046262995966  0.3988505922894174
  0.0421830859843578  0.8343302085286696  0.3990543654863082
  0.0422769095302445  0.9593751587042605  0.3990560218255589
  0.1675546315594069  0.0850679247988560  0.3998742020741299
  0.1669660554466189  0.2095361428415542  0.4001187890421860
  0.1659348786804064  0.3338865054224456  0.3992787935907816
  0.1644742520421414  0.4584580744971747  0.3982368379684972
  0.1651840924001565  0.5837610360952774  0.3979647109334241
  0.1661699780901510  0.7091109912009081  0.3987178828380096
  0.1668395944472479  0.8344100139111619  0.3992911820100048
  0.1672902476134043  0.9597186730628461  0.3995411494590178
  0.2924943234921595  0.0848747300097614  0.3999587420757222
  0.2934292243736326  0.2112518258320800  0.4027955664359310
  0.2923659367792737  0.3365346873378753  0.4048523451130097
  0.2889373188723975  0.4586819171676827  0.4026018333570498
  0.2888578026184525  0.5845306750546365  0.3993922816628774
  0.2905097906335133  0.7093043980211371  0.3986577543462909
  0.2914042604943619  0.8341729217499820  0.3988214657580932
  0.2919023086917186  0.9593385716767913  0.3991202470441536
  0.4170364178851139  0.0835475115542770  0.3987009213574012
  0.4176809385953028  0.2087961933002776  0.4003126804706362
  0.4201380668891508  0.3349178529587003  0.4095277254617185
  0.4148179521812956  0.7078565490646231  0.4009637064592291
  0.4159900068520597  0.8331490313792266  0.3991243894737043
  0.4165472347411566  0.9583441181984726  0.3987586447268885
  0.5416568983426451  0.0825096225756047  0.3986054103949828
  0.5422603797387660  0.2076415691110005  0.3980948906212092
  0.5432691337309010  0.3326644549222864  0.4003237349046255
  0.5456442150628940  0.4565331439930316  0.4095475229743356
  0.5469179025807923  0.5821755111703760  0.4145841173285510
  0.5390555229768784  0.7042364783414734  0.4059617487055187
  0.5404276005402942  0.8313489067903279  0.4008007562228296
  0.5411887506841262  0.9571462285798823  0.3993477303427777
  0.6662767204052861  0.0820539916592560  0.3993331936763190
  0.6668079808286600  0.2073304836566440  0.3983449666308210
  0.6674929616350939  0.3324938283375244  0.3972326070319542
  0.6689314313986972  0.4578630936471748  0.3978675996373574
  0.6697229776594743  0.5833939941288768  0.4007619249668068
  0.6667923711608242  0.7070966223936124  0.4012736641881088
  0.6651835214052122  0.8309574563441001  0.4007709928798092
  0.6658091796299067  0.9566751573623742  0.3999503503624972
  0.7910160147380281  0.0820975381027438  0.3993899370910079
  0.7913071768515877  0.2072614619318942  0.3990371448477592
  0.7918775277616795  0.3326208458316956  0.3980406369536221
  0.7927491675418541  0.4581164709357141  0.3968849700148029
  0.7932383073829858  0.5834386105993884  0.3967539905314198
  0.7927583105725361  0.7086156283226903  0.3976755415218636
  0.7915295082625361  0.8327661149140313  0.3985137285810006
  0.7907527165125033  0.9569863174143188  0.3992018069051835
  0.9161272286211997  0.0826886833023596  0.3988899016825933
  0.9160073220409574  0.2075496996731526  0.3988517501781112
  0.9161810954319215  0.3327455758432580  0.3985703704358503
  0.9166534965380267  0.4581270473893089  0.3981202285155072
  0.9172890937955989  0.5836186268822635  0.3977886558427927
  0.9174564406342104  0.7089792411949590  0.3978456442864781
  0.9172394367083093  0.8338615963883435  0.3981969931388586
  0.9166353927678813  0.9582893246158909  0.3986219730876827
  0.0840146114254659  0.0428783109233450  0.3992593395080382
  0.0834101308416792  0.1672556804963523  0.3991411050305672
  0.0824794830798104  0.2916271581159198  0.3984847117770544
  0.0817966436985949  0.4165521289203513  0.3979201195711543
  0.0822540548247372  0.5418666409052646  0.3980921558173158
  0.0830703496506651  0.6672692996152869  0.3987459955187824
  0.0836558916660122  0.7926616502084758  0.3991878654490744
  0.0839386819149997  0.9178663208433134  0.3992843675403182
  0.2090806501634853  0.0431849278432154  0.3998731392922742
  0.2093546569271429  0.1686774923469959  0.4007807330206622
  0.2085538037346370  0.2930834405501789  0.4007397871401939
  0.2059523697189543  0.4172624841904110  0.3995338377937758
  0.2060072483427726  0.5420282186956171  0.3981322920288276
  0.2074082787427270  0.6674367359747839  0.3983495374126733
  0.2081852416823988  0.7926158690103252  0.3989863962883025
  0.2087253505911484  0.9178789139990019  0.3993951826818917
  0.3337831450470091  0.0427156951759847  0.3991811718220465
  0.3345034487324635  0.1683152645971232  0.4011702407404458
  0.3353619930785985  0.2944099636724464  0.4069203796247610
  0.3307167074614132  0.4191870471296795  0.4064307726126854
  0.3309055310261642  0.5446104600173250  0.4028428902891549
  0.3317050774181296  0.6676311410551269  0.3995096106901282
  0.3327894495162821  0.7924671598675289  0.3987932039890263
  0.3333594524214017  0.9174798554282194  0.3988552362623415
  0.4584858376830527  0.0416020591005441  0.3985973441728888
  0.4589886268027928  0.1667492250963049  0.3986924469963040
  0.4600194368239904  0.2920066945994606  0.4025326426690106
  0.4652333656070756  0.4160975593098262  0.4181222922576708
  0.4540670316330983  0.6637867429023312  0.4051381326795957
  0.4573632035259165  0.7911172646213511  0.4001178386382199
  0.4579518258222052  0.9163698559567930  0.3990146452661818
  0.5830771857817723  0.0405824200815015  0.3991114802495634
  0.5836177651247918  0.1658769834467997  0.3982017325606825
  0.5844038181185107  0.2909164788096995  0.3980377115681648
  0.5862564417364761  0.4158221216326422  0.4012430030421030
  0.5881297545821531  0.5423470083285193  0.4086037484803497
  0.5832985813915570  0.6634491283995532  0.4072431460418428
  0.5809617301299512  0.7879894786789262  0.4024070272920874
  0.5824746153343108  0.9149542753139788  0.3999805988019092
  0.7076665234407696  0.0401857214450199  0.3996123998418170
  0.7081527260131375  0.1655598872073294  0.3989925776116957
  0.7087234353308857  0.2907927607794215  0.3977332845190050
  0.7097885449249558  0.4161944255960859  0.3967496402300487
  0.7106620166992614  0.5415975657132477  0.3978429142741760
  0.7095821333134614  0.6665951910015271  0.3994821818841441
  0.7079190364805926  0.7904436334646023  0.3997765067739024
  0.7070980907696056  0.9146291129211660  0.3999005237822649
  0.8326116170949976  0.0405411504192227  0.3991682515437413
  0.8327455612393788  0.1656077381915126  0.3991762132177738
  0.8331314093416913  0.2908919133318055  0.3986560433700398
  0.8337512380273538  0.4162381122505420  0.3976856593074936
  0.8344022012962440  0.5416590259902254  0.3969145251346119
  0.8344063029666694  0.6671542211556500  0.3971964123433728
  0.8339320706786348  0.7919090192949740  0.3979068098895037
  0.8330628054662433  0.9161063725339356  0.3986998896292593
  0.9582705087732434  0.0416905582489122  0.3987996170089732
  0.9577918356251844  0.1661730126398816  0.3987700611934578
  0.9575653542123796  0.2910256112501847  0.3985668604397974
  0.9577191898589029  0.4163225503435152  0.3983209180543117
  0.9583750113773082  0.5418300305970712  0.3981870788257336
  0.9588265776296740  0.6672236606727483  0.3982109274196791
  0.9589829878910526  0.7924584642031244  0.3984068353355519
  0.9588085587103775  0.9173016005518650  0.3986027525296537
  0.4095714911073318  0.5838648221933186  0.4080212108775281
 
  0.00000000E+00  0.00000000E+00  0.00000000E+00
  0.00000000E+00  0.00000000E+00  0.00000000E+00
  0.00000000E+00  0.00000000E+00  0.00000000E+00
  0.00000000E+00  0.00000000E+00  0.00000000E+00
  0.00000000E+00  0.00000000E+00  0.00000000E+00
  0.00000000E+00  0.00000000E+00  0.00000000E+00
  0.00000000E+00  0.00000000E+00  0.00000000E+00
  0.00000000E+00  0.00000000E+00  0.00000000E+00
  0.00000000E+00  0.00000000E+00  0.00000000E+00
  0.00000000E+00  0.00000000E+00  0.00000000E+00
  0.00000000E+00  0.00000000E+00  0.00000000E+00
  0.00000000E+00  0.00000000E+00  0.00000000E+00
  0.00000000E+00  0.00000000E+00  0.00000000E+00
  0.00000000E+00  0.00000000E+00  0.00000000E+00
  0.00000000E+00  0.00000000E+00  0.00000000E+00
  0.00000000E+00  0.00000000E+00  0.00000000E+00
  0.00000000E+00  0.00000000E+00  0.00000000E+00
  0.00000000E+00  0.00000000E+00  0.00000000E+00
  0.00000000E+00  0.00000000E+00  0.00000000E+00
  0.00000000E+00  0.00000000E+00  0.00000000E+00
  0.00000000E+00  0.00000000E+00  0.00000000E+00
  0.00000000E+00  0.00000000E+00  0.00000000E+00
  0.00000000E+00  0.00000000E+00  0.00000000E+00
  0.00000000E+00  0.00000000E+00  0.00000000E+00
  0.00000000E+00  0.00000000E+00  0.00000000E+00
  0.00000000E+00  0.00000000E+00  0.00000000E+00
  0.00000000E+00  0.00000000E+00  0.00000000E+00
  0.00000000E+00  0.00000000E+00  0.00000000E+00
  0.00000000E+00  0.00000000E+00  0.00000000E+00
  0.00000000E+00  0.00000000E+00  0.00000000E+00
  0.00000000E+00  0.00000000E+00  0.00000000E+00
  0.00000000E+00  0.00000000E+00  0.00000000E+00
  0.00000000E+00  0.00000000E+00  0.00000000E+00
  0.00000000E+00  0.00000000E+00  0.00000000E+00
  0.00000000E+00  0.00000000E+00  0.00000000E+00
  0.00000000E+00  0.00000000E+00  0.00000000E+00
  0.00000000E+00  0.00000000E+00  0.00000000E+00
  0.00000000E+00  0.00000000E+00  0.00000000E+00
  0.00000000E+00  0.00000000E+00  0.00000000E+00
  0.00000000E+00  0.00000000E+00  0.00000000E+00
  0.00000000E+00  0.00000000E+00  0.00000000E+00
  0.00000000E+00  0.00000000E+00  0.00000000E+00
  0.00000000E+00  0.00000000E+00  0.00000000E+00
  0.00000000E+00  0.00000000E+00  0.00000000E+00
  0.00000000E+00  0.00000000E+00  0.00000000E+00
  0.00000000E+00  0.00000000E+00  0.00000000E+00
  0.00000000E+00  0.00000000E+00  0.00000000E+00
  0.00000000E+00  0.00000000E+00  0.00000000E+00
  0.00000000E+00  0.00000000E+00  0.00000000E+00
  0.00000000E+00  0.00000000E+00  0.00000000E+00
  0.00000000E+00  0.00000000E+00  0.00000000E+00
  0.00000000E+00  0.00000000E+00  0.00000000E+00
  0.00000000E+00  0.00000000E+00  0.00000000E+00
  0.00000000E+00  0.00000000E+00  0.00000000E+00
  0.00000000E+00  0.00000000E+00  0.00000000E+00
  0.00000000E+00  0.00000000E+00  0.00000000E+00
  0.00000000E+00  0.00000000E+00  0.00000000E+00
  0.00000000E+00  0.00000000E+00  0.00000000E+00
  0.00000000E+00  0.00000000E+00  0.00000000E+00
  0.00000000E+00  0.00000000E+00  0.00000000E+00
  0.00000000E+00  0.00000000E+00  0.00000000E+00
  0.00000000E+00  0.00000000E+00  0.00000000E+00
  0.00000000E+00  0.00000000E+00  0.00000000E+00
  0.00000000E+00  0.00000000E+00  0.00000000E+00
  0.00000000E+00  0.00000000E+00  0.00000000E+00
  0.00000000E+00  0.00000000E+00  0.00000000E+00
  0.00000000E+00  0.00000000E+00  0.00000000E+00
  0.00000000E+00  0.00000000E+00  0.00000000E+00
  0.00000000E+00  0.00000000E+00  0.00000000E+00
  0.00000000E+00  0.00000000E+00  0.00000000E+00
  0.00000000E+00  0.00000000E+00  0.00000000E+00
  0.00000000E+00  0.00000000E+00  0.00000000E+00
  0.00000000E+00  0.00000000E+00  0.00000000E+00
  0.00000000E+00  0.00000000E+00  0.00000000E+00
  0.00000000E+00  0.00000000E+00  0.00000000E+00
  0.00000000E+00  0.00000000E+00  0.00000000E+00
  0.00000000E+00  0.00000000E+00  0.00000000E+00
  0.00000000E+00  0.00000000E+00  0.00000000E+00
  0.00000000E+00  0.00000000E+00  0.00000000E+00
  0.00000000E+00  0.00000000E+00  0.00000000E+00
  0.00000000E+00  0.00000000E+00  0.00000000E+00
  0.00000000E+00  0.00000000E+00  0.00000000E+00
  0.00000000E+00  0.00000000E+00  0.00000000E+00
  0.00000000E+00  0.00000000E+00  0.00000000E+00
  0.00000000E+00  0.00000000E+00  0.00000000E+00
  0.00000000E+00  0.00000000E+00  0.00000000E+00
  0.00000000E+00  0.00000000E+00  0.00000000E+00
  0.00000000E+00  0.00000000E+00  0.00000000E+00
  0.00000000E+00  0.00000000E+00  0.00000000E+00
  0.00000000E+00  0.00000000E+00  0.00000000E+00
  0.00000000E+00  0.00000000E+00  0.00000000E+00
  0.00000000E+00  0.00000000E+00  0.00000000E+00
  0.00000000E+00  0.00000000E+00  0.00000000E+00
  0.00000000E+00  0.00000000E+00  0.00000000E+00
  0.00000000E+00  0.00000000E+00  0.00000000E+00
  0.00000000E+00  0.00000000E+00  0.00000000E+00
  0.00000000E+00  0.00000000E+00  0.00000000E+00
  0.00000000E+00  0.00000000E+00  0.00000000E+00
  0.00000000E+00  0.00000000E+00  0.00000000E+00
  0.00000000E+00  0.00000000E+00  0.00000000E+00
  0.00000000E+00  0.00000000E+00  0.00000000E+00
  0.00000000E+00  0.00000000E+00  0.00000000E+00
  0.00000000E+00  0.00000000E+00  0.00000000E+00
  0.00000000E+00  0.00000000E+00  0.00000000E+00
  0.00000000E+00  0.00000000E+00  0.00000000E+00
  0.00000000E+00  0.00000000E+00  0.00000000E+00
  0.00000000E+00  0.00000000E+00  0.00000000E+00
  0.00000000E+00  0.00000000E+00  0.00000000E+00
  0.00000000E+00  0.00000000E+00  0.00000000E+00
  0.00000000E+00  0.00000000E+00  0.00000000E+00
  0.00000000E+00  0.00000000E+00  0.00000000E+00
  0.00000000E+00  0.00000000E+00  0.00000000E+00
  0.00000000E+00  0.00000000E+00  0.00000000E+00
  0.00000000E+00  0.00000000E+00  0.00000000E+00
  0.00000000E+00  0.00000000E+00  0.00000000E+00
  0.00000000E+00  0.00000000E+00  0.00000000E+00
  0.00000000E+00  0.00000000E+00  0.00000000E+00
  0.00000000E+00  0.00000000E+00  0.00000000E+00
  0.00000000E+00  0.00000000E+00  0.00000000E+00
  0.00000000E+00  0.00000000E+00  0.00000000E+00
  0.00000000E+00  0.00000000E+00  0.00000000E+00
  0.00000000E+00  0.00000000E+00  0.00000000E+00
  0.00000000E+00  0.00000000E+00  0.00000000E+00
  0.00000000E+00  0.00000000E+00  0.00000000E+00
  0.00000000E+00  0.00000000E+00  0.00000000E+00
  0.00000000E+00  0.00000000E+00  0.00000000E+00
  0.00000000E+00  0.00000000E+00  0.00000000E+00
