H1 Os1 C122 N4 O2                       
   1.00000000000000     
    19.8449380590444555    0.0007830255859304    0.2223953762619401
    -9.9218324427291549   17.0220070349906507   -0.1659568459098943
     0.3338378688673110   -0.0957926993296059   29.7913774797366173
   H    Os   C    N    O 
     1     1   122     4     2
Direct
  0.5261038625697101  0.5472453957325827  0.5247167629113950
  0.4365614686276816  0.5002111327584876  0.4202479765989152
  0.0419816999458919  0.0843254229267140  0.4000125580934289
  0.0405782712565613  0.2080674413446836  0.3999530870552567
  0.0395244445266643  0.3327389779290096  0.3993631880819870
  0.0397035124715911  0.4582070706209332  0.3986279088382192
  0.0410166516635056  0.5839943471719564  0.3983422025876812
  0.0422072120069733  0.7096177790400192  0.3984386086729091
  0.0426351112490916  0.8349230203556466  0.3989111199606384
  0.0426879549725102  0.9600523942844945  0.3995257594731447
  0.1683106153656802  0.0864097356494427  0.4011068404516220
  0.1673276726841375  0.2106721940696190  0.4016466681935350
  0.1641030808795030  0.3335605695607429  0.4010923021595879
  0.1626902540475080  0.4584987642809008  0.3995983716169282
  0.1642259904245700  0.5838973382499670  0.3990852241777608
  0.1661676375446759  0.7093723761931332  0.3990278858729222
  0.1671356569002970  0.8349354125603599  0.3989564067964657
  0.1677003011939381  0.9606091924840481  0.3997968320418545
  0.2928166539697989  0.0864475076672614  0.4012342778851836
  0.2942704455770487  0.2141320292923688  0.4037158507024299
  0.2916638619410355  0.3389376799999178  0.4052856241904262
  0.2846542538546747  0.4582821646610324  0.4037133836697422
  0.2868534206288341  0.5832546633370527  0.4008189341888421
  0.2901110327637508  0.7086444126410547  0.3999806814445780
  0.2915086803253992  0.8342626194363594  0.3994360408089700
  0.2922297443703629  0.9600948084214412  0.3995621562232100
  0.4171514284066595  0.0843827464744940  0.4001760743450344
  0.4179553507770479  0.2107015645036238  0.4022883124410481
  0.4217104927775745  0.3390810448955923  0.4061401171447091
  0.4139543929802796  0.7057782164060148  0.4020789687077683
  0.4157772943890404  0.8321805808366491  0.4003893967949425
  0.4165865870413617  0.9583135901385321  0.3995709385751859
  0.5414754065720436  0.0823895255424290  0.3994181223400345
  0.5422244435574356  0.2081504512069045  0.4003715906770178
  0.5440040018377225  0.3336215840453550  0.4023056366422210
  0.5477910141621656  0.4582102316055484  0.4053689447276506
  0.5374782471352023  0.7007521662700166  0.4054678931237410
  0.5399585993280861  0.8295937445875595  0.4020935364883960
  0.5408650084733664  0.9563071035748792  0.4001565002611345
  0.6658493653123708  0.0815125852933531  0.3993726346670948
  0.6665388740976111  0.2071666623465918  0.3990902325931183
  0.6678537088876473  0.3327893920056310  0.3997313857306697
  0.6703561219685268  0.4585215478026071  0.4007927565885023
  0.6710132515146350  0.5833565148862826  0.4023924164318033
  0.6665367720905272  0.7058830096415017  0.4030279073589498
  0.6642731331264526  0.8296239564660380  0.4023005007521144
  0.6652068679696290  0.9557182535606226  0.4007792747507801
  0.7904432085019746  0.0814930333015899  0.3994529115524304
  0.7908279572280009  0.2069091507128675  0.3986510533132078
  0.7916996670969451  0.3325218302159731  0.3984292343509038
  0.7931644156185523  0.4582343296152543  0.3986318304900881
  0.7942908802857748  0.5838796097748393  0.3994896978747619
  0.7932982676634485  0.7086932622982771  0.4005371755448331
  0.7911427579550000  0.8321946684416510  0.4007240696780957
  0.7902035020958462  0.9562928813569288  0.4002460462704253
  0.9156960988736966  0.0823226685705653  0.3994508163250435
  0.9153273554092175  0.2070975036098554  0.3991271033633195
  0.9155155728271872  0.3324906202154336  0.3985203063908226
  0.9164711198032471  0.4582319899032222  0.3979445181974174
  0.9176994750842478  0.5839864092577218  0.3981900240492625
  0.9179631052547849  0.7093509120741501  0.3989912830539838
  0.9175418088406877  0.8342260922171902  0.3995195201568897
  0.9165662656538063  0.9582724841679551  0.3996427777517810
  0.0846214500991350  0.0438191786907572  0.4001563703692796
  0.0836161012874672  0.1679294705824995  0.4004618984402074
  0.0814598901386615  0.2914465901519720  0.4000546788966484
  0.0803466145673867  0.4161921183900548  0.3991114657020315
  0.0815663836687853  0.5418963172801469  0.3986414272400092
  0.0831255281644138  0.6676285698264672  0.3985641010750583
  0.0840075274843940  0.7932098039981448  0.3986627523194972
  0.0844168026582641  0.9186094447097006  0.3993691000259556
  0.2095640661167559  0.0444150090079556  0.4008082495128178
  0.2104014447465099  0.1705399242147919  0.4023014095853477
  0.2081468396960960  0.2942976041535708  0.4023193396911884
  0.2035850874860587  0.4168141421523656  0.4009274104865235
  0.2042552867187614  0.5415722185083325  0.3995519237547053
  0.2068693443055751  0.6673545084317352  0.3993433311407152
  0.2083282841814313  0.7930139833915906  0.3991296839652570
  0.2090415990324016  0.9186335796363596  0.3993995396408754
  0.3339979219658715  0.0438650609287482  0.4002623140557469
  0.3346951778409108  0.1705546537584865  0.4025954300775183
  0.3367877816638262  0.2994532583989011  0.4058166807163868
  0.3264437567249869  0.5418167367611613  0.4036902241013793
  0.3306178419404172  0.6665184628662648  0.4009235497900068
  0.3325985489771821  0.7920244868593604  0.3999237242005439
  0.3334506242254807  0.9177866118350232  0.3994048660748629
  0.4583551699645579  0.0418617787078093  0.3996088936893415
  0.4590080151461175  0.1679823787705168  0.4009088656227459
  0.4606974491524610  0.2943232464815759  0.4033729864462267
  0.4528536576663348  0.6611979264251795  0.4050643094089074
  0.4567461420438603  0.7894195222482500  0.4014533344586872
  0.4577162478874389  0.9157784304303515  0.3999999106732630
  0.5826756174161732  0.0400653203656364  0.3995177153329873
  0.5833655564500548  0.1659195983371843  0.3995252611814767
  0.5846404354042990  0.2914731258420727  0.4007543964806045
  0.5877246875898327  0.4168310247834214  0.4025404741284465
  0.5897087651032922  0.5420504897744924  0.4053093200063609
  0.5827933552145571  0.6611272355660373  0.4057816606010107
  0.5802631553416315  0.7860306953965035  0.4033779089260359
  0.5819674877608497  0.9137243863934349  0.4010436696516839
  0.7071259727156205  0.0395060116857962  0.3998243762774762
  0.7077427761741260  0.1651961892323834  0.3988921808669139
  0.7086524095463396  0.2907936561202208  0.3990045981984460
  0.7104642101546615  0.4162619384807509  0.3995831075930659
  0.7119305243490973  0.5416277012569940  0.4007245841488490
  0.7105077798540722  0.6665506105863485  0.4020287967209155
  0.7073903189759111  0.7894863046915812  0.4019618118216320
  0.7064504918725429  0.9137068578892817  0.4011290734823480
  0.8321769986565061  0.0400459414087736  0.3996174339041332
  0.8322107854313165  0.1651799514554697  0.3989826411338778
  0.8326153820849816  0.2905062139353046  0.3983935364784091
  0.8337588950188062  0.4161502107485348  0.3981836710441771
  0.8350218715399078  0.5419095498913583  0.3986097411861514
  0.8351667145561023  0.6673570209991319  0.3996124362511934
  0.8341873887675527  0.7920159229863566  0.4002262684851124
  0.8328549764131814  0.9157808990861153  0.4001309677087780
  0.9583203838362260  0.0418080036171566  0.3996052474964052
  0.9572587501456649  0.1658440274059169  0.3994401596509060
  0.9568042500915012  0.2907348787928948  0.3990049754269426
  0.9570611801186525  0.4161206969570246  0.3983045140590280
  0.9583120976042109  0.5418858040564015  0.3979599327230537
  0.9592817665137084  0.6676182441893396  0.3984664066178210
  0.9594570530858050  0.7929696407498610  0.3991117661336661
  0.9591701074050647  0.9177521306324964  0.3994482051499827
  0.4067691309134377  0.5802374620654729  0.4081086396765599
  0.5479701866742430  0.5805811252736024  0.4084523898753839
  0.3264753147921018  0.4198877360610503  0.4080611981497395
  0.4675086189029635  0.4197615408882328  0.4087107299971672
  0.5156991362804855  0.5027997600690044  0.5051564446835272
  0.4375145693338163  0.5002467062373708  0.4814318253851613
 
  0.00000000E+00  0.00000000E+00  0.00000000E+00
  0.00000000E+00  0.00000000E+00  0.00000000E+00
  0.00000000E+00  0.00000000E+00  0.00000000E+00
  0.00000000E+00  0.00000000E+00  0.00000000E+00
  0.00000000E+00  0.00000000E+00  0.00000000E+00
  0.00000000E+00  0.00000000E+00  0.00000000E+00
  0.00000000E+00  0.00000000E+00  0.00000000E+00
  0.00000000E+00  0.00000000E+00  0.00000000E+00
  0.00000000E+00  0.00000000E+00  0.00000000E+00
  0.00000000E+00  0.00000000E+00  0.00000000E+00
  0.00000000E+00  0.00000000E+00  0.00000000E+00
  0.00000000E+00  0.00000000E+00  0.00000000E+00
  0.00000000E+00  0.00000000E+00  0.00000000E+00
  0.00000000E+00  0.00000000E+00  0.00000000E+00
  0.00000000E+00  0.00000000E+00  0.00000000E+00
  0.00000000E+00  0.00000000E+00  0.00000000E+00
  0.00000000E+00  0.00000000E+00  0.00000000E+00
  0.00000000E+00  0.00000000E+00  0.00000000E+00
  0.00000000E+00  0.00000000E+00  0.00000000E+00
  0.00000000E+00  0.00000000E+00  0.00000000E+00
  0.00000000E+00  0.00000000E+00  0.00000000E+00
  0.00000000E+00  0.00000000E+00  0.00000000E+00
  0.00000000E+00  0.00000000E+00  0.00000000E+00
  0.00000000E+00  0.00000000E+00  0.00000000E+00
  0.00000000E+00  0.00000000E+00  0.00000000E+00
  0.00000000E+00  0.00000000E+00  0.00000000E+00
  0.00000000E+00  0.00000000E+00  0.00000000E+00
  0.00000000E+00  0.00000000E+00  0.00000000E+00
  0.00000000E+00  0.00000000E+00  0.00000000E+00
  0.00000000E+00  0.00000000E+00  0.00000000E+00
  0.00000000E+00  0.00000000E+00  0.00000000E+00
  0.00000000E+00  0.00000000E+00  0.00000000E+00
  0.00000000E+00  0.00000000E+00  0.00000000E+00
  0.00000000E+00  0.00000000E+00  0.00000000E+00
  0.00000000E+00  0.00000000E+00  0.00000000E+00
  0.00000000E+00  0.00000000E+00  0.00000000E+00
  0.00000000E+00  0.00000000E+00  0.00000000E+00
  0.00000000E+00  0.00000000E+00  0.00000000E+00
  0.00000000E+00  0.00000000E+00  0.00000000E+00
  0.00000000E+00  0.00000000E+00  0.00000000E+00
  0.00000000E+00  0.00000000E+00  0.00000000E+00
  0.00000000E+00  0.00000000E+00  0.00000000E+00
  0.00000000E+00  0.00000000E+00  0.00000000E+00
  0.00000000E+00  0.00000000E+00  0.00000000E+00
  0.00000000E+00  0.00000000E+00  0.00000000E+00
  0.00000000E+00  0.00000000E+00  0.00000000E+00
  0.00000000E+00  0.00000000E+00  0.00000000E+00
  0.00000000E+00  0.00000000E+00  0.00000000E+00
  0.00000000E+00  0.00000000E+00  0.00000000E+00
  0.00000000E+00  0.00000000E+00  0.00000000E+00
  0.00000000E+00  0.00000000E+00  0.00000000E+00
  0.00000000E+00  0.00000000E+00  0.00000000E+00
  0.00000000E+00  0.00000000E+00  0.00000000E+00
  0.00000000E+00  0.00000000E+00  0.00000000E+00
  0.00000000E+00  0.00000000E+00  0.00000000E+00
  0.00000000E+00  0.00000000E+00  0.00000000E+00
  0.00000000E+00  0.00000000E+00  0.00000000E+00
  0.00000000E+00  0.00000000E+00  0.00000000E+00
  0.00000000E+00  0.00000000E+00  0.00000000E+00
  0.00000000E+00  0.00000000E+00  0.00000000E+00
  0.00000000E+00  0.00000000E+00  0.00000000E+00
  0.00000000E+00  0.00000000E+00  0.00000000E+00
  0.00000000E+00  0.00000000E+00  0.00000000E+00
  0.00000000E+00  0.00000000E+00  0.00000000E+00
  0.00000000E+00  0.00000000E+00  0.00000000E+00
  0.00000000E+00  0.00000000E+00  0.00000000E+00
  0.00000000E+00  0.00000000E+00  0.00000000E+00
  0.00000000E+00  0.00000000E+00  0.00000000E+00
  0.00000000E+00  0.00000000E+00  0.00000000E+00
  0.00000000E+00  0.00000000E+00  0.00000000E+00
  0.00000000E+00  0.00000000E+00  0.00000000E+00
  0.00000000E+00  0.00000000E+00  0.00000000E+00
  0.00000000E+00  0.00000000E+00  0.00000000E+00
  0.00000000E+00  0.00000000E+00  0.00000000E+00
  0.00000000E+00  0.00000000E+00  0.00000000E+00
  0.00000000E+00  0.00000000E+00  0.00000000E+00
  0.00000000E+00  0.00000000E+00  0.00000000E+00
  0.00000000E+00  0.00000000E+00  0.00000000E+00
  0.00000000E+00  0.00000000E+00  0.00000000E+00
  0.00000000E+00  0.00000000E+00  0.00000000E+00
  0.00000000E+00  0.00000000E+00  0.00000000E+00
  0.00000000E+00  0.00000000E+00  0.00000000E+00
  0.00000000E+00  0.00000000E+00  0.00000000E+00
  0.00000000E+00  0.00000000E+00  0.00000000E+00
  0.00000000E+00  0.00000000E+00  0.00000000E+00
  0.00000000E+00  0.00000000E+00  0.00000000E+00
  0.00000000E+00  0.00000000E+00  0.00000000E+00
  0.00000000E+00  0.00000000E+00  0.00000000E+00
  0.00000000E+00  0.00000000E+00  0.00000000E+00
  0.00000000E+00  0.00000000E+00  0.00000000E+00
  0.00000000E+00  0.00000000E+00  0.00000000E+00
  0.00000000E+00  0.00000000E+00  0.00000000E+00
  0.00000000E+00  0.00000000E+00  0.00000000E+00
  0.00000000E+00  0.00000000E+00  0.00000000E+00
  0.00000000E+00  0.00000000E+00  0.00000000E+00
  0.00000000E+00  0.00000000E+00  0.00000000E+00
  0.00000000E+00  0.00000000E+00  0.00000000E+00
  0.00000000E+00  0.00000000E+00  0.00000000E+00
  0.00000000E+00  0.00000000E+00  0.00000000E+00
  0.00000000E+00  0.00000000E+00  0.00000000E+00
  0.00000000E+00  0.00000000E+00  0.00000000E+00
  0.00000000E+00  0.00000000E+00  0.00000000E+00
  0.00000000E+00  0.00000000E+00  0.00000000E+00
  0.00000000E+00  0.00000000E+00  0.00000000E+00
  0.00000000E+00  0.00000000E+00  0.00000000E+00
  0.00000000E+00  0.00000000E+00  0.00000000E+00
  0.00000000E+00  0.00000000E+00  0.00000000E+00
  0.00000000E+00  0.00000000E+00  0.00000000E+00
  0.00000000E+00  0.00000000E+00  0.00000000E+00
  0.00000000E+00  0.00000000E+00  0.00000000E+00
  0.00000000E+00  0.00000000E+00  0.00000000E+00
  0.00000000E+00  0.00000000E+00  0.00000000E+00
  0.00000000E+00  0.00000000E+00  0.00000000E+00
  0.00000000E+00  0.00000000E+00  0.00000000E+00
  0.00000000E+00  0.00000000E+00  0.00000000E+00
  0.00000000E+00  0.00000000E+00  0.00000000E+00
  0.00000000E+00  0.00000000E+00  0.00000000E+00
  0.00000000E+00  0.00000000E+00  0.00000000E+00
  0.00000000E+00  0.00000000E+00  0.00000000E+00
  0.00000000E+00  0.00000000E+00  0.00000000E+00
  0.00000000E+00  0.00000000E+00  0.00000000E+00
  0.00000000E+00  0.00000000E+00  0.00000000E+00
  0.00000000E+00  0.00000000E+00  0.00000000E+00
  0.00000000E+00  0.00000000E+00  0.00000000E+00
  0.00000000E+00  0.00000000E+00  0.00000000E+00
  0.00000000E+00  0.00000000E+00  0.00000000E+00
  0.00000000E+00  0.00000000E+00  0.00000000E+00
  0.00000000E+00  0.00000000E+00  0.00000000E+00
  0.00000000E+00  0.00000000E+00  0.00000000E+00
  0.00000000E+00  0.00000000E+00  0.00000000E+00
