Au1 C124 N2 O1                          
   1.00000000000000     
    19.8529153927272297   -0.0074841004911470    0.0035964031980221
    -9.9332500788794942   17.0486565966991641    0.0016187006869534
     0.0053730539043297    0.0059464497337280   29.7360338161795994
   Au   C    N    O 
     1   124     2     1
Direct
  0.4374561580260625  0.4999875004917551  0.4169567368525013
  0.0419415105687326  0.0841029463374364  0.3997533721146951
  0.0406402129589502  0.2080188667902904  0.3996414579920032
  0.0397225863345824  0.3326222431223050  0.3992502553475982
  0.0397841192183481  0.4582192730755572  0.3989215410744799
  0.0411078923859830  0.5839308804930626  0.3989750475085533
  0.0422179772246111  0.7095049595728097  0.3992989895834386
  0.0426647163177825  0.8348411646996435  0.3995400623853895
  0.0427248062506985  0.9599057193813622  0.3996678804851670
  0.1682719403841658  0.0860861166302687  0.4002963955927679
  0.1670291004101714  0.2100539682913447  0.4008237310515099
  0.1645522903170605  0.3335987680782481  0.4009424400440157
  0.1626771166629053  0.4583695156180054  0.4000943943764387
  0.1643617328529024  0.5839156277088118  0.3994426674119858
  0.1661540677041267  0.7094129023215620  0.3993148720938473
  0.1671237508674077  0.8348782079731408  0.3995579449577932
  0.1677451269405781  0.9604169084053427  0.3997914573118606
  0.2929086175277383  0.0858342876302744  0.4003551733453395
  0.2945751539595514  0.2131066082838550  0.4024048515036169
  0.2917140851810803  0.3371791245564730  0.4049792911727983
  0.2851935782832515  0.4589131057162177  0.4043384857578118
  0.2871670819160035  0.5843399818289179  0.4021224753818998
  0.2901097868363869  0.7091560898953745  0.4002368922848750
  0.2914717818180055  0.8343460181382956  0.3996091384663701
  0.2921900413992755  0.9598562229703647  0.3997019312080623
  0.4172521943063060  0.0840499877742100  0.3998940215364385
  0.4180746228292299  0.2099520754547260  0.4014543817062295
  0.4216258691108540  0.3378531159842360  0.4049491135980903
  0.4140793254939626  0.7065074876979769  0.4027287113794907
  0.4157949232342260  0.8325461528079219  0.4003539534653765
  0.4165682908246308  0.9582855153783055  0.3996821716329571
  0.5415874289612508  0.0822703582126401  0.3996440001567895
  0.5423970212929115  0.2076746619254214  0.4000019037152934
  0.5441191396740082  0.3327867816521264  0.4017310116259294
  0.5477066849620639  0.4568824666086240  0.4043882295976840
  0.5486331392752739  0.5810592735032661  0.4079637813780339
  0.5382023270628742  0.7025436812191120  0.4046599595403268
  0.5400084426886266  0.8303337404484743  0.4013901732020149
  0.5409725646555061  0.9565717570097723  0.3999550473874337
  0.6659801715806132  0.0815250023904948  0.3997065512863709
  0.6667202069395124  0.2070422783657959  0.3994681575460241
  0.6679866145760970  0.3325127926189772  0.3995792414691905
  0.6704549568454815  0.4581642954958636  0.4005045282437156
  0.6715157124186020  0.5831960358044478  0.4015078980341610
  0.6670386774631779  0.7064917087051837  0.4019459113752368
  0.6647441594233803  0.8300111044174721  0.4012395938979745
  0.6654224566508373  0.9559215468710092  0.4001622745690730
  0.7906157909080856  0.0815253214909788  0.3996758660582970
  0.7909605258767837  0.2068332510215566  0.3995001980494002
  0.7918800096233560  0.3324171309347795  0.3991753512912058
  0.7933362322655518  0.4581410237308929  0.3989960223828107
  0.7945448128917525  0.5837775367061835  0.3992636044260506
  0.7934176267176343  0.7086434407096812  0.3998309922986423
  0.7916179296983107  0.8324734562986178  0.3999825943154717
  0.7904602730831879  0.9564231110379652  0.3998616301719550
  0.9158314953665267  0.0823515655757318  0.3995604932169823
  0.9154527003056160  0.2070906136650321  0.3993832207912816
  0.9156771531254064  0.3324209480877060  0.3991384870796393
  0.9165540992749125  0.4581289927401851  0.3989377314559805
  0.9178138214749886  0.5839086895346718  0.3989752549037914
  0.9180907318471332  0.7093506762915052  0.3992133446519344
  0.9176665160583197  0.8341307337343520  0.3994864145368517
  0.9167142893832575  0.9582626488729480  0.3996244401352919
  0.0845579377609987  0.0435708527309405  0.3998565953989984
  0.0833831008011935  0.1675059940426081  0.3999416060904434
  0.0815578941900715  0.2913395354097648  0.3997611328711137
  0.0804195994881992  0.4162221195012257  0.3991929608741186
  0.0816302813823092  0.5418602033174998  0.3989559847416666
  0.0831309961883269  0.6675819944425456  0.3991815138372884
  0.0840562732097121  0.7931608273518473  0.3994992882756949
  0.0844281700612509  0.9184601068978663  0.3996788116157196
  0.2096083347503744  0.0440814010423519  0.4001334598415935
  0.2102625035460525  0.1699939057666490  0.4011759338313752
  0.2079310277352197  0.2934969117901283  0.4018889153074982
  0.2034518846985910  0.4168037509936502  0.4013941901526064
  0.2045153176163622  0.5418384026532516  0.4004188875190920
  0.2070076009615404  0.6675104226078565  0.3995609366054255
  0.2082903757109252  0.7929744201949184  0.3994753142913391
  0.2090745005600862  0.9184858114390954  0.3996909424683441
  0.3340632424521001  0.0434457090765492  0.3999243330930732
  0.3350004335141082  0.1696749099832349  0.4013809492859287
  0.3367693223366909  0.2974469586997958  0.4046665874582329
  0.3263072714275640  0.4189240426771518  0.4079427914600565
  0.3272380206170880  0.5431089013278995  0.4043072640007737
  0.3308641731886771  0.6672285781394860  0.4016912391167852
  0.3326202236437040  0.7923578907015406  0.3999957528801166
  0.3334759857797134  0.9177520551807014  0.3996402739811432
  0.4584975966208191  0.0417317301815385  0.3996809906337729
  0.4592347766089152  0.1674695786938116  0.4003547833677537
  0.4609015753189936  0.2934975488167934  0.4027641196758690
  0.4533337202384248  0.6621404874099649  0.4049172958821746
  0.4569356747963690  0.7900599152025748  0.4014362250663165
  0.4577966842176421  0.9159623728054272  0.3999036098686992
  0.5828660518388084  0.0401535946879713  0.3997225638650307
  0.5835516803607578  0.1656837270759841  0.3996040387208094
  0.5848941188479113  0.2908801400725222  0.4002559444814394
  0.5877967008620195  0.4156725131758366  0.4021896983373742
  0.5897629983598580  0.5410761354357991  0.4044256390419654
  0.5832431987422285  0.6628104884830687  0.4049901621323280
  0.5804253451137105  0.7868906246940507  0.4024316034804180
  0.5821140282205784  0.9141725481574493  0.4003913158855983
  0.7073041898947270  0.0395821515382978  0.3998096062950653
  0.7078941628807977  0.1651311624476338  0.3995601020354043
  0.7088602025373790  0.2906098639961892  0.3993095573639659
  0.7106069528122561  0.4160945383113700  0.3994978985785618
  0.7122947030569262  0.5416370743636563  0.4001986635507517
  0.7104160296339075  0.6663945365368028  0.4010298141424069
  0.7079561001796361  0.7899223503271534  0.4008940203732856
  0.7067489406191571  0.9139154297892245  0.4003298492215391
  0.8323208204991366  0.0400840603532634  0.3996626773944480
  0.8323486356990673  0.1651468989309504  0.3995360189575188
  0.8328041151619314  0.2904908129910720  0.3992983208883328
  0.8338612828189256  0.4160656501706828  0.3989792897705957
  0.8351776898283426  0.5417793580044425  0.3989634842264847
  0.8352503440375528  0.6673674711188954  0.3993111205774694
  0.8343578672383682  0.7919723838984978  0.3996901836610427
  0.8330881636165781  0.9158854457855727  0.3997629092786721
  0.9583232208185848  0.0417172397418054  0.3996213539657096
  0.9573447470484652  0.1658497723576799  0.3994540234563072
  0.9568966625929978  0.2906269135743952  0.3991850709332170
  0.9571581709371750  0.4160903452601517  0.3989597800586428
  0.9584264768273492  0.5418670114529776  0.3989418457488123
  0.9593318044012219  0.6675725583168689  0.3991515586070641
  0.9595503136169816  0.7928881671321673  0.3994090864987726
  0.9592090593055219  0.9176331568520995  0.3995752956190652
  0.4067851262215126  0.5815885769146136  0.4057260040970295
  0.4681633631198827  0.4184014210244128  0.4057761412068358
  0.4374120623110997  0.4999925691581856  0.4884179206407780
 
  0.00000000E+00  0.00000000E+00  0.00000000E+00
  0.00000000E+00  0.00000000E+00  0.00000000E+00
  0.00000000E+00  0.00000000E+00  0.00000000E+00
  0.00000000E+00  0.00000000E+00  0.00000000E+00
  0.00000000E+00  0.00000000E+00  0.00000000E+00
  0.00000000E+00  0.00000000E+00  0.00000000E+00
  0.00000000E+00  0.00000000E+00  0.00000000E+00
  0.00000000E+00  0.00000000E+00  0.00000000E+00
  0.00000000E+00  0.00000000E+00  0.00000000E+00
  0.00000000E+00  0.00000000E+00  0.00000000E+00
  0.00000000E+00  0.00000000E+00  0.00000000E+00
  0.00000000E+00  0.00000000E+00  0.00000000E+00
  0.00000000E+00  0.00000000E+00  0.00000000E+00
  0.00000000E+00  0.00000000E+00  0.00000000E+00
  0.00000000E+00  0.00000000E+00  0.00000000E+00
  0.00000000E+00  0.00000000E+00  0.00000000E+00
  0.00000000E+00  0.00000000E+00  0.00000000E+00
  0.00000000E+00  0.00000000E+00  0.00000000E+00
  0.00000000E+00  0.00000000E+00  0.00000000E+00
  0.00000000E+00  0.00000000E+00  0.00000000E+00
  0.00000000E+00  0.00000000E+00  0.00000000E+00
  0.00000000E+00  0.00000000E+00  0.00000000E+00
  0.00000000E+00  0.00000000E+00  0.00000000E+00
  0.00000000E+00  0.00000000E+00  0.00000000E+00
  0.00000000E+00  0.00000000E+00  0.00000000E+00
  0.00000000E+00  0.00000000E+00  0.00000000E+00
  0.00000000E+00  0.00000000E+00  0.00000000E+00
  0.00000000E+00  0.00000000E+00  0.00000000E+00
  0.00000000E+00  0.00000000E+00  0.00000000E+00
  0.00000000E+00  0.00000000E+00  0.00000000E+00
  0.00000000E+00  0.00000000E+00  0.00000000E+00
  0.00000000E+00  0.00000000E+00  0.00000000E+00
  0.00000000E+00  0.00000000E+00  0.00000000E+00
  0.00000000E+00  0.00000000E+00  0.00000000E+00
  0.00000000E+00  0.00000000E+00  0.00000000E+00
  0.00000000E+00  0.00000000E+00  0.00000000E+00
  0.00000000E+00  0.00000000E+00  0.00000000E+00
  0.00000000E+00  0.00000000E+00  0.00000000E+00
  0.00000000E+00  0.00000000E+00  0.00000000E+00
  0.00000000E+00  0.00000000E+00  0.00000000E+00
  0.00000000E+00  0.00000000E+00  0.00000000E+00
  0.00000000E+00  0.00000000E+00  0.00000000E+00
  0.00000000E+00  0.00000000E+00  0.00000000E+00
  0.00000000E+00  0.00000000E+00  0.00000000E+00
  0.00000000E+00  0.00000000E+00  0.00000000E+00
  0.00000000E+00  0.00000000E+00  0.00000000E+00
  0.00000000E+00  0.00000000E+00  0.00000000E+00
  0.00000000E+00  0.00000000E+00  0.00000000E+00
  0.00000000E+00  0.00000000E+00  0.00000000E+00
  0.00000000E+00  0.00000000E+00  0.00000000E+00
  0.00000000E+00  0.00000000E+00  0.00000000E+00
  0.00000000E+00  0.00000000E+00  0.00000000E+00
  0.00000000E+00  0.00000000E+00  0.00000000E+00
  0.00000000E+00  0.00000000E+00  0.00000000E+00
  0.00000000E+00  0.00000000E+00  0.00000000E+00
  0.00000000E+00  0.00000000E+00  0.00000000E+00
  0.00000000E+00  0.00000000E+00  0.00000000E+00
  0.00000000E+00  0.00000000E+00  0.00000000E+00
  0.00000000E+00  0.00000000E+00  0.00000000E+00
  0.00000000E+00  0.00000000E+00  0.00000000E+00
  0.00000000E+00  0.00000000E+00  0.00000000E+00
  0.00000000E+00  0.00000000E+00  0.00000000E+00
  0.00000000E+00  0.00000000E+00  0.00000000E+00
  0.00000000E+00  0.00000000E+00  0.00000000E+00
  0.00000000E+00  0.00000000E+00  0.00000000E+00
  0.00000000E+00  0.00000000E+00  0.00000000E+00
  0.00000000E+00  0.00000000E+00  0.00000000E+00
  0.00000000E+00  0.00000000E+00  0.00000000E+00
  0.00000000E+00  0.00000000E+00  0.00000000E+00
  0.00000000E+00  0.00000000E+00  0.00000000E+00
  0.00000000E+00  0.00000000E+00  0.00000000E+00
  0.00000000E+00  0.00000000E+00  0.00000000E+00
  0.00000000E+00  0.00000000E+00  0.00000000E+00
  0.00000000E+00  0.00000000E+00  0.00000000E+00
  0.00000000E+00  0.00000000E+00  0.00000000E+00
  0.00000000E+00  0.00000000E+00  0.00000000E+00
  0.00000000E+00  0.00000000E+00  0.00000000E+00
  0.00000000E+00  0.00000000E+00  0.00000000E+00
  0.00000000E+00  0.00000000E+00  0.00000000E+00
  0.00000000E+00  0.00000000E+00  0.00000000E+00
  0.00000000E+00  0.00000000E+00  0.00000000E+00
  0.00000000E+00  0.00000000E+00  0.00000000E+00
  0.00000000E+00  0.00000000E+00  0.00000000E+00
  0.00000000E+00  0.00000000E+00  0.00000000E+00
  0.00000000E+00  0.00000000E+00  0.00000000E+00
  0.00000000E+00  0.00000000E+00  0.00000000E+00
  0.00000000E+00  0.00000000E+00  0.00000000E+00
  0.00000000E+00  0.00000000E+00  0.00000000E+00
  0.00000000E+00  0.00000000E+00  0.00000000E+00
  0.00000000E+00  0.00000000E+00  0.00000000E+00
  0.00000000E+00  0.00000000E+00  0.00000000E+00
  0.00000000E+00  0.00000000E+00  0.00000000E+00
  0.00000000E+00  0.00000000E+00  0.00000000E+00
  0.00000000E+00  0.00000000E+00  0.00000000E+00
  0.00000000E+00  0.00000000E+00  0.00000000E+00
  0.00000000E+00  0.00000000E+00  0.00000000E+00
  0.00000000E+00  0.00000000E+00  0.00000000E+00
  0.00000000E+00  0.00000000E+00  0.00000000E+00
  0.00000000E+00  0.00000000E+00  0.00000000E+00
  0.00000000E+00  0.00000000E+00  0.00000000E+00
  0.00000000E+00  0.00000000E+00  0.00000000E+00
  0.00000000E+00  0.00000000E+00  0.00000000E+00
  0.00000000E+00  0.00000000E+00  0.00000000E+00
  0.00000000E+00  0.00000000E+00  0.00000000E+00
  0.00000000E+00  0.00000000E+00  0.00000000E+00
  0.00000000E+00  0.00000000E+00  0.00000000E+00
  0.00000000E+00  0.00000000E+00  0.00000000E+00
  0.00000000E+00  0.00000000E+00  0.00000000E+00
  0.00000000E+00  0.00000000E+00  0.00000000E+00
  0.00000000E+00  0.00000000E+00  0.00000000E+00
  0.00000000E+00  0.00000000E+00  0.00000000E+00
  0.00000000E+00  0.00000000E+00  0.00000000E+00
  0.00000000E+00  0.00000000E+00  0.00000000E+00
  0.00000000E+00  0.00000000E+00  0.00000000E+00
  0.00000000E+00  0.00000000E+00  0.00000000E+00
  0.00000000E+00  0.00000000E+00  0.00000000E+00
  0.00000000E+00  0.00000000E+00  0.00000000E+00
  0.00000000E+00  0.00000000E+00  0.00000000E+00
  0.00000000E+00  0.00000000E+00  0.00000000E+00
  0.00000000E+00  0.00000000E+00  0.00000000E+00
  0.00000000E+00  0.00000000E+00  0.00000000E+00
  0.00000000E+00  0.00000000E+00  0.00000000E+00
  0.00000000E+00  0.00000000E+00  0.00000000E+00
  0.00000000E+00  0.00000000E+00  0.00000000E+00
  0.00000000E+00  0.00000000E+00  0.00000000E+00
  0.00000000E+00  0.00000000E+00  0.00000000E+00
  0.00000000E+00  0.00000000E+00  0.00000000E+00
  0.00000000E+00  0.00000000E+00  0.00000000E+00
