Ta1 C124 N2                             
   1.00000000000000     
    19.8009988752682311   -0.0206769276759758    0.0000454304611204
    -9.9184890814147906   17.0679518528476351    0.0001240748230034
     0.0000695318479320    0.0002558442230721   29.7918292495219994
   Ta   C    N 
     1   124     2
Direct
  0.4374862390684676  0.4999978135917892  0.4302477573325700
  0.0421305387092030  0.0840357796131242  0.3999202344682292
  0.0417384786246021  0.2086441198206250  0.3998369162567082
  0.0410715252444509  0.3332541634995971  0.3998537674757469
  0.0408402224233028  0.4583439196593395  0.3998197698412934
  0.0413334767576844  0.5836681670061399  0.3999714365642186
  0.0418141189679550  0.7089305097473346  0.4000716572067967
  0.0419893597338370  0.8340578432863265  0.4000523237204535
  0.0421156180681740  0.9591867457147192  0.4000047130404705
  0.1677956699611166  0.0850671012565890  0.3998835842794940
  0.1677268518370238  0.2100697759410641  0.3997268699466427
  0.1665714176260344  0.3342997214388376  0.3997992460799054
  0.1649691265494306  0.4587460908144110  0.3999722754270935
  0.1654319170995401  0.5838147591854037  0.3996099119292147
  0.1662925405720394  0.7088967981200709  0.3998769731230827
  0.1667637695331951  0.8340877731330124  0.4000714309135747
  0.1671197301184294  0.9593933659991341  0.3999679685162702
  0.2922413034505019  0.0845802224468334  0.3998598012178715
  0.2937148662081191  0.2111834231931717  0.4001734131972545
  0.2936344533542828  0.3371591494182371  0.4005093381530366
  0.2896316023839476  0.4600502782594681  0.4006876553818052
  0.2892891554493789  0.5842815872779942  0.4006303086558969
  0.2908294947832743  0.7089704481621711  0.3998360651459636
  0.2915156285038602  0.8339511523713463  0.3999027901992164
  0.2918682989252354  0.9591059020236313  0.3999826441517834
  0.4169247879870540  0.0836273942991222  0.3998453909877909
  0.4174047240284323  0.2091648756991506  0.3997425123798608
  0.4196958158054170  0.3358668917660737  0.4019736455377582
  0.4151610866901689  0.7073643789906584  0.4003883540283336
  0.4161648354850696  0.8329402322980540  0.3996778483483945
  0.4166027141327448  0.9582998840715208  0.4000055798383190
  0.5416375786600638  0.0827038531473462  0.4000289347923642
  0.5420171141176553  0.2077630189483123  0.3997591794598757
  0.5431023133097509  0.3325614597475123  0.4003630569932113
  0.5448375397126599  0.4563183776472865  0.4019121005755367
  0.5423360167281204  0.5798798547480398  0.4013541452689695
  0.5386731985998047  0.7044765020608584  0.4010545679864235
  0.5407421191283540  0.8317178413599500  0.3999486999878470
  0.5413074853161631  0.9574082073733120  0.3999124576169451
  0.6663998584109336  0.0824101830167891  0.4000410440560977
  0.6667641986782857  0.2075885939662910  0.4000031989571606
  0.6675301957404600  0.3328182063365759  0.3997195514596093
  0.6687655158307688  0.4580808909174938  0.3998708540383670
  0.6683502034538797  0.5823546812249263  0.4002316855030980
  0.6655582742486661  0.7063137028789024  0.3996916844223509
  0.6650030424897289  0.8311868706141101  0.3998824559326455
  0.6659499943733489  0.9570502936818784  0.3998932509617498
  0.7912265135139898  0.0824632622067668  0.4000078749763014
  0.7914874945626525  0.2076503917390494  0.4000811364598144
  0.7919347447809595  0.3328685892879580  0.3999872756214599
  0.7925907486108756  0.4581550970358768  0.3997181922361651
  0.7929681651609427  0.5834064963821923  0.3997697862383016
  0.7918936431775206  0.7080037543851929  0.3998076903553119
  0.7909192506991902  0.8323173229152899  0.3998017516986378
  0.7908441437000938  0.9571419420919738  0.3998851287982478
  0.9163895104071702  0.0829383549526395  0.3999932342824111
  0.9163389447670877  0.2078239873605458  0.3999781181897218
  0.9163923286130249  0.3329548955063286  0.4000356145655503
  0.9167410483543940  0.4582852083881329  0.4000755590069651
  0.9171722579145803  0.5835854763945109  0.3999941481739368
  0.9171024971786418  0.7086937277390208  0.3999422531694372
  0.9168165696006945  0.8335516827045301  0.3999726261987105
  0.9165379076440533  0.9582454538254642  0.4000118587908422
  0.0841385989570756  0.0428411829558125  0.3999237473796090
  0.0840700416895459  0.1676618790505969  0.3998099800066524
  0.0831213101652759  0.2919955590119791  0.3998003045283350
  0.0820681874850182  0.4166110238901823  0.3997891001379277
  0.0824241665305368  0.5418718892454525  0.3997440659959206
  0.0830845152672356  0.6671394364431088  0.3999887169295582
  0.0835046008628940  0.7923480383689590  0.4000797185390064
  0.0837605522964704  0.9175214792077474  0.4000215077940057
  0.2090302420306634  0.0429432033782923  0.3998932227638664
  0.2099666296315653  0.1688117145836248  0.3998930880317556
  0.2094400166175948  0.2936750509091253  0.3996883123142803
  0.2066847924701193  0.4176443044876545  0.4002289646365764
  0.2062785887557159  0.5419449245936837  0.3998651949078148
  0.2074725615685005  0.6672021388657201  0.3997236796258756
  0.2082220462024375  0.7924165884724339  0.3999875540503835
  0.2085829960335535  0.9175853678583443  0.4000270063746142
  0.3336637157032872  0.0425827032404879  0.3998747811656514
  0.3342268555521174  0.1682773190521236  0.3999248399563008
  0.3363093905873789  0.2955104420003004  0.4010373596201590
  0.3326696885838708  0.4201019610364856  0.4013488346303112
  0.3301801955883152  0.5436836365177100  0.4019221909433708
  0.3319123583270697  0.6674588544725214  0.4003657654037518
  0.3329729061253895  0.7922361267885869  0.3997539319334347
  0.3333587229224574  0.9172858922294244  0.3999861555133699
  0.4583924608623433  0.0416943911489211  0.4000179224260473
  0.4588200984854802  0.1670582168470292  0.3996755101963042
  0.4598363800427065  0.2926446877940941  0.4003801270815974
  0.4552953399116031  0.6641330257014736  0.4019725977543016
  0.4575670542983608  0.7908355612245029  0.3997590719932606
  0.4580507268352099  0.9163533857743735  0.3998535654552312
  0.5831198004370743  0.0408840723055979  0.4000238167602602
  0.5834719306401569  0.1660511503690699  0.3999268353992905
  0.5841682938654837  0.2910397130798766  0.3998297451279095
  0.5857433103947474  0.4157346098693363  0.4006289271238639
  0.5853899641126180  0.5399471302990211  0.4006761966492945
  0.5813429916893695  0.6628126528573356  0.4005298610019687
  0.5812424597336999  0.7887982021907943  0.4001863928916455
  0.5827251598050648  0.9154150631602402  0.3998819331625187
  0.7078605995848948  0.0406042279079101  0.3999687275715242
  0.7082279771502352  0.1659275482456195  0.4000874625433639
  0.7087156240030535  0.2911218189955768  0.3998887260679562
  0.7095937696529011  0.4162118817638439  0.3995990867075417
  0.7100668249092018  0.5412638229488351  0.3999828420036944
  0.7084345881192785  0.6656929999501949  0.3998081830566391
  0.7072400262669569  0.7899158726545766  0.3997195548659358
  0.7071776289377213  0.9149227367137784  0.3998527242100154
  0.8328864694093636  0.0408075605293760  0.3999719309767213
  0.8330053378616188  0.1659416332635354  0.4000396859161214
  0.8332058766644727  0.2910757803992049  0.4000699488948289
  0.8336797474211595  0.4163490794066133  0.3999500351464015
  0.8341776502665998  0.5416668377394392  0.3997879728618176
  0.8339561298289471  0.6667586966532002  0.3998436068735901
  0.8332654404505654  0.7913425686737748  0.3998534907207898
  0.8328710389319474  0.9159517446284299  0.3998998747722903
  0.9584708461700590  0.0417505265363012  0.4000097615103716
  0.9581834028645390  0.1664450907115239  0.3999403730523441
  0.9579187404907407  0.2913176582632340  0.3999409421698354
  0.9578361001467361  0.4164142201183880  0.4000170341606395
  0.9582839635695555  0.5417186664095849  0.4000756133710869
  0.9586346719478261  0.6670453053963231  0.4000150832001739
  0.9586673547368039  0.7921753728880150  0.3999888199940814
  0.9586206538121665  0.9170597079093625  0.4000246077044821
  0.4112489226484380  0.5826445494730677  0.4055002216478505
  0.4637611775197217  0.4173620638482182  0.4055108636747512
 
  0.00000000E+00  0.00000000E+00  0.00000000E+00
  0.00000000E+00  0.00000000E+00  0.00000000E+00
  0.00000000E+00  0.00000000E+00  0.00000000E+00
  0.00000000E+00  0.00000000E+00  0.00000000E+00
  0.00000000E+00  0.00000000E+00  0.00000000E+00
  0.00000000E+00  0.00000000E+00  0.00000000E+00
  0.00000000E+00  0.00000000E+00  0.00000000E+00
  0.00000000E+00  0.00000000E+00  0.00000000E+00
  0.00000000E+00  0.00000000E+00  0.00000000E+00
  0.00000000E+00  0.00000000E+00  0.00000000E+00
  0.00000000E+00  0.00000000E+00  0.00000000E+00
  0.00000000E+00  0.00000000E+00  0.00000000E+00
  0.00000000E+00  0.00000000E+00  0.00000000E+00
  0.00000000E+00  0.00000000E+00  0.00000000E+00
  0.00000000E+00  0.00000000E+00  0.00000000E+00
  0.00000000E+00  0.00000000E+00  0.00000000E+00
  0.00000000E+00  0.00000000E+00  0.00000000E+00
  0.00000000E+00  0.00000000E+00  0.00000000E+00
  0.00000000E+00  0.00000000E+00  0.00000000E+00
  0.00000000E+00  0.00000000E+00  0.00000000E+00
  0.00000000E+00  0.00000000E+00  0.00000000E+00
  0.00000000E+00  0.00000000E+00  0.00000000E+00
  0.00000000E+00  0.00000000E+00  0.00000000E+00
  0.00000000E+00  0.00000000E+00  0.00000000E+00
  0.00000000E+00  0.00000000E+00  0.00000000E+00
  0.00000000E+00  0.00000000E+00  0.00000000E+00
  0.00000000E+00  0.00000000E+00  0.00000000E+00
  0.00000000E+00  0.00000000E+00  0.00000000E+00
  0.00000000E+00  0.00000000E+00  0.00000000E+00
  0.00000000E+00  0.00000000E+00  0.00000000E+00
  0.00000000E+00  0.00000000E+00  0.00000000E+00
  0.00000000E+00  0.00000000E+00  0.00000000E+00
  0.00000000E+00  0.00000000E+00  0.00000000E+00
  0.00000000E+00  0.00000000E+00  0.00000000E+00
  0.00000000E+00  0.00000000E+00  0.00000000E+00
  0.00000000E+00  0.00000000E+00  0.00000000E+00
  0.00000000E+00  0.00000000E+00  0.00000000E+00
  0.00000000E+00  0.00000000E+00  0.00000000E+00
  0.00000000E+00  0.00000000E+00  0.00000000E+00
  0.00000000E+00  0.00000000E+00  0.00000000E+00
  0.00000000E+00  0.00000000E+00  0.00000000E+00
  0.00000000E+00  0.00000000E+00  0.00000000E+00
  0.00000000E+00  0.00000000E+00  0.00000000E+00
  0.00000000E+00  0.00000000E+00  0.00000000E+00
  0.00000000E+00  0.00000000E+00  0.00000000E+00
  0.00000000E+00  0.00000000E+00  0.00000000E+00
  0.00000000E+00  0.00000000E+00  0.00000000E+00
  0.00000000E+00  0.00000000E+00  0.00000000E+00
  0.00000000E+00  0.00000000E+00  0.00000000E+00
  0.00000000E+00  0.00000000E+00  0.00000000E+00
  0.00000000E+00  0.00000000E+00  0.00000000E+00
  0.00000000E+00  0.00000000E+00  0.00000000E+00
  0.00000000E+00  0.00000000E+00  0.00000000E+00
  0.00000000E+00  0.00000000E+00  0.00000000E+00
  0.00000000E+00  0.00000000E+00  0.00000000E+00
  0.00000000E+00  0.00000000E+00  0.00000000E+00
  0.00000000E+00  0.00000000E+00  0.00000000E+00
  0.00000000E+00  0.00000000E+00  0.00000000E+00
  0.00000000E+00  0.00000000E+00  0.00000000E+00
  0.00000000E+00  0.00000000E+00  0.00000000E+00
  0.00000000E+00  0.00000000E+00  0.00000000E+00
  0.00000000E+00  0.00000000E+00  0.00000000E+00
  0.00000000E+00  0.00000000E+00  0.00000000E+00
  0.00000000E+00  0.00000000E+00  0.00000000E+00
  0.00000000E+00  0.00000000E+00  0.00000000E+00
  0.00000000E+00  0.00000000E+00  0.00000000E+00
  0.00000000E+00  0.00000000E+00  0.00000000E+00
  0.00000000E+00  0.00000000E+00  0.00000000E+00
  0.00000000E+00  0.00000000E+00  0.00000000E+00
  0.00000000E+00  0.00000000E+00  0.00000000E+00
  0.00000000E+00  0.00000000E+00  0.00000000E+00
  0.00000000E+00  0.00000000E+00  0.00000000E+00
  0.00000000E+00  0.00000000E+00  0.00000000E+00
  0.00000000E+00  0.00000000E+00  0.00000000E+00
  0.00000000E+00  0.00000000E+00  0.00000000E+00
  0.00000000E+00  0.00000000E+00  0.00000000E+00
  0.00000000E+00  0.00000000E+00  0.00000000E+00
  0.00000000E+00  0.00000000E+00  0.00000000E+00
  0.00000000E+00  0.00000000E+00  0.00000000E+00
  0.00000000E+00  0.00000000E+00  0.00000000E+00
  0.00000000E+00  0.00000000E+00  0.00000000E+00
  0.00000000E+00  0.00000000E+00  0.00000000E+00
  0.00000000E+00  0.00000000E+00  0.00000000E+00
  0.00000000E+00  0.00000000E+00  0.00000000E+00
  0.00000000E+00  0.00000000E+00  0.00000000E+00
  0.00000000E+00  0.00000000E+00  0.00000000E+00
  0.00000000E+00  0.00000000E+00  0.00000000E+00
  0.00000000E+00  0.00000000E+00  0.00000000E+00
  0.00000000E+00  0.00000000E+00  0.00000000E+00
  0.00000000E+00  0.00000000E+00  0.00000000E+00
  0.00000000E+00  0.00000000E+00  0.00000000E+00
  0.00000000E+00  0.00000000E+00  0.00000000E+00
  0.00000000E+00  0.00000000E+00  0.00000000E+00
  0.00000000E+00  0.00000000E+00  0.00000000E+00
  0.00000000E+00  0.00000000E+00  0.00000000E+00
  0.00000000E+00  0.00000000E+00  0.00000000E+00
  0.00000000E+00  0.00000000E+00  0.00000000E+00
  0.00000000E+00  0.00000000E+00  0.00000000E+00
  0.00000000E+00  0.00000000E+00  0.00000000E+00
  0.00000000E+00  0.00000000E+00  0.00000000E+00
  0.00000000E+00  0.00000000E+00  0.00000000E+00
  0.00000000E+00  0.00000000E+00  0.00000000E+00
  0.00000000E+00  0.00000000E+00  0.00000000E+00
  0.00000000E+00  0.00000000E+00  0.00000000E+00
  0.00000000E+00  0.00000000E+00  0.00000000E+00
  0.00000000E+00  0.00000000E+00  0.00000000E+00
  0.00000000E+00  0.00000000E+00  0.00000000E+00
  0.00000000E+00  0.00000000E+00  0.00000000E+00
  0.00000000E+00  0.00000000E+00  0.00000000E+00
  0.00000000E+00  0.00000000E+00  0.00000000E+00
  0.00000000E+00  0.00000000E+00  0.00000000E+00
  0.00000000E+00  0.00000000E+00  0.00000000E+00
  0.00000000E+00  0.00000000E+00  0.00000000E+00
  0.00000000E+00  0.00000000E+00  0.00000000E+00
  0.00000000E+00  0.00000000E+00  0.00000000E+00
  0.00000000E+00  0.00000000E+00  0.00000000E+00
  0.00000000E+00  0.00000000E+00  0.00000000E+00
  0.00000000E+00  0.00000000E+00  0.00000000E+00
  0.00000000E+00  0.00000000E+00  0.00000000E+00
  0.00000000E+00  0.00000000E+00  0.00000000E+00
  0.00000000E+00  0.00000000E+00  0.00000000E+00
  0.00000000E+00  0.00000000E+00  0.00000000E+00
  0.00000000E+00  0.00000000E+00  0.00000000E+00
  0.00000000E+00  0.00000000E+00  0.00000000E+00
  0.00000000E+00  0.00000000E+00  0.00000000E+00
  0.00000000E+00  0.00000000E+00  0.00000000E+00
  0.00000000E+00  0.00000000E+00  0.00000000E+00
