Ta1 H1 C123 N3 O2                       
   1.00000000000000     
    19.8041069933698530    0.0065297652556418   -0.0019961390979033
    -9.8964375899243180   17.0440013250467395   -0.0231476788656042
    -0.0029712059856384   -0.0421939589780563   29.8052652542197869
   Ta   H    C    N    O 
     1     1   123     3     2
Direct
  0.4333692580064624  0.5002291155966637  0.4333495155509172
  0.4375281827316490  0.4996158651150533  0.6334236253232963
  0.0416579032403144  0.0837461919035369  0.3997000327751285
  0.0409577671989374  0.2080532132270627  0.3996453351875794
  0.0404818989382787  0.3329825627128986  0.3996048975102980
  0.0406655851117410  0.4582299136566597  0.3995977037308706
  0.0414619251745773  0.5836993066543615  0.3999687826622492
  0.0421363160646896  0.7090870939214642  0.4001510982179278
  0.0423347052759239  0.8342744347479325  0.4001637409826637
  0.0422360761917023  0.9592813109088983  0.3999427093879206
  0.1674746876312068  0.0849000964566375  0.3997741663990269
  0.1667826897476401  0.2093297832972572  0.4000268753204028
  0.1651053285242670  0.3334104689142471  0.4005886141662764
  0.1645576816577778  0.4583873836145800  0.4000641611444354
  0.1654009148824260  0.5836840481083955  0.3996259994317318
  0.1664645758501459  0.7089149928144149  0.3998217113967543
  0.1670420644721680  0.8342590388811773  0.4001011702063332
  0.1673265287443518  0.9596839440847376  0.3999116012497540
  0.2924400279256786  0.0853241225349917  0.3997952295159554
  0.2928522528485770  0.2116889545070494  0.4011688514239207
  0.2910220294486609  0.3358324531517284  0.4030096532922850
  0.2880981684508215  0.4577617002290325  0.4020883369790071
  0.2888621782769918  0.5830609281436634  0.4005166190971381
  0.2908076147287465  0.7083758268265448  0.3997131439915244
  0.2916954240778150  0.8338697643800738  0.3998423871135408
  0.2920940393371060  0.9594203790013430  0.3999140754131910
  0.4170469115730152  0.0840951831027918  0.3996699707893963
  0.4175915454288012  0.2099994755764986  0.3998373004547115
  0.4194965162813769  0.3373119607336155  0.4035354363741775
  0.4151985847450941  0.7070231581553367  0.4000751884525215
  0.4162393363364415  0.8326608166473657  0.3997209920595551
  0.4167285537179240  0.9583716584049480  0.3999438277134515
  0.5416197738930676  0.0827792043179913  0.3999539957108912
  0.5421581843948330  0.2084237497094347  0.3994651929355010
  0.5431584909611805  0.3339543582207584  0.3999644148171721
  0.5460932240406001  0.4591099499445311  0.4033176265550457
  0.5391013710070646  0.7029413740394814  0.4024118604997477
  0.5408398886218180  0.8308652252764170  0.4001622038498919
  0.5412769282109388  0.9570420332249577  0.3998341120320785
  0.6662556534079710  0.0822274715764889  0.4000598689203906
  0.6666435850393284  0.2076157166968670  0.3999412270326499
  0.6674665654549008  0.3329999498441220  0.3993475688414989
  0.6693596139693058  0.4585352421449140  0.3993709127261550
  0.6702995298894584  0.5840150988639767  0.4006337723025100
  0.6667571028516257  0.7067148918574450  0.4008442955146152
  0.6651470608340879  0.8308801131883125  0.4003050140655467
  0.6658390381718329  0.9566943632355176  0.3998388404052185
  0.7909341690448470  0.0821699596141897  0.4000153769032738
  0.7912240053774656  0.2074757707156268  0.4002080489302351
  0.7918051859441531  0.3328363141337261  0.4000143407753892
  0.7928599776867706  0.4582775313364702  0.3994669053853291
  0.7935981727807625  0.5836876284774479  0.3992273339223428
  0.7931652798952205  0.7088422381347201  0.3995943686061846
  0.7913329379341443  0.8325777611764947  0.3995942909624348
  0.7906994391686791  0.9569777589162110  0.3997977462695311
  0.9160036774896796  0.0826519236586813  0.3998954974223748
  0.9158793928831946  0.2075649772056986  0.3999027793887125
  0.9160905945242477  0.3328131048875122  0.3999874105429001
  0.9167584672935359  0.4582636561922805  0.4001230375513491
  0.9175200837683716  0.5837206533440530  0.3999428732549971
  0.9176605500876951  0.7089636957651889  0.3997900999886811
  0.9173297808051015  0.8339473662176443  0.3998419601193929
  0.9165184059146859  0.9581991738359704  0.3999122025436305
  0.0839797587369775  0.0427816954046037  0.3997338387526282
  0.0832430299492379  0.1671857907824371  0.3996339920357965
  0.0822938021832766  0.2915311728012953  0.3998045910361981
  0.0817274381332094  0.4163176813742472  0.3995515772433262
  0.0824588953842380  0.5417912558817215  0.3996490815439993
  0.0833613324659723  0.6672229639515119  0.4000161588239988
  0.0838085910476828  0.7925412694967660  0.4001783399739690
  0.0839995326390447  0.9177782308089866  0.4000447448938484
  0.2090291036103653  0.0432061810762965  0.3997758452973560
  0.2092423489597144  0.1686097435970441  0.4002553061304489
  0.2078741182716828  0.2927372887951241  0.4008194780763413
  0.2057382248604689  0.4168299528152553  0.4010089446072919
  0.2061519577204274  0.5415999524656335  0.4000454856755256
  0.2075399987092637  0.6669967012648098  0.3996565694514837
  0.2084243132996580  0.7924295759455254  0.3999301818198462
  0.2088242728364658  0.9178028611966758  0.4000194893202676
  0.3338056875375218  0.0430691966198434  0.3997285966751606
  0.3341535519184203  0.1690463350357213  0.4002627657083034
  0.3347280283574847  0.2958019555265565  0.4031863728691204
  0.3302439002454631  0.5420198890914497  0.4011992310306676
  0.3317296211761351  0.6663830624926113  0.4000284621872386
  0.3330261940223284  0.7918146039368603  0.3997017635956230
  0.3334659039894115  0.9173137458763353  0.3999381468208475
  0.4584078477283329  0.0418310963358945  0.3999045494244994
  0.4588052582530905  0.1676018416312307  0.3994787225798267
  0.4597493634940913  0.2935991687184101  0.4005037728211577
  0.4642669943555160  0.4196304143804410  0.4071068839161502
  0.4549264326653176  0.6633216248926627  0.4015142298141813
  0.4575504594598305  0.7903421604661617  0.3998768894003677
  0.4580410497713292  0.9161541922645124  0.3998233828615693
  0.5829757949211575  0.0406422298253076  0.3999862339129819
  0.5834317116018166  0.1662793030736252  0.3997725295122834
  0.5842421457680392  0.2917004783950505  0.3993941118186672
  0.5866246076273937  0.4172421134793662  0.4003548524249992
  0.5888008691995845  0.5433053008572981  0.4034962328554347
  0.5830999484708255  0.6623934541380160  0.4034453374645130
  0.5814510742034337  0.7877390281605939  0.4009386765293575
  0.5826115021465489  0.9147303752745850  0.3998462360697581
  0.7076462880877626  0.0403172861326988  0.3999320816447033
  0.7080294834442825  0.1657423994640581  0.4001681092705139
  0.7086106270448981  0.2911125106891107  0.3997476939497487
  0.7099892436534430  0.4164838577233764  0.3991549071400379
  0.7110432422884860  0.5417479632439807  0.3994467464713032
  0.7103363007656477  0.6670483700429158  0.4003348089735844
  0.7077260819948551  0.7902478710065256  0.3999783520028905
  0.7071428202480560  0.9147277146991133  0.3998809046103465
  0.8325746518070327  0.0405999155150238  0.3999194218111679
  0.8327047420615455  0.1657424979448038  0.4001014386097279
  0.8330059315295325  0.2909483479415806  0.4001733634297289
  0.8338122902921268  0.4163262075399465  0.3999554471992569
  0.8346642459343890  0.5418101110799222  0.3994704438131804
  0.8347777766828764  0.6671752415456662  0.3994533254828867
  0.8340687639814314  0.7920316479707510  0.3995985252100544
  0.8329816904096182  0.9160491362401162  0.3997398168443291
  0.9581915753823156  0.0416285150835153  0.3998858293277988
  0.9576770308538406  0.1660985717104285  0.3997694944270846
  0.9574911486169143  0.2910948416466356  0.3997666677200192
  0.9577779122325946  0.4163404651329585  0.3999359559630983
  0.9585331226504898  0.5417662673693563  0.4001161729603432
  0.9590998610553797  0.6672044648550813  0.4000083034442732
  0.9591321359495839  0.7924885997078183  0.3999844631494726
  0.9588398009260918  0.9173287226725073  0.3999591713861629
  0.4114111656292164  0.5830113410893756  0.4025089570237878
  0.5472189238786058  0.5819618586477424  0.4069486436078233
  0.3281548504713453  0.4168153806300109  0.4051391266903956
  0.4373736737806059  0.4956851240846241  0.4917396630466398
  0.4365965486584398  0.5008074786957966  0.6005126277247796
 
  0.00000000E+00  0.00000000E+00  0.00000000E+00
  0.00000000E+00  0.00000000E+00  0.00000000E+00
  0.00000000E+00  0.00000000E+00  0.00000000E+00
  0.00000000E+00  0.00000000E+00  0.00000000E+00
  0.00000000E+00  0.00000000E+00  0.00000000E+00
  0.00000000E+00  0.00000000E+00  0.00000000E+00
  0.00000000E+00  0.00000000E+00  0.00000000E+00
  0.00000000E+00  0.00000000E+00  0.00000000E+00
  0.00000000E+00  0.00000000E+00  0.00000000E+00
  0.00000000E+00  0.00000000E+00  0.00000000E+00
  0.00000000E+00  0.00000000E+00  0.00000000E+00
  0.00000000E+00  0.00000000E+00  0.00000000E+00
  0.00000000E+00  0.00000000E+00  0.00000000E+00
  0.00000000E+00  0.00000000E+00  0.00000000E+00
  0.00000000E+00  0.00000000E+00  0.00000000E+00
  0.00000000E+00  0.00000000E+00  0.00000000E+00
  0.00000000E+00  0.00000000E+00  0.00000000E+00
  0.00000000E+00  0.00000000E+00  0.00000000E+00
  0.00000000E+00  0.00000000E+00  0.00000000E+00
  0.00000000E+00  0.00000000E+00  0.00000000E+00
  0.00000000E+00  0.00000000E+00  0.00000000E+00
  0.00000000E+00  0.00000000E+00  0.00000000E+00
  0.00000000E+00  0.00000000E+00  0.00000000E+00
  0.00000000E+00  0.00000000E+00  0.00000000E+00
  0.00000000E+00  0.00000000E+00  0.00000000E+00
  0.00000000E+00  0.00000000E+00  0.00000000E+00
  0.00000000E+00  0.00000000E+00  0.00000000E+00
  0.00000000E+00  0.00000000E+00  0.00000000E+00
  0.00000000E+00  0.00000000E+00  0.00000000E+00
  0.00000000E+00  0.00000000E+00  0.00000000E+00
  0.00000000E+00  0.00000000E+00  0.00000000E+00
  0.00000000E+00  0.00000000E+00  0.00000000E+00
  0.00000000E+00  0.00000000E+00  0.00000000E+00
  0.00000000E+00  0.00000000E+00  0.00000000E+00
  0.00000000E+00  0.00000000E+00  0.00000000E+00
  0.00000000E+00  0.00000000E+00  0.00000000E+00
  0.00000000E+00  0.00000000E+00  0.00000000E+00
  0.00000000E+00  0.00000000E+00  0.00000000E+00
  0.00000000E+00  0.00000000E+00  0.00000000E+00
  0.00000000E+00  0.00000000E+00  0.00000000E+00
  0.00000000E+00  0.00000000E+00  0.00000000E+00
  0.00000000E+00  0.00000000E+00  0.00000000E+00
  0.00000000E+00  0.00000000E+00  0.00000000E+00
  0.00000000E+00  0.00000000E+00  0.00000000E+00
  0.00000000E+00  0.00000000E+00  0.00000000E+00
  0.00000000E+00  0.00000000E+00  0.00000000E+00
  0.00000000E+00  0.00000000E+00  0.00000000E+00
  0.00000000E+00  0.00000000E+00  0.00000000E+00
  0.00000000E+00  0.00000000E+00  0.00000000E+00
  0.00000000E+00  0.00000000E+00  0.00000000E+00
  0.00000000E+00  0.00000000E+00  0.00000000E+00
  0.00000000E+00  0.00000000E+00  0.00000000E+00
  0.00000000E+00  0.00000000E+00  0.00000000E+00
  0.00000000E+00  0.00000000E+00  0.00000000E+00
  0.00000000E+00  0.00000000E+00  0.00000000E+00
  0.00000000E+00  0.00000000E+00  0.00000000E+00
  0.00000000E+00  0.00000000E+00  0.00000000E+00
  0.00000000E+00  0.00000000E+00  0.00000000E+00
  0.00000000E+00  0.00000000E+00  0.00000000E+00
  0.00000000E+00  0.00000000E+00  0.00000000E+00
  0.00000000E+00  0.00000000E+00  0.00000000E+00
  0.00000000E+00  0.00000000E+00  0.00000000E+00
  0.00000000E+00  0.00000000E+00  0.00000000E+00
  0.00000000E+00  0.00000000E+00  0.00000000E+00
  0.00000000E+00  0.00000000E+00  0.00000000E+00
  0.00000000E+00  0.00000000E+00  0.00000000E+00
  0.00000000E+00  0.00000000E+00  0.00000000E+00
  0.00000000E+00  0.00000000E+00  0.00000000E+00
  0.00000000E+00  0.00000000E+00  0.00000000E+00
  0.00000000E+00  0.00000000E+00  0.00000000E+00
  0.00000000E+00  0.00000000E+00  0.00000000E+00
  0.00000000E+00  0.00000000E+00  0.00000000E+00
  0.00000000E+00  0.00000000E+00  0.00000000E+00
  0.00000000E+00  0.00000000E+00  0.00000000E+00
  0.00000000E+00  0.00000000E+00  0.00000000E+00
  0.00000000E+00  0.00000000E+00  0.00000000E+00
  0.00000000E+00  0.00000000E+00  0.00000000E+00
  0.00000000E+00  0.00000000E+00  0.00000000E+00
  0.00000000E+00  0.00000000E+00  0.00000000E+00
  0.00000000E+00  0.00000000E+00  0.00000000E+00
  0.00000000E+00  0.00000000E+00  0.00000000E+00
  0.00000000E+00  0.00000000E+00  0.00000000E+00
  0.00000000E+00  0.00000000E+00  0.00000000E+00
  0.00000000E+00  0.00000000E+00  0.00000000E+00
  0.00000000E+00  0.00000000E+00  0.00000000E+00
  0.00000000E+00  0.00000000E+00  0.00000000E+00
  0.00000000E+00  0.00000000E+00  0.00000000E+00
  0.00000000E+00  0.00000000E+00  0.00000000E+00
  0.00000000E+00  0.00000000E+00  0.00000000E+00
  0.00000000E+00  0.00000000E+00  0.00000000E+00
  0.00000000E+00  0.00000000E+00  0.00000000E+00
  0.00000000E+00  0.00000000E+00  0.00000000E+00
  0.00000000E+00  0.00000000E+00  0.00000000E+00
  0.00000000E+00  0.00000000E+00  0.00000000E+00
  0.00000000E+00  0.00000000E+00  0.00000000E+00
  0.00000000E+00  0.00000000E+00  0.00000000E+00
  0.00000000E+00  0.00000000E+00  0.00000000E+00
  0.00000000E+00  0.00000000E+00  0.00000000E+00
  0.00000000E+00  0.00000000E+00  0.00000000E+00
  0.00000000E+00  0.00000000E+00  0.00000000E+00
  0.00000000E+00  0.00000000E+00  0.00000000E+00
  0.00000000E+00  0.00000000E+00  0.00000000E+00
  0.00000000E+00  0.00000000E+00  0.00000000E+00
  0.00000000E+00  0.00000000E+00  0.00000000E+00
  0.00000000E+00  0.00000000E+00  0.00000000E+00
  0.00000000E+00  0.00000000E+00  0.00000000E+00
  0.00000000E+00  0.00000000E+00  0.00000000E+00
  0.00000000E+00  0.00000000E+00  0.00000000E+00
  0.00000000E+00  0.00000000E+00  0.00000000E+00
  0.00000000E+00  0.00000000E+00  0.00000000E+00
  0.00000000E+00  0.00000000E+00  0.00000000E+00
  0.00000000E+00  0.00000000E+00  0.00000000E+00
  0.00000000E+00  0.00000000E+00  0.00000000E+00
  0.00000000E+00  0.00000000E+00  0.00000000E+00
  0.00000000E+00  0.00000000E+00  0.00000000E+00
  0.00000000E+00  0.00000000E+00  0.00000000E+00
  0.00000000E+00  0.00000000E+00  0.00000000E+00
  0.00000000E+00  0.00000000E+00  0.00000000E+00
  0.00000000E+00  0.00000000E+00  0.00000000E+00
  0.00000000E+00  0.00000000E+00  0.00000000E+00
  0.00000000E+00  0.00000000E+00  0.00000000E+00
  0.00000000E+00  0.00000000E+00  0.00000000E+00
  0.00000000E+00  0.00000000E+00  0.00000000E+00
  0.00000000E+00  0.00000000E+00  0.00000000E+00
  0.00000000E+00  0.00000000E+00  0.00000000E+00
  0.00000000E+00  0.00000000E+00  0.00000000E+00
  0.00000000E+00  0.00000000E+00  0.00000000E+00
  0.00000000E+00  0.00000000E+00  0.00000000E+00
  0.00000000E+00  0.00000000E+00  0.00000000E+00
  0.00000000E+00  0.00000000E+00  0.00000000E+00
