H1 W1 C126 O1                           
   1.00000000000000     
    19.8148409626988453   -0.0002395094521384    0.0434972365178422
    -9.9090742729369143   17.0695134871309122   -0.2128144259319125
     0.0653636487956609   -0.3326659572859608   29.7543069285258355
   H    W    C    O 
     1     1   126     1
Direct
  0.4843613868290604  0.5253838253197801  0.5175258411032942
  0.4404939727783397  0.5024508757146418  0.4335814384338337
  0.0420270523634362  0.0840575227107060  0.3991737665795144
  0.0411737967072711  0.2082728336493539  0.3994900738908135
  0.0406909358566949  0.3330371085766975  0.3998353962074327
  0.0407512035515163  0.4585098506010724  0.3995893743342455
  0.0414105010458185  0.5838326504337790  0.3992199497915674
  0.0420180414882221  0.7090819517680076  0.3990149776235318
  0.0423042089292545  0.8343661205438502  0.3990729456598427
  0.0423443553254871  0.9593811815786615  0.3991358180463810
  0.1675690673146334  0.0850299149011944  0.3997516141610302
  0.1672487788574515  0.2097994509486583  0.4000923310106886
  0.1654713070187093  0.3334721447507049  0.4010801676433803
  0.1643131831385224  0.4585264557546598  0.4010546503997706
  0.1653942682223751  0.5837850939628734  0.3999307744431266
  0.1665251482579663  0.7091219035806623  0.3992390248655109
  0.1670136963473330  0.8343499212387037  0.3991119002049509
  0.1673328124110915  0.9596848750854330  0.3993889733890818
  0.2924417902228465  0.0849792498493458  0.3996270844183357
  0.2931670165599556  0.2113646378114858  0.4009311633149287
  0.2928118962649022  0.3369398672133155  0.4034507922854269
  0.2871803131327678  0.4580639177604715  0.4046569759169852
  0.2889607013023625  0.5842452448904969  0.4017744407257094
  0.2910286696043329  0.7090720833641964  0.3996059578785132
  0.2916453102208853  0.8339898516491592  0.3989259143793400
  0.2919883275443433  0.9593272603678774  0.3991261033580485
  0.4169922309933244  0.0838905389277703  0.3990879393230976
  0.4175075267953582  0.2095418583893242  0.3997954964656122
  0.4189468614789178  0.3363573683615930  0.4025145480068009
  0.4113748635168994  0.5812894389679995  0.4062819111199349
  0.4155927115452370  0.7072676538421795  0.4003118403527015
  0.4163910018320796  0.8330609490284411  0.3988363213607917
  0.4166472663976012  0.9584348337616551  0.3987313804068118
  0.5416512456973913  0.0829535151090745  0.3988182588371730
  0.5420672246595493  0.2081360330946222  0.3992691395878077
  0.5429477464277608  0.3333069346875325  0.4007604484164939
  0.5455971757080841  0.4577674413061367  0.4036311778158410
  0.5447478229995233  0.5815415470321513  0.4045419554184692
  0.5403864328232181  0.7060041198716464  0.4015828278906825
  0.5409235891021211  0.8319902908739266  0.3992655998356484
  0.5414378793317013  0.9576378297104691  0.3986093904884584
  0.6664002761131570  0.0826493195763707  0.3987655956170155
  0.6667057598994246  0.2078450090178076  0.3990251163554931
  0.6673320310548799  0.3329438265057856  0.3997489450364203
  0.6692093764262281  0.4584620723022590  0.4012853332521470
  0.6701964437955500  0.5841973094450557  0.4018840514154964
  0.6666615266574830  0.7073996972692667  0.3999521916089263
  0.6660089048607303  0.8319895948316804  0.3990937200890665
  0.6661939570386356  0.9574000249399314  0.3987443971680472
  0.7912644884744386  0.0826863286490819  0.3987810494313068
  0.7914143032395318  0.2077769538672346  0.3989878000851546
  0.7918447952261440  0.3330602271190517  0.3991676269683979
  0.7927766423665855  0.4585085958175725  0.3994503755849832
  0.7933938126152070  0.5838168087873636  0.3999490644798216
  0.7929945789969440  0.7091071843433480  0.3995683486266294
  0.7916983752925731  0.8331480963736330  0.3987745957479636
  0.7912003519643505  0.9576941914005045  0.3986377348473086
  0.9163491796627753  0.0830449195022183  0.3988971670309433
  0.9161881680195059  0.2079088170738201  0.3991937178161458
  0.9162653169294362  0.3330845988915195  0.3993090357009625
  0.9166671016284833  0.4583307196996926  0.3991287538639872
  0.9174030398546846  0.5838573272162487  0.3990345566353305
  0.9175621954741383  0.7091674593403852  0.3990817860009499
  0.9173555323896158  0.8340832547850979  0.3988814447746198
  0.9168348566569707  0.9585711007395300  0.3987660592648928
  0.0841031985076107  0.0428663369368769  0.3993349061933230
  0.0836366410130538  0.1674717825895563  0.3994632455268569
  0.0822537615763079  0.2914966059059634  0.4000613634549973
  0.0818918346322507  0.4167744422801216  0.4000657360138976
  0.0824711785335982  0.5420008057085112  0.3995435165591534
  0.0833534566687636  0.6673748102555864  0.3991664851765958
  0.0838254324673995  0.7926936096742887  0.3990753939895012
  0.0839853269813624  0.9178272889674669  0.3992203539815919
  0.2090695246594937  0.0431423895201036  0.3996591445169747
  0.2092751225699642  0.1686456766488559  0.4003093984854336
  0.2087729115746119  0.2934900161721343  0.4011137641028696
  0.2050946606806903  0.4165284071044840  0.4020989051127305
  0.2061183020033883  0.5421272040269207  0.4009786290983877
  0.2079036034710574  0.6675100266679462  0.3995790706010485
  0.2084301693801457  0.7925382539930367  0.3991093914939098
  0.2088152245168616  0.9178161222378287  0.3992296985490507
  0.3337211736025517  0.0427896207264046  0.3992706289955014
  0.3343308234445068  0.1685688049080756  0.4000759081262578
  0.3348824618322366  0.2948001444815410  0.4025947927776157
  0.3307397263939020  0.4200437194730332  0.4071057769834248
  0.3296244906890436  0.5429678592993497  0.4043430754663260
  0.3323139834645251  0.6672080208309362  0.4005090002056942
  0.3331252129337799  0.7922346299022223  0.3990298412712993
  0.3334727016374380  0.9173732035446115  0.3988692657736960
  0.4584654062473922  0.0418366084637908  0.3988552114748038
  0.4588068875707967  0.1672750065920870  0.3992728133079168
  0.4596449440556951  0.2931014691306624  0.4005694745347681
  0.4637959976459775  0.4192978562157779  0.4053162513741678
  0.4562531753797900  0.6640373886456207  0.4025140920047089
  0.4577288118704441  0.7908417488878751  0.3992440998198483
  0.4581591407678379  0.9164288001875950  0.3986428452582647
  0.5832011231790051  0.0411070758149232  0.3987081379130415
  0.5834807037681523  0.1663358314077888  0.3989952451243095
  0.5842032317943499  0.2913745937800089  0.3998627961975942
  0.5864082311005447  0.4163866201811087  0.4019900425349907
  0.5880381623108988  0.5428027029725192  0.4034330451633417
  0.5827491999860707  0.6643599224629803  0.4016861226934235
  0.5821129910353964  0.7893287538926584  0.3998622315575464
  0.5827905448165460  0.9155582171591254  0.3987876390755354
  0.7079186918515856  0.0408261479986894  0.3987320646912493
  0.7081913450163095  0.1661123969527022  0.3989049814849160
  0.7086516294499100  0.2912731770508737  0.3992490870925082
  0.7098824793701222  0.4167039599635607  0.4001029802423166
  0.7109962150063489  0.5421193303415939  0.4012253521123842
  0.7097924490239058  0.6672071750493450  0.4004273132490204
  0.7081257812697731  0.7909393194251375  0.3990507781103200
  0.7077222955517291  0.9155581395918445  0.3987290351370988
  0.8329161670037429  0.0411509634214466  0.3987363725193257
  0.8329409497454532  0.1661326855253255  0.3989542093365879
  0.8332171619174206  0.2913914665418656  0.3991194784826271
  0.8337704306211348  0.4165969831410007  0.3991827677160393
  0.8345026435109422  0.5420064692559361  0.3993726576830378
  0.8345608470512338  0.6675333789284595  0.3995344647247097
  0.8341094653682929  0.7923179573455366  0.3989866635380156
  0.8333013627700568  0.9165196809601138  0.3986419694591447
  0.9584812751444384  0.0419997381251282  0.3989097583701967
  0.9579241651679032  0.1664270984196686  0.3991471536933074
  0.9576891825589245  0.2913396889549811  0.3993978479858778
  0.9578378229993333  0.4165992847040481  0.3993352278714554
  0.9584994076542833  0.5420531888729304  0.3990638057883749
  0.9589804956244153  0.6673897781626812  0.3990234558020039
  0.9590832647670733  0.7925964809384124  0.3989986090225690
  0.9589091720491357  0.9174703543899229  0.3988744419557191
  0.4400134895012783  0.5080691938035677  0.4972780306471578
 
  0.00000000E+00  0.00000000E+00  0.00000000E+00
  0.00000000E+00  0.00000000E+00  0.00000000E+00
  0.00000000E+00  0.00000000E+00  0.00000000E+00
  0.00000000E+00  0.00000000E+00  0.00000000E+00
  0.00000000E+00  0.00000000E+00  0.00000000E+00
  0.00000000E+00  0.00000000E+00  0.00000000E+00
  0.00000000E+00  0.00000000E+00  0.00000000E+00
  0.00000000E+00  0.00000000E+00  0.00000000E+00
  0.00000000E+00  0.00000000E+00  0.00000000E+00
  0.00000000E+00  0.00000000E+00  0.00000000E+00
  0.00000000E+00  0.00000000E+00  0.00000000E+00
  0.00000000E+00  0.00000000E+00  0.00000000E+00
  0.00000000E+00  0.00000000E+00  0.00000000E+00
  0.00000000E+00  0.00000000E+00  0.00000000E+00
  0.00000000E+00  0.00000000E+00  0.00000000E+00
  0.00000000E+00  0.00000000E+00  0.00000000E+00
  0.00000000E+00  0.00000000E+00  0.00000000E+00
  0.00000000E+00  0.00000000E+00  0.00000000E+00
  0.00000000E+00  0.00000000E+00  0.00000000E+00
  0.00000000E+00  0.00000000E+00  0.00000000E+00
  0.00000000E+00  0.00000000E+00  0.00000000E+00
  0.00000000E+00  0.00000000E+00  0.00000000E+00
  0.00000000E+00  0.00000000E+00  0.00000000E+00
  0.00000000E+00  0.00000000E+00  0.00000000E+00
  0.00000000E+00  0.00000000E+00  0.00000000E+00
  0.00000000E+00  0.00000000E+00  0.00000000E+00
  0.00000000E+00  0.00000000E+00  0.00000000E+00
  0.00000000E+00  0.00000000E+00  0.00000000E+00
  0.00000000E+00  0.00000000E+00  0.00000000E+00
  0.00000000E+00  0.00000000E+00  0.00000000E+00
  0.00000000E+00  0.00000000E+00  0.00000000E+00
  0.00000000E+00  0.00000000E+00  0.00000000E+00
  0.00000000E+00  0.00000000E+00  0.00000000E+00
  0.00000000E+00  0.00000000E+00  0.00000000E+00
  0.00000000E+00  0.00000000E+00  0.00000000E+00
  0.00000000E+00  0.00000000E+00  0.00000000E+00
  0.00000000E+00  0.00000000E+00  0.00000000E+00
  0.00000000E+00  0.00000000E+00  0.00000000E+00
  0.00000000E+00  0.00000000E+00  0.00000000E+00
  0.00000000E+00  0.00000000E+00  0.00000000E+00
  0.00000000E+00  0.00000000E+00  0.00000000E+00
  0.00000000E+00  0.00000000E+00  0.00000000E+00
  0.00000000E+00  0.00000000E+00  0.00000000E+00
  0.00000000E+00  0.00000000E+00  0.00000000E+00
  0.00000000E+00  0.00000000E+00  0.00000000E+00
  0.00000000E+00  0.00000000E+00  0.00000000E+00
  0.00000000E+00  0.00000000E+00  0.00000000E+00
  0.00000000E+00  0.00000000E+00  0.00000000E+00
  0.00000000E+00  0.00000000E+00  0.00000000E+00
  0.00000000E+00  0.00000000E+00  0.00000000E+00
  0.00000000E+00  0.00000000E+00  0.00000000E+00
  0.00000000E+00  0.00000000E+00  0.00000000E+00
  0.00000000E+00  0.00000000E+00  0.00000000E+00
  0.00000000E+00  0.00000000E+00  0.00000000E+00
  0.00000000E+00  0.00000000E+00  0.00000000E+00
  0.00000000E+00  0.00000000E+00  0.00000000E+00
  0.00000000E+00  0.00000000E+00  0.00000000E+00
  0.00000000E+00  0.00000000E+00  0.00000000E+00
  0.00000000E+00  0.00000000E+00  0.00000000E+00
  0.00000000E+00  0.00000000E+00  0.00000000E+00
  0.00000000E+00  0.00000000E+00  0.00000000E+00
  0.00000000E+00  0.00000000E+00  0.00000000E+00
  0.00000000E+00  0.00000000E+00  0.00000000E+00
  0.00000000E+00  0.00000000E+00  0.00000000E+00
  0.00000000E+00  0.00000000E+00  0.00000000E+00
  0.00000000E+00  0.00000000E+00  0.00000000E+00
  0.00000000E+00  0.00000000E+00  0.00000000E+00
  0.00000000E+00  0.00000000E+00  0.00000000E+00
  0.00000000E+00  0.00000000E+00  0.00000000E+00
  0.00000000E+00  0.00000000E+00  0.00000000E+00
  0.00000000E+00  0.00000000E+00  0.00000000E+00
  0.00000000E+00  0.00000000E+00  0.00000000E+00
  0.00000000E+00  0.00000000E+00  0.00000000E+00
  0.00000000E+00  0.00000000E+00  0.00000000E+00
  0.00000000E+00  0.00000000E+00  0.00000000E+00
  0.00000000E+00  0.00000000E+00  0.00000000E+00
  0.00000000E+00  0.00000000E+00  0.00000000E+00
  0.00000000E+00  0.00000000E+00  0.00000000E+00
  0.00000000E+00  0.00000000E+00  0.00000000E+00
  0.00000000E+00  0.00000000E+00  0.00000000E+00
  0.00000000E+00  0.00000000E+00  0.00000000E+00
  0.00000000E+00  0.00000000E+00  0.00000000E+00
  0.00000000E+00  0.00000000E+00  0.00000000E+00
  0.00000000E+00  0.00000000E+00  0.00000000E+00
  0.00000000E+00  0.00000000E+00  0.00000000E+00
  0.00000000E+00  0.00000000E+00  0.00000000E+00
  0.00000000E+00  0.00000000E+00  0.00000000E+00
  0.00000000E+00  0.00000000E+00  0.00000000E+00
  0.00000000E+00  0.00000000E+00  0.00000000E+00
  0.00000000E+00  0.00000000E+00  0.00000000E+00
  0.00000000E+00  0.00000000E+00  0.00000000E+00
  0.00000000E+00  0.00000000E+00  0.00000000E+00
  0.00000000E+00  0.00000000E+00  0.00000000E+00
  0.00000000E+00  0.00000000E+00  0.00000000E+00
  0.00000000E+00  0.00000000E+00  0.00000000E+00
  0.00000000E+00  0.00000000E+00  0.00000000E+00
  0.00000000E+00  0.00000000E+00  0.00000000E+00
  0.00000000E+00  0.00000000E+00  0.00000000E+00
  0.00000000E+00  0.00000000E+00  0.00000000E+00
  0.00000000E+00  0.00000000E+00  0.00000000E+00
  0.00000000E+00  0.00000000E+00  0.00000000E+00
  0.00000000E+00  0.00000000E+00  0.00000000E+00
  0.00000000E+00  0.00000000E+00  0.00000000E+00
  0.00000000E+00  0.00000000E+00  0.00000000E+00
  0.00000000E+00  0.00000000E+00  0.00000000E+00
  0.00000000E+00  0.00000000E+00  0.00000000E+00
  0.00000000E+00  0.00000000E+00  0.00000000E+00
  0.00000000E+00  0.00000000E+00  0.00000000E+00
  0.00000000E+00  0.00000000E+00  0.00000000E+00
  0.00000000E+00  0.00000000E+00  0.00000000E+00
  0.00000000E+00  0.00000000E+00  0.00000000E+00
  0.00000000E+00  0.00000000E+00  0.00000000E+00
  0.00000000E+00  0.00000000E+00  0.00000000E+00
  0.00000000E+00  0.00000000E+00  0.00000000E+00
  0.00000000E+00  0.00000000E+00  0.00000000E+00
  0.00000000E+00  0.00000000E+00  0.00000000E+00
  0.00000000E+00  0.00000000E+00  0.00000000E+00
  0.00000000E+00  0.00000000E+00  0.00000000E+00
  0.00000000E+00  0.00000000E+00  0.00000000E+00
  0.00000000E+00  0.00000000E+00  0.00000000E+00
  0.00000000E+00  0.00000000E+00  0.00000000E+00
  0.00000000E+00  0.00000000E+00  0.00000000E+00
  0.00000000E+00  0.00000000E+00  0.00000000E+00
  0.00000000E+00  0.00000000E+00  0.00000000E+00
  0.00000000E+00  0.00000000E+00  0.00000000E+00
  0.00000000E+00  0.00000000E+00  0.00000000E+00
  0.00000000E+00  0.00000000E+00  0.00000000E+00
  0.00000000E+00  0.00000000E+00  0.00000000E+00
  0.00000000E+00  0.00000000E+00  0.00000000E+00
