Hf1 H1 C126 O2                          
   1.00000000000000     
    19.8132345783564183   -0.0006837686603283   -0.1562964820493789
    -9.9077001962561830   17.0784623828117645   -0.1124334941834834
    -0.2339778666076629   -0.3310094969517024   29.7431894651285056
   Hf   H    C    O 
     1     1   126     2
Direct
  0.4351598779899381  0.5026157990026433  0.4441448758578784
  0.5454135150813230  0.5639395292571491  0.5177341838478049
  0.0417924392143743  0.0837485012954073  0.3995374413331779
  0.0409406029627395  0.2080139097026975  0.3991939140450134
  0.0405707871942814  0.3329059031586229  0.3988638191095734
  0.0406660475844640  0.4584111617869074  0.3989938575934345
  0.0414446147194914  0.5838028991498840  0.3995776337729725
  0.0421503028878143  0.7091040195535216  0.3999872757604953
  0.0424340693604413  0.8343315840917842  0.3999393979412981
  0.0424349297683519  0.9593035465624006  0.3997049608388470
  0.1675079575391244  0.0847912164040320  0.3999318664669977
  0.1666379648658606  0.2089521424432564  0.4001188501778181
  0.1651898926815180  0.3330883263630506  0.3995841209993278
  0.1643219060425808  0.4582658579417444  0.3986387340428676
  0.1653103079509728  0.5836748201027896  0.3985164467535628
  0.1665524658316691  0.7091098089254482  0.3993535218200975
  0.1670959061405264  0.8343181858133802  0.3998728617783390
  0.1674683763846732  0.9596679608106343  0.3998847095229003
  0.2925494141649226  0.0847711343683145  0.3999611276876728
  0.2932826603405392  0.2110369968190554  0.4019057719036641
  0.2916788376621400  0.3356510837307458  0.4035162771490771
  0.2876908623664433  0.4576159490519633  0.4016383647324996
  0.2890249547622712  0.5840713222133064  0.3992682349889621
  0.2909696869866238  0.7089984505633703  0.3986232908428279
  0.2917052058538314  0.8340326245294895  0.3992138779710559
  0.2921239391500724  0.9592892131564545  0.3995713922621978
  0.4172088484185943  0.0838246197455256  0.3993428193214346
  0.4176629001258512  0.2091749310424150  0.4001589361147870
  0.4198818713712576  0.3359991649841099  0.4062469607244811
  0.4120428286378990  0.5826868766438075  0.4053448345786800
  0.4157805908573514  0.7079413792670640  0.3997413557143039
  0.4164240141717055  0.8333249371070706  0.3990953889867125
  0.4167796932783329  0.9585193066882637  0.3993300722995785
  0.5418415385415448  0.0829485520059241  0.3995161253308686
  0.5422919823056361  0.2080763740448050  0.3989359157192169
  0.5432069425295249  0.3332076340227840  0.3995614998763232
  0.5457984635426993  0.4579206588485447  0.4049814691187614
  0.5475105097347192  0.5831012681398068  0.4122893686755068
  0.5410347681340082  0.7063241932611086  0.4040974724098668
  0.5410296123111186  0.8320323457212545  0.3999222077174916
  0.5415273579608224  0.9576055238817458  0.3995384713905341
  0.6664752357269113  0.0825194919880285  0.3999476431015407
  0.6669305821838252  0.2078298712396128  0.3994986302410261
  0.6675042444792066  0.3329441026005303  0.3982516707073313
  0.6689530695042863  0.4582479562986628  0.3972405155981069
  0.6699910822498661  0.5839172259724604  0.3988225451284493
  0.6673585381598784  0.7077406281176019  0.4005134828008708
  0.6663756814034544  0.8320778773972022  0.4001409284757650
  0.6663167495095107  0.9573298461038185  0.3998129012352787
  0.7913052315049087  0.0825266619041426  0.3998548269641769
  0.7914634950395709  0.2076765338724795  0.4000055720239137
  0.7919301438893646  0.3329875012530926  0.3995149097267758
  0.7928169773213625  0.4584046377592205  0.3983458213006705
  0.7933853985559420  0.5836194366107209  0.3973233113166525
  0.7930813355070987  0.7088726370138400  0.3979993437574725
  0.7920445532579887  0.8332047663680563  0.3988154949241229
  0.7913275283087401  0.9575966663710115  0.3994566154465319
  0.9163417219251194  0.0829288296195540  0.3995091116072527
  0.9161105804845083  0.2078226160734137  0.3995262125881553
  0.9162367620286263  0.3329954268702335  0.3996086013960101
  0.9167473582509401  0.4583390733591935  0.3996322296358262
  0.9174703153083109  0.5837780832972385  0.3993332029660212
  0.9177185402784959  0.7090993136749447  0.3990181516547226
  0.9175086046376622  0.8340153114223887  0.3991054893311872
  0.9169175945023867  0.9584476243846682  0.3993320283514545
  0.0840861929408570  0.0427247638059948  0.3996678532970919
  0.0832396988665872  0.1669545028805956  0.3995253301767742
  0.0821284418983902  0.2912958754825433  0.3989849318494787
  0.0817868577132206  0.4165771359383033  0.3986145576490920
  0.0824155502386723  0.5418863612187103  0.3989971413365672
  0.0834130756750583  0.6673317392973581  0.3997331615291214
  0.0839664903070054  0.7926879732357265  0.4000836401353750
  0.0841390010869553  0.9178472323559641  0.3998906726779595
  0.2091755606004206  0.0430294277426727  0.3999416202507153
  0.2091867796590890  0.1683148795459089  0.4005363939663619
  0.2080186278961126  0.2923832477035476  0.4005025097946872
  0.2051101147528792  0.4161987250648390  0.3996426145956036
  0.2061679483617584  0.5419841092446823  0.3985093102126479
  0.2077964231446451  0.6673678000700495  0.3987402177295951
  0.2084619925285201  0.7925265889568066  0.3995051857396901
  0.2089499108611130  0.9178212644674832  0.3997933076583761
  0.3338956769794343  0.0427295666220798  0.3995699840335241
  0.3345045727785720  0.1683077434219711  0.4007508376468548
  0.3350642893503366  0.2943046051407405  0.4048295827888868
  0.3296851852737742  0.4179725580174032  0.4057077876917875
  0.3302606391612976  0.5428514849582656  0.4014499229304451
  0.3322084085281317  0.6671813904215517  0.3990119883553215
  0.3330549296253378  0.7922555853778899  0.3988784430016685
  0.3335745444925077  0.9173873554180306  0.3993801066573985
  0.4586280214922250  0.0418935520956543  0.3993623042918041
  0.4590076754553790  0.1670870469702865  0.3992480806535639
  0.4598347193767137  0.2926870941297806  0.4013658578685812
  0.4650314511487299  0.4182189630805272  0.4126222556095155
  0.4562830057046744  0.6648820933338490  0.4028587731516898
  0.4578297496599718  0.7913537361810007  0.3994295294060893
  0.4582169770318485  0.9165610048624273  0.3993010966437316
  0.5833049877021417  0.0410481957760563  0.3997347191879327
  0.5836398604409513  0.1663002846122791  0.3992823454032158
  0.5843131823775616  0.2913578442980480  0.3985323533025417
  0.5862036680023079  0.4163416459177206  0.3993241884990109
  0.5883463680723089  0.5428733757239355  0.4047791356788052
  0.5843259410842570  0.6648294410252333  0.4055708939095606
  0.5824222346859492  0.7893855445147803  0.4011540426103852
  0.5828970374165389  0.9155560613126933  0.3996674003421247
  0.7079905920645564  0.0407066735071152  0.3999135056568164
  0.7082917455855617  0.1660424331143217  0.3999370974794723
  0.7088050089364365  0.2912437242280111  0.3990999000987224
  0.7098584392268416  0.4165434375741717  0.3975799500744491
  0.7107976611496665  0.5418853532451615  0.3970111440833277
  0.7101662694652990  0.6671043450559108  0.3988062497634372
  0.7086824786708684  0.7912023626759296  0.3994615287638947
  0.7079655065339391  0.9155671893671222  0.3997050208029913
  0.8330163391062338  0.0410374714997186  0.3996262330665212
  0.8329886368216733  0.1660465069773740  0.3998898828699552
  0.8332384084617842  0.2912601294294965  0.3998657414531750
  0.8338576352005016  0.4165421262086949  0.3993072980863211
  0.8345672442723939  0.5418593060809511  0.3982981547671355
  0.8346902375867629  0.6673100991697776  0.3979374140954934
  0.8343684710423851  0.7922102873107693  0.3985428639144940
  0.8335461662363707  0.9164867196555769  0.3991788191997878
  0.9584288957619761  0.0418094749098932  0.3994452967062346
  0.9578330852143916  0.1662678437001245  0.3993536102812319
  0.9576413828699915  0.2912374783457032  0.3993102081176005
  0.9578367023541291  0.4165382460700332  0.3994895149525408
  0.9586143507321917  0.5420375866394063  0.3997028620353721
  0.9591346429739905  0.6673478096029996  0.3995525011679579
  0.9592783838519260  0.7925374492816636  0.3994357298682472
  0.9590749522975659  0.9173923188673316  0.3994340644470381
  0.5068609362175831  0.5100551036920284  0.5086258076478020
  0.4316892635667456  0.5101868917929411  0.5126665748781795
 
  0.00000000E+00  0.00000000E+00  0.00000000E+00
  0.00000000E+00  0.00000000E+00  0.00000000E+00
  0.00000000E+00  0.00000000E+00  0.00000000E+00
  0.00000000E+00  0.00000000E+00  0.00000000E+00
  0.00000000E+00  0.00000000E+00  0.00000000E+00
  0.00000000E+00  0.00000000E+00  0.00000000E+00
  0.00000000E+00  0.00000000E+00  0.00000000E+00
  0.00000000E+00  0.00000000E+00  0.00000000E+00
  0.00000000E+00  0.00000000E+00  0.00000000E+00
  0.00000000E+00  0.00000000E+00  0.00000000E+00
  0.00000000E+00  0.00000000E+00  0.00000000E+00
  0.00000000E+00  0.00000000E+00  0.00000000E+00
  0.00000000E+00  0.00000000E+00  0.00000000E+00
  0.00000000E+00  0.00000000E+00  0.00000000E+00
  0.00000000E+00  0.00000000E+00  0.00000000E+00
  0.00000000E+00  0.00000000E+00  0.00000000E+00
  0.00000000E+00  0.00000000E+00  0.00000000E+00
  0.00000000E+00  0.00000000E+00  0.00000000E+00
  0.00000000E+00  0.00000000E+00  0.00000000E+00
  0.00000000E+00  0.00000000E+00  0.00000000E+00
  0.00000000E+00  0.00000000E+00  0.00000000E+00
  0.00000000E+00  0.00000000E+00  0.00000000E+00
  0.00000000E+00  0.00000000E+00  0.00000000E+00
  0.00000000E+00  0.00000000E+00  0.00000000E+00
  0.00000000E+00  0.00000000E+00  0.00000000E+00
  0.00000000E+00  0.00000000E+00  0.00000000E+00
  0.00000000E+00  0.00000000E+00  0.00000000E+00
  0.00000000E+00  0.00000000E+00  0.00000000E+00
  0.00000000E+00  0.00000000E+00  0.00000000E+00
  0.00000000E+00  0.00000000E+00  0.00000000E+00
  0.00000000E+00  0.00000000E+00  0.00000000E+00
  0.00000000E+00  0.00000000E+00  0.00000000E+00
  0.00000000E+00  0.00000000E+00  0.00000000E+00
  0.00000000E+00  0.00000000E+00  0.00000000E+00
  0.00000000E+00  0.00000000E+00  0.00000000E+00
  0.00000000E+00  0.00000000E+00  0.00000000E+00
  0.00000000E+00  0.00000000E+00  0.00000000E+00
  0.00000000E+00  0.00000000E+00  0.00000000E+00
  0.00000000E+00  0.00000000E+00  0.00000000E+00
  0.00000000E+00  0.00000000E+00  0.00000000E+00
  0.00000000E+00  0.00000000E+00  0.00000000E+00
  0.00000000E+00  0.00000000E+00  0.00000000E+00
  0.00000000E+00  0.00000000E+00  0.00000000E+00
  0.00000000E+00  0.00000000E+00  0.00000000E+00
  0.00000000E+00  0.00000000E+00  0.00000000E+00
  0.00000000E+00  0.00000000E+00  0.00000000E+00
  0.00000000E+00  0.00000000E+00  0.00000000E+00
  0.00000000E+00  0.00000000E+00  0.00000000E+00
  0.00000000E+00  0.00000000E+00  0.00000000E+00
  0.00000000E+00  0.00000000E+00  0.00000000E+00
  0.00000000E+00  0.00000000E+00  0.00000000E+00
  0.00000000E+00  0.00000000E+00  0.00000000E+00
  0.00000000E+00  0.00000000E+00  0.00000000E+00
  0.00000000E+00  0.00000000E+00  0.00000000E+00
  0.00000000E+00  0.00000000E+00  0.00000000E+00
  0.00000000E+00  0.00000000E+00  0.00000000E+00
  0.00000000E+00  0.00000000E+00  0.00000000E+00
  0.00000000E+00  0.00000000E+00  0.00000000E+00
  0.00000000E+00  0.00000000E+00  0.00000000E+00
  0.00000000E+00  0.00000000E+00  0.00000000E+00
  0.00000000E+00  0.00000000E+00  0.00000000E+00
  0.00000000E+00  0.00000000E+00  0.00000000E+00
  0.00000000E+00  0.00000000E+00  0.00000000E+00
  0.00000000E+00  0.00000000E+00  0.00000000E+00
  0.00000000E+00  0.00000000E+00  0.00000000E+00
  0.00000000E+00  0.00000000E+00  0.00000000E+00
  0.00000000E+00  0.00000000E+00  0.00000000E+00
  0.00000000E+00  0.00000000E+00  0.00000000E+00
  0.00000000E+00  0.00000000E+00  0.00000000E+00
  0.00000000E+00  0.00000000E+00  0.00000000E+00
  0.00000000E+00  0.00000000E+00  0.00000000E+00
  0.00000000E+00  0.00000000E+00  0.00000000E+00
  0.00000000E+00  0.00000000E+00  0.00000000E+00
  0.00000000E+00  0.00000000E+00  0.00000000E+00
  0.00000000E+00  0.00000000E+00  0.00000000E+00
  0.00000000E+00  0.00000000E+00  0.00000000E+00
  0.00000000E+00  0.00000000E+00  0.00000000E+00
  0.00000000E+00  0.00000000E+00  0.00000000E+00
  0.00000000E+00  0.00000000E+00  0.00000000E+00
  0.00000000E+00  0.00000000E+00  0.00000000E+00
  0.00000000E+00  0.00000000E+00  0.00000000E+00
  0.00000000E+00  0.00000000E+00  0.00000000E+00
  0.00000000E+00  0.00000000E+00  0.00000000E+00
  0.00000000E+00  0.00000000E+00  0.00000000E+00
  0.00000000E+00  0.00000000E+00  0.00000000E+00
  0.00000000E+00  0.00000000E+00  0.00000000E+00
  0.00000000E+00  0.00000000E+00  0.00000000E+00
  0.00000000E+00  0.00000000E+00  0.00000000E+00
  0.00000000E+00  0.00000000E+00  0.00000000E+00
  0.00000000E+00  0.00000000E+00  0.00000000E+00
  0.00000000E+00  0.00000000E+00  0.00000000E+00
  0.00000000E+00  0.00000000E+00  0.00000000E+00
  0.00000000E+00  0.00000000E+00  0.00000000E+00
  0.00000000E+00  0.00000000E+00  0.00000000E+00
  0.00000000E+00  0.00000000E+00  0.00000000E+00
  0.00000000E+00  0.00000000E+00  0.00000000E+00
  0.00000000E+00  0.00000000E+00  0.00000000E+00
  0.00000000E+00  0.00000000E+00  0.00000000E+00
  0.00000000E+00  0.00000000E+00  0.00000000E+00
  0.00000000E+00  0.00000000E+00  0.00000000E+00
  0.00000000E+00  0.00000000E+00  0.00000000E+00
  0.00000000E+00  0.00000000E+00  0.00000000E+00
  0.00000000E+00  0.00000000E+00  0.00000000E+00
  0.00000000E+00  0.00000000E+00  0.00000000E+00
  0.00000000E+00  0.00000000E+00  0.00000000E+00
  0.00000000E+00  0.00000000E+00  0.00000000E+00
  0.00000000E+00  0.00000000E+00  0.00000000E+00
  0.00000000E+00  0.00000000E+00  0.00000000E+00
  0.00000000E+00  0.00000000E+00  0.00000000E+00
  0.00000000E+00  0.00000000E+00  0.00000000E+00
  0.00000000E+00  0.00000000E+00  0.00000000E+00
  0.00000000E+00  0.00000000E+00  0.00000000E+00
  0.00000000E+00  0.00000000E+00  0.00000000E+00
  0.00000000E+00  0.00000000E+00  0.00000000E+00
  0.00000000E+00  0.00000000E+00  0.00000000E+00
  0.00000000E+00  0.00000000E+00  0.00000000E+00
  0.00000000E+00  0.00000000E+00  0.00000000E+00
  0.00000000E+00  0.00000000E+00  0.00000000E+00
  0.00000000E+00  0.00000000E+00  0.00000000E+00
  0.00000000E+00  0.00000000E+00  0.00000000E+00
  0.00000000E+00  0.00000000E+00  0.00000000E+00
  0.00000000E+00  0.00000000E+00  0.00000000E+00
  0.00000000E+00  0.00000000E+00  0.00000000E+00
  0.00000000E+00  0.00000000E+00  0.00000000E+00
  0.00000000E+00  0.00000000E+00  0.00000000E+00
  0.00000000E+00  0.00000000E+00  0.00000000E+00
  0.00000000E+00  0.00000000E+00  0.00000000E+00
  0.00000000E+00  0.00000000E+00  0.00000000E+00
  0.00000000E+00  0.00000000E+00  0.00000000E+00
  0.00000000E+00  0.00000000E+00  0.00000000E+00
