Zr1 H1 C122 N4                          
   1.00000000000000     
    19.7913813073902283    0.0007682737350973    0.0298117466461699
    -9.8953333015596368   17.0432000108318178   -0.1509463404158442
     0.0448640786473737   -0.2376243200432722   29.8327747510066352
   Zr   H    C    N 
     1     1   122     4
Direct
  0.4442268884624088  0.5010997575425378  0.4351810618864967
  0.4493428387446822  0.5019320601636195  0.4987726165987884
  0.0420984262147787  0.0842440527879348  0.3996786079029922
  0.0413748501078657  0.2085074059099452  0.3997095019143265
  0.0406556375103672  0.3333227218665664  0.3992908181310757
  0.0406874953823744  0.4584084554456119  0.3987946044632705
  0.0413594480781670  0.5837499770518769  0.3992572671329642
  0.0420059414385764  0.7090848115263415  0.3998632600065218
  0.0421780319116541  0.8342085712037670  0.3998832227342571
  0.0423317335230574  0.9594437232882174  0.3996748871677054
  0.1677814199977920  0.0852563169921407  0.3999061456757624
  0.1677141452055858  0.2103101922281666  0.4002006214147385
  0.1655029923128666  0.3340138545118795  0.4008694803850403
  0.1646977577667677  0.4586249668897587  0.3994173163651584
  0.1654185499225866  0.5837437137787738  0.3987650637973844
  0.1663962985928833  0.7088547123668607  0.3993261734471322
  0.1669561423823020  0.8341589155884500  0.3998101468011073
  0.1672736658396511  0.9596236692650939  0.3997907015289083
  0.2923642088995047  0.0851607681559928  0.3997424339182582
  0.2934648476526853  0.2122248090618991  0.4006574123928118
  0.2925287636896283  0.3381741132530321  0.4038277187729805
  0.2883613552754051  0.4586064841723235  0.4039399984030071
  0.2890684698345193  0.5830861794171414  0.4007812473821593
  0.2908612795655992  0.7082688455892033  0.3994611630473321
  0.2917007087163606  0.8337632347764260  0.3994709162551882
  0.2920022666088748  0.9592968291730234  0.3996764389823066
  0.4170121880747422  0.0839438062087898  0.3996256659603805
  0.4173267112979593  0.2097484153422336  0.3995580583590191
  0.4198325606696115  0.3366677100338268  0.4005537038905789
  0.4152915940226512  0.7063619892721326  0.4007974609872937
  0.4162636417502052  0.8324190807731571  0.3993315142074658
  0.4167083774590179  0.9581991255613626  0.3995322552393333
  0.5416053298297877  0.0828709092615181  0.3996445405673538
  0.5420636430470044  0.2083382325616430  0.3996503289077230
  0.5433184674194622  0.3338712615469093  0.3999354142692792
  0.5444393757785635  0.4582757104165011  0.4003986019541877
  0.5388893047353344  0.7032250970910661  0.4014986609261838
  0.5407966394712553  0.8310393755975320  0.3997923182419508
  0.5413671942701053  0.9571927709483004  0.3995270772000272
  0.6663241248416857  0.0824620005142124  0.3997695281969546
  0.6667803571050011  0.2078860683169051  0.3997718866604134
  0.6675522648672295  0.3332895972612551  0.4000438400693547
  0.6687356297770426  0.4585442062191238  0.4006164743451627
  0.6691089014395016  0.5833049074968094  0.4003865848549739
  0.6663821793026398  0.7070141164129300  0.3989692639735694
  0.6651860845722113  0.8311766066858375  0.3993449513069250
  0.6659620685065079  0.9570034449760154  0.3995822370935535
  0.7911780972661792  0.0825531998783725  0.3997478583126107
  0.7913671838648012  0.2078019526833841  0.3997936222235765
  0.7918365527636122  0.3330580910264496  0.3998441096042100
  0.7926772647862361  0.4584564494139031  0.4001370788710523
  0.7932222158900688  0.5837944078060801  0.4001658104215605
  0.7924272362109280  0.7083873351976995  0.3995530539600857
  0.7913518840993609  0.8327949440630990  0.3991792123140689
  0.7908632993601585  0.9573368748480197  0.3994167114377637
  0.9163356277166232  0.0830649024187384  0.3996567803493780
  0.9160908327029941  0.2079467465996346  0.3996074327999564
  0.9162149990822711  0.3331053571819912  0.3993758219429611
  0.9166760756292871  0.4584595306112684  0.3995959568436932
  0.9172848730100833  0.5837615888045709  0.3999652902813255
  0.9174641647866414  0.7089760509897864  0.3999082119841419
  0.9170476914782827  0.8338734781082854  0.3995600123155976
  0.9167128738967047  0.9584828015576147  0.3995575853681510
  0.0842871179740008  0.0430709718331775  0.3997181190611016
  0.0839580176194728  0.1678342037393703  0.3997613781176105
  0.0827089370497990  0.2920068430098458  0.3998348091429252
  0.0817918357550072  0.4165123189994522  0.3989114212694770
  0.0823997158740439  0.5418681202891633  0.3987758641012363
  0.0832401466453308  0.6671808380981767  0.3994809453309703
  0.0836948887306246  0.7924990521826651  0.3999194708583818
  0.0840013696284908  0.9178399422894565  0.3997883024928999
  0.2090982399582064  0.0432766882149103  0.3998170092894822
  0.2099059269075009  0.1692505706273262  0.4003186757630527
  0.2090865472370049  0.2939722706479555  0.4013250308146172
  0.2061474087906540  0.4172647954978154  0.4010396122180597
  0.2061950019491194  0.5416441380825531  0.3992988424905802
  0.2074713700469961  0.6669471432507096  0.3990913936715414
  0.2082850873751850  0.7923447719235271  0.3995798871300583
  0.2087670598968889  0.9177407540198208  0.3997836314420494
  0.3336757317749567  0.0429241980317705  0.3996568378479619
  0.3341353116083750  0.1690834434397392  0.3998901782666375
  0.3358573851704508  0.2971517454145711  0.4019797973057814
  0.3300398780507101  0.5419503180005807  0.4038327745507602
  0.3316634656883618  0.6663056020750009  0.4004290169419858
  0.3330027807578025  0.7917646096225743  0.3993749435747904
  0.3334432608746227  0.9172215205174700  0.3995525835564708
  0.4584180024000112  0.0418147235572847  0.3996315600729923
  0.4587014020311672  0.1674545458412258  0.3995829954185652
  0.4594986922796357  0.2931969874632054  0.3994621014299196
  0.4546142337050656  0.6623022056513357  0.4034281760909756
  0.4575401212980139  0.7899571617875522  0.3996431500301486
  0.4580052658770613  0.9160230999564077  0.3994168583779462
  0.5830356576184372  0.0408267171332236  0.3996453709500735
  0.5833355479351622  0.1664156416674137  0.3996816030210009
  0.5842062466260167  0.2918953306726847  0.3998670700828756
  0.5859623997770433  0.4169942451582067  0.4006128020536217
  0.5863126540875662  0.5420399918549987  0.4003167549387986
  0.5832671235587924  0.6635985224657568  0.4001816271472978
  0.5813874807689184  0.7880848515940885  0.4000950165766876
  0.5826640129831880  0.9150238412914146  0.3995823463025000
  0.7077846583238584  0.0406623443382187  0.3997277856930403
  0.7081305609682201  0.1661103533306316  0.3998134815510900
  0.7086724726036325  0.2913452330446845  0.3998931833684725
  0.7096072983098821  0.4165282545792937  0.4002697165400281
  0.7103397751154366  0.5417534761807442  0.4005142268045788
  0.7095467861632233  0.6663740051121801  0.3995426298253009
  0.7076731912631596  0.7904716936279832  0.3990187212503372
  0.7073225807199960  0.9150944562959545  0.3993807846343447
  0.8328211801244426  0.0409753567889703  0.3996322058877351
  0.8329488434547719  0.1661343557389186  0.3997565663864973
  0.8330878590159646  0.2912268594267926  0.3996842590245301
  0.8336766898952751  0.4165621979422725  0.3999017410286910
  0.8343701766383346  0.5418769074361421  0.4001329267399386
  0.8343813624123647  0.6670087688973726  0.3998906117218444
  0.8338350104684140  0.7919284180669276  0.3993594730237275
  0.8331701409242983  0.9163221245184022  0.3993796703825692
  0.9586087512864306  0.0420900932686603  0.3996482826795483
  0.9580639312521634  0.1665113056052459  0.3996230446711458
  0.9576674059956473  0.2914235991395487  0.3993484299544557
  0.9577635824019906  0.4165547029409246  0.3992044865738683
  0.9583666489516154  0.5418690340173523  0.3996422776505721
  0.9588892844512585  0.6672410607094089  0.3999717635604793
  0.9590272170116007  0.7924227256285516  0.3997901036929362
  0.9588364113258235  0.9174127641861882  0.3995703833919274
  0.4109666955420320  0.5816381975115986  0.4082942442514820
  0.5459003182927521  0.5830142959715281  0.4015875642781772
  0.3297102047736860  0.4191579454906824  0.4084630515411817
  0.4630769615853458  0.4173374586087994  0.4017006834101621
 
  0.00000000E+00  0.00000000E+00  0.00000000E+00
  0.00000000E+00  0.00000000E+00  0.00000000E+00
  0.00000000E+00  0.00000000E+00  0.00000000E+00
  0.00000000E+00  0.00000000E+00  0.00000000E+00
  0.00000000E+00  0.00000000E+00  0.00000000E+00
  0.00000000E+00  0.00000000E+00  0.00000000E+00
  0.00000000E+00  0.00000000E+00  0.00000000E+00
  0.00000000E+00  0.00000000E+00  0.00000000E+00
  0.00000000E+00  0.00000000E+00  0.00000000E+00
  0.00000000E+00  0.00000000E+00  0.00000000E+00
  0.00000000E+00  0.00000000E+00  0.00000000E+00
  0.00000000E+00  0.00000000E+00  0.00000000E+00
  0.00000000E+00  0.00000000E+00  0.00000000E+00
  0.00000000E+00  0.00000000E+00  0.00000000E+00
  0.00000000E+00  0.00000000E+00  0.00000000E+00
  0.00000000E+00  0.00000000E+00  0.00000000E+00
  0.00000000E+00  0.00000000E+00  0.00000000E+00
  0.00000000E+00  0.00000000E+00  0.00000000E+00
  0.00000000E+00  0.00000000E+00  0.00000000E+00
  0.00000000E+00  0.00000000E+00  0.00000000E+00
  0.00000000E+00  0.00000000E+00  0.00000000E+00
  0.00000000E+00  0.00000000E+00  0.00000000E+00
  0.00000000E+00  0.00000000E+00  0.00000000E+00
  0.00000000E+00  0.00000000E+00  0.00000000E+00
  0.00000000E+00  0.00000000E+00  0.00000000E+00
  0.00000000E+00  0.00000000E+00  0.00000000E+00
  0.00000000E+00  0.00000000E+00  0.00000000E+00
  0.00000000E+00  0.00000000E+00  0.00000000E+00
  0.00000000E+00  0.00000000E+00  0.00000000E+00
  0.00000000E+00  0.00000000E+00  0.00000000E+00
  0.00000000E+00  0.00000000E+00  0.00000000E+00
  0.00000000E+00  0.00000000E+00  0.00000000E+00
  0.00000000E+00  0.00000000E+00  0.00000000E+00
  0.00000000E+00  0.00000000E+00  0.00000000E+00
  0.00000000E+00  0.00000000E+00  0.00000000E+00
  0.00000000E+00  0.00000000E+00  0.00000000E+00
  0.00000000E+00  0.00000000E+00  0.00000000E+00
  0.00000000E+00  0.00000000E+00  0.00000000E+00
  0.00000000E+00  0.00000000E+00  0.00000000E+00
  0.00000000E+00  0.00000000E+00  0.00000000E+00
  0.00000000E+00  0.00000000E+00  0.00000000E+00
  0.00000000E+00  0.00000000E+00  0.00000000E+00
  0.00000000E+00  0.00000000E+00  0.00000000E+00
  0.00000000E+00  0.00000000E+00  0.00000000E+00
  0.00000000E+00  0.00000000E+00  0.00000000E+00
  0.00000000E+00  0.00000000E+00  0.00000000E+00
  0.00000000E+00  0.00000000E+00  0.00000000E+00
  0.00000000E+00  0.00000000E+00  0.00000000E+00
  0.00000000E+00  0.00000000E+00  0.00000000E+00
  0.00000000E+00  0.00000000E+00  0.00000000E+00
  0.00000000E+00  0.00000000E+00  0.00000000E+00
  0.00000000E+00  0.00000000E+00  0.00000000E+00
  0.00000000E+00  0.00000000E+00  0.00000000E+00
  0.00000000E+00  0.00000000E+00  0.00000000E+00
  0.00000000E+00  0.00000000E+00  0.00000000E+00
  0.00000000E+00  0.00000000E+00  0.00000000E+00
  0.00000000E+00  0.00000000E+00  0.00000000E+00
  0.00000000E+00  0.00000000E+00  0.00000000E+00
  0.00000000E+00  0.00000000E+00  0.00000000E+00
  0.00000000E+00  0.00000000E+00  0.00000000E+00
  0.00000000E+00  0.00000000E+00  0.00000000E+00
  0.00000000E+00  0.00000000E+00  0.00000000E+00
  0.00000000E+00  0.00000000E+00  0.00000000E+00
  0.00000000E+00  0.00000000E+00  0.00000000E+00
  0.00000000E+00  0.00000000E+00  0.00000000E+00
  0.00000000E+00  0.00000000E+00  0.00000000E+00
  0.00000000E+00  0.00000000E+00  0.00000000E+00
  0.00000000E+00  0.00000000E+00  0.00000000E+00
  0.00000000E+00  0.00000000E+00  0.00000000E+00
  0.00000000E+00  0.00000000E+00  0.00000000E+00
  0.00000000E+00  0.00000000E+00  0.00000000E+00
  0.00000000E+00  0.00000000E+00  0.00000000E+00
  0.00000000E+00  0.00000000E+00  0.00000000E+00
  0.00000000E+00  0.00000000E+00  0.00000000E+00
  0.00000000E+00  0.00000000E+00  0.00000000E+00
  0.00000000E+00  0.00000000E+00  0.00000000E+00
  0.00000000E+00  0.00000000E+00  0.00000000E+00
  0.00000000E+00  0.00000000E+00  0.00000000E+00
  0.00000000E+00  0.00000000E+00  0.00000000E+00
  0.00000000E+00  0.00000000E+00  0.00000000E+00
  0.00000000E+00  0.00000000E+00  0.00000000E+00
  0.00000000E+00  0.00000000E+00  0.00000000E+00
  0.00000000E+00  0.00000000E+00  0.00000000E+00
  0.00000000E+00  0.00000000E+00  0.00000000E+00
  0.00000000E+00  0.00000000E+00  0.00000000E+00
  0.00000000E+00  0.00000000E+00  0.00000000E+00
  0.00000000E+00  0.00000000E+00  0.00000000E+00
  0.00000000E+00  0.00000000E+00  0.00000000E+00
  0.00000000E+00  0.00000000E+00  0.00000000E+00
  0.00000000E+00  0.00000000E+00  0.00000000E+00
  0.00000000E+00  0.00000000E+00  0.00000000E+00
  0.00000000E+00  0.00000000E+00  0.00000000E+00
  0.00000000E+00  0.00000000E+00  0.00000000E+00
  0.00000000E+00  0.00000000E+00  0.00000000E+00
  0.00000000E+00  0.00000000E+00  0.00000000E+00
  0.00000000E+00  0.00000000E+00  0.00000000E+00
  0.00000000E+00  0.00000000E+00  0.00000000E+00
  0.00000000E+00  0.00000000E+00  0.00000000E+00
  0.00000000E+00  0.00000000E+00  0.00000000E+00
  0.00000000E+00  0.00000000E+00  0.00000000E+00
  0.00000000E+00  0.00000000E+00  0.00000000E+00
  0.00000000E+00  0.00000000E+00  0.00000000E+00
  0.00000000E+00  0.00000000E+00  0.00000000E+00
  0.00000000E+00  0.00000000E+00  0.00000000E+00
  0.00000000E+00  0.00000000E+00  0.00000000E+00
  0.00000000E+00  0.00000000E+00  0.00000000E+00
  0.00000000E+00  0.00000000E+00  0.00000000E+00
  0.00000000E+00  0.00000000E+00  0.00000000E+00
  0.00000000E+00  0.00000000E+00  0.00000000E+00
  0.00000000E+00  0.00000000E+00  0.00000000E+00
  0.00000000E+00  0.00000000E+00  0.00000000E+00
  0.00000000E+00  0.00000000E+00  0.00000000E+00
  0.00000000E+00  0.00000000E+00  0.00000000E+00
  0.00000000E+00  0.00000000E+00  0.00000000E+00
  0.00000000E+00  0.00000000E+00  0.00000000E+00
  0.00000000E+00  0.00000000E+00  0.00000000E+00
  0.00000000E+00  0.00000000E+00  0.00000000E+00
  0.00000000E+00  0.00000000E+00  0.00000000E+00
  0.00000000E+00  0.00000000E+00  0.00000000E+00
  0.00000000E+00  0.00000000E+00  0.00000000E+00
  0.00000000E+00  0.00000000E+00  0.00000000E+00
  0.00000000E+00  0.00000000E+00  0.00000000E+00
  0.00000000E+00  0.00000000E+00  0.00000000E+00
  0.00000000E+00  0.00000000E+00  0.00000000E+00
  0.00000000E+00  0.00000000E+00  0.00000000E+00
  0.00000000E+00  0.00000000E+00  0.00000000E+00
  0.00000000E+00  0.00000000E+00  0.00000000E+00
  0.00000000E+00  0.00000000E+00  0.00000000E+00
