H1 W1 C122 N4 O1                        
   1.00000000000000     
    19.8023739978904132    0.0017255888642213    0.1714036426194268
    -9.8997050807446474   17.0159587639585475   -0.4266721114467654
     0.2580491181783540   -0.5978710295532507   29.8753542516655415
   H    W    C    N    O 
     1     1   122     4     1
Direct
  0.4856738946216292  0.5085269368166565  0.5153987113491266
  0.4401300045185446  0.5028656325503854  0.4338566263111077
  0.0422923032099615  0.0847228647561885  0.3999925249383457
  0.0413323792014601  0.2086906243208847  0.3994511202065457
  0.0404424779372504  0.3332164415296386  0.3974443130122791
  0.0403825286015795  0.4582693805795977  0.3962632205045351
  0.0412401045268771  0.5837518726786053  0.3967919753301291
  0.0419750289656621  0.7092258038163007  0.3979143264836717
  0.0422346076916175  0.8345223487055509  0.3990602850383569
  0.0424689381566405  0.9598612405464221  0.3997929178046028
  0.1681473840641109  0.0861660246829736  0.4008491716819652
  0.1681656695893881  0.2113224372424858  0.4013323172429242
  0.1652784403820838  0.3343169482463988  0.4001232499256223
  0.1641046812243288  0.4585767267596498  0.3963732129042383
  0.1650525323459162  0.5837136993101486  0.3962286716447152
  0.1663400649117673  0.7090010194305528  0.3976401881050812
  0.1670008118853725  0.8344641752576242  0.3989917654877788
  0.1674526735297344  0.9602318829157864  0.4000284858734671
  0.2926510736013787  0.0861365351525114  0.4006471205405638
  0.2941327099224372  0.2139676779388338  0.4027544471076858
  0.2930637275896661  0.3401364480341211  0.4062835253145475
  0.2869621458551459  0.4593882061686054  0.4025962998546912
  0.2883639020306667  0.5831800388122947  0.3984440854748120
  0.2907566820941167  0.7083152799924490  0.3984442179536670
  0.2916940679197846  0.8339724133243714  0.3989009527133517
  0.2920455048971080  0.9597802824455142  0.3997322695852499
  0.4170519086470635  0.0845288201509490  0.3998535208584472
  0.4175985075974341  0.2108860687200524  0.4006690349556121
  0.4207551606961615  0.3389372612542209  0.4047250606876807
  0.4148718049772655  0.7056253095475126  0.4018391171046816
  0.4161591692087839  0.8322148909744347  0.3996496462265614
  0.4166480351655835  0.9583467043217389  0.3995078998990168
  0.5415075167690326  0.0829130631202994  0.3993819290460694
  0.5420576591997021  0.2085582528560770  0.3992875246696964
  0.5436215828961676  0.3342589487783707  0.4003147499335977
  0.5465906786380655  0.4592564550148887  0.4038297358142539
  0.5380890243311761  0.7020612708201447  0.4048627656655307
  0.5404335945739491  0.8304306072642371  0.4012174518814225
  0.5412256334238963  0.9569800334965348  0.3998111246979299
  0.6661339168435075  0.0822533528928851  0.3994012491997776
  0.6666574003080903  0.2077599876795899  0.3987542015281081
  0.6675241421401723  0.3331832200439921  0.3982981793826655
  0.6693658846570480  0.4586843275856580  0.3988116602452055
  0.6697669464683828  0.5834381056250960  0.4004898685661172
  0.6654613597465254  0.7059537403476993  0.4009334605452492
  0.6646153171401196  0.8304519092606280  0.4009044068358609
  0.6656967547287568  0.9566442079981602  0.4001238163054468
  0.7909657615436103  0.0823065052301921  0.3993883194435301
  0.7912000179133164  0.2076201323557327  0.3986854319730853
  0.7917092722426085  0.3329117569612720  0.3978185211935958
  0.7927628088869022  0.4583123773428120  0.3972262346472628
  0.7935603541892532  0.5838068955859870  0.3977156173864648
  0.7923862640828465  0.7084171759308348  0.3988918829844411
  0.7909084819425004  0.8324218780171782  0.3995144508523988
  0.7905427910486821  0.9570068549098533  0.3997051963365758
  0.9162059450996486  0.0830115205937167  0.3994196398108255
  0.9159351483308003  0.2078075630851173  0.3986270561004945
  0.9160065069618762  0.3329075606861553  0.3975070344896119
  0.9165647445512096  0.4583112152912856  0.3969886596212932
  0.9173469145953377  0.5837693384431872  0.3971632901258622
  0.9174914901580479  0.7090709346938647  0.3980424694787573
  0.9170293023469979  0.8339934392474465  0.3989918768543880
  0.9166149382460587  0.9585083469595044  0.3995207415764285
  0.0845571411875569  0.0437176214678043  0.4002277552779333
  0.0842695947861549  0.1684810333446514  0.4001856047845373
  0.0826615697224439  0.2921539801478089  0.3988406258207018
  0.0813914391387029  0.4163861169421893  0.3963342296609415
  0.0821627654922973  0.5418157789740936  0.3962077567037216
  0.0832021903252063  0.6673304689967556  0.3973881598881309
  0.0837365838032420  0.7927952446953169  0.3986926901356113
  0.0841367554338596  0.9183340849979633  0.3996944386447600
  0.2093780489066802  0.0441151195691003  0.4005972055786967
  0.2104484407779649  0.1705182702033725  0.4017846503064063
  0.2097393182837112  0.2953967330652187  0.4023846912159931
  0.2054083255290535  0.4172995434821511  0.3987355770152567
  0.2056002419310774  0.5415533190507968  0.3962539260871726
  0.2073539815356716  0.6670445639780646  0.3972409445218590
  0.2083243596285897  0.7926277378998253  0.3985337303520436
  0.2088789485233502  0.9182598344447219  0.3996602985264802
  0.3338080971444212  0.0436643049478591  0.4000878282169668
  0.3345790558325220  0.1704547408302366  0.4013692339305100
  0.3367505675040675  0.2994434502255610  0.4053352690682063
  0.3281140877658731  0.5416665171860591  0.4024387196294077
  0.3313244928130284  0.6663566649535370  0.3996602447114125
  0.3329423898872287  0.7918821944753300  0.3989993579722387
  0.3334549945538703  0.9175788667987237  0.3993897740743594
  0.4583634240508551  0.0420969891909775  0.3995840254733063
  0.4587751383355780  0.1682206303477480  0.3998768877879996
  0.4599163655457308  0.2949275392070314  0.4012732753856793
  0.4537702162051105  0.6615049807480026  0.4058360932903012
  0.4573053110818136  0.7895572259859438  0.4007506224652543
  0.4579408370460404  0.9159722022123952  0.3996012751407869
  0.5829446638829748  0.0407733904331523  0.3994956541456447
  0.5832819084883313  0.1665074241636259  0.3990931501563568
  0.5841932733976357  0.2920620508413058  0.3991571000019843
  0.5866722158642179  0.4172846694921533  0.4006320895004704
  0.5879475039781320  0.5419640827311165  0.4037316050389654
  0.5825254891154927  0.6624629448685351  0.4043631946629429
  0.5807740053250736  0.7871778608132616  0.4022664530349330
  0.5824248046470887  0.9146341545262199  0.4003448134615259
  0.7076007857405996  0.0404163395316709  0.3996272861911164
  0.7079838491527058  0.1659603381710589  0.3989782899183696
  0.7085863086435465  0.2912451681971264  0.3982051581169173
  0.7098686040966505  0.4164457531867329  0.3978429386494569
  0.7109056802255724  0.5417473897723689  0.3987496978546733
  0.7097089052021970  0.6664230817418224  0.4000694995533557
  0.7071278437347450  0.7898870067523671  0.4002690578240424
  0.7069543849966050  0.9146392177870606  0.4001812371034679
  0.8326274663875258  0.0408236322973551  0.3994873529809236
  0.8328183424501525  0.1660050237187572  0.3989175143185766
  0.8329350195073753  0.2910752379075899  0.3980409004466198
  0.8336643420676807  0.4164066491008491  0.3972925902320358
  0.8345286062876093  0.5418517736584432  0.3971731113906463
  0.8345062114436458  0.6671360969079808  0.3980866526837605
  0.8337669239394480  0.7919622083912852  0.3990421212655853
  0.8329080126408878  0.9161178293096017  0.3995379635059225
  0.9586251225061362  0.0422634935764156  0.3996199506783010
  0.9580090754022991  0.1665617838510136  0.3991197366385939
  0.9575027664842355  0.2912938253737963  0.3978005202069551
  0.9575618012589147  0.4163894255446722  0.3968888430865180
  0.9583252196088219  0.5418256163900560  0.3969319975738324
  0.9589141017919950  0.6673441104727359  0.3976413472638776
  0.9590839858396595  0.7926599632556431  0.3986906031396740
  0.9588955340930460  0.9176517198607785  0.3994258604165375
  0.4083844154587854  0.5796454746284847  0.4109270410531137
  0.5453724201871646  0.5808806346799427  0.4095303356983023
  0.3299101601968566  0.4227216453622676  0.4111794580299719
  0.4655488339900785  0.4212473134627214  0.4097472121146307
  0.4449516496235492  0.5074279357688729  0.4969969410817726
 
  0.00000000E+00  0.00000000E+00  0.00000000E+00
  0.00000000E+00  0.00000000E+00  0.00000000E+00
  0.00000000E+00  0.00000000E+00  0.00000000E+00
  0.00000000E+00  0.00000000E+00  0.00000000E+00
  0.00000000E+00  0.00000000E+00  0.00000000E+00
  0.00000000E+00  0.00000000E+00  0.00000000E+00
  0.00000000E+00  0.00000000E+00  0.00000000E+00
  0.00000000E+00  0.00000000E+00  0.00000000E+00
  0.00000000E+00  0.00000000E+00  0.00000000E+00
  0.00000000E+00  0.00000000E+00  0.00000000E+00
  0.00000000E+00  0.00000000E+00  0.00000000E+00
  0.00000000E+00  0.00000000E+00  0.00000000E+00
  0.00000000E+00  0.00000000E+00  0.00000000E+00
  0.00000000E+00  0.00000000E+00  0.00000000E+00
  0.00000000E+00  0.00000000E+00  0.00000000E+00
  0.00000000E+00  0.00000000E+00  0.00000000E+00
  0.00000000E+00  0.00000000E+00  0.00000000E+00
  0.00000000E+00  0.00000000E+00  0.00000000E+00
  0.00000000E+00  0.00000000E+00  0.00000000E+00
  0.00000000E+00  0.00000000E+00  0.00000000E+00
  0.00000000E+00  0.00000000E+00  0.00000000E+00
  0.00000000E+00  0.00000000E+00  0.00000000E+00
  0.00000000E+00  0.00000000E+00  0.00000000E+00
  0.00000000E+00  0.00000000E+00  0.00000000E+00
  0.00000000E+00  0.00000000E+00  0.00000000E+00
  0.00000000E+00  0.00000000E+00  0.00000000E+00
  0.00000000E+00  0.00000000E+00  0.00000000E+00
  0.00000000E+00  0.00000000E+00  0.00000000E+00
  0.00000000E+00  0.00000000E+00  0.00000000E+00
  0.00000000E+00  0.00000000E+00  0.00000000E+00
  0.00000000E+00  0.00000000E+00  0.00000000E+00
  0.00000000E+00  0.00000000E+00  0.00000000E+00
  0.00000000E+00  0.00000000E+00  0.00000000E+00
  0.00000000E+00  0.00000000E+00  0.00000000E+00
  0.00000000E+00  0.00000000E+00  0.00000000E+00
  0.00000000E+00  0.00000000E+00  0.00000000E+00
  0.00000000E+00  0.00000000E+00  0.00000000E+00
  0.00000000E+00  0.00000000E+00  0.00000000E+00
  0.00000000E+00  0.00000000E+00  0.00000000E+00
  0.00000000E+00  0.00000000E+00  0.00000000E+00
  0.00000000E+00  0.00000000E+00  0.00000000E+00
  0.00000000E+00  0.00000000E+00  0.00000000E+00
  0.00000000E+00  0.00000000E+00  0.00000000E+00
  0.00000000E+00  0.00000000E+00  0.00000000E+00
  0.00000000E+00  0.00000000E+00  0.00000000E+00
  0.00000000E+00  0.00000000E+00  0.00000000E+00
  0.00000000E+00  0.00000000E+00  0.00000000E+00
  0.00000000E+00  0.00000000E+00  0.00000000E+00
  0.00000000E+00  0.00000000E+00  0.00000000E+00
  0.00000000E+00  0.00000000E+00  0.00000000E+00
  0.00000000E+00  0.00000000E+00  0.00000000E+00
  0.00000000E+00  0.00000000E+00  0.00000000E+00
  0.00000000E+00  0.00000000E+00  0.00000000E+00
  0.00000000E+00  0.00000000E+00  0.00000000E+00
  0.00000000E+00  0.00000000E+00  0.00000000E+00
  0.00000000E+00  0.00000000E+00  0.00000000E+00
  0.00000000E+00  0.00000000E+00  0.00000000E+00
  0.00000000E+00  0.00000000E+00  0.00000000E+00
  0.00000000E+00  0.00000000E+00  0.00000000E+00
  0.00000000E+00  0.00000000E+00  0.00000000E+00
  0.00000000E+00  0.00000000E+00  0.00000000E+00
  0.00000000E+00  0.00000000E+00  0.00000000E+00
  0.00000000E+00  0.00000000E+00  0.00000000E+00
  0.00000000E+00  0.00000000E+00  0.00000000E+00
  0.00000000E+00  0.00000000E+00  0.00000000E+00
  0.00000000E+00  0.00000000E+00  0.00000000E+00
  0.00000000E+00  0.00000000E+00  0.00000000E+00
  0.00000000E+00  0.00000000E+00  0.00000000E+00
  0.00000000E+00  0.00000000E+00  0.00000000E+00
  0.00000000E+00  0.00000000E+00  0.00000000E+00
  0.00000000E+00  0.00000000E+00  0.00000000E+00
  0.00000000E+00  0.00000000E+00  0.00000000E+00
  0.00000000E+00  0.00000000E+00  0.00000000E+00
  0.00000000E+00  0.00000000E+00  0.00000000E+00
  0.00000000E+00  0.00000000E+00  0.00000000E+00
  0.00000000E+00  0.00000000E+00  0.00000000E+00
  0.00000000E+00  0.00000000E+00  0.00000000E+00
  0.00000000E+00  0.00000000E+00  0.00000000E+00
  0.00000000E+00  0.00000000E+00  0.00000000E+00
  0.00000000E+00  0.00000000E+00  0.00000000E+00
  0.00000000E+00  0.00000000E+00  0.00000000E+00
  0.00000000E+00  0.00000000E+00  0.00000000E+00
  0.00000000E+00  0.00000000E+00  0.00000000E+00
  0.00000000E+00  0.00000000E+00  0.00000000E+00
  0.00000000E+00  0.00000000E+00  0.00000000E+00
  0.00000000E+00  0.00000000E+00  0.00000000E+00
  0.00000000E+00  0.00000000E+00  0.00000000E+00
  0.00000000E+00  0.00000000E+00  0.00000000E+00
  0.00000000E+00  0.00000000E+00  0.00000000E+00
  0.00000000E+00  0.00000000E+00  0.00000000E+00
  0.00000000E+00  0.00000000E+00  0.00000000E+00
  0.00000000E+00  0.00000000E+00  0.00000000E+00
  0.00000000E+00  0.00000000E+00  0.00000000E+00
  0.00000000E+00  0.00000000E+00  0.00000000E+00
  0.00000000E+00  0.00000000E+00  0.00000000E+00
  0.00000000E+00  0.00000000E+00  0.00000000E+00
  0.00000000E+00  0.00000000E+00  0.00000000E+00
  0.00000000E+00  0.00000000E+00  0.00000000E+00
  0.00000000E+00  0.00000000E+00  0.00000000E+00
  0.00000000E+00  0.00000000E+00  0.00000000E+00
  0.00000000E+00  0.00000000E+00  0.00000000E+00
  0.00000000E+00  0.00000000E+00  0.00000000E+00
  0.00000000E+00  0.00000000E+00  0.00000000E+00
  0.00000000E+00  0.00000000E+00  0.00000000E+00
  0.00000000E+00  0.00000000E+00  0.00000000E+00
  0.00000000E+00  0.00000000E+00  0.00000000E+00
  0.00000000E+00  0.00000000E+00  0.00000000E+00
  0.00000000E+00  0.00000000E+00  0.00000000E+00
  0.00000000E+00  0.00000000E+00  0.00000000E+00
  0.00000000E+00  0.00000000E+00  0.00000000E+00
  0.00000000E+00  0.00000000E+00  0.00000000E+00
  0.00000000E+00  0.00000000E+00  0.00000000E+00
  0.00000000E+00  0.00000000E+00  0.00000000E+00
  0.00000000E+00  0.00000000E+00  0.00000000E+00
  0.00000000E+00  0.00000000E+00  0.00000000E+00
  0.00000000E+00  0.00000000E+00  0.00000000E+00
  0.00000000E+00  0.00000000E+00  0.00000000E+00
  0.00000000E+00  0.00000000E+00  0.00000000E+00
  0.00000000E+00  0.00000000E+00  0.00000000E+00
  0.00000000E+00  0.00000000E+00  0.00000000E+00
  0.00000000E+00  0.00000000E+00  0.00000000E+00
  0.00000000E+00  0.00000000E+00  0.00000000E+00
  0.00000000E+00  0.00000000E+00  0.00000000E+00
  0.00000000E+00  0.00000000E+00  0.00000000E+00
  0.00000000E+00  0.00000000E+00  0.00000000E+00
  0.00000000E+00  0.00000000E+00  0.00000000E+00
  0.00000000E+00  0.00000000E+00  0.00000000E+00
  0.00000000E+00  0.00000000E+00  0.00000000E+00
  0.00000000E+00  0.00000000E+00  0.00000000E+00
