Nb1 C124 N2 O1                          
   1.00000000000000     
    19.8072923534318477   -0.0167301823473636   -0.0611210284207214
    -9.9181671116522363   17.0766545691585847   -0.0365815842347884
    -0.0917897295645600   -0.1170776473011610   29.7644692569917915
   Nb   C    N    O 
     1   124     2     1
Direct
  0.4452751830051743  0.5006516013690119  0.4335502153570099
  0.0423631427263523  0.0843936357121583  0.3995136782654453
  0.0416060387785964  0.2087104861713879  0.3992921268842934
  0.0408819622033527  0.3332236855161008  0.3993553047960923
  0.0406695728571375  0.4584655797800096  0.3996169837931939
  0.0412523730283593  0.5838256084062781  0.3999080788002863
  0.0418413810752002  0.7090916046338578  0.3999702085446749
  0.0421829421049311  0.8343210320720660  0.4000538504849448
  0.0423950176594304  0.9595038660164790  0.3998987165129511
  0.1678995661489150  0.0853783999305335  0.3996618779363090
  0.1677467076539462  0.2102973579333010  0.3995709955650002
  0.1663010702035000  0.3343026340644948  0.3997015289174599
  0.1645533763671581  0.4587619904922490  0.3992840068922722
  0.1652743276894957  0.5838269336436706  0.3994095355921747
  0.1662588602971371  0.7090512396169245  0.3998398677780794
  0.1668482776149980  0.8343083240466845  0.4000050898538819
  0.1673223774691413  0.9597220401879160  0.3999117762248813
  0.2924076472850597  0.0847478512135382  0.3996848057156940
  0.2938753529414283  0.2115540789752459  0.4008542185433759
  0.2934898630750066  0.3377658812988303  0.4031672864776554
  0.2886957084406435  0.4594748730016079  0.4028809415520187
  0.2891249505077741  0.5843672919204731  0.4002559425912411
  0.2906645863233196  0.7090449894485212  0.3996633846179062
  0.2914990912408557  0.8339759373228077  0.3997946979418650
  0.2919246453530577  0.9591854044775971  0.3997900661489269
  0.4170225193254315  0.0833274066681577  0.3996202096745248
  0.4174818868558982  0.2083976097069183  0.3997695813024071
  0.4199358182192409  0.3344452189532751  0.4021629850602759
  0.4149727949660128  0.7070750236303209  0.4005071087615386
  0.4160951878608766  0.8327617843449763  0.3996002171740426
  0.4165937032988257  0.9581107240733554  0.3997270475859130
  0.5416971455673618  0.0825212909799016  0.3997668247987640
  0.5421637631897643  0.2075325907897115  0.3996894324046368
  0.5432401764470430  0.3323086694113904  0.4001884849688634
  0.5439160173805352  0.4554445808348517  0.4014526516168836
  0.5457765039176291  0.5839936328155494  0.4014531807758804
  0.5390054425539942  0.7048794881526954  0.4015804797611901
  0.5405586553837891  0.8316369450037389  0.4000099084640508
  0.5412708298978505  0.9572436554945759  0.3997780689914703
  0.6663635858055698  0.0822781849724846  0.3999186345847868
  0.6668309857316570  0.2074877864797164  0.3998577242386299
  0.6676022188481038  0.3327319137197031  0.3997867128612705
  0.6687937054574080  0.4580607981782044  0.4000067361036874
  0.6684588645094121  0.5826561347040233  0.3999509735772329
  0.6671660036506175  0.7078616320444745  0.3986825232989763
  0.6653322993412084  0.8314567790457567  0.3995991691344502
  0.6659392817531059  0.9570123927345429  0.3998911640700432
  0.7912222339963259  0.0824212056182698  0.4000195833571028
  0.7914532602819180  0.2075780085274517  0.4000845308517916
  0.7919390143761822  0.3328802864421890  0.3999013179647258
  0.7926044702263105  0.4582510798356248  0.3997320695265342
  0.7929299363214192  0.5835207732503116  0.3996304055331028
  0.7923421066770443  0.7083747192641361  0.3994951753184224
  0.7917720777531126  0.8331209670258073  0.3995683338901919
  0.7910313465446531  0.9573379592082532  0.3998466810221983
  0.9164865690970175  0.0830624711726933  0.3998720257768588
  0.9162587175969263  0.2078376935358516  0.3998959976818836
  0.9162914434468752  0.3329783506876448  0.3999289707261242
  0.9166400727563748  0.4583376796014265  0.3999552909677510
  0.9171564642042644  0.5837411503074132  0.3998875472040044
  0.9172725805614940  0.7089415803539829  0.3998729974010121
  0.9171624604815432  0.8338578085849638  0.3998827107761397
  0.9170047289299916  0.9586888566033364  0.3999417260310987
  0.0843134101210187  0.0431454552534080  0.3995987466715056
  0.0840992092118887  0.1678898684098294  0.3992493774043368
  0.0828612011715928  0.2919970290239747  0.3992669249125325
  0.0818649647468293  0.4167414193019203  0.3992690212682156
  0.0822916429677604  0.5419632113659070  0.3996309178877374
  0.0830599471595612  0.6672937405774604  0.3999343553733698
  0.0836323251095366  0.7925935247128448  0.4000168961740831
  0.0839558041622387  0.9178358734849924  0.4000282686508357
  0.2091295091546820  0.0431924824814982  0.3997282707084681
  0.2098964034555112  0.1690742824290394  0.4000364205427536
  0.2093493034996023  0.2939548938987735  0.4002317597434101
  0.2061359094607196  0.4175888024685974  0.3999994151758194
  0.2060745798039681  0.5420188589975671  0.3994102893288863
  0.2074343100961423  0.6673195240938916  0.3996073119087699
  0.2082225507656012  0.7925194107267646  0.3999132084015540
  0.2086923829857756  0.9177787062899112  0.3999500888953960
  0.3337251036569755  0.0425713394932654  0.3996434514559409
  0.3343760053155446  0.1682763796161706  0.4000185515399908
  0.3360678523894637  0.2954019147701409  0.4026976702542678
  0.3310045454520018  0.4202184390177541  0.4065967859418062
  0.3304999879552320  0.5440128553184631  0.4030849299268278
  0.3318021144056005  0.6673393959764550  0.4001184223181761
  0.3328681426309485  0.7921694225627851  0.3996707139778272
  0.3333861229034079  0.9172699229359997  0.3997797134268640
  0.4584722740919194  0.0414070978923295  0.3997172518937367
  0.4589596665950210  0.1665384241812929  0.3995827111668119
  0.4599632399685438  0.2914771859818513  0.4002274088250609
  0.4545077419266294  0.6630306627069146  0.4029451575990393
  0.4574386811648268  0.7905926128237529  0.3997695729538599
  0.4579989843471109  0.9161063893623578  0.3996824983736805
  0.5831496261296000  0.0406900007306658  0.3998223863631480
  0.5835763800408130  0.1658453478085042  0.3997515856134818
  0.5843868683888623  0.2908071748748982  0.3998257623372187
  0.5859417897715683  0.4155876150524194  0.4005351279527750
  0.5851073235239129  0.5408469117509749  0.4005841045561525
  0.5835768499909604  0.6652049102873305  0.4000224880411530
  0.5811231222477550  0.7886577691332634  0.4002650938638365
  0.5825903221940502  0.9152117112589911  0.3998698877731576
  0.7078137542383417  0.0404697334848490  0.3999341937411635
  0.7082264240224904  0.1657794019843351  0.3999781308304482
  0.7087874528863143  0.2910250048405486  0.3998217377116702
  0.7096572529688301  0.4162753646024330  0.3997637921911955
  0.7100716884565386  0.5414712742060659  0.3998676132290828
  0.7089261954924702  0.6661764146099388  0.3992084157602330
  0.7083011733932105  0.7910447936138453  0.3991613542805205
  0.7073203226760663  0.9150477648664874  0.3997552549308014
  0.8329365824340340  0.0408945533633690  0.3999777522767025
  0.8329687627061343  0.1659195338928173  0.4000920939958892
  0.8332057403779850  0.2911098000249743  0.4000212605097768
  0.8336844110827707  0.4164182478687007  0.3998662411998831
  0.8341733976140413  0.5417890173024276  0.3997203471807108
  0.8341524404067946  0.6670234740628863  0.3996912395666296
  0.8337350017905948  0.7917839201451492  0.3996272588412534
  0.8334278321139930  0.9165131063498289  0.3998526518595239
  0.9587524108443970  0.0421245568397578  0.3998165713491917
  0.9581438580840435  0.1665375596466659  0.3996644726215677
  0.9578049784395013  0.2913089918215475  0.3997283297668082
  0.9577263174101718  0.4164937214214054  0.3999018345236560
  0.9582889094490913  0.5419298156501792  0.3999700175296076
  0.9587274459303057  0.6672489633828357  0.3999194800300942
  0.9589054487196855  0.7924182124954856  0.3999433943039981
  0.9589169073862713  0.9173856923317345  0.3999592821405319
  0.4103016124184887  0.5824548272274862  0.4064857266411609
  0.4638414911162849  0.4142975264250847  0.4038698799367403
  0.4426790933151791  0.5100280004767858  0.4924147548225917
 
  0.00000000E+00  0.00000000E+00  0.00000000E+00
  0.00000000E+00  0.00000000E+00  0.00000000E+00
  0.00000000E+00  0.00000000E+00  0.00000000E+00
  0.00000000E+00  0.00000000E+00  0.00000000E+00
  0.00000000E+00  0.00000000E+00  0.00000000E+00
  0.00000000E+00  0.00000000E+00  0.00000000E+00
  0.00000000E+00  0.00000000E+00  0.00000000E+00
  0.00000000E+00  0.00000000E+00  0.00000000E+00
  0.00000000E+00  0.00000000E+00  0.00000000E+00
  0.00000000E+00  0.00000000E+00  0.00000000E+00
  0.00000000E+00  0.00000000E+00  0.00000000E+00
  0.00000000E+00  0.00000000E+00  0.00000000E+00
  0.00000000E+00  0.00000000E+00  0.00000000E+00
  0.00000000E+00  0.00000000E+00  0.00000000E+00
  0.00000000E+00  0.00000000E+00  0.00000000E+00
  0.00000000E+00  0.00000000E+00  0.00000000E+00
  0.00000000E+00  0.00000000E+00  0.00000000E+00
  0.00000000E+00  0.00000000E+00  0.00000000E+00
  0.00000000E+00  0.00000000E+00  0.00000000E+00
  0.00000000E+00  0.00000000E+00  0.00000000E+00
  0.00000000E+00  0.00000000E+00  0.00000000E+00
  0.00000000E+00  0.00000000E+00  0.00000000E+00
  0.00000000E+00  0.00000000E+00  0.00000000E+00
  0.00000000E+00  0.00000000E+00  0.00000000E+00
  0.00000000E+00  0.00000000E+00  0.00000000E+00
  0.00000000E+00  0.00000000E+00  0.00000000E+00
  0.00000000E+00  0.00000000E+00  0.00000000E+00
  0.00000000E+00  0.00000000E+00  0.00000000E+00
  0.00000000E+00  0.00000000E+00  0.00000000E+00
  0.00000000E+00  0.00000000E+00  0.00000000E+00
  0.00000000E+00  0.00000000E+00  0.00000000E+00
  0.00000000E+00  0.00000000E+00  0.00000000E+00
  0.00000000E+00  0.00000000E+00  0.00000000E+00
  0.00000000E+00  0.00000000E+00  0.00000000E+00
  0.00000000E+00  0.00000000E+00  0.00000000E+00
  0.00000000E+00  0.00000000E+00  0.00000000E+00
  0.00000000E+00  0.00000000E+00  0.00000000E+00
  0.00000000E+00  0.00000000E+00  0.00000000E+00
  0.00000000E+00  0.00000000E+00  0.00000000E+00
  0.00000000E+00  0.00000000E+00  0.00000000E+00
  0.00000000E+00  0.00000000E+00  0.00000000E+00
  0.00000000E+00  0.00000000E+00  0.00000000E+00
  0.00000000E+00  0.00000000E+00  0.00000000E+00
  0.00000000E+00  0.00000000E+00  0.00000000E+00
  0.00000000E+00  0.00000000E+00  0.00000000E+00
  0.00000000E+00  0.00000000E+00  0.00000000E+00
  0.00000000E+00  0.00000000E+00  0.00000000E+00
  0.00000000E+00  0.00000000E+00  0.00000000E+00
  0.00000000E+00  0.00000000E+00  0.00000000E+00
  0.00000000E+00  0.00000000E+00  0.00000000E+00
  0.00000000E+00  0.00000000E+00  0.00000000E+00
  0.00000000E+00  0.00000000E+00  0.00000000E+00
  0.00000000E+00  0.00000000E+00  0.00000000E+00
  0.00000000E+00  0.00000000E+00  0.00000000E+00
  0.00000000E+00  0.00000000E+00  0.00000000E+00
  0.00000000E+00  0.00000000E+00  0.00000000E+00
  0.00000000E+00  0.00000000E+00  0.00000000E+00
  0.00000000E+00  0.00000000E+00  0.00000000E+00
  0.00000000E+00  0.00000000E+00  0.00000000E+00
  0.00000000E+00  0.00000000E+00  0.00000000E+00
  0.00000000E+00  0.00000000E+00  0.00000000E+00
  0.00000000E+00  0.00000000E+00  0.00000000E+00
  0.00000000E+00  0.00000000E+00  0.00000000E+00
  0.00000000E+00  0.00000000E+00  0.00000000E+00
  0.00000000E+00  0.00000000E+00  0.00000000E+00
  0.00000000E+00  0.00000000E+00  0.00000000E+00
  0.00000000E+00  0.00000000E+00  0.00000000E+00
  0.00000000E+00  0.00000000E+00  0.00000000E+00
  0.00000000E+00  0.00000000E+00  0.00000000E+00
  0.00000000E+00  0.00000000E+00  0.00000000E+00
  0.00000000E+00  0.00000000E+00  0.00000000E+00
  0.00000000E+00  0.00000000E+00  0.00000000E+00
  0.00000000E+00  0.00000000E+00  0.00000000E+00
  0.00000000E+00  0.00000000E+00  0.00000000E+00
  0.00000000E+00  0.00000000E+00  0.00000000E+00
  0.00000000E+00  0.00000000E+00  0.00000000E+00
  0.00000000E+00  0.00000000E+00  0.00000000E+00
  0.00000000E+00  0.00000000E+00  0.00000000E+00
  0.00000000E+00  0.00000000E+00  0.00000000E+00
  0.00000000E+00  0.00000000E+00  0.00000000E+00
  0.00000000E+00  0.00000000E+00  0.00000000E+00
  0.00000000E+00  0.00000000E+00  0.00000000E+00
  0.00000000E+00  0.00000000E+00  0.00000000E+00
  0.00000000E+00  0.00000000E+00  0.00000000E+00
  0.00000000E+00  0.00000000E+00  0.00000000E+00
  0.00000000E+00  0.00000000E+00  0.00000000E+00
  0.00000000E+00  0.00000000E+00  0.00000000E+00
  0.00000000E+00  0.00000000E+00  0.00000000E+00
  0.00000000E+00  0.00000000E+00  0.00000000E+00
  0.00000000E+00  0.00000000E+00  0.00000000E+00
  0.00000000E+00  0.00000000E+00  0.00000000E+00
  0.00000000E+00  0.00000000E+00  0.00000000E+00
  0.00000000E+00  0.00000000E+00  0.00000000E+00
  0.00000000E+00  0.00000000E+00  0.00000000E+00
  0.00000000E+00  0.00000000E+00  0.00000000E+00
  0.00000000E+00  0.00000000E+00  0.00000000E+00
  0.00000000E+00  0.00000000E+00  0.00000000E+00
  0.00000000E+00  0.00000000E+00  0.00000000E+00
  0.00000000E+00  0.00000000E+00  0.00000000E+00
  0.00000000E+00  0.00000000E+00  0.00000000E+00
  0.00000000E+00  0.00000000E+00  0.00000000E+00
  0.00000000E+00  0.00000000E+00  0.00000000E+00
  0.00000000E+00  0.00000000E+00  0.00000000E+00
  0.00000000E+00  0.00000000E+00  0.00000000E+00
  0.00000000E+00  0.00000000E+00  0.00000000E+00
  0.00000000E+00  0.00000000E+00  0.00000000E+00
  0.00000000E+00  0.00000000E+00  0.00000000E+00
  0.00000000E+00  0.00000000E+00  0.00000000E+00
  0.00000000E+00  0.00000000E+00  0.00000000E+00
  0.00000000E+00  0.00000000E+00  0.00000000E+00
  0.00000000E+00  0.00000000E+00  0.00000000E+00
  0.00000000E+00  0.00000000E+00  0.00000000E+00
  0.00000000E+00  0.00000000E+00  0.00000000E+00
  0.00000000E+00  0.00000000E+00  0.00000000E+00
  0.00000000E+00  0.00000000E+00  0.00000000E+00
  0.00000000E+00  0.00000000E+00  0.00000000E+00
  0.00000000E+00  0.00000000E+00  0.00000000E+00
  0.00000000E+00  0.00000000E+00  0.00000000E+00
  0.00000000E+00  0.00000000E+00  0.00000000E+00
  0.00000000E+00  0.00000000E+00  0.00000000E+00
  0.00000000E+00  0.00000000E+00  0.00000000E+00
  0.00000000E+00  0.00000000E+00  0.00000000E+00
  0.00000000E+00  0.00000000E+00  0.00000000E+00
  0.00000000E+00  0.00000000E+00  0.00000000E+00
  0.00000000E+00  0.00000000E+00  0.00000000E+00
  0.00000000E+00  0.00000000E+00  0.00000000E+00
  0.00000000E+00  0.00000000E+00  0.00000000E+00
  0.00000000E+00  0.00000000E+00  0.00000000E+00
