Mn1 C124 N2                             
   1.00000000000000     
    19.8383863040721735   -0.0043343719537906    0.0014880332549553
    -9.9233029229373937   17.0606887559834242   -0.0011790138280039
     0.0022386917916121   -0.0007562124250416   29.7340697319785434
   Mn   C    N 
     1   124     2
Direct
  0.4374979861972812  0.5000030465159354  0.4084089994501527
  0.0418390763981000  0.0837817950407971  0.3996793546059043
  0.0409384741450324  0.2081201181804589  0.3994740572544772
  0.0401814193047191  0.3327764064705772  0.3993690110410096
  0.0402313190424763  0.4582366406924050  0.3994719315205867
  0.0412490913017920  0.5837148789651641  0.3997439382471988
  0.0419967035995287  0.7090031055634776  0.3998852720117640
  0.0423245559845772  0.8342823921061536  0.3999173251213842
  0.0423981210261765  0.9593777260385866  0.3998758116460855
  0.1679407371477719  0.0853210824789102  0.4001164326999745
  0.1667779612985297  0.2094014132295607  0.4002242537658715
  0.1650692844029225  0.3335001564020407  0.4001045718820668
  0.1634259990112426  0.4583713711600564  0.3994058273962905
  0.1648635345137650  0.5837014488781175  0.3993514766024544
  0.1662938756493915  0.7089686167001752  0.3997339991391466
  0.1669951182628084  0.8342722335534729  0.3999005407819948
  0.1674243613190495  0.9597295481157238  0.4000312665663558
  0.2924661933797360  0.0850312092023125  0.4001521043283396
  0.2940763158173964  0.2120938395947514  0.4013776240031483
  0.2916625455320008  0.3365937714641411  0.4030927002631864
  0.2865640093471351  0.4585793951058368  0.4029778971873837
  0.2881610072700464  0.5840715447731527  0.4008222114479092
  0.2905661466400218  0.7089544512184943  0.3997676809796304
  0.2915542077158853  0.8339917290234772  0.3996979706886152
  0.2919842289880443  0.9592996713292964  0.3998173246110250
  0.4170019168558869  0.0838047153099828  0.3996974012628615
  0.4176094183933117  0.2094787754331187  0.4005970871895514
  0.4208143013139580  0.3373234414811632  0.4032444910976494
  0.4147537692603397  0.7069045322278962  0.4014415671516770
  0.4160879627756414  0.8327644101228320  0.3998887930713825
  0.4165842433950784  0.9582672410316633  0.3995918223711798
  0.5415868092345220  0.0826289347194521  0.3996880535953084
  0.5420887408048692  0.2078201472720393  0.3997326239433084
  0.5435050210611451  0.3327797358125391  0.4006122895897593
  0.5462905073030685  0.4567683000541376  0.4029846015596076
  0.5470474680464747  0.5817172091415487  0.4049112790761361
  0.5387709147498186  0.7037626666339225  0.4029193762327118
  0.5404907854094634  0.8311913443541763  0.4006695628617493
  0.5412226108556037  0.9571425280766418  0.3998676125148908
  0.6661605710573515  0.0821529666873039  0.3999354619804565
  0.6666293174712478  0.2075043076289412  0.3998031917572302
  0.6676704313764614  0.3327694027638567  0.3995660140012043
  0.6697638545650503  0.4583209351817957  0.3995462703071241
  0.6705364167352200  0.5831509347413476  0.4005134303700112
  0.6671628382228892  0.7071558123524810  0.4009527513937799
  0.6651423112852735  0.8309374919780789  0.4005203411856135
  0.6657659509470604  0.9567399734206027  0.4001412979165260
  0.7909312345915627  0.0821843325489320  0.3999421510553735
  0.7912051518571699  0.2074580264442663  0.3999140540355296
  0.7918069947718881  0.3327826641259677  0.3997978274839262
  0.7929734695915339  0.4582253320037510  0.3994901760638904
  0.7939933902249783  0.5836998049656439  0.3992038207775109
  0.7930483287064783  0.7086388661532036  0.3993675159109317
  0.7916642536149897  0.8328444481271936  0.3996223645562251
  0.7907332849649148  0.9569995124636587  0.3998651477397230
  0.9160423606075475  0.0826956758768414  0.3997516943489755
  0.9158609092657300  0.2075381381004406  0.3997966265024465
  0.9159920243041573  0.3327553389781612  0.3998214889922863
  0.9165736702126080  0.4581821737983243  0.3997917844780801
  0.9175397690876393  0.5837236003794498  0.3997536713928588
  0.9176796879776830  0.7090174239089764  0.3997141148650587
  0.9173529489902978  0.8338422186854696  0.3996885872902219
  0.9166806522383506  0.9583000929747886  0.3996869559151351
  0.0842677609101373  0.0429976955431600  0.3998744436910265
  0.0833369470021517  0.1671561676087098  0.3996310733543294
  0.0819569912470320  0.2913692245330674  0.3993741077897465
  0.0810110621720700  0.4163026987099231  0.3992062830568143
  0.0820296814818319  0.5417751094206791  0.3994903222044390
  0.0831901344019044  0.6672127653076839  0.3998002525781546
  0.0837937105818502  0.7925420783722978  0.3999176773444486
  0.0840743590987252  0.9178198965246364  0.3999534979217619
  0.2092327418801902  0.0432607255814915  0.4001470275819793
  0.2098564352212634  0.1690624836445353  0.4005315018554558
  0.2078340444587948  0.2928415109353766  0.4009670139456753
  0.2044649828728817  0.4168549803395782  0.4005330350741651
  0.2052380476298877  0.5416829189078768  0.3995487635069012
  0.2073250296323484  0.6672280768982323  0.3995663392884476
  0.2083636190482410  0.7924951970986130  0.3997937971850574
  0.2088406671919219  0.9178488214820471  0.3999352379649481
  0.3337742431897910  0.0428560096891019  0.3998681556177943
  0.3345060593584013  0.1688076665073025  0.4006729186269471
  0.3362281014198206  0.2962365113746434  0.4029338305324260
  0.3279538272782332  0.4182815841957486  0.4049320289114560
  0.3287105669568557  0.5432321541118468  0.4029951650850340
  0.3314932249080700  0.6672202105511090  0.4006142271930429
  0.3329080557540045  0.7921798509016248  0.3997295885253259
  0.3334128556452131  0.9173661136288720  0.3996838798892361
  0.4584075096650931  0.0417315201805582  0.3995943565744503
  0.4589095903558424  0.1672380844078582  0.3998887468337475
  0.4602445894287553  0.2930915489529088  0.4014392499913703
  0.4541823010146622  0.6626732211948422  0.4032413158903986
  0.4573869581363673  0.7905190083672908  0.4005963672626158
  0.4579956591971920  0.9161977471144527  0.3996964272345135
  0.5830127062870947  0.0406952365881903  0.3998218522759341
  0.5834399313909567  0.1660033543940378  0.3997052430798357
  0.5844272561434419  0.2910433539901416  0.3997695699936712
  0.5868402887568652  0.4159312568471067  0.4008190253722731
  0.5884392408059678  0.5414223246292461  0.4029559333120939
  0.5833329124845094  0.6634026146599024  0.4030732026660297
  0.5809210591620589  0.7879084535677815  0.4013708838359252
  0.5825307884718013  0.9149694083027426  0.4001517747282676
  0.7075776612392067  0.0402717857715379  0.4000264121476250
  0.7080042434100078  0.1657292196692497  0.3999015740855446
  0.7086954158782545  0.2910287582005990  0.3997358963713594
  0.7101356416949038  0.4162975247015914  0.3993496225317157
  0.7115737901453701  0.5416299536114566  0.3994002339793621
  0.7099364927350356  0.6665039044200168  0.4000898375397747
  0.7082259771500785  0.7905974612231467  0.4002128522979179
  0.7070588601931973  0.9146776056976491  0.4001081361409110
  0.8326031374019357  0.0406238575226243  0.3998650434043569
  0.8326807897387615  0.1657211184907775  0.3999095202429338
  0.8330015806276714  0.2909964321050788  0.3998822720395896
  0.8337475688215438  0.4162827599209256  0.3997413167857398
  0.8347822968680563  0.5417695593834181  0.3994699708161466
  0.8348242158523503  0.6672265778269227  0.3993649372360887
  0.8340634057007752  0.7918827580481331  0.3994720231038581
  0.8331637850907845  0.9162155193073712  0.3996748049864665
  0.9583253200708501  0.0416986664503226  0.3996851993983930
  0.9576511441364256  0.1661531006598466  0.3996749572199648
  0.9573294716454568  0.2909902979483800  0.3997043346120995
  0.9574611424734651  0.4162704444249585  0.3997514164857333
  0.9584268709024584  0.5418147030087578  0.3997928580290664
  0.9590106210400556  0.6672475270995832  0.3998284667713849
  0.9591380274336689  0.7924600123292432  0.3998079914938389
  0.9589588854673730  0.9172998022655757  0.3997670077959076
  0.4088649461883039  0.5818605976684348  0.4047696340862296
  0.4661352020291001  0.4181404194154494  0.4047606775423591
 
  0.00000000E+00  0.00000000E+00  0.00000000E+00
  0.00000000E+00  0.00000000E+00  0.00000000E+00
  0.00000000E+00  0.00000000E+00  0.00000000E+00
  0.00000000E+00  0.00000000E+00  0.00000000E+00
  0.00000000E+00  0.00000000E+00  0.00000000E+00
  0.00000000E+00  0.00000000E+00  0.00000000E+00
  0.00000000E+00  0.00000000E+00  0.00000000E+00
  0.00000000E+00  0.00000000E+00  0.00000000E+00
  0.00000000E+00  0.00000000E+00  0.00000000E+00
  0.00000000E+00  0.00000000E+00  0.00000000E+00
  0.00000000E+00  0.00000000E+00  0.00000000E+00
  0.00000000E+00  0.00000000E+00  0.00000000E+00
  0.00000000E+00  0.00000000E+00  0.00000000E+00
  0.00000000E+00  0.00000000E+00  0.00000000E+00
  0.00000000E+00  0.00000000E+00  0.00000000E+00
  0.00000000E+00  0.00000000E+00  0.00000000E+00
  0.00000000E+00  0.00000000E+00  0.00000000E+00
  0.00000000E+00  0.00000000E+00  0.00000000E+00
  0.00000000E+00  0.00000000E+00  0.00000000E+00
  0.00000000E+00  0.00000000E+00  0.00000000E+00
  0.00000000E+00  0.00000000E+00  0.00000000E+00
  0.00000000E+00  0.00000000E+00  0.00000000E+00
  0.00000000E+00  0.00000000E+00  0.00000000E+00
  0.00000000E+00  0.00000000E+00  0.00000000E+00
  0.00000000E+00  0.00000000E+00  0.00000000E+00
  0.00000000E+00  0.00000000E+00  0.00000000E+00
  0.00000000E+00  0.00000000E+00  0.00000000E+00
  0.00000000E+00  0.00000000E+00  0.00000000E+00
  0.00000000E+00  0.00000000E+00  0.00000000E+00
  0.00000000E+00  0.00000000E+00  0.00000000E+00
  0.00000000E+00  0.00000000E+00  0.00000000E+00
  0.00000000E+00  0.00000000E+00  0.00000000E+00
  0.00000000E+00  0.00000000E+00  0.00000000E+00
  0.00000000E+00  0.00000000E+00  0.00000000E+00
  0.00000000E+00  0.00000000E+00  0.00000000E+00
  0.00000000E+00  0.00000000E+00  0.00000000E+00
  0.00000000E+00  0.00000000E+00  0.00000000E+00
  0.00000000E+00  0.00000000E+00  0.00000000E+00
  0.00000000E+00  0.00000000E+00  0.00000000E+00
  0.00000000E+00  0.00000000E+00  0.00000000E+00
  0.00000000E+00  0.00000000E+00  0.00000000E+00
  0.00000000E+00  0.00000000E+00  0.00000000E+00
  0.00000000E+00  0.00000000E+00  0.00000000E+00
  0.00000000E+00  0.00000000E+00  0.00000000E+00
  0.00000000E+00  0.00000000E+00  0.00000000E+00
  0.00000000E+00  0.00000000E+00  0.00000000E+00
  0.00000000E+00  0.00000000E+00  0.00000000E+00
  0.00000000E+00  0.00000000E+00  0.00000000E+00
  0.00000000E+00  0.00000000E+00  0.00000000E+00
  0.00000000E+00  0.00000000E+00  0.00000000E+00
  0.00000000E+00  0.00000000E+00  0.00000000E+00
  0.00000000E+00  0.00000000E+00  0.00000000E+00
  0.00000000E+00  0.00000000E+00  0.00000000E+00
  0.00000000E+00  0.00000000E+00  0.00000000E+00
  0.00000000E+00  0.00000000E+00  0.00000000E+00
  0.00000000E+00  0.00000000E+00  0.00000000E+00
  0.00000000E+00  0.00000000E+00  0.00000000E+00
  0.00000000E+00  0.00000000E+00  0.00000000E+00
  0.00000000E+00  0.00000000E+00  0.00000000E+00
  0.00000000E+00  0.00000000E+00  0.00000000E+00
  0.00000000E+00  0.00000000E+00  0.00000000E+00
  0.00000000E+00  0.00000000E+00  0.00000000E+00
  0.00000000E+00  0.00000000E+00  0.00000000E+00
  0.00000000E+00  0.00000000E+00  0.00000000E+00
  0.00000000E+00  0.00000000E+00  0.00000000E+00
  0.00000000E+00  0.00000000E+00  0.00000000E+00
  0.00000000E+00  0.00000000E+00  0.00000000E+00
  0.00000000E+00  0.00000000E+00  0.00000000E+00
  0.00000000E+00  0.00000000E+00  0.00000000E+00
  0.00000000E+00  0.00000000E+00  0.00000000E+00
  0.00000000E+00  0.00000000E+00  0.00000000E+00
  0.00000000E+00  0.00000000E+00  0.00000000E+00
  0.00000000E+00  0.00000000E+00  0.00000000E+00
  0.00000000E+00  0.00000000E+00  0.00000000E+00
  0.00000000E+00  0.00000000E+00  0.00000000E+00
  0.00000000E+00  0.00000000E+00  0.00000000E+00
  0.00000000E+00  0.00000000E+00  0.00000000E+00
  0.00000000E+00  0.00000000E+00  0.00000000E+00
  0.00000000E+00  0.00000000E+00  0.00000000E+00
  0.00000000E+00  0.00000000E+00  0.00000000E+00
  0.00000000E+00  0.00000000E+00  0.00000000E+00
  0.00000000E+00  0.00000000E+00  0.00000000E+00
  0.00000000E+00  0.00000000E+00  0.00000000E+00
  0.00000000E+00  0.00000000E+00  0.00000000E+00
  0.00000000E+00  0.00000000E+00  0.00000000E+00
  0.00000000E+00  0.00000000E+00  0.00000000E+00
  0.00000000E+00  0.00000000E+00  0.00000000E+00
  0.00000000E+00  0.00000000E+00  0.00000000E+00
  0.00000000E+00  0.00000000E+00  0.00000000E+00
  0.00000000E+00  0.00000000E+00  0.00000000E+00
  0.00000000E+00  0.00000000E+00  0.00000000E+00
  0.00000000E+00  0.00000000E+00  0.00000000E+00
  0.00000000E+00  0.00000000E+00  0.00000000E+00
  0.00000000E+00  0.00000000E+00  0.00000000E+00
  0.00000000E+00  0.00000000E+00  0.00000000E+00
  0.00000000E+00  0.00000000E+00  0.00000000E+00
  0.00000000E+00  0.00000000E+00  0.00000000E+00
  0.00000000E+00  0.00000000E+00  0.00000000E+00
  0.00000000E+00  0.00000000E+00  0.00000000E+00
  0.00000000E+00  0.00000000E+00  0.00000000E+00
  0.00000000E+00  0.00000000E+00  0.00000000E+00
  0.00000000E+00  0.00000000E+00  0.00000000E+00
  0.00000000E+00  0.00000000E+00  0.00000000E+00
  0.00000000E+00  0.00000000E+00  0.00000000E+00
  0.00000000E+00  0.00000000E+00  0.00000000E+00
  0.00000000E+00  0.00000000E+00  0.00000000E+00
  0.00000000E+00  0.00000000E+00  0.00000000E+00
  0.00000000E+00  0.00000000E+00  0.00000000E+00
  0.00000000E+00  0.00000000E+00  0.00000000E+00
  0.00000000E+00  0.00000000E+00  0.00000000E+00
  0.00000000E+00  0.00000000E+00  0.00000000E+00
  0.00000000E+00  0.00000000E+00  0.00000000E+00
  0.00000000E+00  0.00000000E+00  0.00000000E+00
  0.00000000E+00  0.00000000E+00  0.00000000E+00
  0.00000000E+00  0.00000000E+00  0.00000000E+00
  0.00000000E+00  0.00000000E+00  0.00000000E+00
  0.00000000E+00  0.00000000E+00  0.00000000E+00
  0.00000000E+00  0.00000000E+00  0.00000000E+00
  0.00000000E+00  0.00000000E+00  0.00000000E+00
  0.00000000E+00  0.00000000E+00  0.00000000E+00
  0.00000000E+00  0.00000000E+00  0.00000000E+00
  0.00000000E+00  0.00000000E+00  0.00000000E+00
  0.00000000E+00  0.00000000E+00  0.00000000E+00
  0.00000000E+00  0.00000000E+00  0.00000000E+00
  0.00000000E+00  0.00000000E+00  0.00000000E+00
  0.00000000E+00  0.00000000E+00  0.00000000E+00
  0.00000000E+00  0.00000000E+00  0.00000000E+00
