Y1 H1 C122 N4 O1                        
   1.00000000000000     
    19.8027488259005651    0.0001007043934539   -0.0038497999105271
    -9.9013677273388510   17.0379756591060172    0.0029114540528380
    -0.0058302166809412    0.0016395122632038   29.8234118989174242
   Y    H    C    N    O 
     1     1   122     4     1
Direct
  0.4411765216147969  0.5035743392047342  0.4453366797821811
  0.4908467688411559  0.5553845397092867  0.5402595375495859
  0.0419254739597233  0.0839350048526130  0.3994951224532636
  0.0411085246081484  0.2081992576735654  0.3990950694795760
  0.0403858772493907  0.3329541472768027  0.3988050789739246
  0.0405135697597971  0.4581614406541261  0.3989619240726128
  0.0413010155011237  0.5836363660041209  0.3996972751662936
  0.0420353829375614  0.7090532889008989  0.4000622786191347
  0.0422981905493384  0.8342628348529614  0.4000321581538494
  0.0423798004890238  0.9594207078834260  0.3997931718674163
  0.1679823720190495  0.0854828427423608  0.3996893572864055
  0.1672203880330947  0.2098613935363022  0.3993952353959009
  0.1652132133014173  0.3335741628543210  0.3992085577229690
  0.1644037829185916  0.4584206336954913  0.3980860345954216
  0.1652283302518348  0.5835890095952909  0.3983900857853763
  0.1663262639870718  0.7088282147491909  0.3994779667733097
  0.1669415096566142  0.8342486118077655  0.3999820808846731
  0.1673787446083493  0.9597724614765004  0.3998912886145320
  0.2924613410680339  0.0854760428060100  0.3997015941482783
  0.2938653606167240  0.2127733085179120  0.4008526943816929
  0.2919511001468819  0.3380471072152511  0.4030786033383278
  0.2881799650751569  0.4575462846046698  0.4020601659988238
  0.2888323817209210  0.5828953177007803  0.3987238498021202
  0.2906386023290995  0.7083666574730473  0.3986989757944592
  0.2915628663313246  0.8338221435130554  0.3995242523701272
  0.2920243376049506  0.9594034299188867  0.3997866915518738
  0.4169740134618533  0.0839235322946011  0.3995585508384709
  0.4175870900249684  0.2098696931496783  0.3993695076502474
  0.4210491671143214  0.3381015918629173  0.4023590414794957
  0.4148597843886717  0.7067056849347655  0.3991012075162426
  0.4161079215701220  0.8324983074089177  0.3991473991565009
  0.4166121263796244  0.9582367800792161  0.3997358365452143
  0.5415510423007569  0.0826024754084037  0.3997427764022370
  0.5420578513336574  0.2081759817325185  0.3991915318339935
  0.5433451357821766  0.3335511905205225  0.3988242572912883
  0.5444560645598199  0.4575849332736560  0.4004054294926735
  0.5387160437001944  0.7024656857644060  0.4012209535496121
  0.5406282607018050  0.8305991018952315  0.3996630455422646
  0.5411430181505458  0.9568232524258649  0.3997008646271298
  0.6661784070630368  0.0820856107092095  0.3999870200832001
  0.6665883199672378  0.2074772557115845  0.3997434769590233
  0.6675492717047332  0.3329476114936514  0.3988996127011714
  0.6690608366106140  0.4584313269974729  0.3977665037613938
  0.6691657041404099  0.5829357594896782  0.3978973312576378
  0.6667984169815085  0.7066809908501267  0.3986620419889644
  0.6649362152569321  0.8306085043733135  0.3996210414331364
  0.6657424356639374  0.9565040336574666  0.3998811670922241
  0.7908990976782519  0.0820875455407724  0.3999757921118751
  0.7911883122529009  0.2073893184186297  0.4000420993323456
  0.7917468895905913  0.3327294890924626  0.3998303968507412
  0.7926472826721377  0.4581642966554448  0.3991474008487632
  0.7933678144522057  0.5835817716638746  0.3984863678580778
  0.7927352564782467  0.7083790635855748  0.3986724136231930
  0.7913592075998463  0.8324838866801786  0.3992429378361132
  0.7906454504410781  0.9568203301427852  0.3997566021858698
  0.9160432505154492  0.0826179255472122  0.3996984666270612
  0.9158765205389451  0.2074928407778744  0.3996288024997691
  0.9159880445689551  0.3327413223794468  0.3997398431402138
  0.9166049870999841  0.4582022264803677  0.3999613948780233
  0.9173301226197835  0.5836270240998748  0.3998272314947557
  0.9175060423586379  0.7088303929835255  0.3996056816889255
  0.9172621657369296  0.8338392952464712  0.3996507378709638
  0.9166061138150323  0.9582378961183263  0.3997872370568396
  0.0843019780218573  0.0430992619791316  0.3996092543119025
  0.0836177295889463  0.1674459082516811  0.3991668081678880
  0.0822256739770797  0.2915341076373701  0.3988291954123075
  0.0815975502291826  0.4163019735759232  0.3983890425183191
  0.0823015788675062  0.5417249070228857  0.3989801273116634
  0.0831908100046065  0.6671321698755730  0.3998125478480148
  0.0837332480666590  0.7924801442159101  0.4000929518961932
  0.0840485551378768  0.9178114959193787  0.3999300837149626
  0.2091965406047371  0.0434177669763216  0.3997866317557391
  0.2100268324505447  0.1693661611054438  0.3999687023236056
  0.2082061375202078  0.2933204099168358  0.3998823570796903
  0.2058929746968442  0.4170052762979305  0.3991552042335895
  0.2059260801546642  0.5414632746659636  0.3980263216602208
  0.2073850067238752  0.6669359024758403  0.3988108364131430
  0.2083221633911391  0.7923951034538845  0.3997013247594499
  0.2087367211536572  0.9178026138102130  0.3999229501462516
  0.3337539197667473  0.0430948118183614  0.3996471269249324
  0.3342752756140504  0.1693529741386475  0.3999428330717515
  0.3362572209383872  0.2975585819293781  0.4028153253849144
  0.3305447847984362  0.5423012737018191  0.4013724764363901
  0.3315913143784712  0.6663339348313295  0.3986969411232259
  0.3328505413781422  0.7917114341045273  0.3990964678652796
  0.3333576576651895  0.9172903286473582  0.3997253715561103
  0.4582927998661686  0.0416843245915518  0.3997358684361234
  0.4587932541569574  0.1674520705005509  0.3992427955879231
  0.4600658487817509  0.2933339222392383  0.3995279440353991
  0.4539765846546874  0.6620975242814958  0.4014433192920270
  0.4573276108447599  0.7901383109214679  0.3990746556894882
  0.4579321098503423  0.9160112514272668  0.3995576366709819
  0.5828916142026057  0.0404925450467115  0.3998468629218007
  0.5833473805919909  0.1660595329486252  0.3995654691981365
  0.5842874859806694  0.2915187292238937  0.3988188026309299
  0.5861812335492215  0.4169864145903052  0.3983681311776385
  0.5868027079835805  0.5423105108893659  0.3996034561459889
  0.5830165610027006  0.6620116027752359  0.4005628566630804
  0.5810896537684450  0.7872266373172137  0.4001067663009619
  0.5824587436736963  0.9144658656963617  0.3997231340957888
  0.7075613683106216  0.0401398064506394  0.3999994175834797
  0.7079641695163503  0.1656201996566462  0.4000099968575463
  0.7085977874226831  0.2910445268890357  0.3995361934421415
  0.7097279138831043  0.4163098607540330  0.3984630697864202
  0.7105902272832038  0.5414725983701426  0.3977236177095076
  0.7097571638426271  0.6663621898865772  0.3982456676591398
  0.7077462561597568  0.7901106455676834  0.3990303988288547
  0.7069653604509182  0.9144619934074015  0.3997354519909594
  0.8325885009971765  0.0404999457237184  0.3998513735426025
  0.8326346131931088  0.1656341975494816  0.3999527612980469
  0.8329107566640575  0.2908193528644139  0.3999832888896976
  0.8336328280719026  0.4162368385001741  0.3997898721599280
  0.8344279290660086  0.5417125314935844  0.3991783591992420
  0.8345500154875692  0.6669390255278637  0.3989110272218100
  0.8338580053311888  0.7917210709174272  0.3991982207936964
  0.8330475802385365  0.9159949777715549  0.3996565706930895
  0.9583681121334531  0.0416834306772625  0.3997068879489000
  0.9576982462045160  0.1660741694002013  0.3994539743683129
  0.9574343540637462  0.2910527128618292  0.3994004988693173
  0.9576035425611589  0.4162401588987804  0.3996620435412455
  0.9583355087186144  0.5416585782434163  0.3999730422853279
  0.9589565782310344  0.6671378724557961  0.3999046802205812
  0.9590665207197708  0.7924012051703127  0.3998089129886335
  0.9589268158878996  0.9172994916241771  0.3997867889428377
  0.4105724820670299  0.5824428138510236  0.4046937995789997
  0.5467740095410196  0.5822856914579800  0.4025522040226497
  0.3281647333908846  0.4176887288177835  0.4068123166479014
  0.4646123412426156  0.4178776772630430  0.4050364422951169
  0.4708950248279858  0.5354261704816270  0.5108508062044079
 
  0.00000000E+00  0.00000000E+00  0.00000000E+00
  0.00000000E+00  0.00000000E+00  0.00000000E+00
  0.00000000E+00  0.00000000E+00  0.00000000E+00
  0.00000000E+00  0.00000000E+00  0.00000000E+00
  0.00000000E+00  0.00000000E+00  0.00000000E+00
  0.00000000E+00  0.00000000E+00  0.00000000E+00
  0.00000000E+00  0.00000000E+00  0.00000000E+00
  0.00000000E+00  0.00000000E+00  0.00000000E+00
  0.00000000E+00  0.00000000E+00  0.00000000E+00
  0.00000000E+00  0.00000000E+00  0.00000000E+00
  0.00000000E+00  0.00000000E+00  0.00000000E+00
  0.00000000E+00  0.00000000E+00  0.00000000E+00
  0.00000000E+00  0.00000000E+00  0.00000000E+00
  0.00000000E+00  0.00000000E+00  0.00000000E+00
  0.00000000E+00  0.00000000E+00  0.00000000E+00
  0.00000000E+00  0.00000000E+00  0.00000000E+00
  0.00000000E+00  0.00000000E+00  0.00000000E+00
  0.00000000E+00  0.00000000E+00  0.00000000E+00
  0.00000000E+00  0.00000000E+00  0.00000000E+00
  0.00000000E+00  0.00000000E+00  0.00000000E+00
  0.00000000E+00  0.00000000E+00  0.00000000E+00
  0.00000000E+00  0.00000000E+00  0.00000000E+00
  0.00000000E+00  0.00000000E+00  0.00000000E+00
  0.00000000E+00  0.00000000E+00  0.00000000E+00
  0.00000000E+00  0.00000000E+00  0.00000000E+00
  0.00000000E+00  0.00000000E+00  0.00000000E+00
  0.00000000E+00  0.00000000E+00  0.00000000E+00
  0.00000000E+00  0.00000000E+00  0.00000000E+00
  0.00000000E+00  0.00000000E+00  0.00000000E+00
  0.00000000E+00  0.00000000E+00  0.00000000E+00
  0.00000000E+00  0.00000000E+00  0.00000000E+00
  0.00000000E+00  0.00000000E+00  0.00000000E+00
  0.00000000E+00  0.00000000E+00  0.00000000E+00
  0.00000000E+00  0.00000000E+00  0.00000000E+00
  0.00000000E+00  0.00000000E+00  0.00000000E+00
  0.00000000E+00  0.00000000E+00  0.00000000E+00
  0.00000000E+00  0.00000000E+00  0.00000000E+00
  0.00000000E+00  0.00000000E+00  0.00000000E+00
  0.00000000E+00  0.00000000E+00  0.00000000E+00
  0.00000000E+00  0.00000000E+00  0.00000000E+00
  0.00000000E+00  0.00000000E+00  0.00000000E+00
  0.00000000E+00  0.00000000E+00  0.00000000E+00
  0.00000000E+00  0.00000000E+00  0.00000000E+00
  0.00000000E+00  0.00000000E+00  0.00000000E+00
  0.00000000E+00  0.00000000E+00  0.00000000E+00
  0.00000000E+00  0.00000000E+00  0.00000000E+00
  0.00000000E+00  0.00000000E+00  0.00000000E+00
  0.00000000E+00  0.00000000E+00  0.00000000E+00
  0.00000000E+00  0.00000000E+00  0.00000000E+00
  0.00000000E+00  0.00000000E+00  0.00000000E+00
  0.00000000E+00  0.00000000E+00  0.00000000E+00
  0.00000000E+00  0.00000000E+00  0.00000000E+00
  0.00000000E+00  0.00000000E+00  0.00000000E+00
  0.00000000E+00  0.00000000E+00  0.00000000E+00
  0.00000000E+00  0.00000000E+00  0.00000000E+00
  0.00000000E+00  0.00000000E+00  0.00000000E+00
  0.00000000E+00  0.00000000E+00  0.00000000E+00
  0.00000000E+00  0.00000000E+00  0.00000000E+00
  0.00000000E+00  0.00000000E+00  0.00000000E+00
  0.00000000E+00  0.00000000E+00  0.00000000E+00
  0.00000000E+00  0.00000000E+00  0.00000000E+00
  0.00000000E+00  0.00000000E+00  0.00000000E+00
  0.00000000E+00  0.00000000E+00  0.00000000E+00
  0.00000000E+00  0.00000000E+00  0.00000000E+00
  0.00000000E+00  0.00000000E+00  0.00000000E+00
  0.00000000E+00  0.00000000E+00  0.00000000E+00
  0.00000000E+00  0.00000000E+00  0.00000000E+00
  0.00000000E+00  0.00000000E+00  0.00000000E+00
  0.00000000E+00  0.00000000E+00  0.00000000E+00
  0.00000000E+00  0.00000000E+00  0.00000000E+00
  0.00000000E+00  0.00000000E+00  0.00000000E+00
  0.00000000E+00  0.00000000E+00  0.00000000E+00
  0.00000000E+00  0.00000000E+00  0.00000000E+00
  0.00000000E+00  0.00000000E+00  0.00000000E+00
  0.00000000E+00  0.00000000E+00  0.00000000E+00
  0.00000000E+00  0.00000000E+00  0.00000000E+00
  0.00000000E+00  0.00000000E+00  0.00000000E+00
  0.00000000E+00  0.00000000E+00  0.00000000E+00
  0.00000000E+00  0.00000000E+00  0.00000000E+00
  0.00000000E+00  0.00000000E+00  0.00000000E+00
  0.00000000E+00  0.00000000E+00  0.00000000E+00
  0.00000000E+00  0.00000000E+00  0.00000000E+00
  0.00000000E+00  0.00000000E+00  0.00000000E+00
  0.00000000E+00  0.00000000E+00  0.00000000E+00
  0.00000000E+00  0.00000000E+00  0.00000000E+00
  0.00000000E+00  0.00000000E+00  0.00000000E+00
  0.00000000E+00  0.00000000E+00  0.00000000E+00
  0.00000000E+00  0.00000000E+00  0.00000000E+00
  0.00000000E+00  0.00000000E+00  0.00000000E+00
  0.00000000E+00  0.00000000E+00  0.00000000E+00
  0.00000000E+00  0.00000000E+00  0.00000000E+00
  0.00000000E+00  0.00000000E+00  0.00000000E+00
  0.00000000E+00  0.00000000E+00  0.00000000E+00
  0.00000000E+00  0.00000000E+00  0.00000000E+00
  0.00000000E+00  0.00000000E+00  0.00000000E+00
  0.00000000E+00  0.00000000E+00  0.00000000E+00
  0.00000000E+00  0.00000000E+00  0.00000000E+00
  0.00000000E+00  0.00000000E+00  0.00000000E+00
  0.00000000E+00  0.00000000E+00  0.00000000E+00
  0.00000000E+00  0.00000000E+00  0.00000000E+00
  0.00000000E+00  0.00000000E+00  0.00000000E+00
  0.00000000E+00  0.00000000E+00  0.00000000E+00
  0.00000000E+00  0.00000000E+00  0.00000000E+00
  0.00000000E+00  0.00000000E+00  0.00000000E+00
  0.00000000E+00  0.00000000E+00  0.00000000E+00
  0.00000000E+00  0.00000000E+00  0.00000000E+00
  0.00000000E+00  0.00000000E+00  0.00000000E+00
  0.00000000E+00  0.00000000E+00  0.00000000E+00
  0.00000000E+00  0.00000000E+00  0.00000000E+00
  0.00000000E+00  0.00000000E+00  0.00000000E+00
  0.00000000E+00  0.00000000E+00  0.00000000E+00
  0.00000000E+00  0.00000000E+00  0.00000000E+00
  0.00000000E+00  0.00000000E+00  0.00000000E+00
  0.00000000E+00  0.00000000E+00  0.00000000E+00
  0.00000000E+00  0.00000000E+00  0.00000000E+00
  0.00000000E+00  0.00000000E+00  0.00000000E+00
  0.00000000E+00  0.00000000E+00  0.00000000E+00
  0.00000000E+00  0.00000000E+00  0.00000000E+00
  0.00000000E+00  0.00000000E+00  0.00000000E+00
  0.00000000E+00  0.00000000E+00  0.00000000E+00
  0.00000000E+00  0.00000000E+00  0.00000000E+00
  0.00000000E+00  0.00000000E+00  0.00000000E+00
  0.00000000E+00  0.00000000E+00  0.00000000E+00
  0.00000000E+00  0.00000000E+00  0.00000000E+00
  0.00000000E+00  0.00000000E+00  0.00000000E+00
  0.00000000E+00  0.00000000E+00  0.00000000E+00
  0.00000000E+00  0.00000000E+00  0.00000000E+00
  0.00000000E+00  0.00000000E+00  0.00000000E+00
  0.00000000E+00  0.00000000E+00  0.00000000E+00
