Ta1 H1 C126 O2                          
   1.00000000000000     
    19.8141123691993357   -0.0010178454725074   -0.1626822814084621
    -9.9076003301919435   17.0814047886582365   -0.1156215581567603
    -0.2436250979208454   -0.3422449250758062   29.7374465936682597
   Ta   H    C    O 
     1     1   126     2
Direct
  0.4334067899475986  0.5016324801850399  0.4373295107118689
  0.5405602508750722  0.5599053188949814  0.5121132141834132
  0.0418242726311685  0.0837234186179055  0.3995420491231909
  0.0409660260133623  0.2079581348836616  0.3994763608389485
  0.0406124150153413  0.3328277528085172  0.3993156711050561
  0.0407732146321098  0.4583898084929069  0.3991767951592831
  0.0415286887278606  0.5838388214769822  0.3993011962027306
  0.0422303493920850  0.7091554635469365  0.3993899880845474
  0.0425679435825326  0.8344794840870269  0.3994608136878856
  0.0425069726784437  0.9593907515770913  0.3995050160394174
  0.1676498273562164  0.0849527661609680  0.4002067717467259
  0.1666916677582648  0.2089917153386837  0.4003177152538824
  0.1652918913394225  0.3330247380416282  0.4000413886785206
  0.1644384563028699  0.4582936227369325  0.3994677034541614
  0.1654711532324641  0.5837360916589236  0.3991374222100622
  0.1666338106102740  0.7092100803972197  0.3993690248633547
  0.1672101817089658  0.8345081292910199  0.3996252783179844
  0.1675717200053637  0.9598133293064924  0.3999474223190811
  0.2927154532649214  0.0850451942055308  0.4002713772028097
  0.2934108818633220  0.2111954873476659  0.4021852737755722
  0.2916080621469795  0.3351817591521953  0.4036549046705740
  0.2875923448046977  0.4574564920300120  0.4023252637626638
  0.2891612800272550  0.5841218765285410  0.4001920164655999
  0.2910322405250574  0.7091591998812382  0.3990840647003693
  0.2917494604161295  0.8341741460995358  0.3990962959094158
  0.2921987541626847  0.9594848981785372  0.3995132411350035
  0.4172555755851280  0.0840300906001227  0.3993782384904606
  0.4178095262682699  0.2095612882828312  0.4006518915761382
  0.4198130900159536  0.3364854949226382  0.4063802897182265
  0.4122716335572940  0.5832572018492650  0.4050394945851789
  0.4157623106186734  0.7081019427283153  0.4002877235068406
  0.4164079193785466  0.8333876204021370  0.3991137660311201
  0.4167809733514150  0.9586314920880050  0.3990193592077000
  0.5418134843108203  0.0829035918220955  0.3992708306894523
  0.5423750985544219  0.2081599890016168  0.3992853273168069
  0.5431886423307244  0.3332905782991744  0.4003859928121716
  0.5459892543995498  0.4578257896536854  0.4056689635806127
  0.5466343473181476  0.5822063288126172  0.4113015233266380
  0.5411027184290015  0.7063704625666182  0.4044432001623648
  0.5410802234821962  0.8320489590273388  0.4002200016358894
  0.5414712638302748  0.9575561914332923  0.3993446320286244
  0.6664354181598729  0.0824034246998724  0.3995033593086962
  0.6668734799009262  0.2076894541693368  0.3992274406476479
  0.6675001370136248  0.3328918682525980  0.3987094091518583
  0.6691359227312459  0.4583241303190994  0.3985273337830846
  0.6701597562708793  0.5840300141016223  0.4003471654128506
  0.6672467366761410  0.7075038403970998  0.4015518678571231
  0.6663605234759977  0.8320021916377610  0.4005647732595966
  0.6662805344620368  0.9572117889301690  0.3997870655037456
  0.7912590971606580  0.0823988581328196  0.3995158660094660
  0.7914040590356133  0.2074985496270041  0.3995007712756024
  0.7919324702866344  0.3328823299411821  0.3989754966446902
  0.7928781155241390  0.4583840405036033  0.3983705855421713
  0.7934649970576745  0.5836797440208272  0.3982013364091624
  0.7932512559631146  0.7089910435268603  0.3988129894015469
  0.7919679384121886  0.8330476571455329  0.3990479645090408
  0.7912948108562436  0.9574645225547145  0.3992987996037934
  0.9162884732051925  0.0827893692054965  0.3993317383276297
  0.9160913586381169  0.2076684194551458  0.3995216612044913
  0.9162513534676326  0.3329123998216822  0.3993255061819250
  0.9167552792941238  0.4582311476023826  0.3990089239231446
  0.9175672316344371  0.5838195916502604  0.3988524628000591
  0.9178360386928067  0.7091993210429759  0.3988185243417979
  0.9175926999142636  0.8340542999185269  0.3988830094212715
  0.9168754010046974  0.9583717244656995  0.3989837421756835
  0.0841265690158046  0.0427974186231475  0.3997160018660212
  0.0832147362095155  0.1669495408579303  0.3997014293232580
  0.0820507745038890  0.2911736332272007  0.3994559480086330
  0.0818901725509757  0.4165593239620036  0.3991654228143628
  0.0825273737677897  0.5419114188565263  0.3992173897301438
  0.0834811325412541  0.6673901772264613  0.3994165744628315
  0.0840642634951224  0.7928261667844745  0.3995644877044742
  0.0842369894503528  0.9179524767955634  0.3996888206179209
  0.2093081370452618  0.0432131635754628  0.4002438263183554
  0.2092929718795464  0.1684156029102903  0.4007821249735204
  0.2078720240715480  0.2922964881667172  0.4008208480539080
  0.2052044402899320  0.4162557353918406  0.4003817833696436
  0.2062850538865996  0.5420117597982399  0.3994187017049442
  0.2079275034818839  0.6674817378990657  0.3991832147915736
  0.2085636582545811  0.7926567610072587  0.3993820248204433
  0.2090444283622793  0.9179734901902840  0.3997476479899587
  0.3340255450947723  0.0429284791315504  0.3996736514702587
  0.3346611968614446  0.1685355671592371  0.4011034748973142
  0.3351793848830981  0.2944527354271041  0.4049948970922175
  0.3292867174079273  0.4174503931794679  0.4052291087405507
  0.3304209838306333  0.5430788130839775  0.4022169885659831
  0.3324348202276470  0.6673198010763833  0.3996453032846582
  0.3331375256661248  0.7923645120707984  0.3989853396341370
  0.3336270844933875  0.9175450592325014  0.3991403423535795
  0.4586490412415474  0.0419666431472765  0.3991535483016657
  0.4591270018680155  0.1673284516316357  0.3995724800576441
  0.4600485384807618  0.2931102491483812  0.4020371482732184
  0.4651811259870212  0.4191598065284797  0.4113474699865134
  0.4567488999252115  0.6654304622552361  0.4031806488449581
  0.4578781048948443  0.7914004834568872  0.3997203190755284
  0.4582367067697455  0.9166264195032604  0.3990772598584108
  0.5832670872581712  0.0409609954945250  0.3993873623199741
  0.5837101082281757  0.1662739340455348  0.3992362126554239
  0.5844247511979702  0.2913374328111111  0.3991806005373227
  0.5863807590911171  0.4164024899080274  0.4005082230278417
  0.5885754893735948  0.5430018124315628  0.4056297879981055
  0.5837763687316305  0.6644876058914737  0.4060027246112498
  0.5824783510095631  0.7893936881131880  0.4015888358611748
  0.5828798362246955  0.9154775877548509  0.3997411817650984
  0.7079404821912785  0.0405801219335012  0.3995786636692118
  0.7082528759979680  0.1658639636134222  0.3994350612813165
  0.7087703393476683  0.2911188119395782  0.3989384381076203
  0.7099193936236591  0.4165930865612446  0.3982593891468987
  0.7109596449297283  0.5419632927158655  0.3984626239737846
  0.7100972637707894  0.6671431938830530  0.4000144537720396
  0.7084764004100048  0.7909422259732611  0.4001165630272812
  0.7078883174907284  0.9154234329764832  0.3998110887288631
  0.8329264354145838  0.0408857085269355  0.3993511728253081
  0.8328791591837618  0.1658388845952341  0.3995698175818407
  0.8332160143789346  0.2911538096177455  0.3993116578329556
  0.8338708277989159  0.4164400849856633  0.3987699066268796
  0.8346207378277853  0.5418703857610879  0.3983948999729254
  0.8347663558449143  0.6674153090875479  0.3985476704222825
  0.8343680277397783  0.7921923401358997  0.3987997034134620
  0.8334256261955751  0.9163597036131247  0.3989791130118698
  0.9583645854368100  0.0417053744859259  0.3992348854896925
  0.9577560891993360  0.1661479609904183  0.3994332050963925
  0.9576058359293477  0.2911092818720172  0.3994265196634313
  0.9578394400057777  0.4164471987565863  0.3991853527461106
  0.9586381433072725  0.5420132018628839  0.3990861505699658
  0.9591959326237475  0.6673884382242443  0.3990257816398509
  0.9593488041943339  0.7926209860654916  0.3990449913275412
  0.9590922314648532  0.9174195884241777  0.3990772993333201
  0.5025431923646927  0.5054508115510565  0.5034576323533058
  0.4275359264851545  0.5061157705544610  0.5037319956566190
 
  0.00000000E+00  0.00000000E+00  0.00000000E+00
  0.00000000E+00  0.00000000E+00  0.00000000E+00
  0.00000000E+00  0.00000000E+00  0.00000000E+00
  0.00000000E+00  0.00000000E+00  0.00000000E+00
  0.00000000E+00  0.00000000E+00  0.00000000E+00
  0.00000000E+00  0.00000000E+00  0.00000000E+00
  0.00000000E+00  0.00000000E+00  0.00000000E+00
  0.00000000E+00  0.00000000E+00  0.00000000E+00
  0.00000000E+00  0.00000000E+00  0.00000000E+00
  0.00000000E+00  0.00000000E+00  0.00000000E+00
  0.00000000E+00  0.00000000E+00  0.00000000E+00
  0.00000000E+00  0.00000000E+00  0.00000000E+00
  0.00000000E+00  0.00000000E+00  0.00000000E+00
  0.00000000E+00  0.00000000E+00  0.00000000E+00
  0.00000000E+00  0.00000000E+00  0.00000000E+00
  0.00000000E+00  0.00000000E+00  0.00000000E+00
  0.00000000E+00  0.00000000E+00  0.00000000E+00
  0.00000000E+00  0.00000000E+00  0.00000000E+00
  0.00000000E+00  0.00000000E+00  0.00000000E+00
  0.00000000E+00  0.00000000E+00  0.00000000E+00
  0.00000000E+00  0.00000000E+00  0.00000000E+00
  0.00000000E+00  0.00000000E+00  0.00000000E+00
  0.00000000E+00  0.00000000E+00  0.00000000E+00
  0.00000000E+00  0.00000000E+00  0.00000000E+00
  0.00000000E+00  0.00000000E+00  0.00000000E+00
  0.00000000E+00  0.00000000E+00  0.00000000E+00
  0.00000000E+00  0.00000000E+00  0.00000000E+00
  0.00000000E+00  0.00000000E+00  0.00000000E+00
  0.00000000E+00  0.00000000E+00  0.00000000E+00
  0.00000000E+00  0.00000000E+00  0.00000000E+00
  0.00000000E+00  0.00000000E+00  0.00000000E+00
  0.00000000E+00  0.00000000E+00  0.00000000E+00
  0.00000000E+00  0.00000000E+00  0.00000000E+00
  0.00000000E+00  0.00000000E+00  0.00000000E+00
  0.00000000E+00  0.00000000E+00  0.00000000E+00
  0.00000000E+00  0.00000000E+00  0.00000000E+00
  0.00000000E+00  0.00000000E+00  0.00000000E+00
  0.00000000E+00  0.00000000E+00  0.00000000E+00
  0.00000000E+00  0.00000000E+00  0.00000000E+00
  0.00000000E+00  0.00000000E+00  0.00000000E+00
  0.00000000E+00  0.00000000E+00  0.00000000E+00
  0.00000000E+00  0.00000000E+00  0.00000000E+00
  0.00000000E+00  0.00000000E+00  0.00000000E+00
  0.00000000E+00  0.00000000E+00  0.00000000E+00
  0.00000000E+00  0.00000000E+00  0.00000000E+00
  0.00000000E+00  0.00000000E+00  0.00000000E+00
  0.00000000E+00  0.00000000E+00  0.00000000E+00
  0.00000000E+00  0.00000000E+00  0.00000000E+00
  0.00000000E+00  0.00000000E+00  0.00000000E+00
  0.00000000E+00  0.00000000E+00  0.00000000E+00
  0.00000000E+00  0.00000000E+00  0.00000000E+00
  0.00000000E+00  0.00000000E+00  0.00000000E+00
  0.00000000E+00  0.00000000E+00  0.00000000E+00
  0.00000000E+00  0.00000000E+00  0.00000000E+00
  0.00000000E+00  0.00000000E+00  0.00000000E+00
  0.00000000E+00  0.00000000E+00  0.00000000E+00
  0.00000000E+00  0.00000000E+00  0.00000000E+00
  0.00000000E+00  0.00000000E+00  0.00000000E+00
  0.00000000E+00  0.00000000E+00  0.00000000E+00
  0.00000000E+00  0.00000000E+00  0.00000000E+00
  0.00000000E+00  0.00000000E+00  0.00000000E+00
  0.00000000E+00  0.00000000E+00  0.00000000E+00
  0.00000000E+00  0.00000000E+00  0.00000000E+00
  0.00000000E+00  0.00000000E+00  0.00000000E+00
  0.00000000E+00  0.00000000E+00  0.00000000E+00
  0.00000000E+00  0.00000000E+00  0.00000000E+00
  0.00000000E+00  0.00000000E+00  0.00000000E+00
  0.00000000E+00  0.00000000E+00  0.00000000E+00
  0.00000000E+00  0.00000000E+00  0.00000000E+00
  0.00000000E+00  0.00000000E+00  0.00000000E+00
  0.00000000E+00  0.00000000E+00  0.00000000E+00
  0.00000000E+00  0.00000000E+00  0.00000000E+00
  0.00000000E+00  0.00000000E+00  0.00000000E+00
  0.00000000E+00  0.00000000E+00  0.00000000E+00
  0.00000000E+00  0.00000000E+00  0.00000000E+00
  0.00000000E+00  0.00000000E+00  0.00000000E+00
  0.00000000E+00  0.00000000E+00  0.00000000E+00
  0.00000000E+00  0.00000000E+00  0.00000000E+00
  0.00000000E+00  0.00000000E+00  0.00000000E+00
  0.00000000E+00  0.00000000E+00  0.00000000E+00
  0.00000000E+00  0.00000000E+00  0.00000000E+00
  0.00000000E+00  0.00000000E+00  0.00000000E+00
  0.00000000E+00  0.00000000E+00  0.00000000E+00
  0.00000000E+00  0.00000000E+00  0.00000000E+00
  0.00000000E+00  0.00000000E+00  0.00000000E+00
  0.00000000E+00  0.00000000E+00  0.00000000E+00
  0.00000000E+00  0.00000000E+00  0.00000000E+00
  0.00000000E+00  0.00000000E+00  0.00000000E+00
  0.00000000E+00  0.00000000E+00  0.00000000E+00
  0.00000000E+00  0.00000000E+00  0.00000000E+00
  0.00000000E+00  0.00000000E+00  0.00000000E+00
  0.00000000E+00  0.00000000E+00  0.00000000E+00
  0.00000000E+00  0.00000000E+00  0.00000000E+00
  0.00000000E+00  0.00000000E+00  0.00000000E+00
  0.00000000E+00  0.00000000E+00  0.00000000E+00
  0.00000000E+00  0.00000000E+00  0.00000000E+00
  0.00000000E+00  0.00000000E+00  0.00000000E+00
  0.00000000E+00  0.00000000E+00  0.00000000E+00
  0.00000000E+00  0.00000000E+00  0.00000000E+00
  0.00000000E+00  0.00000000E+00  0.00000000E+00
  0.00000000E+00  0.00000000E+00  0.00000000E+00
  0.00000000E+00  0.00000000E+00  0.00000000E+00
  0.00000000E+00  0.00000000E+00  0.00000000E+00
  0.00000000E+00  0.00000000E+00  0.00000000E+00
  0.00000000E+00  0.00000000E+00  0.00000000E+00
  0.00000000E+00  0.00000000E+00  0.00000000E+00
  0.00000000E+00  0.00000000E+00  0.00000000E+00
  0.00000000E+00  0.00000000E+00  0.00000000E+00
  0.00000000E+00  0.00000000E+00  0.00000000E+00
  0.00000000E+00  0.00000000E+00  0.00000000E+00
  0.00000000E+00  0.00000000E+00  0.00000000E+00
  0.00000000E+00  0.00000000E+00  0.00000000E+00
  0.00000000E+00  0.00000000E+00  0.00000000E+00
  0.00000000E+00  0.00000000E+00  0.00000000E+00
  0.00000000E+00  0.00000000E+00  0.00000000E+00
  0.00000000E+00  0.00000000E+00  0.00000000E+00
  0.00000000E+00  0.00000000E+00  0.00000000E+00
  0.00000000E+00  0.00000000E+00  0.00000000E+00
  0.00000000E+00  0.00000000E+00  0.00000000E+00
  0.00000000E+00  0.00000000E+00  0.00000000E+00
  0.00000000E+00  0.00000000E+00  0.00000000E+00
  0.00000000E+00  0.00000000E+00  0.00000000E+00
  0.00000000E+00  0.00000000E+00  0.00000000E+00
  0.00000000E+00  0.00000000E+00  0.00000000E+00
  0.00000000E+00  0.00000000E+00  0.00000000E+00
  0.00000000E+00  0.00000000E+00  0.00000000E+00
  0.00000000E+00  0.00000000E+00  0.00000000E+00
  0.00000000E+00  0.00000000E+00  0.00000000E+00
  0.00000000E+00  0.00000000E+00  0.00000000E+00
  0.00000000E+00  0.00000000E+00  0.00000000E+00
