Ru1 C124 N2 O1                          
   1.00000000000000     
    19.8003757928772579   -0.0193018790420254   -0.0775102884153056
    -9.9171171505950397   17.0341169031234188    0.0030399176287263
    -0.1167969219656835   -0.0627090696398498   29.8513605685800343
   Ru   C    N    O 
     1   124     2     1
Direct
  0.4383741139347474  0.5009069611831067  0.4302642736008227
  0.0425298051036556  0.0845175463593154  0.3997201798793769
  0.0418209090297299  0.2087424443164407  0.3994167761289049
  0.0409176232899181  0.3331988168547492  0.3990626165213549
  0.0406340605342422  0.4583725293086683  0.3992496732382982
  0.0413471939484586  0.5838287241373120  0.3997606641584155
  0.0419943861369757  0.7092221246528166  0.3998537410146812
  0.0422821675258934  0.8344597225963177  0.3999172636423810
  0.0424939562140711  0.9596880622517181  0.3999343136988428
  0.1683916150408691  0.0859784574552680  0.4001979439626797
  0.1685829887279396  0.2112018888337555  0.4001262841227384
  0.1665627356044239  0.3345819889514125  0.3993057318312258
  0.1645100928594139  0.4588290647626949  0.3986202330535925
  0.1652431785750632  0.5839133784018440  0.3991074863959609
  0.1663280378775159  0.7091377613291210  0.3998041981036428
  0.1669799831810977  0.8344982441914121  0.3997897527645439
  0.1675310528510305  0.9600345263535834  0.3998934956568840
  0.2927752739882726  0.0855341404348079  0.4002450718672587
  0.2946100090354021  0.2127684888268489  0.4016862226915396
  0.2952927025745562  0.3395077624965315  0.4027179464341597
  0.2886831530323027  0.4603537016208997  0.4008127489843308
  0.2889651891622105  0.5842246706362546  0.3998841391702442
  0.2906560409589152  0.7088937561339649  0.3998817007551347
  0.2916029866097519  0.8340862200863756  0.3997472329702126
  0.2921493038650104  0.9595793416301803  0.3996330613003734
  0.4171864976060551  0.0841018743237213  0.3998446042712435
  0.4179342003178531  0.2103386376079457  0.4008085651622947
  0.4210106530993560  0.3386286399095849  0.4034884958192234
  0.4146732346386205  0.7058972264622796  0.4014514305890503
  0.4160729786950406  0.8323241510302704  0.3999523058644641
  0.4166907586807826  0.9582477475251723  0.3995848427062240
  0.5416756199465247  0.0825333384653638  0.3996788788245936
  0.5422258138404924  0.2079393924529381  0.4000787480533998
  0.5435333416032972  0.3329923829617718  0.4004879490901523
  0.5456610030263134  0.4569820562386485  0.4006559489005773
  0.5424521215434498  0.5774212098793166  0.4035583115798712
  0.5379184274961303  0.7026112950836811  0.4033408758512930
  0.5403274373454117  0.8305576138240315  0.4008105298565952
  0.5411756543661481  0.9568193036377548  0.3997783336297270
  0.6662682721363279  0.0819290537206122  0.3997487433340341
  0.6667775224413278  0.2073670645043508  0.3998958464993054
  0.6677154000977721  0.3327658418955221  0.3997417357228916
  0.6692076149895767  0.4581120873112225  0.3987887558371216
  0.6690386760067336  0.5823419543782291  0.3980564877854398
  0.6647912576591145  0.7049785838055096  0.3997892425887389
  0.6644627996862643  0.8300619000486972  0.4004658755853514
  0.6656529021246829  0.9562545387598881  0.4000853001842569
  0.7910539052467036  0.0819849895594082  0.3999671788410727
  0.7913789437988086  0.2072831196220821  0.3998162678542357
  0.7919747512243638  0.3326867734313919  0.3998814405014499
  0.7928348024468425  0.4581304788331361  0.3994757360247810
  0.7934061452316672  0.5834575338210367  0.3987988152573421
  0.7920994946533731  0.7079937616266898  0.3988949801265754
  0.7906269874082630  0.8318140492777810  0.3995168495337757
  0.7905697355836629  0.9566033883276717  0.3998643250842652
  0.9163590456821661  0.0827746761715098  0.3997805410348775
  0.9162415342233540  0.2075932114084663  0.3996617396673137
  0.9162832424739175  0.3327793118589834  0.3996113491411284
  0.9167480575248292  0.4582517370128306  0.3998127549445827
  0.9174062639021605  0.5837243890235149  0.3996984531355282
  0.9173729744903344  0.7089300250171441  0.3994969780714016
  0.9170217973768137  0.8337382524195728  0.3996765499235231
  0.9165760097616841  0.9582240085908824  0.3997558369966094
  0.0846426320065944  0.0434888904060937  0.3999056181648136
  0.0846124268938784  0.1683030222051838  0.3996182492080950
  0.0831272117532622  0.2921177983001155  0.3991299515894895
  0.0817519962024693  0.4166156681569370  0.3988556043262957
  0.0822976114736198  0.5419437569088332  0.3993521110118191
  0.0831737020011616  0.6673740004524831  0.3998494047215181
  0.0837669319886642  0.7927731134583353  0.3998624672088915
  0.0841420880666922  0.9180842564172628  0.3999702409639028
  0.2095157874709940  0.0437854204452585  0.4001163875188554
  0.2107416462744007  0.1700152863013311  0.4006962930425987
  0.2104766087654292  0.2951446889530350  0.4003525120422505
  0.2061836097241316  0.4177678084631750  0.3989311567263530
  0.2059550440478671  0.5419858405401292  0.3988228756352371
  0.2074016958627755  0.6673101091602911  0.3995601482097449
  0.2083494412018655  0.7926914125124226  0.3998240511276575
  0.2088913131505842  0.9181133365718679  0.3997274602237858
  0.3339662060859668  0.0432054483649299  0.3998441431024243
  0.3348223392991905  0.1694786090863881  0.4009671540523020
  0.3373508399016776  0.2974897082822906  0.4032526968089607
  0.3330345245141799  0.4227694930858268  0.4046409758910791
  0.3294365832867672  0.5431047736041263  0.4019233849677062
  0.3316115141687546  0.6670992958861247  0.4004879193550117
  0.3329040632532352  0.7921198068418684  0.3998868628517252
  0.3334908105992137  0.9175050831595227  0.3996063321060604
  0.4584870681312903  0.0417815973988449  0.3996388920629919
  0.4590653763745131  0.1677024158173599  0.4001832089242268
  0.4604815454337631  0.2941414338471711  0.4014374284204131
  0.4542676532356275  0.6615182524047177  0.4040927014934892
  0.4572210908044647  0.7896932953013858  0.4005824843247748
  0.4579705299042757  0.9159157280622086  0.3997209361728529
  0.5830153545400141  0.0404543449092476  0.3996576737118589
  0.5835309220213550  0.1659641119075662  0.3998716109149940
  0.5844617660052422  0.2911795545179991  0.4000471946192324
  0.5862099156712295  0.4158995052469160  0.3996457508942368
  0.5865722591217559  0.5397766531254772  0.3993841132874972
  0.5800523268845268  0.6606268937268700  0.4022137866298040
  0.5805981112738771  0.7872966284312291  0.4015294012555500
  0.5823788023953903  0.9144965154807021  0.4001634187710819
  0.7076389603932951  0.0400104561191440  0.3999098532915704
  0.7081484151007112  0.1655506780793979  0.3998001439873689
  0.7088099403912770  0.2909338221656297  0.3999190732120323
  0.7099000376826524  0.4161821380612452  0.3992730309812268
  0.7106713928667787  0.5412523071170098  0.3982952582644212
  0.7086570391585930  0.6655272407705582  0.3986901813412070
  0.7066533956659641  0.7889074920891949  0.3998334048077585
  0.7068112743823844  0.9140934234579290  0.4000895534017399
  0.8327351834254466  0.0404078255798936  0.3999150709889939
  0.8329080617299670  0.1656132602779275  0.3998570985470716
  0.8331686218563621  0.2908378530913620  0.3997983192405833
  0.8337921926220315  0.4162373238976986  0.3998151794779057
  0.8344971780505991  0.5416886442327685  0.3993532504788184
  0.8342546483920475  0.6668853995157762  0.3989808115706076
  0.8334083050527422  0.7913628977071959  0.3993668624852603
  0.8327232517780444  0.9156027234194120  0.3997033469289731
  0.9586896368529919  0.0418986902712185  0.3997393786104188
  0.9582061416544122  0.1663698453497060  0.3996119904272569
  0.9578111529903667  0.2911630130785183  0.3994278465133376
  0.9577357254290539  0.4163353882111928  0.3996007732108525
  0.9584083097888066  0.5418142747198044  0.3998302266300114
  0.9588734004451953  0.6672812748563354  0.3996991301508834
  0.9589524591156625  0.7924959816805969  0.3997454365941624
  0.9588834108519492  0.9173414948703090  0.3998225691682876
  0.4096676505089439  0.5798104282158252  0.4072115780133872
  0.4654073080227428  0.4204924528351309  0.4052134836941499
  0.4384071179625617  0.5074781889537180  0.4872441898202380
 
  0.00000000E+00  0.00000000E+00  0.00000000E+00
  0.00000000E+00  0.00000000E+00  0.00000000E+00
  0.00000000E+00  0.00000000E+00  0.00000000E+00
  0.00000000E+00  0.00000000E+00  0.00000000E+00
  0.00000000E+00  0.00000000E+00  0.00000000E+00
  0.00000000E+00  0.00000000E+00  0.00000000E+00
  0.00000000E+00  0.00000000E+00  0.00000000E+00
  0.00000000E+00  0.00000000E+00  0.00000000E+00
  0.00000000E+00  0.00000000E+00  0.00000000E+00
  0.00000000E+00  0.00000000E+00  0.00000000E+00
  0.00000000E+00  0.00000000E+00  0.00000000E+00
  0.00000000E+00  0.00000000E+00  0.00000000E+00
  0.00000000E+00  0.00000000E+00  0.00000000E+00
  0.00000000E+00  0.00000000E+00  0.00000000E+00
  0.00000000E+00  0.00000000E+00  0.00000000E+00
  0.00000000E+00  0.00000000E+00  0.00000000E+00
  0.00000000E+00  0.00000000E+00  0.00000000E+00
  0.00000000E+00  0.00000000E+00  0.00000000E+00
  0.00000000E+00  0.00000000E+00  0.00000000E+00
  0.00000000E+00  0.00000000E+00  0.00000000E+00
  0.00000000E+00  0.00000000E+00  0.00000000E+00
  0.00000000E+00  0.00000000E+00  0.00000000E+00
  0.00000000E+00  0.00000000E+00  0.00000000E+00
  0.00000000E+00  0.00000000E+00  0.00000000E+00
  0.00000000E+00  0.00000000E+00  0.00000000E+00
  0.00000000E+00  0.00000000E+00  0.00000000E+00
  0.00000000E+00  0.00000000E+00  0.00000000E+00
  0.00000000E+00  0.00000000E+00  0.00000000E+00
  0.00000000E+00  0.00000000E+00  0.00000000E+00
  0.00000000E+00  0.00000000E+00  0.00000000E+00
  0.00000000E+00  0.00000000E+00  0.00000000E+00
  0.00000000E+00  0.00000000E+00  0.00000000E+00
  0.00000000E+00  0.00000000E+00  0.00000000E+00
  0.00000000E+00  0.00000000E+00  0.00000000E+00
  0.00000000E+00  0.00000000E+00  0.00000000E+00
  0.00000000E+00  0.00000000E+00  0.00000000E+00
  0.00000000E+00  0.00000000E+00  0.00000000E+00
  0.00000000E+00  0.00000000E+00  0.00000000E+00
  0.00000000E+00  0.00000000E+00  0.00000000E+00
  0.00000000E+00  0.00000000E+00  0.00000000E+00
  0.00000000E+00  0.00000000E+00  0.00000000E+00
  0.00000000E+00  0.00000000E+00  0.00000000E+00
  0.00000000E+00  0.00000000E+00  0.00000000E+00
  0.00000000E+00  0.00000000E+00  0.00000000E+00
  0.00000000E+00  0.00000000E+00  0.00000000E+00
  0.00000000E+00  0.00000000E+00  0.00000000E+00
  0.00000000E+00  0.00000000E+00  0.00000000E+00
  0.00000000E+00  0.00000000E+00  0.00000000E+00
  0.00000000E+00  0.00000000E+00  0.00000000E+00
  0.00000000E+00  0.00000000E+00  0.00000000E+00
  0.00000000E+00  0.00000000E+00  0.00000000E+00
  0.00000000E+00  0.00000000E+00  0.00000000E+00
  0.00000000E+00  0.00000000E+00  0.00000000E+00
  0.00000000E+00  0.00000000E+00  0.00000000E+00
  0.00000000E+00  0.00000000E+00  0.00000000E+00
  0.00000000E+00  0.00000000E+00  0.00000000E+00
  0.00000000E+00  0.00000000E+00  0.00000000E+00
  0.00000000E+00  0.00000000E+00  0.00000000E+00
  0.00000000E+00  0.00000000E+00  0.00000000E+00
  0.00000000E+00  0.00000000E+00  0.00000000E+00
  0.00000000E+00  0.00000000E+00  0.00000000E+00
  0.00000000E+00  0.00000000E+00  0.00000000E+00
  0.00000000E+00  0.00000000E+00  0.00000000E+00
  0.00000000E+00  0.00000000E+00  0.00000000E+00
  0.00000000E+00  0.00000000E+00  0.00000000E+00
  0.00000000E+00  0.00000000E+00  0.00000000E+00
  0.00000000E+00  0.00000000E+00  0.00000000E+00
  0.00000000E+00  0.00000000E+00  0.00000000E+00
  0.00000000E+00  0.00000000E+00  0.00000000E+00
  0.00000000E+00  0.00000000E+00  0.00000000E+00
  0.00000000E+00  0.00000000E+00  0.00000000E+00
  0.00000000E+00  0.00000000E+00  0.00000000E+00
  0.00000000E+00  0.00000000E+00  0.00000000E+00
  0.00000000E+00  0.00000000E+00  0.00000000E+00
  0.00000000E+00  0.00000000E+00  0.00000000E+00
  0.00000000E+00  0.00000000E+00  0.00000000E+00
  0.00000000E+00  0.00000000E+00  0.00000000E+00
  0.00000000E+00  0.00000000E+00  0.00000000E+00
  0.00000000E+00  0.00000000E+00  0.00000000E+00
  0.00000000E+00  0.00000000E+00  0.00000000E+00
  0.00000000E+00  0.00000000E+00  0.00000000E+00
  0.00000000E+00  0.00000000E+00  0.00000000E+00
  0.00000000E+00  0.00000000E+00  0.00000000E+00
  0.00000000E+00  0.00000000E+00  0.00000000E+00
  0.00000000E+00  0.00000000E+00  0.00000000E+00
  0.00000000E+00  0.00000000E+00  0.00000000E+00
  0.00000000E+00  0.00000000E+00  0.00000000E+00
  0.00000000E+00  0.00000000E+00  0.00000000E+00
  0.00000000E+00  0.00000000E+00  0.00000000E+00
  0.00000000E+00  0.00000000E+00  0.00000000E+00
  0.00000000E+00  0.00000000E+00  0.00000000E+00
  0.00000000E+00  0.00000000E+00  0.00000000E+00
  0.00000000E+00  0.00000000E+00  0.00000000E+00
  0.00000000E+00  0.00000000E+00  0.00000000E+00
  0.00000000E+00  0.00000000E+00  0.00000000E+00
  0.00000000E+00  0.00000000E+00  0.00000000E+00
  0.00000000E+00  0.00000000E+00  0.00000000E+00
  0.00000000E+00  0.00000000E+00  0.00000000E+00
  0.00000000E+00  0.00000000E+00  0.00000000E+00
  0.00000000E+00  0.00000000E+00  0.00000000E+00
  0.00000000E+00  0.00000000E+00  0.00000000E+00
  0.00000000E+00  0.00000000E+00  0.00000000E+00
  0.00000000E+00  0.00000000E+00  0.00000000E+00
  0.00000000E+00  0.00000000E+00  0.00000000E+00
  0.00000000E+00  0.00000000E+00  0.00000000E+00
  0.00000000E+00  0.00000000E+00  0.00000000E+00
  0.00000000E+00  0.00000000E+00  0.00000000E+00
  0.00000000E+00  0.00000000E+00  0.00000000E+00
  0.00000000E+00  0.00000000E+00  0.00000000E+00
  0.00000000E+00  0.00000000E+00  0.00000000E+00
  0.00000000E+00  0.00000000E+00  0.00000000E+00
  0.00000000E+00  0.00000000E+00  0.00000000E+00
  0.00000000E+00  0.00000000E+00  0.00000000E+00
  0.00000000E+00  0.00000000E+00  0.00000000E+00
  0.00000000E+00  0.00000000E+00  0.00000000E+00
  0.00000000E+00  0.00000000E+00  0.00000000E+00
  0.00000000E+00  0.00000000E+00  0.00000000E+00
  0.00000000E+00  0.00000000E+00  0.00000000E+00
  0.00000000E+00  0.00000000E+00  0.00000000E+00
  0.00000000E+00  0.00000000E+00  0.00000000E+00
  0.00000000E+00  0.00000000E+00  0.00000000E+00
  0.00000000E+00  0.00000000E+00  0.00000000E+00
  0.00000000E+00  0.00000000E+00  0.00000000E+00
  0.00000000E+00  0.00000000E+00  0.00000000E+00
  0.00000000E+00  0.00000000E+00  0.00000000E+00
  0.00000000E+00  0.00000000E+00  0.00000000E+00
  0.00000000E+00  0.00000000E+00  0.00000000E+00
  0.00000000E+00  0.00000000E+00  0.00000000E+00
