H1 Os1 C125 N1 O1                       
   1.00000000000000     
    19.7988775861201596   -0.0093634459537313    0.4612596713600446
    -9.9018575898349539   17.0286550133022345   -0.7474855731218665
     0.6932538699938227   -0.9038687712829706   29.8974488826311990
   H    Os   C    N    O 
     1     1   125     1     1
Direct
  0.4959387771269508  0.4930645274522911  0.5060713428041024
  0.4373194562781691  0.5052950768380271  0.4346057357240308
  0.0421631148761299  0.0848629155890849  0.3996075303259402
  0.0414354708625842  0.2089967302875761  0.3992122455951491
  0.0407546722999290  0.3333396694616806  0.3979148969472164
  0.0406009819097154  0.4584738107441916  0.3973019109307353
  0.0412935669607663  0.5840088790625148  0.3977411619229732
  0.0418959994133988  0.7094952250387391  0.3984065691392118
  0.0421465041234125  0.8348382485209030  0.3988651095111121
  0.0422336817278713  0.9600300210567763  0.3992789094439240
  0.1678227251550717  0.0862546381407945  0.4005191099589494
  0.1680491923368168  0.2115735213184020  0.4007606400367402
  0.1662635919281056  0.3347784316885238  0.3990775773026063
  0.1645240529548480  0.4588305400897304  0.3971296506351543
  0.1651490883933591  0.5839520110171935  0.3972700463635404
  0.1662000370838616  0.7094086907299220  0.3983576547158523
  0.1668487556143721  0.8349306384360576  0.3991339316686836
  0.1673299487095191  0.9605091612987474  0.3997528032631028
  0.2925370106641674  0.0861531017040380  0.4012707065324017
  0.2935686625497871  0.2130730509019009  0.4035129992955971
  0.2944824187871826  0.3400753927740000  0.4044275363809642
  0.2885843609564552  0.4603400773744535  0.4000564928553942
  0.2888202786901585  0.5844209682463470  0.3979955272722560
  0.2905111037884794  0.7092068312101896  0.3984505438496971
  0.2914436203061325  0.8345145963353818  0.3991970882301452
  0.2919584078505973  0.9600973414790959  0.3999625838538081
  0.4169907218442078  0.0847494341685213  0.4007365108225350
  0.4176779153038468  0.2111956551993917  0.4028495889717044
  0.4193319286168278  0.3392885390969776  0.4079651717400425
  0.4144894458527313  0.7064413951218383  0.4001437161113091
  0.4158776704179408  0.8327674701493847  0.3994309188203466
  0.4165067130060863  0.9587637432176492  0.3998079169015182
  0.5414719606590720  0.0830468908321826  0.4000269008623610
  0.5420660863052598  0.2086247054790019  0.4007850867163688
  0.5431103517319945  0.3340466943806259  0.4027092871636379
  0.5465601907781658  0.4592963771032239  0.4060277772740410
  0.5428578128680654  0.5793110123784970  0.4088546430294004
  0.5377670070825243  0.7034418278010646  0.4033206042603564
  0.5400881156559771  0.8310508904310012  0.4004644846366133
  0.5409439157015560  0.9572452529790396  0.3997987853072164
  0.6660413584582763  0.0823078614241629  0.3996611705430076
  0.6666093323989489  0.2077601715166774  0.3995244393384388
  0.6674423869551120  0.3331257581764653  0.3995260953896660
  0.6691922471427192  0.4585260319190026  0.3996195475047944
  0.6696708765304878  0.5836397100488548  0.4000825773457594
  0.6648568218262635  0.7058544354731495  0.4011112824939035
  0.6643127337536718  0.8306699162156203  0.4007956513740374
  0.6654333030601661  0.9566985181656927  0.4000479921768884
  0.7907830220740080  0.0823223625573761  0.3995688263530721
  0.7911877735644450  0.2075521278002387  0.3990236997493993
  0.7917812814390398  0.3329023739475890  0.3984767282673013
  0.7927873205649355  0.4583657896888200  0.3981732202115435
  0.7934186727289109  0.5837773376979651  0.3981727463893391
  0.7923118962341453  0.7086657367556192  0.3987913712329633
  0.7905631537302995  0.8323610332323929  0.3994503458851864
  0.7903583762871905  0.9570433828745823  0.3997269797682222
  0.9160476465113794  0.0830824930061627  0.3994360266351353
  0.9160066110657745  0.2078801582938065  0.3989007166046240
  0.9161290591616298  0.3329727854556959  0.3981189375861576
  0.9166810525158126  0.4584048903060445  0.3977961312957942
  0.9173673562683067  0.5839536695587991  0.3979292708175767
  0.9173471033455280  0.7092753544325202  0.3982863547562225
  0.9169634072844294  0.8341606353295807  0.3988014095097120
  0.9163516577348793  0.9585766843820335  0.3992657846077687
  0.0842271246798615  0.0437899719027461  0.3997151465415759
  0.0841704426985376  0.1686017599345531  0.3997683800308972
  0.0828180639207323  0.2922806853933124  0.3986061415614884
  0.0817901754419673  0.4167583105500546  0.3972497976553936
  0.0822495848536817  0.5420863458693027  0.3973304279975843
  0.0831071061262629  0.6676501260091687  0.3981558387602745
  0.0836534191758378  0.7931396673247841  0.3988128427690454
  0.0839442581976270  0.9184908835696702  0.3992552171546852
  0.2092285150585503  0.0442919166421438  0.4005292471219534
  0.2098993846215836  0.1702591708653244  0.4015829751751678
  0.2100288494990703  0.2956054868427145  0.4010726627813769
  0.2061489229551004  0.4178225218574513  0.3980720812142529
  0.2059296417591548  0.5420980430805831  0.3971153682330935
  0.2073389301616027  0.6675350073573997  0.3979273702482494
  0.2082081276781097  0.7930271773729878  0.3989406408508359
  0.2087223482474385  0.9185733071938486  0.3996261575398137
  0.3337595781253865  0.0437656523141045  0.4006533639677379
  0.3344498708229560  0.1701326370596412  0.4027616319672299
  0.3357388905015959  0.2974546201241146  0.4062079786918046
  0.3334646028233381  0.4243090517251569  0.4058599736193577
  0.3295399607896262  0.5436634370664594  0.3998890000709952
  0.3315207201971789  0.6673901500606312  0.3987763236271279
  0.3327157019718009  0.7924812908763059  0.3990324500582586
  0.3333067692488776  0.9179700446880009  0.3996644290679757
  0.4582800233641781  0.0423196910605577  0.4001700305580082
  0.4588314588814538  0.1683811203094835  0.4013929221273358
  0.4598593206752814  0.2951350239844859  0.4043933878735999
  0.4649463132761417  0.4235216256434006  0.4131663894784968
  0.4537926259811426  0.6621137794913933  0.4026447770069694
  0.4570056823882827  0.7901916391669593  0.3998884945613414
  0.4577471094693910  0.9163542861770831  0.3996708609732519
  0.5827811956716201  0.0408759972536704  0.3998155881029577
  0.5833779397538122  0.1665080656672322  0.4000611442673471
  0.5841715547317944  0.2919036784373143  0.4009081071111232
  0.5863829865492959  0.4169657972204155  0.4022215302362722
  0.5878415349289285  0.5419664168952210  0.4041332515491846
  0.5801771293504240  0.6619880529422008  0.4041403643938185
  0.5803524115166329  0.7878467130046236  0.4015018893755331
  0.5821335450654831  0.9149213662554233  0.4000511431712100
  0.7074107848590391  0.0403904216059291  0.3997622073723061
  0.7079566516241412  0.1658783426353852  0.3993775828488468
  0.7085847922715233  0.2912462934679443  0.3990964867486402
  0.7098803224548461  0.4165430835944945  0.3988823413440851
  0.7107986466124504  0.5418292664875513  0.3989635757952388
  0.7090588610048489  0.6666016383336302  0.3997791333737828
  0.7065810375483540  0.7896124892519463  0.4003212116777892
  0.7066238039087780  0.9146080583800559  0.4001515090923716
  0.8324453179151687  0.0407717286245703  0.3995781080187759
  0.8326363293219070  0.1658738361417131  0.3991817578141385
  0.8329988289414776  0.2910837655957583  0.3985306341701061
  0.8337468195332635  0.4164710644134736  0.3980828116411496
  0.8345066449941678  0.5419585135155118  0.3979915740523776
  0.8342935068522547  0.6673050054092168  0.3982576273394993
  0.8334777938890044  0.7919748464145259  0.3989571676709585
  0.8325535066426860  0.9160553059442983  0.3994565945676192
  0.9583628871855184  0.0422464583225474  0.3994170122813058
  0.9578832446737018  0.1666224948591680  0.3991825868910806
  0.9576146318080719  0.2913431113328667  0.3982860956276961
  0.9576865964328279  0.4165269651292913  0.3976981422926246
  0.9583970060933100  0.5420784795472078  0.3977902994909970
  0.9588365425115740  0.6675824731398328  0.3981634039941551
  0.9588656832756396  0.7928433931455987  0.3986168809054202
  0.9586923211778760  0.9177201477487779  0.3990542036903792
  0.4092721893296325  0.5805238466016850  0.4043043623256267
  0.4561826601697122  0.5035672477732606  0.4956923584671544
 
  0.00000000E+00  0.00000000E+00  0.00000000E+00
  0.00000000E+00  0.00000000E+00  0.00000000E+00
  0.00000000E+00  0.00000000E+00  0.00000000E+00
  0.00000000E+00  0.00000000E+00  0.00000000E+00
  0.00000000E+00  0.00000000E+00  0.00000000E+00
  0.00000000E+00  0.00000000E+00  0.00000000E+00
  0.00000000E+00  0.00000000E+00  0.00000000E+00
  0.00000000E+00  0.00000000E+00  0.00000000E+00
  0.00000000E+00  0.00000000E+00  0.00000000E+00
  0.00000000E+00  0.00000000E+00  0.00000000E+00
  0.00000000E+00  0.00000000E+00  0.00000000E+00
  0.00000000E+00  0.00000000E+00  0.00000000E+00
  0.00000000E+00  0.00000000E+00  0.00000000E+00
  0.00000000E+00  0.00000000E+00  0.00000000E+00
  0.00000000E+00  0.00000000E+00  0.00000000E+00
  0.00000000E+00  0.00000000E+00  0.00000000E+00
  0.00000000E+00  0.00000000E+00  0.00000000E+00
  0.00000000E+00  0.00000000E+00  0.00000000E+00
  0.00000000E+00  0.00000000E+00  0.00000000E+00
  0.00000000E+00  0.00000000E+00  0.00000000E+00
  0.00000000E+00  0.00000000E+00  0.00000000E+00
  0.00000000E+00  0.00000000E+00  0.00000000E+00
  0.00000000E+00  0.00000000E+00  0.00000000E+00
  0.00000000E+00  0.00000000E+00  0.00000000E+00
  0.00000000E+00  0.00000000E+00  0.00000000E+00
  0.00000000E+00  0.00000000E+00  0.00000000E+00
  0.00000000E+00  0.00000000E+00  0.00000000E+00
  0.00000000E+00  0.00000000E+00  0.00000000E+00
  0.00000000E+00  0.00000000E+00  0.00000000E+00
  0.00000000E+00  0.00000000E+00  0.00000000E+00
  0.00000000E+00  0.00000000E+00  0.00000000E+00
  0.00000000E+00  0.00000000E+00  0.00000000E+00
  0.00000000E+00  0.00000000E+00  0.00000000E+00
  0.00000000E+00  0.00000000E+00  0.00000000E+00
  0.00000000E+00  0.00000000E+00  0.00000000E+00
  0.00000000E+00  0.00000000E+00  0.00000000E+00
  0.00000000E+00  0.00000000E+00  0.00000000E+00
  0.00000000E+00  0.00000000E+00  0.00000000E+00
  0.00000000E+00  0.00000000E+00  0.00000000E+00
  0.00000000E+00  0.00000000E+00  0.00000000E+00
  0.00000000E+00  0.00000000E+00  0.00000000E+00
  0.00000000E+00  0.00000000E+00  0.00000000E+00
  0.00000000E+00  0.00000000E+00  0.00000000E+00
  0.00000000E+00  0.00000000E+00  0.00000000E+00
  0.00000000E+00  0.00000000E+00  0.00000000E+00
  0.00000000E+00  0.00000000E+00  0.00000000E+00
  0.00000000E+00  0.00000000E+00  0.00000000E+00
  0.00000000E+00  0.00000000E+00  0.00000000E+00
  0.00000000E+00  0.00000000E+00  0.00000000E+00
  0.00000000E+00  0.00000000E+00  0.00000000E+00
  0.00000000E+00  0.00000000E+00  0.00000000E+00
  0.00000000E+00  0.00000000E+00  0.00000000E+00
  0.00000000E+00  0.00000000E+00  0.00000000E+00
  0.00000000E+00  0.00000000E+00  0.00000000E+00
  0.00000000E+00  0.00000000E+00  0.00000000E+00
  0.00000000E+00  0.00000000E+00  0.00000000E+00
  0.00000000E+00  0.00000000E+00  0.00000000E+00
  0.00000000E+00  0.00000000E+00  0.00000000E+00
  0.00000000E+00  0.00000000E+00  0.00000000E+00
  0.00000000E+00  0.00000000E+00  0.00000000E+00
  0.00000000E+00  0.00000000E+00  0.00000000E+00
  0.00000000E+00  0.00000000E+00  0.00000000E+00
  0.00000000E+00  0.00000000E+00  0.00000000E+00
  0.00000000E+00  0.00000000E+00  0.00000000E+00
  0.00000000E+00  0.00000000E+00  0.00000000E+00
  0.00000000E+00  0.00000000E+00  0.00000000E+00
  0.00000000E+00  0.00000000E+00  0.00000000E+00
  0.00000000E+00  0.00000000E+00  0.00000000E+00
  0.00000000E+00  0.00000000E+00  0.00000000E+00
  0.00000000E+00  0.00000000E+00  0.00000000E+00
  0.00000000E+00  0.00000000E+00  0.00000000E+00
  0.00000000E+00  0.00000000E+00  0.00000000E+00
  0.00000000E+00  0.00000000E+00  0.00000000E+00
  0.00000000E+00  0.00000000E+00  0.00000000E+00
  0.00000000E+00  0.00000000E+00  0.00000000E+00
  0.00000000E+00  0.00000000E+00  0.00000000E+00
  0.00000000E+00  0.00000000E+00  0.00000000E+00
  0.00000000E+00  0.00000000E+00  0.00000000E+00
  0.00000000E+00  0.00000000E+00  0.00000000E+00
  0.00000000E+00  0.00000000E+00  0.00000000E+00
  0.00000000E+00  0.00000000E+00  0.00000000E+00
  0.00000000E+00  0.00000000E+00  0.00000000E+00
  0.00000000E+00  0.00000000E+00  0.00000000E+00
  0.00000000E+00  0.00000000E+00  0.00000000E+00
  0.00000000E+00  0.00000000E+00  0.00000000E+00
  0.00000000E+00  0.00000000E+00  0.00000000E+00
  0.00000000E+00  0.00000000E+00  0.00000000E+00
  0.00000000E+00  0.00000000E+00  0.00000000E+00
  0.00000000E+00  0.00000000E+00  0.00000000E+00
  0.00000000E+00  0.00000000E+00  0.00000000E+00
  0.00000000E+00  0.00000000E+00  0.00000000E+00
  0.00000000E+00  0.00000000E+00  0.00000000E+00
  0.00000000E+00  0.00000000E+00  0.00000000E+00
  0.00000000E+00  0.00000000E+00  0.00000000E+00
  0.00000000E+00  0.00000000E+00  0.00000000E+00
  0.00000000E+00  0.00000000E+00  0.00000000E+00
  0.00000000E+00  0.00000000E+00  0.00000000E+00
  0.00000000E+00  0.00000000E+00  0.00000000E+00
  0.00000000E+00  0.00000000E+00  0.00000000E+00
  0.00000000E+00  0.00000000E+00  0.00000000E+00
  0.00000000E+00  0.00000000E+00  0.00000000E+00
  0.00000000E+00  0.00000000E+00  0.00000000E+00
  0.00000000E+00  0.00000000E+00  0.00000000E+00
  0.00000000E+00  0.00000000E+00  0.00000000E+00
  0.00000000E+00  0.00000000E+00  0.00000000E+00
  0.00000000E+00  0.00000000E+00  0.00000000E+00
  0.00000000E+00  0.00000000E+00  0.00000000E+00
  0.00000000E+00  0.00000000E+00  0.00000000E+00
  0.00000000E+00  0.00000000E+00  0.00000000E+00
  0.00000000E+00  0.00000000E+00  0.00000000E+00
  0.00000000E+00  0.00000000E+00  0.00000000E+00
  0.00000000E+00  0.00000000E+00  0.00000000E+00
  0.00000000E+00  0.00000000E+00  0.00000000E+00
  0.00000000E+00  0.00000000E+00  0.00000000E+00
  0.00000000E+00  0.00000000E+00  0.00000000E+00
  0.00000000E+00  0.00000000E+00  0.00000000E+00
  0.00000000E+00  0.00000000E+00  0.00000000E+00
  0.00000000E+00  0.00000000E+00  0.00000000E+00
  0.00000000E+00  0.00000000E+00  0.00000000E+00
  0.00000000E+00  0.00000000E+00  0.00000000E+00
  0.00000000E+00  0.00000000E+00  0.00000000E+00
  0.00000000E+00  0.00000000E+00  0.00000000E+00
  0.00000000E+00  0.00000000E+00  0.00000000E+00
  0.00000000E+00  0.00000000E+00  0.00000000E+00
  0.00000000E+00  0.00000000E+00  0.00000000E+00
  0.00000000E+00  0.00000000E+00  0.00000000E+00
  0.00000000E+00  0.00000000E+00  0.00000000E+00
  0.00000000E+00  0.00000000E+00  0.00000000E+00
  0.00000000E+00  0.00000000E+00  0.00000000E+00
