Cr1 C123 N3                             
   1.00000000000000     
    19.8417840583138982    0.0023466803112694    0.0102819702566282
    -9.9187216712758737   17.0504836192266396   -0.0082763111836529
     0.0156309337259912   -0.0055236549908600   29.7409555963086980
   Cr   C    N 
     1   123     3
Direct
  0.4368920673854522  0.5001854776314206  0.4123280543375452
  0.0417424691913715  0.0838509148101503  0.3996561085983147
  0.0407496110182741  0.2080020519120416  0.3996530157770787
  0.0400208889186882  0.3327647444541798  0.3995863063388231
  0.0402460772540377  0.4581888375859496  0.3996308356466172
  0.0412542401202174  0.5837685737057904  0.3998441146776771
  0.0421099042360310  0.7091409794983097  0.3999527121541570
  0.0424243458922887  0.8343341832905918  0.3999728582565521
  0.0423736624532012  0.9593720125510304  0.3998202811481751
  0.1676200819580191  0.0852132372300559  0.4000615439570706
  0.1667729321108896  0.2095758701286305  0.4003339782207198
  0.1645295187471434  0.3332971097799667  0.4003236133321023
  0.1635568257095539  0.4583889153639427  0.3994534873587524
  0.1647509499521564  0.5837158230152424  0.3994282657673275
  0.1662534352865514  0.7090568239037456  0.3998075617093654
  0.1669539429180849  0.8343348076914340  0.3999521418763992
  0.1673808386795928  0.9598094632624309  0.4000088106740783
  0.2924797606597104  0.0854088412848071  0.4000550556763108
  0.2931924901077729  0.2123756741165377  0.4012590388057778
  0.2911259646974215  0.3374499508270858  0.4031320751540633
  0.2864125665818257  0.4573412865546046  0.4022974346610927
  0.2877592181796146  0.5833278067982944  0.4000465725495487
  0.2904016810388738  0.7087092311162626  0.3995468018755150
  0.2915063460623925  0.8339654599443381  0.3997517398337296
  0.2919943617696025  0.9594234860559739  0.3998287193034478
  0.4170320338170320  0.0838032422876972  0.3996418529184454
  0.4177225563423643  0.2094286756742284  0.4000149571182680
  0.4202993960145204  0.3365842469771451  0.4036099911151422
  0.4145560100802043  0.7070620573048192  0.4004772482553504
  0.4160890243206984  0.8326777573639004  0.3997383258308096
  0.4166392971995170  0.9582513201617222  0.3997411054356942
  0.5416400154031050  0.0825812009311732  0.3997415790265104
  0.5422725186867104  0.2080680979740085  0.3994362335515044
  0.5436325793968002  0.3334945537619430  0.3999376967668797
  0.5470258326536173  0.4583332667312970  0.4036756147555399
  0.5385879463394848  0.7021308944664267  0.4025929227033148
  0.5405731782930067  0.8305176909554268  0.4004116724849061
  0.5412398515815983  0.9568525942492937  0.3999382899036448
  0.6662646485105767  0.0820731165497882  0.4000088190703596
  0.6667219118010448  0.2073874960644227  0.3998167438656007
  0.6676951679583456  0.3326841321815817  0.3993426597882220
  0.6701312762073014  0.4583429733848988  0.3993051157959291
  0.6712854873319661  0.5841330283101968  0.4005603298212613
  0.6674433893328734  0.7069894788076750  0.4008920590282425
  0.6649967553505629  0.8305287414209420  0.4005236989038156
  0.6657749584590690  0.9565169223250526  0.4001891289890736
  0.7908445643656093  0.0820344708198869  0.4000008810964065
  0.7911667699683151  0.2073119031709603  0.4000301723802438
  0.7917868610686548  0.3326381625666566  0.3998721087052260
  0.7931609837231652  0.4581947771849857  0.3994804981534131
  0.7940939952616765  0.5837300545375191  0.3993042125156853
  0.7936749286004103  0.7090502814291249  0.3995411020384517
  0.7915889955801722  0.8327195763587455  0.3997014051823236
  0.7906281886014389  0.9568523822619551  0.3998881066256357
  0.9159224885883878  0.0825692739321665  0.3996880644073427
  0.9156857219120814  0.2074050037743035  0.3997957712098770
  0.9159022171960445  0.3326728343399826  0.3998489589539957
  0.9166790564815147  0.4581814707538396  0.3998484453147796
  0.9176412287307371  0.5837716343349467  0.3997768277934692
  0.9179051762821363  0.7090964463754968  0.3997138879876296
  0.9175590601365130  0.8340473114385504  0.3996636596081706
  0.9166460813424738  0.9582853869072097  0.3996338062370335
  0.0841026552968332  0.0429577779411724  0.3998078612373083
  0.0832700129016116  0.1673172386267553  0.3997493116396228
  0.0817190481966266  0.2913162200242742  0.3997106731650431
  0.0810885652513135  0.4162366204705648  0.3994615371720499
  0.0820012688936548  0.5417587552177128  0.3996339188404211
  0.0832086417291596  0.6673196361476462  0.3998923021242439
  0.0838235751129439  0.7926482972176797  0.4000099639718250
  0.0840679166974199  0.9178675194192902  0.3999622794114639
  0.2090830935120735  0.0433498792829664  0.4000844269413020
  0.2093320043326585  0.1689651978524867  0.4005104520130771
  0.2076467766549223  0.2931201687822843  0.4010552475171731
  0.2045548285510889  0.4166926770188762  0.4003126367637579
  0.2050879918342947  0.5416138862512972  0.3993939396948162
  0.2071882905871422  0.6672057801386135  0.3995833971751339
  0.2082973469438130  0.7925638753147402  0.3998411078810308
  0.2087797537415144  0.9178873335977498  0.3999359289384205
  0.3337914869329369  0.0430727517981395  0.3998303939218780
  0.3343524870947666  0.1692014538145835  0.4004153545259745
  0.3353102650129013  0.2964585165530385  0.4031156905153727
  0.3289148385547728  0.5427515906573728  0.4020226083666389
  0.3312510974664796  0.6667516184940995  0.3998704110592993
  0.3328373446141556  0.7919794769472571  0.3996654905783250
  0.3333907648903436  0.9173803785864491  0.3997531189005225
  0.4584373082651160  0.0416663646066808  0.3996916288909340
  0.4589130938778505  0.1671662716780637  0.3995248123867493
  0.4601624840221126  0.2928622851784090  0.4008244952581377
  0.4655559751976998  0.4185159801953788  0.4067007694677136
  0.4534147100766581  0.6624028920879435  0.4023623007695829
  0.4573217254152259  0.7903985497438314  0.4000736785719505
  0.4580056458680986  0.9161382360541934  0.3997899681572956
  0.5830482747901343  0.0405245913179221  0.3999008929463466
  0.5835530987851372  0.1660774614547435  0.3996565631637393
  0.5845369133381094  0.2913712069498805  0.3992938552735964
  0.5875533436197308  0.4169029055865729  0.4004441815343263
  0.5898676025190512  0.5434771851438505  0.4034386255078791
  0.5838432096757612  0.6621679652637196  0.4031003854193403
  0.5809593993075888  0.7868618528439223  0.4011352891551165
  0.5825186934098865  0.9144374256448294  0.4001516944030943
  0.7075849131048514  0.0401301026080579  0.4000982330596694
  0.7080882958688156  0.1656196793860970  0.3999930395783659
  0.7086847379226151  0.2908481911688184  0.3997181432637005
  0.7104325628620480  0.4162675096480511  0.3991777401121931
  0.7117654275474848  0.5417233115707928  0.3994206964714410
  0.7109013945332605  0.6672211236138569  0.4002006561839725
  0.7080641076537894  0.7904110833878144  0.4002228720326008
  0.7069775790412438  0.9144646891234220  0.4001633529099315
  0.8324844387716663  0.0405430677740064  0.3998598351028733
  0.8325631938448650  0.1656141055160475  0.3999777682008793
  0.8329326357110211  0.2908249842562975  0.3999576201483184
  0.8338999106475767  0.4162102432879710  0.3997972795045661
  0.8349158728608940  0.5417605761793061  0.3994915849535527
  0.8351548603313355  0.6673214056249603  0.3994675072159135
  0.8343685850668930  0.7921905469240558  0.3995743157525927
  0.8331295852553008  0.9161539792791737  0.3996942065389028
  0.9582571268870208  0.0417223010793176  0.3996114187485582
  0.9574955740590604  0.1660154123452520  0.3996549060073385
  0.9572005402287321  0.2909280883437270  0.3997310761249291
  0.9575067617431903  0.4162295707423520  0.3998248350629572
  0.9584724339143388  0.5418183083473559  0.3998486196388315
  0.9591998522804963  0.6673143313250132  0.3998456106536846
  0.9593042413798749  0.7925902475819454  0.3998009454446564
  0.9590071174526232  0.9174544951726661  0.3997020935260304
  0.4084812378709288  0.5829407150278929  0.4038903397512207
  0.5494069341419860  0.5825761839923065  0.4056733517206449
  0.3264202121980442  0.4177159022057089  0.4047696780027883
 
  0.00000000E+00  0.00000000E+00  0.00000000E+00
  0.00000000E+00  0.00000000E+00  0.00000000E+00
  0.00000000E+00  0.00000000E+00  0.00000000E+00
  0.00000000E+00  0.00000000E+00  0.00000000E+00
  0.00000000E+00  0.00000000E+00  0.00000000E+00
  0.00000000E+00  0.00000000E+00  0.00000000E+00
  0.00000000E+00  0.00000000E+00  0.00000000E+00
  0.00000000E+00  0.00000000E+00  0.00000000E+00
  0.00000000E+00  0.00000000E+00  0.00000000E+00
  0.00000000E+00  0.00000000E+00  0.00000000E+00
  0.00000000E+00  0.00000000E+00  0.00000000E+00
  0.00000000E+00  0.00000000E+00  0.00000000E+00
  0.00000000E+00  0.00000000E+00  0.00000000E+00
  0.00000000E+00  0.00000000E+00  0.00000000E+00
  0.00000000E+00  0.00000000E+00  0.00000000E+00
  0.00000000E+00  0.00000000E+00  0.00000000E+00
  0.00000000E+00  0.00000000E+00  0.00000000E+00
  0.00000000E+00  0.00000000E+00  0.00000000E+00
  0.00000000E+00  0.00000000E+00  0.00000000E+00
  0.00000000E+00  0.00000000E+00  0.00000000E+00
  0.00000000E+00  0.00000000E+00  0.00000000E+00
  0.00000000E+00  0.00000000E+00  0.00000000E+00
  0.00000000E+00  0.00000000E+00  0.00000000E+00
  0.00000000E+00  0.00000000E+00  0.00000000E+00
  0.00000000E+00  0.00000000E+00  0.00000000E+00
  0.00000000E+00  0.00000000E+00  0.00000000E+00
  0.00000000E+00  0.00000000E+00  0.00000000E+00
  0.00000000E+00  0.00000000E+00  0.00000000E+00
  0.00000000E+00  0.00000000E+00  0.00000000E+00
  0.00000000E+00  0.00000000E+00  0.00000000E+00
  0.00000000E+00  0.00000000E+00  0.00000000E+00
  0.00000000E+00  0.00000000E+00  0.00000000E+00
  0.00000000E+00  0.00000000E+00  0.00000000E+00
  0.00000000E+00  0.00000000E+00  0.00000000E+00
  0.00000000E+00  0.00000000E+00  0.00000000E+00
  0.00000000E+00  0.00000000E+00  0.00000000E+00
  0.00000000E+00  0.00000000E+00  0.00000000E+00
  0.00000000E+00  0.00000000E+00  0.00000000E+00
  0.00000000E+00  0.00000000E+00  0.00000000E+00
  0.00000000E+00  0.00000000E+00  0.00000000E+00
  0.00000000E+00  0.00000000E+00  0.00000000E+00
  0.00000000E+00  0.00000000E+00  0.00000000E+00
  0.00000000E+00  0.00000000E+00  0.00000000E+00
  0.00000000E+00  0.00000000E+00  0.00000000E+00
  0.00000000E+00  0.00000000E+00  0.00000000E+00
  0.00000000E+00  0.00000000E+00  0.00000000E+00
  0.00000000E+00  0.00000000E+00  0.00000000E+00
  0.00000000E+00  0.00000000E+00  0.00000000E+00
  0.00000000E+00  0.00000000E+00  0.00000000E+00
  0.00000000E+00  0.00000000E+00  0.00000000E+00
  0.00000000E+00  0.00000000E+00  0.00000000E+00
  0.00000000E+00  0.00000000E+00  0.00000000E+00
  0.00000000E+00  0.00000000E+00  0.00000000E+00
  0.00000000E+00  0.00000000E+00  0.00000000E+00
  0.00000000E+00  0.00000000E+00  0.00000000E+00
  0.00000000E+00  0.00000000E+00  0.00000000E+00
  0.00000000E+00  0.00000000E+00  0.00000000E+00
  0.00000000E+00  0.00000000E+00  0.00000000E+00
  0.00000000E+00  0.00000000E+00  0.00000000E+00
  0.00000000E+00  0.00000000E+00  0.00000000E+00
  0.00000000E+00  0.00000000E+00  0.00000000E+00
  0.00000000E+00  0.00000000E+00  0.00000000E+00
  0.00000000E+00  0.00000000E+00  0.00000000E+00
  0.00000000E+00  0.00000000E+00  0.00000000E+00
  0.00000000E+00  0.00000000E+00  0.00000000E+00
  0.00000000E+00  0.00000000E+00  0.00000000E+00
  0.00000000E+00  0.00000000E+00  0.00000000E+00
  0.00000000E+00  0.00000000E+00  0.00000000E+00
  0.00000000E+00  0.00000000E+00  0.00000000E+00
  0.00000000E+00  0.00000000E+00  0.00000000E+00
  0.00000000E+00  0.00000000E+00  0.00000000E+00
  0.00000000E+00  0.00000000E+00  0.00000000E+00
  0.00000000E+00  0.00000000E+00  0.00000000E+00
  0.00000000E+00  0.00000000E+00  0.00000000E+00
  0.00000000E+00  0.00000000E+00  0.00000000E+00
  0.00000000E+00  0.00000000E+00  0.00000000E+00
  0.00000000E+00  0.00000000E+00  0.00000000E+00
  0.00000000E+00  0.00000000E+00  0.00000000E+00
  0.00000000E+00  0.00000000E+00  0.00000000E+00
  0.00000000E+00  0.00000000E+00  0.00000000E+00
  0.00000000E+00  0.00000000E+00  0.00000000E+00
  0.00000000E+00  0.00000000E+00  0.00000000E+00
  0.00000000E+00  0.00000000E+00  0.00000000E+00
  0.00000000E+00  0.00000000E+00  0.00000000E+00
  0.00000000E+00  0.00000000E+00  0.00000000E+00
  0.00000000E+00  0.00000000E+00  0.00000000E+00
  0.00000000E+00  0.00000000E+00  0.00000000E+00
  0.00000000E+00  0.00000000E+00  0.00000000E+00
  0.00000000E+00  0.00000000E+00  0.00000000E+00
  0.00000000E+00  0.00000000E+00  0.00000000E+00
  0.00000000E+00  0.00000000E+00  0.00000000E+00
  0.00000000E+00  0.00000000E+00  0.00000000E+00
  0.00000000E+00  0.00000000E+00  0.00000000E+00
  0.00000000E+00  0.00000000E+00  0.00000000E+00
  0.00000000E+00  0.00000000E+00  0.00000000E+00
  0.00000000E+00  0.00000000E+00  0.00000000E+00
  0.00000000E+00  0.00000000E+00  0.00000000E+00
  0.00000000E+00  0.00000000E+00  0.00000000E+00
  0.00000000E+00  0.00000000E+00  0.00000000E+00
  0.00000000E+00  0.00000000E+00  0.00000000E+00
  0.00000000E+00  0.00000000E+00  0.00000000E+00
  0.00000000E+00  0.00000000E+00  0.00000000E+00
  0.00000000E+00  0.00000000E+00  0.00000000E+00
  0.00000000E+00  0.00000000E+00  0.00000000E+00
  0.00000000E+00  0.00000000E+00  0.00000000E+00
  0.00000000E+00  0.00000000E+00  0.00000000E+00
  0.00000000E+00  0.00000000E+00  0.00000000E+00
  0.00000000E+00  0.00000000E+00  0.00000000E+00
  0.00000000E+00  0.00000000E+00  0.00000000E+00
  0.00000000E+00  0.00000000E+00  0.00000000E+00
  0.00000000E+00  0.00000000E+00  0.00000000E+00
  0.00000000E+00  0.00000000E+00  0.00000000E+00
  0.00000000E+00  0.00000000E+00  0.00000000E+00
  0.00000000E+00  0.00000000E+00  0.00000000E+00
  0.00000000E+00  0.00000000E+00  0.00000000E+00
  0.00000000E+00  0.00000000E+00  0.00000000E+00
  0.00000000E+00  0.00000000E+00  0.00000000E+00
  0.00000000E+00  0.00000000E+00  0.00000000E+00
  0.00000000E+00  0.00000000E+00  0.00000000E+00
  0.00000000E+00  0.00000000E+00  0.00000000E+00
  0.00000000E+00  0.00000000E+00  0.00000000E+00
  0.00000000E+00  0.00000000E+00  0.00000000E+00
  0.00000000E+00  0.00000000E+00  0.00000000E+00
  0.00000000E+00  0.00000000E+00  0.00000000E+00
  0.00000000E+00  0.00000000E+00  0.00000000E+00
  0.00000000E+00  0.00000000E+00  0.00000000E+00
  0.00000000E+00  0.00000000E+00  0.00000000E+00
