H1 Ru1 C125 N1 O2                       
   1.00000000000000     
    19.8023835383508775   -0.0117820108379781    0.4287527154779980
    -9.9080211626812051   17.0402805111385689   -0.5360793244877387
     0.6446917304676623   -0.5622079088791754   29.8548994925074176
   H    Ru   C    N    O 
     1     1   125     1     2
Direct
  0.5486971774451623  0.5483244032358775  0.5235142963331013
  0.4360495443958370  0.5036475313855809  0.4318631147185391
  0.0419712913168637  0.0845340272552807  0.3995382671374820
  0.0412634376206912  0.2087053812996745  0.3993075777781538
  0.0406549744723065  0.3332145213062934  0.3988497436368232
  0.0405215159763519  0.4585022413763806  0.3989914063962037
  0.0411596473854112  0.5839723849817011  0.3994641682362772
  0.0418111214709622  0.7094073039813952  0.3996386220871062
  0.0421200114285499  0.8347352640031929  0.3995734091750541
  0.0421729664725873  0.9598331487198248  0.3995098035243449
  0.1676693666674942  0.0859082957167852  0.4000561443455385
  0.1677253247639351  0.2109648589366946  0.3999628182041181
  0.1661494422693388  0.3344647403779379  0.3987608321059607
  0.1644955493856982  0.4587397027945688  0.3979646217116653
  0.1650515601942986  0.5838986619151221  0.3986366206880619
  0.1660940136123703  0.7093513898750012  0.3994735505960126
  0.1668064104335260  0.8348324897110427  0.3998094418721708
  0.1672848873708921  0.9603031485777199  0.3998643037482922
  0.2925395413240335  0.0858345766928720  0.4005602799168814
  0.2935061833396322  0.2125867240765473  0.4022110447203233
  0.2940239430984870  0.3390285624486850  0.4025394260268951
  0.2888551680875963  0.4598244444140252  0.3991226611589206
  0.2887279713296393  0.5844134371894215  0.3980032182684636
  0.2904148940988780  0.7092363989871605  0.3988188554880918
  0.2913759349627212  0.8344277764038522  0.3995439101009097
  0.2919093898778739  0.9598843698295246  0.3998781071918108
  0.4169710884362282  0.0844251187294127  0.4000869272638358
  0.4176515556539583  0.2106523068733561  0.4015663952049960
  0.4193218725674096  0.3385326241703678  0.4063391398657497
  0.4144525977235726  0.7066230552304075  0.3992338229923396
  0.4158314918597398  0.8328062012839462  0.3992567019438867
  0.4164488729994836  0.9586246813208055  0.3996179950770604
  0.5414133020317301  0.0827943546541435  0.3997102961959858
  0.5420446856527135  0.2082785887194506  0.4000895600588966
  0.5430524741100748  0.3335974966427452  0.4015526578813009
  0.5459828407540158  0.4585044847502893  0.4051538465456603
  0.5434984808732364  0.5792531403528698  0.4079108791385363
  0.5377918362940773  0.7032251955298763  0.4021543050383554
  0.5400245001115191  0.8309141750992638  0.3998365204396797
  0.5409060457773232  0.9571038909616956  0.3995626071996657
  0.6659887669240779  0.0821345926915952  0.3997506530518768
  0.6665541529199449  0.2075639649100540  0.3995961931420583
  0.6673599573645919  0.3328811156248481  0.3993406817565047
  0.6690651719641844  0.4582331420966099  0.3992357014989458
  0.6697280437085682  0.5835164756191568  0.3997723341785983
  0.6650299378286552  0.7057668980545404  0.4005844027908894
  0.6643810165116554  0.8304930974195155  0.4003331677018986
  0.6654130104376289  0.9565386975639911  0.3999025747695477
  0.7907578064053256  0.0821653587981149  0.3998720832975430
  0.7911106096277268  0.2074111999744394  0.3997446003288598
  0.7917455899182319  0.3328416568800437  0.3993694993949345
  0.7927375319036793  0.4583033603418616  0.3988401463653226
  0.7933698106594025  0.5836391301701546  0.3985222843096772
  0.7924127899926041  0.7086204045262019  0.3989193564519724
  0.7906789287154172  0.8323020896284751  0.3994284005639104
  0.7903575040938216  0.9568959457131732  0.3998004020196685
  0.9159860872347286  0.0828825302094504  0.3996859304697627
  0.9158865701305561  0.2077349922449435  0.3995731997393308
  0.9160431738222007  0.3329422561163509  0.3994434780904875
  0.9165644303163780  0.4583715095448294  0.3994197760160739
  0.9172773160070267  0.5838504736641982  0.3992047674604121
  0.9173287454284391  0.7092082088050525  0.3990451516453493
  0.9169795302472362  0.8340757419641158  0.3992226927506176
  0.9163144826990814  0.9584228567888829  0.3994992485696203
  0.0840694912003145  0.0435005467423956  0.3996227642282954
  0.0838973482336637  0.1681675730462266  0.3995022150542744
  0.0826064488176121  0.2920453041198198  0.3988466700129349
  0.0817696650557518  0.4167812241995401  0.3985275976446681
  0.0821286603166717  0.5420569115920832  0.3990495388321474
  0.0829700876384145  0.6675627078455411  0.3995993532145661
  0.0836165662148301  0.7930708025766362  0.3997273802025656
  0.0838762797856350  0.9183506283175839  0.3996410578149895
  0.2091487506106290  0.0439973910673939  0.4001805868211862
  0.2096710157712109  0.1697814339982373  0.4006262657217155
  0.2096137292258306  0.2948606375216537  0.3999660678882160
  0.2060864024185446  0.4175806568195528  0.3980555412546451
  0.2058633082982225  0.5420714446051077  0.3980166092544382
  0.2072545689840985  0.6675102094096588  0.3989707883511915
  0.2081300680650789  0.7929379190177214  0.3996468542794349
  0.2086860436076088  0.9184002350053811  0.3998639895917425
  0.3337403844089363  0.0434680260990418  0.4001455026171050
  0.3344630036844984  0.1696556459220546  0.4015798598687066
  0.3355434271600981  0.2965644019084555  0.4045235012157254
  0.3327395263659195  0.4225485705241457  0.4033059428052405
  0.3299888405080828  0.5438165937600878  0.3988558995068372
  0.3314748735471920  0.6673455535698728  0.3985416646314452
  0.3326673623059345  0.7924692184819366  0.3992159552171288
  0.3332873766903691  0.9178387648574352  0.3996756167708498
  0.4582514404176399  0.0420927600429078  0.3997796744138943
  0.4588139084236825  0.1679422397009851  0.4004624774032836
  0.4598318197030454  0.2944572880873221  0.4029629546870129
  0.4646641558406428  0.4219159669117945  0.4113078069248193
  0.4536604711085760  0.6620942465029824  0.4009124699097459
  0.4569884652962080  0.7902780893283164  0.3993571975883876
  0.4577156935010743  0.9162983773012037  0.3994608571408770
  0.5827594711854088  0.0406907995925014  0.3996483485159770
  0.5833205268828887  0.1662288727637878  0.3997278679805895
  0.5841625982602621  0.2915145082703143  0.4001310892534719
  0.5862162468081162  0.4164885257582788  0.4013236056343556
  0.5876654749907702  0.5417105736211467  0.4036656976673788
  0.5802615882709434  0.6616610631861594  0.4032826037939735
  0.5803069065668489  0.7875536776192775  0.4007158449187678
  0.5820774138545401  0.9147534416430900  0.3997155437052843
  0.7073756769442868  0.0402339846210906  0.3998537803051751
  0.7078994489393172  0.1657179471080647  0.3997097861817955
  0.7085404619148729  0.2910820456129795  0.3993527824583958
  0.7098262520077139  0.4164151788918134  0.3988923967094615
  0.7107863323284580  0.5417010404522645  0.3988210989043053
  0.7091078752160168  0.6664706996979977  0.3995448090857464
  0.7066844236473915  0.7895188077675017  0.3999763961765070
  0.7066205745426729  0.9144299042849456  0.3999952566372681
  0.8323912275486323  0.0406103183473331  0.3998141214571032
  0.8325694222006469  0.1657618030308207  0.3997911062296652
  0.8329707422362850  0.2910495745041988  0.3995755444169504
  0.8336792291723056  0.4164476594916775  0.3992324369501924
  0.8344464090718251  0.5418559719564668  0.3987681614737011
  0.8342716272694664  0.6672519515157554  0.3987056994287460
  0.8335337648752581  0.7919054242635778  0.3991355935978170
  0.8325754936860593  0.9159315865462739  0.3995686901569858
  0.9582281931696586  0.0420026585178552  0.3995842763553791
  0.9577577308936228  0.1664416285481671  0.3995422077144796
  0.9574961241225084  0.2912718032923181  0.3993257229221370
  0.9575948513473782  0.4165266812529279  0.3993688155936919
  0.9583016534489508  0.5420306051242783  0.3994461546503876
  0.9587698583558675  0.6675011485540187  0.3993195936586202
  0.9588564111278047  0.7927685798254867  0.3992620107354317
  0.9586361249044643  0.9175880092934131  0.3993847363708372
  0.4093706036873195  0.5810458375805626  0.4015846062784712
  0.5098290539088959  0.4923693867556710  0.5195638640734558
  0.4519001448991555  0.5044461326634815  0.4900254627624061
 
  0.00000000E+00  0.00000000E+00  0.00000000E+00
  0.00000000E+00  0.00000000E+00  0.00000000E+00
  0.00000000E+00  0.00000000E+00  0.00000000E+00
  0.00000000E+00  0.00000000E+00  0.00000000E+00
  0.00000000E+00  0.00000000E+00  0.00000000E+00
  0.00000000E+00  0.00000000E+00  0.00000000E+00
  0.00000000E+00  0.00000000E+00  0.00000000E+00
  0.00000000E+00  0.00000000E+00  0.00000000E+00
  0.00000000E+00  0.00000000E+00  0.00000000E+00
  0.00000000E+00  0.00000000E+00  0.00000000E+00
  0.00000000E+00  0.00000000E+00  0.00000000E+00
  0.00000000E+00  0.00000000E+00  0.00000000E+00
  0.00000000E+00  0.00000000E+00  0.00000000E+00
  0.00000000E+00  0.00000000E+00  0.00000000E+00
  0.00000000E+00  0.00000000E+00  0.00000000E+00
  0.00000000E+00  0.00000000E+00  0.00000000E+00
  0.00000000E+00  0.00000000E+00  0.00000000E+00
  0.00000000E+00  0.00000000E+00  0.00000000E+00
  0.00000000E+00  0.00000000E+00  0.00000000E+00
  0.00000000E+00  0.00000000E+00  0.00000000E+00
  0.00000000E+00  0.00000000E+00  0.00000000E+00
  0.00000000E+00  0.00000000E+00  0.00000000E+00
  0.00000000E+00  0.00000000E+00  0.00000000E+00
  0.00000000E+00  0.00000000E+00  0.00000000E+00
  0.00000000E+00  0.00000000E+00  0.00000000E+00
  0.00000000E+00  0.00000000E+00  0.00000000E+00
  0.00000000E+00  0.00000000E+00  0.00000000E+00
  0.00000000E+00  0.00000000E+00  0.00000000E+00
  0.00000000E+00  0.00000000E+00  0.00000000E+00
  0.00000000E+00  0.00000000E+00  0.00000000E+00
  0.00000000E+00  0.00000000E+00  0.00000000E+00
  0.00000000E+00  0.00000000E+00  0.00000000E+00
  0.00000000E+00  0.00000000E+00  0.00000000E+00
  0.00000000E+00  0.00000000E+00  0.00000000E+00
  0.00000000E+00  0.00000000E+00  0.00000000E+00
  0.00000000E+00  0.00000000E+00  0.00000000E+00
  0.00000000E+00  0.00000000E+00  0.00000000E+00
  0.00000000E+00  0.00000000E+00  0.00000000E+00
  0.00000000E+00  0.00000000E+00  0.00000000E+00
  0.00000000E+00  0.00000000E+00  0.00000000E+00
  0.00000000E+00  0.00000000E+00  0.00000000E+00
  0.00000000E+00  0.00000000E+00  0.00000000E+00
  0.00000000E+00  0.00000000E+00  0.00000000E+00
  0.00000000E+00  0.00000000E+00  0.00000000E+00
  0.00000000E+00  0.00000000E+00  0.00000000E+00
  0.00000000E+00  0.00000000E+00  0.00000000E+00
  0.00000000E+00  0.00000000E+00  0.00000000E+00
  0.00000000E+00  0.00000000E+00  0.00000000E+00
  0.00000000E+00  0.00000000E+00  0.00000000E+00
  0.00000000E+00  0.00000000E+00  0.00000000E+00
  0.00000000E+00  0.00000000E+00  0.00000000E+00
  0.00000000E+00  0.00000000E+00  0.00000000E+00
  0.00000000E+00  0.00000000E+00  0.00000000E+00
  0.00000000E+00  0.00000000E+00  0.00000000E+00
  0.00000000E+00  0.00000000E+00  0.00000000E+00
  0.00000000E+00  0.00000000E+00  0.00000000E+00
  0.00000000E+00  0.00000000E+00  0.00000000E+00
  0.00000000E+00  0.00000000E+00  0.00000000E+00
  0.00000000E+00  0.00000000E+00  0.00000000E+00
  0.00000000E+00  0.00000000E+00  0.00000000E+00
  0.00000000E+00  0.00000000E+00  0.00000000E+00
  0.00000000E+00  0.00000000E+00  0.00000000E+00
  0.00000000E+00  0.00000000E+00  0.00000000E+00
  0.00000000E+00  0.00000000E+00  0.00000000E+00
  0.00000000E+00  0.00000000E+00  0.00000000E+00
  0.00000000E+00  0.00000000E+00  0.00000000E+00
  0.00000000E+00  0.00000000E+00  0.00000000E+00
  0.00000000E+00  0.00000000E+00  0.00000000E+00
  0.00000000E+00  0.00000000E+00  0.00000000E+00
  0.00000000E+00  0.00000000E+00  0.00000000E+00
  0.00000000E+00  0.00000000E+00  0.00000000E+00
  0.00000000E+00  0.00000000E+00  0.00000000E+00
  0.00000000E+00  0.00000000E+00  0.00000000E+00
  0.00000000E+00  0.00000000E+00  0.00000000E+00
  0.00000000E+00  0.00000000E+00  0.00000000E+00
  0.00000000E+00  0.00000000E+00  0.00000000E+00
  0.00000000E+00  0.00000000E+00  0.00000000E+00
  0.00000000E+00  0.00000000E+00  0.00000000E+00
  0.00000000E+00  0.00000000E+00  0.00000000E+00
  0.00000000E+00  0.00000000E+00  0.00000000E+00
  0.00000000E+00  0.00000000E+00  0.00000000E+00
  0.00000000E+00  0.00000000E+00  0.00000000E+00
  0.00000000E+00  0.00000000E+00  0.00000000E+00
  0.00000000E+00  0.00000000E+00  0.00000000E+00
  0.00000000E+00  0.00000000E+00  0.00000000E+00
  0.00000000E+00  0.00000000E+00  0.00000000E+00
  0.00000000E+00  0.00000000E+00  0.00000000E+00
  0.00000000E+00  0.00000000E+00  0.00000000E+00
  0.00000000E+00  0.00000000E+00  0.00000000E+00
  0.00000000E+00  0.00000000E+00  0.00000000E+00
  0.00000000E+00  0.00000000E+00  0.00000000E+00
  0.00000000E+00  0.00000000E+00  0.00000000E+00
  0.00000000E+00  0.00000000E+00  0.00000000E+00
  0.00000000E+00  0.00000000E+00  0.00000000E+00
  0.00000000E+00  0.00000000E+00  0.00000000E+00
  0.00000000E+00  0.00000000E+00  0.00000000E+00
  0.00000000E+00  0.00000000E+00  0.00000000E+00
  0.00000000E+00  0.00000000E+00  0.00000000E+00
  0.00000000E+00  0.00000000E+00  0.00000000E+00
  0.00000000E+00  0.00000000E+00  0.00000000E+00
  0.00000000E+00  0.00000000E+00  0.00000000E+00
  0.00000000E+00  0.00000000E+00  0.00000000E+00
  0.00000000E+00  0.00000000E+00  0.00000000E+00
  0.00000000E+00  0.00000000E+00  0.00000000E+00
  0.00000000E+00  0.00000000E+00  0.00000000E+00
  0.00000000E+00  0.00000000E+00  0.00000000E+00
  0.00000000E+00  0.00000000E+00  0.00000000E+00
  0.00000000E+00  0.00000000E+00  0.00000000E+00
  0.00000000E+00  0.00000000E+00  0.00000000E+00
  0.00000000E+00  0.00000000E+00  0.00000000E+00
  0.00000000E+00  0.00000000E+00  0.00000000E+00
  0.00000000E+00  0.00000000E+00  0.00000000E+00
  0.00000000E+00  0.00000000E+00  0.00000000E+00
  0.00000000E+00  0.00000000E+00  0.00000000E+00
  0.00000000E+00  0.00000000E+00  0.00000000E+00
  0.00000000E+00  0.00000000E+00  0.00000000E+00
  0.00000000E+00  0.00000000E+00  0.00000000E+00
  0.00000000E+00  0.00000000E+00  0.00000000E+00
  0.00000000E+00  0.00000000E+00  0.00000000E+00
  0.00000000E+00  0.00000000E+00  0.00000000E+00
  0.00000000E+00  0.00000000E+00  0.00000000E+00
  0.00000000E+00  0.00000000E+00  0.00000000E+00
  0.00000000E+00  0.00000000E+00  0.00000000E+00
  0.00000000E+00  0.00000000E+00  0.00000000E+00
  0.00000000E+00  0.00000000E+00  0.00000000E+00
  0.00000000E+00  0.00000000E+00  0.00000000E+00
  0.00000000E+00  0.00000000E+00  0.00000000E+00
  0.00000000E+00  0.00000000E+00  0.00000000E+00
  0.00000000E+00  0.00000000E+00  0.00000000E+00
  0.00000000E+00  0.00000000E+00  0.00000000E+00
