Y1 C123 N3                              
   1.00000000000000     
    19.8092239073194847    0.0110275707636367   -0.0001312574958313
    -9.8950537854067200   17.0464194649446696   -0.0042348175497179
    -0.0001938081283949   -0.0075830672192806   29.7893587259286043
   Y    C    N 
     1   123     3
Direct
  0.4361675204776216  0.5005597845474753  0.4449944750077811
  0.0416970641763954  0.0837770653123226  0.3991128523147495
  0.0408576369030126  0.2080193113695708  0.3989753777379335
  0.0402780988702687  0.3329163010758780  0.3987096883246614
  0.0405379173590521  0.4581604715919113  0.3986607912035549
  0.0414258586384067  0.5836560640510093  0.3995070395825557
  0.0421948297710853  0.7090792543169310  0.4001277399190266
  0.0424421512062406  0.8342640801866302  0.4000516837126630
  0.0423120647438374  0.9592889526844766  0.3995346954891419
  0.1674825678431943  0.0848926142137254  0.3996095283789231
  0.1667677845083419  0.2094004782462419  0.3996652685442076
  0.1648837750455357  0.3333071023159471  0.3998792144010521
  0.1643896042905916  0.4582950252076171  0.3982884032370843
  0.1653561623910778  0.5835763529587985  0.3981538811520163
  0.1664878604762304  0.7088095574024783  0.3993638432768297
  0.1671092457067383  0.8342078413396368  0.4001579589501371
  0.1673708846989516  0.9596382344153090  0.3999513594261682
  0.2924036095787180  0.0852876075326988  0.3996322153212111
  0.2927501283565805  0.2117536903926712  0.4012872946063145
  0.2910949386609148  0.3366021504440542  0.4045240856705352
  0.2878066089694759  0.4574132014951264  0.4034376950188053
  0.2888810405467129  0.5827042442727217  0.3992518419636050
  0.2908420563829294  0.7081895044286040  0.3985097902368541
  0.2917296931599998  0.8337528836805637  0.3993572512466350
  0.2921213200325675  0.9593240372993722  0.3997394452900719
  0.4170078028804302  0.0839589435053778  0.3991542903723476
  0.4174957017635537  0.2098203117176808  0.3993073471749956
  0.4193864589634789  0.3371047779793862  0.4043057422671077
  0.4151465966427540  0.7064805162484709  0.3996791487701202
  0.4162506592416153  0.8323678824096518  0.3989506426582233
  0.4167428173444209  0.9582093998939611  0.3993817490549145
  0.5415819956933871  0.0827187075994957  0.3994643805819571
  0.5421037040647352  0.2084391769783207  0.3986228597980993
  0.5430298184541029  0.3340375855216601  0.3991516777510572
  0.5455816519577373  0.4591576731968912  0.4041765211666820
  0.5390583788933688  0.7027558727231502  0.4033005453925020
  0.5408263211389346  0.8307031577747266  0.3999654616291904
  0.5412452165210567  0.9569410523200471  0.3995602341418019
  0.6662011112512733  0.0822169974076900  0.4000691293803729
  0.6665508447983050  0.2076073749607801  0.3995345939299410
  0.6673820791816319  0.3330491377135367  0.3984160516395220
  0.6692288866384075  0.4586508610017294  0.3982904527318171
  0.6702338985339702  0.5840672683723910  0.4000357663463977
  0.6673721108283368  0.7072560387738364  0.4004784658500403
  0.6651597340750940  0.8309076441475779  0.4001764624747807
  0.6658062907539339  0.9566758726856996  0.3999470428970853
  0.7908678304786011  0.0821716032240472  0.3999996727248865
  0.7911101119297617  0.2074751567909315  0.4001651062493733
  0.7916865753141978  0.3328504989177097  0.3996010513874103
  0.7927407851330134  0.4582931679333869  0.3986363317510727
  0.7936126699638261  0.5837766321723576  0.3982765419699865
  0.7933353356705342  0.7089468511715663  0.3987945347571319
  0.7916115213334066  0.8328127328050893  0.3990547048098154
  0.7907398584283480  0.9570119390073208  0.3995248873324843
  0.9159671021519177  0.0826516084665756  0.3993504623138621
  0.9157458212031256  0.2075086519086648  0.3995512801879769
  0.9159376018819236  0.3327830933265418  0.3996351917289893
  0.9166469032216170  0.4582592316030476  0.3996815556284381
  0.9175013099040029  0.5837365317869836  0.3995034468858652
  0.9177521806613879  0.7089846505412866  0.3993595778919720
  0.9174959424496925  0.8340146182301094  0.3992476319852225
  0.9166617675912696  0.9583076153151220  0.3992106726270603
  0.0840094552938158  0.0427986879607341  0.3993537113232036
  0.0832527624872722  0.1672261870756102  0.3990405745282994
  0.0821201982535222  0.2914429922749082  0.3989387229959980
  0.0815469854117718  0.4162192789101700  0.3982324506260712
  0.0824078299226479  0.5417215115696038  0.3986790259415668
  0.0833650397934780  0.6671507142533671  0.3997689291854112
  0.0838745251296867  0.7924883599345850  0.4002692871374171
  0.0840696127762542  0.9177508432483052  0.3999007069777590
  0.2090107644536036  0.0431572483342215  0.3997678408406153
  0.2091806633179172  0.1685907599918767  0.4001178894930826
  0.2078328273723865  0.2928577662745092  0.4007673619533019
  0.2056358335482855  0.4167461609141735  0.4000095768044598
  0.2060258160058505  0.5413964938774936  0.3981394948740423
  0.2075000081006507  0.6668527321734738  0.3985717321838935
  0.2084709800049377  0.7923455973021362  0.3997006843367667
  0.2088602945193541  0.9177217565897071  0.4000560975279626
  0.3337982857357201  0.0430058133772184  0.3994542843450609
  0.3340320387883063  0.1690030579825393  0.4000126509692113
  0.3344866007847966  0.2958016329684356  0.4041122279785601
  0.3301680027735634  0.5417003433565891  0.4023251156260248
  0.3317253898397768  0.6661171982923240  0.3989195268109677
  0.3330301269976019  0.7916013242686475  0.3988446762999154
  0.3334726166670937  0.9171901967860512  0.3995337202448652
  0.4583694495013154  0.0416784171597150  0.3993319066884004
  0.4587256601560933  0.1674835196027237  0.3987940647043411
  0.4595575554566871  0.2933567935064024  0.4001171052754660
  0.4637025279618521  0.4190358564529976  0.4089294034846524
  0.4544092320292688  0.6619967523766209  0.4027581155121453
  0.4574917510364226  0.7899306632005779  0.3992743610797607
  0.4580324605687299  0.9159474398821564  0.3992704253903644
  0.5829229428519213  0.0405814078658467  0.3997665542327796
  0.5833628557330539  0.1662598846689017  0.3991701073317664
  0.5841056091198832  0.2917550008976723  0.3983723784739885
  0.5864196352988760  0.4174867030463658  0.3998482323294780
  0.5887113677937712  0.5437479314410826  0.4040926148033434
  0.5838083095710214  0.6628371358234219  0.4040914630461084
  0.5813722875962393  0.7875726098627608  0.4010675827643237
  0.5825807496382369  0.9146138692072806  0.3997454587960636
  0.7075931302727513  0.0403084587457861  0.4000712306110609
  0.7079367433998770  0.1657212555164705  0.4000820218040862
  0.7084965340158873  0.2911257116014465  0.3991708277140967
  0.7098391178360212  0.4164986975456254  0.3980904874835438
  0.7110159502171891  0.5418266344707382  0.3983871940576860
  0.7105561180591511  0.6672302993977181  0.3996345445696518
  0.7081155023598290  0.7906013331967043  0.3995882908715795
  0.7071352428102123  0.9147301695321559  0.3998137532100078
  0.8325649514265978  0.0406246574985528  0.3996473272370492
  0.8325957937699430  0.1657168802467121  0.4000167440919629
  0.8328633394143750  0.2909102567505685  0.3999735469850021
  0.8336897965719898  0.4163149355540608  0.3994078168221947
  0.8346364561480621  0.5418512856139177  0.3986988061290795
  0.8349117589662108  0.6672380808106695  0.3987071782306272
  0.8342517331594956  0.7921390142022661  0.3989257551894079
  0.8331684056348623  0.9162264510948421  0.3992171706202217
  0.9582549225163310  0.0416833059518768  0.3991870727630312
  0.9575701803903638  0.1660633637966084  0.3992334254354177
  0.9573385562723712  0.2910466634129626  0.3992859862842866
  0.9576413838009943  0.4162867062010929  0.3994342199157235
  0.9584770667728068  0.5417219447593351  0.3997269884012379
  0.9591657155608647  0.6672022867660359  0.3997522854244854
  0.9592651568585556  0.7925260646210537  0.3996055325147413
  0.9589650847230006  0.9173892276668487  0.3993328815755317
  0.4108508124103989  0.5818386366793102  0.4060641280347956
  0.5481516910054763  0.5832313477321318  0.4086253738715119
  0.3278009836030754  0.4171920410087156  0.4091327109815329
 
  0.00000000E+00  0.00000000E+00  0.00000000E+00
  0.00000000E+00  0.00000000E+00  0.00000000E+00
  0.00000000E+00  0.00000000E+00  0.00000000E+00
  0.00000000E+00  0.00000000E+00  0.00000000E+00
  0.00000000E+00  0.00000000E+00  0.00000000E+00
  0.00000000E+00  0.00000000E+00  0.00000000E+00
  0.00000000E+00  0.00000000E+00  0.00000000E+00
  0.00000000E+00  0.00000000E+00  0.00000000E+00
  0.00000000E+00  0.00000000E+00  0.00000000E+00
  0.00000000E+00  0.00000000E+00  0.00000000E+00
  0.00000000E+00  0.00000000E+00  0.00000000E+00
  0.00000000E+00  0.00000000E+00  0.00000000E+00
  0.00000000E+00  0.00000000E+00  0.00000000E+00
  0.00000000E+00  0.00000000E+00  0.00000000E+00
  0.00000000E+00  0.00000000E+00  0.00000000E+00
  0.00000000E+00  0.00000000E+00  0.00000000E+00
  0.00000000E+00  0.00000000E+00  0.00000000E+00
  0.00000000E+00  0.00000000E+00  0.00000000E+00
  0.00000000E+00  0.00000000E+00  0.00000000E+00
  0.00000000E+00  0.00000000E+00  0.00000000E+00
  0.00000000E+00  0.00000000E+00  0.00000000E+00
  0.00000000E+00  0.00000000E+00  0.00000000E+00
  0.00000000E+00  0.00000000E+00  0.00000000E+00
  0.00000000E+00  0.00000000E+00  0.00000000E+00
  0.00000000E+00  0.00000000E+00  0.00000000E+00
  0.00000000E+00  0.00000000E+00  0.00000000E+00
  0.00000000E+00  0.00000000E+00  0.00000000E+00
  0.00000000E+00  0.00000000E+00  0.00000000E+00
  0.00000000E+00  0.00000000E+00  0.00000000E+00
  0.00000000E+00  0.00000000E+00  0.00000000E+00
  0.00000000E+00  0.00000000E+00  0.00000000E+00
  0.00000000E+00  0.00000000E+00  0.00000000E+00
  0.00000000E+00  0.00000000E+00  0.00000000E+00
  0.00000000E+00  0.00000000E+00  0.00000000E+00
  0.00000000E+00  0.00000000E+00  0.00000000E+00
  0.00000000E+00  0.00000000E+00  0.00000000E+00
  0.00000000E+00  0.00000000E+00  0.00000000E+00
  0.00000000E+00  0.00000000E+00  0.00000000E+00
  0.00000000E+00  0.00000000E+00  0.00000000E+00
  0.00000000E+00  0.00000000E+00  0.00000000E+00
  0.00000000E+00  0.00000000E+00  0.00000000E+00
  0.00000000E+00  0.00000000E+00  0.00000000E+00
  0.00000000E+00  0.00000000E+00  0.00000000E+00
  0.00000000E+00  0.00000000E+00  0.00000000E+00
  0.00000000E+00  0.00000000E+00  0.00000000E+00
  0.00000000E+00  0.00000000E+00  0.00000000E+00
  0.00000000E+00  0.00000000E+00  0.00000000E+00
  0.00000000E+00  0.00000000E+00  0.00000000E+00
  0.00000000E+00  0.00000000E+00  0.00000000E+00
  0.00000000E+00  0.00000000E+00  0.00000000E+00
  0.00000000E+00  0.00000000E+00  0.00000000E+00
  0.00000000E+00  0.00000000E+00  0.00000000E+00
  0.00000000E+00  0.00000000E+00  0.00000000E+00
  0.00000000E+00  0.00000000E+00  0.00000000E+00
  0.00000000E+00  0.00000000E+00  0.00000000E+00
  0.00000000E+00  0.00000000E+00  0.00000000E+00
  0.00000000E+00  0.00000000E+00  0.00000000E+00
  0.00000000E+00  0.00000000E+00  0.00000000E+00
  0.00000000E+00  0.00000000E+00  0.00000000E+00
  0.00000000E+00  0.00000000E+00  0.00000000E+00
  0.00000000E+00  0.00000000E+00  0.00000000E+00
  0.00000000E+00  0.00000000E+00  0.00000000E+00
  0.00000000E+00  0.00000000E+00  0.00000000E+00
  0.00000000E+00  0.00000000E+00  0.00000000E+00
  0.00000000E+00  0.00000000E+00  0.00000000E+00
  0.00000000E+00  0.00000000E+00  0.00000000E+00
  0.00000000E+00  0.00000000E+00  0.00000000E+00
  0.00000000E+00  0.00000000E+00  0.00000000E+00
  0.00000000E+00  0.00000000E+00  0.00000000E+00
  0.00000000E+00  0.00000000E+00  0.00000000E+00
  0.00000000E+00  0.00000000E+00  0.00000000E+00
  0.00000000E+00  0.00000000E+00  0.00000000E+00
  0.00000000E+00  0.00000000E+00  0.00000000E+00
  0.00000000E+00  0.00000000E+00  0.00000000E+00
  0.00000000E+00  0.00000000E+00  0.00000000E+00
  0.00000000E+00  0.00000000E+00  0.00000000E+00
  0.00000000E+00  0.00000000E+00  0.00000000E+00
  0.00000000E+00  0.00000000E+00  0.00000000E+00
  0.00000000E+00  0.00000000E+00  0.00000000E+00
  0.00000000E+00  0.00000000E+00  0.00000000E+00
  0.00000000E+00  0.00000000E+00  0.00000000E+00
  0.00000000E+00  0.00000000E+00  0.00000000E+00
  0.00000000E+00  0.00000000E+00  0.00000000E+00
  0.00000000E+00  0.00000000E+00  0.00000000E+00
  0.00000000E+00  0.00000000E+00  0.00000000E+00
  0.00000000E+00  0.00000000E+00  0.00000000E+00
  0.00000000E+00  0.00000000E+00  0.00000000E+00
  0.00000000E+00  0.00000000E+00  0.00000000E+00
  0.00000000E+00  0.00000000E+00  0.00000000E+00
  0.00000000E+00  0.00000000E+00  0.00000000E+00
  0.00000000E+00  0.00000000E+00  0.00000000E+00
  0.00000000E+00  0.00000000E+00  0.00000000E+00
  0.00000000E+00  0.00000000E+00  0.00000000E+00
  0.00000000E+00  0.00000000E+00  0.00000000E+00
  0.00000000E+00  0.00000000E+00  0.00000000E+00
  0.00000000E+00  0.00000000E+00  0.00000000E+00
  0.00000000E+00  0.00000000E+00  0.00000000E+00
  0.00000000E+00  0.00000000E+00  0.00000000E+00
  0.00000000E+00  0.00000000E+00  0.00000000E+00
  0.00000000E+00  0.00000000E+00  0.00000000E+00
  0.00000000E+00  0.00000000E+00  0.00000000E+00
  0.00000000E+00  0.00000000E+00  0.00000000E+00
  0.00000000E+00  0.00000000E+00  0.00000000E+00
  0.00000000E+00  0.00000000E+00  0.00000000E+00
  0.00000000E+00  0.00000000E+00  0.00000000E+00
  0.00000000E+00  0.00000000E+00  0.00000000E+00
  0.00000000E+00  0.00000000E+00  0.00000000E+00
  0.00000000E+00  0.00000000E+00  0.00000000E+00
  0.00000000E+00  0.00000000E+00  0.00000000E+00
  0.00000000E+00  0.00000000E+00  0.00000000E+00
  0.00000000E+00  0.00000000E+00  0.00000000E+00
  0.00000000E+00  0.00000000E+00  0.00000000E+00
  0.00000000E+00  0.00000000E+00  0.00000000E+00
  0.00000000E+00  0.00000000E+00  0.00000000E+00
  0.00000000E+00  0.00000000E+00  0.00000000E+00
  0.00000000E+00  0.00000000E+00  0.00000000E+00
  0.00000000E+00  0.00000000E+00  0.00000000E+00
  0.00000000E+00  0.00000000E+00  0.00000000E+00
  0.00000000E+00  0.00000000E+00  0.00000000E+00
  0.00000000E+00  0.00000000E+00  0.00000000E+00
  0.00000000E+00  0.00000000E+00  0.00000000E+00
  0.00000000E+00  0.00000000E+00  0.00000000E+00
  0.00000000E+00  0.00000000E+00  0.00000000E+00
  0.00000000E+00  0.00000000E+00  0.00000000E+00
  0.00000000E+00  0.00000000E+00  0.00000000E+00
  0.00000000E+00  0.00000000E+00  0.00000000E+00
  0.00000000E+00  0.00000000E+00  0.00000000E+00
