Cr1 C125 N1                             
   1.00000000000000     
    19.8266545005936266   -0.0216909969422826    0.0036742287752250
    -9.9321328874545252   17.0771431912267957   -0.0070891833369893
     0.0055714562452521   -0.0092109488882351   29.7381463129245169
   Cr   C    N 
     1   125     1
Direct
  0.4369741185857570  0.4999574938836518  0.4232494979710767
  0.0419173524906025  0.0839338531896317  0.3998619908140011
  0.0414070298124961  0.2083668762804149  0.3997512397410905
  0.0409188517126946  0.3330246903125190  0.3997917595285573
  0.0407415448206996  0.4583686566160018  0.3998087279656309
  0.0412485779211255  0.5837437439211652  0.3998839412736748
  0.0417337478013019  0.7089895544288121  0.4000019242016720
  0.0420034193744810  0.8342309572919238  0.4000121230852060
  0.0421342558969720  0.9592928158336341  0.3999333472326044
  0.1675409168112820  0.0850549988055928  0.3998612381339099
  0.1673239452299010  0.2098361748727395  0.3999237843377729
  0.1662429389612327  0.3341544016130965  0.3997499366575982
  0.1645284082917106  0.4586860760544099  0.3998736200768517
  0.1650665034509525  0.5838902655692595  0.3995160654729610
  0.1661041607255945  0.7091728901503297  0.3998184553520757
  0.1667710359954440  0.8344151925086413  0.4000569714701867
  0.1671954523473119  0.9597012275133865  0.4000056829316727
  0.2924378453840971  0.0848241728089724  0.3999140140098217
  0.2934696724723748  0.2113255998751713  0.4005791005683823
  0.2932467197883227  0.3371519864500978  0.4008641775577076
  0.2890091185409323  0.4595501782230114  0.4008482476433682
  0.2885669631122001  0.5849103904751765  0.3999639695440330
  0.2903472386715557  0.7095122993216189  0.3996614543232299
  0.2913784024999910  0.8342442416533138  0.3998529750670185
  0.2918540688777670  0.9593475186256659  0.3999201792987467
  0.4170034848951360  0.0834867664972619  0.3996307692368142
  0.4177258435357661  0.2088177482162507  0.3996741038768343
  0.4201030121995126  0.3354434340302835  0.4044820340323908
  0.4145387648356055  0.7080543019748630  0.4005057401950937
  0.4159781499269835  0.8333268523395019  0.3996384137817093
  0.4165512786679850  0.9584300379072026  0.3998343339270518
  0.5416938405511537  0.0825414988979898  0.3998475927606654
  0.5423177652783701  0.2075063679494687  0.3994689982573146
  0.5434324979826483  0.3323610259913895  0.3998968931949972
  0.5457319098591700  0.4563151420473369  0.4037703845221980
  0.5446519027731210  0.5797669523937248  0.4027494389178000
  0.5383837082811610  0.7039012338702809  0.4018862026883072
  0.5403575949724548  0.8314300546146051  0.4001874612437068
  0.5412592264619507  0.9572417330331270  0.3998909659009168
  0.6663667303608460  0.0820902450853873  0.4000655947749943
  0.6669068119701460  0.2073170989329462  0.3999068961677616
  0.6677136547860514  0.3323758964355888  0.3993519873977258
  0.6693490640451517  0.4576529161780945  0.3990383184210415
  0.6698896740793745  0.5831877316233826  0.3998422208045094
  0.6659367245624495  0.7064237974513502  0.4000752172457341
  0.6649598557426969  0.8308156542981393  0.4001513185495046
  0.6658278730425544  0.9566757907901310  0.4000312595160566
  0.7911392757494925  0.0821360640362522  0.3999760301666166
  0.7914873591149781  0.2073101114604274  0.4000555533220559
  0.7920382315658239  0.3326235686772736  0.3999122455146848
  0.7929748519365558  0.4580633491462933  0.3996100274344554
  0.7933771460514124  0.5833371721863184  0.3994952246333610
  0.7925517718161675  0.7084641216427437  0.3994729968561734
  0.7911983243451437  0.8325220306863144  0.3998094781390560
  0.7907036268148506  0.9569304731501371  0.3999089212168551
  0.9162470041581224  0.0827286277903272  0.3998855856572369
  0.9162609182574695  0.2076305323001135  0.3999065732082911
  0.9163889935253736  0.3327782655714357  0.3999684471134564
  0.9167658850814171  0.4581161346123580  0.3999565724071723
  0.9173094213278918  0.5835831486665276  0.3999187653840666
  0.9172639838759593  0.7088755667617790  0.3998537600644700
  0.9169837397285807  0.8337358136205691  0.3998491593790919
  0.9165191945369121  0.9582137753951581  0.3998686849709552
  0.0839893373181573  0.0428512935686451  0.3998766301857188
  0.0836695905319553  0.1674359362868226  0.3998348110133768
  0.0827268564683381  0.2917794960187916  0.3996746604559637
  0.0819128507017729  0.4166615518590253  0.3997844946428389
  0.0822113516812216  0.5419094700436506  0.3997312299279516
  0.0830066432153456  0.6672976615231131  0.3999144246295399
  0.0835371642384500  0.7926367870199729  0.4000520645373455
  0.0837811086693851  0.9177868646677345  0.3999883414261168
  0.2090143593080825  0.0431913441360943  0.3999544983830068
  0.2094241972141316  0.1687432634324137  0.3999427271664738
  0.2090669259605861  0.2935976628840048  0.3999456580128370
  0.2060656277371982  0.4175230174722346  0.4001219210860670
  0.2057998357793828  0.5422256338264552  0.3995255496600445
  0.2072882284283175  0.6675484847742433  0.3996012728319039
  0.2081398760508329  0.7926426698153892  0.3999385700772522
  0.2086292995121380  0.9178681193554725  0.4000311565205774
  0.3337215132406277  0.0426984083608938  0.3998017722448379
  0.3344658894470673  0.1683235063980521  0.4001127826883162
  0.3356262787186908  0.2948133627084671  0.4023864358209088
  0.3312203043554826  0.4201761575608917  0.4010380165885382
  0.3304936234019161  0.5450262234869400  0.4020495032614502
  0.3314590756570009  0.6678933125822828  0.4000435084493408
  0.3327520512192352  0.7926123318255381  0.3996908950740475
  0.3333264498422538  0.9175137209294798  0.3998815644493112
  0.4584797540971709  0.0416441805163955  0.3997891657271717
  0.4590012370501126  0.1667082401012998  0.3993879939795255
  0.4601331121594909  0.2920579608521728  0.4006768546576570
  0.4649034791457903  0.4172630681259866  0.4101413622441359
  0.4536236754956563  0.6638510322794937  0.4028472735562577
  0.4572783845729415  0.7912868551498580  0.3998735740268386
  0.4579975903696729  0.9165436494993328  0.3997635089464928
  0.5831332989384665  0.0406502928732474  0.3999610705044720
  0.5836819419250771  0.1658429466631854  0.3997508926415819
  0.5845953097398480  0.2906809930640207  0.3993805584465615
  0.5865857828865921  0.4153637859771852  0.3999102361998005
  0.5876020722200301  0.5412501973333792  0.4019082825549534
  0.5815686119617861  0.6623607195631021  0.4012432035436512
  0.5807064613903613  0.7878977899624565  0.4006466285944550
  0.5824969073187973  0.9150554742630236  0.4000092771277514
  0.7077456576555506  0.0402106953803385  0.4000308171329796
  0.7082714073542297  0.1655763767839824  0.4000709770934324
  0.7088702624879036  0.2907508299699875  0.3997382780152348
  0.7101105217607785  0.4160419489100304  0.3991773027907043
  0.7108963463642974  0.5413782987777707  0.3993794875987529
  0.7092298791420365  0.6663343269697345  0.3995632033862304
  0.7074042138542818  0.7900277702617930  0.3999960064435596
  0.7070296876199794  0.9145988401073338  0.3999824421977466
  0.8326672718357094  0.0405660668100821  0.3999192101438938
  0.8329492696443908  0.1656883186541842  0.3999943443632332
  0.8333345701861803  0.2909451237173918  0.4000153601751096
  0.8339203764747963  0.4162241844389662  0.3998835986793904
  0.8344888266169923  0.5415963574689207  0.3996962285063193
  0.8342255991107328  0.6670261491233778  0.3995986423527598
  0.8336536673778250  0.7917450032846592  0.3996930357582132
  0.8328948736391725  0.9159863925071197  0.3998757969841738
  0.9582932632627703  0.0417072161803718  0.3998602956998557
  0.9580120919979963  0.1662696693879429  0.3998463248129407
  0.9578264016254823  0.2911296424422751  0.3999014402281561
  0.9578546809697928  0.4163618232945430  0.3999311568464339
  0.9584086304414233  0.5418420496852293  0.3999523459209599
  0.9587033682437947  0.6671979378118684  0.3999534129695645
  0.9587266477305707  0.7923535471675304  0.3999100846935403
  0.9586090910745487  0.9172090839469816  0.3998993189973877
  0.4092029492861607  0.5841235876162534  0.4058319211844145
 
  0.00000000E+00  0.00000000E+00  0.00000000E+00
  0.00000000E+00  0.00000000E+00  0.00000000E+00
  0.00000000E+00  0.00000000E+00  0.00000000E+00
  0.00000000E+00  0.00000000E+00  0.00000000E+00
  0.00000000E+00  0.00000000E+00  0.00000000E+00
  0.00000000E+00  0.00000000E+00  0.00000000E+00
  0.00000000E+00  0.00000000E+00  0.00000000E+00
  0.00000000E+00  0.00000000E+00  0.00000000E+00
  0.00000000E+00  0.00000000E+00  0.00000000E+00
  0.00000000E+00  0.00000000E+00  0.00000000E+00
  0.00000000E+00  0.00000000E+00  0.00000000E+00
  0.00000000E+00  0.00000000E+00  0.00000000E+00
  0.00000000E+00  0.00000000E+00  0.00000000E+00
  0.00000000E+00  0.00000000E+00  0.00000000E+00
  0.00000000E+00  0.00000000E+00  0.00000000E+00
  0.00000000E+00  0.00000000E+00  0.00000000E+00
  0.00000000E+00  0.00000000E+00  0.00000000E+00
  0.00000000E+00  0.00000000E+00  0.00000000E+00
  0.00000000E+00  0.00000000E+00  0.00000000E+00
  0.00000000E+00  0.00000000E+00  0.00000000E+00
  0.00000000E+00  0.00000000E+00  0.00000000E+00
  0.00000000E+00  0.00000000E+00  0.00000000E+00
  0.00000000E+00  0.00000000E+00  0.00000000E+00
  0.00000000E+00  0.00000000E+00  0.00000000E+00
  0.00000000E+00  0.00000000E+00  0.00000000E+00
  0.00000000E+00  0.00000000E+00  0.00000000E+00
  0.00000000E+00  0.00000000E+00  0.00000000E+00
  0.00000000E+00  0.00000000E+00  0.00000000E+00
  0.00000000E+00  0.00000000E+00  0.00000000E+00
  0.00000000E+00  0.00000000E+00  0.00000000E+00
  0.00000000E+00  0.00000000E+00  0.00000000E+00
  0.00000000E+00  0.00000000E+00  0.00000000E+00
  0.00000000E+00  0.00000000E+00  0.00000000E+00
  0.00000000E+00  0.00000000E+00  0.00000000E+00
  0.00000000E+00  0.00000000E+00  0.00000000E+00
  0.00000000E+00  0.00000000E+00  0.00000000E+00
  0.00000000E+00  0.00000000E+00  0.00000000E+00
  0.00000000E+00  0.00000000E+00  0.00000000E+00
  0.00000000E+00  0.00000000E+00  0.00000000E+00
  0.00000000E+00  0.00000000E+00  0.00000000E+00
  0.00000000E+00  0.00000000E+00  0.00000000E+00
  0.00000000E+00  0.00000000E+00  0.00000000E+00
  0.00000000E+00  0.00000000E+00  0.00000000E+00
  0.00000000E+00  0.00000000E+00  0.00000000E+00
  0.00000000E+00  0.00000000E+00  0.00000000E+00
  0.00000000E+00  0.00000000E+00  0.00000000E+00
  0.00000000E+00  0.00000000E+00  0.00000000E+00
  0.00000000E+00  0.00000000E+00  0.00000000E+00
  0.00000000E+00  0.00000000E+00  0.00000000E+00
  0.00000000E+00  0.00000000E+00  0.00000000E+00
  0.00000000E+00  0.00000000E+00  0.00000000E+00
  0.00000000E+00  0.00000000E+00  0.00000000E+00
  0.00000000E+00  0.00000000E+00  0.00000000E+00
  0.00000000E+00  0.00000000E+00  0.00000000E+00
  0.00000000E+00  0.00000000E+00  0.00000000E+00
  0.00000000E+00  0.00000000E+00  0.00000000E+00
  0.00000000E+00  0.00000000E+00  0.00000000E+00
  0.00000000E+00  0.00000000E+00  0.00000000E+00
  0.00000000E+00  0.00000000E+00  0.00000000E+00
  0.00000000E+00  0.00000000E+00  0.00000000E+00
  0.00000000E+00  0.00000000E+00  0.00000000E+00
  0.00000000E+00  0.00000000E+00  0.00000000E+00
  0.00000000E+00  0.00000000E+00  0.00000000E+00
  0.00000000E+00  0.00000000E+00  0.00000000E+00
  0.00000000E+00  0.00000000E+00  0.00000000E+00
  0.00000000E+00  0.00000000E+00  0.00000000E+00
  0.00000000E+00  0.00000000E+00  0.00000000E+00
  0.00000000E+00  0.00000000E+00  0.00000000E+00
  0.00000000E+00  0.00000000E+00  0.00000000E+00
  0.00000000E+00  0.00000000E+00  0.00000000E+00
  0.00000000E+00  0.00000000E+00  0.00000000E+00
  0.00000000E+00  0.00000000E+00  0.00000000E+00
  0.00000000E+00  0.00000000E+00  0.00000000E+00
  0.00000000E+00  0.00000000E+00  0.00000000E+00
  0.00000000E+00  0.00000000E+00  0.00000000E+00
  0.00000000E+00  0.00000000E+00  0.00000000E+00
  0.00000000E+00  0.00000000E+00  0.00000000E+00
  0.00000000E+00  0.00000000E+00  0.00000000E+00
  0.00000000E+00  0.00000000E+00  0.00000000E+00
  0.00000000E+00  0.00000000E+00  0.00000000E+00
  0.00000000E+00  0.00000000E+00  0.00000000E+00
  0.00000000E+00  0.00000000E+00  0.00000000E+00
  0.00000000E+00  0.00000000E+00  0.00000000E+00
  0.00000000E+00  0.00000000E+00  0.00000000E+00
  0.00000000E+00  0.00000000E+00  0.00000000E+00
  0.00000000E+00  0.00000000E+00  0.00000000E+00
  0.00000000E+00  0.00000000E+00  0.00000000E+00
  0.00000000E+00  0.00000000E+00  0.00000000E+00
  0.00000000E+00  0.00000000E+00  0.00000000E+00
  0.00000000E+00  0.00000000E+00  0.00000000E+00
  0.00000000E+00  0.00000000E+00  0.00000000E+00
  0.00000000E+00  0.00000000E+00  0.00000000E+00
  0.00000000E+00  0.00000000E+00  0.00000000E+00
  0.00000000E+00  0.00000000E+00  0.00000000E+00
  0.00000000E+00  0.00000000E+00  0.00000000E+00
  0.00000000E+00  0.00000000E+00  0.00000000E+00
  0.00000000E+00  0.00000000E+00  0.00000000E+00
  0.00000000E+00  0.00000000E+00  0.00000000E+00
  0.00000000E+00  0.00000000E+00  0.00000000E+00
  0.00000000E+00  0.00000000E+00  0.00000000E+00
  0.00000000E+00  0.00000000E+00  0.00000000E+00
  0.00000000E+00  0.00000000E+00  0.00000000E+00
  0.00000000E+00  0.00000000E+00  0.00000000E+00
  0.00000000E+00  0.00000000E+00  0.00000000E+00
  0.00000000E+00  0.00000000E+00  0.00000000E+00
  0.00000000E+00  0.00000000E+00  0.00000000E+00
  0.00000000E+00  0.00000000E+00  0.00000000E+00
  0.00000000E+00  0.00000000E+00  0.00000000E+00
  0.00000000E+00  0.00000000E+00  0.00000000E+00
  0.00000000E+00  0.00000000E+00  0.00000000E+00
  0.00000000E+00  0.00000000E+00  0.00000000E+00
  0.00000000E+00  0.00000000E+00  0.00000000E+00
  0.00000000E+00  0.00000000E+00  0.00000000E+00
  0.00000000E+00  0.00000000E+00  0.00000000E+00
  0.00000000E+00  0.00000000E+00  0.00000000E+00
  0.00000000E+00  0.00000000E+00  0.00000000E+00
  0.00000000E+00  0.00000000E+00  0.00000000E+00
  0.00000000E+00  0.00000000E+00  0.00000000E+00
  0.00000000E+00  0.00000000E+00  0.00000000E+00
  0.00000000E+00  0.00000000E+00  0.00000000E+00
  0.00000000E+00  0.00000000E+00  0.00000000E+00
  0.00000000E+00  0.00000000E+00  0.00000000E+00
  0.00000000E+00  0.00000000E+00  0.00000000E+00
  0.00000000E+00  0.00000000E+00  0.00000000E+00
  0.00000000E+00  0.00000000E+00  0.00000000E+00
  0.00000000E+00  0.00000000E+00  0.00000000E+00
  0.00000000E+00  0.00000000E+00  0.00000000E+00
