H1 Os1 C123 N3 O2                       
   1.00000000000000     
    19.8105147636527548    0.0203427879439484    0.5055557815230356
    -9.8905806663328573   17.0105999366524046   -0.1253520222345432
     0.7591890612768681    0.2226042342597322   29.8629983533977672
   H    Os   C    N    O 
     1     1   123     3     2
Direct
  0.5371004969756106  0.5574527654383419  0.5310854860869825
  0.4345341973084474  0.4988448343552416  0.4271990182299694
  0.0414579174916181  0.0840056230717995  0.3996699569534623
  0.0401764585179833  0.2078269097444038  0.3995133050055338
  0.0394157718396211  0.3326014279790080  0.3986254008348868
  0.0398064595909802  0.4579672487391870  0.3982557745736501
  0.0410429527380640  0.5836315430681989  0.3990566502653001
  0.0420646675629319  0.7092129492811141  0.3996588116145610
  0.0423761530701803  0.8345376809367071  0.3997932952267025
  0.0422157617408589  0.9596318842986179  0.3996987927344124
  0.1674401491399411  0.0855798646482837  0.4001683205887758
  0.1667252311687031  0.2101843641191160  0.4002756784502444
  0.1638278536019132  0.3331514578087281  0.3997498130054919
  0.1633123442352487  0.4580453498847475  0.3969753506969317
  0.1647392156381073  0.5834270557009315  0.3975223923409851
  0.1662592840473041  0.7088491243382199  0.3989693348908447
  0.1669712031690504  0.8344264128530452  0.3998163918887009
  0.1672759711154633  0.9600753116736300  0.3999947730994188
  0.2922827433568168  0.0859649992201321  0.4001647596477591
  0.2926503305433922  0.2128007651285086  0.4014784589856268
  0.2908310836111173  0.3378676471626161  0.4043956912214784
  0.2854610521891980  0.4575335685951354  0.4010043003768382
  0.2878515920132388  0.5824030509446141  0.3970818420833616
  0.2904828599038762  0.7078739928574479  0.3981706154777200
  0.2914658797600214  0.8336817194331132  0.3994622205641384
  0.2919337849588740  0.9596378888437901  0.3999721534287553
  0.4167149675536435  0.0843956361778162  0.3998049468904274
  0.4172920482207878  0.2110272735298089  0.3998596284048647
  0.4187660264499782  0.3390559494808673  0.4019636410367609
  0.4144104724008250  0.7045326731088996  0.3992578164459367
  0.4157408753814857  0.8314944134818347  0.3994044374190071
  0.4163410665102925  0.9580082834166154  0.3998001082560205
  0.5410392247035068  0.0825358678464109  0.3997092183762476
  0.5416511398430548  0.2086276141273794  0.3991910403813950
  0.5428589141992247  0.3345662345320798  0.3987683029086814
  0.5471063537582556  0.4603607607729316  0.4010274483261025
  0.5375227017679034  0.7006155261981784  0.4031785491139516
  0.5398525229902836  0.8293590940048675  0.4004770398948572
  0.5405753104118856  0.9562355118483084  0.3998471743347090
  0.6654087604902217  0.0816333422546130  0.3999382310693771
  0.6659374397658541  0.2073909280578237  0.3995416672393781
  0.6670189876123608  0.3330859041572819  0.3988223141320958
  0.6695337240165334  0.4588584410881025  0.3988352615099381
  0.6710095218651818  0.5843123987820446  0.4009388872888691
  0.6663458327291804  0.7060145172829632  0.4019793327685066
  0.6641352581942452  0.8296921344495735  0.4011146425157380
  0.6648976908116773  0.9557509926200587  0.4002218029197377
  0.7900295155205099  0.0815546085238773  0.3999361403524939
  0.7903043606967564  0.2070081570397374  0.3998967901685188
  0.7910919730512767  0.3326234001381677  0.3995521965547741
  0.7926273897035263  0.4583017232901476  0.3991293838311112
  0.7938854691319905  0.5838974065455381  0.3992455961125821
  0.7933545463883854  0.7089466346990284  0.4002302013673227
  0.7909492129539654  0.8322278332846955  0.4002229136431655
  0.7899331965460005  0.9563443604138752  0.4000466964355536
  0.9152975979713156  0.0822889049872367  0.3996836402873841
  0.9149454608211306  0.2070996615854230  0.3996206535748389
  0.9151470995377612  0.3324454777590719  0.3993943079836861
  0.9161661549496225  0.4581288240447818  0.3994620184329926
  0.9174060825887589  0.5837994449104282  0.3995262124787235
  0.9177962523883992  0.7091619645236130  0.3996030568276497
  0.9173700031771423  0.8341076004252541  0.3996914263190678
  0.9162188875743008  0.9581449447839153  0.3997220216619226
  0.0839515790617978  0.0432455892667570  0.3997924692372429
  0.0830744060701481  0.1675760788449079  0.3996869731744860
  0.0812653987326501  0.2912092241752936  0.3991795698404093
  0.0806368425466496  0.4159378815394699  0.3977243704000146
  0.0818272519179771  0.5415679179009855  0.3982161830713998
  0.0831601321024113  0.6672255277494602  0.3992713156213933
  0.0838226041533094  0.7927682544021132  0.3998111852961451
  0.0840360502846969  0.9181516803897551  0.3998268813119636
  0.2089724755353067  0.0438302548552106  0.4001532671172652
  0.2092192927936710  0.1695271590354519  0.4007290954523909
  0.2077134282901441  0.2938722463355012  0.4010627274361063
  0.2041302084075673  0.4162666064576577  0.3984304457795269
  0.2051329097144258  0.5410982129863595  0.3968170993097223
  0.2072013483431187  0.6667526224849710  0.3981139460566933
  0.2082776794575026  0.7924426550415332  0.3994429659153542
  0.2087539900852372  0.9181119149218921  0.3999819235559548
  0.3335800546058371  0.0434750928604431  0.3999782033358501
  0.3339228548865724  0.1700303373536995  0.4004759013128630
  0.3344025994935772  0.2975402286178956  0.4033582889174230
  0.3275867084088870  0.5403312064408918  0.3987818652416248
  0.3311752623364901  0.6655366195620707  0.3978443673178864
  0.3326750814195287  0.7913247415544796  0.3990341141173884
  0.3332083326250020  0.9172735330774739  0.3998101632333968
  0.4579424889873567  0.0417428351773667  0.3997887099148536
  0.4583844221210087  0.1681793236921508  0.3995502314555683
  0.4593532468020697  0.2950023156043806  0.3997055509041061
  0.4646205080423148  0.4224899906961683  0.4037360863701026
  0.4535662064495727  0.6597178618421068  0.4011837191476812
  0.4567809134191022  0.7885044347119805  0.3996788842371197
  0.4574747308006041  0.9153218490758012  0.3997015017889865
  0.5822412178605240  0.0401009687476653  0.3998369500912504
  0.5828037810552130  0.1662184762838944  0.3994597041317317
  0.5837647107129756  0.2920687440798495  0.3987380337511990
  0.5868132905036627  0.4178479266594285  0.3989411107568762
  0.5895429276236365  0.5433643327903488  0.4033086496782718
  0.5824432970763167  0.6611509326334328  0.4047126744555425
  0.5801984442082624  0.7860069681079136  0.4016522772146139
  0.5817183111409008  0.9136362307239358  0.4001327650179896
  0.7067443117028236  0.0395915400631352  0.4000258889657820
  0.7072184674810752  0.1653419201182254  0.3998552559969374
  0.7079739132873352  0.2910110961790009  0.3993056680219246
  0.7098298017933705  0.4165847576573329  0.3987553134397032
  0.7114627788338675  0.5419818120116916  0.3993315062972154
  0.7105538996804973  0.6670332220221227  0.4013140510563832
  0.7072201129173181  0.7895754961160597  0.4009413949385085
  0.7062371009056795  0.9137705732056368  0.4004163669074789
  0.8318230415849094  0.0400822614017749  0.3998609288626196
  0.8317984637776253  0.1652332033457006  0.3998824122241519
  0.8321243227335523  0.2905864565233475  0.3997452585000574
  0.8333180548940211  0.4162167751719649  0.3994508090041375
  0.8346767635241401  0.5418937962325597  0.3992335361247152
  0.8349736623042332  0.6673267726374111  0.3996335544040409
  0.8341224386299185  0.7920932930859443  0.4000020634869168
  0.8325732002652498  0.9157591985049669  0.3999489211341788
  0.9578992698475658  0.0416401937886696  0.3996533470873359
  0.9568916997320865  0.1657621399532090  0.3995719848965089
  0.9565135031534694  0.2906801270749205  0.3992351662560141
  0.9569556756340858  0.4160440670751113  0.3991291584514720
  0.9581739441418878  0.5417064352157812  0.3994568364752267
  0.9591164654093923  0.6673544062372638  0.3996151017605122
  0.9592455967139103  0.7927176939092304  0.3996894193546442
  0.9588312265629249  0.9175425200536959  0.3996593481676613
  0.4081718594544413  0.5775387471052247  0.4015965323544143
  0.5472014682009734  0.5808770153866689  0.4083923470931019
  0.3268836134136226  0.4194526964120591  0.4089946779953744
  0.5467536566032912  0.5295072767705149  0.5066215273622271
  0.4434662407749101  0.4939328457621822  0.4845481168754216
 
  0.00000000E+00  0.00000000E+00  0.00000000E+00
  0.00000000E+00  0.00000000E+00  0.00000000E+00
  0.00000000E+00  0.00000000E+00  0.00000000E+00
  0.00000000E+00  0.00000000E+00  0.00000000E+00
  0.00000000E+00  0.00000000E+00  0.00000000E+00
  0.00000000E+00  0.00000000E+00  0.00000000E+00
  0.00000000E+00  0.00000000E+00  0.00000000E+00
  0.00000000E+00  0.00000000E+00  0.00000000E+00
  0.00000000E+00  0.00000000E+00  0.00000000E+00
  0.00000000E+00  0.00000000E+00  0.00000000E+00
  0.00000000E+00  0.00000000E+00  0.00000000E+00
  0.00000000E+00  0.00000000E+00  0.00000000E+00
  0.00000000E+00  0.00000000E+00  0.00000000E+00
  0.00000000E+00  0.00000000E+00  0.00000000E+00
  0.00000000E+00  0.00000000E+00  0.00000000E+00
  0.00000000E+00  0.00000000E+00  0.00000000E+00
  0.00000000E+00  0.00000000E+00  0.00000000E+00
  0.00000000E+00  0.00000000E+00  0.00000000E+00
  0.00000000E+00  0.00000000E+00  0.00000000E+00
  0.00000000E+00  0.00000000E+00  0.00000000E+00
  0.00000000E+00  0.00000000E+00  0.00000000E+00
  0.00000000E+00  0.00000000E+00  0.00000000E+00
  0.00000000E+00  0.00000000E+00  0.00000000E+00
  0.00000000E+00  0.00000000E+00  0.00000000E+00
  0.00000000E+00  0.00000000E+00  0.00000000E+00
  0.00000000E+00  0.00000000E+00  0.00000000E+00
  0.00000000E+00  0.00000000E+00  0.00000000E+00
  0.00000000E+00  0.00000000E+00  0.00000000E+00
  0.00000000E+00  0.00000000E+00  0.00000000E+00
  0.00000000E+00  0.00000000E+00  0.00000000E+00
  0.00000000E+00  0.00000000E+00  0.00000000E+00
  0.00000000E+00  0.00000000E+00  0.00000000E+00
  0.00000000E+00  0.00000000E+00  0.00000000E+00
  0.00000000E+00  0.00000000E+00  0.00000000E+00
  0.00000000E+00  0.00000000E+00  0.00000000E+00
  0.00000000E+00  0.00000000E+00  0.00000000E+00
  0.00000000E+00  0.00000000E+00  0.00000000E+00
  0.00000000E+00  0.00000000E+00  0.00000000E+00
  0.00000000E+00  0.00000000E+00  0.00000000E+00
  0.00000000E+00  0.00000000E+00  0.00000000E+00
  0.00000000E+00  0.00000000E+00  0.00000000E+00
  0.00000000E+00  0.00000000E+00  0.00000000E+00
  0.00000000E+00  0.00000000E+00  0.00000000E+00
  0.00000000E+00  0.00000000E+00  0.00000000E+00
  0.00000000E+00  0.00000000E+00  0.00000000E+00
  0.00000000E+00  0.00000000E+00  0.00000000E+00
  0.00000000E+00  0.00000000E+00  0.00000000E+00
  0.00000000E+00  0.00000000E+00  0.00000000E+00
  0.00000000E+00  0.00000000E+00  0.00000000E+00
  0.00000000E+00  0.00000000E+00  0.00000000E+00
  0.00000000E+00  0.00000000E+00  0.00000000E+00
  0.00000000E+00  0.00000000E+00  0.00000000E+00
  0.00000000E+00  0.00000000E+00  0.00000000E+00
  0.00000000E+00  0.00000000E+00  0.00000000E+00
  0.00000000E+00  0.00000000E+00  0.00000000E+00
  0.00000000E+00  0.00000000E+00  0.00000000E+00
  0.00000000E+00  0.00000000E+00  0.00000000E+00
  0.00000000E+00  0.00000000E+00  0.00000000E+00
  0.00000000E+00  0.00000000E+00  0.00000000E+00
  0.00000000E+00  0.00000000E+00  0.00000000E+00
  0.00000000E+00  0.00000000E+00  0.00000000E+00
  0.00000000E+00  0.00000000E+00  0.00000000E+00
  0.00000000E+00  0.00000000E+00  0.00000000E+00
  0.00000000E+00  0.00000000E+00  0.00000000E+00
  0.00000000E+00  0.00000000E+00  0.00000000E+00
  0.00000000E+00  0.00000000E+00  0.00000000E+00
  0.00000000E+00  0.00000000E+00  0.00000000E+00
  0.00000000E+00  0.00000000E+00  0.00000000E+00
  0.00000000E+00  0.00000000E+00  0.00000000E+00
  0.00000000E+00  0.00000000E+00  0.00000000E+00
  0.00000000E+00  0.00000000E+00  0.00000000E+00
  0.00000000E+00  0.00000000E+00  0.00000000E+00
  0.00000000E+00  0.00000000E+00  0.00000000E+00
  0.00000000E+00  0.00000000E+00  0.00000000E+00
  0.00000000E+00  0.00000000E+00  0.00000000E+00
  0.00000000E+00  0.00000000E+00  0.00000000E+00
  0.00000000E+00  0.00000000E+00  0.00000000E+00
  0.00000000E+00  0.00000000E+00  0.00000000E+00
  0.00000000E+00  0.00000000E+00  0.00000000E+00
  0.00000000E+00  0.00000000E+00  0.00000000E+00
  0.00000000E+00  0.00000000E+00  0.00000000E+00
  0.00000000E+00  0.00000000E+00  0.00000000E+00
  0.00000000E+00  0.00000000E+00  0.00000000E+00
  0.00000000E+00  0.00000000E+00  0.00000000E+00
  0.00000000E+00  0.00000000E+00  0.00000000E+00
  0.00000000E+00  0.00000000E+00  0.00000000E+00
  0.00000000E+00  0.00000000E+00  0.00000000E+00
  0.00000000E+00  0.00000000E+00  0.00000000E+00
  0.00000000E+00  0.00000000E+00  0.00000000E+00
  0.00000000E+00  0.00000000E+00  0.00000000E+00
  0.00000000E+00  0.00000000E+00  0.00000000E+00
  0.00000000E+00  0.00000000E+00  0.00000000E+00
  0.00000000E+00  0.00000000E+00  0.00000000E+00
  0.00000000E+00  0.00000000E+00  0.00000000E+00
  0.00000000E+00  0.00000000E+00  0.00000000E+00
  0.00000000E+00  0.00000000E+00  0.00000000E+00
  0.00000000E+00  0.00000000E+00  0.00000000E+00
  0.00000000E+00  0.00000000E+00  0.00000000E+00
  0.00000000E+00  0.00000000E+00  0.00000000E+00
  0.00000000E+00  0.00000000E+00  0.00000000E+00
  0.00000000E+00  0.00000000E+00  0.00000000E+00
  0.00000000E+00  0.00000000E+00  0.00000000E+00
  0.00000000E+00  0.00000000E+00  0.00000000E+00
  0.00000000E+00  0.00000000E+00  0.00000000E+00
  0.00000000E+00  0.00000000E+00  0.00000000E+00
  0.00000000E+00  0.00000000E+00  0.00000000E+00
  0.00000000E+00  0.00000000E+00  0.00000000E+00
  0.00000000E+00  0.00000000E+00  0.00000000E+00
  0.00000000E+00  0.00000000E+00  0.00000000E+00
  0.00000000E+00  0.00000000E+00  0.00000000E+00
  0.00000000E+00  0.00000000E+00  0.00000000E+00
  0.00000000E+00  0.00000000E+00  0.00000000E+00
  0.00000000E+00  0.00000000E+00  0.00000000E+00
  0.00000000E+00  0.00000000E+00  0.00000000E+00
  0.00000000E+00  0.00000000E+00  0.00000000E+00
  0.00000000E+00  0.00000000E+00  0.00000000E+00
  0.00000000E+00  0.00000000E+00  0.00000000E+00
  0.00000000E+00  0.00000000E+00  0.00000000E+00
  0.00000000E+00  0.00000000E+00  0.00000000E+00
  0.00000000E+00  0.00000000E+00  0.00000000E+00
  0.00000000E+00  0.00000000E+00  0.00000000E+00
  0.00000000E+00  0.00000000E+00  0.00000000E+00
  0.00000000E+00  0.00000000E+00  0.00000000E+00
  0.00000000E+00  0.00000000E+00  0.00000000E+00
  0.00000000E+00  0.00000000E+00  0.00000000E+00
  0.00000000E+00  0.00000000E+00  0.00000000E+00
  0.00000000E+00  0.00000000E+00  0.00000000E+00
  0.00000000E+00  0.00000000E+00  0.00000000E+00
  0.00000000E+00  0.00000000E+00  0.00000000E+00
  0.00000000E+00  0.00000000E+00  0.00000000E+00
