H1 Os1 C126                             
   1.00000000000000     
    19.8078997746410899    0.0005508717894836   -0.0601642545774917
    -9.9033847746398749   17.0495197855765248    0.1366205203292841
    -0.0903982344925924    0.1859576056099535   29.7965097869950206
   H    Os   C 
     1     1   126
Direct
  0.4574869684689573  0.5365589971951884  0.4841739598314738
  0.4385363232733200  0.5011207578905321  0.4319473019663685
  0.0419870235061718  0.0839316708775024  0.3995987838245061
  0.0410108579516805  0.2079819949498991  0.3995391606188892
  0.0403703829816423  0.3326010957071610  0.3996257064849611
  0.0403854952807480  0.4580375863085777  0.3994935493620098
  0.0412677022022901  0.5835648870863361  0.3993617511169493
  0.0420289832926543  0.7089110016854709  0.3994319196974877
  0.0422967457731133  0.8342663582059643  0.3996562575184135
  0.0423402429742064  0.9592793053654775  0.3997555759772920
  0.1676163751140892  0.0851034724454598  0.3997973403226968
  0.1674485600371495  0.2099840013714274  0.3995655716677904
  0.1653929574989831  0.3332363961630045  0.3999093143029835
  0.1639790575666592  0.4581053034765551  0.4000871879490213
  0.1650129465982446  0.5833663099977489  0.3996805301765128
  0.1664617320748186  0.7088575840084942  0.3995708029830420
  0.1670817548389024  0.8342690442889822  0.3997074556426473
  0.1674280114617219  0.9597002992449197  0.3999659441157424
  0.2926082698646814  0.0851040475506597  0.3997730562997465
  0.2932818180446514  0.2114784608056076  0.4000772807717933
  0.2935312889074714  0.3374601065293084  0.4016872346699160
  0.2870218211910308  0.4578455684920463  0.4026034493152291
  0.2885749780223459  0.5832733992721804  0.4009046641581814
  0.2909495196385508  0.7085292059398354  0.3997773899235952
  0.2916282295326442  0.8337574615463572  0.3995726954831127
  0.2920859545010994  0.9592926827362702  0.3997690436034131
  0.4170722248540531  0.0839195107453077  0.3996060108877157
  0.4176159816762935  0.2099856397579450  0.3995712185383626
  0.4189973771612407  0.3374290822706381  0.4016374194236669
  0.4105144681321171  0.5788519044970024  0.4084111966561239
  0.4152676378437800  0.7060017128962347  0.4010755854753625
  0.4161959192299566  0.8323111461577125  0.3996085310477496
  0.4167027186179172  0.9581386427742129  0.3995401789874961
  0.5415901610144105  0.0825170345140028  0.3996167067432036
  0.5421034718922905  0.2079682845235477  0.3995315470434768
  0.5429499495110836  0.3332535370796320  0.3998882469564176
  0.5459482614437479  0.4578840687398869  0.4024651334055849
  0.5435917674506004  0.5789014138503112  0.4083056787321698
  0.5397458333549990  0.7043834422526896  0.4029583388177789
  0.5406667688012649  0.8309876346288103  0.4002583427260542
  0.5411927817752549  0.9569234396868341  0.3995893441157935
  0.6661675848625489  0.0819423718897080  0.3996566152993579
  0.6666030990860544  0.2073123864683053  0.3997277803421913
  0.6673530522368494  0.3326208197011836  0.3995688146835909
  0.6692248445642112  0.4581313756587174  0.3999822924744754
  0.6697994659257238  0.5832783359686013  0.4007200846424935
  0.6658245952531714  0.7059752164574994  0.4009589853272502
  0.6654004428732810  0.8309654374244694  0.4002384169398537
  0.6658142696907980  0.9564920656095535  0.3997537704187429
  0.7909088325133040  0.0819334657226014  0.3996572511148394
  0.7911349812828150  0.2071259920918825  0.3996814090158276
  0.7917052979822172  0.3325396234506993  0.3995500073211440
  0.7927601626947215  0.4580654380017049  0.3993679023197848
  0.7934206932089729  0.5833603207720744  0.3995354923770464
  0.7926466580175358  0.7085020641313163  0.3996674370081812
  0.7911762201134001  0.8322481910817704  0.3995356174597849
  0.7908297078894546  0.9568973804981639  0.3995653091624652
  0.9160701940459287  0.0825172008635942  0.3995910811111074
  0.9158421767534306  0.2073043713574355  0.3997362780529030
  0.9159581152470054  0.3325317929238635  0.3996132816722578
  0.9165435617437698  0.4579710642984844  0.3992325131585446
  0.9173891484973935  0.5835727284259594  0.3993051880362876
  0.9174680996360335  0.7088503893372542  0.3994801670595651
  0.9172175703139578  0.8337483631861575  0.3995022446403672
  0.9165635344233554  0.9581204599573663  0.3994834596623508
  0.0840988908324410  0.0428396156310756  0.3997358437371322
  0.0836806230800411  0.1674071424870508  0.3994988219398105
  0.0820825919512476  0.2911411021127531  0.3995575316205923
  0.0814088139969802  0.4162026168856998  0.3996315186767305
  0.0821384533073494  0.5415841132756003  0.3994940610720136
  0.0832386375943987  0.6671103727243689  0.3994595810228940
  0.0838267801907569  0.7925750194905226  0.3995708262772201
  0.0840201119321270  0.9177973186444480  0.3998513368107558
  0.2091696391366098  0.0432324783040332  0.3999189099802213
  0.2094017846819552  0.1687499518132106  0.3997596168939784
  0.2090824017482991  0.2937368447034531  0.4000407284792833
  0.2049943437388988  0.4162307240886561  0.4005999227481652
  0.2055721157591801  0.5414299720481937  0.4001133795706587
  0.2076009698634657  0.6670307301439568  0.3996520425347711
  0.2084227527493037  0.7924083766891025  0.3996330059116252
  0.2088769221978323  0.9177931446827140  0.3998742072047842
  0.3338576955570048  0.0428582730413793  0.3997233736015145
  0.3344444797034341  0.1687757689298861  0.3997436808212345
  0.3350667356474601  0.2950556993863439  0.4012059758267664
  0.3317786368164780  0.4206303787484925  0.4051515879582790
  0.3284947615524248  0.5416002185023788  0.4030763217621403
  0.3320623774361209  0.6665547291280423  0.4005518030956328
  0.3329705348509421  0.7917575645493166  0.3995776823338825
  0.3334497180772590  0.9171971293582810  0.3996084149697552
  0.4584230982161366  0.0416136322405072  0.3995830186621653
  0.4588497073090183  0.1674478687233316  0.3994992888906405
  0.4597469412469863  0.2937566080479864  0.4000188059357855
  0.4639619017242350  0.4205857764546058  0.4050874749614249
  0.4561071936795917  0.6624607554474393  0.4035733542600869
  0.4573447191838973  0.7897460421808963  0.4001556059755022
  0.4580061339840035  0.9158638204105055  0.3995273974735747
  0.5829511514926767  0.0404570998896298  0.3996122936041915
  0.5834144351687540  0.1659607832160021  0.3996602831842515
  0.5841701038382676  0.2911743066134422  0.3995412727267010
  0.5863330452192002  0.4162305608912784  0.4005211539817213
  0.5881860350518904  0.5415655296084183  0.4028854008275057
  0.5814953944333074  0.6624891064160111  0.4034778823531331
  0.5817840834503502  0.7884775551213450  0.4009276461537961
  0.5824821628773130  0.9147132653560425  0.3997892290411897
  0.7076027905537152  0.0400706009936922  0.3996590813088136
  0.7079699389456535  0.1654744300195686  0.3997067805222973
  0.7085393145815343  0.2908097077362066  0.3996469812975783
  0.7098836150824963  0.4162133721434846  0.3995318224717190
  0.7109162265658624  0.5414161040080185  0.3999558343945485
  0.7095808741379431  0.6665287426993061  0.4004199640348188
  0.7074721092846136  0.7897278348889305  0.4000903449166234
  0.7073433380227152  0.9147080979658968  0.3997840932260318
  0.8326429348612081  0.0404499102892336  0.3995917270772028
  0.8326189981627724  0.1654625049698329  0.3996982853326072
  0.8329323247488255  0.2907240867455519  0.3996311876778974
  0.8336592948642223  0.4160796704267025  0.3993291691908381
  0.8345198951795106  0.5415860398418111  0.3993734756875776
  0.8345451896877296  0.6670378255645787  0.3995241351004453
  0.8338904097944032  0.7917707488945506  0.3995001215063432
  0.8329832552791607  0.9158639735593924  0.3994545633797484
  0.9583220800301437  0.0416063580740161  0.3995547868763387
  0.9576584714049269  0.1659475445687334  0.3996576485990049
  0.9573569259331335  0.2907786513165235  0.3997057913112986
  0.9574931915716242  0.4160808662822444  0.3994167714779494
  0.9583606865382528  0.5416653688871109  0.3992121494959591
  0.9589591743540995  0.6671114192297641  0.3994043177397799
  0.9590748484327359  0.7924080827581322  0.3995503680344319
  0.9588656004923167  0.9172047133562357  0.3995625098175134
 
  0.00000000E+00  0.00000000E+00  0.00000000E+00
  0.00000000E+00  0.00000000E+00  0.00000000E+00
  0.00000000E+00  0.00000000E+00  0.00000000E+00
  0.00000000E+00  0.00000000E+00  0.00000000E+00
  0.00000000E+00  0.00000000E+00  0.00000000E+00
  0.00000000E+00  0.00000000E+00  0.00000000E+00
  0.00000000E+00  0.00000000E+00  0.00000000E+00
  0.00000000E+00  0.00000000E+00  0.00000000E+00
  0.00000000E+00  0.00000000E+00  0.00000000E+00
  0.00000000E+00  0.00000000E+00  0.00000000E+00
  0.00000000E+00  0.00000000E+00  0.00000000E+00
  0.00000000E+00  0.00000000E+00  0.00000000E+00
  0.00000000E+00  0.00000000E+00  0.00000000E+00
  0.00000000E+00  0.00000000E+00  0.00000000E+00
  0.00000000E+00  0.00000000E+00  0.00000000E+00
  0.00000000E+00  0.00000000E+00  0.00000000E+00
  0.00000000E+00  0.00000000E+00  0.00000000E+00
  0.00000000E+00  0.00000000E+00  0.00000000E+00
  0.00000000E+00  0.00000000E+00  0.00000000E+00
  0.00000000E+00  0.00000000E+00  0.00000000E+00
  0.00000000E+00  0.00000000E+00  0.00000000E+00
  0.00000000E+00  0.00000000E+00  0.00000000E+00
  0.00000000E+00  0.00000000E+00  0.00000000E+00
  0.00000000E+00  0.00000000E+00  0.00000000E+00
  0.00000000E+00  0.00000000E+00  0.00000000E+00
  0.00000000E+00  0.00000000E+00  0.00000000E+00
  0.00000000E+00  0.00000000E+00  0.00000000E+00
  0.00000000E+00  0.00000000E+00  0.00000000E+00
  0.00000000E+00  0.00000000E+00  0.00000000E+00
  0.00000000E+00  0.00000000E+00  0.00000000E+00
  0.00000000E+00  0.00000000E+00  0.00000000E+00
  0.00000000E+00  0.00000000E+00  0.00000000E+00
  0.00000000E+00  0.00000000E+00  0.00000000E+00
  0.00000000E+00  0.00000000E+00  0.00000000E+00
  0.00000000E+00  0.00000000E+00  0.00000000E+00
  0.00000000E+00  0.00000000E+00  0.00000000E+00
  0.00000000E+00  0.00000000E+00  0.00000000E+00
  0.00000000E+00  0.00000000E+00  0.00000000E+00
  0.00000000E+00  0.00000000E+00  0.00000000E+00
  0.00000000E+00  0.00000000E+00  0.00000000E+00
  0.00000000E+00  0.00000000E+00  0.00000000E+00
  0.00000000E+00  0.00000000E+00  0.00000000E+00
  0.00000000E+00  0.00000000E+00  0.00000000E+00
  0.00000000E+00  0.00000000E+00  0.00000000E+00
  0.00000000E+00  0.00000000E+00  0.00000000E+00
  0.00000000E+00  0.00000000E+00  0.00000000E+00
  0.00000000E+00  0.00000000E+00  0.00000000E+00
  0.00000000E+00  0.00000000E+00  0.00000000E+00
  0.00000000E+00  0.00000000E+00  0.00000000E+00
  0.00000000E+00  0.00000000E+00  0.00000000E+00
  0.00000000E+00  0.00000000E+00  0.00000000E+00
  0.00000000E+00  0.00000000E+00  0.00000000E+00
  0.00000000E+00  0.00000000E+00  0.00000000E+00
  0.00000000E+00  0.00000000E+00  0.00000000E+00
  0.00000000E+00  0.00000000E+00  0.00000000E+00
  0.00000000E+00  0.00000000E+00  0.00000000E+00
  0.00000000E+00  0.00000000E+00  0.00000000E+00
  0.00000000E+00  0.00000000E+00  0.00000000E+00
  0.00000000E+00  0.00000000E+00  0.00000000E+00
  0.00000000E+00  0.00000000E+00  0.00000000E+00
  0.00000000E+00  0.00000000E+00  0.00000000E+00
  0.00000000E+00  0.00000000E+00  0.00000000E+00
  0.00000000E+00  0.00000000E+00  0.00000000E+00
  0.00000000E+00  0.00000000E+00  0.00000000E+00
  0.00000000E+00  0.00000000E+00  0.00000000E+00
  0.00000000E+00  0.00000000E+00  0.00000000E+00
  0.00000000E+00  0.00000000E+00  0.00000000E+00
  0.00000000E+00  0.00000000E+00  0.00000000E+00
  0.00000000E+00  0.00000000E+00  0.00000000E+00
  0.00000000E+00  0.00000000E+00  0.00000000E+00
  0.00000000E+00  0.00000000E+00  0.00000000E+00
  0.00000000E+00  0.00000000E+00  0.00000000E+00
  0.00000000E+00  0.00000000E+00  0.00000000E+00
  0.00000000E+00  0.00000000E+00  0.00000000E+00
  0.00000000E+00  0.00000000E+00  0.00000000E+00
  0.00000000E+00  0.00000000E+00  0.00000000E+00
  0.00000000E+00  0.00000000E+00  0.00000000E+00
  0.00000000E+00  0.00000000E+00  0.00000000E+00
  0.00000000E+00  0.00000000E+00  0.00000000E+00
  0.00000000E+00  0.00000000E+00  0.00000000E+00
  0.00000000E+00  0.00000000E+00  0.00000000E+00
  0.00000000E+00  0.00000000E+00  0.00000000E+00
  0.00000000E+00  0.00000000E+00  0.00000000E+00
  0.00000000E+00  0.00000000E+00  0.00000000E+00
  0.00000000E+00  0.00000000E+00  0.00000000E+00
  0.00000000E+00  0.00000000E+00  0.00000000E+00
  0.00000000E+00  0.00000000E+00  0.00000000E+00
  0.00000000E+00  0.00000000E+00  0.00000000E+00
  0.00000000E+00  0.00000000E+00  0.00000000E+00
  0.00000000E+00  0.00000000E+00  0.00000000E+00
  0.00000000E+00  0.00000000E+00  0.00000000E+00
  0.00000000E+00  0.00000000E+00  0.00000000E+00
  0.00000000E+00  0.00000000E+00  0.00000000E+00
  0.00000000E+00  0.00000000E+00  0.00000000E+00
  0.00000000E+00  0.00000000E+00  0.00000000E+00
  0.00000000E+00  0.00000000E+00  0.00000000E+00
  0.00000000E+00  0.00000000E+00  0.00000000E+00
  0.00000000E+00  0.00000000E+00  0.00000000E+00
  0.00000000E+00  0.00000000E+00  0.00000000E+00
  0.00000000E+00  0.00000000E+00  0.00000000E+00
  0.00000000E+00  0.00000000E+00  0.00000000E+00
  0.00000000E+00  0.00000000E+00  0.00000000E+00
  0.00000000E+00  0.00000000E+00  0.00000000E+00
  0.00000000E+00  0.00000000E+00  0.00000000E+00
  0.00000000E+00  0.00000000E+00  0.00000000E+00
  0.00000000E+00  0.00000000E+00  0.00000000E+00
  0.00000000E+00  0.00000000E+00  0.00000000E+00
  0.00000000E+00  0.00000000E+00  0.00000000E+00
  0.00000000E+00  0.00000000E+00  0.00000000E+00
  0.00000000E+00  0.00000000E+00  0.00000000E+00
  0.00000000E+00  0.00000000E+00  0.00000000E+00
  0.00000000E+00  0.00000000E+00  0.00000000E+00
  0.00000000E+00  0.00000000E+00  0.00000000E+00
  0.00000000E+00  0.00000000E+00  0.00000000E+00
  0.00000000E+00  0.00000000E+00  0.00000000E+00
  0.00000000E+00  0.00000000E+00  0.00000000E+00
  0.00000000E+00  0.00000000E+00  0.00000000E+00
  0.00000000E+00  0.00000000E+00  0.00000000E+00
  0.00000000E+00  0.00000000E+00  0.00000000E+00
  0.00000000E+00  0.00000000E+00  0.00000000E+00
  0.00000000E+00  0.00000000E+00  0.00000000E+00
  0.00000000E+00  0.00000000E+00  0.00000000E+00
  0.00000000E+00  0.00000000E+00  0.00000000E+00
  0.00000000E+00  0.00000000E+00  0.00000000E+00
  0.00000000E+00  0.00000000E+00  0.00000000E+00
  0.00000000E+00  0.00000000E+00  0.00000000E+00
  0.00000000E+00  0.00000000E+00  0.00000000E+00
  0.00000000E+00  0.00000000E+00  0.00000000E+00
