Cu1 H1 C125 N1 O2                       
   1.00000000000000     
    19.8203416253552689   -0.0035232410972296    0.0689118763990985
    -9.9132894739480619   17.0488164919508769   -0.0043336880722171
     0.1034415697930171    0.0528839205267948   29.7816125505894611
   Cu   H    C    N    O 
     1     1   125     1     2
Direct
  0.4373014327395168  0.5001467171542279  0.4084740002272790
  0.5271187444185921  0.5472212789288087  0.5162859484289941
  0.0417508696317067  0.0839485250907765  0.4000158051651767
  0.0408402116912073  0.2080949640343926  0.4001451856986189
  0.0402919151960889  0.3326947628030610  0.3999410680048135
  0.0404486341305147  0.4581767332725553  0.3995598402337668
  0.0413234822873198  0.5837241345430080  0.3992872178153010
  0.0420743482982133  0.7091533819265964  0.3993090693652875
  0.0424077626528514  0.8345405427596345  0.3994616570105293
  0.0423846814714212  0.9595595756198824  0.3996965207235478
  0.1676216436069966  0.0854042491270821  0.4005268854812820
  0.1670063781188999  0.2099113130895233  0.4012583487378563
  0.1654158606863229  0.3337400015975885  0.4013356356622947
  0.1641085855094694  0.4582534098122523  0.4007073030020483
  0.1650458926332429  0.5836139753878300  0.4000019783710339
  0.1662871357205586  0.7091332998379704  0.3995359482190553
  0.1670607341883901  0.8346041613627003  0.3994869623203499
  0.1675055555862867  0.9600815895422726  0.3998171159847975
  0.2926622415801212  0.0854584099003189  0.4005479915396747
  0.2934299020953774  0.2119976995054729  0.4021078609331286
  0.2925133903377743  0.3372919573282425  0.4034323032651518
  0.2881809054622712  0.4587724029907155  0.4030121567859663
  0.2885020856913722  0.5841092614981156  0.4017156435135772
  0.2904560085623152  0.7090132648065395  0.4004255616074903
  0.2915125462388007  0.8341495043396424  0.3996860044965293
  0.2920667094649327  0.9596412770649994  0.3997103093769490
  0.4170764598597209  0.0840586518971337  0.4000736173550206
  0.4177572530537262  0.2100918888814129  0.4013969064342843
  0.4194877105260081  0.3377449353059076  0.4038590216180735
  0.4144429728635710  0.7063992455769097  0.4022254577212008
  0.4159204363374749  0.8325607783733423  0.4004404077879992
  0.4165528571835781  0.9583319985927812  0.3997391901208467
  0.5415430090901916  0.0825124141480831  0.3996951628178371
  0.5421987193171041  0.2079474174770295  0.4002796691044698
  0.5431209069086453  0.3331776608844081  0.4017736472475381
  0.5462432631465558  0.4579537904062520  0.4042610572657420
  0.5450839588836999  0.5793723797927626  0.4059711515041835
  0.5381838217243786  0.7027720344562011  0.4038652878780606
  0.5400296482372172  0.8305232441569724  0.4013773543079662
  0.5409956761789648  0.9567666331408889  0.4000191285736043
  0.6660136888581681  0.0817627435649190  0.3996378682685427
  0.6666019652416127  0.2072488549090337  0.3995622472455697
  0.6674461162061206  0.3325641533762578  0.4000884310703066
  0.6693798286245245  0.4580571330704074  0.4011946668281690
  0.6707920993510061  0.5837541650831352  0.4024964202936668
  0.6661601025053986  0.7061420201843869  0.4026113785802532
  0.6646723041827516  0.8301889374518924  0.4014583977439606
  0.6654658403297072  0.9561615800713621  0.4002681091527349
  0.7906810938289762  0.0817238460819256  0.3996450597422116
  0.7910520786501806  0.2070447480276651  0.3994620080355548
  0.7917392373687133  0.3325228790376740  0.3993383011147776
  0.7928953954689778  0.4581173715100579  0.3995372351907640
  0.7937878493155034  0.5835451468650336  0.4000915723741666
  0.7931182885325511  0.7087559787932317  0.4006391377291354
  0.7912130410506117  0.8323361507421007  0.4004700453140655
  0.7903940968166110  0.9565559766270432  0.4000119112408370
  0.9158452296316673  0.0824428556703050  0.3996710798758125
  0.9156869017074358  0.2072812169571769  0.3995621330771756
  0.9159371765672417  0.3325502797392334  0.3993666454551819
  0.9166347571500087  0.4580644854632842  0.3991667766254307
  0.9175636817568322  0.5837000920301110  0.3992135115359436
  0.9177544348367720  0.7091321272681224  0.3994973778124895
  0.9173862025508223  0.8339668032833447  0.3996866566500010
  0.9164778498250433  0.9581618152895162  0.3997094565340130
  0.0840798745893405  0.0431031598617087  0.4000480241097515
  0.0833564008258911  0.1673903891258952  0.4004261056689556
  0.0820874788305957  0.2914526945741074  0.4003945794052605
  0.0815530193734195  0.4163719534729493  0.4000043064245843
  0.0821864620299047  0.5417648249331558  0.3995523512527598
  0.0832175461337069  0.6673302072513854  0.3993386490058605
  0.0838974551349209  0.7928592442540752  0.3994253007827608
  0.0841453303475864  0.9181393207473507  0.3996411778193301
  0.2092391152270793  0.0436264790753198  0.4002983119804217
  0.2093767397535892  0.1691135482956205  0.4013245713653863
  0.2084248905861497  0.2935664717672787  0.4020535401310437
  0.2054266295584105  0.4168901353540582  0.4016271706255965
  0.2056888508614728  0.5417318445124895  0.4007060718936825
  0.2074012576787466  0.6673029712996568  0.3999416020840283
  0.2083330747237018  0.7926858050585578  0.3995258863824955
  0.2089139525809530  0.9181653406693825  0.3996422794106894
  0.3338906690918264  0.0431600511572306  0.4000658639855311
  0.3345834034454098  0.1691074994227356  0.4013970991153456
  0.3350586010060763  0.2954450529978724  0.4034140413601380
  0.3307235174882014  0.4198144435124731  0.4040095196653289
  0.3298434096710735  0.5434638254479744  0.4031234813833078
  0.3314594272352557  0.6670367377040373  0.4014352903103969
  0.3327559108636762  0.7921927890427810  0.4001430403077366
  0.3334189920540590  0.9175657008864054  0.3996540657428646
  0.4583981962712003  0.0417652463456359  0.3997786617760479
  0.4589464533774701  0.1675398314654862  0.4005359560524918
  0.4599844105498965  0.2937259168779960  0.4023846007634306
  0.4648309250619527  0.4203087696118704  0.4048804471191580
  0.4534519473554419  0.6615386578770049  0.4037548617946550
  0.4570599174802309  0.7900571630281799  0.4013343611840711
  0.4578207000423801  0.9159975376845404  0.4000041906956784
  0.5828682262952813  0.0403656994538245  0.3997016405514505
  0.5834548482483966  0.1659166696164767  0.3997637528831086
  0.5843162505968624  0.2911196362801362  0.4006436206187982
  0.5865152026359771  0.4160239642897221  0.4024330163040198
  0.5888291750498079  0.5420779459048372  0.4046049373496606
  0.5816974233869392  0.6617052243465806  0.4045533521906272
  0.5803495567177973  0.7869131708941942  0.4022722699118933
  0.5821395298287214  0.9143594860373483  0.4004992821608611
  0.7073454267492015  0.0397685728661609  0.3997952330314475
  0.7079060660406801  0.1653527699864290  0.3994990444939930
  0.7085912499537255  0.2907524540211696  0.3995726820779903
  0.7100029790613338  0.4162515111443491  0.4001607494923055
  0.7114022813904773  0.5416915784148826  0.4011508263668932
  0.7099385277082649  0.6666708208603583  0.4019081335728270
  0.7073949754910295  0.7896583166153391  0.4014379765127890
  0.7067220407531477  0.9140752220149050  0.4005131613960569
  0.8323022594808032  0.0402012894682946  0.3997003076930341
  0.8324582643093401  0.1653289451376842  0.3995082143121627
  0.8329355225329570  0.2907244267481686  0.3993531365408374
  0.8337704168073475  0.4161596192123288  0.3992599019775993
  0.8347594130679870  0.5416999770699817  0.3994946653146015
  0.8347951928982744  0.6672690361771568  0.4000112587796342
  0.8340990616040066  0.7919631681708161  0.4002184511551498
  0.8328181259490615  0.9157991515757240  0.3999874594152741
  0.9581346174658542  0.0416151894057961  0.3997359294945968
  0.9575039245969942  0.1659592349524221  0.3997308137711872
  0.9572675351902307  0.2907968398482807  0.3995705111220640
  0.9575611408993862  0.4161779953896191  0.3993034152829719
  0.9585213741702162  0.5418229563436268  0.3991546535769528
  0.9590992319889032  0.6673558424934678  0.3992805178327147
  0.9592137108669044  0.7926437792097154  0.3994998530534267
  0.9588797562701082  0.9173913978965809  0.3996265834390572
  0.4088358433151047  0.5810879968778128  0.4041792042315219
  0.4880623187191701  0.4935067425101842  0.5073009832730736
  0.4341103590614617  0.5035799279388996  0.4840812420225078
 
  0.00000000E+00  0.00000000E+00  0.00000000E+00
  0.00000000E+00  0.00000000E+00  0.00000000E+00
  0.00000000E+00  0.00000000E+00  0.00000000E+00
  0.00000000E+00  0.00000000E+00  0.00000000E+00
  0.00000000E+00  0.00000000E+00  0.00000000E+00
  0.00000000E+00  0.00000000E+00  0.00000000E+00
  0.00000000E+00  0.00000000E+00  0.00000000E+00
  0.00000000E+00  0.00000000E+00  0.00000000E+00
  0.00000000E+00  0.00000000E+00  0.00000000E+00
  0.00000000E+00  0.00000000E+00  0.00000000E+00
  0.00000000E+00  0.00000000E+00  0.00000000E+00
  0.00000000E+00  0.00000000E+00  0.00000000E+00
  0.00000000E+00  0.00000000E+00  0.00000000E+00
  0.00000000E+00  0.00000000E+00  0.00000000E+00
  0.00000000E+00  0.00000000E+00  0.00000000E+00
  0.00000000E+00  0.00000000E+00  0.00000000E+00
  0.00000000E+00  0.00000000E+00  0.00000000E+00
  0.00000000E+00  0.00000000E+00  0.00000000E+00
  0.00000000E+00  0.00000000E+00  0.00000000E+00
  0.00000000E+00  0.00000000E+00  0.00000000E+00
  0.00000000E+00  0.00000000E+00  0.00000000E+00
  0.00000000E+00  0.00000000E+00  0.00000000E+00
  0.00000000E+00  0.00000000E+00  0.00000000E+00
  0.00000000E+00  0.00000000E+00  0.00000000E+00
  0.00000000E+00  0.00000000E+00  0.00000000E+00
  0.00000000E+00  0.00000000E+00  0.00000000E+00
  0.00000000E+00  0.00000000E+00  0.00000000E+00
  0.00000000E+00  0.00000000E+00  0.00000000E+00
  0.00000000E+00  0.00000000E+00  0.00000000E+00
  0.00000000E+00  0.00000000E+00  0.00000000E+00
  0.00000000E+00  0.00000000E+00  0.00000000E+00
  0.00000000E+00  0.00000000E+00  0.00000000E+00
  0.00000000E+00  0.00000000E+00  0.00000000E+00
  0.00000000E+00  0.00000000E+00  0.00000000E+00
  0.00000000E+00  0.00000000E+00  0.00000000E+00
  0.00000000E+00  0.00000000E+00  0.00000000E+00
  0.00000000E+00  0.00000000E+00  0.00000000E+00
  0.00000000E+00  0.00000000E+00  0.00000000E+00
  0.00000000E+00  0.00000000E+00  0.00000000E+00
  0.00000000E+00  0.00000000E+00  0.00000000E+00
  0.00000000E+00  0.00000000E+00  0.00000000E+00
  0.00000000E+00  0.00000000E+00  0.00000000E+00
  0.00000000E+00  0.00000000E+00  0.00000000E+00
  0.00000000E+00  0.00000000E+00  0.00000000E+00
  0.00000000E+00  0.00000000E+00  0.00000000E+00
  0.00000000E+00  0.00000000E+00  0.00000000E+00
  0.00000000E+00  0.00000000E+00  0.00000000E+00
  0.00000000E+00  0.00000000E+00  0.00000000E+00
  0.00000000E+00  0.00000000E+00  0.00000000E+00
  0.00000000E+00  0.00000000E+00  0.00000000E+00
  0.00000000E+00  0.00000000E+00  0.00000000E+00
  0.00000000E+00  0.00000000E+00  0.00000000E+00
  0.00000000E+00  0.00000000E+00  0.00000000E+00
  0.00000000E+00  0.00000000E+00  0.00000000E+00
  0.00000000E+00  0.00000000E+00  0.00000000E+00
  0.00000000E+00  0.00000000E+00  0.00000000E+00
  0.00000000E+00  0.00000000E+00  0.00000000E+00
  0.00000000E+00  0.00000000E+00  0.00000000E+00
  0.00000000E+00  0.00000000E+00  0.00000000E+00
  0.00000000E+00  0.00000000E+00  0.00000000E+00
  0.00000000E+00  0.00000000E+00  0.00000000E+00
  0.00000000E+00  0.00000000E+00  0.00000000E+00
  0.00000000E+00  0.00000000E+00  0.00000000E+00
  0.00000000E+00  0.00000000E+00  0.00000000E+00
  0.00000000E+00  0.00000000E+00  0.00000000E+00
  0.00000000E+00  0.00000000E+00  0.00000000E+00
  0.00000000E+00  0.00000000E+00  0.00000000E+00
  0.00000000E+00  0.00000000E+00  0.00000000E+00
  0.00000000E+00  0.00000000E+00  0.00000000E+00
  0.00000000E+00  0.00000000E+00  0.00000000E+00
  0.00000000E+00  0.00000000E+00  0.00000000E+00
  0.00000000E+00  0.00000000E+00  0.00000000E+00
  0.00000000E+00  0.00000000E+00  0.00000000E+00
  0.00000000E+00  0.00000000E+00  0.00000000E+00
  0.00000000E+00  0.00000000E+00  0.00000000E+00
  0.00000000E+00  0.00000000E+00  0.00000000E+00
  0.00000000E+00  0.00000000E+00  0.00000000E+00
  0.00000000E+00  0.00000000E+00  0.00000000E+00
  0.00000000E+00  0.00000000E+00  0.00000000E+00
  0.00000000E+00  0.00000000E+00  0.00000000E+00
  0.00000000E+00  0.00000000E+00  0.00000000E+00
  0.00000000E+00  0.00000000E+00  0.00000000E+00
  0.00000000E+00  0.00000000E+00  0.00000000E+00
  0.00000000E+00  0.00000000E+00  0.00000000E+00
  0.00000000E+00  0.00000000E+00  0.00000000E+00
  0.00000000E+00  0.00000000E+00  0.00000000E+00
  0.00000000E+00  0.00000000E+00  0.00000000E+00
  0.00000000E+00  0.00000000E+00  0.00000000E+00
  0.00000000E+00  0.00000000E+00  0.00000000E+00
  0.00000000E+00  0.00000000E+00  0.00000000E+00
  0.00000000E+00  0.00000000E+00  0.00000000E+00
  0.00000000E+00  0.00000000E+00  0.00000000E+00
  0.00000000E+00  0.00000000E+00  0.00000000E+00
  0.00000000E+00  0.00000000E+00  0.00000000E+00
  0.00000000E+00  0.00000000E+00  0.00000000E+00
  0.00000000E+00  0.00000000E+00  0.00000000E+00
  0.00000000E+00  0.00000000E+00  0.00000000E+00
  0.00000000E+00  0.00000000E+00  0.00000000E+00
  0.00000000E+00  0.00000000E+00  0.00000000E+00
  0.00000000E+00  0.00000000E+00  0.00000000E+00
  0.00000000E+00  0.00000000E+00  0.00000000E+00
  0.00000000E+00  0.00000000E+00  0.00000000E+00
  0.00000000E+00  0.00000000E+00  0.00000000E+00
  0.00000000E+00  0.00000000E+00  0.00000000E+00
  0.00000000E+00  0.00000000E+00  0.00000000E+00
  0.00000000E+00  0.00000000E+00  0.00000000E+00
  0.00000000E+00  0.00000000E+00  0.00000000E+00
  0.00000000E+00  0.00000000E+00  0.00000000E+00
  0.00000000E+00  0.00000000E+00  0.00000000E+00
  0.00000000E+00  0.00000000E+00  0.00000000E+00
  0.00000000E+00  0.00000000E+00  0.00000000E+00
  0.00000000E+00  0.00000000E+00  0.00000000E+00
  0.00000000E+00  0.00000000E+00  0.00000000E+00
  0.00000000E+00  0.00000000E+00  0.00000000E+00
  0.00000000E+00  0.00000000E+00  0.00000000E+00
  0.00000000E+00  0.00000000E+00  0.00000000E+00
  0.00000000E+00  0.00000000E+00  0.00000000E+00
  0.00000000E+00  0.00000000E+00  0.00000000E+00
  0.00000000E+00  0.00000000E+00  0.00000000E+00
  0.00000000E+00  0.00000000E+00  0.00000000E+00
  0.00000000E+00  0.00000000E+00  0.00000000E+00
  0.00000000E+00  0.00000000E+00  0.00000000E+00
  0.00000000E+00  0.00000000E+00  0.00000000E+00
  0.00000000E+00  0.00000000E+00  0.00000000E+00
  0.00000000E+00  0.00000000E+00  0.00000000E+00
  0.00000000E+00  0.00000000E+00  0.00000000E+00
  0.00000000E+00  0.00000000E+00  0.00000000E+00
  0.00000000E+00  0.00000000E+00  0.00000000E+00
  0.00000000E+00  0.00000000E+00  0.00000000E+00
  0.00000000E+00  0.00000000E+00  0.00000000E+00
