W1 C122 N4 O1                           
   1.00000000000000     
    19.8022492659954104    0.0003557019917726    0.1046215967206172
    -9.9010176100072318   17.0251247615388408   -0.1105370635529115
     0.1576141337918063   -0.1019567774684493   29.8476352349514755
   W    C    N    O 
     1   122     4     1
Direct
  0.4423871123274424  0.5005229290674993  0.4321283582268156
  0.0421500124406173  0.0843912270964080  0.4000274040673705
  0.0413030313683729  0.2084664269814295  0.3997922987176479
  0.0405020673385359  0.3331442529441982  0.3985630348568329
  0.0405340485855754  0.4582682529085498  0.3979383280950354
  0.0413184478280532  0.5837157097926634  0.3987755824865739
  0.0419178957139658  0.7090425779919364  0.3994071683239779
  0.0421272632364908  0.8342290651689984  0.3997311890068753
  0.0423254911623260  0.9595727271069872  0.3999310358348906
  0.1680350766803242  0.0857857149439358  0.4007830912690588
  0.1679793630594041  0.2109241766458949  0.4013004755483305
  0.1653063611679496  0.3339760104995732  0.4004251062105584
  0.1643090728460949  0.4585704327781969  0.3973274952650602
  0.1652232505519188  0.5836761243663371  0.3976068998491774
  0.1663640794073851  0.7088559298740083  0.3989701413041046
  0.1668802770057008  0.8342212979013467  0.3996432910461636
  0.1672819198402652  0.9598714182789132  0.4001207658152324
  0.2924477659295681  0.0856791380185865  0.4003248666722794
  0.2938438503065509  0.2132442736717351  0.4019484869541893
  0.2930507879013687  0.3396156026316167  0.4054842895181286
  0.2872628371287828  0.4586674197483784  0.4022097366846543
  0.2885618073831626  0.5830086917632672  0.3989258148262481
  0.2907552764313548  0.7082750148140448  0.3993272522571732
  0.2915842308708213  0.8337641307396154  0.3994660873506641
  0.2919060640258418  0.9593935169816247  0.3997472752560886
  0.4168527079019376  0.0840840316391258  0.3996081210106694
  0.4174142638501844  0.2101778707586196  0.3998789399997071
  0.4203655631248466  0.3379242300850784  0.4014185495028179
  0.4146756516401829  0.7054717031230517  0.4022358885093796
  0.4161010956765554  0.8320295989199625  0.4001741090932175
  0.4165838742671000  0.9581547658160514  0.3996311597823338
  0.5414586182118643  0.0827440484253018  0.3995733814959037
  0.5419512843939942  0.2083718311569945  0.3993445482112252
  0.5432863463344074  0.3339211397742824  0.3994514623430027
  0.5453487221796476  0.4582588886744998  0.4004998788900292
  0.5380365943374198  0.7017949982695481  0.4035553371310904
  0.5404024921701759  0.8302602895621295  0.4014703323819406
  0.5411301487789683  0.9568201895673670  0.4001621585121752
  0.6661400557741555  0.0822349388696968  0.3998389175233257
  0.6665592745926078  0.2077506044291573  0.3994546183783788
  0.6673981752180299  0.3331541707819962  0.3995232649616191
  0.6691274852844891  0.4585545035098747  0.3999735173364115
  0.6694930976002332  0.5832649459315413  0.3998922763199332
  0.6658726850790433  0.7062597806995269  0.3994476253767466
  0.6646191664607298  0.8304137470179263  0.4006048974102910
  0.6655993685244436  0.9564965192770617  0.4004000039167954
  0.7909193743522321  0.0822910589872822  0.3997472260469953
  0.7911714730915196  0.2076018666409377  0.3995474101029096
  0.7917149329525777  0.3329227799130322  0.3993422870335493
  0.7926355750173467  0.4583221215111476  0.3995335162838712
  0.7932871661443051  0.5836759315492633  0.3996996882039823
  0.7923707190940850  0.7083557066948503  0.3992843309833605
  0.7909609368753535  0.8324501004394022  0.3994172539282927
  0.7905259789073059  0.9569700583734927  0.3997479084174602
  0.9161360180585820  0.0828939632602454  0.3995241432279207
  0.9159514588858754  0.2077312936286360  0.3993099596862346
  0.9160522080478076  0.3329010666972571  0.3990179852913118
  0.9166057293920350  0.4583367262081575  0.3990803111560863
  0.9172513933408948  0.5836805265401223  0.3993112635656298
  0.9173025650775106  0.7088589587145562  0.3994381777644477
  0.9169509422765546  0.8337862179134234  0.3993904581297597
  0.9165597985951367  0.9583672381157884  0.3995241932996436
  0.0843987704808422  0.0433744811034737  0.4002680011649106
  0.0841500747130849  0.1681546818204294  0.4002889310907584
  0.0825341714455313  0.2918766064947764  0.3994747643010612
  0.0815883220342484  0.4164184014994845  0.3976709852155553
  0.0823111272204072  0.5417993427851000  0.3979542185104706
  0.0832125777923299  0.6671969180375188  0.3990645630556029
  0.0836294533052315  0.7925206132967652  0.3996589267931674
  0.0839822016776788  0.9179250213039989  0.3999613466935830
  0.2091944808422658  0.0436889164288891  0.4004954130688136
  0.2102616093083177  0.1699734105056047  0.4015391039970986
  0.2093337016262204  0.2947547123978737  0.4023571528096312
  0.2056171375044356  0.4171285058430687  0.3990170504559871
  0.2057880632102736  0.5415220776600039  0.3972745785177191
  0.2074338172169048  0.6669728110428422  0.3984725274975323
  0.2082909472647884  0.7924022742568668  0.3993656743059865
  0.2086971108336999  0.9178487734427089  0.3998442924385018
  0.3336251774315290  0.0431918898201455  0.3998590299641928
  0.3343060866972953  0.1697743266751035  0.4006821309507552
  0.3363942927500074  0.2984713035456472  0.4035502603097728
  0.3287173809242353  0.5415477783873209  0.4021570194335709
  0.3314268692396631  0.6662011385862718  0.4002852380672813
  0.3329339601623930  0.7917002501533487  0.3996820629006759
  0.3333186590098031  0.9172667501667231  0.3995831984583916
  0.4582612575380657  0.0417973573343991  0.3995587462557842
  0.4585971821663773  0.1677201819047605  0.3995455673134182
  0.4597164105308592  0.2939217221494266  0.3995436844908638
  0.4535684890510672  0.6606888754382879  0.4054360272918456
  0.4571607928859112  0.7892827260779099  0.4011852783985466
  0.4578658845436869  0.9158025805195295  0.3999399612084167
  0.5828417875358722  0.0406149705533667  0.3998331420596626
  0.5832379305788736  0.1663662434520686  0.3994192743802550
  0.5841174778888057  0.2918273628714406  0.3993831842150231
  0.5863214806743586  0.4169331617355151  0.3999330705261772
  0.5871886073853355  0.5419709527845068  0.4004764800758090
  0.5825544204892918  0.6623239905150841  0.4014024634708981
  0.5807094653472269  0.7869989055890453  0.4019582773544706
  0.5823449448212578  0.9144189384568784  0.4006907462954124
  0.7074916644536812  0.0403076784993456  0.4000106632484099
  0.7079633471734539  0.1659241114836264  0.3995930942985685
  0.7085258681034681  0.2912684546983819  0.3994304097385721
  0.7097127372027170  0.4165113853962759  0.3997272731818012
  0.7106544371020233  0.5416306266487196  0.3999626553131590
  0.7094418710932451  0.6662674686120982  0.3993604175069427
  0.7073175554745089  0.7900075643866545  0.3997527264896815
  0.7068544856522474  0.9145171525668054  0.4002341653052920
  0.8325911987021833  0.0407575356358363  0.3996397925681207
  0.8327252833429840  0.1659078697372571  0.3995354933995737
  0.8329396649033660  0.2910839201355913  0.3993484875059130
  0.8336293161652392  0.4164503128950899  0.3993299996154994
  0.8343762384182510  0.5418268705021911  0.3995383119086600
  0.8343055317615700  0.6670264465900971  0.3994782159917264
  0.8336630326791467  0.7918120944478581  0.3992330198032586
  0.8328575669628464  0.9160910512317156  0.3994988058576358
  0.9585069903451389  0.0420125735475023  0.3996335367310198
  0.9578888971764881  0.1663852696194617  0.3994544162803224
  0.9575533650304492  0.2912687528787878  0.3989512705033243
  0.9576387217088166  0.4163930445253316  0.3987291647712858
  0.9583356723042784  0.5417929338325670  0.3990859810060929
  0.9588329656864796  0.6671967699907964  0.3993642721260331
  0.9588788182005638  0.7923863237012673  0.3994926562879949
  0.9587900374727449  0.9174089172542076  0.3995834042459159
  0.4086795256542391  0.5791662217227441  0.4090561961525793
  0.5455523482800646  0.5812452758683219  0.4029613180399491
  0.3297352942249997  0.4212335812159315  0.4090926707552948
  0.4644575822656171  0.4190269647369809  0.4030109583682471
  0.4570825262829731  0.5014083988102710  0.4890086730100143
 
  0.00000000E+00  0.00000000E+00  0.00000000E+00
  0.00000000E+00  0.00000000E+00  0.00000000E+00
  0.00000000E+00  0.00000000E+00  0.00000000E+00
  0.00000000E+00  0.00000000E+00  0.00000000E+00
  0.00000000E+00  0.00000000E+00  0.00000000E+00
  0.00000000E+00  0.00000000E+00  0.00000000E+00
  0.00000000E+00  0.00000000E+00  0.00000000E+00
  0.00000000E+00  0.00000000E+00  0.00000000E+00
  0.00000000E+00  0.00000000E+00  0.00000000E+00
  0.00000000E+00  0.00000000E+00  0.00000000E+00
  0.00000000E+00  0.00000000E+00  0.00000000E+00
  0.00000000E+00  0.00000000E+00  0.00000000E+00
  0.00000000E+00  0.00000000E+00  0.00000000E+00
  0.00000000E+00  0.00000000E+00  0.00000000E+00
  0.00000000E+00  0.00000000E+00  0.00000000E+00
  0.00000000E+00  0.00000000E+00  0.00000000E+00
  0.00000000E+00  0.00000000E+00  0.00000000E+00
  0.00000000E+00  0.00000000E+00  0.00000000E+00
  0.00000000E+00  0.00000000E+00  0.00000000E+00
  0.00000000E+00  0.00000000E+00  0.00000000E+00
  0.00000000E+00  0.00000000E+00  0.00000000E+00
  0.00000000E+00  0.00000000E+00  0.00000000E+00
  0.00000000E+00  0.00000000E+00  0.00000000E+00
  0.00000000E+00  0.00000000E+00  0.00000000E+00
  0.00000000E+00  0.00000000E+00  0.00000000E+00
  0.00000000E+00  0.00000000E+00  0.00000000E+00
  0.00000000E+00  0.00000000E+00  0.00000000E+00
  0.00000000E+00  0.00000000E+00  0.00000000E+00
  0.00000000E+00  0.00000000E+00  0.00000000E+00
  0.00000000E+00  0.00000000E+00  0.00000000E+00
  0.00000000E+00  0.00000000E+00  0.00000000E+00
  0.00000000E+00  0.00000000E+00  0.00000000E+00
  0.00000000E+00  0.00000000E+00  0.00000000E+00
  0.00000000E+00  0.00000000E+00  0.00000000E+00
  0.00000000E+00  0.00000000E+00  0.00000000E+00
  0.00000000E+00  0.00000000E+00  0.00000000E+00
  0.00000000E+00  0.00000000E+00  0.00000000E+00
  0.00000000E+00  0.00000000E+00  0.00000000E+00
  0.00000000E+00  0.00000000E+00  0.00000000E+00
  0.00000000E+00  0.00000000E+00  0.00000000E+00
  0.00000000E+00  0.00000000E+00  0.00000000E+00
  0.00000000E+00  0.00000000E+00  0.00000000E+00
  0.00000000E+00  0.00000000E+00  0.00000000E+00
  0.00000000E+00  0.00000000E+00  0.00000000E+00
  0.00000000E+00  0.00000000E+00  0.00000000E+00
  0.00000000E+00  0.00000000E+00  0.00000000E+00
  0.00000000E+00  0.00000000E+00  0.00000000E+00
  0.00000000E+00  0.00000000E+00  0.00000000E+00
  0.00000000E+00  0.00000000E+00  0.00000000E+00
  0.00000000E+00  0.00000000E+00  0.00000000E+00
  0.00000000E+00  0.00000000E+00  0.00000000E+00
  0.00000000E+00  0.00000000E+00  0.00000000E+00
  0.00000000E+00  0.00000000E+00  0.00000000E+00
  0.00000000E+00  0.00000000E+00  0.00000000E+00
  0.00000000E+00  0.00000000E+00  0.00000000E+00
  0.00000000E+00  0.00000000E+00  0.00000000E+00
  0.00000000E+00  0.00000000E+00  0.00000000E+00
  0.00000000E+00  0.00000000E+00  0.00000000E+00
  0.00000000E+00  0.00000000E+00  0.00000000E+00
  0.00000000E+00  0.00000000E+00  0.00000000E+00
  0.00000000E+00  0.00000000E+00  0.00000000E+00
  0.00000000E+00  0.00000000E+00  0.00000000E+00
  0.00000000E+00  0.00000000E+00  0.00000000E+00
  0.00000000E+00  0.00000000E+00  0.00000000E+00
  0.00000000E+00  0.00000000E+00  0.00000000E+00
  0.00000000E+00  0.00000000E+00  0.00000000E+00
  0.00000000E+00  0.00000000E+00  0.00000000E+00
  0.00000000E+00  0.00000000E+00  0.00000000E+00
  0.00000000E+00  0.00000000E+00  0.00000000E+00
  0.00000000E+00  0.00000000E+00  0.00000000E+00
  0.00000000E+00  0.00000000E+00  0.00000000E+00
  0.00000000E+00  0.00000000E+00  0.00000000E+00
  0.00000000E+00  0.00000000E+00  0.00000000E+00
  0.00000000E+00  0.00000000E+00  0.00000000E+00
  0.00000000E+00  0.00000000E+00  0.00000000E+00
  0.00000000E+00  0.00000000E+00  0.00000000E+00
  0.00000000E+00  0.00000000E+00  0.00000000E+00
  0.00000000E+00  0.00000000E+00  0.00000000E+00
  0.00000000E+00  0.00000000E+00  0.00000000E+00
  0.00000000E+00  0.00000000E+00  0.00000000E+00
  0.00000000E+00  0.00000000E+00  0.00000000E+00
  0.00000000E+00  0.00000000E+00  0.00000000E+00
  0.00000000E+00  0.00000000E+00  0.00000000E+00
  0.00000000E+00  0.00000000E+00  0.00000000E+00
  0.00000000E+00  0.00000000E+00  0.00000000E+00
  0.00000000E+00  0.00000000E+00  0.00000000E+00
  0.00000000E+00  0.00000000E+00  0.00000000E+00
  0.00000000E+00  0.00000000E+00  0.00000000E+00
  0.00000000E+00  0.00000000E+00  0.00000000E+00
  0.00000000E+00  0.00000000E+00  0.00000000E+00
  0.00000000E+00  0.00000000E+00  0.00000000E+00
  0.00000000E+00  0.00000000E+00  0.00000000E+00
  0.00000000E+00  0.00000000E+00  0.00000000E+00
  0.00000000E+00  0.00000000E+00  0.00000000E+00
  0.00000000E+00  0.00000000E+00  0.00000000E+00
  0.00000000E+00  0.00000000E+00  0.00000000E+00
  0.00000000E+00  0.00000000E+00  0.00000000E+00
  0.00000000E+00  0.00000000E+00  0.00000000E+00
  0.00000000E+00  0.00000000E+00  0.00000000E+00
  0.00000000E+00  0.00000000E+00  0.00000000E+00
  0.00000000E+00  0.00000000E+00  0.00000000E+00
  0.00000000E+00  0.00000000E+00  0.00000000E+00
  0.00000000E+00  0.00000000E+00  0.00000000E+00
  0.00000000E+00  0.00000000E+00  0.00000000E+00
  0.00000000E+00  0.00000000E+00  0.00000000E+00
  0.00000000E+00  0.00000000E+00  0.00000000E+00
  0.00000000E+00  0.00000000E+00  0.00000000E+00
  0.00000000E+00  0.00000000E+00  0.00000000E+00
  0.00000000E+00  0.00000000E+00  0.00000000E+00
  0.00000000E+00  0.00000000E+00  0.00000000E+00
  0.00000000E+00  0.00000000E+00  0.00000000E+00
  0.00000000E+00  0.00000000E+00  0.00000000E+00
  0.00000000E+00  0.00000000E+00  0.00000000E+00
  0.00000000E+00  0.00000000E+00  0.00000000E+00
  0.00000000E+00  0.00000000E+00  0.00000000E+00
  0.00000000E+00  0.00000000E+00  0.00000000E+00
  0.00000000E+00  0.00000000E+00  0.00000000E+00
  0.00000000E+00  0.00000000E+00  0.00000000E+00
  0.00000000E+00  0.00000000E+00  0.00000000E+00
  0.00000000E+00  0.00000000E+00  0.00000000E+00
  0.00000000E+00  0.00000000E+00  0.00000000E+00
  0.00000000E+00  0.00000000E+00  0.00000000E+00
  0.00000000E+00  0.00000000E+00  0.00000000E+00
  0.00000000E+00  0.00000000E+00  0.00000000E+00
  0.00000000E+00  0.00000000E+00  0.00000000E+00
  0.00000000E+00  0.00000000E+00  0.00000000E+00
  0.00000000E+00  0.00000000E+00  0.00000000E+00
  0.00000000E+00  0.00000000E+00  0.00000000E+00
