Cu1 H1 C123 N3 O1                       
   1.00000000000000     
    19.8074812369487141    0.0116468277293133    0.0180091026360367
    -9.8937608558035279   17.0208704763760323   -0.1337465036190964
     0.0268401931296792   -0.2180274584145864   29.8377624548739817
   Cu   H    C    N    O 
     1     1   123     3     1
Direct
  0.4370171363364009  0.4988540317823592  0.4143997863563155
  0.4809458882121427  0.5389790050625223  0.4929997400773252
  0.0419031404947625  0.0841956278377839  0.4003348134785842
  0.0407954243597982  0.2081652121891398  0.4002564651498409
  0.0401816143792340  0.3328467352204977  0.3996808721552575
  0.0405453502003667  0.4581892491289551  0.3994305221226337
  0.0415299268077352  0.5837944163629522  0.3992633024375271
  0.0424344531080072  0.7093594107312245  0.3991719852928624
  0.0427752287865455  0.8347581578019374  0.3992948359034066
  0.0426381549489664  0.9598174364655806  0.3997698482662680
  0.1679064345984347  0.0858076635633303  0.4012400067604014
  0.1671645235988224  0.2102709108999480  0.4019733447052948
  0.1649841419675471  0.3336301479724573  0.4012708472086177
  0.1643844112038875  0.4583650266306649  0.4005701820678759
  0.1653204672527612  0.5836066975950103  0.4004069891058898
  0.1666047722204528  0.7090896198934452  0.3998295906422896
  0.1673568453378476  0.8346869363176993  0.3993218740150277
  0.1677466814988409  0.9603387932692664  0.3998904822357221
  0.2928163211061716  0.0861540099285020  0.4012344611845839
  0.2933808705160739  0.2130930712454659  0.4034282161988555
  0.2921415333070387  0.3386328439149773  0.4041501878259624
  0.2881118677940465  0.4577122905046721  0.4024731814356524
  0.2887274242351044  0.5829542659069485  0.4021357950982798
  0.2907377868020898  0.7084014366727379  0.4012074403947091
  0.2917842421075154  0.8340134760780710  0.3999449550880115
  0.2923403880437216  0.9598915691332655  0.3997236211357758
  0.4172032190457383  0.0845700983285573  0.4004801237703761
  0.4178035453741750  0.2109945952313504  0.4022695978906753
  0.4194727184667161  0.3389830095640135  0.4050279963725831
  0.4146680845324552  0.7056829881644695  0.4026677545397344
  0.4161093981132590  0.8321295533337683  0.4010908695130184
  0.4167182799608068  0.9583465687176421  0.3999424897082130
  0.5415136682563049  0.0826912050370398  0.3998781413943822
  0.5421649679814352  0.2086894271738703  0.4008521995277191
  0.5432544611403448  0.3344997483226309  0.4025710245519024
  0.5467390552158437  0.4602781396918927  0.4043575665190665
  0.5383159231160956  0.7013393957813826  0.4035557299531973
  0.5403186882522948  0.8298738359449770  0.4019494421535734
  0.5409981932607794  0.9565120896388445  0.4004091764030385
  0.6659287428023567  0.0818097932314976  0.3998624564023107
  0.6664535044639104  0.2074863485732989  0.3997803441539073
  0.6673988065285715  0.3330928493564594  0.4004786034393747
  0.6695385560300477  0.4588338277308200  0.4015832560935570
  0.6710847637947353  0.5845072190847522  0.4021665387400428
  0.6668256849054639  0.7063413529364866  0.4024315253016648
  0.6647350954656551  0.8300470332125046  0.4018483644800331
  0.6654304884864747  0.9560391901612804  0.4007343998344071
  0.7905765573180351  0.0817625539629048  0.3998880553442773
  0.7908956285532405  0.2071709438736750  0.3994068184861472
  0.7916239877241821  0.3327169966429953  0.3994127548140936
  0.7929052128440534  0.4583818592584141  0.3996028799339263
  0.7940055345879135  0.5839345384623871  0.4001721793283450
  0.7937205786195423  0.7091525853790999  0.4005755186384221
  0.7914201843254600  0.8324682389400805  0.4006327010672672
  0.7904167937232348  0.9565739810607424  0.4003704072371543
  0.9158064418615435  0.0825080761973815  0.3997451484843456
  0.9155439902619054  0.2073315847021935  0.3993875236581119
  0.9158193470145755  0.3326589640390228  0.3990868515043335
  0.9166811927514482  0.4582170288256133  0.3989881994509169
  0.9177508914316752  0.5838815728622433  0.3990577850816108
  0.9181178651289963  0.7093044958245697  0.3992812299996729
  0.9177522431914094  0.8342826960145822  0.3995753515359401
  0.9166546189302776  0.9583413476143802  0.3998414450299740
  0.0843659695455948  0.0434284187188365  0.4004147298067692
  0.0835189119224131  0.1677265073422904  0.4008175847081936
  0.0819379396818266  0.2914975935550098  0.4003705037798042
  0.0816151678686182  0.4163285103419596  0.3998349539302721
  0.0824240151485321  0.5417942425865372  0.3996337480868436
  0.0835233489503691  0.6674017892302762  0.3994079847755334
  0.0841978019728712  0.7929714752117146  0.3992184246981576
  0.0844354035691412  0.9183483928805238  0.3996127769405728
  0.2094588721188377  0.0440037191077379  0.4008233093767288
  0.2096297628769191  0.1696197302600861  0.4023829364939049
  0.2082532622752748  0.2939191649864095  0.4024200561795525
  0.2057043232577151  0.4168019994749164  0.4010937815563124
  0.2059413985570931  0.5415044286814344  0.4010397407139230
  0.2075982169071854  0.6671005438160725  0.4005078139378469
  0.2086243050166346  0.7926918710850452  0.3996352387870847
  0.2091605608485213  0.9183413385935233  0.3995335288514849
  0.3340511260261039  0.0436718991741329  0.4004079984195974
  0.3345442370477359  0.1701016625676365  0.4024464072021581
  0.3351909590928025  0.2973042793122543  0.4048228588057473
  0.3302102172727917  0.5421374439749606  0.4029099606663765
  0.3315856647519552  0.6661419339307497  0.4021455911807161
  0.3329616689282763  0.7917297672265262  0.4007674572866957
  0.3335721064419342  0.9175510792410032  0.3997356181182384
  0.4583995829495360  0.0419553511003907  0.3999841126195076
  0.4589321982817077  0.1682261390997653  0.4012300515861434
  0.4600091947565684  0.2948387235076377  0.4031257983708366
  0.4652018483822024  0.4213221733449641  0.4058427890661884
  0.4535575787934888  0.6604078043719039  0.4035517836389137
  0.4571719202987684  0.7893685056498517  0.4019777250382316
  0.4578711411958062  0.9157573988770402  0.4004033962800765
  0.5827283857324659  0.0402884623651628  0.3999215182612738
  0.5833154959245277  0.1663050917455366  0.4000589166567211
  0.5842480712362190  0.2920535126871764  0.4013125156114727
  0.5867449906921927  0.4176650461385664  0.4029427836237429
  0.5893288880899685  0.5439188033398930  0.4034976374252253
  0.5827122465886887  0.6610579767838788  0.4036518361814513
  0.5807135269432474  0.7862348624511732  0.4025894402103979
  0.5821652599618188  0.9139262423295517  0.4010367373430900
  0.7072733111474868  0.0397701057980409  0.4001334098509792
  0.7077452075800301  0.1654685269282713  0.3996103767783253
  0.7084597539414486  0.2910624846985723  0.3998263425613289
  0.7100157781394986  0.4166548836600867  0.4004446493863801
  0.7115442335565069  0.5421005625974075  0.4013923952828785
  0.7108502417345188  0.6672789009260351  0.4017724423159575
  0.7077022184354689  0.7898633797047807  0.4016424837341794
  0.7067421618887434  0.9140281701840027  0.4009901620936765
  0.8323121535398083  0.0402775462817940  0.3999275345173035
  0.8323264059257743  0.1653991276685492  0.3994988521707583
  0.8327684940983008  0.2907858542184093  0.3992170151528789
  0.8337579906607528  0.4163264755144014  0.3992443841742477
  0.8349189150935508  0.5419656390327499  0.3994783692289048
  0.8352349223459996  0.6674881150067665  0.3998928201073272
  0.8344840608763866  0.7922590761576296  0.4001880996916009
  0.8330054749188970  0.9159436295450282  0.4002215855314760
  0.9582983401722006  0.0418062927374721  0.3998922481863190
  0.9574241963372453  0.1659916154975634  0.3996707837355424
  0.9571851635376212  0.2909227521886378  0.3992498688995075
  0.9576236602399650  0.4162549608283923  0.3990750419360369
  0.9586416687855336  0.5418685550996271  0.3989691971753717
  0.9594520165322694  0.6674816751977347  0.3990926511366434
  0.9595869505773601  0.7928676055328567  0.3993203708218732
  0.9592174388807185  0.9176947956207930  0.3996158121310350
  0.4096652269239829  0.5802302684579685  0.4036158334034664
  0.5472490924216161  0.5810807863243774  0.4045351347508421
  0.3288655486642652  0.4188684731936484  0.4044331085654822
  0.4324818604524198  0.4957110813190365  0.4808371837835800
 
  0.00000000E+00  0.00000000E+00  0.00000000E+00
  0.00000000E+00  0.00000000E+00  0.00000000E+00
  0.00000000E+00  0.00000000E+00  0.00000000E+00
  0.00000000E+00  0.00000000E+00  0.00000000E+00
  0.00000000E+00  0.00000000E+00  0.00000000E+00
  0.00000000E+00  0.00000000E+00  0.00000000E+00
  0.00000000E+00  0.00000000E+00  0.00000000E+00
  0.00000000E+00  0.00000000E+00  0.00000000E+00
  0.00000000E+00  0.00000000E+00  0.00000000E+00
  0.00000000E+00  0.00000000E+00  0.00000000E+00
  0.00000000E+00  0.00000000E+00  0.00000000E+00
  0.00000000E+00  0.00000000E+00  0.00000000E+00
  0.00000000E+00  0.00000000E+00  0.00000000E+00
  0.00000000E+00  0.00000000E+00  0.00000000E+00
  0.00000000E+00  0.00000000E+00  0.00000000E+00
  0.00000000E+00  0.00000000E+00  0.00000000E+00
  0.00000000E+00  0.00000000E+00  0.00000000E+00
  0.00000000E+00  0.00000000E+00  0.00000000E+00
  0.00000000E+00  0.00000000E+00  0.00000000E+00
  0.00000000E+00  0.00000000E+00  0.00000000E+00
  0.00000000E+00  0.00000000E+00  0.00000000E+00
  0.00000000E+00  0.00000000E+00  0.00000000E+00
  0.00000000E+00  0.00000000E+00  0.00000000E+00
  0.00000000E+00  0.00000000E+00  0.00000000E+00
  0.00000000E+00  0.00000000E+00  0.00000000E+00
  0.00000000E+00  0.00000000E+00  0.00000000E+00
  0.00000000E+00  0.00000000E+00  0.00000000E+00
  0.00000000E+00  0.00000000E+00  0.00000000E+00
  0.00000000E+00  0.00000000E+00  0.00000000E+00
  0.00000000E+00  0.00000000E+00  0.00000000E+00
  0.00000000E+00  0.00000000E+00  0.00000000E+00
  0.00000000E+00  0.00000000E+00  0.00000000E+00
  0.00000000E+00  0.00000000E+00  0.00000000E+00
  0.00000000E+00  0.00000000E+00  0.00000000E+00
  0.00000000E+00  0.00000000E+00  0.00000000E+00
  0.00000000E+00  0.00000000E+00  0.00000000E+00
  0.00000000E+00  0.00000000E+00  0.00000000E+00
  0.00000000E+00  0.00000000E+00  0.00000000E+00
  0.00000000E+00  0.00000000E+00  0.00000000E+00
  0.00000000E+00  0.00000000E+00  0.00000000E+00
  0.00000000E+00  0.00000000E+00  0.00000000E+00
  0.00000000E+00  0.00000000E+00  0.00000000E+00
  0.00000000E+00  0.00000000E+00  0.00000000E+00
  0.00000000E+00  0.00000000E+00  0.00000000E+00
  0.00000000E+00  0.00000000E+00  0.00000000E+00
  0.00000000E+00  0.00000000E+00  0.00000000E+00
  0.00000000E+00  0.00000000E+00  0.00000000E+00
  0.00000000E+00  0.00000000E+00  0.00000000E+00
  0.00000000E+00  0.00000000E+00  0.00000000E+00
  0.00000000E+00  0.00000000E+00  0.00000000E+00
  0.00000000E+00  0.00000000E+00  0.00000000E+00
  0.00000000E+00  0.00000000E+00  0.00000000E+00
  0.00000000E+00  0.00000000E+00  0.00000000E+00
  0.00000000E+00  0.00000000E+00  0.00000000E+00
  0.00000000E+00  0.00000000E+00  0.00000000E+00
  0.00000000E+00  0.00000000E+00  0.00000000E+00
  0.00000000E+00  0.00000000E+00  0.00000000E+00
  0.00000000E+00  0.00000000E+00  0.00000000E+00
  0.00000000E+00  0.00000000E+00  0.00000000E+00
  0.00000000E+00  0.00000000E+00  0.00000000E+00
  0.00000000E+00  0.00000000E+00  0.00000000E+00
  0.00000000E+00  0.00000000E+00  0.00000000E+00
  0.00000000E+00  0.00000000E+00  0.00000000E+00
  0.00000000E+00  0.00000000E+00  0.00000000E+00
  0.00000000E+00  0.00000000E+00  0.00000000E+00
  0.00000000E+00  0.00000000E+00  0.00000000E+00
  0.00000000E+00  0.00000000E+00  0.00000000E+00
  0.00000000E+00  0.00000000E+00  0.00000000E+00
  0.00000000E+00  0.00000000E+00  0.00000000E+00
  0.00000000E+00  0.00000000E+00  0.00000000E+00
  0.00000000E+00  0.00000000E+00  0.00000000E+00
  0.00000000E+00  0.00000000E+00  0.00000000E+00
  0.00000000E+00  0.00000000E+00  0.00000000E+00
  0.00000000E+00  0.00000000E+00  0.00000000E+00
  0.00000000E+00  0.00000000E+00  0.00000000E+00
  0.00000000E+00  0.00000000E+00  0.00000000E+00
  0.00000000E+00  0.00000000E+00  0.00000000E+00
  0.00000000E+00  0.00000000E+00  0.00000000E+00
  0.00000000E+00  0.00000000E+00  0.00000000E+00
  0.00000000E+00  0.00000000E+00  0.00000000E+00
  0.00000000E+00  0.00000000E+00  0.00000000E+00
  0.00000000E+00  0.00000000E+00  0.00000000E+00
  0.00000000E+00  0.00000000E+00  0.00000000E+00
  0.00000000E+00  0.00000000E+00  0.00000000E+00
  0.00000000E+00  0.00000000E+00  0.00000000E+00
  0.00000000E+00  0.00000000E+00  0.00000000E+00
  0.00000000E+00  0.00000000E+00  0.00000000E+00
  0.00000000E+00  0.00000000E+00  0.00000000E+00
  0.00000000E+00  0.00000000E+00  0.00000000E+00
  0.00000000E+00  0.00000000E+00  0.00000000E+00
  0.00000000E+00  0.00000000E+00  0.00000000E+00
  0.00000000E+00  0.00000000E+00  0.00000000E+00
  0.00000000E+00  0.00000000E+00  0.00000000E+00
  0.00000000E+00  0.00000000E+00  0.00000000E+00
  0.00000000E+00  0.00000000E+00  0.00000000E+00
  0.00000000E+00  0.00000000E+00  0.00000000E+00
  0.00000000E+00  0.00000000E+00  0.00000000E+00
  0.00000000E+00  0.00000000E+00  0.00000000E+00
  0.00000000E+00  0.00000000E+00  0.00000000E+00
  0.00000000E+00  0.00000000E+00  0.00000000E+00
  0.00000000E+00  0.00000000E+00  0.00000000E+00
  0.00000000E+00  0.00000000E+00  0.00000000E+00
  0.00000000E+00  0.00000000E+00  0.00000000E+00
  0.00000000E+00  0.00000000E+00  0.00000000E+00
  0.00000000E+00  0.00000000E+00  0.00000000E+00
  0.00000000E+00  0.00000000E+00  0.00000000E+00
  0.00000000E+00  0.00000000E+00  0.00000000E+00
  0.00000000E+00  0.00000000E+00  0.00000000E+00
  0.00000000E+00  0.00000000E+00  0.00000000E+00
  0.00000000E+00  0.00000000E+00  0.00000000E+00
  0.00000000E+00  0.00000000E+00  0.00000000E+00
  0.00000000E+00  0.00000000E+00  0.00000000E+00
  0.00000000E+00  0.00000000E+00  0.00000000E+00
  0.00000000E+00  0.00000000E+00  0.00000000E+00
  0.00000000E+00  0.00000000E+00  0.00000000E+00
  0.00000000E+00  0.00000000E+00  0.00000000E+00
  0.00000000E+00  0.00000000E+00  0.00000000E+00
  0.00000000E+00  0.00000000E+00  0.00000000E+00
  0.00000000E+00  0.00000000E+00  0.00000000E+00
  0.00000000E+00  0.00000000E+00  0.00000000E+00
  0.00000000E+00  0.00000000E+00  0.00000000E+00
  0.00000000E+00  0.00000000E+00  0.00000000E+00
  0.00000000E+00  0.00000000E+00  0.00000000E+00
  0.00000000E+00  0.00000000E+00  0.00000000E+00
  0.00000000E+00  0.00000000E+00  0.00000000E+00
  0.00000000E+00  0.00000000E+00  0.00000000E+00
  0.00000000E+00  0.00000000E+00  0.00000000E+00
  0.00000000E+00  0.00000000E+00  0.00000000E+00
  0.00000000E+00  0.00000000E+00  0.00000000E+00
