Cr1 C124 N2 O1                          
   1.00000000000000     
    19.8021146065911573   -0.0141567905875984   -0.0304265266494865
    -9.9135129621368900   17.0464825622504570   -0.0276523991794291
    -0.0459056596246921   -0.0750995549493905   29.8222268969522197
   Cr   C    N    O 
     1   124     2     1
Direct
  0.4383189971295209  0.5007822426499189  0.4257852330647296
  0.0422881943875879  0.0842824778202029  0.3997881003308947
  0.0415923676362837  0.2085563512053383  0.3995928500631436
  0.0409003430339112  0.3330670218691836  0.3994788438791161
  0.0407208987763781  0.4583331364584282  0.3996047169815995
  0.0413632647067459  0.5837367559264663  0.3998141126521233
  0.0419166084525315  0.7090806522257509  0.3999156262489691
  0.0422244596527861  0.8343830340063150  0.4000227752419363
  0.0424297906094324  0.9595757766649839  0.3999665738577889
  0.1681933058402052  0.0858019016286988  0.4000761134925597
  0.1680614833312362  0.2106783374827756  0.4000799587241488
  0.1663715707655768  0.3343060269644909  0.3997089040699464
  0.1646057332109976  0.4586698761432473  0.3993625253746060
  0.1653606176616549  0.5837481289158006  0.3995803560841651
  0.1663436327408050  0.7090521854919771  0.3997690563497329
  0.1669472260633214  0.8344216370649775  0.3998792248032856
  0.1674669867496803  0.9599774447039664  0.3999730284478247
  0.2926927420921501  0.0854174952006375  0.4001360235444125
  0.2945147026446975  0.2126943526344505  0.4014175840864027
  0.2942588730993734  0.3387028196697202  0.4025415871054179
  0.2888956513552472  0.4596007534726567  0.4013675980457663
  0.2891974995927669  0.5841905906988174  0.4003224692714440
  0.2907116139880088  0.7089640081929645  0.4000024234682087
  0.2916025331198142  0.8340713102228605  0.3997371411769990
  0.2920254476160906  0.9594739726414332  0.3997604770544356
  0.4170842321018640  0.0840032623481335  0.3997654669515711
  0.4178203898121780  0.2100512478640510  0.4006136978401855
  0.4210419149639435  0.3383280280353702  0.4033089690156544
  0.4148403736143251  0.7064063516163444  0.4011755945455491
  0.4161202948480422  0.8325745853985183  0.3999539109186543
  0.4166433098904605  0.9583006687938678  0.3996208855389014
  0.5416189407090712  0.0826301722929514  0.3996939771371117
  0.5421320429798371  0.2079133522759946  0.3999043199360273
  0.5433554622128582  0.3329526246071595  0.4005952487852795
  0.5447719567829523  0.4565960786785865  0.4016831008201791
  0.5430500193655092  0.5789777746439881  0.4031229968262124
  0.5383220599560872  0.7032769129183549  0.4025109457557150
  0.5403838219449995  0.8309141611519308  0.4006006600795686
  0.5412359073580646  0.9570413562627067  0.3998617070333026
  0.6662624155096992  0.0820890302771815  0.3998942098808413
  0.6667250557698381  0.2074579137378478  0.3997893601854159
  0.6675508879006742  0.3327628920844035  0.3997663248822576
  0.6689518366058351  0.4581628950156400  0.3994711659047638
  0.6688624862260113  0.5825745653531200  0.3991637684151286
  0.6653958895689343  0.7057060181859498  0.3998441048609536
  0.6647859306120765  0.8304696876023172  0.4002782159754972
  0.6657379035799948  0.9565022012615643  0.4000728927213686
  0.7910589927920952  0.0821218027333828  0.4000148981301308
  0.7913531946080923  0.2073794482463285  0.3999934971741652
  0.7918911273894906  0.3327450940600585  0.3998185609171827
  0.7926718240559865  0.4581683293058418  0.3996566311105738
  0.7931745607181426  0.5834351419312824  0.3994113934383066
  0.7922446674732129  0.7082147415165281  0.3993503585445168
  0.7909334946260316  0.8322056945279570  0.3996584130123040
  0.7906709494864472  0.9568245888995577  0.3999112970556453
  0.9163047104146642  0.0827880229203757  0.3998701685280608
  0.9162094759291008  0.2076471098947437  0.3998691987487106
  0.9162887939523259  0.3328165651116990  0.3998457246959362
  0.9166652537722371  0.4581891529204398  0.3998588432258927
  0.9173180346272787  0.5836777786768792  0.3998597280449800
  0.9173147081283091  0.7089130447898029  0.3997968272026426
  0.9170510213714991  0.8337609240684003  0.3998249573982022
  0.9165944723815898  0.9582565077006819  0.3998573793180640
  0.0844861735115785  0.0433129733299751  0.3998996772682943
  0.0842137074955431  0.1679154776770062  0.3996787832455269
  0.0829144103984589  0.2918977665239737  0.3994559603569741
  0.0819121470096249  0.4166296635126301  0.3993819485782737
  0.0824234756136590  0.5418909261492288  0.3996471690418630
  0.0831806768836501  0.6672976717933210  0.3998300353919149
  0.0837265110580674  0.7926929665877154  0.3999714253404534
  0.0840553245982960  0.9179888270503795  0.4000230375699019
  0.2093763026414095  0.0436405365200869  0.4000555352886863
  0.2103934298926049  0.1697298914518299  0.4004853756919360
  0.2098213329150767  0.2945066510299625  0.4004307706222718
  0.2062601582759243  0.4175513004752176  0.3997025020256544
  0.2061608784520956  0.5419347629686868  0.3995511839746086
  0.2075138588180749  0.6673004381074890  0.3997586963510287
  0.2083490770638505  0.7926167718289392  0.3997869149242490
  0.2088105214401637  0.9180059011323891  0.3998668211712513
  0.3338365047950447  0.0430718707569824  0.3998353207862522
  0.3347614805210384  0.1692670698336940  0.4007469434472526
  0.3369241514054195  0.2970115102948157  0.4030120599809450
  0.3322790202584969  0.4214010605968639  0.4041704858505639
  0.3304109903795052  0.5435911302866430  0.4019496605923507
  0.3317821166268473  0.6671797812120772  0.4005598931477721
  0.3329334178646661  0.7921715565939280  0.3998774757184691
  0.3334642170255790  0.9174842267746470  0.3996777937422209
  0.4584352375232683  0.0417948654005897  0.3996290922873342
  0.4589538299532663  0.1675151020184558  0.3999940294410465
  0.4603173811647991  0.2937751490537792  0.4013061279305106
  0.4542085028128824  0.6619475911873351  0.4030671252094677
  0.4573139011469607  0.7901013329204361  0.4004960930515082
  0.4579818547395220  0.9160911817498913  0.3997522091066372
  0.5830417807087898  0.0406290649174110  0.3997760724855439
  0.5834715554130980  0.1660175379826541  0.3997419654547016
  0.5843667502897816  0.2911108772179247  0.4000327964317805
  0.5859307271578302  0.4159339160692355  0.4002436595211520
  0.5862655774179188  0.5405810377628129  0.4006031873484233
  0.5810273976145979  0.6616210245145524  0.4017473053827558
  0.5806905486441849  0.7875502334777593  0.4011119301259143
  0.5824225442794742  0.9147358665920606  0.4001132672317596
  0.7076383056393425  0.0401479751002043  0.3999960171462789
  0.7081259343100754  0.1656592403650876  0.3998921688976580
  0.7087171787318596  0.2909949114156092  0.3997604716526411
  0.7097170845191414  0.4163117874889295  0.3996008526773522
  0.7105061627039575  0.5414442564177691  0.3992023501795856
  0.7087893531850753  0.6658364428510239  0.3992572114664270
  0.7071217333866997  0.7895124341602155  0.3998273814663520
  0.7069662020206309  0.9143724883011544  0.4000444027462891
  0.8327186474078587  0.0405591079026095  0.3999649113602004
  0.8328819023515450  0.1657023025399127  0.4000260226031145
  0.8331802195043423  0.2909812200846460  0.3999188884349891
  0.8337018792159441  0.4162983811781373  0.3998038657846692
  0.8343644810706934  0.5417372402437053  0.3996747924876232
  0.8342261168902425  0.6670280893267559  0.3995129240518622
  0.8335467823346718  0.7915612573341377  0.3996013482020544
  0.8328582865683387  0.9158417193522368  0.3997961423532175
  0.9585486247337798  0.0418515546882858  0.3998419072111759
  0.9580876870936166  0.1663474069976445  0.3997757113464289
  0.9578097537262380  0.2911723117496621  0.3997417240831211
  0.9577694377716242  0.4163853164398432  0.3998090436520840
  0.9584133149434209  0.5418608450620681  0.3998734883215960
  0.9588230976915995  0.6672641181521897  0.3998808872379911
  0.9589027505285515  0.7924461698590974  0.3999075525269902
  0.9588496013503658  0.9173338253286900  0.3998962201055321
  0.4102403177843712  0.5808957879896681  0.4049698905044323
  0.4650528773069524  0.4194361704073586  0.4049601630289033
  0.4398618351214623  0.5024821082439885  0.4788976253790693
 
  0.00000000E+00  0.00000000E+00  0.00000000E+00
  0.00000000E+00  0.00000000E+00  0.00000000E+00
  0.00000000E+00  0.00000000E+00  0.00000000E+00
  0.00000000E+00  0.00000000E+00  0.00000000E+00
  0.00000000E+00  0.00000000E+00  0.00000000E+00
  0.00000000E+00  0.00000000E+00  0.00000000E+00
  0.00000000E+00  0.00000000E+00  0.00000000E+00
  0.00000000E+00  0.00000000E+00  0.00000000E+00
  0.00000000E+00  0.00000000E+00  0.00000000E+00
  0.00000000E+00  0.00000000E+00  0.00000000E+00
  0.00000000E+00  0.00000000E+00  0.00000000E+00
  0.00000000E+00  0.00000000E+00  0.00000000E+00
  0.00000000E+00  0.00000000E+00  0.00000000E+00
  0.00000000E+00  0.00000000E+00  0.00000000E+00
  0.00000000E+00  0.00000000E+00  0.00000000E+00
  0.00000000E+00  0.00000000E+00  0.00000000E+00
  0.00000000E+00  0.00000000E+00  0.00000000E+00
  0.00000000E+00  0.00000000E+00  0.00000000E+00
  0.00000000E+00  0.00000000E+00  0.00000000E+00
  0.00000000E+00  0.00000000E+00  0.00000000E+00
  0.00000000E+00  0.00000000E+00  0.00000000E+00
  0.00000000E+00  0.00000000E+00  0.00000000E+00
  0.00000000E+00  0.00000000E+00  0.00000000E+00
  0.00000000E+00  0.00000000E+00  0.00000000E+00
  0.00000000E+00  0.00000000E+00  0.00000000E+00
  0.00000000E+00  0.00000000E+00  0.00000000E+00
  0.00000000E+00  0.00000000E+00  0.00000000E+00
  0.00000000E+00  0.00000000E+00  0.00000000E+00
  0.00000000E+00  0.00000000E+00  0.00000000E+00
  0.00000000E+00  0.00000000E+00  0.00000000E+00
  0.00000000E+00  0.00000000E+00  0.00000000E+00
  0.00000000E+00  0.00000000E+00  0.00000000E+00
  0.00000000E+00  0.00000000E+00  0.00000000E+00
  0.00000000E+00  0.00000000E+00  0.00000000E+00
  0.00000000E+00  0.00000000E+00  0.00000000E+00
  0.00000000E+00  0.00000000E+00  0.00000000E+00
  0.00000000E+00  0.00000000E+00  0.00000000E+00
  0.00000000E+00  0.00000000E+00  0.00000000E+00
  0.00000000E+00  0.00000000E+00  0.00000000E+00
  0.00000000E+00  0.00000000E+00  0.00000000E+00
  0.00000000E+00  0.00000000E+00  0.00000000E+00
  0.00000000E+00  0.00000000E+00  0.00000000E+00
  0.00000000E+00  0.00000000E+00  0.00000000E+00
  0.00000000E+00  0.00000000E+00  0.00000000E+00
  0.00000000E+00  0.00000000E+00  0.00000000E+00
  0.00000000E+00  0.00000000E+00  0.00000000E+00
  0.00000000E+00  0.00000000E+00  0.00000000E+00
  0.00000000E+00  0.00000000E+00  0.00000000E+00
  0.00000000E+00  0.00000000E+00  0.00000000E+00
  0.00000000E+00  0.00000000E+00  0.00000000E+00
  0.00000000E+00  0.00000000E+00  0.00000000E+00
  0.00000000E+00  0.00000000E+00  0.00000000E+00
  0.00000000E+00  0.00000000E+00  0.00000000E+00
  0.00000000E+00  0.00000000E+00  0.00000000E+00
  0.00000000E+00  0.00000000E+00  0.00000000E+00
  0.00000000E+00  0.00000000E+00  0.00000000E+00
  0.00000000E+00  0.00000000E+00  0.00000000E+00
  0.00000000E+00  0.00000000E+00  0.00000000E+00
  0.00000000E+00  0.00000000E+00  0.00000000E+00
  0.00000000E+00  0.00000000E+00  0.00000000E+00
  0.00000000E+00  0.00000000E+00  0.00000000E+00
  0.00000000E+00  0.00000000E+00  0.00000000E+00
  0.00000000E+00  0.00000000E+00  0.00000000E+00
  0.00000000E+00  0.00000000E+00  0.00000000E+00
  0.00000000E+00  0.00000000E+00  0.00000000E+00
  0.00000000E+00  0.00000000E+00  0.00000000E+00
  0.00000000E+00  0.00000000E+00  0.00000000E+00
  0.00000000E+00  0.00000000E+00  0.00000000E+00
  0.00000000E+00  0.00000000E+00  0.00000000E+00
  0.00000000E+00  0.00000000E+00  0.00000000E+00
  0.00000000E+00  0.00000000E+00  0.00000000E+00
  0.00000000E+00  0.00000000E+00  0.00000000E+00
  0.00000000E+00  0.00000000E+00  0.00000000E+00
  0.00000000E+00  0.00000000E+00  0.00000000E+00
  0.00000000E+00  0.00000000E+00  0.00000000E+00
  0.00000000E+00  0.00000000E+00  0.00000000E+00
  0.00000000E+00  0.00000000E+00  0.00000000E+00
  0.00000000E+00  0.00000000E+00  0.00000000E+00
  0.00000000E+00  0.00000000E+00  0.00000000E+00
  0.00000000E+00  0.00000000E+00  0.00000000E+00
  0.00000000E+00  0.00000000E+00  0.00000000E+00
  0.00000000E+00  0.00000000E+00  0.00000000E+00
  0.00000000E+00  0.00000000E+00  0.00000000E+00
  0.00000000E+00  0.00000000E+00  0.00000000E+00
  0.00000000E+00  0.00000000E+00  0.00000000E+00
  0.00000000E+00  0.00000000E+00  0.00000000E+00
  0.00000000E+00  0.00000000E+00  0.00000000E+00
  0.00000000E+00  0.00000000E+00  0.00000000E+00
  0.00000000E+00  0.00000000E+00  0.00000000E+00
  0.00000000E+00  0.00000000E+00  0.00000000E+00
  0.00000000E+00  0.00000000E+00  0.00000000E+00
  0.00000000E+00  0.00000000E+00  0.00000000E+00
  0.00000000E+00  0.00000000E+00  0.00000000E+00
  0.00000000E+00  0.00000000E+00  0.00000000E+00
  0.00000000E+00  0.00000000E+00  0.00000000E+00
  0.00000000E+00  0.00000000E+00  0.00000000E+00
  0.00000000E+00  0.00000000E+00  0.00000000E+00
  0.00000000E+00  0.00000000E+00  0.00000000E+00
  0.00000000E+00  0.00000000E+00  0.00000000E+00
  0.00000000E+00  0.00000000E+00  0.00000000E+00
  0.00000000E+00  0.00000000E+00  0.00000000E+00
  0.00000000E+00  0.00000000E+00  0.00000000E+00
  0.00000000E+00  0.00000000E+00  0.00000000E+00
  0.00000000E+00  0.00000000E+00  0.00000000E+00
  0.00000000E+00  0.00000000E+00  0.00000000E+00
  0.00000000E+00  0.00000000E+00  0.00000000E+00
  0.00000000E+00  0.00000000E+00  0.00000000E+00
  0.00000000E+00  0.00000000E+00  0.00000000E+00
  0.00000000E+00  0.00000000E+00  0.00000000E+00
  0.00000000E+00  0.00000000E+00  0.00000000E+00
  0.00000000E+00  0.00000000E+00  0.00000000E+00
  0.00000000E+00  0.00000000E+00  0.00000000E+00
  0.00000000E+00  0.00000000E+00  0.00000000E+00
  0.00000000E+00  0.00000000E+00  0.00000000E+00
  0.00000000E+00  0.00000000E+00  0.00000000E+00
  0.00000000E+00  0.00000000E+00  0.00000000E+00
  0.00000000E+00  0.00000000E+00  0.00000000E+00
  0.00000000E+00  0.00000000E+00  0.00000000E+00
  0.00000000E+00  0.00000000E+00  0.00000000E+00
  0.00000000E+00  0.00000000E+00  0.00000000E+00
  0.00000000E+00  0.00000000E+00  0.00000000E+00
  0.00000000E+00  0.00000000E+00  0.00000000E+00
  0.00000000E+00  0.00000000E+00  0.00000000E+00
  0.00000000E+00  0.00000000E+00  0.00000000E+00
  0.00000000E+00  0.00000000E+00  0.00000000E+00
  0.00000000E+00  0.00000000E+00  0.00000000E+00
  0.00000000E+00  0.00000000E+00  0.00000000E+00
  0.00000000E+00  0.00000000E+00  0.00000000E+00
