Sc1 H1 C124 N2                          
   1.00000000000000     
    19.8245895607418383   -0.0189506003473105    0.0121862390231040
    -9.9287410349275671   17.0763939892808665    0.0073271664959938
     0.0183579537491558    0.0234458480487605   29.7401803488161001
   Sc   H    C    N 
     1     1   124     2
Direct
  0.4375505020089605  0.4998977690438551  0.4336500179836804
  0.4643226325532410  0.5255000424843317  0.5193903863167506
  0.0419897229661785  0.0840243807577892  0.3997124616031087
  0.0413335011522804  0.2084194720475452  0.3993091378697926
  0.0406454653933181  0.3330187256916233  0.3991135144902600
  0.0405131986136880  0.4583445400487207  0.3992142187327801
  0.0411621087669616  0.5837951287135752  0.3995483336728896
  0.0418152442813806  0.7091448041766739  0.3997935061677822
  0.0421238438197662  0.8343728373113706  0.3998961516171420
  0.0422783122574870  0.9594544984734483  0.3998819473243316
  0.1679290329017888  0.0854709410395458  0.3998781367003303
  0.1672904460083657  0.2098872056706895  0.3994680406004889
  0.1659877025583469  0.3341118767444442  0.3989815484765629
  0.1642688487488542  0.4586723846054710  0.3988385301330268
  0.1649858343578785  0.5838457064233253  0.3989970928417321
  0.1660909079259056  0.7091573633293109  0.3995384598705272
  0.1667663978729124  0.8344513096913317  0.3998775918105792
  0.1673096063405168  0.9598284479998043  0.3999846419956654
  0.2925142926716973  0.0850403594656726  0.3999100976676004
  0.2941655080572971  0.2120095860069782  0.4005636305485467
  0.2928274107478046  0.3373130545433014  0.4012431245125967
  0.2885880173954050  0.4592594910524781  0.4011075160866326
  0.2885936167316174  0.5844354709045163  0.3998583499205992
  0.2903814992319553  0.7092202962176870  0.3994352797324296
  0.2913406654164845  0.8341774072908947  0.3996213256895160
  0.2919095836263352  0.9594048578798535  0.3998187956673434
  0.4170833027915464  0.0836489954649906  0.3996663150253568
  0.4176921054854290  0.2090059438519987  0.3997589049506090
  0.4209725068316814  0.3363999011788934  0.4025994464833929
  0.4145983469655263  0.7076044827895984  0.4003611485956142
  0.4158920055531041  0.8330332416860671  0.3995089654839674
  0.4165075478437075  0.9583318578621345  0.3996843081940042
  0.5416580826945463  0.0824807259356035  0.3997352101875933
  0.5422564043435898  0.2075688466329311  0.3995582193374219
  0.5435037186328557  0.3323976278124121  0.3998147658697562
  0.5447409659417630  0.4556518888660648  0.4018152817873997
  0.5440388373183112  0.5802775178194395  0.4026630436272143
  0.5384553751062811  0.7039317012199078  0.4019864048848021
  0.5403352260233234  0.8313028635026711  0.4001064833596644
  0.5411255964337656  0.9570950511559104  0.3997188898931654
  0.6662536765807090  0.0819916617786376  0.3998939976393601
  0.6668268255428629  0.2072776401874350  0.3997503271965925
  0.6677607689925793  0.3325546575814116  0.3993604973058567
  0.6692795021266065  0.4579557773353145  0.3988975645354387
  0.6690437585353166  0.5823988398895494  0.3990321101633114
  0.6661660059751711  0.7064983131626335  0.3992457186793956
  0.6649306856375432  0.8307463670186692  0.3998643711800440
  0.6657475724451203  0.9566025866172225  0.3999219596569716
  0.7910227651909381  0.0820483878059122  0.3999337524302504
  0.7913573050386304  0.2072521500500599  0.3998783136822013
  0.7919894945691794  0.3326181575334601  0.3996696386063121
  0.7928439580925755  0.4580788143279193  0.3992800490811632
  0.7933126912810948  0.5833604795068936  0.3989403504630431
  0.7923562241645712  0.7081731474527331  0.3989439140545485
  0.7912293249264266  0.8324265817890435  0.3993615827829515
  0.7906879522569739  0.9568315840760917  0.3997428432184336
  0.9161869333792509  0.0827103425869851  0.3997946022208012
  0.9160713267502700  0.2075377565328722  0.3996722106533497
  0.9161750895190863  0.3327507107748460  0.3996238634251412
  0.9166499127583947  0.4581652783991927  0.3996494522056935
  0.9172988448218860  0.5836614135819573  0.3995889804573807
  0.9173291594071813  0.7088994768066144  0.3995399032853655
  0.9170361059608965  0.8337220660590177  0.3995983611482217
  0.9165771376484102  0.9582492146519925  0.3997757134181086
  0.0842335890601618  0.0431108417622923  0.3998044494231436
  0.0836934220815166  0.1674990861750558  0.3994308091958843
  0.0825937312626976  0.2917784654329125  0.3989944144836812
  0.0816288472425271  0.4165864097367518  0.3989167115855210
  0.0820825395219202  0.5418981598912254  0.3992164195114682
  0.0829572797518097  0.6673284523773404  0.3996409959669336
  0.0835673176090879  0.7926826879507445  0.3998881917630683
  0.0839169821864800  0.9178899022262712  0.3999504871349870
  0.2091820114293057  0.0433484976080294  0.3999685041412562
  0.2099704983784676  0.1692022132909230  0.3999355895821637
  0.2087239065973492  0.2934113349607088  0.3994046062120447
  0.2059031788786712  0.4175550602927842  0.3992348956994789
  0.2056455856821984  0.5419948632758604  0.3989368821106964
  0.2071631724199960  0.6674113922184759  0.3992872773434044
  0.2080989208608059  0.7926824279457847  0.3996941761207609
  0.2086801642627591  0.9179554999053892  0.3999401257277384
  0.3337981811610859  0.0428709169971597  0.3997614187642355
  0.3345611253295786  0.1686375751914255  0.4000988283233085
  0.3364256395632452  0.2959830128482253  0.4019863225582867
  0.3308014397738290  0.4196154353853387  0.4030509432712321
  0.3301561299544176  0.5443062422793901  0.4021695489949906
  0.3314053076516075  0.6675668639991414  0.3998978519498735
  0.3326655222678525  0.7924019945026899  0.3994827155617386
  0.3332987861772381  0.9174839717626782  0.3997157919104808
  0.4584506285740133  0.0416250843068298  0.3997125061318201
  0.4590403036204265  0.1669205171685633  0.3995585615167201
  0.4603059157714142  0.2923275518930382  0.4002505706780468
  0.4539025446549658  0.6635099782551777  0.4027862950084042
  0.4572158906737158  0.7909355341380930  0.3997691016943392
  0.4578514644429958  0.9162953935136002  0.3996172608836446
  0.5830364045498158  0.0405540822089918  0.3997811096567077
  0.5835820134779155  0.1657879204706205  0.3996826854075479
  0.5845414050259166  0.2907559214493318  0.3994806090183474
  0.5863351423276200  0.4155324776764999  0.3996993907931099
  0.5863078048148651  0.5406844165599196  0.4007274296475458
  0.5820350881894143  0.6626019822574349  0.4010690893787014
  0.5807225066383879  0.7879250822031523  0.4005518862196311
  0.5824018525531045  0.9149268821141376  0.3998839784031887
  0.7076366395477791  0.0401201928776374  0.3999375359444741
  0.7081502481375708  0.1654912114170841  0.3998847212240975
  0.7088464819200837  0.2907984992700392  0.3996042741677215
  0.7099496736609723  0.4161248776514199  0.3990558353498130
  0.7106727040106904  0.5412684600920414  0.3987848077249865
  0.7089565821740109  0.6658367123259126  0.3988302282328959
  0.7075996795587187  0.7900406268006677  0.3993740818169798
  0.7069904191892249  0.9144787208681109  0.3998118020264556
  0.8326647154049454  0.0404891436999293  0.3998592125491385
  0.8327973396154320  0.1655623640771395  0.3998798414820826
  0.8331303739573812  0.2907982003822127  0.3997758228677597
  0.8337573109527838  0.4161577092368276  0.3995784213170950
  0.8344220823248634  0.5416216835452090  0.3992754874660562
  0.8342922692434556  0.6669300810166163  0.3991267423713154
  0.8336013028431069  0.7915091833895858  0.3992672109334663
  0.8329447131378771  0.9159130399036357  0.3996476730496923
  0.9583616840641440  0.0416966679865993  0.3998033403501609
  0.9579124869898550  0.1662360749502483  0.3996016991019431
  0.9576120887401700  0.2910649097628379  0.3994874147171998
  0.9576346708618573  0.4162979767112773  0.3995458020131792
  0.9582726682979796  0.5417850937802058  0.3996533785468159
  0.9587734189791206  0.6672126803791087  0.3996792119189436
  0.9588631076537908  0.7924185783364948  0.3996969945189619
  0.9587495691308447  0.9172370461691202  0.3997882709146410
  0.4097342270112847  0.5833624411292320  0.4059935523286669
  0.4651303521993668  0.4165566831094694  0.4056119020887579
 
  0.00000000E+00  0.00000000E+00  0.00000000E+00
  0.00000000E+00  0.00000000E+00  0.00000000E+00
  0.00000000E+00  0.00000000E+00  0.00000000E+00
  0.00000000E+00  0.00000000E+00  0.00000000E+00
  0.00000000E+00  0.00000000E+00  0.00000000E+00
  0.00000000E+00  0.00000000E+00  0.00000000E+00
  0.00000000E+00  0.00000000E+00  0.00000000E+00
  0.00000000E+00  0.00000000E+00  0.00000000E+00
  0.00000000E+00  0.00000000E+00  0.00000000E+00
  0.00000000E+00  0.00000000E+00  0.00000000E+00
  0.00000000E+00  0.00000000E+00  0.00000000E+00
  0.00000000E+00  0.00000000E+00  0.00000000E+00
  0.00000000E+00  0.00000000E+00  0.00000000E+00
  0.00000000E+00  0.00000000E+00  0.00000000E+00
  0.00000000E+00  0.00000000E+00  0.00000000E+00
  0.00000000E+00  0.00000000E+00  0.00000000E+00
  0.00000000E+00  0.00000000E+00  0.00000000E+00
  0.00000000E+00  0.00000000E+00  0.00000000E+00
  0.00000000E+00  0.00000000E+00  0.00000000E+00
  0.00000000E+00  0.00000000E+00  0.00000000E+00
  0.00000000E+00  0.00000000E+00  0.00000000E+00
  0.00000000E+00  0.00000000E+00  0.00000000E+00
  0.00000000E+00  0.00000000E+00  0.00000000E+00
  0.00000000E+00  0.00000000E+00  0.00000000E+00
  0.00000000E+00  0.00000000E+00  0.00000000E+00
  0.00000000E+00  0.00000000E+00  0.00000000E+00
  0.00000000E+00  0.00000000E+00  0.00000000E+00
  0.00000000E+00  0.00000000E+00  0.00000000E+00
  0.00000000E+00  0.00000000E+00  0.00000000E+00
  0.00000000E+00  0.00000000E+00  0.00000000E+00
  0.00000000E+00  0.00000000E+00  0.00000000E+00
  0.00000000E+00  0.00000000E+00  0.00000000E+00
  0.00000000E+00  0.00000000E+00  0.00000000E+00
  0.00000000E+00  0.00000000E+00  0.00000000E+00
  0.00000000E+00  0.00000000E+00  0.00000000E+00
  0.00000000E+00  0.00000000E+00  0.00000000E+00
  0.00000000E+00  0.00000000E+00  0.00000000E+00
  0.00000000E+00  0.00000000E+00  0.00000000E+00
  0.00000000E+00  0.00000000E+00  0.00000000E+00
  0.00000000E+00  0.00000000E+00  0.00000000E+00
  0.00000000E+00  0.00000000E+00  0.00000000E+00
  0.00000000E+00  0.00000000E+00  0.00000000E+00
  0.00000000E+00  0.00000000E+00  0.00000000E+00
  0.00000000E+00  0.00000000E+00  0.00000000E+00
  0.00000000E+00  0.00000000E+00  0.00000000E+00
  0.00000000E+00  0.00000000E+00  0.00000000E+00
  0.00000000E+00  0.00000000E+00  0.00000000E+00
  0.00000000E+00  0.00000000E+00  0.00000000E+00
  0.00000000E+00  0.00000000E+00  0.00000000E+00
  0.00000000E+00  0.00000000E+00  0.00000000E+00
  0.00000000E+00  0.00000000E+00  0.00000000E+00
  0.00000000E+00  0.00000000E+00  0.00000000E+00
  0.00000000E+00  0.00000000E+00  0.00000000E+00
  0.00000000E+00  0.00000000E+00  0.00000000E+00
  0.00000000E+00  0.00000000E+00  0.00000000E+00
  0.00000000E+00  0.00000000E+00  0.00000000E+00
  0.00000000E+00  0.00000000E+00  0.00000000E+00
  0.00000000E+00  0.00000000E+00  0.00000000E+00
  0.00000000E+00  0.00000000E+00  0.00000000E+00
  0.00000000E+00  0.00000000E+00  0.00000000E+00
  0.00000000E+00  0.00000000E+00  0.00000000E+00
  0.00000000E+00  0.00000000E+00  0.00000000E+00
  0.00000000E+00  0.00000000E+00  0.00000000E+00
  0.00000000E+00  0.00000000E+00  0.00000000E+00
  0.00000000E+00  0.00000000E+00  0.00000000E+00
  0.00000000E+00  0.00000000E+00  0.00000000E+00
  0.00000000E+00  0.00000000E+00  0.00000000E+00
  0.00000000E+00  0.00000000E+00  0.00000000E+00
  0.00000000E+00  0.00000000E+00  0.00000000E+00
  0.00000000E+00  0.00000000E+00  0.00000000E+00
  0.00000000E+00  0.00000000E+00  0.00000000E+00
  0.00000000E+00  0.00000000E+00  0.00000000E+00
  0.00000000E+00  0.00000000E+00  0.00000000E+00
  0.00000000E+00  0.00000000E+00  0.00000000E+00
  0.00000000E+00  0.00000000E+00  0.00000000E+00
  0.00000000E+00  0.00000000E+00  0.00000000E+00
  0.00000000E+00  0.00000000E+00  0.00000000E+00
  0.00000000E+00  0.00000000E+00  0.00000000E+00
  0.00000000E+00  0.00000000E+00  0.00000000E+00
  0.00000000E+00  0.00000000E+00  0.00000000E+00
  0.00000000E+00  0.00000000E+00  0.00000000E+00
  0.00000000E+00  0.00000000E+00  0.00000000E+00
  0.00000000E+00  0.00000000E+00  0.00000000E+00
  0.00000000E+00  0.00000000E+00  0.00000000E+00
  0.00000000E+00  0.00000000E+00  0.00000000E+00
  0.00000000E+00  0.00000000E+00  0.00000000E+00
  0.00000000E+00  0.00000000E+00  0.00000000E+00
  0.00000000E+00  0.00000000E+00  0.00000000E+00
  0.00000000E+00  0.00000000E+00  0.00000000E+00
  0.00000000E+00  0.00000000E+00  0.00000000E+00
  0.00000000E+00  0.00000000E+00  0.00000000E+00
  0.00000000E+00  0.00000000E+00  0.00000000E+00
  0.00000000E+00  0.00000000E+00  0.00000000E+00
  0.00000000E+00  0.00000000E+00  0.00000000E+00
  0.00000000E+00  0.00000000E+00  0.00000000E+00
  0.00000000E+00  0.00000000E+00  0.00000000E+00
  0.00000000E+00  0.00000000E+00  0.00000000E+00
  0.00000000E+00  0.00000000E+00  0.00000000E+00
  0.00000000E+00  0.00000000E+00  0.00000000E+00
  0.00000000E+00  0.00000000E+00  0.00000000E+00
  0.00000000E+00  0.00000000E+00  0.00000000E+00
  0.00000000E+00  0.00000000E+00  0.00000000E+00
  0.00000000E+00  0.00000000E+00  0.00000000E+00
  0.00000000E+00  0.00000000E+00  0.00000000E+00
  0.00000000E+00  0.00000000E+00  0.00000000E+00
  0.00000000E+00  0.00000000E+00  0.00000000E+00
  0.00000000E+00  0.00000000E+00  0.00000000E+00
  0.00000000E+00  0.00000000E+00  0.00000000E+00
  0.00000000E+00  0.00000000E+00  0.00000000E+00
  0.00000000E+00  0.00000000E+00  0.00000000E+00
  0.00000000E+00  0.00000000E+00  0.00000000E+00
  0.00000000E+00  0.00000000E+00  0.00000000E+00
  0.00000000E+00  0.00000000E+00  0.00000000E+00
  0.00000000E+00  0.00000000E+00  0.00000000E+00
  0.00000000E+00  0.00000000E+00  0.00000000E+00
  0.00000000E+00  0.00000000E+00  0.00000000E+00
  0.00000000E+00  0.00000000E+00  0.00000000E+00
  0.00000000E+00  0.00000000E+00  0.00000000E+00
  0.00000000E+00  0.00000000E+00  0.00000000E+00
  0.00000000E+00  0.00000000E+00  0.00000000E+00
  0.00000000E+00  0.00000000E+00  0.00000000E+00
  0.00000000E+00  0.00000000E+00  0.00000000E+00
  0.00000000E+00  0.00000000E+00  0.00000000E+00
  0.00000000E+00  0.00000000E+00  0.00000000E+00
  0.00000000E+00  0.00000000E+00  0.00000000E+00
  0.00000000E+00  0.00000000E+00  0.00000000E+00
  0.00000000E+00  0.00000000E+00  0.00000000E+00
  0.00000000E+00  0.00000000E+00  0.00000000E+00
