H1 Rh1 C126 O2                          
   1.00000000000000     
    19.7746546113051558    0.0067103821213234   -0.3368168322789334
    -9.8956444919619475   17.0509458884112206   -0.0334919427801222
    -0.5071929355655783   -0.3528494324612093   29.8500943575021864
   H    Rh   C    O 
     1     1   126     2
Direct
  0.5108131536276629  0.5049789220263586  0.5226696153245122
  0.4415038531272496  0.5030983487528748  0.4341348666865845
  0.0422946256109914  0.0840560782842257  0.4004159535230177
  0.0416150546346047  0.2083348962994509  0.4001053389268960
  0.0412038962197592  0.3330063158763987  0.3990650020022473
  0.0411590292079666  0.4582707006782967  0.3981696123811155
  0.0415931491195471  0.5835814054977635  0.3979260418957847
  0.0421066222274931  0.7089018920158077  0.3982215827187398
  0.0423921585287832  0.8341881138193682  0.3989751319762214
  0.0424648727665375  0.9592854202101437  0.3998964047482585
  0.1677523822788121  0.0848869180177379  0.4010207755274601
  0.1678573923354957  0.2099317952222212  0.4014532386735192
  0.1664040041923356  0.3335686431160407  0.4006353727672043
  0.1654557536177429  0.4583208295728236  0.3987818501125999
  0.1658515341539716  0.5835201038322095  0.3977973988129304
  0.1666696561963666  0.7088484944216213  0.3980489053619848
  0.1671086708972007  0.8341570929857085  0.3989356020111248
  0.1674939643645761  0.9595573467539649  0.4000530772036417
  0.2926653752006656  0.0848788564618068  0.4009227243656584
  0.2933250644189241  0.2109686526909005  0.4026027147633925
  0.2942879882167327  0.3372164659686482  0.4047101730994463
  0.2898046136475925  0.4583563309221828  0.4030089753899198
  0.2899367948492782  0.5837648804974750  0.3996654579954636
  0.2912508973029657  0.7086259773686420  0.3986440144865986
  0.2917822077035192  0.8337858437260316  0.3987903228973081
  0.2922118135754657  0.9592298146859810  0.3997344433795407
  0.4172130177991018  0.0840236697060346  0.4000383473433335
  0.4176482000920168  0.2099437619371992  0.4012009802929640
  0.4188123186186505  0.3373122297239432  0.4039577674172707
  0.4119906001654698  0.5811163061569343  0.4086423416473064
  0.4158989137697821  0.7066375994183531  0.4016892561330839
  0.4165070166499378  0.8326465119103279  0.3993785532785949
  0.4168449586678225  0.9583200656006821  0.3992837953795734
  0.5417641513086688  0.0828746625646874  0.3992951895605403
  0.5421461873908684  0.2082779951831698  0.3996261783244347
  0.5426764727792361  0.3335302628303973  0.4000833223188232
  0.5442712971815561  0.4582673025480555  0.4016265530591343
  0.5455469488906792  0.5810533653712892  0.4074420893167502
  0.5409374738040261  0.7058757625593244  0.4050964753089413
  0.5411208810713297  0.8316572693361839  0.4010438821121396
  0.5414874985524573  0.9573477077734820  0.3993577784392014
  0.6664579132502353  0.0824005331164836  0.3993069455807313
  0.6667621161038455  0.2077387725322321  0.3991194363511210
  0.6671753815451221  0.3329680201236560  0.3987658712947914
  0.6682963136586227  0.4583078004475264  0.3983982723919635
  0.6693818957643566  0.5837820478035286  0.3989176520776543
  0.6663763176852321  0.7066159033772513  0.4011986643092388
  0.6661037303960111  0.8316530823377339  0.4010360336971125
  0.6662375782538099  0.9570331585535244  0.3998129304762972
  0.7913680353840622  0.0824355018668343  0.3996071128971858
  0.7914903155744246  0.2075851827068279  0.3992777728990395
  0.7918376473801040  0.3329027070219390  0.3987422849110310
  0.7924697756296100  0.4582658347054053  0.3980764346818625
  0.7930155001561294  0.5835388103403651  0.3976852653080632
  0.7927719763743778  0.7086701183141757  0.3984826114042372
  0.7915695348827864  0.8326758878448257  0.3994855750586109
  0.7912924112036144  0.9573892282556299  0.3997242451581862
  0.9165597992413669  0.0829298514505755  0.3999302493497315
  0.9164011349619549  0.2077888410817078  0.3995959790332343
  0.9164620048843755  0.3329205851429775  0.3989008483067136
  0.9167824228424024  0.4581942454555725  0.3982849645730028
  0.9173340075641260  0.5836105590007865  0.3979186436798125
  0.9174894056475784  0.7088892706900644  0.3980125870187219
  0.9173572324446526  0.8338323564072269  0.3988280076722512
  0.9169162484946315  0.9583711269544505  0.3996605491849325
  0.0842624188750404  0.0427910174532452  0.4004960977039974
  0.0840777194739002  0.1675504347667717  0.4006171339652083
  0.0829450411220906  0.2915643279312197  0.3997415627362078
  0.0825733905497450  0.4165542405199321  0.3984921872550229
  0.0827994465188475  0.5417334261420098  0.3978457390936698
  0.0834671134519677  0.6671255042913974  0.3980118113864647
  0.0839052146522878  0.7925065306482072  0.3986972545286396
  0.0841300437257192  0.9177068211666499  0.3996679425531661
  0.2092873096509662  0.0430630975392860  0.4007564117777653
  0.2095829468967985  0.1684828517774146  0.4017779591989987
  0.2097237354854108  0.2937224884229961  0.4021692530082067
  0.2068464915642867  0.4165710399118819  0.4003280844404095
  0.2069513633715114  0.5417990772129447  0.3983413441644797
  0.2080659573327094  0.6671038386072519  0.3979670828466119
  0.2085427639030878  0.7923243857990331  0.3985338706553551
  0.2089568678044119  0.9176729578961659  0.3996010014764597
  0.3339748616689438  0.0427471767561477  0.4002915969340363
  0.3345032846137251  0.1684935545246475  0.4016594279073453
  0.3351771447711406  0.2944882705922187  0.4043133092210580
  0.3335862073618965  0.4203633992826546  0.4071840359519270
  0.3309802332647295  0.5421883652580950  0.4030152768658988
  0.3326952863080628  0.6667195983143185  0.3998865657212879
  0.3332140933159424  0.7918617705152724  0.3988607965867081
  0.3336281448165542  0.9172110006639519  0.3992680371687025
  0.4585672130693400  0.0417948638018607  0.3994934511733931
  0.4589360672822647  0.1675281973837423  0.4002646404919073
  0.4596580204253364  0.2937711510316859  0.4016268728717635
  0.4629183647427478  0.4205090162721920  0.4056165518845898
  0.4571375438119664  0.6634523646793917  0.4052969229012020
  0.4579296051767384  0.7903048712453772  0.4006015977558367
  0.4582434452253906  0.9161147497624450  0.3992505548744121
  0.5832065335537155  0.0408481387820559  0.3992251136450151
  0.5835433024408250  0.1663051602831675  0.3992941466025202
  0.5840383897603892  0.2915100755343804  0.3993483234715444
  0.5852625343467595  0.4165298199026226  0.3995754271042589
  0.5869988896939693  0.5421512471314961  0.4017050151094305
  0.5822900479656752  0.6634078349509241  0.4046650566234588
  0.5824367586901934  0.7891645682985075  0.4024056411836445
  0.5828504483826059  0.9151994247466878  0.3999191619567445
  0.7079698385287869  0.0405386843918580  0.3995022242149468
  0.7082406848307088  0.1659024548582227  0.3992370987375216
  0.7085991573940141  0.2911957818463777  0.3988631493151680
  0.7093617050753455  0.4165436521316475  0.3982987812208515
  0.7102500949569842  0.5417925149882714  0.3979602175365717
  0.7095190378645485  0.6667221057477133  0.3994276715692383
  0.7079027455727034  0.7903123411927370  0.4005139748566184
  0.7078170562896045  0.9152179892148468  0.4000671821924043
  0.8330711086701756  0.0408966457089079  0.3997205833996985
  0.8330775330375899  0.1659318378265819  0.3995219948939541
  0.8332937265526036  0.2911818107979597  0.3990097257235525
  0.8337033194316322  0.4164130078564827  0.3983755480984432
  0.8342672634862256  0.5417538592491826  0.3978128914513928
  0.8343342624187596  0.6671274045960361  0.3978585859606292
  0.8340065051269633  0.7918873088625245  0.3988384584712144
  0.8333032002112363  0.9161699224640552  0.3995944673876747
  0.9586841767736612  0.0418516323979010  0.4000236183152526
  0.9582070555895559  0.1663578104369201  0.3999041709049415
  0.9580027570517901  0.2912312691502620  0.3991824652563196
  0.9580957750831789  0.4164311108802678  0.3984667106414851
  0.9585735227786747  0.5418083811323147  0.3980430406441413
  0.9589638332004766  0.6671506613767234  0.3979967256132196
  0.9590935760149182  0.7923539218086636  0.3985434168847420
  0.9589909589711634  0.9172646347599288  0.3994444368793153
  0.4587494716066412  0.4987854896365299  0.5169272907078981
  0.4777522243270758  0.5666630690307678  0.4890472640466808
 
  0.00000000E+00  0.00000000E+00  0.00000000E+00
  0.00000000E+00  0.00000000E+00  0.00000000E+00
  0.00000000E+00  0.00000000E+00  0.00000000E+00
  0.00000000E+00  0.00000000E+00  0.00000000E+00
  0.00000000E+00  0.00000000E+00  0.00000000E+00
  0.00000000E+00  0.00000000E+00  0.00000000E+00
  0.00000000E+00  0.00000000E+00  0.00000000E+00
  0.00000000E+00  0.00000000E+00  0.00000000E+00
  0.00000000E+00  0.00000000E+00  0.00000000E+00
  0.00000000E+00  0.00000000E+00  0.00000000E+00
  0.00000000E+00  0.00000000E+00  0.00000000E+00
  0.00000000E+00  0.00000000E+00  0.00000000E+00
  0.00000000E+00  0.00000000E+00  0.00000000E+00
  0.00000000E+00  0.00000000E+00  0.00000000E+00
  0.00000000E+00  0.00000000E+00  0.00000000E+00
  0.00000000E+00  0.00000000E+00  0.00000000E+00
  0.00000000E+00  0.00000000E+00  0.00000000E+00
  0.00000000E+00  0.00000000E+00  0.00000000E+00
  0.00000000E+00  0.00000000E+00  0.00000000E+00
  0.00000000E+00  0.00000000E+00  0.00000000E+00
  0.00000000E+00  0.00000000E+00  0.00000000E+00
  0.00000000E+00  0.00000000E+00  0.00000000E+00
  0.00000000E+00  0.00000000E+00  0.00000000E+00
  0.00000000E+00  0.00000000E+00  0.00000000E+00
  0.00000000E+00  0.00000000E+00  0.00000000E+00
  0.00000000E+00  0.00000000E+00  0.00000000E+00
  0.00000000E+00  0.00000000E+00  0.00000000E+00
  0.00000000E+00  0.00000000E+00  0.00000000E+00
  0.00000000E+00  0.00000000E+00  0.00000000E+00
  0.00000000E+00  0.00000000E+00  0.00000000E+00
  0.00000000E+00  0.00000000E+00  0.00000000E+00
  0.00000000E+00  0.00000000E+00  0.00000000E+00
  0.00000000E+00  0.00000000E+00  0.00000000E+00
  0.00000000E+00  0.00000000E+00  0.00000000E+00
  0.00000000E+00  0.00000000E+00  0.00000000E+00
  0.00000000E+00  0.00000000E+00  0.00000000E+00
  0.00000000E+00  0.00000000E+00  0.00000000E+00
  0.00000000E+00  0.00000000E+00  0.00000000E+00
  0.00000000E+00  0.00000000E+00  0.00000000E+00
  0.00000000E+00  0.00000000E+00  0.00000000E+00
  0.00000000E+00  0.00000000E+00  0.00000000E+00
  0.00000000E+00  0.00000000E+00  0.00000000E+00
  0.00000000E+00  0.00000000E+00  0.00000000E+00
  0.00000000E+00  0.00000000E+00  0.00000000E+00
  0.00000000E+00  0.00000000E+00  0.00000000E+00
  0.00000000E+00  0.00000000E+00  0.00000000E+00
  0.00000000E+00  0.00000000E+00  0.00000000E+00
  0.00000000E+00  0.00000000E+00  0.00000000E+00
  0.00000000E+00  0.00000000E+00  0.00000000E+00
  0.00000000E+00  0.00000000E+00  0.00000000E+00
  0.00000000E+00  0.00000000E+00  0.00000000E+00
  0.00000000E+00  0.00000000E+00  0.00000000E+00
  0.00000000E+00  0.00000000E+00  0.00000000E+00
  0.00000000E+00  0.00000000E+00  0.00000000E+00
  0.00000000E+00  0.00000000E+00  0.00000000E+00
  0.00000000E+00  0.00000000E+00  0.00000000E+00
  0.00000000E+00  0.00000000E+00  0.00000000E+00
  0.00000000E+00  0.00000000E+00  0.00000000E+00
  0.00000000E+00  0.00000000E+00  0.00000000E+00
  0.00000000E+00  0.00000000E+00  0.00000000E+00
  0.00000000E+00  0.00000000E+00  0.00000000E+00
  0.00000000E+00  0.00000000E+00  0.00000000E+00
  0.00000000E+00  0.00000000E+00  0.00000000E+00
  0.00000000E+00  0.00000000E+00  0.00000000E+00
  0.00000000E+00  0.00000000E+00  0.00000000E+00
  0.00000000E+00  0.00000000E+00  0.00000000E+00
  0.00000000E+00  0.00000000E+00  0.00000000E+00
  0.00000000E+00  0.00000000E+00  0.00000000E+00
  0.00000000E+00  0.00000000E+00  0.00000000E+00
  0.00000000E+00  0.00000000E+00  0.00000000E+00
  0.00000000E+00  0.00000000E+00  0.00000000E+00
  0.00000000E+00  0.00000000E+00  0.00000000E+00
  0.00000000E+00  0.00000000E+00  0.00000000E+00
  0.00000000E+00  0.00000000E+00  0.00000000E+00
  0.00000000E+00  0.00000000E+00  0.00000000E+00
  0.00000000E+00  0.00000000E+00  0.00000000E+00
  0.00000000E+00  0.00000000E+00  0.00000000E+00
  0.00000000E+00  0.00000000E+00  0.00000000E+00
  0.00000000E+00  0.00000000E+00  0.00000000E+00
  0.00000000E+00  0.00000000E+00  0.00000000E+00
  0.00000000E+00  0.00000000E+00  0.00000000E+00
  0.00000000E+00  0.00000000E+00  0.00000000E+00
  0.00000000E+00  0.00000000E+00  0.00000000E+00
  0.00000000E+00  0.00000000E+00  0.00000000E+00
  0.00000000E+00  0.00000000E+00  0.00000000E+00
  0.00000000E+00  0.00000000E+00  0.00000000E+00
  0.00000000E+00  0.00000000E+00  0.00000000E+00
  0.00000000E+00  0.00000000E+00  0.00000000E+00
  0.00000000E+00  0.00000000E+00  0.00000000E+00
  0.00000000E+00  0.00000000E+00  0.00000000E+00
  0.00000000E+00  0.00000000E+00  0.00000000E+00
  0.00000000E+00  0.00000000E+00  0.00000000E+00
  0.00000000E+00  0.00000000E+00  0.00000000E+00
  0.00000000E+00  0.00000000E+00  0.00000000E+00
  0.00000000E+00  0.00000000E+00  0.00000000E+00
  0.00000000E+00  0.00000000E+00  0.00000000E+00
  0.00000000E+00  0.00000000E+00  0.00000000E+00
  0.00000000E+00  0.00000000E+00  0.00000000E+00
  0.00000000E+00  0.00000000E+00  0.00000000E+00
  0.00000000E+00  0.00000000E+00  0.00000000E+00
  0.00000000E+00  0.00000000E+00  0.00000000E+00
  0.00000000E+00  0.00000000E+00  0.00000000E+00
  0.00000000E+00  0.00000000E+00  0.00000000E+00
  0.00000000E+00  0.00000000E+00  0.00000000E+00
  0.00000000E+00  0.00000000E+00  0.00000000E+00
  0.00000000E+00  0.00000000E+00  0.00000000E+00
  0.00000000E+00  0.00000000E+00  0.00000000E+00
  0.00000000E+00  0.00000000E+00  0.00000000E+00
  0.00000000E+00  0.00000000E+00  0.00000000E+00
  0.00000000E+00  0.00000000E+00  0.00000000E+00
  0.00000000E+00  0.00000000E+00  0.00000000E+00
  0.00000000E+00  0.00000000E+00  0.00000000E+00
  0.00000000E+00  0.00000000E+00  0.00000000E+00
  0.00000000E+00  0.00000000E+00  0.00000000E+00
  0.00000000E+00  0.00000000E+00  0.00000000E+00
  0.00000000E+00  0.00000000E+00  0.00000000E+00
  0.00000000E+00  0.00000000E+00  0.00000000E+00
  0.00000000E+00  0.00000000E+00  0.00000000E+00
  0.00000000E+00  0.00000000E+00  0.00000000E+00
  0.00000000E+00  0.00000000E+00  0.00000000E+00
  0.00000000E+00  0.00000000E+00  0.00000000E+00
  0.00000000E+00  0.00000000E+00  0.00000000E+00
  0.00000000E+00  0.00000000E+00  0.00000000E+00
  0.00000000E+00  0.00000000E+00  0.00000000E+00
  0.00000000E+00  0.00000000E+00  0.00000000E+00
  0.00000000E+00  0.00000000E+00  0.00000000E+00
  0.00000000E+00  0.00000000E+00  0.00000000E+00
  0.00000000E+00  0.00000000E+00  0.00000000E+00
  0.00000000E+00  0.00000000E+00  0.00000000E+00
  0.00000000E+00  0.00000000E+00  0.00000000E+00
