Re1 C123 N3 O1                          
   1.00000000000000     
    19.8036383922199661    0.0074351624491096    0.0169944251885161
    -9.8951536284355726   17.0086745134226440   -0.1014514201799967
     0.0258538845233050   -0.1627188231745756   29.8679230483582678
   Re   C    N    O 
     1   123     3     1
Direct
  0.4387139652642386  0.5018045247899845  0.4314240978148889
  0.0420984268572160  0.0843582673086641  0.3997825890200305
  0.0410213171227154  0.2082600303552206  0.3998802064650346
  0.0401940015203123  0.3328925921302388  0.3993412455355965
  0.0403135992201339  0.4581464838798789  0.3990622922091902
  0.0413422583116431  0.5837856180805916  0.3996031947436544
  0.0423066500786941  0.7093548204225899  0.3999465249440769
  0.0426163604421446  0.8346525224325715  0.3999300297411247
  0.0425598483120841  0.9597725384294192  0.3997576967393622
  0.1680094555185647  0.0858452087891036  0.4000501431069377
  0.1677630656618522  0.2108290456831693  0.4006560117292894
  0.1650418713477006  0.3337689889010464  0.4005635583210335
  0.1639293146672371  0.4583986515041387  0.3985813164980837
  0.1649624532105967  0.5836251768691688  0.3986912200747165
  0.1664413793510752  0.7090194470116569  0.3996168596131579
  0.1672191903267286  0.8345851123275477  0.4000260730374960
  0.1676374168160909  0.9602304114475051  0.3999665751494907
  0.2927422210017364  0.0861464402257462  0.3998300270380284
  0.2935064241359207  0.2132006893349050  0.4013774502264299
  0.2930829561522560  0.3392379609851738  0.4042379883414061
  0.2870800107325184  0.4584337478953188  0.4016172870169811
  0.2881220034348682  0.5828841178074773  0.3985865379876479
  0.2906287639919876  0.7082268652125435  0.3992389156199802
  0.2917256021950654  0.8339155085420495  0.3998430217528052
  0.2922765419847283  0.9597845844462691  0.3998994859980205
  0.4170980411803760  0.0844150520863580  0.3996272724409238
  0.4178499701661766  0.2109746061932510  0.3995522620088370
  0.4199874445801959  0.3392595651867336  0.4025237519925891
  0.4146228758199562  0.7051649503272434  0.4001203966751424
  0.4160971364212552  0.8318804893966216  0.3998473633627096
  0.4167054385997949  0.9582024708292766  0.3999231735331164
  0.5415082873560054  0.0825835532058809  0.3999073996517856
  0.5421281531022872  0.2085189567068952  0.3994090351159938
  0.5433364631495782  0.3342541937015417  0.3989070100766059
  0.5472149931231782  0.4596266355066189  0.4004131345834031
  0.5380949085994653  0.7010647630581324  0.4024805957514287
  0.5403610589929991  0.8297440813075594  0.4004640722105580
  0.5410337063701094  0.9564317575850485  0.4000071466667366
  0.6660025811654864  0.0817924663063368  0.4000629847270189
  0.6664906544897402  0.2074023355273883  0.3999558560218971
  0.6675350442540282  0.3330035395545121  0.3994412135563756
  0.6699034238660205  0.4586935825558104  0.3987544593559620
  0.6707821935739714  0.5839912009794785  0.3992932750250259
  0.6661943551788010  0.7058089613254771  0.4003184393668163
  0.6645331313492746  0.8299008534508631  0.4003552831556162
  0.6654617420372498  0.9559850034507366  0.4000827607336636
  0.7906556128081963  0.0817939801098930  0.3999080953339206
  0.7909710818100387  0.2071674330934376  0.4000357408684647
  0.7916927913430591  0.3326828030931312  0.3999962600016170
  0.7930524644732694  0.4583191949985368  0.3997937706286601
  0.7940252145333691  0.5838693914467100  0.3994519896154502
  0.7933093781526960  0.7088437840974250  0.3995905220723323
  0.7911076273734420  0.8322461710019574  0.3996221297057317
  0.7904040614541077  0.9565470326267975  0.3997377750536392
  0.9158993415050493  0.0825661477278768  0.3997183060624373
  0.9156601588669658  0.2073465026742060  0.3997611506798298
  0.9158317588552441  0.3326254774744448  0.3996733172917455
  0.9166663842244525  0.4582450057481977  0.3998684090437411
  0.9176801472285664  0.5838813838058104  0.3999571701270770
  0.9179312463078914  0.7091989003327265  0.3998206716557740
  0.9175412577592333  0.8341591452614886  0.3996471914058019
  0.9166029334876925  0.9583161954404930  0.3995955700263463
  0.0844321848911511  0.0434756692056192  0.3998215904319554
  0.0839315703099759  0.1680578016546708  0.4000218140896699
  0.0822268135335313  0.2916685568979311  0.3998412045103308
  0.0812780261633824  0.4162428316382180  0.3988489685847538
  0.0821384451455742  0.5417648657571335  0.3990773093424728
  0.0833733665875344  0.6673793364652113  0.3997469078165306
  0.0840385870280832  0.7929049329599208  0.4000091603819891
  0.0843446913106509  0.9182806564785940  0.3999010709267717
  0.2094034617922603  0.0440019420270502  0.3999645481082879
  0.2099875246955410  0.1698900593618854  0.4006905910895229
  0.2092223311729373  0.2947706647194037  0.4016169915613169
  0.2052625904633684  0.4169455867204998  0.3996972434879818
  0.2053976633972600  0.5414275729201571  0.3983224803033146
  0.2073613990766270  0.6669942786850624  0.3991172111313804
  0.2085098850493212  0.7926228400052788  0.3998791059691497
  0.2090310136259890  0.9182365979408198  0.4000007337995174
  0.3339436421044800  0.0435872820841250  0.3997145628674348
  0.3344834432691204  0.1701828176835061  0.4001746276264609
  0.3356704673735278  0.2980383802043090  0.4034052163535009
  0.3284650600616434  0.5413539347255846  0.4002735165319446
  0.3313435051096975  0.6660272426028961  0.3992021239511170
  0.3329256771253065  0.7916322378746823  0.3996547123026282
  0.3335031416689265  0.9174619367911395  0.3999261340937841
  0.4583208248272722  0.0418345216801621  0.3998352470973406
  0.4588457189217898  0.1681403425414681  0.3993921969909247
  0.4600028616149010  0.2948149015898476  0.3996164300666469
  0.4654956049067953  0.4222076210785476  0.4052833325124098
  0.4537406695715180  0.6602574457134076  0.4021534624772299
  0.4571302611790692  0.7890219341623981  0.4000790593808445
  0.4578870316109089  0.9156285104607335  0.3999440242009968
  0.5827334954398375  0.0402423041789836  0.4000147367730568
  0.5833248564333643  0.1661858885327704  0.3997785760995857
  0.5842663944272802  0.2918580551100505  0.3991406986080220
  0.5872068080418626  0.4175157865067352  0.3985976387467535
  0.5894288119730715  0.5428970380814040  0.4007868892463174
  0.5822355931246176  0.6609999861205483  0.4026079170869405
  0.5807302043741760  0.7864119692364830  0.4010902186111888
  0.5822313470215434  0.9138979369844968  0.4001330425350919
  0.7073509574006256  0.0398261209431636  0.4000246225844017
  0.7078035826688596  0.1654392537738914  0.4000884595523351
  0.7085288245292259  0.2909964972390776  0.3998844500160419
  0.7102575768667420  0.4165047251269169  0.3993099013345011
  0.7115732135165020  0.5418203951450340  0.3990046616367920
  0.7105108738945178  0.6669355796797384  0.3997895894914535
  0.7073240745182566  0.7895531482192785  0.3999549726642525
  0.7067297363729714  0.9140056529512368  0.3999937042059056
  0.8323954615323650  0.0403223749010697  0.3997581494380902
  0.8324578579559638  0.1654703578658530  0.3998990903310624
  0.8327998998212995  0.2907337273295281  0.3999643854197144
  0.8338064467685724  0.4162600143636611  0.4000001474844178
  0.8349357552539810  0.5419359054739663  0.3997745053348918
  0.8350813576142467  0.6673440283597896  0.3996002002047553
  0.8342065490533910  0.7920963437441586  0.3995802523847750
  0.8328968610166553  0.9158744269418985  0.3996080722529313
  0.9584388568282832  0.0419166469038474  0.3996706602651778
  0.9576175095630853  0.1660854033128311  0.3997493141982731
  0.9572453988133042  0.2909343920474271  0.3995670986979326
  0.9575189801387439  0.4162220635031150  0.3995472317693695
  0.9585054623938256  0.5418274871993570  0.3998753747066081
  0.9593232599992459  0.6674581427807330  0.3999400198135474
  0.9594095722144816  0.7927896454152222  0.3998049406561872
  0.9591100065208392  0.9176400119705967  0.3996352663231559
  0.4089660622864820  0.5788526381397301  0.4041454285854779
  0.5462909961809698  0.5800057328736526  0.4053167218212778
  0.3304238028954515  0.4215052685976726  0.4074762848923259
  0.4451589277398629  0.5010448258289439  0.4884708939299300
 
  0.00000000E+00  0.00000000E+00  0.00000000E+00
  0.00000000E+00  0.00000000E+00  0.00000000E+00
  0.00000000E+00  0.00000000E+00  0.00000000E+00
  0.00000000E+00  0.00000000E+00  0.00000000E+00
  0.00000000E+00  0.00000000E+00  0.00000000E+00
  0.00000000E+00  0.00000000E+00  0.00000000E+00
  0.00000000E+00  0.00000000E+00  0.00000000E+00
  0.00000000E+00  0.00000000E+00  0.00000000E+00
  0.00000000E+00  0.00000000E+00  0.00000000E+00
  0.00000000E+00  0.00000000E+00  0.00000000E+00
  0.00000000E+00  0.00000000E+00  0.00000000E+00
  0.00000000E+00  0.00000000E+00  0.00000000E+00
  0.00000000E+00  0.00000000E+00  0.00000000E+00
  0.00000000E+00  0.00000000E+00  0.00000000E+00
  0.00000000E+00  0.00000000E+00  0.00000000E+00
  0.00000000E+00  0.00000000E+00  0.00000000E+00
  0.00000000E+00  0.00000000E+00  0.00000000E+00
  0.00000000E+00  0.00000000E+00  0.00000000E+00
  0.00000000E+00  0.00000000E+00  0.00000000E+00
  0.00000000E+00  0.00000000E+00  0.00000000E+00
  0.00000000E+00  0.00000000E+00  0.00000000E+00
  0.00000000E+00  0.00000000E+00  0.00000000E+00
  0.00000000E+00  0.00000000E+00  0.00000000E+00
  0.00000000E+00  0.00000000E+00  0.00000000E+00
  0.00000000E+00  0.00000000E+00  0.00000000E+00
  0.00000000E+00  0.00000000E+00  0.00000000E+00
  0.00000000E+00  0.00000000E+00  0.00000000E+00
  0.00000000E+00  0.00000000E+00  0.00000000E+00
  0.00000000E+00  0.00000000E+00  0.00000000E+00
  0.00000000E+00  0.00000000E+00  0.00000000E+00
  0.00000000E+00  0.00000000E+00  0.00000000E+00
  0.00000000E+00  0.00000000E+00  0.00000000E+00
  0.00000000E+00  0.00000000E+00  0.00000000E+00
  0.00000000E+00  0.00000000E+00  0.00000000E+00
  0.00000000E+00  0.00000000E+00  0.00000000E+00
  0.00000000E+00  0.00000000E+00  0.00000000E+00
  0.00000000E+00  0.00000000E+00  0.00000000E+00
  0.00000000E+00  0.00000000E+00  0.00000000E+00
  0.00000000E+00  0.00000000E+00  0.00000000E+00
  0.00000000E+00  0.00000000E+00  0.00000000E+00
  0.00000000E+00  0.00000000E+00  0.00000000E+00
  0.00000000E+00  0.00000000E+00  0.00000000E+00
  0.00000000E+00  0.00000000E+00  0.00000000E+00
  0.00000000E+00  0.00000000E+00  0.00000000E+00
  0.00000000E+00  0.00000000E+00  0.00000000E+00
  0.00000000E+00  0.00000000E+00  0.00000000E+00
  0.00000000E+00  0.00000000E+00  0.00000000E+00
  0.00000000E+00  0.00000000E+00  0.00000000E+00
  0.00000000E+00  0.00000000E+00  0.00000000E+00
  0.00000000E+00  0.00000000E+00  0.00000000E+00
  0.00000000E+00  0.00000000E+00  0.00000000E+00
  0.00000000E+00  0.00000000E+00  0.00000000E+00
  0.00000000E+00  0.00000000E+00  0.00000000E+00
  0.00000000E+00  0.00000000E+00  0.00000000E+00
  0.00000000E+00  0.00000000E+00  0.00000000E+00
  0.00000000E+00  0.00000000E+00  0.00000000E+00
  0.00000000E+00  0.00000000E+00  0.00000000E+00
  0.00000000E+00  0.00000000E+00  0.00000000E+00
  0.00000000E+00  0.00000000E+00  0.00000000E+00
  0.00000000E+00  0.00000000E+00  0.00000000E+00
  0.00000000E+00  0.00000000E+00  0.00000000E+00
  0.00000000E+00  0.00000000E+00  0.00000000E+00
  0.00000000E+00  0.00000000E+00  0.00000000E+00
  0.00000000E+00  0.00000000E+00  0.00000000E+00
  0.00000000E+00  0.00000000E+00  0.00000000E+00
  0.00000000E+00  0.00000000E+00  0.00000000E+00
  0.00000000E+00  0.00000000E+00  0.00000000E+00
  0.00000000E+00  0.00000000E+00  0.00000000E+00
  0.00000000E+00  0.00000000E+00  0.00000000E+00
  0.00000000E+00  0.00000000E+00  0.00000000E+00
  0.00000000E+00  0.00000000E+00  0.00000000E+00
  0.00000000E+00  0.00000000E+00  0.00000000E+00
  0.00000000E+00  0.00000000E+00  0.00000000E+00
  0.00000000E+00  0.00000000E+00  0.00000000E+00
  0.00000000E+00  0.00000000E+00  0.00000000E+00
  0.00000000E+00  0.00000000E+00  0.00000000E+00
  0.00000000E+00  0.00000000E+00  0.00000000E+00
  0.00000000E+00  0.00000000E+00  0.00000000E+00
  0.00000000E+00  0.00000000E+00  0.00000000E+00
  0.00000000E+00  0.00000000E+00  0.00000000E+00
  0.00000000E+00  0.00000000E+00  0.00000000E+00
  0.00000000E+00  0.00000000E+00  0.00000000E+00
  0.00000000E+00  0.00000000E+00  0.00000000E+00
  0.00000000E+00  0.00000000E+00  0.00000000E+00
  0.00000000E+00  0.00000000E+00  0.00000000E+00
  0.00000000E+00  0.00000000E+00  0.00000000E+00
  0.00000000E+00  0.00000000E+00  0.00000000E+00
  0.00000000E+00  0.00000000E+00  0.00000000E+00
  0.00000000E+00  0.00000000E+00  0.00000000E+00
  0.00000000E+00  0.00000000E+00  0.00000000E+00
  0.00000000E+00  0.00000000E+00  0.00000000E+00
  0.00000000E+00  0.00000000E+00  0.00000000E+00
  0.00000000E+00  0.00000000E+00  0.00000000E+00
  0.00000000E+00  0.00000000E+00  0.00000000E+00
  0.00000000E+00  0.00000000E+00  0.00000000E+00
  0.00000000E+00  0.00000000E+00  0.00000000E+00
  0.00000000E+00  0.00000000E+00  0.00000000E+00
  0.00000000E+00  0.00000000E+00  0.00000000E+00
  0.00000000E+00  0.00000000E+00  0.00000000E+00
  0.00000000E+00  0.00000000E+00  0.00000000E+00
  0.00000000E+00  0.00000000E+00  0.00000000E+00
  0.00000000E+00  0.00000000E+00  0.00000000E+00
  0.00000000E+00  0.00000000E+00  0.00000000E+00
  0.00000000E+00  0.00000000E+00  0.00000000E+00
  0.00000000E+00  0.00000000E+00  0.00000000E+00
  0.00000000E+00  0.00000000E+00  0.00000000E+00
  0.00000000E+00  0.00000000E+00  0.00000000E+00
  0.00000000E+00  0.00000000E+00  0.00000000E+00
  0.00000000E+00  0.00000000E+00  0.00000000E+00
  0.00000000E+00  0.00000000E+00  0.00000000E+00
  0.00000000E+00  0.00000000E+00  0.00000000E+00
  0.00000000E+00  0.00000000E+00  0.00000000E+00
  0.00000000E+00  0.00000000E+00  0.00000000E+00
  0.00000000E+00  0.00000000E+00  0.00000000E+00
  0.00000000E+00  0.00000000E+00  0.00000000E+00
  0.00000000E+00  0.00000000E+00  0.00000000E+00
  0.00000000E+00  0.00000000E+00  0.00000000E+00
  0.00000000E+00  0.00000000E+00  0.00000000E+00
  0.00000000E+00  0.00000000E+00  0.00000000E+00
  0.00000000E+00  0.00000000E+00  0.00000000E+00
  0.00000000E+00  0.00000000E+00  0.00000000E+00
  0.00000000E+00  0.00000000E+00  0.00000000E+00
  0.00000000E+00  0.00000000E+00  0.00000000E+00
  0.00000000E+00  0.00000000E+00  0.00000000E+00
  0.00000000E+00  0.00000000E+00  0.00000000E+00
  0.00000000E+00  0.00000000E+00  0.00000000E+00
  0.00000000E+00  0.00000000E+00  0.00000000E+00
  0.00000000E+00  0.00000000E+00  0.00000000E+00
