Zn1 C124 N2 O1                          
   1.00000000000000     
    19.8202413084615614   -0.0210562954921786   -0.0065006945811966
    -9.9285260625579781   17.0600072956645512   -0.0045784599177428
    -0.0097810645378217   -0.0136846767151132   29.7771196138504237
   Zn   C    N    O 
     1   124     2     1
Direct
  0.4375944938461279  0.4999900429899226  0.4269662481703524
  0.0421713115024190  0.0842391488693926  0.3997195912379648
  0.0413973340186820  0.2084315205893554  0.3997132905032955
  0.0407164573043642  0.3329831408597548  0.3992322965910640
  0.0405619811445664  0.4583649668267883  0.3992239274756055
  0.0411697047818477  0.5837951880328965  0.3997063558166542
  0.0418247747329597  0.7091885855005412  0.3998727275222154
  0.0422079039872102  0.8344936815475095  0.3997876287338111
  0.0424478294985474  0.9596550667542877  0.3996950963437095
  0.1681504340212230  0.0858535319207563  0.4003606794780899
  0.1677124206922442  0.2103593145716354  0.4009299396030532
  0.1660398423223434  0.3342207509765588  0.4006601726324959
  0.1643389111862394  0.4586680504776165  0.3988336930488450
  0.1650063239220225  0.5839074838212227  0.3990739347376245
  0.1661013364950923  0.7092961042009084  0.3997909125769595
  0.1668556362238281  0.8346240691295228  0.3999908193539395
  0.1674631296480439  0.9601230956619370  0.3999704631247322
  0.2927114180471316  0.0854924480591672  0.4001317732545526
  0.2945956667111978  0.2128641432970630  0.4020496627199662
  0.2932512772181980  0.3380014710481316  0.4058936556551476
  0.2884021219088572  0.4595612103503392  0.4036890217042257
  0.2885273342683900  0.5847371560159016  0.3999046017358309
  0.2902538035694209  0.7093740575466367  0.3993826973862625
  0.2913744740052250  0.8343280656685444  0.3998197949902172
  0.2919634726099482  0.9596292166106453  0.3998980171822866
  0.4171330263715219  0.0837812474751335  0.3998243326481969
  0.4179188981642040  0.2093108039941630  0.4004381064057426
  0.4217877380614436  0.3373298142854463  0.4031105000768012
  0.4144012327756633  0.7074162817987604  0.4009840891108813
  0.4158891316414765  0.8330061932539299  0.3998582547440258
  0.4165423577607428  0.9583620464375021  0.3998437149383967
  0.5416653838412038  0.0823538413423459  0.3998918425386319
  0.5423562033864686  0.2075395988775075  0.3996226675563107
  0.5436908104676169  0.3324769954958365  0.3998488505240185
  0.5446551220021035  0.4554779469791215  0.4020410214419004
  0.5457959871206612  0.5800558739439533  0.4093468626008421
  0.5381718312801996  0.7031407617361081  0.4040971374821694
  0.5401310611954474  0.8308270701441171  0.4007896643180715
  0.5411313697746675  0.9568917313293294  0.3999102452436803
  0.6662443293698131  0.0818162879440482  0.3999535755517628
  0.6668774190401934  0.2072304627185627  0.3999264727152366
  0.6677940333404959  0.3324852581610705  0.3993347864812120
  0.6692831870423365  0.4578272751840770  0.3990787515975442
  0.6692503588021432  0.5825756323408131  0.4001517577698921
  0.6658904844330600  0.7059974655729859  0.4020652717684867
  0.6647702645415761  0.8302764201154281  0.4012788144263715
  0.6656676259645768  0.9562839948518550  0.4001662692714195
  0.7909740881345375  0.0818532095089572  0.3998414962024106
  0.7913346903623959  0.2071257332324173  0.3999343892129118
  0.7920387970417935  0.3325865431067598  0.3998676681726371
  0.7929343757700344  0.4581003318794230  0.3992934951517892
  0.7932916161400416  0.5833800332729709  0.3990033722590690
  0.7924040565765427  0.7081750040567683  0.3998368235184263
  0.7911550271656781  0.8322862555313878  0.4000343943837644
  0.7905888670641380  0.9566395581329887  0.3998527134496133
  0.9162057043242227  0.0826432570641267  0.3994984297576439
  0.9160667852735430  0.2074999095260137  0.3995220954655802
  0.9162141292174235  0.3326741193782498  0.3995550568704991
  0.9166756522676524  0.4581300819012836  0.3997530968135406
  0.9173123188348429  0.5836829312437035  0.3995764360609049
  0.9173893998332284  0.7090182561846108  0.3993745197759433
  0.9171063007062880  0.8337928091944238  0.3995031374171223
  0.9166031045908387  0.9582165455274099  0.3995132096114744
  0.0844236015712067  0.0433746392946219  0.3998812503106001
  0.0838805600608938  0.1677312200269779  0.3999667205599310
  0.0826529091864535  0.2918527616568264  0.3997295977540634
  0.0817283319906705  0.4166241764350085  0.3989141658059993
  0.0820877954624057  0.5419148781666060  0.3993004466469551
  0.0829795864782179  0.6674064687044674  0.3998862350661923
  0.0836755208077188  0.7928605931299089  0.3999352515306782
  0.0840498009622864  0.9181444642654669  0.3998601920982108
  0.2093386589763514  0.0437310424707269  0.4001572391663692
  0.2102530502094227  0.1697626606208724  0.4012308505929293
  0.2091519111535097  0.2940501913439350  0.4021025841508767
  0.2058018434886880  0.4174689104501131  0.4001219323473894
  0.2057510887007818  0.5421964316043035  0.3990367120004672
  0.2072122615713530  0.6675395758472610  0.3993537462597959
  0.2081184371567256  0.7927876461772868  0.3999256272261560
  0.2087680030792716  0.9181831170437905  0.3999472298179645
  0.3338493104261789  0.0431238800411849  0.3998846869871178
  0.3348624156915069  0.1692154071408586  0.4007351724746221
  0.3368287417704490  0.2969205245081086  0.4043330210724788
  0.3293023074388715  0.4200922893913721  0.4101175072659479
  0.3304159638061385  0.5445810803928399  0.4020840872757050
  0.3313221817957619  0.6675691089504396  0.3998528080122405
  0.3326354037781395  0.7924972252129946  0.3996425727715803
  0.3333529762262830  0.9176780110337801  0.3998813175711244
  0.4584694023438499  0.0416688961301450  0.3998456833129815
  0.4590999284371203  0.1670208976044429  0.3998303649934154
  0.4605967932462616  0.2926135983439482  0.4009785199918511
  0.4532302963725732  0.6627136485679090  0.4029542574807479
  0.4570817976123566  0.7907247942056911  0.4004877951412952
  0.4578533551518507  0.9162373117442021  0.3998311042902229
  0.5830369827077942  0.0403825668622476  0.3999114974358436
  0.5836214743585728  0.1656972639659513  0.3998223630573188
  0.5847417914770746  0.2906673665465646  0.3993653758284186
  0.5865228599530407  0.4152982016563528  0.3999071143127124
  0.5866285742905472  0.5404796371815087  0.4034254280290881
  0.5817500577807467  0.6620892552843439  0.4055260248592116
  0.5804044358572825  0.7871859989903810  0.4020251297691456
  0.5822750581222044  0.9145331642733232  0.4001849120380023
  0.7075583775362997  0.0398828335199159  0.3999585368179613
  0.7081394942537828  0.1653702711601889  0.4000046102840096
  0.7089134483749379  0.2907198740726600  0.3997755951483322
  0.7100192572624384  0.4161236608824597  0.3990839089294749
  0.7106933139435816  0.5413607138251170  0.3989398341357089
  0.7090060499201639  0.6658309751318802  0.4007134868876779
  0.7073167313106885  0.7896684086567951  0.4009950145774649
  0.7068667299819715  0.9141748952261056  0.4003689822507078
  0.8325901859889828  0.0403512173181099  0.3996550007600553
  0.8328087775776561  0.1655045254683408  0.3997950954031966
  0.8331948965518142  0.2907940565514633  0.3998594926248000
  0.8338289316957819  0.4161915112608990  0.3996877192145289
  0.8344402294570921  0.5416360461063667  0.3992470022653752
  0.8343014945951736  0.6670276344036403  0.3993119968222843
  0.8336539595972807  0.7915898049548086  0.3997768896401113
  0.8328750276167085  0.9157814713536202  0.3997304501154078
  0.9584526265917486  0.0418176425413346  0.3995059708472878
  0.9579427477666614  0.1662274154987533  0.3994867185310215
  0.9576449582433474  0.2909991136007147  0.3993547587899218
  0.9576949687281792  0.4163118393590827  0.3995739048302986
  0.9583419608181508  0.5418634484438989  0.3997573526024322
  0.9588072133333138  0.6673211076762378  0.3995629604131492
  0.9589647518239292  0.7925220713316643  0.3995191187415240
  0.9588426132570249  0.9173863769568891  0.3995172753834776
  0.4089184497389108  0.5831154467124318  0.4031502151234846
  0.4661539005250607  0.4169282984175653  0.4033220762901319
  0.4432302706618483  0.5056623402516929  0.4897831823507164
 
  0.00000000E+00  0.00000000E+00  0.00000000E+00
  0.00000000E+00  0.00000000E+00  0.00000000E+00
  0.00000000E+00  0.00000000E+00  0.00000000E+00
  0.00000000E+00  0.00000000E+00  0.00000000E+00
  0.00000000E+00  0.00000000E+00  0.00000000E+00
  0.00000000E+00  0.00000000E+00  0.00000000E+00
  0.00000000E+00  0.00000000E+00  0.00000000E+00
  0.00000000E+00  0.00000000E+00  0.00000000E+00
  0.00000000E+00  0.00000000E+00  0.00000000E+00
  0.00000000E+00  0.00000000E+00  0.00000000E+00
  0.00000000E+00  0.00000000E+00  0.00000000E+00
  0.00000000E+00  0.00000000E+00  0.00000000E+00
  0.00000000E+00  0.00000000E+00  0.00000000E+00
  0.00000000E+00  0.00000000E+00  0.00000000E+00
  0.00000000E+00  0.00000000E+00  0.00000000E+00
  0.00000000E+00  0.00000000E+00  0.00000000E+00
  0.00000000E+00  0.00000000E+00  0.00000000E+00
  0.00000000E+00  0.00000000E+00  0.00000000E+00
  0.00000000E+00  0.00000000E+00  0.00000000E+00
  0.00000000E+00  0.00000000E+00  0.00000000E+00
  0.00000000E+00  0.00000000E+00  0.00000000E+00
  0.00000000E+00  0.00000000E+00  0.00000000E+00
  0.00000000E+00  0.00000000E+00  0.00000000E+00
  0.00000000E+00  0.00000000E+00  0.00000000E+00
  0.00000000E+00  0.00000000E+00  0.00000000E+00
  0.00000000E+00  0.00000000E+00  0.00000000E+00
  0.00000000E+00  0.00000000E+00  0.00000000E+00
  0.00000000E+00  0.00000000E+00  0.00000000E+00
  0.00000000E+00  0.00000000E+00  0.00000000E+00
  0.00000000E+00  0.00000000E+00  0.00000000E+00
  0.00000000E+00  0.00000000E+00  0.00000000E+00
  0.00000000E+00  0.00000000E+00  0.00000000E+00
  0.00000000E+00  0.00000000E+00  0.00000000E+00
  0.00000000E+00  0.00000000E+00  0.00000000E+00
  0.00000000E+00  0.00000000E+00  0.00000000E+00
  0.00000000E+00  0.00000000E+00  0.00000000E+00
  0.00000000E+00  0.00000000E+00  0.00000000E+00
  0.00000000E+00  0.00000000E+00  0.00000000E+00
  0.00000000E+00  0.00000000E+00  0.00000000E+00
  0.00000000E+00  0.00000000E+00  0.00000000E+00
  0.00000000E+00  0.00000000E+00  0.00000000E+00
  0.00000000E+00  0.00000000E+00  0.00000000E+00
  0.00000000E+00  0.00000000E+00  0.00000000E+00
  0.00000000E+00  0.00000000E+00  0.00000000E+00
  0.00000000E+00  0.00000000E+00  0.00000000E+00
  0.00000000E+00  0.00000000E+00  0.00000000E+00
  0.00000000E+00  0.00000000E+00  0.00000000E+00
  0.00000000E+00  0.00000000E+00  0.00000000E+00
  0.00000000E+00  0.00000000E+00  0.00000000E+00
  0.00000000E+00  0.00000000E+00  0.00000000E+00
  0.00000000E+00  0.00000000E+00  0.00000000E+00
  0.00000000E+00  0.00000000E+00  0.00000000E+00
  0.00000000E+00  0.00000000E+00  0.00000000E+00
  0.00000000E+00  0.00000000E+00  0.00000000E+00
  0.00000000E+00  0.00000000E+00  0.00000000E+00
  0.00000000E+00  0.00000000E+00  0.00000000E+00
  0.00000000E+00  0.00000000E+00  0.00000000E+00
  0.00000000E+00  0.00000000E+00  0.00000000E+00
  0.00000000E+00  0.00000000E+00  0.00000000E+00
  0.00000000E+00  0.00000000E+00  0.00000000E+00
  0.00000000E+00  0.00000000E+00  0.00000000E+00
  0.00000000E+00  0.00000000E+00  0.00000000E+00
  0.00000000E+00  0.00000000E+00  0.00000000E+00
  0.00000000E+00  0.00000000E+00  0.00000000E+00
  0.00000000E+00  0.00000000E+00  0.00000000E+00
  0.00000000E+00  0.00000000E+00  0.00000000E+00
  0.00000000E+00  0.00000000E+00  0.00000000E+00
  0.00000000E+00  0.00000000E+00  0.00000000E+00
  0.00000000E+00  0.00000000E+00  0.00000000E+00
  0.00000000E+00  0.00000000E+00  0.00000000E+00
  0.00000000E+00  0.00000000E+00  0.00000000E+00
  0.00000000E+00  0.00000000E+00  0.00000000E+00
  0.00000000E+00  0.00000000E+00  0.00000000E+00
  0.00000000E+00  0.00000000E+00  0.00000000E+00
  0.00000000E+00  0.00000000E+00  0.00000000E+00
  0.00000000E+00  0.00000000E+00  0.00000000E+00
  0.00000000E+00  0.00000000E+00  0.00000000E+00
  0.00000000E+00  0.00000000E+00  0.00000000E+00
  0.00000000E+00  0.00000000E+00  0.00000000E+00
  0.00000000E+00  0.00000000E+00  0.00000000E+00
  0.00000000E+00  0.00000000E+00  0.00000000E+00
  0.00000000E+00  0.00000000E+00  0.00000000E+00
  0.00000000E+00  0.00000000E+00  0.00000000E+00
  0.00000000E+00  0.00000000E+00  0.00000000E+00
  0.00000000E+00  0.00000000E+00  0.00000000E+00
  0.00000000E+00  0.00000000E+00  0.00000000E+00
  0.00000000E+00  0.00000000E+00  0.00000000E+00
  0.00000000E+00  0.00000000E+00  0.00000000E+00
  0.00000000E+00  0.00000000E+00  0.00000000E+00
  0.00000000E+00  0.00000000E+00  0.00000000E+00
  0.00000000E+00  0.00000000E+00  0.00000000E+00
  0.00000000E+00  0.00000000E+00  0.00000000E+00
  0.00000000E+00  0.00000000E+00  0.00000000E+00
  0.00000000E+00  0.00000000E+00  0.00000000E+00
  0.00000000E+00  0.00000000E+00  0.00000000E+00
  0.00000000E+00  0.00000000E+00  0.00000000E+00
  0.00000000E+00  0.00000000E+00  0.00000000E+00
  0.00000000E+00  0.00000000E+00  0.00000000E+00
  0.00000000E+00  0.00000000E+00  0.00000000E+00
  0.00000000E+00  0.00000000E+00  0.00000000E+00
  0.00000000E+00  0.00000000E+00  0.00000000E+00
  0.00000000E+00  0.00000000E+00  0.00000000E+00
  0.00000000E+00  0.00000000E+00  0.00000000E+00
  0.00000000E+00  0.00000000E+00  0.00000000E+00
  0.00000000E+00  0.00000000E+00  0.00000000E+00
  0.00000000E+00  0.00000000E+00  0.00000000E+00
  0.00000000E+00  0.00000000E+00  0.00000000E+00
  0.00000000E+00  0.00000000E+00  0.00000000E+00
  0.00000000E+00  0.00000000E+00  0.00000000E+00
  0.00000000E+00  0.00000000E+00  0.00000000E+00
  0.00000000E+00  0.00000000E+00  0.00000000E+00
  0.00000000E+00  0.00000000E+00  0.00000000E+00
  0.00000000E+00  0.00000000E+00  0.00000000E+00
  0.00000000E+00  0.00000000E+00  0.00000000E+00
  0.00000000E+00  0.00000000E+00  0.00000000E+00
  0.00000000E+00  0.00000000E+00  0.00000000E+00
  0.00000000E+00  0.00000000E+00  0.00000000E+00
  0.00000000E+00  0.00000000E+00  0.00000000E+00
  0.00000000E+00  0.00000000E+00  0.00000000E+00
  0.00000000E+00  0.00000000E+00  0.00000000E+00
  0.00000000E+00  0.00000000E+00  0.00000000E+00
  0.00000000E+00  0.00000000E+00  0.00000000E+00
  0.00000000E+00  0.00000000E+00  0.00000000E+00
  0.00000000E+00  0.00000000E+00  0.00000000E+00
  0.00000000E+00  0.00000000E+00  0.00000000E+00
  0.00000000E+00  0.00000000E+00  0.00000000E+00
  0.00000000E+00  0.00000000E+00  0.00000000E+00
  0.00000000E+00  0.00000000E+00  0.00000000E+00
