Ti1 H1 C125 N1 O1                       
   1.00000000000000     
    19.8123390321937976   -0.0102921036791753   -0.0704951248007993
    -9.9154801274279531   17.0680557017701950   -0.1712613081484532
    -0.1057832191498435   -0.3596839488256033   29.7702437310490495
   Ti   H    C    N    O 
     1     1   125     1     1
Direct
  0.4396217510512592  0.5036292140001930  0.4324810557332094
  0.4807046413203329  0.5350513242507487  0.5160693435323506
  0.0420062893464447  0.0841296355359934  0.3997346363473694
  0.0413167684580523  0.2084662104220493  0.3994783059121961
  0.0408325123114799  0.3330503410928289  0.3990818799970230
  0.0408158480584261  0.4584140936551590  0.3990638767512139
  0.0414820492340815  0.5838568132418066  0.3995445292431147
  0.0420426467315546  0.7091212051011825  0.3998515343995770
  0.0423637186614195  0.8345089441778479  0.3997849512738798
  0.0424439870114450  0.9595583102732490  0.3996974485860474
  0.1676718171591613  0.0853012611068976  0.4002535944878057
  0.1672260303592278  0.2098841169063095  0.4005205919088834
  0.1660564301582105  0.3340821476616214  0.3999984305895857
  0.1646961224104558  0.4585833722132598  0.3989255437343072
  0.1653895304741892  0.5837810905354834  0.3988615342820717
  0.1663829453484584  0.7091931011078270  0.3994170721240086
  0.1670679965904988  0.8345621082609030  0.3996945545696283
  0.1674484210773898  0.9598879552693077  0.3998378887832593
  0.2926772559381714  0.0852030123344485  0.4001846679444993
  0.2935138678220625  0.2116574271971159  0.4021076368707299
  0.2928062903746610  0.3372082118991674  0.4040247864374358
  0.2891768079035011  0.4590944243623178  0.4021902014649358
  0.2891529543398144  0.5845420322290720  0.3993993746144412
  0.2907427311630392  0.7093183841854158  0.3991682545174876
  0.2915962402484367  0.8342508351419690  0.3993781860488891
  0.2920503106834466  0.9595323186819212  0.3995478772623574
  0.4171647436057940  0.0838451303014177  0.3994939537361593
  0.4177789941493192  0.2093436788966468  0.4003859334728486
  0.4199909487706993  0.3363868046098340  0.4048552982647572
  0.4150116118416112  0.7076046673564327  0.4000839216846285
  0.4161766726525535  0.8331636082480339  0.3994799627165568
  0.4166985848741844  0.9585058754657888  0.3994505583017640
  0.5417590104124217  0.0827040853353406  0.3995366777455173
  0.5423479211524690  0.2079064620885515  0.3992671203588611
  0.5432532148433319  0.3329576635854944  0.3999295515802171
  0.5454027313313754  0.4572991353367891  0.4028746592597194
  0.5452824376176916  0.5813273542516965  0.4042119897201938
  0.5390562510863431  0.7043126109764701  0.4019874187509045
  0.5405787481467560  0.8315124196174981  0.4001717469198763
  0.5413579706836139  0.9573461388743231  0.3997918125798124
  0.6664050398459789  0.0822566446490224  0.3999374948649260
  0.6668913992769090  0.2075240278409409  0.3995200803927694
  0.6675330712937771  0.3326476904321023  0.3989065227708215
  0.6691620877031772  0.4580387732838567  0.3984611087153551
  0.6699753175561137  0.5837169327461300  0.3987197856834373
  0.6666854750616258  0.7071192238098986  0.3992620523931392
  0.6652934963346401  0.8311545825339275  0.3999332380092830
  0.6659598660210302  0.9568777716623976  0.4000646595253230
  0.7911708390508321  0.0822831933762845  0.3998541822156234
  0.7914387297141801  0.2074554866828346  0.3997886184172015
  0.7920167395757647  0.3327989907718619  0.3994986261586778
  0.7929111447836640  0.4582467733077983  0.3989638277336625
  0.7934142840402177  0.5835339188753520  0.3984819788009877
  0.7929814988821305  0.7088421428147869  0.3985038155716126
  0.7916347528666910  0.8329189731304660  0.3991115004339522
  0.7909082110143606  0.9572071716141262  0.3996621960611467
  0.9162883170197454  0.0828940491069054  0.3995728013173769
  0.9161739547399862  0.2077430447219066  0.3994688922423429
  0.9163239236269679  0.3328990991748003  0.3994393730671253
  0.9168187074911888  0.4582496563526440  0.3995484442966782
  0.9174903661713838  0.5837634636589891  0.3995291077317711
  0.9176487215832828  0.7091300850042626  0.3993528386633137
  0.9173971657383031  0.8340319053011348  0.3992944609625175
  0.9167874550920977  0.9584862393401203  0.3994903605782156
  0.0841654860931637  0.0430693423999773  0.3998444668717507
  0.0836162413554144  0.1675339038654192  0.3998046579833973
  0.0826335919510008  0.2918109178960360  0.3993544508684298
  0.0820393087103841  0.4166978962017654  0.3988666090934924
  0.0824832206227449  0.5419673985627349  0.3991181752377492
  0.0832796133375177  0.6673886720139152  0.3996572814544113
  0.0838536409920716  0.7928181282596570  0.3998430430115660
  0.0840804610387644  0.9180263320567341  0.3997812313151380
  0.2092200957711732  0.0434156424776108  0.4001251992232893
  0.2094611503155105  0.1689488520386342  0.4009565855287499
  0.2088318627974518  0.2935723763141902  0.4010946429373140
  0.2061743029623005  0.4173720167477129  0.3998866584886371
  0.2062220632713261  0.5420511819682232  0.3988125281460504
  0.2076371867207916  0.6674618762457870  0.3990870949910996
  0.2083869406930709  0.7927102420009576  0.3994966460877646
  0.2088957714877509  0.9180286442676767  0.3996882514933120
  0.3338888318161994  0.0429473735735238  0.3996717384864603
  0.3346307756058192  0.1687322242767350  0.4009521111618542
  0.3354216075691445  0.2951322080526466  0.4045601635249855
  0.3311406000085325  0.4199082765180698  0.4060176244454332
  0.3310843885094761  0.5444929759432251  0.4017156351533639
  0.3319324960975237  0.6676132204912191  0.3994632136095010
  0.3329891562507076  0.7924870416054711  0.3993251966588687
  0.3334958014196744  0.9175971565905566  0.3994195159943164
  0.4585948785945390  0.0417948839606438  0.3994479232011098
  0.4590558453990319  0.1671010741238492  0.3995455418028620
  0.4600386680665881  0.2927690719287057  0.4012241367351289
  0.4646463507818483  0.4187922732640193  0.4080711146226920
  0.4543947713668257  0.6634595631647368  0.4021708978009681
  0.4575422457064220  0.7910364445996483  0.3997796964275342
  0.4580912732265863  0.9164496536665367  0.3995572197190192
  0.5831992309727717  0.0407688707809093  0.3997910805282204
  0.5836939413486436  0.1660708464481643  0.3993696377365391
  0.5844775277229899  0.2910930442877845  0.3991378487660128
  0.5863833559516057  0.4160177218146260  0.3997539425937597
  0.5877644640832217  0.5424197592570157  0.4015325614715912
  0.5826761763894860  0.6633485447782602  0.4016114069286090
  0.5810937618813710  0.7882156567106022  0.4005991863364665
  0.5826120988440174  0.9151463351176435  0.4000230558740598
  0.7078255200896604  0.0404032201052008  0.4000092641743959
  0.7082606442901129  0.1657245260549539  0.3998232757652126
  0.7088344590718156  0.2909843631123099  0.3993079079280257
  0.7099768411210202  0.4163851198403400  0.3985665119749394
  0.7109117669088639  0.5417495764132705  0.3982549008535555
  0.7097379224137255  0.6668449091959634  0.3985261638969423
  0.7079554650091474  0.7905720699538343  0.3992765364846035
  0.7072668231759592  0.9148418163308314  0.3998886613216034
  0.8327713399675785  0.0407621689860890  0.3997039006485832
  0.8329025712591310  0.1657792550032033  0.3997350006547092
  0.8332948661527342  0.2910958171663584  0.3996289805924390
  0.8339151771846823  0.4163967559366483  0.3994254971967071
  0.8345679446060864  0.5417967040016379  0.3989895417458116
  0.8345627571080132  0.6673056825470484  0.3987232245152803
  0.8340843425122361  0.7920759583200681  0.3989125721963669
  0.8332018805765871  0.9162863347746626  0.3994372283853460
  0.9584433704826856  0.0419064547078756  0.3995851956189559
  0.9579762549784920  0.1663813150215785  0.3994430471250096
  0.9577499225336433  0.2912039136516344  0.3992856526865036
  0.9579038691567739  0.4164532040660543  0.3993815499740982
  0.9585869793680880  0.5419935885692093  0.3996411553912196
  0.9590260214524859  0.6673689199428015  0.3996727808196125
  0.9591270634238875  0.7925984351514328  0.3995209949387536
  0.9589507611001411  0.9174717955702870  0.3994977686059662
  0.4102565568581474  0.5833535729604232  0.4044687195843016
  0.4387463235773816  0.5060885123636811  0.4942646654941422
 
  0.00000000E+00  0.00000000E+00  0.00000000E+00
  0.00000000E+00  0.00000000E+00  0.00000000E+00
  0.00000000E+00  0.00000000E+00  0.00000000E+00
  0.00000000E+00  0.00000000E+00  0.00000000E+00
  0.00000000E+00  0.00000000E+00  0.00000000E+00
  0.00000000E+00  0.00000000E+00  0.00000000E+00
  0.00000000E+00  0.00000000E+00  0.00000000E+00
  0.00000000E+00  0.00000000E+00  0.00000000E+00
  0.00000000E+00  0.00000000E+00  0.00000000E+00
  0.00000000E+00  0.00000000E+00  0.00000000E+00
  0.00000000E+00  0.00000000E+00  0.00000000E+00
  0.00000000E+00  0.00000000E+00  0.00000000E+00
  0.00000000E+00  0.00000000E+00  0.00000000E+00
  0.00000000E+00  0.00000000E+00  0.00000000E+00
  0.00000000E+00  0.00000000E+00  0.00000000E+00
  0.00000000E+00  0.00000000E+00  0.00000000E+00
  0.00000000E+00  0.00000000E+00  0.00000000E+00
  0.00000000E+00  0.00000000E+00  0.00000000E+00
  0.00000000E+00  0.00000000E+00  0.00000000E+00
  0.00000000E+00  0.00000000E+00  0.00000000E+00
  0.00000000E+00  0.00000000E+00  0.00000000E+00
  0.00000000E+00  0.00000000E+00  0.00000000E+00
  0.00000000E+00  0.00000000E+00  0.00000000E+00
  0.00000000E+00  0.00000000E+00  0.00000000E+00
  0.00000000E+00  0.00000000E+00  0.00000000E+00
  0.00000000E+00  0.00000000E+00  0.00000000E+00
  0.00000000E+00  0.00000000E+00  0.00000000E+00
  0.00000000E+00  0.00000000E+00  0.00000000E+00
  0.00000000E+00  0.00000000E+00  0.00000000E+00
  0.00000000E+00  0.00000000E+00  0.00000000E+00
  0.00000000E+00  0.00000000E+00  0.00000000E+00
  0.00000000E+00  0.00000000E+00  0.00000000E+00
  0.00000000E+00  0.00000000E+00  0.00000000E+00
  0.00000000E+00  0.00000000E+00  0.00000000E+00
  0.00000000E+00  0.00000000E+00  0.00000000E+00
  0.00000000E+00  0.00000000E+00  0.00000000E+00
  0.00000000E+00  0.00000000E+00  0.00000000E+00
  0.00000000E+00  0.00000000E+00  0.00000000E+00
  0.00000000E+00  0.00000000E+00  0.00000000E+00
  0.00000000E+00  0.00000000E+00  0.00000000E+00
  0.00000000E+00  0.00000000E+00  0.00000000E+00
  0.00000000E+00  0.00000000E+00  0.00000000E+00
  0.00000000E+00  0.00000000E+00  0.00000000E+00
  0.00000000E+00  0.00000000E+00  0.00000000E+00
  0.00000000E+00  0.00000000E+00  0.00000000E+00
  0.00000000E+00  0.00000000E+00  0.00000000E+00
  0.00000000E+00  0.00000000E+00  0.00000000E+00
  0.00000000E+00  0.00000000E+00  0.00000000E+00
  0.00000000E+00  0.00000000E+00  0.00000000E+00
  0.00000000E+00  0.00000000E+00  0.00000000E+00
  0.00000000E+00  0.00000000E+00  0.00000000E+00
  0.00000000E+00  0.00000000E+00  0.00000000E+00
  0.00000000E+00  0.00000000E+00  0.00000000E+00
  0.00000000E+00  0.00000000E+00  0.00000000E+00
  0.00000000E+00  0.00000000E+00  0.00000000E+00
  0.00000000E+00  0.00000000E+00  0.00000000E+00
  0.00000000E+00  0.00000000E+00  0.00000000E+00
  0.00000000E+00  0.00000000E+00  0.00000000E+00
  0.00000000E+00  0.00000000E+00  0.00000000E+00
  0.00000000E+00  0.00000000E+00  0.00000000E+00
  0.00000000E+00  0.00000000E+00  0.00000000E+00
  0.00000000E+00  0.00000000E+00  0.00000000E+00
  0.00000000E+00  0.00000000E+00  0.00000000E+00
  0.00000000E+00  0.00000000E+00  0.00000000E+00
  0.00000000E+00  0.00000000E+00  0.00000000E+00
  0.00000000E+00  0.00000000E+00  0.00000000E+00
  0.00000000E+00  0.00000000E+00  0.00000000E+00
  0.00000000E+00  0.00000000E+00  0.00000000E+00
  0.00000000E+00  0.00000000E+00  0.00000000E+00
  0.00000000E+00  0.00000000E+00  0.00000000E+00
  0.00000000E+00  0.00000000E+00  0.00000000E+00
  0.00000000E+00  0.00000000E+00  0.00000000E+00
  0.00000000E+00  0.00000000E+00  0.00000000E+00
  0.00000000E+00  0.00000000E+00  0.00000000E+00
  0.00000000E+00  0.00000000E+00  0.00000000E+00
  0.00000000E+00  0.00000000E+00  0.00000000E+00
  0.00000000E+00  0.00000000E+00  0.00000000E+00
  0.00000000E+00  0.00000000E+00  0.00000000E+00
  0.00000000E+00  0.00000000E+00  0.00000000E+00
  0.00000000E+00  0.00000000E+00  0.00000000E+00
  0.00000000E+00  0.00000000E+00  0.00000000E+00
  0.00000000E+00  0.00000000E+00  0.00000000E+00
  0.00000000E+00  0.00000000E+00  0.00000000E+00
  0.00000000E+00  0.00000000E+00  0.00000000E+00
  0.00000000E+00  0.00000000E+00  0.00000000E+00
  0.00000000E+00  0.00000000E+00  0.00000000E+00
  0.00000000E+00  0.00000000E+00  0.00000000E+00
  0.00000000E+00  0.00000000E+00  0.00000000E+00
  0.00000000E+00  0.00000000E+00  0.00000000E+00
  0.00000000E+00  0.00000000E+00  0.00000000E+00
  0.00000000E+00  0.00000000E+00  0.00000000E+00
  0.00000000E+00  0.00000000E+00  0.00000000E+00
  0.00000000E+00  0.00000000E+00  0.00000000E+00
  0.00000000E+00  0.00000000E+00  0.00000000E+00
  0.00000000E+00  0.00000000E+00  0.00000000E+00
  0.00000000E+00  0.00000000E+00  0.00000000E+00
  0.00000000E+00  0.00000000E+00  0.00000000E+00
  0.00000000E+00  0.00000000E+00  0.00000000E+00
  0.00000000E+00  0.00000000E+00  0.00000000E+00
  0.00000000E+00  0.00000000E+00  0.00000000E+00
  0.00000000E+00  0.00000000E+00  0.00000000E+00
  0.00000000E+00  0.00000000E+00  0.00000000E+00
  0.00000000E+00  0.00000000E+00  0.00000000E+00
  0.00000000E+00  0.00000000E+00  0.00000000E+00
  0.00000000E+00  0.00000000E+00  0.00000000E+00
  0.00000000E+00  0.00000000E+00  0.00000000E+00
  0.00000000E+00  0.00000000E+00  0.00000000E+00
  0.00000000E+00  0.00000000E+00  0.00000000E+00
  0.00000000E+00  0.00000000E+00  0.00000000E+00
  0.00000000E+00  0.00000000E+00  0.00000000E+00
  0.00000000E+00  0.00000000E+00  0.00000000E+00
  0.00000000E+00  0.00000000E+00  0.00000000E+00
  0.00000000E+00  0.00000000E+00  0.00000000E+00
  0.00000000E+00  0.00000000E+00  0.00000000E+00
  0.00000000E+00  0.00000000E+00  0.00000000E+00
  0.00000000E+00  0.00000000E+00  0.00000000E+00
  0.00000000E+00  0.00000000E+00  0.00000000E+00
  0.00000000E+00  0.00000000E+00  0.00000000E+00
  0.00000000E+00  0.00000000E+00  0.00000000E+00
  0.00000000E+00  0.00000000E+00  0.00000000E+00
  0.00000000E+00  0.00000000E+00  0.00000000E+00
  0.00000000E+00  0.00000000E+00  0.00000000E+00
  0.00000000E+00  0.00000000E+00  0.00000000E+00
  0.00000000E+00  0.00000000E+00  0.00000000E+00
  0.00000000E+00  0.00000000E+00  0.00000000E+00
  0.00000000E+00  0.00000000E+00  0.00000000E+00
  0.00000000E+00  0.00000000E+00  0.00000000E+00
  0.00000000E+00  0.00000000E+00  0.00000000E+00
  0.00000000E+00  0.00000000E+00  0.00000000E+00
