Ti1 C123 N3 O1                          
   1.00000000000000     
    19.8116729040476613    0.0063649315967823   -0.0676223748981068
    -9.9002996085167414   17.0436909162414487   -0.0674123588277042
    -0.1016532737693406   -0.1768487538037148   29.7959062165257933
   Ti   C    N    O 
     1   123     3     1
Direct
  0.4372568571622009  0.5016173407275003  0.4318312990565407
  0.0418935865894724  0.0840502876949654  0.3995826230663890
  0.0409396658038001  0.2081566708617867  0.3996419050955351
  0.0403827238923496  0.3329420946499854  0.3995713476556110
  0.0406682433070205  0.4583017410818861  0.3995887760720711
  0.0415096308883226  0.5838184872369454  0.3999490694263461
  0.0422829456935390  0.7092613554380675  0.3999476353187281
  0.0425782935128113  0.8345904897863192  0.3997988751999735
  0.0425542480819060  0.9596359133942891  0.3996014605175516
  0.1678039442093902  0.0854720128579544  0.3999513066076600
  0.1670285897569404  0.2098501053296742  0.4003861298068779
  0.1651164935988914  0.3335383563530077  0.4002223641183253
  0.1644496283526965  0.4584160840291098  0.3992215009105041
  0.1653724706601371  0.5836433708852002  0.3992929791465920
  0.1665487338741393  0.7090757173097442  0.3998151823458804
  0.1672390671116594  0.8345632097973514  0.3999604927070044
  0.1676086897590094  0.9600661742241945  0.3997584504666312
  0.2927197063137407  0.0857215407158072  0.3999611615300478
  0.2933223744502233  0.2125804892027351  0.4016925584474745
  0.2917538756923591  0.3377260483659620  0.4035523311982865
  0.2880577261195787  0.4573855586147190  0.4015931846305087
  0.2888615055303673  0.5830445157129178  0.3993300247309165
  0.2907931460391667  0.7085131419560672  0.3994115672510446
  0.2917826325437281  0.8340307534269870  0.3997964163078431
  0.2922734272650584  0.9596777528901198  0.3997430131232448
  0.4172326903627618  0.0841247440111849  0.3994972359543549
  0.4178177790479473  0.2100108832212798  0.4001088136148080
  0.4199866081188158  0.3373681330328613  0.4037818842803918
  0.4149580273885709  0.7065800124134677  0.3997645384469668
  0.4162309211416808  0.8325071283987634  0.3996578630437014
  0.4168261751622998  0.9583467009827338  0.3997476313673075
  0.5417346196218744  0.0826849395739554  0.3996755620780221
  0.5423055442956806  0.2083814390153542  0.3993535269689947
  0.5433088177744798  0.3340127431349513  0.3998133609876190
  0.5456402854121588  0.4589878427019463  0.4025609179234218
  0.5389203913875287  0.7023886712676130  0.4020463476470190
  0.5406176244451928  0.8304721598685925  0.4001274030750563
  0.5412759617380778  0.9568366852087021  0.3999288018678688
  0.6662929806885660  0.0820771865980331  0.3999246128158693
  0.6667339594702237  0.2075340436235205  0.3995502545192244
  0.6675013698362571  0.3329378947846430  0.3991763140859190
  0.6693090560550329  0.4585138627378639  0.3989314077488750
  0.6704130237720188  0.5841732992038678  0.3996061919239229
  0.6672590484701886  0.7070125537531194  0.4002023476725288
  0.6650985912967355  0.8306009164460113  0.4002602313254547
  0.6657683632312694  0.9564477854525202  0.4000752731120998
  0.7909094212352211  0.0820517761350004  0.3999246209255387
  0.7912408543945771  0.2074082832435006  0.3999640118688956
  0.7918489706307237  0.3328365865152813  0.3996697673124190
  0.7928804442425392  0.4583394453047844  0.3993158349414043
  0.7936376866387594  0.5837502186090183  0.3991304146762084
  0.7934695440174133  0.7090442459275782  0.3995073963707768
  0.7916465146545483  0.8327771532339872  0.3996932916527201
  0.7906975433061105  0.9568846015272073  0.3999022285001015
  0.9160252747545151  0.0826602603629913  0.3996970637146645
  0.9158309143025591  0.2075296693699109  0.3998302210701997
  0.9160809034158752  0.3328790170760526  0.3999796117333538
  0.9167837174971611  0.4583454780336030  0.3999575850986483
  0.9175934196690132  0.5838532566872616  0.3997696542785658
  0.9178904485796912  0.7091962549221451  0.3996691688637651
  0.9176108816761371  0.8342086633479302  0.3997463529262171
  0.9167677903755689  0.9584241661167063  0.3996883257415694
  0.0842754704404426  0.0431868475594915  0.3996164141088735
  0.0834539836814073  0.1674935745454197  0.3997358003989325
  0.0821113252335244  0.2915078182749819  0.3996955005813446
  0.0817189238913418  0.4164212830264971  0.3993443501872355
  0.0824780834876432  0.5418678973223756  0.3996081575706767
  0.0834409922627156  0.6673731835431292  0.3999717256397226
  0.0840338619321254  0.7928436977116428  0.3999019109448345
  0.0842706983689592  0.9181186973886898  0.3996914931601408
  0.2093289258995722  0.0436288561475751  0.3998789769044306
  0.2094996173593929  0.1691942936013317  0.4006733444577292
  0.2081526487868458  0.2933999457134045  0.4010479157566708
  0.2057043557347765  0.4168639256837027  0.3999580483655096
  0.2060344742826769  0.5415753983526332  0.3991194175297539
  0.2075972332248076  0.6671385709657037  0.3994751080378897
  0.2085694762656064  0.7926533947408897  0.3999068787823377
  0.2090588324452813  0.9181292907213560  0.3998692642939229
  0.3340132686920965  0.0433332683369092  0.3996353253506077
  0.3345215302488842  0.1695307005083707  0.4006287138818501
  0.3353392325780713  0.2965966675587376  0.4038247058823730
  0.3305532656507226  0.5424780594213449  0.4006831649993890
  0.3317511521928135  0.6664072649572617  0.3993777657788601
  0.3330295911854044  0.7918695885823249  0.3996247233153664
  0.3336128633147253  0.9174946467498789  0.3997665705733500
  0.4585575815907925  0.0417948452280359  0.3996200128646886
  0.4590047573000652  0.1675554699644026  0.3994981376074849
  0.4599767654777184  0.2935544691120214  0.4006529810314500
  0.4644009974437834  0.4195038091444326  0.4069155681880773
  0.4541404605240558  0.6619682134805301  0.4014175537460192
  0.4574167866452037  0.7900458554770835  0.3997340705729837
  0.4580886527099811  0.9160261358640376  0.3998155401118759
  0.5830686218762700  0.0405086269250850  0.3998813092910435
  0.5835514388104405  0.1662193440548916  0.3994671575257123
  0.5843593748216798  0.2917284231100079  0.3992958303204253
  0.5865709612818404  0.4173229517772457  0.3998012895397804
  0.5886711779952721  0.5438519136155771  0.4022284448599172
  0.5836412876801536  0.6623661838750380  0.4024846481685240
  0.5811380816625573  0.7870261005935595  0.4007336824087882
  0.5824903254713120  0.9143824723256975  0.4000383842840969
  0.7076278511246364  0.0400960644125497  0.3999894862640834
  0.7080907382679305  0.1656535062601056  0.3998325548449785
  0.7086652245371100  0.2910574751730480  0.3994200667918262
  0.7099797668912219  0.4165272302421266  0.3989945023282065
  0.7110949312432232  0.5418609893018673  0.3989246225286929
  0.7105617168902566  0.6671845751041399  0.3996726842385335
  0.7080605383074491  0.7904173429587754  0.3998553014075998
  0.7070609876241462  0.9144701274832321  0.4000818008091498
  0.8325683770713406  0.0405255244732597  0.3998411372300085
  0.8326503974677106  0.1656404228621289  0.3999390422412658
  0.8330450085415715  0.2909897254170181  0.3999427843879096
  0.8338708785298207  0.4164215686668226  0.3996874975305511
  0.8347081469711916  0.5418943622314596  0.3994086778705739
  0.8349675978342584  0.6673642394403171  0.3994197476719631
  0.8343520232367773  0.7922280175966879  0.3996725271707512
  0.8332130765304873  0.9161893234025453  0.3997947836925649
  0.9583659918260644  0.0418211116791621  0.3996138319604314
  0.9576381313564343  0.1661082839841452  0.3996541758819880
  0.9574252727387174  0.2911003318125043  0.3998182891022807
  0.9577827437903228  0.4164337667697508  0.3999338405301407
  0.9586177179034200  0.5419629257382006  0.3999725268587193
  0.9592779518374214  0.6674180727708359  0.3997960366078004
  0.9593771014474465  0.7927516766820845  0.3997700883210124
  0.9591518261606337  0.9176158592894089  0.3996674097995044
  0.4103751228020745  0.5821100146185675  0.4025872833574978
  0.5480994594335326  0.5827297423024906  0.4052009687604730
  0.3282432960303022  0.4180562249164176  0.4051252807155338
  0.4365616708372451  0.4986248940617899  0.4874154392012365
 
  0.00000000E+00  0.00000000E+00  0.00000000E+00
  0.00000000E+00  0.00000000E+00  0.00000000E+00
  0.00000000E+00  0.00000000E+00  0.00000000E+00
  0.00000000E+00  0.00000000E+00  0.00000000E+00
  0.00000000E+00  0.00000000E+00  0.00000000E+00
  0.00000000E+00  0.00000000E+00  0.00000000E+00
  0.00000000E+00  0.00000000E+00  0.00000000E+00
  0.00000000E+00  0.00000000E+00  0.00000000E+00
  0.00000000E+00  0.00000000E+00  0.00000000E+00
  0.00000000E+00  0.00000000E+00  0.00000000E+00
  0.00000000E+00  0.00000000E+00  0.00000000E+00
  0.00000000E+00  0.00000000E+00  0.00000000E+00
  0.00000000E+00  0.00000000E+00  0.00000000E+00
  0.00000000E+00  0.00000000E+00  0.00000000E+00
  0.00000000E+00  0.00000000E+00  0.00000000E+00
  0.00000000E+00  0.00000000E+00  0.00000000E+00
  0.00000000E+00  0.00000000E+00  0.00000000E+00
  0.00000000E+00  0.00000000E+00  0.00000000E+00
  0.00000000E+00  0.00000000E+00  0.00000000E+00
  0.00000000E+00  0.00000000E+00  0.00000000E+00
  0.00000000E+00  0.00000000E+00  0.00000000E+00
  0.00000000E+00  0.00000000E+00  0.00000000E+00
  0.00000000E+00  0.00000000E+00  0.00000000E+00
  0.00000000E+00  0.00000000E+00  0.00000000E+00
  0.00000000E+00  0.00000000E+00  0.00000000E+00
  0.00000000E+00  0.00000000E+00  0.00000000E+00
  0.00000000E+00  0.00000000E+00  0.00000000E+00
  0.00000000E+00  0.00000000E+00  0.00000000E+00
  0.00000000E+00  0.00000000E+00  0.00000000E+00
  0.00000000E+00  0.00000000E+00  0.00000000E+00
  0.00000000E+00  0.00000000E+00  0.00000000E+00
  0.00000000E+00  0.00000000E+00  0.00000000E+00
  0.00000000E+00  0.00000000E+00  0.00000000E+00
  0.00000000E+00  0.00000000E+00  0.00000000E+00
  0.00000000E+00  0.00000000E+00  0.00000000E+00
  0.00000000E+00  0.00000000E+00  0.00000000E+00
  0.00000000E+00  0.00000000E+00  0.00000000E+00
  0.00000000E+00  0.00000000E+00  0.00000000E+00
  0.00000000E+00  0.00000000E+00  0.00000000E+00
  0.00000000E+00  0.00000000E+00  0.00000000E+00
  0.00000000E+00  0.00000000E+00  0.00000000E+00
  0.00000000E+00  0.00000000E+00  0.00000000E+00
  0.00000000E+00  0.00000000E+00  0.00000000E+00
  0.00000000E+00  0.00000000E+00  0.00000000E+00
  0.00000000E+00  0.00000000E+00  0.00000000E+00
  0.00000000E+00  0.00000000E+00  0.00000000E+00
  0.00000000E+00  0.00000000E+00  0.00000000E+00
  0.00000000E+00  0.00000000E+00  0.00000000E+00
  0.00000000E+00  0.00000000E+00  0.00000000E+00
  0.00000000E+00  0.00000000E+00  0.00000000E+00
  0.00000000E+00  0.00000000E+00  0.00000000E+00
  0.00000000E+00  0.00000000E+00  0.00000000E+00
  0.00000000E+00  0.00000000E+00  0.00000000E+00
  0.00000000E+00  0.00000000E+00  0.00000000E+00
  0.00000000E+00  0.00000000E+00  0.00000000E+00
  0.00000000E+00  0.00000000E+00  0.00000000E+00
  0.00000000E+00  0.00000000E+00  0.00000000E+00
  0.00000000E+00  0.00000000E+00  0.00000000E+00
  0.00000000E+00  0.00000000E+00  0.00000000E+00
  0.00000000E+00  0.00000000E+00  0.00000000E+00
  0.00000000E+00  0.00000000E+00  0.00000000E+00
  0.00000000E+00  0.00000000E+00  0.00000000E+00
  0.00000000E+00  0.00000000E+00  0.00000000E+00
  0.00000000E+00  0.00000000E+00  0.00000000E+00
  0.00000000E+00  0.00000000E+00  0.00000000E+00
  0.00000000E+00  0.00000000E+00  0.00000000E+00
  0.00000000E+00  0.00000000E+00  0.00000000E+00
  0.00000000E+00  0.00000000E+00  0.00000000E+00
  0.00000000E+00  0.00000000E+00  0.00000000E+00
  0.00000000E+00  0.00000000E+00  0.00000000E+00
  0.00000000E+00  0.00000000E+00  0.00000000E+00
  0.00000000E+00  0.00000000E+00  0.00000000E+00
  0.00000000E+00  0.00000000E+00  0.00000000E+00
  0.00000000E+00  0.00000000E+00  0.00000000E+00
  0.00000000E+00  0.00000000E+00  0.00000000E+00
  0.00000000E+00  0.00000000E+00  0.00000000E+00
  0.00000000E+00  0.00000000E+00  0.00000000E+00
  0.00000000E+00  0.00000000E+00  0.00000000E+00
  0.00000000E+00  0.00000000E+00  0.00000000E+00
  0.00000000E+00  0.00000000E+00  0.00000000E+00
  0.00000000E+00  0.00000000E+00  0.00000000E+00
  0.00000000E+00  0.00000000E+00  0.00000000E+00
  0.00000000E+00  0.00000000E+00  0.00000000E+00
  0.00000000E+00  0.00000000E+00  0.00000000E+00
  0.00000000E+00  0.00000000E+00  0.00000000E+00
  0.00000000E+00  0.00000000E+00  0.00000000E+00
  0.00000000E+00  0.00000000E+00  0.00000000E+00
  0.00000000E+00  0.00000000E+00  0.00000000E+00
  0.00000000E+00  0.00000000E+00  0.00000000E+00
  0.00000000E+00  0.00000000E+00  0.00000000E+00
  0.00000000E+00  0.00000000E+00  0.00000000E+00
  0.00000000E+00  0.00000000E+00  0.00000000E+00
  0.00000000E+00  0.00000000E+00  0.00000000E+00
  0.00000000E+00  0.00000000E+00  0.00000000E+00
  0.00000000E+00  0.00000000E+00  0.00000000E+00
  0.00000000E+00  0.00000000E+00  0.00000000E+00
  0.00000000E+00  0.00000000E+00  0.00000000E+00
  0.00000000E+00  0.00000000E+00  0.00000000E+00
  0.00000000E+00  0.00000000E+00  0.00000000E+00
  0.00000000E+00  0.00000000E+00  0.00000000E+00
  0.00000000E+00  0.00000000E+00  0.00000000E+00
  0.00000000E+00  0.00000000E+00  0.00000000E+00
  0.00000000E+00  0.00000000E+00  0.00000000E+00
  0.00000000E+00  0.00000000E+00  0.00000000E+00
  0.00000000E+00  0.00000000E+00  0.00000000E+00
  0.00000000E+00  0.00000000E+00  0.00000000E+00
  0.00000000E+00  0.00000000E+00  0.00000000E+00
  0.00000000E+00  0.00000000E+00  0.00000000E+00
  0.00000000E+00  0.00000000E+00  0.00000000E+00
  0.00000000E+00  0.00000000E+00  0.00000000E+00
  0.00000000E+00  0.00000000E+00  0.00000000E+00
  0.00000000E+00  0.00000000E+00  0.00000000E+00
  0.00000000E+00  0.00000000E+00  0.00000000E+00
  0.00000000E+00  0.00000000E+00  0.00000000E+00
  0.00000000E+00  0.00000000E+00  0.00000000E+00
  0.00000000E+00  0.00000000E+00  0.00000000E+00
  0.00000000E+00  0.00000000E+00  0.00000000E+00
  0.00000000E+00  0.00000000E+00  0.00000000E+00
  0.00000000E+00  0.00000000E+00  0.00000000E+00
  0.00000000E+00  0.00000000E+00  0.00000000E+00
  0.00000000E+00  0.00000000E+00  0.00000000E+00
  0.00000000E+00  0.00000000E+00  0.00000000E+00
  0.00000000E+00  0.00000000E+00  0.00000000E+00
  0.00000000E+00  0.00000000E+00  0.00000000E+00
  0.00000000E+00  0.00000000E+00  0.00000000E+00
  0.00000000E+00  0.00000000E+00  0.00000000E+00
  0.00000000E+00  0.00000000E+00  0.00000000E+00
  0.00000000E+00  0.00000000E+00  0.00000000E+00
