V1 H1 C124 N2                           
   1.00000000000000     
    19.7959484980655915   -0.0192430469804636   -0.0420721318337969
    -9.9147200573961261   17.0518443750342712   -0.0346452446027535
    -0.0634377660095313   -0.0974604886749996   29.8267915033332542
   V    H    C    N 
     1     1   124     2
Direct
  0.4388739674003061  0.5008421865699360  0.4264004229271158
  0.4410294019123536  0.5047005521359654  0.4827946146249920
  0.0424032210179029  0.0844121615215135  0.3997275353732297
  0.0418478900667426  0.2087823309813452  0.3996560366743609
  0.0411005930158739  0.3332604384729941  0.3996535708150811
  0.0408394093513711  0.4584236426731902  0.3995479389750987
  0.0413584770669847  0.5837847316351455  0.3996572956281041
  0.0418649276436313  0.7090977409304550  0.3998579334385790
  0.0421573736701838  0.8343665414842460  0.3999665366973653
  0.0423856730402748  0.9595713635562262  0.3998740159167151
  0.1681497586717401  0.0856949355994116  0.3999632065536777
  0.1682339290136804  0.2107603967397281  0.4000864892287222
  0.1667871092853109  0.3345715581997212  0.4003171897329680
  0.1649299288347782  0.4588516991877858  0.4005140114304999
  0.1654361242174505  0.5838283863528614  0.3997940780001388
  0.1663115297809954  0.7090676629432121  0.3997193334560151
  0.1669092633772971  0.8344125069860669  0.3999014015333824
  0.1674080419434063  0.9598836538272447  0.3999068461112149
  0.2926308681299412  0.0852438159502031  0.4000185362607661
  0.2943629252103370  0.2123227225066657  0.4007751079695596
  0.2946866165567164  0.3387158565440829  0.4012713156987452
  0.2895868645508947  0.4599786418629216  0.4022741662707651
  0.2894147477015219  0.5843291345377013  0.4016850302221145
  0.2907600416617917  0.7090138523249714  0.4001268295818881
  0.2915740915088532  0.8341080970773673  0.3997136295179157
  0.2920617747944300  0.9594831261091550  0.3997634107126505
  0.4171270076156581  0.0839258396777512  0.3997556905811292
  0.4177376664165021  0.2097553769319641  0.4002862870274790
  0.4206174738771686  0.3375599662676692  0.4022240616323417
  0.4149617457741601  0.7067514336510279  0.4010381053137402
  0.4161108383259128  0.8327088623144246  0.3998554456201281
  0.4166609023182692  0.9583373398017638  0.3996883067596319
  0.5416902605847079  0.0825998943918382  0.3997117137485730
  0.5421780919741035  0.2078394001921119  0.3998782376089876
  0.5432898918961798  0.3327934903090435  0.4010342907827761
  0.5444583419543317  0.4562921584713648  0.4021825258509292
  0.5418735407875109  0.5786749270835743  0.4005212888911369
  0.5383300641330181  0.7036372479112124  0.4009879660834915
  0.5404713919104497  0.8311434490324514  0.4003137566114154
  0.5412555110972830  0.9570978733193584  0.3998232104470369
  0.6663539891655621  0.0821273916362665  0.3998822609263480
  0.6668095553428393  0.2074570296345033  0.3997803821933776
  0.6676018366483804  0.3327498453743060  0.3999389836943625
  0.6688637496751656  0.4580724440828400  0.4006783767830580
  0.6684633090371006  0.5823353027545228  0.4004503715557143
  0.6651221016700417  0.7056535139784667  0.3995412672130420
  0.6647870099332160  0.8306117048466906  0.3999597028024850
  0.6658169679624149  0.9566205417511527  0.3999623268580874
  0.7911709643583807  0.0821961781386149  0.4000069300392686
  0.7914798374590446  0.2074715499600918  0.3999744414562312
  0.7920023423439347  0.3328168722420270  0.3997553694860863
  0.7926777999571299  0.4581673524396264  0.3997248327439457
  0.7930397618710207  0.5833622081676438  0.3999498314005798
  0.7919711234683722  0.7080373339388061  0.3997516636246900
  0.7908195638793014  0.8321411818958206  0.3997295826545896
  0.7907321845048858  0.9568858476166693  0.3998812801878232
  0.9164400239877792  0.0829047373913893  0.3998144210345675
  0.9163478312431892  0.2077453701605455  0.3998057687703169
  0.9164073737393473  0.3329299499603505  0.3997626592508267
  0.9167476313304835  0.4582883035748419  0.3997176812688357
  0.9172566029031012  0.5836759104089334  0.3997155024174410
  0.9172014385478157  0.7088693922871120  0.3997587176810059
  0.9169335219058807  0.8337186686264547  0.3998084613043471
  0.9166180567091290  0.9583191013961277  0.3998390640071823
  0.0844409927934333  0.0432853672022048  0.3998091493453262
  0.0843860002853143  0.1680695686586418  0.3997421135859024
  0.0832189622500600  0.2921395011417846  0.3997679166691007
  0.0821169028295485  0.4167691685860784  0.3997328638287252
  0.0824479735938148  0.5419597715376216  0.3995557391016968
  0.0831121823780943  0.6673105868169970  0.3997558301625085
  0.0836549539253691  0.7926717226969354  0.3999409465082269
  0.0839853691213741  0.9179371589547130  0.3999617296959054
  0.2093199280377462  0.0434917807662393  0.3999384285478567
  0.2103710585730538  0.1695575936619767  0.4002738711434127
  0.2101041403673706  0.2945737694940412  0.4004040742716650
  0.2067651430109749  0.4178645445394750  0.4011327965501975
  0.2063295008378216  0.5420678323806674  0.4005813534447199
  0.2074941001570958  0.6673453848261305  0.3998056943488962
  0.2082960427142595  0.7926280265347757  0.3997872901164004
  0.2087882730229748  0.9179717018602339  0.3998800600862213
  0.3338583657678001  0.0430039351154894  0.3998118277505682
  0.3346635120213493  0.1690179228263362  0.4004037870032212
  0.3368551691485813  0.2965847102502270  0.4015823408070339
  0.3333799095718123  0.4216475097674887  0.4026742796187132
  0.3308005056639602  0.5439469411405502  0.4032490963324707
  0.3318851656976234  0.6673658706088645  0.4010604214161059
  0.3329338336210761  0.7922466034133446  0.3998275983923550
  0.3334455102242497  0.9174761976834924  0.3996933811936479
  0.4584828735640507  0.0417510454821101  0.3997023198790283
  0.4590068856900835  0.1673837907844179  0.3998890194432193
  0.4601846839508668  0.2933810128817589  0.4009764927753073
  0.4545997937834973  0.6626446445517707  0.4023732826318480
  0.4573825920254113  0.7903608428639697  0.4002366053497980
  0.4579976240688888  0.9161544522817688  0.3997405168277948
  0.5830952063550587  0.0406202047694531  0.3997714589913710
  0.5835299543403293  0.1659704453965392  0.3997317196409886
  0.5843359056872056  0.2910750589639495  0.4002362436278597
  0.5858231682943097  0.4158311267189148  0.4014535993352892
  0.5856057618220498  0.5402524341473388  0.4006480005156826
  0.5805404051270546  0.6615666852435982  0.3999120312378598
  0.5808057363351483  0.7878784706133839  0.4003992474259192
  0.5825028211769446  0.9148905689967454  0.4000285530871536
  0.7077464165293932  0.0402287771386306  0.3999382758365547
  0.7082061030715012  0.1656750368352715  0.3999006334709670
  0.7087794023833539  0.2910039582027585  0.3997428447207877
  0.7096876182830081  0.4162768957907887  0.4000210056350602
  0.7102417726447391  0.5413135990481188  0.4005402895911014
  0.7084280315594601  0.6656179652391851  0.3997699692444445
  0.7069667620507474  0.7894463150392328  0.3997163745254439
  0.7070132271785851  0.9144606266152023  0.3999296543598293
  0.8328194518572903  0.0406129116609071  0.3999306782986933
  0.8329878036939130  0.1657713237759737  0.3999942278536474
  0.8332600053819592  0.2910220555024779  0.3998619747214289
  0.8337464976442683  0.4163388480094224  0.3997060176902089
  0.8342652950061048  0.5416984041462281  0.3997334616243618
  0.8340459837947706  0.6668986864238758  0.3997942765476721
  0.8333511050720513  0.7914106671143163  0.3997228715654692
  0.8328305075667188  0.9158123649421438  0.3998239881626004
  0.9586169483133367  0.0419034304095774  0.3997871411552009
  0.9582478947380679  0.1664730433102825  0.3997048959485151
  0.9579398608638044  0.2912788705301522  0.3996801279210729
  0.9578531752687337  0.4164460719280453  0.3996601675133661
  0.9583907221665491  0.5418788626005411  0.3997208962723597
  0.9587326923759578  0.6672377457094747  0.3997718318354614
  0.9588123818505830  0.7924212357623909  0.3998436545863464
  0.9587792284820041  0.9172858802909599  0.3998451590977574
  0.4111535266362411  0.5815929752558815  0.4056336449906443
  0.4642268220176960  0.4187127662286624  0.4046010064763229
 
  0.00000000E+00  0.00000000E+00  0.00000000E+00
  0.00000000E+00  0.00000000E+00  0.00000000E+00
  0.00000000E+00  0.00000000E+00  0.00000000E+00
  0.00000000E+00  0.00000000E+00  0.00000000E+00
  0.00000000E+00  0.00000000E+00  0.00000000E+00
  0.00000000E+00  0.00000000E+00  0.00000000E+00
  0.00000000E+00  0.00000000E+00  0.00000000E+00
  0.00000000E+00  0.00000000E+00  0.00000000E+00
  0.00000000E+00  0.00000000E+00  0.00000000E+00
  0.00000000E+00  0.00000000E+00  0.00000000E+00
  0.00000000E+00  0.00000000E+00  0.00000000E+00
  0.00000000E+00  0.00000000E+00  0.00000000E+00
  0.00000000E+00  0.00000000E+00  0.00000000E+00
  0.00000000E+00  0.00000000E+00  0.00000000E+00
  0.00000000E+00  0.00000000E+00  0.00000000E+00
  0.00000000E+00  0.00000000E+00  0.00000000E+00
  0.00000000E+00  0.00000000E+00  0.00000000E+00
  0.00000000E+00  0.00000000E+00  0.00000000E+00
  0.00000000E+00  0.00000000E+00  0.00000000E+00
  0.00000000E+00  0.00000000E+00  0.00000000E+00
  0.00000000E+00  0.00000000E+00  0.00000000E+00
  0.00000000E+00  0.00000000E+00  0.00000000E+00
  0.00000000E+00  0.00000000E+00  0.00000000E+00
  0.00000000E+00  0.00000000E+00  0.00000000E+00
  0.00000000E+00  0.00000000E+00  0.00000000E+00
  0.00000000E+00  0.00000000E+00  0.00000000E+00
  0.00000000E+00  0.00000000E+00  0.00000000E+00
  0.00000000E+00  0.00000000E+00  0.00000000E+00
  0.00000000E+00  0.00000000E+00  0.00000000E+00
  0.00000000E+00  0.00000000E+00  0.00000000E+00
  0.00000000E+00  0.00000000E+00  0.00000000E+00
  0.00000000E+00  0.00000000E+00  0.00000000E+00
  0.00000000E+00  0.00000000E+00  0.00000000E+00
  0.00000000E+00  0.00000000E+00  0.00000000E+00
  0.00000000E+00  0.00000000E+00  0.00000000E+00
  0.00000000E+00  0.00000000E+00  0.00000000E+00
  0.00000000E+00  0.00000000E+00  0.00000000E+00
  0.00000000E+00  0.00000000E+00  0.00000000E+00
  0.00000000E+00  0.00000000E+00  0.00000000E+00
  0.00000000E+00  0.00000000E+00  0.00000000E+00
  0.00000000E+00  0.00000000E+00  0.00000000E+00
  0.00000000E+00  0.00000000E+00  0.00000000E+00
  0.00000000E+00  0.00000000E+00  0.00000000E+00
  0.00000000E+00  0.00000000E+00  0.00000000E+00
  0.00000000E+00  0.00000000E+00  0.00000000E+00
  0.00000000E+00  0.00000000E+00  0.00000000E+00
  0.00000000E+00  0.00000000E+00  0.00000000E+00
  0.00000000E+00  0.00000000E+00  0.00000000E+00
  0.00000000E+00  0.00000000E+00  0.00000000E+00
  0.00000000E+00  0.00000000E+00  0.00000000E+00
  0.00000000E+00  0.00000000E+00  0.00000000E+00
  0.00000000E+00  0.00000000E+00  0.00000000E+00
  0.00000000E+00  0.00000000E+00  0.00000000E+00
  0.00000000E+00  0.00000000E+00  0.00000000E+00
  0.00000000E+00  0.00000000E+00  0.00000000E+00
  0.00000000E+00  0.00000000E+00  0.00000000E+00
  0.00000000E+00  0.00000000E+00  0.00000000E+00
  0.00000000E+00  0.00000000E+00  0.00000000E+00
  0.00000000E+00  0.00000000E+00  0.00000000E+00
  0.00000000E+00  0.00000000E+00  0.00000000E+00
  0.00000000E+00  0.00000000E+00  0.00000000E+00
  0.00000000E+00  0.00000000E+00  0.00000000E+00
  0.00000000E+00  0.00000000E+00  0.00000000E+00
  0.00000000E+00  0.00000000E+00  0.00000000E+00
  0.00000000E+00  0.00000000E+00  0.00000000E+00
  0.00000000E+00  0.00000000E+00  0.00000000E+00
  0.00000000E+00  0.00000000E+00  0.00000000E+00
  0.00000000E+00  0.00000000E+00  0.00000000E+00
  0.00000000E+00  0.00000000E+00  0.00000000E+00
  0.00000000E+00  0.00000000E+00  0.00000000E+00
  0.00000000E+00  0.00000000E+00  0.00000000E+00
  0.00000000E+00  0.00000000E+00  0.00000000E+00
  0.00000000E+00  0.00000000E+00  0.00000000E+00
  0.00000000E+00  0.00000000E+00  0.00000000E+00
  0.00000000E+00  0.00000000E+00  0.00000000E+00
  0.00000000E+00  0.00000000E+00  0.00000000E+00
  0.00000000E+00  0.00000000E+00  0.00000000E+00
  0.00000000E+00  0.00000000E+00  0.00000000E+00
  0.00000000E+00  0.00000000E+00  0.00000000E+00
  0.00000000E+00  0.00000000E+00  0.00000000E+00
  0.00000000E+00  0.00000000E+00  0.00000000E+00
  0.00000000E+00  0.00000000E+00  0.00000000E+00
  0.00000000E+00  0.00000000E+00  0.00000000E+00
  0.00000000E+00  0.00000000E+00  0.00000000E+00
  0.00000000E+00  0.00000000E+00  0.00000000E+00
  0.00000000E+00  0.00000000E+00  0.00000000E+00
  0.00000000E+00  0.00000000E+00  0.00000000E+00
  0.00000000E+00  0.00000000E+00  0.00000000E+00
  0.00000000E+00  0.00000000E+00  0.00000000E+00
  0.00000000E+00  0.00000000E+00  0.00000000E+00
  0.00000000E+00  0.00000000E+00  0.00000000E+00
  0.00000000E+00  0.00000000E+00  0.00000000E+00
  0.00000000E+00  0.00000000E+00  0.00000000E+00
  0.00000000E+00  0.00000000E+00  0.00000000E+00
  0.00000000E+00  0.00000000E+00  0.00000000E+00
  0.00000000E+00  0.00000000E+00  0.00000000E+00
  0.00000000E+00  0.00000000E+00  0.00000000E+00
  0.00000000E+00  0.00000000E+00  0.00000000E+00
  0.00000000E+00  0.00000000E+00  0.00000000E+00
  0.00000000E+00  0.00000000E+00  0.00000000E+00
  0.00000000E+00  0.00000000E+00  0.00000000E+00
  0.00000000E+00  0.00000000E+00  0.00000000E+00
  0.00000000E+00  0.00000000E+00  0.00000000E+00
  0.00000000E+00  0.00000000E+00  0.00000000E+00
  0.00000000E+00  0.00000000E+00  0.00000000E+00
  0.00000000E+00  0.00000000E+00  0.00000000E+00
  0.00000000E+00  0.00000000E+00  0.00000000E+00
  0.00000000E+00  0.00000000E+00  0.00000000E+00
  0.00000000E+00  0.00000000E+00  0.00000000E+00
  0.00000000E+00  0.00000000E+00  0.00000000E+00
  0.00000000E+00  0.00000000E+00  0.00000000E+00
  0.00000000E+00  0.00000000E+00  0.00000000E+00
  0.00000000E+00  0.00000000E+00  0.00000000E+00
  0.00000000E+00  0.00000000E+00  0.00000000E+00
  0.00000000E+00  0.00000000E+00  0.00000000E+00
  0.00000000E+00  0.00000000E+00  0.00000000E+00
  0.00000000E+00  0.00000000E+00  0.00000000E+00
  0.00000000E+00  0.00000000E+00  0.00000000E+00
  0.00000000E+00  0.00000000E+00  0.00000000E+00
  0.00000000E+00  0.00000000E+00  0.00000000E+00
  0.00000000E+00  0.00000000E+00  0.00000000E+00
  0.00000000E+00  0.00000000E+00  0.00000000E+00
  0.00000000E+00  0.00000000E+00  0.00000000E+00
  0.00000000E+00  0.00000000E+00  0.00000000E+00
  0.00000000E+00  0.00000000E+00  0.00000000E+00
  0.00000000E+00  0.00000000E+00  0.00000000E+00
  0.00000000E+00  0.00000000E+00  0.00000000E+00
  0.00000000E+00  0.00000000E+00  0.00000000E+00
