La1 C126                                
   1.00000000000000     
    19.7989096444248176   -0.0000122024467716    0.0005501795771390
    -9.8994648963881975   17.0885085394316327   -0.0002617593146035
     0.0008265835026942    0.0000224773617329   29.7410836471753512
   La   C 
     1   126
Direct
  0.4375287675953126  0.5000003580303195  0.4548192960466166
  0.0416730415409467  0.0836106175384298  0.3998384416257293
  0.0409878612047140  0.2080070328319319  0.3994109880526178
  0.0407177462565873  0.3328832822584490  0.3989672386861288
  0.0408264927196146  0.4582774460445259  0.3993596375755800
  0.0413974069889093  0.5835820092776776  0.4000708488872997
  0.0419020892467567  0.7088015987318353  0.4002933859623258
  0.0421378732993043  0.8340151122478382  0.4001128911009954
  0.0421256380618728  0.9589980562171624  0.3999278887398702
  0.1671530923430542  0.0843803136491866  0.4001207514917174
  0.1665990550684818  0.2088355923872988  0.4000113534955828
  0.1654838857831454  0.3331187206068932  0.3989905343274957
  0.1648667138006765  0.4581624098366932  0.3978749365246861
  0.1656138754000969  0.5834942426514492  0.3985586723870316
  0.1664584004443080  0.7088254409153432  0.3996861962571587
  0.1668729353830712  0.8340192498559889  0.4000983741932244
  0.1671311601783527  0.9592803345878793  0.4000852326978347
  0.2922171124508358  0.0843939616443987  0.4001063400152375
  0.2926608491848139  0.2103343132784854  0.4013333359764981
  0.2917181094203744  0.3353522986567531  0.4024955449144878
  0.2888783346887620  0.4575896269604438  0.3998586529650721
  0.2896873938457075  0.5838009928829251  0.3983796197116547
  0.2909569477875661  0.7087208192657983  0.3989392050959656
  0.2915605168653692  0.8337630084891632  0.3996675122040589
  0.2918773921454126  0.9590007115294374  0.3999107710881651
  0.4169305305490562  0.0836150046815858  0.3998479299788397
  0.4172410675348847  0.2088580624607056  0.4000036394148128
  0.4186360989646294  0.3353657750496304  0.4024941421809175
  0.4128226899282351  0.5821457434555920  0.4041068154341255
  0.4157389555861793  0.7077201626296757  0.4000655591786910
  0.4162784802096808  0.8331436141510066  0.3996788672467634
  0.4165861737007325  0.9583423736783004  0.3998612546868011
  0.5416148997218451  0.0828813059089206  0.3998615224844607
  0.5420175744477941  0.2080136309461471  0.3994436773307334
  0.5426475233699515  0.3331304651211833  0.3989596467110867
  0.5437470593666776  0.4575917865258401  0.3997791312971071
  0.5443472224791238  0.5821291435069657  0.4040732156118917
  0.5408069861842101  0.7066228518020354  0.4030446913253369
  0.5409372076792616  0.8321950564963059  0.4005011386888451
  0.5413602733949692  0.9576196778258873  0.3999180340414109
  0.6663317202974064  0.0825494317091890  0.4000514680954344
  0.6667009207500746  0.2077719459897817  0.3998625147812782
  0.6671558759993257  0.3328772453874823  0.3989717506019417
  0.6683196198745197  0.4581666182407307  0.3978271446666802
  0.6691457622087272  0.5837971507312392  0.3983149537495209
  0.6669617335324417  0.7076955914694651  0.4000457750452211
  0.6662363210956334  0.8321770623350926  0.4004817074978017
  0.6661800583739619  0.9573761308030707  0.4001382156262606
  0.7912026807924898  0.0825415829382723  0.4000424772198499
  0.7913124189100288  0.2076344508453784  0.4002386406790054
  0.7917398163302404  0.3329272773602244  0.4000936644324374
  0.7924340626048568  0.4582834777159464  0.3993158877964065
  0.7928870551987238  0.5835038150149366  0.3985273322912346
  0.7927618907742139  0.7087204044706641  0.3989523126505259
  0.7918485398911321  0.8331240225795735  0.3996923849972046
  0.7912348015819631  0.9576115234853955  0.3999031939040157
  0.9162627731031651  0.0828677746953880  0.3998313272371234
  0.9160652824985244  0.2077650266423956  0.3998425840092301
  0.9161892186060966  0.3329131518157181  0.4001074157641470
  0.9165976075125432  0.4581921684608320  0.4002870858945473
  0.9171653788755970  0.5835682769716565  0.4000499818366058
  0.9173680334813855  0.7088250026984482  0.3996902094591996
  0.9172032453269654  0.8337539637243150  0.3997046296317268
  0.9167444997694592  0.9583179319434886  0.3998769771590568
  0.0837408963939688  0.0423801861060942  0.3999161808869693
  0.0831335110975997  0.1668558054665195  0.3996791905229926
  0.0822343610524743  0.2912777288277804  0.3989394724440573
  0.0821185653280732  0.4165047792545237  0.3985577628206947
  0.0825504161226728  0.5417230550589073  0.3993597370668060
  0.0832782790668074  0.6670880480664020  0.4001072297967231
  0.0836789917722950  0.7923659481074120  0.4002381895693116
  0.0837834856871297  0.9174515559661476  0.4000504567902777
  0.2088055282476977  0.0426233820114115  0.4001382855724988
  0.2087422365871366  0.1678039766912409  0.4005011230648798
  0.2080180773076593  0.2922786247695784  0.4000646581323815
  0.2058856874380244  0.4161986522883860  0.3983793737278929
  0.2067040361346578  0.5418376617974289  0.3978756547459489
  0.2078352319008326  0.6671178071895731  0.3989672750915969
  0.2083007516774817  0.7922350423745825  0.3998421089144383
  0.2086620466622340  0.9174585773546020  0.4000423649826852
  0.3336248742229626  0.0423892705644832  0.3999032369851009
  0.3340593534410409  0.1678220477514389  0.4004817148927019
  0.3341838548312831  0.2933766909865706  0.4030446902847056
  0.3306768926893525  0.4178534043147716  0.4041078539518264
  0.3312889905887696  0.5424097902223090  0.3998585663089113
  0.3323651937439904  0.6668813966744740  0.3989907018537001
  0.3329801400146468  0.7919938878703724  0.3994092374195791
  0.3333955539796049  0.9171321329885402  0.3998304289398699
  0.4584281401954055  0.0416819446250907  0.3998779979597323
  0.4587250653408844  0.1668759316630013  0.3996924525528835
  0.4592679004046324  0.2923050822727349  0.4000465840102855
  0.4622202517192550  0.4178729972391773  0.4040731695242457
  0.4563652771560264  0.6646475781491690  0.4024962675508821
  0.4577626834419120  0.7911644320136445  0.4000115228263647
  0.4580623564369569  0.9163891421434903  0.3998402732108531
  0.5831282131702018  0.0410019097330115  0.3999291059975571
  0.5834496633016509  0.1662461732342208  0.3997049442539565
  0.5840425238811631  0.2912799931264173  0.3989532757334915
  0.5853510691636089  0.4162045559155674  0.3983156579495302
  0.5861565222328540  0.5424070313907476  0.3997779726164348
  0.5832705788035724  0.6646346150885297  0.4024933081584832
  0.5823261809392688  0.7896662008838453  0.4013332851330843
  0.5827740003427107  0.9156200812051427  0.4001209480744444
  0.7078515868821230  0.0407192418228667  0.4000853231885846
  0.7081223085779437  0.1659844283091933  0.4001146750713915
  0.7085428407622486  0.2911754752721813  0.3996911683363136
  0.7093828608535389  0.4164964456903992  0.3985280145755783
  0.7101536593210148  0.5418336231752980  0.3978268394467296
  0.7095184019214844  0.6668691543482762  0.3989592496931006
  0.7083837954098198  0.7911422481909689  0.4000035414159848
  0.7078240068097085  0.9156059944949881  0.4001063262304418
  0.8328764049419810  0.0409985890430549  0.3999108871761673
  0.8328542878278461  0.1659807916633759  0.4000991531670955
  0.8331007208962992  0.2911979741131760  0.4002942030062543
  0.8335948621338422  0.4164305491607430  0.4000490629987521
  0.8341500325402789  0.5417166895059990  0.3993164975661196
  0.8342789916269497  0.6671224526319302  0.3989706838724330
  0.8340051894195535  0.7919863584855168  0.3994428645830189
  0.8333160691125271  0.9163840647463508  0.3998481160591221
  0.9582440863210023  0.0416576785273166  0.3998602668463019
  0.9577974048618637  0.1662376454333789  0.3996693244701162
  0.9576332005111552  0.2911730742532972  0.3996869243971906
  0.9578154279886248  0.4164170156726604  0.4000708339987779
  0.9584056089670728  0.5418084999000248  0.4002872377458746
  0.9588130153885304  0.6670729948318735  0.4000935762641291
  0.9589292514951103  0.7922273178338161  0.3998614145952497
  0.9587338507002371  0.9171193388612129  0.3998610043151843
 
  0.00000000E+00  0.00000000E+00  0.00000000E+00
  0.00000000E+00  0.00000000E+00  0.00000000E+00
  0.00000000E+00  0.00000000E+00  0.00000000E+00
  0.00000000E+00  0.00000000E+00  0.00000000E+00
  0.00000000E+00  0.00000000E+00  0.00000000E+00
  0.00000000E+00  0.00000000E+00  0.00000000E+00
  0.00000000E+00  0.00000000E+00  0.00000000E+00
  0.00000000E+00  0.00000000E+00  0.00000000E+00
  0.00000000E+00  0.00000000E+00  0.00000000E+00
  0.00000000E+00  0.00000000E+00  0.00000000E+00
  0.00000000E+00  0.00000000E+00  0.00000000E+00
  0.00000000E+00  0.00000000E+00  0.00000000E+00
  0.00000000E+00  0.00000000E+00  0.00000000E+00
  0.00000000E+00  0.00000000E+00  0.00000000E+00
  0.00000000E+00  0.00000000E+00  0.00000000E+00
  0.00000000E+00  0.00000000E+00  0.00000000E+00
  0.00000000E+00  0.00000000E+00  0.00000000E+00
  0.00000000E+00  0.00000000E+00  0.00000000E+00
  0.00000000E+00  0.00000000E+00  0.00000000E+00
  0.00000000E+00  0.00000000E+00  0.00000000E+00
  0.00000000E+00  0.00000000E+00  0.00000000E+00
  0.00000000E+00  0.00000000E+00  0.00000000E+00
  0.00000000E+00  0.00000000E+00  0.00000000E+00
  0.00000000E+00  0.00000000E+00  0.00000000E+00
  0.00000000E+00  0.00000000E+00  0.00000000E+00
  0.00000000E+00  0.00000000E+00  0.00000000E+00
  0.00000000E+00  0.00000000E+00  0.00000000E+00
  0.00000000E+00  0.00000000E+00  0.00000000E+00
  0.00000000E+00  0.00000000E+00  0.00000000E+00
  0.00000000E+00  0.00000000E+00  0.00000000E+00
  0.00000000E+00  0.00000000E+00  0.00000000E+00
  0.00000000E+00  0.00000000E+00  0.00000000E+00
  0.00000000E+00  0.00000000E+00  0.00000000E+00
  0.00000000E+00  0.00000000E+00  0.00000000E+00
  0.00000000E+00  0.00000000E+00  0.00000000E+00
  0.00000000E+00  0.00000000E+00  0.00000000E+00
  0.00000000E+00  0.00000000E+00  0.00000000E+00
  0.00000000E+00  0.00000000E+00  0.00000000E+00
  0.00000000E+00  0.00000000E+00  0.00000000E+00
  0.00000000E+00  0.00000000E+00  0.00000000E+00
  0.00000000E+00  0.00000000E+00  0.00000000E+00
  0.00000000E+00  0.00000000E+00  0.00000000E+00
  0.00000000E+00  0.00000000E+00  0.00000000E+00
  0.00000000E+00  0.00000000E+00  0.00000000E+00
  0.00000000E+00  0.00000000E+00  0.00000000E+00
  0.00000000E+00  0.00000000E+00  0.00000000E+00
  0.00000000E+00  0.00000000E+00  0.00000000E+00
  0.00000000E+00  0.00000000E+00  0.00000000E+00
  0.00000000E+00  0.00000000E+00  0.00000000E+00
  0.00000000E+00  0.00000000E+00  0.00000000E+00
  0.00000000E+00  0.00000000E+00  0.00000000E+00
  0.00000000E+00  0.00000000E+00  0.00000000E+00
  0.00000000E+00  0.00000000E+00  0.00000000E+00
  0.00000000E+00  0.00000000E+00  0.00000000E+00
  0.00000000E+00  0.00000000E+00  0.00000000E+00
  0.00000000E+00  0.00000000E+00  0.00000000E+00
  0.00000000E+00  0.00000000E+00  0.00000000E+00
  0.00000000E+00  0.00000000E+00  0.00000000E+00
  0.00000000E+00  0.00000000E+00  0.00000000E+00
  0.00000000E+00  0.00000000E+00  0.00000000E+00
  0.00000000E+00  0.00000000E+00  0.00000000E+00
  0.00000000E+00  0.00000000E+00  0.00000000E+00
  0.00000000E+00  0.00000000E+00  0.00000000E+00
  0.00000000E+00  0.00000000E+00  0.00000000E+00
  0.00000000E+00  0.00000000E+00  0.00000000E+00
  0.00000000E+00  0.00000000E+00  0.00000000E+00
  0.00000000E+00  0.00000000E+00  0.00000000E+00
  0.00000000E+00  0.00000000E+00  0.00000000E+00
  0.00000000E+00  0.00000000E+00  0.00000000E+00
  0.00000000E+00  0.00000000E+00  0.00000000E+00
  0.00000000E+00  0.00000000E+00  0.00000000E+00
  0.00000000E+00  0.00000000E+00  0.00000000E+00
  0.00000000E+00  0.00000000E+00  0.00000000E+00
  0.00000000E+00  0.00000000E+00  0.00000000E+00
  0.00000000E+00  0.00000000E+00  0.00000000E+00
  0.00000000E+00  0.00000000E+00  0.00000000E+00
  0.00000000E+00  0.00000000E+00  0.00000000E+00
  0.00000000E+00  0.00000000E+00  0.00000000E+00
  0.00000000E+00  0.00000000E+00  0.00000000E+00
  0.00000000E+00  0.00000000E+00  0.00000000E+00
  0.00000000E+00  0.00000000E+00  0.00000000E+00
  0.00000000E+00  0.00000000E+00  0.00000000E+00
  0.00000000E+00  0.00000000E+00  0.00000000E+00
  0.00000000E+00  0.00000000E+00  0.00000000E+00
  0.00000000E+00  0.00000000E+00  0.00000000E+00
  0.00000000E+00  0.00000000E+00  0.00000000E+00
  0.00000000E+00  0.00000000E+00  0.00000000E+00
  0.00000000E+00  0.00000000E+00  0.00000000E+00
  0.00000000E+00  0.00000000E+00  0.00000000E+00
  0.00000000E+00  0.00000000E+00  0.00000000E+00
  0.00000000E+00  0.00000000E+00  0.00000000E+00
  0.00000000E+00  0.00000000E+00  0.00000000E+00
  0.00000000E+00  0.00000000E+00  0.00000000E+00
  0.00000000E+00  0.00000000E+00  0.00000000E+00
  0.00000000E+00  0.00000000E+00  0.00000000E+00
  0.00000000E+00  0.00000000E+00  0.00000000E+00
  0.00000000E+00  0.00000000E+00  0.00000000E+00
  0.00000000E+00  0.00000000E+00  0.00000000E+00
  0.00000000E+00  0.00000000E+00  0.00000000E+00
  0.00000000E+00  0.00000000E+00  0.00000000E+00
  0.00000000E+00  0.00000000E+00  0.00000000E+00
  0.00000000E+00  0.00000000E+00  0.00000000E+00
  0.00000000E+00  0.00000000E+00  0.00000000E+00
  0.00000000E+00  0.00000000E+00  0.00000000E+00
  0.00000000E+00  0.00000000E+00  0.00000000E+00
  0.00000000E+00  0.00000000E+00  0.00000000E+00
  0.00000000E+00  0.00000000E+00  0.00000000E+00
  0.00000000E+00  0.00000000E+00  0.00000000E+00
  0.00000000E+00  0.00000000E+00  0.00000000E+00
  0.00000000E+00  0.00000000E+00  0.00000000E+00
  0.00000000E+00  0.00000000E+00  0.00000000E+00
  0.00000000E+00  0.00000000E+00  0.00000000E+00
  0.00000000E+00  0.00000000E+00  0.00000000E+00
  0.00000000E+00  0.00000000E+00  0.00000000E+00
  0.00000000E+00  0.00000000E+00  0.00000000E+00
  0.00000000E+00  0.00000000E+00  0.00000000E+00
  0.00000000E+00  0.00000000E+00  0.00000000E+00
  0.00000000E+00  0.00000000E+00  0.00000000E+00
  0.00000000E+00  0.00000000E+00  0.00000000E+00
  0.00000000E+00  0.00000000E+00  0.00000000E+00
  0.00000000E+00  0.00000000E+00  0.00000000E+00
  0.00000000E+00  0.00000000E+00  0.00000000E+00
  0.00000000E+00  0.00000000E+00  0.00000000E+00
  0.00000000E+00  0.00000000E+00  0.00000000E+00
  0.00000000E+00  0.00000000E+00  0.00000000E+00
  0.00000000E+00  0.00000000E+00  0.00000000E+00
  0.00000000E+00  0.00000000E+00  0.00000000E+00
