Cr1 H1 C122 N4                          
   1.00000000000000     
    19.8141981682728314    0.0000214589118682    0.0139564049976190
    -9.9070749947262016   17.0256165638251673   -0.0133312827997624
     0.0209423535504432   -0.0110813872055123   29.8279020690239989
   Cr   H    C    N 
     1     1   122     4
Direct
  0.4375011813330531  0.5000395420730771  0.4168374634905056
  0.4378194104855005  0.5003371820242201  0.4703915244127268
  0.0421052885547570  0.0841939643804916  0.3999115723476262
  0.0410909869407939  0.2082362438915571  0.3999894920054733
  0.0402215550806763  0.3329327944118132  0.3996283155444903
  0.0403083243977822  0.4582009477270286  0.3991556688518644
  0.0412447545597348  0.5837678494126097  0.3991291219374888
  0.0421317401063947  0.7092648409299490  0.3994170433170593
  0.0424443105842702  0.8345190428557615  0.3995865952891413
  0.0425525048677568  0.9596978542134353  0.3997014894719046
  0.1682545111664421  0.0859494824978924  0.4006147878466053
  0.1675856228034783  0.2104487848816575  0.4015667344570577
  0.1650335373177189  0.3336892671730125  0.4017776083396610
  0.1639290575306568  0.4585025602230565  0.4007245926213283
  0.1649783971115673  0.5837015228093191  0.3996416176941290
  0.1663439558812349  0.7090156473962703  0.3993251804346024
  0.1670754848040658  0.8345149052369956  0.3995651905013624
  0.1676016279153121  0.9601522659520946  0.3997782600147728
  0.2927279397842518  0.0859535064372777  0.4005673965834921
  0.2942427756942385  0.2134784508201088  0.4028700998612518
  0.2924574355140763  0.3388193208383410  0.4049276704027334
  0.2869978296445252  0.4580055642607340  0.4045763595583731
  0.2882090235616914  0.5830028197041024  0.4022469373170826
  0.2905536190205908  0.7084246075124526  0.4003231158651865
  0.2916207120187182  0.8339534912782898  0.3995520642613930
  0.2921918726902629  0.9596951610111365  0.3996561151487171
  0.4171291861718613  0.0841941325973366  0.3999227469551154
  0.4178750029296540  0.2104484301069192  0.4015633702402438
  0.4213411989842611  0.3388226982880756  0.4048829789841471
  0.4145862152341275  0.7059847391372592  0.4026816868861712
  0.4160754533724328  0.8322088834100561  0.4003773276478455
  0.4166710714506941  0.9582352698171528  0.3996307178330643
  0.5415646534596448  0.0825230961405572  0.3996107182742617
  0.5421711701597037  0.2082398427300067  0.4000223200178973
  0.5436388738171263  0.3336753480176044  0.4016874724165352
  0.5459867384888405  0.4580106030988600  0.4044156100831454
  0.5382448876704294  0.7015043137145934  0.4047500991293443
  0.5404146838154276  0.8300330604816454  0.4017562879945373
  0.5410885719444058  0.9565618050822997  0.4000317160890567
  0.6661047469238203  0.0818556870049518  0.3996853333033771
  0.6666066006632740  0.2073737258659976  0.3994644651658797
  0.6677030493662304  0.3329374942406354  0.3995683432819064
  0.6695614244951370  0.4585001663426133  0.4005408734499861
  0.6697877472275018  0.5830136674305224  0.4020864596671694
  0.6663874837470236  0.7059857892149203  0.4026396703839319
  0.6646362730231371  0.8300350124314999  0.4017382743768839
  0.6655822432901137  0.9561146748055562  0.4002826183163615
  0.7907902869223518  0.0818492118564894  0.3996569726583338
  0.7911135554086431  0.2072278681706014  0.3995797336708766
  0.7917821647567458  0.3326851012208506  0.3992606769819051
  0.7928589664244486  0.4582045627951610  0.3990527099576125
  0.7936923940387877  0.5836891630663563  0.3995057051814308
  0.7928796335304609  0.7084394793984079  0.4002954867945489
  0.7911556649789779  0.8322032800376572  0.4004052427950372
  0.7905016243174334  0.9565579936508620  0.3999875542611377
  0.9160048396297741  0.0825285483923006  0.3995549388921650
  0.9157746664544981  0.2073796245755297  0.3994465593666427
  0.9158972614749500  0.3326923020669257  0.3992611156914705
  0.9166024705935658  0.4582400602503920  0.3991091803006654
  0.9174798320953024  0.5837712439603956  0.3991040605803238
  0.9176671036333851  0.7090278079890503  0.3993238610263253
  0.9173608498504292  0.8339621886052276  0.3996016340029217
  0.9166101285874764  0.9582402710188876  0.3996542364385561
  0.0845314950287826  0.0434454857933405  0.4000236000904671
  0.0838707282870163  0.1678032418458581  0.4003704717477506
  0.0821291665247376  0.2915790665740747  0.4003201177733677
  0.0812810107303446  0.4163015022968844  0.3996428486331189
  0.0821097915969687  0.5418115628783737  0.3991584612520657
  0.0832133149278577  0.6673263595972625  0.3992693084514952
  0.0838903284889280  0.7927827498658970  0.3995841182113039
  0.0842527807504994  0.9181548671038428  0.3996817304401304
  0.2094655996170363  0.0438878897399123  0.4002691849486179
  0.2103857162076394  0.1699775252905119  0.4017504324501128
  0.2086061188270273  0.2940264234053953  0.4026900056515623
  0.2052078009708588  0.4170044992759017  0.4022511211016643
  0.2054343410836436  0.5415136606455301  0.4007215206585767
  0.2072930356481041  0.6670820274213748  0.3996330473768324
  0.2083978200743226  0.7926282067722922  0.3994497971904921
  0.2089406840381544  0.9181519511704590  0.3996548512557729
  0.3339438876757042  0.0434447815769740  0.3999806090534410
  0.3346014504744020  0.1699739615904908  0.4017352827189337
  0.3367492492575875  0.2985165047276895  0.4047616088373403
  0.3289987007357097  0.5420108560796734  0.4045696678996886
  0.3313508306991618  0.6663280917640335  0.4017714751032508
  0.3328541551232783  0.7917710605773849  0.3999959963886224
  0.3334753562353022  0.9174737503853637  0.3995578795925139
  0.4583736453446539  0.0417644582428752  0.3996559174357092
  0.4589539096236617  0.1678044245689745  0.4003978540445636
  0.4604052672941674  0.2940308455504589  0.4026472315438842
  0.4536455214117302  0.6612052905244717  0.4049131045865036
  0.4571451465294389  0.7895729935507597  0.4015694108103764
  0.4579122688190383  0.9158137177030440  0.3999181037992046
  0.5828552743994104  0.0403074478751759  0.3997090261011743
  0.5834029031410002  0.1660412860614022  0.3995945756062563
  0.5844427883239500  0.2915685916034925  0.4002844159712728
  0.5867704615823750  0.4169940484638466  0.4020889857937467
  0.5879832498928991  0.5420084475182896  0.4044096073809009
  0.5825293415036576  0.6612009431388340  0.4048639797308902
  0.5807724788158366  0.7865383770309640  0.4028645883318894
  0.5823068798685813  0.9140616026013179  0.4006266161319041
  0.7074531464675641  0.0398539296551037  0.3997868909564564
  0.7079335392313916  0.1654867701645531  0.3995832766454450
  0.7086482537274230  0.2909785586126225  0.3993132816401745
  0.7100045284528311  0.4163147207002510  0.3995019499494689
  0.7110618246674167  0.5415054169261710  0.4005417544001643
  0.7099659093053814  0.6663327518600665  0.4016887944184249
  0.7074327637667998  0.7895617136866898  0.4015646455770336
  0.7067812689325880  0.9140569666494925  0.4005777700862870
  0.8325067152540875  0.0403171627816903  0.3996579446803999
  0.8325697023009823  0.1654910934466751  0.3995632175134040
  0.8328757703181278  0.2907352140690516  0.3994087695039811
  0.8337157824155924  0.4162326818260492  0.3990940464214747
  0.8346587265602764  0.5418054961179203  0.3990524670840837
  0.8347711631307336  0.6670756317083454  0.3995783410891991
  0.8339357370942231  0.7917719737258514  0.4000327223250941
  0.8329417636278177  0.9158179771994690  0.3999255761319509
  0.9584429899943400  0.0417745234295811  0.3996298596496620
  0.9576735074056246  0.1660563812735776  0.3995450838407300
  0.9573346650142148  0.2909847061316260  0.3993182880055282
  0.9574755161286529  0.4162275862271432  0.3991230908790206
  0.9583686773546567  0.5417743951159405  0.3991137653088838
  0.9591071182001665  0.6673326121190393  0.3992703702771226
  0.9592411852060918  0.7926418363442748  0.3994736797566056
  0.9590489006213291  0.9174911217903573  0.3996113825988295
  0.4093651153275001  0.5807807947537917  0.4068183665647743
  0.5463820500348076  0.5807789965325761  0.4067098054179077
  0.3286020713203645  0.4192473918838944  0.4068396906772056
  0.4656149302839204  0.4192513274889789  0.4067328378324205
 
  0.00000000E+00  0.00000000E+00  0.00000000E+00
  0.00000000E+00  0.00000000E+00  0.00000000E+00
  0.00000000E+00  0.00000000E+00  0.00000000E+00
  0.00000000E+00  0.00000000E+00  0.00000000E+00
  0.00000000E+00  0.00000000E+00  0.00000000E+00
  0.00000000E+00  0.00000000E+00  0.00000000E+00
  0.00000000E+00  0.00000000E+00  0.00000000E+00
  0.00000000E+00  0.00000000E+00  0.00000000E+00
  0.00000000E+00  0.00000000E+00  0.00000000E+00
  0.00000000E+00  0.00000000E+00  0.00000000E+00
  0.00000000E+00  0.00000000E+00  0.00000000E+00
  0.00000000E+00  0.00000000E+00  0.00000000E+00
  0.00000000E+00  0.00000000E+00  0.00000000E+00
  0.00000000E+00  0.00000000E+00  0.00000000E+00
  0.00000000E+00  0.00000000E+00  0.00000000E+00
  0.00000000E+00  0.00000000E+00  0.00000000E+00
  0.00000000E+00  0.00000000E+00  0.00000000E+00
  0.00000000E+00  0.00000000E+00  0.00000000E+00
  0.00000000E+00  0.00000000E+00  0.00000000E+00
  0.00000000E+00  0.00000000E+00  0.00000000E+00
  0.00000000E+00  0.00000000E+00  0.00000000E+00
  0.00000000E+00  0.00000000E+00  0.00000000E+00
  0.00000000E+00  0.00000000E+00  0.00000000E+00
  0.00000000E+00  0.00000000E+00  0.00000000E+00
  0.00000000E+00  0.00000000E+00  0.00000000E+00
  0.00000000E+00  0.00000000E+00  0.00000000E+00
  0.00000000E+00  0.00000000E+00  0.00000000E+00
  0.00000000E+00  0.00000000E+00  0.00000000E+00
  0.00000000E+00  0.00000000E+00  0.00000000E+00
  0.00000000E+00  0.00000000E+00  0.00000000E+00
  0.00000000E+00  0.00000000E+00  0.00000000E+00
  0.00000000E+00  0.00000000E+00  0.00000000E+00
  0.00000000E+00  0.00000000E+00  0.00000000E+00
  0.00000000E+00  0.00000000E+00  0.00000000E+00
  0.00000000E+00  0.00000000E+00  0.00000000E+00
  0.00000000E+00  0.00000000E+00  0.00000000E+00
  0.00000000E+00  0.00000000E+00  0.00000000E+00
  0.00000000E+00  0.00000000E+00  0.00000000E+00
  0.00000000E+00  0.00000000E+00  0.00000000E+00
  0.00000000E+00  0.00000000E+00  0.00000000E+00
  0.00000000E+00  0.00000000E+00  0.00000000E+00
  0.00000000E+00  0.00000000E+00  0.00000000E+00
  0.00000000E+00  0.00000000E+00  0.00000000E+00
  0.00000000E+00  0.00000000E+00  0.00000000E+00
  0.00000000E+00  0.00000000E+00  0.00000000E+00
  0.00000000E+00  0.00000000E+00  0.00000000E+00
  0.00000000E+00  0.00000000E+00  0.00000000E+00
  0.00000000E+00  0.00000000E+00  0.00000000E+00
  0.00000000E+00  0.00000000E+00  0.00000000E+00
  0.00000000E+00  0.00000000E+00  0.00000000E+00
  0.00000000E+00  0.00000000E+00  0.00000000E+00
  0.00000000E+00  0.00000000E+00  0.00000000E+00
  0.00000000E+00  0.00000000E+00  0.00000000E+00
  0.00000000E+00  0.00000000E+00  0.00000000E+00
  0.00000000E+00  0.00000000E+00  0.00000000E+00
  0.00000000E+00  0.00000000E+00  0.00000000E+00
  0.00000000E+00  0.00000000E+00  0.00000000E+00
  0.00000000E+00  0.00000000E+00  0.00000000E+00
  0.00000000E+00  0.00000000E+00  0.00000000E+00
  0.00000000E+00  0.00000000E+00  0.00000000E+00
  0.00000000E+00  0.00000000E+00  0.00000000E+00
  0.00000000E+00  0.00000000E+00  0.00000000E+00
  0.00000000E+00  0.00000000E+00  0.00000000E+00
  0.00000000E+00  0.00000000E+00  0.00000000E+00
  0.00000000E+00  0.00000000E+00  0.00000000E+00
  0.00000000E+00  0.00000000E+00  0.00000000E+00
  0.00000000E+00  0.00000000E+00  0.00000000E+00
  0.00000000E+00  0.00000000E+00  0.00000000E+00
  0.00000000E+00  0.00000000E+00  0.00000000E+00
  0.00000000E+00  0.00000000E+00  0.00000000E+00
  0.00000000E+00  0.00000000E+00  0.00000000E+00
  0.00000000E+00  0.00000000E+00  0.00000000E+00
  0.00000000E+00  0.00000000E+00  0.00000000E+00
  0.00000000E+00  0.00000000E+00  0.00000000E+00
  0.00000000E+00  0.00000000E+00  0.00000000E+00
  0.00000000E+00  0.00000000E+00  0.00000000E+00
  0.00000000E+00  0.00000000E+00  0.00000000E+00
  0.00000000E+00  0.00000000E+00  0.00000000E+00
  0.00000000E+00  0.00000000E+00  0.00000000E+00
  0.00000000E+00  0.00000000E+00  0.00000000E+00
  0.00000000E+00  0.00000000E+00  0.00000000E+00
  0.00000000E+00  0.00000000E+00  0.00000000E+00
  0.00000000E+00  0.00000000E+00  0.00000000E+00
  0.00000000E+00  0.00000000E+00  0.00000000E+00
  0.00000000E+00  0.00000000E+00  0.00000000E+00
  0.00000000E+00  0.00000000E+00  0.00000000E+00
  0.00000000E+00  0.00000000E+00  0.00000000E+00
  0.00000000E+00  0.00000000E+00  0.00000000E+00
  0.00000000E+00  0.00000000E+00  0.00000000E+00
  0.00000000E+00  0.00000000E+00  0.00000000E+00
  0.00000000E+00  0.00000000E+00  0.00000000E+00
  0.00000000E+00  0.00000000E+00  0.00000000E+00
  0.00000000E+00  0.00000000E+00  0.00000000E+00
  0.00000000E+00  0.00000000E+00  0.00000000E+00
  0.00000000E+00  0.00000000E+00  0.00000000E+00
  0.00000000E+00  0.00000000E+00  0.00000000E+00
  0.00000000E+00  0.00000000E+00  0.00000000E+00
  0.00000000E+00  0.00000000E+00  0.00000000E+00
  0.00000000E+00  0.00000000E+00  0.00000000E+00
  0.00000000E+00  0.00000000E+00  0.00000000E+00
  0.00000000E+00  0.00000000E+00  0.00000000E+00
  0.00000000E+00  0.00000000E+00  0.00000000E+00
  0.00000000E+00  0.00000000E+00  0.00000000E+00
  0.00000000E+00  0.00000000E+00  0.00000000E+00
  0.00000000E+00  0.00000000E+00  0.00000000E+00
  0.00000000E+00  0.00000000E+00  0.00000000E+00
  0.00000000E+00  0.00000000E+00  0.00000000E+00
  0.00000000E+00  0.00000000E+00  0.00000000E+00
  0.00000000E+00  0.00000000E+00  0.00000000E+00
  0.00000000E+00  0.00000000E+00  0.00000000E+00
  0.00000000E+00  0.00000000E+00  0.00000000E+00
  0.00000000E+00  0.00000000E+00  0.00000000E+00
  0.00000000E+00  0.00000000E+00  0.00000000E+00
  0.00000000E+00  0.00000000E+00  0.00000000E+00
  0.00000000E+00  0.00000000E+00  0.00000000E+00
  0.00000000E+00  0.00000000E+00  0.00000000E+00
  0.00000000E+00  0.00000000E+00  0.00000000E+00
  0.00000000E+00  0.00000000E+00  0.00000000E+00
  0.00000000E+00  0.00000000E+00  0.00000000E+00
  0.00000000E+00  0.00000000E+00  0.00000000E+00
  0.00000000E+00  0.00000000E+00  0.00000000E+00
  0.00000000E+00  0.00000000E+00  0.00000000E+00
  0.00000000E+00  0.00000000E+00  0.00000000E+00
  0.00000000E+00  0.00000000E+00  0.00000000E+00
  0.00000000E+00  0.00000000E+00  0.00000000E+00
  0.00000000E+00  0.00000000E+00  0.00000000E+00
  0.00000000E+00  0.00000000E+00  0.00000000E+00
  0.00000000E+00  0.00000000E+00  0.00000000E+00
