Hf1 H1 C123 N3 O1                       
   1.00000000000000     
    19.8107941512639734    0.0076527229782687   -0.0627512615566065
    -9.8986611073300690   17.0445958962124067   -0.1541185740579492
    -0.0941325661134986   -0.3239814112308695   29.7969469585906310
   Hf   H    C    N    O 
     1     1   123     3     1
Direct
  0.4384299191717749  0.5042941742790104  0.4352331991608447
  0.4752720916430013  0.5368086105328354  0.5294498517393081
  0.0418683403503858  0.0839132403623390  0.3995949609964129
  0.0410877668334441  0.2081848958861469  0.3996114446805503
  0.0405008178243425  0.3330774951809261  0.3994201824341987
  0.0406505319786612  0.4582852568591308  0.3993385551565990
  0.0415047746090917  0.5837502373177391  0.3998957297906871
  0.0422297264127845  0.7091333789794759  0.4001305584906847
  0.0424347653595860  0.8342804036944671  0.3999667548249003
  0.0423654156291685  0.9593461960778267  0.3997173565868559
  0.1675918243485210  0.0849684781745179  0.3998528755445341
  0.1670632584705365  0.2096440768000881  0.4002347873317327
  0.1651665410467384  0.3335584005865598  0.4005205721193323
  0.1644690943630862  0.4584410371478225  0.3991076000606145
  0.1653948506912761  0.5836861044860195  0.3988851490492467
  0.1665364965667401  0.7088848319360210  0.3996660773990704
  0.1671253461890117  0.8342192125090705  0.3999790680659348
  0.1673817885988219  0.9596433680732381  0.3997278493281321
  0.2924608073231284  0.0853304722304155  0.3998266083143378
  0.2929701286426657  0.2119301595302257  0.4014644136308800
  0.2916154484789942  0.3368870269249160  0.4036949424175377
  0.2879653892703269  0.4579403415084439  0.4019201977067953
  0.2888440476313911  0.5829650431670120  0.3989120907628794
  0.2909029955256812  0.7083154105206642  0.3988594986697215
  0.2918004080573718  0.8338287400544120  0.3996831518390807
  0.2921592366015612  0.9593644198296533  0.3997929355916491
  0.4170666406391750  0.0840391492813310  0.3995288284130903
  0.4176065727925303  0.2099588679780905  0.3997525271500705
  0.4196773227849279  0.3374890464201148  0.4030584704936125
  0.4152558201892255  0.7067202572612351  0.3985948831696815
  0.4163654011010837  0.8325519499845905  0.3991499379539849
  0.4168392627758942  0.9583481863882380  0.3998017377520717
  0.5417070866570554  0.0828823431704722  0.3997716889443451
  0.5421566807921083  0.2084889703064718  0.3991787258838022
  0.5431563117703981  0.3340575605654865  0.3994288630553234
  0.5459908773879526  0.4592964919876742  0.4015750047433264
  0.5391537707826899  0.7029490480159214  0.4003837014891432
  0.5409686917939556  0.8309404008349318  0.3992913024515792
  0.5414056454041271  0.9571564310082461  0.3997805075467949
  0.6663880097538930  0.0824656008671146  0.4000978529972535
  0.6666903980737707  0.2077803408684257  0.3995442766273239
  0.6674705215634140  0.3331271347717685  0.3989162339298061
  0.6693820205575012  0.4586735421306415  0.3985947696578400
  0.6703508841115540  0.5841506099897346  0.3990837544034972
  0.6672047311882645  0.7072018161621925  0.3992199491837162
  0.6652721112253795  0.8311006557343866  0.3994547755576635
  0.6659896290982302  0.9569278825853796  0.3998626120273524
  0.7910869596246703  0.0824259031986398  0.4000622563098498
  0.7913158627800893  0.2076927853226084  0.3999674735252959
  0.7918342473892038  0.3329916976904319  0.3996223328572572
  0.7928545155320419  0.4583741234801900  0.3991073076961124
  0.7936591829016443  0.5838156405007493  0.3987953520004622
  0.7933070096221506  0.7089957358551522  0.3990545723180718
  0.7915970238013720  0.8328929938955939  0.3992887621387505
  0.7908960239643105  0.9572386232188204  0.3997535295453142
  0.9161747003692179  0.0828588251285936  0.3997803715793318
  0.9159775015101717  0.2077313845291702  0.3997730645697040
  0.9161296119915266  0.3329560360112812  0.3998109997333760
  0.9167901836231926  0.4584049619693334  0.3999744075676655
  0.9175678461754297  0.5838228593130675  0.3998278406942224
  0.9177386261407015  0.7090173034418216  0.3996749936888059
  0.9174896203291728  0.8340784868020430  0.3997196601146015
  0.9167583449281239  0.9584425519168064  0.3997691318149104
  0.0841101480462190  0.0428757328717429  0.3996230995862938
  0.0834982125061031  0.1674263602715357  0.3996518378187930
  0.0823990310883594  0.2916586232319119  0.3997262310832691
  0.0816848659593623  0.4163591435139364  0.3991016982428991
  0.0824770124800853  0.5418378192398621  0.3993357324645001
  0.0834265847829827  0.6672406107017305  0.3999774548092678
  0.0838879242281138  0.7925293754838125  0.4000742774347324
  0.0840747530641927  0.9177626565474915  0.3997802023206751
  0.2090620583800590  0.0431933147748006  0.3997854229303154
  0.2093884461115804  0.1687792232309172  0.4005228385139771
  0.2082683948398869  0.2932277994783937  0.4011326180712707
  0.2057514849373851  0.4169520276991583  0.4003325471973103
  0.2060699891428438  0.5415567420321198  0.3988070571480297
  0.2075818814310374  0.6669701590085317  0.3990857377384759
  0.2085288120098831  0.7924102897980578  0.3998347414689415
  0.2088801504064720  0.9177345180855951  0.3998360980952156
  0.3338367110024930  0.0430410584498583  0.3996507324658651
  0.3341487937107129  0.1691233087526979  0.4003525644175819
  0.3349137592157148  0.2962594705670547  0.4034528406184066
  0.3299450649740019  0.5418108221024465  0.4000564886262244
  0.3317625236389269  0.6662909722731194  0.3986079908204690
  0.3331443088479106  0.7917670984694931  0.3992105878336850
  0.3335591370745510  0.9172865116685114  0.3998260355601539
  0.4584775047718732  0.0418194782476877  0.3997308844884342
  0.4587979846078224  0.1675756081748504  0.3993344751494898
  0.4597174113245903  0.2935497777527300  0.4001424939420757
  0.4641392049805543  0.4200054838483953  0.4056094061308099
  0.4547809334764362  0.6626801464848137  0.3997902279242783
  0.4576413126231542  0.7901761525546791  0.3988312870582935
  0.4581808633995884  0.9161486747175531  0.3996167808934097
  0.5830993487342401  0.0408018767198053  0.3999876077811811
  0.5834837736346289  0.1663995298948858  0.3994497068945217
  0.5842117890835566  0.2918001046189897  0.3990143159372811
  0.5866376091665902  0.4174471230125052  0.3993976246037286
  0.5888338682661575  0.5435553473356737  0.4009522820914724
  0.5836318615364249  0.6629576609751046  0.4008777810062846
  0.5815444787071534  0.7878670537554489  0.3996215906385132
  0.5827646141534539  0.9148839412220453  0.3996386755897103
  0.7078015636190361  0.0405856846478021  0.4000958415687745
  0.7081220986547208  0.1659571493027361  0.3999345285110573
  0.7086336475045458  0.2912830075236523  0.3993002226384021
  0.7099767778028295  0.4165779577843404  0.3986716005644023
  0.7111065363357261  0.5418733078946414  0.3985842506850525
  0.7105303572736579  0.6672688144475738  0.3990362391490171
  0.7080577388377918  0.7906446989417620  0.3990961471370342
  0.7073025957502748  0.9149764183863933  0.3996686098049123
  0.8327569886103314  0.0408622093013405  0.3999194637937533
  0.8328237727084182  0.1659727521714694  0.3999942733637765
  0.8330486407018176  0.2911081635972474  0.3998685821569529
  0.8338249906903094  0.4164409690634960  0.3996584284302438
  0.8346977322653243  0.5419079324995283  0.3991958464413560
  0.8348801521999604  0.6672781203475053  0.3991394247031262
  0.8342362563403563  0.7922252653648811  0.3993506528792956
  0.8332336352447840  0.9163590073461644  0.3996421529441355
  0.9584170791980801  0.0418519900524693  0.3997155464803575
  0.9578164871884537  0.1662886725664642  0.3996528302020834
  0.9575566829053528  0.2912480432111574  0.3996291194909112
  0.9577934831616554  0.4164575315047734  0.3998070566063079
  0.9585664918726433  0.5418391916193659  0.4000546842946344
  0.9591790346638551  0.6672653390217076  0.3999445830775275
  0.9592325438940230  0.7925541962100584  0.3998470025454480
  0.9589922990853024  0.9174623195663769  0.3997887595830436
  0.4111619323172965  0.5820841231110682  0.4014347290871153
  0.5475454017729415  0.5827401017811119  0.4035150925277912
  0.3289247725564607  0.4182763326212747  0.4066119876649739
  0.4569332377546996  0.5175478913099811  0.4992954969951696
 
  0.00000000E+00  0.00000000E+00  0.00000000E+00
  0.00000000E+00  0.00000000E+00  0.00000000E+00
  0.00000000E+00  0.00000000E+00  0.00000000E+00
  0.00000000E+00  0.00000000E+00  0.00000000E+00
  0.00000000E+00  0.00000000E+00  0.00000000E+00
  0.00000000E+00  0.00000000E+00  0.00000000E+00
  0.00000000E+00  0.00000000E+00  0.00000000E+00
  0.00000000E+00  0.00000000E+00  0.00000000E+00
  0.00000000E+00  0.00000000E+00  0.00000000E+00
  0.00000000E+00  0.00000000E+00  0.00000000E+00
  0.00000000E+00  0.00000000E+00  0.00000000E+00
  0.00000000E+00  0.00000000E+00  0.00000000E+00
  0.00000000E+00  0.00000000E+00  0.00000000E+00
  0.00000000E+00  0.00000000E+00  0.00000000E+00
  0.00000000E+00  0.00000000E+00  0.00000000E+00
  0.00000000E+00  0.00000000E+00  0.00000000E+00
  0.00000000E+00  0.00000000E+00  0.00000000E+00
  0.00000000E+00  0.00000000E+00  0.00000000E+00
  0.00000000E+00  0.00000000E+00  0.00000000E+00
  0.00000000E+00  0.00000000E+00  0.00000000E+00
  0.00000000E+00  0.00000000E+00  0.00000000E+00
  0.00000000E+00  0.00000000E+00  0.00000000E+00
  0.00000000E+00  0.00000000E+00  0.00000000E+00
  0.00000000E+00  0.00000000E+00  0.00000000E+00
  0.00000000E+00  0.00000000E+00  0.00000000E+00
  0.00000000E+00  0.00000000E+00  0.00000000E+00
  0.00000000E+00  0.00000000E+00  0.00000000E+00
  0.00000000E+00  0.00000000E+00  0.00000000E+00
  0.00000000E+00  0.00000000E+00  0.00000000E+00
  0.00000000E+00  0.00000000E+00  0.00000000E+00
  0.00000000E+00  0.00000000E+00  0.00000000E+00
  0.00000000E+00  0.00000000E+00  0.00000000E+00
  0.00000000E+00  0.00000000E+00  0.00000000E+00
  0.00000000E+00  0.00000000E+00  0.00000000E+00
  0.00000000E+00  0.00000000E+00  0.00000000E+00
  0.00000000E+00  0.00000000E+00  0.00000000E+00
  0.00000000E+00  0.00000000E+00  0.00000000E+00
  0.00000000E+00  0.00000000E+00  0.00000000E+00
  0.00000000E+00  0.00000000E+00  0.00000000E+00
  0.00000000E+00  0.00000000E+00  0.00000000E+00
  0.00000000E+00  0.00000000E+00  0.00000000E+00
  0.00000000E+00  0.00000000E+00  0.00000000E+00
  0.00000000E+00  0.00000000E+00  0.00000000E+00
  0.00000000E+00  0.00000000E+00  0.00000000E+00
  0.00000000E+00  0.00000000E+00  0.00000000E+00
  0.00000000E+00  0.00000000E+00  0.00000000E+00
  0.00000000E+00  0.00000000E+00  0.00000000E+00
  0.00000000E+00  0.00000000E+00  0.00000000E+00
  0.00000000E+00  0.00000000E+00  0.00000000E+00
  0.00000000E+00  0.00000000E+00  0.00000000E+00
  0.00000000E+00  0.00000000E+00  0.00000000E+00
  0.00000000E+00  0.00000000E+00  0.00000000E+00
  0.00000000E+00  0.00000000E+00  0.00000000E+00
  0.00000000E+00  0.00000000E+00  0.00000000E+00
  0.00000000E+00  0.00000000E+00  0.00000000E+00
  0.00000000E+00  0.00000000E+00  0.00000000E+00
  0.00000000E+00  0.00000000E+00  0.00000000E+00
  0.00000000E+00  0.00000000E+00  0.00000000E+00
  0.00000000E+00  0.00000000E+00  0.00000000E+00
  0.00000000E+00  0.00000000E+00  0.00000000E+00
  0.00000000E+00  0.00000000E+00  0.00000000E+00
  0.00000000E+00  0.00000000E+00  0.00000000E+00
  0.00000000E+00  0.00000000E+00  0.00000000E+00
  0.00000000E+00  0.00000000E+00  0.00000000E+00
  0.00000000E+00  0.00000000E+00  0.00000000E+00
  0.00000000E+00  0.00000000E+00  0.00000000E+00
  0.00000000E+00  0.00000000E+00  0.00000000E+00
  0.00000000E+00  0.00000000E+00  0.00000000E+00
  0.00000000E+00  0.00000000E+00  0.00000000E+00
  0.00000000E+00  0.00000000E+00  0.00000000E+00
  0.00000000E+00  0.00000000E+00  0.00000000E+00
  0.00000000E+00  0.00000000E+00  0.00000000E+00
  0.00000000E+00  0.00000000E+00  0.00000000E+00
  0.00000000E+00  0.00000000E+00  0.00000000E+00
  0.00000000E+00  0.00000000E+00  0.00000000E+00
  0.00000000E+00  0.00000000E+00  0.00000000E+00
  0.00000000E+00  0.00000000E+00  0.00000000E+00
  0.00000000E+00  0.00000000E+00  0.00000000E+00
  0.00000000E+00  0.00000000E+00  0.00000000E+00
  0.00000000E+00  0.00000000E+00  0.00000000E+00
  0.00000000E+00  0.00000000E+00  0.00000000E+00
  0.00000000E+00  0.00000000E+00  0.00000000E+00
  0.00000000E+00  0.00000000E+00  0.00000000E+00
  0.00000000E+00  0.00000000E+00  0.00000000E+00
  0.00000000E+00  0.00000000E+00  0.00000000E+00
  0.00000000E+00  0.00000000E+00  0.00000000E+00
  0.00000000E+00  0.00000000E+00  0.00000000E+00
  0.00000000E+00  0.00000000E+00  0.00000000E+00
  0.00000000E+00  0.00000000E+00  0.00000000E+00
  0.00000000E+00  0.00000000E+00  0.00000000E+00
  0.00000000E+00  0.00000000E+00  0.00000000E+00
  0.00000000E+00  0.00000000E+00  0.00000000E+00
  0.00000000E+00  0.00000000E+00  0.00000000E+00
  0.00000000E+00  0.00000000E+00  0.00000000E+00
  0.00000000E+00  0.00000000E+00  0.00000000E+00
  0.00000000E+00  0.00000000E+00  0.00000000E+00
  0.00000000E+00  0.00000000E+00  0.00000000E+00
  0.00000000E+00  0.00000000E+00  0.00000000E+00
  0.00000000E+00  0.00000000E+00  0.00000000E+00
  0.00000000E+00  0.00000000E+00  0.00000000E+00
  0.00000000E+00  0.00000000E+00  0.00000000E+00
  0.00000000E+00  0.00000000E+00  0.00000000E+00
  0.00000000E+00  0.00000000E+00  0.00000000E+00
  0.00000000E+00  0.00000000E+00  0.00000000E+00
  0.00000000E+00  0.00000000E+00  0.00000000E+00
  0.00000000E+00  0.00000000E+00  0.00000000E+00
  0.00000000E+00  0.00000000E+00  0.00000000E+00
  0.00000000E+00  0.00000000E+00  0.00000000E+00
  0.00000000E+00  0.00000000E+00  0.00000000E+00
  0.00000000E+00  0.00000000E+00  0.00000000E+00
  0.00000000E+00  0.00000000E+00  0.00000000E+00
  0.00000000E+00  0.00000000E+00  0.00000000E+00
  0.00000000E+00  0.00000000E+00  0.00000000E+00
  0.00000000E+00  0.00000000E+00  0.00000000E+00
  0.00000000E+00  0.00000000E+00  0.00000000E+00
  0.00000000E+00  0.00000000E+00  0.00000000E+00
  0.00000000E+00  0.00000000E+00  0.00000000E+00
  0.00000000E+00  0.00000000E+00  0.00000000E+00
  0.00000000E+00  0.00000000E+00  0.00000000E+00
  0.00000000E+00  0.00000000E+00  0.00000000E+00
  0.00000000E+00  0.00000000E+00  0.00000000E+00
  0.00000000E+00  0.00000000E+00  0.00000000E+00
  0.00000000E+00  0.00000000E+00  0.00000000E+00
  0.00000000E+00  0.00000000E+00  0.00000000E+00
  0.00000000E+00  0.00000000E+00  0.00000000E+00
  0.00000000E+00  0.00000000E+00  0.00000000E+00
  0.00000000E+00  0.00000000E+00  0.00000000E+00
  0.00000000E+00  0.00000000E+00  0.00000000E+00
  0.00000000E+00  0.00000000E+00  0.00000000E+00
