Sc1 H1 C122 N4 O2                       
   1.00000000000000     
    19.8012219067654378   -0.0009551078913905   -0.1712231034331371
    -9.9018037314007419   17.0362636701738701   -0.0320727387821236
    -0.2577754444966374   -0.2059799988109684   29.8332855098107075
   Sc   H    C    N    O 
     1     1   122     4     2
Direct
  0.4392793905954406  0.5020496089365463  0.4372920299492524
  0.5392269665709976  0.5579078644931272  0.5139836656086623
  0.0422529100964577  0.0841521609095208  0.3995919415951199
  0.0414381903859850  0.2083898361058351  0.3994048502206127
  0.0406628288941983  0.3331101286143326  0.3992217884868595
  0.0407353488632694  0.4582606979209303  0.3992864787877651
  0.0415208293620999  0.5837613533175167  0.3998576349438985
  0.0422384078135530  0.7091847810742484  0.4000598867774149
  0.0424837260118395  0.8343872454800197  0.4000172091868933
  0.0426047227435686  0.9595852544433113  0.3999262815525143
  0.1682663044851440  0.0856919977854102  0.3998649741485509
  0.1676594036957138  0.2102001137537542  0.3998991734238097
  0.1656094182712473  0.3338262167079254  0.3999632949452149
  0.1646601224286333  0.4585592682668401  0.3989908125572296
  0.1654310864245344  0.5836803921182458  0.3989378596886781
  0.1665614758441837  0.7089628387856935  0.3996932829958401
  0.1671804885258263  0.8343949375981096  0.3999876648586739
  0.1675971738226200  0.9599284404408505  0.3998977325998451
  0.2927126139673915  0.0856773521875693  0.3998601431739281
  0.2942388503571549  0.2130906650834995  0.4013152640614738
  0.2926311760896141  0.3384730553085397  0.4035472612194459
  0.2885388780758733  0.4579671494343879  0.4026984191757680
  0.2890738385209418  0.5830345637581322  0.3998250802163162
  0.2908793919556504  0.7084678470529702  0.3992314167760139
  0.2918109452302198  0.8339540796129650  0.3997427066315349
  0.2922671611659126  0.9595701119807050  0.3998887305867102
  0.4171923383595635  0.0841281781842080  0.3995999174396344
  0.4178381658701707  0.2101894892440835  0.3997972009592698
  0.4214215702179440  0.3385646548944783  0.4032380717067446
  0.4150979406278940  0.7066388619196797  0.4000667728164312
  0.4163379709633522  0.8325406877456448  0.3993939273178639
  0.4168564194381509  0.9583808164930737  0.3998350078619957
  0.5417634993570464  0.0827677756122440  0.3998951542072842
  0.5422395913947353  0.2083721094963777  0.3994478221119750
  0.5435080976398415  0.3337874884549197  0.3996723893810874
  0.5447149929725897  0.4578665447940055  0.4019464589067998
  0.5389429969502118  0.7025244540261887  0.4023407628970183
  0.5408358933298614  0.8306589331302884  0.4000812242362970
  0.5413716364747478  0.9569447934681012  0.3998257178304002
  0.6663950759123997  0.0822389258891160  0.4000386230094798
  0.6667937255550513  0.2076518005313658  0.3999028964050203
  0.6677073189373403  0.3331012553765537  0.3993219828486822
  0.6691167876680967  0.4585366830762782  0.3987864630839999
  0.6691645750383151  0.5829966513408030  0.3992830240799017
  0.6667772079561998  0.7066107964941674  0.3997818075776692
  0.6651011039955953  0.8306859289214961  0.4000474788374229
  0.6659522119871977  0.9566229900964146  0.3999423372261232
  0.7911445503000478  0.0822420151897824  0.4000184133436196
  0.7914316169732313  0.2075538929185728  0.3999662982731540
  0.7919646882725377  0.3328893123499078  0.3999795921355760
  0.7927831712193425  0.4582555892627063  0.3994534383339831
  0.7934274284975062  0.5836380413085710  0.3990214450142159
  0.7928289464930613  0.7084610256169229  0.3992333354419696
  0.7914468109621778  0.8325351840507654  0.3994447513267802
  0.7908704736388423  0.9569715424020762  0.3998144912082781
  0.9163408410293032  0.0827889533625009  0.3998512036694136
  0.9161624683262879  0.2076505175143887  0.3998311053520705
  0.9162453777921904  0.3328849024424647  0.3998986968180033
  0.9168378029929601  0.4583293147792440  0.4000584317979979
  0.9175101665522318  0.5837349275847615  0.3999708112808770
  0.9176429901617833  0.7089205253789507  0.3998003362950042
  0.9174166586593541  0.8339373350848666  0.3998430508340221
  0.9168445545699119  0.9583886502517120  0.3998692135446892
  0.0845818069713311  0.0432782645232530  0.3997295172527440
  0.0840062926850657  0.1677011030984157  0.3994202077760444
  0.0825921988758065  0.2917368408076920  0.3993247337344654
  0.0818682611779774  0.4164609113872738  0.3989335438395084
  0.0825278875061607  0.5418708443985232  0.3993025886860242
  0.0834157033185598  0.6672732019581424  0.3999388311051343
  0.0839477826131153  0.7926172430355666  0.3999895105497545
  0.0842580500096334  0.9179591463356087  0.3999741561286028
  0.2094388275991402  0.0435920430670616  0.3998752092502688
  0.2103864176289311  0.1696320873987921  0.4003387269417930
  0.2087435363068178  0.2937116846460670  0.4006473913045870
  0.2062428665756086  0.4172345125008004  0.4000962687378355
  0.2061651591353864  0.5416099928568823  0.3989524100274348
  0.2075911616882852  0.6670519877005050  0.3992348566930380
  0.2085673044807001  0.7925379157219732  0.3998720052925470
  0.2089742637598222  0.9179565208159300  0.3999594177121602
  0.3339821210122271  0.0432645739622431  0.3997258877310891
  0.3345662261495822  0.1696156942976972  0.4003011023711416
  0.3367201437091027  0.2979543494275393  0.4033503349435241
  0.3307612202993166  0.5424708937413907  0.4023158111436983
  0.3318336561752528  0.6664270612093579  0.3996109027383388
  0.3330848808384418  0.7918207384046860  0.3994029606657483
  0.3336139156805655  0.9174340613732752  0.3998711708662752
  0.4585303069145616  0.0418477071753908  0.3998206754043856
  0.4589878198629668  0.1676980041539942  0.3994108200539351
  0.4603197641774268  0.2936985132761098  0.4003662402094751
  0.4543335186685464  0.6620577050781922  0.4025475159563089
  0.4575200736779301  0.7901007947375275  0.3996078861895376
  0.4581691079376141  0.9160960362795081  0.3996707065428441
  0.5831088280291442  0.0406307344212696  0.3999846268416981
  0.5835501443916932  0.1662457366736453  0.3997612740645157
  0.5844336426711078  0.2916964509671944  0.3993080356940590
  0.5862572480254606  0.4171627071089470  0.3995932978246936
  0.5869650829797591  0.5423902930877685  0.4015160851178670
  0.5830374559605020  0.6619415624685743  0.4021867967343847
  0.5813101680952131  0.7873041924128721  0.4007616103081176
  0.5826726814085544  0.9145645419848192  0.3998890029339892
  0.7077923675581075  0.0402811498935762  0.3999971169198587
  0.7081956033496870  0.1657908112318018  0.4000081216577991
  0.7087976899101378  0.2912131984310097  0.3997682114959946
  0.7098504337204067  0.4164627801426847  0.3990267979765627
  0.7106526989095614  0.5415712030960371  0.3987431959796537
  0.7098407150668659  0.6664187943543851  0.3993063494787081
  0.7078187094071837  0.7901016265528972  0.3995518709160641
  0.7071953529912616  0.9145917437235972  0.3998651636387644
  0.8328593503390904  0.0406539398163216  0.3999538275601828
  0.8329157577461725  0.1657937370741918  0.3999807024993946
  0.8331601130062071  0.2909755093828477  0.4000195833319057
  0.8338599525395991  0.4163979207694971  0.3999522502963793
  0.8345976110196066  0.5418487014522193  0.3994709836551702
  0.8346934484717424  0.6670300705728978  0.3993240262980595
  0.8340043009392031  0.7918318224828268  0.3994888731085267
  0.8332409311204860  0.9161204253991000  0.3997126037500030
  0.9586611205543851  0.0418547383549573  0.3997983341870655
  0.9580195719116480  0.1662546960705872  0.3996856857792813
  0.9577282594680906  0.2912050248360907  0.3996445652052775
  0.9578587201029359  0.4163828285907226  0.3998430738333167
  0.9585755651867518  0.5418116663758653  0.4000659382272889
  0.9591508777360784  0.6672497547163333  0.4000107851846998
  0.9592440807617109  0.7925143213807695  0.3999446812405096
  0.9591338198484961  0.9174384577646086  0.3999348550700663
  0.4109968099844317  0.5822515283838912  0.4054832303226335
  0.5466583744033898  0.5821040002094263  0.4048291111894615
  0.3291622340123729  0.4184804125589397  0.4065347086808179
  0.4649700806935440  0.4184837270319762  0.4058747346927707
  0.5002756691842067  0.5065276182262366  0.5017930669399452
  0.4276949357741594  0.5123386287705562  0.5031701919375056
 
  0.00000000E+00  0.00000000E+00  0.00000000E+00
  0.00000000E+00  0.00000000E+00  0.00000000E+00
  0.00000000E+00  0.00000000E+00  0.00000000E+00
  0.00000000E+00  0.00000000E+00  0.00000000E+00
  0.00000000E+00  0.00000000E+00  0.00000000E+00
  0.00000000E+00  0.00000000E+00  0.00000000E+00
  0.00000000E+00  0.00000000E+00  0.00000000E+00
  0.00000000E+00  0.00000000E+00  0.00000000E+00
  0.00000000E+00  0.00000000E+00  0.00000000E+00
  0.00000000E+00  0.00000000E+00  0.00000000E+00
  0.00000000E+00  0.00000000E+00  0.00000000E+00
  0.00000000E+00  0.00000000E+00  0.00000000E+00
  0.00000000E+00  0.00000000E+00  0.00000000E+00
  0.00000000E+00  0.00000000E+00  0.00000000E+00
  0.00000000E+00  0.00000000E+00  0.00000000E+00
  0.00000000E+00  0.00000000E+00  0.00000000E+00
  0.00000000E+00  0.00000000E+00  0.00000000E+00
  0.00000000E+00  0.00000000E+00  0.00000000E+00
  0.00000000E+00  0.00000000E+00  0.00000000E+00
  0.00000000E+00  0.00000000E+00  0.00000000E+00
  0.00000000E+00  0.00000000E+00  0.00000000E+00
  0.00000000E+00  0.00000000E+00  0.00000000E+00
  0.00000000E+00  0.00000000E+00  0.00000000E+00
  0.00000000E+00  0.00000000E+00  0.00000000E+00
  0.00000000E+00  0.00000000E+00  0.00000000E+00
  0.00000000E+00  0.00000000E+00  0.00000000E+00
  0.00000000E+00  0.00000000E+00  0.00000000E+00
  0.00000000E+00  0.00000000E+00  0.00000000E+00
  0.00000000E+00  0.00000000E+00  0.00000000E+00
  0.00000000E+00  0.00000000E+00  0.00000000E+00
  0.00000000E+00  0.00000000E+00  0.00000000E+00
  0.00000000E+00  0.00000000E+00  0.00000000E+00
  0.00000000E+00  0.00000000E+00  0.00000000E+00
  0.00000000E+00  0.00000000E+00  0.00000000E+00
  0.00000000E+00  0.00000000E+00  0.00000000E+00
  0.00000000E+00  0.00000000E+00  0.00000000E+00
  0.00000000E+00  0.00000000E+00  0.00000000E+00
  0.00000000E+00  0.00000000E+00  0.00000000E+00
  0.00000000E+00  0.00000000E+00  0.00000000E+00
  0.00000000E+00  0.00000000E+00  0.00000000E+00
  0.00000000E+00  0.00000000E+00  0.00000000E+00
  0.00000000E+00  0.00000000E+00  0.00000000E+00
  0.00000000E+00  0.00000000E+00  0.00000000E+00
  0.00000000E+00  0.00000000E+00  0.00000000E+00
  0.00000000E+00  0.00000000E+00  0.00000000E+00
  0.00000000E+00  0.00000000E+00  0.00000000E+00
  0.00000000E+00  0.00000000E+00  0.00000000E+00
  0.00000000E+00  0.00000000E+00  0.00000000E+00
  0.00000000E+00  0.00000000E+00  0.00000000E+00
  0.00000000E+00  0.00000000E+00  0.00000000E+00
  0.00000000E+00  0.00000000E+00  0.00000000E+00
  0.00000000E+00  0.00000000E+00  0.00000000E+00
  0.00000000E+00  0.00000000E+00  0.00000000E+00
  0.00000000E+00  0.00000000E+00  0.00000000E+00
  0.00000000E+00  0.00000000E+00  0.00000000E+00
  0.00000000E+00  0.00000000E+00  0.00000000E+00
  0.00000000E+00  0.00000000E+00  0.00000000E+00
  0.00000000E+00  0.00000000E+00  0.00000000E+00
  0.00000000E+00  0.00000000E+00  0.00000000E+00
  0.00000000E+00  0.00000000E+00  0.00000000E+00
  0.00000000E+00  0.00000000E+00  0.00000000E+00
  0.00000000E+00  0.00000000E+00  0.00000000E+00
  0.00000000E+00  0.00000000E+00  0.00000000E+00
  0.00000000E+00  0.00000000E+00  0.00000000E+00
  0.00000000E+00  0.00000000E+00  0.00000000E+00
  0.00000000E+00  0.00000000E+00  0.00000000E+00
  0.00000000E+00  0.00000000E+00  0.00000000E+00
  0.00000000E+00  0.00000000E+00  0.00000000E+00
  0.00000000E+00  0.00000000E+00  0.00000000E+00
  0.00000000E+00  0.00000000E+00  0.00000000E+00
  0.00000000E+00  0.00000000E+00  0.00000000E+00
  0.00000000E+00  0.00000000E+00  0.00000000E+00
  0.00000000E+00  0.00000000E+00  0.00000000E+00
  0.00000000E+00  0.00000000E+00  0.00000000E+00
  0.00000000E+00  0.00000000E+00  0.00000000E+00
  0.00000000E+00  0.00000000E+00  0.00000000E+00
  0.00000000E+00  0.00000000E+00  0.00000000E+00
  0.00000000E+00  0.00000000E+00  0.00000000E+00
  0.00000000E+00  0.00000000E+00  0.00000000E+00
  0.00000000E+00  0.00000000E+00  0.00000000E+00
  0.00000000E+00  0.00000000E+00  0.00000000E+00
  0.00000000E+00  0.00000000E+00  0.00000000E+00
  0.00000000E+00  0.00000000E+00  0.00000000E+00
  0.00000000E+00  0.00000000E+00  0.00000000E+00
  0.00000000E+00  0.00000000E+00  0.00000000E+00
  0.00000000E+00  0.00000000E+00  0.00000000E+00
  0.00000000E+00  0.00000000E+00  0.00000000E+00
  0.00000000E+00  0.00000000E+00  0.00000000E+00
  0.00000000E+00  0.00000000E+00  0.00000000E+00
  0.00000000E+00  0.00000000E+00  0.00000000E+00
  0.00000000E+00  0.00000000E+00  0.00000000E+00
  0.00000000E+00  0.00000000E+00  0.00000000E+00
  0.00000000E+00  0.00000000E+00  0.00000000E+00
  0.00000000E+00  0.00000000E+00  0.00000000E+00
  0.00000000E+00  0.00000000E+00  0.00000000E+00
  0.00000000E+00  0.00000000E+00  0.00000000E+00
  0.00000000E+00  0.00000000E+00  0.00000000E+00
  0.00000000E+00  0.00000000E+00  0.00000000E+00
  0.00000000E+00  0.00000000E+00  0.00000000E+00
  0.00000000E+00  0.00000000E+00  0.00000000E+00
  0.00000000E+00  0.00000000E+00  0.00000000E+00
  0.00000000E+00  0.00000000E+00  0.00000000E+00
  0.00000000E+00  0.00000000E+00  0.00000000E+00
  0.00000000E+00  0.00000000E+00  0.00000000E+00
  0.00000000E+00  0.00000000E+00  0.00000000E+00
  0.00000000E+00  0.00000000E+00  0.00000000E+00
  0.00000000E+00  0.00000000E+00  0.00000000E+00
  0.00000000E+00  0.00000000E+00  0.00000000E+00
  0.00000000E+00  0.00000000E+00  0.00000000E+00
  0.00000000E+00  0.00000000E+00  0.00000000E+00
  0.00000000E+00  0.00000000E+00  0.00000000E+00
  0.00000000E+00  0.00000000E+00  0.00000000E+00
  0.00000000E+00  0.00000000E+00  0.00000000E+00
  0.00000000E+00  0.00000000E+00  0.00000000E+00
  0.00000000E+00  0.00000000E+00  0.00000000E+00
  0.00000000E+00  0.00000000E+00  0.00000000E+00
  0.00000000E+00  0.00000000E+00  0.00000000E+00
  0.00000000E+00  0.00000000E+00  0.00000000E+00
  0.00000000E+00  0.00000000E+00  0.00000000E+00
  0.00000000E+00  0.00000000E+00  0.00000000E+00
  0.00000000E+00  0.00000000E+00  0.00000000E+00
  0.00000000E+00  0.00000000E+00  0.00000000E+00
  0.00000000E+00  0.00000000E+00  0.00000000E+00
  0.00000000E+00  0.00000000E+00  0.00000000E+00
  0.00000000E+00  0.00000000E+00  0.00000000E+00
  0.00000000E+00  0.00000000E+00  0.00000000E+00
  0.00000000E+00  0.00000000E+00  0.00000000E+00
  0.00000000E+00  0.00000000E+00  0.00000000E+00
  0.00000000E+00  0.00000000E+00  0.00000000E+00
  0.00000000E+00  0.00000000E+00  0.00000000E+00
