Zr1 C122 N4 O1                          
   1.00000000000000     
    19.8031686602777945   -0.0002513907421668   -0.0641725025333801
    -9.9018065174121315   17.0423936729655559   -0.0894660499195845
    -0.0964779928682439   -0.2123411558643866   29.8171846217109895
   Zr   C    N    O 
     1   122     4     1
Direct
  0.4394558399321751  0.5015999354443593  0.4399353186888789
  0.0420518822768902  0.0840529204288907  0.3995547070226050
  0.0412523038697378  0.2083328927236212  0.3993990314046207
  0.0405467771054685  0.3331237912871599  0.3992659441159724
  0.0406505008251845  0.4583397763637915  0.3992754413570065
  0.0414462043552840  0.5838161390594329  0.3997839047050429
  0.0421701251976684  0.7092149763150715  0.4000654297150409
  0.0424026585241878  0.8343850951066900  0.3999922242331694
  0.0424847923353060  0.9595330338821735  0.3997777941076344
  0.1680477101645726  0.0854812034109960  0.3999057155782937
  0.1673546976578191  0.2099431534268774  0.3999392417101448
  0.1654259226580776  0.3337427066827696  0.4000197122974696
  0.1645742162155868  0.4585661547720182  0.3991017623631938
  0.1653964237912326  0.5837654171237415  0.3989383402559750
  0.1664831064338427  0.7089952522373597  0.3996301222147048
  0.1670871874477819  0.8343713502417979  0.3999449498537598
  0.1674756059497038  0.9598269163369164  0.3998486264094218
  0.2925482929317452  0.0854631579342584  0.3999160466484281
  0.2939178082853973  0.2126972043443837  0.4013285873956229
  0.2920349809287335  0.3377850360733148  0.4033080419902718
  0.2883110992494468  0.4579083763819363  0.4025677316415173
  0.2889846212038032  0.5831095471091361  0.3997675749784634
  0.2908060649121795  0.7085326009649450  0.3991664766169010
  0.2917318843451043  0.8339596804705088  0.3996029770125387
  0.2921753363100047  0.9595136558683971  0.3997668706168256
  0.4171275350343237  0.0840213327409650  0.3995911305235454
  0.4176735874284721  0.2099030729740981  0.3997934377777265
  0.4208978438250342  0.3377403911786122  0.4026835421702893
  0.4150866718044003  0.7069093939683727  0.3997200741966190
  0.4162887936759355  0.8326620240134822  0.3992834009225267
  0.4167825335290213  0.9583946986702029  0.3996860733628776
  0.5417328512369742  0.0827948838062915  0.3997491067273335
  0.5421937088259914  0.2083226115714163  0.3994225757816703
  0.5434106670057730  0.3336956220107790  0.3994753476895514
  0.5446845957889277  0.4578628571389448  0.4012386711167995
  0.5390128898171237  0.7029046451847369  0.4019310292839740
  0.5408560386366841  0.8309210995996864  0.3998256819982403
  0.5413419492579989  0.9570722964336527  0.3997155902013046
  0.6663713947637027  0.0823338295028147  0.3999772034918353
  0.6667650195364566  0.2076939657854281  0.3997719278168673
  0.6676888520220208  0.3331406627412516  0.3992926249326028
  0.6690843784098675  0.4585698750654698  0.3986718891853870
  0.6692515819341348  0.5831271558580504  0.3989649578862409
  0.6669329038545768  0.7069624308481696  0.3992934892365168
  0.6651498888570806  0.8309460107652452  0.3997744174181619
  0.6659692483984082  0.9568207530874130  0.3999219544942442
  0.7910981984797392  0.0823416493295452  0.3999519818346514
  0.7913797361223275  0.2076349208827851  0.3999856292914173
  0.7919195612147331  0.3329637248531159  0.3999011638119852
  0.7927684277265443  0.4583563224280536  0.3994331223830411
  0.7934572999214312  0.5837742354135090  0.3989360604947775
  0.7928515271245273  0.7085738709204173  0.3990587475302917
  0.7915115079871433  0.8327080820407392  0.3993271576257532
  0.7908595901422547  0.9571013301225065  0.3997439001132947
  0.9162251824911908  0.0828236862430005  0.3996918810341922
  0.9160460735005526  0.2076988175695189  0.3996663610498853
  0.9161581374655707  0.3329632350089423  0.3997901708920918
  0.9167608766912059  0.4584246113082546  0.3999871416495319
  0.9174580018934689  0.5838260334002446  0.3998957950584172
  0.9176267082177425  0.7090106379675243  0.3997289500179824
  0.9173697138172039  0.8339926758483683  0.3997206197597386
  0.9167817683433072  0.9584341042961568  0.3997523778749258
  0.0843951015872138  0.0431715466938835  0.3996601066389757
  0.0837400386187040  0.1675633220574961  0.3994831981742334
  0.0823818790558851  0.2916793386885299  0.3994084618657188
  0.0817325707636114  0.4164438427785239  0.3990227935898469
  0.0824294628805162  0.5418926649734470  0.3992761817592189
  0.0833279763302468  0.6672909960409328  0.3998765605157759
  0.0838713173443713  0.7926235283913015  0.4000521985863986
  0.0841598067876201  0.9179214185744711  0.3998754586500852
  0.2092772698518780  0.0434243096307143  0.3999100465192095
  0.2100825405119507  0.1693316966733125  0.4004104037666966
  0.2083263158654935  0.2933487417908220  0.4005645794101703
  0.2059939219431878  0.4171407467211509  0.4001566871460728
  0.2060975531410852  0.5416265264470951  0.3989771744428668
  0.2075149001583552  0.6670847658196565  0.3991982404524101
  0.2084724755320689  0.7925345735869499  0.3997725564880067
  0.2088820967000338  0.9179022279716901  0.3998615985377413
  0.3338890341329728  0.0431463969464918  0.3996991918405652
  0.3343523118438422  0.1693142952788189  0.4003623109870377
  0.3363359731522391  0.2974769277220504  0.4031368438352091
  0.3305970174627240  0.5424617061358542  0.4022338083022468
  0.3317749484968998  0.6664798616129397  0.3994568092161775
  0.3330258900049675  0.7918791173506772  0.3993086281212130
  0.3335301229547314  0.9174215817241811  0.3997172985622679
  0.4584902514555748  0.0418312805938507  0.3996854737551914
  0.4589424910327020  0.1675388525500234  0.3994732512746531
  0.4601153498037062  0.2932986456216283  0.4000621338914894
  0.4544294744649433  0.6626137707570362  0.4022461733189587
  0.4575211729655304  0.7902939593608211  0.3993421209348674
  0.4581203894560455  0.9161904239168431  0.3995639290193639
  0.5830849306411956  0.0407155198679345  0.3998590745429089
  0.5835152849631451  0.1662517978637320  0.3996317167928520
  0.5843979429563361  0.2916552598474764  0.3992730136543266
  0.5862372323487226  0.4170898487157329  0.3993141872932054
  0.5869692220086428  0.5424398688212159  0.4009257528958738
  0.5833189619239757  0.6626398021545322  0.4016639768438200
  0.5813425837731113  0.7876005198015527  0.4004201886821301
  0.5826851642885342  0.9147747463884706  0.3997872464411801
  0.7077696186763486  0.0404188788778796  0.3999982467810588
  0.7081512214989633  0.1658720646491431  0.3999618999365200
  0.7087510061397732  0.2912450431486640  0.3996778723531583
  0.7097982768223179  0.4164561172352316  0.3990119362854476
  0.7106213842765984  0.5416347826347094  0.3985759850727990
  0.7098185315318772  0.6665205018124154  0.3989700081071593
  0.7078767344579574  0.7903443112674452  0.3992402508227372
  0.7072047800782520  0.9147903377266197  0.3997749679984453
  0.8327875220750911  0.0407419259441720  0.3998400218287055
  0.8328354617275280  0.1658778178644424  0.3998989334674439
  0.8330908024829049  0.2910510465316468  0.3999746230916814
  0.8337754834255260  0.4164441494932558  0.3998843129350124
  0.8345403603337869  0.5418917746350792  0.3994268400893444
  0.8346599385568552  0.6670947336447169  0.3992213505465974
  0.8339805898963947  0.7919242110436699  0.3993599781796642
  0.8332334974974559  0.9162459727598210  0.3996531860451022
  0.9585168148199935  0.0418643741571088  0.3996679950310845
  0.9578750828989232  0.1662700111423442  0.3995249103777871
  0.9576042843962045  0.2912410682098932  0.3995395875774699
  0.9577603711865733  0.4164438592754225  0.3997461926047142
  0.9584897810267823  0.5418672132042515  0.4000035387470590
  0.9590934055639050  0.6673074782061804  0.3999538207044467
  0.9591899531736126  0.7925613424827710  0.3998607434271964
  0.9590513578794306  0.9174616266158802  0.3997919046634411
  0.4108938958170723  0.5829880387615348  0.4054427513906092
  0.5472333759439811  0.5829452448597343  0.4042291659484415
  0.3281664575118567  0.4175946693539665  0.4062353862830267
  0.4645948090181608  0.4175767615436726  0.4049920593739276
  0.4419789363943079  0.5039246884781676  0.4999013940111209
 
  0.00000000E+00  0.00000000E+00  0.00000000E+00
  0.00000000E+00  0.00000000E+00  0.00000000E+00
  0.00000000E+00  0.00000000E+00  0.00000000E+00
  0.00000000E+00  0.00000000E+00  0.00000000E+00
  0.00000000E+00  0.00000000E+00  0.00000000E+00
  0.00000000E+00  0.00000000E+00  0.00000000E+00
  0.00000000E+00  0.00000000E+00  0.00000000E+00
  0.00000000E+00  0.00000000E+00  0.00000000E+00
  0.00000000E+00  0.00000000E+00  0.00000000E+00
  0.00000000E+00  0.00000000E+00  0.00000000E+00
  0.00000000E+00  0.00000000E+00  0.00000000E+00
  0.00000000E+00  0.00000000E+00  0.00000000E+00
  0.00000000E+00  0.00000000E+00  0.00000000E+00
  0.00000000E+00  0.00000000E+00  0.00000000E+00
  0.00000000E+00  0.00000000E+00  0.00000000E+00
  0.00000000E+00  0.00000000E+00  0.00000000E+00
  0.00000000E+00  0.00000000E+00  0.00000000E+00
  0.00000000E+00  0.00000000E+00  0.00000000E+00
  0.00000000E+00  0.00000000E+00  0.00000000E+00
  0.00000000E+00  0.00000000E+00  0.00000000E+00
  0.00000000E+00  0.00000000E+00  0.00000000E+00
  0.00000000E+00  0.00000000E+00  0.00000000E+00
  0.00000000E+00  0.00000000E+00  0.00000000E+00
  0.00000000E+00  0.00000000E+00  0.00000000E+00
  0.00000000E+00  0.00000000E+00  0.00000000E+00
  0.00000000E+00  0.00000000E+00  0.00000000E+00
  0.00000000E+00  0.00000000E+00  0.00000000E+00
  0.00000000E+00  0.00000000E+00  0.00000000E+00
  0.00000000E+00  0.00000000E+00  0.00000000E+00
  0.00000000E+00  0.00000000E+00  0.00000000E+00
  0.00000000E+00  0.00000000E+00  0.00000000E+00
  0.00000000E+00  0.00000000E+00  0.00000000E+00
  0.00000000E+00  0.00000000E+00  0.00000000E+00
  0.00000000E+00  0.00000000E+00  0.00000000E+00
  0.00000000E+00  0.00000000E+00  0.00000000E+00
  0.00000000E+00  0.00000000E+00  0.00000000E+00
  0.00000000E+00  0.00000000E+00  0.00000000E+00
  0.00000000E+00  0.00000000E+00  0.00000000E+00
  0.00000000E+00  0.00000000E+00  0.00000000E+00
  0.00000000E+00  0.00000000E+00  0.00000000E+00
  0.00000000E+00  0.00000000E+00  0.00000000E+00
  0.00000000E+00  0.00000000E+00  0.00000000E+00
  0.00000000E+00  0.00000000E+00  0.00000000E+00
  0.00000000E+00  0.00000000E+00  0.00000000E+00
  0.00000000E+00  0.00000000E+00  0.00000000E+00
  0.00000000E+00  0.00000000E+00  0.00000000E+00
  0.00000000E+00  0.00000000E+00  0.00000000E+00
  0.00000000E+00  0.00000000E+00  0.00000000E+00
  0.00000000E+00  0.00000000E+00  0.00000000E+00
  0.00000000E+00  0.00000000E+00  0.00000000E+00
  0.00000000E+00  0.00000000E+00  0.00000000E+00
  0.00000000E+00  0.00000000E+00  0.00000000E+00
  0.00000000E+00  0.00000000E+00  0.00000000E+00
  0.00000000E+00  0.00000000E+00  0.00000000E+00
  0.00000000E+00  0.00000000E+00  0.00000000E+00
  0.00000000E+00  0.00000000E+00  0.00000000E+00
  0.00000000E+00  0.00000000E+00  0.00000000E+00
  0.00000000E+00  0.00000000E+00  0.00000000E+00
  0.00000000E+00  0.00000000E+00  0.00000000E+00
  0.00000000E+00  0.00000000E+00  0.00000000E+00
  0.00000000E+00  0.00000000E+00  0.00000000E+00
  0.00000000E+00  0.00000000E+00  0.00000000E+00
  0.00000000E+00  0.00000000E+00  0.00000000E+00
  0.00000000E+00  0.00000000E+00  0.00000000E+00
  0.00000000E+00  0.00000000E+00  0.00000000E+00
  0.00000000E+00  0.00000000E+00  0.00000000E+00
  0.00000000E+00  0.00000000E+00  0.00000000E+00
  0.00000000E+00  0.00000000E+00  0.00000000E+00
  0.00000000E+00  0.00000000E+00  0.00000000E+00
  0.00000000E+00  0.00000000E+00  0.00000000E+00
  0.00000000E+00  0.00000000E+00  0.00000000E+00
  0.00000000E+00  0.00000000E+00  0.00000000E+00
  0.00000000E+00  0.00000000E+00  0.00000000E+00
  0.00000000E+00  0.00000000E+00  0.00000000E+00
  0.00000000E+00  0.00000000E+00  0.00000000E+00
  0.00000000E+00  0.00000000E+00  0.00000000E+00
  0.00000000E+00  0.00000000E+00  0.00000000E+00
  0.00000000E+00  0.00000000E+00  0.00000000E+00
  0.00000000E+00  0.00000000E+00  0.00000000E+00
  0.00000000E+00  0.00000000E+00  0.00000000E+00
  0.00000000E+00  0.00000000E+00  0.00000000E+00
  0.00000000E+00  0.00000000E+00  0.00000000E+00
  0.00000000E+00  0.00000000E+00  0.00000000E+00
  0.00000000E+00  0.00000000E+00  0.00000000E+00
  0.00000000E+00  0.00000000E+00  0.00000000E+00
  0.00000000E+00  0.00000000E+00  0.00000000E+00
  0.00000000E+00  0.00000000E+00  0.00000000E+00
  0.00000000E+00  0.00000000E+00  0.00000000E+00
  0.00000000E+00  0.00000000E+00  0.00000000E+00
  0.00000000E+00  0.00000000E+00  0.00000000E+00
  0.00000000E+00  0.00000000E+00  0.00000000E+00
  0.00000000E+00  0.00000000E+00  0.00000000E+00
  0.00000000E+00  0.00000000E+00  0.00000000E+00
  0.00000000E+00  0.00000000E+00  0.00000000E+00
  0.00000000E+00  0.00000000E+00  0.00000000E+00
  0.00000000E+00  0.00000000E+00  0.00000000E+00
  0.00000000E+00  0.00000000E+00  0.00000000E+00
  0.00000000E+00  0.00000000E+00  0.00000000E+00
  0.00000000E+00  0.00000000E+00  0.00000000E+00
  0.00000000E+00  0.00000000E+00  0.00000000E+00
  0.00000000E+00  0.00000000E+00  0.00000000E+00
  0.00000000E+00  0.00000000E+00  0.00000000E+00
  0.00000000E+00  0.00000000E+00  0.00000000E+00
  0.00000000E+00  0.00000000E+00  0.00000000E+00
  0.00000000E+00  0.00000000E+00  0.00000000E+00
  0.00000000E+00  0.00000000E+00  0.00000000E+00
  0.00000000E+00  0.00000000E+00  0.00000000E+00
  0.00000000E+00  0.00000000E+00  0.00000000E+00
  0.00000000E+00  0.00000000E+00  0.00000000E+00
  0.00000000E+00  0.00000000E+00  0.00000000E+00
  0.00000000E+00  0.00000000E+00  0.00000000E+00
  0.00000000E+00  0.00000000E+00  0.00000000E+00
  0.00000000E+00  0.00000000E+00  0.00000000E+00
  0.00000000E+00  0.00000000E+00  0.00000000E+00
  0.00000000E+00  0.00000000E+00  0.00000000E+00
  0.00000000E+00  0.00000000E+00  0.00000000E+00
  0.00000000E+00  0.00000000E+00  0.00000000E+00
  0.00000000E+00  0.00000000E+00  0.00000000E+00
  0.00000000E+00  0.00000000E+00  0.00000000E+00
  0.00000000E+00  0.00000000E+00  0.00000000E+00
  0.00000000E+00  0.00000000E+00  0.00000000E+00
  0.00000000E+00  0.00000000E+00  0.00000000E+00
  0.00000000E+00  0.00000000E+00  0.00000000E+00
  0.00000000E+00  0.00000000E+00  0.00000000E+00
  0.00000000E+00  0.00000000E+00  0.00000000E+00
  0.00000000E+00  0.00000000E+00  0.00000000E+00
  0.00000000E+00  0.00000000E+00  0.00000000E+00
  0.00000000E+00  0.00000000E+00  0.00000000E+00
