Y1 C124 N2                              
   1.00000000000000     
    19.8169650795933272   -0.0199993530790145   -0.0077424663417919
    -9.9258067453482628   17.0718403703967923    0.0087261628178451
    -0.0116007483526283    0.0084391794739531   29.7604580413497288
   Y    C    N 
     1   124     2
Direct
  0.4375801632577185  0.5000105773004112  0.4477998095453756
  0.0420269137656665  0.0839980869241350  0.3990389900070004
  0.0414137853606617  0.2084583127663395  0.3984826580513257
  0.0407537841032517  0.3330626156980999  0.3979754413984057
  0.0406223762384864  0.4583581526279248  0.3979573217710449
  0.0412260885677771  0.5837361320666673  0.3986393617198730
  0.0418189359392828  0.7090400514196702  0.3992538123125467
  0.0421147528251337  0.8342672141248731  0.3994477417821541
  0.0422889118852713  0.9593868529318215  0.3993212015185928
  0.1679311433506335  0.0853792028768669  0.4000124119911240
  0.1673528627000775  0.2098673539457177  0.3997970755825755
  0.1660995660824574  0.3341202864800928  0.3991362345875953
  0.1644616247998861  0.4586966748082918  0.3980422664785077
  0.1651485492467468  0.5838485580621308  0.3979597777618843
  0.1661554153945731  0.7090858562065189  0.3988839784536893
  0.1667823643634775  0.8343421363171577  0.3995497105286208
  0.1672812445335606  0.9597087564965819  0.3998479562738853
  0.2924625927829144  0.0849594008393332  0.4000669677697031
  0.2941520578009185  0.2119784280441762  0.4022519544520253
  0.2927250105171810  0.3372438655290495  0.4048131895799369
  0.2886475244521546  0.4592259230358312  0.4040564241937734
  0.2887947998603339  0.5844725762592780  0.4002025294504741
  0.2904968159948112  0.7092363620610881  0.3989325088195286
  0.2913975848154343  0.8341538517095902  0.3989640517190582
  0.2918813042211263  0.9593278341104918  0.3993212235359369
  0.4170093932343722  0.0835905662399884  0.3990737576528666
  0.4176297557851468  0.2089446638226977  0.4002693625897663
  0.4210837153448003  0.3362506978928579  0.4059767431908957
  0.4147489030504718  0.7077548232988141  0.4014904770492658
  0.4160000799239725  0.8331023776974018  0.3991934585774593
  0.4165451903239675  0.9583479629774029  0.3988835350740568
  0.5416427579039123  0.0825118590237742  0.3989887753298722
  0.5421930183240968  0.2075702819705643  0.3989311534372210
  0.5434349660803226  0.3323868398922588  0.4001370107472993
  0.5447655808370633  0.4556034388712550  0.4047914545695568
  0.5447665895602742  0.5806972897076872  0.4086903100360598
  0.5386206773029970  0.7041264976064213  0.4052196400487118
  0.5404705654456082  0.8314316385488077  0.4008397555184648
  0.5412186899611814  0.9571962853410826  0.3993938572634841
  0.6663136840299696  0.0821554493926897  0.3996544096474192
  0.6668149028153346  0.2073782042278570  0.3991666115962786
  0.6676971209990009  0.3325851203778812  0.3984857901099094
  0.6691427827455476  0.4579702351275969  0.3982350072749795
  0.6689378482461159  0.5824270362428208  0.3996475904149169
  0.6661930026958555  0.7065900270919311  0.4004384229585600
  0.6650078896203768  0.8308877137711417  0.4006226423817021
  0.6658429260780994  0.9567815254336547  0.4000452274612019
  0.7911073473039217  0.0822249200949271  0.3996070692802504
  0.7914061101691268  0.2074135810003029  0.3995596462081695
  0.7919914025478476  0.3327195669990545  0.3989865152206046
  0.7927702605234336  0.4580862129191381  0.3980854081953188
  0.7932448265131721  0.5833869192326810  0.3977020966382857
  0.7923045144790644  0.7081937158153230  0.3981927179630156
  0.7912442695243727  0.8325139031246460  0.3988367633042344
  0.7907552210933561  0.9569721480403965  0.3993494441727489
  0.9162467682672734  0.0827849432595839  0.3989434353915791
  0.9161487863034156  0.2076506096248603  0.3989180232163108
  0.9162573648967166  0.3328351845440621  0.3988261088970507
  0.9166701037372851  0.4581886400216803  0.3986731740307229
  0.9172782222160424  0.5836292273049237  0.3985451518321459
  0.9172943653593906  0.7088507904022302  0.3985598988085697
  0.9170378888918534  0.8337028738742041  0.3986649895437716
  0.9166230266808959  0.9582830882609679  0.3988528491478856
  0.0842401137902486  0.0430356142225229  0.3994179896535921
  0.0837494613036427  0.1674894241824493  0.3989204934552234
  0.0827061119070245  0.2918120027355361  0.3982040830893193
  0.0817636158624944  0.4166165241057063  0.3976536043767009
  0.0822140005107248  0.5419015395588780  0.3980636970093107
  0.0829987844453359  0.6672546292932380  0.3989905131532123
  0.0835662705100507  0.7925719426137044  0.3995449801612769
  0.0838963102703338  0.9177806396449779  0.3996195793357501
  0.2091466782504858  0.0432265022438209  0.4000887575796674
  0.2099720545507403  0.1691260956861798  0.4006708394394544
  0.2088193744470553  0.2934180505924376  0.4005107720624940
  0.2061075351949178  0.4175839864398709  0.3996354925810542
  0.2058854896046476  0.5420385029490231  0.3982148487987235
  0.2072827247794645  0.6674030929944750  0.3985051007316748
  0.2081425244955576  0.7926099104315660  0.3991771334105262
  0.2086572240130041  0.9178334544619327  0.3996428998093274
  0.3337426751663483  0.0427864969753138  0.3994126700661658
  0.3345102117614540  0.1685828066515754  0.4009062788265704
  0.3363834165543477  0.2958804350043422  0.4052995375965486
  0.3302795001191029  0.4193122957310936  0.4087453583772441
  0.3302751589528989  0.5444059452894850  0.4047542764023984
  0.3315732472184807  0.6676299259543220  0.4001234051737769
  0.3327707815974649  0.7924261309176842  0.3989506233443513
  0.3333302659592136  0.9174654684987427  0.3990007752506368
  0.4584309662987183  0.0416247905604365  0.3988845120187877
  0.4589753690370151  0.1668875796246773  0.3992186864071759
  0.4602635403217703  0.2922500404906243  0.4015374518201622
  0.4539233347866860  0.6637341839805501  0.4059034509362450
  0.4573513694127921  0.7910496165147651  0.4002212018394729
  0.4579550664045370  0.9163822658134935  0.3990495929149141
  0.5830933535859717  0.0406512251498476  0.3993214482473814
  0.5835631982145154  0.1658343428279213  0.3989459091039093
  0.5844829916703305  0.2907774053720334  0.3989094363902222
  0.5862370070684984  0.4155464521247185  0.4002398490787422
  0.5864018241018609  0.5407898778822153  0.4040561493258458
  0.5822999189700316  0.6627647877846862  0.4047320896202867
  0.5808317709644671  0.7880346480299472  0.4021870040081497
  0.5825220048052363  0.9150548234288840  0.4000253062293615
  0.7077159775854833  0.0402946652362935  0.3998338193881421
  0.7081878735024146  0.1656504194495199  0.3995571748928618
  0.7088367458982683  0.2909054741096985  0.3988777302791390
  0.7098445203471085  0.4161419709797740  0.3979757000725116
  0.7105652680798150  0.5413084366840805  0.3980798641935685
  0.7089214133943557  0.6658879103001443  0.3991109430780521
  0.7076273624046419  0.7901402580608937  0.3997310365581077
  0.7070624343286520  0.9146320624689815  0.3999533712120181
  0.8327292464624997  0.0406278802925977  0.3992956315118508
  0.8328839618951500  0.1657382490291532  0.3994621056686707
  0.8331917968064819  0.2909476137018364  0.3992590162065855
  0.8337532864893705  0.4162379401409496  0.3986329678284798
  0.8343789405293772  0.5416430029329145  0.3979996352873926
  0.8342592237110175  0.6669440544321599  0.3980040540178092
  0.8335941202841648  0.7915433232224710  0.3984183313009682
  0.8329891660262331  0.9160142015887229  0.3989554905101604
  0.9584038886852936  0.0417316091015373  0.3988905796081947
  0.9579709305218144  0.1663050078068406  0.3987114772233645
  0.9577073826200151  0.2911516971641359  0.3985372647112250
  0.9577115018608863  0.4163678867091934  0.3985354758400459
  0.9583116126782167  0.5417866011473601  0.3986738814774567
  0.9587514885817919  0.6671601356933426  0.3988376188090914
  0.9588577753892941  0.7923553053618656  0.3989119485185065
  0.9587757390193429  0.9172278598009893  0.3989049407320696
  0.4095167568308490  0.5838117689927815  0.4106341299400138
  0.4655296474848081  0.4161792871103772  0.4107001294428507
 
  0.00000000E+00  0.00000000E+00  0.00000000E+00
  0.00000000E+00  0.00000000E+00  0.00000000E+00
  0.00000000E+00  0.00000000E+00  0.00000000E+00
  0.00000000E+00  0.00000000E+00  0.00000000E+00
  0.00000000E+00  0.00000000E+00  0.00000000E+00
  0.00000000E+00  0.00000000E+00  0.00000000E+00
  0.00000000E+00  0.00000000E+00  0.00000000E+00
  0.00000000E+00  0.00000000E+00  0.00000000E+00
  0.00000000E+00  0.00000000E+00  0.00000000E+00
  0.00000000E+00  0.00000000E+00  0.00000000E+00
  0.00000000E+00  0.00000000E+00  0.00000000E+00
  0.00000000E+00  0.00000000E+00  0.00000000E+00
  0.00000000E+00  0.00000000E+00  0.00000000E+00
  0.00000000E+00  0.00000000E+00  0.00000000E+00
  0.00000000E+00  0.00000000E+00  0.00000000E+00
  0.00000000E+00  0.00000000E+00  0.00000000E+00
  0.00000000E+00  0.00000000E+00  0.00000000E+00
  0.00000000E+00  0.00000000E+00  0.00000000E+00
  0.00000000E+00  0.00000000E+00  0.00000000E+00
  0.00000000E+00  0.00000000E+00  0.00000000E+00
  0.00000000E+00  0.00000000E+00  0.00000000E+00
  0.00000000E+00  0.00000000E+00  0.00000000E+00
  0.00000000E+00  0.00000000E+00  0.00000000E+00
  0.00000000E+00  0.00000000E+00  0.00000000E+00
  0.00000000E+00  0.00000000E+00  0.00000000E+00
  0.00000000E+00  0.00000000E+00  0.00000000E+00
  0.00000000E+00  0.00000000E+00  0.00000000E+00
  0.00000000E+00  0.00000000E+00  0.00000000E+00
  0.00000000E+00  0.00000000E+00  0.00000000E+00
  0.00000000E+00  0.00000000E+00  0.00000000E+00
  0.00000000E+00  0.00000000E+00  0.00000000E+00
  0.00000000E+00  0.00000000E+00  0.00000000E+00
  0.00000000E+00  0.00000000E+00  0.00000000E+00
  0.00000000E+00  0.00000000E+00  0.00000000E+00
  0.00000000E+00  0.00000000E+00  0.00000000E+00
  0.00000000E+00  0.00000000E+00  0.00000000E+00
  0.00000000E+00  0.00000000E+00  0.00000000E+00
  0.00000000E+00  0.00000000E+00  0.00000000E+00
  0.00000000E+00  0.00000000E+00  0.00000000E+00
  0.00000000E+00  0.00000000E+00  0.00000000E+00
  0.00000000E+00  0.00000000E+00  0.00000000E+00
  0.00000000E+00  0.00000000E+00  0.00000000E+00
  0.00000000E+00  0.00000000E+00  0.00000000E+00
  0.00000000E+00  0.00000000E+00  0.00000000E+00
  0.00000000E+00  0.00000000E+00  0.00000000E+00
  0.00000000E+00  0.00000000E+00  0.00000000E+00
  0.00000000E+00  0.00000000E+00  0.00000000E+00
  0.00000000E+00  0.00000000E+00  0.00000000E+00
  0.00000000E+00  0.00000000E+00  0.00000000E+00
  0.00000000E+00  0.00000000E+00  0.00000000E+00
  0.00000000E+00  0.00000000E+00  0.00000000E+00
  0.00000000E+00  0.00000000E+00  0.00000000E+00
  0.00000000E+00  0.00000000E+00  0.00000000E+00
  0.00000000E+00  0.00000000E+00  0.00000000E+00
  0.00000000E+00  0.00000000E+00  0.00000000E+00
  0.00000000E+00  0.00000000E+00  0.00000000E+00
  0.00000000E+00  0.00000000E+00  0.00000000E+00
  0.00000000E+00  0.00000000E+00  0.00000000E+00
  0.00000000E+00  0.00000000E+00  0.00000000E+00
  0.00000000E+00  0.00000000E+00  0.00000000E+00
  0.00000000E+00  0.00000000E+00  0.00000000E+00
  0.00000000E+00  0.00000000E+00  0.00000000E+00
  0.00000000E+00  0.00000000E+00  0.00000000E+00
  0.00000000E+00  0.00000000E+00  0.00000000E+00
  0.00000000E+00  0.00000000E+00  0.00000000E+00
  0.00000000E+00  0.00000000E+00  0.00000000E+00
  0.00000000E+00  0.00000000E+00  0.00000000E+00
  0.00000000E+00  0.00000000E+00  0.00000000E+00
  0.00000000E+00  0.00000000E+00  0.00000000E+00
  0.00000000E+00  0.00000000E+00  0.00000000E+00
  0.00000000E+00  0.00000000E+00  0.00000000E+00
  0.00000000E+00  0.00000000E+00  0.00000000E+00
  0.00000000E+00  0.00000000E+00  0.00000000E+00
  0.00000000E+00  0.00000000E+00  0.00000000E+00
  0.00000000E+00  0.00000000E+00  0.00000000E+00
  0.00000000E+00  0.00000000E+00  0.00000000E+00
  0.00000000E+00  0.00000000E+00  0.00000000E+00
  0.00000000E+00  0.00000000E+00  0.00000000E+00
  0.00000000E+00  0.00000000E+00  0.00000000E+00
  0.00000000E+00  0.00000000E+00  0.00000000E+00
  0.00000000E+00  0.00000000E+00  0.00000000E+00
  0.00000000E+00  0.00000000E+00  0.00000000E+00
  0.00000000E+00  0.00000000E+00  0.00000000E+00
  0.00000000E+00  0.00000000E+00  0.00000000E+00
  0.00000000E+00  0.00000000E+00  0.00000000E+00
  0.00000000E+00  0.00000000E+00  0.00000000E+00
  0.00000000E+00  0.00000000E+00  0.00000000E+00
  0.00000000E+00  0.00000000E+00  0.00000000E+00
  0.00000000E+00  0.00000000E+00  0.00000000E+00
  0.00000000E+00  0.00000000E+00  0.00000000E+00
  0.00000000E+00  0.00000000E+00  0.00000000E+00
  0.00000000E+00  0.00000000E+00  0.00000000E+00
  0.00000000E+00  0.00000000E+00  0.00000000E+00
  0.00000000E+00  0.00000000E+00  0.00000000E+00
  0.00000000E+00  0.00000000E+00  0.00000000E+00
  0.00000000E+00  0.00000000E+00  0.00000000E+00
  0.00000000E+00  0.00000000E+00  0.00000000E+00
  0.00000000E+00  0.00000000E+00  0.00000000E+00
  0.00000000E+00  0.00000000E+00  0.00000000E+00
  0.00000000E+00  0.00000000E+00  0.00000000E+00
  0.00000000E+00  0.00000000E+00  0.00000000E+00
  0.00000000E+00  0.00000000E+00  0.00000000E+00
  0.00000000E+00  0.00000000E+00  0.00000000E+00
  0.00000000E+00  0.00000000E+00  0.00000000E+00
  0.00000000E+00  0.00000000E+00  0.00000000E+00
  0.00000000E+00  0.00000000E+00  0.00000000E+00
  0.00000000E+00  0.00000000E+00  0.00000000E+00
  0.00000000E+00  0.00000000E+00  0.00000000E+00
  0.00000000E+00  0.00000000E+00  0.00000000E+00
  0.00000000E+00  0.00000000E+00  0.00000000E+00
  0.00000000E+00  0.00000000E+00  0.00000000E+00
  0.00000000E+00  0.00000000E+00  0.00000000E+00
  0.00000000E+00  0.00000000E+00  0.00000000E+00
  0.00000000E+00  0.00000000E+00  0.00000000E+00
  0.00000000E+00  0.00000000E+00  0.00000000E+00
  0.00000000E+00  0.00000000E+00  0.00000000E+00
  0.00000000E+00  0.00000000E+00  0.00000000E+00
  0.00000000E+00  0.00000000E+00  0.00000000E+00
  0.00000000E+00  0.00000000E+00  0.00000000E+00
  0.00000000E+00  0.00000000E+00  0.00000000E+00
  0.00000000E+00  0.00000000E+00  0.00000000E+00
  0.00000000E+00  0.00000000E+00  0.00000000E+00
  0.00000000E+00  0.00000000E+00  0.00000000E+00
  0.00000000E+00  0.00000000E+00  0.00000000E+00
  0.00000000E+00  0.00000000E+00  0.00000000E+00
  0.00000000E+00  0.00000000E+00  0.00000000E+00
  0.00000000E+00  0.00000000E+00  0.00000000E+00
