Ag1 C125 N1 O1                          
   1.00000000000000     
    19.8420546443465682   -0.0078213914550420    0.0980254971858820
    -9.9279221609850339   17.0718259958275738   -0.0281353101993278
     0.1464980554311400    0.0365015439647942   29.7129812661016182
   Ag   C    N    O 
     1   125     1     1
Direct
  0.4362429084098584  0.4985341197635922  0.4191161969264558
  0.0415634170515531  0.0837999758826210  0.3996626321256024
  0.0407069176375677  0.2080350397371126  0.3995500684030675
  0.0401757491253305  0.3326994272218013  0.3990398596413121
  0.0402992772669338  0.4582237586266908  0.3987863848720848
  0.0411930411731449  0.5837925962959589  0.3987312532177466
  0.0419933232006714  0.7092211885460139  0.3988148915902178
  0.0423405100367594  0.8345323706352519  0.3990823277875986
  0.0422830803818751  0.9594942057600818  0.3993872350568365
  0.1674479037883150  0.0852149980374048  0.4003605743283485
  0.1664437396322035  0.2093085439437913  0.4008597870061577
  0.1650726968401365  0.3335658574646803  0.4000920135239755
  0.1636840027080649  0.4583972250577816  0.3990596743862236
  0.1647323285500296  0.5837994800315650  0.3990773271220573
  0.1661139503215600  0.7092661534801888  0.3990996695213567
  0.1669071778615113  0.8346415198829297  0.3991572958299792
  0.1673711414989675  0.9600045295152817  0.3995561312695432
  0.2924931409864489  0.0852368654566948  0.4005415159747608
  0.2931057532833129  0.2114130133892116  0.4027803932798592
  0.2910863328821232  0.3356659575295317  0.4043522196345714
  0.2872195391778011  0.4589211829479281  0.4020143979198751
  0.2878263145329928  0.5845236014910354  0.4002492901137686
  0.2901750177952157  0.7092998326301985  0.3998006740068607
  0.2913479538671970  0.8343007692877158  0.3994285680290806
  0.2919297774528261  0.9596182969405961  0.3994812093678478
  0.4170215900073801  0.0838964018511953  0.3998426229311141
  0.4176238331726669  0.2093474684654300  0.4018097894535960
  0.4192040665465696  0.3357416779376423  0.4068797921595034
  0.4142492180037357  0.7075675829978231  0.4018805107823567
  0.4157812604916210  0.8330160226426031  0.4001564946507722
  0.4164509149957426  0.9584299044898568  0.3995123568692350
  0.5415380630988333  0.0824983268800402  0.3994196133498667
  0.5422155007698241  0.2077856088983243  0.4000585826046241
  0.5433471695051277  0.3328283635643888  0.4023688030856648
  0.5472356566038864  0.4575737030079635  0.4079921303796430
  0.5498925603184251  0.5825669779639712  0.4122142363222749
  0.5382567924524884  0.7034532347751750  0.4054166244801267
  0.5400380730102526  0.8308833123455095  0.4013905089131310
  0.5409651531102632  0.9568952815221853  0.3998230555436685
  0.6660263752971766  0.0817785603932701  0.3993942327845802
  0.6666758939853047  0.2072197122994060  0.3992195235153371
  0.6675668396950781  0.3324665491591259  0.3996131302393907
  0.6698308040769680  0.4580140942052990  0.4009166550458088
  0.6714831147216450  0.5838843314773269  0.4030938479087310
  0.6669487579725984  0.7068737302173529  0.4032256986988096
  0.6648248234005476  0.8304520776106012  0.4016723147952836
  0.6654813973205600  0.9562631680472345  0.4001675887020928
  0.7906953647301141  0.0817489716672337  0.3993841041065332
  0.7910500006753503  0.2070006834117245  0.3990477811634789
  0.7918053186356362  0.3324910231352483  0.3988354330014841
  0.7930768485021673  0.4581184392327043  0.3988289591094237
  0.7940348259842734  0.5836122311939036  0.3992923665242863
  0.7932712696266769  0.7088036124622066  0.4000783638677770
  0.7914345344094833  0.8325465263820980  0.4000489555677498
  0.7904346153350591  0.9566256636575313  0.3998082850026788
  0.9158087696263789  0.0824308339414879  0.3993600151249739
  0.9156596040969071  0.2072888520419134  0.3991070411128957
  0.9159259335227506  0.3325488171222178  0.3988085788221934
  0.9166220574637814  0.4580531482651850  0.3986196456194024
  0.9175826528297180  0.5837330814812471  0.3985947587052642
  0.9177864046837689  0.7091812541148131  0.3988873227146056
  0.9173889442428409  0.8339701756041871  0.3992293445406923
  0.9164514312309827  0.9581317293531947  0.3994056396850814
  0.0839268531705739  0.0429835238081205  0.3997423723116703
  0.0829870056113298  0.1671208977061568  0.3999203169963877
  0.0818779520136527  0.2914010725803612  0.3994501001377864
  0.0812568789699893  0.4163916496045358  0.3988929541155371
  0.0819566935408859  0.5418214611947738  0.3988245572330659
  0.0830791613051426  0.6673997031341177  0.3988513823382925
  0.0837870939715541  0.7928953238750330  0.3990083696288344
  0.0840160404256294  0.9180809388057847  0.3993282076971361
  0.2090859094271465  0.0434833248455944  0.4001708672475048
  0.2090833688406273  0.1687785565240668  0.4013270328960950
  0.2075090850410461  0.2927208720039356  0.4014521675637804
  0.2048427825373859  0.4169601132977755  0.3997918686791261
  0.2052301547614301  0.5419502811897052  0.3992598420988448
  0.2071585918685007  0.6674761526354176  0.3992943778022234
  0.2081648525026336  0.7927794337220728  0.3992137403560604
  0.2087930948725746  0.9181603920466029  0.3993771070820737
  0.3337843248179083  0.0430579181916619  0.3998907360569958
  0.3344188423840453  0.1687325682988544  0.4018270029145208
  0.3346853574351645  0.2947142481810044  0.4052341394839008
  0.3267948294592610  0.4173842549559633  0.4056715910267903
  0.3291462930148022  0.5441755871528261  0.4021927065776450
  0.3311527632963043  0.6674985754181896  0.4005972758646331
  0.3326001448011768  0.7924601113433084  0.3998042274902374
  0.3333192299709013  0.9176520515716114  0.3994225946258990
  0.4584052881923999  0.0417780411094666  0.3995112015205622
  0.4589660352506411  0.1671727623711223  0.4004200966439526
  0.4600548938142526  0.2926901350004446  0.4035829392745212
  0.4661082571813938  0.4171653481090664  0.4105451373023982
  0.4532848193237975  0.6632732330287423  0.4044424979558616
  0.4570308326392770  0.7908306902264515  0.4011189931425962
  0.4577607090844948  0.9162739028968496  0.3997849945140274
  0.5828801316442462  0.0404090138839835  0.3994699354300286
  0.5835161994840740  0.1658875999867622  0.3994702265282465
  0.5844820472023199  0.2909760678652321  0.4004778733831866
  0.5871447779496557  0.4158196779222190  0.4032706229059553
  0.5900461826166704  0.5422049480877617  0.4083314421367948
  0.5829454723924040  0.6633457346020990  0.4072390890499615
  0.5804722078633952  0.7873793559981999  0.4028156677117210
  0.5821521238067630  0.9145630005647296  0.4003851763840289
  0.7073652161087819  0.0398286810169196  0.3995854239588656
  0.7079422034756480  0.1653368171020666  0.3991706369863343
  0.7086779187651757  0.2906852542466161  0.3991077714210272
  0.7102451123829853  0.4161838203557446  0.3995217299973305
  0.7118096345504378  0.5417079278621425  0.4007354230619287
  0.7102710784861588  0.6668371746655994  0.4020474767108624
  0.7077761514563192  0.7901749755149446  0.4014026740155692
  0.7067645032094024  0.9142059055452986  0.4004604912280035
  0.8322824469926077  0.0402266919263837  0.3994556808379974
  0.8324442794372348  0.1653305670161245  0.3991447500066163
  0.8329401510527180  0.2906835425323286  0.3988572948132925
  0.8338324129657061  0.4161297329605363  0.3986783803752863
  0.8348523554176734  0.5416862601534683  0.3987531950601476
  0.8348959216073869  0.6673305686928511  0.3992986259860146
  0.8341495853656378  0.7920054460853961  0.3996733937601888
  0.8328635708041506  0.9158823168901153  0.3996664707970463
  0.9580145904619058  0.0415401676029328  0.3994319250099319
  0.9574103711679983  0.1659379739156285  0.3992946193705008
  0.9572087016740898  0.2907933906776557  0.3989538065212927
  0.9574955749718611  0.4161703825279945  0.3987216059591063
  0.9584427331540485  0.5418341095327933  0.3985981279330818
  0.9590735541891822  0.6673833018119943  0.3987053309460216
  0.9591937611902648  0.7926409730866254  0.3990387434273152
  0.9588157236492122  0.9173669439629262  0.3992900844749243
  0.4077835715087686  0.5837111654219922  0.4050268432603972
  0.4531581638541787  0.5064457417780216  0.4896317631527282
 
  0.00000000E+00  0.00000000E+00  0.00000000E+00
  0.00000000E+00  0.00000000E+00  0.00000000E+00
  0.00000000E+00  0.00000000E+00  0.00000000E+00
  0.00000000E+00  0.00000000E+00  0.00000000E+00
  0.00000000E+00  0.00000000E+00  0.00000000E+00
  0.00000000E+00  0.00000000E+00  0.00000000E+00
  0.00000000E+00  0.00000000E+00  0.00000000E+00
  0.00000000E+00  0.00000000E+00  0.00000000E+00
  0.00000000E+00  0.00000000E+00  0.00000000E+00
  0.00000000E+00  0.00000000E+00  0.00000000E+00
  0.00000000E+00  0.00000000E+00  0.00000000E+00
  0.00000000E+00  0.00000000E+00  0.00000000E+00
  0.00000000E+00  0.00000000E+00  0.00000000E+00
  0.00000000E+00  0.00000000E+00  0.00000000E+00
  0.00000000E+00  0.00000000E+00  0.00000000E+00
  0.00000000E+00  0.00000000E+00  0.00000000E+00
  0.00000000E+00  0.00000000E+00  0.00000000E+00
  0.00000000E+00  0.00000000E+00  0.00000000E+00
  0.00000000E+00  0.00000000E+00  0.00000000E+00
  0.00000000E+00  0.00000000E+00  0.00000000E+00
  0.00000000E+00  0.00000000E+00  0.00000000E+00
  0.00000000E+00  0.00000000E+00  0.00000000E+00
  0.00000000E+00  0.00000000E+00  0.00000000E+00
  0.00000000E+00  0.00000000E+00  0.00000000E+00
  0.00000000E+00  0.00000000E+00  0.00000000E+00
  0.00000000E+00  0.00000000E+00  0.00000000E+00
  0.00000000E+00  0.00000000E+00  0.00000000E+00
  0.00000000E+00  0.00000000E+00  0.00000000E+00
  0.00000000E+00  0.00000000E+00  0.00000000E+00
  0.00000000E+00  0.00000000E+00  0.00000000E+00
  0.00000000E+00  0.00000000E+00  0.00000000E+00
  0.00000000E+00  0.00000000E+00  0.00000000E+00
  0.00000000E+00  0.00000000E+00  0.00000000E+00
  0.00000000E+00  0.00000000E+00  0.00000000E+00
  0.00000000E+00  0.00000000E+00  0.00000000E+00
  0.00000000E+00  0.00000000E+00  0.00000000E+00
  0.00000000E+00  0.00000000E+00  0.00000000E+00
  0.00000000E+00  0.00000000E+00  0.00000000E+00
  0.00000000E+00  0.00000000E+00  0.00000000E+00
  0.00000000E+00  0.00000000E+00  0.00000000E+00
  0.00000000E+00  0.00000000E+00  0.00000000E+00
  0.00000000E+00  0.00000000E+00  0.00000000E+00
  0.00000000E+00  0.00000000E+00  0.00000000E+00
  0.00000000E+00  0.00000000E+00  0.00000000E+00
  0.00000000E+00  0.00000000E+00  0.00000000E+00
  0.00000000E+00  0.00000000E+00  0.00000000E+00
  0.00000000E+00  0.00000000E+00  0.00000000E+00
  0.00000000E+00  0.00000000E+00  0.00000000E+00
  0.00000000E+00  0.00000000E+00  0.00000000E+00
  0.00000000E+00  0.00000000E+00  0.00000000E+00
  0.00000000E+00  0.00000000E+00  0.00000000E+00
  0.00000000E+00  0.00000000E+00  0.00000000E+00
  0.00000000E+00  0.00000000E+00  0.00000000E+00
  0.00000000E+00  0.00000000E+00  0.00000000E+00
  0.00000000E+00  0.00000000E+00  0.00000000E+00
  0.00000000E+00  0.00000000E+00  0.00000000E+00
  0.00000000E+00  0.00000000E+00  0.00000000E+00
  0.00000000E+00  0.00000000E+00  0.00000000E+00
  0.00000000E+00  0.00000000E+00  0.00000000E+00
  0.00000000E+00  0.00000000E+00  0.00000000E+00
  0.00000000E+00  0.00000000E+00  0.00000000E+00
  0.00000000E+00  0.00000000E+00  0.00000000E+00
  0.00000000E+00  0.00000000E+00  0.00000000E+00
  0.00000000E+00  0.00000000E+00  0.00000000E+00
  0.00000000E+00  0.00000000E+00  0.00000000E+00
  0.00000000E+00  0.00000000E+00  0.00000000E+00
  0.00000000E+00  0.00000000E+00  0.00000000E+00
  0.00000000E+00  0.00000000E+00  0.00000000E+00
  0.00000000E+00  0.00000000E+00  0.00000000E+00
  0.00000000E+00  0.00000000E+00  0.00000000E+00
  0.00000000E+00  0.00000000E+00  0.00000000E+00
  0.00000000E+00  0.00000000E+00  0.00000000E+00
  0.00000000E+00  0.00000000E+00  0.00000000E+00
  0.00000000E+00  0.00000000E+00  0.00000000E+00
  0.00000000E+00  0.00000000E+00  0.00000000E+00
  0.00000000E+00  0.00000000E+00  0.00000000E+00
  0.00000000E+00  0.00000000E+00  0.00000000E+00
  0.00000000E+00  0.00000000E+00  0.00000000E+00
  0.00000000E+00  0.00000000E+00  0.00000000E+00
  0.00000000E+00  0.00000000E+00  0.00000000E+00
  0.00000000E+00  0.00000000E+00  0.00000000E+00
  0.00000000E+00  0.00000000E+00  0.00000000E+00
  0.00000000E+00  0.00000000E+00  0.00000000E+00
  0.00000000E+00  0.00000000E+00  0.00000000E+00
  0.00000000E+00  0.00000000E+00  0.00000000E+00
  0.00000000E+00  0.00000000E+00  0.00000000E+00
  0.00000000E+00  0.00000000E+00  0.00000000E+00
  0.00000000E+00  0.00000000E+00  0.00000000E+00
  0.00000000E+00  0.00000000E+00  0.00000000E+00
  0.00000000E+00  0.00000000E+00  0.00000000E+00
  0.00000000E+00  0.00000000E+00  0.00000000E+00
  0.00000000E+00  0.00000000E+00  0.00000000E+00
  0.00000000E+00  0.00000000E+00  0.00000000E+00
  0.00000000E+00  0.00000000E+00  0.00000000E+00
  0.00000000E+00  0.00000000E+00  0.00000000E+00
  0.00000000E+00  0.00000000E+00  0.00000000E+00
  0.00000000E+00  0.00000000E+00  0.00000000E+00
  0.00000000E+00  0.00000000E+00  0.00000000E+00
  0.00000000E+00  0.00000000E+00  0.00000000E+00
  0.00000000E+00  0.00000000E+00  0.00000000E+00
  0.00000000E+00  0.00000000E+00  0.00000000E+00
  0.00000000E+00  0.00000000E+00  0.00000000E+00
  0.00000000E+00  0.00000000E+00  0.00000000E+00
  0.00000000E+00  0.00000000E+00  0.00000000E+00
  0.00000000E+00  0.00000000E+00  0.00000000E+00
  0.00000000E+00  0.00000000E+00  0.00000000E+00
  0.00000000E+00  0.00000000E+00  0.00000000E+00
  0.00000000E+00  0.00000000E+00  0.00000000E+00
  0.00000000E+00  0.00000000E+00  0.00000000E+00
  0.00000000E+00  0.00000000E+00  0.00000000E+00
  0.00000000E+00  0.00000000E+00  0.00000000E+00
  0.00000000E+00  0.00000000E+00  0.00000000E+00
  0.00000000E+00  0.00000000E+00  0.00000000E+00
  0.00000000E+00  0.00000000E+00  0.00000000E+00
  0.00000000E+00  0.00000000E+00  0.00000000E+00
  0.00000000E+00  0.00000000E+00  0.00000000E+00
  0.00000000E+00  0.00000000E+00  0.00000000E+00
  0.00000000E+00  0.00000000E+00  0.00000000E+00
  0.00000000E+00  0.00000000E+00  0.00000000E+00
  0.00000000E+00  0.00000000E+00  0.00000000E+00
  0.00000000E+00  0.00000000E+00  0.00000000E+00
  0.00000000E+00  0.00000000E+00  0.00000000E+00
  0.00000000E+00  0.00000000E+00  0.00000000E+00
  0.00000000E+00  0.00000000E+00  0.00000000E+00
  0.00000000E+00  0.00000000E+00  0.00000000E+00
  0.00000000E+00  0.00000000E+00  0.00000000E+00
  0.00000000E+00  0.00000000E+00  0.00000000E+00
  0.00000000E+00  0.00000000E+00  0.00000000E+00
