Ta1 C124 N2 O1                          
   1.00000000000000     
    19.8197692613038008   -0.0125512879502445   -0.0581116907759511
    -9.9208882592879615   17.0685836858363373   -0.0498183911335185
    -0.0872607948198560   -0.1374922982031486   29.7562968971056101
   Ta   C    N    O 
     1   124     2     1
Direct
  0.4409572396109326  0.5006506515537472  0.4334226596976636
  0.0421819566894419  0.0841691524223602  0.3996249101401960
  0.0413977850717002  0.2085023640183255  0.3993099637947572
  0.0406404588500122  0.3331086856619032  0.3990199887553438
  0.0404777811394501  0.4584357225239003  0.3991463633683231
  0.0412527259640728  0.5838651134377864  0.3997007781598034
  0.0419500542808198  0.7091804634144738  0.4000686546515071
  0.0422799439196804  0.8344054650030981  0.3999611693265800
  0.0424529721259645  0.9595397569784266  0.3997549143643904
  0.1680082745699059  0.0854272842603858  0.3999984747724113
  0.1673932190688812  0.2099500478604720  0.3998911841581021
  0.1658363043398989  0.3340408367646973  0.3995039254592215
  0.1641327570344758  0.4586703394381334  0.3987749784117369
  0.1650949048677520  0.5838688927595680  0.3989321831806562
  0.1662766102886735  0.7091281118507422  0.3996420166968045
  0.1669126354743449  0.8343889588866555  0.3998986570816583
  0.1674085967882595  0.9597815351168857  0.3998193026306228
  0.2925483332360265  0.0849466371601886  0.4000345303591801
  0.2940966992868606  0.2118880940794773  0.4013750068237373
  0.2926253897067296  0.3371742121322661  0.4030632781765557
  0.2878832391404537  0.4591895588102498  0.4023880458858591
  0.2887042066851889  0.5843668578721677  0.4002554050880571
  0.2906531442970142  0.7091330399073580  0.3996041029451337
  0.2915461177073677  0.8340860298022079  0.3996448099242615
  0.2920037392032114  0.9593096969424056  0.3996741980041747
  0.4171009987432439  0.0835660670246056  0.3996783216550467
  0.4176581489806248  0.2089374899912206  0.4001917181245747
  0.4204836008358012  0.3357369397230164  0.4033638151620403
  0.4149470757519261  0.7072105251853136  0.4010830845885734
  0.4161423002598935  0.8328653649446341  0.3996731277776492
  0.4166587244651086  0.9582428758172088  0.3996426248508682
  0.5417259278376526  0.0825599179898469  0.3996795567467619
  0.5422422314545862  0.2076565564198003  0.3997017048401988
  0.5434702452882647  0.3325353347605652  0.4001562223780165
  0.5452454878117005  0.4561207212310239  0.4017656298467058
  0.5457627352183225  0.5823377924931472  0.4031669851146332
  0.5388926162677172  0.7042792559912247  0.4025340712774544
  0.5406021332266832  0.8314454810243619  0.4002843632298351
  0.5413212510198130  0.9572093119522093  0.3997323459282875
  0.6663838962308641  0.0822429820260428  0.3999754638683045
  0.6668491300178297  0.2074875981837472  0.3998203269942985
  0.6677597373211432  0.3327899111574791  0.3995957556652237
  0.6692948582048874  0.4582031748536462  0.3989800565064255
  0.6693439083995295  0.5828599446027677  0.3988491073017473
  0.6669588820881217  0.7073394115264608  0.3988882314139484
  0.6652493249269051  0.8311563903253598  0.3997744886797676
  0.6659565086273648  0.9569016210212893  0.3999782813298068
  0.7911914470302119  0.0823507825729771  0.3999735519569682
  0.7914265976454770  0.2075101104904637  0.3999697774411110
  0.7919942986690920  0.3328606260915078  0.3999873385713250
  0.7928470684118812  0.4582840164042205  0.3995692840221851
  0.7934120452472324  0.5836192871201339  0.3989424848594987
  0.7926536786806726  0.7085029354015091  0.3988112425819005
  0.7916757135466159  0.8329454311069601  0.3992693998315024
  0.7909552851007426  0.9572022984027584  0.3997886117666629
  0.9163820984699476  0.0829566405682940  0.3996854224148043
  0.9161760381697550  0.2077587295119620  0.3995842463027576
  0.9162081878460150  0.3329258348427465  0.3996910940321031
  0.9166693655448354  0.4583331019063275  0.3999663413740771
  0.9173741887939822  0.5838167113552382  0.3998937281599677
  0.9174907784371329  0.7090677909308466  0.3996951195446847
  0.9172797453551366  0.8339481548955171  0.3996763512399521
  0.9168840643045922  0.9585706582862693  0.3997660376759136
  0.0843798602348781  0.0431626026687126  0.3997272954597157
  0.0838314314008269  0.1676191198148914  0.3995010843924389
  0.0825164583165188  0.2917990131870726  0.3990982695571953
  0.0815347946081922  0.4166486197168340  0.3987753162688223
  0.0821738259400201  0.5419738613640269  0.3991730538334127
  0.0831166660572957  0.6673635623030031  0.3998274272836678
  0.0837351241324836  0.7927052980472155  0.4000533380459749
  0.0840666175654782  0.9179237614074564  0.3998059986465808
  0.2092664701867359  0.0432930489105100  0.3999921652835532
  0.2100000115162600  0.1691522700454895  0.4004281140815028
  0.2087233271032302  0.2934849890980906  0.4002501734142426
  0.2054801096024930  0.4173563891716992  0.3996236193980735
  0.2057251481691947  0.5419962570775364  0.3989363860356649
  0.2073912342695421  0.6674094453446665  0.3993384231037392
  0.2082865930450738  0.7926291641272120  0.3997608825569445
  0.2087964670317421  0.9178865810607170  0.3997886336172113
  0.3338396409094614  0.0427604381760075  0.3997185307363688
  0.3345624799030122  0.1685991706923508  0.4005522614372327
  0.3363178323239044  0.2959480740726466  0.4032920260981114
  0.3299066529216083  0.4194999536157289  0.4058742927370694
  0.3296372499625727  0.5438559598872655  0.4031071250781639
  0.3316999711144761  0.6674643077853397  0.4003501546584929
  0.3329318080865387  0.7923264083431871  0.3996216133542017
  0.3334559234445357  0.9174056453497006  0.3996497901748420
  0.4585308177387316  0.0415873795081027  0.3996547150530554
  0.4590542070909325  0.1668916992447248  0.3997513740885932
  0.4602040444573341  0.2922649406387429  0.4008004417158134
  0.4544828676310525  0.6633308241737502  0.4037676750855616
  0.4574779041990873  0.7906926667326860  0.4001250381534686
  0.4580593762923110  0.9162233779121087  0.3996379652509925
  0.5831697010575190  0.0406907371912675  0.3997859681074510
  0.5836081326828642  0.1659162102400600  0.3996759224569467
  0.5845124788225444  0.2909314848519807  0.3997074287672608
  0.5864112616208367  0.4157376083650275  0.3998976444895060
  0.5866295117822770  0.5410654413769571  0.4005969666527181
  0.5833384325815043  0.6641388816080583  0.4012089572832007
  0.5810628032199654  0.7882827700429623  0.4007323114562468
  0.5826352672422578  0.9151217447865142  0.3999165966652309
  0.7078149555939210  0.0404172277667550  0.4000391924299669
  0.7082252918016939  0.1657565011118696  0.3999640310541648
  0.7088410661279579  0.2910401124734290  0.3998358125097535
  0.7099474915987223  0.4163410041777426  0.3992630808829864
  0.7107396391517157  0.5415610698703507  0.3986914292879458
  0.7093225783631644  0.6662692298805455  0.3985802785996609
  0.7081478185975687  0.7906909783927661  0.3991224552375767
  0.7072621519842499  0.9148640094790141  0.3998125179229789
  0.8328671825386010  0.0408122529828979  0.3998650970612239
  0.8329319133277915  0.1658653993780631  0.3998739133290647
  0.8331752822824614  0.2910467578968952  0.3999516370102654
  0.8337646830428171  0.4163770808615159  0.3999702960485638
  0.8344758977311874  0.5418190639808405  0.3994881843090558
  0.8344569555753223  0.6671554412760275  0.3991132511554076
  0.8338872215248022  0.7918606333859206  0.3992262395091276
  0.8333036807090172  0.9163687108053076  0.3996814122880497
  0.9586039470749678  0.0419802893368329  0.3996826418916518
  0.9580254541264389  0.1664374553389018  0.3994853712766526
  0.9576545151372085  0.2912267400456765  0.3993967086587185
  0.9576245478762827  0.4164498293143511  0.3996510349431493
  0.9583583805176947  0.5419437343306402  0.3999580250350052
  0.9588968005566220  0.6673336549188389  0.3999536399872130
  0.9590554840939687  0.7925460243849334  0.3998439508239942
  0.9589894039989934  0.9174651382287410  0.3997838186532959
  0.4095928052188603  0.5825078257481240  0.4071937619290272
  0.4652635228733455  0.4163391135221475  0.4058707158061498
  0.4414444107309063  0.5055357263799607  0.4926057049677640
 
  0.00000000E+00  0.00000000E+00  0.00000000E+00
  0.00000000E+00  0.00000000E+00  0.00000000E+00
  0.00000000E+00  0.00000000E+00  0.00000000E+00
  0.00000000E+00  0.00000000E+00  0.00000000E+00
  0.00000000E+00  0.00000000E+00  0.00000000E+00
  0.00000000E+00  0.00000000E+00  0.00000000E+00
  0.00000000E+00  0.00000000E+00  0.00000000E+00
  0.00000000E+00  0.00000000E+00  0.00000000E+00
  0.00000000E+00  0.00000000E+00  0.00000000E+00
  0.00000000E+00  0.00000000E+00  0.00000000E+00
  0.00000000E+00  0.00000000E+00  0.00000000E+00
  0.00000000E+00  0.00000000E+00  0.00000000E+00
  0.00000000E+00  0.00000000E+00  0.00000000E+00
  0.00000000E+00  0.00000000E+00  0.00000000E+00
  0.00000000E+00  0.00000000E+00  0.00000000E+00
  0.00000000E+00  0.00000000E+00  0.00000000E+00
  0.00000000E+00  0.00000000E+00  0.00000000E+00
  0.00000000E+00  0.00000000E+00  0.00000000E+00
  0.00000000E+00  0.00000000E+00  0.00000000E+00
  0.00000000E+00  0.00000000E+00  0.00000000E+00
  0.00000000E+00  0.00000000E+00  0.00000000E+00
  0.00000000E+00  0.00000000E+00  0.00000000E+00
  0.00000000E+00  0.00000000E+00  0.00000000E+00
  0.00000000E+00  0.00000000E+00  0.00000000E+00
  0.00000000E+00  0.00000000E+00  0.00000000E+00
  0.00000000E+00  0.00000000E+00  0.00000000E+00
  0.00000000E+00  0.00000000E+00  0.00000000E+00
  0.00000000E+00  0.00000000E+00  0.00000000E+00
  0.00000000E+00  0.00000000E+00  0.00000000E+00
  0.00000000E+00  0.00000000E+00  0.00000000E+00
  0.00000000E+00  0.00000000E+00  0.00000000E+00
  0.00000000E+00  0.00000000E+00  0.00000000E+00
  0.00000000E+00  0.00000000E+00  0.00000000E+00
  0.00000000E+00  0.00000000E+00  0.00000000E+00
  0.00000000E+00  0.00000000E+00  0.00000000E+00
  0.00000000E+00  0.00000000E+00  0.00000000E+00
  0.00000000E+00  0.00000000E+00  0.00000000E+00
  0.00000000E+00  0.00000000E+00  0.00000000E+00
  0.00000000E+00  0.00000000E+00  0.00000000E+00
  0.00000000E+00  0.00000000E+00  0.00000000E+00
  0.00000000E+00  0.00000000E+00  0.00000000E+00
  0.00000000E+00  0.00000000E+00  0.00000000E+00
  0.00000000E+00  0.00000000E+00  0.00000000E+00
  0.00000000E+00  0.00000000E+00  0.00000000E+00
  0.00000000E+00  0.00000000E+00  0.00000000E+00
  0.00000000E+00  0.00000000E+00  0.00000000E+00
  0.00000000E+00  0.00000000E+00  0.00000000E+00
  0.00000000E+00  0.00000000E+00  0.00000000E+00
  0.00000000E+00  0.00000000E+00  0.00000000E+00
  0.00000000E+00  0.00000000E+00  0.00000000E+00
  0.00000000E+00  0.00000000E+00  0.00000000E+00
  0.00000000E+00  0.00000000E+00  0.00000000E+00
  0.00000000E+00  0.00000000E+00  0.00000000E+00
  0.00000000E+00  0.00000000E+00  0.00000000E+00
  0.00000000E+00  0.00000000E+00  0.00000000E+00
  0.00000000E+00  0.00000000E+00  0.00000000E+00
  0.00000000E+00  0.00000000E+00  0.00000000E+00
  0.00000000E+00  0.00000000E+00  0.00000000E+00
  0.00000000E+00  0.00000000E+00  0.00000000E+00
  0.00000000E+00  0.00000000E+00  0.00000000E+00
  0.00000000E+00  0.00000000E+00  0.00000000E+00
  0.00000000E+00  0.00000000E+00  0.00000000E+00
  0.00000000E+00  0.00000000E+00  0.00000000E+00
  0.00000000E+00  0.00000000E+00  0.00000000E+00
  0.00000000E+00  0.00000000E+00  0.00000000E+00
  0.00000000E+00  0.00000000E+00  0.00000000E+00
  0.00000000E+00  0.00000000E+00  0.00000000E+00
  0.00000000E+00  0.00000000E+00  0.00000000E+00
  0.00000000E+00  0.00000000E+00  0.00000000E+00
  0.00000000E+00  0.00000000E+00  0.00000000E+00
  0.00000000E+00  0.00000000E+00  0.00000000E+00
  0.00000000E+00  0.00000000E+00  0.00000000E+00
  0.00000000E+00  0.00000000E+00  0.00000000E+00
  0.00000000E+00  0.00000000E+00  0.00000000E+00
  0.00000000E+00  0.00000000E+00  0.00000000E+00
  0.00000000E+00  0.00000000E+00  0.00000000E+00
  0.00000000E+00  0.00000000E+00  0.00000000E+00
  0.00000000E+00  0.00000000E+00  0.00000000E+00
  0.00000000E+00  0.00000000E+00  0.00000000E+00
  0.00000000E+00  0.00000000E+00  0.00000000E+00
  0.00000000E+00  0.00000000E+00  0.00000000E+00
  0.00000000E+00  0.00000000E+00  0.00000000E+00
  0.00000000E+00  0.00000000E+00  0.00000000E+00
  0.00000000E+00  0.00000000E+00  0.00000000E+00
  0.00000000E+00  0.00000000E+00  0.00000000E+00
  0.00000000E+00  0.00000000E+00  0.00000000E+00
  0.00000000E+00  0.00000000E+00  0.00000000E+00
  0.00000000E+00  0.00000000E+00  0.00000000E+00
  0.00000000E+00  0.00000000E+00  0.00000000E+00
  0.00000000E+00  0.00000000E+00  0.00000000E+00
  0.00000000E+00  0.00000000E+00  0.00000000E+00
  0.00000000E+00  0.00000000E+00  0.00000000E+00
  0.00000000E+00  0.00000000E+00  0.00000000E+00
  0.00000000E+00  0.00000000E+00  0.00000000E+00
  0.00000000E+00  0.00000000E+00  0.00000000E+00
  0.00000000E+00  0.00000000E+00  0.00000000E+00
  0.00000000E+00  0.00000000E+00  0.00000000E+00
  0.00000000E+00  0.00000000E+00  0.00000000E+00
  0.00000000E+00  0.00000000E+00  0.00000000E+00
  0.00000000E+00  0.00000000E+00  0.00000000E+00
  0.00000000E+00  0.00000000E+00  0.00000000E+00
  0.00000000E+00  0.00000000E+00  0.00000000E+00
  0.00000000E+00  0.00000000E+00  0.00000000E+00
  0.00000000E+00  0.00000000E+00  0.00000000E+00
  0.00000000E+00  0.00000000E+00  0.00000000E+00
  0.00000000E+00  0.00000000E+00  0.00000000E+00
  0.00000000E+00  0.00000000E+00  0.00000000E+00
  0.00000000E+00  0.00000000E+00  0.00000000E+00
  0.00000000E+00  0.00000000E+00  0.00000000E+00
  0.00000000E+00  0.00000000E+00  0.00000000E+00
  0.00000000E+00  0.00000000E+00  0.00000000E+00
  0.00000000E+00  0.00000000E+00  0.00000000E+00
  0.00000000E+00  0.00000000E+00  0.00000000E+00
  0.00000000E+00  0.00000000E+00  0.00000000E+00
  0.00000000E+00  0.00000000E+00  0.00000000E+00
  0.00000000E+00  0.00000000E+00  0.00000000E+00
  0.00000000E+00  0.00000000E+00  0.00000000E+00
  0.00000000E+00  0.00000000E+00  0.00000000E+00
  0.00000000E+00  0.00000000E+00  0.00000000E+00
  0.00000000E+00  0.00000000E+00  0.00000000E+00
  0.00000000E+00  0.00000000E+00  0.00000000E+00
  0.00000000E+00  0.00000000E+00  0.00000000E+00
  0.00000000E+00  0.00000000E+00  0.00000000E+00
  0.00000000E+00  0.00000000E+00  0.00000000E+00
  0.00000000E+00  0.00000000E+00  0.00000000E+00
  0.00000000E+00  0.00000000E+00  0.00000000E+00
  0.00000000E+00  0.00000000E+00  0.00000000E+00
  0.00000000E+00  0.00000000E+00  0.00000000E+00
