Zn1 C125 N1                             
   1.00000000000000     
    19.8283683586230879   -0.0056531279790600    0.0028647164816090
    -9.9191306338066152   17.0621483942804808    0.0139967484816297
     0.0042038602832832    0.0265577344485508   29.7477236790134931
   Zn   C    N 
     1   125     1
Direct
  0.4379469472849458  0.5012687971188557  0.4101333619375750
  0.0417677794054376  0.0839177647214438  0.3998429371599331
  0.0409306112644032  0.2081596387755307  0.3998762567949418
  0.0403539982335795  0.3327903992228604  0.3992419871915212
  0.0404425288924647  0.4582178747474190  0.3990016336515977
  0.0412887900249573  0.5837430659599790  0.3992635913112003
  0.0420750365144808  0.7091586533406399  0.3995116673585981
  0.0424094127984672  0.8344714819111424  0.3996503977079104
  0.0423314697183899  0.9594529061181819  0.3997221092595939
  0.1675432457969593  0.0851720176105518  0.4004998566085275
  0.1669323747769397  0.2096969709361451  0.4016034880175381
  0.1654101497199289  0.3337482946664605  0.4016033728846443
  0.1640761182827914  0.4584277716997974  0.3997488988312773
  0.1649600511620549  0.5837339052800160  0.3992597610785625
  0.1662691029721976  0.7091436109529792  0.3994302483080227
  0.1670300292283735  0.8345232510647609  0.3997027409491684
  0.1674261267514551  0.9598919472537555  0.3998124498099558
  0.2925305921397953  0.0852055863090565  0.4002444550199712
  0.2931946770507172  0.2115022892796013  0.4023774556631333
  0.2922382916142028  0.3367594279146645  0.4062176585864551
  0.2879279364268401  0.4591265663349451  0.4042865475921633
  0.2882456223674692  0.5842652343044229  0.4014558024591131
  0.2904699596678075  0.7091085402368074  0.3998310644271240
  0.2915386095156141  0.8341838084210708  0.3996920654729985
  0.2920324817921960  0.9595061197138826  0.3998065590598225
  0.4170587798564310  0.0838880710772082  0.3998143791813195
  0.4176191340701741  0.2095253138179127  0.4009607549764851
  0.4191393514556553  0.3365420085753026  0.4028397935852301
  0.4145920444705659  0.7070010836998584  0.4018743045622623
  0.4159714996735422  0.8327884706835917  0.4002060009119771
  0.4165961734236611  0.9583423698677067  0.3997713136812592
  0.5415818830569397  0.0825332432443252  0.3996967283844413
  0.5421969256333512  0.2078702327834296  0.3996992844732031
  0.5432465432471282  0.3330278684928405  0.4010118967405117
  0.5468949096215632  0.4581572666864537  0.4038990879576432
  0.5471910720843383  0.5808876864274631  0.4106982590454797
  0.5384315346344033  0.7032477233818093  0.4043308215300051
  0.5402853023258475  0.8308740323675763  0.4012155050687589
  0.5411145976197491  0.9569453315174481  0.3999460540586884
  0.6661369663612756  0.0819267266073967  0.3997534383699753
  0.6666714238570000  0.2073194280895512  0.3995541863680602
  0.6675478002071493  0.3325900804213345  0.3994122028305327
  0.6697313715263585  0.4581942156295677  0.4006155534838700
  0.6710942449862943  0.5838922736719879  0.4023907817980922
  0.6667302798691238  0.7067015033571050  0.4035855666395509
  0.6649178911547695  0.8305623234623859  0.4017753757454252
  0.6656246201478001  0.9563916131171005  0.4001490398291016
  0.7908249242969296  0.0819051546536549  0.3997785408041471
  0.7911191360334068  0.2071639545939870  0.3996248346907915
  0.7918366669400801  0.3325956966623290  0.3994377079890853
  0.7930688011030990  0.4581925259280430  0.3990700756070446
  0.7939665743737757  0.5836455159769248  0.3993460984024715
  0.7932643504654567  0.7088575384989676  0.4002795228325347
  0.7914265217126280  0.8325537606341302  0.4002225769157118
  0.7905747900404908  0.9567479971904194  0.3999400496866038
  0.9159435691432132  0.0825541619495296  0.3996033608851738
  0.9157686127251070  0.2073849459929518  0.3994649207425219
  0.9159798933377595  0.3326206667690529  0.3993236665258793
  0.9166868581343480  0.4581118305350976  0.3993444455094490
  0.9176310731212847  0.5837343404590337  0.3992359437381194
  0.9177967988748001  0.7091386361041577  0.3992073329870332
  0.9174500921604858  0.8339855867171724  0.3994792671694439
  0.9165669369243314  0.9582214764086806  0.3995903882369045
  0.0840245784548817  0.0429892285962067  0.3999712821217652
  0.0833604817343208  0.1673710322180898  0.4002328177597194
  0.0821458880905509  0.2915069503594349  0.4000706885967447
  0.0814774109841748  0.4163823117651046  0.3990911392222835
  0.0821182638897772  0.5417837541426795  0.3990193352507465
  0.0831921121258840  0.6673267194106918  0.3994365971732329
  0.0838614314957395  0.7927810175291164  0.3996336948787763
  0.0840847756649865  0.9179972046855153  0.3997683478976947
  0.2091249168455779  0.0433761504215735  0.4001109462683062
  0.2092220860237181  0.1687636988150144  0.4016929588399751
  0.2082027721028268  0.2932422686643149  0.4031639787065707
  0.2053395300354934  0.4169701517828356  0.4012392916705055
  0.2054761858440734  0.5417935076001856  0.4000716305715944
  0.2073312024899831  0.6673453958631320  0.3993996756592487
  0.2083168735551776  0.7926722981361816  0.3996140096511953
  0.2088746871636221  0.9180288857718943  0.3997859832097167
  0.3338296516750258  0.0429821359034738  0.3998846453953532
  0.3343963656679229  0.1687452177331181  0.4010898602221992
  0.3348044972627696  0.2949300494864576  0.4041544945249581
  0.3288408874668266  0.4188111602562161  0.4100162750278988
  0.3293110933900117  0.5436531765026422  0.4029624778108683
  0.3314493197892140  0.6672902757109157  0.4008869003799030
  0.3328244060888479  0.7923085738947292  0.3998369948459157
  0.3334327765358165  0.9175237734967918  0.3997794190543860
  0.4584498829057428  0.0417118568663624  0.3997243032760279
  0.4589463512756661  0.1672149760079132  0.4000622342152328
  0.4599829951876234  0.2929989667347703  0.4016673969188810
  0.4655646839949718  0.4183482270520441  0.4020274386022972
  0.4539170492122504  0.6625992722696701  0.4031032579335018
  0.4572453701165143  0.7904852916313740  0.4011266330370370
  0.4579079091789198  0.9161565053053291  0.3999061710627885
  0.5829459770245713  0.0404657698646746  0.3997732458718849
  0.5835109547280227  0.1659124788253497  0.3995741900059452
  0.5844389754018442  0.2910685493991210  0.3998228224437937
  0.5869018042951148  0.4160143064698172  0.4021141109749074
  0.5894818510558576  0.5423105670313940  0.4057394732932874
  0.5824681870393852  0.6625861559295289  0.4066109756360814
  0.5806905272326133  0.7874575792116233  0.4024885661487072
  0.5823442226559044  0.9146515820243492  0.4003347115857647
  0.7074829124002980  0.0399898794351060  0.3998179974114501
  0.7079850003066994  0.1654325567602340  0.3996690530817306
  0.7086888142715118  0.2908035963475463  0.3993919423803309
  0.7101875610378838  0.4162640462952500  0.3994044343509154
  0.7116874146093266  0.5417405838109769  0.4004436558491270
  0.7102627527477469  0.6668926734697821  0.4022315247671287
  0.7077684178463741  0.7901033044691039  0.4017287970325091
  0.7068923538193627  0.9143292981679830  0.4005157428556697
  0.8324545135212728  0.0403897382413712  0.3997225859222604
  0.8325547749105171  0.1654564838694327  0.3996537116551108
  0.8330109020138990  0.2907765773935949  0.3995247437833938
  0.8338588036018632  0.4161894580856284  0.3992774286365987
  0.8348586105072922  0.5417311370990988  0.3990593401425756
  0.8349046813346606  0.6673448770175145  0.3993862086185661
  0.8341753379298619  0.7920228170440631  0.3998635687884150
  0.8329617776320660  0.9159686198408638  0.3997911703196803
  0.9582126449235198  0.0416800020614953  0.3996230640998928
  0.9576017583174707  0.1660619706980861  0.3995421152292945
  0.9573636361045931  0.2909034971433206  0.3992109262855204
  0.9576129504438030  0.4162043973563218  0.3992484618298737
  0.9585162527961353  0.5418093808821161  0.3993301659488176
  0.9591271766160979  0.6673440870685948  0.3993051727072609
  0.9592391235245541  0.7926291960865721  0.3994351477977751
  0.9589004033416710  0.9173939917964317  0.3995635154060470
  0.4086995976865247  0.5821772262414298  0.4023131202682102
 
  0.00000000E+00  0.00000000E+00  0.00000000E+00
  0.00000000E+00  0.00000000E+00  0.00000000E+00
  0.00000000E+00  0.00000000E+00  0.00000000E+00
  0.00000000E+00  0.00000000E+00  0.00000000E+00
  0.00000000E+00  0.00000000E+00  0.00000000E+00
  0.00000000E+00  0.00000000E+00  0.00000000E+00
  0.00000000E+00  0.00000000E+00  0.00000000E+00
  0.00000000E+00  0.00000000E+00  0.00000000E+00
  0.00000000E+00  0.00000000E+00  0.00000000E+00
  0.00000000E+00  0.00000000E+00  0.00000000E+00
  0.00000000E+00  0.00000000E+00  0.00000000E+00
  0.00000000E+00  0.00000000E+00  0.00000000E+00
  0.00000000E+00  0.00000000E+00  0.00000000E+00
  0.00000000E+00  0.00000000E+00  0.00000000E+00
  0.00000000E+00  0.00000000E+00  0.00000000E+00
  0.00000000E+00  0.00000000E+00  0.00000000E+00
  0.00000000E+00  0.00000000E+00  0.00000000E+00
  0.00000000E+00  0.00000000E+00  0.00000000E+00
  0.00000000E+00  0.00000000E+00  0.00000000E+00
  0.00000000E+00  0.00000000E+00  0.00000000E+00
  0.00000000E+00  0.00000000E+00  0.00000000E+00
  0.00000000E+00  0.00000000E+00  0.00000000E+00
  0.00000000E+00  0.00000000E+00  0.00000000E+00
  0.00000000E+00  0.00000000E+00  0.00000000E+00
  0.00000000E+00  0.00000000E+00  0.00000000E+00
  0.00000000E+00  0.00000000E+00  0.00000000E+00
  0.00000000E+00  0.00000000E+00  0.00000000E+00
  0.00000000E+00  0.00000000E+00  0.00000000E+00
  0.00000000E+00  0.00000000E+00  0.00000000E+00
  0.00000000E+00  0.00000000E+00  0.00000000E+00
  0.00000000E+00  0.00000000E+00  0.00000000E+00
  0.00000000E+00  0.00000000E+00  0.00000000E+00
  0.00000000E+00  0.00000000E+00  0.00000000E+00
  0.00000000E+00  0.00000000E+00  0.00000000E+00
  0.00000000E+00  0.00000000E+00  0.00000000E+00
  0.00000000E+00  0.00000000E+00  0.00000000E+00
  0.00000000E+00  0.00000000E+00  0.00000000E+00
  0.00000000E+00  0.00000000E+00  0.00000000E+00
  0.00000000E+00  0.00000000E+00  0.00000000E+00
  0.00000000E+00  0.00000000E+00  0.00000000E+00
  0.00000000E+00  0.00000000E+00  0.00000000E+00
  0.00000000E+00  0.00000000E+00  0.00000000E+00
  0.00000000E+00  0.00000000E+00  0.00000000E+00
  0.00000000E+00  0.00000000E+00  0.00000000E+00
  0.00000000E+00  0.00000000E+00  0.00000000E+00
  0.00000000E+00  0.00000000E+00  0.00000000E+00
  0.00000000E+00  0.00000000E+00  0.00000000E+00
  0.00000000E+00  0.00000000E+00  0.00000000E+00
  0.00000000E+00  0.00000000E+00  0.00000000E+00
  0.00000000E+00  0.00000000E+00  0.00000000E+00
  0.00000000E+00  0.00000000E+00  0.00000000E+00
  0.00000000E+00  0.00000000E+00  0.00000000E+00
  0.00000000E+00  0.00000000E+00  0.00000000E+00
  0.00000000E+00  0.00000000E+00  0.00000000E+00
  0.00000000E+00  0.00000000E+00  0.00000000E+00
  0.00000000E+00  0.00000000E+00  0.00000000E+00
  0.00000000E+00  0.00000000E+00  0.00000000E+00
  0.00000000E+00  0.00000000E+00  0.00000000E+00
  0.00000000E+00  0.00000000E+00  0.00000000E+00
  0.00000000E+00  0.00000000E+00  0.00000000E+00
  0.00000000E+00  0.00000000E+00  0.00000000E+00
  0.00000000E+00  0.00000000E+00  0.00000000E+00
  0.00000000E+00  0.00000000E+00  0.00000000E+00
  0.00000000E+00  0.00000000E+00  0.00000000E+00
  0.00000000E+00  0.00000000E+00  0.00000000E+00
  0.00000000E+00  0.00000000E+00  0.00000000E+00
  0.00000000E+00  0.00000000E+00  0.00000000E+00
  0.00000000E+00  0.00000000E+00  0.00000000E+00
  0.00000000E+00  0.00000000E+00  0.00000000E+00
  0.00000000E+00  0.00000000E+00  0.00000000E+00
  0.00000000E+00  0.00000000E+00  0.00000000E+00
  0.00000000E+00  0.00000000E+00  0.00000000E+00
  0.00000000E+00  0.00000000E+00  0.00000000E+00
  0.00000000E+00  0.00000000E+00  0.00000000E+00
  0.00000000E+00  0.00000000E+00  0.00000000E+00
  0.00000000E+00  0.00000000E+00  0.00000000E+00
  0.00000000E+00  0.00000000E+00  0.00000000E+00
  0.00000000E+00  0.00000000E+00  0.00000000E+00
  0.00000000E+00  0.00000000E+00  0.00000000E+00
  0.00000000E+00  0.00000000E+00  0.00000000E+00
  0.00000000E+00  0.00000000E+00  0.00000000E+00
  0.00000000E+00  0.00000000E+00  0.00000000E+00
  0.00000000E+00  0.00000000E+00  0.00000000E+00
  0.00000000E+00  0.00000000E+00  0.00000000E+00
  0.00000000E+00  0.00000000E+00  0.00000000E+00
  0.00000000E+00  0.00000000E+00  0.00000000E+00
  0.00000000E+00  0.00000000E+00  0.00000000E+00
  0.00000000E+00  0.00000000E+00  0.00000000E+00
  0.00000000E+00  0.00000000E+00  0.00000000E+00
  0.00000000E+00  0.00000000E+00  0.00000000E+00
  0.00000000E+00  0.00000000E+00  0.00000000E+00
  0.00000000E+00  0.00000000E+00  0.00000000E+00
  0.00000000E+00  0.00000000E+00  0.00000000E+00
  0.00000000E+00  0.00000000E+00  0.00000000E+00
  0.00000000E+00  0.00000000E+00  0.00000000E+00
  0.00000000E+00  0.00000000E+00  0.00000000E+00
  0.00000000E+00  0.00000000E+00  0.00000000E+00
  0.00000000E+00  0.00000000E+00  0.00000000E+00
  0.00000000E+00  0.00000000E+00  0.00000000E+00
  0.00000000E+00  0.00000000E+00  0.00000000E+00
  0.00000000E+00  0.00000000E+00  0.00000000E+00
  0.00000000E+00  0.00000000E+00  0.00000000E+00
  0.00000000E+00  0.00000000E+00  0.00000000E+00
  0.00000000E+00  0.00000000E+00  0.00000000E+00
  0.00000000E+00  0.00000000E+00  0.00000000E+00
  0.00000000E+00  0.00000000E+00  0.00000000E+00
  0.00000000E+00  0.00000000E+00  0.00000000E+00
  0.00000000E+00  0.00000000E+00  0.00000000E+00
  0.00000000E+00  0.00000000E+00  0.00000000E+00
  0.00000000E+00  0.00000000E+00  0.00000000E+00
  0.00000000E+00  0.00000000E+00  0.00000000E+00
  0.00000000E+00  0.00000000E+00  0.00000000E+00
  0.00000000E+00  0.00000000E+00  0.00000000E+00
  0.00000000E+00  0.00000000E+00  0.00000000E+00
  0.00000000E+00  0.00000000E+00  0.00000000E+00
  0.00000000E+00  0.00000000E+00  0.00000000E+00
  0.00000000E+00  0.00000000E+00  0.00000000E+00
  0.00000000E+00  0.00000000E+00  0.00000000E+00
  0.00000000E+00  0.00000000E+00  0.00000000E+00
  0.00000000E+00  0.00000000E+00  0.00000000E+00
  0.00000000E+00  0.00000000E+00  0.00000000E+00
  0.00000000E+00  0.00000000E+00  0.00000000E+00
  0.00000000E+00  0.00000000E+00  0.00000000E+00
  0.00000000E+00  0.00000000E+00  0.00000000E+00
  0.00000000E+00  0.00000000E+00  0.00000000E+00
  0.00000000E+00  0.00000000E+00  0.00000000E+00
  0.00000000E+00  0.00000000E+00  0.00000000E+00
