H1 Ir1 C122 N4 O2                       
   1.00000000000000     
    19.8555284714676965    0.0000316867908638    0.0072356461660691
    -9.9277239841404210   17.0215625278812226   -0.0224236854921070
     0.0108713209579498   -0.0328709118307590   29.7729169194375913
   H    Ir   C    N    O 
     1     1   122     4     2
Direct
  0.5240450197629729  0.5469326904250669  0.5074893827355045
  0.4374535768809412  0.5000341114355830  0.4105230839068948
  0.0420991061148980  0.0843931671886730  0.4001080466754176
  0.0405917690797100  0.2080359616048753  0.4001703588566174
  0.0395392174512480  0.3326464461315103  0.3998907209190770
  0.0397483621787652  0.4581613910058353  0.3992624133042458
  0.0410908332315738  0.5839797160292260  0.3989060850806280
  0.0423543400674197  0.7096700808923260  0.3991623193515036
  0.0428128368200238  0.8350391615416844  0.3994291000831684
  0.0428742495915748  0.9601880355983590  0.3996827248863427
  0.1685700630482434  0.0866077189080536  0.4008256033469105
  0.1674429096153531  0.2107238985088261  0.4017122475852232
  0.1640986978102801  0.3335085857115080  0.4019095270641403
  0.1626021145092071  0.4584191013039482  0.4013256970786995
  0.1642326039692793  0.5838871988398741  0.4000192593675986
  0.1661881168733595  0.7094126890578613  0.3993229458257233
  0.1672124372531855  0.8350233970044229  0.3994332204539643
  0.1678669788699251  0.9607455982256752  0.3999035402188736
  0.2930470077241847  0.0865830776047024  0.4007902633059143
  0.2947648046149578  0.2144769320567301  0.4027805184946780
  0.2919051617671432  0.3392097839963065  0.4042489187641240
  0.2846389821456122  0.4579812832054151  0.4044293540528840
  0.2867425165315148  0.5833654270466021  0.4026146631363269
  0.2900553727886367  0.7087088122717584  0.4005537125854110
  0.2915228734912936  0.8342912459360523  0.3995533174880198
  0.2923132805763834  0.9601475590420976  0.3996825715149382
  0.4173068037209925  0.0843562815234909  0.4000760617707722
  0.4182871585464940  0.2107284050654848  0.4017563313859303
  0.4223174460412727  0.3392422617522607  0.4046158899970236
  0.4138780729045037  0.7057814005379802  0.4026511861563623
  0.4157707361305225  0.8321048818057430  0.4006054404563813
  0.4166119357383823  0.9582522083188273  0.3996547508673494
  0.5415420812131030  0.0822278266027072  0.3995265946109551
  0.5424468236862899  0.2080332042885281  0.4001922388437907
  0.5444057954618433  0.3335013977054901  0.4021671263539074
  0.5483192335874508  0.4579716446508533  0.4052404392673897
  0.5377150299043323  0.7004271220653993  0.4045117139900326
  0.5400060101246258  0.8293650522565281  0.4018483269850806
  0.5408763189401795  0.9560992105100272  0.4001396526989084
  0.6658638955289565  0.0813269508766711  0.3996541764798092
  0.6666570482344139  0.2070021915772660  0.3993600948704732
  0.6680921282263734  0.3326504009573745  0.3998926376398768
  0.6707772166364175  0.4584174064480736  0.4015227660025479
  0.6715975180283770  0.5833592297576768  0.4030415121861809
  0.6669072135379497  0.7057915510463181  0.4028857519827507
  0.6644024324408212  0.8293841791453131  0.4018512537233370
  0.6652661734871347  0.9555134536525576  0.4004945018562795
  0.7904637804197803  0.0813461825902755  0.3996467192702737
  0.7908911208504531  0.2067709471432350  0.3994115619123414
  0.7918416948406262  0.3324044266408094  0.3990471172754896
  0.7934029267581896  0.4581612073881908  0.3992317126551797
  0.7946365335331540  0.5838710556030023  0.4000497303328048
  0.7936442520104326  0.7087014591490428  0.4006318121667582
  0.7913754000465506  0.8321364638472694  0.4006101297907679
  0.7902581224627546  0.9561422778497344  0.4001252631709380
  0.9157264929278379  0.0822560611611563  0.3995651822363863
  0.9153621087130668  0.2070095288964332  0.3993768399248126
  0.9155894204307108  0.3324057778289150  0.3990814545392813
  0.9165996385481101  0.4581830643524608  0.3987469709750403
  0.9178876417218697  0.5839807246765014  0.3988577757229457
  0.9182186527269556  0.7094077859939349  0.3992773572208000
  0.9177912086965516  0.8342980002676594  0.3995264890403675
  0.9166847783515566  0.9582881036992648  0.3996418272865454
  0.0848303456027858  0.0439783074242497  0.4001783897959928
  0.0837117524404268  0.1679596547632214  0.4006360021839457
  0.0813859526601348  0.2913476562045491  0.4005626857411124
  0.0803741354763726  0.4161691206239741  0.4000433266656034
  0.0816174514843531  0.5418815177966116  0.3992538528523727
  0.0832100205892650  0.6676444810023099  0.3990768165255099
  0.0841519908465966  0.7932911575800623  0.3994146272558840
  0.0845719761972756  0.9187436531076029  0.3996528631711591
  0.2097919686220593  0.0445602269123722  0.4005174448714983
  0.2106942459817322  0.1707338373654794  0.4018435517779008
  0.2081473131884749  0.2942950424044161  0.4026114133995088
  0.2033959242214127  0.4166891037858757  0.4026152050682917
  0.2042088584129901  0.5416348359493014  0.4013061264636231
  0.2069050218566312  0.6673924304251644  0.3998741348713179
  0.2083810711373036  0.7930492838119008  0.3993675147607990
  0.2091526672175372  0.9187184875871415  0.3996445118948431
  0.3341508730101808  0.0439336189995660  0.4001512560470447
  0.3350573968688359  0.1707086943880398  0.4018369684959113
  0.3373584449609849  0.2996978538427933  0.4043425158883378
  0.3266625789400103  0.5420731094134398  0.4044956890534838
  0.3306071101365403  0.6665468395899251  0.4019217397125983
  0.3325745561141922  0.7920124285970649  0.4001521921908368
  0.3334957308426440  0.9178055643932447  0.3995441660594403
  0.4584332660787704  0.0417853601620766  0.3996525561166079
  0.4592632448124822  0.1679462409346234  0.4006391061895911
  0.4611484076414757  0.2943040697638987  0.4028458370394862
  0.4527306919390340  0.6608931258778553  0.4044237461914980
  0.4567516519916052  0.7893490379838547  0.4017105969972088
  0.4577343430126151  0.9156707733279894  0.4000633126666417
  0.5827200753499439  0.0398823148701499  0.3996724432903452
  0.5835233322505020  0.1657691307539637  0.3995443661678805
  0.5849551063419486  0.2913425848821849  0.4006348310489426
  0.5882334415194801  0.4166583365579145  0.4030412359235415
  0.5904001172019371  0.5420016766537988  0.4053122604311739
  0.5831609121503726  0.6609448707941794  0.4047751160822728
  0.5803642568572606  0.7856793722688244  0.4028456818867886
  0.5819991826590160  0.9134800889719781  0.4007931354880301
  0.7071607026043802  0.0393234019740533  0.3998967292972320
  0.7078104425343811  0.1650232727177498  0.3994327496176325
  0.7088381431101569  0.2906451780313578  0.3992949465623203
  0.7107704106936716  0.4161601779227550  0.4000645185770264
  0.7123930124939981  0.5416023426848814  0.4015068002597486
  0.7109639566679740  0.6665624913282427  0.4021869249660728
  0.7076298978989538  0.7893657297366262  0.4017508279915595
  0.7065124738828700  0.9135077166367809  0.4007716228610802
  0.8322079633772952  0.0399178083013079  0.3996823720833766
  0.8322258534954053  0.1650425421179308  0.3994346537002166
  0.8327140836789427  0.2903919733797278  0.3991623434905671
  0.8339357064136814  0.4160677753631052  0.3988650524077172
  0.8352794176155651  0.5418815231315467  0.3992253606869893
  0.8354865480405516  0.6673932385374074  0.3998776795983366
  0.8344598416439385  0.7920266856942312  0.4001799560565992
  0.8329997085014613  0.9157264912286776  0.4000447493907056
  0.9584029718035634  0.0418220926860069  0.3996790949214320
  0.9572688926478090  0.1657769255942405  0.3995715187110863
  0.9568130913559996  0.2906542216676850  0.3993354223855440
  0.9571475976434366  0.4160774190664996  0.3989062860390487
  0.9584594660249737  0.5418661846782417  0.3987476662636620
  0.9594808250735405  0.6676580709883490  0.3990374386663583
  0.9596961672042819  0.7930626259488960  0.3993475326850381
  0.9593560089891557  0.9178451471753707  0.3995157313050999
  0.4067025705168019  0.5804323692125058  0.4053494296377897
  0.5486460881321769  0.5804013974271759  0.4062648900982070
  0.3262426234421654  0.4196155023311673  0.4049807779951425
  0.4683230223924887  0.4196515565009608  0.4058761656029619
  0.4877699691281403  0.4913451380889968  0.5009350058054461
  0.4260200484503076  0.4959487118704908  0.4780475443402805
 
  0.00000000E+00  0.00000000E+00  0.00000000E+00
  0.00000000E+00  0.00000000E+00  0.00000000E+00
  0.00000000E+00  0.00000000E+00  0.00000000E+00
  0.00000000E+00  0.00000000E+00  0.00000000E+00
  0.00000000E+00  0.00000000E+00  0.00000000E+00
  0.00000000E+00  0.00000000E+00  0.00000000E+00
  0.00000000E+00  0.00000000E+00  0.00000000E+00
  0.00000000E+00  0.00000000E+00  0.00000000E+00
  0.00000000E+00  0.00000000E+00  0.00000000E+00
  0.00000000E+00  0.00000000E+00  0.00000000E+00
  0.00000000E+00  0.00000000E+00  0.00000000E+00
  0.00000000E+00  0.00000000E+00  0.00000000E+00
  0.00000000E+00  0.00000000E+00  0.00000000E+00
  0.00000000E+00  0.00000000E+00  0.00000000E+00
  0.00000000E+00  0.00000000E+00  0.00000000E+00
  0.00000000E+00  0.00000000E+00  0.00000000E+00
  0.00000000E+00  0.00000000E+00  0.00000000E+00
  0.00000000E+00  0.00000000E+00  0.00000000E+00
  0.00000000E+00  0.00000000E+00  0.00000000E+00
  0.00000000E+00  0.00000000E+00  0.00000000E+00
  0.00000000E+00  0.00000000E+00  0.00000000E+00
  0.00000000E+00  0.00000000E+00  0.00000000E+00
  0.00000000E+00  0.00000000E+00  0.00000000E+00
  0.00000000E+00  0.00000000E+00  0.00000000E+00
  0.00000000E+00  0.00000000E+00  0.00000000E+00
  0.00000000E+00  0.00000000E+00  0.00000000E+00
  0.00000000E+00  0.00000000E+00  0.00000000E+00
  0.00000000E+00  0.00000000E+00  0.00000000E+00
  0.00000000E+00  0.00000000E+00  0.00000000E+00
  0.00000000E+00  0.00000000E+00  0.00000000E+00
  0.00000000E+00  0.00000000E+00  0.00000000E+00
  0.00000000E+00  0.00000000E+00  0.00000000E+00
  0.00000000E+00  0.00000000E+00  0.00000000E+00
  0.00000000E+00  0.00000000E+00  0.00000000E+00
  0.00000000E+00  0.00000000E+00  0.00000000E+00
  0.00000000E+00  0.00000000E+00  0.00000000E+00
  0.00000000E+00  0.00000000E+00  0.00000000E+00
  0.00000000E+00  0.00000000E+00  0.00000000E+00
  0.00000000E+00  0.00000000E+00  0.00000000E+00
  0.00000000E+00  0.00000000E+00  0.00000000E+00
  0.00000000E+00  0.00000000E+00  0.00000000E+00
  0.00000000E+00  0.00000000E+00  0.00000000E+00
  0.00000000E+00  0.00000000E+00  0.00000000E+00
  0.00000000E+00  0.00000000E+00  0.00000000E+00
  0.00000000E+00  0.00000000E+00  0.00000000E+00
  0.00000000E+00  0.00000000E+00  0.00000000E+00
  0.00000000E+00  0.00000000E+00  0.00000000E+00
  0.00000000E+00  0.00000000E+00  0.00000000E+00
  0.00000000E+00  0.00000000E+00  0.00000000E+00
  0.00000000E+00  0.00000000E+00  0.00000000E+00
  0.00000000E+00  0.00000000E+00  0.00000000E+00
  0.00000000E+00  0.00000000E+00  0.00000000E+00
  0.00000000E+00  0.00000000E+00  0.00000000E+00
  0.00000000E+00  0.00000000E+00  0.00000000E+00
  0.00000000E+00  0.00000000E+00  0.00000000E+00
  0.00000000E+00  0.00000000E+00  0.00000000E+00
  0.00000000E+00  0.00000000E+00  0.00000000E+00
  0.00000000E+00  0.00000000E+00  0.00000000E+00
  0.00000000E+00  0.00000000E+00  0.00000000E+00
  0.00000000E+00  0.00000000E+00  0.00000000E+00
  0.00000000E+00  0.00000000E+00  0.00000000E+00
  0.00000000E+00  0.00000000E+00  0.00000000E+00
  0.00000000E+00  0.00000000E+00  0.00000000E+00
  0.00000000E+00  0.00000000E+00  0.00000000E+00
  0.00000000E+00  0.00000000E+00  0.00000000E+00
  0.00000000E+00  0.00000000E+00  0.00000000E+00
  0.00000000E+00  0.00000000E+00  0.00000000E+00
  0.00000000E+00  0.00000000E+00  0.00000000E+00
  0.00000000E+00  0.00000000E+00  0.00000000E+00
  0.00000000E+00  0.00000000E+00  0.00000000E+00
  0.00000000E+00  0.00000000E+00  0.00000000E+00
  0.00000000E+00  0.00000000E+00  0.00000000E+00
  0.00000000E+00  0.00000000E+00  0.00000000E+00
  0.00000000E+00  0.00000000E+00  0.00000000E+00
  0.00000000E+00  0.00000000E+00  0.00000000E+00
  0.00000000E+00  0.00000000E+00  0.00000000E+00
  0.00000000E+00  0.00000000E+00  0.00000000E+00
  0.00000000E+00  0.00000000E+00  0.00000000E+00
  0.00000000E+00  0.00000000E+00  0.00000000E+00
  0.00000000E+00  0.00000000E+00  0.00000000E+00
  0.00000000E+00  0.00000000E+00  0.00000000E+00
  0.00000000E+00  0.00000000E+00  0.00000000E+00
  0.00000000E+00  0.00000000E+00  0.00000000E+00
  0.00000000E+00  0.00000000E+00  0.00000000E+00
  0.00000000E+00  0.00000000E+00  0.00000000E+00
  0.00000000E+00  0.00000000E+00  0.00000000E+00
  0.00000000E+00  0.00000000E+00  0.00000000E+00
  0.00000000E+00  0.00000000E+00  0.00000000E+00
  0.00000000E+00  0.00000000E+00  0.00000000E+00
  0.00000000E+00  0.00000000E+00  0.00000000E+00
  0.00000000E+00  0.00000000E+00  0.00000000E+00
  0.00000000E+00  0.00000000E+00  0.00000000E+00
  0.00000000E+00  0.00000000E+00  0.00000000E+00
  0.00000000E+00  0.00000000E+00  0.00000000E+00
  0.00000000E+00  0.00000000E+00  0.00000000E+00
  0.00000000E+00  0.00000000E+00  0.00000000E+00
  0.00000000E+00  0.00000000E+00  0.00000000E+00
  0.00000000E+00  0.00000000E+00  0.00000000E+00
  0.00000000E+00  0.00000000E+00  0.00000000E+00
  0.00000000E+00  0.00000000E+00  0.00000000E+00
  0.00000000E+00  0.00000000E+00  0.00000000E+00
  0.00000000E+00  0.00000000E+00  0.00000000E+00
  0.00000000E+00  0.00000000E+00  0.00000000E+00
  0.00000000E+00  0.00000000E+00  0.00000000E+00
  0.00000000E+00  0.00000000E+00  0.00000000E+00
  0.00000000E+00  0.00000000E+00  0.00000000E+00
  0.00000000E+00  0.00000000E+00  0.00000000E+00
  0.00000000E+00  0.00000000E+00  0.00000000E+00
  0.00000000E+00  0.00000000E+00  0.00000000E+00
  0.00000000E+00  0.00000000E+00  0.00000000E+00
  0.00000000E+00  0.00000000E+00  0.00000000E+00
  0.00000000E+00  0.00000000E+00  0.00000000E+00
  0.00000000E+00  0.00000000E+00  0.00000000E+00
  0.00000000E+00  0.00000000E+00  0.00000000E+00
  0.00000000E+00  0.00000000E+00  0.00000000E+00
  0.00000000E+00  0.00000000E+00  0.00000000E+00
  0.00000000E+00  0.00000000E+00  0.00000000E+00
  0.00000000E+00  0.00000000E+00  0.00000000E+00
  0.00000000E+00  0.00000000E+00  0.00000000E+00
  0.00000000E+00  0.00000000E+00  0.00000000E+00
  0.00000000E+00  0.00000000E+00  0.00000000E+00
  0.00000000E+00  0.00000000E+00  0.00000000E+00
  0.00000000E+00  0.00000000E+00  0.00000000E+00
  0.00000000E+00  0.00000000E+00  0.00000000E+00
  0.00000000E+00  0.00000000E+00  0.00000000E+00
  0.00000000E+00  0.00000000E+00  0.00000000E+00
  0.00000000E+00  0.00000000E+00  0.00000000E+00
  0.00000000E+00  0.00000000E+00  0.00000000E+00
  0.00000000E+00  0.00000000E+00  0.00000000E+00
  0.00000000E+00  0.00000000E+00  0.00000000E+00
