Mn1 H1 C126 O1                          
   1.00000000000000     
    19.7829073338803809    0.0013470649330902   -0.0647355406581753
    -9.8904518176592333   17.0630655012332149    0.2477856034097568
    -0.0974875315591076    0.3760389685285700   29.8134036146978723
   Mn   H    C    O 
     1     1   126     1
Direct
  0.4374026169357395  0.4992552651251367  0.4278674818209070
  0.4882755882297182  0.5719421099771158  0.4971194796542875
  0.0418572743405129  0.0835860511090102  0.3995343438884656
  0.0412613945304312  0.2079748767493543  0.3994419460441346
  0.0409488887354126  0.3327049798529227  0.3995230949852952
  0.0410035253923321  0.4580468841135424  0.3995511817272563
  0.0413940119982155  0.5832936238534365  0.3995336924709004
  0.0417982060379910  0.7084845663033704  0.3995236564530426
  0.0420133157614738  0.8337265246275379  0.3996597532349802
  0.0420271485004420  0.9587621545787341  0.3996796470083460
  0.1672408080720228  0.0843277771767358  0.3997288744879666
  0.1672352092835274  0.2092886061558801  0.3997232310169190
  0.1659833540070622  0.3330724460400730  0.3998440828991462
  0.1651964665067641  0.4580152288322517  0.3996254081364752
  0.1657699285282770  0.5832046803159620  0.3993478037944446
  0.1665096707275998  0.7085127585107892  0.3994526769285812
  0.1668176645644937  0.8337312610877535  0.3996977704137040
  0.1670523664829900  0.9590269634829904  0.3998000195879162
  0.2921622405166508  0.0843243358491545  0.3997533380765582
  0.2927286081210083  0.2103820967788221  0.4004730890165281
  0.2931961636553019  0.3362456978195523  0.4020440300850540
  0.2890819715426179  0.4574714181638307  0.4018010868992097
  0.2898396779862094  0.5833350508597203  0.4002534928151176
  0.2911199562501390  0.7083240901660780  0.3996244462212395
  0.2915581441325136  0.8334125423441285  0.3996085240993335
  0.2918230773437735  0.9587648903724374  0.3997285130077087
  0.4168037840281202  0.0835936585847859  0.3995357561208230
  0.4171112112458724  0.2092982581991489  0.3997688491015222
  0.4181534202171751  0.3362534608787806  0.4023402631224300
  0.4122409648321624  0.5801444558046521  0.4055666464235829
  0.4155696775585062  0.7063718151359011  0.4011199036982186
  0.4162717850971281  0.8324235182009909  0.3999040476827369
  0.4165510179007662  0.9580243409307914  0.3997105072300260
  0.5414960061151459  0.0826706757874237  0.3996132763470845
  0.5417686561012818  0.2079781836912513  0.3993419813077093
  0.5421794392281623  0.3330980926919563  0.3998054047165588
  0.5435848386891491  0.4575447091231325  0.4022084114730984
  0.5434630217601657  0.5803150306843305  0.4065520144746003
  0.5403357481041589  0.7054254348537359  0.4039202070112655
  0.5407445338869064  0.8313931872896783  0.4009225717380709
  0.5412566607964349  0.9571846518875934  0.3999343495135343
  0.6662387806429346  0.0822560346504826  0.3998010695742421
  0.6664970141684123  0.2075734728858487  0.3995631820362555
  0.6668267017519721  0.3327247633689848  0.3992092880377258
  0.6679062386267732  0.4580448529030952  0.3992984401651307
  0.6686850067101857  0.5833717776563982  0.4003595238812386
  0.6660995693678801  0.7064748274635377  0.4014942855955433
  0.6657956414764814  0.8314144151475558  0.4010462775709512
  0.6659818169713031  0.9568682838619263  0.4002172148580039
  0.7911171121768938  0.0822539665140599  0.3998102425102888
  0.7912674074971944  0.2074381206705598  0.3997963399220779
  0.7915746502788225  0.3327313379713217  0.3996044078894792
  0.7921138845403094  0.4580476107177978  0.3991821119074237
  0.7925446715339113  0.5832258810761435  0.3990192433558064
  0.7923657329670587  0.7083618231886131  0.3996014754833471
  0.7913066068073247  0.8324703543516898  0.3999431126147236
  0.7910274726273513  0.9571917783548393  0.3999350510054346
  0.9162485282412272  0.0826887490213181  0.3996174219862649
  0.9161464723293655  0.2075857025208747  0.3996675171735481
  0.9162376786356703  0.3327420392237872  0.3997743811218313
  0.9165049660083073  0.4579552575880653  0.3996311943081945
  0.9169807858688402  0.5833128938561962  0.3993869069239317
  0.9171162496861391  0.7085388632213232  0.3993206383146669
  0.9169683018312376  0.8334460673317189  0.3995352175462732
  0.9165579157802997  0.9580511059902670  0.3996559995896551
  0.0837932246958111  0.0422506077682965  0.3996404725197125
  0.0835884836508118  0.1670313324387835  0.3994726146038678
  0.0826079417036538  0.2912007540208474  0.3994655251306893
  0.0823840800851760  0.4163472973042407  0.3994725385407932
  0.0826895799231974  0.5414855013870619  0.3994668011118431
  0.0832514995990108  0.6667806324021429  0.3994986533070209
  0.0835796956508349  0.7920537671561028  0.3996493680722073
  0.0836913945310282  0.9171852443028987  0.3997614920835771
  0.2087754996842722  0.0424792621448126  0.3997956189425612
  0.2089878839630283  0.1678815601716640  0.3999217321299651
  0.2089997153651833  0.2929612611589154  0.4002628008377614
  0.2064181817018821  0.4161192031753531  0.4001588670762000
  0.2068213659854013  0.5414805544725506  0.3995534277916125
  0.2079638897442442  0.6668301761762452  0.3993937601227142
  0.2083129285016952  0.7919262444088795  0.3995822572986383
  0.2085854218105585  0.9171931666771485  0.3997910822705628
  0.3335354246910058  0.0422592541635997  0.3996681426034760
  0.3339545634662220  0.1678822072533110  0.3999729826938974
  0.3344020368390584  0.2936838075298219  0.4019295232506210
  0.3326088713962387  0.4190783912427959  0.4042327441310588
  0.3308707233721044  0.5416996793054571  0.4020276997068871
  0.3324897879171700  0.6663550109604225  0.4002254185748331
  0.3330206047433456  0.7915313832857088  0.3996638509906872
  0.3333282257399690  0.9168128429116987  0.3996980142313595
  0.4582731121926990  0.0414959369657640  0.3996213488077561
  0.4585073743680529  0.1670534079072422  0.3994347557116034
  0.4590566475723208  0.2929902704204478  0.4003976414648142
  0.4617272380818611  0.4190639274345852  0.4048887974678297
  0.4564615855175878  0.6629609981453538  0.4035220792917494
  0.4575891414062888  0.7900618448550427  0.4005483968624526
  0.4580068481205725  0.9158845208054873  0.3998463714492767
  0.5830004330042328  0.0406940279240371  0.3997720563190804
  0.5832689115145241  0.1661098438847835  0.3994821234201228
  0.5836570341724872  0.2912188852714029  0.3992767591046588
  0.5847809663816028  0.4161574360677230  0.4001049707148536
  0.5861052028964912  0.5417514935611685  0.4025872497522351
  0.5818857274496712  0.6630759949932921  0.4040783574062493
  0.5820292958726689  0.7888884868026804  0.4019319540584879
  0.5825761989458135  0.9150153037301560  0.4003115421583551
  0.7077345889234329  0.0403734077622926  0.3999232950056657
  0.7080135438507226  0.1657565241839059  0.3997326803214510
  0.7083219759634987  0.2910245019806540  0.3994473603123427
  0.7090338632025454  0.4163734103638873  0.3990788077833912
  0.7097783031562194  0.5415082360259684  0.3992890508501159
  0.7090691698520187  0.6664086513625943  0.4004224653303629
  0.7076683602766375  0.7901447304278009  0.4007415944965843
  0.7075487716641647  0.9150298904253071  0.4003466331630048
  0.8327859236533489  0.0406951713239169  0.3997687607485597
  0.8328268456367564  0.1657492082141130  0.3997831067955936
  0.8330690723605118  0.2910479009654822  0.3997836754450275
  0.8334290796262710  0.4162390512465972  0.3994986611002972
  0.8338903143230413  0.5415022315425145  0.3991483970360419
  0.8339947265564184  0.6668499847550891  0.3992120100524237
  0.8336533524373193  0.7915758346811661  0.3996464962066754
  0.8330038599474354  0.9159213774487465  0.3998220490473039
  0.9582940407597219  0.0415100113904961  0.3996020907343402
  0.9579042530489342  0.1661185067810562  0.3995480162118056
  0.9577689429945819  0.2910276786142776  0.3996753002331449
  0.9578837967004212  0.4162465596384339  0.3997071356678698
  0.9583274141612934  0.5416006675200205  0.3995625852242935
  0.9586370296255642  0.6668112592767856  0.3994034984894883
  0.9587213449097053  0.7919493364923484  0.3995011313671198
  0.9585824916161210  0.9168330604051964  0.3996295571012129
  0.4519479422252712  0.5203629530565346  0.4855794511570023
 
  0.00000000E+00  0.00000000E+00  0.00000000E+00
  0.00000000E+00  0.00000000E+00  0.00000000E+00
  0.00000000E+00  0.00000000E+00  0.00000000E+00
  0.00000000E+00  0.00000000E+00  0.00000000E+00
  0.00000000E+00  0.00000000E+00  0.00000000E+00
  0.00000000E+00  0.00000000E+00  0.00000000E+00
  0.00000000E+00  0.00000000E+00  0.00000000E+00
  0.00000000E+00  0.00000000E+00  0.00000000E+00
  0.00000000E+00  0.00000000E+00  0.00000000E+00
  0.00000000E+00  0.00000000E+00  0.00000000E+00
  0.00000000E+00  0.00000000E+00  0.00000000E+00
  0.00000000E+00  0.00000000E+00  0.00000000E+00
  0.00000000E+00  0.00000000E+00  0.00000000E+00
  0.00000000E+00  0.00000000E+00  0.00000000E+00
  0.00000000E+00  0.00000000E+00  0.00000000E+00
  0.00000000E+00  0.00000000E+00  0.00000000E+00
  0.00000000E+00  0.00000000E+00  0.00000000E+00
  0.00000000E+00  0.00000000E+00  0.00000000E+00
  0.00000000E+00  0.00000000E+00  0.00000000E+00
  0.00000000E+00  0.00000000E+00  0.00000000E+00
  0.00000000E+00  0.00000000E+00  0.00000000E+00
  0.00000000E+00  0.00000000E+00  0.00000000E+00
  0.00000000E+00  0.00000000E+00  0.00000000E+00
  0.00000000E+00  0.00000000E+00  0.00000000E+00
  0.00000000E+00  0.00000000E+00  0.00000000E+00
  0.00000000E+00  0.00000000E+00  0.00000000E+00
  0.00000000E+00  0.00000000E+00  0.00000000E+00
  0.00000000E+00  0.00000000E+00  0.00000000E+00
  0.00000000E+00  0.00000000E+00  0.00000000E+00
  0.00000000E+00  0.00000000E+00  0.00000000E+00
  0.00000000E+00  0.00000000E+00  0.00000000E+00
  0.00000000E+00  0.00000000E+00  0.00000000E+00
  0.00000000E+00  0.00000000E+00  0.00000000E+00
  0.00000000E+00  0.00000000E+00  0.00000000E+00
  0.00000000E+00  0.00000000E+00  0.00000000E+00
  0.00000000E+00  0.00000000E+00  0.00000000E+00
  0.00000000E+00  0.00000000E+00  0.00000000E+00
  0.00000000E+00  0.00000000E+00  0.00000000E+00
  0.00000000E+00  0.00000000E+00  0.00000000E+00
  0.00000000E+00  0.00000000E+00  0.00000000E+00
  0.00000000E+00  0.00000000E+00  0.00000000E+00
  0.00000000E+00  0.00000000E+00  0.00000000E+00
  0.00000000E+00  0.00000000E+00  0.00000000E+00
  0.00000000E+00  0.00000000E+00  0.00000000E+00
  0.00000000E+00  0.00000000E+00  0.00000000E+00
  0.00000000E+00  0.00000000E+00  0.00000000E+00
  0.00000000E+00  0.00000000E+00  0.00000000E+00
  0.00000000E+00  0.00000000E+00  0.00000000E+00
  0.00000000E+00  0.00000000E+00  0.00000000E+00
  0.00000000E+00  0.00000000E+00  0.00000000E+00
  0.00000000E+00  0.00000000E+00  0.00000000E+00
  0.00000000E+00  0.00000000E+00  0.00000000E+00
  0.00000000E+00  0.00000000E+00  0.00000000E+00
  0.00000000E+00  0.00000000E+00  0.00000000E+00
  0.00000000E+00  0.00000000E+00  0.00000000E+00
  0.00000000E+00  0.00000000E+00  0.00000000E+00
  0.00000000E+00  0.00000000E+00  0.00000000E+00
  0.00000000E+00  0.00000000E+00  0.00000000E+00
  0.00000000E+00  0.00000000E+00  0.00000000E+00
  0.00000000E+00  0.00000000E+00  0.00000000E+00
  0.00000000E+00  0.00000000E+00  0.00000000E+00
  0.00000000E+00  0.00000000E+00  0.00000000E+00
  0.00000000E+00  0.00000000E+00  0.00000000E+00
  0.00000000E+00  0.00000000E+00  0.00000000E+00
  0.00000000E+00  0.00000000E+00  0.00000000E+00
  0.00000000E+00  0.00000000E+00  0.00000000E+00
  0.00000000E+00  0.00000000E+00  0.00000000E+00
  0.00000000E+00  0.00000000E+00  0.00000000E+00
  0.00000000E+00  0.00000000E+00  0.00000000E+00
  0.00000000E+00  0.00000000E+00  0.00000000E+00
  0.00000000E+00  0.00000000E+00  0.00000000E+00
  0.00000000E+00  0.00000000E+00  0.00000000E+00
  0.00000000E+00  0.00000000E+00  0.00000000E+00
  0.00000000E+00  0.00000000E+00  0.00000000E+00
  0.00000000E+00  0.00000000E+00  0.00000000E+00
  0.00000000E+00  0.00000000E+00  0.00000000E+00
  0.00000000E+00  0.00000000E+00  0.00000000E+00
  0.00000000E+00  0.00000000E+00  0.00000000E+00
  0.00000000E+00  0.00000000E+00  0.00000000E+00
  0.00000000E+00  0.00000000E+00  0.00000000E+00
  0.00000000E+00  0.00000000E+00  0.00000000E+00
  0.00000000E+00  0.00000000E+00  0.00000000E+00
  0.00000000E+00  0.00000000E+00  0.00000000E+00
  0.00000000E+00  0.00000000E+00  0.00000000E+00
  0.00000000E+00  0.00000000E+00  0.00000000E+00
  0.00000000E+00  0.00000000E+00  0.00000000E+00
  0.00000000E+00  0.00000000E+00  0.00000000E+00
  0.00000000E+00  0.00000000E+00  0.00000000E+00
  0.00000000E+00  0.00000000E+00  0.00000000E+00
  0.00000000E+00  0.00000000E+00  0.00000000E+00
  0.00000000E+00  0.00000000E+00  0.00000000E+00
  0.00000000E+00  0.00000000E+00  0.00000000E+00
  0.00000000E+00  0.00000000E+00  0.00000000E+00
  0.00000000E+00  0.00000000E+00  0.00000000E+00
  0.00000000E+00  0.00000000E+00  0.00000000E+00
  0.00000000E+00  0.00000000E+00  0.00000000E+00
  0.00000000E+00  0.00000000E+00  0.00000000E+00
  0.00000000E+00  0.00000000E+00  0.00000000E+00
  0.00000000E+00  0.00000000E+00  0.00000000E+00
  0.00000000E+00  0.00000000E+00  0.00000000E+00
  0.00000000E+00  0.00000000E+00  0.00000000E+00
  0.00000000E+00  0.00000000E+00  0.00000000E+00
  0.00000000E+00  0.00000000E+00  0.00000000E+00
  0.00000000E+00  0.00000000E+00  0.00000000E+00
  0.00000000E+00  0.00000000E+00  0.00000000E+00
  0.00000000E+00  0.00000000E+00  0.00000000E+00
  0.00000000E+00  0.00000000E+00  0.00000000E+00
  0.00000000E+00  0.00000000E+00  0.00000000E+00
  0.00000000E+00  0.00000000E+00  0.00000000E+00
  0.00000000E+00  0.00000000E+00  0.00000000E+00
  0.00000000E+00  0.00000000E+00  0.00000000E+00
  0.00000000E+00  0.00000000E+00  0.00000000E+00
  0.00000000E+00  0.00000000E+00  0.00000000E+00
  0.00000000E+00  0.00000000E+00  0.00000000E+00
  0.00000000E+00  0.00000000E+00  0.00000000E+00
  0.00000000E+00  0.00000000E+00  0.00000000E+00
  0.00000000E+00  0.00000000E+00  0.00000000E+00
  0.00000000E+00  0.00000000E+00  0.00000000E+00
  0.00000000E+00  0.00000000E+00  0.00000000E+00
  0.00000000E+00  0.00000000E+00  0.00000000E+00
  0.00000000E+00  0.00000000E+00  0.00000000E+00
  0.00000000E+00  0.00000000E+00  0.00000000E+00
  0.00000000E+00  0.00000000E+00  0.00000000E+00
  0.00000000E+00  0.00000000E+00  0.00000000E+00
  0.00000000E+00  0.00000000E+00  0.00000000E+00
  0.00000000E+00  0.00000000E+00  0.00000000E+00
  0.00000000E+00  0.00000000E+00  0.00000000E+00
  0.00000000E+00  0.00000000E+00  0.00000000E+00
  0.00000000E+00  0.00000000E+00  0.00000000E+00
