Sc1 C122 N4 O1                          
   1.00000000000000     
    19.8023700207217281   -0.0001453547822327   -0.0296675247256693
    -9.9013234698357273   17.0329481514209924   -0.0460795103151404
    -0.0446012487303628   -0.1064448374435723   29.8334498062686748
   Sc   C    N    O 
     1   122     4     1
Direct
  0.4395244618106180  0.5018507878913480  0.4394748267715716
  0.0420141320340893  0.0841282431120311  0.3996932940206656
  0.0410536534607625  0.2082325121050995  0.3994757011600988
  0.0403771547392436  0.3329277558920540  0.3993309458072219
  0.0405683965063801  0.4582518966705729  0.3994836266754460
  0.0413782349846940  0.5837795806647680  0.3999287375230514
  0.0421561178608382  0.7092267625024086  0.3999673383488465
  0.0425184747988460  0.8345947254475428  0.3999594212655143
  0.0426181661297172  0.9597565773205482  0.3998905259385130
  0.1682164008849733  0.0859675309346010  0.4000007327969368
  0.1672564318913097  0.2100794664476009  0.3997943866175465
  0.1652550689264375  0.3337043506635079  0.3994769309358625
  0.1643915755062058  0.4584522343867946  0.3985499662027908
  0.1652627070798353  0.5836293887122750  0.3990354907720269
  0.1664108831838937  0.7090684312287339  0.3998137744222286
  0.1671202336365867  0.8345974399196698  0.3999439306346314
  0.1676408327062267  0.9602270739202423  0.3999677810818383
  0.2927760884615643  0.0859507215535236  0.3999783318661247
  0.2943310961101397  0.2136029426817563  0.4011196837687558
  0.2918945233635292  0.3384573735644119  0.4030282520289527
  0.2881438850936178  0.4572818316024608  0.4020091361043097
  0.2887930578309730  0.5831096235594080  0.3990374423765746
  0.2905854310952742  0.7085519097446354  0.3992678374257760
  0.2916358646224455  0.8340397624214975  0.3998029004010519
  0.2922023793896503  0.9597457515339568  0.3998637866888162
  0.4171703299354511  0.0841259847649335  0.3997359408869533
  0.4178570794286890  0.2100742464053112  0.3997722723723105
  0.4216523891003335  0.3384813990414441  0.4023845136093597
  0.4146728968559704  0.7066838289881782  0.3996048011790277
  0.4160782129830595  0.8325442710651081  0.3995564172831397
  0.4166856061917854  0.9583571514043293  0.3998467464966075
  0.5416112296845482  0.0825776588294404  0.3998654282401823
  0.5422334977182468  0.2082437947798785  0.3995982345362000
  0.5435197399396354  0.3336941054504945  0.3992413069339877
  0.5442197480538171  0.4572668375925973  0.4006877629511314
  0.5385768782639453  0.7021224917597927  0.4017485682029846
  0.5404078778426836  0.8302907529380421  0.4000823213567763
  0.5411186677253629  0.9566835472373103  0.3999340543208819
  0.6661317914777066  0.0819118526404746  0.3999902801537827
  0.6666625898316717  0.2074555066433339  0.3999108174572663
  0.6676300391196054  0.3329501198586026  0.3994916529376056
  0.6691709502139729  0.4584771431647156  0.3985187752015065
  0.6694276836192238  0.5831283874360631  0.3985348042536802
  0.6670169599215040  0.7066738314227904  0.3993220873289035
  0.6649015018912368  0.8302906648120263  0.4000476350772658
  0.6656410646226911  0.9562389678827254  0.4001219825551710
  0.7908329567776419  0.0819071282255209  0.3999993198704523
  0.7911704930409608  0.2072841286681379  0.3999506040027418
  0.7918349998637969  0.3327526040249788  0.3999628148150728
  0.7927639824606582  0.4582722055315670  0.3996649960449539
  0.7934337633735496  0.5836212652147420  0.3992202261877616
  0.7930196748825183  0.7085591088864237  0.3993449544494463
  0.7914992907001219  0.8325412583058142  0.3996541385853669
  0.7906080313764571  0.9566844402202580  0.3999347829966945
  0.9160297387593664  0.0825785312198421  0.3998227819724317
  0.9158433418410379  0.2074536617652575  0.3998582514784573
  0.9160000942229019  0.3327471434759346  0.3999155296535024
  0.9166588716832067  0.4582331710622032  0.4000442169869532
  0.9174690057772161  0.5837794603472465  0.3999970939651057
  0.9177130868255002  0.7090581034368184  0.3998984007790184
  0.9174587007403050  0.8340388408435415  0.3999065826238866
  0.9167416074495756  0.9583503495183637  0.3999011049681564
  0.0845195739531369  0.0434498278564661  0.3998182444337449
  0.0836542062403320  0.1675998763381747  0.3995026988072818
  0.0821251556655557  0.2915516676172418  0.3992776287745375
  0.0816974679982645  0.4164591541674108  0.3989935389292715
  0.0823530486360796  0.5418324025202738  0.3995163684836813
  0.0832934799250719  0.6673386552013475  0.3999420886416614
  0.0839347403843316  0.7928224988466216  0.3999325224031542
  0.0842923071465418  0.9182100447394854  0.3999538565963330
  0.2094563613485475  0.0438812247540661  0.4000346698722493
  0.2102250993576898  0.1698820876289421  0.4003066780158917
  0.2081542257238881  0.2935137442729062  0.4001795493016571
  0.2057845050260459  0.4170205333771431  0.3992803196461741
  0.2059600630446382  0.5416353027558114  0.3985405440197294
  0.2074680715398745  0.6671607992309325  0.3993927588078321
  0.2084310402823942  0.7926542301198832  0.3999058450610095
  0.2089728450845306  0.9182085171183283  0.3999400019240522
  0.3339612420317624  0.0434346789341827  0.3998055619962264
  0.3346825353606812  0.1698658727545954  0.4002817936981120
  0.3366093621285240  0.2981243325768447  0.4029287742245808
  0.3309705610861317  0.5429415191821766  0.4015889975976900
  0.3315612730968244  0.6664233572087480  0.3991693186888859
  0.3328465696815344  0.7918787208980782  0.3995552802687280
  0.3334917159985292  0.9175395930077839  0.3998386199081269
  0.4584280218945120  0.0417862488046800  0.3998314437898843
  0.4590027636283165  0.1676004516086805  0.3995877506661699
  0.4604205012119989  0.2935076533175051  0.3998856111156918
  0.4535551192820505  0.6618449628769824  0.4018729344986871
  0.4572264259044471  0.7901069760372963  0.3995602200552346
  0.4579245829965969  0.9160057957782266  0.3998075466067176
  0.5828970050230445  0.0403684372363472  0.3999435116725895
  0.5834586114570203  0.1660827482416223  0.3998137435304935
  0.5845014158983097  0.2915601530946533  0.3993619201450959
  0.5863437736909305  0.4169913139152568  0.3987986040907345
  0.5870391332624895  0.5429231136513272  0.4002672314654503
  0.5832787239714428  0.6617824683135286  0.4012376202234772
  0.5808084908018619  0.7865981654408175  0.4005350894702176
  0.5823119776492793  0.9141802884683231  0.4000589667006471
  0.7074700037726415  0.0398853626235522  0.4000485487329501
  0.7079779525644517  0.1655233313874704  0.3999635551843652
  0.7086973543909042  0.2910446350667519  0.3998599747743214
  0.7098553912422755  0.4164828738923644  0.3991859140402878
  0.7107568432251216  0.5416343577449825  0.3985034947066448
  0.7099063314494158  0.6664426502616879  0.3989304728760832
  0.7078805954677421  0.7900957018615329  0.3995501050048963
  0.7069023200337646  0.9141768906454083  0.4000437345394806
  0.8325323214354864  0.0403709528837492  0.3999299296226130
  0.8325914079565480  0.1655183683766489  0.3999565636803112
  0.8329783136058383  0.2908686435366536  0.3999729722278539
  0.8337349853428977  0.4163178987813639  0.3999730408529492
  0.8345488851412330  0.5418340183029495  0.3996965085608298
  0.8347369460363303  0.6671566439876447  0.3995425013087987
  0.8340664919274035  0.7918774981586800  0.3996736282046155
  0.8331407407772935  0.9160115850940914  0.3998732796370293
  0.9584303546027285  0.0417857449036441  0.3998079119726312
  0.9576735149272813  0.1660738148720560  0.3997167874664722
  0.9574097512016960  0.2910300589162793  0.3997514524687857
  0.9576464174443809  0.4163059464680926  0.3999024932372206
  0.9584756258718858  0.5418669487407408  0.4000516385799098
  0.9591277675539450  0.6673371305034012  0.3999747661282784
  0.9592648277567792  0.7926437077273999  0.3999512642982586
  0.9591222991369398  0.9175515174896735  0.3999077564085660
  0.4100423072435908  0.5824671620906350  0.4046205664181834
  0.5473803941896123  0.5823299729801599  0.4030421394884250
  0.3277356934169681  0.4179141400561854  0.4058819322947255
  0.4652710499004706  0.4179926750831141  0.4042987946389215
  0.4461554886673254  0.5081687303247113  0.4980034341640088
 
  0.00000000E+00  0.00000000E+00  0.00000000E+00
  0.00000000E+00  0.00000000E+00  0.00000000E+00
  0.00000000E+00  0.00000000E+00  0.00000000E+00
  0.00000000E+00  0.00000000E+00  0.00000000E+00
  0.00000000E+00  0.00000000E+00  0.00000000E+00
  0.00000000E+00  0.00000000E+00  0.00000000E+00
  0.00000000E+00  0.00000000E+00  0.00000000E+00
  0.00000000E+00  0.00000000E+00  0.00000000E+00
  0.00000000E+00  0.00000000E+00  0.00000000E+00
  0.00000000E+00  0.00000000E+00  0.00000000E+00
  0.00000000E+00  0.00000000E+00  0.00000000E+00
  0.00000000E+00  0.00000000E+00  0.00000000E+00
  0.00000000E+00  0.00000000E+00  0.00000000E+00
  0.00000000E+00  0.00000000E+00  0.00000000E+00
  0.00000000E+00  0.00000000E+00  0.00000000E+00
  0.00000000E+00  0.00000000E+00  0.00000000E+00
  0.00000000E+00  0.00000000E+00  0.00000000E+00
  0.00000000E+00  0.00000000E+00  0.00000000E+00
  0.00000000E+00  0.00000000E+00  0.00000000E+00
  0.00000000E+00  0.00000000E+00  0.00000000E+00
  0.00000000E+00  0.00000000E+00  0.00000000E+00
  0.00000000E+00  0.00000000E+00  0.00000000E+00
  0.00000000E+00  0.00000000E+00  0.00000000E+00
  0.00000000E+00  0.00000000E+00  0.00000000E+00
  0.00000000E+00  0.00000000E+00  0.00000000E+00
  0.00000000E+00  0.00000000E+00  0.00000000E+00
  0.00000000E+00  0.00000000E+00  0.00000000E+00
  0.00000000E+00  0.00000000E+00  0.00000000E+00
  0.00000000E+00  0.00000000E+00  0.00000000E+00
  0.00000000E+00  0.00000000E+00  0.00000000E+00
  0.00000000E+00  0.00000000E+00  0.00000000E+00
  0.00000000E+00  0.00000000E+00  0.00000000E+00
  0.00000000E+00  0.00000000E+00  0.00000000E+00
  0.00000000E+00  0.00000000E+00  0.00000000E+00
  0.00000000E+00  0.00000000E+00  0.00000000E+00
  0.00000000E+00  0.00000000E+00  0.00000000E+00
  0.00000000E+00  0.00000000E+00  0.00000000E+00
  0.00000000E+00  0.00000000E+00  0.00000000E+00
  0.00000000E+00  0.00000000E+00  0.00000000E+00
  0.00000000E+00  0.00000000E+00  0.00000000E+00
  0.00000000E+00  0.00000000E+00  0.00000000E+00
  0.00000000E+00  0.00000000E+00  0.00000000E+00
  0.00000000E+00  0.00000000E+00  0.00000000E+00
  0.00000000E+00  0.00000000E+00  0.00000000E+00
  0.00000000E+00  0.00000000E+00  0.00000000E+00
  0.00000000E+00  0.00000000E+00  0.00000000E+00
  0.00000000E+00  0.00000000E+00  0.00000000E+00
  0.00000000E+00  0.00000000E+00  0.00000000E+00
  0.00000000E+00  0.00000000E+00  0.00000000E+00
  0.00000000E+00  0.00000000E+00  0.00000000E+00
  0.00000000E+00  0.00000000E+00  0.00000000E+00
  0.00000000E+00  0.00000000E+00  0.00000000E+00
  0.00000000E+00  0.00000000E+00  0.00000000E+00
  0.00000000E+00  0.00000000E+00  0.00000000E+00
  0.00000000E+00  0.00000000E+00  0.00000000E+00
  0.00000000E+00  0.00000000E+00  0.00000000E+00
  0.00000000E+00  0.00000000E+00  0.00000000E+00
  0.00000000E+00  0.00000000E+00  0.00000000E+00
  0.00000000E+00  0.00000000E+00  0.00000000E+00
  0.00000000E+00  0.00000000E+00  0.00000000E+00
  0.00000000E+00  0.00000000E+00  0.00000000E+00
  0.00000000E+00  0.00000000E+00  0.00000000E+00
  0.00000000E+00  0.00000000E+00  0.00000000E+00
  0.00000000E+00  0.00000000E+00  0.00000000E+00
  0.00000000E+00  0.00000000E+00  0.00000000E+00
  0.00000000E+00  0.00000000E+00  0.00000000E+00
  0.00000000E+00  0.00000000E+00  0.00000000E+00
  0.00000000E+00  0.00000000E+00  0.00000000E+00
  0.00000000E+00  0.00000000E+00  0.00000000E+00
  0.00000000E+00  0.00000000E+00  0.00000000E+00
  0.00000000E+00  0.00000000E+00  0.00000000E+00
  0.00000000E+00  0.00000000E+00  0.00000000E+00
  0.00000000E+00  0.00000000E+00  0.00000000E+00
  0.00000000E+00  0.00000000E+00  0.00000000E+00
  0.00000000E+00  0.00000000E+00  0.00000000E+00
  0.00000000E+00  0.00000000E+00  0.00000000E+00
  0.00000000E+00  0.00000000E+00  0.00000000E+00
  0.00000000E+00  0.00000000E+00  0.00000000E+00
  0.00000000E+00  0.00000000E+00  0.00000000E+00
  0.00000000E+00  0.00000000E+00  0.00000000E+00
  0.00000000E+00  0.00000000E+00  0.00000000E+00
  0.00000000E+00  0.00000000E+00  0.00000000E+00
  0.00000000E+00  0.00000000E+00  0.00000000E+00
  0.00000000E+00  0.00000000E+00  0.00000000E+00
  0.00000000E+00  0.00000000E+00  0.00000000E+00
  0.00000000E+00  0.00000000E+00  0.00000000E+00
  0.00000000E+00  0.00000000E+00  0.00000000E+00
  0.00000000E+00  0.00000000E+00  0.00000000E+00
  0.00000000E+00  0.00000000E+00  0.00000000E+00
  0.00000000E+00  0.00000000E+00  0.00000000E+00
  0.00000000E+00  0.00000000E+00  0.00000000E+00
  0.00000000E+00  0.00000000E+00  0.00000000E+00
  0.00000000E+00  0.00000000E+00  0.00000000E+00
  0.00000000E+00  0.00000000E+00  0.00000000E+00
  0.00000000E+00  0.00000000E+00  0.00000000E+00
  0.00000000E+00  0.00000000E+00  0.00000000E+00
  0.00000000E+00  0.00000000E+00  0.00000000E+00
  0.00000000E+00  0.00000000E+00  0.00000000E+00
  0.00000000E+00  0.00000000E+00  0.00000000E+00
  0.00000000E+00  0.00000000E+00  0.00000000E+00
  0.00000000E+00  0.00000000E+00  0.00000000E+00
  0.00000000E+00  0.00000000E+00  0.00000000E+00
  0.00000000E+00  0.00000000E+00  0.00000000E+00
  0.00000000E+00  0.00000000E+00  0.00000000E+00
  0.00000000E+00  0.00000000E+00  0.00000000E+00
  0.00000000E+00  0.00000000E+00  0.00000000E+00
  0.00000000E+00  0.00000000E+00  0.00000000E+00
  0.00000000E+00  0.00000000E+00  0.00000000E+00
  0.00000000E+00  0.00000000E+00  0.00000000E+00
  0.00000000E+00  0.00000000E+00  0.00000000E+00
  0.00000000E+00  0.00000000E+00  0.00000000E+00
  0.00000000E+00  0.00000000E+00  0.00000000E+00
  0.00000000E+00  0.00000000E+00  0.00000000E+00
  0.00000000E+00  0.00000000E+00  0.00000000E+00
  0.00000000E+00  0.00000000E+00  0.00000000E+00
  0.00000000E+00  0.00000000E+00  0.00000000E+00
  0.00000000E+00  0.00000000E+00  0.00000000E+00
  0.00000000E+00  0.00000000E+00  0.00000000E+00
  0.00000000E+00  0.00000000E+00  0.00000000E+00
  0.00000000E+00  0.00000000E+00  0.00000000E+00
  0.00000000E+00  0.00000000E+00  0.00000000E+00
  0.00000000E+00  0.00000000E+00  0.00000000E+00
  0.00000000E+00  0.00000000E+00  0.00000000E+00
  0.00000000E+00  0.00000000E+00  0.00000000E+00
  0.00000000E+00  0.00000000E+00  0.00000000E+00
  0.00000000E+00  0.00000000E+00  0.00000000E+00
  0.00000000E+00  0.00000000E+00  0.00000000E+00
  0.00000000E+00  0.00000000E+00  0.00000000E+00
