Rh1 C124 N2                             
   1.00000000000000     
    19.8311031881792807   -0.0248545685234620   -0.0012099470270279
    -9.9373400415939663   17.0525155957110215    0.0011141816603597
    -0.0018149307499309    0.0008856417177077   29.7772141812859346
   Rh   C    N 
     1   124     2
Direct
  0.4375079174133194  0.4999909028999222  0.4204024538725119
  0.0422486237102081  0.0843562738774833  0.3999282991686620
  0.0414658924470435  0.2084899017720760  0.3996845726825459
  0.0406815390534676  0.3330329243149081  0.3995609422629487
  0.0403791179054215  0.4584409139041966  0.3997104543223063
  0.0410645517663770  0.5839252241422535  0.4000243099648336
  0.0417445704029407  0.7093035573092022  0.4001578803349701
  0.0421414703542060  0.8345978344369016  0.4000638021804914
  0.0424649136550204  0.9597755264958114  0.3999703413478697
  0.1682605727882896  0.0860645976445940  0.3999106702870812
  0.1679687845173141  0.2106751996171238  0.3998727230873674
  0.1660337479069242  0.3344082770626228  0.3991787697908417
  0.1638811816017060  0.4589073628123602  0.3991316296529038
  0.1647003134975508  0.5841071260975612  0.3991445778327931
  0.1659438793910706  0.7094498767897950  0.3997832586007539
  0.1667788266615183  0.8347833421717410  0.4001058663484641
  0.1674756400892092  0.9602997254797201  0.3999749055817147
  0.2928508687791742  0.0856772175500414  0.3999278340990987
  0.2948449117589323  0.2131440792087461  0.4009043078767246
  0.2939453808386707  0.3385658631997742  0.4010718130963337
  0.2876468277983509  0.4601130622770098  0.4011036189616787
  0.2880626252603206  0.5849729884583851  0.3998197025368975
  0.2900415718687653  0.7094967672045249  0.3994493198784019
  0.2912773426242884  0.8344295422459826  0.3998099083828045
  0.2919782692976873  0.9597646345605177  0.3999560309750091
  0.4172199345120461  0.0838693731457781  0.3997423523148317
  0.4181127561548767  0.2095991204755128  0.3998531020925342
  0.4222619424417434  0.3377860961711004  0.4042641246979320
  0.4140275338495152  0.7068812502670343  0.4007659269127480
  0.4157418107925615  0.8328056221880965  0.3995231670557519
  0.4165030243025294  0.9583289535477492  0.3999231330494113
  0.5416923845147162  0.0822308342616014  0.3999596992178518
  0.5425057411822634  0.2074108346348554  0.3995592669871765
  0.5440165669301995  0.3322265628681557  0.3999991489256746
  0.5459822861319291  0.4554630206580124  0.4031014252888277
  0.5442600152971396  0.5783470684680823  0.4028478084779429
  0.5377498934425161  0.7026050987091552  0.4026166887674912
  0.5399208174905736  0.8305361018853580  0.4002471062084384
  0.5410416554658091  0.9566963670598689  0.3998490800453786
  0.6662221027277697  0.0816226374427133  0.4000554818173595
  0.6669855630149927  0.2070340981215739  0.3999543412020822
  0.6680053156222051  0.3322621935353995  0.3993824383519126
  0.6697179741677992  0.4576283915745242  0.3989121529473995
  0.6696136244078790  0.5822574983970201  0.3993269245436364
  0.6653334649887810  0.7054239204373719  0.3996102655721928
  0.6644877292574437  0.8299292321846492  0.4000831481473505
  0.6655455952513156  0.9560464745111286  0.3999277750502987
  0.7909734932347890  0.0817001381887285  0.3999754539261072
  0.7914233852905131  0.2069846442743000  0.4001403443260299
  0.7921423400050928  0.3324404771720396  0.4000178516143046
  0.7930822257143555  0.4579541784336981  0.3996115820007506
  0.7935546684124251  0.5832756038428205  0.3993927098434186
  0.7922533882615173  0.7080051829264948  0.3993577577647208
  0.7909192984736921  0.8320463344845709  0.3997872215372219
  0.7904632616470882  0.9564660500757591  0.3998758623267478
  0.9162330674094135  0.0826073452255576  0.3999671685441069
  0.9161232805748191  0.2074335083233790  0.3999491138667019
  0.9162437678412111  0.3326427801766999  0.4001027443546630
  0.9166826889989992  0.4581148027518275  0.4001918185222349
  0.9173735568650659  0.5836880113789610  0.4000642418831626
  0.9173342906262427  0.7089947851769167  0.3999117448286053
  0.9169871199269533  0.8337725041447391  0.3999128619993362
  0.9165359054534675  0.9581710769876678  0.3999808736481854
  0.0845320861251209  0.0435423269954510  0.3999101175170417
  0.0840797089745741  0.1679450034630753  0.3997982472804323
  0.0827662995872068  0.2919906573408216  0.3993643785353458
  0.0814331871901265  0.4167245019400145  0.3993980180903678
  0.0819096201901031  0.5420421801347480  0.3996201984315364
  0.0828726350526651  0.6675588341289792  0.4000160659993074
  0.0835823087308983  0.7930083302244246  0.4001429237693496
  0.0840359259008096  0.9182987569911435  0.3999957941146219
  0.2094454148505743  0.0439567954966646  0.3999381422528928
  0.2104952640463680  0.1700931863235993  0.4001166019006114
  0.2096619774066600  0.2945724052132558  0.3996451444877881
  0.2053963250739126  0.4177603487100255  0.3993216083372051
  0.2052866839416500  0.5423766326309134  0.3989153751936553
  0.2069887894451907  0.6677518484294448  0.3993879324677238
  0.2080251940015473  0.7929847331915135  0.3999479577224667
  0.2087847976296088  0.9183740411471657  0.4000413820826094
  0.3339381530701681  0.0432989347488779  0.3998248745024635
  0.3350425527386672  0.1694467498099580  0.4002725707427066
  0.3372550299239397  0.2974006095603097  0.4026815821908523
  0.3307312225182655  0.4216341739889199  0.4029161538418418
  0.3290250003119001  0.5445254083803153  0.4031022800829122
  0.3309679353503766  0.6677609964429646  0.3999994226867692
  0.3324959576231127  0.7926020261763946  0.3995555448227425
  0.3333230245171195  0.9177744609202357  0.3999279838654448
  0.4585091336758157  0.0416787922084326  0.3999311758188998
  0.4592510521513345  0.1671841329771440  0.3995220003966065
  0.4609592357385427  0.2930989061441155  0.4007814423707617
  0.4527543991800410  0.6622089610626385  0.4042364775336422
  0.4568572790204279  0.7903774422536433  0.3998398898640451
  0.4577638336510638  0.9161192830448636  0.3997442402682476
  0.5830288648032754  0.0402283160199193  0.3999857644078509
  0.5837295908915030  0.1655803794266155  0.3998305853322442
  0.5849545451638409  0.2905185369441595  0.3994471491045815
  0.5869294672645627  0.4150147767565346  0.3998192843764249
  0.5873614200095064  0.5398876589515770  0.4010922043982313
  0.5810502452063465  0.6614197379658019  0.4010103426243859
  0.5801403486227038  0.7868634994406845  0.4008531920154814
  0.5821148901931239  0.9143060384860080  0.3999276506873699
  0.7075308160018978  0.0397049892900057  0.3999719068831722
  0.7082194798504071  0.1652124214555931  0.4001231489261065
  0.7090640771879518  0.2905632186933569  0.3997830104096763
  0.7102938243080831  0.4159101905096755  0.3991371940945970
  0.7111088561567862  0.5410943053851592  0.3991339679668909
  0.7089740978113153  0.6655988484138301  0.3991651718191853
  0.7070089403340531  0.7893243719278231  0.3998437135027701
  0.7067346197458846  0.9139597308442372  0.3998800951596315
  0.8325547955864312  0.0402398538626319  0.3999387830409431
  0.8328695182815020  0.1654051320326078  0.4000434821423712
  0.8332615690364097  0.2906789252727339  0.4001636365445774
  0.8339197778154824  0.4160698189465259  0.4000200914689150
  0.8345963864478126  0.5415515476312031  0.3997054866750325
  0.8343287670325857  0.6669628542859326  0.3995611971215201
  0.8335493270567319  0.7915076905829437  0.3996825799656176
  0.8327621522876573  0.9156467478155671  0.3999073150861118
  0.9584828741426790  0.0418334616061484  0.3999776959378626
  0.9580353688124045  0.1662358118454964  0.3998882424748362
  0.9576820731627477  0.2910156409914457  0.3999071540739808
  0.9576084834055401  0.4163029436254339  0.4000755640756339
  0.9583103205813079  0.5418778183777708  0.4001859017059399
  0.9587616727009718  0.6673526942793188  0.4000849099191227
  0.9588996175823266  0.7925793533581823  0.3999725735897127
  0.9587890745433826  0.9174081047993061  0.3999981652484714
  0.4078925255161830  0.5821785387615598  0.4087959520680437
  0.4671197727687390  0.4178156856920106  0.4088014581952624
 
  0.00000000E+00  0.00000000E+00  0.00000000E+00
  0.00000000E+00  0.00000000E+00  0.00000000E+00
  0.00000000E+00  0.00000000E+00  0.00000000E+00
  0.00000000E+00  0.00000000E+00  0.00000000E+00
  0.00000000E+00  0.00000000E+00  0.00000000E+00
  0.00000000E+00  0.00000000E+00  0.00000000E+00
  0.00000000E+00  0.00000000E+00  0.00000000E+00
  0.00000000E+00  0.00000000E+00  0.00000000E+00
  0.00000000E+00  0.00000000E+00  0.00000000E+00
  0.00000000E+00  0.00000000E+00  0.00000000E+00
  0.00000000E+00  0.00000000E+00  0.00000000E+00
  0.00000000E+00  0.00000000E+00  0.00000000E+00
  0.00000000E+00  0.00000000E+00  0.00000000E+00
  0.00000000E+00  0.00000000E+00  0.00000000E+00
  0.00000000E+00  0.00000000E+00  0.00000000E+00
  0.00000000E+00  0.00000000E+00  0.00000000E+00
  0.00000000E+00  0.00000000E+00  0.00000000E+00
  0.00000000E+00  0.00000000E+00  0.00000000E+00
  0.00000000E+00  0.00000000E+00  0.00000000E+00
  0.00000000E+00  0.00000000E+00  0.00000000E+00
  0.00000000E+00  0.00000000E+00  0.00000000E+00
  0.00000000E+00  0.00000000E+00  0.00000000E+00
  0.00000000E+00  0.00000000E+00  0.00000000E+00
  0.00000000E+00  0.00000000E+00  0.00000000E+00
  0.00000000E+00  0.00000000E+00  0.00000000E+00
  0.00000000E+00  0.00000000E+00  0.00000000E+00
  0.00000000E+00  0.00000000E+00  0.00000000E+00
  0.00000000E+00  0.00000000E+00  0.00000000E+00
  0.00000000E+00  0.00000000E+00  0.00000000E+00
  0.00000000E+00  0.00000000E+00  0.00000000E+00
  0.00000000E+00  0.00000000E+00  0.00000000E+00
  0.00000000E+00  0.00000000E+00  0.00000000E+00
  0.00000000E+00  0.00000000E+00  0.00000000E+00
  0.00000000E+00  0.00000000E+00  0.00000000E+00
  0.00000000E+00  0.00000000E+00  0.00000000E+00
  0.00000000E+00  0.00000000E+00  0.00000000E+00
  0.00000000E+00  0.00000000E+00  0.00000000E+00
  0.00000000E+00  0.00000000E+00  0.00000000E+00
  0.00000000E+00  0.00000000E+00  0.00000000E+00
  0.00000000E+00  0.00000000E+00  0.00000000E+00
  0.00000000E+00  0.00000000E+00  0.00000000E+00
  0.00000000E+00  0.00000000E+00  0.00000000E+00
  0.00000000E+00  0.00000000E+00  0.00000000E+00
  0.00000000E+00  0.00000000E+00  0.00000000E+00
  0.00000000E+00  0.00000000E+00  0.00000000E+00
  0.00000000E+00  0.00000000E+00  0.00000000E+00
  0.00000000E+00  0.00000000E+00  0.00000000E+00
  0.00000000E+00  0.00000000E+00  0.00000000E+00
  0.00000000E+00  0.00000000E+00  0.00000000E+00
  0.00000000E+00  0.00000000E+00  0.00000000E+00
  0.00000000E+00  0.00000000E+00  0.00000000E+00
  0.00000000E+00  0.00000000E+00  0.00000000E+00
  0.00000000E+00  0.00000000E+00  0.00000000E+00
  0.00000000E+00  0.00000000E+00  0.00000000E+00
  0.00000000E+00  0.00000000E+00  0.00000000E+00
  0.00000000E+00  0.00000000E+00  0.00000000E+00
  0.00000000E+00  0.00000000E+00  0.00000000E+00
  0.00000000E+00  0.00000000E+00  0.00000000E+00
  0.00000000E+00  0.00000000E+00  0.00000000E+00
  0.00000000E+00  0.00000000E+00  0.00000000E+00
  0.00000000E+00  0.00000000E+00  0.00000000E+00
  0.00000000E+00  0.00000000E+00  0.00000000E+00
  0.00000000E+00  0.00000000E+00  0.00000000E+00
  0.00000000E+00  0.00000000E+00  0.00000000E+00
  0.00000000E+00  0.00000000E+00  0.00000000E+00
  0.00000000E+00  0.00000000E+00  0.00000000E+00
  0.00000000E+00  0.00000000E+00  0.00000000E+00
  0.00000000E+00  0.00000000E+00  0.00000000E+00
  0.00000000E+00  0.00000000E+00  0.00000000E+00
  0.00000000E+00  0.00000000E+00  0.00000000E+00
  0.00000000E+00  0.00000000E+00  0.00000000E+00
  0.00000000E+00  0.00000000E+00  0.00000000E+00
  0.00000000E+00  0.00000000E+00  0.00000000E+00
  0.00000000E+00  0.00000000E+00  0.00000000E+00
  0.00000000E+00  0.00000000E+00  0.00000000E+00
  0.00000000E+00  0.00000000E+00  0.00000000E+00
  0.00000000E+00  0.00000000E+00  0.00000000E+00
  0.00000000E+00  0.00000000E+00  0.00000000E+00
  0.00000000E+00  0.00000000E+00  0.00000000E+00
  0.00000000E+00  0.00000000E+00  0.00000000E+00
  0.00000000E+00  0.00000000E+00  0.00000000E+00
  0.00000000E+00  0.00000000E+00  0.00000000E+00
  0.00000000E+00  0.00000000E+00  0.00000000E+00
  0.00000000E+00  0.00000000E+00  0.00000000E+00
  0.00000000E+00  0.00000000E+00  0.00000000E+00
  0.00000000E+00  0.00000000E+00  0.00000000E+00
  0.00000000E+00  0.00000000E+00  0.00000000E+00
  0.00000000E+00  0.00000000E+00  0.00000000E+00
  0.00000000E+00  0.00000000E+00  0.00000000E+00
  0.00000000E+00  0.00000000E+00  0.00000000E+00
  0.00000000E+00  0.00000000E+00  0.00000000E+00
  0.00000000E+00  0.00000000E+00  0.00000000E+00
  0.00000000E+00  0.00000000E+00  0.00000000E+00
  0.00000000E+00  0.00000000E+00  0.00000000E+00
  0.00000000E+00  0.00000000E+00  0.00000000E+00
  0.00000000E+00  0.00000000E+00  0.00000000E+00
  0.00000000E+00  0.00000000E+00  0.00000000E+00
  0.00000000E+00  0.00000000E+00  0.00000000E+00
  0.00000000E+00  0.00000000E+00  0.00000000E+00
  0.00000000E+00  0.00000000E+00  0.00000000E+00
  0.00000000E+00  0.00000000E+00  0.00000000E+00
  0.00000000E+00  0.00000000E+00  0.00000000E+00
  0.00000000E+00  0.00000000E+00  0.00000000E+00
  0.00000000E+00  0.00000000E+00  0.00000000E+00
  0.00000000E+00  0.00000000E+00  0.00000000E+00
  0.00000000E+00  0.00000000E+00  0.00000000E+00
  0.00000000E+00  0.00000000E+00  0.00000000E+00
  0.00000000E+00  0.00000000E+00  0.00000000E+00
  0.00000000E+00  0.00000000E+00  0.00000000E+00
  0.00000000E+00  0.00000000E+00  0.00000000E+00
  0.00000000E+00  0.00000000E+00  0.00000000E+00
  0.00000000E+00  0.00000000E+00  0.00000000E+00
  0.00000000E+00  0.00000000E+00  0.00000000E+00
  0.00000000E+00  0.00000000E+00  0.00000000E+00
  0.00000000E+00  0.00000000E+00  0.00000000E+00
  0.00000000E+00  0.00000000E+00  0.00000000E+00
  0.00000000E+00  0.00000000E+00  0.00000000E+00
  0.00000000E+00  0.00000000E+00  0.00000000E+00
  0.00000000E+00  0.00000000E+00  0.00000000E+00
  0.00000000E+00  0.00000000E+00  0.00000000E+00
  0.00000000E+00  0.00000000E+00  0.00000000E+00
  0.00000000E+00  0.00000000E+00  0.00000000E+00
  0.00000000E+00  0.00000000E+00  0.00000000E+00
  0.00000000E+00  0.00000000E+00  0.00000000E+00
  0.00000000E+00  0.00000000E+00  0.00000000E+00
  0.00000000E+00  0.00000000E+00  0.00000000E+00
  0.00000000E+00  0.00000000E+00  0.00000000E+00
