Ru1 C125 N1 O1                          
   1.00000000000000     
    19.8089439785002597   -0.0093893809878363   -0.0115288138347240
    -9.9128317415348643   17.0466848398909079   -0.1346170378958412
    -0.0173602942933538   -0.2454643867525131   29.8091897810463813
   Ru   C    N    O 
     1   125     1     1
Direct
  0.4383346375362663  0.5013132256872332  0.4314752694884501
  0.0421155560588825  0.0843181322710588  0.3996496586411593
  0.0413801686002774  0.2085216563723907  0.3995525178647643
  0.0407120607216314  0.3330607345846292  0.3992423080954473
  0.0407016583809300  0.4584300675827647  0.3993679292642228
  0.0414965438517913  0.5839674820757781  0.3998610988797789
  0.0421339271781214  0.7093297217413947  0.4000034747621787
  0.0423941533143662  0.8346370084347225  0.3999678261839841
  0.0424088616776035  0.9596923963119820  0.3997756474340502
  0.1678600866970272  0.0856251517166546  0.4000655493429761
  0.1677894345870271  0.2106089444946474  0.4003692401763116
  0.1661182911564081  0.3342470297813010  0.3996572174114809
  0.1644695765836172  0.4586452788092470  0.3986539565274655
  0.1653072562854991  0.5838359350780434  0.3991203851002971
  0.1664842356592393  0.7093015407887411  0.3998181759009701
  0.1671455726912316  0.8347092803374324  0.3998748466400147
  0.1675356599847123  0.9601277590221576  0.3998260314512420
  0.2927324601167578  0.0855470561733450  0.4001411079514578
  0.2936516169028366  0.2121256649201912  0.4019933679131879
  0.2939835555721528  0.3383334856837712  0.4035534083654608
  0.2886300574889548  0.4597073086219916  0.4009115362287129
  0.2889378173514608  0.5841917648484146  0.3991726463714687
  0.2907318176631722  0.7090754121904499  0.3995252788743949
  0.2917196916228124  0.8343020562015997  0.3997583262864208
  0.2921882625675318  0.9597319296826406  0.3996268610529334
  0.4172143609293277  0.0842446134204653  0.3997406109191174
  0.4178202909409421  0.2103227908384424  0.4006926695733379
  0.4195809716322746  0.3379194400913624  0.4044277999958657
  0.4147501348915268  0.7064024646064644  0.4004440924073108
  0.4160913674274174  0.8326177827271952  0.3998284511570873
  0.4167455728854750  0.9584635447398793  0.3996642218542075
  0.5416937294893442  0.0827389161391378  0.3996874624552552
  0.5422429926022996  0.2081611055260460  0.3997325316893555
  0.5432394015537015  0.3333750120298410  0.4002144861350168
  0.5465470544758761  0.4581374431038469  0.4023156441437568
  0.5443597883113034  0.5790193982536151  0.4051942809825794
  0.5382260359991593  0.7031366527318422  0.4024405348021134
  0.5403169605949085  0.8308134201962354  0.4003874584984207
  0.5411850182506660  0.9570227353695566  0.3998677281187015
  0.6662262606587466  0.0820670171050060  0.3998468553839352
  0.6667685873538792  0.2075383426117399  0.3997714713286461
  0.6675512444874255  0.3328109786329195  0.3993982100710922
  0.6694915413762569  0.4582843482498963  0.3986433402028356
  0.6701999658958183  0.5835243548494299  0.3987348089027173
  0.6655612362459625  0.7058106431279111  0.3998730650790429
  0.6647098741516799  0.8304309656021284  0.4002889507668020
  0.6656115532404022  0.9564186650179158  0.4001336274082639
  0.7909074641425016  0.0820475092481673  0.4000671595689306
  0.7912952694063584  0.2073518392448469  0.3999548722105793
  0.7919409089659261  0.3327944840141194  0.3998651205343032
  0.7929760267493990  0.4582777334569195  0.3993741187934338
  0.7936559559574899  0.5836100385338014  0.3987459550744432
  0.7928008909005326  0.7086911814267252  0.3989310490808912
  0.7909723799076478  0.8322736534107316  0.3995245894432001
  0.7905314121612576  0.9568093312768027  0.3999343990136741
  0.9161324312083057  0.0827914141349036  0.3997417891758647
  0.9160393508812851  0.2076390941622306  0.3996982968122509
  0.9162124320317443  0.3328746277679844  0.3997248338875911
  0.9168002341680872  0.4582947760633463  0.3998964095196332
  0.9175872906018364  0.5838663881036034  0.3997509789475766
  0.9176224299057860  0.7091934005167203  0.3995352193888653
  0.9172711841776922  0.8340384687927815  0.3996573778989920
  0.9165014009735885  0.9583169817977917  0.3997454658352049
  0.0842775955691867  0.0432985667350840  0.3997261700497978
  0.0839763165027772  0.1679173503566410  0.3997142696028302
  0.0826870187791683  0.2918764399940946  0.3993656403800377
  0.0817989580980678  0.4166498540794745  0.3989946413461695
  0.0824117519957473  0.5420178465661823  0.3994559830855668
  0.0833541379121994  0.6675426822157253  0.3999400832777334
  0.0839217176149835  0.7929769470409321  0.4000088003382530
  0.0841358297044788  0.9181997473130413  0.3998938233628760
  0.2093345934992233  0.0437061886468668  0.3999956720830004
  0.2097892955834953  0.1694082767395809  0.4007824026437171
  0.2095857739211749  0.2945100914855495  0.4008326390803189
  0.2060407545449764  0.4174838994570503  0.3990855142294716
  0.2059766361708021  0.5419219163637147  0.3987123411538668
  0.2075525516345595  0.6674409589939955  0.3994662478566014
  0.2084954485385180  0.7928646407406948  0.3998418180140197
  0.2089908521071860  0.9182522212755171  0.3997279661374260
  0.3339778288426676  0.0432736155043646  0.3997537664741428
  0.3346333756146986  0.1692753110459582  0.4009950406528053
  0.3356683921649878  0.2959560182321027  0.4041875601824556
  0.3320940656123219  0.4216820655486068  0.4054971865782688
  0.3299273046431246  0.5435021631807408  0.4007939647275794
  0.3317219420647700  0.6672061483159726  0.3996427051040332
  0.3329692017195302  0.7922981415814072  0.3997435199944314
  0.3335725746486634  0.9176840246243883  0.3996538381401193
  0.4585464738847575  0.0419413825289541  0.3996425693118176
  0.4590033261372347  0.1677340642059892  0.3999261070179679
  0.4600578988687578  0.2940700183038717  0.4014558445944140
  0.4652724470684502  0.4210987956152971  0.4076211585767465
  0.4542652468895406  0.6620446873087132  0.4024153194339650
  0.4572615676854851  0.7900804912765055  0.4001154382096848
  0.4579803833563863  0.9161212874038814  0.3997909619677628
  0.5830118140725453  0.0406094750698541  0.3997617180795781
  0.5835570365389300  0.1661755737764900  0.3996904503844078
  0.5843487085066428  0.2913534755346937  0.3996131566819622
  0.5866155133625054  0.4163695065353822  0.3997295838207499
  0.5884132278511154  0.5417061028076052  0.4013103115458699
  0.5809039591274995  0.6615786487477071  0.4023715288011518
  0.5806573734302110  0.7874884252998813  0.4009570268318703
  0.5823330207978739  0.9146575583438881  0.4000974712681472
  0.7075407542573461  0.0400824863795074  0.4000444702832579
  0.7081070678816146  0.1656598915476659  0.3998652377043657
  0.7087388438713117  0.2910529289169741  0.3997199220103503
  0.7101000899494024  0.4164449007005036  0.3990164030924178
  0.7112000394084712  0.5416803040387003  0.3983710462895199
  0.7095263325783979  0.6665474841098783  0.3989350210636275
  0.7070846006062311  0.7895414292303873  0.3997503781130314
  0.7068418943180378  0.9143160709553465  0.4001118552976230
  0.8325524012958124  0.0405151577789343  0.3999490430536825
  0.8327376121791475  0.1656437621375337  0.3999480621448919
  0.8331544926940710  0.2910066682557377  0.3999151187681669
  0.8339103759991867  0.4163773561605296  0.3997975021315108
  0.8347189922159118  0.5418373617937932  0.3993034275347077
  0.8346208406405614  0.6672961791205110  0.3990058233709148
  0.8338618249765161  0.7919026272674723  0.3993650131795705
  0.8327624873162470  0.9158647197395003  0.3997686748383862
  0.9583776436969623  0.0418753722928608  0.3996873304058836
  0.9579073068537256  0.1663339875712073  0.3996123988623357
  0.9576384897407765  0.2911680034160858  0.3995267943648065
  0.9577996188628065  0.4164490758782611  0.3997225050912815
  0.9586152727349099  0.5420347376213444  0.3999331513378049
  0.9590973672437413  0.6674809207352927  0.3997903861902675
  0.9591315603251703  0.7927261198229706  0.3997676352766468
  0.9588781354334088  0.9175110888594289  0.3997488900235930
  0.4098047358283053  0.5807614225560231  0.4040727473603966
  0.4410853382425248  0.4937457539822205  0.4878643179196219
 
  0.00000000E+00  0.00000000E+00  0.00000000E+00
  0.00000000E+00  0.00000000E+00  0.00000000E+00
  0.00000000E+00  0.00000000E+00  0.00000000E+00
  0.00000000E+00  0.00000000E+00  0.00000000E+00
  0.00000000E+00  0.00000000E+00  0.00000000E+00
  0.00000000E+00  0.00000000E+00  0.00000000E+00
  0.00000000E+00  0.00000000E+00  0.00000000E+00
  0.00000000E+00  0.00000000E+00  0.00000000E+00
  0.00000000E+00  0.00000000E+00  0.00000000E+00
  0.00000000E+00  0.00000000E+00  0.00000000E+00
  0.00000000E+00  0.00000000E+00  0.00000000E+00
  0.00000000E+00  0.00000000E+00  0.00000000E+00
  0.00000000E+00  0.00000000E+00  0.00000000E+00
  0.00000000E+00  0.00000000E+00  0.00000000E+00
  0.00000000E+00  0.00000000E+00  0.00000000E+00
  0.00000000E+00  0.00000000E+00  0.00000000E+00
  0.00000000E+00  0.00000000E+00  0.00000000E+00
  0.00000000E+00  0.00000000E+00  0.00000000E+00
  0.00000000E+00  0.00000000E+00  0.00000000E+00
  0.00000000E+00  0.00000000E+00  0.00000000E+00
  0.00000000E+00  0.00000000E+00  0.00000000E+00
  0.00000000E+00  0.00000000E+00  0.00000000E+00
  0.00000000E+00  0.00000000E+00  0.00000000E+00
  0.00000000E+00  0.00000000E+00  0.00000000E+00
  0.00000000E+00  0.00000000E+00  0.00000000E+00
  0.00000000E+00  0.00000000E+00  0.00000000E+00
  0.00000000E+00  0.00000000E+00  0.00000000E+00
  0.00000000E+00  0.00000000E+00  0.00000000E+00
  0.00000000E+00  0.00000000E+00  0.00000000E+00
  0.00000000E+00  0.00000000E+00  0.00000000E+00
  0.00000000E+00  0.00000000E+00  0.00000000E+00
  0.00000000E+00  0.00000000E+00  0.00000000E+00
  0.00000000E+00  0.00000000E+00  0.00000000E+00
  0.00000000E+00  0.00000000E+00  0.00000000E+00
  0.00000000E+00  0.00000000E+00  0.00000000E+00
  0.00000000E+00  0.00000000E+00  0.00000000E+00
  0.00000000E+00  0.00000000E+00  0.00000000E+00
  0.00000000E+00  0.00000000E+00  0.00000000E+00
  0.00000000E+00  0.00000000E+00  0.00000000E+00
  0.00000000E+00  0.00000000E+00  0.00000000E+00
  0.00000000E+00  0.00000000E+00  0.00000000E+00
  0.00000000E+00  0.00000000E+00  0.00000000E+00
  0.00000000E+00  0.00000000E+00  0.00000000E+00
  0.00000000E+00  0.00000000E+00  0.00000000E+00
  0.00000000E+00  0.00000000E+00  0.00000000E+00
  0.00000000E+00  0.00000000E+00  0.00000000E+00
  0.00000000E+00  0.00000000E+00  0.00000000E+00
  0.00000000E+00  0.00000000E+00  0.00000000E+00
  0.00000000E+00  0.00000000E+00  0.00000000E+00
  0.00000000E+00  0.00000000E+00  0.00000000E+00
  0.00000000E+00  0.00000000E+00  0.00000000E+00
  0.00000000E+00  0.00000000E+00  0.00000000E+00
  0.00000000E+00  0.00000000E+00  0.00000000E+00
  0.00000000E+00  0.00000000E+00  0.00000000E+00
  0.00000000E+00  0.00000000E+00  0.00000000E+00
  0.00000000E+00  0.00000000E+00  0.00000000E+00
  0.00000000E+00  0.00000000E+00  0.00000000E+00
  0.00000000E+00  0.00000000E+00  0.00000000E+00
  0.00000000E+00  0.00000000E+00  0.00000000E+00
  0.00000000E+00  0.00000000E+00  0.00000000E+00
  0.00000000E+00  0.00000000E+00  0.00000000E+00
  0.00000000E+00  0.00000000E+00  0.00000000E+00
  0.00000000E+00  0.00000000E+00  0.00000000E+00
  0.00000000E+00  0.00000000E+00  0.00000000E+00
  0.00000000E+00  0.00000000E+00  0.00000000E+00
  0.00000000E+00  0.00000000E+00  0.00000000E+00
  0.00000000E+00  0.00000000E+00  0.00000000E+00
  0.00000000E+00  0.00000000E+00  0.00000000E+00
  0.00000000E+00  0.00000000E+00  0.00000000E+00
  0.00000000E+00  0.00000000E+00  0.00000000E+00
  0.00000000E+00  0.00000000E+00  0.00000000E+00
  0.00000000E+00  0.00000000E+00  0.00000000E+00
  0.00000000E+00  0.00000000E+00  0.00000000E+00
  0.00000000E+00  0.00000000E+00  0.00000000E+00
  0.00000000E+00  0.00000000E+00  0.00000000E+00
  0.00000000E+00  0.00000000E+00  0.00000000E+00
  0.00000000E+00  0.00000000E+00  0.00000000E+00
  0.00000000E+00  0.00000000E+00  0.00000000E+00
  0.00000000E+00  0.00000000E+00  0.00000000E+00
  0.00000000E+00  0.00000000E+00  0.00000000E+00
  0.00000000E+00  0.00000000E+00  0.00000000E+00
  0.00000000E+00  0.00000000E+00  0.00000000E+00
  0.00000000E+00  0.00000000E+00  0.00000000E+00
  0.00000000E+00  0.00000000E+00  0.00000000E+00
  0.00000000E+00  0.00000000E+00  0.00000000E+00
  0.00000000E+00  0.00000000E+00  0.00000000E+00
  0.00000000E+00  0.00000000E+00  0.00000000E+00
  0.00000000E+00  0.00000000E+00  0.00000000E+00
  0.00000000E+00  0.00000000E+00  0.00000000E+00
  0.00000000E+00  0.00000000E+00  0.00000000E+00
  0.00000000E+00  0.00000000E+00  0.00000000E+00
  0.00000000E+00  0.00000000E+00  0.00000000E+00
  0.00000000E+00  0.00000000E+00  0.00000000E+00
  0.00000000E+00  0.00000000E+00  0.00000000E+00
  0.00000000E+00  0.00000000E+00  0.00000000E+00
  0.00000000E+00  0.00000000E+00  0.00000000E+00
  0.00000000E+00  0.00000000E+00  0.00000000E+00
  0.00000000E+00  0.00000000E+00  0.00000000E+00
  0.00000000E+00  0.00000000E+00  0.00000000E+00
  0.00000000E+00  0.00000000E+00  0.00000000E+00
  0.00000000E+00  0.00000000E+00  0.00000000E+00
  0.00000000E+00  0.00000000E+00  0.00000000E+00
  0.00000000E+00  0.00000000E+00  0.00000000E+00
  0.00000000E+00  0.00000000E+00  0.00000000E+00
  0.00000000E+00  0.00000000E+00  0.00000000E+00
  0.00000000E+00  0.00000000E+00  0.00000000E+00
  0.00000000E+00  0.00000000E+00  0.00000000E+00
  0.00000000E+00  0.00000000E+00  0.00000000E+00
  0.00000000E+00  0.00000000E+00  0.00000000E+00
  0.00000000E+00  0.00000000E+00  0.00000000E+00
  0.00000000E+00  0.00000000E+00  0.00000000E+00
  0.00000000E+00  0.00000000E+00  0.00000000E+00
  0.00000000E+00  0.00000000E+00  0.00000000E+00
  0.00000000E+00  0.00000000E+00  0.00000000E+00
  0.00000000E+00  0.00000000E+00  0.00000000E+00
  0.00000000E+00  0.00000000E+00  0.00000000E+00
  0.00000000E+00  0.00000000E+00  0.00000000E+00
  0.00000000E+00  0.00000000E+00  0.00000000E+00
  0.00000000E+00  0.00000000E+00  0.00000000E+00
  0.00000000E+00  0.00000000E+00  0.00000000E+00
  0.00000000E+00  0.00000000E+00  0.00000000E+00
  0.00000000E+00  0.00000000E+00  0.00000000E+00
  0.00000000E+00  0.00000000E+00  0.00000000E+00
  0.00000000E+00  0.00000000E+00  0.00000000E+00
  0.00000000E+00  0.00000000E+00  0.00000000E+00
  0.00000000E+00  0.00000000E+00  0.00000000E+00
  0.00000000E+00  0.00000000E+00  0.00000000E+00
  0.00000000E+00  0.00000000E+00  0.00000000E+00
