Pt1 C125 N1                             
   1.00000000000000     
    19.8615893776932033   -0.0035541414717537    0.0143304101499937
    -9.9341519510352398   17.0528881430973449   -0.0178145135471698
     0.0218867136305391   -0.0183930312867398   29.7122678929330597
   Pt   C    N 
     1   125     1
Direct
  0.4374482292848414  0.4993587859893526  0.4162216013080602
  0.0416632900268912  0.0838975356367535  0.3994898563516948
  0.0405129089193513  0.2078992190505698  0.3992362579864906
  0.0398080711394230  0.3325995760022836  0.3989082677572261
  0.0399275282233309  0.4582350638194578  0.3988871281757779
  0.0411868627373839  0.5839429199877815  0.3993827923036103
  0.0421901690131005  0.7094354038853107  0.3997373557255555
  0.0425492579936705  0.8348051538675075  0.3997984821542357
  0.0425351942042872  0.9597289640564974  0.3996562361983421
  0.1677602561953445  0.0856846717674315  0.3999353693998687
  0.1666042457374172  0.2097150636023434  0.4003871711101483
  0.1645483308965214  0.3334455270042444  0.4002755553076665
  0.1628690255320352  0.4584355910278960  0.3990824681888427
  0.1643134805635174  0.5838975275854413  0.3986573175101523
  0.1661006877684396  0.7094436950316650  0.3993249835978386
  0.1670759342764647  0.8348985173493937  0.3998666598213264
  0.1675849702813867  0.9603133421416203  0.3998606815024908
  0.2928397987209312  0.0857458231165687  0.4000757877350812
  0.2936749572418836  0.2123479327335495  0.4021874886323104
  0.2911444538681163  0.3366652267516179  0.4053106313526602
  0.2853104585427113  0.4586290318476306  0.4047734670014726
  0.2872005323824592  0.5844800881321177  0.4007901722433433
  0.2900368209150712  0.7093734650144816  0.3992874161621787
  0.2913683796771144  0.8344106389927068  0.3994492227168798
  0.2921174051052196  0.9598593823634370  0.3997170991464877
  0.4172029744927874  0.0840078416883517  0.3995309279407583
  0.4181550954597233  0.2099478364154361  0.4010397868507560
  0.4205714492947153  0.3371852031103970  0.4068922669028023
  0.4139287732151937  0.7068435724585362  0.4018907830852098
  0.4157580940316244  0.8327850187920911  0.3996026449511118
  0.4165214917259447  0.9583917183874059  0.3994804774683638
  0.5416316121177179  0.0823239498811062  0.3994679442364026
  0.5424410044024038  0.2076848502456302  0.3994187470467629
  0.5439673238257230  0.3328112282801937  0.4013500458052119
  0.5492678352358730  0.4577494498270055  0.4069475834161191
  0.5481869112900558  0.5804511735717118  0.4100541635573006
  0.5383026977648262  0.7024765528118441  0.4049760382461403
  0.5398987512576219  0.8303713836410128  0.4008651710657571
  0.5409351951437520  0.9565928035585604  0.3996981135414303
  0.6659888222523240  0.0815056225652308  0.3998231660261445
  0.6667730105627320  0.2069802629273916  0.3994244488857384
  0.6680052812666307  0.3323672929009091  0.3989307231649790
  0.6708538137041345  0.4580419980018212  0.3995239484773797
  0.6723606323453286  0.5837963765884461  0.4014407388965944
  0.6669732022594623  0.7065552148386177  0.4017928891716157
  0.6647692747499805  0.8300462763960899  0.4008612712229397
  0.6654196693946587  0.9559383041196206  0.4000396571872635
  0.7906331195751330  0.0815258594284553  0.3998780701991243
  0.7910550806789560  0.2068271763248759  0.3998319300362365
  0.7919430241544120  0.3323456923798296  0.3993641456852242
  0.7936108469028448  0.4580762488225721  0.3986786532582810
  0.7948292218744981  0.5836907776190562  0.3985591065190894
  0.7936089412057598  0.7089052989295984  0.3991355249386105
  0.7916580356468985  0.8325744940701864  0.3995968192835860
  0.7904124226760446  0.9564468405019266  0.3997991459780703
  0.9157529261267272  0.0823106200432493  0.3995836167521560
  0.9155024379487675  0.2071065796775902  0.3995391528836256
  0.9158047153775423  0.3324337147523074  0.3995007832463133
  0.9167274567787310  0.4580747766133405  0.3994483513051474
  0.9179521676215266  0.5838514504063798  0.3992509515991804
  0.9181194134618376  0.7093315269279266  0.3991829702668994
  0.9176278239228217  0.8341520059194153  0.3993564567949683
  0.9165963454262697  0.9582135839311032  0.3995316161965020
  0.0841923575048243  0.0432839050987029  0.3996333682670489
  0.0830986618513145  0.1672865038128135  0.3994979507076435
  0.0816622824755572  0.2913165424626681  0.3991412447252176
  0.0806555483788558  0.4163279175279313  0.3986525995274841
  0.0816990682391874  0.5418815772026329  0.3988935903831377
  0.0831466588161176  0.6675660938726333  0.3995335327869739
  0.0839657896713269  0.7931212507477072  0.3998751552620037
  0.0843048357768778  0.9184002713306402  0.3998052654141354
  0.2094133140327485  0.0439495574878328  0.3999482485408606
  0.2095278206725515  0.1694298701493419  0.4007154522123366
  0.2077368865166667  0.2932587438235865  0.4016075140312754
  0.2039283581317975  0.4169352323540648  0.4008024675652072
  0.2045226404149575  0.5418744826327319  0.3990407258281284
  0.2069961525278459  0.6676008358736094  0.3989591201684815
  0.2082434613796162  0.7929900663538618  0.3995820819076416
  0.2089754285838164  0.9184566640557678  0.3998682179537056
  0.3339989439451652  0.0433703770367303  0.3997191623542955
  0.3348266340794261  0.1694432274298611  0.4010700367998201
  0.3355720748009893  0.2962167181227621  0.4053944375108747
  0.3274449609725251  0.4190947626411752  0.4090281091255838
  0.3275029754586745  0.5437088087977457  0.4050141324660094
  0.3308240883241300  0.6674446009458224  0.4005214550622189
  0.3325252200377855  0.7924960750817586  0.3993515074213554
  0.3333928454042517  0.9177687796029161  0.3995582064349245
  0.4584583969486301  0.0417564225563237  0.3994431446878950
  0.4592223821997177  0.1673847022008453  0.3997698087008296
  0.4605823243626486  0.2934484778344822  0.4029012348736783
  0.4672742845228888  0.4198678070229161  0.4114384321579704
  0.4526031081744979  0.6621862112645679  0.4056208834482665
  0.4568241152745388  0.7903279967034604  0.4005629279095471
  0.4577723880057172  0.9161083622205288  0.3995244669715312
  0.5828860685119696  0.0401694674320645  0.3996528615001037
  0.5836220348253290  0.1657137184565066  0.3993432276422163
  0.5847678292577290  0.2909080190737923  0.3995294762967105
  0.5882822905274904  0.4159318298125183  0.4020164220307633
  0.5916187142854333  0.5421312197269222  0.4062444319544362
  0.5833479310765478  0.6626384504938754  0.4054361260417549
  0.5803053852700351  0.7867127618069135  0.4020880455967579
  0.5820104430284196  0.9141320333440109  0.4000654383055339
  0.7073186854129824  0.0395783049479488  0.3999145940707699
  0.7079101365958352  0.1650826747052262  0.3997614928334539
  0.7089119402079130  0.2905290491982300  0.3991610312036469
  0.7110191420966538  0.4160690619502436  0.3986477779531596
  0.7127554307713256  0.5416504187545681  0.3993881549552626
  0.7109263954559688  0.6669501759735098  0.4005033711410058
  0.7079740243722186  0.7900127955588898  0.4005402258141990
  0.7067482318132056  0.9139389621500045  0.4001092480413979
  0.8322639999903777  0.0400717406871339  0.3997728025899202
  0.8324094726729278  0.1651424052394554  0.3998296796253612
  0.8329466306218039  0.2905092740301631  0.3996663433312797
  0.8341054770571422  0.4160384935615472  0.3992079357372030
  0.8354755928427421  0.5417348046426392  0.3986965510015987
  0.8353826959152733  0.6674072505661355  0.3987988789643485
  0.8345127208183524  0.7922042976759479  0.3992385708389081
  0.8330389618618315  0.9159199604375127  0.3995934011339329
  0.9581521613410695  0.0416328013802523  0.3995200027878064
  0.9573391255095370  0.1658241620121376  0.3994036368483283
  0.9570491377940185  0.2906708786847228  0.3993039824902780
  0.9573394807709021  0.4160918716312663  0.3993596497862265
  0.9585852005496411  0.5418886826902705  0.3994658965765669
  0.9593614981496512  0.6675435871836233  0.3994410748319350
  0.9594940721591476  0.7928556675735479  0.3994641906916344
  0.9590863052075240  0.9175550459057291  0.3995331438272398
  0.4065386313244602  0.5824905643514026  0.4092375508706315
 
  0.00000000E+00  0.00000000E+00  0.00000000E+00
  0.00000000E+00  0.00000000E+00  0.00000000E+00
  0.00000000E+00  0.00000000E+00  0.00000000E+00
  0.00000000E+00  0.00000000E+00  0.00000000E+00
  0.00000000E+00  0.00000000E+00  0.00000000E+00
  0.00000000E+00  0.00000000E+00  0.00000000E+00
  0.00000000E+00  0.00000000E+00  0.00000000E+00
  0.00000000E+00  0.00000000E+00  0.00000000E+00
  0.00000000E+00  0.00000000E+00  0.00000000E+00
  0.00000000E+00  0.00000000E+00  0.00000000E+00
  0.00000000E+00  0.00000000E+00  0.00000000E+00
  0.00000000E+00  0.00000000E+00  0.00000000E+00
  0.00000000E+00  0.00000000E+00  0.00000000E+00
  0.00000000E+00  0.00000000E+00  0.00000000E+00
  0.00000000E+00  0.00000000E+00  0.00000000E+00
  0.00000000E+00  0.00000000E+00  0.00000000E+00
  0.00000000E+00  0.00000000E+00  0.00000000E+00
  0.00000000E+00  0.00000000E+00  0.00000000E+00
  0.00000000E+00  0.00000000E+00  0.00000000E+00
  0.00000000E+00  0.00000000E+00  0.00000000E+00
  0.00000000E+00  0.00000000E+00  0.00000000E+00
  0.00000000E+00  0.00000000E+00  0.00000000E+00
  0.00000000E+00  0.00000000E+00  0.00000000E+00
  0.00000000E+00  0.00000000E+00  0.00000000E+00
  0.00000000E+00  0.00000000E+00  0.00000000E+00
  0.00000000E+00  0.00000000E+00  0.00000000E+00
  0.00000000E+00  0.00000000E+00  0.00000000E+00
  0.00000000E+00  0.00000000E+00  0.00000000E+00
  0.00000000E+00  0.00000000E+00  0.00000000E+00
  0.00000000E+00  0.00000000E+00  0.00000000E+00
  0.00000000E+00  0.00000000E+00  0.00000000E+00
  0.00000000E+00  0.00000000E+00  0.00000000E+00
  0.00000000E+00  0.00000000E+00  0.00000000E+00
  0.00000000E+00  0.00000000E+00  0.00000000E+00
  0.00000000E+00  0.00000000E+00  0.00000000E+00
  0.00000000E+00  0.00000000E+00  0.00000000E+00
  0.00000000E+00  0.00000000E+00  0.00000000E+00
  0.00000000E+00  0.00000000E+00  0.00000000E+00
  0.00000000E+00  0.00000000E+00  0.00000000E+00
  0.00000000E+00  0.00000000E+00  0.00000000E+00
  0.00000000E+00  0.00000000E+00  0.00000000E+00
  0.00000000E+00  0.00000000E+00  0.00000000E+00
  0.00000000E+00  0.00000000E+00  0.00000000E+00
  0.00000000E+00  0.00000000E+00  0.00000000E+00
  0.00000000E+00  0.00000000E+00  0.00000000E+00
  0.00000000E+00  0.00000000E+00  0.00000000E+00
  0.00000000E+00  0.00000000E+00  0.00000000E+00
  0.00000000E+00  0.00000000E+00  0.00000000E+00
  0.00000000E+00  0.00000000E+00  0.00000000E+00
  0.00000000E+00  0.00000000E+00  0.00000000E+00
  0.00000000E+00  0.00000000E+00  0.00000000E+00
  0.00000000E+00  0.00000000E+00  0.00000000E+00
  0.00000000E+00  0.00000000E+00  0.00000000E+00
  0.00000000E+00  0.00000000E+00  0.00000000E+00
  0.00000000E+00  0.00000000E+00  0.00000000E+00
  0.00000000E+00  0.00000000E+00  0.00000000E+00
  0.00000000E+00  0.00000000E+00  0.00000000E+00
  0.00000000E+00  0.00000000E+00  0.00000000E+00
  0.00000000E+00  0.00000000E+00  0.00000000E+00
  0.00000000E+00  0.00000000E+00  0.00000000E+00
  0.00000000E+00  0.00000000E+00  0.00000000E+00
  0.00000000E+00  0.00000000E+00  0.00000000E+00
  0.00000000E+00  0.00000000E+00  0.00000000E+00
  0.00000000E+00  0.00000000E+00  0.00000000E+00
  0.00000000E+00  0.00000000E+00  0.00000000E+00
  0.00000000E+00  0.00000000E+00  0.00000000E+00
  0.00000000E+00  0.00000000E+00  0.00000000E+00
  0.00000000E+00  0.00000000E+00  0.00000000E+00
  0.00000000E+00  0.00000000E+00  0.00000000E+00
  0.00000000E+00  0.00000000E+00  0.00000000E+00
  0.00000000E+00  0.00000000E+00  0.00000000E+00
  0.00000000E+00  0.00000000E+00  0.00000000E+00
  0.00000000E+00  0.00000000E+00  0.00000000E+00
  0.00000000E+00  0.00000000E+00  0.00000000E+00
  0.00000000E+00  0.00000000E+00  0.00000000E+00
  0.00000000E+00  0.00000000E+00  0.00000000E+00
  0.00000000E+00  0.00000000E+00  0.00000000E+00
  0.00000000E+00  0.00000000E+00  0.00000000E+00
  0.00000000E+00  0.00000000E+00  0.00000000E+00
  0.00000000E+00  0.00000000E+00  0.00000000E+00
  0.00000000E+00  0.00000000E+00  0.00000000E+00
  0.00000000E+00  0.00000000E+00  0.00000000E+00
  0.00000000E+00  0.00000000E+00  0.00000000E+00
  0.00000000E+00  0.00000000E+00  0.00000000E+00
  0.00000000E+00  0.00000000E+00  0.00000000E+00
  0.00000000E+00  0.00000000E+00  0.00000000E+00
  0.00000000E+00  0.00000000E+00  0.00000000E+00
  0.00000000E+00  0.00000000E+00  0.00000000E+00
  0.00000000E+00  0.00000000E+00  0.00000000E+00
  0.00000000E+00  0.00000000E+00  0.00000000E+00
  0.00000000E+00  0.00000000E+00  0.00000000E+00
  0.00000000E+00  0.00000000E+00  0.00000000E+00
  0.00000000E+00  0.00000000E+00  0.00000000E+00
  0.00000000E+00  0.00000000E+00  0.00000000E+00
  0.00000000E+00  0.00000000E+00  0.00000000E+00
  0.00000000E+00  0.00000000E+00  0.00000000E+00
  0.00000000E+00  0.00000000E+00  0.00000000E+00
  0.00000000E+00  0.00000000E+00  0.00000000E+00
  0.00000000E+00  0.00000000E+00  0.00000000E+00
  0.00000000E+00  0.00000000E+00  0.00000000E+00
  0.00000000E+00  0.00000000E+00  0.00000000E+00
  0.00000000E+00  0.00000000E+00  0.00000000E+00
  0.00000000E+00  0.00000000E+00  0.00000000E+00
  0.00000000E+00  0.00000000E+00  0.00000000E+00
  0.00000000E+00  0.00000000E+00  0.00000000E+00
  0.00000000E+00  0.00000000E+00  0.00000000E+00
  0.00000000E+00  0.00000000E+00  0.00000000E+00
  0.00000000E+00  0.00000000E+00  0.00000000E+00
  0.00000000E+00  0.00000000E+00  0.00000000E+00
  0.00000000E+00  0.00000000E+00  0.00000000E+00
  0.00000000E+00  0.00000000E+00  0.00000000E+00
  0.00000000E+00  0.00000000E+00  0.00000000E+00
  0.00000000E+00  0.00000000E+00  0.00000000E+00
  0.00000000E+00  0.00000000E+00  0.00000000E+00
  0.00000000E+00  0.00000000E+00  0.00000000E+00
  0.00000000E+00  0.00000000E+00  0.00000000E+00
  0.00000000E+00  0.00000000E+00  0.00000000E+00
  0.00000000E+00  0.00000000E+00  0.00000000E+00
  0.00000000E+00  0.00000000E+00  0.00000000E+00
  0.00000000E+00  0.00000000E+00  0.00000000E+00
  0.00000000E+00  0.00000000E+00  0.00000000E+00
  0.00000000E+00  0.00000000E+00  0.00000000E+00
  0.00000000E+00  0.00000000E+00  0.00000000E+00
  0.00000000E+00  0.00000000E+00  0.00000000E+00
  0.00000000E+00  0.00000000E+00  0.00000000E+00
  0.00000000E+00  0.00000000E+00  0.00000000E+00
  0.00000000E+00  0.00000000E+00  0.00000000E+00
