Ni1 C123 N3                             
   1.00000000000000     
    19.8086459377457338    0.0028274903531068    0.0226076903501070
    -9.9016799784949541   17.0179699542112175   -0.0857781218211654
     0.0340205794435059   -0.1288475321537184   29.8477941991103748
   Ni   C    N 
     1   123     3
Direct
  0.4370643923049698  0.4996158036891652  0.4045650518168836
  0.0420323035563431  0.0842794271792488  0.4001031643130288
  0.0410496579901218  0.2082412193895096  0.4002480788979095
  0.0404026381533315  0.3328964143409537  0.4000596133150603
  0.0406067117979147  0.4581745014184616  0.3996642958262837
  0.0414014930983077  0.5836995749962626  0.3994871517896780
  0.0421484561099986  0.7091589467593568  0.3995530885538793
  0.0424744155859956  0.8345546051476560  0.3996495646547720
  0.0424649852431742  0.9596802569651929  0.3998041149706639
  0.1679694618208938  0.0859180585917366  0.4004739112977793
  0.1676379126866910  0.2106672461863067  0.4013871471689557
  0.1652516521442183  0.3338100784309275  0.4016624684674043
  0.1643587037629348  0.4584534906379990  0.4010234491593759
  0.1651967409417615  0.5835580849826419  0.4001101925529900
  0.1664216147925922  0.7089868458294416  0.3996342001022135
  0.1671557822509402  0.8345633401904676  0.3996655824665737
  0.1676150373120581  0.9602773149374882  0.3998482539020869
  0.2928167162241400  0.0861834784335719  0.4005139506816233
  0.2937416499963158  0.2135110187795460  0.4019925064264379
  0.2931526052069711  0.3396065790868938  0.4032453292445230
  0.2879809457418319  0.4578935842213436  0.4032284930220948
  0.2885076989663135  0.5830287845144380  0.4019577024102033
  0.2905943905512631  0.7083831310359479  0.4004231957426637
  0.2916584450178958  0.8339428710100830  0.3997384124921709
  0.2922130240834179  0.9597891375497872  0.3998066104819278
  0.4171473384282490  0.0843869223760638  0.4001338122820629
  0.4179426502246908  0.2107983377250612  0.4015025628089040
  0.4204169509946491  0.3392559565565724  0.4034745134365471
  0.4144404284597946  0.7055226269099423  0.4020399407288901
  0.4160272895387049  0.8319923891987466  0.4004394538934432
  0.4166766789543162  0.9582085484428707  0.3998137615560996
  0.5415318881500465  0.0825187589880285  0.3998104098600203
  0.5422252032889956  0.2083887230939226  0.4003020652808947
  0.5434564109076929  0.3340764983908235  0.4019149997773198
  0.5462944362312181  0.4589986902736228  0.4036563705298507
  0.5379227423506522  0.7008226955850040  0.4030071671101699
  0.5401729290267462  0.8295620771417156  0.4012517418953485
  0.5410316332672557  0.9563586192016568  0.4000994016691890
  0.6660195849993658  0.0817084715101875  0.3998235228020591
  0.6665801092537279  0.2073492945978105  0.3997007468867839
  0.6674864846130604  0.3328455254264985  0.4000826813173300
  0.6695268099416033  0.4584436008182421  0.4011864399566397
  0.6703576767906567  0.5838813340373874  0.4021724991690533
  0.6659481776624948  0.7054499767087561  0.4022553012563846
  0.6643545558221545  0.8295603884915357  0.4013338902133784
  0.6654113017770255  0.9558384778004405  0.4002931405520668
  0.7906736608401720  0.0816771242883378  0.3998246780362990
  0.7910729965717120  0.2071309697209404  0.3996904023286356
  0.7917259171644793  0.3326360197759937  0.3995121842075622
  0.7928983383501126  0.4582163121769485  0.3996001611263963
  0.7936137915790884  0.5836059995675461  0.4000924696491215
  0.7931320461276457  0.7087026945127087  0.4005162614545585
  0.7908882720609981  0.8319796743377694  0.4005525502630857
  0.7902556868977322  0.9563222844638621  0.4001539098783297
  0.9158761267263728  0.0824469738990056  0.3998223803844542
  0.9157672085778483  0.2073419161586083  0.3997192348334828
  0.9159848531171668  0.3326554359284559  0.3995475638350399
  0.9166875197390625  0.4581375150943311  0.3994175027903467
  0.9175268365775548  0.5837272251768328  0.3994189254287634
  0.9177029358971286  0.7090595910414171  0.3995878946890976
  0.9173587564057941  0.8340042235262440  0.3997733124145093
  0.9164391897405091  0.9581357892244027  0.3998481770740666
  0.0843612896418804  0.0434019976365631  0.4000813868325225
  0.0838741873113277  0.1679396329969422  0.4005357033777303
  0.0822395752262913  0.2916085283281629  0.4005744906445731
  0.0817088105139327  0.4163970106058463  0.4001538857242225
  0.0823516479958797  0.5417734529198797  0.3996762548708490
  0.0833315677703577  0.6673065833241715  0.3995362960042494
  0.0839368302026092  0.7928029353713092  0.3996538126535747
  0.0842171514008445  0.9182001199546629  0.3997355033320617
  0.2093995309357298  0.0439862526193486  0.4002379104888459
  0.2099124739465262  0.1698979936820837  0.4012879433578833
  0.2090653019258529  0.2945713249786682  0.4022155277254100
  0.2057124377096826  0.4169736343659478  0.4020202477765802
  0.2057704712492695  0.5415429929189018  0.4009960324696436
  0.2074607895864180  0.6670954522295580  0.3999804594059458
  0.2084622085677319  0.7926025178120886  0.3996416061467976
  0.2089960476637373  0.9182266512484183  0.3997463138595551
  0.3339597777322643  0.0435851366324025  0.4001066025993314
  0.3346954234416745  0.1702135344282846  0.4013761872356213
  0.3358502600183502  0.2977479565257358  0.4031137528340551
  0.3298562001394344  0.5423137482206617  0.4032068123687179
  0.3314027060953068  0.6661810288852351  0.4014865194884834
  0.3328626694173199  0.7917067977156906  0.4001175251310227
  0.3334877292265935  0.9174742261160833  0.3997542658880636
  0.4583644508849379  0.0418177378977613  0.3998491075073356
  0.4589519896917444  0.1680085882084620  0.4006117609489046
  0.4602340915516862  0.2946353828535750  0.4024390764066425
  0.4647526069369888  0.4221707345802085  0.4042992286076165
  0.4531737403676768  0.6601096835032496  0.4031426601058036
  0.4570246316144525  0.7892150859461715  0.4012600682078672
  0.4578597985462547  0.9156544511830729  0.4000585335208459
  0.5827696554997241  0.0401615019310390  0.3998564901807960
  0.5833867535675193  0.1661219878303225  0.3998329102273072
  0.5843581711699362  0.2917080945155174  0.4006901275217903
  0.5868113111265740  0.4171605553069763  0.4023542770283149
  0.5886168911533300  0.5429977280880278  0.4035156033360122
  0.5816459305489878  0.6598292187334190  0.4033065616561958
  0.5803641418276589  0.7857238246934820  0.4019420396629538
  0.5821122071407672  0.9136758056318709  0.4004908192233191
  0.7073152587018807  0.0396355357308386  0.3999301532280207
  0.7078754992920367  0.1653852679348216  0.3997157320029949
  0.7085438505735303  0.2909283846593170  0.3996483923803195
  0.7100654892301992  0.4164369557907212  0.4001782965906185
  0.7111544811827825  0.5416934942673942  0.4011189705935722
  0.7102067485870297  0.6666990085611850  0.4016786406575845
  0.7070878424899183  0.7892122112505174  0.4014224566027085
  0.7065435398431131  0.9136824138138474  0.4005364026467672
  0.8323008442538390  0.0401317512374670  0.3998798944590285
  0.8325122573131936  0.1653829522344257  0.3997217632636093
  0.8329201384160775  0.2907833170847857  0.3995634107253669
  0.8337866656461030  0.4162397860074629  0.3994319900197983
  0.8346809700141935  0.5417788705369646  0.3995995558656709
  0.8348121222068404  0.6672157766517723  0.3999768433664765
  0.8340064470827296  0.7918831128137290  0.4001957479570569
  0.8326964432609419  0.9155942123845068  0.4001318594368895
  0.9583071593971094  0.0417398787513743  0.3998568692716435
  0.9576345376594725  0.1659981346571304  0.3998352308047639
  0.9574153481837625  0.2909693015938072  0.3996754698264798
  0.9576998016580650  0.4162485399902737  0.3994815698215902
  0.9585317765903807  0.5418281705532705  0.3994066025526470
  0.9591409344691150  0.6673331978190983  0.3994768665181871
  0.9592167923570890  0.7926555195571703  0.3996264408551424
  0.9589457956499646  0.9174835401559841  0.3997765991633928
  0.4093502112010505  0.5799171454113314  0.4039156959582441
  0.5454109097373619  0.5792944283749569  0.4041716112557187
  0.3305008232580716  0.4206897452833123  0.4039490686848920
 
  0.00000000E+00  0.00000000E+00  0.00000000E+00
  0.00000000E+00  0.00000000E+00  0.00000000E+00
  0.00000000E+00  0.00000000E+00  0.00000000E+00
  0.00000000E+00  0.00000000E+00  0.00000000E+00
  0.00000000E+00  0.00000000E+00  0.00000000E+00
  0.00000000E+00  0.00000000E+00  0.00000000E+00
  0.00000000E+00  0.00000000E+00  0.00000000E+00
  0.00000000E+00  0.00000000E+00  0.00000000E+00
  0.00000000E+00  0.00000000E+00  0.00000000E+00
  0.00000000E+00  0.00000000E+00  0.00000000E+00
  0.00000000E+00  0.00000000E+00  0.00000000E+00
  0.00000000E+00  0.00000000E+00  0.00000000E+00
  0.00000000E+00  0.00000000E+00  0.00000000E+00
  0.00000000E+00  0.00000000E+00  0.00000000E+00
  0.00000000E+00  0.00000000E+00  0.00000000E+00
  0.00000000E+00  0.00000000E+00  0.00000000E+00
  0.00000000E+00  0.00000000E+00  0.00000000E+00
  0.00000000E+00  0.00000000E+00  0.00000000E+00
  0.00000000E+00  0.00000000E+00  0.00000000E+00
  0.00000000E+00  0.00000000E+00  0.00000000E+00
  0.00000000E+00  0.00000000E+00  0.00000000E+00
  0.00000000E+00  0.00000000E+00  0.00000000E+00
  0.00000000E+00  0.00000000E+00  0.00000000E+00
  0.00000000E+00  0.00000000E+00  0.00000000E+00
  0.00000000E+00  0.00000000E+00  0.00000000E+00
  0.00000000E+00  0.00000000E+00  0.00000000E+00
  0.00000000E+00  0.00000000E+00  0.00000000E+00
  0.00000000E+00  0.00000000E+00  0.00000000E+00
  0.00000000E+00  0.00000000E+00  0.00000000E+00
  0.00000000E+00  0.00000000E+00  0.00000000E+00
  0.00000000E+00  0.00000000E+00  0.00000000E+00
  0.00000000E+00  0.00000000E+00  0.00000000E+00
  0.00000000E+00  0.00000000E+00  0.00000000E+00
  0.00000000E+00  0.00000000E+00  0.00000000E+00
  0.00000000E+00  0.00000000E+00  0.00000000E+00
  0.00000000E+00  0.00000000E+00  0.00000000E+00
  0.00000000E+00  0.00000000E+00  0.00000000E+00
  0.00000000E+00  0.00000000E+00  0.00000000E+00
  0.00000000E+00  0.00000000E+00  0.00000000E+00
  0.00000000E+00  0.00000000E+00  0.00000000E+00
  0.00000000E+00  0.00000000E+00  0.00000000E+00
  0.00000000E+00  0.00000000E+00  0.00000000E+00
  0.00000000E+00  0.00000000E+00  0.00000000E+00
  0.00000000E+00  0.00000000E+00  0.00000000E+00
  0.00000000E+00  0.00000000E+00  0.00000000E+00
  0.00000000E+00  0.00000000E+00  0.00000000E+00
  0.00000000E+00  0.00000000E+00  0.00000000E+00
  0.00000000E+00  0.00000000E+00  0.00000000E+00
  0.00000000E+00  0.00000000E+00  0.00000000E+00
  0.00000000E+00  0.00000000E+00  0.00000000E+00
  0.00000000E+00  0.00000000E+00  0.00000000E+00
  0.00000000E+00  0.00000000E+00  0.00000000E+00
  0.00000000E+00  0.00000000E+00  0.00000000E+00
  0.00000000E+00  0.00000000E+00  0.00000000E+00
  0.00000000E+00  0.00000000E+00  0.00000000E+00
  0.00000000E+00  0.00000000E+00  0.00000000E+00
  0.00000000E+00  0.00000000E+00  0.00000000E+00
  0.00000000E+00  0.00000000E+00  0.00000000E+00
  0.00000000E+00  0.00000000E+00  0.00000000E+00
  0.00000000E+00  0.00000000E+00  0.00000000E+00
  0.00000000E+00  0.00000000E+00  0.00000000E+00
  0.00000000E+00  0.00000000E+00  0.00000000E+00
  0.00000000E+00  0.00000000E+00  0.00000000E+00
  0.00000000E+00  0.00000000E+00  0.00000000E+00
  0.00000000E+00  0.00000000E+00  0.00000000E+00
  0.00000000E+00  0.00000000E+00  0.00000000E+00
  0.00000000E+00  0.00000000E+00  0.00000000E+00
  0.00000000E+00  0.00000000E+00  0.00000000E+00
  0.00000000E+00  0.00000000E+00  0.00000000E+00
  0.00000000E+00  0.00000000E+00  0.00000000E+00
  0.00000000E+00  0.00000000E+00  0.00000000E+00
  0.00000000E+00  0.00000000E+00  0.00000000E+00
  0.00000000E+00  0.00000000E+00  0.00000000E+00
  0.00000000E+00  0.00000000E+00  0.00000000E+00
  0.00000000E+00  0.00000000E+00  0.00000000E+00
  0.00000000E+00  0.00000000E+00  0.00000000E+00
  0.00000000E+00  0.00000000E+00  0.00000000E+00
  0.00000000E+00  0.00000000E+00  0.00000000E+00
  0.00000000E+00  0.00000000E+00  0.00000000E+00
  0.00000000E+00  0.00000000E+00  0.00000000E+00
  0.00000000E+00  0.00000000E+00  0.00000000E+00
  0.00000000E+00  0.00000000E+00  0.00000000E+00
  0.00000000E+00  0.00000000E+00  0.00000000E+00
  0.00000000E+00  0.00000000E+00  0.00000000E+00
  0.00000000E+00  0.00000000E+00  0.00000000E+00
  0.00000000E+00  0.00000000E+00  0.00000000E+00
  0.00000000E+00  0.00000000E+00  0.00000000E+00
  0.00000000E+00  0.00000000E+00  0.00000000E+00
  0.00000000E+00  0.00000000E+00  0.00000000E+00
  0.00000000E+00  0.00000000E+00  0.00000000E+00
  0.00000000E+00  0.00000000E+00  0.00000000E+00
  0.00000000E+00  0.00000000E+00  0.00000000E+00
  0.00000000E+00  0.00000000E+00  0.00000000E+00
  0.00000000E+00  0.00000000E+00  0.00000000E+00
  0.00000000E+00  0.00000000E+00  0.00000000E+00
  0.00000000E+00  0.00000000E+00  0.00000000E+00
  0.00000000E+00  0.00000000E+00  0.00000000E+00
  0.00000000E+00  0.00000000E+00  0.00000000E+00
  0.00000000E+00  0.00000000E+00  0.00000000E+00
  0.00000000E+00  0.00000000E+00  0.00000000E+00
  0.00000000E+00  0.00000000E+00  0.00000000E+00
  0.00000000E+00  0.00000000E+00  0.00000000E+00
  0.00000000E+00  0.00000000E+00  0.00000000E+00
  0.00000000E+00  0.00000000E+00  0.00000000E+00
  0.00000000E+00  0.00000000E+00  0.00000000E+00
  0.00000000E+00  0.00000000E+00  0.00000000E+00
  0.00000000E+00  0.00000000E+00  0.00000000E+00
  0.00000000E+00  0.00000000E+00  0.00000000E+00
  0.00000000E+00  0.00000000E+00  0.00000000E+00
  0.00000000E+00  0.00000000E+00  0.00000000E+00
  0.00000000E+00  0.00000000E+00  0.00000000E+00
  0.00000000E+00  0.00000000E+00  0.00000000E+00
  0.00000000E+00  0.00000000E+00  0.00000000E+00
  0.00000000E+00  0.00000000E+00  0.00000000E+00
  0.00000000E+00  0.00000000E+00  0.00000000E+00
  0.00000000E+00  0.00000000E+00  0.00000000E+00
  0.00000000E+00  0.00000000E+00  0.00000000E+00
  0.00000000E+00  0.00000000E+00  0.00000000E+00
  0.00000000E+00  0.00000000E+00  0.00000000E+00
  0.00000000E+00  0.00000000E+00  0.00000000E+00
  0.00000000E+00  0.00000000E+00  0.00000000E+00
  0.00000000E+00  0.00000000E+00  0.00000000E+00
  0.00000000E+00  0.00000000E+00  0.00000000E+00
  0.00000000E+00  0.00000000E+00  0.00000000E+00
  0.00000000E+00  0.00000000E+00  0.00000000E+00
  0.00000000E+00  0.00000000E+00  0.00000000E+00
  0.00000000E+00  0.00000000E+00  0.00000000E+00
