V1 H1 C125 N1 O1                        
   1.00000000000000     
    19.7981149034295747   -0.0116071570925450   -0.0230421209706858
    -9.9093050012803428   17.0612152977671130   -0.1191014071695693
    -0.0349443334265248   -0.2279469958559740   29.8017817512918022
   V    H    C    N    O 
     1     1   125     1     1
Direct
  0.4386991425736559  0.5028518866822699  0.4292134867652405
  0.4845694145744533  0.5396810720764571  0.5077476960283812
  0.0420956043088475  0.0841017619469772  0.3997745887839580
  0.0416126316580470  0.2085731814030031  0.3995845374450837
  0.0411671686611224  0.3331635739687252  0.3995033716528339
  0.0411130273145412  0.4583990548674320  0.3994652787615260
  0.0415345661322647  0.5836919598157803  0.3996762999296726
  0.0418786607934160  0.7088835969190543  0.3997907302632875
  0.0421330762143813  0.8341503667566588  0.3997559985044471
  0.0422165544045884  0.9592239872939967  0.3997709004368591
  0.1675602498204184  0.0849785295844889  0.4001674749570821
  0.1676283486446775  0.2100527875516394  0.4001978818179363
  0.1665841023115200  0.3342438768819056  0.4002489211359305
  0.1652508969165459  0.4586265195287393  0.4000758842027873
  0.1657413109596076  0.5837002155860687  0.3995682962459629
  0.1664413828368488  0.7089499313880823  0.3996519146702461
  0.1669092344589014  0.8341992632001811  0.3997790231679503
  0.1672716723453186  0.9595507577137631  0.3999269043632709
  0.2924606967523811  0.0848880642637716  0.4001476039504862
  0.2933366028992732  0.2113346773644789  0.4012217368722385
  0.2936910798009391  0.3374594446621544  0.4021438050982195
  0.2900216019469340  0.4593593892916688  0.4024150297572339
  0.2896750249667848  0.5843752319937410  0.4006708710959089
  0.2909549303093806  0.7090544373978691  0.3996245983241724
  0.2916292183664562  0.8339987644148141  0.3995347535150059
  0.2919348325925268  0.9592201954521784  0.3996823479018867
  0.4170357764908769  0.0838540114975373  0.3996503978940418
  0.4175474702257144  0.2095139840892590  0.4002407841977363
  0.4193259543165213  0.3367612128052227  0.4030832366575719
  0.4152239932299915  0.7071956990651501  0.4002479432178045
  0.4162874701483194  0.8329669953877363  0.3995721570527947
  0.4167082617768428  0.9584113915902858  0.3995218272559144
  0.5417449018016407  0.0828786270953800  0.3995841534020999
  0.5421603730341367  0.2080554819113873  0.3995541123946073
  0.5429023696872058  0.3331290206256950  0.4004798816363564
  0.5447513459269520  0.4574223665249864  0.4031794600395827
  0.5434042005384218  0.5800997110281865  0.4032798903211420
  0.5388236758514402  0.7042810125511642  0.4014549101471478
  0.5407063094536655  0.8316170608453347  0.4001215157382164
  0.5414395027305732  0.9574972130440058  0.3997191480103567
  0.6664912035678171  0.0825258947427239  0.3998268072481503
  0.6668420539297987  0.2077289973365985  0.3996361887782986
  0.6673215883513627  0.3328048387971056  0.3993970923151691
  0.6687268156612572  0.4581317318115694  0.3998431786632309
  0.6693358701663847  0.5835620333670575  0.4003669805401456
  0.6658243600137834  0.7065916414848260  0.3998166299229064
  0.6651326964448331  0.8312071717678773  0.4000321921478714
  0.6660365396978268  0.9571277735769530  0.3999564332791583
  0.7912813728731855  0.0825608354391493  0.3998009582024449
  0.7915206094152509  0.2077011194151849  0.3998119136785112
  0.7919069432290428  0.3329101568794627  0.3995973965775890
  0.7926181446606422  0.4582679292055992  0.3992343732584289
  0.7930141393214265  0.5834882875643339  0.3991829023575450
  0.7924405229333460  0.7086234857956901  0.3991972833324294
  0.7911476020253598  0.8326387836582477  0.3994048075173617
  0.7908898580378753  0.9573009837748778  0.3996812604995602
  0.9163922181172490  0.0830058994128048  0.3996245938629310
  0.9163660205696744  0.2079171216322109  0.3996149283608740
  0.9164546578037921  0.3329930272439393  0.3996364315278786
  0.9167899771743478  0.4582268456728992  0.3996200242779338
  0.9172507242069796  0.5836144443715241  0.3994897825183190
  0.9172743519610927  0.7088776608591137  0.3993992522945153
  0.9170446271950757  0.8337656689213785  0.3993888893485200
  0.9166076822377600  0.9583520548444849  0.3995453686800592
  0.0840484196623817  0.0427975579987057  0.3999032368601655
  0.0839166679844897  0.1676322880215541  0.3998018919315801
  0.0830438940876057  0.2919394628035101  0.3996533657296877
  0.0824534438135349  0.4167476343836251  0.3995251132350328
  0.0827394320007121  0.5419075958849540  0.3995285869160701
  0.0832662124393708  0.6671952098484298  0.3997515084359054
  0.0836624406075645  0.7924743963548997  0.3998308362369483
  0.0838739456184600  0.9176677935082015  0.3998343300252716
  0.2090259242425797  0.0430388236942416  0.4001294472296912
  0.2094341911476576  0.1686748524617565  0.4005276572633911
  0.2095210902944218  0.2939003902385429  0.4005219226327031
  0.2068897101043166  0.4174831808567322  0.4008702821752972
  0.2066894117928539  0.5420040287566046  0.4000424570254432
  0.2077984449885588  0.6673024560719995  0.3995812449410023
  0.2083623143184858  0.7924388807395220  0.3996472554847593
  0.2087214529145011  0.9176764833804986  0.3997922536395952
  0.3337445219512514  0.0427146775514610  0.3997901522562051
  0.3343729020681018  0.1684908242462126  0.4005939938478904
  0.3352262996444879  0.2947913559983465  0.4025891599023998
  0.3330230979509172  0.4205916727281164  0.4040544717603911
  0.3314796994757155  0.5441327541572373  0.4022301848322579
  0.3321565084363859  0.6673721188043010  0.4001329158393290
  0.3330918732319545  0.7922555343742671  0.3994974406608290
  0.3334630843346902  0.9173560160316708  0.3995494802425513
  0.4585268658063681  0.0418417992907651  0.3995381917510646
  0.4588409642822741  0.1672289330987142  0.3997218170916171
  0.4597075174966938  0.2931518969442106  0.4008777747479577
  0.4632742237677410  0.4195397742983673  0.4061223782458269
  0.4547427354829029  0.6630892501383825  0.4017164579986789
  0.4576424010483113  0.7907779170114424  0.3998337623675899
  0.4581484247904352  0.9163805258220006  0.3995633115408757
  0.5832532136504116  0.0409997923305710  0.3996891325229631
  0.5835884137584889  0.1662417209188410  0.3995457343208118
  0.5842025399748909  0.2912571313601877  0.3996582447420944
  0.5858363025748100  0.4161450694013777  0.4010053109241465
  0.5869998688588717  0.5419928144149617  0.4021496180239128
  0.5814414346043925  0.6626328052438111  0.4012563445661366
  0.5810878517775436  0.7883482779790412  0.4004966391384407
  0.5827349755479280  0.9153464577639169  0.3999393645397148
  0.7079236543034918  0.0406697322487239  0.3998917107178131
  0.7083251655772187  0.1660096219611129  0.3997876502497147
  0.7086814418623811  0.2911440076570292  0.3995111690858226
  0.7096323283999489  0.4164462875934645  0.3992699238092343
  0.7104272549822306  0.5417060613766238  0.3997452523289862
  0.7091116339891020  0.6666218250727010  0.3996105731365305
  0.7074095265876413  0.7902222644373635  0.3996375341881055
  0.7072446414967176  0.9150015115693386  0.3998940030614792
  0.8328542722561035  0.0409397898628280  0.3996697202976313
  0.8330435807395793  0.1660638407342460  0.3997567010901440
  0.8333143024664692  0.2912479668677065  0.3997251679838998
  0.8337791134741251  0.4164490497747890  0.3995095005558999
  0.8342658081269437  0.5417660824387993  0.3992022257328473
  0.8341550708121144  0.6671581778371328  0.3991809442893478
  0.8336440066838681  0.7918537299937639  0.3992428037528374
  0.8329563806384988  0.9161374375103475  0.3995221596083299
  0.9584563873699027  0.0418871095209066  0.3996213317091366
  0.9581636672547881  0.1665115933511028  0.3995494720518132
  0.9579836979764845  0.2913585901398784  0.3995409663895579
  0.9580593671186798  0.4165106711181537  0.3995827886183719
  0.9585229786940331  0.5418925193676357  0.3996393336319845
  0.9587699686833269  0.6671623990017497  0.3995885262953719
  0.9588417208349114  0.7923408281662352  0.3995063651324474
  0.9587146040339939  0.9172227739752506  0.3995523169412984
  0.4111359136971028  0.5823987218780103  0.4038122570935893
  0.4389625780359817  0.5055585479902315  0.4892993078187731
 
  0.00000000E+00  0.00000000E+00  0.00000000E+00
  0.00000000E+00  0.00000000E+00  0.00000000E+00
  0.00000000E+00  0.00000000E+00  0.00000000E+00
  0.00000000E+00  0.00000000E+00  0.00000000E+00
  0.00000000E+00  0.00000000E+00  0.00000000E+00
  0.00000000E+00  0.00000000E+00  0.00000000E+00
  0.00000000E+00  0.00000000E+00  0.00000000E+00
  0.00000000E+00  0.00000000E+00  0.00000000E+00
  0.00000000E+00  0.00000000E+00  0.00000000E+00
  0.00000000E+00  0.00000000E+00  0.00000000E+00
  0.00000000E+00  0.00000000E+00  0.00000000E+00
  0.00000000E+00  0.00000000E+00  0.00000000E+00
  0.00000000E+00  0.00000000E+00  0.00000000E+00
  0.00000000E+00  0.00000000E+00  0.00000000E+00
  0.00000000E+00  0.00000000E+00  0.00000000E+00
  0.00000000E+00  0.00000000E+00  0.00000000E+00
  0.00000000E+00  0.00000000E+00  0.00000000E+00
  0.00000000E+00  0.00000000E+00  0.00000000E+00
  0.00000000E+00  0.00000000E+00  0.00000000E+00
  0.00000000E+00  0.00000000E+00  0.00000000E+00
  0.00000000E+00  0.00000000E+00  0.00000000E+00
  0.00000000E+00  0.00000000E+00  0.00000000E+00
  0.00000000E+00  0.00000000E+00  0.00000000E+00
  0.00000000E+00  0.00000000E+00  0.00000000E+00
  0.00000000E+00  0.00000000E+00  0.00000000E+00
  0.00000000E+00  0.00000000E+00  0.00000000E+00
  0.00000000E+00  0.00000000E+00  0.00000000E+00
  0.00000000E+00  0.00000000E+00  0.00000000E+00
  0.00000000E+00  0.00000000E+00  0.00000000E+00
  0.00000000E+00  0.00000000E+00  0.00000000E+00
  0.00000000E+00  0.00000000E+00  0.00000000E+00
  0.00000000E+00  0.00000000E+00  0.00000000E+00
  0.00000000E+00  0.00000000E+00  0.00000000E+00
  0.00000000E+00  0.00000000E+00  0.00000000E+00
  0.00000000E+00  0.00000000E+00  0.00000000E+00
  0.00000000E+00  0.00000000E+00  0.00000000E+00
  0.00000000E+00  0.00000000E+00  0.00000000E+00
  0.00000000E+00  0.00000000E+00  0.00000000E+00
  0.00000000E+00  0.00000000E+00  0.00000000E+00
  0.00000000E+00  0.00000000E+00  0.00000000E+00
  0.00000000E+00  0.00000000E+00  0.00000000E+00
  0.00000000E+00  0.00000000E+00  0.00000000E+00
  0.00000000E+00  0.00000000E+00  0.00000000E+00
  0.00000000E+00  0.00000000E+00  0.00000000E+00
  0.00000000E+00  0.00000000E+00  0.00000000E+00
  0.00000000E+00  0.00000000E+00  0.00000000E+00
  0.00000000E+00  0.00000000E+00  0.00000000E+00
  0.00000000E+00  0.00000000E+00  0.00000000E+00
  0.00000000E+00  0.00000000E+00  0.00000000E+00
  0.00000000E+00  0.00000000E+00  0.00000000E+00
  0.00000000E+00  0.00000000E+00  0.00000000E+00
  0.00000000E+00  0.00000000E+00  0.00000000E+00
  0.00000000E+00  0.00000000E+00  0.00000000E+00
  0.00000000E+00  0.00000000E+00  0.00000000E+00
  0.00000000E+00  0.00000000E+00  0.00000000E+00
  0.00000000E+00  0.00000000E+00  0.00000000E+00
  0.00000000E+00  0.00000000E+00  0.00000000E+00
  0.00000000E+00  0.00000000E+00  0.00000000E+00
  0.00000000E+00  0.00000000E+00  0.00000000E+00
  0.00000000E+00  0.00000000E+00  0.00000000E+00
  0.00000000E+00  0.00000000E+00  0.00000000E+00
  0.00000000E+00  0.00000000E+00  0.00000000E+00
  0.00000000E+00  0.00000000E+00  0.00000000E+00
  0.00000000E+00  0.00000000E+00  0.00000000E+00
  0.00000000E+00  0.00000000E+00  0.00000000E+00
  0.00000000E+00  0.00000000E+00  0.00000000E+00
  0.00000000E+00  0.00000000E+00  0.00000000E+00
  0.00000000E+00  0.00000000E+00  0.00000000E+00
  0.00000000E+00  0.00000000E+00  0.00000000E+00
  0.00000000E+00  0.00000000E+00  0.00000000E+00
  0.00000000E+00  0.00000000E+00  0.00000000E+00
  0.00000000E+00  0.00000000E+00  0.00000000E+00
  0.00000000E+00  0.00000000E+00  0.00000000E+00
  0.00000000E+00  0.00000000E+00  0.00000000E+00
  0.00000000E+00  0.00000000E+00  0.00000000E+00
  0.00000000E+00  0.00000000E+00  0.00000000E+00
  0.00000000E+00  0.00000000E+00  0.00000000E+00
  0.00000000E+00  0.00000000E+00  0.00000000E+00
  0.00000000E+00  0.00000000E+00  0.00000000E+00
  0.00000000E+00  0.00000000E+00  0.00000000E+00
  0.00000000E+00  0.00000000E+00  0.00000000E+00
  0.00000000E+00  0.00000000E+00  0.00000000E+00
  0.00000000E+00  0.00000000E+00  0.00000000E+00
  0.00000000E+00  0.00000000E+00  0.00000000E+00
  0.00000000E+00  0.00000000E+00  0.00000000E+00
  0.00000000E+00  0.00000000E+00  0.00000000E+00
  0.00000000E+00  0.00000000E+00  0.00000000E+00
  0.00000000E+00  0.00000000E+00  0.00000000E+00
  0.00000000E+00  0.00000000E+00  0.00000000E+00
  0.00000000E+00  0.00000000E+00  0.00000000E+00
  0.00000000E+00  0.00000000E+00  0.00000000E+00
  0.00000000E+00  0.00000000E+00  0.00000000E+00
  0.00000000E+00  0.00000000E+00  0.00000000E+00
  0.00000000E+00  0.00000000E+00  0.00000000E+00
  0.00000000E+00  0.00000000E+00  0.00000000E+00
  0.00000000E+00  0.00000000E+00  0.00000000E+00
  0.00000000E+00  0.00000000E+00  0.00000000E+00
  0.00000000E+00  0.00000000E+00  0.00000000E+00
  0.00000000E+00  0.00000000E+00  0.00000000E+00
  0.00000000E+00  0.00000000E+00  0.00000000E+00
  0.00000000E+00  0.00000000E+00  0.00000000E+00
  0.00000000E+00  0.00000000E+00  0.00000000E+00
  0.00000000E+00  0.00000000E+00  0.00000000E+00
  0.00000000E+00  0.00000000E+00  0.00000000E+00
  0.00000000E+00  0.00000000E+00  0.00000000E+00
  0.00000000E+00  0.00000000E+00  0.00000000E+00
  0.00000000E+00  0.00000000E+00  0.00000000E+00
  0.00000000E+00  0.00000000E+00  0.00000000E+00
  0.00000000E+00  0.00000000E+00  0.00000000E+00
  0.00000000E+00  0.00000000E+00  0.00000000E+00
  0.00000000E+00  0.00000000E+00  0.00000000E+00
  0.00000000E+00  0.00000000E+00  0.00000000E+00
  0.00000000E+00  0.00000000E+00  0.00000000E+00
  0.00000000E+00  0.00000000E+00  0.00000000E+00
  0.00000000E+00  0.00000000E+00  0.00000000E+00
  0.00000000E+00  0.00000000E+00  0.00000000E+00
  0.00000000E+00  0.00000000E+00  0.00000000E+00
  0.00000000E+00  0.00000000E+00  0.00000000E+00
  0.00000000E+00  0.00000000E+00  0.00000000E+00
  0.00000000E+00  0.00000000E+00  0.00000000E+00
  0.00000000E+00  0.00000000E+00  0.00000000E+00
  0.00000000E+00  0.00000000E+00  0.00000000E+00
  0.00000000E+00  0.00000000E+00  0.00000000E+00
  0.00000000E+00  0.00000000E+00  0.00000000E+00
  0.00000000E+00  0.00000000E+00  0.00000000E+00
  0.00000000E+00  0.00000000E+00  0.00000000E+00
  0.00000000E+00  0.00000000E+00  0.00000000E+00
  0.00000000E+00  0.00000000E+00  0.00000000E+00
  0.00000000E+00  0.00000000E+00  0.00000000E+00
