Zn1 H1 C122 N4                          
   1.00000000000000     
    19.8104739139245360   -0.0000228703422137    0.0007476498968259
    -9.9052566072408936   17.0229192747652860   -0.0010688769091401
     0.0011571870056717   -0.0012185159047957   29.8382600324968301
   Zn   H    C    N 
     1     1   122     4
Direct
  0.4375375964253426  0.5000251301221267  0.4344378350217384
  0.4376903317560216  0.5001953463854132  0.4867833937552035
  0.0420806293769431  0.0842369038055785  0.3999887130904266
  0.0409892989091980  0.2082161329280844  0.4000589451142652
  0.0402182783051876  0.3328522612453477  0.3997261580612648
  0.0403919040619163  0.4581817150346234  0.3993730099107001
  0.0412834872512164  0.5837654677857136  0.3992547519098037
  0.0421425792275350  0.7092771620696443  0.3994234573780261
  0.0425384090962831  0.8346856567440529  0.3996188693920443
  0.0426465662808205  0.9598469115162462  0.3997451041316900
  0.1683757203747445  0.0862453186005980  0.4006117847875283
  0.1674504896465506  0.2104348450385781  0.4011657774752027
  0.1651202805387005  0.3337377113559907  0.4008465995584575
  0.1641758414275365  0.4584386436632674  0.3997942740217624
  0.1650808238118009  0.5836050359508217  0.3995958135653935
  0.1663512291496072  0.7090714754415851  0.3995103792258531
  0.1671559564811431  0.8346895590542643  0.3996126762659303
  0.1677055082789662  0.9603693011292700  0.3999078051905036
  0.2928895724267989  0.0862325697409563  0.4005895062015871
  0.2946093137219471  0.2142004530607621  0.4024159985401018
  0.2924350160865281  0.3394680756775965  0.4038442240876591
  0.2878153340513500  0.4572733579404380  0.4025312219917082
  0.2885864896652579  0.5830769243719118  0.4005957910460524
  0.2904802470705038  0.7085076711866238  0.4001771687322265
  0.2916060240202625  0.8340224137057451  0.3996729137384161
  0.2922390671443591  0.9598366232529811  0.3997247573018153
  0.4171739251254044  0.0842253554158294  0.4000040543880898
  0.4179743736300319  0.2104363558146264  0.4011975928957596
  0.4220343897539006  0.3394843647325421  0.4038206430482537
  0.4144077053885323  0.7059623063242157  0.4017237623126919
  0.4160114101969804  0.8322405627303845  0.4003462599116060
  0.4166607527333315  0.9582505421046702  0.3997222358889807
  0.5415681832558817  0.0824416068509800  0.3996593584196459
  0.5422270096115067  0.2082116974790458  0.4000814967722356
  0.5435891969824769  0.3337280727642399  0.4008037836346758
  0.5444444302755883  0.4572744703461569  0.4024348624741947
  0.5380173445336308  0.7010403261705000  0.4039436857338942
  0.5401671899722248  0.8297350458260535  0.4014705601622224
  0.5410087983874838  0.9563791943426838  0.4000643027213411
  0.6660115018214783  0.0816792699076083  0.3997462788992679
  0.6665680873141687  0.2072848485371460  0.3995711845837432
  0.6676173335526686  0.3328550508645574  0.3996934013702703
  0.6692470422697503  0.4584490177163894  0.3996669871463535
  0.6694843669381809  0.5830874658590395  0.4004981290788359
  0.6665494430793919  0.7059788975103940  0.4017234553327771
  0.6645880327724379  0.8297590536217799  0.4014881537938182
  0.6654551197417408  0.9558830563985592  0.4003754146335598
  0.7906916434674932  0.0816711125000753  0.3997331778866198
  0.7910422293440345  0.2070897612639865  0.3995937305837164
  0.7917375473939671  0.3326159103847216  0.3993501198939592
  0.7927510317730381  0.4581905653494524  0.3993058794537797
  0.7934842270107787  0.5835914627454932  0.3995138471683757
  0.7930136885535968  0.7085136568080017  0.4001617203786271
  0.7912445139105549  0.8322472525574913  0.4003764662527352
  0.7903998075205492  0.9563873198633203  0.4000513078402693
  0.9159159275231633  0.0824447849284206  0.3996440860471712
  0.9157224459580486  0.2073017653020925  0.3995609685394889
  0.9158592487115097  0.3326282670631908  0.3993545423922485
  0.9165555646171630  0.4581572275760600  0.3991600330935932
  0.9174442405719799  0.5837622899885188  0.3992390087375403
  0.9176883733585651  0.7090653426945522  0.3995022079984688
  0.9174322989329562  0.8340361959310091  0.3997039063935454
  0.9166292626336239  0.9582580884931158  0.3997303138182820
  0.0846302357906422  0.0436216850135331  0.4000622184316224
  0.0837719816047167  0.1677618374380113  0.4003441453856068
  0.0819743774154212  0.2914952329896586  0.4001761425170943
  0.0814823755314798  0.4163985439533469  0.3995944082742613
  0.0822162395909184  0.5418227665127684  0.3993732862921461
  0.0832322564465344  0.6673740857288962  0.3993554676357385
  0.0839535948561894  0.7929119172286812  0.3995966912816400
  0.0843350709487735  0.9183249705523726  0.3997477102672280
  0.2095716291980727  0.0441179220711393  0.4003762956990975
  0.2104335240652028  0.1702678249419492  0.4014715539082467
  0.2084484126906925  0.2940413022048248  0.4017274124664831
  0.2055130888952963  0.4169266502880530  0.4005986007663258
  0.2057402970370188  0.5415647197308987  0.3997950704099154
  0.2073673832726176  0.6671494459916999  0.3997283236016995
  0.2084243522018127  0.7927015469085417  0.3995613909144972
  0.2090246645504664  0.9183303808494019  0.3997344471513007
  0.3340122335987540  0.0436126183987403  0.4000504535478639
  0.3348296628244570  0.1702447557938534  0.4014893096135507
  0.3369771494918734  0.2989616968643252  0.4039603129723800
  0.3305442438394605  0.5427290087021859  0.4025241849910638
  0.3313842523230335  0.6662640622055875  0.4008443931533967
  0.3327751824760605  0.7917865554467423  0.4000600047250629
  0.3334735686619407  0.9175574291722819  0.3996441607256698
  0.4583719476261950  0.0417426202542680  0.3997303458895905
  0.4589983488523249  0.1677560894213644  0.4003744698438588
  0.4605708555146406  0.2940230040966192  0.4017288007173590
  0.4529674255562973  0.6605359790568636  0.4038285707859775
  0.4570183544113248  0.7895670286076084  0.4011659659137088
  0.4578459537925876  0.9157657926109756  0.3999909590539578
  0.5828011872699674  0.0401530128544820  0.3997453404269773
  0.5833968568746187  0.1659646714792280  0.3997024901615706
  0.5845026174674235  0.2914884497072641  0.4001604746671781
  0.5863966717449871  0.4169123692779655  0.4005004239502310
  0.5871713244406827  0.5427290898639328  0.4024287160547254
  0.5825546078594597  0.6605235872093745  0.4038044206046672
  0.5804080009051229  0.7858010842624635  0.4024096453884615
  0.5821332180402734  0.9137578593016314  0.4006128431012185
  0.7073384468281513  0.0396320393069638  0.3999053163112464
  0.7078533040047724  0.1653131279579221  0.3996168338315961
  0.7086254875899020  0.2909348385366197  0.3995014862227840
  0.7098950347695183  0.4164116405948077  0.3995113329420482
  0.7108006350056828  0.5415528145337282  0.3996679052740553
  0.7098639791384151  0.6662756904596540  0.4008008656017080
  0.7075390373263930  0.7895663132806199  0.4011973893703367
  0.7066581944158913  0.9137701968558033  0.4005902807306220
  0.8324041932288884  0.0401650085199803  0.3997248487329266
  0.8324706210361931  0.1653123471138489  0.3996108209542648
  0.8328675024431103  0.2907238961668527  0.3994218619654000
  0.8336835007782984  0.4162412361913372  0.3992379240210898
  0.8345627214804301  0.5418101927748957  0.3993073614213174
  0.8347641168460598  0.6671453244772793  0.3996949318555911
  0.8340142507074494  0.7917872787635977  0.4000842587626658
  0.8329493710846784  0.9157752339827393  0.4000045020944284
  0.9584099858656383  0.0417507620340536  0.3997212916969438
  0.9575844925635195  0.1659780158669084  0.3996728418908594
  0.9572834950587594  0.2909322272625198  0.3995086214644128
  0.9575208970566468  0.4162371094416517  0.3992545243722150
  0.9583999936229222  0.5418458532959872  0.3991601271493606
  0.9591222410695640  0.6673847352785567  0.3993512959539145
  0.9592840253594166  0.7927182211126239  0.3995722639699050
  0.9591287441304085  0.9175612398662376  0.3996601410728650
  0.4091916494374384  0.5807983265700084  0.4054151477137000
  0.5465949578757068  0.5807880212777535  0.4053474475937339
  0.3283968179330885  0.4192030281964453  0.4054374710529778
  0.4658044724714229  0.4192144517139239  0.4053696055096774
 
  0.00000000E+00  0.00000000E+00  0.00000000E+00
  0.00000000E+00  0.00000000E+00  0.00000000E+00
  0.00000000E+00  0.00000000E+00  0.00000000E+00
  0.00000000E+00  0.00000000E+00  0.00000000E+00
  0.00000000E+00  0.00000000E+00  0.00000000E+00
  0.00000000E+00  0.00000000E+00  0.00000000E+00
  0.00000000E+00  0.00000000E+00  0.00000000E+00
  0.00000000E+00  0.00000000E+00  0.00000000E+00
  0.00000000E+00  0.00000000E+00  0.00000000E+00
  0.00000000E+00  0.00000000E+00  0.00000000E+00
  0.00000000E+00  0.00000000E+00  0.00000000E+00
  0.00000000E+00  0.00000000E+00  0.00000000E+00
  0.00000000E+00  0.00000000E+00  0.00000000E+00
  0.00000000E+00  0.00000000E+00  0.00000000E+00
  0.00000000E+00  0.00000000E+00  0.00000000E+00
  0.00000000E+00  0.00000000E+00  0.00000000E+00
  0.00000000E+00  0.00000000E+00  0.00000000E+00
  0.00000000E+00  0.00000000E+00  0.00000000E+00
  0.00000000E+00  0.00000000E+00  0.00000000E+00
  0.00000000E+00  0.00000000E+00  0.00000000E+00
  0.00000000E+00  0.00000000E+00  0.00000000E+00
  0.00000000E+00  0.00000000E+00  0.00000000E+00
  0.00000000E+00  0.00000000E+00  0.00000000E+00
  0.00000000E+00  0.00000000E+00  0.00000000E+00
  0.00000000E+00  0.00000000E+00  0.00000000E+00
  0.00000000E+00  0.00000000E+00  0.00000000E+00
  0.00000000E+00  0.00000000E+00  0.00000000E+00
  0.00000000E+00  0.00000000E+00  0.00000000E+00
  0.00000000E+00  0.00000000E+00  0.00000000E+00
  0.00000000E+00  0.00000000E+00  0.00000000E+00
  0.00000000E+00  0.00000000E+00  0.00000000E+00
  0.00000000E+00  0.00000000E+00  0.00000000E+00
  0.00000000E+00  0.00000000E+00  0.00000000E+00
  0.00000000E+00  0.00000000E+00  0.00000000E+00
  0.00000000E+00  0.00000000E+00  0.00000000E+00
  0.00000000E+00  0.00000000E+00  0.00000000E+00
  0.00000000E+00  0.00000000E+00  0.00000000E+00
  0.00000000E+00  0.00000000E+00  0.00000000E+00
  0.00000000E+00  0.00000000E+00  0.00000000E+00
  0.00000000E+00  0.00000000E+00  0.00000000E+00
  0.00000000E+00  0.00000000E+00  0.00000000E+00
  0.00000000E+00  0.00000000E+00  0.00000000E+00
  0.00000000E+00  0.00000000E+00  0.00000000E+00
  0.00000000E+00  0.00000000E+00  0.00000000E+00
  0.00000000E+00  0.00000000E+00  0.00000000E+00
  0.00000000E+00  0.00000000E+00  0.00000000E+00
  0.00000000E+00  0.00000000E+00  0.00000000E+00
  0.00000000E+00  0.00000000E+00  0.00000000E+00
  0.00000000E+00  0.00000000E+00  0.00000000E+00
  0.00000000E+00  0.00000000E+00  0.00000000E+00
  0.00000000E+00  0.00000000E+00  0.00000000E+00
  0.00000000E+00  0.00000000E+00  0.00000000E+00
  0.00000000E+00  0.00000000E+00  0.00000000E+00
  0.00000000E+00  0.00000000E+00  0.00000000E+00
  0.00000000E+00  0.00000000E+00  0.00000000E+00
  0.00000000E+00  0.00000000E+00  0.00000000E+00
  0.00000000E+00  0.00000000E+00  0.00000000E+00
  0.00000000E+00  0.00000000E+00  0.00000000E+00
  0.00000000E+00  0.00000000E+00  0.00000000E+00
  0.00000000E+00  0.00000000E+00  0.00000000E+00
  0.00000000E+00  0.00000000E+00  0.00000000E+00
  0.00000000E+00  0.00000000E+00  0.00000000E+00
  0.00000000E+00  0.00000000E+00  0.00000000E+00
  0.00000000E+00  0.00000000E+00  0.00000000E+00
  0.00000000E+00  0.00000000E+00  0.00000000E+00
  0.00000000E+00  0.00000000E+00  0.00000000E+00
  0.00000000E+00  0.00000000E+00  0.00000000E+00
  0.00000000E+00  0.00000000E+00  0.00000000E+00
  0.00000000E+00  0.00000000E+00  0.00000000E+00
  0.00000000E+00  0.00000000E+00  0.00000000E+00
  0.00000000E+00  0.00000000E+00  0.00000000E+00
  0.00000000E+00  0.00000000E+00  0.00000000E+00
  0.00000000E+00  0.00000000E+00  0.00000000E+00
  0.00000000E+00  0.00000000E+00  0.00000000E+00
  0.00000000E+00  0.00000000E+00  0.00000000E+00
  0.00000000E+00  0.00000000E+00  0.00000000E+00
  0.00000000E+00  0.00000000E+00  0.00000000E+00
  0.00000000E+00  0.00000000E+00  0.00000000E+00
  0.00000000E+00  0.00000000E+00  0.00000000E+00
  0.00000000E+00  0.00000000E+00  0.00000000E+00
  0.00000000E+00  0.00000000E+00  0.00000000E+00
  0.00000000E+00  0.00000000E+00  0.00000000E+00
  0.00000000E+00  0.00000000E+00  0.00000000E+00
  0.00000000E+00  0.00000000E+00  0.00000000E+00
  0.00000000E+00  0.00000000E+00  0.00000000E+00
  0.00000000E+00  0.00000000E+00  0.00000000E+00
  0.00000000E+00  0.00000000E+00  0.00000000E+00
  0.00000000E+00  0.00000000E+00  0.00000000E+00
  0.00000000E+00  0.00000000E+00  0.00000000E+00
  0.00000000E+00  0.00000000E+00  0.00000000E+00
  0.00000000E+00  0.00000000E+00  0.00000000E+00
  0.00000000E+00  0.00000000E+00  0.00000000E+00
  0.00000000E+00  0.00000000E+00  0.00000000E+00
  0.00000000E+00  0.00000000E+00  0.00000000E+00
  0.00000000E+00  0.00000000E+00  0.00000000E+00
  0.00000000E+00  0.00000000E+00  0.00000000E+00
  0.00000000E+00  0.00000000E+00  0.00000000E+00
  0.00000000E+00  0.00000000E+00  0.00000000E+00
  0.00000000E+00  0.00000000E+00  0.00000000E+00
  0.00000000E+00  0.00000000E+00  0.00000000E+00
  0.00000000E+00  0.00000000E+00  0.00000000E+00
  0.00000000E+00  0.00000000E+00  0.00000000E+00
  0.00000000E+00  0.00000000E+00  0.00000000E+00
  0.00000000E+00  0.00000000E+00  0.00000000E+00
  0.00000000E+00  0.00000000E+00  0.00000000E+00
  0.00000000E+00  0.00000000E+00  0.00000000E+00
  0.00000000E+00  0.00000000E+00  0.00000000E+00
  0.00000000E+00  0.00000000E+00  0.00000000E+00
  0.00000000E+00  0.00000000E+00  0.00000000E+00
  0.00000000E+00  0.00000000E+00  0.00000000E+00
  0.00000000E+00  0.00000000E+00  0.00000000E+00
  0.00000000E+00  0.00000000E+00  0.00000000E+00
  0.00000000E+00  0.00000000E+00  0.00000000E+00
  0.00000000E+00  0.00000000E+00  0.00000000E+00
  0.00000000E+00  0.00000000E+00  0.00000000E+00
  0.00000000E+00  0.00000000E+00  0.00000000E+00
  0.00000000E+00  0.00000000E+00  0.00000000E+00
  0.00000000E+00  0.00000000E+00  0.00000000E+00
  0.00000000E+00  0.00000000E+00  0.00000000E+00
  0.00000000E+00  0.00000000E+00  0.00000000E+00
  0.00000000E+00  0.00000000E+00  0.00000000E+00
  0.00000000E+00  0.00000000E+00  0.00000000E+00
  0.00000000E+00  0.00000000E+00  0.00000000E+00
  0.00000000E+00  0.00000000E+00  0.00000000E+00
  0.00000000E+00  0.00000000E+00  0.00000000E+00
  0.00000000E+00  0.00000000E+00  0.00000000E+00
  0.00000000E+00  0.00000000E+00  0.00000000E+00
  0.00000000E+00  0.00000000E+00  0.00000000E+00
