Mn1 H1 C123 N3 O1                       
   1.00000000000000     
    19.8009575187175919    0.0051881464157355   -0.0577360116147420
    -9.8957647265786015   17.0283690532764105    0.0296439132087094
    -0.0870027083401178    0.0015435998318752   29.8387339433176138
   Mn   H    C    N    O 
     1     1   123     3     1
Direct
  0.4366340633398612  0.4979886630796713  0.4229005978459847
  0.4778386332635789  0.5499627204440446  0.4985626784281677
  0.0419971664417317  0.0840372892840649  0.4002253866810705
  0.0412285828962994  0.2082668381850936  0.4003207772439710
  0.0407022109329347  0.3330256227303268  0.3998621109562135
  0.0408832703304425  0.4582018553561888  0.3992527804292799
  0.0415028650474208  0.5835927739408752  0.3989887023563685
  0.0420990272728890  0.7089211993794694  0.3990833135953772
  0.0423363188308260  0.8341679265589432  0.3993657330085216
  0.0423198027494564  0.9593074266630129  0.3998362036880375
  0.1677129809995753  0.0852123001677129  0.4009111233178772
  0.1674955869960633  0.2101535216750294  0.4017814626464490
  0.1655053497124186  0.3336974745405886  0.4016575121043176
  0.1648913697839351  0.4584320284889281  0.4003753493219370
  0.1654843322727675  0.5835496254997750  0.3995569214033404
  0.1664962994688211  0.7087798026382980  0.3992390221785553
  0.1670287840692218  0.8341432473071482  0.3993028394242781
  0.1673807936297883  0.9596861607530799  0.3999227112165135
  0.2925091552530321  0.0854852486638911  0.4008120938868734
  0.2931889142334486  0.2122558332782151  0.4029514578420679
  0.2925978083291534  0.3381106256078167  0.4049018246353667
  0.2886994338145378  0.4580787551649054  0.4033842886786579
  0.2889821264236774  0.5830180261406078  0.4011642893086803
  0.2908252268253047  0.7083050368202618  0.4001252126866837
  0.2916714214495145  0.8337319237308733  0.3995453267227723
  0.2920747318643243  0.9593542526646862  0.3997222202677122
  0.4170285044290760  0.0841279082135501  0.3999895493245256
  0.4176231277467807  0.2102815398791389  0.4013565701128077
  0.4194333853206804  0.3378505555068962  0.4049750311976030
  0.4149228316604902  0.7060044571184224  0.4019858337319850
  0.4162392866133888  0.8322414940379772  0.4004250875218038
  0.4167166703153447  0.9582141549865497  0.3997113024740485
  0.5416225339916745  0.0827671622917334  0.3996191990977782
  0.5420767238329474  0.2084525340850389  0.3999019851707002
  0.5430481349332733  0.3340355639908357  0.4012509594155748
  0.5461546057099836  0.4594941608487579  0.4040472085848321
  0.5384553031315905  0.7016911794940121  0.4044886554031372
  0.5406304075512439  0.8302573143476430  0.4018053555561179
  0.5412657200113991  0.9568314830265532  0.4002386740678360
  0.6662822138789162  0.0822217599471246  0.3997018792010800
  0.6666307855836885  0.2076640404946269  0.3992988380867247
  0.6673332015533379  0.3330319031123318  0.3995346646770231
  0.6691831102687363  0.4585611739881167  0.4003905917112627
  0.6702609093822449  0.5839820513288331  0.4019255446660149
  0.6662874715498353  0.7060522658655497  0.4025475905203678
  0.6648046425085039  0.8303123670257195  0.4019195250763617
  0.6657625765034137  0.9564617045952237  0.4006760388426555
  0.7909706727835734  0.0821739557057494  0.3997655314741009
  0.7913017678350542  0.2075468793097257  0.3992736408966959
  0.7917532820834314  0.3328496443047703  0.3990609117844495
  0.7926966996640352  0.4582507449008623  0.3991776034716853
  0.7935392485889623  0.5836837976469840  0.3998002418694310
  0.7931312630351339  0.7087645280249263  0.4005314533999116
  0.7911414346577472  0.8323224557684461  0.4006425888288705
  0.7906093937077707  0.9568248635067518  0.4003245131701224
  0.9161083759517930  0.0827006403401415  0.3997912251476801
  0.9160296407966637  0.2076328503331348  0.3995332858105824
  0.9161989257193358  0.3328620901239850  0.3991577379311785
  0.9167508396010809  0.4582333602776766  0.3989075327081699
  0.9174522862781829  0.5836567060187852  0.3990524746012224
  0.9176350741942045  0.7088956064344805  0.3994496096465875
  0.9173308010384997  0.8338754470706966  0.3997564866824226
  0.9165643007634205  0.9581961761609613  0.3998681868076764
  0.0841600881783255  0.0429427921399424  0.4002813224635094
  0.0838093870942474  0.1676750403354146  0.4007053469299622
  0.0825622393315540  0.2916769219524368  0.4005437848004995
  0.0820663449573103  0.4163827317751400  0.3997481102073883
  0.0825847692665597  0.5417323676681193  0.3991982999424750
  0.0833683875260705  0.6670865085097814  0.3990593988273209
  0.0838005359693547  0.7924250062133804  0.3992122647460385
  0.0840429131810072  0.9177528224296009  0.3996743430941569
  0.2091457471271577  0.0433703763168706  0.4005977059041828
  0.2096178972561289  0.1691025483183032  0.4019652433437520
  0.2088785006047450  0.2939298470436182  0.4026942087874453
  0.2063901829855906  0.4169823040811272  0.4016235019295970
  0.2062358942638084  0.5415097191051969  0.4002239765523560
  0.2076284789819929  0.6669047915686952  0.3995607828002469
  0.2084444534171933  0.7923056912388083  0.3993190588518951
  0.2088128022547134  0.9177360950877949  0.3996300679298120
  0.3338017153951237  0.0430954834950564  0.4001229521608194
  0.3342729719327722  0.1693941578651137  0.4017903948862208
  0.3352083463355408  0.2966249554463708  0.4049029178965819
  0.3303760020183724  0.5420857552974565  0.4029749680192970
  0.3317209300812421  0.6661935251792251  0.4010610163331044
  0.3330166901108043  0.7916410524323660  0.3999887850373856
  0.3334570460667531  0.9172266164248895  0.3995911799941006
  0.4583882057068804  0.0417911774009953  0.3996952710108573
  0.4587808812275561  0.1677372184703188  0.4003335831311940
  0.4597344774042261  0.2939826215928202  0.4022108777841022
  0.4641450125833058  0.4204592477805795  0.4073824795258641
  0.4538491757294125  0.6610339250857311  0.4040840122802042
  0.4573960542708766  0.7896506125439492  0.4014113085359883
  0.4580525377604537  0.9158846819259585  0.4000723956770532
  0.5830088359216481  0.0405980280052073  0.3998006919883254
  0.5834034829199941  0.1663095579549048  0.3995039514787475
  0.5840773490230879  0.2917937964924326  0.4000987729878223
  0.5863712540752390  0.4173297497473814  0.4015698442179165
  0.5885700617441912  0.5430955130349374  0.4041096696450732
  0.5822684100381151  0.6609731921205646  0.4048277453891520
  0.5809578010328942  0.7867140988889182  0.4028203636855300
  0.5824914721908058  0.9143401166146554  0.4009059782519752
  0.7076342372203603  0.0402275283394776  0.4000224688797267
  0.7080821435494525  0.1658219334052447  0.3993428515643290
  0.7085323026245701  0.2911803398347997  0.3992180494068858
  0.7097821870622316  0.4164773781660286  0.3995555947321878
  0.7109525532393234  0.5417515095552943  0.4005723217141658
  0.7102681075604552  0.6669072908686421  0.4016971628666257
  0.7074007613055632  0.7897312521150960  0.4016539429646253
  0.7069479808580996  0.9143763779302021  0.4009595907972668
  0.8325924679029753  0.0405769495906610  0.3998980531693319
  0.8327791466567713  0.1657968569248694  0.3994619502704372
  0.8330818260679062  0.2910629854292145  0.3991082474209944
  0.8337325231952348  0.4163468639509366  0.3989949480450948
  0.8345484272462357  0.5417942338800332  0.3992585817831900
  0.8347151130810527  0.6671252350308032  0.3999025280565766
  0.8340193843093804  0.7919394356784888  0.4002513245214824
  0.8329059174664275  0.9159122428645650  0.4002156429235885
  0.9583889457827339  0.0417640114958220  0.3998757450524724
  0.9578461596463241  0.1662115354595764  0.3997977299880692
  0.9576699987619949  0.2911756274453931  0.3994665397942037
  0.9579123456988323  0.4163631823318025  0.3990416806097845
  0.9585174112858480  0.5417466632243236  0.3989049555000622
  0.9590538826076299  0.6671437505688609  0.3991555369243775
  0.9591144354008625  0.7924087150062928  0.3994927502251969
  0.9588844619211412  0.9173025565755866  0.3997673767255799
  0.4102578650416306  0.5807511770484884  0.4053530439971493
  0.5460264618572510  0.5804222917963241  0.4067212118054510
  0.3306054179782579  0.4194183170102084  0.4060987104358272
  0.4368557892999476  0.5022604120127085  0.4845418342512078
 
  0.00000000E+00  0.00000000E+00  0.00000000E+00
  0.00000000E+00  0.00000000E+00  0.00000000E+00
  0.00000000E+00  0.00000000E+00  0.00000000E+00
  0.00000000E+00  0.00000000E+00  0.00000000E+00
  0.00000000E+00  0.00000000E+00  0.00000000E+00
  0.00000000E+00  0.00000000E+00  0.00000000E+00
  0.00000000E+00  0.00000000E+00  0.00000000E+00
  0.00000000E+00  0.00000000E+00  0.00000000E+00
  0.00000000E+00  0.00000000E+00  0.00000000E+00
  0.00000000E+00  0.00000000E+00  0.00000000E+00
  0.00000000E+00  0.00000000E+00  0.00000000E+00
  0.00000000E+00  0.00000000E+00  0.00000000E+00
  0.00000000E+00  0.00000000E+00  0.00000000E+00
  0.00000000E+00  0.00000000E+00  0.00000000E+00
  0.00000000E+00  0.00000000E+00  0.00000000E+00
  0.00000000E+00  0.00000000E+00  0.00000000E+00
  0.00000000E+00  0.00000000E+00  0.00000000E+00
  0.00000000E+00  0.00000000E+00  0.00000000E+00
  0.00000000E+00  0.00000000E+00  0.00000000E+00
  0.00000000E+00  0.00000000E+00  0.00000000E+00
  0.00000000E+00  0.00000000E+00  0.00000000E+00
  0.00000000E+00  0.00000000E+00  0.00000000E+00
  0.00000000E+00  0.00000000E+00  0.00000000E+00
  0.00000000E+00  0.00000000E+00  0.00000000E+00
  0.00000000E+00  0.00000000E+00  0.00000000E+00
  0.00000000E+00  0.00000000E+00  0.00000000E+00
  0.00000000E+00  0.00000000E+00  0.00000000E+00
  0.00000000E+00  0.00000000E+00  0.00000000E+00
  0.00000000E+00  0.00000000E+00  0.00000000E+00
  0.00000000E+00  0.00000000E+00  0.00000000E+00
  0.00000000E+00  0.00000000E+00  0.00000000E+00
  0.00000000E+00  0.00000000E+00  0.00000000E+00
  0.00000000E+00  0.00000000E+00  0.00000000E+00
  0.00000000E+00  0.00000000E+00  0.00000000E+00
  0.00000000E+00  0.00000000E+00  0.00000000E+00
  0.00000000E+00  0.00000000E+00  0.00000000E+00
  0.00000000E+00  0.00000000E+00  0.00000000E+00
  0.00000000E+00  0.00000000E+00  0.00000000E+00
  0.00000000E+00  0.00000000E+00  0.00000000E+00
  0.00000000E+00  0.00000000E+00  0.00000000E+00
  0.00000000E+00  0.00000000E+00  0.00000000E+00
  0.00000000E+00  0.00000000E+00  0.00000000E+00
  0.00000000E+00  0.00000000E+00  0.00000000E+00
  0.00000000E+00  0.00000000E+00  0.00000000E+00
  0.00000000E+00  0.00000000E+00  0.00000000E+00
  0.00000000E+00  0.00000000E+00  0.00000000E+00
  0.00000000E+00  0.00000000E+00  0.00000000E+00
  0.00000000E+00  0.00000000E+00  0.00000000E+00
  0.00000000E+00  0.00000000E+00  0.00000000E+00
  0.00000000E+00  0.00000000E+00  0.00000000E+00
  0.00000000E+00  0.00000000E+00  0.00000000E+00
  0.00000000E+00  0.00000000E+00  0.00000000E+00
  0.00000000E+00  0.00000000E+00  0.00000000E+00
  0.00000000E+00  0.00000000E+00  0.00000000E+00
  0.00000000E+00  0.00000000E+00  0.00000000E+00
  0.00000000E+00  0.00000000E+00  0.00000000E+00
  0.00000000E+00  0.00000000E+00  0.00000000E+00
  0.00000000E+00  0.00000000E+00  0.00000000E+00
  0.00000000E+00  0.00000000E+00  0.00000000E+00
  0.00000000E+00  0.00000000E+00  0.00000000E+00
  0.00000000E+00  0.00000000E+00  0.00000000E+00
  0.00000000E+00  0.00000000E+00  0.00000000E+00
  0.00000000E+00  0.00000000E+00  0.00000000E+00
  0.00000000E+00  0.00000000E+00  0.00000000E+00
  0.00000000E+00  0.00000000E+00  0.00000000E+00
  0.00000000E+00  0.00000000E+00  0.00000000E+00
  0.00000000E+00  0.00000000E+00  0.00000000E+00
  0.00000000E+00  0.00000000E+00  0.00000000E+00
  0.00000000E+00  0.00000000E+00  0.00000000E+00
  0.00000000E+00  0.00000000E+00  0.00000000E+00
  0.00000000E+00  0.00000000E+00  0.00000000E+00
  0.00000000E+00  0.00000000E+00  0.00000000E+00
  0.00000000E+00  0.00000000E+00  0.00000000E+00
  0.00000000E+00  0.00000000E+00  0.00000000E+00
  0.00000000E+00  0.00000000E+00  0.00000000E+00
  0.00000000E+00  0.00000000E+00  0.00000000E+00
  0.00000000E+00  0.00000000E+00  0.00000000E+00
  0.00000000E+00  0.00000000E+00  0.00000000E+00
  0.00000000E+00  0.00000000E+00  0.00000000E+00
  0.00000000E+00  0.00000000E+00  0.00000000E+00
  0.00000000E+00  0.00000000E+00  0.00000000E+00
  0.00000000E+00  0.00000000E+00  0.00000000E+00
  0.00000000E+00  0.00000000E+00  0.00000000E+00
  0.00000000E+00  0.00000000E+00  0.00000000E+00
  0.00000000E+00  0.00000000E+00  0.00000000E+00
  0.00000000E+00  0.00000000E+00  0.00000000E+00
  0.00000000E+00  0.00000000E+00  0.00000000E+00
  0.00000000E+00  0.00000000E+00  0.00000000E+00
  0.00000000E+00  0.00000000E+00  0.00000000E+00
  0.00000000E+00  0.00000000E+00  0.00000000E+00
  0.00000000E+00  0.00000000E+00  0.00000000E+00
  0.00000000E+00  0.00000000E+00  0.00000000E+00
  0.00000000E+00  0.00000000E+00  0.00000000E+00
  0.00000000E+00  0.00000000E+00  0.00000000E+00
  0.00000000E+00  0.00000000E+00  0.00000000E+00
  0.00000000E+00  0.00000000E+00  0.00000000E+00
  0.00000000E+00  0.00000000E+00  0.00000000E+00
  0.00000000E+00  0.00000000E+00  0.00000000E+00
  0.00000000E+00  0.00000000E+00  0.00000000E+00
  0.00000000E+00  0.00000000E+00  0.00000000E+00
  0.00000000E+00  0.00000000E+00  0.00000000E+00
  0.00000000E+00  0.00000000E+00  0.00000000E+00
  0.00000000E+00  0.00000000E+00  0.00000000E+00
  0.00000000E+00  0.00000000E+00  0.00000000E+00
  0.00000000E+00  0.00000000E+00  0.00000000E+00
  0.00000000E+00  0.00000000E+00  0.00000000E+00
  0.00000000E+00  0.00000000E+00  0.00000000E+00
  0.00000000E+00  0.00000000E+00  0.00000000E+00
  0.00000000E+00  0.00000000E+00  0.00000000E+00
  0.00000000E+00  0.00000000E+00  0.00000000E+00
  0.00000000E+00  0.00000000E+00  0.00000000E+00
  0.00000000E+00  0.00000000E+00  0.00000000E+00
  0.00000000E+00  0.00000000E+00  0.00000000E+00
  0.00000000E+00  0.00000000E+00  0.00000000E+00
  0.00000000E+00  0.00000000E+00  0.00000000E+00
  0.00000000E+00  0.00000000E+00  0.00000000E+00
  0.00000000E+00  0.00000000E+00  0.00000000E+00
  0.00000000E+00  0.00000000E+00  0.00000000E+00
  0.00000000E+00  0.00000000E+00  0.00000000E+00
  0.00000000E+00  0.00000000E+00  0.00000000E+00
  0.00000000E+00  0.00000000E+00  0.00000000E+00
  0.00000000E+00  0.00000000E+00  0.00000000E+00
  0.00000000E+00  0.00000000E+00  0.00000000E+00
  0.00000000E+00  0.00000000E+00  0.00000000E+00
  0.00000000E+00  0.00000000E+00  0.00000000E+00
  0.00000000E+00  0.00000000E+00  0.00000000E+00
  0.00000000E+00  0.00000000E+00  0.00000000E+00
  0.00000000E+00  0.00000000E+00  0.00000000E+00
  0.00000000E+00  0.00000000E+00  0.00000000E+00
