H1 Pt1 C123 N3                          
   1.00000000000000     
    19.8485147007041718    0.0015604045890503    0.0428903188512343
    -9.9227317404651849   17.0296248850958349   -0.0471638442766620
     0.0648837835776867   -0.0450711985357202   29.7681681207877453
   H    Pt   C    N 
     1     1   123     3
Direct
  0.4412637528002882  0.4990497260258289  0.4672802483615917
  0.4370981013492435  0.4991382631371355  0.4146724757986571
  0.0418148772992959  0.0841086715503651  0.3997823788845581
  0.0406114769972676  0.2079857800106116  0.3999881796716453
  0.0397845677330471  0.3327524689891058  0.3995861167663582
  0.0399573998438414  0.4581785387007072  0.3991269634538865
  0.0411314183372553  0.5839112871820095  0.3992580311984882
  0.0422495135111798  0.7095067378384549  0.3995439281033604
  0.0426184160053537  0.8347708195665275  0.3996625466806487
  0.0425268529840684  0.9597868293765818  0.3996309470665174
  0.1678958045564512  0.0857976868369906  0.4003319900145984
  0.1671344709009442  0.2103025688263521  0.4015224661326119
  0.1643442774841988  0.3335179132507229  0.4016920987558883
  0.1631417568251721  0.4584759560028515  0.4001272547219807
  0.1643594637713791  0.5839084570129184  0.3991789812851460
  0.1661594982538798  0.7093284146534080  0.3993334355439215
  0.1671114175739940  0.8348127943121397  0.3996795040653717
  0.1676186759915001  0.9603639073488076  0.3997923315835222
  0.2927549925003811  0.0861169887500411  0.4003627215075488
  0.2934719162749906  0.2130472497700406  0.4029345591302443
  0.2916072759195427  0.3379953073159504  0.4056820474748159
  0.2855103660119347  0.4583919241882680  0.4044396736709971
  0.2868929643987880  0.5834642193468893  0.4013842445986243
  0.2900878700040373  0.7087500987393129  0.3997419347015595
  0.2914954086233588  0.8342412901216372  0.3994942754943882
  0.2922029982391044  0.9599223565498897  0.3996803567022691
  0.4171754299469331  0.0842368928364228  0.3997461796234094
  0.4180485311751845  0.2104354200253514  0.4013243907023866
  0.4203476483144312  0.3377797291531010  0.4065545866425405
  0.4140150151110166  0.7062958100783155  0.4020799643858792
  0.4158256405688685  0.8323534675673573  0.3998984967300931
  0.4166262231259436  0.9583260067292780  0.3995741088933261
  0.5415833517978333  0.0823865586907770  0.3995728762652209
  0.5423766678994394  0.2081377685332465  0.3997195382246645
  0.5439819454175782  0.3336956497856572  0.4017481893762851
  0.5492268847943268  0.4591696353402966  0.4066876980428128
  0.5377174699075675  0.7007924951894772  0.4051584894257376
  0.5401346916010203  0.8296926120235412  0.4012681138262358
  0.5409604276392520  0.9563626320378867  0.3998235468063571
  0.6659961054980655  0.0815570055514555  0.3997695297803270
  0.6666695379011615  0.2071305086243176  0.3994773362944805
  0.6679424309923947  0.3326673385276941  0.3993082975973642
  0.6707943859421546  0.4584310667144536  0.4003964492578009
  0.6721103522683940  0.5840760305309330  0.4027470463901137
  0.6667232007467351  0.7058942833783509  0.4029472117802241
  0.6644376753542879  0.8296621079354176  0.4015168761804151
  0.6653625881800633  0.9557832325502252  0.4001515959528603
  0.7905610072500936  0.0815090997033182  0.3997707097729774
  0.7909767442061697  0.2069181398050926  0.3996882902389316
  0.7918554271885733  0.3324680829412386  0.3993128986125064
  0.7934538868207370  0.4581556497676709  0.3989199504391968
  0.7946091328213123  0.5838639099424080  0.3992691090366630
  0.7937416112258783  0.7089358399671404  0.4000268035469084
  0.7912252732605242  0.8321764365127347  0.4001599539126310
  0.7902822109010780  0.9562954926299119  0.3999053160306247
  0.9157127066247487  0.0822972638133372  0.3996300011926777
  0.9154528834215458  0.2071190770969107  0.3996057222142155
  0.9157068115997050  0.3324735403357955  0.3994108892060199
  0.9166922843055511  0.4581681191733561  0.3992650228524056
  0.9178529570309895  0.5839037480087732  0.3991787888383698
  0.9181082970170629  0.7092903653754835  0.3993106174976399
  0.9176451486872058  0.8341913829258178  0.3994901351448583
  0.9165160464551869  0.9581572725499806  0.3995642075806295
  0.0843042280921038  0.0434260104329683  0.3998324483654848
  0.0834322149830906  0.1676970158543390  0.4002790880376629
  0.0816285796988816  0.2914086007428089  0.4002318771782233
  0.0806904029461977  0.4161789929492972  0.3994050690594933
  0.0816856001031149  0.5418492741136387  0.3990775642707690
  0.0831586671282605  0.6675363809617131  0.3993888419503421
  0.0839769835298755  0.7930601937946824  0.3996930249329502
  0.0843127950068938  0.9183901384063498  0.3997023627421400
  0.2093766919175233  0.0440594854173427  0.4001172730562157
  0.2097645956346992  0.1697479671114391  0.4015378705762207
  0.2080828234158044  0.2939602724360210  0.4029680768380933
  0.2040468286859731  0.4168051588958628  0.4018994841387095
  0.2044666542357177  0.5416618350621549  0.3998983541994451
  0.2068841033482265  0.6673195783020240  0.3992885674369683
  0.2082928897994973  0.7929021360258359  0.3995068454381444
  0.2089914792374322  0.9184268113887978  0.3997359133194915
  0.3339847637848173  0.0436329356407608  0.3998624562860624
  0.3345907148967340  0.1700403861744611  0.4015503857574300
  0.3356165624687545  0.2976682564783719  0.4056196851591189
  0.3270247206249007  0.5422440707525576  0.4042991028860824
  0.3306372473385922  0.6666260466949570  0.4009925323782941
  0.3326134204754131  0.7920661932271322  0.3996250614161862
  0.3334331278242643  0.9176980952017999  0.3995635282722274
  0.4584120128415243  0.0417978890698277  0.3995907906578182
  0.4590727756556794  0.1677831117519039  0.4000661892473957
  0.4604927277409522  0.2939611778570921  0.4029729914123049
  0.4673733145820395  0.4200454028737237  0.4098410849995094
  0.4528394729131183  0.6616601272269907  0.4050880927296683
  0.4568473160157381  0.7896986344227490  0.4009309335652326
  0.4577914736729246  0.9158864771584947  0.3996825113110988
  0.5827828520556412  0.0400840195109276  0.3996872573857531
  0.5835162441464072  0.1659076749592326  0.3994988767606801
  0.5846955993662954  0.2914233576926304  0.3999569025996279
  0.5883586427203725  0.4169484243006230  0.4026507864401492
  0.5913087766848577  0.5427696992977356  0.4063977382962873
  0.5828405275593388  0.6610163825109157  0.4059683030626553
  0.5804596075420477  0.7860676300608349  0.4026826760768908
  0.5821098230916477  0.9137809669709706  0.4002846627062913
  0.7072774295514650  0.0395724015614023  0.3998555258899472
  0.7078671761526901  0.1651820051006643  0.3996780183899221
  0.7087794452293749  0.2907061830055810  0.3992710475640623
  0.7108111253785091  0.4161835728052983  0.3991682258917373
  0.7124067963662769  0.5417058627393816  0.4004889897600753
  0.7110775127508263  0.6670070860428703  0.4018144636402028
  0.7074499499967001  0.7894711709746196  0.4013936466243809
  0.7065729006471482  0.9137585072930644  0.4003966485971642
  0.8322233026642745  0.0400504698018216  0.3997213528511208
  0.8323335992487412  0.1651892620395421  0.3997087036191362
  0.8327959586421992  0.2904904187439951  0.3995137538297870
  0.8340011186100214  0.4160757522658476  0.3991522096277033
  0.8352746548006016  0.5418382242416335  0.3989486396607492
  0.8354024430413918  0.6673883659837891  0.3993885704238526
  0.8343906439575958  0.7921228276195217  0.3997726318653298
  0.8328515870356092  0.9157388373202031  0.3997821131718146
  0.9582111073463876  0.0416812450474835  0.3995962231679811
  0.9573132015260082  0.1658129724865673  0.3996505207417059
  0.9569701566962280  0.2907302964324380  0.3994631142447474
  0.9573273635480865  0.4161160700759848  0.3992698303132129
  0.9584743876843217  0.5418168631408984  0.3992706711179034
  0.9593825519251243  0.6675124643247512  0.3993533431904028
  0.9594971283016357  0.7928778617008378  0.3994840635364876
  0.9590913557279702  0.9176281680652265  0.3995299859411538
  0.4068417212940630  0.5817260748214241  0.4074034305703653
  0.5492677439956986  0.5806815652687787  0.4087145662631552
  0.3268252089261741  0.4192857316103318  0.4069528688937500
 
  0.00000000E+00  0.00000000E+00  0.00000000E+00
  0.00000000E+00  0.00000000E+00  0.00000000E+00
  0.00000000E+00  0.00000000E+00  0.00000000E+00
  0.00000000E+00  0.00000000E+00  0.00000000E+00
  0.00000000E+00  0.00000000E+00  0.00000000E+00
  0.00000000E+00  0.00000000E+00  0.00000000E+00
  0.00000000E+00  0.00000000E+00  0.00000000E+00
  0.00000000E+00  0.00000000E+00  0.00000000E+00
  0.00000000E+00  0.00000000E+00  0.00000000E+00
  0.00000000E+00  0.00000000E+00  0.00000000E+00
  0.00000000E+00  0.00000000E+00  0.00000000E+00
  0.00000000E+00  0.00000000E+00  0.00000000E+00
  0.00000000E+00  0.00000000E+00  0.00000000E+00
  0.00000000E+00  0.00000000E+00  0.00000000E+00
  0.00000000E+00  0.00000000E+00  0.00000000E+00
  0.00000000E+00  0.00000000E+00  0.00000000E+00
  0.00000000E+00  0.00000000E+00  0.00000000E+00
  0.00000000E+00  0.00000000E+00  0.00000000E+00
  0.00000000E+00  0.00000000E+00  0.00000000E+00
  0.00000000E+00  0.00000000E+00  0.00000000E+00
  0.00000000E+00  0.00000000E+00  0.00000000E+00
  0.00000000E+00  0.00000000E+00  0.00000000E+00
  0.00000000E+00  0.00000000E+00  0.00000000E+00
  0.00000000E+00  0.00000000E+00  0.00000000E+00
  0.00000000E+00  0.00000000E+00  0.00000000E+00
  0.00000000E+00  0.00000000E+00  0.00000000E+00
  0.00000000E+00  0.00000000E+00  0.00000000E+00
  0.00000000E+00  0.00000000E+00  0.00000000E+00
  0.00000000E+00  0.00000000E+00  0.00000000E+00
  0.00000000E+00  0.00000000E+00  0.00000000E+00
  0.00000000E+00  0.00000000E+00  0.00000000E+00
  0.00000000E+00  0.00000000E+00  0.00000000E+00
  0.00000000E+00  0.00000000E+00  0.00000000E+00
  0.00000000E+00  0.00000000E+00  0.00000000E+00
  0.00000000E+00  0.00000000E+00  0.00000000E+00
  0.00000000E+00  0.00000000E+00  0.00000000E+00
  0.00000000E+00  0.00000000E+00  0.00000000E+00
  0.00000000E+00  0.00000000E+00  0.00000000E+00
  0.00000000E+00  0.00000000E+00  0.00000000E+00
  0.00000000E+00  0.00000000E+00  0.00000000E+00
  0.00000000E+00  0.00000000E+00  0.00000000E+00
  0.00000000E+00  0.00000000E+00  0.00000000E+00
  0.00000000E+00  0.00000000E+00  0.00000000E+00
  0.00000000E+00  0.00000000E+00  0.00000000E+00
  0.00000000E+00  0.00000000E+00  0.00000000E+00
  0.00000000E+00  0.00000000E+00  0.00000000E+00
  0.00000000E+00  0.00000000E+00  0.00000000E+00
  0.00000000E+00  0.00000000E+00  0.00000000E+00
  0.00000000E+00  0.00000000E+00  0.00000000E+00
  0.00000000E+00  0.00000000E+00  0.00000000E+00
  0.00000000E+00  0.00000000E+00  0.00000000E+00
  0.00000000E+00  0.00000000E+00  0.00000000E+00
  0.00000000E+00  0.00000000E+00  0.00000000E+00
  0.00000000E+00  0.00000000E+00  0.00000000E+00
  0.00000000E+00  0.00000000E+00  0.00000000E+00
  0.00000000E+00  0.00000000E+00  0.00000000E+00
  0.00000000E+00  0.00000000E+00  0.00000000E+00
  0.00000000E+00  0.00000000E+00  0.00000000E+00
  0.00000000E+00  0.00000000E+00  0.00000000E+00
  0.00000000E+00  0.00000000E+00  0.00000000E+00
  0.00000000E+00  0.00000000E+00  0.00000000E+00
  0.00000000E+00  0.00000000E+00  0.00000000E+00
  0.00000000E+00  0.00000000E+00  0.00000000E+00
  0.00000000E+00  0.00000000E+00  0.00000000E+00
  0.00000000E+00  0.00000000E+00  0.00000000E+00
  0.00000000E+00  0.00000000E+00  0.00000000E+00
  0.00000000E+00  0.00000000E+00  0.00000000E+00
  0.00000000E+00  0.00000000E+00  0.00000000E+00
  0.00000000E+00  0.00000000E+00  0.00000000E+00
  0.00000000E+00  0.00000000E+00  0.00000000E+00
  0.00000000E+00  0.00000000E+00  0.00000000E+00
  0.00000000E+00  0.00000000E+00  0.00000000E+00
  0.00000000E+00  0.00000000E+00  0.00000000E+00
  0.00000000E+00  0.00000000E+00  0.00000000E+00
  0.00000000E+00  0.00000000E+00  0.00000000E+00
  0.00000000E+00  0.00000000E+00  0.00000000E+00
  0.00000000E+00  0.00000000E+00  0.00000000E+00
  0.00000000E+00  0.00000000E+00  0.00000000E+00
  0.00000000E+00  0.00000000E+00  0.00000000E+00
  0.00000000E+00  0.00000000E+00  0.00000000E+00
  0.00000000E+00  0.00000000E+00  0.00000000E+00
  0.00000000E+00  0.00000000E+00  0.00000000E+00
  0.00000000E+00  0.00000000E+00  0.00000000E+00
  0.00000000E+00  0.00000000E+00  0.00000000E+00
  0.00000000E+00  0.00000000E+00  0.00000000E+00
  0.00000000E+00  0.00000000E+00  0.00000000E+00
  0.00000000E+00  0.00000000E+00  0.00000000E+00
  0.00000000E+00  0.00000000E+00  0.00000000E+00
  0.00000000E+00  0.00000000E+00  0.00000000E+00
  0.00000000E+00  0.00000000E+00  0.00000000E+00
  0.00000000E+00  0.00000000E+00  0.00000000E+00
  0.00000000E+00  0.00000000E+00  0.00000000E+00
  0.00000000E+00  0.00000000E+00  0.00000000E+00
  0.00000000E+00  0.00000000E+00  0.00000000E+00
  0.00000000E+00  0.00000000E+00  0.00000000E+00
  0.00000000E+00  0.00000000E+00  0.00000000E+00
  0.00000000E+00  0.00000000E+00  0.00000000E+00
  0.00000000E+00  0.00000000E+00  0.00000000E+00
  0.00000000E+00  0.00000000E+00  0.00000000E+00
  0.00000000E+00  0.00000000E+00  0.00000000E+00
  0.00000000E+00  0.00000000E+00  0.00000000E+00
  0.00000000E+00  0.00000000E+00  0.00000000E+00
  0.00000000E+00  0.00000000E+00  0.00000000E+00
  0.00000000E+00  0.00000000E+00  0.00000000E+00
  0.00000000E+00  0.00000000E+00  0.00000000E+00
  0.00000000E+00  0.00000000E+00  0.00000000E+00
  0.00000000E+00  0.00000000E+00  0.00000000E+00
  0.00000000E+00  0.00000000E+00  0.00000000E+00
  0.00000000E+00  0.00000000E+00  0.00000000E+00
  0.00000000E+00  0.00000000E+00  0.00000000E+00
  0.00000000E+00  0.00000000E+00  0.00000000E+00
  0.00000000E+00  0.00000000E+00  0.00000000E+00
  0.00000000E+00  0.00000000E+00  0.00000000E+00
  0.00000000E+00  0.00000000E+00  0.00000000E+00
  0.00000000E+00  0.00000000E+00  0.00000000E+00
  0.00000000E+00  0.00000000E+00  0.00000000E+00
  0.00000000E+00  0.00000000E+00  0.00000000E+00
  0.00000000E+00  0.00000000E+00  0.00000000E+00
  0.00000000E+00  0.00000000E+00  0.00000000E+00
  0.00000000E+00  0.00000000E+00  0.00000000E+00
  0.00000000E+00  0.00000000E+00  0.00000000E+00
  0.00000000E+00  0.00000000E+00  0.00000000E+00
  0.00000000E+00  0.00000000E+00  0.00000000E+00
  0.00000000E+00  0.00000000E+00  0.00000000E+00
  0.00000000E+00  0.00000000E+00  0.00000000E+00
  0.00000000E+00  0.00000000E+00  0.00000000E+00
  0.00000000E+00  0.00000000E+00  0.00000000E+00
  0.00000000E+00  0.00000000E+00  0.00000000E+00
