V1 C124 N2                              
   1.00000000000000     
    19.8168321692436251   -0.0182129258179775    0.0011826020362874
    -9.9242942916927319   17.0581919745451849   -0.0002772472420406
     0.0017838421209623    0.0005515562061661   29.7829104762962622
   V    C    N 
     1   124     2
Direct
  0.4375049768593191  0.5000065967370703  0.4266080708518372
  0.0421018007473278  0.0840386219142054  0.3999077218716124
  0.0415062904572502  0.2084689018784919  0.3997215126592953
  0.0408211603165297  0.3330717134374800  0.3997242550795096
  0.0406133928211477  0.4583381177573935  0.3998165051399886
  0.0412416122131541  0.5837154274093260  0.3998994896961640
  0.0417995593323390  0.7089875470065140  0.4000000972331683
  0.0420660288898904  0.8341959806864776  0.4000163052507255
  0.0422561210507935  0.9593777352633900  0.3999876248819069
  0.1679773560756149  0.0854085340988323  0.3999719134093102
  0.1677050590437306  0.2102345653604777  0.3998195963334686
  0.1662103189353298  0.3341638966436443  0.3996138257893280
  0.1643552428995817  0.4586710104704578  0.3998724056055571
  0.1651314034872496  0.5838180059276903  0.3996902001097757
  0.1662137681282101  0.7090021139558190  0.3998453782979381
  0.1668207808944054  0.8342648363861384  0.4000095005608117
  0.1672754755016649  0.9596940228075316  0.4000205425810369
  0.2924588791841929  0.0849566453766212  0.3999586472189702
  0.2942505431237590  0.2121446639656098  0.4004235260017093
  0.2937172027477516  0.3380726420058244  0.4008643692205104
  0.2885272930145268  0.4595424641367076  0.4011492120343328
  0.2887904174161118  0.5843839364333162  0.4005476980147652
  0.2905847152663389  0.7091123970699742  0.3998168259503717
  0.2915025234826518  0.8340433639560131  0.3998140613942678
  0.2919094842325711  0.9592866429132142  0.3999390114157743
  0.4169858002385824  0.0836571309199472  0.3997833381133623
  0.4176304337524937  0.2093161703363289  0.3998396947568654
  0.4209187289736109  0.3371095666852780  0.4024959222461249
  0.4148212441306439  0.7071774044594142  0.4005186616077834
  0.4161000894993804  0.8328974237155302  0.3996669937115990
  0.4165834190745915  0.9583261642348354  0.3998798512236020
  0.5416258524776064  0.0826051444940939  0.3999081380054105
  0.5421131709969134  0.2076740663252441  0.3997305758166620
  0.5433803214619806  0.3325535891922544  0.4003468132233498
  0.5450299153596334  0.4560780153805386  0.4023645839856090
  0.5433590613319450  0.5792421134709856  0.4021304541554809
  0.5383101845055610  0.7036268221474581  0.4014689990922857
  0.5404909032294687  0.8312901006497668  0.4000711850750329
  0.5412717179434309  0.9572201459083329  0.3999150397977107
  0.6663258366361976  0.0821935426566408  0.4000311396892784
  0.6667607627273772  0.2074690375751859  0.3999320679669990
  0.6676775077748186  0.3326948472479807  0.3997556200935728
  0.6691889841408120  0.4580290591544830  0.3998515578742335
  0.6690771474779239  0.5824714235906384  0.3999578666782417
  0.6656513283270994  0.7060788237852786  0.3997621498770038
  0.6648725567241809  0.8307223145235556  0.4000107317190223
  0.6658273194163118  0.9567271057208879  0.4000087493493218
  0.7911318822471199  0.0822472934951902  0.3999959066950405
  0.7914118007965846  0.2074699747768131  0.4000398620065411
  0.7919498176605249  0.3327793845053164  0.3999369710745975
  0.7927864944437686  0.4581338703242268  0.3997571191199686
  0.7932874282436854  0.5834163942786711  0.3997442979348635
  0.7922057723837088  0.7081636770942487  0.3996086994142929
  0.7910324232363593  0.8323256023004257  0.3997931475773013
  0.7907098589350069  0.9569334907596206  0.3999252558243719
  0.9162787477904818  0.0827881284298894  0.3999264292576402
  0.9162405382938016  0.2076729345605887  0.3999270931125967
  0.9162932451179774  0.3328397725499189  0.3999605623643126
  0.9166761589855469  0.4582094225398201  0.3999453501682980
  0.9172666095448648  0.5836187659708444  0.3999196919702434
  0.9172139347843632  0.7087913115117014  0.3998788021227154
  0.9169479381661418  0.8336495146235504  0.3998924632780026
  0.9165669097420240  0.9582524371059111  0.3999284079563481
  0.0842908691223031  0.0430701083792124  0.3999523409194084
  0.0839744154160453  0.1676760604405244  0.3997943578886591
  0.0827927922632383  0.2918287232783121  0.3996049886899450
  0.0817142215306802  0.4165821494606364  0.3997532844002973
  0.0822178080595907  0.5418677662536758  0.3997718878251271
  0.0830560568280832  0.6672218418495517  0.3999302356320749
  0.0835900082863494  0.7925304176515412  0.4000341890252011
  0.0838649818216399  0.9177505231040277  0.4000133206129601
  0.2091674798855237  0.0432748465194250  0.4000070118603768
  0.2101317723993910  0.1692830926361706  0.4000267329143815
  0.2093552450854822  0.2939269438714080  0.3997785339620404
  0.2059316615479286  0.4175276109238525  0.3999696211879619
  0.2058133589937734  0.5419722598707699  0.3998603954255693
  0.2073267893228124  0.6673069774742622  0.3997471206485942
  0.2082444290955180  0.7925319754133038  0.3999077461755288
  0.2086690805966866  0.9178035307798029  0.4000030665857759
  0.3337220762947998  0.0427813896938751  0.3998826470513287
  0.3345126370251707  0.1687166486363474  0.4000692474602459
  0.3366918198288505  0.2963718987984232  0.4014864910298784
  0.3316442203178521  0.4207701061105084  0.4021561173733698
  0.3299712143492378  0.5439268301800294  0.4023712348108526
  0.3316193405211658  0.6674462458502097  0.4003376535427825
  0.3328871698666692  0.7923267620270857  0.3997120028841319
  0.3333675979389703  0.9173895602655477  0.3998814757956254
  0.4584138642193751  0.0416798391221079  0.3998803967640188
  0.4589052014932949  0.1671038097546367  0.3996685997728827
  0.4601813486441930  0.2928198157625751  0.4005302565181021
  0.4540789061072459  0.6628896172799041  0.4024853021015969
  0.4573725505107807  0.7906850830109881  0.3998355625613628
  0.4580124789406715  0.9163456611388271  0.3998035837736924
  0.5830883717810891  0.0407150479237394  0.3999768229448694
  0.5834989761028945  0.1659600648180369  0.3998391002121097
  0.5844175128502613  0.2908857591856636  0.3998334511930561
  0.5862022875158726  0.4156143615775504  0.4005468895094969
  0.5864663788674302  0.5404543465491569  0.4011319421127264
  0.5812843673423812  0.6619363827462665  0.4008413577448202
  0.5807529616499293  0.7878633730442848  0.4004118392539296
  0.5825412812828247  0.9150497021008400  0.3999809833769348
  0.7077197272046377  0.0403053037542320  0.4000264178094713
  0.7081738091560409  0.1657329438532496  0.4000300347688086
  0.7087860229408374  0.2909941782476069  0.3998596678731515
  0.7098640491227389  0.4161766806082844  0.3996814601409105
  0.7106342481485620  0.5413236950842460  0.3998602064902490
  0.7087897441235482  0.6658324149113439  0.3996007021464660
  0.7073048123724260  0.7897755825758421  0.3998019191457485
  0.7070204308623693  0.9145927541530610  0.3999497631713598
  0.8327411895034391  0.0406286289597286  0.3999548126749582
  0.8329290591633421  0.1657990881472813  0.4000043670864286
  0.8331962281613544  0.2910057955738636  0.4000073516152723
  0.8337497386673336  0.4162754826741739  0.3998960586803679
  0.8343809264970976  0.5416570640854170  0.3997994934744953
  0.8341755734788563  0.6669292620794177  0.3997284516497101
  0.8335036706041189  0.7915340971377521  0.3997348235841144
  0.8328986921955371  0.9159584868261034  0.3999001502925094
  0.9584346775466427  0.0417462317532384  0.3999254903249570
  0.9580483828795966  0.1663413193724299  0.3998671889155475
  0.9577856283706520  0.2911985463969108  0.3998767752168241
  0.9577318753667444  0.4163748698515948  0.3999299143521641
  0.9583236598802333  0.5417857094481924  0.3999410628568542
  0.9587063322716392  0.6671561662251305  0.3999516063500820
  0.9587660904391653  0.7923252182448919  0.3999388948923965
  0.9587205891545849  0.9172094240828443  0.3999490809155167
  0.4098904386719537  0.5821634910842469  0.4056608704481563
  0.4651066168166087  0.4178350607862520  0.4056581530439408
 
  0.00000000E+00  0.00000000E+00  0.00000000E+00
  0.00000000E+00  0.00000000E+00  0.00000000E+00
  0.00000000E+00  0.00000000E+00  0.00000000E+00
  0.00000000E+00  0.00000000E+00  0.00000000E+00
  0.00000000E+00  0.00000000E+00  0.00000000E+00
  0.00000000E+00  0.00000000E+00  0.00000000E+00
  0.00000000E+00  0.00000000E+00  0.00000000E+00
  0.00000000E+00  0.00000000E+00  0.00000000E+00
  0.00000000E+00  0.00000000E+00  0.00000000E+00
  0.00000000E+00  0.00000000E+00  0.00000000E+00
  0.00000000E+00  0.00000000E+00  0.00000000E+00
  0.00000000E+00  0.00000000E+00  0.00000000E+00
  0.00000000E+00  0.00000000E+00  0.00000000E+00
  0.00000000E+00  0.00000000E+00  0.00000000E+00
  0.00000000E+00  0.00000000E+00  0.00000000E+00
  0.00000000E+00  0.00000000E+00  0.00000000E+00
  0.00000000E+00  0.00000000E+00  0.00000000E+00
  0.00000000E+00  0.00000000E+00  0.00000000E+00
  0.00000000E+00  0.00000000E+00  0.00000000E+00
  0.00000000E+00  0.00000000E+00  0.00000000E+00
  0.00000000E+00  0.00000000E+00  0.00000000E+00
  0.00000000E+00  0.00000000E+00  0.00000000E+00
  0.00000000E+00  0.00000000E+00  0.00000000E+00
  0.00000000E+00  0.00000000E+00  0.00000000E+00
  0.00000000E+00  0.00000000E+00  0.00000000E+00
  0.00000000E+00  0.00000000E+00  0.00000000E+00
  0.00000000E+00  0.00000000E+00  0.00000000E+00
  0.00000000E+00  0.00000000E+00  0.00000000E+00
  0.00000000E+00  0.00000000E+00  0.00000000E+00
  0.00000000E+00  0.00000000E+00  0.00000000E+00
  0.00000000E+00  0.00000000E+00  0.00000000E+00
  0.00000000E+00  0.00000000E+00  0.00000000E+00
  0.00000000E+00  0.00000000E+00  0.00000000E+00
  0.00000000E+00  0.00000000E+00  0.00000000E+00
  0.00000000E+00  0.00000000E+00  0.00000000E+00
  0.00000000E+00  0.00000000E+00  0.00000000E+00
  0.00000000E+00  0.00000000E+00  0.00000000E+00
  0.00000000E+00  0.00000000E+00  0.00000000E+00
  0.00000000E+00  0.00000000E+00  0.00000000E+00
  0.00000000E+00  0.00000000E+00  0.00000000E+00
  0.00000000E+00  0.00000000E+00  0.00000000E+00
  0.00000000E+00  0.00000000E+00  0.00000000E+00
  0.00000000E+00  0.00000000E+00  0.00000000E+00
  0.00000000E+00  0.00000000E+00  0.00000000E+00
  0.00000000E+00  0.00000000E+00  0.00000000E+00
  0.00000000E+00  0.00000000E+00  0.00000000E+00
  0.00000000E+00  0.00000000E+00  0.00000000E+00
  0.00000000E+00  0.00000000E+00  0.00000000E+00
  0.00000000E+00  0.00000000E+00  0.00000000E+00
  0.00000000E+00  0.00000000E+00  0.00000000E+00
  0.00000000E+00  0.00000000E+00  0.00000000E+00
  0.00000000E+00  0.00000000E+00  0.00000000E+00
  0.00000000E+00  0.00000000E+00  0.00000000E+00
  0.00000000E+00  0.00000000E+00  0.00000000E+00
  0.00000000E+00  0.00000000E+00  0.00000000E+00
  0.00000000E+00  0.00000000E+00  0.00000000E+00
  0.00000000E+00  0.00000000E+00  0.00000000E+00
  0.00000000E+00  0.00000000E+00  0.00000000E+00
  0.00000000E+00  0.00000000E+00  0.00000000E+00
  0.00000000E+00  0.00000000E+00  0.00000000E+00
  0.00000000E+00  0.00000000E+00  0.00000000E+00
  0.00000000E+00  0.00000000E+00  0.00000000E+00
  0.00000000E+00  0.00000000E+00  0.00000000E+00
  0.00000000E+00  0.00000000E+00  0.00000000E+00
  0.00000000E+00  0.00000000E+00  0.00000000E+00
  0.00000000E+00  0.00000000E+00  0.00000000E+00
  0.00000000E+00  0.00000000E+00  0.00000000E+00
  0.00000000E+00  0.00000000E+00  0.00000000E+00
  0.00000000E+00  0.00000000E+00  0.00000000E+00
  0.00000000E+00  0.00000000E+00  0.00000000E+00
  0.00000000E+00  0.00000000E+00  0.00000000E+00
  0.00000000E+00  0.00000000E+00  0.00000000E+00
  0.00000000E+00  0.00000000E+00  0.00000000E+00
  0.00000000E+00  0.00000000E+00  0.00000000E+00
  0.00000000E+00  0.00000000E+00  0.00000000E+00
  0.00000000E+00  0.00000000E+00  0.00000000E+00
  0.00000000E+00  0.00000000E+00  0.00000000E+00
  0.00000000E+00  0.00000000E+00  0.00000000E+00
  0.00000000E+00  0.00000000E+00  0.00000000E+00
  0.00000000E+00  0.00000000E+00  0.00000000E+00
  0.00000000E+00  0.00000000E+00  0.00000000E+00
  0.00000000E+00  0.00000000E+00  0.00000000E+00
  0.00000000E+00  0.00000000E+00  0.00000000E+00
  0.00000000E+00  0.00000000E+00  0.00000000E+00
  0.00000000E+00  0.00000000E+00  0.00000000E+00
  0.00000000E+00  0.00000000E+00  0.00000000E+00
  0.00000000E+00  0.00000000E+00  0.00000000E+00
  0.00000000E+00  0.00000000E+00  0.00000000E+00
  0.00000000E+00  0.00000000E+00  0.00000000E+00
  0.00000000E+00  0.00000000E+00  0.00000000E+00
  0.00000000E+00  0.00000000E+00  0.00000000E+00
  0.00000000E+00  0.00000000E+00  0.00000000E+00
  0.00000000E+00  0.00000000E+00  0.00000000E+00
  0.00000000E+00  0.00000000E+00  0.00000000E+00
  0.00000000E+00  0.00000000E+00  0.00000000E+00
  0.00000000E+00  0.00000000E+00  0.00000000E+00
  0.00000000E+00  0.00000000E+00  0.00000000E+00
  0.00000000E+00  0.00000000E+00  0.00000000E+00
  0.00000000E+00  0.00000000E+00  0.00000000E+00
  0.00000000E+00  0.00000000E+00  0.00000000E+00
  0.00000000E+00  0.00000000E+00  0.00000000E+00
  0.00000000E+00  0.00000000E+00  0.00000000E+00
  0.00000000E+00  0.00000000E+00  0.00000000E+00
  0.00000000E+00  0.00000000E+00  0.00000000E+00
  0.00000000E+00  0.00000000E+00  0.00000000E+00
  0.00000000E+00  0.00000000E+00  0.00000000E+00
  0.00000000E+00  0.00000000E+00  0.00000000E+00
  0.00000000E+00  0.00000000E+00  0.00000000E+00
  0.00000000E+00  0.00000000E+00  0.00000000E+00
  0.00000000E+00  0.00000000E+00  0.00000000E+00
  0.00000000E+00  0.00000000E+00  0.00000000E+00
  0.00000000E+00  0.00000000E+00  0.00000000E+00
  0.00000000E+00  0.00000000E+00  0.00000000E+00
  0.00000000E+00  0.00000000E+00  0.00000000E+00
  0.00000000E+00  0.00000000E+00  0.00000000E+00
  0.00000000E+00  0.00000000E+00  0.00000000E+00
  0.00000000E+00  0.00000000E+00  0.00000000E+00
  0.00000000E+00  0.00000000E+00  0.00000000E+00
  0.00000000E+00  0.00000000E+00  0.00000000E+00
  0.00000000E+00  0.00000000E+00  0.00000000E+00
  0.00000000E+00  0.00000000E+00  0.00000000E+00
  0.00000000E+00  0.00000000E+00  0.00000000E+00
  0.00000000E+00  0.00000000E+00  0.00000000E+00
  0.00000000E+00  0.00000000E+00  0.00000000E+00
  0.00000000E+00  0.00000000E+00  0.00000000E+00
  0.00000000E+00  0.00000000E+00  0.00000000E+00
  0.00000000E+00  0.00000000E+00  0.00000000E+00
