Ta1 C126                                
   1.00000000000000     
    19.8169213965398932   -0.0000080184598926    0.0008313859080497
    -9.9084666959155427   17.0814167328225537   -0.0003757469106184
     0.0012473331273020    0.0000695010401705   29.7263848409449096
   Ta   C 
     1   126
Direct
  0.4374889355823236  0.5000000885885622  0.4319726233947041
  0.0417214320903891  0.0837286379760270  0.3998895682141194
  0.0408178118486895  0.2079270095743053  0.3996589763474021
  0.0403934254884456  0.3327326840420639  0.3996722271051252
  0.0405202236189912  0.4582404649448916  0.3997507463435339
  0.0413203818087053  0.5837023325883548  0.3999759989707972
  0.0420179481345606  0.7090155900399414  0.4000901616147938
  0.0423219230866657  0.8342993922710424  0.4000869812824721
  0.0422791355350491  0.9592440447206000  0.4000246036297673
  0.1673419266820882  0.0847226050958104  0.3998191667257061
  0.1667004176455055  0.2091550019739729  0.3995697208077666
  0.1651242708891944  0.3330392708246139  0.3998106538897786
  0.1641753980713659  0.4581947325405671  0.3998449565298093
  0.1652169007509552  0.5835905449937754  0.3996154809038833
  0.1664264424613102  0.7090220835633460  0.3998492992092822
  0.1669555044764033  0.8342960677550433  0.4000621236523856
  0.1672922496347318  0.9595884675565878  0.3999785051308148
  0.2923702679695545  0.0847399765515001  0.3998107982734634
  0.2928556060795254  0.2107188598125827  0.4000365598503991
  0.2918773502458506  0.3355675657864748  0.4013048124360393
  0.2872586102099645  0.4575175379519885  0.4021042062065002
  0.2888447572446848  0.5838318260190082  0.4003828777741301
  0.2908075190637849  0.7088543646619765  0.3995945911615784
  0.2915333901555437  0.8339255204979432  0.3998576136797403
  0.2919628773757252  0.9592336971603345  0.3999895861247321
  0.4169914914817999  0.0837144941113223  0.3998860995393638
  0.4174454448146224  0.2091656789839143  0.3995652781652640
  0.4186911428510009  0.3355770458717467  0.4013112175933046
  0.4116632171201313  0.5816730760302165  0.4039799751023552
  0.4154094505981921  0.7074040251404549  0.3997952050033708
  0.4161562332454541  0.8329589248926380  0.3996464738426028
  0.4165855669607293  0.9583217663174902  0.4000396033205262
  0.5415903372503714  0.0826883497132520  0.4000329672576348
  0.5420878828263633  0.2079074062054778  0.3996716807600056
  0.5429261077430848  0.3330366785807631  0.3997973781417603
  0.5452754721737135  0.4575169730804076  0.4021041742245038
  0.5450238719240736  0.5816620699370082  0.4039950601121076
  0.5404832221404611  0.7059684565703642  0.4012067203591398
  0.5407764879291344  0.8317997642832611  0.3997572432211255
  0.5412348654836440  0.9573309452802100  0.3999196191308574
  0.6662231872730755  0.0822422303525642  0.4000344672423120
  0.6666446584186850  0.2075202705012385  0.3999494369151010
  0.6673326845238527  0.3327269413570021  0.3996562834092779
  0.6690534634803861  0.4582072247371426  0.3998146732312200
  0.6700176208453454  0.5838345807985560  0.4003674611936559
  0.6669788856251575  0.7073934113291902  0.3997915164601197
  0.6659978401665430  0.8317930265576923  0.3997499069233445
  0.6659968685445006  0.9570010311827931  0.3998801517030093
  0.7910160483114692  0.0822482195222530  0.4000281490493879
  0.7911837761512505  0.2073794609307765  0.4001262202817989
  0.7917544215949268  0.3327586140263011  0.3999817566221712
  0.7927297390071819  0.4582549647904706  0.3997197727626784
  0.7933869971189018  0.5835911415066966  0.3995809025079581
  0.7930517566515500  0.7088624455871466  0.3995884185295218
  0.7917942944828352  0.8329637510912911  0.3996515905222019
  0.7910757872904597  0.9573391522053666  0.3998893227852045
  0.9161114053859035  0.0827062767550950  0.3999898800705860
  0.9158648590158089  0.2075278185493649  0.3999222186966104
  0.9160272205660648  0.3327569702273555  0.3999898895636377
  0.9165887068862271  0.4581548884352301  0.4000636098523146
  0.9173871432943350  0.5836985928810908  0.3999512040996601
  0.9176032552248512  0.7090231686293607  0.3998559853829063
  0.9173907554890887  0.8339360402956981  0.3998886471274694
  0.9167436092665427  0.9583283904707876  0.4000526623332276
  0.0839046831085688  0.0426690756969859  0.3999195856903963
  0.0831970641456353  0.1670403199560546  0.3996473439008524
  0.0819534568733937  0.2911447854750057  0.3995946046543175
  0.0816263936385204  0.4164085525942504  0.3996155332681212
  0.0822796587228202  0.5417593946742074  0.3997508829443442
  0.0832711656323932  0.6672433045371743  0.3999904488623652
  0.0838055406608001  0.7926206767898252  0.4001262362691255
  0.0839821715845650  0.9177579006620805  0.4000343729070976
  0.2089963735416065  0.0429996473836891  0.3998801399395544
  0.2089764178143053  0.1682003597650654  0.3997582970147309
  0.2080049513160697  0.2925956689324031  0.3997955261482539
  0.2050130891724085  0.4161673151652919  0.4003831097845656
  0.2059809017484270  0.5418050833976831  0.3998443150340703
  0.2076616119379833  0.6672671721710680  0.3996730885343408
  0.2083381181159728  0.7924725702918756  0.3999240788919681
  0.2087682602611862  0.9177524496249152  0.4000274008977490
  0.3337368272451997  0.0426611227534535  0.3998883208310971
  0.3342045784153871  0.1682068004920153  0.3997506722566822
  0.3345132235597089  0.2940302407367807  0.4012086043063948
  0.3299898894856934  0.4183259255252872  0.4039809764399713
  0.3297404349376672  0.5424817367910506  0.4021041352655920
  0.3320851449113238  0.6669601216821214  0.3998099076728743
  0.3328904568015039  0.7920725393197473  0.3996588723940449
  0.3334059115191231  0.9172937962500004  0.3999897516007440
  0.4584156141901782  0.0416716895132658  0.4000522573735990
  0.4588306586587095  0.1670361239818713  0.3996516466692828
  0.4595854747865732  0.2926058709049908  0.3997935769147491
  0.4633612128214794  0.4183371326611238  0.4039959761234321
  0.4563094608568795  0.6644316550138278  0.4013037656552264
  0.4575451729032048  0.7908440676931515  0.3995687640988277
  0.4579926295988312  0.9162707164022090  0.3998893473196974
  0.5830347400618141  0.0407561107121860  0.4000244853983705
  0.5834538969921508  0.1660639925072754  0.3998894523650231
  0.5841889272538087  0.2911380531660340  0.3995902445699644
  0.5861837169083390  0.4161650150380172  0.4003687777632614
  0.5877602942747535  0.5424838086563462  0.4021031232124383
  0.5831150072075222  0.6644243169534769  0.4013098795452089
  0.5821367899242852  0.7892817133835104  0.4000346202479292
  0.5826183826785342  0.9152772831593229  0.3998190703150642
  0.7077030545402501  0.0404117250502401  0.3999786512598373
  0.7080219586989840  0.1657010260865985  0.4000880062904025
  0.7085787465430865  0.2909763932710364  0.3998564634119169
  0.7097955833896612  0.4164091300859272  0.3995808764858827
  0.7108473964070837  0.5417933315834887  0.3998150738406729
  0.7098904557220859  0.6669645328793474  0.3997952116483501
  0.7082810710699987  0.7908360762591783  0.3995634782074635
  0.7076302153374640  0.9152607006691926  0.3998108515613813
  0.8327286502003430  0.0407663723004427  0.3999905735097709
  0.8326586377574967  0.1657039119855460  0.4000612192560820
  0.8330010545653865  0.2909839389611776  0.4000901678004465
  0.8336879053708589  0.4163009460787381  0.3999511869431560
  0.8344752753356141  0.5417450342328970  0.3997200203869353
  0.8346068011762936  0.6672745424778540  0.3996553407323237
  0.8341813147203849  0.7920935356763139  0.3996713732861352
  0.8332776976378289  0.9162859696988980  0.3998869667497775
  0.9582642355725712  0.0416780156850700  0.4000403423199754
  0.9576075679041386  0.1660741845677326  0.3998565936846444
  0.9574047801544632  0.2909777175342568  0.3998480608254926
  0.9576178730359801  0.4162967902461501  0.3999750172611171
  0.9584341496897466  0.5418444327796967  0.4000643526586181
  0.9589972582545440  0.6672419448013844  0.3999810442152860
  0.9591262259666894  0.7924807407076179  0.3999476787943806
  0.9589033013739710  0.9173122607562618  0.4000335934905911
 
  0.00000000E+00  0.00000000E+00  0.00000000E+00
  0.00000000E+00  0.00000000E+00  0.00000000E+00
  0.00000000E+00  0.00000000E+00  0.00000000E+00
  0.00000000E+00  0.00000000E+00  0.00000000E+00
  0.00000000E+00  0.00000000E+00  0.00000000E+00
  0.00000000E+00  0.00000000E+00  0.00000000E+00
  0.00000000E+00  0.00000000E+00  0.00000000E+00
  0.00000000E+00  0.00000000E+00  0.00000000E+00
  0.00000000E+00  0.00000000E+00  0.00000000E+00
  0.00000000E+00  0.00000000E+00  0.00000000E+00
  0.00000000E+00  0.00000000E+00  0.00000000E+00
  0.00000000E+00  0.00000000E+00  0.00000000E+00
  0.00000000E+00  0.00000000E+00  0.00000000E+00
  0.00000000E+00  0.00000000E+00  0.00000000E+00
  0.00000000E+00  0.00000000E+00  0.00000000E+00
  0.00000000E+00  0.00000000E+00  0.00000000E+00
  0.00000000E+00  0.00000000E+00  0.00000000E+00
  0.00000000E+00  0.00000000E+00  0.00000000E+00
  0.00000000E+00  0.00000000E+00  0.00000000E+00
  0.00000000E+00  0.00000000E+00  0.00000000E+00
  0.00000000E+00  0.00000000E+00  0.00000000E+00
  0.00000000E+00  0.00000000E+00  0.00000000E+00
  0.00000000E+00  0.00000000E+00  0.00000000E+00
  0.00000000E+00  0.00000000E+00  0.00000000E+00
  0.00000000E+00  0.00000000E+00  0.00000000E+00
  0.00000000E+00  0.00000000E+00  0.00000000E+00
  0.00000000E+00  0.00000000E+00  0.00000000E+00
  0.00000000E+00  0.00000000E+00  0.00000000E+00
  0.00000000E+00  0.00000000E+00  0.00000000E+00
  0.00000000E+00  0.00000000E+00  0.00000000E+00
  0.00000000E+00  0.00000000E+00  0.00000000E+00
  0.00000000E+00  0.00000000E+00  0.00000000E+00
  0.00000000E+00  0.00000000E+00  0.00000000E+00
  0.00000000E+00  0.00000000E+00  0.00000000E+00
  0.00000000E+00  0.00000000E+00  0.00000000E+00
  0.00000000E+00  0.00000000E+00  0.00000000E+00
  0.00000000E+00  0.00000000E+00  0.00000000E+00
  0.00000000E+00  0.00000000E+00  0.00000000E+00
  0.00000000E+00  0.00000000E+00  0.00000000E+00
  0.00000000E+00  0.00000000E+00  0.00000000E+00
  0.00000000E+00  0.00000000E+00  0.00000000E+00
  0.00000000E+00  0.00000000E+00  0.00000000E+00
  0.00000000E+00  0.00000000E+00  0.00000000E+00
  0.00000000E+00  0.00000000E+00  0.00000000E+00
  0.00000000E+00  0.00000000E+00  0.00000000E+00
  0.00000000E+00  0.00000000E+00  0.00000000E+00
  0.00000000E+00  0.00000000E+00  0.00000000E+00
  0.00000000E+00  0.00000000E+00  0.00000000E+00
  0.00000000E+00  0.00000000E+00  0.00000000E+00
  0.00000000E+00  0.00000000E+00  0.00000000E+00
  0.00000000E+00  0.00000000E+00  0.00000000E+00
  0.00000000E+00  0.00000000E+00  0.00000000E+00
  0.00000000E+00  0.00000000E+00  0.00000000E+00
  0.00000000E+00  0.00000000E+00  0.00000000E+00
  0.00000000E+00  0.00000000E+00  0.00000000E+00
  0.00000000E+00  0.00000000E+00  0.00000000E+00
  0.00000000E+00  0.00000000E+00  0.00000000E+00
  0.00000000E+00  0.00000000E+00  0.00000000E+00
  0.00000000E+00  0.00000000E+00  0.00000000E+00
  0.00000000E+00  0.00000000E+00  0.00000000E+00
  0.00000000E+00  0.00000000E+00  0.00000000E+00
  0.00000000E+00  0.00000000E+00  0.00000000E+00
  0.00000000E+00  0.00000000E+00  0.00000000E+00
  0.00000000E+00  0.00000000E+00  0.00000000E+00
  0.00000000E+00  0.00000000E+00  0.00000000E+00
  0.00000000E+00  0.00000000E+00  0.00000000E+00
  0.00000000E+00  0.00000000E+00  0.00000000E+00
  0.00000000E+00  0.00000000E+00  0.00000000E+00
  0.00000000E+00  0.00000000E+00  0.00000000E+00
  0.00000000E+00  0.00000000E+00  0.00000000E+00
  0.00000000E+00  0.00000000E+00  0.00000000E+00
  0.00000000E+00  0.00000000E+00  0.00000000E+00
  0.00000000E+00  0.00000000E+00  0.00000000E+00
  0.00000000E+00  0.00000000E+00  0.00000000E+00
  0.00000000E+00  0.00000000E+00  0.00000000E+00
  0.00000000E+00  0.00000000E+00  0.00000000E+00
  0.00000000E+00  0.00000000E+00  0.00000000E+00
  0.00000000E+00  0.00000000E+00  0.00000000E+00
  0.00000000E+00  0.00000000E+00  0.00000000E+00
  0.00000000E+00  0.00000000E+00  0.00000000E+00
  0.00000000E+00  0.00000000E+00  0.00000000E+00
  0.00000000E+00  0.00000000E+00  0.00000000E+00
  0.00000000E+00  0.00000000E+00  0.00000000E+00
  0.00000000E+00  0.00000000E+00  0.00000000E+00
  0.00000000E+00  0.00000000E+00  0.00000000E+00
  0.00000000E+00  0.00000000E+00  0.00000000E+00
  0.00000000E+00  0.00000000E+00  0.00000000E+00
  0.00000000E+00  0.00000000E+00  0.00000000E+00
  0.00000000E+00  0.00000000E+00  0.00000000E+00
  0.00000000E+00  0.00000000E+00  0.00000000E+00
  0.00000000E+00  0.00000000E+00  0.00000000E+00
  0.00000000E+00  0.00000000E+00  0.00000000E+00
  0.00000000E+00  0.00000000E+00  0.00000000E+00
  0.00000000E+00  0.00000000E+00  0.00000000E+00
  0.00000000E+00  0.00000000E+00  0.00000000E+00
  0.00000000E+00  0.00000000E+00  0.00000000E+00
  0.00000000E+00  0.00000000E+00  0.00000000E+00
  0.00000000E+00  0.00000000E+00  0.00000000E+00
  0.00000000E+00  0.00000000E+00  0.00000000E+00
  0.00000000E+00  0.00000000E+00  0.00000000E+00
  0.00000000E+00  0.00000000E+00  0.00000000E+00
  0.00000000E+00  0.00000000E+00  0.00000000E+00
  0.00000000E+00  0.00000000E+00  0.00000000E+00
  0.00000000E+00  0.00000000E+00  0.00000000E+00
  0.00000000E+00  0.00000000E+00  0.00000000E+00
  0.00000000E+00  0.00000000E+00  0.00000000E+00
  0.00000000E+00  0.00000000E+00  0.00000000E+00
  0.00000000E+00  0.00000000E+00  0.00000000E+00
  0.00000000E+00  0.00000000E+00  0.00000000E+00
  0.00000000E+00  0.00000000E+00  0.00000000E+00
  0.00000000E+00  0.00000000E+00  0.00000000E+00
  0.00000000E+00  0.00000000E+00  0.00000000E+00
  0.00000000E+00  0.00000000E+00  0.00000000E+00
  0.00000000E+00  0.00000000E+00  0.00000000E+00
  0.00000000E+00  0.00000000E+00  0.00000000E+00
  0.00000000E+00  0.00000000E+00  0.00000000E+00
  0.00000000E+00  0.00000000E+00  0.00000000E+00
  0.00000000E+00  0.00000000E+00  0.00000000E+00
  0.00000000E+00  0.00000000E+00  0.00000000E+00
  0.00000000E+00  0.00000000E+00  0.00000000E+00
  0.00000000E+00  0.00000000E+00  0.00000000E+00
  0.00000000E+00  0.00000000E+00  0.00000000E+00
  0.00000000E+00  0.00000000E+00  0.00000000E+00
  0.00000000E+00  0.00000000E+00  0.00000000E+00
  0.00000000E+00  0.00000000E+00  0.00000000E+00
  0.00000000E+00  0.00000000E+00  0.00000000E+00
  0.00000000E+00  0.00000000E+00  0.00000000E+00
