Rh1 C122 N4                             
   1.00000000000000     
    19.8425188202490546    0.0000037222489884    0.0020581753974319
    -9.9212559929488737   17.0198446204630578   -0.0006963353322322
     0.0030836970450458    0.0005698312566258   29.7954302662914223
   Rh   C    N 
     1   122     4
Direct
  0.4374907065394413  0.4999990172193667  0.4094196354824752
  0.0420753744770306  0.0843542461614015  0.3998248382592562
  0.0405802617931057  0.2080141292896748  0.3998551765750157
  0.0396181660300762  0.3326158050196544  0.3995943465963899
  0.0398799915824609  0.4581732944521361  0.3991780297399914
  0.0411125307316809  0.5839328149915356  0.3991652945019901
  0.0422864319724123  0.7095686889695182  0.3995482465574461
  0.0427745208809916  0.8350025848825873  0.3996865156069489
  0.0428774127945294  0.9601438406890255  0.3996535381933906
  0.1685351866777266  0.0866073786997515  0.4004545376050698
  0.1673954857715922  0.2106566805669564  0.4012081440095731
  0.1642230600477995  0.3334826637952424  0.4015335250389801
  0.1629282965836295  0.4584123318753515  0.4008246927835113
  0.1643984881266228  0.5837603374584055  0.3996697094316420
  0.1662278387204038  0.7093567725673756  0.3993296979375774
  0.1672175519828533  0.8349926401171622  0.3996798931780181
  0.1679011735828088  0.9607607297156856  0.3999021624033710
  0.2930950953141255  0.0865943670035877  0.4004914744259726
  0.2948075143078039  0.2146172553870901  0.4023062784500777
  0.2920083938949692  0.3394280259393557  0.4041110872152412
  0.2852877866327270  0.4576739387393535  0.4044454525461476
  0.2872160698140349  0.5833316262948164  0.4022655884942802
  0.2901113815336701  0.7086915059612203  0.4001789391286164
  0.2915194368729188  0.8342470247078865  0.3994596785612388
  0.2923152300033867  0.9601402506978155  0.3996636123098400
  0.4173138710063342  0.0843429356384446  0.3998550582675032
  0.4182395792315216  0.2106502758966418  0.4012915907520290
  0.4224078420771479  0.3394256313528566  0.4041403110468683
  0.4138995169877089  0.7056861549160977  0.4022063734299228
  0.4157662967092752  0.8321091485328537  0.4002434676276621
  0.4166060728694961  0.9582358907372498  0.3995367211900271
  0.5415513784825505  0.0822234727368156  0.3995021027438761
  0.5424221418435253  0.2080097678880205  0.3998787117619832
  0.5442413581599236  0.3334692039586205  0.4015626628904381
  0.5473643541095393  0.4576623236009981  0.4044298671755643
  0.5377206409762390  0.7004525529426027  0.4039286656942138
  0.5398866889317077  0.8293026809656353  0.4013384870433882
  0.5408799632760619  0.9560777974761243  0.3999326120470827
  0.6658640474022897  0.0812981793998973  0.3997448421165165
  0.6666423950798607  0.2070081845807707  0.3994504468590550
  0.6679692663695035  0.3326158650586075  0.3995905179582606
  0.6704596587321969  0.4584083462915982  0.4008011579043435
  0.6711110789695462  0.5833498357921617  0.4022528156906980
  0.6667758256634813  0.7056959709264202  0.4022672401533255
  0.6644213296352671  0.8293191085666498  0.4014173360477357
  0.6652567735508443  0.9554764552135503  0.4002815051690470
  0.7904796945147150  0.0813042296886986  0.3997399657053111
  0.7908630412976413  0.2067373699723804  0.3997833614951767
  0.7918128175695196  0.3324101727170234  0.3993205174963235
  0.7932516215935663  0.4581700998890786  0.3991589298746739
  0.7943238557641751  0.5837619005350310  0.3996517652507265
  0.7935594458072309  0.7086959921841850  0.4001884675248054
  0.7913456021112791  0.8321151665867278  0.4002853986403238
  0.7902355992410572  0.9560897389422134  0.3999676831577209
  0.9157215130801205  0.0822206310641499  0.3994915707895967
  0.9153585823880931  0.2069992317419784  0.3994343531206238
  0.9155935357400268  0.3324148312323651  0.3993256963538149
  0.9165412411904355  0.4581140180850682  0.3991815597888193
  0.9177828678055265  0.5839351550211763  0.3991578345032269
  0.9181159412632146  0.7093506912638958  0.3993219693113977
  0.9177303655532304  0.8342387602162840  0.3994747783949558
  0.9166902545323472  0.9582374744638765  0.3995392499833473
  0.0848010616496547  0.0439222735619584  0.3999309500909217
  0.0836565559266628  0.1678912766366797  0.4002386435855234
  0.0814198656976243  0.2913089435537842  0.4001764811837172
  0.0806380271217223  0.4162396844379844  0.3996707116390102
  0.0817069651577142  0.5418269294442363  0.3991774141441702
  0.0831793309159698  0.6675861996230622  0.3993265241140018
  0.0841260694479182  0.7932636983834553  0.3997841443863629
  0.0845653646147839  0.9187019268882114  0.3997447755849595
  0.2097809580619207  0.0445235944460065  0.4002813065659041
  0.2105839313500392  0.1706968540513506  0.4013374328108584
  0.2082132326515313  0.2943134027681134  0.4022025680534694
  0.2038842867018137  0.4166681146230637  0.4022648628433723
  0.2045166741614443  0.5415880414089601  0.4008236640486185
  0.2070031122691692  0.6673852922996845  0.3995954640338453
  0.2083598127993141  0.7930019533602499  0.3994364647142498
  0.2091753694519685  0.9186958509052334  0.3997407751541746
  0.3341462482210480  0.0439104274034976  0.3999672179538383
  0.3351028547424579  0.1706813111542681  0.4014152448833823
  0.3372677013138564  0.2995468510476851  0.4039264667694155
  0.3276139549701633  0.5423264209038930  0.4044454021452367
  0.3307403794405317  0.6665174068572361  0.4015371324029836
  0.3325672874556117  0.7919870798791967  0.3998586131216184
  0.3335015938000437  0.9177801714549025  0.3994943833363231
  0.4584536919026688  0.0417627888257113  0.3995409066350472
  0.4592307699325976  0.1678843726819695  0.4002846855823671
  0.4610798152877236  0.2943034133417685  0.4022664011848140
  0.4525803788701526  0.6605711702510061  0.4041126863787085
  0.4567382951030884  0.7893428178049647  0.4012112702810314
  0.4577219858389983  0.9156458802405720  0.3998287998464073
  0.5827345145431082  0.0398567667753094  0.3996545854493552
  0.5834921206074459  0.1657618279941137  0.3994757519485594
  0.5848638418815045  0.2913039795608112  0.4001901893871660
  0.5877606824975566  0.4166497320372748  0.4022527818671198
  0.5897013488407445  0.5423365205328677  0.4044299187211526
  0.5829814820258093  0.6605733202096149  0.4041420372119775
  0.5801899739514557  0.7853822460932748  0.4023088495733649
  0.5819281600526819  0.9133921877804606  0.4004545020205733
  0.7071407579961058  0.0392392680224729  0.3999022897532028
  0.7077723932430671  0.1649976728006786  0.3996863546810794
  0.7087653699263803  0.2906494626620680  0.3993236939954886
  0.7105620100778194  0.4162387248512624  0.3996528665623989
  0.7120517216769464  0.5415921858223999  0.4008010094747068
  0.7107714274431089  0.6665305407635602  0.4015624438704351
  0.7075884244801052  0.7893494222079346  0.4012928826602818
  0.7065009901799078  0.9134060878623420  0.4004926508552834
  0.8321751071957514  0.0398599844159640  0.3996624111216570
  0.8322252257300847  0.1650078885688483  0.3996791167018829
  0.8327170026663182  0.2904315193513061  0.3995480545693850
  0.8338474952662108  0.4160656819891588  0.3991589497383427
  0.8350821206709432  0.5418308480208989  0.3991580761527555
  0.8353536448295084  0.6673847584424681  0.3995887708426732
  0.8344113538962828  0.7919904245630921  0.3998782674157611
  0.8329704752357385  0.9156566343238765  0.3998554994704993
  0.9583689988543854  0.0417639878480074  0.3995335407646061
  0.9572718135659345  0.1657536671410749  0.3994566155725072
  0.9568706520123123  0.2906435386316147  0.3993271472002999
  0.9571788693494537  0.4160671766838379  0.3991653453853177
  0.9584274928016380  0.5418868899291287  0.3991814184281925
  0.9594035655269828  0.6675910244678016  0.3993190724637050
  0.9596341296913055  0.7929922582920861  0.3994493560503556
  0.9593275097097003  0.9177768745754910  0.3995012839991761
  0.4073051328898765  0.5802417365645685  0.4057893059034277
  0.5479243921383598  0.5802430159507911  0.4057947382611437
  0.3270622975979731  0.4197570939047582  0.4057886933578207
  0.4676804799042855  0.4197557048414140  0.4057944451015815
 
  0.00000000E+00  0.00000000E+00  0.00000000E+00
  0.00000000E+00  0.00000000E+00  0.00000000E+00
  0.00000000E+00  0.00000000E+00  0.00000000E+00
  0.00000000E+00  0.00000000E+00  0.00000000E+00
  0.00000000E+00  0.00000000E+00  0.00000000E+00
  0.00000000E+00  0.00000000E+00  0.00000000E+00
  0.00000000E+00  0.00000000E+00  0.00000000E+00
  0.00000000E+00  0.00000000E+00  0.00000000E+00
  0.00000000E+00  0.00000000E+00  0.00000000E+00
  0.00000000E+00  0.00000000E+00  0.00000000E+00
  0.00000000E+00  0.00000000E+00  0.00000000E+00
  0.00000000E+00  0.00000000E+00  0.00000000E+00
  0.00000000E+00  0.00000000E+00  0.00000000E+00
  0.00000000E+00  0.00000000E+00  0.00000000E+00
  0.00000000E+00  0.00000000E+00  0.00000000E+00
  0.00000000E+00  0.00000000E+00  0.00000000E+00
  0.00000000E+00  0.00000000E+00  0.00000000E+00
  0.00000000E+00  0.00000000E+00  0.00000000E+00
  0.00000000E+00  0.00000000E+00  0.00000000E+00
  0.00000000E+00  0.00000000E+00  0.00000000E+00
  0.00000000E+00  0.00000000E+00  0.00000000E+00
  0.00000000E+00  0.00000000E+00  0.00000000E+00
  0.00000000E+00  0.00000000E+00  0.00000000E+00
  0.00000000E+00  0.00000000E+00  0.00000000E+00
  0.00000000E+00  0.00000000E+00  0.00000000E+00
  0.00000000E+00  0.00000000E+00  0.00000000E+00
  0.00000000E+00  0.00000000E+00  0.00000000E+00
  0.00000000E+00  0.00000000E+00  0.00000000E+00
  0.00000000E+00  0.00000000E+00  0.00000000E+00
  0.00000000E+00  0.00000000E+00  0.00000000E+00
  0.00000000E+00  0.00000000E+00  0.00000000E+00
  0.00000000E+00  0.00000000E+00  0.00000000E+00
  0.00000000E+00  0.00000000E+00  0.00000000E+00
  0.00000000E+00  0.00000000E+00  0.00000000E+00
  0.00000000E+00  0.00000000E+00  0.00000000E+00
  0.00000000E+00  0.00000000E+00  0.00000000E+00
  0.00000000E+00  0.00000000E+00  0.00000000E+00
  0.00000000E+00  0.00000000E+00  0.00000000E+00
  0.00000000E+00  0.00000000E+00  0.00000000E+00
  0.00000000E+00  0.00000000E+00  0.00000000E+00
  0.00000000E+00  0.00000000E+00  0.00000000E+00
  0.00000000E+00  0.00000000E+00  0.00000000E+00
  0.00000000E+00  0.00000000E+00  0.00000000E+00
  0.00000000E+00  0.00000000E+00  0.00000000E+00
  0.00000000E+00  0.00000000E+00  0.00000000E+00
  0.00000000E+00  0.00000000E+00  0.00000000E+00
  0.00000000E+00  0.00000000E+00  0.00000000E+00
  0.00000000E+00  0.00000000E+00  0.00000000E+00
  0.00000000E+00  0.00000000E+00  0.00000000E+00
  0.00000000E+00  0.00000000E+00  0.00000000E+00
  0.00000000E+00  0.00000000E+00  0.00000000E+00
  0.00000000E+00  0.00000000E+00  0.00000000E+00
  0.00000000E+00  0.00000000E+00  0.00000000E+00
  0.00000000E+00  0.00000000E+00  0.00000000E+00
  0.00000000E+00  0.00000000E+00  0.00000000E+00
  0.00000000E+00  0.00000000E+00  0.00000000E+00
  0.00000000E+00  0.00000000E+00  0.00000000E+00
  0.00000000E+00  0.00000000E+00  0.00000000E+00
  0.00000000E+00  0.00000000E+00  0.00000000E+00
  0.00000000E+00  0.00000000E+00  0.00000000E+00
  0.00000000E+00  0.00000000E+00  0.00000000E+00
  0.00000000E+00  0.00000000E+00  0.00000000E+00
  0.00000000E+00  0.00000000E+00  0.00000000E+00
  0.00000000E+00  0.00000000E+00  0.00000000E+00
  0.00000000E+00  0.00000000E+00  0.00000000E+00
  0.00000000E+00  0.00000000E+00  0.00000000E+00
  0.00000000E+00  0.00000000E+00  0.00000000E+00
  0.00000000E+00  0.00000000E+00  0.00000000E+00
  0.00000000E+00  0.00000000E+00  0.00000000E+00
  0.00000000E+00  0.00000000E+00  0.00000000E+00
  0.00000000E+00  0.00000000E+00  0.00000000E+00
  0.00000000E+00  0.00000000E+00  0.00000000E+00
  0.00000000E+00  0.00000000E+00  0.00000000E+00
  0.00000000E+00  0.00000000E+00  0.00000000E+00
  0.00000000E+00  0.00000000E+00  0.00000000E+00
  0.00000000E+00  0.00000000E+00  0.00000000E+00
  0.00000000E+00  0.00000000E+00  0.00000000E+00
  0.00000000E+00  0.00000000E+00  0.00000000E+00
  0.00000000E+00  0.00000000E+00  0.00000000E+00
  0.00000000E+00  0.00000000E+00  0.00000000E+00
  0.00000000E+00  0.00000000E+00  0.00000000E+00
  0.00000000E+00  0.00000000E+00  0.00000000E+00
  0.00000000E+00  0.00000000E+00  0.00000000E+00
  0.00000000E+00  0.00000000E+00  0.00000000E+00
  0.00000000E+00  0.00000000E+00  0.00000000E+00
  0.00000000E+00  0.00000000E+00  0.00000000E+00
  0.00000000E+00  0.00000000E+00  0.00000000E+00
  0.00000000E+00  0.00000000E+00  0.00000000E+00
  0.00000000E+00  0.00000000E+00  0.00000000E+00
  0.00000000E+00  0.00000000E+00  0.00000000E+00
  0.00000000E+00  0.00000000E+00  0.00000000E+00
  0.00000000E+00  0.00000000E+00  0.00000000E+00
  0.00000000E+00  0.00000000E+00  0.00000000E+00
  0.00000000E+00  0.00000000E+00  0.00000000E+00
  0.00000000E+00  0.00000000E+00  0.00000000E+00
  0.00000000E+00  0.00000000E+00  0.00000000E+00
  0.00000000E+00  0.00000000E+00  0.00000000E+00
  0.00000000E+00  0.00000000E+00  0.00000000E+00
  0.00000000E+00  0.00000000E+00  0.00000000E+00
  0.00000000E+00  0.00000000E+00  0.00000000E+00
  0.00000000E+00  0.00000000E+00  0.00000000E+00
  0.00000000E+00  0.00000000E+00  0.00000000E+00
  0.00000000E+00  0.00000000E+00  0.00000000E+00
  0.00000000E+00  0.00000000E+00  0.00000000E+00
  0.00000000E+00  0.00000000E+00  0.00000000E+00
  0.00000000E+00  0.00000000E+00  0.00000000E+00
  0.00000000E+00  0.00000000E+00  0.00000000E+00
  0.00000000E+00  0.00000000E+00  0.00000000E+00
  0.00000000E+00  0.00000000E+00  0.00000000E+00
  0.00000000E+00  0.00000000E+00  0.00000000E+00
  0.00000000E+00  0.00000000E+00  0.00000000E+00
  0.00000000E+00  0.00000000E+00  0.00000000E+00
  0.00000000E+00  0.00000000E+00  0.00000000E+00
  0.00000000E+00  0.00000000E+00  0.00000000E+00
  0.00000000E+00  0.00000000E+00  0.00000000E+00
  0.00000000E+00  0.00000000E+00  0.00000000E+00
  0.00000000E+00  0.00000000E+00  0.00000000E+00
  0.00000000E+00  0.00000000E+00  0.00000000E+00
  0.00000000E+00  0.00000000E+00  0.00000000E+00
  0.00000000E+00  0.00000000E+00  0.00000000E+00
  0.00000000E+00  0.00000000E+00  0.00000000E+00
  0.00000000E+00  0.00000000E+00  0.00000000E+00
  0.00000000E+00  0.00000000E+00  0.00000000E+00
  0.00000000E+00  0.00000000E+00  0.00000000E+00
  0.00000000E+00  0.00000000E+00  0.00000000E+00
  0.00000000E+00  0.00000000E+00  0.00000000E+00
  0.00000000E+00  0.00000000E+00  0.00000000E+00
