Ag1 H1 C123 N3 O1                       
   1.00000000000000     
    19.8357116920312890    0.0073824546335706   -0.0432992331952664
    -9.9113683417980827   17.0365471490093796   -0.0100348161398191
    -0.0648538738484049   -0.0550995948402095   29.7702344718961278
   Ag   H    C    N    O 
     1     1   123     3     1
Direct
  0.4371981587476791  0.4983598626422374  0.4148489322851884
  0.4799272600780851  0.5488085148940351  0.5010887664071746
  0.0416236053705766  0.0838626911275374  0.4001032108592515
  0.0404868088519679  0.2078843256900666  0.4001326337667838
  0.0398379769603468  0.3327159743154164  0.3995540456402697
  0.0401822898517124  0.4581412159120921  0.3988857401259888
  0.0413499384195664  0.5838298167865695  0.3986227366175173
  0.0424080660999300  0.7094059059677181  0.3988770068911229
  0.0427241222042961  0.8346861125323723  0.3992529239259603
  0.0425166200977728  0.9596475226292502  0.3996093890356644
  0.1677079215362674  0.0854717239601539  0.4006793789365344
  0.1666144690950959  0.2096244544222489  0.4017789926047159
  0.1643134115313752  0.3332498827634210  0.4014136142584527
  0.1635690532810639  0.4583272851907345  0.4002584666518255
  0.1647590043095859  0.5837257408637820  0.3991779075348903
  0.1663779194319933  0.7091742901326010  0.3989052474353479
  0.1672500469486744  0.8346960613705934  0.3991927433478386
  0.1676356185018399  0.9602053731485701  0.3996565835313619
  0.2926846716517116  0.0858816973107187  0.4007160093826218
  0.2931453295899457  0.2125343204850096  0.4031650454935131
  0.2909844296793863  0.3371811878625249  0.4044972737359032
  0.2865550028719669  0.4577243372458324  0.4036289979149155
  0.2876005784533325  0.5831798174614160  0.4016522507337314
  0.2903908308913692  0.7086463573110915  0.4000039731021139
  0.2916439007571233  0.8341375750804446  0.3992803788138232
  0.2922495612437753  0.9598167872933699  0.3995031905597043
  0.4171505799030406  0.0842521169785467  0.3999771333304201
  0.4178551624246641  0.2102652604088958  0.4019412516957472
  0.4196717473619708  0.3375041376628082  0.4062649721488586
  0.4143782202139716  0.7065851192400181  0.4025580503587837
  0.4160080328461470  0.8324879048759667  0.4001871605916018
  0.4167022233016578  0.9584039982509137  0.3994988056190263
  0.5415781855364641  0.0825698295607230  0.3995149729610680
  0.5423129886912628  0.2083322498349612  0.4001735467258911
  0.5437235780610936  0.3339017710030165  0.4022346739326926
  0.5484871821705991  0.4597886899056010  0.4052903387866784
  0.5384006296409131  0.7015880172486111  0.4048100613208843
  0.5403958894628522  0.8301094550314415  0.4017126961997822
  0.5410581580747936  0.9566008240448335  0.3999408074116950
  0.6660239721844279  0.0817912760756062  0.3995330571123593
  0.6665906440288437  0.2073428744963177  0.3992834324464175
  0.6677623919958510  0.3328666258662311  0.3996709001992534
  0.6704826471942236  0.4586488034768985  0.4007864225547191
  0.6721686732878319  0.5844361267249990  0.4023402433685868
  0.6674946783775535  0.7067212314347854  0.4028180609099136
  0.6648110985324174  0.8301494780461626  0.4018396766937238
  0.6655050849231552  0.9560967238184481  0.4002953646641806
  0.7905865776295296  0.0817116941536972  0.3995707221194318
  0.7909362683009029  0.2070915581999484  0.3992722904974245
  0.7917783055101554  0.3326223530474091  0.3989063115533448
  0.7933307905491399  0.4582977341015527  0.3989988950607100
  0.7946066461641452  0.5839576649024275  0.3997507167173180
  0.7940285417540398  0.7091888539084025  0.4005448469598548
  0.7916224391072419  0.8325735004688274  0.4006720490963863
  0.7904171448022954  0.9565408871575097  0.4000750984036134
  0.9156876682344490  0.0823724319226580  0.3996436374167948
  0.9154261200942484  0.2071996124748161  0.3993991599369773
  0.9157427452436588  0.3325709673243798  0.3990036027051209
  0.9167345599648885  0.4582075171012547  0.3986101997307369
  0.9179365351854071  0.5839163965170647  0.3987009096338232
  0.9182532673659256  0.7093029187391451  0.3992327443723301
  0.9177996783201531  0.8342333093479242  0.3996041722071674
  0.9166108449094055  0.9582448560730695  0.3997318042549888
  0.0841731158443867  0.0431899227053681  0.4000676952334836
  0.0830740219509883  0.1673051518774835  0.4006368235555612
  0.0815260084406761  0.2912450574163772  0.4002371631012210
  0.0810217761301545  0.4161615742389282  0.3994249962976348
  0.0820341469295490  0.5417736469890038  0.3987796442491417
  0.0833911014419943  0.6674246235011043  0.3987355940364964
  0.0841356558136552  0.7929682709878114  0.3991316708549652
  0.0843489195959329  0.9182452451252173  0.3994630492526768
  0.2093005266441502  0.0437716503932206  0.4003153115432416
  0.2093620422719558  0.1691883871588754  0.4019024845739410
  0.2073550094159307  0.2930935626618084  0.4026051659516226
  0.2046030419560863  0.4166221665511590  0.4016446967317472
  0.2050386352909443  0.5415095453360111  0.4000909302646564
  0.2072260784602235  0.6671905922959589  0.3992395648037067
  0.2084769179597840  0.7927624480789931  0.3990856857985794
  0.2090560741688177  0.9182819452592628  0.3994378605347735
  0.3339782177422139  0.0435043320617310  0.3999969147535578
  0.3344392745901344  0.1696636202584704  0.4020754501485189
  0.3348785823413848  0.2966537796736624  0.4051933823438881
  0.3284767956011370  0.5422349191228323  0.4042605568187105
  0.3310974057430455  0.6665000626041562  0.4014670907594696
  0.3328108500174276  0.7919594849850522  0.3997462302728230
  0.3335040104386513  0.9176062477242786  0.3993629454891527
  0.4584247477280326  0.0418533935366013  0.3995925189288789
  0.4590108448847793  0.1677812689699107  0.4005953304807923
  0.4603441564743452  0.2938291556700678  0.4033899333363604
  0.4672170819357243  0.4186687938126064  0.4088622776569782
  0.4532997985725116  0.6617271058003603  0.4052287428867670
  0.4571232451928300  0.7899691247385729  0.4013873570012840
  0.4579091142328993  0.9160184766732135  0.3997973428454891
  0.5828236354840473  0.0402908018971851  0.3995845434930962
  0.5834632977625582  0.1660983657408524  0.3995326288666675
  0.5845726945672211  0.2915844031846929  0.4005710037699843
  0.5878796982210264  0.4171351803112218  0.4024947894193731
  0.5909769459140068  0.5436042116196231  0.4044789044572448
  0.5835705734811250  0.6618227965940003  0.4047136606957176
  0.5808194079383897  0.7865089605461588  0.4029158050241076
  0.5822608811181202  0.9140547163606374  0.4005901702882457
  0.7073321508841927  0.0397853968185608  0.3997262779247749
  0.7078378437775397  0.1653708561838040  0.3993166791750603
  0.7086834625887706  0.2908863204740749  0.3991587532361897
  0.7106022107481151  0.4163942360193285  0.3996449540531885
  0.7123827826625361  0.5419167348452640  0.4008892096705944
  0.7113808297937201  0.6673861086190264  0.4018842259038393
  0.7080385310789233  0.7901614620063008  0.4017942994621564
  0.7067790027276850  0.9140869963378124  0.4006449247516526
  0.8322571158710648  0.0402109483781607  0.3996689384741998
  0.8323160280381334  0.1653294743298283  0.3993916850924455
  0.8327878058426406  0.2906535889076091  0.3990363208077226
  0.8339672681661002  0.4161915842401524  0.3987300036790647
  0.8353015911102335  0.5419215644617239  0.3990194975855100
  0.8355440021394162  0.6675091413198264  0.3997796366245788
  0.8346339794842024  0.7923156089966665  0.4002471378658799
  0.8330696635237148  0.9160120052509693  0.4000965964621964
  0.9581312488319577  0.0416339525392513  0.3997454744980535
  0.9572389607767500  0.1658247676147814  0.3996286011217468
  0.9570066168973339  0.2907885744798340  0.3992558216352536
  0.9574676397644565  0.4161564186421492  0.3987745457526968
  0.9586400174096227  0.5418277519040630  0.3985596785196342
  0.9595482672395558  0.6674978799202648  0.3988773428041331
  0.9596352071019811  0.7928715610341651  0.3993196835608963
  0.9591662389717087  0.9176248844414832  0.3995896751734948
  0.4079446128753194  0.5825889260453222  0.4075269671288161
  0.5501299961520195  0.5822116070507440  0.4056666866179249
  0.3259929846018025  0.4170759107688103  0.4046644752389539
  0.4364591108378719  0.4985141420818446  0.4911137613682597
 
  0.00000000E+00  0.00000000E+00  0.00000000E+00
  0.00000000E+00  0.00000000E+00  0.00000000E+00
  0.00000000E+00  0.00000000E+00  0.00000000E+00
  0.00000000E+00  0.00000000E+00  0.00000000E+00
  0.00000000E+00  0.00000000E+00  0.00000000E+00
  0.00000000E+00  0.00000000E+00  0.00000000E+00
  0.00000000E+00  0.00000000E+00  0.00000000E+00
  0.00000000E+00  0.00000000E+00  0.00000000E+00
  0.00000000E+00  0.00000000E+00  0.00000000E+00
  0.00000000E+00  0.00000000E+00  0.00000000E+00
  0.00000000E+00  0.00000000E+00  0.00000000E+00
  0.00000000E+00  0.00000000E+00  0.00000000E+00
  0.00000000E+00  0.00000000E+00  0.00000000E+00
  0.00000000E+00  0.00000000E+00  0.00000000E+00
  0.00000000E+00  0.00000000E+00  0.00000000E+00
  0.00000000E+00  0.00000000E+00  0.00000000E+00
  0.00000000E+00  0.00000000E+00  0.00000000E+00
  0.00000000E+00  0.00000000E+00  0.00000000E+00
  0.00000000E+00  0.00000000E+00  0.00000000E+00
  0.00000000E+00  0.00000000E+00  0.00000000E+00
  0.00000000E+00  0.00000000E+00  0.00000000E+00
  0.00000000E+00  0.00000000E+00  0.00000000E+00
  0.00000000E+00  0.00000000E+00  0.00000000E+00
  0.00000000E+00  0.00000000E+00  0.00000000E+00
  0.00000000E+00  0.00000000E+00  0.00000000E+00
  0.00000000E+00  0.00000000E+00  0.00000000E+00
  0.00000000E+00  0.00000000E+00  0.00000000E+00
  0.00000000E+00  0.00000000E+00  0.00000000E+00
  0.00000000E+00  0.00000000E+00  0.00000000E+00
  0.00000000E+00  0.00000000E+00  0.00000000E+00
  0.00000000E+00  0.00000000E+00  0.00000000E+00
  0.00000000E+00  0.00000000E+00  0.00000000E+00
  0.00000000E+00  0.00000000E+00  0.00000000E+00
  0.00000000E+00  0.00000000E+00  0.00000000E+00
  0.00000000E+00  0.00000000E+00  0.00000000E+00
  0.00000000E+00  0.00000000E+00  0.00000000E+00
  0.00000000E+00  0.00000000E+00  0.00000000E+00
  0.00000000E+00  0.00000000E+00  0.00000000E+00
  0.00000000E+00  0.00000000E+00  0.00000000E+00
  0.00000000E+00  0.00000000E+00  0.00000000E+00
  0.00000000E+00  0.00000000E+00  0.00000000E+00
  0.00000000E+00  0.00000000E+00  0.00000000E+00
  0.00000000E+00  0.00000000E+00  0.00000000E+00
  0.00000000E+00  0.00000000E+00  0.00000000E+00
  0.00000000E+00  0.00000000E+00  0.00000000E+00
  0.00000000E+00  0.00000000E+00  0.00000000E+00
  0.00000000E+00  0.00000000E+00  0.00000000E+00
  0.00000000E+00  0.00000000E+00  0.00000000E+00
  0.00000000E+00  0.00000000E+00  0.00000000E+00
  0.00000000E+00  0.00000000E+00  0.00000000E+00
  0.00000000E+00  0.00000000E+00  0.00000000E+00
  0.00000000E+00  0.00000000E+00  0.00000000E+00
  0.00000000E+00  0.00000000E+00  0.00000000E+00
  0.00000000E+00  0.00000000E+00  0.00000000E+00
  0.00000000E+00  0.00000000E+00  0.00000000E+00
  0.00000000E+00  0.00000000E+00  0.00000000E+00
  0.00000000E+00  0.00000000E+00  0.00000000E+00
  0.00000000E+00  0.00000000E+00  0.00000000E+00
  0.00000000E+00  0.00000000E+00  0.00000000E+00
  0.00000000E+00  0.00000000E+00  0.00000000E+00
  0.00000000E+00  0.00000000E+00  0.00000000E+00
  0.00000000E+00  0.00000000E+00  0.00000000E+00
  0.00000000E+00  0.00000000E+00  0.00000000E+00
  0.00000000E+00  0.00000000E+00  0.00000000E+00
  0.00000000E+00  0.00000000E+00  0.00000000E+00
  0.00000000E+00  0.00000000E+00  0.00000000E+00
  0.00000000E+00  0.00000000E+00  0.00000000E+00
  0.00000000E+00  0.00000000E+00  0.00000000E+00
  0.00000000E+00  0.00000000E+00  0.00000000E+00
  0.00000000E+00  0.00000000E+00  0.00000000E+00
  0.00000000E+00  0.00000000E+00  0.00000000E+00
  0.00000000E+00  0.00000000E+00  0.00000000E+00
  0.00000000E+00  0.00000000E+00  0.00000000E+00
  0.00000000E+00  0.00000000E+00  0.00000000E+00
  0.00000000E+00  0.00000000E+00  0.00000000E+00
  0.00000000E+00  0.00000000E+00  0.00000000E+00
  0.00000000E+00  0.00000000E+00  0.00000000E+00
  0.00000000E+00  0.00000000E+00  0.00000000E+00
  0.00000000E+00  0.00000000E+00  0.00000000E+00
  0.00000000E+00  0.00000000E+00  0.00000000E+00
  0.00000000E+00  0.00000000E+00  0.00000000E+00
  0.00000000E+00  0.00000000E+00  0.00000000E+00
  0.00000000E+00  0.00000000E+00  0.00000000E+00
  0.00000000E+00  0.00000000E+00  0.00000000E+00
  0.00000000E+00  0.00000000E+00  0.00000000E+00
  0.00000000E+00  0.00000000E+00  0.00000000E+00
  0.00000000E+00  0.00000000E+00  0.00000000E+00
  0.00000000E+00  0.00000000E+00  0.00000000E+00
  0.00000000E+00  0.00000000E+00  0.00000000E+00
  0.00000000E+00  0.00000000E+00  0.00000000E+00
  0.00000000E+00  0.00000000E+00  0.00000000E+00
  0.00000000E+00  0.00000000E+00  0.00000000E+00
  0.00000000E+00  0.00000000E+00  0.00000000E+00
  0.00000000E+00  0.00000000E+00  0.00000000E+00
  0.00000000E+00  0.00000000E+00  0.00000000E+00
  0.00000000E+00  0.00000000E+00  0.00000000E+00
  0.00000000E+00  0.00000000E+00  0.00000000E+00
  0.00000000E+00  0.00000000E+00  0.00000000E+00
  0.00000000E+00  0.00000000E+00  0.00000000E+00
  0.00000000E+00  0.00000000E+00  0.00000000E+00
  0.00000000E+00  0.00000000E+00  0.00000000E+00
  0.00000000E+00  0.00000000E+00  0.00000000E+00
  0.00000000E+00  0.00000000E+00  0.00000000E+00
  0.00000000E+00  0.00000000E+00  0.00000000E+00
  0.00000000E+00  0.00000000E+00  0.00000000E+00
  0.00000000E+00  0.00000000E+00  0.00000000E+00
  0.00000000E+00  0.00000000E+00  0.00000000E+00
  0.00000000E+00  0.00000000E+00  0.00000000E+00
  0.00000000E+00  0.00000000E+00  0.00000000E+00
  0.00000000E+00  0.00000000E+00  0.00000000E+00
  0.00000000E+00  0.00000000E+00  0.00000000E+00
  0.00000000E+00  0.00000000E+00  0.00000000E+00
  0.00000000E+00  0.00000000E+00  0.00000000E+00
  0.00000000E+00  0.00000000E+00  0.00000000E+00
  0.00000000E+00  0.00000000E+00  0.00000000E+00
  0.00000000E+00  0.00000000E+00  0.00000000E+00
  0.00000000E+00  0.00000000E+00  0.00000000E+00
  0.00000000E+00  0.00000000E+00  0.00000000E+00
  0.00000000E+00  0.00000000E+00  0.00000000E+00
  0.00000000E+00  0.00000000E+00  0.00000000E+00
  0.00000000E+00  0.00000000E+00  0.00000000E+00
  0.00000000E+00  0.00000000E+00  0.00000000E+00
  0.00000000E+00  0.00000000E+00  0.00000000E+00
  0.00000000E+00  0.00000000E+00  0.00000000E+00
  0.00000000E+00  0.00000000E+00  0.00000000E+00
  0.00000000E+00  0.00000000E+00  0.00000000E+00
  0.00000000E+00  0.00000000E+00  0.00000000E+00
  0.00000000E+00  0.00000000E+00  0.00000000E+00
  0.00000000E+00  0.00000000E+00  0.00000000E+00
