Zr1 H1 C122 N4 O1                       
   1.00000000000000     
    19.7936004086050232   -0.0008474939433320   -0.0046922864892659
    -9.8976099575372878   17.0447371662381464   -0.1286153090983878
    -0.0070699044842307   -0.2288331278863797   29.8279510902487779
   Zr   H    C    N    O 
     1     1   122     4     1
Direct
  0.4460679819722800  0.5030358734031977  0.4349761941846734
  0.4797423731122297  0.5447147147242469  0.5279563240686624
  0.0421404268427844  0.0842800819522949  0.3995593856011515
  0.0414074554539130  0.2085134406593565  0.3995683444725245
  0.0406629849163786  0.3332739831172856  0.3992697315160505
  0.0406457795718167  0.4583258035939490  0.3989864784313047
  0.0413100197016534  0.5836757174632128  0.3994859019619953
  0.0419483866456003  0.7090139291825910  0.3999096464463117
  0.0421369621332867  0.8341525014172989  0.3998826430729893
  0.0423497514829035  0.9594476481757119  0.3996764391418754
  0.1678221464935084  0.0853007203704062  0.3997525879274251
  0.1677832110510505  0.2103629393032502  0.3999968244462689
  0.1655656488692587  0.3340069263634849  0.4006330067327759
  0.1647052053636558  0.4585685847618860  0.3992534802993585
  0.1653740645863256  0.5836689029732373  0.3988472616637483
  0.1663315243539948  0.7087941008513167  0.3994796015593670
  0.1668976406156665  0.8340977142567663  0.3998286299292931
  0.1672280284355584  0.9595848679268231  0.3997528348230926
  0.2923548093482783  0.0851685812730758  0.3996193717206687
  0.2935341494211727  0.2123114652610063  0.4005674048960732
  0.2927155879050185  0.3384160177357454  0.4037862534186451
  0.2884783285741344  0.4585068232992097  0.4036838164388228
  0.2890658857460062  0.5830329118998062  0.4002555009198883
  0.2908087961391321  0.7081940753249216  0.3993470392348170
  0.2916327292203688  0.8337011453570108  0.3995409831100167
  0.2919404819781378  0.9592424852108900  0.3996798991315906
  0.4169777687297087  0.0839051502904357  0.3995550665702949
  0.4173456604203316  0.2096962312626098  0.3993594098171447
  0.4199877635208211  0.3367373961915749  0.4004796687415635
  0.4152485034911224  0.7064019968538466  0.4000953437422365
  0.4162144218938568  0.8323874800170989  0.3993005527097052
  0.4166403394398439  0.9581307920602947  0.3996058570642564
  0.5415589491695357  0.0827888503984665  0.3996955740228290
  0.5420415782861546  0.2082628128324071  0.3995498337531538
  0.5433297172747468  0.3338054297385076  0.3996738869293608
  0.5443678290562577  0.4581028245729101  0.3997458539656241
  0.5389420027961282  0.7031958534415998  0.4003727366341432
  0.5407789030870646  0.8309687126805708  0.3995599870728065
  0.5413220897034190  0.9571284607861141  0.3996211412389075
  0.6662842995963573  0.0823900574028912  0.3998205297542975
  0.6667475455499690  0.2077925244963932  0.3997698658765911
  0.6674943454946622  0.3331846906904723  0.3999411334195647
  0.6687201320450448  0.4584512205908093  0.4003000292455580
  0.6690614745728017  0.5832083898876285  0.3996010290578171
  0.6664833506934201  0.7070462937416651  0.3981918338919947
  0.6651692978003471  0.8311424437545692  0.3991355389423895
  0.6659410354820519  0.9569581562546644  0.3996480446287475
  0.7911540567271197  0.0824987948528367  0.3997701156157139
  0.7913142527334663  0.2077153685127860  0.3998354730064394
  0.7917919772116208  0.3329744730272701  0.3998678983691871
  0.7926176512665144  0.4583681303435805  0.4000898877388337
  0.7931631062578599  0.5837086973414208  0.4001004025245780
  0.7923862272280298  0.7083109662383079  0.3993843746048801
  0.7913576330804920  0.8327913470545689  0.3992136784641782
  0.7908731341083680  0.9573255995779910  0.3995419760110711
  0.9163471881154284  0.0830501277887987  0.3996710439160538
  0.9160598242605090  0.2078922990319536  0.3996127330710130
  0.9161610202401510  0.3330152058889563  0.3995145257521042
  0.9166264241789185  0.4583707277720604  0.3997378105977313
  0.9172169768729556  0.5836780169145415  0.4000004617699821
  0.9174211202112008  0.7089058809970363  0.3999221666092153
  0.9170394268346933  0.8338401832407530  0.3996524695036641
  0.9167239708580307  0.9584618604212076  0.3996606044720366
  0.0843141428579016  0.0430812711648116  0.3996130673059010
  0.0840294337683670  0.1678720250637193  0.3995706994870312
  0.0827529024154341  0.2919946681228414  0.3996757456945835
  0.0818109039231059  0.4164635465533317  0.3989293673364303
  0.0823681053276122  0.5417787691395852  0.3990010220832549
  0.0831941078807468  0.6671156504074516  0.3996436072531822
  0.0836559453712977  0.7924412678424805  0.3999271412767079
  0.0839767661056619  0.9177888810559859  0.3997745009542547
  0.2090807251210020  0.0432527264060567  0.3997114712211829
  0.2099865882156383  0.1693085983301686  0.4001474102705011
  0.2091419444474110  0.2940098107809658  0.4011330696025300
  0.2061978817652863  0.4172329319576042  0.4007906706797390
  0.2061965369171618  0.5415849231639810  0.3991201477937615
  0.2074342142582467  0.6668742463534691  0.3991739665381804
  0.2082132898224849  0.7922688864610170  0.3996557007694025
  0.2087179119841062  0.9176780570155548  0.3997777808244627
  0.3336358614280295  0.0428809291751188  0.3995846252298613
  0.3341511695694904  0.1691046367923880  0.3997392017668692
  0.3359685125870591  0.2972126954003049  0.4020166568009763
  0.3301472176578173  0.5419320699567428  0.4031018692609882
  0.3316420165438641  0.6662470978883637  0.3999177144816596
  0.3329450551156334  0.7916819106015400  0.3993702057686302
  0.3333734870633223  0.9171502869162974  0.3996224937627272
  0.4583631573053463  0.0417484530429032  0.3996566015617935
  0.4586786227246774  0.1673736526113588  0.3994316415204303
  0.4595479035924886  0.2930903958589151  0.3992545075849598
  0.4545728101773197  0.6622829936852855  0.4022318392125138
  0.4575238352283733  0.7899694829505209  0.3993428609351219
  0.4579466425648167  0.9159556582426371  0.3994933156188847
  0.5830111259493034  0.0407449101389302  0.3997419917329215
  0.5833197558417000  0.1663149464167060  0.3996662211452603
  0.5841911893710759  0.2918012926141743  0.3997156509113132
  0.5859944791052065  0.4169104762401757  0.4001746691221085
  0.5862263594120920  0.5419120206217525  0.3990170820401976
  0.5833581514438156  0.6635604314909240  0.3987328380929328
  0.5813847279658543  0.7880289419975814  0.3995727400426838
  0.5826441826109576  0.9149523445208594  0.3996146822387160
  0.7077699331706224  0.0406078383835470  0.3997745201819453
  0.7081055006850446  0.1660116689939763  0.3998402591325314
  0.7086410863629365  0.2912319913282537  0.3998579165788645
  0.7095855293361425  0.4164317494233206  0.4001478068219802
  0.7103064847009215  0.5416917289688198  0.4001946955455983
  0.7095500832133333  0.6663039528836795  0.3988975860375772
  0.7077217284133709  0.7905084259765813  0.3987588851095623
  0.7073284325325382  0.9150674132275024  0.3994316313889625
  0.8328400901337548  0.0409636451646714  0.3997017525127949
  0.8329277721348494  0.1660670091723311  0.3997659360169893
  0.8330562854122051  0.2911306845786891  0.3997661183354626
  0.8336565438519055  0.4164704945024512  0.3999313325069498
  0.8343269978675225  0.5417929566169937  0.4001135513263129
  0.8343486800736533  0.6669562358157954  0.3998549933959611
  0.8338305133791669  0.7918877618849296  0.3993731043996281
  0.8331744615104723  0.9162854793349080  0.3995243393292318
  0.9586540399557411  0.0420945659709260  0.3996485144778279
  0.9580701676302240  0.1664845695656480  0.3995778020052400
  0.9576624268911451  0.2913569055987473  0.3994094054182626
  0.9577337719423340  0.4164584866386969  0.3994012113117141
  0.9583341115632964  0.5417771559851619  0.3997855238197714
  0.9588690653514402  0.6671662210660785  0.3999847166344764
  0.9590167373947955  0.7923592506357031  0.3998187894764967
  0.9588615169905055  0.9173995789383403  0.3996671400815264
  0.4111148070846802  0.5817072037211877  0.4066568346819078
  0.5458426525318154  0.5829684103244062  0.3992248481033039
  0.3299443306429643  0.4192539138349984  0.4081138205238286
  0.4631078515391256  0.4172294325280104  0.4013869557499887
  0.4600213760406400  0.5172829791455960  0.4997021069175741
 
  0.00000000E+00  0.00000000E+00  0.00000000E+00
  0.00000000E+00  0.00000000E+00  0.00000000E+00
  0.00000000E+00  0.00000000E+00  0.00000000E+00
  0.00000000E+00  0.00000000E+00  0.00000000E+00
  0.00000000E+00  0.00000000E+00  0.00000000E+00
  0.00000000E+00  0.00000000E+00  0.00000000E+00
  0.00000000E+00  0.00000000E+00  0.00000000E+00
  0.00000000E+00  0.00000000E+00  0.00000000E+00
  0.00000000E+00  0.00000000E+00  0.00000000E+00
  0.00000000E+00  0.00000000E+00  0.00000000E+00
  0.00000000E+00  0.00000000E+00  0.00000000E+00
  0.00000000E+00  0.00000000E+00  0.00000000E+00
  0.00000000E+00  0.00000000E+00  0.00000000E+00
  0.00000000E+00  0.00000000E+00  0.00000000E+00
  0.00000000E+00  0.00000000E+00  0.00000000E+00
  0.00000000E+00  0.00000000E+00  0.00000000E+00
  0.00000000E+00  0.00000000E+00  0.00000000E+00
  0.00000000E+00  0.00000000E+00  0.00000000E+00
  0.00000000E+00  0.00000000E+00  0.00000000E+00
  0.00000000E+00  0.00000000E+00  0.00000000E+00
  0.00000000E+00  0.00000000E+00  0.00000000E+00
  0.00000000E+00  0.00000000E+00  0.00000000E+00
  0.00000000E+00  0.00000000E+00  0.00000000E+00
  0.00000000E+00  0.00000000E+00  0.00000000E+00
  0.00000000E+00  0.00000000E+00  0.00000000E+00
  0.00000000E+00  0.00000000E+00  0.00000000E+00
  0.00000000E+00  0.00000000E+00  0.00000000E+00
  0.00000000E+00  0.00000000E+00  0.00000000E+00
  0.00000000E+00  0.00000000E+00  0.00000000E+00
  0.00000000E+00  0.00000000E+00  0.00000000E+00
  0.00000000E+00  0.00000000E+00  0.00000000E+00
  0.00000000E+00  0.00000000E+00  0.00000000E+00
  0.00000000E+00  0.00000000E+00  0.00000000E+00
  0.00000000E+00  0.00000000E+00  0.00000000E+00
  0.00000000E+00  0.00000000E+00  0.00000000E+00
  0.00000000E+00  0.00000000E+00  0.00000000E+00
  0.00000000E+00  0.00000000E+00  0.00000000E+00
  0.00000000E+00  0.00000000E+00  0.00000000E+00
  0.00000000E+00  0.00000000E+00  0.00000000E+00
  0.00000000E+00  0.00000000E+00  0.00000000E+00
  0.00000000E+00  0.00000000E+00  0.00000000E+00
  0.00000000E+00  0.00000000E+00  0.00000000E+00
  0.00000000E+00  0.00000000E+00  0.00000000E+00
  0.00000000E+00  0.00000000E+00  0.00000000E+00
  0.00000000E+00  0.00000000E+00  0.00000000E+00
  0.00000000E+00  0.00000000E+00  0.00000000E+00
  0.00000000E+00  0.00000000E+00  0.00000000E+00
  0.00000000E+00  0.00000000E+00  0.00000000E+00
  0.00000000E+00  0.00000000E+00  0.00000000E+00
  0.00000000E+00  0.00000000E+00  0.00000000E+00
  0.00000000E+00  0.00000000E+00  0.00000000E+00
  0.00000000E+00  0.00000000E+00  0.00000000E+00
  0.00000000E+00  0.00000000E+00  0.00000000E+00
  0.00000000E+00  0.00000000E+00  0.00000000E+00
  0.00000000E+00  0.00000000E+00  0.00000000E+00
  0.00000000E+00  0.00000000E+00  0.00000000E+00
  0.00000000E+00  0.00000000E+00  0.00000000E+00
  0.00000000E+00  0.00000000E+00  0.00000000E+00
  0.00000000E+00  0.00000000E+00  0.00000000E+00
  0.00000000E+00  0.00000000E+00  0.00000000E+00
  0.00000000E+00  0.00000000E+00  0.00000000E+00
  0.00000000E+00  0.00000000E+00  0.00000000E+00
  0.00000000E+00  0.00000000E+00  0.00000000E+00
  0.00000000E+00  0.00000000E+00  0.00000000E+00
  0.00000000E+00  0.00000000E+00  0.00000000E+00
  0.00000000E+00  0.00000000E+00  0.00000000E+00
  0.00000000E+00  0.00000000E+00  0.00000000E+00
  0.00000000E+00  0.00000000E+00  0.00000000E+00
  0.00000000E+00  0.00000000E+00  0.00000000E+00
  0.00000000E+00  0.00000000E+00  0.00000000E+00
  0.00000000E+00  0.00000000E+00  0.00000000E+00
  0.00000000E+00  0.00000000E+00  0.00000000E+00
  0.00000000E+00  0.00000000E+00  0.00000000E+00
  0.00000000E+00  0.00000000E+00  0.00000000E+00
  0.00000000E+00  0.00000000E+00  0.00000000E+00
  0.00000000E+00  0.00000000E+00  0.00000000E+00
  0.00000000E+00  0.00000000E+00  0.00000000E+00
  0.00000000E+00  0.00000000E+00  0.00000000E+00
  0.00000000E+00  0.00000000E+00  0.00000000E+00
  0.00000000E+00  0.00000000E+00  0.00000000E+00
  0.00000000E+00  0.00000000E+00  0.00000000E+00
  0.00000000E+00  0.00000000E+00  0.00000000E+00
  0.00000000E+00  0.00000000E+00  0.00000000E+00
  0.00000000E+00  0.00000000E+00  0.00000000E+00
  0.00000000E+00  0.00000000E+00  0.00000000E+00
  0.00000000E+00  0.00000000E+00  0.00000000E+00
  0.00000000E+00  0.00000000E+00  0.00000000E+00
  0.00000000E+00  0.00000000E+00  0.00000000E+00
  0.00000000E+00  0.00000000E+00  0.00000000E+00
  0.00000000E+00  0.00000000E+00  0.00000000E+00
  0.00000000E+00  0.00000000E+00  0.00000000E+00
  0.00000000E+00  0.00000000E+00  0.00000000E+00
  0.00000000E+00  0.00000000E+00  0.00000000E+00
  0.00000000E+00  0.00000000E+00  0.00000000E+00
  0.00000000E+00  0.00000000E+00  0.00000000E+00
  0.00000000E+00  0.00000000E+00  0.00000000E+00
  0.00000000E+00  0.00000000E+00  0.00000000E+00
  0.00000000E+00  0.00000000E+00  0.00000000E+00
  0.00000000E+00  0.00000000E+00  0.00000000E+00
  0.00000000E+00  0.00000000E+00  0.00000000E+00
  0.00000000E+00  0.00000000E+00  0.00000000E+00
  0.00000000E+00  0.00000000E+00  0.00000000E+00
  0.00000000E+00  0.00000000E+00  0.00000000E+00
  0.00000000E+00  0.00000000E+00  0.00000000E+00
  0.00000000E+00  0.00000000E+00  0.00000000E+00
  0.00000000E+00  0.00000000E+00  0.00000000E+00
  0.00000000E+00  0.00000000E+00  0.00000000E+00
  0.00000000E+00  0.00000000E+00  0.00000000E+00
  0.00000000E+00  0.00000000E+00  0.00000000E+00
  0.00000000E+00  0.00000000E+00  0.00000000E+00
  0.00000000E+00  0.00000000E+00  0.00000000E+00
  0.00000000E+00  0.00000000E+00  0.00000000E+00
  0.00000000E+00  0.00000000E+00  0.00000000E+00
  0.00000000E+00  0.00000000E+00  0.00000000E+00
  0.00000000E+00  0.00000000E+00  0.00000000E+00
  0.00000000E+00  0.00000000E+00  0.00000000E+00
  0.00000000E+00  0.00000000E+00  0.00000000E+00
  0.00000000E+00  0.00000000E+00  0.00000000E+00
  0.00000000E+00  0.00000000E+00  0.00000000E+00
  0.00000000E+00  0.00000000E+00  0.00000000E+00
  0.00000000E+00  0.00000000E+00  0.00000000E+00
  0.00000000E+00  0.00000000E+00  0.00000000E+00
  0.00000000E+00  0.00000000E+00  0.00000000E+00
  0.00000000E+00  0.00000000E+00  0.00000000E+00
  0.00000000E+00  0.00000000E+00  0.00000000E+00
  0.00000000E+00  0.00000000E+00  0.00000000E+00
  0.00000000E+00  0.00000000E+00  0.00000000E+00
  0.00000000E+00  0.00000000E+00  0.00000000E+00
  0.00000000E+00  0.00000000E+00  0.00000000E+00
