H1 W1 C125 N1                           
   1.00000000000000     
    19.7912316807007151   -0.0100831262373071    0.1186381659170770
    -9.9039194386716822   17.0622631073126776   -0.2303299341439453
     0.1781438885641150   -0.2983449917193715   29.8112505744876550
   H    W    C    N 
     1     1   125     1
Direct
  0.4538656502765591  0.4895709491874954  0.4867649423267200
  0.4432833565091808  0.5016018248548602  0.4298577146115813
  0.0420545041371198  0.0843271282660337  0.3996149929305197
  0.0416718677172075  0.2088792543582693  0.3998195867182257
  0.0411000524571888  0.3334307953732327  0.4002285464976760
  0.0409300155304111  0.4584949569431371  0.3997990872876916
  0.0413602137000591  0.5837844225871736  0.3993489752232068
  0.0418344302516360  0.7090792347754087  0.3993348461665158
  0.0420085589966089  0.8342496816227158  0.3993790774709403
  0.0420642324776692  0.9593414042767073  0.3994379269462652
  0.1673199162648901  0.0849253061206618  0.3994492750649544
  0.1676745156807946  0.2103422846510835  0.3998469085612029
  0.1666066075023157  0.3345192778401415  0.4016809573508096
  0.1651435761659641  0.4589170701761343  0.4024290776124680
  0.1655305653186754  0.5838628830716128  0.4006571405055352
  0.1663071298342330  0.7090250149543378  0.3996615656795429
  0.1668032776879497  0.8343032847628011  0.3994447074894171
  0.1671165740821711  0.9595971481755886  0.3993967443939682
  0.2921604639182194  0.0847169531806336  0.3993145645187623
  0.2926847705969847  0.2106123428461029  0.3995365446882096
  0.2939175916852966  0.3375599496211261  0.4015475354927538
  0.2897961521546252  0.4600066466886980  0.4047486170454565
  0.2894435174424960  0.5844716851275159  0.4030269803148543
  0.2908038381606618  0.7090141016919219  0.4003490400050589
  0.2915099483058990  0.8340059559569909  0.3994857323522011
  0.2918671039748131  0.9592540033976984  0.3993805474042604
  0.4168864153862348  0.0838133318701089  0.3995757897163855
  0.4172119073358088  0.2092736596486079  0.3995483529527113
  0.4177974952787051  0.3350758832578966  0.4003646315408442
  0.4150711828839347  0.7069600828026446  0.4005666660947847
  0.4161027788091190  0.8328127065812305  0.3995397881451657
  0.4165558619939170  0.9583833206292914  0.3995280872883190
  0.5415420621686384  0.0829001566827403  0.3997103686743928
  0.5419438705212150  0.2082219799081164  0.4000363301531423
  0.5426499594011803  0.3333346966682966  0.4019557450665358
  0.5448326593315734  0.4580664863545994  0.4034409907503719
  0.5436348306574463  0.5809219376186107  0.3998300384066491
  0.5386913289499244  0.7045623637185677  0.3996196881770993
  0.5405514577693318  0.8316767440925474  0.3994496915856485
  0.5411806211116538  0.9574421568528223  0.3995360163951955
  0.6662735854755125  0.0825254258424636  0.3996272378228304
  0.6665998255366323  0.2077850053544063  0.3997558176031523
  0.6671794960736228  0.3330522765778319  0.4007246960568336
  0.6686034689813960  0.4584357270247867  0.4028655300252103
  0.6694177769268738  0.5837269354295855  0.4022502163138496
  0.6658712614154083  0.7068572615992327  0.3988108455834817
  0.6649490990790615  0.8313337023157363  0.3989040104968942
  0.6658242386942935  0.9571270225095004  0.3994087374195881
  0.7911042259613704  0.0825353431873277  0.3995044208320864
  0.7913402555215451  0.2077176521645347  0.3994891131470006
  0.7917535918436938  0.3329817218204689  0.3995198278767425
  0.7924564241641925  0.4583787048711459  0.4000913570772421
  0.7930654705811547  0.5837313510071256  0.4007161429083104
  0.7922922800181369  0.7086608645757390  0.3999024259408835
  0.7911142096871905  0.8327389187458383  0.3991764714165964
  0.7907546986767348  0.9573213036634586  0.3993129692647499
  0.9163436640255314  0.0831523312592841  0.3995544743649403
  0.9162267447973979  0.2079581424581218  0.3995329266897680
  0.9163225376689806  0.3330793725450637  0.3993501102636342
  0.9166460999323728  0.4583744030727999  0.3991985401251955
  0.9171882091141266  0.5837710640472331  0.3993957311434421
  0.9171819902163295  0.7089900767513475  0.3995529098906202
  0.9169405244822503  0.8339042803446537  0.3994037773748959
  0.9165336083618918  0.9585329641970807  0.3994732516775455
  0.0838962854025999  0.0429091319030760  0.3995206484651990
  0.0840107237355210  0.1679455420150038  0.3997417900285164
  0.0831382492470009  0.2922307979067991  0.4004869595590499
  0.0822860864785426  0.4168897471065938  0.4006832568477732
  0.0825410620685526  0.5420117697659136  0.3998377654262839
  0.0831171794167591  0.6672661652157892  0.3994174091373422
  0.0835655741788841  0.7925632464043153  0.3994079358894191
  0.0837412850613891  0.9177259044938278  0.3993917855487534
  0.2088440337314419  0.0430500703220630  0.3993700831761688
  0.2091713291217959  0.1684869915776479  0.3995825428504275
  0.2096920001921922  0.2941925805139418  0.4007605825988145
  0.2068548114872567  0.4177967904336758  0.4034714441868205
  0.2064327444245080  0.5421465476553351  0.4022669589537267
  0.2075438267086445  0.6673038667118276  0.4002011071719964
  0.2082260322291813  0.7925329039999582  0.3995177138456765
  0.2086085868062794  0.9177740361667110  0.3993922557055146
  0.3335837605008566  0.0427069980195001  0.3993859240546522
  0.3339352388973937  0.1682243711577930  0.3993202132428965
  0.3347119756514501  0.2943072191184201  0.4002170248230019
  0.3338171524327972  0.4212479940984184  0.4050910511023089
  0.3306171534672263  0.5439223287979358  0.4044907207777844
  0.3319376854408405  0.6673944528135070  0.4013930212673401
  0.3329039119449100  0.7921661077582880  0.3996721192371403
  0.3333277792801638  0.9173405336484571  0.3994294281406172
  0.4583161987443907  0.0417925981682795  0.3996337787791842
  0.4586673157494872  0.1671918618216756  0.3997438708504710
  0.4591899860923490  0.2927841861748945  0.4002084985518394
  0.4617534037554541  0.4182928647157605  0.4041612828715694
  0.4549718521956236  0.6631487784810564  0.4014050057831574
  0.4574063141056592  0.7905330196611723  0.3995921277689726
  0.4579297756669835  0.9162833239425987  0.3995103092149918
  0.5830087439501535  0.0409684504417920  0.3996354234859657
  0.5833300369752762  0.1663291258202834  0.3998111264586539
  0.5838990973233050  0.2915216454645889  0.4009539544648299
  0.5856482996201620  0.4165065216152959  0.4038807563353222
  0.5869699406815561  0.5418896928865988  0.4016168115622086
  0.5815862623118152  0.6635748777801083  0.3985436853499869
  0.5811114222143801  0.7888142079754196  0.3992451240014038
  0.5825280860936415  0.9153713003992687  0.3994506902668676
  0.7077397381043461  0.0406772315444192  0.3995334476002912
  0.7080707449235790  0.1660387719010737  0.3996041714664735
  0.7084823428486959  0.2912695664511354  0.3999149353419117
  0.7094487248023296  0.4165587247899860  0.4011392033670306
  0.7104104564428774  0.5419128963690382  0.4024323694094235
  0.7090504879940147  0.6666402489367603  0.4002475985243254
  0.7073767591672064  0.7903424708486412  0.3988176398331192
  0.7070799996238381  0.9150488237323509  0.3991877454416204
  0.8327748294466442  0.0409450440680764  0.3994576019650474
  0.8328630152409321  0.1660220898561433  0.3995087441217485
  0.8331271959324141  0.2912105179340062  0.3993307552934977
  0.8335816047408457  0.4165053371273574  0.3994783622748577
  0.8342092101680917  0.5419051744313512  0.3999782476920434
  0.8340948307134156  0.6671851527833519  0.4000437084381734
  0.8335234396252948  0.7918443617679666  0.3993831638240994
  0.8329205631096881  0.9162500741051377  0.3993263285100118
  0.9584238415968638  0.0420365263896359  0.3995936543749882
  0.9581580448461906  0.1666642460849749  0.3996024717075816
  0.9578981558441935  0.2914701233775883  0.3996106725308247
  0.9578788850045513  0.4165746536646208  0.3992915564083008
  0.9583376323903271  0.5419025225533464  0.3991997495852073
  0.9587119483632905  0.6672855445030050  0.3993990679743668
  0.9587531996533278  0.7924705411959035  0.3994205078085217
  0.9586124274000727  0.9173468323899961  0.3994350822182252
  0.4111905689665502  0.5818560516816279  0.4049826655841071
 
  0.00000000E+00  0.00000000E+00  0.00000000E+00
  0.00000000E+00  0.00000000E+00  0.00000000E+00
  0.00000000E+00  0.00000000E+00  0.00000000E+00
  0.00000000E+00  0.00000000E+00  0.00000000E+00
  0.00000000E+00  0.00000000E+00  0.00000000E+00
  0.00000000E+00  0.00000000E+00  0.00000000E+00
  0.00000000E+00  0.00000000E+00  0.00000000E+00
  0.00000000E+00  0.00000000E+00  0.00000000E+00
  0.00000000E+00  0.00000000E+00  0.00000000E+00
  0.00000000E+00  0.00000000E+00  0.00000000E+00
  0.00000000E+00  0.00000000E+00  0.00000000E+00
  0.00000000E+00  0.00000000E+00  0.00000000E+00
  0.00000000E+00  0.00000000E+00  0.00000000E+00
  0.00000000E+00  0.00000000E+00  0.00000000E+00
  0.00000000E+00  0.00000000E+00  0.00000000E+00
  0.00000000E+00  0.00000000E+00  0.00000000E+00
  0.00000000E+00  0.00000000E+00  0.00000000E+00
  0.00000000E+00  0.00000000E+00  0.00000000E+00
  0.00000000E+00  0.00000000E+00  0.00000000E+00
  0.00000000E+00  0.00000000E+00  0.00000000E+00
  0.00000000E+00  0.00000000E+00  0.00000000E+00
  0.00000000E+00  0.00000000E+00  0.00000000E+00
  0.00000000E+00  0.00000000E+00  0.00000000E+00
  0.00000000E+00  0.00000000E+00  0.00000000E+00
  0.00000000E+00  0.00000000E+00  0.00000000E+00
  0.00000000E+00  0.00000000E+00  0.00000000E+00
  0.00000000E+00  0.00000000E+00  0.00000000E+00
  0.00000000E+00  0.00000000E+00  0.00000000E+00
  0.00000000E+00  0.00000000E+00  0.00000000E+00
  0.00000000E+00  0.00000000E+00  0.00000000E+00
  0.00000000E+00  0.00000000E+00  0.00000000E+00
  0.00000000E+00  0.00000000E+00  0.00000000E+00
  0.00000000E+00  0.00000000E+00  0.00000000E+00
  0.00000000E+00  0.00000000E+00  0.00000000E+00
  0.00000000E+00  0.00000000E+00  0.00000000E+00
  0.00000000E+00  0.00000000E+00  0.00000000E+00
  0.00000000E+00  0.00000000E+00  0.00000000E+00
  0.00000000E+00  0.00000000E+00  0.00000000E+00
  0.00000000E+00  0.00000000E+00  0.00000000E+00
  0.00000000E+00  0.00000000E+00  0.00000000E+00
  0.00000000E+00  0.00000000E+00  0.00000000E+00
  0.00000000E+00  0.00000000E+00  0.00000000E+00
  0.00000000E+00  0.00000000E+00  0.00000000E+00
  0.00000000E+00  0.00000000E+00  0.00000000E+00
  0.00000000E+00  0.00000000E+00  0.00000000E+00
  0.00000000E+00  0.00000000E+00  0.00000000E+00
  0.00000000E+00  0.00000000E+00  0.00000000E+00
  0.00000000E+00  0.00000000E+00  0.00000000E+00
  0.00000000E+00  0.00000000E+00  0.00000000E+00
  0.00000000E+00  0.00000000E+00  0.00000000E+00
  0.00000000E+00  0.00000000E+00  0.00000000E+00
  0.00000000E+00  0.00000000E+00  0.00000000E+00
  0.00000000E+00  0.00000000E+00  0.00000000E+00
  0.00000000E+00  0.00000000E+00  0.00000000E+00
  0.00000000E+00  0.00000000E+00  0.00000000E+00
  0.00000000E+00  0.00000000E+00  0.00000000E+00
  0.00000000E+00  0.00000000E+00  0.00000000E+00
  0.00000000E+00  0.00000000E+00  0.00000000E+00
  0.00000000E+00  0.00000000E+00  0.00000000E+00
  0.00000000E+00  0.00000000E+00  0.00000000E+00
  0.00000000E+00  0.00000000E+00  0.00000000E+00
  0.00000000E+00  0.00000000E+00  0.00000000E+00
  0.00000000E+00  0.00000000E+00  0.00000000E+00
  0.00000000E+00  0.00000000E+00  0.00000000E+00
  0.00000000E+00  0.00000000E+00  0.00000000E+00
  0.00000000E+00  0.00000000E+00  0.00000000E+00
  0.00000000E+00  0.00000000E+00  0.00000000E+00
  0.00000000E+00  0.00000000E+00  0.00000000E+00
  0.00000000E+00  0.00000000E+00  0.00000000E+00
  0.00000000E+00  0.00000000E+00  0.00000000E+00
  0.00000000E+00  0.00000000E+00  0.00000000E+00
  0.00000000E+00  0.00000000E+00  0.00000000E+00
  0.00000000E+00  0.00000000E+00  0.00000000E+00
  0.00000000E+00  0.00000000E+00  0.00000000E+00
  0.00000000E+00  0.00000000E+00  0.00000000E+00
  0.00000000E+00  0.00000000E+00  0.00000000E+00
  0.00000000E+00  0.00000000E+00  0.00000000E+00
  0.00000000E+00  0.00000000E+00  0.00000000E+00
  0.00000000E+00  0.00000000E+00  0.00000000E+00
  0.00000000E+00  0.00000000E+00  0.00000000E+00
  0.00000000E+00  0.00000000E+00  0.00000000E+00
  0.00000000E+00  0.00000000E+00  0.00000000E+00
  0.00000000E+00  0.00000000E+00  0.00000000E+00
  0.00000000E+00  0.00000000E+00  0.00000000E+00
  0.00000000E+00  0.00000000E+00  0.00000000E+00
  0.00000000E+00  0.00000000E+00  0.00000000E+00
  0.00000000E+00  0.00000000E+00  0.00000000E+00
  0.00000000E+00  0.00000000E+00  0.00000000E+00
  0.00000000E+00  0.00000000E+00  0.00000000E+00
  0.00000000E+00  0.00000000E+00  0.00000000E+00
  0.00000000E+00  0.00000000E+00  0.00000000E+00
  0.00000000E+00  0.00000000E+00  0.00000000E+00
  0.00000000E+00  0.00000000E+00  0.00000000E+00
  0.00000000E+00  0.00000000E+00  0.00000000E+00
  0.00000000E+00  0.00000000E+00  0.00000000E+00
  0.00000000E+00  0.00000000E+00  0.00000000E+00
  0.00000000E+00  0.00000000E+00  0.00000000E+00
  0.00000000E+00  0.00000000E+00  0.00000000E+00
  0.00000000E+00  0.00000000E+00  0.00000000E+00
  0.00000000E+00  0.00000000E+00  0.00000000E+00
  0.00000000E+00  0.00000000E+00  0.00000000E+00
  0.00000000E+00  0.00000000E+00  0.00000000E+00
  0.00000000E+00  0.00000000E+00  0.00000000E+00
  0.00000000E+00  0.00000000E+00  0.00000000E+00
  0.00000000E+00  0.00000000E+00  0.00000000E+00
  0.00000000E+00  0.00000000E+00  0.00000000E+00
  0.00000000E+00  0.00000000E+00  0.00000000E+00
  0.00000000E+00  0.00000000E+00  0.00000000E+00
  0.00000000E+00  0.00000000E+00  0.00000000E+00
  0.00000000E+00  0.00000000E+00  0.00000000E+00
  0.00000000E+00  0.00000000E+00  0.00000000E+00
  0.00000000E+00  0.00000000E+00  0.00000000E+00
  0.00000000E+00  0.00000000E+00  0.00000000E+00
  0.00000000E+00  0.00000000E+00  0.00000000E+00
  0.00000000E+00  0.00000000E+00  0.00000000E+00
  0.00000000E+00  0.00000000E+00  0.00000000E+00
  0.00000000E+00  0.00000000E+00  0.00000000E+00
  0.00000000E+00  0.00000000E+00  0.00000000E+00
  0.00000000E+00  0.00000000E+00  0.00000000E+00
  0.00000000E+00  0.00000000E+00  0.00000000E+00
  0.00000000E+00  0.00000000E+00  0.00000000E+00
  0.00000000E+00  0.00000000E+00  0.00000000E+00
  0.00000000E+00  0.00000000E+00  0.00000000E+00
  0.00000000E+00  0.00000000E+00  0.00000000E+00
  0.00000000E+00  0.00000000E+00  0.00000000E+00
  0.00000000E+00  0.00000000E+00  0.00000000E+00
  0.00000000E+00  0.00000000E+00  0.00000000E+00
  0.00000000E+00  0.00000000E+00  0.00000000E+00
