Cu1 H1 C123 N3                          
   1.00000000000000     
    19.8133729609069462    0.0066757591227695    0.2758003671348489
    -9.9001914530696506   17.0280477536650707   -0.4158347096372124
     0.4152479368043677   -0.4865425290932779   29.8327706187975927
   Cu   H    C    N 
     1     1   123     3
Direct
  0.4379032415078938  0.5018309299432959  0.4033263787287165
  0.4468216559677137  0.4403892807980510  0.4507081589181786
  0.0418255849096854  0.0845275243496198  0.4004585804110390
  0.0409796562757015  0.2086410226805131  0.4000400066709022
  0.0403327404757556  0.3333381693882647  0.3992406088509411
  0.0404681866361148  0.4585865109450463  0.3990450385531920
  0.0413030756804876  0.5841531735059851  0.3990724048873165
  0.0420789504954194  0.7096036713937283  0.3990721105125068
  0.0423172332631257  0.8348503575361261  0.3992429417818201
  0.0422566218467498  0.9599442993083058  0.3997931366508166
  0.1676427069567820  0.0859261378205891  0.4011518511581516
  0.1672968754172226  0.2107601679124046  0.4019295447934961
  0.1651615883684310  0.3341427525674877  0.4008567476546153
  0.1642272297882870  0.4588987394411654  0.4003817923348802
  0.1649898365089460  0.5840845533283396  0.4000315668111876
  0.1662701825911271  0.7094087984871037  0.3996787785979509
  0.1669454186158475  0.8348447122079364  0.3994894054239560
  0.1673040148961743  0.9603543487347719  0.4000249887768982
  0.2923568431679298  0.0860639801031628  0.4015154772634805
  0.2930852908212127  0.2130142369107712  0.4040185870699886
  0.2925379641290753  0.3393598924603209  0.4041858588099252
  0.2877844921600363  0.4584769426905517  0.4019875344854555
  0.2881895785264236  0.5835924243950736  0.4013984435028267
  0.2904367239235715  0.7089869754795390  0.4010710878277050
  0.2914831284939057  0.8343978166781076  0.4002258594253574
  0.2919840823775332  0.9599951910822346  0.4001099075961643
  0.4169292720378346  0.0845692198755390  0.4006670629408499
  0.4174657485171160  0.2107106672920517  0.4022708985766701
  0.4190266660342353  0.3374898461677838  0.4095741021599376
  0.4144229441336720  0.7067555292275614  0.4021575494682619
  0.4159428078263990  0.8327960034045249  0.4013377145430485
  0.4165633184052719  0.9586915563353088  0.4004166718231111
  0.5414774841429935  0.0830006570098802  0.4001884345832542
  0.5420258345514505  0.2087840531134812  0.4008082243160914
  0.5432960043545718  0.3345558299312143  0.4037544510824518
  0.5478072748720768  0.4609815666639568  0.4103416773085990
  0.5380462147288601  0.7017422377928934  0.4024200561349198
  0.5402967567331275  0.8305305016733954  0.4019407622759820
  0.5409944631936889  0.9570417529218325  0.4008506812060136
  0.6660420695528489  0.0822978039429237  0.3999972702395937
  0.6665461514176199  0.2078287770243609  0.3997444801713966
  0.6674863844018877  0.3333948410054702  0.4001476164040313
  0.6695368210673112  0.4591159308509569  0.4014361692463156
  0.6708718075721949  0.5845837635726873  0.4036535067069559
  0.6663271330182980  0.7065017705885153  0.4022074448198049
  0.6644634577096208  0.8304750426564400  0.4015737314179217
  0.6654772199066050  0.9565969179872307  0.4008805624294449
  0.7907003882568268  0.0822712605151884  0.3999096418250367
  0.7910719196853597  0.2076389423603420  0.3993490571203183
  0.7917067706124447  0.3330622717957127  0.3990662212288375
  0.7928599374762095  0.4585935965402803  0.3991213562329120
  0.7938851388003211  0.5841816408978397  0.3999845452230840
  0.7931580171124933  0.7091635850518451  0.4001811057965061
  0.7910272440309158  0.8326633430349120  0.4006085072698785
  0.7903364829657196  0.9569937132681480  0.4005576721698649
  0.9158603051044819  0.0829546851910056  0.3999779432154315
  0.9157365368434156  0.2078054112709022  0.3992346453407445
  0.9159400886117650  0.3330712515542097  0.3988304905647125
  0.9166688678186180  0.4586126538782566  0.3988210481770934
  0.9175555983201988  0.5841445726605790  0.3988348345654331
  0.9177017718152114  0.7094415769233424  0.3991253514789895
  0.9172959407142990  0.8343968625122954  0.3995104852159576
  0.9164104421966849  0.9586198363907117  0.4000421588977122
  0.0841046430609613  0.0436192821525616  0.4003934709670220
  0.0836451857672827  0.1681799035793275  0.4008514180540328
  0.0822149175925395  0.2920175709080426  0.3998908972433138
  0.0815402730553720  0.4167403656967666  0.3994086751385831
  0.0822034568786837  0.5422164241105105  0.3993158496112629
  0.0832097473130511  0.6677262082337196  0.3992091353152630
  0.0837706551287545  0.7931277821626757  0.3992393159428739
  0.0840008434964960  0.9184322529854229  0.3996040610627542
  0.2090683249170784  0.0440580982223932  0.4009687638819027
  0.2095620297032484  0.1698358173389495  0.4023304495834240
  0.2086426489272513  0.2944880914512765  0.4020720246087477
  0.2056155105964821  0.4174470707962920  0.4011561160244467
  0.2055034591446174  0.5419994404891653  0.4006116164548708
  0.2072585206833219  0.6675267396830540  0.4002616342421168
  0.2083009469350181  0.7929913220708258  0.3997453763807030
  0.2087597365250920  0.9184521875259386  0.3997909609397250
  0.3337208686800139  0.0437305132959992  0.4007247987057411
  0.3341475799281668  0.1700669194737084  0.4028343554416063
  0.3354509814024693  0.2976940002615129  0.4068561587173830
  0.3293817911276584  0.5428505915369825  0.4020794290122024
  0.3312758046823109  0.6669234890049618  0.4016768752825457
  0.3327303044938120  0.7922845655238677  0.4009401533844711
  0.3333380803898371  0.9178662007006717  0.4001569153921009
  0.4582691854401238  0.0422004273150466  0.4003620298940835
  0.4587211938196141  0.1681811522749354  0.4010926688922443
  0.4596336640310136  0.2945157983684705  0.4042902769779771
  0.4651051959141395  0.4209802078736551  0.4193312360485212
  0.4533262498757590  0.6616454703095467  0.4026470109177262
  0.4570139440059654  0.7902218959335587  0.4019158344795287
  0.4578103367095623  0.9163385214203674  0.4008804582773094
  0.5827606800492812  0.0407526343379199  0.4002731006251999
  0.5832853054958060  0.1665871340507673  0.4001391944741918
  0.5841069258926805  0.2923157319671493  0.4014159727749124
  0.5867608219967085  0.4181508488193331  0.4045253194449243
  0.5891066533404568  0.5436066694253774  0.4063390462990049
  0.5821785891341709  0.6612014787447172  0.4026379919713855
  0.5805699472897543  0.7868357244163827  0.4020470237406216
  0.5821876853426653  0.9145127251191582  0.4013229264576020
  0.7073718715189138  0.0403117112959951  0.4002164422439566
  0.7078550427811982  0.1659144894007901  0.3996254493318326
  0.7085094302106274  0.2914199310523803  0.3995124550601292
  0.7099501629103249  0.4168042662892662  0.3998386424805006
  0.7113890328489464  0.5423008973875689  0.4019074535954066
  0.7103732331767489  0.6673059676968878  0.4017099023182037
  0.7072636237544156  0.7900204775513182  0.4014315807275413
  0.7066346265372163  0.9145066143085441  0.4010304721830436
  0.8323550610825672  0.0407246787016175  0.4001380544859954
  0.8325235162112598  0.1659039566588069  0.3994480970682738
  0.8328760685365592  0.2911560827942296  0.3990279368017052
  0.8337451595863559  0.4166284818249182  0.3989184802139252
  0.8347657152978163  0.5422149698463661  0.3991063498980766
  0.8348555681001369  0.6676003513628608  0.3996903320784752
  0.8339997218822595  0.7923580254225870  0.3999573268923576
  0.8327670538505002  0.9162206168416736  0.4003941180346850
  0.9582293062285316  0.0421488692330112  0.4001307781738158
  0.9576078850812858  0.1664659405149270  0.3996314777734626
  0.9573972724274115  0.2914066229302572  0.3989443200912486
  0.9576242525152460  0.4166514034567961  0.3988018378052158
  0.9584692259414039  0.5421876034662073  0.3988388793233837
  0.9590977760691423  0.6677259635750363  0.3989428952743173
  0.9591368616883446  0.7930058762453678  0.3991909556904674
  0.9588429512250547  0.9178399619696367  0.3997148721431597
  0.4090307652385926  0.5818529178126597  0.4031790017897620
  0.5466897594889486  0.5807820823320738  0.4027459314338072
  0.3293301786991562  0.4199918994151195  0.4030144847503035
 
  0.00000000E+00  0.00000000E+00  0.00000000E+00
  0.00000000E+00  0.00000000E+00  0.00000000E+00
  0.00000000E+00  0.00000000E+00  0.00000000E+00
  0.00000000E+00  0.00000000E+00  0.00000000E+00
  0.00000000E+00  0.00000000E+00  0.00000000E+00
  0.00000000E+00  0.00000000E+00  0.00000000E+00
  0.00000000E+00  0.00000000E+00  0.00000000E+00
  0.00000000E+00  0.00000000E+00  0.00000000E+00
  0.00000000E+00  0.00000000E+00  0.00000000E+00
  0.00000000E+00  0.00000000E+00  0.00000000E+00
  0.00000000E+00  0.00000000E+00  0.00000000E+00
  0.00000000E+00  0.00000000E+00  0.00000000E+00
  0.00000000E+00  0.00000000E+00  0.00000000E+00
  0.00000000E+00  0.00000000E+00  0.00000000E+00
  0.00000000E+00  0.00000000E+00  0.00000000E+00
  0.00000000E+00  0.00000000E+00  0.00000000E+00
  0.00000000E+00  0.00000000E+00  0.00000000E+00
  0.00000000E+00  0.00000000E+00  0.00000000E+00
  0.00000000E+00  0.00000000E+00  0.00000000E+00
  0.00000000E+00  0.00000000E+00  0.00000000E+00
  0.00000000E+00  0.00000000E+00  0.00000000E+00
  0.00000000E+00  0.00000000E+00  0.00000000E+00
  0.00000000E+00  0.00000000E+00  0.00000000E+00
  0.00000000E+00  0.00000000E+00  0.00000000E+00
  0.00000000E+00  0.00000000E+00  0.00000000E+00
  0.00000000E+00  0.00000000E+00  0.00000000E+00
  0.00000000E+00  0.00000000E+00  0.00000000E+00
  0.00000000E+00  0.00000000E+00  0.00000000E+00
  0.00000000E+00  0.00000000E+00  0.00000000E+00
  0.00000000E+00  0.00000000E+00  0.00000000E+00
  0.00000000E+00  0.00000000E+00  0.00000000E+00
  0.00000000E+00  0.00000000E+00  0.00000000E+00
  0.00000000E+00  0.00000000E+00  0.00000000E+00
  0.00000000E+00  0.00000000E+00  0.00000000E+00
  0.00000000E+00  0.00000000E+00  0.00000000E+00
  0.00000000E+00  0.00000000E+00  0.00000000E+00
  0.00000000E+00  0.00000000E+00  0.00000000E+00
  0.00000000E+00  0.00000000E+00  0.00000000E+00
  0.00000000E+00  0.00000000E+00  0.00000000E+00
  0.00000000E+00  0.00000000E+00  0.00000000E+00
  0.00000000E+00  0.00000000E+00  0.00000000E+00
  0.00000000E+00  0.00000000E+00  0.00000000E+00
  0.00000000E+00  0.00000000E+00  0.00000000E+00
  0.00000000E+00  0.00000000E+00  0.00000000E+00
  0.00000000E+00  0.00000000E+00  0.00000000E+00
  0.00000000E+00  0.00000000E+00  0.00000000E+00
  0.00000000E+00  0.00000000E+00  0.00000000E+00
  0.00000000E+00  0.00000000E+00  0.00000000E+00
  0.00000000E+00  0.00000000E+00  0.00000000E+00
  0.00000000E+00  0.00000000E+00  0.00000000E+00
  0.00000000E+00  0.00000000E+00  0.00000000E+00
  0.00000000E+00  0.00000000E+00  0.00000000E+00
  0.00000000E+00  0.00000000E+00  0.00000000E+00
  0.00000000E+00  0.00000000E+00  0.00000000E+00
  0.00000000E+00  0.00000000E+00  0.00000000E+00
  0.00000000E+00  0.00000000E+00  0.00000000E+00
  0.00000000E+00  0.00000000E+00  0.00000000E+00
  0.00000000E+00  0.00000000E+00  0.00000000E+00
  0.00000000E+00  0.00000000E+00  0.00000000E+00
  0.00000000E+00  0.00000000E+00  0.00000000E+00
  0.00000000E+00  0.00000000E+00  0.00000000E+00
  0.00000000E+00  0.00000000E+00  0.00000000E+00
  0.00000000E+00  0.00000000E+00  0.00000000E+00
  0.00000000E+00  0.00000000E+00  0.00000000E+00
  0.00000000E+00  0.00000000E+00  0.00000000E+00
  0.00000000E+00  0.00000000E+00  0.00000000E+00
  0.00000000E+00  0.00000000E+00  0.00000000E+00
  0.00000000E+00  0.00000000E+00  0.00000000E+00
  0.00000000E+00  0.00000000E+00  0.00000000E+00
  0.00000000E+00  0.00000000E+00  0.00000000E+00
  0.00000000E+00  0.00000000E+00  0.00000000E+00
  0.00000000E+00  0.00000000E+00  0.00000000E+00
  0.00000000E+00  0.00000000E+00  0.00000000E+00
  0.00000000E+00  0.00000000E+00  0.00000000E+00
  0.00000000E+00  0.00000000E+00  0.00000000E+00
  0.00000000E+00  0.00000000E+00  0.00000000E+00
  0.00000000E+00  0.00000000E+00  0.00000000E+00
  0.00000000E+00  0.00000000E+00  0.00000000E+00
  0.00000000E+00  0.00000000E+00  0.00000000E+00
  0.00000000E+00  0.00000000E+00  0.00000000E+00
  0.00000000E+00  0.00000000E+00  0.00000000E+00
  0.00000000E+00  0.00000000E+00  0.00000000E+00
  0.00000000E+00  0.00000000E+00  0.00000000E+00
  0.00000000E+00  0.00000000E+00  0.00000000E+00
  0.00000000E+00  0.00000000E+00  0.00000000E+00
  0.00000000E+00  0.00000000E+00  0.00000000E+00
  0.00000000E+00  0.00000000E+00  0.00000000E+00
  0.00000000E+00  0.00000000E+00  0.00000000E+00
  0.00000000E+00  0.00000000E+00  0.00000000E+00
  0.00000000E+00  0.00000000E+00  0.00000000E+00
  0.00000000E+00  0.00000000E+00  0.00000000E+00
  0.00000000E+00  0.00000000E+00  0.00000000E+00
  0.00000000E+00  0.00000000E+00  0.00000000E+00
  0.00000000E+00  0.00000000E+00  0.00000000E+00
  0.00000000E+00  0.00000000E+00  0.00000000E+00
  0.00000000E+00  0.00000000E+00  0.00000000E+00
  0.00000000E+00  0.00000000E+00  0.00000000E+00
  0.00000000E+00  0.00000000E+00  0.00000000E+00
  0.00000000E+00  0.00000000E+00  0.00000000E+00
  0.00000000E+00  0.00000000E+00  0.00000000E+00
  0.00000000E+00  0.00000000E+00  0.00000000E+00
  0.00000000E+00  0.00000000E+00  0.00000000E+00
  0.00000000E+00  0.00000000E+00  0.00000000E+00
  0.00000000E+00  0.00000000E+00  0.00000000E+00
  0.00000000E+00  0.00000000E+00  0.00000000E+00
  0.00000000E+00  0.00000000E+00  0.00000000E+00
  0.00000000E+00  0.00000000E+00  0.00000000E+00
  0.00000000E+00  0.00000000E+00  0.00000000E+00
  0.00000000E+00  0.00000000E+00  0.00000000E+00
  0.00000000E+00  0.00000000E+00  0.00000000E+00
  0.00000000E+00  0.00000000E+00  0.00000000E+00
  0.00000000E+00  0.00000000E+00  0.00000000E+00
  0.00000000E+00  0.00000000E+00  0.00000000E+00
  0.00000000E+00  0.00000000E+00  0.00000000E+00
  0.00000000E+00  0.00000000E+00  0.00000000E+00
  0.00000000E+00  0.00000000E+00  0.00000000E+00
  0.00000000E+00  0.00000000E+00  0.00000000E+00
  0.00000000E+00  0.00000000E+00  0.00000000E+00
  0.00000000E+00  0.00000000E+00  0.00000000E+00
  0.00000000E+00  0.00000000E+00  0.00000000E+00
  0.00000000E+00  0.00000000E+00  0.00000000E+00
  0.00000000E+00  0.00000000E+00  0.00000000E+00
  0.00000000E+00  0.00000000E+00  0.00000000E+00
  0.00000000E+00  0.00000000E+00  0.00000000E+00
  0.00000000E+00  0.00000000E+00  0.00000000E+00
  0.00000000E+00  0.00000000E+00  0.00000000E+00
  0.00000000E+00  0.00000000E+00  0.00000000E+00
  0.00000000E+00  0.00000000E+00  0.00000000E+00
