Rh1 C125 N1                             
   1.00000000000000     
    19.8144362361489712   -0.0437658081499103    0.0120216703582628
    -9.9452280116912846   17.0689008814718335   -0.0116424647778222
     0.0183478441042502   -0.0098025181610369   29.7902580756531918
   Rh   C    N 
     1   125     1
Direct
  0.4373085572070083  0.4985399075312371  0.4246287727087411
  0.0423143555955981  0.0844420720862967  0.3999489931353124
  0.0421039331365870  0.2088836236270295  0.3998193712784020
  0.0415979869098489  0.3334146494010357  0.3997662188046844
  0.0410933744115323  0.4586021349778882  0.3998535730018536
  0.0411601070429408  0.5839292010857308  0.4000560419620012
  0.0414606353488547  0.7091659759995438  0.4001344975016464
  0.0417374205393030  0.8343808676116933  0.4000418719067176
  0.0420198273926334  0.9594876050707767  0.3999582805126813
  0.1677921949083166  0.0855527727476019  0.3997789861701923
  0.1685223806874545  0.2110121552011523  0.3999464673265646
  0.1674394035503163  0.3350751421878579  0.3993754839716704
  0.1653214493365700  0.4593490171041717  0.3993662716628681
  0.1650510587341120  0.5842911608524953  0.3992108915960198
  0.1658050006706865  0.7094954334564962  0.3998238251272528
  0.1665094624814835  0.8346940938539635  0.4000898060324246
  0.1671060363987378  0.9600116347176724  0.3999506033202861
  0.2926152746862669  0.0852356330145115  0.3998086410211019
  0.2939678496602791  0.2118197176870664  0.4006233200583844
  0.2957794921396956  0.3389016093647945  0.4004515475705263
  0.2905243862034869  0.4613704459426043  0.4002171403300760
  0.2886220700935085  0.5856159559653017  0.3992520706973589
  0.2899938427353081  0.7098957847239519  0.3994160539349251
  0.2911136080723275  0.8345703769791148  0.3998844424882112
  0.2917880964479647  0.9596507839337983  0.3999401421808383
  0.4171451278565290  0.0837030106475976  0.3995811954469632
  0.4180801558218379  0.2091277531923791  0.3995742802987738
  0.4206415682834516  0.3357952725830846  0.4054063989001400
  0.4139717825509126  0.7082660861060088  0.4003534444958171
  0.4157007564119660  0.8334428526336106  0.3995477532201536
  0.4164729308596594  0.9585454242657325  0.3999709400862762
  0.5418419312058913  0.0823568429302260  0.3998924565205876
  0.5425981487832449  0.2072983618406235  0.3992709329678316
  0.5437664683851960  0.3318860714090281  0.3999691093422768
  0.5460886369292383  0.4554121140129179  0.4042979804589126
  0.5417393255241306  0.5761244262127309  0.4012012404163210
  0.5372499234364110  0.7031311357735127  0.4019010195362678
  0.5399901266915629  0.8310671937543225  0.4001805652588806
  0.5411262019558322  0.9570176144114645  0.3999633865267313
  0.6665018165891915  0.0818128409714924  0.4000978733085831
  0.6672161359832194  0.2070482378276465  0.3998436258428645
  0.6680343673028677  0.3320709971918114  0.3990922671001458
  0.6694513322875620  0.4572072356797173  0.3988059798326339
  0.6689777090024974  0.5822162270008066  0.3994917517795120
  0.6637519332007985  0.7043722754198426  0.3998069590659057
  0.6642313869329942  0.8300177145453490  0.4000802751198875
  0.6656894174788384  0.9563031201741157  0.3999918171665851
  0.7912700111995103  0.0818927975202072  0.3999676908062459
  0.7918131818729418  0.2071203086249836  0.4001161926073870
  0.7923785221682589  0.3324409314802660  0.3999227144677963
  0.7930938765471274  0.4578381129191513  0.3994649459791228
  0.7930223522934920  0.5830044429079724  0.3994747201852407
  0.7915913747771163  0.7077910292600196  0.3994523906797465
  0.7901026202049408  0.8315273811203024  0.3999462474694392
  0.7904285067554252  0.9565113331605952  0.3999117592249825
  0.9164336588326994  0.0827535672734112  0.3999409993038819
  0.9166650295661686  0.2076963429907907  0.3999797606075133
  0.9167733117762574  0.3328090475843630  0.4001455011361242
  0.9169931736481839  0.4581141192072124  0.4001572096799537
  0.9171647453344629  0.5835464558781522  0.4000224939695691
  0.9168382841398485  0.7087631014343362  0.3999324715971404
  0.9164925514005758  0.8335192089044190  0.3999626709705236
  0.9162187578696849  0.9579900986785254  0.3999859416258122
  0.0841294508866641  0.0432097115985958  0.3998763411974079
  0.0845183114536818  0.1682292663558819  0.3999213591507580
  0.0837197070398857  0.2924473386732513  0.3995781657728350
  0.0825503332003154  0.4170750038754823  0.3996436482703888
  0.0822016569663243  0.5421511481198320  0.3997377403167021
  0.0827086187218841  0.6675206156950421  0.4000284720592794
  0.0832171630941736  0.7928389824913538  0.4001088948730669
  0.0836069366457389  0.9180195591913407  0.3999853823176075
  0.2091097016547796  0.0435989785566959  0.3998516484777886
  0.2100155519781889  0.1694358785581457  0.3999111220570732
  0.2108999037072024  0.2952387946790013  0.3997563118290028
  0.2073959575113514  0.4185067319907026  0.3994637611040620
  0.2059456207679092  0.5427605730704497  0.3988303572266014
  0.2069555340581904  0.6678914876318133  0.3994132762701270
  0.2078098355374540  0.7929635820211505  0.3999751676427844
  0.2084606731729206  0.9181791871268054  0.4000298983763279
  0.3337865576613639  0.0430230698150239  0.3997374487264927
  0.3347752920051265  0.1687644012567563  0.4000731004185528
  0.3365224728926966  0.2954720303073468  0.4026308195718772
  0.3342069511650994  0.4230433390080747  0.4005745057510582
  0.3306965249338901  0.5460561047827920  0.4022697038214182
  0.3310286461897897  0.6683613661442210  0.3996897637006771
  0.3324096088631854  0.7929145285042997  0.3996046786799203
  0.3331664665472152  0.9178165257473521  0.3999671155741962
  0.4585188325193798  0.0417384282786382  0.3998704559144819
  0.4592464329859656  0.1668796181458340  0.3992259521926931
  0.4606024279269895  0.2923712894390966  0.4008611889925244
  0.4653764943508755  0.4175559593130994  0.4125489321525879
  0.4527689265964765  0.6640092542136103  0.4036237813241967
  0.4568939866045407  0.7913525260279495  0.3996998837094033
  0.4578075201321438  0.9165650743711483  0.3998485941713099
  0.5831747714577569  0.0404267740837100  0.4000381786218670
  0.5839132361787942  0.1656115447116625  0.3996535043774601
  0.5848354317322008  0.2903863682575918  0.3991817272723936
  0.5867011277256949  0.4147436867595456  0.4000097657307754
  0.5865632878185877  0.5392255118426403  0.4010371923742327
  0.5783906632142544  0.6598784043593932  0.4002992124416554
  0.5800701986166014  0.7872737675459710  0.4006053143353126
  0.5822473175240596  0.9147041960138822  0.4000180302229598
  0.7077879410644757  0.0399222358044043  0.4000176794031787
  0.7085016763585794  0.1653505856735222  0.4001054511869944
  0.7091885946726846  0.2905128067288109  0.3996005370036090
  0.7102626472086672  0.4156947709169369  0.3988826246127319
  0.7104384532257977  0.5407401743383449  0.3992843289585985
  0.7080089843493411  0.6652970862074655  0.3992897619448262
  0.7058943021833334  0.7885659410791920  0.4000311695206112
  0.7066558316338212  0.9140313626839868  0.3999186362112763
  0.8327049968157988  0.0403446141163131  0.3999164261037941
  0.8332301905607071  0.1655662424018272  0.4000300512615833
  0.8336513561355361  0.2907927431326627  0.4001391991759631
  0.8341228371958815  0.4160610627945641  0.3999169157344707
  0.8343196274142382  0.5414071963851825  0.3996683230988662
  0.8336568819755552  0.6666841274422062  0.3996262433889909
  0.8328911868651908  0.7911751341869555  0.3997981975359269
  0.8322895853122633  0.9153135488725270  0.3999835724434845
  0.9584196726483848  0.0417764029316430  0.3999670182511597
  0.9584731482129052  0.1664416887717023  0.3999150455498952
  0.9583257259481588  0.2912888975773883  0.4000102680847760
  0.9581610791457978  0.4164318542877498  0.4001287007170365
  0.9583277950046671  0.5418455307820931  0.4001547161231319
  0.9583874894071402  0.6671809928387680  0.4000716592587454
  0.9583520662813767  0.7923073689761571  0.3999819703796666
  0.9583320188208273  0.9171229239102298  0.4000124039218664
  0.4088718332681736  0.5849732559416726  0.4083234258056520
 
  0.00000000E+00  0.00000000E+00  0.00000000E+00
  0.00000000E+00  0.00000000E+00  0.00000000E+00
  0.00000000E+00  0.00000000E+00  0.00000000E+00
  0.00000000E+00  0.00000000E+00  0.00000000E+00
  0.00000000E+00  0.00000000E+00  0.00000000E+00
  0.00000000E+00  0.00000000E+00  0.00000000E+00
  0.00000000E+00  0.00000000E+00  0.00000000E+00
  0.00000000E+00  0.00000000E+00  0.00000000E+00
  0.00000000E+00  0.00000000E+00  0.00000000E+00
  0.00000000E+00  0.00000000E+00  0.00000000E+00
  0.00000000E+00  0.00000000E+00  0.00000000E+00
  0.00000000E+00  0.00000000E+00  0.00000000E+00
  0.00000000E+00  0.00000000E+00  0.00000000E+00
  0.00000000E+00  0.00000000E+00  0.00000000E+00
  0.00000000E+00  0.00000000E+00  0.00000000E+00
  0.00000000E+00  0.00000000E+00  0.00000000E+00
  0.00000000E+00  0.00000000E+00  0.00000000E+00
  0.00000000E+00  0.00000000E+00  0.00000000E+00
  0.00000000E+00  0.00000000E+00  0.00000000E+00
  0.00000000E+00  0.00000000E+00  0.00000000E+00
  0.00000000E+00  0.00000000E+00  0.00000000E+00
  0.00000000E+00  0.00000000E+00  0.00000000E+00
  0.00000000E+00  0.00000000E+00  0.00000000E+00
  0.00000000E+00  0.00000000E+00  0.00000000E+00
  0.00000000E+00  0.00000000E+00  0.00000000E+00
  0.00000000E+00  0.00000000E+00  0.00000000E+00
  0.00000000E+00  0.00000000E+00  0.00000000E+00
  0.00000000E+00  0.00000000E+00  0.00000000E+00
  0.00000000E+00  0.00000000E+00  0.00000000E+00
  0.00000000E+00  0.00000000E+00  0.00000000E+00
  0.00000000E+00  0.00000000E+00  0.00000000E+00
  0.00000000E+00  0.00000000E+00  0.00000000E+00
  0.00000000E+00  0.00000000E+00  0.00000000E+00
  0.00000000E+00  0.00000000E+00  0.00000000E+00
  0.00000000E+00  0.00000000E+00  0.00000000E+00
  0.00000000E+00  0.00000000E+00  0.00000000E+00
  0.00000000E+00  0.00000000E+00  0.00000000E+00
  0.00000000E+00  0.00000000E+00  0.00000000E+00
  0.00000000E+00  0.00000000E+00  0.00000000E+00
  0.00000000E+00  0.00000000E+00  0.00000000E+00
  0.00000000E+00  0.00000000E+00  0.00000000E+00
  0.00000000E+00  0.00000000E+00  0.00000000E+00
  0.00000000E+00  0.00000000E+00  0.00000000E+00
  0.00000000E+00  0.00000000E+00  0.00000000E+00
  0.00000000E+00  0.00000000E+00  0.00000000E+00
  0.00000000E+00  0.00000000E+00  0.00000000E+00
  0.00000000E+00  0.00000000E+00  0.00000000E+00
  0.00000000E+00  0.00000000E+00  0.00000000E+00
  0.00000000E+00  0.00000000E+00  0.00000000E+00
  0.00000000E+00  0.00000000E+00  0.00000000E+00
  0.00000000E+00  0.00000000E+00  0.00000000E+00
  0.00000000E+00  0.00000000E+00  0.00000000E+00
  0.00000000E+00  0.00000000E+00  0.00000000E+00
  0.00000000E+00  0.00000000E+00  0.00000000E+00
  0.00000000E+00  0.00000000E+00  0.00000000E+00
  0.00000000E+00  0.00000000E+00  0.00000000E+00
  0.00000000E+00  0.00000000E+00  0.00000000E+00
  0.00000000E+00  0.00000000E+00  0.00000000E+00
  0.00000000E+00  0.00000000E+00  0.00000000E+00
  0.00000000E+00  0.00000000E+00  0.00000000E+00
  0.00000000E+00  0.00000000E+00  0.00000000E+00
  0.00000000E+00  0.00000000E+00  0.00000000E+00
  0.00000000E+00  0.00000000E+00  0.00000000E+00
  0.00000000E+00  0.00000000E+00  0.00000000E+00
  0.00000000E+00  0.00000000E+00  0.00000000E+00
  0.00000000E+00  0.00000000E+00  0.00000000E+00
  0.00000000E+00  0.00000000E+00  0.00000000E+00
  0.00000000E+00  0.00000000E+00  0.00000000E+00
  0.00000000E+00  0.00000000E+00  0.00000000E+00
  0.00000000E+00  0.00000000E+00  0.00000000E+00
  0.00000000E+00  0.00000000E+00  0.00000000E+00
  0.00000000E+00  0.00000000E+00  0.00000000E+00
  0.00000000E+00  0.00000000E+00  0.00000000E+00
  0.00000000E+00  0.00000000E+00  0.00000000E+00
  0.00000000E+00  0.00000000E+00  0.00000000E+00
  0.00000000E+00  0.00000000E+00  0.00000000E+00
  0.00000000E+00  0.00000000E+00  0.00000000E+00
  0.00000000E+00  0.00000000E+00  0.00000000E+00
  0.00000000E+00  0.00000000E+00  0.00000000E+00
  0.00000000E+00  0.00000000E+00  0.00000000E+00
  0.00000000E+00  0.00000000E+00  0.00000000E+00
  0.00000000E+00  0.00000000E+00  0.00000000E+00
  0.00000000E+00  0.00000000E+00  0.00000000E+00
  0.00000000E+00  0.00000000E+00  0.00000000E+00
  0.00000000E+00  0.00000000E+00  0.00000000E+00
  0.00000000E+00  0.00000000E+00  0.00000000E+00
  0.00000000E+00  0.00000000E+00  0.00000000E+00
  0.00000000E+00  0.00000000E+00  0.00000000E+00
  0.00000000E+00  0.00000000E+00  0.00000000E+00
  0.00000000E+00  0.00000000E+00  0.00000000E+00
  0.00000000E+00  0.00000000E+00  0.00000000E+00
  0.00000000E+00  0.00000000E+00  0.00000000E+00
  0.00000000E+00  0.00000000E+00  0.00000000E+00
  0.00000000E+00  0.00000000E+00  0.00000000E+00
  0.00000000E+00  0.00000000E+00  0.00000000E+00
  0.00000000E+00  0.00000000E+00  0.00000000E+00
  0.00000000E+00  0.00000000E+00  0.00000000E+00
  0.00000000E+00  0.00000000E+00  0.00000000E+00
  0.00000000E+00  0.00000000E+00  0.00000000E+00
  0.00000000E+00  0.00000000E+00  0.00000000E+00
  0.00000000E+00  0.00000000E+00  0.00000000E+00
  0.00000000E+00  0.00000000E+00  0.00000000E+00
  0.00000000E+00  0.00000000E+00  0.00000000E+00
  0.00000000E+00  0.00000000E+00  0.00000000E+00
  0.00000000E+00  0.00000000E+00  0.00000000E+00
  0.00000000E+00  0.00000000E+00  0.00000000E+00
  0.00000000E+00  0.00000000E+00  0.00000000E+00
  0.00000000E+00  0.00000000E+00  0.00000000E+00
  0.00000000E+00  0.00000000E+00  0.00000000E+00
  0.00000000E+00  0.00000000E+00  0.00000000E+00
  0.00000000E+00  0.00000000E+00  0.00000000E+00
  0.00000000E+00  0.00000000E+00  0.00000000E+00
  0.00000000E+00  0.00000000E+00  0.00000000E+00
  0.00000000E+00  0.00000000E+00  0.00000000E+00
  0.00000000E+00  0.00000000E+00  0.00000000E+00
  0.00000000E+00  0.00000000E+00  0.00000000E+00
  0.00000000E+00  0.00000000E+00  0.00000000E+00
  0.00000000E+00  0.00000000E+00  0.00000000E+00
  0.00000000E+00  0.00000000E+00  0.00000000E+00
  0.00000000E+00  0.00000000E+00  0.00000000E+00
  0.00000000E+00  0.00000000E+00  0.00000000E+00
  0.00000000E+00  0.00000000E+00  0.00000000E+00
  0.00000000E+00  0.00000000E+00  0.00000000E+00
  0.00000000E+00  0.00000000E+00  0.00000000E+00
  0.00000000E+00  0.00000000E+00  0.00000000E+00
  0.00000000E+00  0.00000000E+00  0.00000000E+00
  0.00000000E+00  0.00000000E+00  0.00000000E+00
