H1 Pt1 C126 O1                          
   1.00000000000000     
    19.8041264328236970   -0.0232385438577913    0.2930516594829018
    -9.9217136116904214   17.0624251592647553    0.3148249493453671
     0.4393817242655183    0.8033104695897312   29.8272891306346608
   H    Pt   C    O 
     1     1   126     1
Direct
  0.5152533738763084  0.5889112286770575  0.4923056591113413
  0.4326935330869516  0.4952626858316466  0.4322597115145249
  0.0417773293658239  0.0837524047092783  0.3993497454562362
  0.0411765195786947  0.2080462865937510  0.3990028256066613
  0.0406675214722667  0.3327430284433736  0.3985764509938777
  0.0403999183587428  0.4580572863720918  0.3985093300221458
  0.0408083912371909  0.5834256381594565  0.3985444681049057
  0.0413907764590028  0.7086838936595052  0.3987970921364944
  0.0416546553559792  0.8338616139534745  0.3991874284371449
  0.0417818900238709  0.9589029322330488  0.3994079162902226
  0.1672209845423338  0.0846920594749750  0.3996152100149831
  0.1674773106602570  0.2098506773208379  0.3995537043467126
  0.1659555081259006  0.3335011955388613  0.3985084755501497
  0.1643392375825103  0.4583487496073732  0.3984207907211756
  0.1647054744102776  0.5835259819909723  0.3985722930869527
  0.1658187723018508  0.7087812425070441  0.3988677152125749
  0.1663592359617003  0.8339579728188252  0.3991224386919699
  0.1667793261080867  0.9592256832129041  0.3994552877284201
  0.2919486535113443  0.0843814665595697  0.3999751035129170
  0.2928107595775422  0.2106022621802953  0.4015611419963198
  0.2937585051238564  0.3372126962029147  0.4022608557789580
  0.2878029657863951  0.4584876585185915  0.4004341706735451
  0.2880921724438961  0.5839360404528957  0.4001762716810177
  0.2901209011192535  0.7086961758289612  0.3997209102959267
  0.2909584717811253  0.8336714947353799  0.3993003517997482
  0.2914605945940496  0.9588779392781289  0.3993392886124493
  0.4165824261512913  0.0832601511270328  0.3993208678347950
  0.4170575530588062  0.2085914973123876  0.4009923153220493
  0.4180017317921435  0.3340765414358326  0.4081916594578485
  0.4079016869563298  0.5804558425522063  0.4107701572457629
  0.4141590507268578  0.7066944154842151  0.4030110940058061
  0.4155220274339481  0.8325169058365615  0.4002821909515663
  0.4161275177000225  0.9579159871378647  0.3993308781133983
  0.5412972416652280  0.0822410576580022  0.3989893791779166
  0.5417677487720957  0.2073358368529385  0.3992456597913774
  0.5424520549137624  0.3319367250167300  0.4020589653671965
  0.5444806218290176  0.4554413996277827  0.4084967762882232
  0.5439959571310582  0.5785931604996867  0.4108157189141151
  0.5382892163744711  0.7040590024241207  0.4074398245550671
  0.5398145029327948  0.8307948238610644  0.4023957616321850
  0.5407538265045525  0.9567575403581937  0.3998977220262417
  0.6659462266037915  0.0817633549463096  0.3993176532537701
  0.6664546788201130  0.2070831638881489  0.3987037118093371
  0.6671042241497138  0.3322310169329243  0.3987826479053189
  0.6684376138200553  0.4574141112014382  0.3998929889791547
  0.6686730412261137  0.5824775172063396  0.4019473025888142
  0.6648722467496846  0.7051805207326459  0.4036461006513322
  0.6647318803920984  0.8304737421544958  0.4027161332642903
  0.6653882009158756  0.9562463639887673  0.4006734877171922
  0.7907748478144274  0.0817900945778099  0.3996368712349451
  0.7910915101952543  0.2070415109137371  0.3990005342951630
  0.7915786483002566  0.3323848951085224  0.3984595760178706
  0.7923406975389409  0.4577929181358606  0.3982969513124791
  0.7926805045875619  0.5830268484787495  0.3988966417707151
  0.7918606998189460  0.7078863138845473  0.4000513363756616
  0.7905264398756821  0.8317833667090485  0.4006376205860566
  0.7904262433099275  0.9565928756840334  0.4003211544351576
  0.9159222275816207  0.0824056865178304  0.3995408822219159
  0.9159173545268057  0.2073184023325383  0.3991841336430240
  0.9159904665923310  0.3325157364795281  0.3987669745893404
  0.9163027290410110  0.4578399167414127  0.3984242927084078
  0.9168111185667976  0.5833020959422752  0.3984721687954835
  0.9168183388004238  0.7084905040384558  0.3989260616456554
  0.9165848826001713  0.8333165462904003  0.3994600786187719
  0.9161529428461240  0.9578200607932097  0.3996393652974550
  0.0836877250377844  0.0425067887968902  0.3994089039256293
  0.0837190094877438  0.1673515912656179  0.3992144140775810
  0.0825251990666922  0.2913394653261128  0.3984923373188836
  0.0817054090749472  0.4163832524334609  0.3984259362394587
  0.0818507975813778  0.5415955415817894  0.3984942185908688
  0.0826672110764647  0.6669675464675928  0.3986883311148385
  0.0831596125659684  0.7922476736297237  0.3990527847765377
  0.0834152215223074  0.9173691508520393  0.3993576193583570
  0.2086243738976156  0.0427467929136169  0.3997202695834343
  0.2091917675852077  0.1683528290655055  0.4000031588783403
  0.2094535333234794  0.2937171416470696  0.3996921593749952
  0.2057186261331682  0.4166371394607707  0.3985281107326354
  0.2055053784209890  0.5418157171546585  0.3986577567618141
  0.2070500535115793  0.6671008201803098  0.3989470453903396
  0.2077602445014441  0.7922140425486295  0.3990655146125673
  0.2082158604940127  0.9174261325949996  0.3993210217677065
  0.3333065395305795  0.0423028959665992  0.3995347620275877
  0.3338421630161429  0.1678690884986322  0.4009720185144133
  0.3346751725520669  0.2939172542290655  0.4045544290479511
  0.3323241909439437  0.4208306490035119  0.4032015286479141
  0.3283714120409939  0.5423269607298666  0.4028066452203996
  0.3312012005377974  0.6668272701281633  0.4010168068195323
  0.3322822222647935  0.7918541743874216  0.3997523620138203
  0.3329149745497665  0.9170089143144260  0.3993058200110574
  0.4580192920656893  0.0412784418140736  0.3991283087950140
  0.4584837084405219  0.1665590690707134  0.3996234373108087
  0.4591107183749606  0.2916815632429667  0.4034457840138944
  0.4627337823665700  0.4149485156358867  0.4163141184870537
  0.4541306846451723  0.6629444475853153  0.4073505389332451
  0.4566509274115447  0.7901744312858554  0.4017894774516219
  0.4575145996274923  0.9158576129750099  0.3997771184142138
  0.5826936805564871  0.0402851529675394  0.3992944166127891
  0.5832000477521974  0.1656038330295265  0.3988248485259900
  0.5838007248231789  0.2905199310607799  0.3996911308907877
  0.5854071968865290  0.4149516740465411  0.4027290973528322
  0.5860821418605815  0.5395995857969387  0.4068667170456159
  0.5800024718602111  0.6613331264280720  0.4074774948921680
  0.5806991728845338  0.7878013863796606  0.4042373775108791
  0.5819372506784443  0.9144938496531906  0.4008968087904006
  0.7073436970914444  0.0398683725697999  0.3998096084475555
  0.7078269599457364  0.1653111518645917  0.3989517328024929
  0.7083700463376829  0.2905656947698658  0.3984909786434582
  0.7093629652016461  0.4158229583068730  0.3986578729489239
  0.7098907781770863  0.5408932428362869  0.3998933003450847
  0.7083640204300888  0.6655337627609226  0.4016813275613249
  0.7066063937535295  0.7891169558539668  0.4023118881222749
  0.7067902442325880  0.9142755577170782  0.4011729251594758
  0.8323984026976556  0.0402430031914258  0.3998075510938144
  0.8325730589711255  0.1653531665150020  0.3992863901210871
  0.8328888185145307  0.2906662900053529  0.3987436570086867
  0.8333819518265511  0.4159469744285640  0.3983219854414444
  0.8338683170240565  0.5413182151113011  0.3984220449959556
  0.8336816035778700  0.6665692931965929  0.3991693689340126
  0.8331183972613718  0.7911503807702502  0.3999845995240062
  0.8324144445740563  0.9154090775316703  0.4001456171116948
  0.9580645341955930  0.0413835109308102  0.3994868346067579
  0.9576965906014501  0.1659193767087765  0.3992800549078088
  0.9575113630923645  0.2908437692836184  0.3988970707846951
  0.9574593326815070  0.4160639436785114  0.3985698105427082
  0.9579180864999594  0.5415048872896679  0.3984470844016732
  0.9583034732362825  0.6668480910587028  0.3986960653596787
  0.9583604686531425  0.7919483196759254  0.3991779876529376
  0.9582951216779413  0.9167999058436841  0.3994832108807640
  0.4773009197324405  0.5327558982273451  0.4924031249894703
 
  0.00000000E+00  0.00000000E+00  0.00000000E+00
  0.00000000E+00  0.00000000E+00  0.00000000E+00
  0.00000000E+00  0.00000000E+00  0.00000000E+00
  0.00000000E+00  0.00000000E+00  0.00000000E+00
  0.00000000E+00  0.00000000E+00  0.00000000E+00
  0.00000000E+00  0.00000000E+00  0.00000000E+00
  0.00000000E+00  0.00000000E+00  0.00000000E+00
  0.00000000E+00  0.00000000E+00  0.00000000E+00
  0.00000000E+00  0.00000000E+00  0.00000000E+00
  0.00000000E+00  0.00000000E+00  0.00000000E+00
  0.00000000E+00  0.00000000E+00  0.00000000E+00
  0.00000000E+00  0.00000000E+00  0.00000000E+00
  0.00000000E+00  0.00000000E+00  0.00000000E+00
  0.00000000E+00  0.00000000E+00  0.00000000E+00
  0.00000000E+00  0.00000000E+00  0.00000000E+00
  0.00000000E+00  0.00000000E+00  0.00000000E+00
  0.00000000E+00  0.00000000E+00  0.00000000E+00
  0.00000000E+00  0.00000000E+00  0.00000000E+00
  0.00000000E+00  0.00000000E+00  0.00000000E+00
  0.00000000E+00  0.00000000E+00  0.00000000E+00
  0.00000000E+00  0.00000000E+00  0.00000000E+00
  0.00000000E+00  0.00000000E+00  0.00000000E+00
  0.00000000E+00  0.00000000E+00  0.00000000E+00
  0.00000000E+00  0.00000000E+00  0.00000000E+00
  0.00000000E+00  0.00000000E+00  0.00000000E+00
  0.00000000E+00  0.00000000E+00  0.00000000E+00
  0.00000000E+00  0.00000000E+00  0.00000000E+00
  0.00000000E+00  0.00000000E+00  0.00000000E+00
  0.00000000E+00  0.00000000E+00  0.00000000E+00
  0.00000000E+00  0.00000000E+00  0.00000000E+00
  0.00000000E+00  0.00000000E+00  0.00000000E+00
  0.00000000E+00  0.00000000E+00  0.00000000E+00
  0.00000000E+00  0.00000000E+00  0.00000000E+00
  0.00000000E+00  0.00000000E+00  0.00000000E+00
  0.00000000E+00  0.00000000E+00  0.00000000E+00
  0.00000000E+00  0.00000000E+00  0.00000000E+00
  0.00000000E+00  0.00000000E+00  0.00000000E+00
  0.00000000E+00  0.00000000E+00  0.00000000E+00
  0.00000000E+00  0.00000000E+00  0.00000000E+00
  0.00000000E+00  0.00000000E+00  0.00000000E+00
  0.00000000E+00  0.00000000E+00  0.00000000E+00
  0.00000000E+00  0.00000000E+00  0.00000000E+00
  0.00000000E+00  0.00000000E+00  0.00000000E+00
  0.00000000E+00  0.00000000E+00  0.00000000E+00
  0.00000000E+00  0.00000000E+00  0.00000000E+00
  0.00000000E+00  0.00000000E+00  0.00000000E+00
  0.00000000E+00  0.00000000E+00  0.00000000E+00
  0.00000000E+00  0.00000000E+00  0.00000000E+00
  0.00000000E+00  0.00000000E+00  0.00000000E+00
  0.00000000E+00  0.00000000E+00  0.00000000E+00
  0.00000000E+00  0.00000000E+00  0.00000000E+00
  0.00000000E+00  0.00000000E+00  0.00000000E+00
  0.00000000E+00  0.00000000E+00  0.00000000E+00
  0.00000000E+00  0.00000000E+00  0.00000000E+00
  0.00000000E+00  0.00000000E+00  0.00000000E+00
  0.00000000E+00  0.00000000E+00  0.00000000E+00
  0.00000000E+00  0.00000000E+00  0.00000000E+00
  0.00000000E+00  0.00000000E+00  0.00000000E+00
  0.00000000E+00  0.00000000E+00  0.00000000E+00
  0.00000000E+00  0.00000000E+00  0.00000000E+00
  0.00000000E+00  0.00000000E+00  0.00000000E+00
  0.00000000E+00  0.00000000E+00  0.00000000E+00
  0.00000000E+00  0.00000000E+00  0.00000000E+00
  0.00000000E+00  0.00000000E+00  0.00000000E+00
  0.00000000E+00  0.00000000E+00  0.00000000E+00
  0.00000000E+00  0.00000000E+00  0.00000000E+00
  0.00000000E+00  0.00000000E+00  0.00000000E+00
  0.00000000E+00  0.00000000E+00  0.00000000E+00
  0.00000000E+00  0.00000000E+00  0.00000000E+00
  0.00000000E+00  0.00000000E+00  0.00000000E+00
  0.00000000E+00  0.00000000E+00  0.00000000E+00
  0.00000000E+00  0.00000000E+00  0.00000000E+00
  0.00000000E+00  0.00000000E+00  0.00000000E+00
  0.00000000E+00  0.00000000E+00  0.00000000E+00
  0.00000000E+00  0.00000000E+00  0.00000000E+00
  0.00000000E+00  0.00000000E+00  0.00000000E+00
  0.00000000E+00  0.00000000E+00  0.00000000E+00
  0.00000000E+00  0.00000000E+00  0.00000000E+00
  0.00000000E+00  0.00000000E+00  0.00000000E+00
  0.00000000E+00  0.00000000E+00  0.00000000E+00
  0.00000000E+00  0.00000000E+00  0.00000000E+00
  0.00000000E+00  0.00000000E+00  0.00000000E+00
  0.00000000E+00  0.00000000E+00  0.00000000E+00
  0.00000000E+00  0.00000000E+00  0.00000000E+00
  0.00000000E+00  0.00000000E+00  0.00000000E+00
  0.00000000E+00  0.00000000E+00  0.00000000E+00
  0.00000000E+00  0.00000000E+00  0.00000000E+00
  0.00000000E+00  0.00000000E+00  0.00000000E+00
  0.00000000E+00  0.00000000E+00  0.00000000E+00
  0.00000000E+00  0.00000000E+00  0.00000000E+00
  0.00000000E+00  0.00000000E+00  0.00000000E+00
  0.00000000E+00  0.00000000E+00  0.00000000E+00
  0.00000000E+00  0.00000000E+00  0.00000000E+00
  0.00000000E+00  0.00000000E+00  0.00000000E+00
  0.00000000E+00  0.00000000E+00  0.00000000E+00
  0.00000000E+00  0.00000000E+00  0.00000000E+00
  0.00000000E+00  0.00000000E+00  0.00000000E+00
  0.00000000E+00  0.00000000E+00  0.00000000E+00
  0.00000000E+00  0.00000000E+00  0.00000000E+00
  0.00000000E+00  0.00000000E+00  0.00000000E+00
  0.00000000E+00  0.00000000E+00  0.00000000E+00
  0.00000000E+00  0.00000000E+00  0.00000000E+00
  0.00000000E+00  0.00000000E+00  0.00000000E+00
  0.00000000E+00  0.00000000E+00  0.00000000E+00
  0.00000000E+00  0.00000000E+00  0.00000000E+00
  0.00000000E+00  0.00000000E+00  0.00000000E+00
  0.00000000E+00  0.00000000E+00  0.00000000E+00
  0.00000000E+00  0.00000000E+00  0.00000000E+00
  0.00000000E+00  0.00000000E+00  0.00000000E+00
  0.00000000E+00  0.00000000E+00  0.00000000E+00
  0.00000000E+00  0.00000000E+00  0.00000000E+00
  0.00000000E+00  0.00000000E+00  0.00000000E+00
  0.00000000E+00  0.00000000E+00  0.00000000E+00
  0.00000000E+00  0.00000000E+00  0.00000000E+00
  0.00000000E+00  0.00000000E+00  0.00000000E+00
  0.00000000E+00  0.00000000E+00  0.00000000E+00
  0.00000000E+00  0.00000000E+00  0.00000000E+00
  0.00000000E+00  0.00000000E+00  0.00000000E+00
  0.00000000E+00  0.00000000E+00  0.00000000E+00
  0.00000000E+00  0.00000000E+00  0.00000000E+00
  0.00000000E+00  0.00000000E+00  0.00000000E+00
  0.00000000E+00  0.00000000E+00  0.00000000E+00
  0.00000000E+00  0.00000000E+00  0.00000000E+00
  0.00000000E+00  0.00000000E+00  0.00000000E+00
  0.00000000E+00  0.00000000E+00  0.00000000E+00
  0.00000000E+00  0.00000000E+00  0.00000000E+00
  0.00000000E+00  0.00000000E+00  0.00000000E+00
  0.00000000E+00  0.00000000E+00  0.00000000E+00
  0.00000000E+00  0.00000000E+00  0.00000000E+00
