H1 W1 C125 N1 O1                        
   1.00000000000000     
    19.8078007080435157   -0.0110843573584399    0.0431424914248604
    -9.9120240996196607   17.0576198616106645   -0.2498232970818934
     0.0649247439979334   -0.3983112708908382   29.7967146668664356
   H    W    C    N    O 
     1     1   125     1     1
Direct
  0.4872577337092078  0.5244718721076649  0.5160709119801934
  0.4388319025697410  0.5034406914436490  0.4330949552324243
  0.0421061415820862  0.0842412939752428  0.3992457624044135
  0.0415840624940560  0.2086748514771969  0.3995046326208732
  0.0410322253257953  0.3333517339173866  0.4000770158781033
  0.0408965462372563  0.4586052030530953  0.3999742876635351
  0.0414410305139338  0.5838904617734842  0.3994305146082422
  0.0418913557813701  0.7090721965517622  0.3991614452325378
  0.0421436509686072  0.8343150397696271  0.3991740741783504
  0.0421878930693249  0.9593741318342013  0.3992164521428922
  0.1675811930515956  0.0851797026836788  0.3999417906700176
  0.1676738568184133  0.2103347826053978  0.4000359802018758
  0.1663386403757831  0.3344069876052054  0.4008927804508967
  0.1647807450301675  0.4589177982643791  0.4015622224023478
  0.1654578884564315  0.5840131471256049  0.4005505808106448
  0.1664088393192303  0.7091558778978442  0.3995853675095393
  0.1669325914563602  0.8343682103371598  0.3994385690819073
  0.1672626553575102  0.9597271538342753  0.3997224763066835
  0.2924432615471201  0.0850810242828016  0.3999901135443907
  0.2932782726157510  0.2115055036688446  0.4010335349444505
  0.2936817689313460  0.3376594565293785  0.4021233840655974
  0.2890608943052985  0.4598054757030193  0.4033728488591016
  0.2891695747036452  0.5845660413256292  0.4021007860022672
  0.2909253673618115  0.7092048443433623  0.4001085910287096
  0.2916690818463632  0.8341513434458064  0.3992519096577227
  0.2919713399623356  0.9593969480565717  0.3994014761171799
  0.4170090035660483  0.0840209654880294  0.3992023718012583
  0.4175351076493813  0.2098165758780592  0.4001165025211558
  0.4190987683122218  0.3369809789213702  0.4031679943280281
  0.4151460456894842  0.7071599156732458  0.4004804424689112
  0.4162961254270519  0.8329823809129047  0.3991780244887316
  0.4166981123719614  0.9584881272994946  0.3989460359023457
  0.5416603678771883  0.0829565854793650  0.3988596598010791
  0.5420862956186113  0.2081923682707041  0.3993162891648748
  0.5430238385775411  0.3333597369006250  0.4011251533641982
  0.5458533731005877  0.4579845498593558  0.4041317008866602
  0.5437039289188081  0.5801289391597984  0.4039296021995338
  0.5386551832272971  0.7042092658525742  0.4010774252733885
  0.5407607991696770  0.8316654108890181  0.3994899327731885
  0.5414037237619315  0.9575778698588115  0.3989661863365260
  0.6664574093377557  0.0826020149812812  0.3990783736305897
  0.6667449780503542  0.2078036274642567  0.3991311484536047
  0.6674101091810776  0.3329738340675862  0.3997545369141947
  0.6692333184144986  0.4584309798197516  0.4009461143974470
  0.6698476683897520  0.5837408791061282  0.4010008917142258
  0.6658377955897608  0.7066237184643712  0.3992522653336450
  0.6650504711985281  0.8312184816726766  0.3990071468896729
  0.6659939516092906  0.9571561001866639  0.3990963445081490
  0.7912610500307753  0.0826012686091781  0.3990904409018262
  0.7915154444718208  0.2078127702316082  0.3992481347032434
  0.7919162280139745  0.3330394865138538  0.3992580239305582
  0.7927951968950502  0.4583991136791238  0.3992891866863326
  0.7933467059007867  0.5836629608379150  0.3994014516339298
  0.7925107607962767  0.7087378840334725  0.3987700311873011
  0.7911188497826295  0.8326687993396849  0.3983498647665977
  0.7908791123547149  0.9573481580038156  0.3986952880581447
  0.9163993048001261  0.0830919525773490  0.3989361875952560
  0.9163363013969514  0.2079694855572880  0.3992994705484418
  0.9164207224402983  0.3331399126165978  0.3994402642804738
  0.9167728438890510  0.4583986380009992  0.3991816696136968
  0.9173605201654516  0.5837960899268897  0.3989490683882026
  0.9173201911075609  0.7090035791613554  0.3988051232189748
  0.9170500051283866  0.8338741772873716  0.3985742107630670
  0.9166023578631263  0.9584268146951912  0.3986772371083669
  0.0840582496066565  0.0429601023493131  0.3994661201442608
  0.0839531168733656  0.1678328680957474  0.3995212783865003
  0.0829549547131446  0.2920781991997036  0.4001001628550686
  0.0820481748681099  0.4168879221288281  0.4005212635424278
  0.0825104411463059  0.5421067583154591  0.3999820288569161
  0.0832377041606000  0.6673864759968254  0.3993844552844893
  0.0836605216863742  0.7926109491031852  0.3993217605290005
  0.0838652445187631  0.9178176363576758  0.3994319838843751
  0.2090304419997528  0.0432370369582814  0.3999856349529534
  0.2094956844856337  0.1689047377283592  0.4002968289472775
  0.2095266672143044  0.2941946400598798  0.4006405513836525
  0.2062679504377559  0.4176891333424138  0.4020815198946018
  0.2062180027561356  0.5422495556322227  0.4015369824845587
  0.2076421950531641  0.6675121452548802  0.4001175685198199
  0.2084087287270064  0.7926558487071748  0.3994038482015012
  0.2087462951340519  0.9178530020682706  0.3995606147966219
  0.3337472659651473  0.0429087079606265  0.3995116878018313
  0.3343171887587328  0.1687284509753627  0.4004204245879661
  0.3352345541528672  0.2952148345639832  0.4024078578856242
  0.3328881046554084  0.4212848307006259  0.4047471046548182
  0.3301219623886085  0.5439127964719435  0.4033276170522750
  0.3319566109141814  0.6675609225426682  0.4009485902460667
  0.3331240550060804  0.7923943511938555  0.3993920527230845
  0.3334588397803152  0.9174856410569281  0.3991385539966165
  0.4584655902006116  0.0419309384865792  0.3989413130382547
  0.4588085416261902  0.1674751105702763  0.3994090626301304
  0.4597031064413322  0.2935242561399039  0.4010647059620591
  0.4637467498215972  0.4202805095462785  0.4070329168666086
  0.4549302072666970  0.6633785869367276  0.4018681103450064
  0.4576320631580876  0.7907446285950834  0.3995334128277564
  0.4581440683551458  0.9164575593113393  0.3989351715196588
  0.5832019289435044  0.0410921932264862  0.3989313211716107
  0.5834826961248457  0.1663417154196278  0.3990082453126380
  0.5841864407932583  0.2914219781435058  0.3999915059514369
  0.5863641773692909  0.4164839751425556  0.4021487195746515
  0.5879352202749480  0.5420788997519349  0.4027642280433535
  0.5814591339785394  0.6628114486479338  0.4009753238344325
  0.5811302237016351  0.7885151504323492  0.3997757669509418
  0.5827371462406288  0.9154430837003854  0.3991330418697344
  0.7079093859979905  0.0407484859331695  0.3991090365228842
  0.7082687021474071  0.1661032079328128  0.3991500235557201
  0.7086780495503814  0.2912732897889717  0.3993145397306747
  0.7099113278635698  0.4165904366659282  0.3999239274459989
  0.7108885746369300  0.5418584382231639  0.4005708187100678
  0.7093113408610148  0.6667836317774052  0.3995009846761007
  0.7073871208225808  0.7902268599959796  0.3986395713168610
  0.7072198207565813  0.9150302624382158  0.3988749680310299
  0.8328827241591759  0.0410059238318693  0.3988955158704037
  0.8330340678142583  0.1661227353589468  0.3992096668785706
  0.8332911714259487  0.2913517672732890  0.3992810769654432
  0.8338194823360943  0.4165376896987675  0.3991769039954370
  0.8344712241004538  0.5418994151452572  0.3991056209601226
  0.8343072458946778  0.6672682018986498  0.3989325928608177
  0.8336572888094050  0.7919269152977351  0.3983957501752627
  0.8329597817698602  0.9162368070463959  0.3984787504727647
  0.9584700367059995  0.0419613487925642  0.3989248520702179
  0.9581690591424356  0.1665908435250830  0.3991648882833455
  0.9579125540391950  0.2914768131691834  0.3995740242241095
  0.9579414818786258  0.4166488969653334  0.3994833742715656
  0.9584842328307503  0.5420044996068795  0.3991136772530412
  0.9588049814133345  0.6672921788928381  0.3989483907632714
  0.9588737424714950  0.7924911716985716  0.3987963332183780
  0.9587004295397992  0.9173175249926495  0.3987670935021003
  0.4106977680268720  0.5820806419507275  0.4049096465602237
  0.4412916722400591  0.5045032603943217  0.4967753740442991
 
  0.00000000E+00  0.00000000E+00  0.00000000E+00
  0.00000000E+00  0.00000000E+00  0.00000000E+00
  0.00000000E+00  0.00000000E+00  0.00000000E+00
  0.00000000E+00  0.00000000E+00  0.00000000E+00
  0.00000000E+00  0.00000000E+00  0.00000000E+00
  0.00000000E+00  0.00000000E+00  0.00000000E+00
  0.00000000E+00  0.00000000E+00  0.00000000E+00
  0.00000000E+00  0.00000000E+00  0.00000000E+00
  0.00000000E+00  0.00000000E+00  0.00000000E+00
  0.00000000E+00  0.00000000E+00  0.00000000E+00
  0.00000000E+00  0.00000000E+00  0.00000000E+00
  0.00000000E+00  0.00000000E+00  0.00000000E+00
  0.00000000E+00  0.00000000E+00  0.00000000E+00
  0.00000000E+00  0.00000000E+00  0.00000000E+00
  0.00000000E+00  0.00000000E+00  0.00000000E+00
  0.00000000E+00  0.00000000E+00  0.00000000E+00
  0.00000000E+00  0.00000000E+00  0.00000000E+00
  0.00000000E+00  0.00000000E+00  0.00000000E+00
  0.00000000E+00  0.00000000E+00  0.00000000E+00
  0.00000000E+00  0.00000000E+00  0.00000000E+00
  0.00000000E+00  0.00000000E+00  0.00000000E+00
  0.00000000E+00  0.00000000E+00  0.00000000E+00
  0.00000000E+00  0.00000000E+00  0.00000000E+00
  0.00000000E+00  0.00000000E+00  0.00000000E+00
  0.00000000E+00  0.00000000E+00  0.00000000E+00
  0.00000000E+00  0.00000000E+00  0.00000000E+00
  0.00000000E+00  0.00000000E+00  0.00000000E+00
  0.00000000E+00  0.00000000E+00  0.00000000E+00
  0.00000000E+00  0.00000000E+00  0.00000000E+00
  0.00000000E+00  0.00000000E+00  0.00000000E+00
  0.00000000E+00  0.00000000E+00  0.00000000E+00
  0.00000000E+00  0.00000000E+00  0.00000000E+00
  0.00000000E+00  0.00000000E+00  0.00000000E+00
  0.00000000E+00  0.00000000E+00  0.00000000E+00
  0.00000000E+00  0.00000000E+00  0.00000000E+00
  0.00000000E+00  0.00000000E+00  0.00000000E+00
  0.00000000E+00  0.00000000E+00  0.00000000E+00
  0.00000000E+00  0.00000000E+00  0.00000000E+00
  0.00000000E+00  0.00000000E+00  0.00000000E+00
  0.00000000E+00  0.00000000E+00  0.00000000E+00
  0.00000000E+00  0.00000000E+00  0.00000000E+00
  0.00000000E+00  0.00000000E+00  0.00000000E+00
  0.00000000E+00  0.00000000E+00  0.00000000E+00
  0.00000000E+00  0.00000000E+00  0.00000000E+00
  0.00000000E+00  0.00000000E+00  0.00000000E+00
  0.00000000E+00  0.00000000E+00  0.00000000E+00
  0.00000000E+00  0.00000000E+00  0.00000000E+00
  0.00000000E+00  0.00000000E+00  0.00000000E+00
  0.00000000E+00  0.00000000E+00  0.00000000E+00
  0.00000000E+00  0.00000000E+00  0.00000000E+00
  0.00000000E+00  0.00000000E+00  0.00000000E+00
  0.00000000E+00  0.00000000E+00  0.00000000E+00
  0.00000000E+00  0.00000000E+00  0.00000000E+00
  0.00000000E+00  0.00000000E+00  0.00000000E+00
  0.00000000E+00  0.00000000E+00  0.00000000E+00
  0.00000000E+00  0.00000000E+00  0.00000000E+00
  0.00000000E+00  0.00000000E+00  0.00000000E+00
  0.00000000E+00  0.00000000E+00  0.00000000E+00
  0.00000000E+00  0.00000000E+00  0.00000000E+00
  0.00000000E+00  0.00000000E+00  0.00000000E+00
  0.00000000E+00  0.00000000E+00  0.00000000E+00
  0.00000000E+00  0.00000000E+00  0.00000000E+00
  0.00000000E+00  0.00000000E+00  0.00000000E+00
  0.00000000E+00  0.00000000E+00  0.00000000E+00
  0.00000000E+00  0.00000000E+00  0.00000000E+00
  0.00000000E+00  0.00000000E+00  0.00000000E+00
  0.00000000E+00  0.00000000E+00  0.00000000E+00
  0.00000000E+00  0.00000000E+00  0.00000000E+00
  0.00000000E+00  0.00000000E+00  0.00000000E+00
  0.00000000E+00  0.00000000E+00  0.00000000E+00
  0.00000000E+00  0.00000000E+00  0.00000000E+00
  0.00000000E+00  0.00000000E+00  0.00000000E+00
  0.00000000E+00  0.00000000E+00  0.00000000E+00
  0.00000000E+00  0.00000000E+00  0.00000000E+00
  0.00000000E+00  0.00000000E+00  0.00000000E+00
  0.00000000E+00  0.00000000E+00  0.00000000E+00
  0.00000000E+00  0.00000000E+00  0.00000000E+00
  0.00000000E+00  0.00000000E+00  0.00000000E+00
  0.00000000E+00  0.00000000E+00  0.00000000E+00
  0.00000000E+00  0.00000000E+00  0.00000000E+00
  0.00000000E+00  0.00000000E+00  0.00000000E+00
  0.00000000E+00  0.00000000E+00  0.00000000E+00
  0.00000000E+00  0.00000000E+00  0.00000000E+00
  0.00000000E+00  0.00000000E+00  0.00000000E+00
  0.00000000E+00  0.00000000E+00  0.00000000E+00
  0.00000000E+00  0.00000000E+00  0.00000000E+00
  0.00000000E+00  0.00000000E+00  0.00000000E+00
  0.00000000E+00  0.00000000E+00  0.00000000E+00
  0.00000000E+00  0.00000000E+00  0.00000000E+00
  0.00000000E+00  0.00000000E+00  0.00000000E+00
  0.00000000E+00  0.00000000E+00  0.00000000E+00
  0.00000000E+00  0.00000000E+00  0.00000000E+00
  0.00000000E+00  0.00000000E+00  0.00000000E+00
  0.00000000E+00  0.00000000E+00  0.00000000E+00
  0.00000000E+00  0.00000000E+00  0.00000000E+00
  0.00000000E+00  0.00000000E+00  0.00000000E+00
  0.00000000E+00  0.00000000E+00  0.00000000E+00
  0.00000000E+00  0.00000000E+00  0.00000000E+00
  0.00000000E+00  0.00000000E+00  0.00000000E+00
  0.00000000E+00  0.00000000E+00  0.00000000E+00
  0.00000000E+00  0.00000000E+00  0.00000000E+00
  0.00000000E+00  0.00000000E+00  0.00000000E+00
  0.00000000E+00  0.00000000E+00  0.00000000E+00
  0.00000000E+00  0.00000000E+00  0.00000000E+00
  0.00000000E+00  0.00000000E+00  0.00000000E+00
  0.00000000E+00  0.00000000E+00  0.00000000E+00
  0.00000000E+00  0.00000000E+00  0.00000000E+00
  0.00000000E+00  0.00000000E+00  0.00000000E+00
  0.00000000E+00  0.00000000E+00  0.00000000E+00
  0.00000000E+00  0.00000000E+00  0.00000000E+00
  0.00000000E+00  0.00000000E+00  0.00000000E+00
  0.00000000E+00  0.00000000E+00  0.00000000E+00
  0.00000000E+00  0.00000000E+00  0.00000000E+00
  0.00000000E+00  0.00000000E+00  0.00000000E+00
  0.00000000E+00  0.00000000E+00  0.00000000E+00
  0.00000000E+00  0.00000000E+00  0.00000000E+00
  0.00000000E+00  0.00000000E+00  0.00000000E+00
  0.00000000E+00  0.00000000E+00  0.00000000E+00
  0.00000000E+00  0.00000000E+00  0.00000000E+00
  0.00000000E+00  0.00000000E+00  0.00000000E+00
  0.00000000E+00  0.00000000E+00  0.00000000E+00
  0.00000000E+00  0.00000000E+00  0.00000000E+00
  0.00000000E+00  0.00000000E+00  0.00000000E+00
  0.00000000E+00  0.00000000E+00  0.00000000E+00
  0.00000000E+00  0.00000000E+00  0.00000000E+00
  0.00000000E+00  0.00000000E+00  0.00000000E+00
  0.00000000E+00  0.00000000E+00  0.00000000E+00
  0.00000000E+00  0.00000000E+00  0.00000000E+00
  0.00000000E+00  0.00000000E+00  0.00000000E+00
