Sc1 H1 C123 N3 O1                       
   1.00000000000000     
    19.8131633246294925    0.0065339858137247   -0.1102975930267763
    -9.9010926181864161   17.0435977937805028   -0.0901589593472571
    -0.1656115155822164   -0.2538046581162514   29.7953685414087737
   Sc   H    C    N    O 
     1     1   123     3     1
Direct
  0.4391924744523724  0.5044318036448115  0.4383738221893259
  0.4749680140050608  0.5381273749221953  0.5315252361943715
  0.0419049901952503  0.0840781147682107  0.3996492552128050
  0.0408726246344767  0.2081056141580279  0.3995107932149106
  0.0402874631018293  0.3328699851650629  0.3990337113588330
  0.0405511930371471  0.4581906878456798  0.3988370215863326
  0.0414972131645831  0.5837940393576651  0.3993032357626621
  0.0423673938315864  0.7093085037926102  0.3997207040347890
  0.0427077014170380  0.8346810356241090  0.3998108534559435
  0.0426269871413959  0.9597188306581116  0.3996790361793721
  0.1678989241079130  0.0856130362816525  0.4003321781602217
  0.1670259943155233  0.2098707340562430  0.4004790996399676
  0.1650218851817853  0.3334964324603959  0.3999374112964256
  0.1642968200663698  0.4583206657913045  0.3983681693862913
  0.1652867999898786  0.5835581365214800  0.3985509797148474
  0.1665686926393465  0.7090452175498564  0.3994184761917124
  0.1673241655809602  0.8346196212757612  0.3998343466882315
  0.1677369170513294  0.9602158545740922  0.4000327149411088
  0.2928200619353158  0.0858451558752559  0.4001383655643544
  0.2934945889022002  0.2128025673506041  0.4019902860736453
  0.2917107672620206  0.3379249316168006  0.4043675162236268
  0.2879362604061708  0.4571998945291592  0.4020679756042109
  0.2887626005078133  0.5829231784634238  0.3985960996484668
  0.2907434178034072  0.7084435801049574  0.3986948982821724
  0.2917620173379784  0.8339708656481576  0.3992907915605221
  0.2923238422293234  0.9597214480708081  0.3995944332162197
  0.4172337273335379  0.0841503760598672  0.3993718994241329
  0.4178716094868637  0.2100587632441336  0.3997934559061656
  0.4204048015568311  0.3376371128120116  0.4043252133601097
  0.4148602430858834  0.7065129316601946  0.3992217654617014
  0.4161716065947100  0.8324155578703112  0.3991392423789835
  0.4167745901442860  0.9582908387628725  0.3993507595780610
  0.5416630921787967  0.0826085653613367  0.3994389507386644
  0.5423069431598239  0.2083505841219639  0.3989063974910108
  0.5433860907445316  0.3339938592388840  0.3989560022848685
  0.5456288271614319  0.4587950925007095  0.4023449956005622
  0.5389126675200516  0.7022747215687933  0.4017369345505406
  0.5405596227598920  0.8303176917699803  0.3999484655608854
  0.5411898508249557  0.9566767834597160  0.3996699622191934
  0.6661687550711801  0.0819157284028860  0.3998393726233377
  0.6666796405828512  0.2074629854937645  0.3993471236853892
  0.6675390735559177  0.3329347252686983  0.3984981412633263
  0.6693841426703300  0.4584902373990295  0.3978131967565550
  0.6704508428366164  0.5841347599322373  0.3985583129006238
  0.6674003761122044  0.7070320100438685  0.3994318878835387
  0.6651013853186037  0.8304959551872405  0.4000382118806678
  0.6657126445979347  0.9562889259526958  0.4000692842150159
  0.7908069321790364  0.0818927064180094  0.3999067820573534
  0.7911157034460570  0.2072394576134840  0.3996612746096266
  0.7917792209436476  0.3327256332226124  0.3991952017063151
  0.7929225925686092  0.4583186808931998  0.3986140181169599
  0.7937054945626977  0.5837493927999143  0.3983097672800598
  0.7935737239222790  0.7090512064837813  0.3986014976929677
  0.7917015189990664  0.8327411093502689  0.3991283888135451
  0.7906771730450937  0.9567798579259040  0.3996955097743530
  0.9159726248703768  0.0825845976508116  0.3995432125338945
  0.9157323516371083  0.2074083986069783  0.3995557528417887
  0.9159726276088088  0.3327141014908942  0.3992924608540969
  0.9167113167904370  0.4582207884397945  0.3991254334336385
  0.9176566404699221  0.5838609686104534  0.3991540318139527
  0.9179887572016712  0.7092305235311112  0.3992153001631089
  0.9177077907583756  0.8341989562748393  0.3991939446019916
  0.9167952352989375  0.9583994140373204  0.3993128269335357
  0.0843431414394907  0.0432761905896832  0.3998512461944635
  0.0834578923042242  0.1675175797501198  0.3997706775673646
  0.0820083726602863  0.2914441990385213  0.3993453321406270
  0.0815906607711136  0.4163355745694501  0.3986011683152985
  0.0823977350037694  0.5417835015864544  0.3989069886794261
  0.0834688808269181  0.6673551507441101  0.3995624161883206
  0.0841272174337823  0.7928960351915461  0.3998772577502471
  0.0843950106140881  0.9182383848345124  0.3998958047104998
  0.2094310135011131  0.0437670453165306  0.4002634209105702
  0.2096039592052713  0.1693359870554975  0.4009575822500905
  0.2080773940674514  0.2933811894376070  0.4010991811796326
  0.2055678288870559  0.4168047763804399  0.3994944930632544
  0.2059298559151856  0.5414889033789984  0.3982230918576952
  0.2075630604604979  0.6670719741880137  0.3988664135070399
  0.2085681516329579  0.7926210320101307  0.3995586274288587
  0.2091213809173022  0.9181989964485631  0.3998524034564310
  0.3340400688669134  0.0433788434398563  0.3996352340058566
  0.3346157354808369  0.1696562305533715  0.4006751396206605
  0.3355604591902861  0.2968129059252794  0.4044954578480471
  0.3306368335114724  0.5425079794364253  0.4007820215501625
  0.3316630821732804  0.6662913835418580  0.3986396355197076
  0.3329857479628610  0.7917898132764581  0.3989869058468698
  0.3335679679038420  0.9174389328869803  0.3993609630924677
  0.4584989882398535  0.0417484587396811  0.3993735709966112
  0.4590229822035803  0.1675751506927029  0.3991992758913472
  0.4600751435742448  0.2935813631920183  0.4002331109655884
  0.4648485729726489  0.4197996605881490  0.4082153916186941
  0.4539835925109375  0.6618413198189634  0.4012658502549313
  0.4573460936396186  0.7899549989082815  0.3993109608341501
  0.4580064739650672  0.9159256456349952  0.3993837663945564
  0.5829330251165591  0.0403491468631689  0.3996870250243935
  0.5835122289940687  0.1661610689192905  0.3992177875399442
  0.5843928944740643  0.2916915265711801  0.3985418745230093
  0.5866647288673084  0.4173098608241412  0.3987775864059367
  0.5886621444326454  0.5438832996994593  0.4015083451396780
  0.5838083448451631  0.6622515180031291  0.4018574902024491
  0.5811002956061850  0.7868580914560087  0.4005358550104704
  0.5824181615371773  0.9142193343273850  0.3999223119894019
  0.7075159592815113  0.0399262258754214  0.3999928555255901
  0.7079675192127479  0.1655071657175475  0.3996837084264782
  0.7086197983422664  0.2909896204541926  0.3990438520422137
  0.7100446203291279  0.4165200845376305  0.3981392016980110
  0.7111764353323542  0.5418707664848801  0.3978975015006000
  0.7106386340765348  0.6671485902076910  0.3986953910934585
  0.7081350302981849  0.7903818748374448  0.3993807724136693
  0.7070439710715175  0.9143381289416999  0.3999623219176259
  0.8325063054928361  0.0404023938270947  0.3997407288475601
  0.8325365464825704  0.1654856001878107  0.3997676839455449
  0.8329323969595579  0.2908191778192973  0.3994233096465584
  0.8338152113494633  0.4163008651803236  0.3990230964770926
  0.8347787070323150  0.5418938024038497  0.3986876647328182
  0.8350604641097508  0.6673713459580577  0.3986879033796377
  0.8344382020907412  0.7922195608269369  0.3989135264579762
  0.8332339758950439  0.9161401162301422  0.3993618136694667
  0.9583608502291237  0.0418008959467803  0.3994444981062890
  0.9575706441754143  0.1660359641801598  0.3995065933899150
  0.9573278300567452  0.2909719733964906  0.3993102131795814
  0.9576511151442441  0.4162644236131064  0.3991230038130820
  0.9585960288434472  0.5418791654871771  0.3992113327314752
  0.9593509386406016  0.6674309943442676  0.3994061258088356
  0.9594982892633533  0.7927840112293166  0.3994392796963308
  0.9592073157481372  0.9176262662538741  0.3993308908999471
  0.4103143373401895  0.5821475405916064  0.4031951487959456
  0.5482826424607319  0.5828079767511168  0.4045261803067838
  0.3279994994758691  0.4181317768201662  0.4068841831196591
  0.4547325616590471  0.5215423285098979  0.5014761625312267
 
  0.00000000E+00  0.00000000E+00  0.00000000E+00
  0.00000000E+00  0.00000000E+00  0.00000000E+00
  0.00000000E+00  0.00000000E+00  0.00000000E+00
  0.00000000E+00  0.00000000E+00  0.00000000E+00
  0.00000000E+00  0.00000000E+00  0.00000000E+00
  0.00000000E+00  0.00000000E+00  0.00000000E+00
  0.00000000E+00  0.00000000E+00  0.00000000E+00
  0.00000000E+00  0.00000000E+00  0.00000000E+00
  0.00000000E+00  0.00000000E+00  0.00000000E+00
  0.00000000E+00  0.00000000E+00  0.00000000E+00
  0.00000000E+00  0.00000000E+00  0.00000000E+00
  0.00000000E+00  0.00000000E+00  0.00000000E+00
  0.00000000E+00  0.00000000E+00  0.00000000E+00
  0.00000000E+00  0.00000000E+00  0.00000000E+00
  0.00000000E+00  0.00000000E+00  0.00000000E+00
  0.00000000E+00  0.00000000E+00  0.00000000E+00
  0.00000000E+00  0.00000000E+00  0.00000000E+00
  0.00000000E+00  0.00000000E+00  0.00000000E+00
  0.00000000E+00  0.00000000E+00  0.00000000E+00
  0.00000000E+00  0.00000000E+00  0.00000000E+00
  0.00000000E+00  0.00000000E+00  0.00000000E+00
  0.00000000E+00  0.00000000E+00  0.00000000E+00
  0.00000000E+00  0.00000000E+00  0.00000000E+00
  0.00000000E+00  0.00000000E+00  0.00000000E+00
  0.00000000E+00  0.00000000E+00  0.00000000E+00
  0.00000000E+00  0.00000000E+00  0.00000000E+00
  0.00000000E+00  0.00000000E+00  0.00000000E+00
  0.00000000E+00  0.00000000E+00  0.00000000E+00
  0.00000000E+00  0.00000000E+00  0.00000000E+00
  0.00000000E+00  0.00000000E+00  0.00000000E+00
  0.00000000E+00  0.00000000E+00  0.00000000E+00
  0.00000000E+00  0.00000000E+00  0.00000000E+00
  0.00000000E+00  0.00000000E+00  0.00000000E+00
  0.00000000E+00  0.00000000E+00  0.00000000E+00
  0.00000000E+00  0.00000000E+00  0.00000000E+00
  0.00000000E+00  0.00000000E+00  0.00000000E+00
  0.00000000E+00  0.00000000E+00  0.00000000E+00
  0.00000000E+00  0.00000000E+00  0.00000000E+00
  0.00000000E+00  0.00000000E+00  0.00000000E+00
  0.00000000E+00  0.00000000E+00  0.00000000E+00
  0.00000000E+00  0.00000000E+00  0.00000000E+00
  0.00000000E+00  0.00000000E+00  0.00000000E+00
  0.00000000E+00  0.00000000E+00  0.00000000E+00
  0.00000000E+00  0.00000000E+00  0.00000000E+00
  0.00000000E+00  0.00000000E+00  0.00000000E+00
  0.00000000E+00  0.00000000E+00  0.00000000E+00
  0.00000000E+00  0.00000000E+00  0.00000000E+00
  0.00000000E+00  0.00000000E+00  0.00000000E+00
  0.00000000E+00  0.00000000E+00  0.00000000E+00
  0.00000000E+00  0.00000000E+00  0.00000000E+00
  0.00000000E+00  0.00000000E+00  0.00000000E+00
  0.00000000E+00  0.00000000E+00  0.00000000E+00
  0.00000000E+00  0.00000000E+00  0.00000000E+00
  0.00000000E+00  0.00000000E+00  0.00000000E+00
  0.00000000E+00  0.00000000E+00  0.00000000E+00
  0.00000000E+00  0.00000000E+00  0.00000000E+00
  0.00000000E+00  0.00000000E+00  0.00000000E+00
  0.00000000E+00  0.00000000E+00  0.00000000E+00
  0.00000000E+00  0.00000000E+00  0.00000000E+00
  0.00000000E+00  0.00000000E+00  0.00000000E+00
  0.00000000E+00  0.00000000E+00  0.00000000E+00
  0.00000000E+00  0.00000000E+00  0.00000000E+00
  0.00000000E+00  0.00000000E+00  0.00000000E+00
  0.00000000E+00  0.00000000E+00  0.00000000E+00
  0.00000000E+00  0.00000000E+00  0.00000000E+00
  0.00000000E+00  0.00000000E+00  0.00000000E+00
  0.00000000E+00  0.00000000E+00  0.00000000E+00
  0.00000000E+00  0.00000000E+00  0.00000000E+00
  0.00000000E+00  0.00000000E+00  0.00000000E+00
  0.00000000E+00  0.00000000E+00  0.00000000E+00
  0.00000000E+00  0.00000000E+00  0.00000000E+00
  0.00000000E+00  0.00000000E+00  0.00000000E+00
  0.00000000E+00  0.00000000E+00  0.00000000E+00
  0.00000000E+00  0.00000000E+00  0.00000000E+00
  0.00000000E+00  0.00000000E+00  0.00000000E+00
  0.00000000E+00  0.00000000E+00  0.00000000E+00
  0.00000000E+00  0.00000000E+00  0.00000000E+00
  0.00000000E+00  0.00000000E+00  0.00000000E+00
  0.00000000E+00  0.00000000E+00  0.00000000E+00
  0.00000000E+00  0.00000000E+00  0.00000000E+00
  0.00000000E+00  0.00000000E+00  0.00000000E+00
  0.00000000E+00  0.00000000E+00  0.00000000E+00
  0.00000000E+00  0.00000000E+00  0.00000000E+00
  0.00000000E+00  0.00000000E+00  0.00000000E+00
  0.00000000E+00  0.00000000E+00  0.00000000E+00
  0.00000000E+00  0.00000000E+00  0.00000000E+00
  0.00000000E+00  0.00000000E+00  0.00000000E+00
  0.00000000E+00  0.00000000E+00  0.00000000E+00
  0.00000000E+00  0.00000000E+00  0.00000000E+00
  0.00000000E+00  0.00000000E+00  0.00000000E+00
  0.00000000E+00  0.00000000E+00  0.00000000E+00
  0.00000000E+00  0.00000000E+00  0.00000000E+00
  0.00000000E+00  0.00000000E+00  0.00000000E+00
  0.00000000E+00  0.00000000E+00  0.00000000E+00
  0.00000000E+00  0.00000000E+00  0.00000000E+00
  0.00000000E+00  0.00000000E+00  0.00000000E+00
  0.00000000E+00  0.00000000E+00  0.00000000E+00
  0.00000000E+00  0.00000000E+00  0.00000000E+00
  0.00000000E+00  0.00000000E+00  0.00000000E+00
  0.00000000E+00  0.00000000E+00  0.00000000E+00
  0.00000000E+00  0.00000000E+00  0.00000000E+00
  0.00000000E+00  0.00000000E+00  0.00000000E+00
  0.00000000E+00  0.00000000E+00  0.00000000E+00
  0.00000000E+00  0.00000000E+00  0.00000000E+00
  0.00000000E+00  0.00000000E+00  0.00000000E+00
  0.00000000E+00  0.00000000E+00  0.00000000E+00
  0.00000000E+00  0.00000000E+00  0.00000000E+00
  0.00000000E+00  0.00000000E+00  0.00000000E+00
  0.00000000E+00  0.00000000E+00  0.00000000E+00
  0.00000000E+00  0.00000000E+00  0.00000000E+00
  0.00000000E+00  0.00000000E+00  0.00000000E+00
  0.00000000E+00  0.00000000E+00  0.00000000E+00
  0.00000000E+00  0.00000000E+00  0.00000000E+00
  0.00000000E+00  0.00000000E+00  0.00000000E+00
  0.00000000E+00  0.00000000E+00  0.00000000E+00
  0.00000000E+00  0.00000000E+00  0.00000000E+00
  0.00000000E+00  0.00000000E+00  0.00000000E+00
  0.00000000E+00  0.00000000E+00  0.00000000E+00
  0.00000000E+00  0.00000000E+00  0.00000000E+00
  0.00000000E+00  0.00000000E+00  0.00000000E+00
  0.00000000E+00  0.00000000E+00  0.00000000E+00
  0.00000000E+00  0.00000000E+00  0.00000000E+00
  0.00000000E+00  0.00000000E+00  0.00000000E+00
  0.00000000E+00  0.00000000E+00  0.00000000E+00
  0.00000000E+00  0.00000000E+00  0.00000000E+00
  0.00000000E+00  0.00000000E+00  0.00000000E+00
  0.00000000E+00  0.00000000E+00  0.00000000E+00
  0.00000000E+00  0.00000000E+00  0.00000000E+00
  0.00000000E+00  0.00000000E+00  0.00000000E+00
