Sc1 C126                                
   1.00000000000000     
    19.8100871310937769   -0.0000195173707290    0.0011935152290639
    -9.9050587162644295   17.0901863360458748   -0.0005855310205965
     0.0017907513855830    0.0000173049057100   29.7213922995111091
   Sc   C 
     1   126
Direct
  0.4374886006709101  0.4999992697581475  0.4397921644668734
  0.0416701139799320  0.0836763355179820  0.3999237364382735
  0.0408605680889929  0.2079437114485224  0.3997205107233051
  0.0405461163814102  0.3328002487837908  0.3996243249803069
  0.0406765190475614  0.4582754755449452  0.3998603544853758
  0.0413554028160696  0.5836404709924977  0.4000999575575731
  0.0419681625990047  0.7089204356083492  0.4001055542900161
  0.0422423796321332  0.8341881821750391  0.4000741112689417
  0.0422236282578164  0.9591619092795466  0.4000341021391836
  0.1672345724732616  0.0845692284817405  0.3998345323204419
  0.1665738472547346  0.2089142085371327  0.3996943414980262
  0.1652684495946243  0.3330870837975231  0.3994939258967574
  0.1645289568333985  0.4581714660036587  0.3991907761491678
  0.1654246788305134  0.5835388136158415  0.3994889809958812
  0.1664260944527202  0.7089397021295167  0.3999052986621018
  0.1669039258291523  0.8341759650152353  0.4000515031264684
  0.1672368631844069  0.9595056425247144  0.3999480982904022
  0.2923025735778737  0.0845749508204547  0.3998251206374394
  0.2927719266213560  0.2105606044686745  0.4002343494521835
  0.2917098257772307  0.3354661732726781  0.4014804199175332
  0.2882661120661307  0.4575441807106316  0.4008697605736655
  0.2892889374744596  0.5838363939392988  0.3994377423704337
  0.2908309973139450  0.7087750260298290  0.3995115613757407
  0.2915332083741708  0.8338520490928888  0.3999366655066857
  0.2919051136315656  0.9591327695137275  0.3999935301449467
  0.4169642322327886  0.0836438849425738  0.3999192322866530
  0.4173135667595549  0.2089135955103628  0.3996924647179762
  0.4187732652571466  0.3354713409950608  0.4015001291794869
  0.4123203258994756  0.5821617879009574  0.4040941839939010
  0.4155946091611623  0.7076202639048988  0.3997767932029505
  0.4161825649250189  0.8330751449972654  0.3997166530772460
  0.4165467139801279  0.9583100268685533  0.4000478781625652
  0.5415720451622681  0.0827525285659999  0.4000659613221996
  0.5420498935083793  0.2079223219866987  0.3997291741029573
  0.5428389666604760  0.3330905723951177  0.3994865301194832
  0.5443426809534903  0.4575415026881987  0.4009151699729251
  0.5448969642671928  0.5821475291087183  0.4041400960431016
  0.5407026847124243  0.7063925754504380  0.4014349744881432
  0.5407897509024546  0.8319774336281894  0.3998835428488322
  0.5412700056181546  0.9574445552401020  0.3999307507541672
  0.6662331903530587  0.0823404842373694  0.4000188668966181
  0.6666626098012672  0.2076151301053593  0.4000009541551753
  0.6672523846411652  0.3327874386479354  0.3995960865518777
  0.6687051716084176  0.4581759054470420  0.3991448889667851
  0.6696096160561481  0.5838332108918487  0.3994442755592106
  0.6670211957854075  0.7076122745129688  0.3997881938275443
  0.6661655124829087  0.8319798114393688  0.3998772214784503
  0.6660688409292458  0.9571545345010917  0.3998598643173823
  0.7910854734361201  0.0823522900575986  0.4000080411649661
  0.7912146770324632  0.2074639558950079  0.4000920142543348
  0.7917381545611722  0.3328083676045284  0.4000374043405657
  0.7926167322306547  0.4582782844857595  0.3997866129607140
  0.7931567363757328  0.5835497490963245  0.3994298651852983
  0.7929570693226476  0.7088026298227479  0.3995020665741040
  0.7918860074959501  0.8331073020306339  0.3997290396008095
  0.7911552068274029  0.9574735531898748  0.3998981678860180
  0.9161767508485346  0.0827747864773179  0.4000215056912360
  0.9159325307431131  0.2076298543388951  0.3999780774359367
  0.9160874226656165  0.3328137545242709  0.4000523191191936
  0.9165910729960878  0.4581580455955258  0.4001845424497272
  0.9172976648930892  0.5836351326273173  0.4000542173364205
  0.9175244014026165  0.7089562321629814  0.3999037685777811
  0.9173143185363368  0.8338902096942128  0.3999596569545876
  0.9167660961944275  0.9583459350551731  0.4000566041966492
  0.0838272928222116  0.0425542233731126  0.3999311795256777
  0.0831054920003879  0.1669229399973312  0.3997175293147421
  0.0820532512861052  0.2912233951821357  0.3995154280012845
  0.0818832540906598  0.4164581868825408  0.3994921911595985
  0.0824003046810647  0.5417200406809379  0.3998604995468921
  0.0832751789755861  0.6671824090330732  0.4000574440101533
  0.0837558275120307  0.7925370403910825  0.4000933276282907
  0.0838963482379141  0.9176597750177696  0.4000217036631338
  0.2089174213811981  0.0428468160135433  0.3998605429797201
  0.2088132635367069  0.1680222557022368  0.3998803613845363
  0.2079750147110327  0.2923807608454866  0.3997780052909686
  0.2054527432197105  0.4161643156138436  0.3994488788955750
  0.2063568643188414  0.5418266589429312  0.3991855579612369
  0.2077444891018075  0.6671962460075435  0.3996222668899088
  0.2083032026439623  0.7923668007324874  0.3999817223803621
  0.2087350678384214  0.9176470770056377  0.4000069309313662
  0.3336828717062669  0.0425283077958074  0.3998971505718958
  0.3341872885684825  0.1680241291125919  0.3998730794137674
  0.3343120536872369  0.2936097886076601  0.4014343309920224
  0.3301621932486603  0.4178421386847538  0.4040908744151733
  0.3307228388525435  0.5424577217397366  0.4008662824360173
  0.3321834342015308  0.6669136700046833  0.3994881286464985
  0.3329176831990020  0.7920557339706928  0.3997190346245279
  0.3334037292110399  0.9172252012601508  0.4000264581350517
  0.4584200209840876  0.0416540968102002  0.4000578326546020
  0.4587783921719942  0.1668959534138432  0.3997277952943922
  0.4594110240335652  0.2923890486608859  0.3997854351761128
  0.4627519868136785  0.4178530636057383  0.4041553975876076
  0.4562468305316079  0.6645358907583240  0.4014807377133909
  0.4576632675688301  0.7910878754851617  0.3996953245766023
  0.4579951992130257  0.9163253294590356  0.3999248734895731
  0.5830604965241191  0.0408382181165525  0.4000322666869739
  0.5834208360089478  0.1661094387636125  0.3999619335340843
  0.5841515303102595  0.2912003751058915  0.3994992156141650
  0.5857789063565041  0.4161690288907990  0.3994411228247497
  0.5868010337888896  0.5424600216746054  0.4009121198319124
  0.5833022218899928  0.6645302224245023  0.4014942802681640
  0.5822140734390694  0.7894419118196795  0.4002396038239518
  0.5826667769529148  0.9154331949861378  0.3998340482583417
  0.7077285724055732  0.0404938679537490  0.3999469735856295
  0.7080495651997302  0.1658089798788914  0.4000746429234975
  0.7085650607729861  0.2910434657834188  0.3999086711991083
  0.7096058982610740  0.4164516214481872  0.3994280611409126
  0.7105317829342817  0.5418267489938651  0.3991477902580743
  0.7097481142514885  0.6669116772254050  0.3994913706197350
  0.7083994278525659  0.7910874257660562  0.3996964239236341
  0.7077276623498677  0.9154257571628556  0.3998273684588655
  0.8327703269988044  0.0408647190171144  0.3999924892095204
  0.8327227120473013  0.1658200107789373  0.4000495077429893
  0.8330448498051302  0.2910764346185697  0.4001045554812422
  0.8336575044527407  0.4163627273293578  0.4000545575432755
  0.8343371891033056  0.5417216245396932  0.3997860905490995
  0.8344671496871776  0.6672139008870328  0.3995962434374607
  0.8341286855383295  0.7920787991051145  0.3997302961504712
  0.8333217976070530  0.9163565673875504  0.3999193222820517
  0.9582365765360318  0.0416881074795506  0.4000447201851540
  0.9576767559081891  0.1661463222189138  0.3999331144575199
  0.9574812232060645  0.2910564753506014  0.3999019685336518
  0.9577134000469838  0.4163569389823659  0.4000981879404893
  0.9584329314117862  0.5418404040365030  0.4001848819079755
  0.9589335781631387  0.6671923708543935  0.4000359762683310
  0.9590515631041501  0.7923849019225843  0.3999964901298623
  0.9588232847532471  0.9172476150198915  0.4000651869166898
 
  0.00000000E+00  0.00000000E+00  0.00000000E+00
  0.00000000E+00  0.00000000E+00  0.00000000E+00
  0.00000000E+00  0.00000000E+00  0.00000000E+00
  0.00000000E+00  0.00000000E+00  0.00000000E+00
  0.00000000E+00  0.00000000E+00  0.00000000E+00
  0.00000000E+00  0.00000000E+00  0.00000000E+00
  0.00000000E+00  0.00000000E+00  0.00000000E+00
  0.00000000E+00  0.00000000E+00  0.00000000E+00
  0.00000000E+00  0.00000000E+00  0.00000000E+00
  0.00000000E+00  0.00000000E+00  0.00000000E+00
  0.00000000E+00  0.00000000E+00  0.00000000E+00
  0.00000000E+00  0.00000000E+00  0.00000000E+00
  0.00000000E+00  0.00000000E+00  0.00000000E+00
  0.00000000E+00  0.00000000E+00  0.00000000E+00
  0.00000000E+00  0.00000000E+00  0.00000000E+00
  0.00000000E+00  0.00000000E+00  0.00000000E+00
  0.00000000E+00  0.00000000E+00  0.00000000E+00
  0.00000000E+00  0.00000000E+00  0.00000000E+00
  0.00000000E+00  0.00000000E+00  0.00000000E+00
  0.00000000E+00  0.00000000E+00  0.00000000E+00
  0.00000000E+00  0.00000000E+00  0.00000000E+00
  0.00000000E+00  0.00000000E+00  0.00000000E+00
  0.00000000E+00  0.00000000E+00  0.00000000E+00
  0.00000000E+00  0.00000000E+00  0.00000000E+00
  0.00000000E+00  0.00000000E+00  0.00000000E+00
  0.00000000E+00  0.00000000E+00  0.00000000E+00
  0.00000000E+00  0.00000000E+00  0.00000000E+00
  0.00000000E+00  0.00000000E+00  0.00000000E+00
  0.00000000E+00  0.00000000E+00  0.00000000E+00
  0.00000000E+00  0.00000000E+00  0.00000000E+00
  0.00000000E+00  0.00000000E+00  0.00000000E+00
  0.00000000E+00  0.00000000E+00  0.00000000E+00
  0.00000000E+00  0.00000000E+00  0.00000000E+00
  0.00000000E+00  0.00000000E+00  0.00000000E+00
  0.00000000E+00  0.00000000E+00  0.00000000E+00
  0.00000000E+00  0.00000000E+00  0.00000000E+00
  0.00000000E+00  0.00000000E+00  0.00000000E+00
  0.00000000E+00  0.00000000E+00  0.00000000E+00
  0.00000000E+00  0.00000000E+00  0.00000000E+00
  0.00000000E+00  0.00000000E+00  0.00000000E+00
  0.00000000E+00  0.00000000E+00  0.00000000E+00
  0.00000000E+00  0.00000000E+00  0.00000000E+00
  0.00000000E+00  0.00000000E+00  0.00000000E+00
  0.00000000E+00  0.00000000E+00  0.00000000E+00
  0.00000000E+00  0.00000000E+00  0.00000000E+00
  0.00000000E+00  0.00000000E+00  0.00000000E+00
  0.00000000E+00  0.00000000E+00  0.00000000E+00
  0.00000000E+00  0.00000000E+00  0.00000000E+00
  0.00000000E+00  0.00000000E+00  0.00000000E+00
  0.00000000E+00  0.00000000E+00  0.00000000E+00
  0.00000000E+00  0.00000000E+00  0.00000000E+00
  0.00000000E+00  0.00000000E+00  0.00000000E+00
  0.00000000E+00  0.00000000E+00  0.00000000E+00
  0.00000000E+00  0.00000000E+00  0.00000000E+00
  0.00000000E+00  0.00000000E+00  0.00000000E+00
  0.00000000E+00  0.00000000E+00  0.00000000E+00
  0.00000000E+00  0.00000000E+00  0.00000000E+00
  0.00000000E+00  0.00000000E+00  0.00000000E+00
  0.00000000E+00  0.00000000E+00  0.00000000E+00
  0.00000000E+00  0.00000000E+00  0.00000000E+00
  0.00000000E+00  0.00000000E+00  0.00000000E+00
  0.00000000E+00  0.00000000E+00  0.00000000E+00
  0.00000000E+00  0.00000000E+00  0.00000000E+00
  0.00000000E+00  0.00000000E+00  0.00000000E+00
  0.00000000E+00  0.00000000E+00  0.00000000E+00
  0.00000000E+00  0.00000000E+00  0.00000000E+00
  0.00000000E+00  0.00000000E+00  0.00000000E+00
  0.00000000E+00  0.00000000E+00  0.00000000E+00
  0.00000000E+00  0.00000000E+00  0.00000000E+00
  0.00000000E+00  0.00000000E+00  0.00000000E+00
  0.00000000E+00  0.00000000E+00  0.00000000E+00
  0.00000000E+00  0.00000000E+00  0.00000000E+00
  0.00000000E+00  0.00000000E+00  0.00000000E+00
  0.00000000E+00  0.00000000E+00  0.00000000E+00
  0.00000000E+00  0.00000000E+00  0.00000000E+00
  0.00000000E+00  0.00000000E+00  0.00000000E+00
  0.00000000E+00  0.00000000E+00  0.00000000E+00
  0.00000000E+00  0.00000000E+00  0.00000000E+00
  0.00000000E+00  0.00000000E+00  0.00000000E+00
  0.00000000E+00  0.00000000E+00  0.00000000E+00
  0.00000000E+00  0.00000000E+00  0.00000000E+00
  0.00000000E+00  0.00000000E+00  0.00000000E+00
  0.00000000E+00  0.00000000E+00  0.00000000E+00
  0.00000000E+00  0.00000000E+00  0.00000000E+00
  0.00000000E+00  0.00000000E+00  0.00000000E+00
  0.00000000E+00  0.00000000E+00  0.00000000E+00
  0.00000000E+00  0.00000000E+00  0.00000000E+00
  0.00000000E+00  0.00000000E+00  0.00000000E+00
  0.00000000E+00  0.00000000E+00  0.00000000E+00
  0.00000000E+00  0.00000000E+00  0.00000000E+00
  0.00000000E+00  0.00000000E+00  0.00000000E+00
  0.00000000E+00  0.00000000E+00  0.00000000E+00
  0.00000000E+00  0.00000000E+00  0.00000000E+00
  0.00000000E+00  0.00000000E+00  0.00000000E+00
  0.00000000E+00  0.00000000E+00  0.00000000E+00
  0.00000000E+00  0.00000000E+00  0.00000000E+00
  0.00000000E+00  0.00000000E+00  0.00000000E+00
  0.00000000E+00  0.00000000E+00  0.00000000E+00
  0.00000000E+00  0.00000000E+00  0.00000000E+00
  0.00000000E+00  0.00000000E+00  0.00000000E+00
  0.00000000E+00  0.00000000E+00  0.00000000E+00
  0.00000000E+00  0.00000000E+00  0.00000000E+00
  0.00000000E+00  0.00000000E+00  0.00000000E+00
  0.00000000E+00  0.00000000E+00  0.00000000E+00
  0.00000000E+00  0.00000000E+00  0.00000000E+00
  0.00000000E+00  0.00000000E+00  0.00000000E+00
  0.00000000E+00  0.00000000E+00  0.00000000E+00
  0.00000000E+00  0.00000000E+00  0.00000000E+00
  0.00000000E+00  0.00000000E+00  0.00000000E+00
  0.00000000E+00  0.00000000E+00  0.00000000E+00
  0.00000000E+00  0.00000000E+00  0.00000000E+00
  0.00000000E+00  0.00000000E+00  0.00000000E+00
  0.00000000E+00  0.00000000E+00  0.00000000E+00
  0.00000000E+00  0.00000000E+00  0.00000000E+00
  0.00000000E+00  0.00000000E+00  0.00000000E+00
  0.00000000E+00  0.00000000E+00  0.00000000E+00
  0.00000000E+00  0.00000000E+00  0.00000000E+00
  0.00000000E+00  0.00000000E+00  0.00000000E+00
  0.00000000E+00  0.00000000E+00  0.00000000E+00
  0.00000000E+00  0.00000000E+00  0.00000000E+00
  0.00000000E+00  0.00000000E+00  0.00000000E+00
  0.00000000E+00  0.00000000E+00  0.00000000E+00
  0.00000000E+00  0.00000000E+00  0.00000000E+00
  0.00000000E+00  0.00000000E+00  0.00000000E+00
  0.00000000E+00  0.00000000E+00  0.00000000E+00
  0.00000000E+00  0.00000000E+00  0.00000000E+00
  0.00000000E+00  0.00000000E+00  0.00000000E+00
