Ni1 H1 C125 N1 O1                       
   1.00000000000000     
    19.7785906332848640   -0.0231889047827574    0.1987620087817850
    -9.9094586173930619   17.0590623472616443    0.1596945543445288
     0.2991119681294716    0.4538615809801408   29.8532571564176621
   Ni   H    C    N    O 
     1     1   125     1     1
Direct
  0.4358507679399534  0.4969516051453395  0.4225579267475251
  0.4974067173611720  0.5765214094266230  0.4848019991905291
  0.0417659576635934  0.0838003479451626  0.4000034913852991
  0.0415046284974499  0.2083600121735120  0.3996979551424927
  0.0412033668663704  0.3329500039993598  0.3992174276712938
  0.0410687273515103  0.4580995516615628  0.3990205169500484
  0.0412205278706070  0.5833763290824806  0.3989387186261986
  0.0414912039098650  0.7086125352248067  0.3990145058250263
  0.0416826837952213  0.8337991515729634  0.3993462630502255
  0.0417380871753651  0.9588800996403500  0.3997802755650698
  0.1671441960178419  0.0846432793990378  0.4005490695696809
  0.1675227141666824  0.2099382453542616  0.4008357354943066
  0.1668736621491992  0.3341739806077362  0.3998636003775927
  0.1656042080419901  0.4583968512668555  0.3997894281717105
  0.1654760368380367  0.5833703923908844  0.3996424867839273
  0.1660401968635421  0.7086869747518614  0.3994583803078537
  0.1665226203356396  0.8339474401504313  0.3994875455055936
  0.1668787892027037  0.9592786033205208  0.3999040418058481
  0.2920088539648594  0.0844758258036560  0.4010476193486777
  0.2927339941194049  0.2106784801269793  0.4027159130570590
  0.2940951215177222  0.3373786398370799  0.4019135317370496
  0.2912447008402222  0.4595664260760213  0.4001262137034413
  0.2894704899285094  0.5840787397358552  0.4010766343215635
  0.2903108700547863  0.7087419026472901  0.4007327726219186
  0.2911935228099246  0.8337353129546655  0.3999799090860425
  0.2915879331824605  0.9589900288091989  0.3999499020046257
  0.4166429321287107  0.0835374130544968  0.4003391085162163
  0.4169875181603340  0.2090565273946214  0.4024708105450083
  0.4180907454370438  0.3355939391293712  0.4074565135931139
  0.4142940458137402  0.7067632092153581  0.4032068453011980
  0.4156964621644081  0.8326109971757696  0.4012011821672340
  0.4162879844689141  0.9581189871987568  0.4000461327274465
  0.5413416951803108  0.0824792858998995  0.3997651709986269
  0.5417353238424033  0.2076341557745564  0.4005197583414651
  0.5421555208624340  0.3324046019697482  0.4031807959694296
  0.5432849191919322  0.4562318884629307  0.4077480701110359
  0.5432868339306579  0.5786690456230941  0.4083819280145748
  0.5374671747640112  0.7032330005066529  0.4058872818074514
  0.5398871234434247  0.8308752490403369  0.4027776130570005
  0.5409041039929473  0.9569356514104352  0.4005742758888934
  0.6660353443141871  0.0819748641650264  0.3997877433066128
  0.6664900025210858  0.2073413440397263  0.3994375077564176
  0.6668796532651391  0.3323688621698814  0.3999918487175730
  0.6677296715867502  0.4574253848667002  0.4010681431338352
  0.6682568866954464  0.5826033740534856  0.4020765114248955
  0.6644144624301742  0.7050976401451650  0.4033967152989484
  0.6642888272169218  0.8302530457821058  0.4029432677221175
  0.6654432385316248  0.9563727239476837  0.4011444711708199
  0.7908440842839595  0.0819671208238013  0.3999420467228056
  0.7912098406685453  0.2072503502481617  0.3992896087265517
  0.7915878287644101  0.3325567113037006  0.3990167875584850
  0.7921367591525608  0.4578902232880278  0.3990943563081644
  0.7923686721847943  0.5829915521000431  0.3995248806830034
  0.7916559875237613  0.7078967210837536  0.4004315446361295
  0.7902793196269463  0.8317071627106730  0.4009846542736742
  0.7902643718382836  0.9565502078013114  0.4007407766428474
  0.9160208699894068  0.0825480851631601  0.3997987445980362
  0.9161597064278090  0.2075741935238957  0.3993168394332483
  0.9162886430533211  0.3327147847603860  0.3989718179409694
  0.9165209530910408  0.4579270690388020  0.3988063239560983
  0.9168365237024556  0.5832680031341839  0.3988299130218603
  0.9167457283205354  0.7084483994604825  0.3990998881607168
  0.9164780619437775  0.8332359012320278  0.3997246462798759
  0.9160639509987810  0.9577922076512354  0.4000137937208413
  0.0836409417270181  0.0424775904883772  0.4000697926526776
  0.0837648189491028  0.1674327261740049  0.4001685789430832
  0.0831540307177122  0.2917951039940214  0.3995126092518926
  0.0826432929739687  0.4165471852736774  0.3993165348459239
  0.0825013840544788  0.5415971884725261  0.3991144838428688
  0.0829004454087662  0.6669304468013139  0.3990943151641673
  0.0832860862025001  0.7922131820959518  0.3992489462594925
  0.0834396010165943  0.9173637566614804  0.3996519660733958
  0.2086296575394178  0.0427706884200555  0.4005061412066550
  0.2090349038826885  0.1683314472218452  0.4012262626289624
  0.2097180127033378  0.2938591576279819  0.4007668334811335
  0.2077477910619548  0.4174787836933545  0.3998726723412064
  0.2066237284158986  0.5417602687794302  0.4000341831003907
  0.2073379379698704  0.6669680222778768  0.3998712520862409
  0.2079545539278617  0.7921533656371205  0.3995995787576762
  0.2083531100283920  0.9174359316203828  0.3997725459015991
  0.3333521488939797  0.0424201563128560  0.4004197393261240
  0.3338163084922922  0.1679433318076968  0.4023299284743169
  0.3345772796362106  0.2939785123288015  0.4044708637546491
  0.3346871220508544  0.4208017618761281  0.4008110843929805
  0.3318780618516166  0.5440883975762293  0.4018134404851027
  0.3314838179618919  0.6669573705732493  0.4017968642937014
  0.3325198182503509  0.7919111333558182  0.4006451803373505
  0.3330596681842002  0.9170795534239086  0.3999430901842270
  0.4581043807706952  0.0415061098726369  0.3999434435828314
  0.4583987443133010  0.1668819693032935  0.4009709815971416
  0.4589633347485785  0.2924563489981380  0.4044018896509181
  0.4615752342256700  0.4176720402245414  0.4118418708252089
  0.4532916679272344  0.6621539239379689  0.4052930825283396
  0.4568384226663791  0.7902826828506270  0.4024832982840357
  0.4576381238333566  0.9159817505531636  0.4005416183621510
  0.5827614432980648  0.0404644097671568  0.3999253008575592
  0.5832075506938261  0.1658710551631453  0.3997657309531918
  0.5836667330622343  0.2907865067454068  0.4010735609051795
  0.5845920253958611  0.4152788885181675  0.4036010097431907
  0.5856154715963585  0.5401533331760249  0.4061538973035830
  0.5792812370738294  0.6609075027578720  0.4061306577999201
  0.5801090021167075  0.7873596296689016  0.4040704725670070
  0.5820636773339554  0.9146385100272989  0.4014779227388808
  0.7074067993800351  0.0400001297260151  0.4002211823304027
  0.7079335959968943  0.1655611164988477  0.3994081737303278
  0.7083076318642982  0.2907814925666007  0.3993355776594504
  0.7089792059564674  0.4159653643709025  0.3998603496695068
  0.7095210269393644  0.5409878843141331  0.4006287314444211
  0.7080713331938265  0.6656201264656897  0.4018422281700796
  0.7062081272000107  0.7889720801037589  0.4024452903151542
  0.7065585924357229  0.9141691187148603  0.4016322589046918
  0.8323546571679918  0.0402917999552223  0.4001132390584979
  0.8327106287095198  0.1655839191559473  0.3994722667313875
  0.8330458016845557  0.2909068658461809  0.3990441358062518
  0.8334420092729602  0.4161489832319735  0.3988804908138905
  0.8337675464706873  0.5413834274521491  0.3990339482442631
  0.8335220997126112  0.6666272106911177  0.3995328531901565
  0.8329510532141532  0.7911445845180667  0.4003170877693774
  0.8322612081323487  0.9153467908720474  0.4005415014326213
  0.9580387152127041  0.0414342084648759  0.3998820179974878
  0.9579583193083687  0.1661715994034391  0.3995383486944662
  0.9579050713440458  0.2911210467085926  0.3991088496382404
  0.9579155354681272  0.4162595431943770  0.3988614144924890
  0.9582060312723525  0.5415911017665720  0.3988097123224627
  0.9583446770109015  0.6668449698489209  0.3988948258743734
  0.9583281898061805  0.7918845329563207  0.3993188860500347
  0.9581698694184033  0.9167275198812245  0.3998007528023932
  0.4104779087049765  0.5819818101823598  0.4053114909735047
  0.4717724441878531  0.5204189955974370  0.4792615781152383
 
  0.00000000E+00  0.00000000E+00  0.00000000E+00
  0.00000000E+00  0.00000000E+00  0.00000000E+00
  0.00000000E+00  0.00000000E+00  0.00000000E+00
  0.00000000E+00  0.00000000E+00  0.00000000E+00
  0.00000000E+00  0.00000000E+00  0.00000000E+00
  0.00000000E+00  0.00000000E+00  0.00000000E+00
  0.00000000E+00  0.00000000E+00  0.00000000E+00
  0.00000000E+00  0.00000000E+00  0.00000000E+00
  0.00000000E+00  0.00000000E+00  0.00000000E+00
  0.00000000E+00  0.00000000E+00  0.00000000E+00
  0.00000000E+00  0.00000000E+00  0.00000000E+00
  0.00000000E+00  0.00000000E+00  0.00000000E+00
  0.00000000E+00  0.00000000E+00  0.00000000E+00
  0.00000000E+00  0.00000000E+00  0.00000000E+00
  0.00000000E+00  0.00000000E+00  0.00000000E+00
  0.00000000E+00  0.00000000E+00  0.00000000E+00
  0.00000000E+00  0.00000000E+00  0.00000000E+00
  0.00000000E+00  0.00000000E+00  0.00000000E+00
  0.00000000E+00  0.00000000E+00  0.00000000E+00
  0.00000000E+00  0.00000000E+00  0.00000000E+00
  0.00000000E+00  0.00000000E+00  0.00000000E+00
  0.00000000E+00  0.00000000E+00  0.00000000E+00
  0.00000000E+00  0.00000000E+00  0.00000000E+00
  0.00000000E+00  0.00000000E+00  0.00000000E+00
  0.00000000E+00  0.00000000E+00  0.00000000E+00
  0.00000000E+00  0.00000000E+00  0.00000000E+00
  0.00000000E+00  0.00000000E+00  0.00000000E+00
  0.00000000E+00  0.00000000E+00  0.00000000E+00
  0.00000000E+00  0.00000000E+00  0.00000000E+00
  0.00000000E+00  0.00000000E+00  0.00000000E+00
  0.00000000E+00  0.00000000E+00  0.00000000E+00
  0.00000000E+00  0.00000000E+00  0.00000000E+00
  0.00000000E+00  0.00000000E+00  0.00000000E+00
  0.00000000E+00  0.00000000E+00  0.00000000E+00
  0.00000000E+00  0.00000000E+00  0.00000000E+00
  0.00000000E+00  0.00000000E+00  0.00000000E+00
  0.00000000E+00  0.00000000E+00  0.00000000E+00
  0.00000000E+00  0.00000000E+00  0.00000000E+00
  0.00000000E+00  0.00000000E+00  0.00000000E+00
  0.00000000E+00  0.00000000E+00  0.00000000E+00
  0.00000000E+00  0.00000000E+00  0.00000000E+00
  0.00000000E+00  0.00000000E+00  0.00000000E+00
  0.00000000E+00  0.00000000E+00  0.00000000E+00
  0.00000000E+00  0.00000000E+00  0.00000000E+00
  0.00000000E+00  0.00000000E+00  0.00000000E+00
  0.00000000E+00  0.00000000E+00  0.00000000E+00
  0.00000000E+00  0.00000000E+00  0.00000000E+00
  0.00000000E+00  0.00000000E+00  0.00000000E+00
  0.00000000E+00  0.00000000E+00  0.00000000E+00
  0.00000000E+00  0.00000000E+00  0.00000000E+00
  0.00000000E+00  0.00000000E+00  0.00000000E+00
  0.00000000E+00  0.00000000E+00  0.00000000E+00
  0.00000000E+00  0.00000000E+00  0.00000000E+00
  0.00000000E+00  0.00000000E+00  0.00000000E+00
  0.00000000E+00  0.00000000E+00  0.00000000E+00
  0.00000000E+00  0.00000000E+00  0.00000000E+00
  0.00000000E+00  0.00000000E+00  0.00000000E+00
  0.00000000E+00  0.00000000E+00  0.00000000E+00
  0.00000000E+00  0.00000000E+00  0.00000000E+00
  0.00000000E+00  0.00000000E+00  0.00000000E+00
  0.00000000E+00  0.00000000E+00  0.00000000E+00
  0.00000000E+00  0.00000000E+00  0.00000000E+00
  0.00000000E+00  0.00000000E+00  0.00000000E+00
  0.00000000E+00  0.00000000E+00  0.00000000E+00
  0.00000000E+00  0.00000000E+00  0.00000000E+00
  0.00000000E+00  0.00000000E+00  0.00000000E+00
  0.00000000E+00  0.00000000E+00  0.00000000E+00
  0.00000000E+00  0.00000000E+00  0.00000000E+00
  0.00000000E+00  0.00000000E+00  0.00000000E+00
  0.00000000E+00  0.00000000E+00  0.00000000E+00
  0.00000000E+00  0.00000000E+00  0.00000000E+00
  0.00000000E+00  0.00000000E+00  0.00000000E+00
  0.00000000E+00  0.00000000E+00  0.00000000E+00
  0.00000000E+00  0.00000000E+00  0.00000000E+00
  0.00000000E+00  0.00000000E+00  0.00000000E+00
  0.00000000E+00  0.00000000E+00  0.00000000E+00
  0.00000000E+00  0.00000000E+00  0.00000000E+00
  0.00000000E+00  0.00000000E+00  0.00000000E+00
  0.00000000E+00  0.00000000E+00  0.00000000E+00
  0.00000000E+00  0.00000000E+00  0.00000000E+00
  0.00000000E+00  0.00000000E+00  0.00000000E+00
  0.00000000E+00  0.00000000E+00  0.00000000E+00
  0.00000000E+00  0.00000000E+00  0.00000000E+00
  0.00000000E+00  0.00000000E+00  0.00000000E+00
  0.00000000E+00  0.00000000E+00  0.00000000E+00
  0.00000000E+00  0.00000000E+00  0.00000000E+00
  0.00000000E+00  0.00000000E+00  0.00000000E+00
  0.00000000E+00  0.00000000E+00  0.00000000E+00
  0.00000000E+00  0.00000000E+00  0.00000000E+00
  0.00000000E+00  0.00000000E+00  0.00000000E+00
  0.00000000E+00  0.00000000E+00  0.00000000E+00
  0.00000000E+00  0.00000000E+00  0.00000000E+00
  0.00000000E+00  0.00000000E+00  0.00000000E+00
  0.00000000E+00  0.00000000E+00  0.00000000E+00
  0.00000000E+00  0.00000000E+00  0.00000000E+00
  0.00000000E+00  0.00000000E+00  0.00000000E+00
  0.00000000E+00  0.00000000E+00  0.00000000E+00
  0.00000000E+00  0.00000000E+00  0.00000000E+00
  0.00000000E+00  0.00000000E+00  0.00000000E+00
  0.00000000E+00  0.00000000E+00  0.00000000E+00
  0.00000000E+00  0.00000000E+00  0.00000000E+00
  0.00000000E+00  0.00000000E+00  0.00000000E+00
  0.00000000E+00  0.00000000E+00  0.00000000E+00
  0.00000000E+00  0.00000000E+00  0.00000000E+00
  0.00000000E+00  0.00000000E+00  0.00000000E+00
  0.00000000E+00  0.00000000E+00  0.00000000E+00
  0.00000000E+00  0.00000000E+00  0.00000000E+00
  0.00000000E+00  0.00000000E+00  0.00000000E+00
  0.00000000E+00  0.00000000E+00  0.00000000E+00
  0.00000000E+00  0.00000000E+00  0.00000000E+00
  0.00000000E+00  0.00000000E+00  0.00000000E+00
  0.00000000E+00  0.00000000E+00  0.00000000E+00
  0.00000000E+00  0.00000000E+00  0.00000000E+00
  0.00000000E+00  0.00000000E+00  0.00000000E+00
  0.00000000E+00  0.00000000E+00  0.00000000E+00
  0.00000000E+00  0.00000000E+00  0.00000000E+00
  0.00000000E+00  0.00000000E+00  0.00000000E+00
  0.00000000E+00  0.00000000E+00  0.00000000E+00
  0.00000000E+00  0.00000000E+00  0.00000000E+00
  0.00000000E+00  0.00000000E+00  0.00000000E+00
  0.00000000E+00  0.00000000E+00  0.00000000E+00
  0.00000000E+00  0.00000000E+00  0.00000000E+00
  0.00000000E+00  0.00000000E+00  0.00000000E+00
  0.00000000E+00  0.00000000E+00  0.00000000E+00
  0.00000000E+00  0.00000000E+00  0.00000000E+00
  0.00000000E+00  0.00000000E+00  0.00000000E+00
  0.00000000E+00  0.00000000E+00  0.00000000E+00
  0.00000000E+00  0.00000000E+00  0.00000000E+00
  0.00000000E+00  0.00000000E+00  0.00000000E+00
