Au1 C124 N2                             
   1.00000000000000     
    19.8621849233312346   -0.0008980797382585    0.0040434540947983
    -9.9322327476181549   17.0479115304123852    0.0012072914973248
     0.0060413874264594    0.0056227815760311   29.7177094808011013
   Au   C    N 
     1   124     2
Direct
  0.4374696869473388  0.4999790162442913  0.4075478227756347
  0.0418363759920376  0.0840177741998358  0.3997606297501220
  0.0403882964133547  0.2078958699645077  0.3997634672105694
  0.0394085690582383  0.3324773555917525  0.3993186579206818
  0.0395826650053981  0.4581549845869317  0.3988159940335442
  0.0411200025774807  0.5839499017217550  0.3988413276329950
  0.0423537477311714  0.7095470065627320  0.3992418160114502
  0.0428110198078660  0.8349105524782747  0.3994562887838815
  0.0427723337739062  0.9599189550840901  0.3995484426337233
  0.1682659163734259  0.0860687731940316  0.4004177272768560
  0.1666984696310296  0.2098260346922786  0.4013153693400499
  0.1641151832492948  0.3333289086724441  0.4016438976894234
  0.1622158621001679  0.4582592135276548  0.4006237173506665
  0.1642097417429310  0.5838344508763060  0.3995017887864019
  0.1662071084844708  0.7093879884345180  0.3992434704284747
  0.1672127204432541  0.8348713384217545  0.3995201032638991
  0.1678001802407272  0.9604170316722067  0.3997632375382169
  0.2928684708038279  0.0857581659840453  0.4004659859455619
  0.2945198549739887  0.2130281720750550  0.4024163485296179
  0.2912869245359433  0.3370822345219351  0.4046103846230266
  0.2844174552865972  0.4584546980854549  0.4048737184219744
  0.2869326379509686  0.5841020758827866  0.4024682233627848
  0.2901600980402251  0.7091190195299124  0.4003703764399969
  0.2915291044679123  0.8343425624478812  0.3995342892411410
  0.2922236647004448  0.9598440029458802  0.3996187244522911
  0.4172380341686529  0.0840458685318595  0.3999428166524651
  0.4180263671155047  0.2099583014086067  0.4016100055895813
  0.4213869278113473  0.3378823380426633  0.4046688448334693
  0.4141332726710050  0.7064259713872553  0.4028325284369010
  0.4157978054841219  0.8325345006732217  0.4004797930364556
  0.4165781522367625  0.9582920073584609  0.3996305166150390
  0.5415403448436117  0.0822931994719312  0.3995470982851485
  0.5423326311805734  0.2076837120792334  0.4000615317467163
  0.5441208549825508  0.3327857719700610  0.4019826403818134
  0.5482989841691215  0.4571410086318403  0.4048559272178312
  0.5491969550970091  0.5815150641229004  0.4064085426394219
  0.5382553869049209  0.7026205490368669  0.4041846853599042
  0.5400602412805705  0.8304146345589684  0.4015294630431279
  0.5409529658957506  0.9565928753763163  0.3999802310438551
  0.6659027942134381  0.0815259933975155  0.3996730485156581
  0.6666390270511393  0.2070458557435359  0.3994147472753632
  0.6680058335063734  0.3325537548183951  0.3996008845246254
  0.6707992912104821  0.4583476915913294  0.4008217653745162
  0.6721041669508513  0.5834208674756193  0.4024550884775293
  0.6675508828151460  0.7067931022565147  0.4026317900014603
  0.6648421477565881  0.8301511999396737  0.4014607759692015
  0.6653917532846754  0.9559789503536938  0.4002176355501907
  0.7905242547875088  0.0815219991622446  0.3996023775872159
  0.7908471212205302  0.2068358659537760  0.3995004286022120
  0.7918255114500079  0.3324455593726452  0.3990910004744118
  0.7934544857997796  0.4582004641741815  0.3989135981873623
  0.7949003616759672  0.5838951871659118  0.3994111542132918
  0.7938194035783052  0.7088807043621514  0.4001455020583756
  0.7918120916716743  0.8326271949224626  0.4002482548491670
  0.7904592376752902  0.9564445862338202  0.3998798519230000
  0.9157025505871509  0.0822927625973160  0.3993927274264092
  0.9152758686901225  0.2070038328292412  0.3992292097797921
  0.9155131279352375  0.3323886841141415  0.3989802270439934
  0.9165293397829041  0.4581404047010146  0.3987754376493223
  0.9179972199489577  0.5839923951598385  0.3987746276380751
  0.9183221111156589  0.7094483997117337  0.3990754266307732
  0.9178600344152037  0.8342425814889743  0.3993626754566935
  0.9167703813634070  0.9583303326087330  0.3994576130890560
  0.0845523578202532  0.0435563752310673  0.3998651685800848
  0.0831994604381604  0.1673741200417124  0.4001901192608302
  0.0811574714599673  0.2911009525003724  0.4000658022105402
  0.0800795736135383  0.4161079133012422  0.3993270240789220
  0.0815264248886788  0.5418064942301427  0.3988760208631408
  0.0831944021830025  0.6675637291446822  0.3990888273366109
  0.0841666711289525  0.7931650240650694  0.3994919485917893
  0.0845048839830103  0.9184704564297433  0.3995945665690196
  0.2096287355559764  0.0440218310677418  0.4001860842484649
  0.2101525185621800  0.1698421962891693  0.4014087258351665
  0.2074290140453851  0.2931924738306813  0.4025543440380575
  0.2028612745741381  0.4165705260543014  0.4023656451832431
  0.2041833062067840  0.5416537279091587  0.4007330157857165
  0.2069876444400899  0.6674643727219193  0.3995758293704236
  0.2083944789918608  0.7929860500822078  0.3993977436336147
  0.2091495174958155  0.9184848193568215  0.3996335729338948
  0.3340752080368394  0.0434266825732242  0.3999516959795899
  0.3349359708097074  0.1695845567683386  0.4015235452625470
  0.3367163551574227  0.2973539783324646  0.4041909354658913
  0.3257502238739702  0.4184512751054556  0.4063545593784401
  0.3266649139106182  0.5428368663050192  0.4047800146438232
  0.3308654762105451  0.6672211650598605  0.4019298073507357
  0.3326770242743787  0.7923376337543291  0.4000521711206771
  0.3335148304417255  0.9177335454849438  0.3995401748652830
  0.4584847376303419  0.0417343706951753  0.3996276805737780
  0.4592237351668844  0.1674878819574290  0.4004725558271577
  0.4608450635926173  0.2935727902700208  0.4028715693572185
  0.4535714249652389  0.6620854904693015  0.4046260528999679
  0.4569744374114692  0.7900414007090407  0.4016033209435602
  0.4578044000491560  0.9159672946213560  0.3999541082038479
  0.5828256695224698  0.0401741595985820  0.3996487009329758
  0.5835101772189050  0.1657031511941305  0.3995396923950181
  0.5848378782537286  0.2909186031993556  0.4004009662144182
  0.5880363635328298  0.4158975476341025  0.4025415992208445
  0.5905263187505781  0.5415075753503052  0.4049487775728575
  0.5836698580917455  0.6628887833361488  0.4046480141023593
  0.5804698623537496  0.7869525182654377  0.4024356562707507
  0.5821441991914990  0.9142369742534537  0.4005016077133046
  0.7072339784336714  0.0395815653499746  0.3997932517693289
  0.7078031647827716  0.1651354497079866  0.3995467298528688
  0.7088110572384474  0.2906543802748190  0.3992464667092686
  0.7107669846550877  0.4161804984200214  0.3995649449579186
  0.7127589484279293  0.5417479721250573  0.4007276961481674
  0.7108632347016807  0.6666504946411350  0.4017371959727703
  0.7082891125638410  0.7901550321745475  0.4013948333749838
  0.7067401474881903  0.9139231856978428  0.4004447801292886
  0.8322641955310700  0.0400815759550233  0.3995504281174734
  0.8321895750103622  0.1650892124432764  0.3994568798723064
  0.8326749907233090  0.2904644487819109  0.3992385813164775
  0.8338655268076823  0.4160580935963797  0.3988389234779923
  0.8353914376609568  0.5418493459839600  0.3988537527614613
  0.8355639003046105  0.6675066824103036  0.3993885670559710
  0.8345984482939343  0.7920905834694060  0.3998207352526928
  0.8331847590764692  0.9159852915981789  0.3997879543999455
  0.9582717742372771  0.0416749430827202  0.3994500986987082
  0.9571375373852083  0.1657488884245304  0.3993285634404395
  0.9566674821952513  0.2905344842786909  0.3990391497032802
  0.9569873454328187  0.4160186373709118  0.3987809465920239
  0.9584714720927414  0.5418721758797251  0.3987733050267672
  0.9595024187731318  0.6676097452028616  0.3989915141117567
  0.9597075628439985  0.7929722388553002  0.3992617354330626
  0.9593320995363532  0.9176969196226834  0.3994034871578532
  0.4065500970958558  0.5813845425842594  0.4062502835076892
  0.4684058722132289  0.4185880446920211  0.4063162677225428
 
  0.00000000E+00  0.00000000E+00  0.00000000E+00
  0.00000000E+00  0.00000000E+00  0.00000000E+00
  0.00000000E+00  0.00000000E+00  0.00000000E+00
  0.00000000E+00  0.00000000E+00  0.00000000E+00
  0.00000000E+00  0.00000000E+00  0.00000000E+00
  0.00000000E+00  0.00000000E+00  0.00000000E+00
  0.00000000E+00  0.00000000E+00  0.00000000E+00
  0.00000000E+00  0.00000000E+00  0.00000000E+00
  0.00000000E+00  0.00000000E+00  0.00000000E+00
  0.00000000E+00  0.00000000E+00  0.00000000E+00
  0.00000000E+00  0.00000000E+00  0.00000000E+00
  0.00000000E+00  0.00000000E+00  0.00000000E+00
  0.00000000E+00  0.00000000E+00  0.00000000E+00
  0.00000000E+00  0.00000000E+00  0.00000000E+00
  0.00000000E+00  0.00000000E+00  0.00000000E+00
  0.00000000E+00  0.00000000E+00  0.00000000E+00
  0.00000000E+00  0.00000000E+00  0.00000000E+00
  0.00000000E+00  0.00000000E+00  0.00000000E+00
  0.00000000E+00  0.00000000E+00  0.00000000E+00
  0.00000000E+00  0.00000000E+00  0.00000000E+00
  0.00000000E+00  0.00000000E+00  0.00000000E+00
  0.00000000E+00  0.00000000E+00  0.00000000E+00
  0.00000000E+00  0.00000000E+00  0.00000000E+00
  0.00000000E+00  0.00000000E+00  0.00000000E+00
  0.00000000E+00  0.00000000E+00  0.00000000E+00
  0.00000000E+00  0.00000000E+00  0.00000000E+00
  0.00000000E+00  0.00000000E+00  0.00000000E+00
  0.00000000E+00  0.00000000E+00  0.00000000E+00
  0.00000000E+00  0.00000000E+00  0.00000000E+00
  0.00000000E+00  0.00000000E+00  0.00000000E+00
  0.00000000E+00  0.00000000E+00  0.00000000E+00
  0.00000000E+00  0.00000000E+00  0.00000000E+00
  0.00000000E+00  0.00000000E+00  0.00000000E+00
  0.00000000E+00  0.00000000E+00  0.00000000E+00
  0.00000000E+00  0.00000000E+00  0.00000000E+00
  0.00000000E+00  0.00000000E+00  0.00000000E+00
  0.00000000E+00  0.00000000E+00  0.00000000E+00
  0.00000000E+00  0.00000000E+00  0.00000000E+00
  0.00000000E+00  0.00000000E+00  0.00000000E+00
  0.00000000E+00  0.00000000E+00  0.00000000E+00
  0.00000000E+00  0.00000000E+00  0.00000000E+00
  0.00000000E+00  0.00000000E+00  0.00000000E+00
  0.00000000E+00  0.00000000E+00  0.00000000E+00
  0.00000000E+00  0.00000000E+00  0.00000000E+00
  0.00000000E+00  0.00000000E+00  0.00000000E+00
  0.00000000E+00  0.00000000E+00  0.00000000E+00
  0.00000000E+00  0.00000000E+00  0.00000000E+00
  0.00000000E+00  0.00000000E+00  0.00000000E+00
  0.00000000E+00  0.00000000E+00  0.00000000E+00
  0.00000000E+00  0.00000000E+00  0.00000000E+00
  0.00000000E+00  0.00000000E+00  0.00000000E+00
  0.00000000E+00  0.00000000E+00  0.00000000E+00
  0.00000000E+00  0.00000000E+00  0.00000000E+00
  0.00000000E+00  0.00000000E+00  0.00000000E+00
  0.00000000E+00  0.00000000E+00  0.00000000E+00
  0.00000000E+00  0.00000000E+00  0.00000000E+00
  0.00000000E+00  0.00000000E+00  0.00000000E+00
  0.00000000E+00  0.00000000E+00  0.00000000E+00
  0.00000000E+00  0.00000000E+00  0.00000000E+00
  0.00000000E+00  0.00000000E+00  0.00000000E+00
  0.00000000E+00  0.00000000E+00  0.00000000E+00
  0.00000000E+00  0.00000000E+00  0.00000000E+00
  0.00000000E+00  0.00000000E+00  0.00000000E+00
  0.00000000E+00  0.00000000E+00  0.00000000E+00
  0.00000000E+00  0.00000000E+00  0.00000000E+00
  0.00000000E+00  0.00000000E+00  0.00000000E+00
  0.00000000E+00  0.00000000E+00  0.00000000E+00
  0.00000000E+00  0.00000000E+00  0.00000000E+00
  0.00000000E+00  0.00000000E+00  0.00000000E+00
  0.00000000E+00  0.00000000E+00  0.00000000E+00
  0.00000000E+00  0.00000000E+00  0.00000000E+00
  0.00000000E+00  0.00000000E+00  0.00000000E+00
  0.00000000E+00  0.00000000E+00  0.00000000E+00
  0.00000000E+00  0.00000000E+00  0.00000000E+00
  0.00000000E+00  0.00000000E+00  0.00000000E+00
  0.00000000E+00  0.00000000E+00  0.00000000E+00
  0.00000000E+00  0.00000000E+00  0.00000000E+00
  0.00000000E+00  0.00000000E+00  0.00000000E+00
  0.00000000E+00  0.00000000E+00  0.00000000E+00
  0.00000000E+00  0.00000000E+00  0.00000000E+00
  0.00000000E+00  0.00000000E+00  0.00000000E+00
  0.00000000E+00  0.00000000E+00  0.00000000E+00
  0.00000000E+00  0.00000000E+00  0.00000000E+00
  0.00000000E+00  0.00000000E+00  0.00000000E+00
  0.00000000E+00  0.00000000E+00  0.00000000E+00
  0.00000000E+00  0.00000000E+00  0.00000000E+00
  0.00000000E+00  0.00000000E+00  0.00000000E+00
  0.00000000E+00  0.00000000E+00  0.00000000E+00
  0.00000000E+00  0.00000000E+00  0.00000000E+00
  0.00000000E+00  0.00000000E+00  0.00000000E+00
  0.00000000E+00  0.00000000E+00  0.00000000E+00
  0.00000000E+00  0.00000000E+00  0.00000000E+00
  0.00000000E+00  0.00000000E+00  0.00000000E+00
  0.00000000E+00  0.00000000E+00  0.00000000E+00
  0.00000000E+00  0.00000000E+00  0.00000000E+00
  0.00000000E+00  0.00000000E+00  0.00000000E+00
  0.00000000E+00  0.00000000E+00  0.00000000E+00
  0.00000000E+00  0.00000000E+00  0.00000000E+00
  0.00000000E+00  0.00000000E+00  0.00000000E+00
  0.00000000E+00  0.00000000E+00  0.00000000E+00
  0.00000000E+00  0.00000000E+00  0.00000000E+00
  0.00000000E+00  0.00000000E+00  0.00000000E+00
  0.00000000E+00  0.00000000E+00  0.00000000E+00
  0.00000000E+00  0.00000000E+00  0.00000000E+00
  0.00000000E+00  0.00000000E+00  0.00000000E+00
  0.00000000E+00  0.00000000E+00  0.00000000E+00
  0.00000000E+00  0.00000000E+00  0.00000000E+00
  0.00000000E+00  0.00000000E+00  0.00000000E+00
  0.00000000E+00  0.00000000E+00  0.00000000E+00
  0.00000000E+00  0.00000000E+00  0.00000000E+00
  0.00000000E+00  0.00000000E+00  0.00000000E+00
  0.00000000E+00  0.00000000E+00  0.00000000E+00
  0.00000000E+00  0.00000000E+00  0.00000000E+00
  0.00000000E+00  0.00000000E+00  0.00000000E+00
  0.00000000E+00  0.00000000E+00  0.00000000E+00
  0.00000000E+00  0.00000000E+00  0.00000000E+00
  0.00000000E+00  0.00000000E+00  0.00000000E+00
  0.00000000E+00  0.00000000E+00  0.00000000E+00
  0.00000000E+00  0.00000000E+00  0.00000000E+00
  0.00000000E+00  0.00000000E+00  0.00000000E+00
  0.00000000E+00  0.00000000E+00  0.00000000E+00
  0.00000000E+00  0.00000000E+00  0.00000000E+00
  0.00000000E+00  0.00000000E+00  0.00000000E+00
  0.00000000E+00  0.00000000E+00  0.00000000E+00
  0.00000000E+00  0.00000000E+00  0.00000000E+00
  0.00000000E+00  0.00000000E+00  0.00000000E+00
  0.00000000E+00  0.00000000E+00  0.00000000E+00
