Zn1 H1 C126                             
   1.00000000000000     
    19.8281528875302016    0.0000216377272213   -0.0005894452848346
    -9.9140600747345626   17.0525888310524962    0.0002550052116510
    -0.0008682463302389   -0.0000686792716168   29.7597477303095026
   Zn   H    C 
     1     1   126
Direct
  0.4375053886283467  0.5000001225829692  0.4207647983350440
  0.4374479931203983  0.4999999895479740  0.4754026468144509
  0.0418853737118781  0.0839126096088526  0.3998773672084186
  0.0408494226257949  0.2080537055924423  0.3999239964097990
  0.0402403619085584  0.3327980387332570  0.3996206360614213
  0.0403281874476266  0.4582273918784032  0.3992620767967154
  0.0412727888143411  0.5837474388078100  0.3992218115779796
  0.0420806632832246  0.7091509790500408  0.3994009188753993
  0.0423603549466877  0.8344277558987829  0.3995769573767390
  0.0423692981727317  0.9594273979642783  0.3997145075304280
  0.1675856581370518  0.0852257080753153  0.4003771543372887
  0.1670405771705441  0.2097932890516505  0.4011429855134558
  0.1650219316146655  0.3331638856698236  0.4013227054919288
  0.1638677256566405  0.4583396867295647  0.4002876614305344
  0.1649455552681325  0.5836796930383352  0.3995575413183627
  0.1663927680585032  0.7090556642705798  0.3994338978757397
  0.1670699419770840  0.8344276853784798  0.3995823267907685
  0.1674238074897082  0.9598160680002070  0.3998459126622053
  0.2926569850183022  0.0852429176914970  0.4003710277395731
  0.2932644335773502  0.2115482602908745  0.4024114875711722
  0.2924693547080950  0.3370037803328652  0.4052527112999479
  0.2866537237036170  0.4582762716155414  0.4040116322501583
  0.2885168759683207  0.5837966201591132  0.4015996641077317
  0.2907721298844033  0.7088001030842785  0.4001258837129427
  0.2915019618703035  0.8339322148151040  0.3996160793580632
  0.2920898040754771  0.9594249031652813  0.3997039886839865
  0.4170479934583182  0.0839110623937707  0.3998630008920684
  0.4177714264169634  0.2098149202279426  0.4011484681437610
  0.4195225376168613  0.3369958742052668  0.4052352298382286
  0.4102166045241727  0.5807844393577487  0.4073951112408082
  0.4150299173404476  0.7067083970945901  0.4023752900018761
  0.4161155053027715  0.8326313124299243  0.4001908585417058
  0.4166656870852761  0.9583180137608459  0.3996887774814025
  0.5416591248013697  0.0826494816884513  0.3996349072032674
  0.5422153505205808  0.2080657641217596  0.3999062599819392
  0.5431408551004767  0.3331752770389871  0.4012510149889097
  0.5466015861604838  0.4582664627253099  0.4039627335200093
  0.5455734309571926  0.5808009310464509  0.4073960976233674
  0.5399271260435585  0.7048743947583536  0.4048199594815961
  0.5405325563635194  0.8311781767830259  0.4012804760739156
  0.5411206159290396  0.9570301208404558  0.3999462228858581
  0.6661798334870858  0.0820825690730668  0.3997135625273446
  0.6666518165790871  0.2074266714594082  0.3995123332072312
  0.6675474267417085  0.3328053836261044  0.3995994534033319
  0.6694634862274420  0.4583393858165549  0.4002048992502484
  0.6702615711940192  0.5837796376503541  0.4015071632939211
  0.6666631353741137  0.7066946419747429  0.4023361676868622
  0.6656286604795745  0.8311582070211123  0.4012932048086493
  0.6658237428613919  0.9566251319465051  0.4002067791046271
  0.7909301504702335  0.0820783517792732  0.3997136963360765
  0.7911512862878458  0.2073053390068032  0.3995417462901988
  0.7917380686446681  0.3327139632339001  0.3993352345413704
  0.7928673520435082  0.4582311472959939  0.3992692097842018
  0.7937086905402237  0.5836595097968975  0.3995328675121418
  0.7930127365956445  0.7087877011176369  0.4000857846847082
  0.7915264670077808  0.8326291323633707  0.4001790164387001
  0.7909156375896542  0.9570250707868729  0.3999251145365331
  0.9160198483565416  0.0826544718410680  0.3996290231553918
  0.9157722439823269  0.2074295788913119  0.3995254405759320
  0.9159699816092242  0.3327234411449055  0.3993324517091796
  0.9165923956356600  0.4582140923625057  0.3991802684927932
  0.9174416271453205  0.5837486599816215  0.3992321116416960
  0.9176593108910177  0.7090631145857068  0.3994282638022862
  0.9174427066398090  0.8339372520065423  0.3996104041163421
  0.9166865672736170  0.9583255302105618  0.3996851447680955
  0.0840899652818277  0.0429695228440721  0.3999462359180153
  0.0834837225261945  0.1673682286738678  0.4001901966420882
  0.0819715186569286  0.2912005473779130  0.4001264228532334
  0.0812653910620373  0.4163201696608592  0.3995582350062604
  0.0821005660857415  0.5417724755060686  0.3992617507131614
  0.0832452122621165  0.6672754213560824  0.3993322387384833
  0.0838450767662346  0.7926936761627181  0.3995413876592661
  0.0840964030763393  0.9179169586739392  0.3997138323689767
  0.2091984178114398  0.0433751530829722  0.4002071492803490
  0.2093533242843404  0.1688217380664472  0.4012807916893953
  0.2083210748592447  0.2932916052583040  0.4023755348501428
  0.2047198313431641  0.4162038277137733  0.4015998673433082
  0.2055275634215522  0.5416604566606911  0.4002872629087934
  0.2074418084801669  0.6672013147374466  0.3996194597916763
  0.2083425856129397  0.7925692208283255  0.3995251943739731
  0.2088518072648817  0.9179211967099554  0.3997143604100967
  0.3338905254968014  0.0429753000715164  0.3999257189911314
  0.3344701640540673  0.1688412991799062  0.4012935808500721
  0.3350521082982915  0.2951257818948549  0.4048202544245637
  0.3294313868586783  0.4192154196547973  0.4073951179964006
  0.3283767528131592  0.5417235145311169  0.4040122575082216
  0.3318581167489634  0.6668362934490353  0.4013227576633160
  0.3327956145275405  0.7919457771211137  0.3999243352209091
  0.3333650566855336  0.9173448445504747  0.3996293375713199
  0.4583609402988959  0.0416746293971860  0.3996854456236963
  0.4588966822856921  0.1673707704861847  0.4001785650156552
  0.4599674882569681  0.2933054376823802  0.4023361244587097
  0.4647725865470363  0.4191992862021881  0.4073953741477193
  0.4554658084350345  0.6629962427759806  0.4052526886124969
  0.4572472727801576  0.7902061892229360  0.4011432537185034
  0.4579729448777308  0.9160865918267370  0.3998776975507105
  0.5829411415818283  0.0405722122957799  0.3997148067294727
  0.5835042236973712  0.1660623944127090  0.3996107336628051
  0.5842246983699295  0.2912122222737455  0.4000861919781202
  0.5864816818517490  0.4162208449982021  0.4015072788304064
  0.5883341446952457  0.5417333583875374  0.4039631091991315
  0.5825275180302247  0.6630041548249472  0.4052355308798001
  0.5817166067055179  0.7884516127859446  0.4024110849670749
  0.5823597895523007  0.9147738959286701  0.4003771870563607
  0.7076075729011629  0.0401837768511850  0.3998452692328919
  0.7079323724600900  0.1655721289836679  0.3995769668187235
  0.7085957919620171  0.2909375796579187  0.3994285370243701
  0.7100486828699577  0.4163407659005981  0.3995336697307361
  0.7111228787738896  0.5416608701936183  0.4002055465021012
  0.7099643050969169  0.6668243264947918  0.4012510516676745
  0.7079560455356421  0.7901846812327860  0.4011493554072394
  0.7074132113818475  0.9147554248580840  0.4003707102810812
  0.8326648392754794  0.0405752018696954  0.3997030338501245
  0.8326428739000562  0.1655734573937017  0.3995821172026314
  0.8329298379532279  0.2908494248796608  0.3994008586703068
  0.8336925323095439  0.4162528113749356  0.3992328389418626
  0.8346351608909472  0.5417686230969739  0.3992691737601967
  0.8347409346660556  0.6671945679785944  0.3995995217890119
  0.8341481557100542  0.7919339882148522  0.3999067485594764
  0.8331366595392855  0.9160884150168137  0.3998630277867333
  0.9583469627139614  0.0416818406412086  0.3996887860243884
  0.9575693691127480  0.1660677554715764  0.3996154571302210
  0.9573371296681173  0.2909449036131551  0.3994334985490982
  0.9575243559040243  0.4162520780088826  0.3992218503942102
  0.9583774982267473  0.5417853865446898  0.3991803188495226
  0.9590237687038839  0.6672852729996608  0.3993352737738036
  0.9592247851350109  0.7925726905815830  0.3995123080112313
  0.9590096249491201  0.9173506463949627  0.3996346001417175
 
  0.00000000E+00  0.00000000E+00  0.00000000E+00
  0.00000000E+00  0.00000000E+00  0.00000000E+00
  0.00000000E+00  0.00000000E+00  0.00000000E+00
  0.00000000E+00  0.00000000E+00  0.00000000E+00
  0.00000000E+00  0.00000000E+00  0.00000000E+00
  0.00000000E+00  0.00000000E+00  0.00000000E+00
  0.00000000E+00  0.00000000E+00  0.00000000E+00
  0.00000000E+00  0.00000000E+00  0.00000000E+00
  0.00000000E+00  0.00000000E+00  0.00000000E+00
  0.00000000E+00  0.00000000E+00  0.00000000E+00
  0.00000000E+00  0.00000000E+00  0.00000000E+00
  0.00000000E+00  0.00000000E+00  0.00000000E+00
  0.00000000E+00  0.00000000E+00  0.00000000E+00
  0.00000000E+00  0.00000000E+00  0.00000000E+00
  0.00000000E+00  0.00000000E+00  0.00000000E+00
  0.00000000E+00  0.00000000E+00  0.00000000E+00
  0.00000000E+00  0.00000000E+00  0.00000000E+00
  0.00000000E+00  0.00000000E+00  0.00000000E+00
  0.00000000E+00  0.00000000E+00  0.00000000E+00
  0.00000000E+00  0.00000000E+00  0.00000000E+00
  0.00000000E+00  0.00000000E+00  0.00000000E+00
  0.00000000E+00  0.00000000E+00  0.00000000E+00
  0.00000000E+00  0.00000000E+00  0.00000000E+00
  0.00000000E+00  0.00000000E+00  0.00000000E+00
  0.00000000E+00  0.00000000E+00  0.00000000E+00
  0.00000000E+00  0.00000000E+00  0.00000000E+00
  0.00000000E+00  0.00000000E+00  0.00000000E+00
  0.00000000E+00  0.00000000E+00  0.00000000E+00
  0.00000000E+00  0.00000000E+00  0.00000000E+00
  0.00000000E+00  0.00000000E+00  0.00000000E+00
  0.00000000E+00  0.00000000E+00  0.00000000E+00
  0.00000000E+00  0.00000000E+00  0.00000000E+00
  0.00000000E+00  0.00000000E+00  0.00000000E+00
  0.00000000E+00  0.00000000E+00  0.00000000E+00
  0.00000000E+00  0.00000000E+00  0.00000000E+00
  0.00000000E+00  0.00000000E+00  0.00000000E+00
  0.00000000E+00  0.00000000E+00  0.00000000E+00
  0.00000000E+00  0.00000000E+00  0.00000000E+00
  0.00000000E+00  0.00000000E+00  0.00000000E+00
  0.00000000E+00  0.00000000E+00  0.00000000E+00
  0.00000000E+00  0.00000000E+00  0.00000000E+00
  0.00000000E+00  0.00000000E+00  0.00000000E+00
  0.00000000E+00  0.00000000E+00  0.00000000E+00
  0.00000000E+00  0.00000000E+00  0.00000000E+00
  0.00000000E+00  0.00000000E+00  0.00000000E+00
  0.00000000E+00  0.00000000E+00  0.00000000E+00
  0.00000000E+00  0.00000000E+00  0.00000000E+00
  0.00000000E+00  0.00000000E+00  0.00000000E+00
  0.00000000E+00  0.00000000E+00  0.00000000E+00
  0.00000000E+00  0.00000000E+00  0.00000000E+00
  0.00000000E+00  0.00000000E+00  0.00000000E+00
  0.00000000E+00  0.00000000E+00  0.00000000E+00
  0.00000000E+00  0.00000000E+00  0.00000000E+00
  0.00000000E+00  0.00000000E+00  0.00000000E+00
  0.00000000E+00  0.00000000E+00  0.00000000E+00
  0.00000000E+00  0.00000000E+00  0.00000000E+00
  0.00000000E+00  0.00000000E+00  0.00000000E+00
  0.00000000E+00  0.00000000E+00  0.00000000E+00
  0.00000000E+00  0.00000000E+00  0.00000000E+00
  0.00000000E+00  0.00000000E+00  0.00000000E+00
  0.00000000E+00  0.00000000E+00  0.00000000E+00
  0.00000000E+00  0.00000000E+00  0.00000000E+00
  0.00000000E+00  0.00000000E+00  0.00000000E+00
  0.00000000E+00  0.00000000E+00  0.00000000E+00
  0.00000000E+00  0.00000000E+00  0.00000000E+00
  0.00000000E+00  0.00000000E+00  0.00000000E+00
  0.00000000E+00  0.00000000E+00  0.00000000E+00
  0.00000000E+00  0.00000000E+00  0.00000000E+00
  0.00000000E+00  0.00000000E+00  0.00000000E+00
  0.00000000E+00  0.00000000E+00  0.00000000E+00
  0.00000000E+00  0.00000000E+00  0.00000000E+00
  0.00000000E+00  0.00000000E+00  0.00000000E+00
  0.00000000E+00  0.00000000E+00  0.00000000E+00
  0.00000000E+00  0.00000000E+00  0.00000000E+00
  0.00000000E+00  0.00000000E+00  0.00000000E+00
  0.00000000E+00  0.00000000E+00  0.00000000E+00
  0.00000000E+00  0.00000000E+00  0.00000000E+00
  0.00000000E+00  0.00000000E+00  0.00000000E+00
  0.00000000E+00  0.00000000E+00  0.00000000E+00
  0.00000000E+00  0.00000000E+00  0.00000000E+00
  0.00000000E+00  0.00000000E+00  0.00000000E+00
  0.00000000E+00  0.00000000E+00  0.00000000E+00
  0.00000000E+00  0.00000000E+00  0.00000000E+00
  0.00000000E+00  0.00000000E+00  0.00000000E+00
  0.00000000E+00  0.00000000E+00  0.00000000E+00
  0.00000000E+00  0.00000000E+00  0.00000000E+00
  0.00000000E+00  0.00000000E+00  0.00000000E+00
  0.00000000E+00  0.00000000E+00  0.00000000E+00
  0.00000000E+00  0.00000000E+00  0.00000000E+00
  0.00000000E+00  0.00000000E+00  0.00000000E+00
  0.00000000E+00  0.00000000E+00  0.00000000E+00
  0.00000000E+00  0.00000000E+00  0.00000000E+00
  0.00000000E+00  0.00000000E+00  0.00000000E+00
  0.00000000E+00  0.00000000E+00  0.00000000E+00
  0.00000000E+00  0.00000000E+00  0.00000000E+00
  0.00000000E+00  0.00000000E+00  0.00000000E+00
  0.00000000E+00  0.00000000E+00  0.00000000E+00
  0.00000000E+00  0.00000000E+00  0.00000000E+00
  0.00000000E+00  0.00000000E+00  0.00000000E+00
  0.00000000E+00  0.00000000E+00  0.00000000E+00
  0.00000000E+00  0.00000000E+00  0.00000000E+00
  0.00000000E+00  0.00000000E+00  0.00000000E+00
  0.00000000E+00  0.00000000E+00  0.00000000E+00
  0.00000000E+00  0.00000000E+00  0.00000000E+00
  0.00000000E+00  0.00000000E+00  0.00000000E+00
  0.00000000E+00  0.00000000E+00  0.00000000E+00
  0.00000000E+00  0.00000000E+00  0.00000000E+00
  0.00000000E+00  0.00000000E+00  0.00000000E+00
  0.00000000E+00  0.00000000E+00  0.00000000E+00
  0.00000000E+00  0.00000000E+00  0.00000000E+00
  0.00000000E+00  0.00000000E+00  0.00000000E+00
  0.00000000E+00  0.00000000E+00  0.00000000E+00
  0.00000000E+00  0.00000000E+00  0.00000000E+00
  0.00000000E+00  0.00000000E+00  0.00000000E+00
  0.00000000E+00  0.00000000E+00  0.00000000E+00
  0.00000000E+00  0.00000000E+00  0.00000000E+00
  0.00000000E+00  0.00000000E+00  0.00000000E+00
  0.00000000E+00  0.00000000E+00  0.00000000E+00
  0.00000000E+00  0.00000000E+00  0.00000000E+00
  0.00000000E+00  0.00000000E+00  0.00000000E+00
  0.00000000E+00  0.00000000E+00  0.00000000E+00
  0.00000000E+00  0.00000000E+00  0.00000000E+00
  0.00000000E+00  0.00000000E+00  0.00000000E+00
  0.00000000E+00  0.00000000E+00  0.00000000E+00
  0.00000000E+00  0.00000000E+00  0.00000000E+00
  0.00000000E+00  0.00000000E+00  0.00000000E+00
  0.00000000E+00  0.00000000E+00  0.00000000E+00
  0.00000000E+00  0.00000000E+00  0.00000000E+00
