H1 Ir1 C125 N1                          
   1.00000000000000     
    19.8285940974522532   -0.0171142142001453    0.2334218568450728
    -9.9294304370658182   17.0560975183092545   -0.1463946207853343
     0.3506173278832947   -0.0511692263993586   29.7721530276698161
   H    Ir   C    N 
     1     1   125     1
Direct
  0.4775171254320001  0.5074179829557286  0.4742259168987132
  0.4365138348363617  0.5005477964987860  0.4271380152868769
  0.0417477915146890  0.0841350874730731  0.3997452319209477
  0.0410173748277938  0.2083553707315075  0.3996009776219133
  0.0404105111367696  0.3329320909722301  0.3996230771903694
  0.0402910368214689  0.4583340957967732  0.3998212862023606
  0.0410214558917684  0.5838503778640151  0.3997504485054943
  0.0417087128454438  0.7092575505672249  0.3997385936833617
  0.0419945703450774  0.8345686180979798  0.3997279266893894
  0.0420925309471496  0.9596373415884071  0.3996964889537306
  0.1676381829589461  0.0856965564051335  0.4000081209963295
  0.1672478449208876  0.2102732604915651  0.3998220495794833
  0.1657849275213261  0.3341339976163228  0.3989524324912252
  0.1639295746132300  0.4587055860745494  0.3993087143354093
  0.1646376277246263  0.5839194329597805  0.3995872872136087
  0.1658907632704849  0.7093260787857288  0.3997260337934038
  0.1666785257134523  0.8347269351115232  0.3997529115818457
  0.1672389673339195  0.9601984410871226  0.3998994789109098
  0.2925018711737682  0.0855518643902970  0.4003396040377269
  0.2935974404500196  0.2121907397030720  0.4017763304414706
  0.2931106722892439  0.3378014493836162  0.4014390793618622
  0.2879431417445726  0.4594827714192508  0.3991750861740540
  0.2879685558239098  0.5846581839530047  0.3994915623271876
  0.2900418765486678  0.7093839742613337  0.3996500730622141
  0.2911712911817856  0.8343818691852763  0.3994467563943068
  0.2918121555111567  0.9597544037132427  0.3995413643254308
  0.4169411520166337  0.0840539237161372  0.3996758595765662
  0.4177662533329406  0.2099934358656787  0.4013054447518324
  0.4196505963936650  0.3369587715180011  0.4078766572499570
  0.4140513537431683  0.7072652801899286  0.4007255911030385
  0.4156348140742272  0.8329356449752454  0.3996779845809322
  0.4163068868443936  0.9584691461372307  0.3993419394876739
  0.5414438590349179  0.0824809679653825  0.3993311714716771
  0.5421360064411558  0.2077752276487090  0.3997420320228018
  0.5434191774539374  0.3328464857733308  0.4021543457087916
  0.5474175999884128  0.4574886184960475  0.4085645288376949
  0.5452013044466004  0.5791225931582754  0.4127065413750917
  0.5377643488362756  0.7028663768580954  0.4042758977001741
  0.5398528400532615  0.8306980709477401  0.4006379417367006
  0.5408023958896220  0.9568456641199471  0.3996373635425652
  0.6659303039489822  0.0817392387579521  0.3997052967688378
  0.6666192738012393  0.2071485136827617  0.3993411376099775
  0.6676308123826614  0.3324416471827134  0.3990562638877599
  0.6696731768123446  0.4578620304821708  0.3995028467435268
  0.6702761551412957  0.5830590914210793  0.4011842899274243
  0.6652098340418212  0.7055705986018372  0.4019253212812262
  0.6642982514334077  0.8301311497137087  0.4010010109585253
  0.6653022205021994  0.9561517143555198  0.4000862862896289
  0.7906059368393283  0.0817515240963761  0.3998205529792722
  0.7910570278298453  0.2070355064371009  0.3998023504396488
  0.7917935414863631  0.3324546944619734  0.3991322631557835
  0.7930004473426397  0.4579795924945897  0.3982737310657887
  0.7937095451092809  0.5834351673827406  0.3981875604059501
  0.7923408383374513  0.7083313226758070  0.3990243243036204
  0.7906767929831250  0.8320605910048752  0.3996046583938306
  0.7902093486344954  0.9565457735774188  0.3998153082738697
  0.9158032428061617  0.0825370796279518  0.3997296010748422
  0.9157396345582077  0.2073899123897349  0.3998469238991514
  0.9159651412204336  0.3326307714554916  0.3998531813235738
  0.9165820587528871  0.4580869830072777  0.3993637265486867
  0.9173705887739975  0.5836857870861150  0.3988937832958848
  0.9173142932388748  0.7090323403599521  0.3989200467360697
  0.9169049391929710  0.8338603522403533  0.3992368060097847
  0.9161655894929815  0.9581253841452410  0.3995577781105257
  0.0839793573989911  0.0432696253559464  0.3997827281059450
  0.0835364428141711  0.1676798107939616  0.3996898264171189
  0.0823028028975488  0.2917217514544121  0.3993007367163570
  0.0813915038243777  0.4165843246151145  0.3996303620869114
  0.0818385312509936  0.5419198663667575  0.3997790668652424
  0.0828129173543107  0.6674579366793497  0.3998027030222496
  0.0834899319402618  0.7929285950130266  0.3998489444051698
  0.0837973452801722  0.9181941377494323  0.3998156930687259
  0.2091085563907467  0.0437887414918191  0.4001195124342597
  0.2096030104458891  0.1694555009005615  0.4002819551803812
  0.2088880766572794  0.2939959278009590  0.3996110069390748
  0.2054417965010706  0.4174736213032901  0.3988538496501811
  0.2051893931247502  0.5420930110612060  0.3992883391283746
  0.2069438513371287  0.6675538925617760  0.3996215627992954
  0.2079598321739855  0.7928748022390403  0.3996183557648904
  0.2085800882873678  0.9182823438833547  0.3997098209476301
  0.3336850569142876  0.0432317364608510  0.3998265622169683
  0.3345191260957754  0.1692380071521223  0.4012895463440962
  0.3357755195168567  0.2960050721194050  0.4043261015532755
  0.3309389965615348  0.4207581727423035  0.4008601253241091
  0.3291052270474582  0.5443454640407251  0.4005364891645637
  0.3310253124128547  0.6676222496699081  0.3999774929926395
  0.3324297339164541  0.7925132345762930  0.3995692635137330
  0.3331511730318963  0.9177341081298309  0.3993544762007046
  0.4582265929054870  0.0418191386650309  0.3993699113995471
  0.4589225698999017  0.1674467384554868  0.4000661740122821
  0.4600848327010552  0.2935004505046472  0.4035040901864002
  0.4654307630513391  0.4195981500639560  0.4155668231761027
  0.4530430424693218  0.6629051955561698  0.4033415660218078
  0.4567740922670466  0.7906084992653206  0.4002469348986748
  0.4575929439067030  0.9162439263831459  0.3995103621299230
  0.5827101382729942  0.0403517677897532  0.3994867873711330
  0.5833879393457871  0.1658315675865541  0.3993495708080165
  0.5843389629595765  0.2910106493273268  0.4000503090730956
  0.5869951566948914  0.4158663642138841  0.4026367179172606
  0.5891471270056593  0.5409246074365693  0.4071598129429118
  0.5808988241057561  0.6618546939144065  0.4057239386169771
  0.5801606325836163  0.7872307400097073  0.4018445204955319
  0.5819173619120512  0.9144267794446004  0.4000668850724432
  0.7072569242808758  0.0397953378659272  0.3998582581208520
  0.7078446547792774  0.1653044584432537  0.3996386366136193
  0.7086554761535538  0.2906434057834621  0.3990337557095388
  0.7102099141838423  0.4159842509482999  0.3985396152086514
  0.7112950772946840  0.5413028864171554  0.3990653735821011
  0.7093659039977447  0.6662353827373090  0.4004594470904926
  0.7067283214137567  0.7893291215224153  0.4006260726038272
  0.7064950927846344  0.9140888489726157  0.4002255512418359
  0.8322294964834049  0.0402385147338533  0.3997396949096730
  0.8324464016203977  0.1653633957145257  0.3998660367597611
  0.8329506810437073  0.2906816555900321  0.3996646867459444
  0.8337831977477149  0.4160815012173066  0.3988437011741069
  0.8346649012518174  0.5416139124016937  0.3982472836827726
  0.8344090264360963  0.6670434881101353  0.3985163525022170
  0.8335110008185866  0.7917093347226921  0.3991722533212788
  0.8324539473587337  0.9156617087334770  0.3996186330324205
  0.9580097212404801  0.0416758382913737  0.3996933974312732
  0.9575679887021298  0.1661073249292112  0.3997592694643600
  0.9573507530571287  0.2909373213317365  0.3998827714210374
  0.9574797941498912  0.4162370437261879  0.3997887704851206
  0.9582645341960353  0.5418212026057778  0.3993816789718568
  0.9587244576890250  0.6673373174222903  0.3992131609118155
  0.9588091947442010  0.7926079868016462  0.3993104047386480
  0.9585320066634146  0.9173586748255818  0.3994886587364732
  0.4080240220607728  0.5827750522770025  0.4047964139680040
 
  0.00000000E+00  0.00000000E+00  0.00000000E+00
  0.00000000E+00  0.00000000E+00  0.00000000E+00
  0.00000000E+00  0.00000000E+00  0.00000000E+00
  0.00000000E+00  0.00000000E+00  0.00000000E+00
  0.00000000E+00  0.00000000E+00  0.00000000E+00
  0.00000000E+00  0.00000000E+00  0.00000000E+00
  0.00000000E+00  0.00000000E+00  0.00000000E+00
  0.00000000E+00  0.00000000E+00  0.00000000E+00
  0.00000000E+00  0.00000000E+00  0.00000000E+00
  0.00000000E+00  0.00000000E+00  0.00000000E+00
  0.00000000E+00  0.00000000E+00  0.00000000E+00
  0.00000000E+00  0.00000000E+00  0.00000000E+00
  0.00000000E+00  0.00000000E+00  0.00000000E+00
  0.00000000E+00  0.00000000E+00  0.00000000E+00
  0.00000000E+00  0.00000000E+00  0.00000000E+00
  0.00000000E+00  0.00000000E+00  0.00000000E+00
  0.00000000E+00  0.00000000E+00  0.00000000E+00
  0.00000000E+00  0.00000000E+00  0.00000000E+00
  0.00000000E+00  0.00000000E+00  0.00000000E+00
  0.00000000E+00  0.00000000E+00  0.00000000E+00
  0.00000000E+00  0.00000000E+00  0.00000000E+00
  0.00000000E+00  0.00000000E+00  0.00000000E+00
  0.00000000E+00  0.00000000E+00  0.00000000E+00
  0.00000000E+00  0.00000000E+00  0.00000000E+00
  0.00000000E+00  0.00000000E+00  0.00000000E+00
  0.00000000E+00  0.00000000E+00  0.00000000E+00
  0.00000000E+00  0.00000000E+00  0.00000000E+00
  0.00000000E+00  0.00000000E+00  0.00000000E+00
  0.00000000E+00  0.00000000E+00  0.00000000E+00
  0.00000000E+00  0.00000000E+00  0.00000000E+00
  0.00000000E+00  0.00000000E+00  0.00000000E+00
  0.00000000E+00  0.00000000E+00  0.00000000E+00
  0.00000000E+00  0.00000000E+00  0.00000000E+00
  0.00000000E+00  0.00000000E+00  0.00000000E+00
  0.00000000E+00  0.00000000E+00  0.00000000E+00
  0.00000000E+00  0.00000000E+00  0.00000000E+00
  0.00000000E+00  0.00000000E+00  0.00000000E+00
  0.00000000E+00  0.00000000E+00  0.00000000E+00
  0.00000000E+00  0.00000000E+00  0.00000000E+00
  0.00000000E+00  0.00000000E+00  0.00000000E+00
  0.00000000E+00  0.00000000E+00  0.00000000E+00
  0.00000000E+00  0.00000000E+00  0.00000000E+00
  0.00000000E+00  0.00000000E+00  0.00000000E+00
  0.00000000E+00  0.00000000E+00  0.00000000E+00
  0.00000000E+00  0.00000000E+00  0.00000000E+00
  0.00000000E+00  0.00000000E+00  0.00000000E+00
  0.00000000E+00  0.00000000E+00  0.00000000E+00
  0.00000000E+00  0.00000000E+00  0.00000000E+00
  0.00000000E+00  0.00000000E+00  0.00000000E+00
  0.00000000E+00  0.00000000E+00  0.00000000E+00
  0.00000000E+00  0.00000000E+00  0.00000000E+00
  0.00000000E+00  0.00000000E+00  0.00000000E+00
  0.00000000E+00  0.00000000E+00  0.00000000E+00
  0.00000000E+00  0.00000000E+00  0.00000000E+00
  0.00000000E+00  0.00000000E+00  0.00000000E+00
  0.00000000E+00  0.00000000E+00  0.00000000E+00
  0.00000000E+00  0.00000000E+00  0.00000000E+00
  0.00000000E+00  0.00000000E+00  0.00000000E+00
  0.00000000E+00  0.00000000E+00  0.00000000E+00
  0.00000000E+00  0.00000000E+00  0.00000000E+00
  0.00000000E+00  0.00000000E+00  0.00000000E+00
  0.00000000E+00  0.00000000E+00  0.00000000E+00
  0.00000000E+00  0.00000000E+00  0.00000000E+00
  0.00000000E+00  0.00000000E+00  0.00000000E+00
  0.00000000E+00  0.00000000E+00  0.00000000E+00
  0.00000000E+00  0.00000000E+00  0.00000000E+00
  0.00000000E+00  0.00000000E+00  0.00000000E+00
  0.00000000E+00  0.00000000E+00  0.00000000E+00
  0.00000000E+00  0.00000000E+00  0.00000000E+00
  0.00000000E+00  0.00000000E+00  0.00000000E+00
  0.00000000E+00  0.00000000E+00  0.00000000E+00
  0.00000000E+00  0.00000000E+00  0.00000000E+00
  0.00000000E+00  0.00000000E+00  0.00000000E+00
  0.00000000E+00  0.00000000E+00  0.00000000E+00
  0.00000000E+00  0.00000000E+00  0.00000000E+00
  0.00000000E+00  0.00000000E+00  0.00000000E+00
  0.00000000E+00  0.00000000E+00  0.00000000E+00
  0.00000000E+00  0.00000000E+00  0.00000000E+00
  0.00000000E+00  0.00000000E+00  0.00000000E+00
  0.00000000E+00  0.00000000E+00  0.00000000E+00
  0.00000000E+00  0.00000000E+00  0.00000000E+00
  0.00000000E+00  0.00000000E+00  0.00000000E+00
  0.00000000E+00  0.00000000E+00  0.00000000E+00
  0.00000000E+00  0.00000000E+00  0.00000000E+00
  0.00000000E+00  0.00000000E+00  0.00000000E+00
  0.00000000E+00  0.00000000E+00  0.00000000E+00
  0.00000000E+00  0.00000000E+00  0.00000000E+00
  0.00000000E+00  0.00000000E+00  0.00000000E+00
  0.00000000E+00  0.00000000E+00  0.00000000E+00
  0.00000000E+00  0.00000000E+00  0.00000000E+00
  0.00000000E+00  0.00000000E+00  0.00000000E+00
  0.00000000E+00  0.00000000E+00  0.00000000E+00
  0.00000000E+00  0.00000000E+00  0.00000000E+00
  0.00000000E+00  0.00000000E+00  0.00000000E+00
  0.00000000E+00  0.00000000E+00  0.00000000E+00
  0.00000000E+00  0.00000000E+00  0.00000000E+00
  0.00000000E+00  0.00000000E+00  0.00000000E+00
  0.00000000E+00  0.00000000E+00  0.00000000E+00
  0.00000000E+00  0.00000000E+00  0.00000000E+00
  0.00000000E+00  0.00000000E+00  0.00000000E+00
  0.00000000E+00  0.00000000E+00  0.00000000E+00
  0.00000000E+00  0.00000000E+00  0.00000000E+00
  0.00000000E+00  0.00000000E+00  0.00000000E+00
  0.00000000E+00  0.00000000E+00  0.00000000E+00
  0.00000000E+00  0.00000000E+00  0.00000000E+00
  0.00000000E+00  0.00000000E+00  0.00000000E+00
  0.00000000E+00  0.00000000E+00  0.00000000E+00
  0.00000000E+00  0.00000000E+00  0.00000000E+00
  0.00000000E+00  0.00000000E+00  0.00000000E+00
  0.00000000E+00  0.00000000E+00  0.00000000E+00
  0.00000000E+00  0.00000000E+00  0.00000000E+00
  0.00000000E+00  0.00000000E+00  0.00000000E+00
  0.00000000E+00  0.00000000E+00  0.00000000E+00
  0.00000000E+00  0.00000000E+00  0.00000000E+00
  0.00000000E+00  0.00000000E+00  0.00000000E+00
  0.00000000E+00  0.00000000E+00  0.00000000E+00
  0.00000000E+00  0.00000000E+00  0.00000000E+00
  0.00000000E+00  0.00000000E+00  0.00000000E+00
  0.00000000E+00  0.00000000E+00  0.00000000E+00
  0.00000000E+00  0.00000000E+00  0.00000000E+00
  0.00000000E+00  0.00000000E+00  0.00000000E+00
  0.00000000E+00  0.00000000E+00  0.00000000E+00
  0.00000000E+00  0.00000000E+00  0.00000000E+00
  0.00000000E+00  0.00000000E+00  0.00000000E+00
  0.00000000E+00  0.00000000E+00  0.00000000E+00
  0.00000000E+00  0.00000000E+00  0.00000000E+00
  0.00000000E+00  0.00000000E+00  0.00000000E+00
  0.00000000E+00  0.00000000E+00  0.00000000E+00
