V1 H1 C126 O1                           
   1.00000000000000     
    19.7918309237011876   -0.0016453814480087   -0.0114494464437958
    -9.8981894858422006   17.0774045841098072   -0.1141753256713274
    -0.0170154812547007   -0.2088068866488296   29.7739655933795326
   V    H    C    O 
     1     1   126     1
Direct
  0.4383851700376335  0.5017109173100647  0.4297591257117805
  0.4827743857575972  0.5326469648823584  0.5086574597469664
  0.0418782460700158  0.0837678861050590  0.3995392305824065
  0.0413692495727775  0.2082762419292158  0.3995684662096421
  0.0411538266995727  0.3331321805488190  0.3995475461801144
  0.0412260353092496  0.4585005366395949  0.3992767558028381
  0.0415619283938945  0.5836267568372330  0.3990782110250472
  0.0418964782333461  0.7087413928669672  0.3991188946158878
  0.0421273435752024  0.8339802017408019  0.3993667047422969
  0.0421479282334803  0.9589947959348211  0.3995059229349325
  0.1672634217516061  0.0844732690265597  0.4000289784412093
  0.1670562045319553  0.2092427816911966  0.4004335432888332
  0.1659699843648522  0.3333621019569750  0.4006920442398125
  0.1653171450686435  0.4584373761951656  0.4000596024719143
  0.1659645531800086  0.5835941132145170  0.3993295697238274
  0.1666262670650571  0.7088537540625087  0.3991515899376165
  0.1668983191107123  0.8339806265621061  0.3993938935636136
  0.1671188583701493  0.9592057141143912  0.3997083863663188
  0.2922679365827820  0.0844555676424707  0.4000144221413360
  0.2928472855652552  0.2105772887056900  0.4015632590331451
  0.2926183712739875  0.3359734128380495  0.4037567765105102
  0.2890119582185098  0.4578275841104237  0.4030906837569604
  0.2900968176666900  0.5840475614272214  0.4004997066986946
  0.2913087281715793  0.7089211911723016  0.3993326647165282
  0.2916829728633326  0.8338188751756864  0.3992610390274993
  0.2918940138606336  0.9589863936257048  0.3995350304148552
  0.4169605431775063  0.0837378327984862  0.3995016563633770
  0.4172849658516304  0.2091481773849991  0.4003955369648537
  0.4186043494332538  0.3358633717661331  0.4037691984071102
  0.4130702073167777  0.5823868221139497  0.4052561274536679
  0.4160015794818733  0.7077530025942483  0.4005146037677032
  0.4165711570633283  0.8332932777872853  0.3993068087675572
  0.4167261014510665  0.9584675922539326  0.3992987310434736
  0.5417089677818648  0.0831463977299659  0.3992074134070167
  0.5420068649877335  0.2082019960455420  0.3993841222047244
  0.5425259483297533  0.3332251752097086  0.4006616337680832
  0.5439227617274552  0.4575301570336782  0.4033249516572540
  0.5439848172955163  0.5820042166474367  0.4052650319961133
  0.5408684615358442  0.7067538202935764  0.4027296548219065
  0.5412275580743022  0.8324988058539273  0.4001462563732445
  0.5416321052999500  0.9579966642058960  0.3994154105759295
  0.6666055699632703  0.0830145947140313  0.3993692719065648
  0.6667640878762668  0.2080725293606838  0.3990377624788381
  0.6670976511127120  0.3330474007919706  0.3991728880534062
  0.6682800229327166  0.4583492622569963  0.4000605286005990
  0.6689584259023884  0.5839320076821531  0.4010775774278158
  0.6666493322392052  0.7076172282995684  0.4008272941997312
  0.6663309740923780  0.8324822035930397  0.4002414837735401
  0.6664515254283859  0.9578187663013141  0.3997346099143704
  0.7915231034675881  0.0830356338585837  0.3995081174810926
  0.7915861423018568  0.2080738684557744  0.3992201200917903
  0.7918534781694856  0.3332042497651647  0.3989336116015119
  0.7924081556581998  0.4584392303407111  0.3988949597134134
  0.7926903384300015  0.5835393677650261  0.3992306519218879
  0.7926002792457294  0.7088795578981736  0.3994791232642592
  0.7917150166307174  0.8332286371979326  0.3994923662069595
  0.7914571628677274  0.9579854007917199  0.3995455774437449
  0.9165379994292046  0.0832029651125012  0.3993959677083170
  0.9164438398086191  0.2081547525538938  0.3993893937536807
  0.9165009159093066  0.3332587812187072  0.3991765185703226
  0.9167261237803566  0.4583401984466594  0.3989480951884804
  0.9171655666934275  0.5836329700128063  0.3988733144347123
  0.9172511034458304  0.7088414813028107  0.3990419193077703
  0.9171566023068959  0.8338207918953331  0.3992095557747030
  0.9168002317353646  0.9584807014209918  0.3993252833537492
  0.0838306852670306  0.0424441229955245  0.3996641500110989
  0.0835089229536007  0.1671314415889826  0.3997135063233473
  0.0826399266569956  0.2915088321928453  0.3998150512330616
  0.0826078539423875  0.4168159391232589  0.3995564444949326
  0.0829141268552854  0.5419008423823428  0.3992019861955423
  0.0833690304025331  0.6670982797809512  0.3991150046951508
  0.0836874435439657  0.7923344704768726  0.3993061326066358
  0.0837755068422015  0.9174116784475359  0.3995538896839082
  0.2088333443934174  0.0426209530609105  0.3999544858537045
  0.2089662945663004  0.1680034627685514  0.4006392197392574
  0.2086346481527030  0.2928427885903056  0.4013477502761056
  0.2063198355059351  0.4164482032579931  0.4010502599407095
  0.2070780428462644  0.5420157056483417  0.3998609267295861
  0.2081880227943234  0.6672911266648670  0.3992118439912790
  0.2084344450402209  0.7922645138440868  0.3992542948313857
  0.2086747689155613  0.9174126842221407  0.3995702447100150
  0.3336718075996449  0.0424339203772798  0.3996677803288153
  0.3341284201854238  0.1679793209195996  0.4006187446381690
  0.3345048730154948  0.2937907043002970  0.4036053250812048
  0.3311855341668494  0.4185575306188435  0.4060482562960769
  0.3314976681132847  0.5428661635990714  0.4026735644057681
  0.3328106910040199  0.6671404535382364  0.3999896693634823
  0.3332573849960689  0.7921354182201468  0.3992180526920691
  0.3335008764636915  0.9172004878831097  0.3993556692912472
  0.4584948320222839  0.0418417862162148  0.3993192153147815
  0.4587061608115550  0.1670653492210686  0.3996455372323219
  0.4593483942751929  0.2927096380613246  0.4013112620831954
  0.4624597497607372  0.4184103515048826  0.4060445365647697
  0.4568384268826807  0.6647657235839050  0.4028412139606338
  0.4580466271728321  0.7912795014548946  0.3998353669577349
  0.4583324607374911  0.9166379549321270  0.3992843988439054
  0.5833629257974252  0.0414251452998325  0.3993096484020275
  0.5835091035106497  0.1664870928128842  0.3991286323226030
  0.5839865998184363  0.2914025241346076  0.3996142617534051
  0.5853070685252453  0.4163187147047407  0.4011670905056955
  0.5863391709591240  0.5426056752595008  0.4030856862074801
  0.5827296406676311  0.6646035370590917  0.4029287814660759
  0.5825082510361815  0.7899463207146854  0.4009279601969741
  0.5830493313208940  0.9159973327282237  0.3997139198734282
  0.7081599406669841  0.0412231530697813  0.3995415736753014
  0.7083658512732823  0.1664214165998746  0.3991804156631730
  0.7086004177485192  0.2914515269024452  0.3989445752916070
  0.7093548151588542  0.4167524093493725  0.3992220006323708
  0.7100116012836386  0.5419394635162634  0.4000878108951551
  0.7092947786972568  0.6670532037935947  0.4003894698424643
  0.7082029993477980  0.7911856922401295  0.4000654789063317
  0.7080334147113176  0.9160030016448003  0.3997912444401888
  0.8331448027503385  0.0414342977032075  0.3994680857687997
  0.8331755482031020  0.1664628986339173  0.3993859914579111
  0.8333754630760264  0.2916224871075419  0.3990906770963120
  0.8337134059916580  0.4166739596570518  0.3988732062124223
  0.8340936840317498  0.5418664499069671  0.3989065592205613
  0.8341118574185590  0.6672514154546673  0.3991747135728634
  0.8338813580548566  0.7921080218926050  0.3993008945688759
  0.8333496535600512  0.9165926130315423  0.3994039774447752
  0.9584253921116632  0.0418773813982714  0.3993797738361361
  0.9581168922512681  0.1665731385888808  0.3994107426187928
  0.9580347103907511  0.2915402042656012  0.3993447348788863
  0.9581419996707785  0.4167310541100995  0.3991243320808529
  0.9585248072614251  0.5419620163816885  0.3989357790693003
  0.9587738875094747  0.6671020396294156  0.3989863911831797
  0.9588519861559941  0.7922570116074739  0.3991795373904637
  0.9587428008962243  0.9172098981918803  0.3993095867532214
  0.4362075664928272  0.5056731760616108  0.4897530447745873
 
  0.00000000E+00  0.00000000E+00  0.00000000E+00
  0.00000000E+00  0.00000000E+00  0.00000000E+00
  0.00000000E+00  0.00000000E+00  0.00000000E+00
  0.00000000E+00  0.00000000E+00  0.00000000E+00
  0.00000000E+00  0.00000000E+00  0.00000000E+00
  0.00000000E+00  0.00000000E+00  0.00000000E+00
  0.00000000E+00  0.00000000E+00  0.00000000E+00
  0.00000000E+00  0.00000000E+00  0.00000000E+00
  0.00000000E+00  0.00000000E+00  0.00000000E+00
  0.00000000E+00  0.00000000E+00  0.00000000E+00
  0.00000000E+00  0.00000000E+00  0.00000000E+00
  0.00000000E+00  0.00000000E+00  0.00000000E+00
  0.00000000E+00  0.00000000E+00  0.00000000E+00
  0.00000000E+00  0.00000000E+00  0.00000000E+00
  0.00000000E+00  0.00000000E+00  0.00000000E+00
  0.00000000E+00  0.00000000E+00  0.00000000E+00
  0.00000000E+00  0.00000000E+00  0.00000000E+00
  0.00000000E+00  0.00000000E+00  0.00000000E+00
  0.00000000E+00  0.00000000E+00  0.00000000E+00
  0.00000000E+00  0.00000000E+00  0.00000000E+00
  0.00000000E+00  0.00000000E+00  0.00000000E+00
  0.00000000E+00  0.00000000E+00  0.00000000E+00
  0.00000000E+00  0.00000000E+00  0.00000000E+00
  0.00000000E+00  0.00000000E+00  0.00000000E+00
  0.00000000E+00  0.00000000E+00  0.00000000E+00
  0.00000000E+00  0.00000000E+00  0.00000000E+00
  0.00000000E+00  0.00000000E+00  0.00000000E+00
  0.00000000E+00  0.00000000E+00  0.00000000E+00
  0.00000000E+00  0.00000000E+00  0.00000000E+00
  0.00000000E+00  0.00000000E+00  0.00000000E+00
  0.00000000E+00  0.00000000E+00  0.00000000E+00
  0.00000000E+00  0.00000000E+00  0.00000000E+00
  0.00000000E+00  0.00000000E+00  0.00000000E+00
  0.00000000E+00  0.00000000E+00  0.00000000E+00
  0.00000000E+00  0.00000000E+00  0.00000000E+00
  0.00000000E+00  0.00000000E+00  0.00000000E+00
  0.00000000E+00  0.00000000E+00  0.00000000E+00
  0.00000000E+00  0.00000000E+00  0.00000000E+00
  0.00000000E+00  0.00000000E+00  0.00000000E+00
  0.00000000E+00  0.00000000E+00  0.00000000E+00
  0.00000000E+00  0.00000000E+00  0.00000000E+00
  0.00000000E+00  0.00000000E+00  0.00000000E+00
  0.00000000E+00  0.00000000E+00  0.00000000E+00
  0.00000000E+00  0.00000000E+00  0.00000000E+00
  0.00000000E+00  0.00000000E+00  0.00000000E+00
  0.00000000E+00  0.00000000E+00  0.00000000E+00
  0.00000000E+00  0.00000000E+00  0.00000000E+00
  0.00000000E+00  0.00000000E+00  0.00000000E+00
  0.00000000E+00  0.00000000E+00  0.00000000E+00
  0.00000000E+00  0.00000000E+00  0.00000000E+00
  0.00000000E+00  0.00000000E+00  0.00000000E+00
  0.00000000E+00  0.00000000E+00  0.00000000E+00
  0.00000000E+00  0.00000000E+00  0.00000000E+00
  0.00000000E+00  0.00000000E+00  0.00000000E+00
  0.00000000E+00  0.00000000E+00  0.00000000E+00
  0.00000000E+00  0.00000000E+00  0.00000000E+00
  0.00000000E+00  0.00000000E+00  0.00000000E+00
  0.00000000E+00  0.00000000E+00  0.00000000E+00
  0.00000000E+00  0.00000000E+00  0.00000000E+00
  0.00000000E+00  0.00000000E+00  0.00000000E+00
  0.00000000E+00  0.00000000E+00  0.00000000E+00
  0.00000000E+00  0.00000000E+00  0.00000000E+00
  0.00000000E+00  0.00000000E+00  0.00000000E+00
  0.00000000E+00  0.00000000E+00  0.00000000E+00
  0.00000000E+00  0.00000000E+00  0.00000000E+00
  0.00000000E+00  0.00000000E+00  0.00000000E+00
  0.00000000E+00  0.00000000E+00  0.00000000E+00
  0.00000000E+00  0.00000000E+00  0.00000000E+00
  0.00000000E+00  0.00000000E+00  0.00000000E+00
  0.00000000E+00  0.00000000E+00  0.00000000E+00
  0.00000000E+00  0.00000000E+00  0.00000000E+00
  0.00000000E+00  0.00000000E+00  0.00000000E+00
  0.00000000E+00  0.00000000E+00  0.00000000E+00
  0.00000000E+00  0.00000000E+00  0.00000000E+00
  0.00000000E+00  0.00000000E+00  0.00000000E+00
  0.00000000E+00  0.00000000E+00  0.00000000E+00
  0.00000000E+00  0.00000000E+00  0.00000000E+00
  0.00000000E+00  0.00000000E+00  0.00000000E+00
  0.00000000E+00  0.00000000E+00  0.00000000E+00
  0.00000000E+00  0.00000000E+00  0.00000000E+00
  0.00000000E+00  0.00000000E+00  0.00000000E+00
  0.00000000E+00  0.00000000E+00  0.00000000E+00
  0.00000000E+00  0.00000000E+00  0.00000000E+00
  0.00000000E+00  0.00000000E+00  0.00000000E+00
  0.00000000E+00  0.00000000E+00  0.00000000E+00
  0.00000000E+00  0.00000000E+00  0.00000000E+00
  0.00000000E+00  0.00000000E+00  0.00000000E+00
  0.00000000E+00  0.00000000E+00  0.00000000E+00
  0.00000000E+00  0.00000000E+00  0.00000000E+00
  0.00000000E+00  0.00000000E+00  0.00000000E+00
  0.00000000E+00  0.00000000E+00  0.00000000E+00
  0.00000000E+00  0.00000000E+00  0.00000000E+00
  0.00000000E+00  0.00000000E+00  0.00000000E+00
  0.00000000E+00  0.00000000E+00  0.00000000E+00
  0.00000000E+00  0.00000000E+00  0.00000000E+00
  0.00000000E+00  0.00000000E+00  0.00000000E+00
  0.00000000E+00  0.00000000E+00  0.00000000E+00
  0.00000000E+00  0.00000000E+00  0.00000000E+00
  0.00000000E+00  0.00000000E+00  0.00000000E+00
  0.00000000E+00  0.00000000E+00  0.00000000E+00
  0.00000000E+00  0.00000000E+00  0.00000000E+00
  0.00000000E+00  0.00000000E+00  0.00000000E+00
  0.00000000E+00  0.00000000E+00  0.00000000E+00
  0.00000000E+00  0.00000000E+00  0.00000000E+00
  0.00000000E+00  0.00000000E+00  0.00000000E+00
  0.00000000E+00  0.00000000E+00  0.00000000E+00
  0.00000000E+00  0.00000000E+00  0.00000000E+00
  0.00000000E+00  0.00000000E+00  0.00000000E+00
  0.00000000E+00  0.00000000E+00  0.00000000E+00
  0.00000000E+00  0.00000000E+00  0.00000000E+00
  0.00000000E+00  0.00000000E+00  0.00000000E+00
  0.00000000E+00  0.00000000E+00  0.00000000E+00
  0.00000000E+00  0.00000000E+00  0.00000000E+00
  0.00000000E+00  0.00000000E+00  0.00000000E+00
  0.00000000E+00  0.00000000E+00  0.00000000E+00
  0.00000000E+00  0.00000000E+00  0.00000000E+00
  0.00000000E+00  0.00000000E+00  0.00000000E+00
  0.00000000E+00  0.00000000E+00  0.00000000E+00
  0.00000000E+00  0.00000000E+00  0.00000000E+00
  0.00000000E+00  0.00000000E+00  0.00000000E+00
  0.00000000E+00  0.00000000E+00  0.00000000E+00
  0.00000000E+00  0.00000000E+00  0.00000000E+00
  0.00000000E+00  0.00000000E+00  0.00000000E+00
  0.00000000E+00  0.00000000E+00  0.00000000E+00
  0.00000000E+00  0.00000000E+00  0.00000000E+00
  0.00000000E+00  0.00000000E+00  0.00000000E+00
  0.00000000E+00  0.00000000E+00  0.00000000E+00
  0.00000000E+00  0.00000000E+00  0.00000000E+00
  0.00000000E+00  0.00000000E+00  0.00000000E+00
