Cr1 H1 C124 N2 O2                       
   1.00000000000000     
    19.8045193722190014   -0.0261548350336744    0.0409621205681971
    -9.9241549937067006   17.0534013131169857   -0.3025846415853621
     0.0608990043399828   -0.4931705155759610   29.8250604771985479
   Cr   H    C    N    O 
     1     1   124     2     2
Direct
  0.4389348977529295  0.5030572741013017  0.4247359440913741
  0.5307045398405066  0.5307819704441314  0.5187012284929367
  0.0424379072964740  0.0845193538026834  0.3998949004314838
  0.0419102419655673  0.2088616708446196  0.3994508521361553
  0.0412531144683470  0.3333562990748931  0.3989240611010061
  0.0409488086573973  0.4585781353104963  0.3989261810246205
  0.0413097608224930  0.5838968476213964  0.3992841216401999
  0.0417525515867752  0.7091765071301381  0.3994356727661739
  0.0420325763897438  0.8344012005623327  0.3995802273422484
  0.0423352628117613  0.9596355289805416  0.3998347113396008
  0.1682049079484784  0.0858533845375860  0.4004899378212201
  0.1683326171662216  0.2109153932633205  0.4004992788040980
  0.1668433650313972  0.3347079330293070  0.3996816326483383
  0.1649711035045982  0.4590138331211264  0.3990394447877321
  0.1654077336497792  0.5840665613575595  0.3990695369095576
  0.1662362525370682  0.7092947372078129  0.3995102700515716
  0.1667984053915035  0.8345437964716425  0.3997456080163317
  0.1673388410435095  0.9600139641325711  0.4001422922040803
  0.2926882643682731  0.0854648453426066  0.4007366508623136
  0.2946247419109085  0.2128174709590311  0.4021589151866536
  0.2947718111593360  0.3391176294866014  0.4024141166565158
  0.2895761761842053  0.4603695272791057  0.4012674812194206
  0.2891945206957729  0.5848710654227034  0.4001853798796802
  0.2906670955814903  0.7094826852369778  0.3998273214445831
  0.2915106077689416  0.8343758165347381  0.3996627347208275
  0.2919589130030502  0.9596244614928082  0.3999231373532126
  0.4171533062014845  0.0840410456337821  0.4001334259811884
  0.4178826573093275  0.2098324228780655  0.4014389381476207
  0.4214836986033035  0.3380410548637371  0.4047563755416945
  0.4148109957509263  0.7074299144482197  0.4012390184735466
  0.4161666582886596  0.8331798630177403  0.3999330727523116
  0.4166617758483753  0.9585806109231783  0.3997001552361823
  0.5417747051746957  0.0828110347827931  0.3998111280260943
  0.5423085701619428  0.2079575623381089  0.4003750342333205
  0.5434884590529805  0.3328414564067614  0.4014645746029899
  0.5445998891480599  0.4561387809521804  0.4024513844525757
  0.5422280710543603  0.5786012622117980  0.4010737837883767
  0.5382772239773601  0.7038451606815599  0.4024099544569211
  0.5404808494454514  0.8314567181469954  0.4008612267903260
  0.5413820308589550  0.9574325985198442  0.3999689027426143
  0.6665060113739329  0.0824272235935908  0.3998839652735242
  0.6669448402576705  0.2076742696867200  0.3998166566748793
  0.6676836206565113  0.3328371159230699  0.3998369819236700
  0.6689034235091640  0.4580644075885729  0.3992645650218520
  0.6684050473851784  0.5824023461818726  0.3988287255279559
  0.6650018872201358  0.7057684589618631  0.3992903255742348
  0.6648398779779612  0.8308519736604794  0.4003246106497755
  0.6659453678343468  0.9569489977343295  0.4002842853916420
  0.7913327654668194  0.0824746965762770  0.3998057398355215
  0.7916476343501344  0.2076626522996534  0.3995378827274791
  0.7920672171460268  0.3329126996399481  0.3994050495978030
  0.7926810918466458  0.4582475903152954  0.3991429822915578
  0.7928988169291529  0.5834117375881647  0.3987259168577353
  0.7918588438269154  0.7081412012026291  0.3985947101946863
  0.7908148911593216  0.8323427566899184  0.3993024308399669
  0.7908118668108628  0.9571567038764783  0.3998305705458023
  0.9165472231836276  0.0831220004655790  0.3996630613360281
  0.9165180481597233  0.2079925985970235  0.3993284266354848
  0.9165482270355696  0.3330722660477861  0.3991587143846402
  0.9167606960000185  0.4583413477273837  0.3992354131452913
  0.9171665324502314  0.5837260179208954  0.3991894000596119
  0.9170539479549760  0.7089035971827897  0.3990848554709743
  0.9168496591968562  0.8337860383511568  0.3992475677652720
  0.9166141908508934  0.9584462532409432  0.3995953082376147
  0.0844776762416188  0.0434090277292256  0.4000645527613784
  0.0844437229027264  0.1681767171193655  0.3998962515341589
  0.0833060022561938  0.2922432086750035  0.3991894871661188
  0.0822354262216791  0.4169149566702401  0.3987898929208171
  0.0824434046640334  0.5421099335930251  0.3990537799419371
  0.0830596982753278  0.6674543237094923  0.3994157364597086
  0.0835565496643156  0.7927758721077112  0.3996005819951804
  0.0838940480743062  0.9180211092078565  0.3998571117070640
  0.2093164869342203  0.0436577793247395  0.4005113032260041
  0.2104778921436363  0.1698498933935184  0.4010117287018389
  0.2102242539031565  0.2948226248438388  0.4006197085331635
  0.2067897577105171  0.4180314767474016  0.3997225012426426
  0.2062282203541983  0.5423343587807707  0.3991078397666996
  0.2074812559289683  0.6676613606065729  0.3994467592150457
  0.2082071180296339  0.7928051997551719  0.3996518826009563
  0.2087032885441715  0.9181086014114967  0.3999653179216551
  0.3338585360502364  0.0431748369777196  0.4002157930849748
  0.3348009266728127  0.1692679000281530  0.4015420841342419
  0.3371138846241948  0.2971317869120185  0.4037800408420438
  0.3331747739253146  0.4222244194235998  0.4029910363614846
  0.3306459772518906  0.5447161859374532  0.4024026775255578
  0.3317322650480676  0.6678309540207010  0.4004945078787969
  0.3329159963555171  0.7926465727011589  0.3997819869276213
  0.3334176345386197  0.9177310068605848  0.3997028259150852
  0.4585381884519890  0.0419695162774261  0.3998051639343814
  0.4590704791941533  0.1674598829335565  0.4005733878518782
  0.4604708926704006  0.2934120222107737  0.4023860935077863
  0.4540119133122005  0.6632206760111927  0.4035602355838677
  0.4573831498095160  0.7909062754496006  0.4005225803793522
  0.4580790047361916  0.9165512763221457  0.3997993193840941
  0.5832504373418672  0.0409506646247877  0.3998361199337666
  0.5836597639181136  0.1661543551027052  0.3999547246820256
  0.5845512229811263  0.2911163379547830  0.4005479935189840
  0.5860038953535067  0.4157148908815671  0.4007169310343315
  0.5856907763743990  0.5402036276535043  0.4001550349527960
  0.5805208559047870  0.6617081300973595  0.4006824845565831
  0.5807346520009702  0.7880363437732001  0.4012775279686167
  0.5825732541216624  0.9151890138105756  0.4003649305763517
  0.7078925085395227  0.0405524116196005  0.4000134743586017
  0.7083958131505383  0.1659667313746027  0.3997428572415629
  0.7088953672431089  0.2911590160404032  0.3996791506211395
  0.7097453103320248  0.4163486204868931  0.3993081622591745
  0.7101799402540792  0.5413545967416624  0.3987856529529168
  0.7083239375700572  0.6657371552219189  0.3986011667698790
  0.7069386390648731  0.7896962720859619  0.3996073658794543
  0.7071083210979836  0.9147955674069266  0.4001505438172188
  0.8329341682429074  0.0408992052705486  0.3997847853660659
  0.8331750059651455  0.1660546844695503  0.3995340332474555
  0.8334045661243152  0.2912260606319990  0.3993424858081553
  0.8337863013751701  0.4164449218830839  0.3992871565133740
  0.8341765660484342  0.5417596966847640  0.3989989492335226
  0.8338993910478933  0.6669850580040304  0.3987221984779481
  0.8332986000588747  0.7915766524475458  0.3989622199663430
  0.8328488455196776  0.9160341005148211  0.3995623811103286
  0.9586628378286832  0.0420873752606283  0.3997111983133408
  0.9583717598113353  0.1666847152022370  0.3994453796849697
  0.9581133242478543  0.2914767886730374  0.3991009352380601
  0.9579826309807515  0.4166264265549131  0.3991104845830336
  0.9583439540082352  0.5419745841471695  0.3992676089774463
  0.9586029817541331  0.6672818505605136  0.3992542760901401
  0.9586832915370138  0.7924409591276245  0.3992881836225308
  0.9587119494861582  0.9173965066416230  0.3995488401431544
  0.4101801936836580  0.5829382387512396  0.4064738172499958
  0.4654310698733255  0.4187023789920516  0.4070711642987703
  0.4824313122194965  0.4825914049752242  0.5096140429010063
  0.4446774924534083  0.5195185709842178  0.4834098089247192
 
  0.00000000E+00  0.00000000E+00  0.00000000E+00
  0.00000000E+00  0.00000000E+00  0.00000000E+00
  0.00000000E+00  0.00000000E+00  0.00000000E+00
  0.00000000E+00  0.00000000E+00  0.00000000E+00
  0.00000000E+00  0.00000000E+00  0.00000000E+00
  0.00000000E+00  0.00000000E+00  0.00000000E+00
  0.00000000E+00  0.00000000E+00  0.00000000E+00
  0.00000000E+00  0.00000000E+00  0.00000000E+00
  0.00000000E+00  0.00000000E+00  0.00000000E+00
  0.00000000E+00  0.00000000E+00  0.00000000E+00
  0.00000000E+00  0.00000000E+00  0.00000000E+00
  0.00000000E+00  0.00000000E+00  0.00000000E+00
  0.00000000E+00  0.00000000E+00  0.00000000E+00
  0.00000000E+00  0.00000000E+00  0.00000000E+00
  0.00000000E+00  0.00000000E+00  0.00000000E+00
  0.00000000E+00  0.00000000E+00  0.00000000E+00
  0.00000000E+00  0.00000000E+00  0.00000000E+00
  0.00000000E+00  0.00000000E+00  0.00000000E+00
  0.00000000E+00  0.00000000E+00  0.00000000E+00
  0.00000000E+00  0.00000000E+00  0.00000000E+00
  0.00000000E+00  0.00000000E+00  0.00000000E+00
  0.00000000E+00  0.00000000E+00  0.00000000E+00
  0.00000000E+00  0.00000000E+00  0.00000000E+00
  0.00000000E+00  0.00000000E+00  0.00000000E+00
  0.00000000E+00  0.00000000E+00  0.00000000E+00
  0.00000000E+00  0.00000000E+00  0.00000000E+00
  0.00000000E+00  0.00000000E+00  0.00000000E+00
  0.00000000E+00  0.00000000E+00  0.00000000E+00
  0.00000000E+00  0.00000000E+00  0.00000000E+00
  0.00000000E+00  0.00000000E+00  0.00000000E+00
  0.00000000E+00  0.00000000E+00  0.00000000E+00
  0.00000000E+00  0.00000000E+00  0.00000000E+00
  0.00000000E+00  0.00000000E+00  0.00000000E+00
  0.00000000E+00  0.00000000E+00  0.00000000E+00
  0.00000000E+00  0.00000000E+00  0.00000000E+00
  0.00000000E+00  0.00000000E+00  0.00000000E+00
  0.00000000E+00  0.00000000E+00  0.00000000E+00
  0.00000000E+00  0.00000000E+00  0.00000000E+00
  0.00000000E+00  0.00000000E+00  0.00000000E+00
  0.00000000E+00  0.00000000E+00  0.00000000E+00
  0.00000000E+00  0.00000000E+00  0.00000000E+00
  0.00000000E+00  0.00000000E+00  0.00000000E+00
  0.00000000E+00  0.00000000E+00  0.00000000E+00
  0.00000000E+00  0.00000000E+00  0.00000000E+00
  0.00000000E+00  0.00000000E+00  0.00000000E+00
  0.00000000E+00  0.00000000E+00  0.00000000E+00
  0.00000000E+00  0.00000000E+00  0.00000000E+00
  0.00000000E+00  0.00000000E+00  0.00000000E+00
  0.00000000E+00  0.00000000E+00  0.00000000E+00
  0.00000000E+00  0.00000000E+00  0.00000000E+00
  0.00000000E+00  0.00000000E+00  0.00000000E+00
  0.00000000E+00  0.00000000E+00  0.00000000E+00
  0.00000000E+00  0.00000000E+00  0.00000000E+00
  0.00000000E+00  0.00000000E+00  0.00000000E+00
  0.00000000E+00  0.00000000E+00  0.00000000E+00
  0.00000000E+00  0.00000000E+00  0.00000000E+00
  0.00000000E+00  0.00000000E+00  0.00000000E+00
  0.00000000E+00  0.00000000E+00  0.00000000E+00
  0.00000000E+00  0.00000000E+00  0.00000000E+00
  0.00000000E+00  0.00000000E+00  0.00000000E+00
  0.00000000E+00  0.00000000E+00  0.00000000E+00
  0.00000000E+00  0.00000000E+00  0.00000000E+00
  0.00000000E+00  0.00000000E+00  0.00000000E+00
  0.00000000E+00  0.00000000E+00  0.00000000E+00
  0.00000000E+00  0.00000000E+00  0.00000000E+00
  0.00000000E+00  0.00000000E+00  0.00000000E+00
  0.00000000E+00  0.00000000E+00  0.00000000E+00
  0.00000000E+00  0.00000000E+00  0.00000000E+00
  0.00000000E+00  0.00000000E+00  0.00000000E+00
  0.00000000E+00  0.00000000E+00  0.00000000E+00
  0.00000000E+00  0.00000000E+00  0.00000000E+00
  0.00000000E+00  0.00000000E+00  0.00000000E+00
  0.00000000E+00  0.00000000E+00  0.00000000E+00
  0.00000000E+00  0.00000000E+00  0.00000000E+00
  0.00000000E+00  0.00000000E+00  0.00000000E+00
  0.00000000E+00  0.00000000E+00  0.00000000E+00
  0.00000000E+00  0.00000000E+00  0.00000000E+00
  0.00000000E+00  0.00000000E+00  0.00000000E+00
  0.00000000E+00  0.00000000E+00  0.00000000E+00
  0.00000000E+00  0.00000000E+00  0.00000000E+00
  0.00000000E+00  0.00000000E+00  0.00000000E+00
  0.00000000E+00  0.00000000E+00  0.00000000E+00
  0.00000000E+00  0.00000000E+00  0.00000000E+00
  0.00000000E+00  0.00000000E+00  0.00000000E+00
  0.00000000E+00  0.00000000E+00  0.00000000E+00
  0.00000000E+00  0.00000000E+00  0.00000000E+00
  0.00000000E+00  0.00000000E+00  0.00000000E+00
  0.00000000E+00  0.00000000E+00  0.00000000E+00
  0.00000000E+00  0.00000000E+00  0.00000000E+00
  0.00000000E+00  0.00000000E+00  0.00000000E+00
  0.00000000E+00  0.00000000E+00  0.00000000E+00
  0.00000000E+00  0.00000000E+00  0.00000000E+00
  0.00000000E+00  0.00000000E+00  0.00000000E+00
  0.00000000E+00  0.00000000E+00  0.00000000E+00
  0.00000000E+00  0.00000000E+00  0.00000000E+00
  0.00000000E+00  0.00000000E+00  0.00000000E+00
  0.00000000E+00  0.00000000E+00  0.00000000E+00
  0.00000000E+00  0.00000000E+00  0.00000000E+00
  0.00000000E+00  0.00000000E+00  0.00000000E+00
  0.00000000E+00  0.00000000E+00  0.00000000E+00
  0.00000000E+00  0.00000000E+00  0.00000000E+00
  0.00000000E+00  0.00000000E+00  0.00000000E+00
  0.00000000E+00  0.00000000E+00  0.00000000E+00
  0.00000000E+00  0.00000000E+00  0.00000000E+00
  0.00000000E+00  0.00000000E+00  0.00000000E+00
  0.00000000E+00  0.00000000E+00  0.00000000E+00
  0.00000000E+00  0.00000000E+00  0.00000000E+00
  0.00000000E+00  0.00000000E+00  0.00000000E+00
  0.00000000E+00  0.00000000E+00  0.00000000E+00
  0.00000000E+00  0.00000000E+00  0.00000000E+00
  0.00000000E+00  0.00000000E+00  0.00000000E+00
  0.00000000E+00  0.00000000E+00  0.00000000E+00
  0.00000000E+00  0.00000000E+00  0.00000000E+00
  0.00000000E+00  0.00000000E+00  0.00000000E+00
  0.00000000E+00  0.00000000E+00  0.00000000E+00
  0.00000000E+00  0.00000000E+00  0.00000000E+00
  0.00000000E+00  0.00000000E+00  0.00000000E+00
  0.00000000E+00  0.00000000E+00  0.00000000E+00
  0.00000000E+00  0.00000000E+00  0.00000000E+00
  0.00000000E+00  0.00000000E+00  0.00000000E+00
  0.00000000E+00  0.00000000E+00  0.00000000E+00
  0.00000000E+00  0.00000000E+00  0.00000000E+00
  0.00000000E+00  0.00000000E+00  0.00000000E+00
  0.00000000E+00  0.00000000E+00  0.00000000E+00
  0.00000000E+00  0.00000000E+00  0.00000000E+00
  0.00000000E+00  0.00000000E+00  0.00000000E+00
  0.00000000E+00  0.00000000E+00  0.00000000E+00
  0.00000000E+00  0.00000000E+00  0.00000000E+00
  0.00000000E+00  0.00000000E+00  0.00000000E+00
  0.00000000E+00  0.00000000E+00  0.00000000E+00
