H1 Rh1 C124 N2 O2                       
   1.00000000000000     
    19.8071073118137946   -0.0430635365475884    0.2707306419452857
    -9.9407572007038887   17.0526185941266348   -0.0561997166745893
     0.4069574305609613    0.1391837632362930   29.8353578571624141
   H    Rh   C    N    O 
     1     1   124     2     2
Direct
  0.5430546058376868  0.5472496568940669  0.5224827804392480
  0.4355170821947887  0.5008397196194481  0.4236145381209568
  0.0423284836488492  0.0845180903555119  0.3998678508893879
  0.0419779993106865  0.2088512485657465  0.3992690495638043
  0.0411896916348000  0.3332575905596871  0.3992018064125756
  0.0405719718773306  0.4583942516166709  0.3996037207820680
  0.0407390073343815  0.5837543338457243  0.3998845341498833
  0.0412192081124715  0.7091008196948990  0.3998067914886546
  0.0415516639284189  0.8342916206510888  0.3998755314574172
  0.0419747469637144  0.9595554801480315  0.4000781463569043
  0.1680852187850305  0.0860011214953263  0.3999353862251897
  0.1687239129949843  0.2113760222759705  0.3992119106797006
  0.1671868999150331  0.3350742223532416  0.3977465985659435
  0.1647254566448955  0.4591596464184333  0.3986504303316767
  0.1646211359720572  0.5841382357206384  0.3992426056052407
  0.1655335912752538  0.7093175084884245  0.3997400568418074
  0.1662860870334635  0.8345827653602931  0.3998902150196026
  0.1670025098341305  0.9600606666850644  0.4000560119061707
  0.2924714814022856  0.0854510413117730  0.4002496912703843
  0.2946212600221991  0.2128595545298137  0.4010087707537157
  0.2960718047697166  0.3399470431000260  0.3985526828159881
  0.2897697142409854  0.4612146129205713  0.3974494044511810
  0.2880928161332431  0.5851797985580276  0.3994167231198276
  0.2897273200718033  0.7095142425822084  0.3998792645519589
  0.2909015173312527  0.8343615781541959  0.3997465190885769
  0.2916068872209371  0.9596148511357394  0.3998289628715997
  0.4169277748944036  0.0837167251562873  0.3997954624714526
  0.4178129689991968  0.2093745081880959  0.4006704352989363
  0.4215018602069905  0.3371764919352291  0.4054256572088843
  0.4136580978310609  0.7073056083225442  0.4012440115940401
  0.4154558839253097  0.8329276800965612  0.3999247253986043
  0.4162266480408183  0.9583066394018213  0.3997200831586551
  0.5415151062763791  0.0821463687199287  0.3996430854913809
  0.5422541080983616  0.2072421155366264  0.3998933592029137
  0.5436277637692528  0.3319031032565439  0.4013399605847108
  0.5446977254551302  0.4547857270632144  0.4042710725810578
  0.5411866849950069  0.5760140582818869  0.4018553842952691
  0.5368624988247396  0.7024089490413811  0.4029620683654448
  0.5396723073955003  0.8305762254305132  0.4009113551761305
  0.5408378808471197  0.9566996983712451  0.3998662298154931
  0.6661643262924813  0.0815761985614337  0.3997247891609083
  0.6668560237183836  0.2069076009355152  0.3995912998429392
  0.6677794091343994  0.3320771072875940  0.3994393055654364
  0.6689538927275185  0.4571940062135562  0.3991659658932171
  0.6679823008076915  0.5813254069635410  0.3989506208302055
  0.6634847226211088  0.7040386403494087  0.3994030314897172
  0.6638628479921820  0.8296208578457193  0.4004087571869739
  0.6653576342403742  0.9559574852830656  0.4001137192995292
  0.7909546522827789  0.0816617325036991  0.3999773612011008
  0.7914444841285067  0.2069414129946971  0.3998779732137890
  0.7920373498679978  0.3322840016529858  0.3995809007122864
  0.7926613743931367  0.4576715701622541  0.3991204723848996
  0.7926779610622973  0.5828669752675750  0.3988421816879713
  0.7910989189994866  0.7072977136339164  0.3987903094225584
  0.7898935338050478  0.8312774632229835  0.3995769009701317
  0.7901934391708739  0.9562689768562298  0.3999371482759355
  0.9162496209929382  0.0826338266809648  0.4000137347413485
  0.9163335632107263  0.2074930178470316  0.3999005753285125
  0.9163764102474335  0.3326043733897925  0.3999580305923020
  0.9165255605282098  0.4579626430893849  0.3998826929923490
  0.9168154669147631  0.5834077086338930  0.3995728673780275
  0.9165624132482471  0.7085843470257150  0.3993442657829620
  0.9162593611473828  0.8333484634015831  0.3996193041923218
  0.9160787468095645  0.9579120726867988  0.4000078219220451
  0.0842873283726169  0.0434436922576472  0.3999562059448057
  0.0845982677212650  0.1683695544174768  0.3994428814170315
  0.0835120503695521  0.2923986201853768  0.3986370691533688
  0.0819734319504200  0.4168449189666619  0.3991412893372046
  0.0817723860183078  0.5419837317819225  0.3995953208143613
  0.0824044996602141  0.6673654215591671  0.3998311683685135
  0.0830279028895139  0.7927280704481130  0.3998698126494165
  0.0835027461581058  0.9180125162544972  0.4000467555506059
  0.2090830102686677  0.0437721937954852  0.4001244447092457
  0.2105874534752031  0.1701197678255028  0.3998618958263966
  0.2110687671789139  0.2955641209694293  0.3981627449897197
  0.2068659189568929  0.4183988201109462  0.3977937509785550
  0.2054307223760864  0.5425242674062491  0.3987199661311507
  0.2066502395269673  0.6676690423932408  0.3995810339851791
  0.2075920602642521  0.7928363074944684  0.3997965533249231
  0.2082885219037551  0.9181614376057463  0.3999428610662064
  0.3335885898143007  0.0431175546785352  0.3999321113561545
  0.3346632005234010  0.1692084079860498  0.4008336152081545
  0.3373991955929221  0.2973171362362587  0.4022187614133894
  0.3347838658202245  0.4238993171027589  0.3962097211785076
  0.3293574313636355  0.5449036186995738  0.4008210707474115
  0.3306763905891346  0.6678922981356690  0.4003793225521668
  0.3321558365730720  0.7925806895230119  0.3998490397350040
  0.3329495111238712  0.9176790496250603  0.3997276220043496
  0.4582338927376763  0.0415988072128063  0.3997072168246130
  0.4589723051930299  0.1670239423533990  0.3999615740244180
  0.4605468984772151  0.2926998966760200  0.4021644782715883
  0.4523872737067096  0.6628232048316954  0.4042112523037135
  0.4565488439399419  0.7906058828491778  0.4005079158041588
  0.4575211039251142  0.9161970161128740  0.3997970365966828
  0.5828580856667245  0.0401941128985753  0.3996713189195884
  0.5835439237663433  0.1654513763690964  0.3996598160110242
  0.5846481863826900  0.2903026571747536  0.4000924781130332
  0.5861455762680716  0.4145801025603433  0.4009923063198298
  0.5852517711230883  0.5382445564884930  0.4010125206194111
  0.5784612347162164  0.6598269506833970  0.4008191728784734
  0.5797351650748026  0.7869117910571122  0.4014820542799838
  0.5819213494285990  0.9143255860373311  0.4002659970507937
  0.7074525148271639  0.0396685807480714  0.3998971397710394
  0.7081616158171490  0.1651493989423636  0.3996920802753419
  0.7089056506573116  0.2904013684888989  0.3994456466257215
  0.7097887543943269  0.4155673081371193  0.3990376683815630
  0.7099632454830329  0.5405347563625493  0.3988630502042019
  0.7075272462841720  0.6646418715454163  0.3986596518140976
  0.7057068127294145  0.7882742249198347  0.3998040304206065
  0.7063883365094598  0.9137637810652551  0.4000905361305557
  0.8324969711381908  0.0401426687615338  0.4000148419072536
  0.8329182808937252  0.1653767468744319  0.3999911423622525
  0.8332450669967501  0.2905632427065061  0.3998824083966916
  0.8336561081174572  0.4158728564849850  0.3995421592983094
  0.8339544785280005  0.5412579971307530  0.3991456629045642
  0.8334005317824108  0.6664177800985084  0.3989299886102051
  0.8325833018645380  0.7908414020391823  0.3992749349087540
  0.8321382957162795  0.9151440890948075  0.3998654204254311
  0.9583683817304685  0.0417399681916257  0.4000323848675298
  0.9582676881335110  0.1663419805496386  0.3997932996107221
  0.9579602618373102  0.2910986547244364  0.3997904556658562
  0.9576606681024492  0.4162266146918903  0.3999218219382534
  0.9578895111952036  0.5416299735199310  0.3998853546910614
  0.9581147650637446  0.6670443450906584  0.3995983037508645
  0.9581821855566186  0.7921850454352807  0.3996007885538164
  0.9582290970388524  0.9170534979668709  0.3999753193417242
  0.4077339784262060  0.5829892977398272  0.4071988020435131
  0.4655480424377122  0.4169459934348451  0.4104178161668975
  0.4995206291202560  0.4995938541559981  0.5100489271176786
  0.4606562423275521  0.5342270380030503  0.4853753028864349
 
  0.00000000E+00  0.00000000E+00  0.00000000E+00
  0.00000000E+00  0.00000000E+00  0.00000000E+00
  0.00000000E+00  0.00000000E+00  0.00000000E+00
  0.00000000E+00  0.00000000E+00  0.00000000E+00
  0.00000000E+00  0.00000000E+00  0.00000000E+00
  0.00000000E+00  0.00000000E+00  0.00000000E+00
  0.00000000E+00  0.00000000E+00  0.00000000E+00
  0.00000000E+00  0.00000000E+00  0.00000000E+00
  0.00000000E+00  0.00000000E+00  0.00000000E+00
  0.00000000E+00  0.00000000E+00  0.00000000E+00
  0.00000000E+00  0.00000000E+00  0.00000000E+00
  0.00000000E+00  0.00000000E+00  0.00000000E+00
  0.00000000E+00  0.00000000E+00  0.00000000E+00
  0.00000000E+00  0.00000000E+00  0.00000000E+00
  0.00000000E+00  0.00000000E+00  0.00000000E+00
  0.00000000E+00  0.00000000E+00  0.00000000E+00
  0.00000000E+00  0.00000000E+00  0.00000000E+00
  0.00000000E+00  0.00000000E+00  0.00000000E+00
  0.00000000E+00  0.00000000E+00  0.00000000E+00
  0.00000000E+00  0.00000000E+00  0.00000000E+00
  0.00000000E+00  0.00000000E+00  0.00000000E+00
  0.00000000E+00  0.00000000E+00  0.00000000E+00
  0.00000000E+00  0.00000000E+00  0.00000000E+00
  0.00000000E+00  0.00000000E+00  0.00000000E+00
  0.00000000E+00  0.00000000E+00  0.00000000E+00
  0.00000000E+00  0.00000000E+00  0.00000000E+00
  0.00000000E+00  0.00000000E+00  0.00000000E+00
  0.00000000E+00  0.00000000E+00  0.00000000E+00
  0.00000000E+00  0.00000000E+00  0.00000000E+00
  0.00000000E+00  0.00000000E+00  0.00000000E+00
  0.00000000E+00  0.00000000E+00  0.00000000E+00
  0.00000000E+00  0.00000000E+00  0.00000000E+00
  0.00000000E+00  0.00000000E+00  0.00000000E+00
  0.00000000E+00  0.00000000E+00  0.00000000E+00
  0.00000000E+00  0.00000000E+00  0.00000000E+00
  0.00000000E+00  0.00000000E+00  0.00000000E+00
  0.00000000E+00  0.00000000E+00  0.00000000E+00
  0.00000000E+00  0.00000000E+00  0.00000000E+00
  0.00000000E+00  0.00000000E+00  0.00000000E+00
  0.00000000E+00  0.00000000E+00  0.00000000E+00
  0.00000000E+00  0.00000000E+00  0.00000000E+00
  0.00000000E+00  0.00000000E+00  0.00000000E+00
  0.00000000E+00  0.00000000E+00  0.00000000E+00
  0.00000000E+00  0.00000000E+00  0.00000000E+00
  0.00000000E+00  0.00000000E+00  0.00000000E+00
  0.00000000E+00  0.00000000E+00  0.00000000E+00
  0.00000000E+00  0.00000000E+00  0.00000000E+00
  0.00000000E+00  0.00000000E+00  0.00000000E+00
  0.00000000E+00  0.00000000E+00  0.00000000E+00
  0.00000000E+00  0.00000000E+00  0.00000000E+00
  0.00000000E+00  0.00000000E+00  0.00000000E+00
  0.00000000E+00  0.00000000E+00  0.00000000E+00
  0.00000000E+00  0.00000000E+00  0.00000000E+00
  0.00000000E+00  0.00000000E+00  0.00000000E+00
  0.00000000E+00  0.00000000E+00  0.00000000E+00
  0.00000000E+00  0.00000000E+00  0.00000000E+00
  0.00000000E+00  0.00000000E+00  0.00000000E+00
  0.00000000E+00  0.00000000E+00  0.00000000E+00
  0.00000000E+00  0.00000000E+00  0.00000000E+00
  0.00000000E+00  0.00000000E+00  0.00000000E+00
  0.00000000E+00  0.00000000E+00  0.00000000E+00
  0.00000000E+00  0.00000000E+00  0.00000000E+00
  0.00000000E+00  0.00000000E+00  0.00000000E+00
  0.00000000E+00  0.00000000E+00  0.00000000E+00
  0.00000000E+00  0.00000000E+00  0.00000000E+00
  0.00000000E+00  0.00000000E+00  0.00000000E+00
  0.00000000E+00  0.00000000E+00  0.00000000E+00
  0.00000000E+00  0.00000000E+00  0.00000000E+00
  0.00000000E+00  0.00000000E+00  0.00000000E+00
  0.00000000E+00  0.00000000E+00  0.00000000E+00
  0.00000000E+00  0.00000000E+00  0.00000000E+00
  0.00000000E+00  0.00000000E+00  0.00000000E+00
  0.00000000E+00  0.00000000E+00  0.00000000E+00
  0.00000000E+00  0.00000000E+00  0.00000000E+00
  0.00000000E+00  0.00000000E+00  0.00000000E+00
  0.00000000E+00  0.00000000E+00  0.00000000E+00
  0.00000000E+00  0.00000000E+00  0.00000000E+00
  0.00000000E+00  0.00000000E+00  0.00000000E+00
  0.00000000E+00  0.00000000E+00  0.00000000E+00
  0.00000000E+00  0.00000000E+00  0.00000000E+00
  0.00000000E+00  0.00000000E+00  0.00000000E+00
  0.00000000E+00  0.00000000E+00  0.00000000E+00
  0.00000000E+00  0.00000000E+00  0.00000000E+00
  0.00000000E+00  0.00000000E+00  0.00000000E+00
  0.00000000E+00  0.00000000E+00  0.00000000E+00
  0.00000000E+00  0.00000000E+00  0.00000000E+00
  0.00000000E+00  0.00000000E+00  0.00000000E+00
  0.00000000E+00  0.00000000E+00  0.00000000E+00
  0.00000000E+00  0.00000000E+00  0.00000000E+00
  0.00000000E+00  0.00000000E+00  0.00000000E+00
  0.00000000E+00  0.00000000E+00  0.00000000E+00
  0.00000000E+00  0.00000000E+00  0.00000000E+00
  0.00000000E+00  0.00000000E+00  0.00000000E+00
  0.00000000E+00  0.00000000E+00  0.00000000E+00
  0.00000000E+00  0.00000000E+00  0.00000000E+00
  0.00000000E+00  0.00000000E+00  0.00000000E+00
  0.00000000E+00  0.00000000E+00  0.00000000E+00
  0.00000000E+00  0.00000000E+00  0.00000000E+00
  0.00000000E+00  0.00000000E+00  0.00000000E+00
  0.00000000E+00  0.00000000E+00  0.00000000E+00
  0.00000000E+00  0.00000000E+00  0.00000000E+00
  0.00000000E+00  0.00000000E+00  0.00000000E+00
  0.00000000E+00  0.00000000E+00  0.00000000E+00
  0.00000000E+00  0.00000000E+00  0.00000000E+00
  0.00000000E+00  0.00000000E+00  0.00000000E+00
  0.00000000E+00  0.00000000E+00  0.00000000E+00
  0.00000000E+00  0.00000000E+00  0.00000000E+00
  0.00000000E+00  0.00000000E+00  0.00000000E+00
  0.00000000E+00  0.00000000E+00  0.00000000E+00
  0.00000000E+00  0.00000000E+00  0.00000000E+00
  0.00000000E+00  0.00000000E+00  0.00000000E+00
  0.00000000E+00  0.00000000E+00  0.00000000E+00
  0.00000000E+00  0.00000000E+00  0.00000000E+00
  0.00000000E+00  0.00000000E+00  0.00000000E+00
  0.00000000E+00  0.00000000E+00  0.00000000E+00
  0.00000000E+00  0.00000000E+00  0.00000000E+00
  0.00000000E+00  0.00000000E+00  0.00000000E+00
  0.00000000E+00  0.00000000E+00  0.00000000E+00
  0.00000000E+00  0.00000000E+00  0.00000000E+00
  0.00000000E+00  0.00000000E+00  0.00000000E+00
  0.00000000E+00  0.00000000E+00  0.00000000E+00
  0.00000000E+00  0.00000000E+00  0.00000000E+00
  0.00000000E+00  0.00000000E+00  0.00000000E+00
  0.00000000E+00  0.00000000E+00  0.00000000E+00
  0.00000000E+00  0.00000000E+00  0.00000000E+00
  0.00000000E+00  0.00000000E+00  0.00000000E+00
  0.00000000E+00  0.00000000E+00  0.00000000E+00
  0.00000000E+00  0.00000000E+00  0.00000000E+00
  0.00000000E+00  0.00000000E+00  0.00000000E+00
  0.00000000E+00  0.00000000E+00  0.00000000E+00
