V1 H1 C124 N2 O1                        
   1.00000000000000     
    19.8030848618224056   -0.0186141130927197   -0.0542780998180291
    -9.9180143048886347   17.0508612002554294   -0.0971203690483171
    -0.0818381329507214   -0.2173677302393726   29.8185688786480085
   V    H    C    N    O 
     1     1   124     2     1
Direct
  0.4384707079868733  0.5015839742761017  0.4289633758697207
  0.4811948382988547  0.5393277245479027  0.5089785611763773
  0.0424111275368233  0.0844085117789888  0.3998910119043941
  0.0418032299490321  0.2087298643285607  0.3995691600698379
  0.0411128948777773  0.3332047916477734  0.3992782249504003
  0.0408960811250267  0.4584309680190728  0.3993508027420063
  0.0414207601031009  0.5838098033918300  0.3996133418830894
  0.0418760556842557  0.7090986028292861  0.3996955858035776
  0.0421877018139654  0.8343836121311696  0.3997036344726084
  0.0424291796387877  0.9595910088406043  0.3998281261711369
  0.1682648791836598  0.0858505916456664  0.4003903462612826
  0.1681941363049191  0.2107445110272792  0.4003829096989122
  0.1666494456295808  0.3344830572116848  0.3996414978136116
  0.1648167777180873  0.4587947710764766  0.3992050930996172
  0.1654568734168507  0.5838564184896740  0.3993777227717956
  0.1663722049578595  0.7091383676843037  0.3996267085417458
  0.1669420505709667  0.8344630891364986  0.3997239565875006
  0.1674745328415455  0.9599747273858696  0.3999497646027592
  0.2927546497783169  0.0854631233321825  0.4004265542917906
  0.2946083748531620  0.2127171229113287  0.4017275579397293
  0.2944474774306158  0.3387807230598838  0.4022614475343644
  0.2892894595558317  0.4597741662134069  0.4010534124344645
  0.2892718140318777  0.5843806786836083  0.4001063916980669
  0.2907662206396893  0.7091123444157574  0.3998232848275549
  0.2916243242646459  0.8341587608741179  0.3996020767284207
  0.2920680608270771  0.9595305329654238  0.3997247223239526
  0.4171796974256026  0.0840529346868024  0.3998600542443285
  0.4178880760761743  0.2099461946391372  0.4008084639503338
  0.4212843743903747  0.3381220843507791  0.4037175941833979
  0.4149051672905131  0.7068471938017638  0.4008960651251101
  0.4161992306505198  0.8328037110971067  0.3998751522333990
  0.4167173214518485  0.9584305378671942  0.3995997818623920
  0.5417417752124294  0.0827235200462297  0.3997217586547492
  0.5422711909343576  0.2079765574925432  0.3999173828624549
  0.5434601724421384  0.3329264920128452  0.4005905876161791
  0.5447308806120077  0.4564113628151389  0.4020647077631239
  0.5425336866990875  0.5787955394189268  0.4033042308215045
  0.5383867938970752  0.7035681120861739  0.4023919207468509
  0.5404972703885917  0.8311460493267333  0.4006649778370530
  0.5413352574971100  0.9571845279002957  0.3999302871845174
  0.6664010918834506  0.0822365835679193  0.3998790936021095
  0.6668800183726660  0.2075668051572066  0.3997368590388319
  0.6676584509739882  0.3328151012050711  0.3994608421411456
  0.6689702486516111  0.4581382313067337  0.3989521945628667
  0.6686457173577480  0.5824514414792930  0.3989348422332597
  0.6653031590452159  0.7058023871497809  0.3997495737538372
  0.6648260471962288  0.8306246278756433  0.4003389653719438
  0.6658536446540424  0.9566680204612226  0.4001616481138015
  0.7911991136108938  0.0822895416104217  0.3997979381742240
  0.7915189725937779  0.2075374127541991  0.3997039829508680
  0.7920414429189861  0.3328755997861208  0.3995545578933246
  0.7926966114702552  0.4582248111433032  0.3991595671670396
  0.7930740208755296  0.5834302620836382  0.3987037978644921
  0.7920193428318143  0.7081378063799306  0.3988459199693324
  0.7909012834935041  0.8322541750625305  0.3994190681219578
  0.7907534947846386  0.9569504783515157  0.3997856680862597
  0.9164422766778557  0.0829429662730661  0.3996410904855736
  0.9163644369070170  0.2077864857930294  0.3995355294600245
  0.9164468377950570  0.3329439543879573  0.3995378843598445
  0.9167765671944323  0.4582923653201476  0.3995591891420460
  0.9172787033644099  0.5837049388575082  0.3994177301582198
  0.9172070931215757  0.7088872818734160  0.3992906151459650
  0.9169535575582870  0.8337160637348973  0.3993888713343310
  0.9166329409841865  0.9583380181780541  0.3995858201807891
  0.0845353793249828  0.0433637984475155  0.4000199022951136
  0.0843598340236298  0.1680498136160296  0.3999067484721692
  0.0831650005385711  0.2920784183923146  0.3993990302724342
  0.0821274116730137  0.4167572954641230  0.3991678533192200
  0.0825068314777582  0.5419784379708545  0.3994248685743642
  0.0831812381635402  0.6673491871337660  0.3996647414023826
  0.0836968138036482  0.7926998775676779  0.3997346018708612
  0.0840377993448271  0.9179750444457540  0.3998327537308555
  0.2094193810744329  0.0436510461412425  0.4002833146765781
  0.2104899696618006  0.1697708804530151  0.4008835629375156
  0.2099948985275120  0.2945508576223119  0.4004226199458216
  0.2065517848589806  0.4177510401155189  0.3995787744125110
  0.2062393915454450  0.5420593787916772  0.3993423024171960
  0.2075773447824218  0.6674118802560329  0.3995990428584477
  0.2083561036086934  0.7926813204679561  0.3996356286299658
  0.2088266717337603  0.9180296193589683  0.3997838840094730
  0.3339145221052604  0.0431377355757903  0.3999623045427185
  0.3348342115810254  0.1692703927405574  0.4010807558792706
  0.3370797296474137  0.2970091643720139  0.4031635284943462
  0.3328437082992011  0.4216651539860834  0.4033947864585912
  0.3306939383316703  0.5440049348366998  0.4018038918847395
  0.3318259188954400  0.6673696129230109  0.4003027142989737
  0.3329854185689882  0.7923000031155709  0.3997461913800180
  0.3334991845201003  0.9175536625451386  0.3995752142986433
  0.4585329339241895  0.0418865774261832  0.3996613378801044
  0.4590618141384439  0.1675300695278921  0.4001024909468711
  0.4604429828750725  0.2935943545102688  0.4015064344713863
  0.4542096568792715  0.6624929523844614  0.4028607846463359
  0.4574182112892018  0.7904496468965405  0.4003892693873397
  0.4580667565269394  0.9162629709189858  0.3997441830049837
  0.5831701517352812  0.0407508736684647  0.3998219700415433
  0.5836133663026359  0.1661092021754840  0.3997557601427957
  0.5844958485192393  0.2911661905996752  0.3999032116546459
  0.5860087843883619  0.4158917949979468  0.4001381022039681
  0.5860828939121205  0.5405392088210945  0.4008200505598296
  0.5809314814923852  0.6617212596947297  0.4016796466042152
  0.5807853973390635  0.7877960314161996  0.4011178605534198
  0.5825391919957355  0.9149094912488138  0.4002600869103006
  0.7077813333398240  0.0403192563948451  0.3999462650966024
  0.7082840838089268  0.1657905405908480  0.3997857567540350
  0.7088587198528202  0.2910990091665653  0.3995799586195403
  0.7097554597039348  0.4163370275625269  0.3990599210251915
  0.7103846542714152  0.5413824331281845  0.3986194699897112
  0.7085760465701156  0.6657783589219974  0.3989365358640313
  0.7070957886260274  0.7896155787598786  0.3997518321261850
  0.7070437878800462  0.9145145969644091  0.4000945701741188
  0.8328361374679218  0.0407066737928048  0.3997283291541578
  0.8330334367749685  0.1658711164932356  0.3996719705047269
  0.8333175907548949  0.2911104600311702  0.3996088176810204
  0.8338013709112957  0.4163945638950963  0.3994751237865373
  0.8343039991287853  0.5417601766390305  0.3990502094536126
  0.8340787605446494  0.6669858141710563  0.3988700792754187
  0.8334011138621165  0.7914965133326675  0.3991854353135267
  0.8328787140913292  0.9159012707052625  0.3995676826979633
  0.9586355821500021  0.0419497501808692  0.3996852508395108
  0.9582552445753478  0.1665092584967596  0.3995345849617138
  0.9579835681764521  0.2913105380706611  0.3994389030062138
  0.9579250053855048  0.4164954072986191  0.3995251599442895
  0.9584532263084924  0.5419300678137873  0.3995741825821000
  0.9587487492935836  0.6672588376929269  0.3994998247145958
  0.9588353094402819  0.7924266796221673  0.3994669604041547
  0.9588058268692592  0.9173120171871503  0.3995938816868332
  0.4104765209548376  0.5816950282257665  0.4050951660585440
  0.4651979338896410  0.4190894418682944  0.4059561350647840
  0.4383102496532629  0.5048563771283483  0.4889793005547318
 
  0.00000000E+00  0.00000000E+00  0.00000000E+00
  0.00000000E+00  0.00000000E+00  0.00000000E+00
  0.00000000E+00  0.00000000E+00  0.00000000E+00
  0.00000000E+00  0.00000000E+00  0.00000000E+00
  0.00000000E+00  0.00000000E+00  0.00000000E+00
  0.00000000E+00  0.00000000E+00  0.00000000E+00
  0.00000000E+00  0.00000000E+00  0.00000000E+00
  0.00000000E+00  0.00000000E+00  0.00000000E+00
  0.00000000E+00  0.00000000E+00  0.00000000E+00
  0.00000000E+00  0.00000000E+00  0.00000000E+00
  0.00000000E+00  0.00000000E+00  0.00000000E+00
  0.00000000E+00  0.00000000E+00  0.00000000E+00
  0.00000000E+00  0.00000000E+00  0.00000000E+00
  0.00000000E+00  0.00000000E+00  0.00000000E+00
  0.00000000E+00  0.00000000E+00  0.00000000E+00
  0.00000000E+00  0.00000000E+00  0.00000000E+00
  0.00000000E+00  0.00000000E+00  0.00000000E+00
  0.00000000E+00  0.00000000E+00  0.00000000E+00
  0.00000000E+00  0.00000000E+00  0.00000000E+00
  0.00000000E+00  0.00000000E+00  0.00000000E+00
  0.00000000E+00  0.00000000E+00  0.00000000E+00
  0.00000000E+00  0.00000000E+00  0.00000000E+00
  0.00000000E+00  0.00000000E+00  0.00000000E+00
  0.00000000E+00  0.00000000E+00  0.00000000E+00
  0.00000000E+00  0.00000000E+00  0.00000000E+00
  0.00000000E+00  0.00000000E+00  0.00000000E+00
  0.00000000E+00  0.00000000E+00  0.00000000E+00
  0.00000000E+00  0.00000000E+00  0.00000000E+00
  0.00000000E+00  0.00000000E+00  0.00000000E+00
  0.00000000E+00  0.00000000E+00  0.00000000E+00
  0.00000000E+00  0.00000000E+00  0.00000000E+00
  0.00000000E+00  0.00000000E+00  0.00000000E+00
  0.00000000E+00  0.00000000E+00  0.00000000E+00
  0.00000000E+00  0.00000000E+00  0.00000000E+00
  0.00000000E+00  0.00000000E+00  0.00000000E+00
  0.00000000E+00  0.00000000E+00  0.00000000E+00
  0.00000000E+00  0.00000000E+00  0.00000000E+00
  0.00000000E+00  0.00000000E+00  0.00000000E+00
  0.00000000E+00  0.00000000E+00  0.00000000E+00
  0.00000000E+00  0.00000000E+00  0.00000000E+00
  0.00000000E+00  0.00000000E+00  0.00000000E+00
  0.00000000E+00  0.00000000E+00  0.00000000E+00
  0.00000000E+00  0.00000000E+00  0.00000000E+00
  0.00000000E+00  0.00000000E+00  0.00000000E+00
  0.00000000E+00  0.00000000E+00  0.00000000E+00
  0.00000000E+00  0.00000000E+00  0.00000000E+00
  0.00000000E+00  0.00000000E+00  0.00000000E+00
  0.00000000E+00  0.00000000E+00  0.00000000E+00
  0.00000000E+00  0.00000000E+00  0.00000000E+00
  0.00000000E+00  0.00000000E+00  0.00000000E+00
  0.00000000E+00  0.00000000E+00  0.00000000E+00
  0.00000000E+00  0.00000000E+00  0.00000000E+00
  0.00000000E+00  0.00000000E+00  0.00000000E+00
  0.00000000E+00  0.00000000E+00  0.00000000E+00
  0.00000000E+00  0.00000000E+00  0.00000000E+00
  0.00000000E+00  0.00000000E+00  0.00000000E+00
  0.00000000E+00  0.00000000E+00  0.00000000E+00
  0.00000000E+00  0.00000000E+00  0.00000000E+00
  0.00000000E+00  0.00000000E+00  0.00000000E+00
  0.00000000E+00  0.00000000E+00  0.00000000E+00
  0.00000000E+00  0.00000000E+00  0.00000000E+00
  0.00000000E+00  0.00000000E+00  0.00000000E+00
  0.00000000E+00  0.00000000E+00  0.00000000E+00
  0.00000000E+00  0.00000000E+00  0.00000000E+00
  0.00000000E+00  0.00000000E+00  0.00000000E+00
  0.00000000E+00  0.00000000E+00  0.00000000E+00
  0.00000000E+00  0.00000000E+00  0.00000000E+00
  0.00000000E+00  0.00000000E+00  0.00000000E+00
  0.00000000E+00  0.00000000E+00  0.00000000E+00
  0.00000000E+00  0.00000000E+00  0.00000000E+00
  0.00000000E+00  0.00000000E+00  0.00000000E+00
  0.00000000E+00  0.00000000E+00  0.00000000E+00
  0.00000000E+00  0.00000000E+00  0.00000000E+00
  0.00000000E+00  0.00000000E+00  0.00000000E+00
  0.00000000E+00  0.00000000E+00  0.00000000E+00
  0.00000000E+00  0.00000000E+00  0.00000000E+00
  0.00000000E+00  0.00000000E+00  0.00000000E+00
  0.00000000E+00  0.00000000E+00  0.00000000E+00
  0.00000000E+00  0.00000000E+00  0.00000000E+00
  0.00000000E+00  0.00000000E+00  0.00000000E+00
  0.00000000E+00  0.00000000E+00  0.00000000E+00
  0.00000000E+00  0.00000000E+00  0.00000000E+00
  0.00000000E+00  0.00000000E+00  0.00000000E+00
  0.00000000E+00  0.00000000E+00  0.00000000E+00
  0.00000000E+00  0.00000000E+00  0.00000000E+00
  0.00000000E+00  0.00000000E+00  0.00000000E+00
  0.00000000E+00  0.00000000E+00  0.00000000E+00
  0.00000000E+00  0.00000000E+00  0.00000000E+00
  0.00000000E+00  0.00000000E+00  0.00000000E+00
  0.00000000E+00  0.00000000E+00  0.00000000E+00
  0.00000000E+00  0.00000000E+00  0.00000000E+00
  0.00000000E+00  0.00000000E+00  0.00000000E+00
  0.00000000E+00  0.00000000E+00  0.00000000E+00
  0.00000000E+00  0.00000000E+00  0.00000000E+00
  0.00000000E+00  0.00000000E+00  0.00000000E+00
  0.00000000E+00  0.00000000E+00  0.00000000E+00
  0.00000000E+00  0.00000000E+00  0.00000000E+00
  0.00000000E+00  0.00000000E+00  0.00000000E+00
  0.00000000E+00  0.00000000E+00  0.00000000E+00
  0.00000000E+00  0.00000000E+00  0.00000000E+00
  0.00000000E+00  0.00000000E+00  0.00000000E+00
  0.00000000E+00  0.00000000E+00  0.00000000E+00
  0.00000000E+00  0.00000000E+00  0.00000000E+00
  0.00000000E+00  0.00000000E+00  0.00000000E+00
  0.00000000E+00  0.00000000E+00  0.00000000E+00
  0.00000000E+00  0.00000000E+00  0.00000000E+00
  0.00000000E+00  0.00000000E+00  0.00000000E+00
  0.00000000E+00  0.00000000E+00  0.00000000E+00
  0.00000000E+00  0.00000000E+00  0.00000000E+00
  0.00000000E+00  0.00000000E+00  0.00000000E+00
  0.00000000E+00  0.00000000E+00  0.00000000E+00
  0.00000000E+00  0.00000000E+00  0.00000000E+00
  0.00000000E+00  0.00000000E+00  0.00000000E+00
  0.00000000E+00  0.00000000E+00  0.00000000E+00
  0.00000000E+00  0.00000000E+00  0.00000000E+00
  0.00000000E+00  0.00000000E+00  0.00000000E+00
  0.00000000E+00  0.00000000E+00  0.00000000E+00
  0.00000000E+00  0.00000000E+00  0.00000000E+00
  0.00000000E+00  0.00000000E+00  0.00000000E+00
  0.00000000E+00  0.00000000E+00  0.00000000E+00
  0.00000000E+00  0.00000000E+00  0.00000000E+00
  0.00000000E+00  0.00000000E+00  0.00000000E+00
  0.00000000E+00  0.00000000E+00  0.00000000E+00
  0.00000000E+00  0.00000000E+00  0.00000000E+00
  0.00000000E+00  0.00000000E+00  0.00000000E+00
  0.00000000E+00  0.00000000E+00  0.00000000E+00
  0.00000000E+00  0.00000000E+00  0.00000000E+00
  0.00000000E+00  0.00000000E+00  0.00000000E+00
  0.00000000E+00  0.00000000E+00  0.00000000E+00
