La1 H1 C122 N4 O1                       
   1.00000000000000     
    19.8034465756326661    0.0003604512414329    0.1098622038294869
    -9.9014084732736833   17.0414998834234765    0.0909334955820519
     0.1653632714930722    0.2550523262847293   29.8190665119876250
   La   H    C    N    O 
     1     1   122     4     1
Direct
  0.4377227021168133  0.5011521590464054  0.4532495046268022
  0.5104842456854893  0.5748568375894214  0.5451674438396897
  0.0417422126417050  0.0837650605052118  0.3996805779495817
  0.0409883916767768  0.2080862724898116  0.3993081299710515
  0.0403315034153327  0.3328814715208329  0.3991730615643001
  0.0404960893880112  0.4580823141238776  0.3994256075828779
  0.0412360581860800  0.5835354515115557  0.3998568466665224
  0.0419401048432747  0.7089532318252022  0.4001265627317864
  0.0421386251060026  0.8341188630323175  0.4001264604491116
  0.0422206892789718  0.9592703654097497  0.3999201515527546
  0.1678351302304767  0.0853304284040901  0.3997291506671797
  0.1670250384216180  0.2096749890657105  0.3990982234754450
  0.1651676241776800  0.3334868999355183  0.3985346148264899
  0.1644767850638475  0.4583449729516761  0.3981984421492263
  0.1652800220332820  0.5835050442720325  0.3988214099342516
  0.1662761113434279  0.7087181262550640  0.3996626026960674
  0.1668452037715117  0.8341315808566290  0.4000966565004352
  0.1672464131609924  0.9596438718614394  0.4000199901341148
  0.2923420315866704  0.0853353875692449  0.3997338698468813
  0.2937221833495850  0.2126386314081660  0.4002116824295276
  0.2917671807024205  0.3378706995337527  0.4006723803975971
  0.2884072398615655  0.4573058400100167  0.3995675994479799
  0.2889410555689160  0.5827640642203328  0.3982291689458200
  0.2906218509353989  0.7082457587652927  0.3989191800038420
  0.2914877938989862  0.8336915934103923  0.3996442868081449
  0.2919290484553945  0.9592849020070526  0.3998732184986517
  0.4169033093851748  0.0838356721685954  0.3996850663624589
  0.4174946605176371  0.2097589886880593  0.3991816055193806
  0.4208474030061216  0.3379407471189768  0.4011108574160605
  0.4148380264336201  0.7066549881011173  0.3988021222806356
  0.4160443164829372  0.8323813055312617  0.3993314059492106
  0.4165388605467059  0.9581359013663722  0.3998412885423895
  0.5414738305224781  0.0825367707123872  0.3998164693037232
  0.5419864280563943  0.2081400355854568  0.3993131530757880
  0.5432094020391636  0.3335281697811653  0.3987391997769787
  0.5439490583156446  0.4573901712770200  0.4000326013085554
  0.5385736871966458  0.7023425766946566  0.4011783661230791
  0.5405482812795153  0.8304939305517202  0.3997731184002370
  0.5410772177781250  0.9567366654086166  0.3997929413436979
  0.6660964386648894  0.0820284894424440  0.4000496006250947
  0.6665129826636956  0.2074408383287759  0.3998163806589501
  0.6674407237962047  0.3329266030203973  0.3991560818159016
  0.6688373360177011  0.4583870243536434  0.3981889939414354
  0.6688210184421247  0.5828010596656630  0.3982717024227517
  0.6666503754143938  0.7065743485874036  0.3988996788378267
  0.6647830802098547  0.8304772156611573  0.3998122336639431
  0.6656597443344500  0.9564372499245734  0.3999461757879584
  0.7907985035344233  0.0820120240136022  0.4000709033708017
  0.7910940014866523  0.2073338870992532  0.4002200059997514
  0.7916519312763750  0.3326936323777231  0.3999373457484915
  0.7924894426814951  0.4580969564263466  0.3993835602375158
  0.7931452254875493  0.5834856047050158  0.3988521775440469
  0.7925363633704485  0.7082325921966343  0.3990006143315994
  0.7911758906495366  0.8323168185459346  0.3994262670845596
  0.7905184445174015  0.9567091158837753  0.3998179964184625
  0.9159024961973933  0.0824880677790279  0.3998341902237495
  0.9157677045970041  0.2074002427188104  0.3998835580461902
  0.9159169066999346  0.3326815265391833  0.4000031575810206
  0.9165199149106343  0.4581524119792292  0.4000596792210202
  0.9171918593560524  0.5835458980638860  0.3998729053225603
  0.9173460944641088  0.7087027570515455  0.3996804903562487
  0.9170808141992174  0.8336707899471963  0.3997175108627179
  0.9164454841580816  0.9580851197044244  0.3998813835682039
  0.0841396348714412  0.0429497229345846  0.3997624588176331
  0.0834380023304312  0.1672921165160248  0.3992974626361112
  0.0821242776452030  0.2914359722185075  0.3989325097244599
  0.0815915913503036  0.4162458815581913  0.3988720264262601
  0.0822723131906519  0.5416609399089947  0.3993788077902071
  0.0830975173554459  0.6670242455201241  0.3999269607399735
  0.0835980481561634  0.7923444035472144  0.4002168727543662
  0.0838884010437572  0.9176572360157216  0.4000541654041930
  0.2090499537927131  0.0432529188918982  0.3998638860057548
  0.2098695602155120  0.1691961609845760  0.3996632946431681
  0.2079745536008324  0.2930581654190021  0.3987809174714208
  0.2059469390476175  0.4169338433639732  0.3982271627386231
  0.2060137908511652  0.5414125427218022  0.3981640709722181
  0.2073422962347495  0.6668392045117324  0.3991270885353023
  0.2082216024200158  0.7922819185589102  0.3998193855420452
  0.2086347089233677  0.9176782608868734  0.4000220662851244
  0.3336574326982888  0.0429745848345733  0.3997457652960025
  0.3341417501142763  0.1691971133230225  0.3997183606624483
  0.3360237768615288  0.2972841427246075  0.4013178456498541
  0.3308405128957154  0.5422098232309377  0.3996090127231854
  0.3316085409900414  0.6662255032896267  0.3985578947446775
  0.3327980190449250  0.7916041324276472  0.3992869030350826
  0.3332761865136614  0.9171648975076908  0.3998056214024325
  0.4582048165331735  0.0415737523032658  0.3998396647351386
  0.4587112182290427  0.1673785263544460  0.3993216812752246
  0.4599340070062011  0.2931808471404486  0.3990311536141440
  0.4538637501652093  0.6619031384133227  0.4006619779220358
  0.4572435945930694  0.7900173820585363  0.3991629296881701
  0.4578430449651785  0.9158869356493977  0.3997124139944312
  0.5827932253875716  0.0404023634991871  0.3999028129842738
  0.5832579452368853  0.1660139423319889  0.3996555210206739
  0.5841655774495678  0.2914960161292987  0.3989869035733570
  0.5859313222535354  0.4169630153490003  0.3984154671202241
  0.5863420806081319  0.5422332065833779  0.3997057905467549
  0.5827639371645682  0.6617553212259413  0.4006603413491170
  0.5809195054289072  0.7870282049995765  0.4002500936672044
  0.5823479355584741  0.9143402232931497  0.3998210063015238
  0.7074461437734167  0.0400376118247151  0.4000621202097953
  0.7078491290552658  0.1655710149368773  0.4000954546280527
  0.7084887142161191  0.2910350849172998  0.3996675373266581
  0.7095338042500167  0.4162944069361294  0.3988296128704277
  0.7103100041295806  0.5414111639839982  0.3981841044675878
  0.7095035007700441  0.6662072142264527  0.3986232738849200
  0.7075717582713382  0.7899460514208114  0.3992540957305347
  0.7068200145001641  0.9143150307478959  0.3998391987154450
  0.8324295540742731  0.0403653747197589  0.3999208429634626
  0.8325217232209975  0.1655526624991747  0.4001425850433667
  0.8328015700776783  0.2907599465682972  0.4001470567417033
  0.8335032188151441  0.4161938803631879  0.3998860128413412
  0.8342427346856612  0.5416578274617846  0.3993904300552467
  0.8343637250182614  0.6668035574787262  0.3991798645470945
  0.8336454908368984  0.7915462143017755  0.3993826795932471
  0.8328579072833526  0.9158267785451145  0.3997541498515682
  0.9581624667101165  0.0415010592076120  0.3998500384966510
  0.9575530275753710  0.1659620609096790  0.3996971412146518
  0.9573412968724859  0.2909923720182091  0.3997425186930546
  0.9575230390852010  0.4161789881487841  0.3999344946944334
  0.9582057643561648  0.5415672623803123  0.4000346422482666
  0.9588157312641545  0.6670230619895886  0.3999240718994393
  0.9588965558851484  0.7922547595032156  0.3998530731289826
  0.9587323489181202  0.9171314008062497  0.3998702282515836
  0.4107335902079302  0.5822204592707565  0.4029308309275403
  0.5462509416501066  0.5821024548100102  0.4027311726763377
  0.3282712883029262  0.4172957265946781  0.4028086840399179
  0.4639577576481458  0.4174487196159378  0.4037561833461582
  0.4838482342285733  0.5469412330039092  0.5185879903506191
 
  0.00000000E+00  0.00000000E+00  0.00000000E+00
  0.00000000E+00  0.00000000E+00  0.00000000E+00
  0.00000000E+00  0.00000000E+00  0.00000000E+00
  0.00000000E+00  0.00000000E+00  0.00000000E+00
  0.00000000E+00  0.00000000E+00  0.00000000E+00
  0.00000000E+00  0.00000000E+00  0.00000000E+00
  0.00000000E+00  0.00000000E+00  0.00000000E+00
  0.00000000E+00  0.00000000E+00  0.00000000E+00
  0.00000000E+00  0.00000000E+00  0.00000000E+00
  0.00000000E+00  0.00000000E+00  0.00000000E+00
  0.00000000E+00  0.00000000E+00  0.00000000E+00
  0.00000000E+00  0.00000000E+00  0.00000000E+00
  0.00000000E+00  0.00000000E+00  0.00000000E+00
  0.00000000E+00  0.00000000E+00  0.00000000E+00
  0.00000000E+00  0.00000000E+00  0.00000000E+00
  0.00000000E+00  0.00000000E+00  0.00000000E+00
  0.00000000E+00  0.00000000E+00  0.00000000E+00
  0.00000000E+00  0.00000000E+00  0.00000000E+00
  0.00000000E+00  0.00000000E+00  0.00000000E+00
  0.00000000E+00  0.00000000E+00  0.00000000E+00
  0.00000000E+00  0.00000000E+00  0.00000000E+00
  0.00000000E+00  0.00000000E+00  0.00000000E+00
  0.00000000E+00  0.00000000E+00  0.00000000E+00
  0.00000000E+00  0.00000000E+00  0.00000000E+00
  0.00000000E+00  0.00000000E+00  0.00000000E+00
  0.00000000E+00  0.00000000E+00  0.00000000E+00
  0.00000000E+00  0.00000000E+00  0.00000000E+00
  0.00000000E+00  0.00000000E+00  0.00000000E+00
  0.00000000E+00  0.00000000E+00  0.00000000E+00
  0.00000000E+00  0.00000000E+00  0.00000000E+00
  0.00000000E+00  0.00000000E+00  0.00000000E+00
  0.00000000E+00  0.00000000E+00  0.00000000E+00
  0.00000000E+00  0.00000000E+00  0.00000000E+00
  0.00000000E+00  0.00000000E+00  0.00000000E+00
  0.00000000E+00  0.00000000E+00  0.00000000E+00
  0.00000000E+00  0.00000000E+00  0.00000000E+00
  0.00000000E+00  0.00000000E+00  0.00000000E+00
  0.00000000E+00  0.00000000E+00  0.00000000E+00
  0.00000000E+00  0.00000000E+00  0.00000000E+00
  0.00000000E+00  0.00000000E+00  0.00000000E+00
  0.00000000E+00  0.00000000E+00  0.00000000E+00
  0.00000000E+00  0.00000000E+00  0.00000000E+00
  0.00000000E+00  0.00000000E+00  0.00000000E+00
  0.00000000E+00  0.00000000E+00  0.00000000E+00
  0.00000000E+00  0.00000000E+00  0.00000000E+00
  0.00000000E+00  0.00000000E+00  0.00000000E+00
  0.00000000E+00  0.00000000E+00  0.00000000E+00
  0.00000000E+00  0.00000000E+00  0.00000000E+00
  0.00000000E+00  0.00000000E+00  0.00000000E+00
  0.00000000E+00  0.00000000E+00  0.00000000E+00
  0.00000000E+00  0.00000000E+00  0.00000000E+00
  0.00000000E+00  0.00000000E+00  0.00000000E+00
  0.00000000E+00  0.00000000E+00  0.00000000E+00
  0.00000000E+00  0.00000000E+00  0.00000000E+00
  0.00000000E+00  0.00000000E+00  0.00000000E+00
  0.00000000E+00  0.00000000E+00  0.00000000E+00
  0.00000000E+00  0.00000000E+00  0.00000000E+00
  0.00000000E+00  0.00000000E+00  0.00000000E+00
  0.00000000E+00  0.00000000E+00  0.00000000E+00
  0.00000000E+00  0.00000000E+00  0.00000000E+00
  0.00000000E+00  0.00000000E+00  0.00000000E+00
  0.00000000E+00  0.00000000E+00  0.00000000E+00
  0.00000000E+00  0.00000000E+00  0.00000000E+00
  0.00000000E+00  0.00000000E+00  0.00000000E+00
  0.00000000E+00  0.00000000E+00  0.00000000E+00
  0.00000000E+00  0.00000000E+00  0.00000000E+00
  0.00000000E+00  0.00000000E+00  0.00000000E+00
  0.00000000E+00  0.00000000E+00  0.00000000E+00
  0.00000000E+00  0.00000000E+00  0.00000000E+00
  0.00000000E+00  0.00000000E+00  0.00000000E+00
  0.00000000E+00  0.00000000E+00  0.00000000E+00
  0.00000000E+00  0.00000000E+00  0.00000000E+00
  0.00000000E+00  0.00000000E+00  0.00000000E+00
  0.00000000E+00  0.00000000E+00  0.00000000E+00
  0.00000000E+00  0.00000000E+00  0.00000000E+00
  0.00000000E+00  0.00000000E+00  0.00000000E+00
  0.00000000E+00  0.00000000E+00  0.00000000E+00
  0.00000000E+00  0.00000000E+00  0.00000000E+00
  0.00000000E+00  0.00000000E+00  0.00000000E+00
  0.00000000E+00  0.00000000E+00  0.00000000E+00
  0.00000000E+00  0.00000000E+00  0.00000000E+00
  0.00000000E+00  0.00000000E+00  0.00000000E+00
  0.00000000E+00  0.00000000E+00  0.00000000E+00
  0.00000000E+00  0.00000000E+00  0.00000000E+00
  0.00000000E+00  0.00000000E+00  0.00000000E+00
  0.00000000E+00  0.00000000E+00  0.00000000E+00
  0.00000000E+00  0.00000000E+00  0.00000000E+00
  0.00000000E+00  0.00000000E+00  0.00000000E+00
  0.00000000E+00  0.00000000E+00  0.00000000E+00
  0.00000000E+00  0.00000000E+00  0.00000000E+00
  0.00000000E+00  0.00000000E+00  0.00000000E+00
  0.00000000E+00  0.00000000E+00  0.00000000E+00
  0.00000000E+00  0.00000000E+00  0.00000000E+00
  0.00000000E+00  0.00000000E+00  0.00000000E+00
  0.00000000E+00  0.00000000E+00  0.00000000E+00
  0.00000000E+00  0.00000000E+00  0.00000000E+00
  0.00000000E+00  0.00000000E+00  0.00000000E+00
  0.00000000E+00  0.00000000E+00  0.00000000E+00
  0.00000000E+00  0.00000000E+00  0.00000000E+00
  0.00000000E+00  0.00000000E+00  0.00000000E+00
  0.00000000E+00  0.00000000E+00  0.00000000E+00
  0.00000000E+00  0.00000000E+00  0.00000000E+00
  0.00000000E+00  0.00000000E+00  0.00000000E+00
  0.00000000E+00  0.00000000E+00  0.00000000E+00
  0.00000000E+00  0.00000000E+00  0.00000000E+00
  0.00000000E+00  0.00000000E+00  0.00000000E+00
  0.00000000E+00  0.00000000E+00  0.00000000E+00
  0.00000000E+00  0.00000000E+00  0.00000000E+00
  0.00000000E+00  0.00000000E+00  0.00000000E+00
  0.00000000E+00  0.00000000E+00  0.00000000E+00
  0.00000000E+00  0.00000000E+00  0.00000000E+00
  0.00000000E+00  0.00000000E+00  0.00000000E+00
  0.00000000E+00  0.00000000E+00  0.00000000E+00
  0.00000000E+00  0.00000000E+00  0.00000000E+00
  0.00000000E+00  0.00000000E+00  0.00000000E+00
  0.00000000E+00  0.00000000E+00  0.00000000E+00
  0.00000000E+00  0.00000000E+00  0.00000000E+00
  0.00000000E+00  0.00000000E+00  0.00000000E+00
  0.00000000E+00  0.00000000E+00  0.00000000E+00
  0.00000000E+00  0.00000000E+00  0.00000000E+00
  0.00000000E+00  0.00000000E+00  0.00000000E+00
  0.00000000E+00  0.00000000E+00  0.00000000E+00
  0.00000000E+00  0.00000000E+00  0.00000000E+00
  0.00000000E+00  0.00000000E+00  0.00000000E+00
  0.00000000E+00  0.00000000E+00  0.00000000E+00
  0.00000000E+00  0.00000000E+00  0.00000000E+00
  0.00000000E+00  0.00000000E+00  0.00000000E+00
  0.00000000E+00  0.00000000E+00  0.00000000E+00
  0.00000000E+00  0.00000000E+00  0.00000000E+00
