H1 Au1 C126 O2                          
   1.00000000000000     
    19.8922816741669912    0.0002381420743680    0.2744365842021991
    -9.9456895275568460   17.0718931302237635   -0.1883838240076559
     0.2275784995851400   -0.1405363708544341   29.6337020324747193
   H    Au   C    O 
     1     1   126     2
Direct
  0.5012842448962430  0.4919734904328279  0.4771563452402939
  0.4373325205439156  0.5001511262326405  0.3998490735412164
  0.0416023972210079  0.0839294001070683  0.3999064074996249
  0.0399929916207526  0.2076656323406499  0.3995649881235130
  0.0391895388446833  0.3325111872962985  0.3996667018353000
  0.0393955194899482  0.4583434564456167  0.4003587285602269
  0.0409419906866860  0.5841512264421930  0.4009965896237722
  0.0422181841326896  0.7096918282958437  0.4011509659013707
  0.0427025065224443  0.8350707718322745  0.4007925451526559
  0.0426497541357978  0.9599393226409219  0.4003127218326140
  0.1677350982627119  0.0857385503413154  0.3996007688965301
  0.1662014820278597  0.2095024004582531  0.3991503253488994
  0.1634386345063026  0.3327309661494605  0.3985710882736505
  0.1618361333474614  0.4582888714897247  0.3987050993620873
  0.1637338445158334  0.5839940265474713  0.3995240712132319
  0.1660646925590201  0.7096202646966717  0.4004961053791486
  0.1671364518181826  0.8350616777329150  0.4007702167438326
  0.1676413666851891  0.9604536095030768  0.4002919202609443
  0.2928285867114839  0.0857234797857280  0.3995870000643598
  0.2935698354800748  0.2123058870894899  0.3992162873768444
  0.2906170999617422  0.3364310635539641  0.3983970069391907
  0.2831452439235284  0.4576219106341976  0.3972893804125823
  0.2862452976225630  0.5843272958338823  0.3981037148062643
  0.2900357740177708  0.7094065117448565  0.3992741238106640
  0.2912860133048760  0.8344582389271992  0.4002050133030405
  0.2920942690925196  0.9599158606785870  0.4002285983452317
  0.4171446982458777  0.0839107590858004  0.3998232394130829
  0.4181026288317963  0.2094629735674358  0.3994785066902616
  0.4206027282128734  0.3364001196676301  0.4001188949477394
  0.4072052632468594  0.5818082279227043  0.3975357025998223
  0.4142121708890674  0.7074722738445515  0.3987660961634382
  0.4157049963754358  0.8330819119540812  0.3996304161133944
  0.4165109335976021  0.9585098507687496  0.4001231449881880
  0.5415856119914330  0.0824227825957548  0.4002191979099300
  0.5424923320480386  0.2076795609647361  0.3996042968760024
  0.5441302799846837  0.3327561221036543  0.3996954522128132
  0.5493018292746151  0.4576187755613927  0.4011501664252880
  0.5493867311729360  0.5818899145750496  0.4015506313548005
  0.5395312631355336  0.7043152021422803  0.3993297670743995
  0.5401213924290510  0.8309672232591749  0.3992972580391304
  0.5409058021936708  0.9568727567937192  0.3999777168497798
  0.6659364094780261  0.0817151724271045  0.4004896460468176
  0.6666870080761650  0.2071193625252611  0.4004066448882317
  0.6681187621742992  0.3325114157974284  0.3997383942968303
  0.6713484444352451  0.4583343370184970  0.3995805192376675
  0.6729743950948003  0.5844296401008253  0.4000893831475067
  0.6680493689861798  0.7075026146015178  0.3998937565242517
  0.6656419050394988  0.8309774714013448  0.3994995011754093
  0.6655462561610183  0.9563099929486261  0.3998968629512813
  0.7905719512182325  0.0817243026576229  0.4004663847235182
  0.7908471929503966  0.2069642673198908  0.4008679935195019
  0.7918232654874648  0.3325245352314607  0.4008022212257089
  0.7937445544468448  0.4583501705440138  0.4002321913163557
  0.7951222395225244  0.5840550849853360  0.3997358937628698
  0.7942189000223454  0.7094570354628307  0.3997549955539367
  0.7921772593394689  0.8331065406553275  0.3996954054153983
  0.7907518999569636  0.9568950414604984  0.3999494713813429
  0.9156387467934167  0.0824377574097647  0.4002163765222197
  0.9151894199198493  0.2071364188099508  0.4004533100894373
  0.9154680244835595  0.3325505506456656  0.4009133605739206
  0.9165160310898155  0.4582882452925680  0.4011023057866482
  0.9179793971453111  0.5841782342966118  0.4008984766498074
  0.9183550734614029  0.7096758731462077  0.4005197533063330
  0.9179803353561901  0.8344967556916344  0.4002406359802084
  0.9168085630734921  0.9585224615495501  0.4001042102465794
  0.0842115885242532  0.0434027266553928  0.3999283008264999
  0.0827737806039979  0.1671699559065963  0.3995261218771108
  0.0807182115913596  0.2908069858638032  0.3991923988022870
  0.0798394514036743  0.4162553543083478  0.3995497041321231
  0.0812205677374784  0.5419775009855479  0.4003685136442247
  0.0830923128983272  0.6677827994950034  0.4010076693309448
  0.0840526063231825  0.7933510581803194  0.4009709998528008
  0.0843849474025706  0.9185757363814385  0.4005267037197931
  0.2094008261453090  0.0439806984063360  0.3997857201364436
  0.2093391358654027  0.1693322539336656  0.3992308123983350
  0.2068880746294137  0.2927727188531030  0.3986286855330554
  0.2020034200620944  0.4158438099262445  0.3981133655880562
  0.2036482343395231  0.5419011935262090  0.3986757518644757
  0.2068246880326642  0.6677341581139709  0.3997022273738899
  0.2082111220453016  0.7931364425014167  0.4005463117700246
  0.2090044638490494  0.9185695337440334  0.4004714708044760
  0.3340022372519892  0.0433901026308312  0.3998298494137048
  0.3348148449887777  0.1693156187406261  0.3994095110981968
  0.3353819141528363  0.2959832029668256  0.3992223365661383
  0.3255173317239847  0.4184106775878672  0.3975293867659921
  0.3256042338612753  0.5425388741414325  0.3972920182588213
  0.3308076642222107  0.6674574979128545  0.3986595641806084
  0.3324378006894733  0.7925535651067962  0.3996894118454627
  0.3333266681574780  0.9178231899980231  0.4002580072847199
  0.4584217781436912  0.0417635135128828  0.4000695191306064
  0.4592074516462737  0.1671566569870462  0.3995637538891035
  0.4607062657410638  0.2927697216238686  0.3997149351145764
  0.4676761239339586  0.4184233250189782  0.4015047255700173
  0.4542903793247894  0.6638257239591681  0.3984853999529450
  0.4568055832462576  0.7907617606346624  0.3992747402660007
  0.4577701507948791  0.9163397705947687  0.3999594395228988
  0.5828236320050394  0.0403444354529822  0.4003190751330721
  0.5836244843711821  0.1657814243476627  0.4000500451637203
  0.5849303124827261  0.2908164027541270  0.3995155728582627
  0.5887369240695308  0.4158631042238423  0.3999821520721089
  0.5918149538894740  0.5427032760928959  0.4012027330743491
  0.5843219362152176  0.6638863326093666  0.4002529886636949
  0.5813959938800979  0.7880044710566318  0.3992997054377425
  0.5821114987412175  0.9145600547311025  0.3996854925525202
  0.7073269044584383  0.0398432770821370  0.4003212328551241
  0.7077763695564367  0.1652277196694180  0.4006715596434856
  0.7088539002297216  0.2906395873559440  0.4003352844058519
  0.7112528303877892  0.4162637975790415  0.3996688736772701
  0.7131490906309786  0.5419816521006975  0.3996159550838286
  0.7114849903567899  0.6675263681526998  0.3998965510643340
  0.7087597934958121  0.7907974148609287  0.3995854613868286
  0.7072442167903956  0.9145770111974695  0.3997344011375408
  0.8323120200849493  0.0403664661619228  0.4002719062419476
  0.8322030130955611  0.1652422457436454  0.4006810977828670
  0.8326928901975925  0.2906351853485232  0.4010326250010830
  0.8339897814624704  0.4161763396298102  0.4007945943093136
  0.8355559776690231  0.5420019163556008  0.4002732171053144
  0.8357412115617032  0.6677983369821988  0.3999205637006175
  0.8349404985431396  0.7925940515264148  0.3998428751589146
  0.8333637335276545  0.9163604785585936  0.3999060302834487
  0.9581690223328534  0.0417789281732225  0.4000983862379575
  0.9569405699315895  0.1657877653427312  0.4001007038639227
  0.9565562365474484  0.2906540303229593  0.4004347460750092
  0.9569557193662970  0.4161963229024643  0.4009465677086815
  0.9584132544642442  0.5420873633274204  0.4011435728392229
  0.9594550888978330  0.6678180677975455  0.4009492313149320
  0.9597138411402933  0.7931807881771429  0.4005847982883354
  0.9593164664681733  0.9178586378757470  0.4002785551840615
  0.4966363787324288  0.4923181646273021  0.5106966993990933
  0.4267890678101035  0.4857126596624017  0.5188254189542184
 
  0.00000000E+00  0.00000000E+00  0.00000000E+00
  0.00000000E+00  0.00000000E+00  0.00000000E+00
  0.00000000E+00  0.00000000E+00  0.00000000E+00
  0.00000000E+00  0.00000000E+00  0.00000000E+00
  0.00000000E+00  0.00000000E+00  0.00000000E+00
  0.00000000E+00  0.00000000E+00  0.00000000E+00
  0.00000000E+00  0.00000000E+00  0.00000000E+00
  0.00000000E+00  0.00000000E+00  0.00000000E+00
  0.00000000E+00  0.00000000E+00  0.00000000E+00
  0.00000000E+00  0.00000000E+00  0.00000000E+00
  0.00000000E+00  0.00000000E+00  0.00000000E+00
  0.00000000E+00  0.00000000E+00  0.00000000E+00
  0.00000000E+00  0.00000000E+00  0.00000000E+00
  0.00000000E+00  0.00000000E+00  0.00000000E+00
  0.00000000E+00  0.00000000E+00  0.00000000E+00
  0.00000000E+00  0.00000000E+00  0.00000000E+00
  0.00000000E+00  0.00000000E+00  0.00000000E+00
  0.00000000E+00  0.00000000E+00  0.00000000E+00
  0.00000000E+00  0.00000000E+00  0.00000000E+00
  0.00000000E+00  0.00000000E+00  0.00000000E+00
  0.00000000E+00  0.00000000E+00  0.00000000E+00
  0.00000000E+00  0.00000000E+00  0.00000000E+00
  0.00000000E+00  0.00000000E+00  0.00000000E+00
  0.00000000E+00  0.00000000E+00  0.00000000E+00
  0.00000000E+00  0.00000000E+00  0.00000000E+00
  0.00000000E+00  0.00000000E+00  0.00000000E+00
  0.00000000E+00  0.00000000E+00  0.00000000E+00
  0.00000000E+00  0.00000000E+00  0.00000000E+00
  0.00000000E+00  0.00000000E+00  0.00000000E+00
  0.00000000E+00  0.00000000E+00  0.00000000E+00
  0.00000000E+00  0.00000000E+00  0.00000000E+00
  0.00000000E+00  0.00000000E+00  0.00000000E+00
  0.00000000E+00  0.00000000E+00  0.00000000E+00
  0.00000000E+00  0.00000000E+00  0.00000000E+00
  0.00000000E+00  0.00000000E+00  0.00000000E+00
  0.00000000E+00  0.00000000E+00  0.00000000E+00
  0.00000000E+00  0.00000000E+00  0.00000000E+00
  0.00000000E+00  0.00000000E+00  0.00000000E+00
  0.00000000E+00  0.00000000E+00  0.00000000E+00
  0.00000000E+00  0.00000000E+00  0.00000000E+00
  0.00000000E+00  0.00000000E+00  0.00000000E+00
  0.00000000E+00  0.00000000E+00  0.00000000E+00
  0.00000000E+00  0.00000000E+00  0.00000000E+00
  0.00000000E+00  0.00000000E+00  0.00000000E+00
  0.00000000E+00  0.00000000E+00  0.00000000E+00
  0.00000000E+00  0.00000000E+00  0.00000000E+00
  0.00000000E+00  0.00000000E+00  0.00000000E+00
  0.00000000E+00  0.00000000E+00  0.00000000E+00
  0.00000000E+00  0.00000000E+00  0.00000000E+00
  0.00000000E+00  0.00000000E+00  0.00000000E+00
  0.00000000E+00  0.00000000E+00  0.00000000E+00
  0.00000000E+00  0.00000000E+00  0.00000000E+00
  0.00000000E+00  0.00000000E+00  0.00000000E+00
  0.00000000E+00  0.00000000E+00  0.00000000E+00
  0.00000000E+00  0.00000000E+00  0.00000000E+00
  0.00000000E+00  0.00000000E+00  0.00000000E+00
  0.00000000E+00  0.00000000E+00  0.00000000E+00
  0.00000000E+00  0.00000000E+00  0.00000000E+00
  0.00000000E+00  0.00000000E+00  0.00000000E+00
  0.00000000E+00  0.00000000E+00  0.00000000E+00
  0.00000000E+00  0.00000000E+00  0.00000000E+00
  0.00000000E+00  0.00000000E+00  0.00000000E+00
  0.00000000E+00  0.00000000E+00  0.00000000E+00
  0.00000000E+00  0.00000000E+00  0.00000000E+00
  0.00000000E+00  0.00000000E+00  0.00000000E+00
  0.00000000E+00  0.00000000E+00  0.00000000E+00
  0.00000000E+00  0.00000000E+00  0.00000000E+00
  0.00000000E+00  0.00000000E+00  0.00000000E+00
  0.00000000E+00  0.00000000E+00  0.00000000E+00
  0.00000000E+00  0.00000000E+00  0.00000000E+00
  0.00000000E+00  0.00000000E+00  0.00000000E+00
  0.00000000E+00  0.00000000E+00  0.00000000E+00
  0.00000000E+00  0.00000000E+00  0.00000000E+00
  0.00000000E+00  0.00000000E+00  0.00000000E+00
  0.00000000E+00  0.00000000E+00  0.00000000E+00
  0.00000000E+00  0.00000000E+00  0.00000000E+00
  0.00000000E+00  0.00000000E+00  0.00000000E+00
  0.00000000E+00  0.00000000E+00  0.00000000E+00
  0.00000000E+00  0.00000000E+00  0.00000000E+00
  0.00000000E+00  0.00000000E+00  0.00000000E+00
  0.00000000E+00  0.00000000E+00  0.00000000E+00
  0.00000000E+00  0.00000000E+00  0.00000000E+00
  0.00000000E+00  0.00000000E+00  0.00000000E+00
  0.00000000E+00  0.00000000E+00  0.00000000E+00
  0.00000000E+00  0.00000000E+00  0.00000000E+00
  0.00000000E+00  0.00000000E+00  0.00000000E+00
  0.00000000E+00  0.00000000E+00  0.00000000E+00
  0.00000000E+00  0.00000000E+00  0.00000000E+00
  0.00000000E+00  0.00000000E+00  0.00000000E+00
  0.00000000E+00  0.00000000E+00  0.00000000E+00
  0.00000000E+00  0.00000000E+00  0.00000000E+00
  0.00000000E+00  0.00000000E+00  0.00000000E+00
  0.00000000E+00  0.00000000E+00  0.00000000E+00
  0.00000000E+00  0.00000000E+00  0.00000000E+00
  0.00000000E+00  0.00000000E+00  0.00000000E+00
  0.00000000E+00  0.00000000E+00  0.00000000E+00
  0.00000000E+00  0.00000000E+00  0.00000000E+00
  0.00000000E+00  0.00000000E+00  0.00000000E+00
  0.00000000E+00  0.00000000E+00  0.00000000E+00
  0.00000000E+00  0.00000000E+00  0.00000000E+00
  0.00000000E+00  0.00000000E+00  0.00000000E+00
  0.00000000E+00  0.00000000E+00  0.00000000E+00
  0.00000000E+00  0.00000000E+00  0.00000000E+00
  0.00000000E+00  0.00000000E+00  0.00000000E+00
  0.00000000E+00  0.00000000E+00  0.00000000E+00
  0.00000000E+00  0.00000000E+00  0.00000000E+00
  0.00000000E+00  0.00000000E+00  0.00000000E+00
  0.00000000E+00  0.00000000E+00  0.00000000E+00
  0.00000000E+00  0.00000000E+00  0.00000000E+00
  0.00000000E+00  0.00000000E+00  0.00000000E+00
  0.00000000E+00  0.00000000E+00  0.00000000E+00
  0.00000000E+00  0.00000000E+00  0.00000000E+00
  0.00000000E+00  0.00000000E+00  0.00000000E+00
  0.00000000E+00  0.00000000E+00  0.00000000E+00
  0.00000000E+00  0.00000000E+00  0.00000000E+00
  0.00000000E+00  0.00000000E+00  0.00000000E+00
  0.00000000E+00  0.00000000E+00  0.00000000E+00
  0.00000000E+00  0.00000000E+00  0.00000000E+00
  0.00000000E+00  0.00000000E+00  0.00000000E+00
  0.00000000E+00  0.00000000E+00  0.00000000E+00
  0.00000000E+00  0.00000000E+00  0.00000000E+00
  0.00000000E+00  0.00000000E+00  0.00000000E+00
  0.00000000E+00  0.00000000E+00  0.00000000E+00
  0.00000000E+00  0.00000000E+00  0.00000000E+00
  0.00000000E+00  0.00000000E+00  0.00000000E+00
  0.00000000E+00  0.00000000E+00  0.00000000E+00
  0.00000000E+00  0.00000000E+00  0.00000000E+00
  0.00000000E+00  0.00000000E+00  0.00000000E+00
  0.00000000E+00  0.00000000E+00  0.00000000E+00
  0.00000000E+00  0.00000000E+00  0.00000000E+00
