V1 H1 C126                              
   1.00000000000000     
    19.7912452866493815   -0.0001550362267647   -0.0361678151474507
    -9.8957667813794643   17.0795154907385474   -0.0448590042535707
    -0.0543820571679303   -0.1096587192580776   29.7688956334885866
   V    H    C 
     1     1   126
Direct
  0.4391330645872215  0.5011153806253767  0.4267131931297420
  0.4428917637474512  0.5044559108430681  0.4821668534035900
  0.0418786145513246  0.0838374081281654  0.3997159617910712
  0.0411425738766299  0.2081475162530755  0.3996211896162672
  0.0408274694234961  0.3329129289291459  0.3996373248154232
  0.0409302712221806  0.4583215758501937  0.3996846900660915
  0.0414639740868674  0.5836424621659391  0.3998632691790441
  0.0419635304185310  0.7088592033734236  0.3999387908691229
  0.0422400731026421  0.8341655399920943  0.3999894724781873
  0.0422463191473540  0.9591709735480582  0.3998991580273433
  0.1673029717380674  0.0846135610392088  0.3997594015856669
  0.1669465413918595  0.2092452142898571  0.4000373220044378
  0.1657393564465940  0.3332460649390929  0.4005678855706002
  0.1649991944078666  0.4582844369764647  0.4002565309783122
  0.1657068547448717  0.5835205907699861  0.3997020434624577
  0.1665532739667547  0.7089093586052894  0.3997842989100812
  0.1669337613635387  0.8341296952453767  0.3999811480615303
  0.1672313945448485  0.9594446076482779  0.3999169377822264
  0.2923016636055227  0.0845966128520361  0.3997116908577781
  0.2927905333126320  0.2105629243870189  0.4005320780199149
  0.2924679223344252  0.3358405921240848  0.4025291344558888
  0.2887814356112678  0.4576195873340044  0.4028172235017947
  0.2898012596788151  0.5838307719474715  0.4009484289095110
  0.2910861768509910  0.7088017585749827  0.3997767399084363
  0.2915926788860024  0.8338072567271745  0.3997798776069202
  0.2919247274369201  0.9591105317793114  0.3998950144026956
  0.4169353388351343  0.0837396324512790  0.3997339413640883
  0.4173002746301501  0.2091658996599862  0.3999132454850103
  0.4183945909690393  0.3356815721067307  0.4019433221864387
  0.4130269643091773  0.5819651914799994  0.4039817133355672
  0.4157797505226756  0.7074723422856488  0.4004070404349898
  0.4163064491755046  0.8330438080332754  0.3997275973663934
  0.4165981367785652  0.9583477341332947  0.3998415967273852
  0.5416044227296274  0.0828499208003716  0.3998894649775505
  0.5420029808591433  0.2080648887043710  0.3996938028226291
  0.5425751176233130  0.3331907861865839  0.4004927471463743
  0.5439369736509959  0.4575781638532376  0.4020971944011703
  0.5441704477139556  0.5820806600865430  0.4027498509997647
  0.5407868568130763  0.7065285764963896  0.4010982275266874
  0.5409589917269434  0.8321406338663577  0.3999821100269315
  0.5413454913752723  0.9575517518180742  0.3998113247145399
  0.6663169837936290  0.0824968613337403  0.3999501088817949
  0.6666519864568274  0.2077378475760300  0.3998706084987071
  0.6671187075972151  0.3328746540889279  0.3997401038043992
  0.6683837522324426  0.4582606151965530  0.4004548741864012
  0.6691712764188127  0.5838409611365524  0.4008474964597598
  0.6668099743607886  0.7075380285564601  0.4001136536257295
  0.6662248707424244  0.8321606240602852  0.3999072587464579
  0.6661846409598670  0.9573392111745698  0.3998112791758619
  0.7912035841484311  0.0825239365793739  0.3999416528231698
  0.7913038507061287  0.2076009697481878  0.3999805456848295
  0.7917361631899572  0.3329206817678437  0.3998606988963101
  0.7924509514326239  0.4583307574170755  0.3997024175568471
  0.7929078752179510  0.5835469443199470  0.3998428664792362
  0.7928117299801406  0.7088574418106233  0.3998641860870363
  0.7918305299096090  0.8331235206880454  0.3997724211102539
  0.7912679477287702  0.9576246389098870  0.3998194168846999
  0.9163256425812821  0.0829477543583710  0.3998686289266323
  0.9161294220634948  0.2077850888540894  0.3998706511659219
  0.9162329105854000  0.3329289539891551  0.3998924595810333
  0.9166160050789334  0.4581785187086486  0.3998943508378522
  0.9172343333821518  0.5836515595989954  0.3998265574703140
  0.9174351659589647  0.7089466553444903  0.3998340140608546
  0.9172921415983987  0.8338763512268684  0.3998454704513569
  0.9168436797767330  0.9584541220898771  0.3998860530788169
  0.0838964243206346  0.0425923523217165  0.3997510531059649
  0.0834088452125913  0.1671510236821880  0.3996717690627275
  0.0823885109108180  0.2913631981888083  0.3997745111075756
  0.0822736709445395  0.4166035344548811  0.3996813837400953
  0.0826506836520183  0.5417789023623133  0.3997006138233217
  0.0833499902079340  0.6671550019836029  0.3998935416361411
  0.0837491452973665  0.7924777493534033  0.3999726264463873
  0.0839080225990377  0.9176294629456124  0.3999762866992843
  0.2089262436051922  0.0428427475299844  0.3997535650845838
  0.2089387104400015  0.1680706925717681  0.4000719732697131
  0.2084810585408302  0.2927749623530063  0.4008543126148604
  0.2060977846116507  0.4163623363154070  0.4011542754418213
  0.2067641794132007  0.5418701068215691  0.4002434769512073
  0.2079628559848889  0.6672087056501242  0.3996868384740462
  0.2083826888233506  0.7923186048057911  0.3998665689277044
  0.2087238898243299  0.9175914111874760  0.3999828475880763
  0.3336708909710311  0.0425336452181410  0.3997454819757368
  0.3341316378410701  0.1680507249572788  0.3999569209207222
  0.3343930761906681  0.2937370162791919  0.4019681967083846
  0.3313066833480616  0.4184364784594096  0.4048338868150891
  0.3312529049310616  0.5426313041203449  0.4025016411834536
  0.3325508756336603  0.6669365704045265  0.4003300682178456
  0.3330441394876973  0.7920109397503293  0.3996831281158505
  0.3334055253784950  0.9171868419215021  0.3998657091196067
  0.4584030925785079  0.0417193756927894  0.3998469227952954
  0.4587391330246436  0.1670614386783400  0.3996847811967233
  0.4593389051750196  0.2926729819679799  0.4005436832383817
  0.4622127978243792  0.4182388983147418  0.4037085447833544
  0.4567610835268883  0.6644897425268993  0.4016326079518752
  0.4577766172736185  0.7909851928557028  0.3999101600339842
  0.4580775304484548  0.9163473880931083  0.3997778755789755
  0.5831079345794696  0.0409519744404219  0.3999118758554100
  0.5834274949721732  0.1662271604128204  0.3997975061868582
  0.5840004111643903  0.2912825503746329  0.3998565892286681
  0.5853812081955554  0.4163142997671423  0.4011011956987759
  0.5864793835183251  0.5426127763707943  0.4017274088570587
  0.5828680012561174  0.6645937853776399  0.4010406030206959
  0.5823636472124287  0.7896836694886084  0.4001870864056378
  0.5827831409179530  0.9155769196638777  0.3998238909720793
  0.7078622166215023  0.0407143455274144  0.3998863269275036
  0.7080934627910733  0.1659352546619229  0.3999688104814694
  0.7085127562515575  0.2911557195182774  0.3997739853627039
  0.7094058933135109  0.4165692778922264  0.3998224694717624
  0.7102035516399642  0.5418656703014473  0.4004262729814786
  0.7094899190393508  0.6669694857999727  0.4002353195961001
  0.7082924899213299  0.7910411302374261  0.3998286258285187
  0.7078360389858759  0.9156019610883477  0.3998136555930444
  0.8329117886786747  0.0410216663086093  0.3999028961269089
  0.8328577387231457  0.1659602107241558  0.3999787666445693
  0.8331310011416284  0.2912218040536045  0.3999519392970395
  0.8336120747072433  0.4164383844884055  0.3998126872209482
  0.8341906434662977  0.5417918151408097  0.3997214511869664
  0.8343256150314988  0.6672555808227901  0.3998001916258263
  0.8340449357963180  0.7920783785491086  0.3997640935003986
  0.8333607856754115  0.9164434954041983  0.3998342354145730
  0.9584036046366275  0.0418237925230109  0.3998370485745822
  0.9578807045958390  0.1663195046941498  0.3997444558119090
  0.9577064692696352  0.2911947905808368  0.3997579018242615
  0.9578740596237972  0.4164344957718924  0.3998486340103866
  0.9584763976508837  0.5418935296245480  0.3998986060313737
  0.9588780987357145  0.6671731555942986  0.3998845485394681
  0.9589977215179396  0.7923698356863008  0.3999020460555935
  0.9588548982488532  0.9172655218974290  0.3999040096746975
 
  0.00000000E+00  0.00000000E+00  0.00000000E+00
  0.00000000E+00  0.00000000E+00  0.00000000E+00
  0.00000000E+00  0.00000000E+00  0.00000000E+00
  0.00000000E+00  0.00000000E+00  0.00000000E+00
  0.00000000E+00  0.00000000E+00  0.00000000E+00
  0.00000000E+00  0.00000000E+00  0.00000000E+00
  0.00000000E+00  0.00000000E+00  0.00000000E+00
  0.00000000E+00  0.00000000E+00  0.00000000E+00
  0.00000000E+00  0.00000000E+00  0.00000000E+00
  0.00000000E+00  0.00000000E+00  0.00000000E+00
  0.00000000E+00  0.00000000E+00  0.00000000E+00
  0.00000000E+00  0.00000000E+00  0.00000000E+00
  0.00000000E+00  0.00000000E+00  0.00000000E+00
  0.00000000E+00  0.00000000E+00  0.00000000E+00
  0.00000000E+00  0.00000000E+00  0.00000000E+00
  0.00000000E+00  0.00000000E+00  0.00000000E+00
  0.00000000E+00  0.00000000E+00  0.00000000E+00
  0.00000000E+00  0.00000000E+00  0.00000000E+00
  0.00000000E+00  0.00000000E+00  0.00000000E+00
  0.00000000E+00  0.00000000E+00  0.00000000E+00
  0.00000000E+00  0.00000000E+00  0.00000000E+00
  0.00000000E+00  0.00000000E+00  0.00000000E+00
  0.00000000E+00  0.00000000E+00  0.00000000E+00
  0.00000000E+00  0.00000000E+00  0.00000000E+00
  0.00000000E+00  0.00000000E+00  0.00000000E+00
  0.00000000E+00  0.00000000E+00  0.00000000E+00
  0.00000000E+00  0.00000000E+00  0.00000000E+00
  0.00000000E+00  0.00000000E+00  0.00000000E+00
  0.00000000E+00  0.00000000E+00  0.00000000E+00
  0.00000000E+00  0.00000000E+00  0.00000000E+00
  0.00000000E+00  0.00000000E+00  0.00000000E+00
  0.00000000E+00  0.00000000E+00  0.00000000E+00
  0.00000000E+00  0.00000000E+00  0.00000000E+00
  0.00000000E+00  0.00000000E+00  0.00000000E+00
  0.00000000E+00  0.00000000E+00  0.00000000E+00
  0.00000000E+00  0.00000000E+00  0.00000000E+00
  0.00000000E+00  0.00000000E+00  0.00000000E+00
  0.00000000E+00  0.00000000E+00  0.00000000E+00
  0.00000000E+00  0.00000000E+00  0.00000000E+00
  0.00000000E+00  0.00000000E+00  0.00000000E+00
  0.00000000E+00  0.00000000E+00  0.00000000E+00
  0.00000000E+00  0.00000000E+00  0.00000000E+00
  0.00000000E+00  0.00000000E+00  0.00000000E+00
  0.00000000E+00  0.00000000E+00  0.00000000E+00
  0.00000000E+00  0.00000000E+00  0.00000000E+00
  0.00000000E+00  0.00000000E+00  0.00000000E+00
  0.00000000E+00  0.00000000E+00  0.00000000E+00
  0.00000000E+00  0.00000000E+00  0.00000000E+00
  0.00000000E+00  0.00000000E+00  0.00000000E+00
  0.00000000E+00  0.00000000E+00  0.00000000E+00
  0.00000000E+00  0.00000000E+00  0.00000000E+00
  0.00000000E+00  0.00000000E+00  0.00000000E+00
  0.00000000E+00  0.00000000E+00  0.00000000E+00
  0.00000000E+00  0.00000000E+00  0.00000000E+00
  0.00000000E+00  0.00000000E+00  0.00000000E+00
  0.00000000E+00  0.00000000E+00  0.00000000E+00
  0.00000000E+00  0.00000000E+00  0.00000000E+00
  0.00000000E+00  0.00000000E+00  0.00000000E+00
  0.00000000E+00  0.00000000E+00  0.00000000E+00
  0.00000000E+00  0.00000000E+00  0.00000000E+00
  0.00000000E+00  0.00000000E+00  0.00000000E+00
  0.00000000E+00  0.00000000E+00  0.00000000E+00
  0.00000000E+00  0.00000000E+00  0.00000000E+00
  0.00000000E+00  0.00000000E+00  0.00000000E+00
  0.00000000E+00  0.00000000E+00  0.00000000E+00
  0.00000000E+00  0.00000000E+00  0.00000000E+00
  0.00000000E+00  0.00000000E+00  0.00000000E+00
  0.00000000E+00  0.00000000E+00  0.00000000E+00
  0.00000000E+00  0.00000000E+00  0.00000000E+00
  0.00000000E+00  0.00000000E+00  0.00000000E+00
  0.00000000E+00  0.00000000E+00  0.00000000E+00
  0.00000000E+00  0.00000000E+00  0.00000000E+00
  0.00000000E+00  0.00000000E+00  0.00000000E+00
  0.00000000E+00  0.00000000E+00  0.00000000E+00
  0.00000000E+00  0.00000000E+00  0.00000000E+00
  0.00000000E+00  0.00000000E+00  0.00000000E+00
  0.00000000E+00  0.00000000E+00  0.00000000E+00
  0.00000000E+00  0.00000000E+00  0.00000000E+00
  0.00000000E+00  0.00000000E+00  0.00000000E+00
  0.00000000E+00  0.00000000E+00  0.00000000E+00
  0.00000000E+00  0.00000000E+00  0.00000000E+00
  0.00000000E+00  0.00000000E+00  0.00000000E+00
  0.00000000E+00  0.00000000E+00  0.00000000E+00
  0.00000000E+00  0.00000000E+00  0.00000000E+00
  0.00000000E+00  0.00000000E+00  0.00000000E+00
  0.00000000E+00  0.00000000E+00  0.00000000E+00
  0.00000000E+00  0.00000000E+00  0.00000000E+00
  0.00000000E+00  0.00000000E+00  0.00000000E+00
  0.00000000E+00  0.00000000E+00  0.00000000E+00
  0.00000000E+00  0.00000000E+00  0.00000000E+00
  0.00000000E+00  0.00000000E+00  0.00000000E+00
  0.00000000E+00  0.00000000E+00  0.00000000E+00
  0.00000000E+00  0.00000000E+00  0.00000000E+00
  0.00000000E+00  0.00000000E+00  0.00000000E+00
  0.00000000E+00  0.00000000E+00  0.00000000E+00
  0.00000000E+00  0.00000000E+00  0.00000000E+00
  0.00000000E+00  0.00000000E+00  0.00000000E+00
  0.00000000E+00  0.00000000E+00  0.00000000E+00
  0.00000000E+00  0.00000000E+00  0.00000000E+00
  0.00000000E+00  0.00000000E+00  0.00000000E+00
  0.00000000E+00  0.00000000E+00  0.00000000E+00
  0.00000000E+00  0.00000000E+00  0.00000000E+00
  0.00000000E+00  0.00000000E+00  0.00000000E+00
  0.00000000E+00  0.00000000E+00  0.00000000E+00
  0.00000000E+00  0.00000000E+00  0.00000000E+00
  0.00000000E+00  0.00000000E+00  0.00000000E+00
  0.00000000E+00  0.00000000E+00  0.00000000E+00
  0.00000000E+00  0.00000000E+00  0.00000000E+00
  0.00000000E+00  0.00000000E+00  0.00000000E+00
  0.00000000E+00  0.00000000E+00  0.00000000E+00
  0.00000000E+00  0.00000000E+00  0.00000000E+00
  0.00000000E+00  0.00000000E+00  0.00000000E+00
  0.00000000E+00  0.00000000E+00  0.00000000E+00
  0.00000000E+00  0.00000000E+00  0.00000000E+00
  0.00000000E+00  0.00000000E+00  0.00000000E+00
  0.00000000E+00  0.00000000E+00  0.00000000E+00
  0.00000000E+00  0.00000000E+00  0.00000000E+00
  0.00000000E+00  0.00000000E+00  0.00000000E+00
  0.00000000E+00  0.00000000E+00  0.00000000E+00
  0.00000000E+00  0.00000000E+00  0.00000000E+00
  0.00000000E+00  0.00000000E+00  0.00000000E+00
  0.00000000E+00  0.00000000E+00  0.00000000E+00
  0.00000000E+00  0.00000000E+00  0.00000000E+00
  0.00000000E+00  0.00000000E+00  0.00000000E+00
  0.00000000E+00  0.00000000E+00  0.00000000E+00
  0.00000000E+00  0.00000000E+00  0.00000000E+00
  0.00000000E+00  0.00000000E+00  0.00000000E+00
  0.00000000E+00  0.00000000E+00  0.00000000E+00
