Cd1 H1 C125 N1 O2                       
   1.00000000000000     
    19.8309848505970443   -0.0030432076753332   -0.0697271956897472
    -9.9182791361559133   17.0748612292964417    0.1381424316767994
    -0.1043832187062935    0.1795415912366403   29.7208063717494824
   Cd   H    C    N    O 
     1     1   125     1     2
Direct
  0.4376966028160554  0.4980136840494491  0.4327463722431012
  0.5387163118766192  0.5568121112781369  0.5264220002739969
  0.0414808078219627  0.0835228823717567  0.3995442149442572
  0.0407258172678208  0.2078969118186578  0.3991912642029378
  0.0403297639674090  0.3327062770081517  0.3979658981208851
  0.0405725320253836  0.4581933987803739  0.3972174511380358
  0.0413756573569748  0.5836905855930127  0.3974818660484192
  0.0420935519833266  0.7091017429777894  0.3980475948498349
  0.0423748480409615  0.8343619882303965  0.3986105920939831
  0.0422431396676120  0.9592588743301241  0.3991711328031698
  0.1672868304620473  0.0847449923735000  0.4005197596482398
  0.1662358426126895  0.2088028964305361  0.4012950975788787
  0.1651430517358816  0.3333508861194830  0.4005334872440994
  0.1642439226720403  0.4583028292360574  0.3980739589639845
  0.1650887444589129  0.5836974116645551  0.3977045675493437
  0.1662801102776917  0.7091120952195434  0.3981071993918424
  0.1669688583093324  0.8344379235041786  0.3987101753830066
  0.1673220399801873  0.9596983219254580  0.3993457393887555
  0.2923883296691402  0.0848739854877362  0.4004709622774048
  0.2928282774326013  0.2107650219646425  0.4032281994572480
  0.2905256966667581  0.3346015308635699  0.4077200991813893
  0.2879169733918464  0.4587220697928232  0.4051138772690013
  0.2883851012011948  0.5843048384097724  0.4003471460730037
  0.2904324736098925  0.7091672960374722  0.3991574118173968
  0.2914678244970735  0.8341595079712211  0.3989852476080538
  0.2919559524265823  0.9593847844866170  0.3993323235089172
  0.4169966091710720  0.0837152743588208  0.3999249950957700
  0.4174823868531949  0.2090698712996381  0.4013592897595351
  0.4187952983006884  0.3353648048559072  0.4054622002943957
  0.4145980511382040  0.7076633550351181  0.4024477869367704
  0.4159532168871380  0.8330641569932730  0.4002649055594332
  0.4165494179232887  0.9583851352316297  0.3996578888564479
  0.5415685503917441  0.0825207066850677  0.3994162858168912
  0.5421749102668175  0.2077793752692567  0.3995754558132919
  0.5431881417408094  0.3328615079778711  0.4006278590437977
  0.5471338148462662  0.4580793559536432  0.4046414288692224
  0.5508418530243746  0.5828233743776182  0.4140739033024801
  0.5387603073736067  0.7037140556869416  0.4067575073573366
  0.5403164692255399  0.8310628003507539  0.4019208589409820
  0.5411125116397983  0.9570347341995534  0.3999690754782330
  0.6661301828731202  0.0819267219163471  0.3992343392271806
  0.6666714701323779  0.2073076452273928  0.3988575962478557
  0.6675160282177318  0.3325360412775720  0.3987772725919762
  0.6697179465412814  0.4580959661129003  0.3992826781484450
  0.6716037561407217  0.5840311763849201  0.4012257588755561
  0.6673743796236700  0.7071765003339227  0.4031417800903906
  0.6651395364401107  0.8307257301838981  0.4021226039670072
  0.6656652662829241  0.9564757216198038  0.4002639862368339
  0.7908222753374383  0.0818914652529925  0.3990866913277825
  0.7911133884763591  0.2071119320729502  0.3985799707496444
  0.7918252034894737  0.3325348204414624  0.3982351217707641
  0.7930546539804431  0.4581151776624240  0.3980688227341190
  0.7941060199933043  0.5836474996764014  0.3983123090816240
  0.7934857596584495  0.7089157749252204  0.3995605161904628
  0.7916891489069483  0.8327296975824539  0.4000738666436557
  0.7906107293521013  0.9567776155216781  0.3998378658724692
  0.9158794438549336  0.0824465036101542  0.3989480631079102
  0.9157498684036476  0.2073505606763913  0.3982991377568813
  0.9160082395964667  0.3325922055004575  0.3976864778130982
  0.9167359052365327  0.4580568977132830  0.3976118463468059
  0.9176751162441955  0.5836801128930653  0.3977718051404660
  0.9178557268277140  0.7091101013546992  0.3981351999563861
  0.9174818155770366  0.8339459208013709  0.3988719727772012
  0.9165373916867728  0.9581222228088018  0.3992628928939220
  0.0838160117956674  0.0426594993099450  0.3997188996289878
  0.0828528060420950  0.1668132925576594  0.3998406735322919
  0.0819561958228916  0.2912914543581263  0.3990150037905979
  0.0816303717955524  0.4163505809981193  0.3974738803425575
  0.0822303433629652  0.5417707387573401  0.3972853406956908
  0.0832196677132208  0.6672765482345342  0.3978608958342383
  0.0838541383727668  0.7927146539569326  0.3984772424853739
  0.0840022491293196  0.9178367811538408  0.3990525450780455
  0.2089945574433675  0.0431085804529287  0.4001215910190743
  0.2088558407137358  0.1682077446884574  0.4018661653176732
  0.2071455251211265  0.2920612177402644  0.4027363550140479
  0.2053914649789633  0.4167355803488842  0.4001198932179232
  0.2057153108570076  0.5418336995214919  0.3983729875663355
  0.2073995104811517  0.6673486010732691  0.3981787053356452
  0.2082796308682252  0.7926113098454397  0.3985563698765473
  0.2088095295957596  0.9179002042872941  0.3991039110427041
  0.3337606807660686  0.0427896560678731  0.3998714375415532
  0.3342552417306402  0.1683185300311758  0.4016756930192929
  0.3342442618358371  0.2938338195921637  0.4063212414603302
  0.3250859189705180  0.4153555788239592  0.4128319926969443
  0.3299822657138199  0.5440421178288691  0.4039587074928603
  0.3314709372552516  0.6673589553090022  0.4005132471011331
  0.3327688488416100  0.7923441612006751  0.3994476322366282
  0.3333940610479498  0.9174756018522864  0.3993064029719676
  0.4584285475194942  0.0416813677436144  0.3996779312460201
  0.4589012834748614  0.1669986746497600  0.4002001889103597
  0.4598624609973777  0.2924153210229605  0.4022378247993186
  0.4658701603780636  0.4166793489267842  0.4070621602819501
  0.4537394717328384  0.6633878610216932  0.4056228735134001
  0.4572625050739468  0.7909261718118838  0.4015747634489775
  0.4579152658843807  0.9163081830065737  0.3999675635959898
  0.5829689579454088  0.0405009777970666  0.3994559884032786
  0.5834967002714804  0.1659008373826197  0.3991985266599187
  0.5843846379033106  0.2909893274005717  0.3994548909723781
  0.5869052269231853  0.4158673407902393  0.4008568065855893
  0.5901325411941939  0.5422629934858009  0.4064515766285188
  0.5835708277887899  0.6636003283829581  0.4083686008051811
  0.5808527701840115  0.7876402405404060  0.4035918928043207
  0.5823762509368360  0.9147478288101856  0.4006156561734134
  0.7075296328714648  0.0400340061073139  0.3994550673740695
  0.7079974719810328  0.1654586790790099  0.3988861893668020
  0.7086780868061723  0.2907544715048250  0.3985753718352208
  0.7101638672427047  0.4162121082371354  0.3985636966152394
  0.7118208125219748  0.5417688722388772  0.3990738418906893
  0.7105452887131855  0.6670073776008835  0.4012618741261918
  0.7081138902588083  0.7904502374243157  0.4015646479265891
  0.7069870651933333  0.9144321747913843  0.4006760299804409
  0.8324234877695835  0.0403476888255423  0.3991928318100775
  0.8325469033591468  0.1654388465778770  0.3986262783046691
  0.8330053168406631  0.2907546188972095  0.3981604606917341
  0.8338928714710128  0.4161518670788352  0.3979284940530732
  0.8349431280292933  0.5417004190851470  0.3979648151294981
  0.8349900936759673  0.6673257587153361  0.3985771334231621
  0.8342997277846137  0.7920618848352740  0.3994811831258976
  0.8330333733279809  0.9160090092073940  0.3996839471541301
  0.9580280198453056  0.0414552340541023  0.3992058691674623
  0.9574670127082900  0.1659282066215809  0.3986872487621129
  0.9573193725606395  0.2908476805945815  0.3978392924123941
  0.9577027249654795  0.4161986923366375  0.3974419577899085
  0.9585900360741637  0.5417830540949684  0.3975758602896266
  0.9591698445821473  0.6673120370766689  0.3978558895820145
  0.9592492411539775  0.7925439527648930  0.3984486804992183
  0.9588447863937156  0.9172748568395223  0.3990254522984221
  0.4087678546167446  0.5838721054976872  0.4066521729825979
  0.4938795841532907  0.5039240940306952  0.5236350593110229
  0.4357736727513404  0.5200519873679702  0.5044809392384478
 
  0.00000000E+00  0.00000000E+00  0.00000000E+00
  0.00000000E+00  0.00000000E+00  0.00000000E+00
  0.00000000E+00  0.00000000E+00  0.00000000E+00
  0.00000000E+00  0.00000000E+00  0.00000000E+00
  0.00000000E+00  0.00000000E+00  0.00000000E+00
  0.00000000E+00  0.00000000E+00  0.00000000E+00
  0.00000000E+00  0.00000000E+00  0.00000000E+00
  0.00000000E+00  0.00000000E+00  0.00000000E+00
  0.00000000E+00  0.00000000E+00  0.00000000E+00
  0.00000000E+00  0.00000000E+00  0.00000000E+00
  0.00000000E+00  0.00000000E+00  0.00000000E+00
  0.00000000E+00  0.00000000E+00  0.00000000E+00
  0.00000000E+00  0.00000000E+00  0.00000000E+00
  0.00000000E+00  0.00000000E+00  0.00000000E+00
  0.00000000E+00  0.00000000E+00  0.00000000E+00
  0.00000000E+00  0.00000000E+00  0.00000000E+00
  0.00000000E+00  0.00000000E+00  0.00000000E+00
  0.00000000E+00  0.00000000E+00  0.00000000E+00
  0.00000000E+00  0.00000000E+00  0.00000000E+00
  0.00000000E+00  0.00000000E+00  0.00000000E+00
  0.00000000E+00  0.00000000E+00  0.00000000E+00
  0.00000000E+00  0.00000000E+00  0.00000000E+00
  0.00000000E+00  0.00000000E+00  0.00000000E+00
  0.00000000E+00  0.00000000E+00  0.00000000E+00
  0.00000000E+00  0.00000000E+00  0.00000000E+00
  0.00000000E+00  0.00000000E+00  0.00000000E+00
  0.00000000E+00  0.00000000E+00  0.00000000E+00
  0.00000000E+00  0.00000000E+00  0.00000000E+00
  0.00000000E+00  0.00000000E+00  0.00000000E+00
  0.00000000E+00  0.00000000E+00  0.00000000E+00
  0.00000000E+00  0.00000000E+00  0.00000000E+00
  0.00000000E+00  0.00000000E+00  0.00000000E+00
  0.00000000E+00  0.00000000E+00  0.00000000E+00
  0.00000000E+00  0.00000000E+00  0.00000000E+00
  0.00000000E+00  0.00000000E+00  0.00000000E+00
  0.00000000E+00  0.00000000E+00  0.00000000E+00
  0.00000000E+00  0.00000000E+00  0.00000000E+00
  0.00000000E+00  0.00000000E+00  0.00000000E+00
  0.00000000E+00  0.00000000E+00  0.00000000E+00
  0.00000000E+00  0.00000000E+00  0.00000000E+00
  0.00000000E+00  0.00000000E+00  0.00000000E+00
  0.00000000E+00  0.00000000E+00  0.00000000E+00
  0.00000000E+00  0.00000000E+00  0.00000000E+00
  0.00000000E+00  0.00000000E+00  0.00000000E+00
  0.00000000E+00  0.00000000E+00  0.00000000E+00
  0.00000000E+00  0.00000000E+00  0.00000000E+00
  0.00000000E+00  0.00000000E+00  0.00000000E+00
  0.00000000E+00  0.00000000E+00  0.00000000E+00
  0.00000000E+00  0.00000000E+00  0.00000000E+00
  0.00000000E+00  0.00000000E+00  0.00000000E+00
  0.00000000E+00  0.00000000E+00  0.00000000E+00
  0.00000000E+00  0.00000000E+00  0.00000000E+00
  0.00000000E+00  0.00000000E+00  0.00000000E+00
  0.00000000E+00  0.00000000E+00  0.00000000E+00
  0.00000000E+00  0.00000000E+00  0.00000000E+00
  0.00000000E+00  0.00000000E+00  0.00000000E+00
  0.00000000E+00  0.00000000E+00  0.00000000E+00
  0.00000000E+00  0.00000000E+00  0.00000000E+00
  0.00000000E+00  0.00000000E+00  0.00000000E+00
  0.00000000E+00  0.00000000E+00  0.00000000E+00
  0.00000000E+00  0.00000000E+00  0.00000000E+00
  0.00000000E+00  0.00000000E+00  0.00000000E+00
  0.00000000E+00  0.00000000E+00  0.00000000E+00
  0.00000000E+00  0.00000000E+00  0.00000000E+00
  0.00000000E+00  0.00000000E+00  0.00000000E+00
  0.00000000E+00  0.00000000E+00  0.00000000E+00
  0.00000000E+00  0.00000000E+00  0.00000000E+00
  0.00000000E+00  0.00000000E+00  0.00000000E+00
  0.00000000E+00  0.00000000E+00  0.00000000E+00
  0.00000000E+00  0.00000000E+00  0.00000000E+00
  0.00000000E+00  0.00000000E+00  0.00000000E+00
  0.00000000E+00  0.00000000E+00  0.00000000E+00
  0.00000000E+00  0.00000000E+00  0.00000000E+00
  0.00000000E+00  0.00000000E+00  0.00000000E+00
  0.00000000E+00  0.00000000E+00  0.00000000E+00
  0.00000000E+00  0.00000000E+00  0.00000000E+00
  0.00000000E+00  0.00000000E+00  0.00000000E+00
  0.00000000E+00  0.00000000E+00  0.00000000E+00
  0.00000000E+00  0.00000000E+00  0.00000000E+00
  0.00000000E+00  0.00000000E+00  0.00000000E+00
  0.00000000E+00  0.00000000E+00  0.00000000E+00
  0.00000000E+00  0.00000000E+00  0.00000000E+00
  0.00000000E+00  0.00000000E+00  0.00000000E+00
  0.00000000E+00  0.00000000E+00  0.00000000E+00
  0.00000000E+00  0.00000000E+00  0.00000000E+00
  0.00000000E+00  0.00000000E+00  0.00000000E+00
  0.00000000E+00  0.00000000E+00  0.00000000E+00
  0.00000000E+00  0.00000000E+00  0.00000000E+00
  0.00000000E+00  0.00000000E+00  0.00000000E+00
  0.00000000E+00  0.00000000E+00  0.00000000E+00
  0.00000000E+00  0.00000000E+00  0.00000000E+00
  0.00000000E+00  0.00000000E+00  0.00000000E+00
  0.00000000E+00  0.00000000E+00  0.00000000E+00
  0.00000000E+00  0.00000000E+00  0.00000000E+00
  0.00000000E+00  0.00000000E+00  0.00000000E+00
  0.00000000E+00  0.00000000E+00  0.00000000E+00
  0.00000000E+00  0.00000000E+00  0.00000000E+00
  0.00000000E+00  0.00000000E+00  0.00000000E+00
  0.00000000E+00  0.00000000E+00  0.00000000E+00
  0.00000000E+00  0.00000000E+00  0.00000000E+00
  0.00000000E+00  0.00000000E+00  0.00000000E+00
  0.00000000E+00  0.00000000E+00  0.00000000E+00
  0.00000000E+00  0.00000000E+00  0.00000000E+00
  0.00000000E+00  0.00000000E+00  0.00000000E+00
  0.00000000E+00  0.00000000E+00  0.00000000E+00
  0.00000000E+00  0.00000000E+00  0.00000000E+00
  0.00000000E+00  0.00000000E+00  0.00000000E+00
  0.00000000E+00  0.00000000E+00  0.00000000E+00
  0.00000000E+00  0.00000000E+00  0.00000000E+00
  0.00000000E+00  0.00000000E+00  0.00000000E+00
  0.00000000E+00  0.00000000E+00  0.00000000E+00
  0.00000000E+00  0.00000000E+00  0.00000000E+00
  0.00000000E+00  0.00000000E+00  0.00000000E+00
  0.00000000E+00  0.00000000E+00  0.00000000E+00
  0.00000000E+00  0.00000000E+00  0.00000000E+00
  0.00000000E+00  0.00000000E+00  0.00000000E+00
  0.00000000E+00  0.00000000E+00  0.00000000E+00
  0.00000000E+00  0.00000000E+00  0.00000000E+00
  0.00000000E+00  0.00000000E+00  0.00000000E+00
  0.00000000E+00  0.00000000E+00  0.00000000E+00
  0.00000000E+00  0.00000000E+00  0.00000000E+00
  0.00000000E+00  0.00000000E+00  0.00000000E+00
  0.00000000E+00  0.00000000E+00  0.00000000E+00
  0.00000000E+00  0.00000000E+00  0.00000000E+00
  0.00000000E+00  0.00000000E+00  0.00000000E+00
  0.00000000E+00  0.00000000E+00  0.00000000E+00
  0.00000000E+00  0.00000000E+00  0.00000000E+00
  0.00000000E+00  0.00000000E+00  0.00000000E+00
  0.00000000E+00  0.00000000E+00  0.00000000E+00
  0.00000000E+00  0.00000000E+00  0.00000000E+00
