Sc1 H1 C125 N1 O1                       
   1.00000000000000     
    19.7891339011172818   -0.0069719647770823   -0.0892539422186355
    -9.9009190280736661   17.0898450085079681    0.0751625184489261
    -0.1340177870656870    0.0531077396181797   29.7602127440028958
   Sc   H    C    N    O 
     1     1   125     1     1
Direct
  0.4411277941907296  0.5076392589720100  0.4434463794316112
  0.4935495548319483  0.5587427434934291  0.5303133876554894
  0.0417579214898922  0.0836090643554120  0.3994700737227660
  0.0414561195838929  0.2083054663432397  0.3992800618609474
  0.0412289560149321  0.3330327660417554  0.3989684678555467
  0.0412471429452112  0.4582237417116234  0.3988481647359194
  0.0414409219573578  0.5834362661504675  0.3991345687094758
  0.0418204366526752  0.7086240202058894  0.3994058235543312
  0.0420322661875465  0.8338519478192526  0.3994658488522046
  0.0420439337691316  0.9588987444968127  0.3994766387560607
  0.1670751680274246  0.0841752240599885  0.3997390251115743
  0.1667570636320289  0.2088219582430214  0.3998131149123285
  0.1665879879639122  0.3338604431701366  0.3994705767304086
  0.1658191077611839  0.4584081522229355  0.3985078403447077
  0.1657485053891547  0.5834799040641563  0.3983583617587481
  0.1663455501973828  0.7087063742154668  0.3991038816905484
  0.1668027913897863  0.8339086126852187  0.3995459949183676
  0.1670695516397788  0.9591083591443319  0.3997055748537828
  0.2921633299341299  0.0840996288175816  0.3998192309757182
  0.2925336763573436  0.2097574624874003  0.4007521003962635
  0.2920219581164790  0.3348469755452727  0.4024541742244418
  0.2916206227718889  0.4588885425551849  0.4017071630299509
  0.2897797787012985  0.5842821541292792  0.3990035303616856
  0.2908597203673411  0.7090100702292914  0.3988414362936293
  0.2915269349247668  0.8338082664834344  0.3992412038943990
  0.2918062188002861  0.9588347655978694  0.3995848691915821
  0.4168973386455083  0.0833793963536847  0.3995798292068180
  0.4171414130021497  0.2084303769040160  0.4000974643782263
  0.4181159557785384  0.3343438616233448  0.4027175867151741
  0.4153285341451065  0.7080669513432269  0.4003734474006088
  0.4162435767947835  0.8332126107828149  0.3992842085146965
  0.4165642803181470  0.9582567270653968  0.3993687467465722
  0.5416222667267293  0.0827177746565275  0.3994186875189393
  0.5420062041837971  0.2078505278802956  0.3994726681770380
  0.5424585050777229  0.3329449817199062  0.4000110488495276
  0.5431183761683692  0.4577009276977725  0.4019381867460947
  0.5457556044885106  0.5825219840718030  0.4068371959142247
  0.5396919414722076  0.7050880286997712  0.4038986943521905
  0.5407770171396192  0.8318877640988935  0.4004237093149474
  0.5413522741881752  0.9574759393748900  0.3994996005703015
  0.6664091168006921  0.0824524867298207  0.3995441573763118
  0.6667456434809373  0.2076600036999110  0.3994191384214225
  0.6670768557583797  0.3327328265860237  0.3992506703726511
  0.6679368079017612  0.4580109341909626  0.3989530227150399
  0.6693321102168516  0.5836792970420558  0.3986077918700557
  0.6670287261363359  0.7077310547770889  0.3995583968558460
  0.6656121344444120  0.8315650198052243  0.4002578146562463
  0.6661065407185462  0.9571726950695050  0.3998792229557662
  0.7912897805911330  0.0824984107048091  0.3996221984749820
  0.7914602388212846  0.2075856325493963  0.3995778415614213
  0.7918148433198329  0.3328037775119436  0.3993849046815171
  0.7923212071635743  0.4581170463813033  0.3990335266856457
  0.7929036771617136  0.5833463565751961  0.3983742015806784
  0.7926928751575467  0.7086572989762683  0.3983640723458275
  0.7917773542880678  0.8330948833365314  0.3990314384921738
  0.7910376558818240  0.9573727327884965  0.3995475761158324
  0.9163675316971680  0.0828638485332027  0.3994894773617109
  0.9163393202913012  0.2078226792091559  0.3994520585058409
  0.9164411016572818  0.3328764007296668  0.3993437630037678
  0.9167021158507541  0.4580158835954494  0.3992749265351543
  0.9171666786769478  0.5833765514306412  0.3991594391133427
  0.9173033145288756  0.7087111428395595  0.3989243656202747
  0.9171409794759073  0.8336710628559150  0.3989916876519585
  0.9166916702397905  0.9582678327969026  0.3993411815721883
  0.0836971279570737  0.0422905180139083  0.3995524992090683
  0.0833420275115487  0.1669289541033360  0.3994274942854120
  0.0829918657824501  0.2917286574974549  0.3990725842536273
  0.0828075116029605  0.4166124375501761  0.3986696722751645
  0.0827061738976386  0.5416536781623491  0.3987520184922769
  0.0831808726670955  0.6668959895194077  0.3992566068872679
  0.0835756178235083  0.7921918819222395  0.3995251485132630
  0.0837038354749996  0.9173237138627091  0.3995817310149785
  0.2087400152488254  0.0424303772925138  0.3997789395898075
  0.2086805288829234  0.1675797392217841  0.4000630033609493
  0.2083129639456040  0.2923029403240238  0.4002671308230344
  0.2077484350265044  0.4172275158020954  0.3994061335251743
  0.2068781961127399  0.5418495922028080  0.3982029218472894
  0.2077465795363367  0.6670840597518976  0.3986949876683270
  0.2082478778835152  0.7921469417168214  0.3993171513070595
  0.2085939067770810  0.9173062183873412  0.3996459262832244
  0.3335846832791120  0.0421572671537273  0.3996587350278653
  0.3339893241648761  0.1674057108995278  0.4001846037695331
  0.3339782306928029  0.2925279077905973  0.4024042935168797
  0.3312122661569734  0.4166479912134765  0.4049316836896134
  0.3325399833845747  0.5447016425360405  0.4020753407016340
  0.3322016973688265  0.6673724421053441  0.3992799076740414
  0.3329994528177057  0.7921801134958469  0.3990918610472671
  0.3333404891918999  0.9170759816446111  0.3994042146835561
  0.4584146922377780  0.0415250737371384  0.3994443282941942
  0.4586917441869092  0.1666048070107626  0.3996539530783754
  0.4591710095420636  0.2917312615364234  0.4006858190400918
  0.4615236537079879  0.4159012739339046  0.4051194563237091
  0.4547844695687214  0.6643226724910041  0.4038056079397729
  0.4577170131739882  0.7913400535439116  0.3998297167667370
  0.4580564605031412  0.9164017721560778  0.3993521025709718
  0.5831506577309489  0.0408741851701268  0.3994538143768333
  0.5834742208721685  0.1660915377147964  0.3994171158926144
  0.5839652539936567  0.2911320495833076  0.3994263438802293
  0.5847542558020317  0.4160247664439928  0.4000324750031821
  0.5868400716011425  0.5429431343870803  0.4017613450031499
  0.5835804954959364  0.6643980333896754  0.4033148921658474
  0.5814280384996988  0.7887087850858987  0.4014682038069614
  0.5827187072849237  0.9154054822510590  0.3998666252895766
  0.7078900453514836  0.0406026638905283  0.3996746542942701
  0.7082197483921422  0.1658925217806758  0.3995257089588481
  0.7085476155371474  0.2910567222777549  0.3993478844234360
  0.7091349707375171  0.4163560315213191  0.3990104174811123
  0.7101975550983480  0.5417110569468444  0.3982925962422851
  0.7095402397655453  0.6668574338518788  0.3985488914492704
  0.7082496467926064  0.7910000019912389  0.3994138854861660
  0.7074381620193241  0.9151670498939752  0.3998651909513005
  0.8328547273292741  0.0408703719583855  0.3995542448956125
  0.8330063618597026  0.1659482344527465  0.3995900708110742
  0.8332682324827486  0.2911383820029339  0.3994917730160198
  0.8336048117506191  0.4163029736532927  0.3992669406392742
  0.8341198236699645  0.5415365400758099  0.3988783861995428
  0.8342067175822004  0.6670182358932091  0.3984633637130017
  0.8339189015884106  0.7919260231333256  0.3987292704836775
  0.8332342827703971  0.9163206545084331  0.3993223223871393
  0.9583012678437920  0.0416303636974872  0.3994531074977902
  0.9580802283879105  0.1663480267985432  0.3994102147799934
  0.9579880420117883  0.2912434605354512  0.3992669961254022
  0.9580907589928940  0.4163440927307733  0.3992043214328540
  0.9584200619483342  0.5416123309159849  0.3992522005286953
  0.9587096196828189  0.6669097988869612  0.3991889840205463
  0.9588231930939409  0.7921170875694263  0.3991140549159216
  0.9586570294385156  0.9170245326226441  0.3992598246628417
  0.4110429498643564  0.5846227914026831  0.4065712320477322
  0.4578450166317258  0.5294148321746326  0.5063196309241290
 
  0.00000000E+00  0.00000000E+00  0.00000000E+00
  0.00000000E+00  0.00000000E+00  0.00000000E+00
  0.00000000E+00  0.00000000E+00  0.00000000E+00
  0.00000000E+00  0.00000000E+00  0.00000000E+00
  0.00000000E+00  0.00000000E+00  0.00000000E+00
  0.00000000E+00  0.00000000E+00  0.00000000E+00
  0.00000000E+00  0.00000000E+00  0.00000000E+00
  0.00000000E+00  0.00000000E+00  0.00000000E+00
  0.00000000E+00  0.00000000E+00  0.00000000E+00
  0.00000000E+00  0.00000000E+00  0.00000000E+00
  0.00000000E+00  0.00000000E+00  0.00000000E+00
  0.00000000E+00  0.00000000E+00  0.00000000E+00
  0.00000000E+00  0.00000000E+00  0.00000000E+00
  0.00000000E+00  0.00000000E+00  0.00000000E+00
  0.00000000E+00  0.00000000E+00  0.00000000E+00
  0.00000000E+00  0.00000000E+00  0.00000000E+00
  0.00000000E+00  0.00000000E+00  0.00000000E+00
  0.00000000E+00  0.00000000E+00  0.00000000E+00
  0.00000000E+00  0.00000000E+00  0.00000000E+00
  0.00000000E+00  0.00000000E+00  0.00000000E+00
  0.00000000E+00  0.00000000E+00  0.00000000E+00
  0.00000000E+00  0.00000000E+00  0.00000000E+00
  0.00000000E+00  0.00000000E+00  0.00000000E+00
  0.00000000E+00  0.00000000E+00  0.00000000E+00
  0.00000000E+00  0.00000000E+00  0.00000000E+00
  0.00000000E+00  0.00000000E+00  0.00000000E+00
  0.00000000E+00  0.00000000E+00  0.00000000E+00
  0.00000000E+00  0.00000000E+00  0.00000000E+00
  0.00000000E+00  0.00000000E+00  0.00000000E+00
  0.00000000E+00  0.00000000E+00  0.00000000E+00
  0.00000000E+00  0.00000000E+00  0.00000000E+00
  0.00000000E+00  0.00000000E+00  0.00000000E+00
  0.00000000E+00  0.00000000E+00  0.00000000E+00
  0.00000000E+00  0.00000000E+00  0.00000000E+00
  0.00000000E+00  0.00000000E+00  0.00000000E+00
  0.00000000E+00  0.00000000E+00  0.00000000E+00
  0.00000000E+00  0.00000000E+00  0.00000000E+00
  0.00000000E+00  0.00000000E+00  0.00000000E+00
  0.00000000E+00  0.00000000E+00  0.00000000E+00
  0.00000000E+00  0.00000000E+00  0.00000000E+00
  0.00000000E+00  0.00000000E+00  0.00000000E+00
  0.00000000E+00  0.00000000E+00  0.00000000E+00
  0.00000000E+00  0.00000000E+00  0.00000000E+00
  0.00000000E+00  0.00000000E+00  0.00000000E+00
  0.00000000E+00  0.00000000E+00  0.00000000E+00
  0.00000000E+00  0.00000000E+00  0.00000000E+00
  0.00000000E+00  0.00000000E+00  0.00000000E+00
  0.00000000E+00  0.00000000E+00  0.00000000E+00
  0.00000000E+00  0.00000000E+00  0.00000000E+00
  0.00000000E+00  0.00000000E+00  0.00000000E+00
  0.00000000E+00  0.00000000E+00  0.00000000E+00
  0.00000000E+00  0.00000000E+00  0.00000000E+00
  0.00000000E+00  0.00000000E+00  0.00000000E+00
  0.00000000E+00  0.00000000E+00  0.00000000E+00
  0.00000000E+00  0.00000000E+00  0.00000000E+00
  0.00000000E+00  0.00000000E+00  0.00000000E+00
  0.00000000E+00  0.00000000E+00  0.00000000E+00
  0.00000000E+00  0.00000000E+00  0.00000000E+00
  0.00000000E+00  0.00000000E+00  0.00000000E+00
  0.00000000E+00  0.00000000E+00  0.00000000E+00
  0.00000000E+00  0.00000000E+00  0.00000000E+00
  0.00000000E+00  0.00000000E+00  0.00000000E+00
  0.00000000E+00  0.00000000E+00  0.00000000E+00
  0.00000000E+00  0.00000000E+00  0.00000000E+00
  0.00000000E+00  0.00000000E+00  0.00000000E+00
  0.00000000E+00  0.00000000E+00  0.00000000E+00
  0.00000000E+00  0.00000000E+00  0.00000000E+00
  0.00000000E+00  0.00000000E+00  0.00000000E+00
  0.00000000E+00  0.00000000E+00  0.00000000E+00
  0.00000000E+00  0.00000000E+00  0.00000000E+00
  0.00000000E+00  0.00000000E+00  0.00000000E+00
  0.00000000E+00  0.00000000E+00  0.00000000E+00
  0.00000000E+00  0.00000000E+00  0.00000000E+00
  0.00000000E+00  0.00000000E+00  0.00000000E+00
  0.00000000E+00  0.00000000E+00  0.00000000E+00
  0.00000000E+00  0.00000000E+00  0.00000000E+00
  0.00000000E+00  0.00000000E+00  0.00000000E+00
  0.00000000E+00  0.00000000E+00  0.00000000E+00
  0.00000000E+00  0.00000000E+00  0.00000000E+00
  0.00000000E+00  0.00000000E+00  0.00000000E+00
  0.00000000E+00  0.00000000E+00  0.00000000E+00
  0.00000000E+00  0.00000000E+00  0.00000000E+00
  0.00000000E+00  0.00000000E+00  0.00000000E+00
  0.00000000E+00  0.00000000E+00  0.00000000E+00
  0.00000000E+00  0.00000000E+00  0.00000000E+00
  0.00000000E+00  0.00000000E+00  0.00000000E+00
  0.00000000E+00  0.00000000E+00  0.00000000E+00
  0.00000000E+00  0.00000000E+00  0.00000000E+00
  0.00000000E+00  0.00000000E+00  0.00000000E+00
  0.00000000E+00  0.00000000E+00  0.00000000E+00
  0.00000000E+00  0.00000000E+00  0.00000000E+00
  0.00000000E+00  0.00000000E+00  0.00000000E+00
  0.00000000E+00  0.00000000E+00  0.00000000E+00
  0.00000000E+00  0.00000000E+00  0.00000000E+00
  0.00000000E+00  0.00000000E+00  0.00000000E+00
  0.00000000E+00  0.00000000E+00  0.00000000E+00
  0.00000000E+00  0.00000000E+00  0.00000000E+00
  0.00000000E+00  0.00000000E+00  0.00000000E+00
  0.00000000E+00  0.00000000E+00  0.00000000E+00
  0.00000000E+00  0.00000000E+00  0.00000000E+00
  0.00000000E+00  0.00000000E+00  0.00000000E+00
  0.00000000E+00  0.00000000E+00  0.00000000E+00
  0.00000000E+00  0.00000000E+00  0.00000000E+00
  0.00000000E+00  0.00000000E+00  0.00000000E+00
  0.00000000E+00  0.00000000E+00  0.00000000E+00
  0.00000000E+00  0.00000000E+00  0.00000000E+00
  0.00000000E+00  0.00000000E+00  0.00000000E+00
  0.00000000E+00  0.00000000E+00  0.00000000E+00
  0.00000000E+00  0.00000000E+00  0.00000000E+00
  0.00000000E+00  0.00000000E+00  0.00000000E+00
  0.00000000E+00  0.00000000E+00  0.00000000E+00
  0.00000000E+00  0.00000000E+00  0.00000000E+00
  0.00000000E+00  0.00000000E+00  0.00000000E+00
  0.00000000E+00  0.00000000E+00  0.00000000E+00
  0.00000000E+00  0.00000000E+00  0.00000000E+00
  0.00000000E+00  0.00000000E+00  0.00000000E+00
  0.00000000E+00  0.00000000E+00  0.00000000E+00
  0.00000000E+00  0.00000000E+00  0.00000000E+00
  0.00000000E+00  0.00000000E+00  0.00000000E+00
  0.00000000E+00  0.00000000E+00  0.00000000E+00
  0.00000000E+00  0.00000000E+00  0.00000000E+00
  0.00000000E+00  0.00000000E+00  0.00000000E+00
  0.00000000E+00  0.00000000E+00  0.00000000E+00
  0.00000000E+00  0.00000000E+00  0.00000000E+00
  0.00000000E+00  0.00000000E+00  0.00000000E+00
  0.00000000E+00  0.00000000E+00  0.00000000E+00
  0.00000000E+00  0.00000000E+00  0.00000000E+00
  0.00000000E+00  0.00000000E+00  0.00000000E+00
  0.00000000E+00  0.00000000E+00  0.00000000E+00
