Mo1 H1 C125 N1 O1                       
   1.00000000000000     
    19.8058313504299441   -0.0103117324459282    0.0335888919391586
    -9.9120145470275869   17.0568782332319060   -0.3108565690613532
     0.0501627651436564   -0.5133362287458892   29.8037650624127579
   Mo   H    C    N    O 
     1     1   125     1     1
Direct
  0.4384592369487355  0.5037736116236464  0.4352630087007046
  0.4860704384691386  0.5231656992523821  0.5174998096514728
  0.0421388833063923  0.0843053192196617  0.3994814480135019
  0.0416131159171549  0.2087132030351073  0.3993380207546403
  0.0410762335258525  0.3332896122661594  0.3988485078942403
  0.0409864470835111  0.4585157894308601  0.3985018000718465
  0.0415259815597094  0.5839304802760508  0.3985860110528023
  0.0419906659072237  0.7092137519453435  0.3989817721264385
  0.0422073590695508  0.8344460710051856  0.3993257960993696
  0.0422987120920399  0.9595220009638338  0.3994257987199829
  0.1677197387541500  0.0853771891482460  0.4003960793838943
  0.1677037428835385  0.2104423416744880  0.4007752793966020
  0.1664252080999639  0.3344348469499256  0.4002265315294216
  0.1649396778039968  0.4588394185983645  0.3990681363950151
  0.1655484309734334  0.5839228415447122  0.3985691237628328
  0.1665098617593623  0.7092346814599818  0.3988206333333816
  0.1670617389900063  0.8345531070482295  0.3994745048076482
  0.1673934836466113  0.9599098804511584  0.3998906420685976
  0.2926087726556544  0.0853283117017764  0.4005547493673154
  0.2934622578472972  0.2117795691051695  0.4026437014063318
  0.2936931674039713  0.3378822744532489  0.4042545709768160
  0.2893327488412242  0.4598845224788029  0.4021588453836494
  0.2893599307622793  0.5845185370170400  0.3998851809650615
  0.2909522548809430  0.7092748769475641  0.3991092944071680
  0.2917830209716173  0.8343238377563502  0.3991093150835855
  0.2921317644779633  0.9596071655988695  0.3995952908205880
  0.4171880793088915  0.0842145377812881  0.3995945890235325
  0.4177244558904868  0.2100507015816729  0.4011583816626226
  0.4194798582284125  0.3374464559918179  0.4054446323348293
  0.4151457996458756  0.7072573419191718  0.4008084483392660
  0.4163561132144324  0.8330791003497894  0.3993110429670046
  0.4168472521268115  0.9586387074186490  0.3990995627424787
  0.5418226293000988  0.0830702794024994  0.3990399272789938
  0.5422478847424761  0.2083252015378672  0.3994215122030973
  0.5430679194171685  0.3334582172044825  0.4007343018905131
  0.5458413422649733  0.4581561283414418  0.4036026575297545
  0.5441065985259771  0.5802210653019350  0.4065162766291817
  0.5387546862021945  0.7043313512178119  0.4033311500426309
  0.5407432981149527  0.8316684354398224  0.4004393814825095
  0.5415098551952572  0.9576111325056215  0.3992936485374504
  0.6665537316043628  0.0826306874597787  0.3992386009933482
  0.6668914869192126  0.2078879540208548  0.3989710877528528
  0.6674548514324539  0.3329923265555419  0.3989598032139051
  0.6690713246900258  0.4583491525490231  0.3989512822029723
  0.6696206325321755  0.5836409963249056  0.3994879651247478
  0.6657858676680558  0.7065760643773125  0.4004268052973909
  0.6650876900564574  0.8312445253995635  0.4004071043751055
  0.6660371571337059  0.9571480442434581  0.3998282470599683
  0.7912986503439408  0.0826258209005268  0.3994404511959499
  0.7915602235981447  0.2078030111131310  0.3991433159467973
  0.7919921213657567  0.3330417644845871  0.3988802527314705
  0.7927494228857763  0.4583635416982929  0.3986269016995223
  0.7932248556105839  0.5835876429210208  0.3982448235075169
  0.7924673080613410  0.7087025399858826  0.3985051352607857
  0.7910866629034873  0.8326281570818276  0.3990713457421314
  0.7908895861714659  0.9573227226481695  0.3994424376297759
  0.9164001258560712  0.0830853350756881  0.3991254519459421
  0.9163667791273816  0.2079913261544534  0.3989517814294006
  0.9164523620203784  0.3331072445792038  0.3987210502540547
  0.9168455810054376  0.4584182156461463  0.3986912433900523
  0.9173699056250074  0.5838452668958958  0.3986523967651593
  0.9173141394252944  0.7090515877680073  0.3986336146418333
  0.9171057227632322  0.8339324580003294  0.3988806177149256
  0.9166140947612672  0.9584412072753584  0.3990960476730578
  0.0841651272783975  0.0431150064110247  0.3997133323860282
  0.0839837512017318  0.1678841481689508  0.3997651374000590
  0.0830077609828878  0.2920840069436554  0.3993551659602667
  0.0821894180673012  0.4168231515769762  0.3986726567248957
  0.0826130316606959  0.5420663701791835  0.3984525886956088
  0.0833378745894249  0.6674820577873625  0.3987888010609522
  0.0837783230314077  0.7928006369819017  0.3993469707927537
  0.0839881532414757  0.9179843735864180  0.3995747306182482
  0.2092018164759524  0.0434820484588594  0.4003503114892220
  0.2096275681368158  0.1691492704558619  0.4012845964929427
  0.2095199791433267  0.2942806312043356  0.4014186894168894
  0.2065429345758540  0.4177218137027852  0.4001183279633573
  0.2063518269618292  0.5421471245714573  0.3989674353923329
  0.2077183060185758  0.6674910705401819  0.3987178279484865
  0.2084922493328457  0.7927608330441654  0.3991496777306611
  0.2089051972369367  0.9180759155162751  0.3997214761293563
  0.3339208878853411  0.0431411586684314  0.3998838103602220
  0.3345252091600056  0.1689984278596688  0.4015634704857104
  0.3354500675824972  0.2955419863003708  0.4049463426850463
  0.3325851266755414  0.4213231500609915  0.4060694788814282
  0.3304834876882132  0.5440732190819063  0.4020115160339326
  0.3320391077965270  0.6676018224066050  0.3999028009838049
  0.3331786424468970  0.7924850911720501  0.3991077558743727
  0.3336011578324464  0.9176719667822548  0.3992450100215585
  0.4586308857052503  0.0420945396893677  0.3991637332235675
  0.4589814483174399  0.1676692927173237  0.3999198391010103
  0.4598887721890183  0.2937433304713077  0.4021912936957643
  0.4643402866546969  0.4207278605041366  0.4086375464137884
  0.4547915396156465  0.6633624386350393  0.4033147507034055
  0.4576421572135336  0.7908202547664396  0.4000420967197417
  0.4582520530556075  0.9165343372993775  0.3991483246649811
  0.5833061144074065  0.0411459420695169  0.3991275305465996
  0.5836736351056689  0.1664807257526291  0.3990479380660957
  0.5842626147327193  0.2915113523056643  0.3995108147358473
  0.5862058359920348  0.4165084879693534  0.4006199430739775
  0.5878800085534288  0.5421218340814108  0.4025809674887592
  0.5814428927050793  0.6627725285805145  0.4034167668019926
  0.5811273259253308  0.7885094093613109  0.4013953246183914
  0.5827812449313412  0.9154172692621773  0.3997922362231335
  0.7079626603057187  0.0407525679582829  0.3995408129523339
  0.7083694480014319  0.1661507521196003  0.3991180753488446
  0.7087818847096321  0.2913418442321875  0.3988995900698555
  0.7098411526345522  0.4165689533766028  0.3986803894964076
  0.7107130344299125  0.5417403713743749  0.3985714071755319
  0.7092385718097205  0.6667578430521111  0.3992302838840137
  0.7073361484182519  0.7901933087477663  0.3997834081072140
  0.7072255630866227  0.9150149528005703  0.3998778009496521
  0.8328727565685821  0.0409877072399702  0.3993293139130665
  0.8330788761101628  0.1661455571770971  0.3992028443982356
  0.8333305960970383  0.2913494357493394  0.3989522322048797
  0.8338791835542165  0.4165745205017269  0.3987737394138581
  0.8344073221646356  0.5418861937936620  0.3984805601602295
  0.8342541574395117  0.6672299480128945  0.3983190029097488
  0.8336749394508397  0.7919453544377660  0.3987403680916287
  0.8329517730898296  0.9161972449327995  0.3991645469046269
  0.9584726557817990  0.0419763803122284  0.3991567655933624
  0.9581607427383805  0.1665957552623311  0.3990612497311157
  0.9579676144590341  0.2914620342778378  0.3987720544606296
  0.9579878825460436  0.4166243196625832  0.3986309341910446
  0.9585385105017379  0.5420667221668397  0.3986877588055053
  0.9588573767820228  0.6673901736210655  0.3987487507586909
  0.9588832847280027  0.7925432696900679  0.3989474161162294
  0.9587845765657096  0.9174089019955499  0.3991194143382046
  0.4106235426918740  0.5823385713896146  0.4057219843747954
  0.4392739948572904  0.5018382410828918  0.4986411496596231
 
  0.00000000E+00  0.00000000E+00  0.00000000E+00
  0.00000000E+00  0.00000000E+00  0.00000000E+00
  0.00000000E+00  0.00000000E+00  0.00000000E+00
  0.00000000E+00  0.00000000E+00  0.00000000E+00
  0.00000000E+00  0.00000000E+00  0.00000000E+00
  0.00000000E+00  0.00000000E+00  0.00000000E+00
  0.00000000E+00  0.00000000E+00  0.00000000E+00
  0.00000000E+00  0.00000000E+00  0.00000000E+00
  0.00000000E+00  0.00000000E+00  0.00000000E+00
  0.00000000E+00  0.00000000E+00  0.00000000E+00
  0.00000000E+00  0.00000000E+00  0.00000000E+00
  0.00000000E+00  0.00000000E+00  0.00000000E+00
  0.00000000E+00  0.00000000E+00  0.00000000E+00
  0.00000000E+00  0.00000000E+00  0.00000000E+00
  0.00000000E+00  0.00000000E+00  0.00000000E+00
  0.00000000E+00  0.00000000E+00  0.00000000E+00
  0.00000000E+00  0.00000000E+00  0.00000000E+00
  0.00000000E+00  0.00000000E+00  0.00000000E+00
  0.00000000E+00  0.00000000E+00  0.00000000E+00
  0.00000000E+00  0.00000000E+00  0.00000000E+00
  0.00000000E+00  0.00000000E+00  0.00000000E+00
  0.00000000E+00  0.00000000E+00  0.00000000E+00
  0.00000000E+00  0.00000000E+00  0.00000000E+00
  0.00000000E+00  0.00000000E+00  0.00000000E+00
  0.00000000E+00  0.00000000E+00  0.00000000E+00
  0.00000000E+00  0.00000000E+00  0.00000000E+00
  0.00000000E+00  0.00000000E+00  0.00000000E+00
  0.00000000E+00  0.00000000E+00  0.00000000E+00
  0.00000000E+00  0.00000000E+00  0.00000000E+00
  0.00000000E+00  0.00000000E+00  0.00000000E+00
  0.00000000E+00  0.00000000E+00  0.00000000E+00
  0.00000000E+00  0.00000000E+00  0.00000000E+00
  0.00000000E+00  0.00000000E+00  0.00000000E+00
  0.00000000E+00  0.00000000E+00  0.00000000E+00
  0.00000000E+00  0.00000000E+00  0.00000000E+00
  0.00000000E+00  0.00000000E+00  0.00000000E+00
  0.00000000E+00  0.00000000E+00  0.00000000E+00
  0.00000000E+00  0.00000000E+00  0.00000000E+00
  0.00000000E+00  0.00000000E+00  0.00000000E+00
  0.00000000E+00  0.00000000E+00  0.00000000E+00
  0.00000000E+00  0.00000000E+00  0.00000000E+00
  0.00000000E+00  0.00000000E+00  0.00000000E+00
  0.00000000E+00  0.00000000E+00  0.00000000E+00
  0.00000000E+00  0.00000000E+00  0.00000000E+00
  0.00000000E+00  0.00000000E+00  0.00000000E+00
  0.00000000E+00  0.00000000E+00  0.00000000E+00
  0.00000000E+00  0.00000000E+00  0.00000000E+00
  0.00000000E+00  0.00000000E+00  0.00000000E+00
  0.00000000E+00  0.00000000E+00  0.00000000E+00
  0.00000000E+00  0.00000000E+00  0.00000000E+00
  0.00000000E+00  0.00000000E+00  0.00000000E+00
  0.00000000E+00  0.00000000E+00  0.00000000E+00
  0.00000000E+00  0.00000000E+00  0.00000000E+00
  0.00000000E+00  0.00000000E+00  0.00000000E+00
  0.00000000E+00  0.00000000E+00  0.00000000E+00
  0.00000000E+00  0.00000000E+00  0.00000000E+00
  0.00000000E+00  0.00000000E+00  0.00000000E+00
  0.00000000E+00  0.00000000E+00  0.00000000E+00
  0.00000000E+00  0.00000000E+00  0.00000000E+00
  0.00000000E+00  0.00000000E+00  0.00000000E+00
  0.00000000E+00  0.00000000E+00  0.00000000E+00
  0.00000000E+00  0.00000000E+00  0.00000000E+00
  0.00000000E+00  0.00000000E+00  0.00000000E+00
  0.00000000E+00  0.00000000E+00  0.00000000E+00
  0.00000000E+00  0.00000000E+00  0.00000000E+00
  0.00000000E+00  0.00000000E+00  0.00000000E+00
  0.00000000E+00  0.00000000E+00  0.00000000E+00
  0.00000000E+00  0.00000000E+00  0.00000000E+00
  0.00000000E+00  0.00000000E+00  0.00000000E+00
  0.00000000E+00  0.00000000E+00  0.00000000E+00
  0.00000000E+00  0.00000000E+00  0.00000000E+00
  0.00000000E+00  0.00000000E+00  0.00000000E+00
  0.00000000E+00  0.00000000E+00  0.00000000E+00
  0.00000000E+00  0.00000000E+00  0.00000000E+00
  0.00000000E+00  0.00000000E+00  0.00000000E+00
  0.00000000E+00  0.00000000E+00  0.00000000E+00
  0.00000000E+00  0.00000000E+00  0.00000000E+00
  0.00000000E+00  0.00000000E+00  0.00000000E+00
  0.00000000E+00  0.00000000E+00  0.00000000E+00
  0.00000000E+00  0.00000000E+00  0.00000000E+00
  0.00000000E+00  0.00000000E+00  0.00000000E+00
  0.00000000E+00  0.00000000E+00  0.00000000E+00
  0.00000000E+00  0.00000000E+00  0.00000000E+00
  0.00000000E+00  0.00000000E+00  0.00000000E+00
  0.00000000E+00  0.00000000E+00  0.00000000E+00
  0.00000000E+00  0.00000000E+00  0.00000000E+00
  0.00000000E+00  0.00000000E+00  0.00000000E+00
  0.00000000E+00  0.00000000E+00  0.00000000E+00
  0.00000000E+00  0.00000000E+00  0.00000000E+00
  0.00000000E+00  0.00000000E+00  0.00000000E+00
  0.00000000E+00  0.00000000E+00  0.00000000E+00
  0.00000000E+00  0.00000000E+00  0.00000000E+00
  0.00000000E+00  0.00000000E+00  0.00000000E+00
  0.00000000E+00  0.00000000E+00  0.00000000E+00
  0.00000000E+00  0.00000000E+00  0.00000000E+00
  0.00000000E+00  0.00000000E+00  0.00000000E+00
  0.00000000E+00  0.00000000E+00  0.00000000E+00
  0.00000000E+00  0.00000000E+00  0.00000000E+00
  0.00000000E+00  0.00000000E+00  0.00000000E+00
  0.00000000E+00  0.00000000E+00  0.00000000E+00
  0.00000000E+00  0.00000000E+00  0.00000000E+00
  0.00000000E+00  0.00000000E+00  0.00000000E+00
  0.00000000E+00  0.00000000E+00  0.00000000E+00
  0.00000000E+00  0.00000000E+00  0.00000000E+00
  0.00000000E+00  0.00000000E+00  0.00000000E+00
  0.00000000E+00  0.00000000E+00  0.00000000E+00
  0.00000000E+00  0.00000000E+00  0.00000000E+00
  0.00000000E+00  0.00000000E+00  0.00000000E+00
  0.00000000E+00  0.00000000E+00  0.00000000E+00
  0.00000000E+00  0.00000000E+00  0.00000000E+00
  0.00000000E+00  0.00000000E+00  0.00000000E+00
  0.00000000E+00  0.00000000E+00  0.00000000E+00
  0.00000000E+00  0.00000000E+00  0.00000000E+00
  0.00000000E+00  0.00000000E+00  0.00000000E+00
  0.00000000E+00  0.00000000E+00  0.00000000E+00
  0.00000000E+00  0.00000000E+00  0.00000000E+00
  0.00000000E+00  0.00000000E+00  0.00000000E+00
  0.00000000E+00  0.00000000E+00  0.00000000E+00
  0.00000000E+00  0.00000000E+00  0.00000000E+00
  0.00000000E+00  0.00000000E+00  0.00000000E+00
  0.00000000E+00  0.00000000E+00  0.00000000E+00
  0.00000000E+00  0.00000000E+00  0.00000000E+00
  0.00000000E+00  0.00000000E+00  0.00000000E+00
  0.00000000E+00  0.00000000E+00  0.00000000E+00
  0.00000000E+00  0.00000000E+00  0.00000000E+00
  0.00000000E+00  0.00000000E+00  0.00000000E+00
  0.00000000E+00  0.00000000E+00  0.00000000E+00
  0.00000000E+00  0.00000000E+00  0.00000000E+00
  0.00000000E+00  0.00000000E+00  0.00000000E+00
