Sc1 H1 C125 N1                          
   1.00000000000000     
    19.8253690710081862   -0.0117600519108537   -0.0177349225504110
    -9.9229252601956635   17.0778528906943166    0.0221315929251037
    -0.0268471305327050    0.0229889467673775   29.7302026015471412
   Sc   H    C    N 
     1     1   125     1
Direct
  0.4351632028595470  0.5001507254800084  0.4363966212889126
  0.4636629860112454  0.5277262117765585  0.5212481251796985
  0.0418109221867789  0.0840101760580816  0.3994932814759330
  0.0409163148250639  0.2082371268247788  0.3992503344604682
  0.0403360763896974  0.3328123256032958  0.3989621560819014
  0.0404225889225070  0.4583136447180875  0.3987750281212291
  0.0413101744462551  0.5839441796040568  0.3990519134720616
  0.0420556681088968  0.7093095378061843  0.3994025404401845
  0.0424476492998780  0.8347019607918479  0.3994654014554641
  0.0424529744043725  0.9596597713702131  0.3994618336465310
  0.1676751180880353  0.0853652338547406  0.3998978701232447
  0.1668696081701772  0.2097080844086370  0.3998006499112647
  0.1655690956811222  0.3338808726405926  0.3992929801133778
  0.1640444915983194  0.4584299131111381  0.3990380838443138
  0.1649808687094067  0.5838378297587890  0.3987639319498071
  0.1662137866409895  0.7093306273022429  0.3991295299693026
  0.1670865044759125  0.8347914841326211  0.3995691985558397
  0.1675617093851321  0.9601476603191658  0.3997534531212629
  0.2927071611421165  0.0851865334245619  0.4000067108659786
  0.2934964351861681  0.2115445180383257  0.4011038603649050
  0.2921578670067409  0.3367269401184909  0.4015630833134142
  0.2883331428842620  0.4585969935877410  0.4007164599727055
  0.2883898506775776  0.5844504457742241  0.3995886617805853
  0.2903251700331331  0.7092726954096141  0.3992270246913026
  0.2914610351160213  0.8342967299720355  0.3992586385526610
  0.2921291577809230  0.9596218265906292  0.3995471172923360
  0.4172212367103377  0.0836558384433427  0.3994352436912104
  0.4178922065442870  0.2089948193280020  0.3998210564818495
  0.4200485361957106  0.3354483679197031  0.4047846332205517
  0.4144689826188680  0.7075010380178025  0.4003472473010774
  0.4158415420177758  0.8329078553394602  0.3994814008303764
  0.4165961110581752  0.9582747886125562  0.3993991209983455
  0.5417396394083598  0.0823425012851914  0.3994116058190756
  0.5424644007467574  0.2076047480933738  0.3991113899213728
  0.5435027204980492  0.3326680393748312  0.3997163681413728
  0.5456696442962584  0.4567037411568303  0.4047260172786417
  0.5457512202155113  0.5811609710368827  0.4073934657115427
  0.5386966386499160  0.7037291467965102  0.4029071321088634
  0.5401740299574938  0.8309166689659624  0.4003220544146892
  0.5410805478436391  0.9568018280196621  0.3996010883276163
  0.6661464091042286  0.0816419576919888  0.3996428842103059
  0.6668399835602250  0.2071359868424857  0.3994105920026440
  0.6677439955145491  0.3324236807516590  0.3988379960855373
  0.6694655391937155  0.4578805245532417  0.3987078880838288
  0.6702715524276579  0.5834713012999947  0.3998035764388964
  0.6668878781931119  0.7069339083672800  0.4000670425326501
  0.6650268116719320  0.8305438952044604  0.4002789580341921
  0.6656003809908083  0.9561920107752656  0.3999041896639257
  0.7908037837165527  0.0817104500554154  0.3996451856783746
  0.7911813809199212  0.2069882830941401  0.3996667314155192
  0.7919129609578657  0.3324791880646210  0.3993627103964449
  0.7930537553950519  0.4581503575662150  0.3988401464879168
  0.7936888654808639  0.5835550005450364  0.3985567980692143
  0.7931143645673007  0.7087078016956477  0.3987281112287685
  0.7916279319389612  0.8326421632572436  0.3992042009082755
  0.7906191372766197  0.9566793771603986  0.3996094308367090
  0.9159556001834410  0.0825685904456721  0.3994114083290496
  0.9157999515705401  0.2073786313256678  0.3993566652469843
  0.9160094721970289  0.3325943578108039  0.3992735619024352
  0.9166771986379686  0.4581337078218494  0.3991940105601389
  0.9175458338458978  0.5838470296217931  0.3991009940240346
  0.9177775995043056  0.7092387530713226  0.3989792839248388
  0.9174757873229894  0.8340581901185141  0.3990361179331884
  0.9166507470771135  0.9582791758864888  0.3993017877788863
  0.0841138575580932  0.0431612292989474  0.3995959890320145
  0.0832962835651499  0.1673771818102067  0.3995167311069460
  0.0821447985203638  0.2915830943932358  0.3990862021228572
  0.0814113233358072  0.4164780473326913  0.3987817975332135
  0.0820618530730018  0.5419061930482927  0.3987809922608789
  0.0831697129174280  0.6675208306508033  0.3992191512855325
  0.0839091984242429  0.7930319337274629  0.3995613808350220
  0.0841923627086374  0.9182771476899694  0.3995715107946801
  0.2092911883496087  0.0435885923734571  0.3999544790540188
  0.2093756780791898  0.1689598938970766  0.4001880516849525
  0.2083142755601301  0.2931960347841655  0.3997506852945683
  0.2054452028252896  0.4172395772446453  0.3995252975507478
  0.2055710110784393  0.5419713112481729  0.3989484524804155
  0.2072461490211745  0.6675058926433124  0.3989615755609269
  0.2082882805770295  0.7928622122161728  0.3993218345760571
  0.2089862347799081  0.9182901156718764  0.3996573214954759
  0.3339747884886231  0.0429707989511666  0.3996333128310436
  0.3346827401019217  0.1686292673397674  0.4004430200944407
  0.3353478681146158  0.2948317948785671  0.4031547725751927
  0.3305210116707224  0.4193209157665430  0.4021962659975152
  0.3303414687690760  0.5443886164061372  0.4012818602965965
  0.3313513998094508  0.6674714397886230  0.3997052480875317
  0.3326703520182353  0.7924296229247131  0.3992687921295152
  0.3334302303186003  0.9175950708942130  0.3993745664263490
  0.4585849861925473  0.0415647282078424  0.3994041209026428
  0.4591922207237396  0.1668632696431616  0.3993023704626813
  0.4601825202273847  0.2922156927251202  0.4006798898620729
  0.4647407903935873  0.4171543581039268  0.4105305333022000
  0.4537778536440082  0.6633350691671411  0.4026654647884136
  0.4571128781678235  0.7907663204938018  0.3999315548216661
  0.4578816588997480  0.9161359836194239  0.3994780766527165
  0.5830106006346666  0.0402549888855639  0.3995387781403122
  0.5837212711591568  0.1657479033431953  0.3992799886927359
  0.5846796303230452  0.2908424011167479  0.3989832311298938
  0.5866987235085663  0.4157633232686163  0.4000452916440093
  0.5881158360808748  0.5422154031998259  0.4038859858880622
  0.5829461552150714  0.6629990636979090  0.4032203357983172
  0.5807145360473864  0.7875639294493494  0.4010646183145114
  0.5822945767861608  0.9145438980779180  0.3999090247010713
  0.7074545017424647  0.0397158935883179  0.3997288346787187
  0.7080345452855430  0.1652211845686435  0.3996402123547010
  0.7088176898050287  0.2906190036994527  0.3992102834859662
  0.7101710952490444  0.4161397894652507  0.3985766843859823
  0.7111890683994189  0.5416166890532568  0.3987488261248121
  0.7098948436758424  0.6666115043285936  0.3992796528113743
  0.7079745372019706  0.7902441415100474  0.3996522747499055
  0.7069226162906167  0.9142364266758790  0.3999276313230279
  0.8324223158699279  0.0402566326101602  0.3995568586742708
  0.8325653444951042  0.1652934256518886  0.3995931707702459
  0.8330485861400896  0.2907065523193950  0.3995237555477248
  0.8338341925448621  0.4161326116475347  0.3992105072419483
  0.8347114736636376  0.5417197861715133  0.3988020779833533
  0.8347551419676013  0.6672865237217396  0.3986812698785659
  0.8341621535060658  0.7919768888314882  0.3988903484950028
  0.8330366372326375  0.9159637669842509  0.3993754029589250
  0.9582212241338132  0.0417213775252093  0.3993797261761952
  0.9575835488999408  0.1660865722027963  0.3993018741204674
  0.9572948797966738  0.2908569268080692  0.3991769429956327
  0.9575578668512355  0.4162068206004280  0.3990742639558678
  0.9584836235843112  0.5419623173976473  0.3991565259091607
  0.9591037816059016  0.6674902651562757  0.3991930428049897
  0.9592508903044944  0.7927499063493281  0.3991442511978046
  0.9589720935006395  0.9174986692340301  0.3992440221233062
  0.4092699025445898  0.5833404520250647  0.4046194169802330
 
  0.00000000E+00  0.00000000E+00  0.00000000E+00
  0.00000000E+00  0.00000000E+00  0.00000000E+00
  0.00000000E+00  0.00000000E+00  0.00000000E+00
  0.00000000E+00  0.00000000E+00  0.00000000E+00
  0.00000000E+00  0.00000000E+00  0.00000000E+00
  0.00000000E+00  0.00000000E+00  0.00000000E+00
  0.00000000E+00  0.00000000E+00  0.00000000E+00
  0.00000000E+00  0.00000000E+00  0.00000000E+00
  0.00000000E+00  0.00000000E+00  0.00000000E+00
  0.00000000E+00  0.00000000E+00  0.00000000E+00
  0.00000000E+00  0.00000000E+00  0.00000000E+00
  0.00000000E+00  0.00000000E+00  0.00000000E+00
  0.00000000E+00  0.00000000E+00  0.00000000E+00
  0.00000000E+00  0.00000000E+00  0.00000000E+00
  0.00000000E+00  0.00000000E+00  0.00000000E+00
  0.00000000E+00  0.00000000E+00  0.00000000E+00
  0.00000000E+00  0.00000000E+00  0.00000000E+00
  0.00000000E+00  0.00000000E+00  0.00000000E+00
  0.00000000E+00  0.00000000E+00  0.00000000E+00
  0.00000000E+00  0.00000000E+00  0.00000000E+00
  0.00000000E+00  0.00000000E+00  0.00000000E+00
  0.00000000E+00  0.00000000E+00  0.00000000E+00
  0.00000000E+00  0.00000000E+00  0.00000000E+00
  0.00000000E+00  0.00000000E+00  0.00000000E+00
  0.00000000E+00  0.00000000E+00  0.00000000E+00
  0.00000000E+00  0.00000000E+00  0.00000000E+00
  0.00000000E+00  0.00000000E+00  0.00000000E+00
  0.00000000E+00  0.00000000E+00  0.00000000E+00
  0.00000000E+00  0.00000000E+00  0.00000000E+00
  0.00000000E+00  0.00000000E+00  0.00000000E+00
  0.00000000E+00  0.00000000E+00  0.00000000E+00
  0.00000000E+00  0.00000000E+00  0.00000000E+00
  0.00000000E+00  0.00000000E+00  0.00000000E+00
  0.00000000E+00  0.00000000E+00  0.00000000E+00
  0.00000000E+00  0.00000000E+00  0.00000000E+00
  0.00000000E+00  0.00000000E+00  0.00000000E+00
  0.00000000E+00  0.00000000E+00  0.00000000E+00
  0.00000000E+00  0.00000000E+00  0.00000000E+00
  0.00000000E+00  0.00000000E+00  0.00000000E+00
  0.00000000E+00  0.00000000E+00  0.00000000E+00
  0.00000000E+00  0.00000000E+00  0.00000000E+00
  0.00000000E+00  0.00000000E+00  0.00000000E+00
  0.00000000E+00  0.00000000E+00  0.00000000E+00
  0.00000000E+00  0.00000000E+00  0.00000000E+00
  0.00000000E+00  0.00000000E+00  0.00000000E+00
  0.00000000E+00  0.00000000E+00  0.00000000E+00
  0.00000000E+00  0.00000000E+00  0.00000000E+00
  0.00000000E+00  0.00000000E+00  0.00000000E+00
  0.00000000E+00  0.00000000E+00  0.00000000E+00
  0.00000000E+00  0.00000000E+00  0.00000000E+00
  0.00000000E+00  0.00000000E+00  0.00000000E+00
  0.00000000E+00  0.00000000E+00  0.00000000E+00
  0.00000000E+00  0.00000000E+00  0.00000000E+00
  0.00000000E+00  0.00000000E+00  0.00000000E+00
  0.00000000E+00  0.00000000E+00  0.00000000E+00
  0.00000000E+00  0.00000000E+00  0.00000000E+00
  0.00000000E+00  0.00000000E+00  0.00000000E+00
  0.00000000E+00  0.00000000E+00  0.00000000E+00
  0.00000000E+00  0.00000000E+00  0.00000000E+00
  0.00000000E+00  0.00000000E+00  0.00000000E+00
  0.00000000E+00  0.00000000E+00  0.00000000E+00
  0.00000000E+00  0.00000000E+00  0.00000000E+00
  0.00000000E+00  0.00000000E+00  0.00000000E+00
  0.00000000E+00  0.00000000E+00  0.00000000E+00
  0.00000000E+00  0.00000000E+00  0.00000000E+00
  0.00000000E+00  0.00000000E+00  0.00000000E+00
  0.00000000E+00  0.00000000E+00  0.00000000E+00
  0.00000000E+00  0.00000000E+00  0.00000000E+00
  0.00000000E+00  0.00000000E+00  0.00000000E+00
  0.00000000E+00  0.00000000E+00  0.00000000E+00
  0.00000000E+00  0.00000000E+00  0.00000000E+00
  0.00000000E+00  0.00000000E+00  0.00000000E+00
  0.00000000E+00  0.00000000E+00  0.00000000E+00
  0.00000000E+00  0.00000000E+00  0.00000000E+00
  0.00000000E+00  0.00000000E+00  0.00000000E+00
  0.00000000E+00  0.00000000E+00  0.00000000E+00
  0.00000000E+00  0.00000000E+00  0.00000000E+00
  0.00000000E+00  0.00000000E+00  0.00000000E+00
  0.00000000E+00  0.00000000E+00  0.00000000E+00
  0.00000000E+00  0.00000000E+00  0.00000000E+00
  0.00000000E+00  0.00000000E+00  0.00000000E+00
  0.00000000E+00  0.00000000E+00  0.00000000E+00
  0.00000000E+00  0.00000000E+00  0.00000000E+00
  0.00000000E+00  0.00000000E+00  0.00000000E+00
  0.00000000E+00  0.00000000E+00  0.00000000E+00
  0.00000000E+00  0.00000000E+00  0.00000000E+00
  0.00000000E+00  0.00000000E+00  0.00000000E+00
  0.00000000E+00  0.00000000E+00  0.00000000E+00
  0.00000000E+00  0.00000000E+00  0.00000000E+00
  0.00000000E+00  0.00000000E+00  0.00000000E+00
  0.00000000E+00  0.00000000E+00  0.00000000E+00
  0.00000000E+00  0.00000000E+00  0.00000000E+00
  0.00000000E+00  0.00000000E+00  0.00000000E+00
  0.00000000E+00  0.00000000E+00  0.00000000E+00
  0.00000000E+00  0.00000000E+00  0.00000000E+00
  0.00000000E+00  0.00000000E+00  0.00000000E+00
  0.00000000E+00  0.00000000E+00  0.00000000E+00
  0.00000000E+00  0.00000000E+00  0.00000000E+00
  0.00000000E+00  0.00000000E+00  0.00000000E+00
  0.00000000E+00  0.00000000E+00  0.00000000E+00
  0.00000000E+00  0.00000000E+00  0.00000000E+00
  0.00000000E+00  0.00000000E+00  0.00000000E+00
  0.00000000E+00  0.00000000E+00  0.00000000E+00
  0.00000000E+00  0.00000000E+00  0.00000000E+00
  0.00000000E+00  0.00000000E+00  0.00000000E+00
  0.00000000E+00  0.00000000E+00  0.00000000E+00
  0.00000000E+00  0.00000000E+00  0.00000000E+00
  0.00000000E+00  0.00000000E+00  0.00000000E+00
  0.00000000E+00  0.00000000E+00  0.00000000E+00
  0.00000000E+00  0.00000000E+00  0.00000000E+00
  0.00000000E+00  0.00000000E+00  0.00000000E+00
  0.00000000E+00  0.00000000E+00  0.00000000E+00
  0.00000000E+00  0.00000000E+00  0.00000000E+00
  0.00000000E+00  0.00000000E+00  0.00000000E+00
  0.00000000E+00  0.00000000E+00  0.00000000E+00
  0.00000000E+00  0.00000000E+00  0.00000000E+00
  0.00000000E+00  0.00000000E+00  0.00000000E+00
  0.00000000E+00  0.00000000E+00  0.00000000E+00
  0.00000000E+00  0.00000000E+00  0.00000000E+00
  0.00000000E+00  0.00000000E+00  0.00000000E+00
  0.00000000E+00  0.00000000E+00  0.00000000E+00
  0.00000000E+00  0.00000000E+00  0.00000000E+00
  0.00000000E+00  0.00000000E+00  0.00000000E+00
  0.00000000E+00  0.00000000E+00  0.00000000E+00
  0.00000000E+00  0.00000000E+00  0.00000000E+00
  0.00000000E+00  0.00000000E+00  0.00000000E+00
  0.00000000E+00  0.00000000E+00  0.00000000E+00
  0.00000000E+00  0.00000000E+00  0.00000000E+00
