H1 Au1 C126 O1                          
   1.00000000000000     
    19.8686706808544606    0.0054917675510463    0.0075524372547799
    -9.9298316446270896   17.0523952780856298    0.1743723357274972
     0.0111366969129388    0.3095908031542848   29.6978721905900684
   H    Au   C    O 
     1     1   126     1
Direct
  0.4945869085096053  0.5570407371945750  0.5052758887181288
  0.4365935797903314  0.4981183954371548  0.4239657559084640
  0.0416331501473277  0.0836356797599101  0.3996292710011255
  0.0401795233670007  0.2075028769174599  0.3994017386122387
  0.0394375600814458  0.3323778154099923  0.3988507783729793
  0.0396123378812778  0.4580258617185108  0.3984611841123346
  0.0410768515117364  0.5837685226541542  0.3983506056250563
  0.0423387772905554  0.7093211379233880  0.3984802575929356
  0.0427167542423295  0.8346304289195161  0.3989575548690227
  0.0425820965329985  0.9595259989720284  0.3994786537410305
  0.1676566454609657  0.0852484865909350  0.4002266826034399
  0.1663827329504435  0.2093358061009616  0.4005305549121924
  0.1637833609694952  0.3325014851086691  0.4005447673805697
  0.1624147217272383  0.4580454367270719  0.3995271292347146
  0.1640565258183654  0.5836218932796510  0.3988550494901052
  0.1662437450523327  0.7091361860367148  0.3987826733997666
  0.1671918445138786  0.8345573706260193  0.3990161745940094
  0.1675838755833698  0.9599246404739629  0.3996147537912544
  0.2926351195116949  0.0852673178990597  0.4001649239972477
  0.2932256115386221  0.2116088856619127  0.4019096296081814
  0.2908000278952112  0.3359979331087960  0.4059922853727815
  0.2835992655737380  0.4572134590746745  0.4060410330388124
  0.2866700564142925  0.5835392801263179  0.4018047171745922
  0.2902901548448787  0.7087176424556068  0.3995874951753056
  0.2914205721849462  0.8339541517220342  0.3992096275987781
  0.2921105745783849  0.9594720535636366  0.3995498426801670
  0.4170178379257398  0.0837436433930600  0.3997536268465742
  0.4178251601911757  0.2096221371996530  0.4004284923693777
  0.4197035646023121  0.3364984598094271  0.4046927162465998
  0.4068016855292940  0.5803195805304262  0.4113924581807156
  0.4143331997096622  0.7063424974336335  0.4022311483494141
  0.4158029471849878  0.8324313631638400  0.3998554698060257
  0.4165092818233727  0.9581252007691188  0.3995458075215651
  0.5414889736865961  0.0823166847330248  0.3994239737832802
  0.5421404322090838  0.2077468967186894  0.3995092447920855
  0.5435353787119760  0.3329677595840818  0.4005082597640290
  0.5488878993868088  0.4582367411539710  0.4050129445862752
  0.5489608384982061  0.5809261912155790  0.4125579038573786
  0.5394251919402607  0.7035966275500626  0.4066691461219089
  0.5400839114609615  0.8303800549892987  0.4012833219795245
  0.5408667234980447  0.9565663858469567  0.3996855863340539
  0.6658410519370309  0.0815772086006613  0.3992800334793012
  0.6664647130162823  0.2070904602497456  0.3990914706081637
  0.6677614158392501  0.3326481805251038  0.3991433929890252
  0.6707732508938820  0.4584597169852059  0.4000794971493072
  0.6724777137320560  0.5841082442541583  0.4022152120813872
  0.6677247609211910  0.7068301092406465  0.4029869648181840
  0.6654735901784223  0.8305071400320628  0.4015386568205163
  0.6654616752080742  0.9560222175121200  0.3999922634853493
  0.7905200337901533  0.0815560607544916  0.3992853521960991
  0.7907896930438972  0.2069144094633796  0.3988965005612095
  0.7916354914572634  0.3324642541526793  0.3986310217970636
  0.7934236995090173  0.4582036914273869  0.3985838552378587
  0.7949419575324177  0.5839240349178272  0.3990045671279491
  0.7940179869509675  0.7090888832149786  0.3999338602001527
  0.7920063415927198  0.8326987080121485  0.4000092514315031
  0.7907027142695583  0.9566192725525772  0.3997111094231590
  0.9156527075619528  0.0822490460569361  0.3993507087732695
  0.9152440955440732  0.2069669446104647  0.3990237737824073
  0.9155216545330650  0.3323886641540887  0.3985630773391856
  0.9164952965699920  0.4580760094313244  0.3982560216590795
  0.9179251467722410  0.5838892146189451  0.3982842665163658
  0.9183329886856914  0.7093213765447646  0.3986953909540359
  0.9179418805930589  0.8341454250337395  0.3991699084028368
  0.9167637408687681  0.9582090298818081  0.3994342213224074
  0.0841547803518318  0.0429958730874575  0.3997845969734419
  0.0829557450697986  0.1669915610948609  0.3997246607878138
  0.0811398952003641  0.2906680070863306  0.3993586547954505
  0.0801888750099265  0.4159706303116076  0.3987041292184964
  0.0814761891803121  0.5416285845932526  0.3984864585979104
  0.0832480100756549  0.6673512978212007  0.3984938143881859
  0.0841105686540525  0.7928719626758302  0.3987767664596533
  0.0843726665983340  0.9181106880505341  0.3993694746564687
  0.2093157737555938  0.0435017020303200  0.4000834130974935
  0.2093261488871585  0.1688545780852445  0.4009304162661269
  0.2072810019594232  0.2926322461237391  0.4017296799665361
  0.2028411830500749  0.4156687686379024  0.4011684812401837
  0.2041076071843919  0.5414199841101837  0.3997943320884238
  0.2070155144260982  0.6671687858647253  0.3990296567152178
  0.2083388417481198  0.7926540355433660  0.3989759764838415
  0.2089813562629163  0.9180701908600482  0.3993968981733149
  0.3338972589631587  0.0429984190963524  0.3998123262591627
  0.3344709838804955  0.1689642873465926  0.4007684934622436
  0.3350401564989527  0.2954426909059600  0.4048781964406026
  0.3261402065465726  0.4177171984182441  0.4116125027125443
  0.3255534837125909  0.5412013054197147  0.4059896919018198
  0.3310124874126781  0.6666354372503338  0.4010600698546182
  0.3325760868165910  0.7919464373732206  0.3994408687873354
  0.3333510351413849  0.9173560263114358  0.3994390322251041
  0.4582671858965065  0.0414983647361201  0.3995711210798725
  0.4589338633473015  0.1672057673804282  0.3998334839681233
  0.4600927682763568  0.2930970845497604  0.4012670219133512
  0.4664861089907051  0.4188123337961395  0.4091990703244626
  0.4543609005002205  0.6624790083644403  0.4064851076468061
  0.4568339200228277  0.7898628522766807  0.4009010060060624
  0.4577572483899373  0.9158451912851163  0.3996746178381593
  0.5827184774719368  0.0401494042254527  0.3994163180579022
  0.5833426496131204  0.1657570975375325  0.3993223804176312
  0.5843120917911284  0.2910226508506235  0.3995412118912616
  0.5878859110299652  0.4162472904397245  0.4013661009768217
  0.5913128473948760  0.5420874562989441  0.4064178049181314
  0.5839760971393954  0.6629392697183901  0.4075425857248469
  0.5812773010003979  0.7874160847932901  0.4029732219620248
  0.5820172584547710  0.9141522877370445  0.4001878543456709
  0.7072373999428799  0.0396508366915146  0.3994510272884068
  0.7075913600398993  0.1651423778901862  0.3990517733770269
  0.7085657612358632  0.2906687570846393  0.3989216569653771
  0.7107592497141624  0.4162499665436347  0.3990742927722533
  0.7126912726677942  0.5418241651647770  0.4001250342310452
  0.7112829630344017  0.6671130376713804  0.4016999622060882
  0.7085029920498208  0.7902102382534901  0.4013041344357991
  0.7071596332812649  0.9142099839601870  0.4002830558430384
  0.8323109243225765  0.0401466187708869  0.3993999962619796
  0.8322234575593471  0.1650958656381750  0.3990480988502593
  0.8326167875956274  0.2905231295866528  0.3986620285431492
  0.8337871972082026  0.4160393383986010  0.3984025251841056
  0.8353726888572830  0.5418219149229271  0.3984927021423511
  0.8356384107750096  0.6674593265071215  0.3991059389902337
  0.8348308041953935  0.7922336458106879  0.3996134695284703
  0.8332751293579491  0.9160306100798908  0.3996343976436700
  0.9581979008579690  0.0414827658363785  0.3994498042053369
  0.9570498105195250  0.1656112225795777  0.3992362883170851
  0.9566993566513577  0.2905000012066349  0.3987672945502750
  0.9570664066360073  0.4159636887242295  0.3983828731954441
  0.9584248865486317  0.5417373758754102  0.3982153773425995
  0.9594755914335755  0.6674602992405576  0.3984115808573350
  0.9597199050408269  0.7928114753212776  0.3989003874081127
  0.9592911377112017  0.9174952558835830  0.3993275523142440
  0.4407414857254976  0.5191882504886887  0.4978657416233457
 
  0.00000000E+00  0.00000000E+00  0.00000000E+00
  0.00000000E+00  0.00000000E+00  0.00000000E+00
  0.00000000E+00  0.00000000E+00  0.00000000E+00
  0.00000000E+00  0.00000000E+00  0.00000000E+00
  0.00000000E+00  0.00000000E+00  0.00000000E+00
  0.00000000E+00  0.00000000E+00  0.00000000E+00
  0.00000000E+00  0.00000000E+00  0.00000000E+00
  0.00000000E+00  0.00000000E+00  0.00000000E+00
  0.00000000E+00  0.00000000E+00  0.00000000E+00
  0.00000000E+00  0.00000000E+00  0.00000000E+00
  0.00000000E+00  0.00000000E+00  0.00000000E+00
  0.00000000E+00  0.00000000E+00  0.00000000E+00
  0.00000000E+00  0.00000000E+00  0.00000000E+00
  0.00000000E+00  0.00000000E+00  0.00000000E+00
  0.00000000E+00  0.00000000E+00  0.00000000E+00
  0.00000000E+00  0.00000000E+00  0.00000000E+00
  0.00000000E+00  0.00000000E+00  0.00000000E+00
  0.00000000E+00  0.00000000E+00  0.00000000E+00
  0.00000000E+00  0.00000000E+00  0.00000000E+00
  0.00000000E+00  0.00000000E+00  0.00000000E+00
  0.00000000E+00  0.00000000E+00  0.00000000E+00
  0.00000000E+00  0.00000000E+00  0.00000000E+00
  0.00000000E+00  0.00000000E+00  0.00000000E+00
  0.00000000E+00  0.00000000E+00  0.00000000E+00
  0.00000000E+00  0.00000000E+00  0.00000000E+00
  0.00000000E+00  0.00000000E+00  0.00000000E+00
  0.00000000E+00  0.00000000E+00  0.00000000E+00
  0.00000000E+00  0.00000000E+00  0.00000000E+00
  0.00000000E+00  0.00000000E+00  0.00000000E+00
  0.00000000E+00  0.00000000E+00  0.00000000E+00
  0.00000000E+00  0.00000000E+00  0.00000000E+00
  0.00000000E+00  0.00000000E+00  0.00000000E+00
  0.00000000E+00  0.00000000E+00  0.00000000E+00
  0.00000000E+00  0.00000000E+00  0.00000000E+00
  0.00000000E+00  0.00000000E+00  0.00000000E+00
  0.00000000E+00  0.00000000E+00  0.00000000E+00
  0.00000000E+00  0.00000000E+00  0.00000000E+00
  0.00000000E+00  0.00000000E+00  0.00000000E+00
  0.00000000E+00  0.00000000E+00  0.00000000E+00
  0.00000000E+00  0.00000000E+00  0.00000000E+00
  0.00000000E+00  0.00000000E+00  0.00000000E+00
  0.00000000E+00  0.00000000E+00  0.00000000E+00
  0.00000000E+00  0.00000000E+00  0.00000000E+00
  0.00000000E+00  0.00000000E+00  0.00000000E+00
  0.00000000E+00  0.00000000E+00  0.00000000E+00
  0.00000000E+00  0.00000000E+00  0.00000000E+00
  0.00000000E+00  0.00000000E+00  0.00000000E+00
  0.00000000E+00  0.00000000E+00  0.00000000E+00
  0.00000000E+00  0.00000000E+00  0.00000000E+00
  0.00000000E+00  0.00000000E+00  0.00000000E+00
  0.00000000E+00  0.00000000E+00  0.00000000E+00
  0.00000000E+00  0.00000000E+00  0.00000000E+00
  0.00000000E+00  0.00000000E+00  0.00000000E+00
  0.00000000E+00  0.00000000E+00  0.00000000E+00
  0.00000000E+00  0.00000000E+00  0.00000000E+00
  0.00000000E+00  0.00000000E+00  0.00000000E+00
  0.00000000E+00  0.00000000E+00  0.00000000E+00
  0.00000000E+00  0.00000000E+00  0.00000000E+00
  0.00000000E+00  0.00000000E+00  0.00000000E+00
  0.00000000E+00  0.00000000E+00  0.00000000E+00
  0.00000000E+00  0.00000000E+00  0.00000000E+00
  0.00000000E+00  0.00000000E+00  0.00000000E+00
  0.00000000E+00  0.00000000E+00  0.00000000E+00
  0.00000000E+00  0.00000000E+00  0.00000000E+00
  0.00000000E+00  0.00000000E+00  0.00000000E+00
  0.00000000E+00  0.00000000E+00  0.00000000E+00
  0.00000000E+00  0.00000000E+00  0.00000000E+00
  0.00000000E+00  0.00000000E+00  0.00000000E+00
  0.00000000E+00  0.00000000E+00  0.00000000E+00
  0.00000000E+00  0.00000000E+00  0.00000000E+00
  0.00000000E+00  0.00000000E+00  0.00000000E+00
  0.00000000E+00  0.00000000E+00  0.00000000E+00
  0.00000000E+00  0.00000000E+00  0.00000000E+00
  0.00000000E+00  0.00000000E+00  0.00000000E+00
  0.00000000E+00  0.00000000E+00  0.00000000E+00
  0.00000000E+00  0.00000000E+00  0.00000000E+00
  0.00000000E+00  0.00000000E+00  0.00000000E+00
  0.00000000E+00  0.00000000E+00  0.00000000E+00
  0.00000000E+00  0.00000000E+00  0.00000000E+00
  0.00000000E+00  0.00000000E+00  0.00000000E+00
  0.00000000E+00  0.00000000E+00  0.00000000E+00
  0.00000000E+00  0.00000000E+00  0.00000000E+00
  0.00000000E+00  0.00000000E+00  0.00000000E+00
  0.00000000E+00  0.00000000E+00  0.00000000E+00
  0.00000000E+00  0.00000000E+00  0.00000000E+00
  0.00000000E+00  0.00000000E+00  0.00000000E+00
  0.00000000E+00  0.00000000E+00  0.00000000E+00
  0.00000000E+00  0.00000000E+00  0.00000000E+00
  0.00000000E+00  0.00000000E+00  0.00000000E+00
  0.00000000E+00  0.00000000E+00  0.00000000E+00
  0.00000000E+00  0.00000000E+00  0.00000000E+00
  0.00000000E+00  0.00000000E+00  0.00000000E+00
  0.00000000E+00  0.00000000E+00  0.00000000E+00
  0.00000000E+00  0.00000000E+00  0.00000000E+00
  0.00000000E+00  0.00000000E+00  0.00000000E+00
  0.00000000E+00  0.00000000E+00  0.00000000E+00
  0.00000000E+00  0.00000000E+00  0.00000000E+00
  0.00000000E+00  0.00000000E+00  0.00000000E+00
  0.00000000E+00  0.00000000E+00  0.00000000E+00
  0.00000000E+00  0.00000000E+00  0.00000000E+00
  0.00000000E+00  0.00000000E+00  0.00000000E+00
  0.00000000E+00  0.00000000E+00  0.00000000E+00
  0.00000000E+00  0.00000000E+00  0.00000000E+00
  0.00000000E+00  0.00000000E+00  0.00000000E+00
  0.00000000E+00  0.00000000E+00  0.00000000E+00
  0.00000000E+00  0.00000000E+00  0.00000000E+00
  0.00000000E+00  0.00000000E+00  0.00000000E+00
  0.00000000E+00  0.00000000E+00  0.00000000E+00
  0.00000000E+00  0.00000000E+00  0.00000000E+00
  0.00000000E+00  0.00000000E+00  0.00000000E+00
  0.00000000E+00  0.00000000E+00  0.00000000E+00
  0.00000000E+00  0.00000000E+00  0.00000000E+00
  0.00000000E+00  0.00000000E+00  0.00000000E+00
  0.00000000E+00  0.00000000E+00  0.00000000E+00
  0.00000000E+00  0.00000000E+00  0.00000000E+00
  0.00000000E+00  0.00000000E+00  0.00000000E+00
  0.00000000E+00  0.00000000E+00  0.00000000E+00
  0.00000000E+00  0.00000000E+00  0.00000000E+00
  0.00000000E+00  0.00000000E+00  0.00000000E+00
  0.00000000E+00  0.00000000E+00  0.00000000E+00
  0.00000000E+00  0.00000000E+00  0.00000000E+00
  0.00000000E+00  0.00000000E+00  0.00000000E+00
  0.00000000E+00  0.00000000E+00  0.00000000E+00
  0.00000000E+00  0.00000000E+00  0.00000000E+00
  0.00000000E+00  0.00000000E+00  0.00000000E+00
  0.00000000E+00  0.00000000E+00  0.00000000E+00
  0.00000000E+00  0.00000000E+00  0.00000000E+00
  0.00000000E+00  0.00000000E+00  0.00000000E+00
  0.00000000E+00  0.00000000E+00  0.00000000E+00
