W1 C126 O1                              
   1.00000000000000     
    19.7958335254358033   -0.0002140641424413   -0.0544812796392739
    -9.8981394196452044   17.0971916659291452   -0.0516740600019889
    -0.0814555897220073   -0.1369226527463238   29.7316296613984932
   W    C    O 
     1   126     1
Direct
  0.4276780368930785  0.5008298716906030  0.4320586828595052
  0.0413625618380734  0.0830740137851144  0.3993691807058157
  0.0410348051816693  0.2078430413574747  0.3992200356647399
  0.0410774537480673  0.3329365313109159  0.3990888230312776
  0.0414011961578054  0.4583755678886789  0.3990143404634691
  0.0417448167663386  0.5835705757958088  0.3993715288796363
  0.0420217061377119  0.7087299939359476  0.3996391724540281
  0.0421724831701748  0.8338928061545990  0.3997422369798972
  0.0420437818125298  0.9587369629323547  0.3995509595296437
  0.1671175390860046  0.0840271647639431  0.4000215166873254
  0.1657486066050303  0.2075570533227691  0.4001224856362972
  0.1655602159251659  0.3327412029251083  0.4001609960134502
  0.1655435485552224  0.4582727182435359  0.3994813820902843
  0.1661981626599267  0.5835701202039477  0.3989626140311527
  0.1666784827706412  0.7088230528723404  0.3993293035806968
  0.1669454384676205  0.8339576870472716  0.3997230367358228
  0.1671539962875773  0.9590795087514412  0.3998806683660461
  0.2922930095690214  0.0843105296292316  0.4000201125108502
  0.2927870383970326  0.2099329508290050  0.4018234759435659
  0.2894835418187366  0.3315809077167629  0.4038393958116528
  0.2892123981786496  0.4566311989000200  0.4039602697429342
  0.2903022165691836  0.5841316169101159  0.4008148413350719
  0.2913081053805622  0.7090667498713870  0.3992100490203613
  0.2917092367281905  0.8339317401615587  0.3992206007736080
  0.2919360265417495  0.9590132109379500  0.3995104738719685
  0.4170020889660327  0.0839799928759174  0.3993489415570330
  0.4173676311094686  0.2095200302028400  0.4003191881548434
  0.4190602892186613  0.3369691977811110  0.4047539644365136
  0.4145048494556547  0.5880862152929583  0.4068194404768267
  0.4162562811932879  0.7098021892411955  0.4004545105708301
  0.4165817001275751  0.8340801189382929  0.3992643573233670
  0.4167434524838973  0.9588116554075755  0.3992322323117156
  0.5417592630068744  0.0832436157660715  0.3993530131996124
  0.5420577910254752  0.2082805578360478  0.3992488097595110
  0.5426837468610425  0.3332964901084015  0.3998461728205958
  0.5451874921384127  0.4577795215737117  0.4029407841425084
  0.5440975570428187  0.5801119173222483  0.4074961113898656
  0.5417041467181589  0.7074922617484117  0.4040769885758663
  0.5414674398061103  0.8329066569037796  0.4003391549102407
  0.5416850760005600  0.9581705080827163  0.3994531649329053
  0.6666280770675472  0.0829615675521816  0.3996980187509999
  0.6668242476301124  0.2080355266503059  0.3994590031325105
  0.6671968255653857  0.3329923848713719  0.3988993056700169
  0.6687775817689934  0.4583102714631285  0.3984923590790443
  0.6696509420040822  0.5839520952634596  0.3995197686672959
  0.6663041884830357  0.7070021692782672  0.4009359636480811
  0.6665895466597760  0.8325647637415583  0.4004589221427189
  0.6665575939103126  0.9578391896020649  0.3998537466530663
  0.7914846517340794  0.0828744288448208  0.3996492122870328
  0.7915738730522143  0.2079388609930501  0.3997010732489393
  0.7919299747511669  0.3331308426633927  0.3994098142828374
  0.7926825859775545  0.4584114942643744  0.3988902601546586
  0.7931286364478700  0.5835708627199788  0.3984953858695268
  0.7927432936780241  0.7088083654977325  0.3989270929885263
  0.7915571879892517  0.8329104512610593  0.3992262570579712
  0.7914059026818629  0.9578119128278200  0.3994131186099636
  0.9163410594136518  0.0828966882902493  0.3992214198065084
  0.9163204845076539  0.2079653355175056  0.3993646524749763
  0.9165341289545258  0.3331559980453400  0.3994045268329463
  0.9169161320392315  0.4582941220069818  0.3994208196965744
  0.9173835740459233  0.5836067618926565  0.3992997826878469
  0.9173943838207035  0.7088449188008750  0.3992271447532347
  0.9171254736778138  0.8336576914673438  0.3992339077527456
  0.9165645234391097  0.9581114753219331  0.3991788026445963
  0.0836387388307202  0.0420615044135100  0.3995859207914963
  0.0826170613578645  0.1661217839925500  0.3994425859580543
  0.0823423588693791  0.2911191897957198  0.3992985179454602
  0.0827353852677723  0.4166034081111574  0.3989082978419687
  0.0830968852875081  0.5417870686223527  0.3990517525992833
  0.0834738130644452  0.6670399749240632  0.3994850165044265
  0.0837565039996355  0.7922807743929234  0.3997893167344481
  0.0837867072697782  0.9172697985130157  0.3997810002669969
  0.2088465703790175  0.0424130375999711  0.4000187067242603
  0.2086914494791255  0.1673420895262831  0.4006084147586457
  0.2065990943572555  0.2904539329317815  0.4007593814057073
  0.2063056288628371  0.4161259903784615  0.4009180651715056
  0.2073652926867620  0.5419404627837906  0.3994871575118968
  0.2082316425416396  0.6672537589151208  0.3991243043360654
  0.2084560845904280  0.7922291460717543  0.3994350499669015
  0.2087202133359929  0.9173497969508015  0.3997525300087936
  0.3337123414575256  0.0424146007433564  0.3995561595948076
  0.3341694650371222  0.1677226521506213  0.4007233706545052
  0.3343991434556877  0.2929005922131276  0.4044151837836108
  0.3266688509114253  0.4123951963403700  0.4071348970089705
  0.3327501550134702  0.5437101318864785  0.4038418684267188
  0.3329246719164533  0.6674844821075578  0.3999814239332553
  0.3332724641430888  0.7923495926400270  0.3991353093581788
  0.3335267229968705  0.9173006556778334  0.3992854364737691
  0.4585320222120833  0.0420969422449892  0.3992717730646387
  0.4587597444002833  0.1673333982280283  0.3994486692484769
  0.4594522015732870  0.2933121416679099  0.4012534779815781
  0.4642419703687877  0.4204418149160309  0.4077364137098471
  0.4580799237250497  0.6687825842615109  0.4034722516791216
  0.4582846162095439  0.7926654068792516  0.3998439082587448
  0.4583845618501221  0.9171415764597666  0.3992775859657886
  0.5834112152360562  0.0414853665858043  0.3994799855664390
  0.5835536449817921  0.1665396324818742  0.3993198950363588
  0.5840383463916152  0.2913989930331033  0.3990940016999303
  0.5858142251032353  0.4162764723306376  0.3996712217845614
  0.5875767413095874  0.5425418627946329  0.4028258976579834
  0.5823198524517734  0.6634556038100271  0.4044139677737110
  0.5830121022871524  0.7903741809897366  0.4015282586007343
  0.5831982526804480  0.9162077701893626  0.3998097423492061
  0.7081820018704442  0.0411544433411308  0.3997553616572053
  0.7083768068347789  0.1663265261012507  0.3996846275414047
  0.7086491456976372  0.2913656256362961  0.3992619043306185
  0.7096475518524841  0.4166192688966096  0.3985547341781915
  0.7105660514235044  0.5418905441782139  0.3984394861131766
  0.7095005959548981  0.6669389192641991  0.3996196563485787
  0.7079890266342401  0.7907647595987610  0.4000216281125989
  0.7081067444897293  0.9159502858360078  0.3998301974786670
  0.8330368694068845  0.0411982687573276  0.3994029395990616
  0.8330822988130615  0.1662457298227401  0.3996196780100615
  0.8333925555456470  0.2914798965986621  0.3995662685829227
  0.8338818452672504  0.4166001176863802  0.3993060151599743
  0.8343656689128073  0.5417888094071117  0.3988571305084377
  0.8342991058731246  0.6672111467745284  0.3987793555667568
  0.8338793064277420  0.7919268597536538  0.3990572105900417
  0.8331483643543991  0.9162479988257556  0.3991911920390867
  0.9580574500103221  0.0413918270459457  0.3992031158161509
  0.9578813588899627  0.1662559656527003  0.3992041481147095
  0.9579528042592148  0.2913632416647789  0.3992557690894206
  0.9582806055893512  0.4166153185154524  0.3993165870365280
  0.9587131960455118  0.5418999509231395  0.3994327262834114
  0.9589090315652973  0.6670914264736448  0.3994317414940594
  0.9589113531889577  0.7921759972916890  0.3994359775602123
  0.9586280326968448  0.9169524196747424  0.3993088631815627
  0.4437114828035977  0.5022963978673097  0.4893125912964046
 
  0.00000000E+00  0.00000000E+00  0.00000000E+00
  0.00000000E+00  0.00000000E+00  0.00000000E+00
  0.00000000E+00  0.00000000E+00  0.00000000E+00
  0.00000000E+00  0.00000000E+00  0.00000000E+00
  0.00000000E+00  0.00000000E+00  0.00000000E+00
  0.00000000E+00  0.00000000E+00  0.00000000E+00
  0.00000000E+00  0.00000000E+00  0.00000000E+00
  0.00000000E+00  0.00000000E+00  0.00000000E+00
  0.00000000E+00  0.00000000E+00  0.00000000E+00
  0.00000000E+00  0.00000000E+00  0.00000000E+00
  0.00000000E+00  0.00000000E+00  0.00000000E+00
  0.00000000E+00  0.00000000E+00  0.00000000E+00
  0.00000000E+00  0.00000000E+00  0.00000000E+00
  0.00000000E+00  0.00000000E+00  0.00000000E+00
  0.00000000E+00  0.00000000E+00  0.00000000E+00
  0.00000000E+00  0.00000000E+00  0.00000000E+00
  0.00000000E+00  0.00000000E+00  0.00000000E+00
  0.00000000E+00  0.00000000E+00  0.00000000E+00
  0.00000000E+00  0.00000000E+00  0.00000000E+00
  0.00000000E+00  0.00000000E+00  0.00000000E+00
  0.00000000E+00  0.00000000E+00  0.00000000E+00
  0.00000000E+00  0.00000000E+00  0.00000000E+00
  0.00000000E+00  0.00000000E+00  0.00000000E+00
  0.00000000E+00  0.00000000E+00  0.00000000E+00
  0.00000000E+00  0.00000000E+00  0.00000000E+00
  0.00000000E+00  0.00000000E+00  0.00000000E+00
  0.00000000E+00  0.00000000E+00  0.00000000E+00
  0.00000000E+00  0.00000000E+00  0.00000000E+00
  0.00000000E+00  0.00000000E+00  0.00000000E+00
  0.00000000E+00  0.00000000E+00  0.00000000E+00
  0.00000000E+00  0.00000000E+00  0.00000000E+00
  0.00000000E+00  0.00000000E+00  0.00000000E+00
  0.00000000E+00  0.00000000E+00  0.00000000E+00
  0.00000000E+00  0.00000000E+00  0.00000000E+00
  0.00000000E+00  0.00000000E+00  0.00000000E+00
  0.00000000E+00  0.00000000E+00  0.00000000E+00
  0.00000000E+00  0.00000000E+00  0.00000000E+00
  0.00000000E+00  0.00000000E+00  0.00000000E+00
  0.00000000E+00  0.00000000E+00  0.00000000E+00
  0.00000000E+00  0.00000000E+00  0.00000000E+00
  0.00000000E+00  0.00000000E+00  0.00000000E+00
  0.00000000E+00  0.00000000E+00  0.00000000E+00
  0.00000000E+00  0.00000000E+00  0.00000000E+00
  0.00000000E+00  0.00000000E+00  0.00000000E+00
  0.00000000E+00  0.00000000E+00  0.00000000E+00
  0.00000000E+00  0.00000000E+00  0.00000000E+00
  0.00000000E+00  0.00000000E+00  0.00000000E+00
  0.00000000E+00  0.00000000E+00  0.00000000E+00
  0.00000000E+00  0.00000000E+00  0.00000000E+00
  0.00000000E+00  0.00000000E+00  0.00000000E+00
  0.00000000E+00  0.00000000E+00  0.00000000E+00
  0.00000000E+00  0.00000000E+00  0.00000000E+00
  0.00000000E+00  0.00000000E+00  0.00000000E+00
  0.00000000E+00  0.00000000E+00  0.00000000E+00
  0.00000000E+00  0.00000000E+00  0.00000000E+00
  0.00000000E+00  0.00000000E+00  0.00000000E+00
  0.00000000E+00  0.00000000E+00  0.00000000E+00
  0.00000000E+00  0.00000000E+00  0.00000000E+00
  0.00000000E+00  0.00000000E+00  0.00000000E+00
  0.00000000E+00  0.00000000E+00  0.00000000E+00
  0.00000000E+00  0.00000000E+00  0.00000000E+00
  0.00000000E+00  0.00000000E+00  0.00000000E+00
  0.00000000E+00  0.00000000E+00  0.00000000E+00
  0.00000000E+00  0.00000000E+00  0.00000000E+00
  0.00000000E+00  0.00000000E+00  0.00000000E+00
  0.00000000E+00  0.00000000E+00  0.00000000E+00
  0.00000000E+00  0.00000000E+00  0.00000000E+00
  0.00000000E+00  0.00000000E+00  0.00000000E+00
  0.00000000E+00  0.00000000E+00  0.00000000E+00
  0.00000000E+00  0.00000000E+00  0.00000000E+00
  0.00000000E+00  0.00000000E+00  0.00000000E+00
  0.00000000E+00  0.00000000E+00  0.00000000E+00
  0.00000000E+00  0.00000000E+00  0.00000000E+00
  0.00000000E+00  0.00000000E+00  0.00000000E+00
  0.00000000E+00  0.00000000E+00  0.00000000E+00
  0.00000000E+00  0.00000000E+00  0.00000000E+00
  0.00000000E+00  0.00000000E+00  0.00000000E+00
  0.00000000E+00  0.00000000E+00  0.00000000E+00
  0.00000000E+00  0.00000000E+00  0.00000000E+00
  0.00000000E+00  0.00000000E+00  0.00000000E+00
  0.00000000E+00  0.00000000E+00  0.00000000E+00
  0.00000000E+00  0.00000000E+00  0.00000000E+00
  0.00000000E+00  0.00000000E+00  0.00000000E+00
  0.00000000E+00  0.00000000E+00  0.00000000E+00
  0.00000000E+00  0.00000000E+00  0.00000000E+00
  0.00000000E+00  0.00000000E+00  0.00000000E+00
  0.00000000E+00  0.00000000E+00  0.00000000E+00
  0.00000000E+00  0.00000000E+00  0.00000000E+00
  0.00000000E+00  0.00000000E+00  0.00000000E+00
  0.00000000E+00  0.00000000E+00  0.00000000E+00
  0.00000000E+00  0.00000000E+00  0.00000000E+00
  0.00000000E+00  0.00000000E+00  0.00000000E+00
  0.00000000E+00  0.00000000E+00  0.00000000E+00
  0.00000000E+00  0.00000000E+00  0.00000000E+00
  0.00000000E+00  0.00000000E+00  0.00000000E+00
  0.00000000E+00  0.00000000E+00  0.00000000E+00
  0.00000000E+00  0.00000000E+00  0.00000000E+00
  0.00000000E+00  0.00000000E+00  0.00000000E+00
  0.00000000E+00  0.00000000E+00  0.00000000E+00
  0.00000000E+00  0.00000000E+00  0.00000000E+00
  0.00000000E+00  0.00000000E+00  0.00000000E+00
  0.00000000E+00  0.00000000E+00  0.00000000E+00
  0.00000000E+00  0.00000000E+00  0.00000000E+00
  0.00000000E+00  0.00000000E+00  0.00000000E+00
  0.00000000E+00  0.00000000E+00  0.00000000E+00
  0.00000000E+00  0.00000000E+00  0.00000000E+00
  0.00000000E+00  0.00000000E+00  0.00000000E+00
  0.00000000E+00  0.00000000E+00  0.00000000E+00
  0.00000000E+00  0.00000000E+00  0.00000000E+00
  0.00000000E+00  0.00000000E+00  0.00000000E+00
  0.00000000E+00  0.00000000E+00  0.00000000E+00
  0.00000000E+00  0.00000000E+00  0.00000000E+00
  0.00000000E+00  0.00000000E+00  0.00000000E+00
  0.00000000E+00  0.00000000E+00  0.00000000E+00
  0.00000000E+00  0.00000000E+00  0.00000000E+00
  0.00000000E+00  0.00000000E+00  0.00000000E+00
  0.00000000E+00  0.00000000E+00  0.00000000E+00
  0.00000000E+00  0.00000000E+00  0.00000000E+00
  0.00000000E+00  0.00000000E+00  0.00000000E+00
  0.00000000E+00  0.00000000E+00  0.00000000E+00
  0.00000000E+00  0.00000000E+00  0.00000000E+00
  0.00000000E+00  0.00000000E+00  0.00000000E+00
  0.00000000E+00  0.00000000E+00  0.00000000E+00
  0.00000000E+00  0.00000000E+00  0.00000000E+00
  0.00000000E+00  0.00000000E+00  0.00000000E+00
  0.00000000E+00  0.00000000E+00  0.00000000E+00
  0.00000000E+00  0.00000000E+00  0.00000000E+00
  0.00000000E+00  0.00000000E+00  0.00000000E+00
