Ni1 C123 N3 O1                          
   1.00000000000000     
    19.7980037716741855    0.0057887273866328    0.0554839200170537
    -9.8940391679166737   17.0148267396241408   -0.1081042532192981
     0.0834219400122305   -0.1391889812992622   29.8670473983114704
   Ni   C    N    O 
     1   123     3     1
Direct
  0.4359433785112878  0.4974423274047754  0.4137929376254883
  0.0420253369428930  0.0842525078213830  0.4002215832188697
  0.0410846395933754  0.2083006947449482  0.4004246240422347
  0.0404976306906558  0.3329831835494754  0.4001954205010245
  0.0407253964707191  0.4582052744134730  0.3997344844781845
  0.0414354189627119  0.5836377083071149  0.3994071878381956
  0.0421305293160920  0.7090576220320967  0.3993553797391485
  0.0424356360345711  0.8344132583946643  0.3995139687904272
  0.0424007311618341  0.9595722832018233  0.3998251292440218
  0.1678226748699733  0.0856576416941578  0.4007215137612136
  0.1676670068176707  0.2106862653212917  0.4016641303646221
  0.1654549973824934  0.3338731935923442  0.4015151905131366
  0.1647486987247547  0.4584080122802449  0.4009456905395702
  0.1653454282409548  0.5835282185399251  0.4001646943559075
  0.1664520342189042  0.7088788197292581  0.3996160838747709
  0.1671266313433496  0.8343932158277413  0.3995033420493636
  0.1675151243053203  0.9600598437215720  0.3998831955412497
  0.2926452167881671  0.0859347089930947  0.4007697771073543
  0.2933960288330771  0.2129928259548496  0.4025939615732315
  0.2931513516198119  0.3392045549556985  0.4032865260178941
  0.2887198653684342  0.4582005886482962  0.4021986868780295
  0.2887752663674101  0.5830054041736128  0.4015028372081422
  0.2906590702762376  0.7082904162275020  0.4006269281365518
  0.2916669936486547  0.8338370925747562  0.3997920824205766
  0.2921484927028028  0.9596460932297338  0.3997953940367043
  0.4170430404983211  0.0844211560541306  0.4001657576743250
  0.4177136669683467  0.2109108359617993  0.4017138221201864
  0.4195002751220077  0.3389260261820105  0.4045900577393343
  0.4145893160581784  0.7054336172836704  0.4021625881525345
  0.4160760224613960  0.8320144576742524  0.4006555626675092
  0.4166316192642687  0.9582235177642975  0.3998406531805755
  0.5414725823923181  0.0826878080742413  0.3997705055987230
  0.5420336103516669  0.2085751887944359  0.4003617188865353
  0.5431028979416703  0.3343020001253349  0.4020616592755173
  0.5462922886059151  0.4598427064182153  0.4038068341982335
  0.5378867904356204  0.7008359601044831  0.4034894823852039
  0.5402195881780271  0.8297166996588182  0.4016470721315648
  0.5410307653774193  0.9565321774575593  0.4002967928157085
  0.6659922103358179  0.0819062900491896  0.3998074577221168
  0.6664778465292766  0.2075803408129999  0.3996081576573345
  0.6673011981597220  0.3330792573952248  0.4001291243227922
  0.6691676306495259  0.4586510373678171  0.4013119604066297
  0.6702260026064794  0.5840661150875034  0.4024252714470715
  0.6657561108444434  0.7054659657413661  0.4022635684810092
  0.6644354502368016  0.8297704215060937  0.4016011129342021
  0.6654310793185284  0.9560322837236290  0.4005819469580121
  0.7906926260539184  0.0818600966096841  0.3998415867656475
  0.7910534056698838  0.2073224836909813  0.3995158080302474
  0.7916476082562645  0.3327968982579763  0.3993984019932287
  0.7927093334012809  0.4583352007704731  0.3996724710974944
  0.7935308296142654  0.5837648624447688  0.4003522250998378
  0.7930995148549109  0.7087707962633221  0.4007340805751847
  0.7909076334837785  0.8320870579639882  0.4007395925638650
  0.7903477218855843  0.9565317017730438  0.4003182378178369
  0.9159232197229824  0.0825852676246188  0.3998924440304250
  0.9158138309791364  0.2075040120022593  0.3997583119469582
  0.9159992878160294  0.3327666351571130  0.3995168573143634
  0.9166621473485803  0.4582185014190363  0.3992772134167980
  0.9174492298738179  0.5837286699935178  0.3993637360562934
  0.9176995856535145  0.7090524203743650  0.3996813160642197
  0.9173591522516836  0.8339909830720316  0.3998378015884004
  0.9164606187731913  0.9581760179772988  0.3998857805095669
  0.0842624017045354  0.0432638634748958  0.4002052746638775
  0.0838709084654635  0.1679499721165249  0.4007498691620211
  0.0823679206189301  0.2917027018234363  0.4006711475824120
  0.0819435783090257  0.4164243026571339  0.4002756548405464
  0.0824685751858225  0.5417437569180423  0.3997179572074471
  0.0833668689252452  0.6672139807962590  0.3994125314808806
  0.0839213902999149  0.7926745354172989  0.3994325072342060
  0.0841778658649295  0.9180824822893268  0.3996981728672101
  0.2092910126665739  0.0438182446403413  0.4004469408374435
  0.2097490799523125  0.1696652496808878  0.4016777330604321
  0.2091458003873845  0.2945765231755194  0.4022752399767913
  0.2062763295864496  0.4169932848134839  0.4016415854363711
  0.2060841863015384  0.5415173909539562  0.4008032000996169
  0.2075519461519200  0.6669690875218943  0.4000876370403414
  0.2084698563851465  0.7924480852903072  0.3995900454773518
  0.2089262485478479  0.9180735234199829  0.3996968253118808
  0.3338545813366136  0.0434287581190859  0.4002004257789459
  0.3344336458268665  0.1699749103136126  0.4017966146601548
  0.3354370361911965  0.2974607949246811  0.4039561297159179
  0.3302090431356033  0.5420882078128347  0.4025585559007774
  0.3315234455064975  0.6660632887985215  0.4015131224822557
  0.3329075670554791  0.7916309770396610  0.4003269916648917
  0.3334568764869163  0.9173877634187608  0.3997367396369160
  0.4583013256793728  0.0418890920441882  0.3998390542096302
  0.4587960245067343  0.1681167087449986  0.4006981335244860
  0.4598851326330945  0.2947329127725337  0.4027029524273060
  0.4646040382959378  0.4216636567788732  0.4058697381849175
  0.4533459409816062  0.6600916043507012  0.4036462217023458
  0.4570854261410153  0.7891818898623385  0.4015190303784710
  0.4578629464299864  0.9156934831744581  0.4002108903993491
  0.5827559435510371  0.0403563242891809  0.3998880000566379
  0.5832852542207266  0.1662952936029425  0.3997977455330223
  0.5841097214150394  0.2919381959632625  0.4008108121237812
  0.5863673209093700  0.4174273513233251  0.4023051450109866
  0.5883496728570122  0.5431393417147170  0.4033959492927121
  0.5814202627227338  0.6598998709452822  0.4033578868335624
  0.5804495651605164  0.7859548586719575  0.4023230936954504
  0.5821499816660100  0.9139036993853423  0.4008403941757875
  0.7073336022320287  0.0398557425462644  0.4000237186268971
  0.7078283868652476  0.1656193149078397  0.3995715377043634
  0.7084516779081810  0.2911481516651457  0.3995904855635998
  0.7097932587403740  0.4165857692914007  0.4002793805966597
  0.7109438290163719  0.5418950378397724  0.4014203979289422
  0.7101050208931140  0.6668037160824420  0.4017960623438599
  0.7070062195785601  0.7892481965812016  0.4015707620362203
  0.7066382668521068  0.9139424296045112  0.4008229541342920
  0.8323631414706459  0.0403226489386695  0.3999541797267018
  0.8325318552852997  0.1655762118693916  0.3996339358549437
  0.8328968651523262  0.2909422726463907  0.3994139099739161
  0.8336834714614982  0.4163651354737666  0.3993687732641810
  0.8345614412097723  0.5418720173275239  0.3996972953465820
  0.8347418443572830  0.6672582137514939  0.4002127281540142
  0.8339995027463137  0.7919485399269514  0.4003831269338997
  0.8327195843683962  0.9157094383179897  0.4002536696645030
  0.9583331752148057  0.0418104743947539  0.3999161262830430
  0.9576662165160692  0.1661333593662335  0.3999574626992994
  0.9574453514174447  0.2910823061998886  0.3997715574780908
  0.9577599292200338  0.4163259372106263  0.3994343010873190
  0.9585049023526906  0.5418291753490969  0.3992680105534634
  0.9591007394242230  0.6672981550776773  0.3994179711758477
  0.9591893169050910  0.7925865427131348  0.3996191018592056
  0.9589223130608073  0.9174592033764164  0.3997795972464318
  0.4095837286587968  0.5797064870592709  0.4045161534508814
  0.5450758583747191  0.5792541387512996  0.4033426369105353
  0.3313700214713474  0.4205765975202894  0.4023205204496810
  0.4411934400173199  0.4984835932046251  0.4738759718041395
 
  0.00000000E+00  0.00000000E+00  0.00000000E+00
  0.00000000E+00  0.00000000E+00  0.00000000E+00
  0.00000000E+00  0.00000000E+00  0.00000000E+00
  0.00000000E+00  0.00000000E+00  0.00000000E+00
  0.00000000E+00  0.00000000E+00  0.00000000E+00
  0.00000000E+00  0.00000000E+00  0.00000000E+00
  0.00000000E+00  0.00000000E+00  0.00000000E+00
  0.00000000E+00  0.00000000E+00  0.00000000E+00
  0.00000000E+00  0.00000000E+00  0.00000000E+00
  0.00000000E+00  0.00000000E+00  0.00000000E+00
  0.00000000E+00  0.00000000E+00  0.00000000E+00
  0.00000000E+00  0.00000000E+00  0.00000000E+00
  0.00000000E+00  0.00000000E+00  0.00000000E+00
  0.00000000E+00  0.00000000E+00  0.00000000E+00
  0.00000000E+00  0.00000000E+00  0.00000000E+00
  0.00000000E+00  0.00000000E+00  0.00000000E+00
  0.00000000E+00  0.00000000E+00  0.00000000E+00
  0.00000000E+00  0.00000000E+00  0.00000000E+00
  0.00000000E+00  0.00000000E+00  0.00000000E+00
  0.00000000E+00  0.00000000E+00  0.00000000E+00
  0.00000000E+00  0.00000000E+00  0.00000000E+00
  0.00000000E+00  0.00000000E+00  0.00000000E+00
  0.00000000E+00  0.00000000E+00  0.00000000E+00
  0.00000000E+00  0.00000000E+00  0.00000000E+00
  0.00000000E+00  0.00000000E+00  0.00000000E+00
  0.00000000E+00  0.00000000E+00  0.00000000E+00
  0.00000000E+00  0.00000000E+00  0.00000000E+00
  0.00000000E+00  0.00000000E+00  0.00000000E+00
  0.00000000E+00  0.00000000E+00  0.00000000E+00
  0.00000000E+00  0.00000000E+00  0.00000000E+00
  0.00000000E+00  0.00000000E+00  0.00000000E+00
  0.00000000E+00  0.00000000E+00  0.00000000E+00
  0.00000000E+00  0.00000000E+00  0.00000000E+00
  0.00000000E+00  0.00000000E+00  0.00000000E+00
  0.00000000E+00  0.00000000E+00  0.00000000E+00
  0.00000000E+00  0.00000000E+00  0.00000000E+00
  0.00000000E+00  0.00000000E+00  0.00000000E+00
  0.00000000E+00  0.00000000E+00  0.00000000E+00
  0.00000000E+00  0.00000000E+00  0.00000000E+00
  0.00000000E+00  0.00000000E+00  0.00000000E+00
  0.00000000E+00  0.00000000E+00  0.00000000E+00
  0.00000000E+00  0.00000000E+00  0.00000000E+00
  0.00000000E+00  0.00000000E+00  0.00000000E+00
  0.00000000E+00  0.00000000E+00  0.00000000E+00
  0.00000000E+00  0.00000000E+00  0.00000000E+00
  0.00000000E+00  0.00000000E+00  0.00000000E+00
  0.00000000E+00  0.00000000E+00  0.00000000E+00
  0.00000000E+00  0.00000000E+00  0.00000000E+00
  0.00000000E+00  0.00000000E+00  0.00000000E+00
  0.00000000E+00  0.00000000E+00  0.00000000E+00
  0.00000000E+00  0.00000000E+00  0.00000000E+00
  0.00000000E+00  0.00000000E+00  0.00000000E+00
  0.00000000E+00  0.00000000E+00  0.00000000E+00
  0.00000000E+00  0.00000000E+00  0.00000000E+00
  0.00000000E+00  0.00000000E+00  0.00000000E+00
  0.00000000E+00  0.00000000E+00  0.00000000E+00
  0.00000000E+00  0.00000000E+00  0.00000000E+00
  0.00000000E+00  0.00000000E+00  0.00000000E+00
  0.00000000E+00  0.00000000E+00  0.00000000E+00
  0.00000000E+00  0.00000000E+00  0.00000000E+00
  0.00000000E+00  0.00000000E+00  0.00000000E+00
  0.00000000E+00  0.00000000E+00  0.00000000E+00
  0.00000000E+00  0.00000000E+00  0.00000000E+00
  0.00000000E+00  0.00000000E+00  0.00000000E+00
  0.00000000E+00  0.00000000E+00  0.00000000E+00
  0.00000000E+00  0.00000000E+00  0.00000000E+00
  0.00000000E+00  0.00000000E+00  0.00000000E+00
  0.00000000E+00  0.00000000E+00  0.00000000E+00
  0.00000000E+00  0.00000000E+00  0.00000000E+00
  0.00000000E+00  0.00000000E+00  0.00000000E+00
  0.00000000E+00  0.00000000E+00  0.00000000E+00
  0.00000000E+00  0.00000000E+00  0.00000000E+00
  0.00000000E+00  0.00000000E+00  0.00000000E+00
  0.00000000E+00  0.00000000E+00  0.00000000E+00
  0.00000000E+00  0.00000000E+00  0.00000000E+00
  0.00000000E+00  0.00000000E+00  0.00000000E+00
  0.00000000E+00  0.00000000E+00  0.00000000E+00
  0.00000000E+00  0.00000000E+00  0.00000000E+00
  0.00000000E+00  0.00000000E+00  0.00000000E+00
  0.00000000E+00  0.00000000E+00  0.00000000E+00
  0.00000000E+00  0.00000000E+00  0.00000000E+00
  0.00000000E+00  0.00000000E+00  0.00000000E+00
  0.00000000E+00  0.00000000E+00  0.00000000E+00
  0.00000000E+00  0.00000000E+00  0.00000000E+00
  0.00000000E+00  0.00000000E+00  0.00000000E+00
  0.00000000E+00  0.00000000E+00  0.00000000E+00
  0.00000000E+00  0.00000000E+00  0.00000000E+00
  0.00000000E+00  0.00000000E+00  0.00000000E+00
  0.00000000E+00  0.00000000E+00  0.00000000E+00
  0.00000000E+00  0.00000000E+00  0.00000000E+00
  0.00000000E+00  0.00000000E+00  0.00000000E+00
  0.00000000E+00  0.00000000E+00  0.00000000E+00
  0.00000000E+00  0.00000000E+00  0.00000000E+00
  0.00000000E+00  0.00000000E+00  0.00000000E+00
  0.00000000E+00  0.00000000E+00  0.00000000E+00
  0.00000000E+00  0.00000000E+00  0.00000000E+00
  0.00000000E+00  0.00000000E+00  0.00000000E+00
  0.00000000E+00  0.00000000E+00  0.00000000E+00
  0.00000000E+00  0.00000000E+00  0.00000000E+00
  0.00000000E+00  0.00000000E+00  0.00000000E+00
  0.00000000E+00  0.00000000E+00  0.00000000E+00
  0.00000000E+00  0.00000000E+00  0.00000000E+00
  0.00000000E+00  0.00000000E+00  0.00000000E+00
  0.00000000E+00  0.00000000E+00  0.00000000E+00
  0.00000000E+00  0.00000000E+00  0.00000000E+00
  0.00000000E+00  0.00000000E+00  0.00000000E+00
  0.00000000E+00  0.00000000E+00  0.00000000E+00
  0.00000000E+00  0.00000000E+00  0.00000000E+00
  0.00000000E+00  0.00000000E+00  0.00000000E+00
  0.00000000E+00  0.00000000E+00  0.00000000E+00
  0.00000000E+00  0.00000000E+00  0.00000000E+00
  0.00000000E+00  0.00000000E+00  0.00000000E+00
  0.00000000E+00  0.00000000E+00  0.00000000E+00
  0.00000000E+00  0.00000000E+00  0.00000000E+00
  0.00000000E+00  0.00000000E+00  0.00000000E+00
  0.00000000E+00  0.00000000E+00  0.00000000E+00
  0.00000000E+00  0.00000000E+00  0.00000000E+00
  0.00000000E+00  0.00000000E+00  0.00000000E+00
  0.00000000E+00  0.00000000E+00  0.00000000E+00
  0.00000000E+00  0.00000000E+00  0.00000000E+00
  0.00000000E+00  0.00000000E+00  0.00000000E+00
  0.00000000E+00  0.00000000E+00  0.00000000E+00
  0.00000000E+00  0.00000000E+00  0.00000000E+00
  0.00000000E+00  0.00000000E+00  0.00000000E+00
  0.00000000E+00  0.00000000E+00  0.00000000E+00
  0.00000000E+00  0.00000000E+00  0.00000000E+00
  0.00000000E+00  0.00000000E+00  0.00000000E+00
  0.00000000E+00  0.00000000E+00  0.00000000E+00
