Cr1 C122 N4                             
   1.00000000000000     
    19.8353150981374107   -0.0000382803823846    0.0117850476678901
    -9.9176859956856909   17.0395256074530081   -0.0086377332823767
     0.0177098352320867   -0.0047764614531593   29.7718688203744613
   Cr   C    N 
     1   122     4
Direct
  0.4374889192274825  0.5000021403480350  0.4083823413389922
  0.0419973733174976  0.0840769981620077  0.3999473648824992
  0.0409932990638406  0.2081803546848432  0.4000040934052394
  0.0401167294675710  0.3329006362510107  0.3996756876038293
  0.0402335133704504  0.4581949487997148  0.3992336309081243
  0.0412394827447868  0.5837672659886887  0.3991524596973045
  0.0421150730105198  0.7092268467714300  0.3994115036465625
  0.0424489976436984  0.8344703004314834  0.3996107158005461
  0.0425050734447170  0.9596241976634940  0.3997229008231447
  0.1682043386851634  0.0858574660748961  0.4005627100641901
  0.1672014455357775  0.2100400299565011  0.4014196330546880
  0.1647036473103622  0.3335144589694701  0.4016493463030570
  0.1635721698707903  0.4584897544214649  0.4007515639291954
  0.1648010340717022  0.5837027835095228  0.3997313648223043
  0.1663037509465461  0.7090081457554790  0.3993786781311510
  0.1670363755602650  0.8344674907746993  0.3995909169235159
  0.1675531503711109  0.9600810839494697  0.3998752141288756
  0.2926740714020638  0.0858566531033257  0.4005395261536228
  0.2941599514396919  0.2133261404199104  0.4023448972342918
  0.2916111071445193  0.3381454993196085  0.4041014702997329
  0.2862807983334748  0.4577176082696041  0.4040814516127474
  0.2877458495558082  0.5831207542009845  0.4021128032740797
  0.2904520306004922  0.7084995764486618  0.4003340282235247
  0.2915795035653744  0.8339601477972197  0.3995572273467173
  0.2921386156297880  0.9596209003499387  0.3996781180670297
  0.4170948216435005  0.0840795985328704  0.3999386023158862
  0.4178410034877863  0.2100396976777730  0.4014050516777238
  0.4215145088375722  0.3381399781285519  0.4040730585798343
  0.4144573105753758  0.7065575574682068  0.4023944410528439
  0.4160382979353144  0.8323627774999091  0.4003937194618898
  0.4166490965940854  0.9582471518121186  0.3996312948515642
  0.5415723538735477  0.0825413837934207  0.3995962487679958
  0.5421895681807823  0.2081771880199836  0.3999953250714920
  0.5438017707724809  0.3335172898847922  0.4015696292808037
  0.5464160727576910  0.4577107933718316  0.4039952483704071
  0.5384152425171744  0.7018533183749975  0.4038669941012912
  0.5404669531792360  0.8301861334640579  0.4014949672315608
  0.5411073128251043  0.9566362419889144  0.4000444152244232
  0.6661424327743387  0.0819217415030353  0.3997388178569607
  0.6666267051638702  0.2073789616597279  0.3994753162438769
  0.6677687017569673  0.3328883126171366  0.3996079004715980
  0.6699098793431224  0.4584835240958750  0.4006219403968395
  0.6703511543943993  0.5831051211588153  0.4020076860079025
  0.6670825256754046  0.7065539620913173  0.4023523915172417
  0.6647200295408493  0.8301871470870532  0.4014787074821007
  0.6656151750184521  0.9562164308969205  0.4003124123867219
  0.7907980792281105  0.0819223444654528  0.3997016955093944
  0.7911493156243286  0.2072930604577594  0.3996082088871834
  0.7917850241016018  0.3326934673252014  0.3992650205568393
  0.7929406401302999  0.4581822287567690  0.3991551765134336
  0.7938929449868242  0.5837061439931405  0.3996140746357633
  0.7930404999301648  0.7085005993768325  0.4002749267136489
  0.7913315761555723  0.8323683378087685  0.4003852490954640
  0.7905469366179212  0.9566360984771161  0.4000131678492236
  0.9159889004400191  0.0825518409689706  0.3995696270172426
  0.9157617353278970  0.2073833640734414  0.3994666772110362
  0.9158931288517321  0.3326948191219243  0.3992781356520684
  0.9166156232866700  0.4582368632178366  0.3991110381198128
  0.9175181941262713  0.5837590700830068  0.3991204342343126
  0.9177100156011273  0.7090128346046901  0.3993453854296461
  0.9173995466857600  0.8339676102157193  0.3995793658774645
  0.9166140752714443  0.9582604791599071  0.3996401558482059
  0.0844733749275434  0.0433634010734114  0.4000439327120146
  0.0836735654703266  0.1676343830062176  0.4003851026811137
  0.0819506158194601  0.2915015826127385  0.4003240712254542
  0.0810939908128217  0.4162946149929169  0.3997218997746501
  0.0820336459036799  0.5418027581245142  0.3992383559208658
  0.0831948021702475  0.6673025494336711  0.3992859226187567
  0.0838519088609114  0.7927025377806358  0.3996120008264417
  0.0842197728688989  0.9180741394240565  0.3997378748073975
  0.2094003903009694  0.0437829123529054  0.4003112631399243
  0.2102827039321407  0.1698148234784873  0.4014880685956119
  0.2078990595013113  0.2934419066500769  0.4023821797701604
  0.2046272186504622  0.4168817925363485  0.4021043260058391
  0.2050813049721264  0.5415099231991101  0.4007571272165154
  0.2072151526143091  0.6670980020638633  0.3996891927151218
  0.2083757968411993  0.7926146783589939  0.3994737339767109
  0.2088745475308878  0.9180747950046546  0.3997019980619066
  0.3339114132810764  0.0433621934218719  0.4000129410942944
  0.3345322447573266  0.1698132833339089  0.4014729228176679
  0.3365643001447260  0.2981530761747720  0.4038569634875235
  0.3285636658568412  0.5422833511466364  0.4040864574238905
  0.3311913378991467  0.6664884019086869  0.4016616315122546
  0.3328141542887544  0.7918213340099175  0.4000130313763878
  0.3334381321283695  0.9174501514307171  0.3995686172116686
  0.4583538298667456  0.0417379169543047  0.3996360665029411
  0.4589674740854734  0.1676313852291815  0.4003769990463630
  0.4605275713356259  0.2934435624527529  0.4023429022236811
  0.4534718222140266  0.6618623926352312  0.4041114927334505
  0.4571676495359009  0.7899672551095335  0.4014319190881676
  0.4579193052880947  0.9159226165950303  0.3999528303963465
  0.5828794073186057  0.0403739261249185  0.3997224594223486
  0.5834290904952769  0.1660284189220980  0.3995738459638210
  0.5845407158617553  0.2914985876568646  0.4002647294077127
  0.5872485342256999  0.4168944004924117  0.4020015791342965
  0.5887078959898481  0.5422938417856148  0.4039996231643315
  0.5833792749381292  0.6618681072139097  0.4040848507426756
  0.5808390988110652  0.7866833455894967  0.4023533221246333
  0.5823449116881965  0.9141412352587384  0.4005657372967250
  0.7074700965056423  0.0399161837049811  0.3998744924670918
  0.7079757348343925  0.1655280660712121  0.3996094523726568
  0.7086965376514575  0.2909848291628073  0.3993400262904412
  0.7101924683971683  0.4162947142364584  0.3996089990841353
  0.7114312637415463  0.5415190554746362  0.4006244382724743
  0.7102888255002096  0.6664874427502371  0.4015807007134687
  0.7078024367380529  0.7899656996516653  0.4014140254192328
  0.7068157819998007  0.9141416504500496  0.4005425932570116
  0.8325172397780988  0.0403768116230903  0.3996771094432763
  0.8325661957050536  0.1655300633662379  0.3995886075709514
  0.8328840563146027  0.2907716672548282  0.3994066151737997
  0.8337582182740780  0.4162398388704081  0.3991157197595360
  0.8347599843452392  0.5418169801192159  0.3991565964274303
  0.8348797988449299  0.6671081148657213  0.3996129789290279
  0.8340130352011371  0.7918206117061739  0.4000027368962321
  0.8330167130785248  0.9159252746886908  0.3999435193574113
  0.9583998205209812  0.0417511846297559  0.3996307198127317
  0.9576164825984407  0.1660408413474191  0.3995528138572410
  0.9572898210235870  0.2909896881852295  0.3993680939842512
  0.9574658590312587  0.4162303348318439  0.3991464625677171
  0.9583744303871866  0.5417596397254280  0.3991140310454900
  0.9590903891925262  0.6673026434578109  0.3992690790586427
  0.9592458944206006  0.7926168066199638  0.3994783330406642
  0.9590278860300789  0.9174567044895255  0.3995994159486759
  0.4086890646136211  0.5821272185121907  0.4056293559632090
  0.5484141413268301  0.5821302898045063  0.4055882315497504
  0.3265633375529077  0.4178794331315245  0.4056239364779357
  0.4662873506777991  0.4178739720738254  0.4055807878631848
 
  0.00000000E+00  0.00000000E+00  0.00000000E+00
  0.00000000E+00  0.00000000E+00  0.00000000E+00
  0.00000000E+00  0.00000000E+00  0.00000000E+00
  0.00000000E+00  0.00000000E+00  0.00000000E+00
  0.00000000E+00  0.00000000E+00  0.00000000E+00
  0.00000000E+00  0.00000000E+00  0.00000000E+00
  0.00000000E+00  0.00000000E+00  0.00000000E+00
  0.00000000E+00  0.00000000E+00  0.00000000E+00
  0.00000000E+00  0.00000000E+00  0.00000000E+00
  0.00000000E+00  0.00000000E+00  0.00000000E+00
  0.00000000E+00  0.00000000E+00  0.00000000E+00
  0.00000000E+00  0.00000000E+00  0.00000000E+00
  0.00000000E+00  0.00000000E+00  0.00000000E+00
  0.00000000E+00  0.00000000E+00  0.00000000E+00
  0.00000000E+00  0.00000000E+00  0.00000000E+00
  0.00000000E+00  0.00000000E+00  0.00000000E+00
  0.00000000E+00  0.00000000E+00  0.00000000E+00
  0.00000000E+00  0.00000000E+00  0.00000000E+00
  0.00000000E+00  0.00000000E+00  0.00000000E+00
  0.00000000E+00  0.00000000E+00  0.00000000E+00
  0.00000000E+00  0.00000000E+00  0.00000000E+00
  0.00000000E+00  0.00000000E+00  0.00000000E+00
  0.00000000E+00  0.00000000E+00  0.00000000E+00
  0.00000000E+00  0.00000000E+00  0.00000000E+00
  0.00000000E+00  0.00000000E+00  0.00000000E+00
  0.00000000E+00  0.00000000E+00  0.00000000E+00
  0.00000000E+00  0.00000000E+00  0.00000000E+00
  0.00000000E+00  0.00000000E+00  0.00000000E+00
  0.00000000E+00  0.00000000E+00  0.00000000E+00
  0.00000000E+00  0.00000000E+00  0.00000000E+00
  0.00000000E+00  0.00000000E+00  0.00000000E+00
  0.00000000E+00  0.00000000E+00  0.00000000E+00
  0.00000000E+00  0.00000000E+00  0.00000000E+00
  0.00000000E+00  0.00000000E+00  0.00000000E+00
  0.00000000E+00  0.00000000E+00  0.00000000E+00
  0.00000000E+00  0.00000000E+00  0.00000000E+00
  0.00000000E+00  0.00000000E+00  0.00000000E+00
  0.00000000E+00  0.00000000E+00  0.00000000E+00
  0.00000000E+00  0.00000000E+00  0.00000000E+00
  0.00000000E+00  0.00000000E+00  0.00000000E+00
  0.00000000E+00  0.00000000E+00  0.00000000E+00
  0.00000000E+00  0.00000000E+00  0.00000000E+00
  0.00000000E+00  0.00000000E+00  0.00000000E+00
  0.00000000E+00  0.00000000E+00  0.00000000E+00
  0.00000000E+00  0.00000000E+00  0.00000000E+00
  0.00000000E+00  0.00000000E+00  0.00000000E+00
  0.00000000E+00  0.00000000E+00  0.00000000E+00
  0.00000000E+00  0.00000000E+00  0.00000000E+00
  0.00000000E+00  0.00000000E+00  0.00000000E+00
  0.00000000E+00  0.00000000E+00  0.00000000E+00
  0.00000000E+00  0.00000000E+00  0.00000000E+00
  0.00000000E+00  0.00000000E+00  0.00000000E+00
  0.00000000E+00  0.00000000E+00  0.00000000E+00
  0.00000000E+00  0.00000000E+00  0.00000000E+00
  0.00000000E+00  0.00000000E+00  0.00000000E+00
  0.00000000E+00  0.00000000E+00  0.00000000E+00
  0.00000000E+00  0.00000000E+00  0.00000000E+00
  0.00000000E+00  0.00000000E+00  0.00000000E+00
  0.00000000E+00  0.00000000E+00  0.00000000E+00
  0.00000000E+00  0.00000000E+00  0.00000000E+00
  0.00000000E+00  0.00000000E+00  0.00000000E+00
  0.00000000E+00  0.00000000E+00  0.00000000E+00
  0.00000000E+00  0.00000000E+00  0.00000000E+00
  0.00000000E+00  0.00000000E+00  0.00000000E+00
  0.00000000E+00  0.00000000E+00  0.00000000E+00
  0.00000000E+00  0.00000000E+00  0.00000000E+00
  0.00000000E+00  0.00000000E+00  0.00000000E+00
  0.00000000E+00  0.00000000E+00  0.00000000E+00
  0.00000000E+00  0.00000000E+00  0.00000000E+00
  0.00000000E+00  0.00000000E+00  0.00000000E+00
  0.00000000E+00  0.00000000E+00  0.00000000E+00
  0.00000000E+00  0.00000000E+00  0.00000000E+00
  0.00000000E+00  0.00000000E+00  0.00000000E+00
  0.00000000E+00  0.00000000E+00  0.00000000E+00
  0.00000000E+00  0.00000000E+00  0.00000000E+00
  0.00000000E+00  0.00000000E+00  0.00000000E+00
  0.00000000E+00  0.00000000E+00  0.00000000E+00
  0.00000000E+00  0.00000000E+00  0.00000000E+00
  0.00000000E+00  0.00000000E+00  0.00000000E+00
  0.00000000E+00  0.00000000E+00  0.00000000E+00
  0.00000000E+00  0.00000000E+00  0.00000000E+00
  0.00000000E+00  0.00000000E+00  0.00000000E+00
  0.00000000E+00  0.00000000E+00  0.00000000E+00
  0.00000000E+00  0.00000000E+00  0.00000000E+00
  0.00000000E+00  0.00000000E+00  0.00000000E+00
  0.00000000E+00  0.00000000E+00  0.00000000E+00
  0.00000000E+00  0.00000000E+00  0.00000000E+00
  0.00000000E+00  0.00000000E+00  0.00000000E+00
  0.00000000E+00  0.00000000E+00  0.00000000E+00
  0.00000000E+00  0.00000000E+00  0.00000000E+00
  0.00000000E+00  0.00000000E+00  0.00000000E+00
  0.00000000E+00  0.00000000E+00  0.00000000E+00
  0.00000000E+00  0.00000000E+00  0.00000000E+00
  0.00000000E+00  0.00000000E+00  0.00000000E+00
  0.00000000E+00  0.00000000E+00  0.00000000E+00
  0.00000000E+00  0.00000000E+00  0.00000000E+00
  0.00000000E+00  0.00000000E+00  0.00000000E+00
  0.00000000E+00  0.00000000E+00  0.00000000E+00
  0.00000000E+00  0.00000000E+00  0.00000000E+00
  0.00000000E+00  0.00000000E+00  0.00000000E+00
  0.00000000E+00  0.00000000E+00  0.00000000E+00
  0.00000000E+00  0.00000000E+00  0.00000000E+00
  0.00000000E+00  0.00000000E+00  0.00000000E+00
  0.00000000E+00  0.00000000E+00  0.00000000E+00
  0.00000000E+00  0.00000000E+00  0.00000000E+00
  0.00000000E+00  0.00000000E+00  0.00000000E+00
  0.00000000E+00  0.00000000E+00  0.00000000E+00
  0.00000000E+00  0.00000000E+00  0.00000000E+00
  0.00000000E+00  0.00000000E+00  0.00000000E+00
  0.00000000E+00  0.00000000E+00  0.00000000E+00
  0.00000000E+00  0.00000000E+00  0.00000000E+00
  0.00000000E+00  0.00000000E+00  0.00000000E+00
  0.00000000E+00  0.00000000E+00  0.00000000E+00
  0.00000000E+00  0.00000000E+00  0.00000000E+00
  0.00000000E+00  0.00000000E+00  0.00000000E+00
  0.00000000E+00  0.00000000E+00  0.00000000E+00
  0.00000000E+00  0.00000000E+00  0.00000000E+00
  0.00000000E+00  0.00000000E+00  0.00000000E+00
  0.00000000E+00  0.00000000E+00  0.00000000E+00
  0.00000000E+00  0.00000000E+00  0.00000000E+00
  0.00000000E+00  0.00000000E+00  0.00000000E+00
  0.00000000E+00  0.00000000E+00  0.00000000E+00
  0.00000000E+00  0.00000000E+00  0.00000000E+00
  0.00000000E+00  0.00000000E+00  0.00000000E+00
  0.00000000E+00  0.00000000E+00  0.00000000E+00
  0.00000000E+00  0.00000000E+00  0.00000000E+00
  0.00000000E+00  0.00000000E+00  0.00000000E+00
