Ti1 C125 N1                             
   1.00000000000000     
    19.8067205365406949   -0.0105876981417307    0.0040639017527631
    -9.9125550705822754   17.0732576652268513   -0.0045494277694999
     0.0061526547245803   -0.0044619095538402   29.7651422804114674
   Ti   C    N 
     1   125     1
Direct
  0.4383064817019647  0.5001531563731806  0.4293392812463548
  0.0418374794047934  0.0837859829977410  0.3999413388610797
  0.0414000809519941  0.2083754229587284  0.3997708098016289
  0.0409628094377092  0.3330876144647102  0.3997866791511479
  0.0409202686096259  0.4583097223410421  0.3998753751024338
  0.0414015611516604  0.5835793466691781  0.4000763022771434
  0.0418333386596234  0.7087442941114934  0.4000442815327219
  0.0420150693232172  0.8339148774658399  0.4000353829870159
  0.0420342754218369  0.9589795532036564  0.4000678849479730
  0.1672378055400944  0.0844895869310754  0.3998530513091283
  0.1671026999922453  0.2094648957148890  0.3997018684564742
  0.1662176706446494  0.3339437447459722  0.3998264844054099
  0.1650119247015557  0.4585185845282759  0.3997208014169218
  0.1655518231845484  0.5836301404048434  0.3996481752334463
  0.1663381336800357  0.7087983958879159  0.4000057828445914
  0.1668001394603114  0.8339592736691016  0.4000154252008801
  0.1670414779584020  0.9591853634766874  0.4000070326338628
  0.2921584888360363  0.0843979880464100  0.3998578164967850
  0.2928189570071238  0.2105585689756227  0.4002005859284476
  0.2928160573061765  0.3364891961223825  0.4011745879499918
  0.2897183146548886  0.4591921968642046  0.4014937262707064
  0.2894648115395169  0.5842368001012287  0.4000020222251044
  0.2908466965938730  0.7089888284644099  0.3996809398872272
  0.2915537195859487  0.8338614298171797  0.4000046902706647
  0.2918043426585001  0.9589334287752675  0.4000195381367174
  0.4168530022018072  0.0835118738236286  0.3999396080196096
  0.4172599957449305  0.2088939666868302  0.3995966085849523
  0.4187584939949506  0.3355272803841864  0.4016644818301533
  0.4151500731457095  0.7073521631706604  0.3999362334154011
  0.4162446341041735  0.8329713526814083  0.3997001949057301
  0.4166215022414538  0.9582735148918919  0.4000817402758179
  0.5416203553930996  0.0827777737262661  0.4000991801772050
  0.5419956094697345  0.2078780616915006  0.3997562910689815
  0.5427513222485949  0.3329003337112695  0.3998112059342288
  0.5447118940102395  0.4573058087142836  0.4020641879984989
  0.5438824792020156  0.5808482383230764  0.4026643834525415
  0.5389488120757772  0.7045359585755144  0.4014336858164127
  0.5407363982404251  0.8317496472578336  0.3998799612666606
  0.5413730134502714  0.9575030333894483  0.3999374899663879
  0.6664082480893699  0.0825585192555333  0.4000308446100782
  0.6667145641393607  0.2077055330754085  0.4000486752986201
  0.6672739010903237  0.3327763800657196  0.3997489047442268
  0.6687645936971306  0.4581061744057315  0.3997136619618386
  0.6694286771308877  0.5835536541981446  0.4001599631746606
  0.6663174423388685  0.7070722550902321  0.3999151874669826
  0.6652607941406949  0.8314141902202322  0.3999004901586851
  0.6660162403341842  0.9572006576435812  0.3999344584968763
  0.7912123691445951  0.0825756674164670  0.4000168572888286
  0.7914366925094761  0.2077175192618823  0.4000081827743541
  0.7918592670028419  0.3329184909091764  0.4000456005811595
  0.7926236385260442  0.4582236718521628  0.3998286151270220
  0.7931161001991118  0.5834765639737923  0.3996588533063121
  0.7925896996541083  0.7086714532241156  0.3996353355351175
  0.7913595208155634  0.8328423594446688  0.3997329468794229
  0.7909111382146057  0.9573751826235902  0.3999055946766452
  0.9163031852421378  0.0829499932700421  0.4000533533468254
  0.9162479950246009  0.2078646461764132  0.4000345590288713
  0.9163506271089662  0.3329760868807463  0.4000630577199593
  0.9167248977955564  0.4582076965569636  0.4001125016768753
  0.9172418595105855  0.5835446342140715  0.4000334352323457
  0.9172787130282545  0.7087786277629476  0.3999733581805832
  0.9170548245312552  0.8337146737186584  0.4000046867769000
  0.9165841092259109  0.9583114625170103  0.4000675330847644
  0.0837717276022339  0.0424619362463551  0.3999462356144475
  0.0835370176184599  0.1672391143812494  0.3997523548167588
  0.0827981321800789  0.2917428170875438  0.3996840389537571
  0.0821841185011090  0.4165792622759735  0.3996816724852812
  0.0825385438395151  0.5417581868436004  0.3998832065357553
  0.0831673273561759  0.6670102591028647  0.4000646211710602
  0.0835503663311358  0.7922352418590854  0.4000032312482667
  0.0836702776579629  0.9173523812148571  0.4000433094302512
  0.2087483820051645  0.0426067959073665  0.3999338315858123
  0.2090013581942855  0.1680873508384170  0.3998435281777197
  0.2088344114712331  0.2931827185424579  0.3998917355589583
  0.2066337250782990  0.4173134998851050  0.4002120001740276
  0.2064542771917685  0.5418506551053153  0.3995906556125720
  0.2076212086260956  0.6671334082155551  0.3997916884048390
  0.2082769792223403  0.7922393343529067  0.4000416908677929
  0.2085680936259571  0.9173709806640299  0.4000148915712567
  0.3335620774188447  0.0423495660005654  0.3999243936733578
  0.3340122570240794  0.1679025168292116  0.3998378902863703
  0.3346143577116651  0.2939847089258169  0.4013715547266418
  0.3324162455750239  0.4196858643657562  0.4029477482946767
  0.3311066609250909  0.5439466487776152  0.4017081707731519
  0.3320129432260340  0.6673245650367988  0.3997753607109476
  0.3330382541246772  0.7921696587577056  0.3997968244241348
  0.3333730363568001  0.9171480747911230  0.4000618171799476
  0.4584017590866280  0.0416016355700003  0.4001002256663677
  0.4586619229198359  0.1668311633071489  0.3996950181892622
  0.4593911216359531  0.2923669527916720  0.3998905788386148
  0.4627121822298508  0.4182075669952601  0.4043968440110453
  0.4547192570783067  0.6633393621529742  0.4016997706583904
  0.4576143858753721  0.7908454633120030  0.3996221508838569
  0.4581087592518331  0.9163411029067571  0.3999253517824398
  0.5831571377621106  0.0409558855089591  0.4000545943137916
  0.5834565537637877  0.1661315462926718  0.4000072656425437
  0.5840614744946439  0.2910899582436641  0.3996297600142993
  0.5858162925364119  0.4160337307951597  0.4003337658671878
  0.5870514757445343  0.5420282172524866  0.4014438539210530
  0.5820699171972270  0.6633164767788809  0.4011882978724816
  0.5812118743479366  0.7886160786329011  0.4002878132056737
  0.5827270949507330  0.9154279476370819  0.3998672222740469
  0.7078546562724966  0.0407182779329600  0.4000019789483790
  0.7082142879183441  0.1659963670259044  0.4000322785417845
  0.7086074374152775  0.2911121506551669  0.3999934063195285
  0.7096208339198370  0.4163634301383531  0.3996083092289450
  0.7104672129204813  0.5416343800278796  0.3997465079913966
  0.7093163507795501  0.6667137889665173  0.3997628122042847
  0.7077202484311599  0.7905516806773651  0.3997316180352516
  0.7072847615600478  0.9151366223849545  0.3998580631265458
  0.8328022853885135  0.0409387116566541  0.4000153091393362
  0.8329444696313587  0.1660276565535468  0.4000243639130882
  0.8332142484509957  0.2912003876170881  0.4000439504616377
  0.8337278166711533  0.4163831715701555  0.4000413763499712
  0.8342692522917268  0.5416637399197509  0.3998370447817548
  0.8342201291484830  0.6670658038089153  0.3997470428929844
  0.8337181457711251  0.7918682577879427  0.3997561323357570
  0.8330211385358767  0.9162589551123104  0.3999128815606632
  0.9582934538844141  0.0417218541100177  0.4000675517307782
  0.9580034547403765  0.1663924766980157  0.3999739405233217
  0.9578261904779325  0.2912767911058581  0.3999876133278569
  0.9579101192746574  0.4164235814488158  0.4000679732510395
  0.9584248302906652  0.5417475796736058  0.4001135485980533
  0.9587374384063120  0.6670074850098145  0.4000365648207778
  0.9587664334320816  0.7921919228721961  0.4000432383169614
  0.9586068547340624  0.9170948213737941  0.4000975931735568
  0.4110958498899378  0.5825629777913957  0.4042151605930842
 
  0.00000000E+00  0.00000000E+00  0.00000000E+00
  0.00000000E+00  0.00000000E+00  0.00000000E+00
  0.00000000E+00  0.00000000E+00  0.00000000E+00
  0.00000000E+00  0.00000000E+00  0.00000000E+00
  0.00000000E+00  0.00000000E+00  0.00000000E+00
  0.00000000E+00  0.00000000E+00  0.00000000E+00
  0.00000000E+00  0.00000000E+00  0.00000000E+00
  0.00000000E+00  0.00000000E+00  0.00000000E+00
  0.00000000E+00  0.00000000E+00  0.00000000E+00
  0.00000000E+00  0.00000000E+00  0.00000000E+00
  0.00000000E+00  0.00000000E+00  0.00000000E+00
  0.00000000E+00  0.00000000E+00  0.00000000E+00
  0.00000000E+00  0.00000000E+00  0.00000000E+00
  0.00000000E+00  0.00000000E+00  0.00000000E+00
  0.00000000E+00  0.00000000E+00  0.00000000E+00
  0.00000000E+00  0.00000000E+00  0.00000000E+00
  0.00000000E+00  0.00000000E+00  0.00000000E+00
  0.00000000E+00  0.00000000E+00  0.00000000E+00
  0.00000000E+00  0.00000000E+00  0.00000000E+00
  0.00000000E+00  0.00000000E+00  0.00000000E+00
  0.00000000E+00  0.00000000E+00  0.00000000E+00
  0.00000000E+00  0.00000000E+00  0.00000000E+00
  0.00000000E+00  0.00000000E+00  0.00000000E+00
  0.00000000E+00  0.00000000E+00  0.00000000E+00
  0.00000000E+00  0.00000000E+00  0.00000000E+00
  0.00000000E+00  0.00000000E+00  0.00000000E+00
  0.00000000E+00  0.00000000E+00  0.00000000E+00
  0.00000000E+00  0.00000000E+00  0.00000000E+00
  0.00000000E+00  0.00000000E+00  0.00000000E+00
  0.00000000E+00  0.00000000E+00  0.00000000E+00
  0.00000000E+00  0.00000000E+00  0.00000000E+00
  0.00000000E+00  0.00000000E+00  0.00000000E+00
  0.00000000E+00  0.00000000E+00  0.00000000E+00
  0.00000000E+00  0.00000000E+00  0.00000000E+00
  0.00000000E+00  0.00000000E+00  0.00000000E+00
  0.00000000E+00  0.00000000E+00  0.00000000E+00
  0.00000000E+00  0.00000000E+00  0.00000000E+00
  0.00000000E+00  0.00000000E+00  0.00000000E+00
  0.00000000E+00  0.00000000E+00  0.00000000E+00
  0.00000000E+00  0.00000000E+00  0.00000000E+00
  0.00000000E+00  0.00000000E+00  0.00000000E+00
  0.00000000E+00  0.00000000E+00  0.00000000E+00
  0.00000000E+00  0.00000000E+00  0.00000000E+00
  0.00000000E+00  0.00000000E+00  0.00000000E+00
  0.00000000E+00  0.00000000E+00  0.00000000E+00
  0.00000000E+00  0.00000000E+00  0.00000000E+00
  0.00000000E+00  0.00000000E+00  0.00000000E+00
  0.00000000E+00  0.00000000E+00  0.00000000E+00
  0.00000000E+00  0.00000000E+00  0.00000000E+00
  0.00000000E+00  0.00000000E+00  0.00000000E+00
  0.00000000E+00  0.00000000E+00  0.00000000E+00
  0.00000000E+00  0.00000000E+00  0.00000000E+00
  0.00000000E+00  0.00000000E+00  0.00000000E+00
  0.00000000E+00  0.00000000E+00  0.00000000E+00
  0.00000000E+00  0.00000000E+00  0.00000000E+00
  0.00000000E+00  0.00000000E+00  0.00000000E+00
  0.00000000E+00  0.00000000E+00  0.00000000E+00
  0.00000000E+00  0.00000000E+00  0.00000000E+00
  0.00000000E+00  0.00000000E+00  0.00000000E+00
  0.00000000E+00  0.00000000E+00  0.00000000E+00
  0.00000000E+00  0.00000000E+00  0.00000000E+00
  0.00000000E+00  0.00000000E+00  0.00000000E+00
  0.00000000E+00  0.00000000E+00  0.00000000E+00
  0.00000000E+00  0.00000000E+00  0.00000000E+00
  0.00000000E+00  0.00000000E+00  0.00000000E+00
  0.00000000E+00  0.00000000E+00  0.00000000E+00
  0.00000000E+00  0.00000000E+00  0.00000000E+00
  0.00000000E+00  0.00000000E+00  0.00000000E+00
  0.00000000E+00  0.00000000E+00  0.00000000E+00
  0.00000000E+00  0.00000000E+00  0.00000000E+00
  0.00000000E+00  0.00000000E+00  0.00000000E+00
  0.00000000E+00  0.00000000E+00  0.00000000E+00
  0.00000000E+00  0.00000000E+00  0.00000000E+00
  0.00000000E+00  0.00000000E+00  0.00000000E+00
  0.00000000E+00  0.00000000E+00  0.00000000E+00
  0.00000000E+00  0.00000000E+00  0.00000000E+00
  0.00000000E+00  0.00000000E+00  0.00000000E+00
  0.00000000E+00  0.00000000E+00  0.00000000E+00
  0.00000000E+00  0.00000000E+00  0.00000000E+00
  0.00000000E+00  0.00000000E+00  0.00000000E+00
  0.00000000E+00  0.00000000E+00  0.00000000E+00
  0.00000000E+00  0.00000000E+00  0.00000000E+00
  0.00000000E+00  0.00000000E+00  0.00000000E+00
  0.00000000E+00  0.00000000E+00  0.00000000E+00
  0.00000000E+00  0.00000000E+00  0.00000000E+00
  0.00000000E+00  0.00000000E+00  0.00000000E+00
  0.00000000E+00  0.00000000E+00  0.00000000E+00
  0.00000000E+00  0.00000000E+00  0.00000000E+00
  0.00000000E+00  0.00000000E+00  0.00000000E+00
  0.00000000E+00  0.00000000E+00  0.00000000E+00
  0.00000000E+00  0.00000000E+00  0.00000000E+00
  0.00000000E+00  0.00000000E+00  0.00000000E+00
  0.00000000E+00  0.00000000E+00  0.00000000E+00
  0.00000000E+00  0.00000000E+00  0.00000000E+00
  0.00000000E+00  0.00000000E+00  0.00000000E+00
  0.00000000E+00  0.00000000E+00  0.00000000E+00
  0.00000000E+00  0.00000000E+00  0.00000000E+00
  0.00000000E+00  0.00000000E+00  0.00000000E+00
  0.00000000E+00  0.00000000E+00  0.00000000E+00
  0.00000000E+00  0.00000000E+00  0.00000000E+00
  0.00000000E+00  0.00000000E+00  0.00000000E+00
  0.00000000E+00  0.00000000E+00  0.00000000E+00
  0.00000000E+00  0.00000000E+00  0.00000000E+00
  0.00000000E+00  0.00000000E+00  0.00000000E+00
  0.00000000E+00  0.00000000E+00  0.00000000E+00
  0.00000000E+00  0.00000000E+00  0.00000000E+00
  0.00000000E+00  0.00000000E+00  0.00000000E+00
  0.00000000E+00  0.00000000E+00  0.00000000E+00
  0.00000000E+00  0.00000000E+00  0.00000000E+00
  0.00000000E+00  0.00000000E+00  0.00000000E+00
  0.00000000E+00  0.00000000E+00  0.00000000E+00
  0.00000000E+00  0.00000000E+00  0.00000000E+00
  0.00000000E+00  0.00000000E+00  0.00000000E+00
  0.00000000E+00  0.00000000E+00  0.00000000E+00
  0.00000000E+00  0.00000000E+00  0.00000000E+00
  0.00000000E+00  0.00000000E+00  0.00000000E+00
  0.00000000E+00  0.00000000E+00  0.00000000E+00
  0.00000000E+00  0.00000000E+00  0.00000000E+00
  0.00000000E+00  0.00000000E+00  0.00000000E+00
  0.00000000E+00  0.00000000E+00  0.00000000E+00
  0.00000000E+00  0.00000000E+00  0.00000000E+00
  0.00000000E+00  0.00000000E+00  0.00000000E+00
  0.00000000E+00  0.00000000E+00  0.00000000E+00
  0.00000000E+00  0.00000000E+00  0.00000000E+00
  0.00000000E+00  0.00000000E+00  0.00000000E+00
  0.00000000E+00  0.00000000E+00  0.00000000E+00
  0.00000000E+00  0.00000000E+00  0.00000000E+00
