Ta1 H1 C124 N2 O2                       
   1.00000000000000     
    19.7975983499096380   -0.0187431140095153   -0.1907393750092403
    -9.9158038376723336   17.0625253984289564   -0.0617553368608399
    -0.2869380310194664   -0.2746481904548607   29.8100332123103655
   Ta   H    C    N    O 
     1     1   124     2     2
Direct
  0.4328346112977964  0.5012157841279854  0.4343869075704078
  0.5395943438603963  0.5581538898235436  0.5046484774164546
  0.0422233581568019  0.0840006882672532  0.3995735945514612
  0.0418891871864781  0.2086453188446095  0.3994932493717606
  0.0412849683234234  0.3333482386609523  0.3995898921284967
  0.0411348921471608  0.4584963797965141  0.3994309460784531
  0.0416174332723988  0.5838550378547964  0.3995467827480944
  0.0421103277624026  0.7091727583004512  0.3999302550361193
  0.0422833780825390  0.8342749940026876  0.3999699319143539
  0.0423978983946404  0.9593440282285486  0.3996906417737829
  0.1681155768278232  0.0852861396362732  0.3996578028720528
  0.1677571765660192  0.2099363131483550  0.3997127361422004
  0.1667486892514954  0.3343672659075389  0.4004347497264367
  0.1653233368967016  0.4588863290379547  0.4011470343924566
  0.1657459595834915  0.5840642390281887  0.4000057438923319
  0.1665723170814900  0.7091808857540877  0.3996415006482341
  0.1670744359222523  0.8343784080009741  0.3998447671565520
  0.1674578265832218  0.9596928813898239  0.3997350633229724
  0.2926794199726577  0.0850266552617877  0.3998080150285357
  0.2942004202024697  0.2116324534292045  0.4009288516748424
  0.2932985801532020  0.3364734028033247  0.4009786179120222
  0.2901613461390886  0.4601066505507536  0.4023974252469744
  0.2895926051408450  0.5845878845769354  0.4025533287937838
  0.2910852686394228  0.7092002384253553  0.4002561764806558
  0.2918246257988448  0.8342593081499112  0.3995309156762774
  0.2922138856248880  0.9594704926450998  0.3995466792238221
  0.4173120255272761  0.0841374997405784  0.3995443679544371
  0.4178602379692355  0.2098955077596787  0.4004185508761834
  0.4206951093601175  0.3375444716555845  0.4041468313442918
  0.4154702420768527  0.7077628163159938  0.4010172589248299
  0.4164204776363436  0.8332377674659317  0.3996057130046011
  0.4169340236928867  0.9586682609711445  0.3994706479367931
  0.5419770263530160  0.0829737705475726  0.3996602915677346
  0.5424153133416030  0.2081529470601213  0.3998337149294953
  0.5435041554817532  0.3330615036753077  0.4013684833352308
  0.5452228411268157  0.4568822247623659  0.4046337312911370
  0.5426052802515683  0.5792525872361500  0.4062533614247084
  0.5390633830892347  0.7045270564160727  0.4024560224158895
  0.5409803470267988  0.8317657921670450  0.3999222581708262
  0.5416010639988397  0.9575793889505447  0.3995235465842235
  0.6667092921782832  0.0825441136336458  0.3998916259012140
  0.6671101542119822  0.2077880885994853  0.3999036638852033
  0.6678380439786520  0.3330096963256448  0.3998482124766993
  0.6690193339120313  0.4582529793019442  0.4001411722794446
  0.6687722043685650  0.5825094436555115  0.4006756024712477
  0.6654722645736098  0.7059592431333271  0.4000216019822857
  0.6651779173720237  0.8310967083298053  0.3997246788459956
  0.6661842456756450  0.9570726135526813  0.3996167509840163
  0.7914738190728875  0.0824951889595300  0.3997666234191329
  0.7917816048536761  0.2077472635186873  0.3999214222454903
  0.7922503043558893  0.3330015246247632  0.3998106992282033
  0.7928798325809666  0.4582774311912878  0.3995200230878223
  0.7932569362772750  0.5834917691194181  0.3991799304260139
  0.7921330444827704  0.7080740620719095  0.3990646777263915
  0.7909499292747770  0.8321697569209565  0.3990750149523919
  0.7909925128770006  0.9570965481719661  0.3994226045868940
  0.9165586654719018  0.0829299482408753  0.3995650493700049
  0.9165397837549809  0.2078682997386096  0.3995263915512907
  0.9166442626372632  0.3330535894025813  0.3994887285121958
  0.9170264441772762  0.4584247493238556  0.3995901112637268
  0.9174843369321259  0.5837609624230085  0.3996833011401971
  0.9173682346219957  0.7088445028838011  0.3996030907537707
  0.9170298929844758  0.8336313023449432  0.3994428774153205
  0.9166465445207637  0.9581745361627447  0.3995097464602194
  0.0844007423893395  0.0429734218568774  0.3995824705912124
  0.0840720823904564  0.1675609872531252  0.3995568326275230
  0.0833163603078067  0.2920785019417595  0.3997539242100059
  0.0823297526087961  0.4167048478991195  0.3998400574439683
  0.0827036282773163  0.5420471593006300  0.3994980411745536
  0.0833818861804538  0.6673704965945813  0.3997009706551024
  0.0838341818904404  0.7926070795292104  0.4000126672746103
  0.0840909423328080  0.9177640127969010  0.3998264521746728
  0.2093759375312207  0.0432291678447595  0.3996948482395695
  0.2102853028349094  0.1690279774292803  0.3999634121044131
  0.2092645572070141  0.2933404108549921  0.3999221547619032
  0.2069539348882961  0.4177716381309493  0.4018604326729495
  0.2066001425446139  0.5422151581118136  0.4012756343115289
  0.2077232911892141  0.6674439301108229  0.3998829847300870
  0.2085122938901252  0.7926991418883924  0.3996810806722539
  0.2089376856499711  0.9178932900223107  0.3997277910257739
  0.3340460412192888  0.0429821307319049  0.3995645427974837
  0.3346955917049924  0.1687282774641939  0.4004460383514000
  0.3367301767218564  0.2959262460790344  0.4024203531850688
  0.3323290267983933  0.4189959743494560  0.4022422200974589
  0.3306558303204888  0.5439580794843736  0.4034656388991357
  0.3321719444041631  0.6676990362333062  0.4014456105401452
  0.3332354365490086  0.7925047331900971  0.3996939723279649
  0.3336786998293234  0.9176155260673565  0.3994779193242569
  0.4587465647759349  0.0420832133529954  0.3995272149020762
  0.4591863399928125  0.1676120060396111  0.3997935431451956
  0.4603419179771051  0.2935710053302170  0.4017425205661863
  0.4558568012669164  0.6648945393954843  0.4028283355763604
  0.4578244188751232  0.7911167606456686  0.3999278640058029
  0.4583347380617817  0.9166457019900764  0.3994678798871893
  0.5834157506602822  0.0410459103759875  0.3996948914453997
  0.5838021203369360  0.1663020050653890  0.3997380964366205
  0.5845384740378523  0.2913537320609137  0.4001903616565822
  0.5860531800160947  0.4160812775360845  0.4018405956146179
  0.5862962045665068  0.5404852694592067  0.4036539974505743
  0.5812174010202663  0.6620921009817454  0.4028192918645817
  0.5814913197645346  0.7887652490087491  0.4005818974180888
  0.5829567746546778  0.9154719154447815  0.3995841120855711
  0.7080945234704308  0.0406342191925327  0.3997849038929773
  0.7085472211153900  0.1660440841364185  0.3999969761812433
  0.7090376685988228  0.2912761853343726  0.3998436876662336
  0.7098542086256807  0.4163790895088307  0.3996386774006641
  0.7104203647432077  0.5413760071121363  0.3997469945120009
  0.7086824859110754  0.6657569771967597  0.3996893194787609
  0.7071857339478406  0.7896409280069014  0.3993085938305078
  0.7073434287995504  0.9148559346665494  0.3994941959842970
  0.8330596841207315  0.0407856924243890  0.3995945781949633
  0.8332764881930919  0.1659975265222238  0.3997828881951173
  0.8335122192057638  0.2911837205019473  0.3997739692967208
  0.8340013454282953  0.4164808609347860  0.3996954934992112
  0.8345012152448938  0.5417791477395333  0.3994228890095426
  0.8342134422009417  0.6668503038235157  0.3991802682014436
  0.8334584184090975  0.7913822213716858  0.3990825187438929
  0.8329454413672536  0.9158474108098216  0.3993195385993576
  0.9585921009082717  0.0417135271857025  0.3995817983344341
  0.9583753719820037  0.1664594915145391  0.3994683174511323
  0.9581447014225682  0.2913762268814667  0.3994121298968835
  0.9581659284220152  0.4165685403499721  0.3994101632040483
  0.9586289929213728  0.5419019493508158  0.3996461060161815
  0.9589561622912303  0.6672220033212578  0.3998209075932882
  0.9589659205969604  0.7923473660018189  0.3997345806208696
  0.9588490131214589  0.9171557489640730  0.3995775615406037
  0.4121439583657290  0.5837583287922141  0.4061704192794319
  0.4648338190127600  0.4190815060846639  0.4082669628906851
  0.4988900407214695  0.5038543105639937  0.4973514464215823
  0.4252346242378668  0.5073621978469077  0.5012739943109595
 
  0.00000000E+00  0.00000000E+00  0.00000000E+00
  0.00000000E+00  0.00000000E+00  0.00000000E+00
  0.00000000E+00  0.00000000E+00  0.00000000E+00
  0.00000000E+00  0.00000000E+00  0.00000000E+00
  0.00000000E+00  0.00000000E+00  0.00000000E+00
  0.00000000E+00  0.00000000E+00  0.00000000E+00
  0.00000000E+00  0.00000000E+00  0.00000000E+00
  0.00000000E+00  0.00000000E+00  0.00000000E+00
  0.00000000E+00  0.00000000E+00  0.00000000E+00
  0.00000000E+00  0.00000000E+00  0.00000000E+00
  0.00000000E+00  0.00000000E+00  0.00000000E+00
  0.00000000E+00  0.00000000E+00  0.00000000E+00
  0.00000000E+00  0.00000000E+00  0.00000000E+00
  0.00000000E+00  0.00000000E+00  0.00000000E+00
  0.00000000E+00  0.00000000E+00  0.00000000E+00
  0.00000000E+00  0.00000000E+00  0.00000000E+00
  0.00000000E+00  0.00000000E+00  0.00000000E+00
  0.00000000E+00  0.00000000E+00  0.00000000E+00
  0.00000000E+00  0.00000000E+00  0.00000000E+00
  0.00000000E+00  0.00000000E+00  0.00000000E+00
  0.00000000E+00  0.00000000E+00  0.00000000E+00
  0.00000000E+00  0.00000000E+00  0.00000000E+00
  0.00000000E+00  0.00000000E+00  0.00000000E+00
  0.00000000E+00  0.00000000E+00  0.00000000E+00
  0.00000000E+00  0.00000000E+00  0.00000000E+00
  0.00000000E+00  0.00000000E+00  0.00000000E+00
  0.00000000E+00  0.00000000E+00  0.00000000E+00
  0.00000000E+00  0.00000000E+00  0.00000000E+00
  0.00000000E+00  0.00000000E+00  0.00000000E+00
  0.00000000E+00  0.00000000E+00  0.00000000E+00
  0.00000000E+00  0.00000000E+00  0.00000000E+00
  0.00000000E+00  0.00000000E+00  0.00000000E+00
  0.00000000E+00  0.00000000E+00  0.00000000E+00
  0.00000000E+00  0.00000000E+00  0.00000000E+00
  0.00000000E+00  0.00000000E+00  0.00000000E+00
  0.00000000E+00  0.00000000E+00  0.00000000E+00
  0.00000000E+00  0.00000000E+00  0.00000000E+00
  0.00000000E+00  0.00000000E+00  0.00000000E+00
  0.00000000E+00  0.00000000E+00  0.00000000E+00
  0.00000000E+00  0.00000000E+00  0.00000000E+00
  0.00000000E+00  0.00000000E+00  0.00000000E+00
  0.00000000E+00  0.00000000E+00  0.00000000E+00
  0.00000000E+00  0.00000000E+00  0.00000000E+00
  0.00000000E+00  0.00000000E+00  0.00000000E+00
  0.00000000E+00  0.00000000E+00  0.00000000E+00
  0.00000000E+00  0.00000000E+00  0.00000000E+00
  0.00000000E+00  0.00000000E+00  0.00000000E+00
  0.00000000E+00  0.00000000E+00  0.00000000E+00
  0.00000000E+00  0.00000000E+00  0.00000000E+00
  0.00000000E+00  0.00000000E+00  0.00000000E+00
  0.00000000E+00  0.00000000E+00  0.00000000E+00
  0.00000000E+00  0.00000000E+00  0.00000000E+00
  0.00000000E+00  0.00000000E+00  0.00000000E+00
  0.00000000E+00  0.00000000E+00  0.00000000E+00
  0.00000000E+00  0.00000000E+00  0.00000000E+00
  0.00000000E+00  0.00000000E+00  0.00000000E+00
  0.00000000E+00  0.00000000E+00  0.00000000E+00
  0.00000000E+00  0.00000000E+00  0.00000000E+00
  0.00000000E+00  0.00000000E+00  0.00000000E+00
  0.00000000E+00  0.00000000E+00  0.00000000E+00
  0.00000000E+00  0.00000000E+00  0.00000000E+00
  0.00000000E+00  0.00000000E+00  0.00000000E+00
  0.00000000E+00  0.00000000E+00  0.00000000E+00
  0.00000000E+00  0.00000000E+00  0.00000000E+00
  0.00000000E+00  0.00000000E+00  0.00000000E+00
  0.00000000E+00  0.00000000E+00  0.00000000E+00
  0.00000000E+00  0.00000000E+00  0.00000000E+00
  0.00000000E+00  0.00000000E+00  0.00000000E+00
  0.00000000E+00  0.00000000E+00  0.00000000E+00
  0.00000000E+00  0.00000000E+00  0.00000000E+00
  0.00000000E+00  0.00000000E+00  0.00000000E+00
  0.00000000E+00  0.00000000E+00  0.00000000E+00
  0.00000000E+00  0.00000000E+00  0.00000000E+00
  0.00000000E+00  0.00000000E+00  0.00000000E+00
  0.00000000E+00  0.00000000E+00  0.00000000E+00
  0.00000000E+00  0.00000000E+00  0.00000000E+00
  0.00000000E+00  0.00000000E+00  0.00000000E+00
  0.00000000E+00  0.00000000E+00  0.00000000E+00
  0.00000000E+00  0.00000000E+00  0.00000000E+00
  0.00000000E+00  0.00000000E+00  0.00000000E+00
  0.00000000E+00  0.00000000E+00  0.00000000E+00
  0.00000000E+00  0.00000000E+00  0.00000000E+00
  0.00000000E+00  0.00000000E+00  0.00000000E+00
  0.00000000E+00  0.00000000E+00  0.00000000E+00
  0.00000000E+00  0.00000000E+00  0.00000000E+00
  0.00000000E+00  0.00000000E+00  0.00000000E+00
  0.00000000E+00  0.00000000E+00  0.00000000E+00
  0.00000000E+00  0.00000000E+00  0.00000000E+00
  0.00000000E+00  0.00000000E+00  0.00000000E+00
  0.00000000E+00  0.00000000E+00  0.00000000E+00
  0.00000000E+00  0.00000000E+00  0.00000000E+00
  0.00000000E+00  0.00000000E+00  0.00000000E+00
  0.00000000E+00  0.00000000E+00  0.00000000E+00
  0.00000000E+00  0.00000000E+00  0.00000000E+00
  0.00000000E+00  0.00000000E+00  0.00000000E+00
  0.00000000E+00  0.00000000E+00  0.00000000E+00
  0.00000000E+00  0.00000000E+00  0.00000000E+00
  0.00000000E+00  0.00000000E+00  0.00000000E+00
  0.00000000E+00  0.00000000E+00  0.00000000E+00
  0.00000000E+00  0.00000000E+00  0.00000000E+00
  0.00000000E+00  0.00000000E+00  0.00000000E+00
  0.00000000E+00  0.00000000E+00  0.00000000E+00
  0.00000000E+00  0.00000000E+00  0.00000000E+00
  0.00000000E+00  0.00000000E+00  0.00000000E+00
  0.00000000E+00  0.00000000E+00  0.00000000E+00
  0.00000000E+00  0.00000000E+00  0.00000000E+00
  0.00000000E+00  0.00000000E+00  0.00000000E+00
  0.00000000E+00  0.00000000E+00  0.00000000E+00
  0.00000000E+00  0.00000000E+00  0.00000000E+00
  0.00000000E+00  0.00000000E+00  0.00000000E+00
  0.00000000E+00  0.00000000E+00  0.00000000E+00
  0.00000000E+00  0.00000000E+00  0.00000000E+00
  0.00000000E+00  0.00000000E+00  0.00000000E+00
  0.00000000E+00  0.00000000E+00  0.00000000E+00
  0.00000000E+00  0.00000000E+00  0.00000000E+00
  0.00000000E+00  0.00000000E+00  0.00000000E+00
  0.00000000E+00  0.00000000E+00  0.00000000E+00
  0.00000000E+00  0.00000000E+00  0.00000000E+00
  0.00000000E+00  0.00000000E+00  0.00000000E+00
  0.00000000E+00  0.00000000E+00  0.00000000E+00
  0.00000000E+00  0.00000000E+00  0.00000000E+00
  0.00000000E+00  0.00000000E+00  0.00000000E+00
  0.00000000E+00  0.00000000E+00  0.00000000E+00
  0.00000000E+00  0.00000000E+00  0.00000000E+00
  0.00000000E+00  0.00000000E+00  0.00000000E+00
  0.00000000E+00  0.00000000E+00  0.00000000E+00
  0.00000000E+00  0.00000000E+00  0.00000000E+00
  0.00000000E+00  0.00000000E+00  0.00000000E+00
  0.00000000E+00  0.00000000E+00  0.00000000E+00
  0.00000000E+00  0.00000000E+00  0.00000000E+00
