H1 Ir1 C126                             
   1.00000000000000     
    19.8252232933316250    0.0043975683728410    0.2140794868411497
    -9.9084515815046696   17.0458745268579221   -0.0269792583925835
     0.3219312489301566    0.1397949879793030   29.7761800052011765
   H    Ir   C 
     1     1   126
Direct
  0.4889384839651754  0.5304012530895945  0.4750045459330516
  0.4353106383757286  0.5001314301748547  0.4303225267331694
  0.0416731562233490  0.0838930252532620  0.3994966270240541
  0.0404320834636808  0.2078234618644304  0.3992799945569973
  0.0397756205313844  0.3325047295032514  0.3992562488242321
  0.0398157197524595  0.4580213126159446  0.3994541546959611
  0.0409741156057117  0.5836482917755237  0.3992201238448866
  0.0419878406603025  0.7091136333281433  0.3991946915053196
  0.0422976362981484  0.8344417154269521  0.3994471256728694
  0.0422780785589901  0.9594939520881222  0.3995556325270310
  0.1675540246786667  0.0853749656601467  0.3996670155767855
  0.1668863367073930  0.2098772049322952  0.3992693337128290
  0.1645835955782191  0.3329625069582961  0.3988848000530545
  0.1630902604742565  0.4580165844899216  0.3995323916960197
  0.1644794132270986  0.5834521050517012  0.3996019269348456
  0.1661878605814354  0.7089494051812222  0.3993765331780231
  0.1668887423936100  0.8343909983399747  0.3994594522498064
  0.1673197462643486  0.9598758660239678  0.3997594497950325
  0.2923825777464807  0.0853168277317126  0.3999030675457421
  0.2932190258598248  0.2118376624248644  0.4009626976162237
  0.2923915463769406  0.3373693432061140  0.4017070980848687
  0.2855077967929804  0.4574587239157168  0.4005942555638324
  0.2877214720327551  0.5833901158361813  0.4005753171051676
  0.2905376896003592  0.7085910674782906  0.3996415405024244
  0.2913535114924611  0.8338563201122633  0.3992762557576496
  0.2918828014377952  0.9594538164845038  0.3995062547796440
  0.4168273667680248  0.0840717568075014  0.3994841454403417
  0.4174397485762781  0.2102827060264786  0.4006299557495362
  0.4186903850523265  0.3373935779066093  0.4062912817474995
  0.4091477919104916  0.5791537440389891  0.4058005171077309
  0.4148656495399679  0.7061085792807216  0.4008475408641554
  0.4158546840443596  0.8323233145704799  0.3995937711797893
  0.4163354879246926  0.9581797167437844  0.3992795323712485
  0.5412588725830469  0.0825275843667066  0.3993015926886049
  0.5417899374629599  0.2080643664713787  0.3993030787419229
  0.5429207865775536  0.3334518992785582  0.4014672752997283
  0.5472354014405030  0.4586418093498353  0.4077756263063368
  0.5454842043355328  0.5800401346294990  0.4141577565919494
  0.5395347328926762  0.7040590740482774  0.4046996032125915
  0.5402055924204734  0.8306753820015331  0.4005895837649108
  0.5407989524309961  0.9567653194586144  0.3994097086987347
  0.6657343930185090  0.0817848011914997  0.3994491043596919
  0.6662483480276086  0.2072928241756830  0.3992393107395503
  0.6672419332619887  0.3328301066125022  0.3987179957295132
  0.6694662763186457  0.4584676395536306  0.3994332938415011
  0.6705290149876311  0.5837694374537524  0.4014528924005539
  0.6662576992168875  0.7061275127663441  0.4024532051589423
  0.6652159901178198  0.8307291060421557  0.4010983364742577
  0.6654476918608967  0.9562712298906656  0.3997166015805459
  0.7904679047149716  0.0817787401934795  0.3993557081709154
  0.7906836417446476  0.2070271869219953  0.3995089552541042
  0.7913764567207169  0.3325263707894873  0.3989036529484472
  0.7927566154999811  0.4581581171698377  0.3980742318844605
  0.7938272398520183  0.5837519956385657  0.3981479186027896
  0.7930178958618020  0.7087220537786380  0.3992076244848096
  0.7913179391115370  0.8323615627248265  0.3995055592355471
  0.7905687610578493  0.9567875375151026  0.3994700229991539
  0.9156543868443499  0.0824213276728094  0.3994834516840666
  0.9153387841378758  0.2071803903606813  0.3995806217052225
  0.9155062067704279  0.3324670220614718  0.3994400608675623
  0.9162584122056761  0.4580149504097160  0.3989387950062155
  0.9173870373170289  0.5837070231962967  0.3984938383053631
  0.9177099801421364  0.7091020671988143  0.3986864843789549
  0.9173967115350278  0.8339503721689860  0.3990246847049784
  0.9164505596376662  0.9581734483928684  0.3992332927000669
  0.0840039396191888  0.0430393661492475  0.3995891659850369
  0.0832753427606454  0.1673482419320935  0.3992864741693680
  0.0814641911611406  0.2909354825635144  0.3989772221387601
  0.0807330052861620  0.4161376150489642  0.3993383520275401
  0.0817073368269110  0.5416093937372444  0.3994420202390483
  0.0830650846454135  0.6671964164721353  0.3992631253108965
  0.0837938816977660  0.7927007719384189  0.3994392506421495
  0.0840445856458888  0.9179794839612307  0.3996854776457212
  0.2091334645063547  0.0434942639412636  0.3998110540518882
  0.2093789779027216  0.1690614987502064  0.3997380457601048
  0.2082862818687643  0.2934378339868984  0.3992930897640311
  0.2038573185646815  0.4159758291621296  0.3993256928713044
  0.2048945281296599  0.5414093349390448  0.3999513671067834
  0.2072757700957112  0.6670576123051467  0.3995225937194153
  0.2081989252657645  0.7924785534769401  0.3993255165519701
  0.2087138421765668  0.9179586762883116  0.3995956625946284
  0.3336387826096157  0.0430243328995455  0.3996471818600662
  0.3342657636528276  0.1691136748165460  0.4005678324120953
  0.3351676535881412  0.2957166499522718  0.4034596949384349
  0.3300484470691271  0.4201781532951480  0.4034455339962280
  0.3274506478457267  0.5413888252645345  0.4013543170852195
  0.3315902302958231  0.6664971611164038  0.4003446458826103
  0.3326470207458403  0.7918208718723898  0.3994154735465708
  0.3331981261733636  0.9173120191952953  0.3993202936800344
  0.4580895218194382  0.0417027864337570  0.3993161977964107
  0.4586701517806287  0.1676555240357751  0.3996105140211485
  0.4595114241819691  0.2940027339113034  0.4026124022639213
  0.4648853897488835  0.4203736204485245  0.4145104991922708
  0.4554718603320106  0.6623741158589735  0.4032205240482358
  0.4570265909285208  0.7897713372701612  0.4002892688600375
  0.4576638742895933  0.9158448384029793  0.3993559237555531
  0.5825769247784649  0.0403503388823605  0.3993571999361821
  0.5830744691912277  0.1660029877161953  0.3992263917116468
  0.5838604454669286  0.2914233502348986  0.3994714995368778
  0.5866309770812531  0.4166046837288848  0.4022556515479063
  0.5890960976355742  0.5418305816425587  0.4073530521056949
  0.5821164506099171  0.6626319328636116  0.4067561219276474
  0.5813871353282167  0.7880001473417069  0.4020094935182371
  0.5820650981937726  0.9144388827402684  0.3998077921708953
  0.7071869122256577  0.0398974769790286  0.3994087609506119
  0.7074904777974629  0.1653505398348336  0.3994599048834138
  0.7082404531970097  0.2908303929806990  0.3988585400776389
  0.7099055389391868  0.4163299606492339  0.3983187143457221
  0.7112942378711686  0.5417894877402994  0.3991278087698147
  0.7100983770042165  0.6667569723243759  0.4009146902741341
  0.7075481809415415  0.7897588183127661  0.4008021124595106
  0.7070232466376585  0.9144714455891041  0.3999885894527754
  0.8322658514119454  0.0402865180453236  0.3993661394608909
  0.8321554935817626  0.1652944332575068  0.3995045228465927
  0.8324965130952380  0.2906261163654186  0.3993477432312226
  0.8334408973142459  0.4160955664151088  0.3985709455439985
  0.8346622567850539  0.5417539073644494  0.3980215789774124
  0.8348519173698959  0.6672262580498850  0.3984974854403361
  0.8341268789321434  0.7919568762593927  0.3991199222430245
  0.8328793677068776  0.9158652948032970  0.3992813394881323
  0.9580796871586857  0.0415863794320178  0.3994534716634199
  0.9571557229852820  0.1657992946593620  0.3995552154140682
  0.9568305301838740  0.2906454274491819  0.3995275712616564
  0.9570699323446931  0.4160180055041354  0.3993386849179763
  0.9581780463159040  0.5416897546863432  0.3988762767492170
  0.9590191565184407  0.6672811755691500  0.3987955717955727
  0.9592450472224474  0.7925879229086755  0.3990609582321740
  0.9589074683562726  0.9173539424374887  0.3992451606963164
 
  0.00000000E+00  0.00000000E+00  0.00000000E+00
  0.00000000E+00  0.00000000E+00  0.00000000E+00
  0.00000000E+00  0.00000000E+00  0.00000000E+00
  0.00000000E+00  0.00000000E+00  0.00000000E+00
  0.00000000E+00  0.00000000E+00  0.00000000E+00
  0.00000000E+00  0.00000000E+00  0.00000000E+00
  0.00000000E+00  0.00000000E+00  0.00000000E+00
  0.00000000E+00  0.00000000E+00  0.00000000E+00
  0.00000000E+00  0.00000000E+00  0.00000000E+00
  0.00000000E+00  0.00000000E+00  0.00000000E+00
  0.00000000E+00  0.00000000E+00  0.00000000E+00
  0.00000000E+00  0.00000000E+00  0.00000000E+00
  0.00000000E+00  0.00000000E+00  0.00000000E+00
  0.00000000E+00  0.00000000E+00  0.00000000E+00
  0.00000000E+00  0.00000000E+00  0.00000000E+00
  0.00000000E+00  0.00000000E+00  0.00000000E+00
  0.00000000E+00  0.00000000E+00  0.00000000E+00
  0.00000000E+00  0.00000000E+00  0.00000000E+00
  0.00000000E+00  0.00000000E+00  0.00000000E+00
  0.00000000E+00  0.00000000E+00  0.00000000E+00
  0.00000000E+00  0.00000000E+00  0.00000000E+00
  0.00000000E+00  0.00000000E+00  0.00000000E+00
  0.00000000E+00  0.00000000E+00  0.00000000E+00
  0.00000000E+00  0.00000000E+00  0.00000000E+00
  0.00000000E+00  0.00000000E+00  0.00000000E+00
  0.00000000E+00  0.00000000E+00  0.00000000E+00
  0.00000000E+00  0.00000000E+00  0.00000000E+00
  0.00000000E+00  0.00000000E+00  0.00000000E+00
  0.00000000E+00  0.00000000E+00  0.00000000E+00
  0.00000000E+00  0.00000000E+00  0.00000000E+00
  0.00000000E+00  0.00000000E+00  0.00000000E+00
  0.00000000E+00  0.00000000E+00  0.00000000E+00
  0.00000000E+00  0.00000000E+00  0.00000000E+00
  0.00000000E+00  0.00000000E+00  0.00000000E+00
  0.00000000E+00  0.00000000E+00  0.00000000E+00
  0.00000000E+00  0.00000000E+00  0.00000000E+00
  0.00000000E+00  0.00000000E+00  0.00000000E+00
  0.00000000E+00  0.00000000E+00  0.00000000E+00
  0.00000000E+00  0.00000000E+00  0.00000000E+00
  0.00000000E+00  0.00000000E+00  0.00000000E+00
  0.00000000E+00  0.00000000E+00  0.00000000E+00
  0.00000000E+00  0.00000000E+00  0.00000000E+00
  0.00000000E+00  0.00000000E+00  0.00000000E+00
  0.00000000E+00  0.00000000E+00  0.00000000E+00
  0.00000000E+00  0.00000000E+00  0.00000000E+00
  0.00000000E+00  0.00000000E+00  0.00000000E+00
  0.00000000E+00  0.00000000E+00  0.00000000E+00
  0.00000000E+00  0.00000000E+00  0.00000000E+00
  0.00000000E+00  0.00000000E+00  0.00000000E+00
  0.00000000E+00  0.00000000E+00  0.00000000E+00
  0.00000000E+00  0.00000000E+00  0.00000000E+00
  0.00000000E+00  0.00000000E+00  0.00000000E+00
  0.00000000E+00  0.00000000E+00  0.00000000E+00
  0.00000000E+00  0.00000000E+00  0.00000000E+00
  0.00000000E+00  0.00000000E+00  0.00000000E+00
  0.00000000E+00  0.00000000E+00  0.00000000E+00
  0.00000000E+00  0.00000000E+00  0.00000000E+00
  0.00000000E+00  0.00000000E+00  0.00000000E+00
  0.00000000E+00  0.00000000E+00  0.00000000E+00
  0.00000000E+00  0.00000000E+00  0.00000000E+00
  0.00000000E+00  0.00000000E+00  0.00000000E+00
  0.00000000E+00  0.00000000E+00  0.00000000E+00
  0.00000000E+00  0.00000000E+00  0.00000000E+00
  0.00000000E+00  0.00000000E+00  0.00000000E+00
  0.00000000E+00  0.00000000E+00  0.00000000E+00
  0.00000000E+00  0.00000000E+00  0.00000000E+00
  0.00000000E+00  0.00000000E+00  0.00000000E+00
  0.00000000E+00  0.00000000E+00  0.00000000E+00
  0.00000000E+00  0.00000000E+00  0.00000000E+00
  0.00000000E+00  0.00000000E+00  0.00000000E+00
  0.00000000E+00  0.00000000E+00  0.00000000E+00
  0.00000000E+00  0.00000000E+00  0.00000000E+00
  0.00000000E+00  0.00000000E+00  0.00000000E+00
  0.00000000E+00  0.00000000E+00  0.00000000E+00
  0.00000000E+00  0.00000000E+00  0.00000000E+00
  0.00000000E+00  0.00000000E+00  0.00000000E+00
  0.00000000E+00  0.00000000E+00  0.00000000E+00
  0.00000000E+00  0.00000000E+00  0.00000000E+00
  0.00000000E+00  0.00000000E+00  0.00000000E+00
  0.00000000E+00  0.00000000E+00  0.00000000E+00
  0.00000000E+00  0.00000000E+00  0.00000000E+00
  0.00000000E+00  0.00000000E+00  0.00000000E+00
  0.00000000E+00  0.00000000E+00  0.00000000E+00
  0.00000000E+00  0.00000000E+00  0.00000000E+00
  0.00000000E+00  0.00000000E+00  0.00000000E+00
  0.00000000E+00  0.00000000E+00  0.00000000E+00
  0.00000000E+00  0.00000000E+00  0.00000000E+00
  0.00000000E+00  0.00000000E+00  0.00000000E+00
  0.00000000E+00  0.00000000E+00  0.00000000E+00
  0.00000000E+00  0.00000000E+00  0.00000000E+00
  0.00000000E+00  0.00000000E+00  0.00000000E+00
  0.00000000E+00  0.00000000E+00  0.00000000E+00
  0.00000000E+00  0.00000000E+00  0.00000000E+00
  0.00000000E+00  0.00000000E+00  0.00000000E+00
  0.00000000E+00  0.00000000E+00  0.00000000E+00
  0.00000000E+00  0.00000000E+00  0.00000000E+00
  0.00000000E+00  0.00000000E+00  0.00000000E+00
  0.00000000E+00  0.00000000E+00  0.00000000E+00
  0.00000000E+00  0.00000000E+00  0.00000000E+00
  0.00000000E+00  0.00000000E+00  0.00000000E+00
  0.00000000E+00  0.00000000E+00  0.00000000E+00
  0.00000000E+00  0.00000000E+00  0.00000000E+00
  0.00000000E+00  0.00000000E+00  0.00000000E+00
  0.00000000E+00  0.00000000E+00  0.00000000E+00
  0.00000000E+00  0.00000000E+00  0.00000000E+00
  0.00000000E+00  0.00000000E+00  0.00000000E+00
  0.00000000E+00  0.00000000E+00  0.00000000E+00
  0.00000000E+00  0.00000000E+00  0.00000000E+00
  0.00000000E+00  0.00000000E+00  0.00000000E+00
  0.00000000E+00  0.00000000E+00  0.00000000E+00
  0.00000000E+00  0.00000000E+00  0.00000000E+00
  0.00000000E+00  0.00000000E+00  0.00000000E+00
  0.00000000E+00  0.00000000E+00  0.00000000E+00
  0.00000000E+00  0.00000000E+00  0.00000000E+00
  0.00000000E+00  0.00000000E+00  0.00000000E+00
  0.00000000E+00  0.00000000E+00  0.00000000E+00
  0.00000000E+00  0.00000000E+00  0.00000000E+00
  0.00000000E+00  0.00000000E+00  0.00000000E+00
  0.00000000E+00  0.00000000E+00  0.00000000E+00
  0.00000000E+00  0.00000000E+00  0.00000000E+00
  0.00000000E+00  0.00000000E+00  0.00000000E+00
  0.00000000E+00  0.00000000E+00  0.00000000E+00
  0.00000000E+00  0.00000000E+00  0.00000000E+00
  0.00000000E+00  0.00000000E+00  0.00000000E+00
  0.00000000E+00  0.00000000E+00  0.00000000E+00
  0.00000000E+00  0.00000000E+00  0.00000000E+00
  0.00000000E+00  0.00000000E+00  0.00000000E+00
  0.00000000E+00  0.00000000E+00  0.00000000E+00
