Ag1 C125 N1                             
   1.00000000000000     
    19.8602119346537052   -0.0029765527682452    0.0024033479921606
    -9.9327324265820298   17.0661262408322152   -0.0111453384858031
     0.0035207232427912   -0.0171710307890606   29.6907562431959384
   Ag   C    N 
     1   125     1
Direct
  0.4373252925873357  0.4995973034352270  0.4106945860375887
  0.0415473734813215  0.0837661650039882  0.3995666384397085
  0.0403436332788248  0.2077955647664789  0.3994874494627534
  0.0396819907701912  0.3324751017655318  0.3990194375133382
  0.0399165590998105  0.4581656007339787  0.3986599945395761
  0.0411646333431552  0.5838831418711261  0.3987764723556027
  0.0422363980946156  0.7094174839315445  0.3990490553573177
  0.0426631987913464  0.8347656429212877  0.3993020892648180
  0.0425486862786275  0.9596681091328482  0.3994584715045537
  0.1676445402933549  0.0854386050000203  0.4001794715902089
  0.1662493348459039  0.2092720054282236  0.4009733077524710
  0.1643774329334259  0.3333261750349812  0.4008974653320047
  0.1628745228832246  0.4582158208301622  0.3996997961965417
  0.1643785605679346  0.5838303898860728  0.3989652160316217
  0.1661363867046186  0.7094191157526833  0.3990547502608003
  0.1671168534935512  0.8348567274469981  0.3993702202396602
  0.1676375146861497  0.9602516094881566  0.3996214012311063
  0.2927576496093212  0.0855107560409326  0.4003460998809398
  0.2934775658243857  0.2119444114061993  0.4025338317892010
  0.2907168016253496  0.3359390497060897  0.4047933324237613
  0.2858847593361329  0.4584505839584267  0.4040802297769934
  0.2872051774539383  0.5845082009739231  0.4012462438995712
  0.2900731761926693  0.7094224033046753  0.3997108268455861
  0.2914307093938084  0.8344446824692086  0.3994019759082000
  0.2921035702921640  0.9597723056658785  0.3995894424206432
  0.4171778127972935  0.0839247468320644  0.3997950815401144
  0.4179453116660368  0.2095092271491282  0.4016908956139491
  0.4201190709188860  0.3365534111370523  0.4061876567174791
  0.4141393098217893  0.7074478318493934  0.4021556015742730
  0.4157907481496184  0.8330271593797476  0.3999937486874639
  0.4165411829775740  0.9584400427537761  0.3995194495851373
  0.5415877519016439  0.0823587243467409  0.3994714915490797
  0.5424335944042030  0.2076881976113812  0.3999227041113906
  0.5438679711621527  0.3328009346064070  0.4024074049504157
  0.5485379380057097  0.4577498282550829  0.4072110632312980
  0.5496650223796271  0.5818161466541582  0.4096848403430848
  0.5384632640226099  0.7030764032502892  0.4048524516448624
  0.5400658446588030  0.8307225832037876  0.4012181749090523
  0.5409962032021762  0.9567786493276755  0.3997670815979454
  0.6660021929483462  0.0816009170432559  0.3995150762264282
  0.6667216280705593  0.2070483841302413  0.3992887276261705
  0.6678654751582086  0.3323697046247219  0.3995112874154346
  0.6706667030522980  0.4580564982120418  0.4010919662704235
  0.6726291332228397  0.5842015382643315  0.4032286286166890
  0.6676239696833135  0.7070836028631748  0.4031491766293636
  0.6649795583000794  0.8303646756207398  0.4014619077243940
  0.6654736812199322  0.9561117336006022  0.4000527738917971
  0.7905979568485729  0.0815630342305711  0.3995456247735136
  0.7909525549776883  0.2068172295877431  0.3992991308624096
  0.7918676734525839  0.3323664374785466  0.3989503276416475
  0.7934875480723889  0.4581326801145552  0.3988034227518559
  0.7947617812754900  0.5837865701006287  0.3993265162770294
  0.7939955347968205  0.7091315475615864  0.4000720148876732
  0.7918731747301022  0.8327724238426603  0.4000805751415585
  0.7904810235562783  0.9565497343571174  0.3998050233863555
  0.9156885695667254  0.0822804718458929  0.3994127838878241
  0.9153877965332003  0.2070704167487507  0.3991873121900867
  0.9156974137149199  0.3323913368687816  0.3989009221687559
  0.9166453183370364  0.4580464180597517  0.3987340328195220
  0.9179202884044499  0.5838584406036379  0.3986944367707959
  0.9182401305942696  0.7094102149473200  0.3989578735976438
  0.9178023134067547  0.8342050466803359  0.3992804177555773
  0.9166443343371541  0.9582090743460875  0.3994057841997272
  0.0841139324338685  0.0431664352189593  0.3996691499642721
  0.0828016427145001  0.1670285479530984  0.3998675510486633
  0.0813030211626979  0.2911256170371893  0.3995936436730900
  0.0806499234260621  0.4162173311424496  0.3989007654265231
  0.0817069711158952  0.5418109632380045  0.3986921457834186
  0.0831933247359566  0.6675373451648217  0.3989485691363567
  0.0840648920267961  0.7931232172771661  0.3992708021722757
  0.0843382822218275  0.9183444086281437  0.3994667491344582
  0.2093384861171064  0.0437445184347396  0.4000184662894448
  0.2092298911099868  0.1690418604061513  0.4011943480981560
  0.2070991628129679  0.2926785856507813  0.4021224295274169
  0.2037422258751438  0.4166524951482642  0.4012499030886340
  0.2046123317017867  0.5418630122544462  0.3997256337788113
  0.2070629859208821  0.6675719547950265  0.3991397006188042
  0.2082904139703523  0.7929511615998233  0.3992743758944684
  0.2090328865455206  0.9183873097947575  0.3995366286678306
  0.3339930219837857  0.0432407610448351  0.3998544945813823
  0.3347348323291773  0.1690467994240880  0.4015581922740240
  0.3351060819350489  0.2953776544280555  0.4048803347139089
  0.3261420995526548  0.4175966364256455  0.4066135399183009
  0.3281368364184963  0.5439746620211606  0.4039844748524529
  0.3309424229219259  0.6675513523229691  0.4009725609070626
  0.3326305535450523  0.7925637187244843  0.3996401089913707
  0.3334555680336775  0.9177720716350237  0.3995013605019363
  0.4585373705250052  0.0417701879455371  0.3995300719653935
  0.4591872718532044  0.1671874472198432  0.4003189796557197
  0.4605305224603796  0.2929478946321168  0.4034708816261848
  0.4673665369340484  0.4183275784320859  0.4091607541154751
  0.4532248754954634  0.6630667326762243  0.4046879329406212
  0.4570305724002192  0.7907749297703124  0.4010457345494673
  0.4578287044099669  0.9162598159890353  0.3996881729590770
  0.5829355738545091  0.0402910755131168  0.3995415836244574
  0.5836443684281482  0.1657449620696543  0.3994367847392855
  0.5848570209294273  0.2908540807757329  0.4003712081169958
  0.5880863779480643  0.4157971593904642  0.4034340519377496
  0.5913903291256520  0.5426558623496596  0.4072901888281982
  0.5836964959240584  0.6631138740662545  0.4061697383185987
  0.5805299451032150  0.7871254771903142  0.4025073489179359
  0.5821950333084209  0.9144195344252648  0.4002348630864646
  0.7073288226742714  0.0396578946598989  0.3996581139962536
  0.7079376189409929  0.1651688707508548  0.3993560613597925
  0.7088241754821250  0.2905330790594846  0.3991148749891024
  0.7108201442333465  0.4161308299836746  0.3994950196534134
  0.7127577388840209  0.5418780559927210  0.4009547635900095
  0.7111583746038663  0.6672148676934228  0.4020897517182301
  0.7082785690351824  0.7903780244196830  0.4014179849331803
  0.7068092480828009  0.9141014081991869  0.4003251741477067
  0.8322346526313472  0.0401253487537218  0.3995598370830392
  0.8322831013905190  0.1651340475141612  0.3993584971369873
  0.8328539870672249  0.2905105250297360  0.3990708254142173
  0.8340135025358907  0.4160491533286353  0.3987441859298186
  0.8353619252445766  0.5417607017920645  0.3987449526807175
  0.8354886664915095  0.6675822489718382  0.3992821150713161
  0.8346584010564906  0.7922931424688525  0.3996698712857242
  0.8331172239041862  0.9160187944030186  0.3996649239194367
  0.9580546365708859  0.0415637573407120  0.3994046063212667
  0.9571524707188641  0.1657465056292410  0.3992839476880349
  0.9568562590377382  0.2905698999759195  0.3989502614443672
  0.9572891929354406  0.4160686806709026  0.3987405964276782
  0.9585720115291850  0.5418744553887013  0.3987357106947761
  0.9594237840066743  0.6675658375849175  0.3988727137403178
  0.9595936951203841  0.7928918929151547  0.3991570555160445
  0.9591261057623544  0.9175869518543417  0.3993531154665997
  0.4069118005598791  0.5834220193590530  0.4063196197445149
 
  0.00000000E+00  0.00000000E+00  0.00000000E+00
  0.00000000E+00  0.00000000E+00  0.00000000E+00
  0.00000000E+00  0.00000000E+00  0.00000000E+00
  0.00000000E+00  0.00000000E+00  0.00000000E+00
  0.00000000E+00  0.00000000E+00  0.00000000E+00
  0.00000000E+00  0.00000000E+00  0.00000000E+00
  0.00000000E+00  0.00000000E+00  0.00000000E+00
  0.00000000E+00  0.00000000E+00  0.00000000E+00
  0.00000000E+00  0.00000000E+00  0.00000000E+00
  0.00000000E+00  0.00000000E+00  0.00000000E+00
  0.00000000E+00  0.00000000E+00  0.00000000E+00
  0.00000000E+00  0.00000000E+00  0.00000000E+00
  0.00000000E+00  0.00000000E+00  0.00000000E+00
  0.00000000E+00  0.00000000E+00  0.00000000E+00
  0.00000000E+00  0.00000000E+00  0.00000000E+00
  0.00000000E+00  0.00000000E+00  0.00000000E+00
  0.00000000E+00  0.00000000E+00  0.00000000E+00
  0.00000000E+00  0.00000000E+00  0.00000000E+00
  0.00000000E+00  0.00000000E+00  0.00000000E+00
  0.00000000E+00  0.00000000E+00  0.00000000E+00
  0.00000000E+00  0.00000000E+00  0.00000000E+00
  0.00000000E+00  0.00000000E+00  0.00000000E+00
  0.00000000E+00  0.00000000E+00  0.00000000E+00
  0.00000000E+00  0.00000000E+00  0.00000000E+00
  0.00000000E+00  0.00000000E+00  0.00000000E+00
  0.00000000E+00  0.00000000E+00  0.00000000E+00
  0.00000000E+00  0.00000000E+00  0.00000000E+00
  0.00000000E+00  0.00000000E+00  0.00000000E+00
  0.00000000E+00  0.00000000E+00  0.00000000E+00
  0.00000000E+00  0.00000000E+00  0.00000000E+00
  0.00000000E+00  0.00000000E+00  0.00000000E+00
  0.00000000E+00  0.00000000E+00  0.00000000E+00
  0.00000000E+00  0.00000000E+00  0.00000000E+00
  0.00000000E+00  0.00000000E+00  0.00000000E+00
  0.00000000E+00  0.00000000E+00  0.00000000E+00
  0.00000000E+00  0.00000000E+00  0.00000000E+00
  0.00000000E+00  0.00000000E+00  0.00000000E+00
  0.00000000E+00  0.00000000E+00  0.00000000E+00
  0.00000000E+00  0.00000000E+00  0.00000000E+00
  0.00000000E+00  0.00000000E+00  0.00000000E+00
  0.00000000E+00  0.00000000E+00  0.00000000E+00
  0.00000000E+00  0.00000000E+00  0.00000000E+00
  0.00000000E+00  0.00000000E+00  0.00000000E+00
  0.00000000E+00  0.00000000E+00  0.00000000E+00
  0.00000000E+00  0.00000000E+00  0.00000000E+00
  0.00000000E+00  0.00000000E+00  0.00000000E+00
  0.00000000E+00  0.00000000E+00  0.00000000E+00
  0.00000000E+00  0.00000000E+00  0.00000000E+00
  0.00000000E+00  0.00000000E+00  0.00000000E+00
  0.00000000E+00  0.00000000E+00  0.00000000E+00
  0.00000000E+00  0.00000000E+00  0.00000000E+00
  0.00000000E+00  0.00000000E+00  0.00000000E+00
  0.00000000E+00  0.00000000E+00  0.00000000E+00
  0.00000000E+00  0.00000000E+00  0.00000000E+00
  0.00000000E+00  0.00000000E+00  0.00000000E+00
  0.00000000E+00  0.00000000E+00  0.00000000E+00
  0.00000000E+00  0.00000000E+00  0.00000000E+00
  0.00000000E+00  0.00000000E+00  0.00000000E+00
  0.00000000E+00  0.00000000E+00  0.00000000E+00
  0.00000000E+00  0.00000000E+00  0.00000000E+00
  0.00000000E+00  0.00000000E+00  0.00000000E+00
  0.00000000E+00  0.00000000E+00  0.00000000E+00
  0.00000000E+00  0.00000000E+00  0.00000000E+00
  0.00000000E+00  0.00000000E+00  0.00000000E+00
  0.00000000E+00  0.00000000E+00  0.00000000E+00
  0.00000000E+00  0.00000000E+00  0.00000000E+00
  0.00000000E+00  0.00000000E+00  0.00000000E+00
  0.00000000E+00  0.00000000E+00  0.00000000E+00
  0.00000000E+00  0.00000000E+00  0.00000000E+00
  0.00000000E+00  0.00000000E+00  0.00000000E+00
  0.00000000E+00  0.00000000E+00  0.00000000E+00
  0.00000000E+00  0.00000000E+00  0.00000000E+00
  0.00000000E+00  0.00000000E+00  0.00000000E+00
  0.00000000E+00  0.00000000E+00  0.00000000E+00
  0.00000000E+00  0.00000000E+00  0.00000000E+00
  0.00000000E+00  0.00000000E+00  0.00000000E+00
  0.00000000E+00  0.00000000E+00  0.00000000E+00
  0.00000000E+00  0.00000000E+00  0.00000000E+00
  0.00000000E+00  0.00000000E+00  0.00000000E+00
  0.00000000E+00  0.00000000E+00  0.00000000E+00
  0.00000000E+00  0.00000000E+00  0.00000000E+00
  0.00000000E+00  0.00000000E+00  0.00000000E+00
  0.00000000E+00  0.00000000E+00  0.00000000E+00
  0.00000000E+00  0.00000000E+00  0.00000000E+00
  0.00000000E+00  0.00000000E+00  0.00000000E+00
  0.00000000E+00  0.00000000E+00  0.00000000E+00
  0.00000000E+00  0.00000000E+00  0.00000000E+00
  0.00000000E+00  0.00000000E+00  0.00000000E+00
  0.00000000E+00  0.00000000E+00  0.00000000E+00
  0.00000000E+00  0.00000000E+00  0.00000000E+00
  0.00000000E+00  0.00000000E+00  0.00000000E+00
  0.00000000E+00  0.00000000E+00  0.00000000E+00
  0.00000000E+00  0.00000000E+00  0.00000000E+00
  0.00000000E+00  0.00000000E+00  0.00000000E+00
  0.00000000E+00  0.00000000E+00  0.00000000E+00
  0.00000000E+00  0.00000000E+00  0.00000000E+00
  0.00000000E+00  0.00000000E+00  0.00000000E+00
  0.00000000E+00  0.00000000E+00  0.00000000E+00
  0.00000000E+00  0.00000000E+00  0.00000000E+00
  0.00000000E+00  0.00000000E+00  0.00000000E+00
  0.00000000E+00  0.00000000E+00  0.00000000E+00
  0.00000000E+00  0.00000000E+00  0.00000000E+00
  0.00000000E+00  0.00000000E+00  0.00000000E+00
  0.00000000E+00  0.00000000E+00  0.00000000E+00
  0.00000000E+00  0.00000000E+00  0.00000000E+00
  0.00000000E+00  0.00000000E+00  0.00000000E+00
  0.00000000E+00  0.00000000E+00  0.00000000E+00
  0.00000000E+00  0.00000000E+00  0.00000000E+00
  0.00000000E+00  0.00000000E+00  0.00000000E+00
  0.00000000E+00  0.00000000E+00  0.00000000E+00
  0.00000000E+00  0.00000000E+00  0.00000000E+00
  0.00000000E+00  0.00000000E+00  0.00000000E+00
  0.00000000E+00  0.00000000E+00  0.00000000E+00
  0.00000000E+00  0.00000000E+00  0.00000000E+00
  0.00000000E+00  0.00000000E+00  0.00000000E+00
  0.00000000E+00  0.00000000E+00  0.00000000E+00
  0.00000000E+00  0.00000000E+00  0.00000000E+00
  0.00000000E+00  0.00000000E+00  0.00000000E+00
  0.00000000E+00  0.00000000E+00  0.00000000E+00
  0.00000000E+00  0.00000000E+00  0.00000000E+00
  0.00000000E+00  0.00000000E+00  0.00000000E+00
  0.00000000E+00  0.00000000E+00  0.00000000E+00
  0.00000000E+00  0.00000000E+00  0.00000000E+00
  0.00000000E+00  0.00000000E+00  0.00000000E+00
  0.00000000E+00  0.00000000E+00  0.00000000E+00
  0.00000000E+00  0.00000000E+00  0.00000000E+00
  0.00000000E+00  0.00000000E+00  0.00000000E+00
