Au1 C126 O1                             
   1.00000000000000     
    19.8467999134943440   -0.0002554524527480   -0.0042452445854630
    -9.9236161994558625   17.0568205914478561    0.0117811419225037
    -0.0063414347578396    0.0168019039285868   29.7246619607546663
   Au   C    O 
     1   126     1
Direct
  0.4373524974578971  0.4997192296783129  0.4282169010874695
  0.0418134608612741  0.0838575964104187  0.3996276801690169
  0.0405884314174641  0.2078563007169222  0.3995230662791865
  0.0398799393621225  0.3326746131814828  0.3990981408894939
  0.0399643902768177  0.4582086658643987  0.3987196442673699
  0.0411415203044752  0.5838356560934188  0.3987386035152993
  0.0421504829826838  0.7092901149751405  0.3990309677643918
  0.0424814481193712  0.8345711825091754  0.3993347587183691
  0.0424680999036709  0.9595246401078216  0.3995018907416483
  0.1676496927685246  0.0852846907835097  0.4003237890714900
  0.1668701264005248  0.2097376791893358  0.4007992187824820
  0.1645273391949905  0.3330311250155072  0.4006698126846311
  0.1631389961055667  0.4583208703650539  0.3995376004204220
  0.1644734261747643  0.5837831518205109  0.3988987790141660
  0.1662811523129508  0.7092160736174532  0.3990116903585423
  0.1671016344153808  0.8345941493867175  0.3993213847289334
  0.1674978072394005  0.9599383435274710  0.3997115073345593
  0.2926705961564414  0.0852956859888713  0.4003286263579542
  0.2933191778779098  0.2116481241917038  0.4025128359957508
  0.2918598098752639  0.3365686849119263  0.4055657630170467
  0.2851996690995212  0.4581571243072163  0.4042925234579528
  0.2875767902527083  0.5838624418664121  0.4008713665609313
  0.2905190796143416  0.7089270830118971  0.3995586451363362
  0.2914683145254293  0.8340893632047491  0.3992834815463512
  0.2921149969096663  0.9595464522583743  0.3995029280693288
  0.4170888927623204  0.0838698059809874  0.3996579789976238
  0.4178892579125068  0.2097493235662269  0.4008462808020487
  0.4196900091994771  0.3365590087960934  0.4055809611611680
  0.4083549534736762  0.5812737926611360  0.4099894972876643
  0.4147368623210532  0.7067645119643151  0.4018362137132543
  0.4159948190043127  0.8326744684977259  0.3998496283521555
  0.4166400246249171  0.9583288742864704  0.3994139000729470
  0.5416538329971733  0.0825294831282605  0.3993761390662837
  0.5422897910988659  0.2078819399244437  0.3995631737452959
  0.5434862454941612  0.3330370512927964  0.4007231903394416
  0.5478986286474399  0.4581480267762768  0.4043547613056705
  0.5479264463359911  0.5813048547546453  0.4100038300479719
  0.5397398419464556  0.7045005894851909  0.4055659197895102
  0.5404113031768853  0.8309711966188567  0.4012468616225255
  0.5410874298073710  0.9569279898318138  0.3997617826668558
  0.6661217892931299  0.0818978400254091  0.3995229287870102
  0.6666782570382173  0.2072796451088771  0.3992227044528120
  0.6677799393142900  0.3327005384665543  0.3991425234975933
  0.6701259904638706  0.4583185553839854  0.3995953808705028
  0.6712278072557284  0.5838612921952495  0.4009414843363198
  0.6670153104411661  0.7067507794806963  0.4018691525305593
  0.6655629233751839  0.8309562878291252  0.4012717159227485
  0.6657401063739316  0.9564390843537738  0.4001829079616833
  0.7908159069225268  0.0818837109562024  0.3995261484522007
  0.7910729177763010  0.2071450292159440  0.3992578706993331
  0.7917980160910435  0.3326053891313900  0.3989120831364210
  0.7931814391857490  0.4582064406289071  0.3987382986773931
  0.7942342359042339  0.5837606687637442  0.3989531717151898
  0.7933804260534026  0.7089044698724021  0.3996153863550083
  0.7916914590497465  0.8326584121170058  0.3998875604049523
  0.7908616992384817  0.9569139139856723  0.3997771540199148
  0.9159205361895214  0.0825114853082104  0.3993673613389994
  0.9155889711223835  0.2072479898993843  0.3991940418094474
  0.9158068541328569  0.3325997329500810  0.3989107764457562
  0.9165772256312735  0.4581962637298168  0.3986774699717897
  0.9176467421062349  0.5838306417239356  0.3987248226980794
  0.9179209107348718  0.7091913352620819  0.3990403618302423
  0.9176234860586174  0.8340633566587818  0.3993183937739195
  0.9167311922573741  0.9583070097395714  0.3994243538473026
  0.0841542258779894  0.0430372716719267  0.3997567982625753
  0.0833270732896701  0.1673043971133875  0.3998648470267997
  0.0816373269430296  0.2910652569629865  0.3995851915400303
  0.0807276492895127  0.4162291510311764  0.3989322526476845
  0.0817624135737760  0.5418033128354308  0.3987116167279977
  0.0832095206340855  0.6674072424853648  0.3989071417377896
  0.0839340402409267  0.7928529111988464  0.3992645910151827
  0.0842243661872484  0.9180753749120182  0.3995230283942188
  0.2092843305523786  0.0435113890564011  0.4001740782618053
  0.2094289900952790  0.1689612523063742  0.4012319052005517
  0.2080020601760902  0.2931938959915393  0.4018195438785876
  0.2038030869346883  0.4161535872483739  0.4008786067353863
  0.2048127382307008  0.5416938849025731  0.3995128888651929
  0.2071978829477434  0.6673285630383834  0.3990705278493981
  0.2083347916299950  0.7927405824105932  0.3991942368858414
  0.2089201489878935  0.9180900041205822  0.3995167835181818
  0.3339374085954842  0.0430535546801609  0.3997735112132201
  0.3345547591703793  0.1689770890887093  0.4012647507241382
  0.3352015981649892  0.2954144975696126  0.4054033596675938
  0.3273281899647034  0.4187232094014897  0.4097469784348372
  0.3270043600383927  0.5418258456888747  0.4043447290705618
  0.3314511909316111  0.6669512932284617  0.4006621575648542
  0.3327075714750055  0.7921273151361269  0.3994996076993794
  0.3334052533573422  0.9174772160031889  0.3993631278046763
  0.4584148609635167  0.0416710595098929  0.3994237087378115
  0.4590131820919338  0.1673176460606994  0.3999028480351010
  0.4601973775022667  0.2932009917854688  0.4018569156510469
  0.4663703666310379  0.4186677565090388  0.4097829712914082
  0.4551899009133999  0.6633243017350955  0.4057099737807586
  0.4571041211433544  0.7902215498105144  0.4007951932959709
  0.4579374473595567  0.9161083278042544  0.3996293216553611
  0.5829393077213827  0.0404496644867949  0.3995022579515576
  0.5835455703368509  0.1659240327270558  0.3993261897670622
  0.5844327166898730  0.2910878124262883  0.3996351349187790
  0.5873158367651374  0.4161470285438948  0.4009397513792062
  0.5897835213334597  0.5418299307181106  0.4044050091273814
  0.5831310502745810  0.6633454722871576  0.4057096537212131
  0.5816122172277983  0.7882295614613661  0.4025632754659508
  0.5823251442068357  0.9146499568934331  0.4003302903716879
  0.7075490244334166  0.0400235148007078  0.3997250331254076
  0.7078997024767382  0.1654126300491147  0.3993275003707865
  0.7087131729546108  0.2908033283977650  0.3990475568809684
  0.7104602880314724  0.4162458330273596  0.3989780425985732
  0.7118415607398464  0.5416922295678446  0.3995768655025401
  0.7104856467851101  0.6669338004691301  0.4007180419207078
  0.7081289128710595  0.7902043437497843  0.4008379469264109
  0.7073592484602734  0.9146487239011504  0.4003327247310474
  0.8325726964237599  0.0404358440504697  0.3995109044891004
  0.8325220967631013  0.1653941712571185  0.3993160717427063
  0.8328764046983472  0.2907140756393065  0.3990276104573737
  0.8338156190035581  0.4161696766109536  0.3987281086342443
  0.8349915662666502  0.5418038170050585  0.3987320520405082
  0.8351068991435250  0.6673063836044650  0.3991209290111862
  0.8344245124426588  0.7921028935085060  0.3995446033056780
  0.8332128211945004  0.9161032155199617  0.3996579259449883
  0.9583196442053370  0.0416524950371514  0.3994112253147586
  0.9573896386789277  0.1658990829339617  0.3992929687892233
  0.9570898518384789  0.2907826725873469  0.3990227949554107
  0.9573183437497035  0.4161661771316814  0.3987429425222042
  0.9583930183709222  0.5418123892789192  0.3986743593924790
  0.9592084214729305  0.6673981384685549  0.3989120177605025
  0.9594034303265326  0.7927127844162111  0.3992225149822580
  0.9591243202196686  0.9174516664309585  0.3993762771174761
  0.4407751995770745  0.5044770883790194  0.4956444471319883
 
  0.00000000E+00  0.00000000E+00  0.00000000E+00
  0.00000000E+00  0.00000000E+00  0.00000000E+00
  0.00000000E+00  0.00000000E+00  0.00000000E+00
  0.00000000E+00  0.00000000E+00  0.00000000E+00
  0.00000000E+00  0.00000000E+00  0.00000000E+00
  0.00000000E+00  0.00000000E+00  0.00000000E+00
  0.00000000E+00  0.00000000E+00  0.00000000E+00
  0.00000000E+00  0.00000000E+00  0.00000000E+00
  0.00000000E+00  0.00000000E+00  0.00000000E+00
  0.00000000E+00  0.00000000E+00  0.00000000E+00
  0.00000000E+00  0.00000000E+00  0.00000000E+00
  0.00000000E+00  0.00000000E+00  0.00000000E+00
  0.00000000E+00  0.00000000E+00  0.00000000E+00
  0.00000000E+00  0.00000000E+00  0.00000000E+00
  0.00000000E+00  0.00000000E+00  0.00000000E+00
  0.00000000E+00  0.00000000E+00  0.00000000E+00
  0.00000000E+00  0.00000000E+00  0.00000000E+00
  0.00000000E+00  0.00000000E+00  0.00000000E+00
  0.00000000E+00  0.00000000E+00  0.00000000E+00
  0.00000000E+00  0.00000000E+00  0.00000000E+00
  0.00000000E+00  0.00000000E+00  0.00000000E+00
  0.00000000E+00  0.00000000E+00  0.00000000E+00
  0.00000000E+00  0.00000000E+00  0.00000000E+00
  0.00000000E+00  0.00000000E+00  0.00000000E+00
  0.00000000E+00  0.00000000E+00  0.00000000E+00
  0.00000000E+00  0.00000000E+00  0.00000000E+00
  0.00000000E+00  0.00000000E+00  0.00000000E+00
  0.00000000E+00  0.00000000E+00  0.00000000E+00
  0.00000000E+00  0.00000000E+00  0.00000000E+00
  0.00000000E+00  0.00000000E+00  0.00000000E+00
  0.00000000E+00  0.00000000E+00  0.00000000E+00
  0.00000000E+00  0.00000000E+00  0.00000000E+00
  0.00000000E+00  0.00000000E+00  0.00000000E+00
  0.00000000E+00  0.00000000E+00  0.00000000E+00
  0.00000000E+00  0.00000000E+00  0.00000000E+00
  0.00000000E+00  0.00000000E+00  0.00000000E+00
  0.00000000E+00  0.00000000E+00  0.00000000E+00
  0.00000000E+00  0.00000000E+00  0.00000000E+00
  0.00000000E+00  0.00000000E+00  0.00000000E+00
  0.00000000E+00  0.00000000E+00  0.00000000E+00
  0.00000000E+00  0.00000000E+00  0.00000000E+00
  0.00000000E+00  0.00000000E+00  0.00000000E+00
  0.00000000E+00  0.00000000E+00  0.00000000E+00
  0.00000000E+00  0.00000000E+00  0.00000000E+00
  0.00000000E+00  0.00000000E+00  0.00000000E+00
  0.00000000E+00  0.00000000E+00  0.00000000E+00
  0.00000000E+00  0.00000000E+00  0.00000000E+00
  0.00000000E+00  0.00000000E+00  0.00000000E+00
  0.00000000E+00  0.00000000E+00  0.00000000E+00
  0.00000000E+00  0.00000000E+00  0.00000000E+00
  0.00000000E+00  0.00000000E+00  0.00000000E+00
  0.00000000E+00  0.00000000E+00  0.00000000E+00
  0.00000000E+00  0.00000000E+00  0.00000000E+00
  0.00000000E+00  0.00000000E+00  0.00000000E+00
  0.00000000E+00  0.00000000E+00  0.00000000E+00
  0.00000000E+00  0.00000000E+00  0.00000000E+00
  0.00000000E+00  0.00000000E+00  0.00000000E+00
  0.00000000E+00  0.00000000E+00  0.00000000E+00
  0.00000000E+00  0.00000000E+00  0.00000000E+00
  0.00000000E+00  0.00000000E+00  0.00000000E+00
  0.00000000E+00  0.00000000E+00  0.00000000E+00
  0.00000000E+00  0.00000000E+00  0.00000000E+00
  0.00000000E+00  0.00000000E+00  0.00000000E+00
  0.00000000E+00  0.00000000E+00  0.00000000E+00
  0.00000000E+00  0.00000000E+00  0.00000000E+00
  0.00000000E+00  0.00000000E+00  0.00000000E+00
  0.00000000E+00  0.00000000E+00  0.00000000E+00
  0.00000000E+00  0.00000000E+00  0.00000000E+00
  0.00000000E+00  0.00000000E+00  0.00000000E+00
  0.00000000E+00  0.00000000E+00  0.00000000E+00
  0.00000000E+00  0.00000000E+00  0.00000000E+00
  0.00000000E+00  0.00000000E+00  0.00000000E+00
  0.00000000E+00  0.00000000E+00  0.00000000E+00
  0.00000000E+00  0.00000000E+00  0.00000000E+00
  0.00000000E+00  0.00000000E+00  0.00000000E+00
  0.00000000E+00  0.00000000E+00  0.00000000E+00
  0.00000000E+00  0.00000000E+00  0.00000000E+00
  0.00000000E+00  0.00000000E+00  0.00000000E+00
  0.00000000E+00  0.00000000E+00  0.00000000E+00
  0.00000000E+00  0.00000000E+00  0.00000000E+00
  0.00000000E+00  0.00000000E+00  0.00000000E+00
  0.00000000E+00  0.00000000E+00  0.00000000E+00
  0.00000000E+00  0.00000000E+00  0.00000000E+00
  0.00000000E+00  0.00000000E+00  0.00000000E+00
  0.00000000E+00  0.00000000E+00  0.00000000E+00
  0.00000000E+00  0.00000000E+00  0.00000000E+00
  0.00000000E+00  0.00000000E+00  0.00000000E+00
  0.00000000E+00  0.00000000E+00  0.00000000E+00
  0.00000000E+00  0.00000000E+00  0.00000000E+00
  0.00000000E+00  0.00000000E+00  0.00000000E+00
  0.00000000E+00  0.00000000E+00  0.00000000E+00
  0.00000000E+00  0.00000000E+00  0.00000000E+00
  0.00000000E+00  0.00000000E+00  0.00000000E+00
  0.00000000E+00  0.00000000E+00  0.00000000E+00
  0.00000000E+00  0.00000000E+00  0.00000000E+00
  0.00000000E+00  0.00000000E+00  0.00000000E+00
  0.00000000E+00  0.00000000E+00  0.00000000E+00
  0.00000000E+00  0.00000000E+00  0.00000000E+00
  0.00000000E+00  0.00000000E+00  0.00000000E+00
  0.00000000E+00  0.00000000E+00  0.00000000E+00
  0.00000000E+00  0.00000000E+00  0.00000000E+00
  0.00000000E+00  0.00000000E+00  0.00000000E+00
  0.00000000E+00  0.00000000E+00  0.00000000E+00
  0.00000000E+00  0.00000000E+00  0.00000000E+00
  0.00000000E+00  0.00000000E+00  0.00000000E+00
  0.00000000E+00  0.00000000E+00  0.00000000E+00
  0.00000000E+00  0.00000000E+00  0.00000000E+00
  0.00000000E+00  0.00000000E+00  0.00000000E+00
  0.00000000E+00  0.00000000E+00  0.00000000E+00
  0.00000000E+00  0.00000000E+00  0.00000000E+00
  0.00000000E+00  0.00000000E+00  0.00000000E+00
  0.00000000E+00  0.00000000E+00  0.00000000E+00
  0.00000000E+00  0.00000000E+00  0.00000000E+00
  0.00000000E+00  0.00000000E+00  0.00000000E+00
  0.00000000E+00  0.00000000E+00  0.00000000E+00
  0.00000000E+00  0.00000000E+00  0.00000000E+00
  0.00000000E+00  0.00000000E+00  0.00000000E+00
  0.00000000E+00  0.00000000E+00  0.00000000E+00
  0.00000000E+00  0.00000000E+00  0.00000000E+00
  0.00000000E+00  0.00000000E+00  0.00000000E+00
  0.00000000E+00  0.00000000E+00  0.00000000E+00
  0.00000000E+00  0.00000000E+00  0.00000000E+00
  0.00000000E+00  0.00000000E+00  0.00000000E+00
  0.00000000E+00  0.00000000E+00  0.00000000E+00
  0.00000000E+00  0.00000000E+00  0.00000000E+00
  0.00000000E+00  0.00000000E+00  0.00000000E+00
  0.00000000E+00  0.00000000E+00  0.00000000E+00
  0.00000000E+00  0.00000000E+00  0.00000000E+00
