Cd1 H1 C124 N2 O1                       
   1.00000000000000     
    19.7791714654748034   -0.0306426700702931    0.2559625422253853
    -9.9159643081769318   17.0810660267471519   -0.0072143500676761
     0.3849017330761339    0.2112329128521765   29.8170194306034730
   Cd   H    C    N    O 
     1     1   124     2     1
Direct
  0.4274514238661105  0.4892798606434119  0.4560541746416685
  0.5137650500762673  0.5808268181432461  0.5177188826989835
  0.0420491535072337  0.0840428707775343  0.3991566685515664
  0.0419371402685288  0.2087095920281439  0.3982076228311494
  0.0416419675354708  0.3334373440614393  0.3972151431802635
  0.0413859328814463  0.4585276303956230  0.3977038861601244
  0.0412194256923323  0.5836096058820893  0.3987804829466559
  0.0412683625610351  0.7087243135129272  0.3993535536513287
  0.0414859050096126  0.8338978258829108  0.3995985309180425
  0.0418573071075509  0.9591066194442186  0.3996219054913889
  0.1675141421988229  0.0850114732854676  0.4001725867809623
  0.1677031475484536  0.2099683391637805  0.3994465136311940
  0.1670120912892366  0.3344671077309637  0.3980217330579960
  0.1661449040883990  0.4589399284144296  0.3955900564056803
  0.1658614843706468  0.5838589355187354  0.3974508657821654
  0.1659620115890706  0.7089767547360469  0.3990647804015747
  0.1663382365660668  0.8341069258951557  0.3996967463409148
  0.1668133716969201  0.9594054131910377  0.3999828823958440
  0.2921423053262031  0.0847093483722276  0.4002157070383304
  0.2936524654571804  0.2116271432970358  0.4016444523932861
  0.2925924370713521  0.3368448845257234  0.4066894508083044
  0.2905075427545074  0.4593863108601337  0.4036425000138339
  0.2902287843543798  0.5846863669793697  0.3983732832882483
  0.2904726919505601  0.7092488895570810  0.3988121002017080
  0.2911214172862578  0.8340596419236416  0.3996541333799158
  0.2915311514167293  0.9591389013823438  0.3999627032842110
  0.4167986997997513  0.0833773935086496  0.3999627610632215
  0.4173109913726634  0.2083972414175444  0.4004144964287972
  0.4206295641835146  0.3358352226130745  0.4010382517333754
  0.4146786231203761  0.7082980901083310  0.4005865434730888
  0.4158411480488862  0.8333889046466230  0.3999446461064665
  0.4163518251230459  0.9583745242070273  0.3999099191558520
  0.5416097755529184  0.0825660826236375  0.3997878485664941
  0.5420954120531363  0.2074473746944727  0.3996598961801199
  0.5428373083471643  0.3320428991549871  0.3993294403170470
  0.5412222403344011  0.4538896841484985  0.3982435140242621
  0.5454726871986226  0.5822326856285160  0.4025441877672958
  0.5381440796690340  0.7050325280994456  0.4022241687309591
  0.5402822044005097  0.8319309428456610  0.4008196982363995
  0.5411641365464569  0.9574681951215130  0.4001219565335664
  0.6664248131255709  0.0823362396786585  0.3999078997462763
  0.6669006599337388  0.2074696910021322  0.3995355455286045
  0.6673569757316926  0.3324390004803737  0.3991773961428374
  0.6677669664741794  0.4573838268774965  0.3987594594226742
  0.6667009385660743  0.5818358860697243  0.3984722759414062
  0.6652748898688086  0.7065295994529167  0.4004748465590995
  0.6648686413737688  0.8312226488767473  0.4007363796997248
  0.6658761356965887  0.9570462055486483  0.4003473533195507
  0.7913455096741325  0.0824362243097189  0.3998859355288381
  0.7916578934690144  0.2075745127138274  0.3996645809122030
  0.7920290336893113  0.3327712418494993  0.3993944632814387
  0.7922139808570241  0.4579271601794513  0.3990401524615459
  0.7918047294447750  0.5828844156759905  0.3987987892469068
  0.7911113000049663  0.7076439887958297  0.3992326347708159
  0.7907446141599367  0.8323947436561755  0.3998077999475392
  0.7907676569959730  0.9571677140885854  0.3999821056934793
  0.9165022646792683  0.0829932598035108  0.3993564149738879
  0.9166248784772659  0.2079642320582964  0.3990613424532025
  0.9166972479796025  0.3330322364394804  0.3989552359821492
  0.9167124220448256  0.4581636774680934  0.3991479045315087
  0.9166281930817840  0.5833441430475361  0.3991931403298021
  0.9164276950084467  0.7084371122974619  0.3991785832225341
  0.9163196032413374  0.8333190438150835  0.3994435707410494
  0.9163913538550680  0.9581843534260465  0.3995645708015382
  0.0838915483054304  0.0427448147183113  0.3996174693788798
  0.0839700013529120  0.1675660846113572  0.3985694517714519
  0.0835839944848339  0.2922404024393175  0.3974191638867022
  0.0830171004139761  0.4169827975153598  0.3964905345523874
  0.0827006165948133  0.5419576538600693  0.3978779352033701
  0.0827502825886766  0.6671151669268901  0.3990906419606238
  0.0830109758462052  0.7923056537842663  0.3995755650552338
  0.0833427093414689  0.9174636428533653  0.3997765400183944
  0.2086990772443538  0.0429298855937924  0.4002192806435013
  0.2096121213901078  0.1688097742848426  0.4007050641307616
  0.2093720085044591  0.2936233568879002  0.4004376194903210
  0.2080969996242918  0.4179239477200838  0.3968915768417400
  0.2072790633828429  0.5423768732935584  0.3966673009418510
  0.2074246555051351  0.6673602118653389  0.3984395696710981
  0.2077921005193404  0.7923892738574002  0.3995073882058386
  0.2082230929128190  0.9175690431047827  0.3999033723095664
  0.3334295647765494  0.0425440320113330  0.4000400104115637
  0.3341649492532702  0.1682433082296439  0.4005681346424868
  0.3356140343941482  0.2954235690926659  0.4039587579821016
  0.3279980242321738  0.4182886235313817  0.4157847360646528
  0.3331771323787517  0.5449942791073520  0.4020085726503323
  0.3317746370473621  0.6676047895673861  0.3990760586478795
  0.3325378653156587  0.7923758332934064  0.3995047199133261
  0.3330278214538411  0.9173391898711682  0.3998903486252444
  0.4582970468280181  0.0415595074746832  0.3998671070800582
  0.4587107698493126  0.1664868652161288  0.4000295507838995
  0.4597254123788313  0.2914506352957670  0.4001685468815606
  0.4536082213678924  0.6640275584109228  0.4023681550436116
  0.4571772060715855  0.7914726380046749  0.4004491778318747
  0.4577844752227721  0.9165376106472065  0.4000039549469490
  0.5831045089585557  0.0408146395332315  0.3999240889242989
  0.5835555631025302  0.1658210204199979  0.3996283088912856
  0.5842613128616274  0.2905041470368257  0.3993195635359773
  0.5848340145508497  0.4148783391121229  0.3989386124410308
  0.5827776753587829  0.5391170168778924  0.3986298653041437
  0.5807166670225907  0.6634560609541137  0.4020353231195044
  0.5806945433151525  0.7886770336097119  0.4012958979797506
  0.5824382693946731  0.9154091154543901  0.4004328807904564
  0.7078424378188465  0.0405141120709843  0.4000702904852335
  0.7083745695692101  0.1657870051467916  0.3997007314534708
  0.7087987284937485  0.2908779763178970  0.3993801740657493
  0.7091234900651852  0.4159853618085019  0.3989490170746421
  0.7087934783286182  0.5408584667664015  0.3984826620901450
  0.7073569569171164  0.6652857326860213  0.3993763180490116
  0.7069861495733323  0.7901316312502418  0.4003278819208832
  0.7070824836344062  0.9149424339422727  0.4003668810838950
  0.8328680114084128  0.0408009213415780  0.3997721836264168
  0.8332334869358355  0.1660002418260095  0.3996530894228219
  0.8334638233736070  0.2911345075540955  0.3994563975639662
  0.8336140514775223  0.4162661281480445  0.3992412646736507
  0.8334557741446346  0.5413837932102150  0.3990259289862254
  0.8330666351004196  0.6664855392710672  0.3989826515917183
  0.8327307008571254  0.7911302723202530  0.3995071026289715
  0.8326824876003306  0.9158966079232543  0.3997839198527852
  0.9583796192698070  0.0417421899788062  0.3993503707772028
  0.9583920826091432  0.1665514286017035  0.3988623496204831
  0.9583197737388454  0.2914611739506797  0.3984350037046425
  0.9581945176101880  0.4165505697855596  0.3987396696629024
  0.9581124732135572  0.5417405271036694  0.3991130638782542
  0.9580316920787963  0.6668643954808283  0.3992363478182065
  0.9580493523032009  0.7919113268478549  0.3993849945184205
  0.9582095961168233  0.9169000819017327  0.3995146487866137
  0.4118171022464266  0.5846841137769765  0.4039209414701384
  0.4628911317840856  0.4150112815330641  0.3985281205804806
  0.4806543839301648  0.5241570113528772  0.5163270922284353
 
  0.00000000E+00  0.00000000E+00  0.00000000E+00
  0.00000000E+00  0.00000000E+00  0.00000000E+00
  0.00000000E+00  0.00000000E+00  0.00000000E+00
  0.00000000E+00  0.00000000E+00  0.00000000E+00
  0.00000000E+00  0.00000000E+00  0.00000000E+00
  0.00000000E+00  0.00000000E+00  0.00000000E+00
  0.00000000E+00  0.00000000E+00  0.00000000E+00
  0.00000000E+00  0.00000000E+00  0.00000000E+00
  0.00000000E+00  0.00000000E+00  0.00000000E+00
  0.00000000E+00  0.00000000E+00  0.00000000E+00
  0.00000000E+00  0.00000000E+00  0.00000000E+00
  0.00000000E+00  0.00000000E+00  0.00000000E+00
  0.00000000E+00  0.00000000E+00  0.00000000E+00
  0.00000000E+00  0.00000000E+00  0.00000000E+00
  0.00000000E+00  0.00000000E+00  0.00000000E+00
  0.00000000E+00  0.00000000E+00  0.00000000E+00
  0.00000000E+00  0.00000000E+00  0.00000000E+00
  0.00000000E+00  0.00000000E+00  0.00000000E+00
  0.00000000E+00  0.00000000E+00  0.00000000E+00
  0.00000000E+00  0.00000000E+00  0.00000000E+00
  0.00000000E+00  0.00000000E+00  0.00000000E+00
  0.00000000E+00  0.00000000E+00  0.00000000E+00
  0.00000000E+00  0.00000000E+00  0.00000000E+00
  0.00000000E+00  0.00000000E+00  0.00000000E+00
  0.00000000E+00  0.00000000E+00  0.00000000E+00
  0.00000000E+00  0.00000000E+00  0.00000000E+00
  0.00000000E+00  0.00000000E+00  0.00000000E+00
  0.00000000E+00  0.00000000E+00  0.00000000E+00
  0.00000000E+00  0.00000000E+00  0.00000000E+00
  0.00000000E+00  0.00000000E+00  0.00000000E+00
  0.00000000E+00  0.00000000E+00  0.00000000E+00
  0.00000000E+00  0.00000000E+00  0.00000000E+00
  0.00000000E+00  0.00000000E+00  0.00000000E+00
  0.00000000E+00  0.00000000E+00  0.00000000E+00
  0.00000000E+00  0.00000000E+00  0.00000000E+00
  0.00000000E+00  0.00000000E+00  0.00000000E+00
  0.00000000E+00  0.00000000E+00  0.00000000E+00
  0.00000000E+00  0.00000000E+00  0.00000000E+00
  0.00000000E+00  0.00000000E+00  0.00000000E+00
  0.00000000E+00  0.00000000E+00  0.00000000E+00
  0.00000000E+00  0.00000000E+00  0.00000000E+00
  0.00000000E+00  0.00000000E+00  0.00000000E+00
  0.00000000E+00  0.00000000E+00  0.00000000E+00
  0.00000000E+00  0.00000000E+00  0.00000000E+00
  0.00000000E+00  0.00000000E+00  0.00000000E+00
  0.00000000E+00  0.00000000E+00  0.00000000E+00
  0.00000000E+00  0.00000000E+00  0.00000000E+00
  0.00000000E+00  0.00000000E+00  0.00000000E+00
  0.00000000E+00  0.00000000E+00  0.00000000E+00
  0.00000000E+00  0.00000000E+00  0.00000000E+00
  0.00000000E+00  0.00000000E+00  0.00000000E+00
  0.00000000E+00  0.00000000E+00  0.00000000E+00
  0.00000000E+00  0.00000000E+00  0.00000000E+00
  0.00000000E+00  0.00000000E+00  0.00000000E+00
  0.00000000E+00  0.00000000E+00  0.00000000E+00
  0.00000000E+00  0.00000000E+00  0.00000000E+00
  0.00000000E+00  0.00000000E+00  0.00000000E+00
  0.00000000E+00  0.00000000E+00  0.00000000E+00
  0.00000000E+00  0.00000000E+00  0.00000000E+00
  0.00000000E+00  0.00000000E+00  0.00000000E+00
  0.00000000E+00  0.00000000E+00  0.00000000E+00
  0.00000000E+00  0.00000000E+00  0.00000000E+00
  0.00000000E+00  0.00000000E+00  0.00000000E+00
  0.00000000E+00  0.00000000E+00  0.00000000E+00
  0.00000000E+00  0.00000000E+00  0.00000000E+00
  0.00000000E+00  0.00000000E+00  0.00000000E+00
  0.00000000E+00  0.00000000E+00  0.00000000E+00
  0.00000000E+00  0.00000000E+00  0.00000000E+00
  0.00000000E+00  0.00000000E+00  0.00000000E+00
  0.00000000E+00  0.00000000E+00  0.00000000E+00
  0.00000000E+00  0.00000000E+00  0.00000000E+00
  0.00000000E+00  0.00000000E+00  0.00000000E+00
  0.00000000E+00  0.00000000E+00  0.00000000E+00
  0.00000000E+00  0.00000000E+00  0.00000000E+00
  0.00000000E+00  0.00000000E+00  0.00000000E+00
  0.00000000E+00  0.00000000E+00  0.00000000E+00
  0.00000000E+00  0.00000000E+00  0.00000000E+00
  0.00000000E+00  0.00000000E+00  0.00000000E+00
  0.00000000E+00  0.00000000E+00  0.00000000E+00
  0.00000000E+00  0.00000000E+00  0.00000000E+00
  0.00000000E+00  0.00000000E+00  0.00000000E+00
  0.00000000E+00  0.00000000E+00  0.00000000E+00
  0.00000000E+00  0.00000000E+00  0.00000000E+00
  0.00000000E+00  0.00000000E+00  0.00000000E+00
  0.00000000E+00  0.00000000E+00  0.00000000E+00
  0.00000000E+00  0.00000000E+00  0.00000000E+00
  0.00000000E+00  0.00000000E+00  0.00000000E+00
  0.00000000E+00  0.00000000E+00  0.00000000E+00
  0.00000000E+00  0.00000000E+00  0.00000000E+00
  0.00000000E+00  0.00000000E+00  0.00000000E+00
  0.00000000E+00  0.00000000E+00  0.00000000E+00
  0.00000000E+00  0.00000000E+00  0.00000000E+00
  0.00000000E+00  0.00000000E+00  0.00000000E+00
  0.00000000E+00  0.00000000E+00  0.00000000E+00
  0.00000000E+00  0.00000000E+00  0.00000000E+00
  0.00000000E+00  0.00000000E+00  0.00000000E+00
  0.00000000E+00  0.00000000E+00  0.00000000E+00
  0.00000000E+00  0.00000000E+00  0.00000000E+00
  0.00000000E+00  0.00000000E+00  0.00000000E+00
  0.00000000E+00  0.00000000E+00  0.00000000E+00
  0.00000000E+00  0.00000000E+00  0.00000000E+00
  0.00000000E+00  0.00000000E+00  0.00000000E+00
  0.00000000E+00  0.00000000E+00  0.00000000E+00
  0.00000000E+00  0.00000000E+00  0.00000000E+00
  0.00000000E+00  0.00000000E+00  0.00000000E+00
  0.00000000E+00  0.00000000E+00  0.00000000E+00
  0.00000000E+00  0.00000000E+00  0.00000000E+00
  0.00000000E+00  0.00000000E+00  0.00000000E+00
  0.00000000E+00  0.00000000E+00  0.00000000E+00
  0.00000000E+00  0.00000000E+00  0.00000000E+00
  0.00000000E+00  0.00000000E+00  0.00000000E+00
  0.00000000E+00  0.00000000E+00  0.00000000E+00
  0.00000000E+00  0.00000000E+00  0.00000000E+00
  0.00000000E+00  0.00000000E+00  0.00000000E+00
  0.00000000E+00  0.00000000E+00  0.00000000E+00
  0.00000000E+00  0.00000000E+00  0.00000000E+00
  0.00000000E+00  0.00000000E+00  0.00000000E+00
  0.00000000E+00  0.00000000E+00  0.00000000E+00
  0.00000000E+00  0.00000000E+00  0.00000000E+00
  0.00000000E+00  0.00000000E+00  0.00000000E+00
  0.00000000E+00  0.00000000E+00  0.00000000E+00
  0.00000000E+00  0.00000000E+00  0.00000000E+00
  0.00000000E+00  0.00000000E+00  0.00000000E+00
  0.00000000E+00  0.00000000E+00  0.00000000E+00
  0.00000000E+00  0.00000000E+00  0.00000000E+00
  0.00000000E+00  0.00000000E+00  0.00000000E+00
  0.00000000E+00  0.00000000E+00  0.00000000E+00
  0.00000000E+00  0.00000000E+00  0.00000000E+00
  0.00000000E+00  0.00000000E+00  0.00000000E+00
