H1 Ir1 C122 N4                          
   1.00000000000000     
    19.8564607950446010   -0.0000774918248513    0.0117716744950525
    -9.9283006842973389   17.0213898533358439   -0.0056452179235656
     0.0176522269959641    0.0004205357384506   29.7718853512633501
   H    Ir   C    N 
     1     1   122     4
Direct
  0.4373813576697306  0.4999989206567131  0.4631255793449197
  0.4374678487169919  0.4999996853627222  0.4108442008822964
  0.0420989362677873  0.0843430789328428  0.4000075965754920
  0.0406088718541912  0.2080196895640477  0.4001168960832360
  0.0395338543276831  0.3326542150092002  0.3996880883651602
  0.0397211901233999  0.4581470219415955  0.3990354756625010
  0.0410585421775981  0.5839516053259040  0.3988703318580442
  0.0423123333878566  0.7096257387781653  0.3992537139959002
  0.0427647622056308  0.8349478548865207  0.3994822218213963
  0.0428311673374337  0.9600985888140776  0.3995745416876267
  0.1685537673879784  0.0865330604069352  0.4007442676960742
  0.1674452050500856  0.2107063803254530  0.4018276649844203
  0.1640580754618282  0.3334743644223295  0.4021278419419448
  0.1625908665893846  0.4584175666311697  0.4010234000005185
  0.1642040261933760  0.5838720843565933  0.3997100645609823
  0.1661674580391513  0.7093617525342055  0.3992372143286578
  0.1671840412400611  0.8349471564435121  0.3994718806176140
  0.1678515889414359  0.9606632918732009  0.3998405941344101
  0.2930135292024390  0.0865206474440381  0.4007289839123796
  0.2946758342958976  0.2143439119104541  0.4030261020019238
  0.2918717893651803  0.3391313414581675  0.4051493420070604
  0.2845310044002609  0.4580513811213971  0.4050951024884024
  0.2866866924214190  0.5833170073038733  0.4027095039347985
  0.2900515616541001  0.7086657974117426  0.4005163481738745
  0.2915181988944754  0.8342388264855083  0.3994725513033492
  0.2923145667914381  0.9600956026015278  0.3995905916043697
  0.4172854057703045  0.0843296399100481  0.4000257207087695
  0.4182504415718227  0.2107068387662603  0.4018611278462851
  0.4222300429418605  0.3391528160991779  0.4051934949414324
  0.4138576554679269  0.7057380915013273  0.4030040385626371
  0.4157764821679181  0.8320694265994008  0.4006215508375225
  0.4166250010719794  0.9582197464221172  0.3995598904309171
  0.5415487429997250  0.0822335950729501  0.3994636061850232
  0.5424165820240945  0.2080310856898442  0.4001473243510029
  0.5443807497482820  0.3334924354597218  0.4021462455760949
  0.5484853554481455  0.4580765426683123  0.4051637088959654
  0.5376610709483072  0.7003522489846328  0.4049355246261199
  0.5400248208088206  0.8293483326470429  0.4019390193335169
  0.5408920962254519  0.9560968996085143  0.4000396890456967
  0.6658927617688316  0.0813398696493868  0.3996133249568816
  0.6666525921535537  0.2070119337897697  0.3993533649158047
  0.6680979381697755  0.3326698462321171  0.3996901698018755
  0.6708025960826257  0.4584377301361496  0.4010161195722394
  0.6716060552222360  0.5833315468116367  0.4027357706292521
  0.6668427717893219  0.7057309475396272  0.4030512065211456
  0.6643452883722520  0.8293552046181369  0.4019370196405426
  0.6652803088466415  0.9555133738090021  0.4004263721027498
  0.7904931009657159  0.0813408236644387  0.3996139354291493
  0.7908984920320934  0.2067755930817169  0.3995152356921489
  0.7918328631286000  0.3323964278635595  0.3990752874587543
  0.7933953557618292  0.4581541448649771  0.3990469464616933
  0.7946299163747368  0.5838786502964936  0.3997094369983956
  0.7935820897406511  0.7086580937357008  0.4005290590024064
  0.7912990052694083  0.8320590493811353  0.4006550795025943
  0.7902543282890556  0.9561146981110469  0.4000455809939393
  0.9157362125571115  0.0822308452060708  0.3994599631718317
  0.9153687044274672  0.2069917246698273  0.3993313313840413
  0.9155714570005575  0.3323946714125890  0.3990800231749683
  0.9165771810795774  0.4581764823753021  0.3988023832699372
  0.9178519247095487  0.5839583824371617  0.3988609029020939
  0.9181612418612572  0.7093357288724138  0.3992385805373711
  0.9177269030862049  0.8342156981424477  0.3994912013611749
  0.9166611130376546  0.9582235288609675  0.3995609199309121
  0.0847971321941043  0.0438977757569288  0.4000355778936363
  0.0837105241142829  0.1679310353013003  0.4006214201726084
  0.0813909221381169  0.2913403311564818  0.4005211416376472
  0.0803420553534754  0.4161310744274047  0.3997113545000205
  0.0815868759596221  0.5418520827118339  0.3990350755700551
  0.0831838095258681  0.6676043706337572  0.3990763256407807
  0.0841250114560280  0.7932278439596634  0.3995136570820119
  0.0845538566041231  0.9186604358994637  0.3996102368714302
  0.2097710728427883  0.0444867748295978  0.4004235464595140
  0.2106815729454731  0.1706530699148245  0.4019401937102603
  0.2081224472013584  0.2942668270097636  0.4030067657002541
  0.2033707864194836  0.4166871761980830  0.4027127974319204
  0.2041745871860239  0.5415777204473190  0.4010218083178987
  0.2068802183547969  0.6673371144018132  0.3996857115520254
  0.2083771627373407  0.7930049449092428  0.3993312189113251
  0.2091530176112062  0.9186611903547347  0.3996138344263009
  0.3341452393845167  0.0438892399079172  0.4000457838419943
  0.3349974508707374  0.1706467062083721  0.4019373776435922
  0.3373116429372203  0.2996486288099501  0.4049381689155837
  0.3264770627422338  0.5419458433179360  0.4050932307957686
  0.3305799157636298  0.6665160373261448  0.4021231609512150
  0.3325864417269838  0.7919730402069231  0.4001157305395532
  0.3335080132126881  0.9177726271688945  0.3994619888235477
  0.4584443285676436  0.0417834679421322  0.3995648988481851
  0.4592457767136771  0.1679426595829056  0.4006540838403700
  0.4611159206658897  0.2942688633020898  0.4030504938450505
  0.4527413197012984  0.6608656556103887  0.4051474787984450
  0.4567405493964870  0.7892905713845280  0.4018251622545468
  0.4577610713645770  0.9156614962655232  0.4000130922592872
  0.5827357080737785  0.0399068164492917  0.3995790256986260
  0.5835119026149450  0.1657837122486975  0.3994920375420384
  0.5849219214961796  0.2913403242897685  0.4005294006499905
  0.5882746787464807  0.4166677527219737  0.4027383112550187
  0.5904123029726276  0.5419267619215247  0.4051631988394637
  0.5830791817845667  0.6608497018304077  0.4051931040483328
  0.5803349636354513  0.7856575405478181  0.4030241597051429
  0.5820250365910450  0.9134699313057778  0.4007464098504466
  0.7071889699186680  0.0393369461385352  0.3998431826950622
  0.7078146931349965  0.1650481592366119  0.3994833914325276
  0.7088213312874888  0.2906578162113512  0.3992406123394345
  0.7107448407253198  0.4161198588434463  0.3997115828516874
  0.7123598302216657  0.5415629208975933  0.4010150526434997
  0.7108897722015318  0.6665108788081618  0.4021452448021547
  0.7075468852680445  0.7892940957580098  0.4018628529358333
  0.7064940095706103  0.9134784515522824  0.4007293112000361
  0.8322162401677816  0.0398996890503819  0.3995904074455410
  0.8322367161490060  0.1650494755657505  0.3994712288502426
  0.8326905093011834  0.2903712486512585  0.3992585544629154
  0.8338953358969460  0.4160406915584511  0.3988640767652512
  0.8352375502172953  0.5418490682382755  0.3990458605329912
  0.8354262104246073  0.6673357021330615  0.3996882453039713
  0.8343871455565472  0.7919715559120645  0.4001481678375602
  0.8329558230747589  0.9156663972306049  0.4000239421561068
  0.9584040723737602  0.0417726859993785  0.3995555004526419
  0.9572801230547889  0.1657606193727113  0.3994715520031353
  0.9568154314524020  0.2906423324307453  0.3992397527768579
  0.9571220000549850  0.4160504690995029  0.3988727531794602
  0.9584105440911012  0.5418242262782408  0.3988001912352505
  0.9594385608485788  0.6676082450548281  0.3990715240478495
  0.9596418873484688  0.7929930981176304  0.3993530263851975
  0.9593148239899703  0.9177623191587883  0.3994602890862635
  0.4066250407238585  0.5803726750275754  0.4068602341975190
  0.5487004305041033  0.5803649179255067  0.4069181069299335
  0.3262517805812015  0.4196287953610668  0.4068622367073655
  0.4683382413354298  0.4196362471340924  0.4069188971996113
 
  0.00000000E+00  0.00000000E+00  0.00000000E+00
  0.00000000E+00  0.00000000E+00  0.00000000E+00
  0.00000000E+00  0.00000000E+00  0.00000000E+00
  0.00000000E+00  0.00000000E+00  0.00000000E+00
  0.00000000E+00  0.00000000E+00  0.00000000E+00
  0.00000000E+00  0.00000000E+00  0.00000000E+00
  0.00000000E+00  0.00000000E+00  0.00000000E+00
  0.00000000E+00  0.00000000E+00  0.00000000E+00
  0.00000000E+00  0.00000000E+00  0.00000000E+00
  0.00000000E+00  0.00000000E+00  0.00000000E+00
  0.00000000E+00  0.00000000E+00  0.00000000E+00
  0.00000000E+00  0.00000000E+00  0.00000000E+00
  0.00000000E+00  0.00000000E+00  0.00000000E+00
  0.00000000E+00  0.00000000E+00  0.00000000E+00
  0.00000000E+00  0.00000000E+00  0.00000000E+00
  0.00000000E+00  0.00000000E+00  0.00000000E+00
  0.00000000E+00  0.00000000E+00  0.00000000E+00
  0.00000000E+00  0.00000000E+00  0.00000000E+00
  0.00000000E+00  0.00000000E+00  0.00000000E+00
  0.00000000E+00  0.00000000E+00  0.00000000E+00
  0.00000000E+00  0.00000000E+00  0.00000000E+00
  0.00000000E+00  0.00000000E+00  0.00000000E+00
  0.00000000E+00  0.00000000E+00  0.00000000E+00
  0.00000000E+00  0.00000000E+00  0.00000000E+00
  0.00000000E+00  0.00000000E+00  0.00000000E+00
  0.00000000E+00  0.00000000E+00  0.00000000E+00
  0.00000000E+00  0.00000000E+00  0.00000000E+00
  0.00000000E+00  0.00000000E+00  0.00000000E+00
  0.00000000E+00  0.00000000E+00  0.00000000E+00
  0.00000000E+00  0.00000000E+00  0.00000000E+00
  0.00000000E+00  0.00000000E+00  0.00000000E+00
  0.00000000E+00  0.00000000E+00  0.00000000E+00
  0.00000000E+00  0.00000000E+00  0.00000000E+00
  0.00000000E+00  0.00000000E+00  0.00000000E+00
  0.00000000E+00  0.00000000E+00  0.00000000E+00
  0.00000000E+00  0.00000000E+00  0.00000000E+00
  0.00000000E+00  0.00000000E+00  0.00000000E+00
  0.00000000E+00  0.00000000E+00  0.00000000E+00
  0.00000000E+00  0.00000000E+00  0.00000000E+00
  0.00000000E+00  0.00000000E+00  0.00000000E+00
  0.00000000E+00  0.00000000E+00  0.00000000E+00
  0.00000000E+00  0.00000000E+00  0.00000000E+00
  0.00000000E+00  0.00000000E+00  0.00000000E+00
  0.00000000E+00  0.00000000E+00  0.00000000E+00
  0.00000000E+00  0.00000000E+00  0.00000000E+00
  0.00000000E+00  0.00000000E+00  0.00000000E+00
  0.00000000E+00  0.00000000E+00  0.00000000E+00
  0.00000000E+00  0.00000000E+00  0.00000000E+00
  0.00000000E+00  0.00000000E+00  0.00000000E+00
  0.00000000E+00  0.00000000E+00  0.00000000E+00
  0.00000000E+00  0.00000000E+00  0.00000000E+00
  0.00000000E+00  0.00000000E+00  0.00000000E+00
  0.00000000E+00  0.00000000E+00  0.00000000E+00
  0.00000000E+00  0.00000000E+00  0.00000000E+00
  0.00000000E+00  0.00000000E+00  0.00000000E+00
  0.00000000E+00  0.00000000E+00  0.00000000E+00
  0.00000000E+00  0.00000000E+00  0.00000000E+00
  0.00000000E+00  0.00000000E+00  0.00000000E+00
  0.00000000E+00  0.00000000E+00  0.00000000E+00
  0.00000000E+00  0.00000000E+00  0.00000000E+00
  0.00000000E+00  0.00000000E+00  0.00000000E+00
  0.00000000E+00  0.00000000E+00  0.00000000E+00
  0.00000000E+00  0.00000000E+00  0.00000000E+00
  0.00000000E+00  0.00000000E+00  0.00000000E+00
  0.00000000E+00  0.00000000E+00  0.00000000E+00
  0.00000000E+00  0.00000000E+00  0.00000000E+00
  0.00000000E+00  0.00000000E+00  0.00000000E+00
  0.00000000E+00  0.00000000E+00  0.00000000E+00
  0.00000000E+00  0.00000000E+00  0.00000000E+00
  0.00000000E+00  0.00000000E+00  0.00000000E+00
  0.00000000E+00  0.00000000E+00  0.00000000E+00
  0.00000000E+00  0.00000000E+00  0.00000000E+00
  0.00000000E+00  0.00000000E+00  0.00000000E+00
  0.00000000E+00  0.00000000E+00  0.00000000E+00
  0.00000000E+00  0.00000000E+00  0.00000000E+00
  0.00000000E+00  0.00000000E+00  0.00000000E+00
  0.00000000E+00  0.00000000E+00  0.00000000E+00
  0.00000000E+00  0.00000000E+00  0.00000000E+00
  0.00000000E+00  0.00000000E+00  0.00000000E+00
  0.00000000E+00  0.00000000E+00  0.00000000E+00
  0.00000000E+00  0.00000000E+00  0.00000000E+00
  0.00000000E+00  0.00000000E+00  0.00000000E+00
  0.00000000E+00  0.00000000E+00  0.00000000E+00
  0.00000000E+00  0.00000000E+00  0.00000000E+00
  0.00000000E+00  0.00000000E+00  0.00000000E+00
  0.00000000E+00  0.00000000E+00  0.00000000E+00
  0.00000000E+00  0.00000000E+00  0.00000000E+00
  0.00000000E+00  0.00000000E+00  0.00000000E+00
  0.00000000E+00  0.00000000E+00  0.00000000E+00
  0.00000000E+00  0.00000000E+00  0.00000000E+00
  0.00000000E+00  0.00000000E+00  0.00000000E+00
  0.00000000E+00  0.00000000E+00  0.00000000E+00
  0.00000000E+00  0.00000000E+00  0.00000000E+00
  0.00000000E+00  0.00000000E+00  0.00000000E+00
  0.00000000E+00  0.00000000E+00  0.00000000E+00
  0.00000000E+00  0.00000000E+00  0.00000000E+00
  0.00000000E+00  0.00000000E+00  0.00000000E+00
  0.00000000E+00  0.00000000E+00  0.00000000E+00
  0.00000000E+00  0.00000000E+00  0.00000000E+00
  0.00000000E+00  0.00000000E+00  0.00000000E+00
  0.00000000E+00  0.00000000E+00  0.00000000E+00
  0.00000000E+00  0.00000000E+00  0.00000000E+00
  0.00000000E+00  0.00000000E+00  0.00000000E+00
  0.00000000E+00  0.00000000E+00  0.00000000E+00
  0.00000000E+00  0.00000000E+00  0.00000000E+00
  0.00000000E+00  0.00000000E+00  0.00000000E+00
  0.00000000E+00  0.00000000E+00  0.00000000E+00
  0.00000000E+00  0.00000000E+00  0.00000000E+00
  0.00000000E+00  0.00000000E+00  0.00000000E+00
  0.00000000E+00  0.00000000E+00  0.00000000E+00
  0.00000000E+00  0.00000000E+00  0.00000000E+00
  0.00000000E+00  0.00000000E+00  0.00000000E+00
  0.00000000E+00  0.00000000E+00  0.00000000E+00
  0.00000000E+00  0.00000000E+00  0.00000000E+00
  0.00000000E+00  0.00000000E+00  0.00000000E+00
  0.00000000E+00  0.00000000E+00  0.00000000E+00
  0.00000000E+00  0.00000000E+00  0.00000000E+00
  0.00000000E+00  0.00000000E+00  0.00000000E+00
  0.00000000E+00  0.00000000E+00  0.00000000E+00
  0.00000000E+00  0.00000000E+00  0.00000000E+00
  0.00000000E+00  0.00000000E+00  0.00000000E+00
  0.00000000E+00  0.00000000E+00  0.00000000E+00
  0.00000000E+00  0.00000000E+00  0.00000000E+00
  0.00000000E+00  0.00000000E+00  0.00000000E+00
  0.00000000E+00  0.00000000E+00  0.00000000E+00
  0.00000000E+00  0.00000000E+00  0.00000000E+00
  0.00000000E+00  0.00000000E+00  0.00000000E+00
  0.00000000E+00  0.00000000E+00  0.00000000E+00
