Zr1 C122 N4                             
   1.00000000000000     
    19.7923010732623226   -0.0000090324951931   -0.0161462267029580
    -9.8961588739024062   17.0493466634303843    0.0080657497442608
    -0.0243017224512673   -0.0000118075757322   29.8193703823001393
   Zr   C    N 
     1   122     4
Direct
  0.4286134805336242  0.5000018757415223  0.4335042866883805
  0.0418630136013872  0.0837261838709973  0.3995079370209445
  0.0412424225970551  0.2082055574147485  0.3994888636657185
  0.0407603734225117  0.3331347374056305  0.4000621965298133
  0.0407840735565482  0.4582919309451584  0.4002165227490320
  0.0414273825065303  0.5835720503636050  0.3998939070115726
  0.0420143509310403  0.7088723743598971  0.3998629933847235
  0.0420752756150830  0.8339190883788756  0.3999738848238336
  0.0422268225684126  0.9590681081166280  0.3997676546893451
  0.1676691688179240  0.0848714567931756  0.3995301692457405
  0.1671174753824679  0.2092579484454271  0.3992952576254563
  0.1655321864148975  0.3337046326452465  0.3998483322239474
  0.1648345162497057  0.4583570505051678  0.4011418883462335
  0.1655669542684726  0.5836255156264278  0.4004953866938122
  0.1664570699175612  0.7087855035283065  0.3998386392566330
  0.1669336493564211  0.8339652733141425  0.3998439992593014
  0.1672609940953819  0.9593619061201888  0.3998253112830339
  0.2923576499231888  0.0849664661771709  0.3997556086821921
  0.2936066668320918  0.2118096473118316  0.4003118581573936
  0.2913075871959701  0.3357303691294851  0.4000138565042149
  0.2889728956336578  0.4579980767684226  0.4006478790218033
  0.2892480442537643  0.5832470802332885  0.4010523587936878
  0.2909218722183795  0.7082453610560524  0.3997618442136926
  0.2917606576549388  0.8336811147336418  0.3995986767940782
  0.2920346305646535  0.9592165489196993  0.3996869283598287
  0.4170863000611037  0.0841120000222669  0.3995575946879729
  0.4174529789168693  0.2101017617402390  0.3998966375985865
  0.4204957429055597  0.3378990214235781  0.4041270058902150
  0.4156846879174171  0.7072783271587765  0.3991388645902896
  0.4164341441742230  0.8328383490843397  0.3993888181958303
  0.4167215966707807  0.9583820266106600  0.3996138673436824
  0.5416994563433112  0.0829756896587632  0.3997180714510581
  0.5420694072871483  0.2084169487661492  0.3995400244077872
  0.5434138166511707  0.3338543721796975  0.4005964615700517
  0.5451658370276817  0.4584031567089990  0.4041550098453254
  0.5395222711260981  0.7034139192664686  0.4017477781926343
  0.5410090458379013  0.8312449286500975  0.3995472145817873
  0.5414630016939594  0.9573033710701964  0.3995561850742360
  0.6663649974948541  0.0825030288187149  0.3999014644397223
  0.6668176291437401  0.2078646129682065  0.3998009423627543
  0.6675945969277643  0.3332306449060670  0.3990815356975116
  0.6688369053383508  0.4585199469867214  0.3988691059722058
  0.6688438799525732  0.5828805543166159  0.4006343578369046
  0.6659532942637155  0.7061860763917253  0.4011819749085909
  0.6652986610479761  0.8310746735360687  0.4000574514296872
  0.6660923927576076  0.9570199566553346  0.3997150989049680
  0.7911647799151424  0.0824135110703796  0.3998145896276905
  0.7914419682908741  0.2077266399773767  0.3999535153952948
  0.7918565465260370  0.3329932197764752  0.3996110378584900
  0.7926189029095878  0.4582776573073007  0.3987196511588858
  0.7932037027570492  0.5835863808370094  0.3985579979963148
  0.7922736480095552  0.7080827963294798  0.3995512863730042
  0.7910913059352512  0.8322887865887054  0.3995164402985664
  0.7908570412653777  0.9571562936549176  0.3996421583605014
  0.9162935991363754  0.0827684991627366  0.3996299509300766
  0.9161066880185659  0.2077945866253157  0.3997196763688668
  0.9162481113109431  0.3329569591985503  0.3998587660683710
  0.9167289260050332  0.4583032839154980  0.3996488467757438
  0.9172843799549365  0.5835810138824210  0.3993417024759863
  0.9173516445069806  0.7086609006229437  0.3994867429076825
  0.9169735010795581  0.8335747382440049  0.3996687713289307
  0.9164477187879327  0.9580165324391632  0.3996356581662331
  0.0841605374215067  0.0426966106367960  0.3995570017503303
  0.0835966479268380  0.1671611609457938  0.3993884494007575
  0.0826772093863864  0.2917541732750999  0.3997616593849200
  0.0819403653259108  0.4163729774660478  0.4004953034378882
  0.0824917093114902  0.5417066396615411  0.4002161137841161
  0.0832905606558452  0.6670418133771694  0.3998608757356277
  0.0837155836844345  0.7922728618811532  0.3999553244912440
  0.0838626366005240  0.9174964960157065  0.3999016044940559
  0.2090723982954894  0.0429794748252893  0.3997139586415520
  0.2097650654998451  0.1687553506437889  0.3995443672580645
  0.2084070375617808  0.2927223436972340  0.3991383043150783
  0.2060016425415904  0.4167531232024003  0.4010519113740278
  0.2064772502998672  0.5416415483985919  0.4011422274850884
  0.2076246027487419  0.6668643745971987  0.4000631568168947
  0.2083115532503446  0.7922053042211747  0.3997213080491167
  0.2087522796476983  0.9175867189015449  0.3998138183461903
  0.3337005109276330  0.0428433761670138  0.3996392592870545
  0.3342234909109396  0.1689252024607133  0.4000554660260598
  0.3361079961139758  0.2965875054366190  0.4017448704910592
  0.3309755785051027  0.5420032734847878  0.4006473798692525
  0.3318272614583583  0.6662954564917208  0.3998485792519124
  0.3330358505691433  0.7917941600967892  0.3994881965868693
  0.3335249474315995  0.9172306252195994  0.3996292433067826
  0.4584301991421846  0.0419825731718728  0.3996362332331246
  0.4588022645526275  0.1677111719129708  0.3995159356040258
  0.4597661875374219  0.2938139799172536  0.4011817252585107
  0.4555788290364594  0.6642718270788239  0.4000145365703008
  0.4578589200871077  0.7907422717753427  0.3992975246158145
  0.4581366911702390  0.9162731800387666  0.3995070700297476
  0.5831575138642904  0.0409318355754145  0.3997664523690977
  0.5833989422649539  0.1664256212183574  0.3996707599245989
  0.5841914545564807  0.2919179402883945  0.3995521680708821
  0.5859640611826080  0.4171196729788145  0.4006351149125661
  0.5867626774431476  0.5415969651610085  0.4041560896220328
  0.5825984416086053  0.6621020581255047  0.4041289748292138
  0.5817975880861609  0.7881911129990415  0.4003149891659777
  0.5827978786746738  0.9151286235388065  0.3995304161873391
  0.7078982711771200  0.0406377113281844  0.3998260870086556
  0.7081553683330847  0.1660803171779160  0.3999751019332158
  0.7086913143977118  0.2913402910986415  0.3994882435584761
  0.7096184556498739  0.4164153051855849  0.3985591380710610
  0.7103171203570375  0.5414810494367003  0.3988678871183018
  0.7095599287659742  0.6661456994290313  0.4005959010321757
  0.7073518606182636  0.7898986302531870  0.3998974866641196
  0.7073915951582382  0.9150329908969487  0.3997584699013923
  0.8328175217828769  0.0407833230795904  0.3996879520787856
  0.8329684620309609  0.1660351543496606  0.3998428404412911
  0.8331416320979598  0.2911269620594518  0.3998601031987247
  0.8337035028984947  0.4164189736443498  0.3993415571760401
  0.8343412575113885  0.5417231085913781  0.3987192226046555
  0.8343635168801372  0.6667699614086458  0.3990802368880700
  0.8336525856398026  0.7915828618134538  0.3995394002451837
  0.8329747699234150  0.9158874484700698  0.3995585440090869
  0.9583394326823098  0.0416172468504105  0.3996152779611156
  0.9580801041963832  0.1663183869025082  0.3995985404485606
  0.9576716321235509  0.2912137146927186  0.3998365542652613
  0.9578542859166993  0.4164268847550161  0.3998931458395882
  0.9584257809939569  0.5416968176731448  0.3996492986812289
  0.9588631261113167  0.6670069353026039  0.3996115650142946
  0.9589530633490408  0.7921354915405981  0.3997987616679991
  0.9587251102710352  0.9170242024485133  0.3997165554469040
  0.4125460650838210  0.5836017542334838  0.4008163641577899
  0.5454577481657227  0.5811065549426879  0.4098292035779347
  0.3289456142330049  0.4164004421481450  0.4008166108505922
  0.4643511863081807  0.4188943509465339  0.4098270820854637
 
  0.00000000E+00  0.00000000E+00  0.00000000E+00
  0.00000000E+00  0.00000000E+00  0.00000000E+00
  0.00000000E+00  0.00000000E+00  0.00000000E+00
  0.00000000E+00  0.00000000E+00  0.00000000E+00
  0.00000000E+00  0.00000000E+00  0.00000000E+00
  0.00000000E+00  0.00000000E+00  0.00000000E+00
  0.00000000E+00  0.00000000E+00  0.00000000E+00
  0.00000000E+00  0.00000000E+00  0.00000000E+00
  0.00000000E+00  0.00000000E+00  0.00000000E+00
  0.00000000E+00  0.00000000E+00  0.00000000E+00
  0.00000000E+00  0.00000000E+00  0.00000000E+00
  0.00000000E+00  0.00000000E+00  0.00000000E+00
  0.00000000E+00  0.00000000E+00  0.00000000E+00
  0.00000000E+00  0.00000000E+00  0.00000000E+00
  0.00000000E+00  0.00000000E+00  0.00000000E+00
  0.00000000E+00  0.00000000E+00  0.00000000E+00
  0.00000000E+00  0.00000000E+00  0.00000000E+00
  0.00000000E+00  0.00000000E+00  0.00000000E+00
  0.00000000E+00  0.00000000E+00  0.00000000E+00
  0.00000000E+00  0.00000000E+00  0.00000000E+00
  0.00000000E+00  0.00000000E+00  0.00000000E+00
  0.00000000E+00  0.00000000E+00  0.00000000E+00
  0.00000000E+00  0.00000000E+00  0.00000000E+00
  0.00000000E+00  0.00000000E+00  0.00000000E+00
  0.00000000E+00  0.00000000E+00  0.00000000E+00
  0.00000000E+00  0.00000000E+00  0.00000000E+00
  0.00000000E+00  0.00000000E+00  0.00000000E+00
  0.00000000E+00  0.00000000E+00  0.00000000E+00
  0.00000000E+00  0.00000000E+00  0.00000000E+00
  0.00000000E+00  0.00000000E+00  0.00000000E+00
  0.00000000E+00  0.00000000E+00  0.00000000E+00
  0.00000000E+00  0.00000000E+00  0.00000000E+00
  0.00000000E+00  0.00000000E+00  0.00000000E+00
  0.00000000E+00  0.00000000E+00  0.00000000E+00
  0.00000000E+00  0.00000000E+00  0.00000000E+00
  0.00000000E+00  0.00000000E+00  0.00000000E+00
  0.00000000E+00  0.00000000E+00  0.00000000E+00
  0.00000000E+00  0.00000000E+00  0.00000000E+00
  0.00000000E+00  0.00000000E+00  0.00000000E+00
  0.00000000E+00  0.00000000E+00  0.00000000E+00
  0.00000000E+00  0.00000000E+00  0.00000000E+00
  0.00000000E+00  0.00000000E+00  0.00000000E+00
  0.00000000E+00  0.00000000E+00  0.00000000E+00
  0.00000000E+00  0.00000000E+00  0.00000000E+00
  0.00000000E+00  0.00000000E+00  0.00000000E+00
  0.00000000E+00  0.00000000E+00  0.00000000E+00
  0.00000000E+00  0.00000000E+00  0.00000000E+00
  0.00000000E+00  0.00000000E+00  0.00000000E+00
  0.00000000E+00  0.00000000E+00  0.00000000E+00
  0.00000000E+00  0.00000000E+00  0.00000000E+00
  0.00000000E+00  0.00000000E+00  0.00000000E+00
  0.00000000E+00  0.00000000E+00  0.00000000E+00
  0.00000000E+00  0.00000000E+00  0.00000000E+00
  0.00000000E+00  0.00000000E+00  0.00000000E+00
  0.00000000E+00  0.00000000E+00  0.00000000E+00
  0.00000000E+00  0.00000000E+00  0.00000000E+00
  0.00000000E+00  0.00000000E+00  0.00000000E+00
  0.00000000E+00  0.00000000E+00  0.00000000E+00
  0.00000000E+00  0.00000000E+00  0.00000000E+00
  0.00000000E+00  0.00000000E+00  0.00000000E+00
  0.00000000E+00  0.00000000E+00  0.00000000E+00
  0.00000000E+00  0.00000000E+00  0.00000000E+00
  0.00000000E+00  0.00000000E+00  0.00000000E+00
  0.00000000E+00  0.00000000E+00  0.00000000E+00
  0.00000000E+00  0.00000000E+00  0.00000000E+00
  0.00000000E+00  0.00000000E+00  0.00000000E+00
  0.00000000E+00  0.00000000E+00  0.00000000E+00
  0.00000000E+00  0.00000000E+00  0.00000000E+00
  0.00000000E+00  0.00000000E+00  0.00000000E+00
  0.00000000E+00  0.00000000E+00  0.00000000E+00
  0.00000000E+00  0.00000000E+00  0.00000000E+00
  0.00000000E+00  0.00000000E+00  0.00000000E+00
  0.00000000E+00  0.00000000E+00  0.00000000E+00
  0.00000000E+00  0.00000000E+00  0.00000000E+00
  0.00000000E+00  0.00000000E+00  0.00000000E+00
  0.00000000E+00  0.00000000E+00  0.00000000E+00
  0.00000000E+00  0.00000000E+00  0.00000000E+00
  0.00000000E+00  0.00000000E+00  0.00000000E+00
  0.00000000E+00  0.00000000E+00  0.00000000E+00
  0.00000000E+00  0.00000000E+00  0.00000000E+00
  0.00000000E+00  0.00000000E+00  0.00000000E+00
  0.00000000E+00  0.00000000E+00  0.00000000E+00
  0.00000000E+00  0.00000000E+00  0.00000000E+00
  0.00000000E+00  0.00000000E+00  0.00000000E+00
  0.00000000E+00  0.00000000E+00  0.00000000E+00
  0.00000000E+00  0.00000000E+00  0.00000000E+00
  0.00000000E+00  0.00000000E+00  0.00000000E+00
  0.00000000E+00  0.00000000E+00  0.00000000E+00
  0.00000000E+00  0.00000000E+00  0.00000000E+00
  0.00000000E+00  0.00000000E+00  0.00000000E+00
  0.00000000E+00  0.00000000E+00  0.00000000E+00
  0.00000000E+00  0.00000000E+00  0.00000000E+00
  0.00000000E+00  0.00000000E+00  0.00000000E+00
  0.00000000E+00  0.00000000E+00  0.00000000E+00
  0.00000000E+00  0.00000000E+00  0.00000000E+00
  0.00000000E+00  0.00000000E+00  0.00000000E+00
  0.00000000E+00  0.00000000E+00  0.00000000E+00
  0.00000000E+00  0.00000000E+00  0.00000000E+00
  0.00000000E+00  0.00000000E+00  0.00000000E+00
  0.00000000E+00  0.00000000E+00  0.00000000E+00
  0.00000000E+00  0.00000000E+00  0.00000000E+00
  0.00000000E+00  0.00000000E+00  0.00000000E+00
  0.00000000E+00  0.00000000E+00  0.00000000E+00
  0.00000000E+00  0.00000000E+00  0.00000000E+00
  0.00000000E+00  0.00000000E+00  0.00000000E+00
  0.00000000E+00  0.00000000E+00  0.00000000E+00
  0.00000000E+00  0.00000000E+00  0.00000000E+00
  0.00000000E+00  0.00000000E+00  0.00000000E+00
  0.00000000E+00  0.00000000E+00  0.00000000E+00
  0.00000000E+00  0.00000000E+00  0.00000000E+00
  0.00000000E+00  0.00000000E+00  0.00000000E+00
  0.00000000E+00  0.00000000E+00  0.00000000E+00
  0.00000000E+00  0.00000000E+00  0.00000000E+00
  0.00000000E+00  0.00000000E+00  0.00000000E+00
  0.00000000E+00  0.00000000E+00  0.00000000E+00
  0.00000000E+00  0.00000000E+00  0.00000000E+00
  0.00000000E+00  0.00000000E+00  0.00000000E+00
  0.00000000E+00  0.00000000E+00  0.00000000E+00
  0.00000000E+00  0.00000000E+00  0.00000000E+00
  0.00000000E+00  0.00000000E+00  0.00000000E+00
  0.00000000E+00  0.00000000E+00  0.00000000E+00
  0.00000000E+00  0.00000000E+00  0.00000000E+00
  0.00000000E+00  0.00000000E+00  0.00000000E+00
  0.00000000E+00  0.00000000E+00  0.00000000E+00
  0.00000000E+00  0.00000000E+00  0.00000000E+00
  0.00000000E+00  0.00000000E+00  0.00000000E+00
  0.00000000E+00  0.00000000E+00  0.00000000E+00
