Pt1 C125 N1 O1                          
   1.00000000000000     
    19.8086802561903710   -0.0298375895855417    0.1207667368221167
    -9.9305039422084729   17.0602206507144594    0.0546949101389990
     0.1821515481993958    0.2016316903636776   29.8042975761055757
   Pt   C    N    O 
     1   125     1     1
Direct
  0.4363259561271618  0.4977314061033756  0.4317993760487494
  0.0419578323373927  0.0840698275447963  0.3999317851031731
  0.0417525989878234  0.2085998010882641  0.3997306316358918
  0.0412796604997900  0.3332179499005968  0.3991202882479673
  0.0409392269353818  0.4583959376467207  0.3988411072215430
  0.0411065124065440  0.5837006020637706  0.3988861345868008
  0.0414344760118702  0.7089297190262778  0.3988755983726325
  0.0416309155798805  0.8341006713362792  0.3991062490018071
  0.0418074196216184  0.9591931074806278  0.3995851334371280
  0.1674491822608226  0.0851026290848142  0.4005646024880156
  0.1679113591895673  0.2104200299889567  0.4008493280995092
  0.1669260828031356  0.3345709181404383  0.3991741460578951
  0.1651502438459675  0.4589570816182317  0.3984456048401214
  0.1651023062019493  0.5840016597740680  0.3988194619814406
  0.1658369723538450  0.7091507036050229  0.3990972692285591
  0.1664063864354617  0.8343173902268012  0.3990209793883759
  0.1668918847504060  0.9596077411785360  0.3995265178436013
  0.2922123425568203  0.0848708406000667  0.4008438484683752
  0.2932861425265629  0.2112391557576140  0.4033600213262356
  0.2944714656892745  0.3380016346310196  0.4030102353146242
  0.2899962234099595  0.4604915818953051  0.3997716632509152
  0.2886232498330057  0.5849095377115960  0.3998546543497546
  0.2901341493083844  0.7093766451488154  0.4001316785885531
  0.2910904336541689  0.8342036833507919  0.3993953227472166
  0.2916153243188295  0.9593390937021888  0.3992925869782979
  0.4168373619128766  0.0836515046918253  0.3997401097809029
  0.4174850321685530  0.2091419173599863  0.4023958130469708
  0.4191543457459248  0.3355630671013554  0.4089068448015101
  0.4140816636570711  0.7075545855460019  0.4031609382016861
  0.4156807070624591  0.8330403599055615  0.4005511530491645
  0.4163296148532755  0.9583519806974955  0.3992378529686413
  0.5415613933031342  0.0824058184935617  0.3991440331228563
  0.5421045498865825  0.2074557752104960  0.4001640041769396
  0.5430943360392544  0.3322108773931210  0.4027529941437052
  0.5461571257405697  0.4564788217487049  0.4072044752018224
  0.5445794599476642  0.5780528003732662  0.4089160478202210
  0.5373084436287173  0.7030045377373277  0.4066582155493182
  0.5399543435796478  0.8309312454344231  0.4026070759939024
  0.5409967390596834  0.9569779585306518  0.3998815198535472
  0.6662841103571130  0.0819034881341211  0.3991214926489122
  0.6668248325310948  0.2071402097265018  0.3990114691271630
  0.6675142761741051  0.3322230366685311  0.3993209799344718
  0.6690199188565080  0.4574200600383269  0.3994108036950640
  0.6693632633737614  0.5826124393425239  0.4001892951444320
  0.6643297195764539  0.7048044870850813  0.4022852875054581
  0.6641504776312372  0.8300717130408903  0.4023463172283106
  0.6655268017116606  0.9563275970791684  0.4004394991491462
  0.7910517185367210  0.0819520841713473  0.3993815129231958
  0.7915305698862921  0.2071992215032066  0.3989539491703136
  0.7920173937234847  0.3324605151922403  0.3986929967474083
  0.7927580921616855  0.4578080993777451  0.3983346244305944
  0.7930296764362982  0.5830814458797112  0.3983506887441092
  0.7917650009344556  0.7079062133690155  0.3992100815506948
  0.7901520737729840  0.8316138917584849  0.4001094041393310
  0.7903024726700224  0.9565379442533215  0.3999922302143353
  0.9161815148255050  0.0826498292898794  0.3996677306690953
  0.9163893217350280  0.2076171067427768  0.3994408834690598
  0.9165108873949399  0.3327602220900270  0.3991018354768991
  0.9167746197199939  0.4580414841238148  0.3987920176312202
  0.9170658812305504  0.5834164616858264  0.3986429809252323
  0.9168221979319233  0.7086190632215218  0.3988161915781438
  0.9164696650978478  0.8334238479690576  0.3993423370489653
  0.9160500676371256  0.9578810493075152  0.3996428840541239
  0.0838511843293103  0.0428570266854675  0.3999531908489269
  0.0840874754182474  0.1677866502395457  0.4001104990049380
  0.0833445982064985  0.2921124550482985  0.3992511141670154
  0.0823420148199764  0.4167908643813825  0.3987469926758964
  0.0822217710651944  0.5419433343015189  0.3987987435793299
  0.0827287427531608  0.6672370508227556  0.3989097692906851
  0.0831629914611112  0.7925123427587975  0.3989575117450865
  0.0834519332646761  0.9176777104059135  0.3993731918463435
  0.2088172721732060  0.0431724942101017  0.4003327455074380
  0.2095698803556384  0.1688993009121057  0.4015211117685545
  0.2100902151165894  0.2944390752238856  0.4006956083655264
  0.2071226452268051  0.4179844807226119  0.3985793498533134
  0.2059929477324594  0.5423100792642969  0.3985944030536780
  0.2070593551252922  0.6674949494357311  0.3992907954586681
  0.2078136856964869  0.7926152135778511  0.3991512671147410
  0.2083161191545306  0.9178153997275234  0.3992233086028102
  0.3335185397594784  0.0427643430640170  0.3998616710970789
  0.3342100290785644  0.1684177403873131  0.4025050056229187
  0.3354776310519987  0.2949536463662863  0.4059086656437350
  0.3339206630387221  0.4219878311093649  0.4025712768388119
  0.3300299928802620  0.5445011311109919  0.4017546906690171
  0.3311562669670561  0.6677020640635181  0.4011960546451958
  0.3324520240827848  0.7924885616243491  0.4000664959207622
  0.3330647332961682  0.9175010165990309  0.3992204889570057
  0.4582819288204398  0.0416518044732825  0.3992004699341989
  0.4587916332229820  0.1669378848619393  0.4006051378990091
  0.4598181711737989  0.2924948899428658  0.4045302015437989
  0.4648586258180949  0.4178150603752356  0.4146048673320906
  0.4530891632393546  0.6632856690355040  0.4065219991360548
  0.4568628086936045  0.7908283385226901  0.4021484092225205
  0.4577116990029844  0.9163151800994761  0.3997911055406227
  0.5829712442836303  0.0404682880781591  0.3992246142032023
  0.5835319047411830  0.1657217289146390  0.3993194057611100
  0.5842572329518947  0.2905924747007173  0.4005937859357629
  0.5862521723893672  0.4151222830320000  0.4024428540562426
  0.5873555904951915  0.5398294822674086  0.4048001507002380
  0.5793406666651436  0.6606637064948627  0.4059458715000787
  0.5800934321213632  0.7873352363792491  0.4040977161041436
  0.5821589215532881  0.9146641031517558  0.4009254641699292
  0.7076121908030518  0.0399959275839720  0.3994838539117251
  0.7082506163789688  0.1654445206013639  0.3988925839211145
  0.7087817284411384  0.2905937048209515  0.3988921979227903
  0.7098336949468373  0.4157460519419138  0.3987257742726836
  0.7104171043104563  0.5408981393102631  0.3988357319228624
  0.7083811648354198  0.6655851944856557  0.4002101029233092
  0.7060959170693166  0.7887757745219260  0.4015418448093674
  0.7065424855717241  0.9140690435953636  0.4008527094280979
  0.8325439698196831  0.0403295128661553  0.3996184082270157
  0.8330013163729083  0.1655848583708364  0.3992186156207149
  0.8333648220596218  0.2908011892951309  0.3989055477893210
  0.8338351813541804  0.4160250309322127  0.3985614723183293
  0.8342133370411542  0.5413582325864829  0.3983480795637348
  0.8337323012306572  0.6666383667832388  0.3986766264474129
  0.8329476520732170  0.7911995821465244  0.3995119316287613
  0.8322230887606026  0.9153444689349389  0.3998638594524009
  0.9581750558393076  0.0415662801022272  0.3997240779583612
  0.9581797794788303  0.1662906593781039  0.3996570149842845
  0.9580598820084171  0.2911878309994735  0.3993201199280043
  0.9579753834064673  0.4163252122858482  0.3989750836064119
  0.9582283490534220  0.5416620002964784  0.3987951424393342
  0.9583557870960731  0.6669918692452877  0.3987774433998014
  0.9583153036830016  0.7921300132422030  0.3990931795571658
  0.9582225432845876  0.9169463887792794  0.3995397926823164
  0.4083590542714917  0.5832232774655339  0.4080002061875116
  0.4672673654450863  0.5275288671767976  0.4904377982565897
 
  0.00000000E+00  0.00000000E+00  0.00000000E+00
  0.00000000E+00  0.00000000E+00  0.00000000E+00
  0.00000000E+00  0.00000000E+00  0.00000000E+00
  0.00000000E+00  0.00000000E+00  0.00000000E+00
  0.00000000E+00  0.00000000E+00  0.00000000E+00
  0.00000000E+00  0.00000000E+00  0.00000000E+00
  0.00000000E+00  0.00000000E+00  0.00000000E+00
  0.00000000E+00  0.00000000E+00  0.00000000E+00
  0.00000000E+00  0.00000000E+00  0.00000000E+00
  0.00000000E+00  0.00000000E+00  0.00000000E+00
  0.00000000E+00  0.00000000E+00  0.00000000E+00
  0.00000000E+00  0.00000000E+00  0.00000000E+00
  0.00000000E+00  0.00000000E+00  0.00000000E+00
  0.00000000E+00  0.00000000E+00  0.00000000E+00
  0.00000000E+00  0.00000000E+00  0.00000000E+00
  0.00000000E+00  0.00000000E+00  0.00000000E+00
  0.00000000E+00  0.00000000E+00  0.00000000E+00
  0.00000000E+00  0.00000000E+00  0.00000000E+00
  0.00000000E+00  0.00000000E+00  0.00000000E+00
  0.00000000E+00  0.00000000E+00  0.00000000E+00
  0.00000000E+00  0.00000000E+00  0.00000000E+00
  0.00000000E+00  0.00000000E+00  0.00000000E+00
  0.00000000E+00  0.00000000E+00  0.00000000E+00
  0.00000000E+00  0.00000000E+00  0.00000000E+00
  0.00000000E+00  0.00000000E+00  0.00000000E+00
  0.00000000E+00  0.00000000E+00  0.00000000E+00
  0.00000000E+00  0.00000000E+00  0.00000000E+00
  0.00000000E+00  0.00000000E+00  0.00000000E+00
  0.00000000E+00  0.00000000E+00  0.00000000E+00
  0.00000000E+00  0.00000000E+00  0.00000000E+00
  0.00000000E+00  0.00000000E+00  0.00000000E+00
  0.00000000E+00  0.00000000E+00  0.00000000E+00
  0.00000000E+00  0.00000000E+00  0.00000000E+00
  0.00000000E+00  0.00000000E+00  0.00000000E+00
  0.00000000E+00  0.00000000E+00  0.00000000E+00
  0.00000000E+00  0.00000000E+00  0.00000000E+00
  0.00000000E+00  0.00000000E+00  0.00000000E+00
  0.00000000E+00  0.00000000E+00  0.00000000E+00
  0.00000000E+00  0.00000000E+00  0.00000000E+00
  0.00000000E+00  0.00000000E+00  0.00000000E+00
  0.00000000E+00  0.00000000E+00  0.00000000E+00
  0.00000000E+00  0.00000000E+00  0.00000000E+00
  0.00000000E+00  0.00000000E+00  0.00000000E+00
  0.00000000E+00  0.00000000E+00  0.00000000E+00
  0.00000000E+00  0.00000000E+00  0.00000000E+00
  0.00000000E+00  0.00000000E+00  0.00000000E+00
  0.00000000E+00  0.00000000E+00  0.00000000E+00
  0.00000000E+00  0.00000000E+00  0.00000000E+00
  0.00000000E+00  0.00000000E+00  0.00000000E+00
  0.00000000E+00  0.00000000E+00  0.00000000E+00
  0.00000000E+00  0.00000000E+00  0.00000000E+00
  0.00000000E+00  0.00000000E+00  0.00000000E+00
  0.00000000E+00  0.00000000E+00  0.00000000E+00
  0.00000000E+00  0.00000000E+00  0.00000000E+00
  0.00000000E+00  0.00000000E+00  0.00000000E+00
  0.00000000E+00  0.00000000E+00  0.00000000E+00
  0.00000000E+00  0.00000000E+00  0.00000000E+00
  0.00000000E+00  0.00000000E+00  0.00000000E+00
  0.00000000E+00  0.00000000E+00  0.00000000E+00
  0.00000000E+00  0.00000000E+00  0.00000000E+00
  0.00000000E+00  0.00000000E+00  0.00000000E+00
  0.00000000E+00  0.00000000E+00  0.00000000E+00
  0.00000000E+00  0.00000000E+00  0.00000000E+00
  0.00000000E+00  0.00000000E+00  0.00000000E+00
  0.00000000E+00  0.00000000E+00  0.00000000E+00
  0.00000000E+00  0.00000000E+00  0.00000000E+00
  0.00000000E+00  0.00000000E+00  0.00000000E+00
  0.00000000E+00  0.00000000E+00  0.00000000E+00
  0.00000000E+00  0.00000000E+00  0.00000000E+00
  0.00000000E+00  0.00000000E+00  0.00000000E+00
  0.00000000E+00  0.00000000E+00  0.00000000E+00
  0.00000000E+00  0.00000000E+00  0.00000000E+00
  0.00000000E+00  0.00000000E+00  0.00000000E+00
  0.00000000E+00  0.00000000E+00  0.00000000E+00
  0.00000000E+00  0.00000000E+00  0.00000000E+00
  0.00000000E+00  0.00000000E+00  0.00000000E+00
  0.00000000E+00  0.00000000E+00  0.00000000E+00
  0.00000000E+00  0.00000000E+00  0.00000000E+00
  0.00000000E+00  0.00000000E+00  0.00000000E+00
  0.00000000E+00  0.00000000E+00  0.00000000E+00
  0.00000000E+00  0.00000000E+00  0.00000000E+00
  0.00000000E+00  0.00000000E+00  0.00000000E+00
  0.00000000E+00  0.00000000E+00  0.00000000E+00
  0.00000000E+00  0.00000000E+00  0.00000000E+00
  0.00000000E+00  0.00000000E+00  0.00000000E+00
  0.00000000E+00  0.00000000E+00  0.00000000E+00
  0.00000000E+00  0.00000000E+00  0.00000000E+00
  0.00000000E+00  0.00000000E+00  0.00000000E+00
  0.00000000E+00  0.00000000E+00  0.00000000E+00
  0.00000000E+00  0.00000000E+00  0.00000000E+00
  0.00000000E+00  0.00000000E+00  0.00000000E+00
  0.00000000E+00  0.00000000E+00  0.00000000E+00
  0.00000000E+00  0.00000000E+00  0.00000000E+00
  0.00000000E+00  0.00000000E+00  0.00000000E+00
  0.00000000E+00  0.00000000E+00  0.00000000E+00
  0.00000000E+00  0.00000000E+00  0.00000000E+00
  0.00000000E+00  0.00000000E+00  0.00000000E+00
  0.00000000E+00  0.00000000E+00  0.00000000E+00
  0.00000000E+00  0.00000000E+00  0.00000000E+00
  0.00000000E+00  0.00000000E+00  0.00000000E+00
  0.00000000E+00  0.00000000E+00  0.00000000E+00
  0.00000000E+00  0.00000000E+00  0.00000000E+00
  0.00000000E+00  0.00000000E+00  0.00000000E+00
  0.00000000E+00  0.00000000E+00  0.00000000E+00
  0.00000000E+00  0.00000000E+00  0.00000000E+00
  0.00000000E+00  0.00000000E+00  0.00000000E+00
  0.00000000E+00  0.00000000E+00  0.00000000E+00
  0.00000000E+00  0.00000000E+00  0.00000000E+00
  0.00000000E+00  0.00000000E+00  0.00000000E+00
  0.00000000E+00  0.00000000E+00  0.00000000E+00
  0.00000000E+00  0.00000000E+00  0.00000000E+00
  0.00000000E+00  0.00000000E+00  0.00000000E+00
  0.00000000E+00  0.00000000E+00  0.00000000E+00
  0.00000000E+00  0.00000000E+00  0.00000000E+00
  0.00000000E+00  0.00000000E+00  0.00000000E+00
  0.00000000E+00  0.00000000E+00  0.00000000E+00
  0.00000000E+00  0.00000000E+00  0.00000000E+00
  0.00000000E+00  0.00000000E+00  0.00000000E+00
  0.00000000E+00  0.00000000E+00  0.00000000E+00
  0.00000000E+00  0.00000000E+00  0.00000000E+00
  0.00000000E+00  0.00000000E+00  0.00000000E+00
  0.00000000E+00  0.00000000E+00  0.00000000E+00
  0.00000000E+00  0.00000000E+00  0.00000000E+00
  0.00000000E+00  0.00000000E+00  0.00000000E+00
  0.00000000E+00  0.00000000E+00  0.00000000E+00
  0.00000000E+00  0.00000000E+00  0.00000000E+00
  0.00000000E+00  0.00000000E+00  0.00000000E+00
  0.00000000E+00  0.00000000E+00  0.00000000E+00
