Sc1 C124 N2 O1                          
   1.00000000000000     
    19.8119610180127381   -0.0206463638008964    0.0156045290928399
    -9.9238714724693207   17.0750567536558258   -0.0078367496145157
     0.0234010037054289   -0.0000402596466191   29.7629400927419816
   Sc   C    N    O 
     1   124     2     1
Direct
  0.4356121523159526  0.5004814801122978  0.4409652320578585
  0.0420480012933337  0.0839859287228086  0.3997940210391977
  0.0415137263972004  0.2084406548682849  0.3994715413708476
  0.0409693967705461  0.3331012782367761  0.3993314216072947
  0.0407505056676062  0.4584383335778653  0.3995580609211194
  0.0411448682451414  0.5837760285782398  0.3998982557985165
  0.0416601997092052  0.7090481801642401  0.4000128410968874
  0.0420158988122897  0.8342999940311883  0.4000120164085501
  0.0423031883380759  0.9594330838218191  0.3999543090293926
  0.1679261584542243  0.0853452605432508  0.3999844099822895
  0.1673156662530484  0.2096414951309604  0.3996940778988973
  0.1663241297195605  0.3342057406550483  0.3990051239647511
  0.1647239052147743  0.4588151064144052  0.3987144928569843
  0.1651522096053161  0.5839617362346887  0.3990698699123901
  0.1660323206194707  0.7092368570517338  0.3997190641878766
  0.1666920853647695  0.8344637382274031  0.3999180862634087
  0.1672964066215204  0.9598011724149659  0.3999915047896344
  0.2925981282672329  0.0850000967857628  0.3999782577011927
  0.2942823905375664  0.2119220447241093  0.4008216394432863
  0.2927367447738548  0.3364374374861482  0.4014653101463711
  0.2894521280790914  0.4596106204513509  0.4003028883257648
  0.2888752233647246  0.5849563918572912  0.3989919875457014
  0.2903454722453910  0.7095126082471785  0.3992991329575918
  0.2913201710746577  0.8342878656308697  0.3997252595197666
  0.2918775427190323  0.9594218503562899  0.3998354826563456
  0.4171376008784857  0.0836054460453146  0.3996519780826402
  0.4177856096893912  0.2088327973663114  0.3997526785435365
  0.4215064745213671  0.3363349963385108  0.4031397733930308
  0.4146949315472037  0.7080412235668847  0.4000339474825020
  0.4159702096987760  0.8332728129531989  0.3995380328233772
  0.4165271149301157  0.9583935536119180  0.3997461470209676
  0.5417572049205240  0.0824523853970208  0.3997600703543917
  0.5423864831873778  0.2075391594214411  0.3994763791723910
  0.5434988852200686  0.3324326449746779  0.3994694259208812
  0.5434366234759130  0.4552507310216885  0.4023593631977345
  0.5447287275247105  0.5807568354189245  0.4069120570585432
  0.5388676459097640  0.7040108276320968  0.4029670872645496
  0.5403701542678573  0.8313245666671519  0.4001487859696153
  0.5412394520118186  0.9571229087515090  0.3998062539307898
  0.6664017197541564  0.0820210264012997  0.3999610741344432
  0.6669749698182443  0.2073281677440831  0.3998381414515224
  0.6677001726005553  0.3325165024997442  0.3993098892063686
  0.6687378369963218  0.4577954969314397  0.3983645976884015
  0.6686204523171474  0.5824377334556221  0.3985605815132515
  0.6662506991428293  0.7066499854400233  0.3995131083303902
  0.6651238676345216  0.8307607342223886  0.4000085361563222
  0.6659038850144020  0.9566088705207663  0.4000349929716845
  0.7912089516141164  0.0821028234796339  0.4000184762518492
  0.7915352387860758  0.2072991813548411  0.3999406090485769
  0.7920623811915938  0.3326569720305418  0.3998886094913622
  0.7926553751032238  0.4580494641742457  0.3994359648456768
  0.7929736316226409  0.5832762224511707  0.3987337610594945
  0.7921913111537395  0.7080996871907559  0.3987111266800020
  0.7913968075300991  0.8325871447201276  0.3992261694793753
  0.7908181189564704  0.9569289122074885  0.3998012357623287
  0.9163675990088205  0.0827772532185938  0.3998652819958108
  0.9163165016754916  0.2076671541605306  0.3998540823498526
  0.9163866217242120  0.3328199866631970  0.3998991573463079
  0.9166449892549710  0.4581257204179684  0.4000023523097036
  0.9171002327249613  0.5835658206696376  0.3999163356179407
  0.9171875387679258  0.7088735800729118  0.3996955293675984
  0.9169733742606034  0.8336980026390861  0.3997046059380380
  0.9166398770881233  0.9582485999926154  0.3998415805097902
  0.0842525941946318  0.0430478090538798  0.3998916520931666
  0.0836774818349205  0.1673672004916970  0.3995676540402144
  0.0828213373000393  0.2918729652096282  0.3991323136104942
  0.0820488500238511  0.4167904730698782  0.3991461199990635
  0.0822223074498039  0.5419829060750745  0.3995306521145348
  0.0828949283645439  0.6673288674291202  0.3998980326751973
  0.0834915919692845  0.7926846424898705  0.3999780775322205
  0.0838710770526981  0.9178920576823532  0.4000042129866660
  0.2091930044146083  0.0433079907724609  0.4000346448527360
  0.2099474648441733  0.1690988244801411  0.4001130661665570
  0.2086435981573752  0.2931287028763536  0.3996410064883066
  0.2062996131406642  0.4176421879042044  0.3988470355955792
  0.2060708251304142  0.5423657749795556  0.3986192681080068
  0.2072881540747732  0.6676042859566272  0.3993421760303931
  0.2080399954394855  0.7927038745030410  0.3998173956525017
  0.2086416391717976  0.9179386267645245  0.3999230565507013
  0.3338089640044888  0.0428074817560376  0.3997911149386307
  0.3347109304037120  0.1685273082618539  0.4002197298311366
  0.3365301836404861  0.2956448191549523  0.4024394808829658
  0.3285292387730503  0.4180551333903559  0.4029382397524745
  0.3315096149029165  0.5454843724727533  0.4010777847977299
  0.3315616854762827  0.6678403429139027  0.3993500104023528
  0.3326633990130435  0.7925888845218378  0.3995218858772782
  0.3333098626543652  0.9175661860309930  0.3997795182716962
  0.4585307668628394  0.0416250232236001  0.3997207142667136
  0.4591315906324991  0.1667756231388975  0.3994833883603745
  0.4604183191981498  0.2920621423695850  0.4002343858416410
  0.4536773031997913  0.6637476041087893  0.4028210562443787
  0.4572949733898211  0.7912375002849968  0.3997292795512122
  0.4579262820097971  0.9164198787817193  0.3996934527970291
  0.5831643815920939  0.0405499289360471  0.3998541336836266
  0.5837037509993082  0.1657598157248468  0.3997068522513703
  0.5846660479135178  0.2906667371841985  0.3992682860602299
  0.5858494472823151  0.4153370637562209  0.3991534707940508
  0.5857807408800630  0.5410866801562517  0.4018736769444978
  0.5825404900720588  0.6629632318739126  0.4028521810852152
  0.5807994509188850  0.7878200444952489  0.4008510922370995
  0.5824534993401572  0.9148970970375120  0.3999521747864307
  0.7077816217965296  0.0401516306722968  0.4000317999373316
  0.7083007951910570  0.1655089809938259  0.3999486923128995
  0.7089234935424558  0.2907868167918497  0.3997315122430510
  0.7096893755915978  0.4161478504788437  0.3989312851013718
  0.7102779808984822  0.5413650196578348  0.3981573710236241
  0.7088444935483564  0.6658361799365946  0.3986327780675828
  0.7077045676498520  0.7901951843799887  0.3993244875467155
  0.7071566181123591  0.9145888638855915  0.3999109276468421
  0.8327723229885288  0.0405507366548748  0.3999258049666558
  0.8330161818504724  0.1656831662655928  0.3999666955765261
  0.8333297498718002  0.2909445023427986  0.3999461357981438
  0.8337273535110529  0.4162309485836780  0.3998756904285327
  0.8341669317159335  0.5415587154217464  0.3994242121162708
  0.8340930568630850  0.6669270654014310  0.3990099679527848
  0.8335932752625963  0.7915856679751722  0.3991816046700264
  0.8330467049970455  0.9160004369497359  0.3996467480624651
  0.9584312836938308  0.0417524672355480  0.3998692759077356
  0.9581047997505509  0.1663265889608029  0.3997582608241042
  0.9578500862447469  0.2911615545811216  0.3997451197795728
  0.9578183382001900  0.4164026824686510  0.3998953614794843
  0.9582529767449971  0.5418323501673785  0.4000231888898464
  0.9585951457058707  0.6671677563730323  0.3999531607577642
  0.9587778539492610  0.7923690211809914  0.3998771709025405
  0.9587259945603750  0.9172409122505448  0.3998787596645016
  0.4097143740080941  0.5843357973600229  0.4049315617334334
  0.4649019946485003  0.4158060602786244  0.4064541569654602
  0.4614013513914625  0.5215250372881776  0.4998619282873190
 
  0.00000000E+00  0.00000000E+00  0.00000000E+00
  0.00000000E+00  0.00000000E+00  0.00000000E+00
  0.00000000E+00  0.00000000E+00  0.00000000E+00
  0.00000000E+00  0.00000000E+00  0.00000000E+00
  0.00000000E+00  0.00000000E+00  0.00000000E+00
  0.00000000E+00  0.00000000E+00  0.00000000E+00
  0.00000000E+00  0.00000000E+00  0.00000000E+00
  0.00000000E+00  0.00000000E+00  0.00000000E+00
  0.00000000E+00  0.00000000E+00  0.00000000E+00
  0.00000000E+00  0.00000000E+00  0.00000000E+00
  0.00000000E+00  0.00000000E+00  0.00000000E+00
  0.00000000E+00  0.00000000E+00  0.00000000E+00
  0.00000000E+00  0.00000000E+00  0.00000000E+00
  0.00000000E+00  0.00000000E+00  0.00000000E+00
  0.00000000E+00  0.00000000E+00  0.00000000E+00
  0.00000000E+00  0.00000000E+00  0.00000000E+00
  0.00000000E+00  0.00000000E+00  0.00000000E+00
  0.00000000E+00  0.00000000E+00  0.00000000E+00
  0.00000000E+00  0.00000000E+00  0.00000000E+00
  0.00000000E+00  0.00000000E+00  0.00000000E+00
  0.00000000E+00  0.00000000E+00  0.00000000E+00
  0.00000000E+00  0.00000000E+00  0.00000000E+00
  0.00000000E+00  0.00000000E+00  0.00000000E+00
  0.00000000E+00  0.00000000E+00  0.00000000E+00
  0.00000000E+00  0.00000000E+00  0.00000000E+00
  0.00000000E+00  0.00000000E+00  0.00000000E+00
  0.00000000E+00  0.00000000E+00  0.00000000E+00
  0.00000000E+00  0.00000000E+00  0.00000000E+00
  0.00000000E+00  0.00000000E+00  0.00000000E+00
  0.00000000E+00  0.00000000E+00  0.00000000E+00
  0.00000000E+00  0.00000000E+00  0.00000000E+00
  0.00000000E+00  0.00000000E+00  0.00000000E+00
  0.00000000E+00  0.00000000E+00  0.00000000E+00
  0.00000000E+00  0.00000000E+00  0.00000000E+00
  0.00000000E+00  0.00000000E+00  0.00000000E+00
  0.00000000E+00  0.00000000E+00  0.00000000E+00
  0.00000000E+00  0.00000000E+00  0.00000000E+00
  0.00000000E+00  0.00000000E+00  0.00000000E+00
  0.00000000E+00  0.00000000E+00  0.00000000E+00
  0.00000000E+00  0.00000000E+00  0.00000000E+00
  0.00000000E+00  0.00000000E+00  0.00000000E+00
  0.00000000E+00  0.00000000E+00  0.00000000E+00
  0.00000000E+00  0.00000000E+00  0.00000000E+00
  0.00000000E+00  0.00000000E+00  0.00000000E+00
  0.00000000E+00  0.00000000E+00  0.00000000E+00
  0.00000000E+00  0.00000000E+00  0.00000000E+00
  0.00000000E+00  0.00000000E+00  0.00000000E+00
  0.00000000E+00  0.00000000E+00  0.00000000E+00
  0.00000000E+00  0.00000000E+00  0.00000000E+00
  0.00000000E+00  0.00000000E+00  0.00000000E+00
  0.00000000E+00  0.00000000E+00  0.00000000E+00
  0.00000000E+00  0.00000000E+00  0.00000000E+00
  0.00000000E+00  0.00000000E+00  0.00000000E+00
  0.00000000E+00  0.00000000E+00  0.00000000E+00
  0.00000000E+00  0.00000000E+00  0.00000000E+00
  0.00000000E+00  0.00000000E+00  0.00000000E+00
  0.00000000E+00  0.00000000E+00  0.00000000E+00
  0.00000000E+00  0.00000000E+00  0.00000000E+00
  0.00000000E+00  0.00000000E+00  0.00000000E+00
  0.00000000E+00  0.00000000E+00  0.00000000E+00
  0.00000000E+00  0.00000000E+00  0.00000000E+00
  0.00000000E+00  0.00000000E+00  0.00000000E+00
  0.00000000E+00  0.00000000E+00  0.00000000E+00
  0.00000000E+00  0.00000000E+00  0.00000000E+00
  0.00000000E+00  0.00000000E+00  0.00000000E+00
  0.00000000E+00  0.00000000E+00  0.00000000E+00
  0.00000000E+00  0.00000000E+00  0.00000000E+00
  0.00000000E+00  0.00000000E+00  0.00000000E+00
  0.00000000E+00  0.00000000E+00  0.00000000E+00
  0.00000000E+00  0.00000000E+00  0.00000000E+00
  0.00000000E+00  0.00000000E+00  0.00000000E+00
  0.00000000E+00  0.00000000E+00  0.00000000E+00
  0.00000000E+00  0.00000000E+00  0.00000000E+00
  0.00000000E+00  0.00000000E+00  0.00000000E+00
  0.00000000E+00  0.00000000E+00  0.00000000E+00
  0.00000000E+00  0.00000000E+00  0.00000000E+00
  0.00000000E+00  0.00000000E+00  0.00000000E+00
  0.00000000E+00  0.00000000E+00  0.00000000E+00
  0.00000000E+00  0.00000000E+00  0.00000000E+00
  0.00000000E+00  0.00000000E+00  0.00000000E+00
  0.00000000E+00  0.00000000E+00  0.00000000E+00
  0.00000000E+00  0.00000000E+00  0.00000000E+00
  0.00000000E+00  0.00000000E+00  0.00000000E+00
  0.00000000E+00  0.00000000E+00  0.00000000E+00
  0.00000000E+00  0.00000000E+00  0.00000000E+00
  0.00000000E+00  0.00000000E+00  0.00000000E+00
  0.00000000E+00  0.00000000E+00  0.00000000E+00
  0.00000000E+00  0.00000000E+00  0.00000000E+00
  0.00000000E+00  0.00000000E+00  0.00000000E+00
  0.00000000E+00  0.00000000E+00  0.00000000E+00
  0.00000000E+00  0.00000000E+00  0.00000000E+00
  0.00000000E+00  0.00000000E+00  0.00000000E+00
  0.00000000E+00  0.00000000E+00  0.00000000E+00
  0.00000000E+00  0.00000000E+00  0.00000000E+00
  0.00000000E+00  0.00000000E+00  0.00000000E+00
  0.00000000E+00  0.00000000E+00  0.00000000E+00
  0.00000000E+00  0.00000000E+00  0.00000000E+00
  0.00000000E+00  0.00000000E+00  0.00000000E+00
  0.00000000E+00  0.00000000E+00  0.00000000E+00
  0.00000000E+00  0.00000000E+00  0.00000000E+00
  0.00000000E+00  0.00000000E+00  0.00000000E+00
  0.00000000E+00  0.00000000E+00  0.00000000E+00
  0.00000000E+00  0.00000000E+00  0.00000000E+00
  0.00000000E+00  0.00000000E+00  0.00000000E+00
  0.00000000E+00  0.00000000E+00  0.00000000E+00
  0.00000000E+00  0.00000000E+00  0.00000000E+00
  0.00000000E+00  0.00000000E+00  0.00000000E+00
  0.00000000E+00  0.00000000E+00  0.00000000E+00
  0.00000000E+00  0.00000000E+00  0.00000000E+00
  0.00000000E+00  0.00000000E+00  0.00000000E+00
  0.00000000E+00  0.00000000E+00  0.00000000E+00
  0.00000000E+00  0.00000000E+00  0.00000000E+00
  0.00000000E+00  0.00000000E+00  0.00000000E+00
  0.00000000E+00  0.00000000E+00  0.00000000E+00
  0.00000000E+00  0.00000000E+00  0.00000000E+00
  0.00000000E+00  0.00000000E+00  0.00000000E+00
  0.00000000E+00  0.00000000E+00  0.00000000E+00
  0.00000000E+00  0.00000000E+00  0.00000000E+00
  0.00000000E+00  0.00000000E+00  0.00000000E+00
  0.00000000E+00  0.00000000E+00  0.00000000E+00
  0.00000000E+00  0.00000000E+00  0.00000000E+00
  0.00000000E+00  0.00000000E+00  0.00000000E+00
  0.00000000E+00  0.00000000E+00  0.00000000E+00
  0.00000000E+00  0.00000000E+00  0.00000000E+00
  0.00000000E+00  0.00000000E+00  0.00000000E+00
  0.00000000E+00  0.00000000E+00  0.00000000E+00
  0.00000000E+00  0.00000000E+00  0.00000000E+00
  0.00000000E+00  0.00000000E+00  0.00000000E+00
