Zr1 H1 C125 N1 O1                       
   1.00000000000000     
    19.8222334630278532   -0.0090006287750238   -0.0497435316585762
    -9.9191900146531360   17.0755906880565753   -0.2422938117443948
    -0.0745326671794264   -0.4645513397306400   29.7438529417938149
   Zr   H    C    N    O 
     1     1   125     1     1
Direct
  0.4418452014744996  0.5061501326933937  0.4417018960395647
  0.4874039376706788  0.5391298682383562  0.5315765343735922
  0.0419093712592245  0.0840799950594521  0.3993757137411886
  0.0411452213549922  0.2083591644583964  0.3989672462454741
  0.0406530599076949  0.3329772733808462  0.3982994903117645
  0.0407140223542333  0.4584093572465234  0.3982889269427228
  0.0414437904937530  0.5838974446041901  0.3991882356383377
  0.0420949532533547  0.7092506479176622  0.3997422647793769
  0.0424280368797910  0.8345822492113600  0.3996909274863381
  0.0424485150737642  0.9595980693100508  0.3994880696037184
  0.1676495066523627  0.0853118584213133  0.4000772392700873
  0.1669502212463530  0.2096943012611709  0.4003740201606027
  0.1657919613762852  0.3339851805180816  0.3997939448256693
  0.1644517026230114  0.4585137317757092  0.3979546613827781
  0.1652685778786958  0.5838048887645738  0.3979949574451311
  0.1663476723530037  0.7092583476323130  0.3990904813267722
  0.1670796115654291  0.8346559208897635  0.3996453187791979
  0.1674927172386076  0.9599870228348130  0.3997559944427964
  0.2926642984125238  0.0852572989195673  0.4000157525293460
  0.2935008994900038  0.2117363962227293  0.4024532992002705
  0.2919133231862814  0.3366330057156751  0.4062264687734162
  0.2885552792966402  0.4589651354319272  0.4041762457696544
  0.2888733558612172  0.5845388576657496  0.3989520844533926
  0.2906372095454082  0.7093627316276324  0.3984436498833220
  0.2915678638888096  0.8343415988239210  0.3990845133340745
  0.2920711867873603  0.9596003797020020  0.3994602225572887
  0.4171849476708264  0.0838614203607098  0.3993164862226904
  0.4177828405401617  0.2092347104377731  0.4000826803233317
  0.4201394230105634  0.3360781224161266  0.4056837112452955
  0.4149117162805332  0.7079791669865204  0.3997384205257474
  0.4161038518712269  0.8332718028145385  0.3989052231402623
  0.4166709609746601  0.9585510213366165  0.3992672137076208
  0.5417634700659280  0.0827167849161770  0.3993993721485795
  0.5423728053057216  0.2078720243140156  0.3989320509063617
  0.5433147054036890  0.3329148697506231  0.3993280819406089
  0.5457630582583144  0.4572412519088561  0.4029208374224884
  0.5465105454630488  0.5823559850978732  0.4045808728897281
  0.5391888452262903  0.7046211937457967  0.4022313718878436
  0.5405521915699729  0.8316075606523514  0.3997506670634981
  0.5413017941105294  0.9573662583547640  0.3995158273274044
  0.6663914895477919  0.0822564335596341  0.3997997043693844
  0.6669148138934632  0.2075132181202616  0.3993209435869616
  0.6676117388338612  0.3326455952448322  0.3984635933392166
  0.6693204842231303  0.4580159506637679  0.3977329574626709
  0.6702776465700561  0.5837640413212727  0.3978919540313739
  0.6670967037902317  0.7074598076592186  0.3984117526572699
  0.6653373175547094  0.8312047759914661  0.3993961109735897
  0.6659416537239781  0.9569013301326386  0.3997648109286170
  0.7911201036150689  0.0822795866860667  0.3996773947406658
  0.7914027078992487  0.2074367280801865  0.3996105400721851
  0.7920274260902708  0.3327969263213851  0.3992377722654091
  0.7929927913275444  0.4582780349520247  0.3985992171857982
  0.7935611840448020  0.5835857622954977  0.3979664343905404
  0.7930940417057435  0.7088806110625582  0.3978369020966536
  0.7917541074946831  0.8330091775006704  0.3985406092700122
  0.7909096291869125  0.9572008962737529  0.3993259377392053
  0.9162114710213735  0.0828573062147709  0.3993070057170666
  0.9160465169218165  0.2076863404774454  0.3991465706276549
  0.9162541177863710  0.3328718545310033  0.3990302563762297
  0.9168217500134365  0.4582758358433364  0.3992574206905187
  0.9175361445630968  0.5838217269207044  0.3993210423372292
  0.9177268220428008  0.7092172746761004  0.3991077121543652
  0.9174732239493675  0.8340996480846590  0.3990243989678152
  0.9167876384125433  0.9584932437756548  0.3992255396639809
  0.0841237764636785  0.0430996854328048  0.3995704292338882
  0.0834272104364814  0.1674068413404449  0.3993737876114842
  0.0824330082825430  0.2917079962135422  0.3987299398620749
  0.0818159835259198  0.4166017387172137  0.3978479806584440
  0.0823552082731103  0.5419418708643773  0.3984332770845215
  0.0832571259810362  0.6674530993310388  0.3994291887686570
  0.0838937523470257  0.7929141998864300  0.3997780805282976
  0.0841350584824500  0.9181085807831346  0.3996639348410498
  0.2092242153825994  0.0434761430328504  0.3999993443686485
  0.2093867834996984  0.1689596927403766  0.4009859611552161
  0.2083565855234318  0.2932436038071887  0.4014698428305027
  0.2058332382903825  0.4173082461076913  0.3997164190319595
  0.2060020163655044  0.5419973074749246  0.3978714908517469
  0.2075092954743661  0.6674853940690905  0.3984496261211803
  0.2083560094839726  0.7927847943455726  0.3993112750006148
  0.2089191249973116  0.9181215976784937  0.3996466547621905
  0.3339268502440358  0.0430224343976133  0.3995205127048148
  0.3346174429538213  0.1687778662062473  0.4008347921217899
  0.3353204271442981  0.2950980768980925  0.4059787434401320
  0.3294964421406316  0.4191186283308431  0.4104092920264211
  0.3306874908015389  0.5446775127572331  0.4030836903836564
  0.3317789043400003  0.6676418907473476  0.3988373413005452
  0.3329178016129165  0.7925588525658586  0.3987543621496315
  0.3334887107714073  0.9176796908634494  0.3992577282031539
  0.4586088505093080  0.0418451400517347  0.3993183331398928
  0.4590850094767503  0.1670624140916514  0.3992348716926861
  0.4600606445393217  0.2925585250976362  0.4009318568032848
  0.4652165987353321  0.4183503405355480  0.4092631998477156
  0.4544050324643845  0.6642508683663788  0.4028752510376638
  0.4574802729087435  0.7912315597313858  0.3992021648255550
  0.4580639229607219  0.9165413997130725  0.3992104306579276
  0.5832006507796289  0.0408084428192181  0.3996269964346006
  0.5837140366933169  0.1660629971493293  0.3991758210391467
  0.5845238210311170  0.2910512391760515  0.3986317581198440
  0.5866093229376761  0.4159476448661119  0.3990944643659655
  0.5882605248804609  0.5426628838600563  0.4013293928501036
  0.5834377966674467  0.6640543815060609  0.4015046007938837
  0.5811107238910864  0.7883305154430627  0.4002905611875308
  0.5826095391980948  0.9152069167600242  0.3996762364971608
  0.7077957539130713  0.0404013151191065  0.3998231689881666
  0.7082630501215321  0.1657339821120341  0.3996728980451136
  0.7088594840774994  0.2909522825997690  0.3990207076179073
  0.7100793958071361  0.4163320308785798  0.3980432101095002
  0.7110945509405446  0.5417413620994340  0.3975149965236088
  0.7099049553421689  0.6668978537134000  0.3976261351704879
  0.7081762480191317  0.7907653239591783  0.3985319062775063
  0.7072672245924508  0.9148848641581755  0.3994845155479410
  0.8327356801533291  0.0407552896239619  0.3994786627158696
  0.8328315724976361  0.1657759576036078  0.3995596116486729
  0.8332472128967089  0.2910536570046819  0.3993795503301810
  0.8339499571011666  0.4163909015962601  0.3991476218725509
  0.8346627674113868  0.5418006000396843  0.3986701123291859
  0.8346853916152578  0.6673532226179998  0.3982564978680239
  0.8341901934867360  0.7921438889028751  0.3984059776101990
  0.8332439546974348  0.9163344531231892  0.3990709584232239
  0.9583823106388835  0.0418994023745835  0.3992955757580785
  0.9578318184610323  0.1663055783663468  0.3990739902864411
  0.9576089862271342  0.2911219946700249  0.3987757530262124
  0.9578382595594598  0.4164411485577497  0.3989175639003114
  0.9585832774114026  0.5420062724532374  0.3993878338492375
  0.9590975738263363  0.6674500803805555  0.3995090582622028
  0.9592245065184151  0.7926861454889249  0.3993318775216469
  0.9589931365654548  0.9175312482840623  0.3992607086927474
  0.4099119913461876  0.5845388264037306  0.4067133046559169
  0.4477593591931894  0.5110501663008434  0.5083896109437236
 
  0.00000000E+00  0.00000000E+00  0.00000000E+00
  0.00000000E+00  0.00000000E+00  0.00000000E+00
  0.00000000E+00  0.00000000E+00  0.00000000E+00
  0.00000000E+00  0.00000000E+00  0.00000000E+00
  0.00000000E+00  0.00000000E+00  0.00000000E+00
  0.00000000E+00  0.00000000E+00  0.00000000E+00
  0.00000000E+00  0.00000000E+00  0.00000000E+00
  0.00000000E+00  0.00000000E+00  0.00000000E+00
  0.00000000E+00  0.00000000E+00  0.00000000E+00
  0.00000000E+00  0.00000000E+00  0.00000000E+00
  0.00000000E+00  0.00000000E+00  0.00000000E+00
  0.00000000E+00  0.00000000E+00  0.00000000E+00
  0.00000000E+00  0.00000000E+00  0.00000000E+00
  0.00000000E+00  0.00000000E+00  0.00000000E+00
  0.00000000E+00  0.00000000E+00  0.00000000E+00
  0.00000000E+00  0.00000000E+00  0.00000000E+00
  0.00000000E+00  0.00000000E+00  0.00000000E+00
  0.00000000E+00  0.00000000E+00  0.00000000E+00
  0.00000000E+00  0.00000000E+00  0.00000000E+00
  0.00000000E+00  0.00000000E+00  0.00000000E+00
  0.00000000E+00  0.00000000E+00  0.00000000E+00
  0.00000000E+00  0.00000000E+00  0.00000000E+00
  0.00000000E+00  0.00000000E+00  0.00000000E+00
  0.00000000E+00  0.00000000E+00  0.00000000E+00
  0.00000000E+00  0.00000000E+00  0.00000000E+00
  0.00000000E+00  0.00000000E+00  0.00000000E+00
  0.00000000E+00  0.00000000E+00  0.00000000E+00
  0.00000000E+00  0.00000000E+00  0.00000000E+00
  0.00000000E+00  0.00000000E+00  0.00000000E+00
  0.00000000E+00  0.00000000E+00  0.00000000E+00
  0.00000000E+00  0.00000000E+00  0.00000000E+00
  0.00000000E+00  0.00000000E+00  0.00000000E+00
  0.00000000E+00  0.00000000E+00  0.00000000E+00
  0.00000000E+00  0.00000000E+00  0.00000000E+00
  0.00000000E+00  0.00000000E+00  0.00000000E+00
  0.00000000E+00  0.00000000E+00  0.00000000E+00
  0.00000000E+00  0.00000000E+00  0.00000000E+00
  0.00000000E+00  0.00000000E+00  0.00000000E+00
  0.00000000E+00  0.00000000E+00  0.00000000E+00
  0.00000000E+00  0.00000000E+00  0.00000000E+00
  0.00000000E+00  0.00000000E+00  0.00000000E+00
  0.00000000E+00  0.00000000E+00  0.00000000E+00
  0.00000000E+00  0.00000000E+00  0.00000000E+00
  0.00000000E+00  0.00000000E+00  0.00000000E+00
  0.00000000E+00  0.00000000E+00  0.00000000E+00
  0.00000000E+00  0.00000000E+00  0.00000000E+00
  0.00000000E+00  0.00000000E+00  0.00000000E+00
  0.00000000E+00  0.00000000E+00  0.00000000E+00
  0.00000000E+00  0.00000000E+00  0.00000000E+00
  0.00000000E+00  0.00000000E+00  0.00000000E+00
  0.00000000E+00  0.00000000E+00  0.00000000E+00
  0.00000000E+00  0.00000000E+00  0.00000000E+00
  0.00000000E+00  0.00000000E+00  0.00000000E+00
  0.00000000E+00  0.00000000E+00  0.00000000E+00
  0.00000000E+00  0.00000000E+00  0.00000000E+00
  0.00000000E+00  0.00000000E+00  0.00000000E+00
  0.00000000E+00  0.00000000E+00  0.00000000E+00
  0.00000000E+00  0.00000000E+00  0.00000000E+00
  0.00000000E+00  0.00000000E+00  0.00000000E+00
  0.00000000E+00  0.00000000E+00  0.00000000E+00
  0.00000000E+00  0.00000000E+00  0.00000000E+00
  0.00000000E+00  0.00000000E+00  0.00000000E+00
  0.00000000E+00  0.00000000E+00  0.00000000E+00
  0.00000000E+00  0.00000000E+00  0.00000000E+00
  0.00000000E+00  0.00000000E+00  0.00000000E+00
  0.00000000E+00  0.00000000E+00  0.00000000E+00
  0.00000000E+00  0.00000000E+00  0.00000000E+00
  0.00000000E+00  0.00000000E+00  0.00000000E+00
  0.00000000E+00  0.00000000E+00  0.00000000E+00
  0.00000000E+00  0.00000000E+00  0.00000000E+00
  0.00000000E+00  0.00000000E+00  0.00000000E+00
  0.00000000E+00  0.00000000E+00  0.00000000E+00
  0.00000000E+00  0.00000000E+00  0.00000000E+00
  0.00000000E+00  0.00000000E+00  0.00000000E+00
  0.00000000E+00  0.00000000E+00  0.00000000E+00
  0.00000000E+00  0.00000000E+00  0.00000000E+00
  0.00000000E+00  0.00000000E+00  0.00000000E+00
  0.00000000E+00  0.00000000E+00  0.00000000E+00
  0.00000000E+00  0.00000000E+00  0.00000000E+00
  0.00000000E+00  0.00000000E+00  0.00000000E+00
  0.00000000E+00  0.00000000E+00  0.00000000E+00
  0.00000000E+00  0.00000000E+00  0.00000000E+00
  0.00000000E+00  0.00000000E+00  0.00000000E+00
  0.00000000E+00  0.00000000E+00  0.00000000E+00
  0.00000000E+00  0.00000000E+00  0.00000000E+00
  0.00000000E+00  0.00000000E+00  0.00000000E+00
  0.00000000E+00  0.00000000E+00  0.00000000E+00
  0.00000000E+00  0.00000000E+00  0.00000000E+00
  0.00000000E+00  0.00000000E+00  0.00000000E+00
  0.00000000E+00  0.00000000E+00  0.00000000E+00
  0.00000000E+00  0.00000000E+00  0.00000000E+00
  0.00000000E+00  0.00000000E+00  0.00000000E+00
  0.00000000E+00  0.00000000E+00  0.00000000E+00
  0.00000000E+00  0.00000000E+00  0.00000000E+00
  0.00000000E+00  0.00000000E+00  0.00000000E+00
  0.00000000E+00  0.00000000E+00  0.00000000E+00
  0.00000000E+00  0.00000000E+00  0.00000000E+00
  0.00000000E+00  0.00000000E+00  0.00000000E+00
  0.00000000E+00  0.00000000E+00  0.00000000E+00
  0.00000000E+00  0.00000000E+00  0.00000000E+00
  0.00000000E+00  0.00000000E+00  0.00000000E+00
  0.00000000E+00  0.00000000E+00  0.00000000E+00
  0.00000000E+00  0.00000000E+00  0.00000000E+00
  0.00000000E+00  0.00000000E+00  0.00000000E+00
  0.00000000E+00  0.00000000E+00  0.00000000E+00
  0.00000000E+00  0.00000000E+00  0.00000000E+00
  0.00000000E+00  0.00000000E+00  0.00000000E+00
  0.00000000E+00  0.00000000E+00  0.00000000E+00
  0.00000000E+00  0.00000000E+00  0.00000000E+00
  0.00000000E+00  0.00000000E+00  0.00000000E+00
  0.00000000E+00  0.00000000E+00  0.00000000E+00
  0.00000000E+00  0.00000000E+00  0.00000000E+00
  0.00000000E+00  0.00000000E+00  0.00000000E+00
  0.00000000E+00  0.00000000E+00  0.00000000E+00
  0.00000000E+00  0.00000000E+00  0.00000000E+00
  0.00000000E+00  0.00000000E+00  0.00000000E+00
  0.00000000E+00  0.00000000E+00  0.00000000E+00
  0.00000000E+00  0.00000000E+00  0.00000000E+00
  0.00000000E+00  0.00000000E+00  0.00000000E+00
  0.00000000E+00  0.00000000E+00  0.00000000E+00
  0.00000000E+00  0.00000000E+00  0.00000000E+00
  0.00000000E+00  0.00000000E+00  0.00000000E+00
  0.00000000E+00  0.00000000E+00  0.00000000E+00
  0.00000000E+00  0.00000000E+00  0.00000000E+00
  0.00000000E+00  0.00000000E+00  0.00000000E+00
  0.00000000E+00  0.00000000E+00  0.00000000E+00
  0.00000000E+00  0.00000000E+00  0.00000000E+00
  0.00000000E+00  0.00000000E+00  0.00000000E+00
  0.00000000E+00  0.00000000E+00  0.00000000E+00
