Co1 H1 C122 N4 O2                       
   1.00000000000000     
    19.7980959615502812    0.0001055058007275    0.0531562595859648
    -9.8992459901994163   17.0024399006263636    0.0046553089288049
     0.0807504196168861    0.0549323896754228   29.8930834530623777
   Co   H    C    N    O 
     1     1   122     4     2
Direct
  0.4373453297357903  0.4998116526084762  0.4117237378528603
  0.5270833172533684  0.5492072377311594  0.5046519267629611
  0.0423018411613350  0.0845437638512729  0.4013321970069779
  0.0411607031107179  0.2083835231581518  0.4011736980414057
  0.0402823258915399  0.3329161724335847  0.4005583984448326
  0.0404324502166924  0.4581941247010364  0.3997807502372123
  0.0412976261609707  0.5837593075340366  0.3991105737484718
  0.0420989700472660  0.7092852630616029  0.3990373314046493
  0.0424651086215194  0.8346501181954700  0.3996538797227649
  0.0426217717913564  0.9599170297714197  0.4006512984269224
  0.1684419982271633  0.0863937503664929  0.4018582648284576
  0.1681537801162085  0.2112180688178652  0.4026954784480434
  0.1652999409000911  0.3339503918117943  0.4026006528836138
  0.1641661764712058  0.4584491568531072  0.4020487372957407
  0.1651012371875795  0.5836194648944431  0.4008851929343225
  0.1663693365880147  0.7090477521737230  0.3998489669454801
  0.1671243645559378  0.8346601529325097  0.3996523606096516
  0.1676894591325462  0.9604381320002818  0.4004769068567145
  0.2928777442894734  0.0863965175635798  0.4020194969890835
  0.2945796642286980  0.2143012544931376  0.4037704938776863
  0.2938461389205047  0.3405880133374571  0.4045378120811056
  0.2877240432843275  0.4582078407203797  0.4042051487257555
  0.2885439024627796  0.5829276003243947  0.4033414580848389
  0.2904816475262960  0.7082567647429640  0.4019268252414113
  0.2916205184692925  0.8339635768570000  0.4007615291138599
  0.2922458347914342  0.9599293160149093  0.4007559001644147
  0.4171700827752038  0.0845326941964717  0.4016407843110731
  0.4179348060044881  0.2112085003979810  0.4033010225576170
  0.4215524239866458  0.3405678060794494  0.4052166148018287
  0.4143385956847063  0.7048058946584151  0.4038627012250866
  0.4159094137057494  0.8316953135399306  0.4022970203679797
  0.4166119798415443  0.9581619182539992  0.4012147474188345
  0.5414694275878874  0.0824548839176213  0.4007842790523418
  0.5421219031012824  0.2083684226633588  0.4017917983458539
  0.5434861861649670  0.3339225601428278  0.4038573635895059
  0.5452898603727696  0.4581448562405731  0.4057539239123413
  0.5375775006425566  0.7004167632357682  0.4054367027112890
  0.5400532662385369  0.8293957805763630  0.4033344435329161
  0.5409201613927481  0.9562217192786365  0.4014959540427236
  0.6659284308881833  0.0816168114059379  0.4001822407849146
  0.6664878142129269  0.2073187657450584  0.4000082306654864
  0.6675225516422877  0.3329063972932153  0.4013602381551721
  0.6691325547436566  0.4584192759350733  0.4035478006446771
  0.6692463621933333  0.5829127347349461  0.4048918671225727
  0.6653015516612719  0.7048400946927773  0.4046164812751590
  0.6641788236117163  0.8293959796410386  0.4035169395794515
  0.6653158448046623  0.9557087224623189  0.4016279117071412
  0.7906390074064259  0.0816168753680082  0.4001556479899894
  0.7910111573763121  0.2070910306129888  0.3992966010817876
  0.7916584446465588  0.3326376657824897  0.3993774769950308
  0.7926483025324640  0.4581813445554236  0.4004133943581876
  0.7934078646898142  0.5836046460968466  0.4018425765581990
  0.7926311103876619  0.7082495904001612  0.4026819548117762
  0.7906849370828954  0.8317104771537909  0.4026291766783697
  0.7902219732263679  0.9562139992111186  0.4015895859977958
  0.9159309124948818  0.0824462050672404  0.4006511732345415
  0.9157577365653289  0.2073154506492845  0.3997869602232386
  0.9158750634624488  0.3326291570181451  0.3991842582838956
  0.9165560733510435  0.4581927987646462  0.3989800691836871
  0.9173568336496593  0.5837446068278482  0.3993569972537786
  0.9175800111234785  0.7090420203164995  0.4001364140690150
  0.9172519447874716  0.8339485325248552  0.4008958402824219
  0.9164834294639822  0.9581539174653094  0.4011978346655905
  0.0847062855559586  0.0437641951165150  0.4012588554360480
  0.0842344111652338  0.1682873593570085  0.4017731087243105
  0.0822401812665695  0.2917062575452498  0.4014270033391493
  0.0814726177825820  0.4163496071072919  0.4007491146520491
  0.0822264215993463  0.5417867196965473  0.3997973804887273
  0.0832439687714875  0.6673578385462446  0.3991676631506103
  0.0839161435693560  0.7928992917937127  0.3992976169413653
  0.0843047867646902  0.9183709246233733  0.4001623889995111
  0.2096061388080011  0.0442723741620739  0.4014458054221300
  0.2106722001880398  0.1705793363275925  0.4028787446517941
  0.2095397166057099  0.2951329684446188  0.4032615074613390
  0.2055987768276311  0.4170098733049410  0.4030147495003202
  0.2056788635610118  0.5414971314521925  0.4021726125893246
  0.2073321481188976  0.6670622801077661  0.4008350225914598
  0.2084190632765953  0.7926756319144039  0.3999927522977712
  0.2090119765472042  0.9183757771249789  0.4002069516327081
  0.3340001185122797  0.0437749864796788  0.4014666614051447
  0.3347887809295725  0.1705677011264794  0.4031658503636454
  0.3371729461667978  0.2995289976574549  0.4048829379300868
  0.3294431586626979  0.5416938584506535  0.4044361969676893
  0.3312898393405521  0.6659939422755397  0.4031344927856041
  0.3327382654730708  0.7915964510054033  0.4016768476772087
  0.3334625968105611  0.9175512393299611  0.4008746943850828
  0.4583165138088237  0.0418441466860484  0.4011770704962896
  0.4589418889939661  0.1682603373429671  0.4023273247650730
  0.4604299378564917  0.2951096153804623  0.4041786280696430
  0.4531709484140117  0.6593198675500191  0.4051168571265497
  0.4568872492155894  0.7887397625894638  0.4032636623426368
  0.4577260406844695  0.9154453007157876  0.4016693859794425
  0.5826928133228134  0.0400695234165555  0.4007125641379996
  0.5832849454688150  0.1660305414774879  0.4007246954685837
  0.5843335465783900  0.2916838807244804  0.4023815349454259
  0.5862402977654768  0.4169562048990191  0.4046433581418598
  0.5870871037887319  0.5416286520273978  0.4059520059555882
  0.5809532158944584  0.6593925535096661  0.4056767388329613
  0.5802384175846956  0.7856724612545396  0.4042415038247422
  0.5820229785408407  0.9135890820007904  0.4021574571515872
  0.7072468808821925  0.0395479834209527  0.4005279285781895
  0.7078025517456225  0.1653397231394806  0.3996309442717501
  0.7085168369246286  0.2909407139256167  0.4000756097434907
  0.7097517941252461  0.4163349057996842  0.4017626048702612
  0.7106949526021390  0.5414863628864253  0.4036294213962722
  0.7095413882005623  0.6659982291784216  0.4042232337332664
  0.7067063469408782  0.7887579721345253  0.4036820080242150
  0.7064645718620192  0.9135846298311284  0.4022443802055084
  0.8323179226999783  0.0400604208746561  0.4006961379641815
  0.8324656182547682  0.1653345543222377  0.3995693178569772
  0.8328044762135572  0.2907022115812998  0.3990974410545603
  0.8336046745616219  0.4162441636535918  0.3993902036178752
  0.8344575066494753  0.5417833362288650  0.4004136120347139
  0.8346133387784758  0.6670505109952640  0.4015270528800119
  0.8337425736750730  0.7915928978810596  0.4020855295921658
  0.8326454314468502  0.9154518408752441  0.4018003042840694
  0.9584699965620714  0.0418383288718277  0.4010282972856439
  0.9576723468874210  0.1660264958070659  0.4004195846025838
  0.9573270176694706  0.2909414936550686  0.3996968939630663
  0.9575302284446481  0.4162298804741432  0.3991326657838118
  0.9583605264159681  0.5417961215593271  0.3989491892936219
  0.9590182469253309  0.6673492109119651  0.3993333904611293
  0.9591745401271422  0.7926690535600871  0.4000882796219719
  0.9590127983769818  0.9175317957246413  0.4008374228658162
  0.4094217101269065  0.5783127815843792  0.4052648641186986
  0.5437300061892889  0.5783202883885861  0.4061613092101404
  0.3310473706902304  0.4215650934059665  0.4047530161479163
  0.4653602964962288  0.4215366825761534  0.4056821085544500
  0.4917589759189002  0.4939175570711342  0.4969412155414317
  0.4296351947388957  0.4978239273001999  0.4748012416102325
 
  0.00000000E+00  0.00000000E+00  0.00000000E+00
  0.00000000E+00  0.00000000E+00  0.00000000E+00
  0.00000000E+00  0.00000000E+00  0.00000000E+00
  0.00000000E+00  0.00000000E+00  0.00000000E+00
  0.00000000E+00  0.00000000E+00  0.00000000E+00
  0.00000000E+00  0.00000000E+00  0.00000000E+00
  0.00000000E+00  0.00000000E+00  0.00000000E+00
  0.00000000E+00  0.00000000E+00  0.00000000E+00
  0.00000000E+00  0.00000000E+00  0.00000000E+00
  0.00000000E+00  0.00000000E+00  0.00000000E+00
  0.00000000E+00  0.00000000E+00  0.00000000E+00
  0.00000000E+00  0.00000000E+00  0.00000000E+00
  0.00000000E+00  0.00000000E+00  0.00000000E+00
  0.00000000E+00  0.00000000E+00  0.00000000E+00
  0.00000000E+00  0.00000000E+00  0.00000000E+00
  0.00000000E+00  0.00000000E+00  0.00000000E+00
  0.00000000E+00  0.00000000E+00  0.00000000E+00
  0.00000000E+00  0.00000000E+00  0.00000000E+00
  0.00000000E+00  0.00000000E+00  0.00000000E+00
  0.00000000E+00  0.00000000E+00  0.00000000E+00
  0.00000000E+00  0.00000000E+00  0.00000000E+00
  0.00000000E+00  0.00000000E+00  0.00000000E+00
  0.00000000E+00  0.00000000E+00  0.00000000E+00
  0.00000000E+00  0.00000000E+00  0.00000000E+00
  0.00000000E+00  0.00000000E+00  0.00000000E+00
  0.00000000E+00  0.00000000E+00  0.00000000E+00
  0.00000000E+00  0.00000000E+00  0.00000000E+00
  0.00000000E+00  0.00000000E+00  0.00000000E+00
  0.00000000E+00  0.00000000E+00  0.00000000E+00
  0.00000000E+00  0.00000000E+00  0.00000000E+00
  0.00000000E+00  0.00000000E+00  0.00000000E+00
  0.00000000E+00  0.00000000E+00  0.00000000E+00
  0.00000000E+00  0.00000000E+00  0.00000000E+00
  0.00000000E+00  0.00000000E+00  0.00000000E+00
  0.00000000E+00  0.00000000E+00  0.00000000E+00
  0.00000000E+00  0.00000000E+00  0.00000000E+00
  0.00000000E+00  0.00000000E+00  0.00000000E+00
  0.00000000E+00  0.00000000E+00  0.00000000E+00
  0.00000000E+00  0.00000000E+00  0.00000000E+00
  0.00000000E+00  0.00000000E+00  0.00000000E+00
  0.00000000E+00  0.00000000E+00  0.00000000E+00
  0.00000000E+00  0.00000000E+00  0.00000000E+00
  0.00000000E+00  0.00000000E+00  0.00000000E+00
  0.00000000E+00  0.00000000E+00  0.00000000E+00
  0.00000000E+00  0.00000000E+00  0.00000000E+00
  0.00000000E+00  0.00000000E+00  0.00000000E+00
  0.00000000E+00  0.00000000E+00  0.00000000E+00
  0.00000000E+00  0.00000000E+00  0.00000000E+00
  0.00000000E+00  0.00000000E+00  0.00000000E+00
  0.00000000E+00  0.00000000E+00  0.00000000E+00
  0.00000000E+00  0.00000000E+00  0.00000000E+00
  0.00000000E+00  0.00000000E+00  0.00000000E+00
  0.00000000E+00  0.00000000E+00  0.00000000E+00
  0.00000000E+00  0.00000000E+00  0.00000000E+00
  0.00000000E+00  0.00000000E+00  0.00000000E+00
  0.00000000E+00  0.00000000E+00  0.00000000E+00
  0.00000000E+00  0.00000000E+00  0.00000000E+00
  0.00000000E+00  0.00000000E+00  0.00000000E+00
  0.00000000E+00  0.00000000E+00  0.00000000E+00
  0.00000000E+00  0.00000000E+00  0.00000000E+00
  0.00000000E+00  0.00000000E+00  0.00000000E+00
  0.00000000E+00  0.00000000E+00  0.00000000E+00
  0.00000000E+00  0.00000000E+00  0.00000000E+00
  0.00000000E+00  0.00000000E+00  0.00000000E+00
  0.00000000E+00  0.00000000E+00  0.00000000E+00
  0.00000000E+00  0.00000000E+00  0.00000000E+00
  0.00000000E+00  0.00000000E+00  0.00000000E+00
  0.00000000E+00  0.00000000E+00  0.00000000E+00
  0.00000000E+00  0.00000000E+00  0.00000000E+00
  0.00000000E+00  0.00000000E+00  0.00000000E+00
  0.00000000E+00  0.00000000E+00  0.00000000E+00
  0.00000000E+00  0.00000000E+00  0.00000000E+00
  0.00000000E+00  0.00000000E+00  0.00000000E+00
  0.00000000E+00  0.00000000E+00  0.00000000E+00
  0.00000000E+00  0.00000000E+00  0.00000000E+00
  0.00000000E+00  0.00000000E+00  0.00000000E+00
  0.00000000E+00  0.00000000E+00  0.00000000E+00
  0.00000000E+00  0.00000000E+00  0.00000000E+00
  0.00000000E+00  0.00000000E+00  0.00000000E+00
  0.00000000E+00  0.00000000E+00  0.00000000E+00
  0.00000000E+00  0.00000000E+00  0.00000000E+00
  0.00000000E+00  0.00000000E+00  0.00000000E+00
  0.00000000E+00  0.00000000E+00  0.00000000E+00
  0.00000000E+00  0.00000000E+00  0.00000000E+00
  0.00000000E+00  0.00000000E+00  0.00000000E+00
  0.00000000E+00  0.00000000E+00  0.00000000E+00
  0.00000000E+00  0.00000000E+00  0.00000000E+00
  0.00000000E+00  0.00000000E+00  0.00000000E+00
  0.00000000E+00  0.00000000E+00  0.00000000E+00
  0.00000000E+00  0.00000000E+00  0.00000000E+00
  0.00000000E+00  0.00000000E+00  0.00000000E+00
  0.00000000E+00  0.00000000E+00  0.00000000E+00
  0.00000000E+00  0.00000000E+00  0.00000000E+00
  0.00000000E+00  0.00000000E+00  0.00000000E+00
  0.00000000E+00  0.00000000E+00  0.00000000E+00
  0.00000000E+00  0.00000000E+00  0.00000000E+00
  0.00000000E+00  0.00000000E+00  0.00000000E+00
  0.00000000E+00  0.00000000E+00  0.00000000E+00
  0.00000000E+00  0.00000000E+00  0.00000000E+00
  0.00000000E+00  0.00000000E+00  0.00000000E+00
  0.00000000E+00  0.00000000E+00  0.00000000E+00
  0.00000000E+00  0.00000000E+00  0.00000000E+00
  0.00000000E+00  0.00000000E+00  0.00000000E+00
  0.00000000E+00  0.00000000E+00  0.00000000E+00
  0.00000000E+00  0.00000000E+00  0.00000000E+00
  0.00000000E+00  0.00000000E+00  0.00000000E+00
  0.00000000E+00  0.00000000E+00  0.00000000E+00
  0.00000000E+00  0.00000000E+00  0.00000000E+00
  0.00000000E+00  0.00000000E+00  0.00000000E+00
  0.00000000E+00  0.00000000E+00  0.00000000E+00
  0.00000000E+00  0.00000000E+00  0.00000000E+00
  0.00000000E+00  0.00000000E+00  0.00000000E+00
  0.00000000E+00  0.00000000E+00  0.00000000E+00
  0.00000000E+00  0.00000000E+00  0.00000000E+00
  0.00000000E+00  0.00000000E+00  0.00000000E+00
  0.00000000E+00  0.00000000E+00  0.00000000E+00
  0.00000000E+00  0.00000000E+00  0.00000000E+00
  0.00000000E+00  0.00000000E+00  0.00000000E+00
  0.00000000E+00  0.00000000E+00  0.00000000E+00
  0.00000000E+00  0.00000000E+00  0.00000000E+00
  0.00000000E+00  0.00000000E+00  0.00000000E+00
  0.00000000E+00  0.00000000E+00  0.00000000E+00
  0.00000000E+00  0.00000000E+00  0.00000000E+00
  0.00000000E+00  0.00000000E+00  0.00000000E+00
  0.00000000E+00  0.00000000E+00  0.00000000E+00
  0.00000000E+00  0.00000000E+00  0.00000000E+00
  0.00000000E+00  0.00000000E+00  0.00000000E+00
  0.00000000E+00  0.00000000E+00  0.00000000E+00
  0.00000000E+00  0.00000000E+00  0.00000000E+00
  0.00000000E+00  0.00000000E+00  0.00000000E+00
