Mo1 H1 C126 O1                          
   1.00000000000000     
    19.8096225450607797   -0.0005026523865726   -0.0553120705491816
    -9.9068752023850184   17.0697742168946967   -0.2337089065358273
    -0.0827648224901248   -0.4550692869282119   29.7652504531722144
   Mo   H    C    O 
     1     1   126     1
Direct
  0.4395018920580370  0.5032084253469475  0.4351799825985680
  0.4830737591375991  0.5250173561145782  0.5175664576105661
  0.0420457846362874  0.0840279311975381  0.3996085712693818
  0.0412733700389719  0.2082703824232664  0.3996115241342556
  0.0408891707043651  0.3329984255257021  0.3993347300630414
  0.0409016609021281  0.4584496796697862  0.3989417729038729
  0.0414949269474218  0.5837526780489594  0.3989456737356260
  0.0420339904859602  0.7089895417004506  0.3991522714850758
  0.0423671908174820  0.8343438875587748  0.3993821998585994
  0.0423953776927191  0.9593690777492563  0.3995252391758027
  0.1676198907355122  0.0850492742941765  0.4002577025599233
  0.1672542681709639  0.2096820947442410  0.4007686320036580
  0.1657245754157140  0.3334507294557629  0.4008298235104280
  0.1646401482794344  0.4584741578849312  0.3998066495830290
  0.1655684386698010  0.5836773865246030  0.3989861103307610
  0.1666610684682328  0.7090635009210753  0.3989849884671113
  0.1670836222665103  0.8343219066440163  0.3993318829409692
  0.1674203508985735  0.9597112476940013  0.3997548261983199
  0.2925663986475062  0.0850246968299523  0.4000880576521158
  0.2933098527077327  0.2114331447307097  0.4019030027823283
  0.2928451837130203  0.3368260128992344  0.4045766186001619
  0.2877906277284832  0.4580752758089559  0.4040508128934865
  0.2893551799053656  0.5842104144129587  0.4005789508604528
  0.2911675152259943  0.7090404753990196  0.3990416241710262
  0.2917502444555479  0.8340114809951988  0.3989559559166098
  0.2920852363507108  0.9593610519056222  0.3993690830092175
  0.4171074073328604  0.0839952123989538  0.3993570749157941
  0.4175641442345780  0.2096058536339200  0.4002437102027908
  0.4192818079889281  0.3367846645712527  0.4041067988932124
  0.4118065797018460  0.5820058803933891  0.4064938702860600
  0.4158071657341863  0.7075157538632640  0.4003889539923186
  0.4164609233003981  0.8331749134015004  0.3990036319647784
  0.4167447488372871  0.9585282425297925  0.3990770340916437
  0.5417001553196127  0.0830411111928099  0.3991442303844794
  0.5421225040598264  0.2082244916343449  0.3991456629365441
  0.5428738094978781  0.3333562033991435  0.4001143364281877
  0.5454248986149508  0.4578781970584855  0.4034269953616151
  0.5450398507799817  0.5816661510572688  0.4060984383588065
  0.5406835574366970  0.7062763640915833  0.4028292201354301
  0.5410399997127487  0.8321425114905251  0.3999402077147068
  0.5414861711703699  0.9577253207936449  0.3992163477631263
  0.6664594009483745  0.0827016935870634  0.3992634869176227
  0.6667455225148942  0.2079064846744424  0.3990162510643654
  0.6672427071394580  0.3329748405310180  0.3988080258279084
  0.6689802432628313  0.4584382861551260  0.3992557894483278
  0.6699205747121304  0.5841372857975984  0.4002186301499001
  0.6667167580616781  0.7074461707663957  0.4002038040995869
  0.6661462280410301  0.8321156088788676  0.3998196075672882
  0.6662855912304740  0.9574815249688854  0.3994483355153231
  0.7913516713016600  0.0827136907328227  0.3992303525559906
  0.7914544593177024  0.2078044017068275  0.3992010611166538
  0.7918472573840311  0.3330761378958197  0.3988716191772275
  0.7926597896137464  0.4584351379384334  0.3985912901972830
  0.7932073399756755  0.5836669451436814  0.3986750834032474
  0.7929286804465572  0.7090196105117008  0.3988172346449759
  0.7917516953143363  0.8331648550061725  0.3988841563071949
  0.7912948773076554  0.9577194788841736  0.3990942721144303
  0.9164516310490334  0.0830552598130655  0.3991677302945353
  0.9162787254528896  0.2079190313188011  0.3992135268988126
  0.9163625304848572  0.3330765970161310  0.3990678073826990
  0.9167140054297661  0.4583063042739178  0.3988674897302185
  0.9173473556093629  0.5837575824098791  0.3988159407180562
  0.9174977009265836  0.7090682331731094  0.3988876080781235
  0.9173480387995560  0.8340177101192076  0.3989984343720315
  0.9168803506056505  0.9585330293468041  0.3990900650456720
  0.0841267344895985  0.0428649500036019  0.3997657109171904
  0.0836436059248784  0.1673944694325104  0.3998835346508680
  0.0824460173860569  0.2914700633684678  0.3997945605091167
  0.0821274644681255  0.4167265000972886  0.3991930281818765
  0.0826171040818419  0.5419037840423150  0.3988786208867577
  0.0834376962857638  0.6673063533875169  0.3990625354606064
  0.0838858568800745  0.7926590767479741  0.3993360015514221
  0.0840498598836669  0.9178416323520215  0.3996048407464354
  0.2091579758701047  0.0431770723717745  0.4000855204088469
  0.2093446982561791  0.1686620094679171  0.4009986540771086
  0.2087961883440778  0.2933438749888590  0.4017371397862894
  0.2055494203799970  0.4165374552479996  0.4011691190704115
  0.2064180495747814  0.5420711288885847  0.3996293182515376
  0.2080662598773699  0.6674251836766008  0.3989494079806164
  0.2085422108716328  0.7925080848555996  0.3990823202729333
  0.2088942315206005  0.9178245282710776  0.3995184300756536
  0.3338633682572449  0.0428491611378789  0.3995694403039760
  0.3344557097778321  0.1686315030714246  0.4007182166932259
  0.3350689414833596  0.2948477571861007  0.4042167747275609
  0.3306270786784228  0.4196526118607207  0.4077064264119898
  0.3302875749522522  0.5430845534918695  0.4035447141790102
  0.3325731881433141  0.6672477522427356  0.3998474736515485
  0.3331983225553233  0.7922267231777521  0.3989043774690424
  0.3335767547214342  0.9174148972889735  0.3990909444218596
  0.4585308643379372  0.0419282168583986  0.3991780058787425
  0.4588737789097102  0.1673440526354815  0.3994424541141012
  0.4597160669913168  0.2932487236774348  0.4010833850473216
  0.4641874739500614  0.4196577866194544  0.4071209546971895
  0.4565286504040367  0.6643924422466724  0.4030912298187555
  0.4578862862287836  0.7910633992331675  0.3995731408963515
  0.4582181850543030  0.9165190285944826  0.3990481392621724
  0.5832456873948096  0.0411705609201929  0.3992058897230915
  0.5835308237468255  0.1664134111148165  0.3990546646499813
  0.5841684568275057  0.2914133595830077  0.3991524537509171
  0.5861464766028419  0.4164496137313531  0.4005159150154025
  0.5878850382263433  0.5429247439610477  0.4030751521406630
  0.5828338955165721  0.6642534213491860  0.4029136883163248
  0.5822751137889115  0.7894758806483344  0.4007742355133456
  0.5828862145487835  0.9156601416123682  0.3994875840805347
  0.7079945309390487  0.0408874416675773  0.3993047509152701
  0.7082492264874686  0.1661608294082218  0.3991834593315390
  0.7086247876004766  0.2913313417986327  0.3988410282227564
  0.7097266409613756  0.4167036570941112  0.3986725661207248
  0.7107597402658739  0.5420322047402929  0.3992262411473848
  0.7097096884989497  0.6672020418118375  0.3995545392619229
  0.7082004740877874  0.7910212404008723  0.3994136318842270
  0.7078447602889606  0.9156447529346974  0.3993836100167681
  0.8330264782081723  0.0411831015271151  0.3991294941026566
  0.8330188789937369  0.1661776772505624  0.3992359870471814
  0.8332712447744512  0.2914301603936206  0.3990769518373309
  0.8337835667237780  0.4165903015607780  0.3987507261655705
  0.8343888958539021  0.5419041179503785  0.3986080580975895
  0.8344469226464916  0.6674236267825370  0.3987150189752093
  0.8340852437214969  0.7922222644864308  0.3988150292846757
  0.8333682646349504  0.9165169951051340  0.3989547255135168
  0.9585201391702368  0.0419435638470174  0.3992525533756118
  0.9580169742958194  0.1664366996507818  0.3992779396187917
  0.9578459084578601  0.2913359656892275  0.3991742841380639
  0.9579473056445027  0.4166021991704330  0.3989755712019510
  0.9585592872085418  0.5420300779159276  0.3989031213037494
  0.9589505886788514  0.6672981372936511  0.3989810021899000
  0.9590778608901687  0.7925225516288603  0.3990986805471035
  0.9589384777581444  0.9174265467267692  0.3991995313209685
  0.4375642043041127  0.5103815850820742  0.4982532344173467
 
  0.00000000E+00  0.00000000E+00  0.00000000E+00
  0.00000000E+00  0.00000000E+00  0.00000000E+00
  0.00000000E+00  0.00000000E+00  0.00000000E+00
  0.00000000E+00  0.00000000E+00  0.00000000E+00
  0.00000000E+00  0.00000000E+00  0.00000000E+00
  0.00000000E+00  0.00000000E+00  0.00000000E+00
  0.00000000E+00  0.00000000E+00  0.00000000E+00
  0.00000000E+00  0.00000000E+00  0.00000000E+00
  0.00000000E+00  0.00000000E+00  0.00000000E+00
  0.00000000E+00  0.00000000E+00  0.00000000E+00
  0.00000000E+00  0.00000000E+00  0.00000000E+00
  0.00000000E+00  0.00000000E+00  0.00000000E+00
  0.00000000E+00  0.00000000E+00  0.00000000E+00
  0.00000000E+00  0.00000000E+00  0.00000000E+00
  0.00000000E+00  0.00000000E+00  0.00000000E+00
  0.00000000E+00  0.00000000E+00  0.00000000E+00
  0.00000000E+00  0.00000000E+00  0.00000000E+00
  0.00000000E+00  0.00000000E+00  0.00000000E+00
  0.00000000E+00  0.00000000E+00  0.00000000E+00
  0.00000000E+00  0.00000000E+00  0.00000000E+00
  0.00000000E+00  0.00000000E+00  0.00000000E+00
  0.00000000E+00  0.00000000E+00  0.00000000E+00
  0.00000000E+00  0.00000000E+00  0.00000000E+00
  0.00000000E+00  0.00000000E+00  0.00000000E+00
  0.00000000E+00  0.00000000E+00  0.00000000E+00
  0.00000000E+00  0.00000000E+00  0.00000000E+00
  0.00000000E+00  0.00000000E+00  0.00000000E+00
  0.00000000E+00  0.00000000E+00  0.00000000E+00
  0.00000000E+00  0.00000000E+00  0.00000000E+00
  0.00000000E+00  0.00000000E+00  0.00000000E+00
  0.00000000E+00  0.00000000E+00  0.00000000E+00
  0.00000000E+00  0.00000000E+00  0.00000000E+00
  0.00000000E+00  0.00000000E+00  0.00000000E+00
  0.00000000E+00  0.00000000E+00  0.00000000E+00
  0.00000000E+00  0.00000000E+00  0.00000000E+00
  0.00000000E+00  0.00000000E+00  0.00000000E+00
  0.00000000E+00  0.00000000E+00  0.00000000E+00
  0.00000000E+00  0.00000000E+00  0.00000000E+00
  0.00000000E+00  0.00000000E+00  0.00000000E+00
  0.00000000E+00  0.00000000E+00  0.00000000E+00
  0.00000000E+00  0.00000000E+00  0.00000000E+00
  0.00000000E+00  0.00000000E+00  0.00000000E+00
  0.00000000E+00  0.00000000E+00  0.00000000E+00
  0.00000000E+00  0.00000000E+00  0.00000000E+00
  0.00000000E+00  0.00000000E+00  0.00000000E+00
  0.00000000E+00  0.00000000E+00  0.00000000E+00
  0.00000000E+00  0.00000000E+00  0.00000000E+00
  0.00000000E+00  0.00000000E+00  0.00000000E+00
  0.00000000E+00  0.00000000E+00  0.00000000E+00
  0.00000000E+00  0.00000000E+00  0.00000000E+00
  0.00000000E+00  0.00000000E+00  0.00000000E+00
  0.00000000E+00  0.00000000E+00  0.00000000E+00
  0.00000000E+00  0.00000000E+00  0.00000000E+00
  0.00000000E+00  0.00000000E+00  0.00000000E+00
  0.00000000E+00  0.00000000E+00  0.00000000E+00
  0.00000000E+00  0.00000000E+00  0.00000000E+00
  0.00000000E+00  0.00000000E+00  0.00000000E+00
  0.00000000E+00  0.00000000E+00  0.00000000E+00
  0.00000000E+00  0.00000000E+00  0.00000000E+00
  0.00000000E+00  0.00000000E+00  0.00000000E+00
  0.00000000E+00  0.00000000E+00  0.00000000E+00
  0.00000000E+00  0.00000000E+00  0.00000000E+00
  0.00000000E+00  0.00000000E+00  0.00000000E+00
  0.00000000E+00  0.00000000E+00  0.00000000E+00
  0.00000000E+00  0.00000000E+00  0.00000000E+00
  0.00000000E+00  0.00000000E+00  0.00000000E+00
  0.00000000E+00  0.00000000E+00  0.00000000E+00
  0.00000000E+00  0.00000000E+00  0.00000000E+00
  0.00000000E+00  0.00000000E+00  0.00000000E+00
  0.00000000E+00  0.00000000E+00  0.00000000E+00
  0.00000000E+00  0.00000000E+00  0.00000000E+00
  0.00000000E+00  0.00000000E+00  0.00000000E+00
  0.00000000E+00  0.00000000E+00  0.00000000E+00
  0.00000000E+00  0.00000000E+00  0.00000000E+00
  0.00000000E+00  0.00000000E+00  0.00000000E+00
  0.00000000E+00  0.00000000E+00  0.00000000E+00
  0.00000000E+00  0.00000000E+00  0.00000000E+00
  0.00000000E+00  0.00000000E+00  0.00000000E+00
  0.00000000E+00  0.00000000E+00  0.00000000E+00
  0.00000000E+00  0.00000000E+00  0.00000000E+00
  0.00000000E+00  0.00000000E+00  0.00000000E+00
  0.00000000E+00  0.00000000E+00  0.00000000E+00
  0.00000000E+00  0.00000000E+00  0.00000000E+00
  0.00000000E+00  0.00000000E+00  0.00000000E+00
  0.00000000E+00  0.00000000E+00  0.00000000E+00
  0.00000000E+00  0.00000000E+00  0.00000000E+00
  0.00000000E+00  0.00000000E+00  0.00000000E+00
  0.00000000E+00  0.00000000E+00  0.00000000E+00
  0.00000000E+00  0.00000000E+00  0.00000000E+00
  0.00000000E+00  0.00000000E+00  0.00000000E+00
  0.00000000E+00  0.00000000E+00  0.00000000E+00
  0.00000000E+00  0.00000000E+00  0.00000000E+00
  0.00000000E+00  0.00000000E+00  0.00000000E+00
  0.00000000E+00  0.00000000E+00  0.00000000E+00
  0.00000000E+00  0.00000000E+00  0.00000000E+00
  0.00000000E+00  0.00000000E+00  0.00000000E+00
  0.00000000E+00  0.00000000E+00  0.00000000E+00
  0.00000000E+00  0.00000000E+00  0.00000000E+00
  0.00000000E+00  0.00000000E+00  0.00000000E+00
  0.00000000E+00  0.00000000E+00  0.00000000E+00
  0.00000000E+00  0.00000000E+00  0.00000000E+00
  0.00000000E+00  0.00000000E+00  0.00000000E+00
  0.00000000E+00  0.00000000E+00  0.00000000E+00
  0.00000000E+00  0.00000000E+00  0.00000000E+00
  0.00000000E+00  0.00000000E+00  0.00000000E+00
  0.00000000E+00  0.00000000E+00  0.00000000E+00
  0.00000000E+00  0.00000000E+00  0.00000000E+00
  0.00000000E+00  0.00000000E+00  0.00000000E+00
  0.00000000E+00  0.00000000E+00  0.00000000E+00
  0.00000000E+00  0.00000000E+00  0.00000000E+00
  0.00000000E+00  0.00000000E+00  0.00000000E+00
  0.00000000E+00  0.00000000E+00  0.00000000E+00
  0.00000000E+00  0.00000000E+00  0.00000000E+00
  0.00000000E+00  0.00000000E+00  0.00000000E+00
  0.00000000E+00  0.00000000E+00  0.00000000E+00
  0.00000000E+00  0.00000000E+00  0.00000000E+00
  0.00000000E+00  0.00000000E+00  0.00000000E+00
  0.00000000E+00  0.00000000E+00  0.00000000E+00
  0.00000000E+00  0.00000000E+00  0.00000000E+00
  0.00000000E+00  0.00000000E+00  0.00000000E+00
  0.00000000E+00  0.00000000E+00  0.00000000E+00
  0.00000000E+00  0.00000000E+00  0.00000000E+00
  0.00000000E+00  0.00000000E+00  0.00000000E+00
  0.00000000E+00  0.00000000E+00  0.00000000E+00
  0.00000000E+00  0.00000000E+00  0.00000000E+00
  0.00000000E+00  0.00000000E+00  0.00000000E+00
  0.00000000E+00  0.00000000E+00  0.00000000E+00
  0.00000000E+00  0.00000000E+00  0.00000000E+00
  0.00000000E+00  0.00000000E+00  0.00000000E+00
