Ir1 C126                                
   1.00000000000000     
    19.8337133509952928    0.0000009159623274   -0.0004210473431967
    -9.9168563264196496   17.0504645429281645    0.0001219839766528
    -0.0006308705195725   -0.0001552544791192   29.7551268597660794
   Ir   C 
     1   126
Direct
  0.4375079973268622  0.5000006918155038  0.4293350177991212
  0.0419326740926795  0.0840093082868558  0.3994909820512437
  0.0407676583925132  0.2079227482306189  0.3989753571104403
  0.0400723348317645  0.3326807819859468  0.3986500149611960
  0.0400741206754175  0.4581977431568605  0.3988912480055730
  0.0411867991798555  0.5837931778864760  0.3995875528332837
  0.0421178942204771  0.7092112863064433  0.4000132338233217
  0.0424649605108059  0.8345601080561782  0.4000976635813275
  0.0424740708916348  0.9595639303325928  0.3998540292641065
  0.1677657398324022  0.0854669620074819  0.3995654122875834
  0.1672395490087117  0.2100813823415444  0.3994713076480108
  0.1648142705673397  0.3332190806226025  0.3993704588245749
  0.1633019879421211  0.4582931161725396  0.3984030441722979
  0.1646299204065602  0.5837158540763131  0.3983373348432550
  0.1663666097147236  0.7091793605084948  0.3993232165229416
  0.1671179631768231  0.8345669790859011  0.4000772520988888
  0.1675228092582610  0.9600254153433974  0.3999911975505744
  0.2926860734048871  0.0854746421699771  0.3995591331282243
  0.2935053151594724  0.2120542566527669  0.4005561392339682
  0.2926815967847441  0.3374178188163439  0.4039079351566117
  0.2854516383106920  0.4581626303704305  0.4039054683900619
  0.2877410246050758  0.5836801696018948  0.3997085928431325
  0.2906530292849739  0.7087934657425661  0.3986663290379288
  0.2915643172156824  0.8340393853588154  0.3994213756110481
  0.2921214993706333  0.9595859642662886  0.3998577947394646
  0.4171036392170768  0.0840507121522702  0.3995043503451157
  0.4178173170399457  0.2100997435701075  0.3994895820611024
  0.4197181790297387  0.3374098679071412  0.4038989578180746
  0.4089584698005174  0.5797049116798345  0.4100482274918341
  0.4148931522310684  0.7062236988079874  0.4003384469738678
  0.4160412899090423  0.8325061312035239  0.3991333281136681
  0.4166262472282497  0.9582829231410350  0.3996887796500771
  0.5415808107997084  0.0825575128255491  0.3997291324444383
  0.5421738347581642  0.2079626213710635  0.3989902931018062
  0.5433954397351813  0.3332392290056814  0.3993533077871090
  0.5476649721223756  0.4581445640431657  0.4038383925250605
  0.5457258118742072  0.5796936580410672  0.4099812264632248
  0.5395211087698029  0.7040652849426191  0.4033244690403135
  0.5403639888031633  0.8307578933591517  0.3997552318928417
  0.5410966962315863  0.9568730054508265  0.3996181899875467
  0.6661034982993270  0.0818815345055385  0.4000558602750457
  0.6666442433538637  0.2073247280564578  0.3996581149885209
  0.6676101863949383  0.3326948489794666  0.3986597922649501
  0.6699785316481959  0.4582934259527607  0.3984167370012104
  0.6709082303133578  0.5836702518706458  0.3996835263671693
  0.6663063889592390  0.7062153971013814  0.4003436691179121
  0.6653654479928435  0.8307628157191866  0.3997586643686909
  0.6656881062341111  0.9563575349147061  0.3997022939021662
  0.7908159475134910  0.0818668742643700  0.4000505076248904
  0.7910949249976733  0.2071483853041586  0.4001634421171815
  0.7917627606048820  0.3326054776911235  0.3997171077335620
  0.7931094512571977  0.4581998372135418  0.3989151644139029
  0.7940666333137085  0.5837001449562899  0.3983738761782534
  0.7931342567821227  0.7087851468846704  0.3986689921942274
  0.7914569310965136  0.8324838320757086  0.3991623141844350
  0.7907732800823175  0.9568492724588500  0.3996245457350388
  0.9159870867621831  0.0825167764672195  0.3997208704057365
  0.9156973438610183  0.2072940826986116  0.3996422362727412
  0.9158680942282060  0.3326056482003062  0.3997104529208451
  0.9165656130990806  0.4581301204370902  0.3998560078547092
  0.9175979535627918  0.5837963136077683  0.3996000005012121
  0.9178224097990176  0.7091765700022297  0.3993320130578127
  0.9174825536060949  0.8340160031753280  0.3994418826568175
  0.9166647386016397  0.9582385905234575  0.3996997165504116
  0.0842244100533462  0.0431267216300138  0.3996192025891744
  0.0835361796742524  0.1674912483113097  0.3991352147661629
  0.0818632392563887  0.2912071600956065  0.3986674547490063
  0.0809168920448562  0.4162855599090125  0.3983374295495486
  0.0818734944284478  0.5418000557806374  0.3988905613063828
  0.0832571980770636  0.6673906479928751  0.3997094944618430
  0.0839420118847052  0.7928490453272097  0.4001635421259846
  0.0842223551453261  0.9181195209634118  0.4000569241963066
  0.2093328003159808  0.0436450921959036  0.3997029285360167
  0.2096091789510194  0.1692413080657426  0.3997554963202388
  0.2086718362606829  0.2937771029300881  0.4003389264297884
  0.2040665955242941  0.4163229804648519  0.3997078227401131
  0.2050105149857475  0.5417061713968093  0.3984037994931068
  0.2073892375757598  0.6673171140853489  0.3986490727895691
  0.2084007841682727  0.7927055729737911  0.3996413354323839
  0.2089494213858920  0.9181348897383693  0.4000512112905648
  0.3339254883283857  0.0431535283889682  0.3996237075251899
  0.3346025232839534  0.1692360393180826  0.3997595457744635
  0.3354565011392067  0.2959342118568467  0.4033227915917857
  0.3292550835651394  0.4202955818181874  0.4100479495821104
  0.3272916198039204  0.5418373377878084  0.4039059641683101
  0.3315952370756675  0.6667786085768059  0.3993704939490492
  0.3328444052173837  0.7920778687623012  0.3989734003802727
  0.3334724620981379  0.9174869498868560  0.3997198029257101
  0.4584260360856242  0.0417630930832693  0.3996985426248588
  0.4589712818207607  0.1675168238896262  0.3991612548944804
  0.4600900725211705  0.2937836109498390  0.4003428292184072
  0.4660329854515653  0.4203076841172063  0.4099811910637408
  0.4552649612551763  0.6625827989761177  0.4039097131642601
  0.4571601957889987  0.7899202451878836  0.3994706164012232
  0.4579239491284547  0.9159936578056996  0.3994896257468593
  0.5829093761325486  0.0404363277600054  0.3998528005974796
  0.5834655626862790  0.1659858508491701  0.3994398016836556
  0.5843470181775001  0.2912167197059450  0.3986685603010351
  0.5872369224702937  0.4163303929103700  0.3996830536236952
  0.5895202160868663  0.5418570158438757  0.4038384465613067
  0.5823097811220805  0.6625919965262437  0.4039000685605795
  0.5814561976071981  0.7879495802595556  0.4005558064941708
  0.5822993222660087  0.9145339101881519  0.3995651254820896
  0.7074959285452649  0.0399721850580660  0.3999907633426310
  0.7079033655537168  0.1654399813749334  0.4000968154626048
  0.7086458817755071  0.2908247971294970  0.3993306969221971
  0.7103651766269402  0.4163007961271776  0.3983737282731079
  0.7116827247191018  0.5417060308085637  0.3984167491529541
  0.7101559029129936  0.6667608428520566  0.3993533884493485
  0.7077172026801909  0.7899026992044366  0.3994897140761189
  0.7072111418340205  0.9145243818741544  0.3995589450063216
  0.8325333671252367  0.0404078761700471  0.3998577638809289
  0.8325502404961594  0.1654334279915738  0.4000772490778174
  0.8329068038712542  0.2907906893091002  0.4000132370092193
  0.8338028933107838  0.4162042442355401  0.3996000358933184
  0.8349083299461671  0.5417985862104178  0.3989152013376049
  0.8349121641632016  0.6673021646620484  0.3986605065137452
  0.8342080504419306  0.7920359925183313  0.3989920355613245
  0.8330521602705543  0.9159483907639051  0.3995054267985137
  0.9583426554791633  0.0417143709673444  0.3996905389766113
  0.9575255666697940  0.1659583175787145  0.3994225825824189
  0.9571875082931662  0.2908221705782673  0.3993243857527725
  0.9573936286450162  0.4162085771013133  0.3995881834423615
  0.9584343354081418  0.5418679994323790  0.3998553529721892
  0.9591538552344662  0.6673910901341783  0.3997178970669938
  0.9593175355392878  0.7926744657475696  0.3996600146744717
  0.9590228075348718  0.9174422661039024  0.3997304827817696
 
  0.00000000E+00  0.00000000E+00  0.00000000E+00
  0.00000000E+00  0.00000000E+00  0.00000000E+00
  0.00000000E+00  0.00000000E+00  0.00000000E+00
  0.00000000E+00  0.00000000E+00  0.00000000E+00
  0.00000000E+00  0.00000000E+00  0.00000000E+00
  0.00000000E+00  0.00000000E+00  0.00000000E+00
  0.00000000E+00  0.00000000E+00  0.00000000E+00
  0.00000000E+00  0.00000000E+00  0.00000000E+00
  0.00000000E+00  0.00000000E+00  0.00000000E+00
  0.00000000E+00  0.00000000E+00  0.00000000E+00
  0.00000000E+00  0.00000000E+00  0.00000000E+00
  0.00000000E+00  0.00000000E+00  0.00000000E+00
  0.00000000E+00  0.00000000E+00  0.00000000E+00
  0.00000000E+00  0.00000000E+00  0.00000000E+00
  0.00000000E+00  0.00000000E+00  0.00000000E+00
  0.00000000E+00  0.00000000E+00  0.00000000E+00
  0.00000000E+00  0.00000000E+00  0.00000000E+00
  0.00000000E+00  0.00000000E+00  0.00000000E+00
  0.00000000E+00  0.00000000E+00  0.00000000E+00
  0.00000000E+00  0.00000000E+00  0.00000000E+00
  0.00000000E+00  0.00000000E+00  0.00000000E+00
  0.00000000E+00  0.00000000E+00  0.00000000E+00
  0.00000000E+00  0.00000000E+00  0.00000000E+00
  0.00000000E+00  0.00000000E+00  0.00000000E+00
  0.00000000E+00  0.00000000E+00  0.00000000E+00
  0.00000000E+00  0.00000000E+00  0.00000000E+00
  0.00000000E+00  0.00000000E+00  0.00000000E+00
  0.00000000E+00  0.00000000E+00  0.00000000E+00
  0.00000000E+00  0.00000000E+00  0.00000000E+00
  0.00000000E+00  0.00000000E+00  0.00000000E+00
  0.00000000E+00  0.00000000E+00  0.00000000E+00
  0.00000000E+00  0.00000000E+00  0.00000000E+00
  0.00000000E+00  0.00000000E+00  0.00000000E+00
  0.00000000E+00  0.00000000E+00  0.00000000E+00
  0.00000000E+00  0.00000000E+00  0.00000000E+00
  0.00000000E+00  0.00000000E+00  0.00000000E+00
  0.00000000E+00  0.00000000E+00  0.00000000E+00
  0.00000000E+00  0.00000000E+00  0.00000000E+00
  0.00000000E+00  0.00000000E+00  0.00000000E+00
  0.00000000E+00  0.00000000E+00  0.00000000E+00
  0.00000000E+00  0.00000000E+00  0.00000000E+00
  0.00000000E+00  0.00000000E+00  0.00000000E+00
  0.00000000E+00  0.00000000E+00  0.00000000E+00
  0.00000000E+00  0.00000000E+00  0.00000000E+00
  0.00000000E+00  0.00000000E+00  0.00000000E+00
  0.00000000E+00  0.00000000E+00  0.00000000E+00
  0.00000000E+00  0.00000000E+00  0.00000000E+00
  0.00000000E+00  0.00000000E+00  0.00000000E+00
  0.00000000E+00  0.00000000E+00  0.00000000E+00
  0.00000000E+00  0.00000000E+00  0.00000000E+00
  0.00000000E+00  0.00000000E+00  0.00000000E+00
  0.00000000E+00  0.00000000E+00  0.00000000E+00
  0.00000000E+00  0.00000000E+00  0.00000000E+00
  0.00000000E+00  0.00000000E+00  0.00000000E+00
  0.00000000E+00  0.00000000E+00  0.00000000E+00
  0.00000000E+00  0.00000000E+00  0.00000000E+00
  0.00000000E+00  0.00000000E+00  0.00000000E+00
  0.00000000E+00  0.00000000E+00  0.00000000E+00
  0.00000000E+00  0.00000000E+00  0.00000000E+00
  0.00000000E+00  0.00000000E+00  0.00000000E+00
  0.00000000E+00  0.00000000E+00  0.00000000E+00
  0.00000000E+00  0.00000000E+00  0.00000000E+00
  0.00000000E+00  0.00000000E+00  0.00000000E+00
  0.00000000E+00  0.00000000E+00  0.00000000E+00
  0.00000000E+00  0.00000000E+00  0.00000000E+00
  0.00000000E+00  0.00000000E+00  0.00000000E+00
  0.00000000E+00  0.00000000E+00  0.00000000E+00
  0.00000000E+00  0.00000000E+00  0.00000000E+00
  0.00000000E+00  0.00000000E+00  0.00000000E+00
  0.00000000E+00  0.00000000E+00  0.00000000E+00
  0.00000000E+00  0.00000000E+00  0.00000000E+00
  0.00000000E+00  0.00000000E+00  0.00000000E+00
  0.00000000E+00  0.00000000E+00  0.00000000E+00
  0.00000000E+00  0.00000000E+00  0.00000000E+00
  0.00000000E+00  0.00000000E+00  0.00000000E+00
  0.00000000E+00  0.00000000E+00  0.00000000E+00
  0.00000000E+00  0.00000000E+00  0.00000000E+00
  0.00000000E+00  0.00000000E+00  0.00000000E+00
  0.00000000E+00  0.00000000E+00  0.00000000E+00
  0.00000000E+00  0.00000000E+00  0.00000000E+00
  0.00000000E+00  0.00000000E+00  0.00000000E+00
  0.00000000E+00  0.00000000E+00  0.00000000E+00
  0.00000000E+00  0.00000000E+00  0.00000000E+00
  0.00000000E+00  0.00000000E+00  0.00000000E+00
  0.00000000E+00  0.00000000E+00  0.00000000E+00
  0.00000000E+00  0.00000000E+00  0.00000000E+00
  0.00000000E+00  0.00000000E+00  0.00000000E+00
  0.00000000E+00  0.00000000E+00  0.00000000E+00
  0.00000000E+00  0.00000000E+00  0.00000000E+00
  0.00000000E+00  0.00000000E+00  0.00000000E+00
  0.00000000E+00  0.00000000E+00  0.00000000E+00
  0.00000000E+00  0.00000000E+00  0.00000000E+00
  0.00000000E+00  0.00000000E+00  0.00000000E+00
  0.00000000E+00  0.00000000E+00  0.00000000E+00
  0.00000000E+00  0.00000000E+00  0.00000000E+00
  0.00000000E+00  0.00000000E+00  0.00000000E+00
  0.00000000E+00  0.00000000E+00  0.00000000E+00
  0.00000000E+00  0.00000000E+00  0.00000000E+00
  0.00000000E+00  0.00000000E+00  0.00000000E+00
  0.00000000E+00  0.00000000E+00  0.00000000E+00
  0.00000000E+00  0.00000000E+00  0.00000000E+00
  0.00000000E+00  0.00000000E+00  0.00000000E+00
  0.00000000E+00  0.00000000E+00  0.00000000E+00
  0.00000000E+00  0.00000000E+00  0.00000000E+00
  0.00000000E+00  0.00000000E+00  0.00000000E+00
  0.00000000E+00  0.00000000E+00  0.00000000E+00
  0.00000000E+00  0.00000000E+00  0.00000000E+00
  0.00000000E+00  0.00000000E+00  0.00000000E+00
  0.00000000E+00  0.00000000E+00  0.00000000E+00
  0.00000000E+00  0.00000000E+00  0.00000000E+00
  0.00000000E+00  0.00000000E+00  0.00000000E+00
  0.00000000E+00  0.00000000E+00  0.00000000E+00
  0.00000000E+00  0.00000000E+00  0.00000000E+00
  0.00000000E+00  0.00000000E+00  0.00000000E+00
  0.00000000E+00  0.00000000E+00  0.00000000E+00
  0.00000000E+00  0.00000000E+00  0.00000000E+00
  0.00000000E+00  0.00000000E+00  0.00000000E+00
  0.00000000E+00  0.00000000E+00  0.00000000E+00
  0.00000000E+00  0.00000000E+00  0.00000000E+00
  0.00000000E+00  0.00000000E+00  0.00000000E+00
  0.00000000E+00  0.00000000E+00  0.00000000E+00
  0.00000000E+00  0.00000000E+00  0.00000000E+00
  0.00000000E+00  0.00000000E+00  0.00000000E+00
  0.00000000E+00  0.00000000E+00  0.00000000E+00
  0.00000000E+00  0.00000000E+00  0.00000000E+00
  0.00000000E+00  0.00000000E+00  0.00000000E+00
  0.00000000E+00  0.00000000E+00  0.00000000E+00
