H1 Ir1 C123 N3 O1                       
   1.00000000000000     
    19.8428619302876115    0.0108424380874398    0.0436953148970421
    -9.9119794409684197   17.0242190661747905   -0.0174308801382093
     0.0659247593628737    0.0075944762076202   29.7779328198485906
   H    Ir   C    N    O 
     1     1   123     3     1
Direct
  0.4901764060497226  0.5397996713474587  0.4987861339492317
  0.4367375947051177  0.4988530990761313  0.4212769770856631
  0.0417525180015898  0.0840264392598579  0.3998012069587162
  0.0403845033052306  0.2078462208616512  0.4000925669752983
  0.0395912644937043  0.3325663721843530  0.3995682419096415
  0.0399668664831833  0.4580387045913005  0.3989554291718672
  0.0412963374603328  0.5838167827064447  0.3989903463120641
  0.0424658569321715  0.7094487826139896  0.3992102104192811
  0.0427952400460090  0.8347598926717281  0.3993176421940908
  0.0426079406889992  0.9597648753353827  0.3994632085798887
  0.1678649976306428  0.0857564117450113  0.4005201165840110
  0.1669339681026777  0.2101473713772038  0.4016007367435260
  0.1640323200150735  0.3331995249179727  0.4018662380080880
  0.1631150878321837  0.4581074475073920  0.3999516415501954
  0.1645553719068539  0.5835983008292378  0.3991166093827151
  0.1663872554102324  0.7091321348408064  0.3992071337081973
  0.1672836608658057  0.8346859669403612  0.3994761495137292
  0.1676966439947826  0.9602716574367569  0.3997506620546661
  0.2927154138022894  0.0860315272899241  0.4003844674608070
  0.2933408471366337  0.2129307115923119  0.4028060436517220
  0.2911852243524074  0.3379414332163586  0.4064925923337400
  0.2854204982776066  0.4576809442586613  0.4045369843478276
  0.2872396221079513  0.5829248553418005  0.4005781309730076
  0.2903651285314043  0.7083799033926913  0.3994259780858079
  0.2916467705110545  0.8340078332263962  0.3994155001735654
  0.2922605019293455  0.9598324312977015  0.3996711935427333
  0.4171239016066026  0.0843113875280187  0.3998277534293097
  0.4178477286140833  0.2106432641711484  0.4008649978953420
  0.4197224385470514  0.3380069107628383  0.4049835995022150
  0.4142820688481050  0.7057481720850998  0.4011878421154483
  0.4159177393648481  0.8320944111530310  0.3998872224991029
  0.4166111484990134  0.9582155059827731  0.3996457184327328
  0.5414468678421286  0.0824516248017521  0.3996050650568669
  0.5421535022883900  0.2083329986639138  0.3995564474203070
  0.5436914895229640  0.3341007625719842  0.4007485740827125
  0.5490959579703990  0.4599371103130094  0.4053532590012022
  0.5378435371897796  0.7005977094164030  0.4055170397941676
  0.5401132937414341  0.8294765635780221  0.4013666692364286
  0.5409159172600976  0.9562766407732203  0.3998479678838175
  0.6658237462482602  0.0815439314380369  0.3996359010676625
  0.6664673880407597  0.2072449261419883  0.3994332155357699
  0.6677461800375675  0.3329366865157951  0.3991724054820662
  0.6706801441994027  0.4587622533455439  0.4002090154670404
  0.6723239578754843  0.5843925574024175  0.4029949906492911
  0.6669629729982761  0.7059597055345648  0.4035940062764127
  0.6644781492072869  0.8295702799581961  0.4019856978674199
  0.6652822178269895  0.9556968017323053  0.4002610609645333
  0.7903927872626790  0.0814787154476253  0.3996209023086310
  0.7907591674014499  0.2069190360821583  0.3994771317082781
  0.7916840738211615  0.3325348741099410  0.3991957163792971
  0.7933865874768103  0.4582864618261460  0.3988386939547039
  0.7947721021324694  0.5840401273410549  0.3992987510377240
  0.7940076392603627  0.7090828520375200  0.4004495932853687
  0.7913428472810609  0.8321909916674871  0.4003505010734844
  0.7902357180234996  0.9562474238749719  0.3999143815477484
  0.9155731480520839  0.0822134890315406  0.3994595233016945
  0.9152343057607165  0.2070239338776954  0.3994094643357146
  0.9155512607924798  0.3324062966585681  0.3991232625043604
  0.9166656243215459  0.4581488508367870  0.3989576358108292
  0.9179859154016209  0.5839288431043541  0.3988480213207732
  0.9183562967680160  0.7093490543549342  0.3990765876252549
  0.9178191084886801  0.8342191270650222  0.3992997461159795
  0.9165394654746013  0.9581240034190815  0.3993448360913652
  0.0843282901394239  0.0433816631008348  0.3998812747683565
  0.0833218310273581  0.1675799622254230  0.4003851074895725
  0.0813741171304987  0.2911784828703314  0.4003972156528391
  0.0806673380633228  0.4159904265929938  0.3993449190010139
  0.0818428820912046  0.5416922454357150  0.3989413471065241
  0.0833989309017562  0.6674291541198842  0.3991457837878265
  0.0842116515383941  0.7929998481026657  0.3993811375050570
  0.0844544822986484  0.9183543847140295  0.3995080483758293
  0.2094520122365338  0.0440047212975126  0.4002179221917878
  0.2096885978308045  0.1696586055659441  0.4017049685065582
  0.2078566207307837  0.2937973787796683  0.4030749941887504
  0.2040246455404404  0.4163703230513527  0.4016832226443903
  0.2046833580475277  0.5412695905615155  0.3997417909133774
  0.2071732805334744  0.6670620814961424  0.3991746931876402
  0.2084926232755916  0.7927267140319383  0.3993614244484165
  0.2091079405001475  0.9183448828316867  0.3996286111726746
  0.3339541694309454  0.0435682754368891  0.3999000080174104
  0.3345153537369424  0.1700719495759401  0.4013367691278326
  0.3355399553190980  0.2976080617323738  0.4054907287224592
  0.3273969946001205  0.5415114341334418  0.4029764983473791
  0.3309459764720642  0.6661577449528039  0.4001514520042814
  0.3327785793406324  0.7917927490669494  0.3994865748698262
  0.3334921569266245  0.9175325428453341  0.3995695588029745
  0.4583347806297867  0.0417913220387467  0.3996802356729433
  0.4589394911273655  0.1679428464077314  0.3999641350558500
  0.4600322166832724  0.2943755288879708  0.4017448233407671
  0.4664285721269308  0.4215453863531126  0.4086071239829033
  0.4531802176979245  0.6610312009207713  0.4037915744175478
  0.4569757124779850  0.7893722088407908  0.4007656502114618
  0.4577986439475948  0.9157142858352423  0.3997577387593034
  0.5826736272555586  0.0400710568310819  0.3996516981297926
  0.5832997810342218  0.1660448200162171  0.3994701277660314
  0.5843936843766439  0.2918193439460869  0.3995655347466005
  0.5880934875895820  0.4175483028049385  0.4017238251710009
  0.5914404589130270  0.5431647428543344  0.4069270888371892
  0.5832502101215886  0.6609745723599859  0.4073247325704449
  0.5804844389178022  0.7858420454247005  0.4030401974704788
  0.5820651025326726  0.9136485458689696  0.4003816176832955
  0.7071215645288652  0.0394999972717102  0.3997768216759681
  0.7076529464817198  0.1652346789471071  0.3995430620564290
  0.7085638636406941  0.2908713609026676  0.3992279079712676
  0.7106954989170053  0.4164390131010565  0.3990922289479163
  0.7125213718154235  0.5419918510993861  0.4004881746786910
  0.7114370863625077  0.6672028108276968  0.4024981866326049
  0.7076090125371071  0.7894704505264681  0.4018090928988575
  0.7065505869782194  0.9136588053140738  0.4006328999884989
  0.8321055650194807  0.0399663209739843  0.3995724997047132
  0.8321298357089567  0.1651348935579731  0.3994705414525657
  0.8326054806045105  0.2904993884854470  0.3992986824526552
  0.8339146169123995  0.4161574489832958  0.3989791811664662
  0.8353706492820587  0.5419520692248381  0.3987964862216882
  0.8356350588785314  0.6674878680559667  0.3994710333897533
  0.8346054374152306  0.7921894160823408  0.3999281877676799
  0.8328845214966214  0.9157012518216950  0.3997408799416377
  0.9581534592642941  0.0415988058999068  0.3994307540482755
  0.9571242217138902  0.1657011732114370  0.3995707249308686
  0.9567916198795160  0.2906159899590365  0.3992710578550127
  0.9572797296609770  0.4160304295760519  0.3989646994887969
  0.9585839910960905  0.5417885400821729  0.3989328213769804
  0.9595928742018830  0.6675199489115721  0.3989998952152326
  0.9597079115423528  0.7928720710228682  0.3991970820091412
  0.9592077811667673  0.9175934062331681  0.3992710174799252
  0.4073436973521172  0.5804285175128658  0.4048337849062892
  0.5491141936808783  0.5807376036386261  0.4118537620051846
  0.3270056183902822  0.4190520393195091  0.4098579877804323
  0.4370263563061599  0.5155318370812186  0.4872720515769325
 
  0.00000000E+00  0.00000000E+00  0.00000000E+00
  0.00000000E+00  0.00000000E+00  0.00000000E+00
  0.00000000E+00  0.00000000E+00  0.00000000E+00
  0.00000000E+00  0.00000000E+00  0.00000000E+00
  0.00000000E+00  0.00000000E+00  0.00000000E+00
  0.00000000E+00  0.00000000E+00  0.00000000E+00
  0.00000000E+00  0.00000000E+00  0.00000000E+00
  0.00000000E+00  0.00000000E+00  0.00000000E+00
  0.00000000E+00  0.00000000E+00  0.00000000E+00
  0.00000000E+00  0.00000000E+00  0.00000000E+00
  0.00000000E+00  0.00000000E+00  0.00000000E+00
  0.00000000E+00  0.00000000E+00  0.00000000E+00
  0.00000000E+00  0.00000000E+00  0.00000000E+00
  0.00000000E+00  0.00000000E+00  0.00000000E+00
  0.00000000E+00  0.00000000E+00  0.00000000E+00
  0.00000000E+00  0.00000000E+00  0.00000000E+00
  0.00000000E+00  0.00000000E+00  0.00000000E+00
  0.00000000E+00  0.00000000E+00  0.00000000E+00
  0.00000000E+00  0.00000000E+00  0.00000000E+00
  0.00000000E+00  0.00000000E+00  0.00000000E+00
  0.00000000E+00  0.00000000E+00  0.00000000E+00
  0.00000000E+00  0.00000000E+00  0.00000000E+00
  0.00000000E+00  0.00000000E+00  0.00000000E+00
  0.00000000E+00  0.00000000E+00  0.00000000E+00
  0.00000000E+00  0.00000000E+00  0.00000000E+00
  0.00000000E+00  0.00000000E+00  0.00000000E+00
  0.00000000E+00  0.00000000E+00  0.00000000E+00
  0.00000000E+00  0.00000000E+00  0.00000000E+00
  0.00000000E+00  0.00000000E+00  0.00000000E+00
  0.00000000E+00  0.00000000E+00  0.00000000E+00
  0.00000000E+00  0.00000000E+00  0.00000000E+00
  0.00000000E+00  0.00000000E+00  0.00000000E+00
  0.00000000E+00  0.00000000E+00  0.00000000E+00
  0.00000000E+00  0.00000000E+00  0.00000000E+00
  0.00000000E+00  0.00000000E+00  0.00000000E+00
  0.00000000E+00  0.00000000E+00  0.00000000E+00
  0.00000000E+00  0.00000000E+00  0.00000000E+00
  0.00000000E+00  0.00000000E+00  0.00000000E+00
  0.00000000E+00  0.00000000E+00  0.00000000E+00
  0.00000000E+00  0.00000000E+00  0.00000000E+00
  0.00000000E+00  0.00000000E+00  0.00000000E+00
  0.00000000E+00  0.00000000E+00  0.00000000E+00
  0.00000000E+00  0.00000000E+00  0.00000000E+00
  0.00000000E+00  0.00000000E+00  0.00000000E+00
  0.00000000E+00  0.00000000E+00  0.00000000E+00
  0.00000000E+00  0.00000000E+00  0.00000000E+00
  0.00000000E+00  0.00000000E+00  0.00000000E+00
  0.00000000E+00  0.00000000E+00  0.00000000E+00
  0.00000000E+00  0.00000000E+00  0.00000000E+00
  0.00000000E+00  0.00000000E+00  0.00000000E+00
  0.00000000E+00  0.00000000E+00  0.00000000E+00
  0.00000000E+00  0.00000000E+00  0.00000000E+00
  0.00000000E+00  0.00000000E+00  0.00000000E+00
  0.00000000E+00  0.00000000E+00  0.00000000E+00
  0.00000000E+00  0.00000000E+00  0.00000000E+00
  0.00000000E+00  0.00000000E+00  0.00000000E+00
  0.00000000E+00  0.00000000E+00  0.00000000E+00
  0.00000000E+00  0.00000000E+00  0.00000000E+00
  0.00000000E+00  0.00000000E+00  0.00000000E+00
  0.00000000E+00  0.00000000E+00  0.00000000E+00
  0.00000000E+00  0.00000000E+00  0.00000000E+00
  0.00000000E+00  0.00000000E+00  0.00000000E+00
  0.00000000E+00  0.00000000E+00  0.00000000E+00
  0.00000000E+00  0.00000000E+00  0.00000000E+00
  0.00000000E+00  0.00000000E+00  0.00000000E+00
  0.00000000E+00  0.00000000E+00  0.00000000E+00
  0.00000000E+00  0.00000000E+00  0.00000000E+00
  0.00000000E+00  0.00000000E+00  0.00000000E+00
  0.00000000E+00  0.00000000E+00  0.00000000E+00
  0.00000000E+00  0.00000000E+00  0.00000000E+00
  0.00000000E+00  0.00000000E+00  0.00000000E+00
  0.00000000E+00  0.00000000E+00  0.00000000E+00
  0.00000000E+00  0.00000000E+00  0.00000000E+00
  0.00000000E+00  0.00000000E+00  0.00000000E+00
  0.00000000E+00  0.00000000E+00  0.00000000E+00
  0.00000000E+00  0.00000000E+00  0.00000000E+00
  0.00000000E+00  0.00000000E+00  0.00000000E+00
  0.00000000E+00  0.00000000E+00  0.00000000E+00
  0.00000000E+00  0.00000000E+00  0.00000000E+00
  0.00000000E+00  0.00000000E+00  0.00000000E+00
  0.00000000E+00  0.00000000E+00  0.00000000E+00
  0.00000000E+00  0.00000000E+00  0.00000000E+00
  0.00000000E+00  0.00000000E+00  0.00000000E+00
  0.00000000E+00  0.00000000E+00  0.00000000E+00
  0.00000000E+00  0.00000000E+00  0.00000000E+00
  0.00000000E+00  0.00000000E+00  0.00000000E+00
  0.00000000E+00  0.00000000E+00  0.00000000E+00
  0.00000000E+00  0.00000000E+00  0.00000000E+00
  0.00000000E+00  0.00000000E+00  0.00000000E+00
  0.00000000E+00  0.00000000E+00  0.00000000E+00
  0.00000000E+00  0.00000000E+00  0.00000000E+00
  0.00000000E+00  0.00000000E+00  0.00000000E+00
  0.00000000E+00  0.00000000E+00  0.00000000E+00
  0.00000000E+00  0.00000000E+00  0.00000000E+00
  0.00000000E+00  0.00000000E+00  0.00000000E+00
  0.00000000E+00  0.00000000E+00  0.00000000E+00
  0.00000000E+00  0.00000000E+00  0.00000000E+00
  0.00000000E+00  0.00000000E+00  0.00000000E+00
  0.00000000E+00  0.00000000E+00  0.00000000E+00
  0.00000000E+00  0.00000000E+00  0.00000000E+00
  0.00000000E+00  0.00000000E+00  0.00000000E+00
  0.00000000E+00  0.00000000E+00  0.00000000E+00
  0.00000000E+00  0.00000000E+00  0.00000000E+00
  0.00000000E+00  0.00000000E+00  0.00000000E+00
  0.00000000E+00  0.00000000E+00  0.00000000E+00
  0.00000000E+00  0.00000000E+00  0.00000000E+00
  0.00000000E+00  0.00000000E+00  0.00000000E+00
  0.00000000E+00  0.00000000E+00  0.00000000E+00
  0.00000000E+00  0.00000000E+00  0.00000000E+00
  0.00000000E+00  0.00000000E+00  0.00000000E+00
  0.00000000E+00  0.00000000E+00  0.00000000E+00
  0.00000000E+00  0.00000000E+00  0.00000000E+00
  0.00000000E+00  0.00000000E+00  0.00000000E+00
  0.00000000E+00  0.00000000E+00  0.00000000E+00
  0.00000000E+00  0.00000000E+00  0.00000000E+00
  0.00000000E+00  0.00000000E+00  0.00000000E+00
  0.00000000E+00  0.00000000E+00  0.00000000E+00
  0.00000000E+00  0.00000000E+00  0.00000000E+00
  0.00000000E+00  0.00000000E+00  0.00000000E+00
  0.00000000E+00  0.00000000E+00  0.00000000E+00
  0.00000000E+00  0.00000000E+00  0.00000000E+00
  0.00000000E+00  0.00000000E+00  0.00000000E+00
  0.00000000E+00  0.00000000E+00  0.00000000E+00
  0.00000000E+00  0.00000000E+00  0.00000000E+00
  0.00000000E+00  0.00000000E+00  0.00000000E+00
  0.00000000E+00  0.00000000E+00  0.00000000E+00
  0.00000000E+00  0.00000000E+00  0.00000000E+00
  0.00000000E+00  0.00000000E+00  0.00000000E+00
  0.00000000E+00  0.00000000E+00  0.00000000E+00
