H1 W1 C126 O2                           
   1.00000000000000     
    19.8089725258982661   -0.0010148563185521   -0.0920508113687571
    -9.9048546183202113   17.0724455068285792   -0.0923929936421775
    -0.1381117817432085   -0.2409667658825576   29.7574128475576387
   H    W    C    O 
     1     1   126     2
Direct
  0.5384996374364474  0.5612095678466319  0.5157736632612472
  0.4351919484830718  0.5009052812420336  0.4342487793014631
  0.0419508625105816  0.0838174643289839  0.3994115466770375
  0.0412417917361663  0.2081328996482218  0.3995134283656505
  0.0408739285285449  0.3329549749729996  0.3998577811478809
  0.0408880051795281  0.4584112196589358  0.3997715265589365
  0.0414885757248102  0.5836856944350017  0.3996817858766455
  0.0420256987727028  0.7088922515705337  0.3997447547468937
  0.0423011788488634  0.8341658590802378  0.3997227694200520
  0.0423054259829815  0.9591693977949100  0.3995287292390077
  0.1674963033968629  0.0847105662362086  0.3997330472306131
  0.1671566300562503  0.2093795717092761  0.3996990473256914
  0.1656566853915699  0.3332465996754274  0.4003860570256040
  0.1646209892139237  0.4583618490373163  0.4008657968672912
  0.1656037784129971  0.5836697142867117  0.3999641269156017
  0.1666260076974427  0.7089677613936232  0.3996654189298503
  0.1670570861918152  0.8341654010555039  0.3997857138774486
  0.1673511496662818  0.9594828061195536  0.3998216033162497
  0.2924468941866894  0.0847404989614136  0.3998117881128724
  0.2931319176539718  0.2109336769466651  0.4007004874077109
  0.2927013317935856  0.3360376218067667  0.4016743199933626
  0.2878174736658299  0.4577628330000344  0.4025673184196442
  0.2893490684814188  0.5840613200144010  0.4013372267692619
  0.2911992467587372  0.7089429492668946  0.3995198102322626
  0.2917495491720243  0.8338969206789145  0.3993396436665165
  0.2920552325329273  0.9591931363919829  0.3995450368257939
  0.4170438927136250  0.0838814663594625  0.3993608316828076
  0.4175043901777407  0.2095225645989116  0.3998710824996888
  0.4190942953974287  0.3365549992842538  0.4034485716221881
  0.4123091250540717  0.5814757124757720  0.4040108802637739
  0.4158855569462802  0.7073740547826500  0.3998341405931908
  0.4164908334279521  0.8330882512772173  0.3990515900899579
  0.4167467497982983  0.9584472311240025  0.3992223761758889
  0.5417071559506678  0.0830120382974096  0.3993797079165829
  0.5420903675751351  0.2081834676137440  0.3993871061368334
  0.5428988982513513  0.3333133802880044  0.4003486548423075
  0.5455312837301995  0.4578670114999366  0.4043955706282486
  0.5447111399806926  0.5811864540948400  0.4077495682141320
  0.5407280106613117  0.7061128680313382  0.4021410450658011
  0.5410843297359075  0.8320780058881262  0.3994755884038825
  0.5415365001300942  0.9577026319280283  0.3992109204894592
  0.6664842873200125  0.0827097732618418  0.3996271403587899
  0.6667574113147797  0.2078869453799058  0.3995764564096074
  0.6672907840528221  0.3329658540951915  0.3994368175406843
  0.6689635770947796  0.4583770113157067  0.3999262716565063
  0.6698095347181295  0.5839592728743047  0.4011054999672843
  0.6665797195623927  0.7071903387731001  0.4006098420640309
  0.6661447372917374  0.8320845018730686  0.3997880232836152
  0.6662925558644003  0.9574678944123823  0.3994519777009122
  0.7913741317353087  0.0826899030085086  0.3996378206417437
  0.7914982560287883  0.2078194899765799  0.3997775663467241
  0.7918650618447205  0.3330573905315617  0.3995858933718143
  0.7926822082716674  0.4584136976415243  0.3993083480951191
  0.7932016683035213  0.5836273072718007  0.3993308268640905
  0.7928755922089471  0.7089053379039797  0.3993774791117501
  0.7916469201622571  0.8330094601612020  0.3990976958289529
  0.7912539016055087  0.9576713907509030  0.3992793722283174
  0.9164165938950971  0.0829790950117392  0.3994054107366261
  0.9162932406870657  0.2078794818977234  0.3996674478467558
  0.9163686871983520  0.3330590785729865  0.3997166218632353
  0.9167054984857287  0.4582861047013030  0.3995802717377087
  0.9173516020342405  0.5837036908069909  0.3994675852896640
  0.9174759600541909  0.7089552243900777  0.3994102773231790
  0.9172984760074063  0.8338824805791412  0.3992787513455658
  0.9167740492653267  0.9584064484965491  0.3992272909051035
  0.0840271162611887  0.0426206509155528  0.3995236729479085
  0.0835859710757629  0.1671957424648264  0.3994726004616997
  0.0824212674266118  0.2913380196791294  0.3998273455517101
  0.0820788369681678  0.4166391284724021  0.4000439566414554
  0.0826255291280292  0.5418767186059784  0.3997709828014397
  0.0834224890722565  0.6672136377038567  0.3997342343748462
  0.0838403995128303  0.7925018509893361  0.3998275460364597
  0.0839697241276323  0.9176347893374182  0.3997251342027847
  0.2090538933694647  0.0428834536684246  0.3998414609948290
  0.2092420091058814  0.1682828507354130  0.3999287452149541
  0.2087128331463541  0.2929546625334015  0.4001527447949221
  0.2054778927955413  0.4163422709177270  0.4014722675038479
  0.2064487846054344  0.5420064112521347  0.4008004737874747
  0.2080481112287657  0.6673336452408567  0.3996895559068468
  0.2085296529047025  0.7923892973077094  0.3996054465116075
  0.2088573759054428  0.9176366979623077  0.3997531243274003
  0.3337878292113485  0.0426494486480001  0.3995228827862560
  0.3343185321317440  0.1683099370305504  0.4001552879064497
  0.3349687351930154  0.2943931667718904  0.4023385567705252
  0.3310882514123580  0.4190830233514536  0.4038789193212131
  0.3303110450566595  0.5427281027965201  0.4025591415106591
  0.3325668013013724  0.6670890469962500  0.4001024725339922
  0.3332334403787097  0.7921392245159773  0.3991924988793793
  0.3335609616628957  0.9172844727982746  0.3993432018459980
  0.4584954713628590  0.0418402356458094  0.3992962746398686
  0.4588159394296057  0.1672891672533491  0.3993897189050081
  0.4596817490784644  0.2931922420983328  0.4007947317830836
  0.4640314022112020  0.4195346905488803  0.4076948370909563
  0.4568256803355741  0.6643742227954655  0.4015713151363688
  0.4579020361001350  0.7909234802280759  0.3992589726327421
  0.4582574407389117  0.9164639040203150  0.3990990350122736
  0.5832703801048453  0.0411391740201332  0.3994150515632198
  0.5835199738229115  0.1663821898042410  0.3994201442544396
  0.5841455552295541  0.2913686652154328  0.3995499131037901
  0.5861088656983714  0.4164179383519876  0.4011294457089456
  0.5878695041331540  0.5426490587694929  0.4044057800486419
  0.5826812371707908  0.6639636740529296  0.4033308811584113
  0.5823500443951491  0.7894754762269054  0.4003446063908309
  0.5829260143066126  0.9156374578617550  0.3992930216479184
  0.7080205671360918  0.0408892887889254  0.3995768718823396
  0.7082678883490257  0.1661597427101507  0.3997103866398378
  0.7086531425228482  0.2913063974407603  0.3995137906630823
  0.7097417845167384  0.4166357297876560  0.3993576179586023
  0.7107049937391939  0.5419227917650078  0.3999173694293979
  0.7096706960056050  0.6670305580972761  0.4002300009462350
  0.7081006843185377  0.7908344271905993  0.3995551649408649
  0.7078291228474833  0.9156270173409146  0.3994229289933683
  0.8329879691515938  0.0411061645977378  0.3994324741045791
  0.8330459330458166  0.1661551981775198  0.3997341439852122
  0.8332825605450122  0.2913968165351494  0.3997146967777757
  0.8337767544098686  0.4165532739755111  0.3994848956349887
  0.8343943228351740  0.5418673498535724  0.3992988642639525
  0.8344343745881098  0.6673255515582919  0.3993322351292177
  0.8340201311663324  0.7920955199340546  0.3991579825864516
  0.8332653777030907  0.9163960403422163  0.3991309149884154
  0.9584374602934036  0.0417927724249032  0.3993204994537137
  0.9579984813649015  0.1663492228782268  0.3995135806398831
  0.9578236658282298  0.2913107123610111  0.3997263795782323
  0.9579394104583780  0.4165767150193427  0.3996796517250428
  0.9585408866674491  0.5419587212415435  0.3995794667431652
  0.9589456446917061  0.6672247987381756  0.3995565128051787
  0.9590295944353122  0.7924031260024818  0.3994799773508792
  0.9588564189773180  0.9172639126261022  0.3993260468331155
  0.5049684752678240  0.5059502120835746  0.5068111489737744
  0.4292725000207310  0.5032509625499336  0.4989798836284872
 
  0.00000000E+00  0.00000000E+00  0.00000000E+00
  0.00000000E+00  0.00000000E+00  0.00000000E+00
  0.00000000E+00  0.00000000E+00  0.00000000E+00
  0.00000000E+00  0.00000000E+00  0.00000000E+00
  0.00000000E+00  0.00000000E+00  0.00000000E+00
  0.00000000E+00  0.00000000E+00  0.00000000E+00
  0.00000000E+00  0.00000000E+00  0.00000000E+00
  0.00000000E+00  0.00000000E+00  0.00000000E+00
  0.00000000E+00  0.00000000E+00  0.00000000E+00
  0.00000000E+00  0.00000000E+00  0.00000000E+00
  0.00000000E+00  0.00000000E+00  0.00000000E+00
  0.00000000E+00  0.00000000E+00  0.00000000E+00
  0.00000000E+00  0.00000000E+00  0.00000000E+00
  0.00000000E+00  0.00000000E+00  0.00000000E+00
  0.00000000E+00  0.00000000E+00  0.00000000E+00
  0.00000000E+00  0.00000000E+00  0.00000000E+00
  0.00000000E+00  0.00000000E+00  0.00000000E+00
  0.00000000E+00  0.00000000E+00  0.00000000E+00
  0.00000000E+00  0.00000000E+00  0.00000000E+00
  0.00000000E+00  0.00000000E+00  0.00000000E+00
  0.00000000E+00  0.00000000E+00  0.00000000E+00
  0.00000000E+00  0.00000000E+00  0.00000000E+00
  0.00000000E+00  0.00000000E+00  0.00000000E+00
  0.00000000E+00  0.00000000E+00  0.00000000E+00
  0.00000000E+00  0.00000000E+00  0.00000000E+00
  0.00000000E+00  0.00000000E+00  0.00000000E+00
  0.00000000E+00  0.00000000E+00  0.00000000E+00
  0.00000000E+00  0.00000000E+00  0.00000000E+00
  0.00000000E+00  0.00000000E+00  0.00000000E+00
  0.00000000E+00  0.00000000E+00  0.00000000E+00
  0.00000000E+00  0.00000000E+00  0.00000000E+00
  0.00000000E+00  0.00000000E+00  0.00000000E+00
  0.00000000E+00  0.00000000E+00  0.00000000E+00
  0.00000000E+00  0.00000000E+00  0.00000000E+00
  0.00000000E+00  0.00000000E+00  0.00000000E+00
  0.00000000E+00  0.00000000E+00  0.00000000E+00
  0.00000000E+00  0.00000000E+00  0.00000000E+00
  0.00000000E+00  0.00000000E+00  0.00000000E+00
  0.00000000E+00  0.00000000E+00  0.00000000E+00
  0.00000000E+00  0.00000000E+00  0.00000000E+00
  0.00000000E+00  0.00000000E+00  0.00000000E+00
  0.00000000E+00  0.00000000E+00  0.00000000E+00
  0.00000000E+00  0.00000000E+00  0.00000000E+00
  0.00000000E+00  0.00000000E+00  0.00000000E+00
  0.00000000E+00  0.00000000E+00  0.00000000E+00
  0.00000000E+00  0.00000000E+00  0.00000000E+00
  0.00000000E+00  0.00000000E+00  0.00000000E+00
  0.00000000E+00  0.00000000E+00  0.00000000E+00
  0.00000000E+00  0.00000000E+00  0.00000000E+00
  0.00000000E+00  0.00000000E+00  0.00000000E+00
  0.00000000E+00  0.00000000E+00  0.00000000E+00
  0.00000000E+00  0.00000000E+00  0.00000000E+00
  0.00000000E+00  0.00000000E+00  0.00000000E+00
  0.00000000E+00  0.00000000E+00  0.00000000E+00
  0.00000000E+00  0.00000000E+00  0.00000000E+00
  0.00000000E+00  0.00000000E+00  0.00000000E+00
  0.00000000E+00  0.00000000E+00  0.00000000E+00
  0.00000000E+00  0.00000000E+00  0.00000000E+00
  0.00000000E+00  0.00000000E+00  0.00000000E+00
  0.00000000E+00  0.00000000E+00  0.00000000E+00
  0.00000000E+00  0.00000000E+00  0.00000000E+00
  0.00000000E+00  0.00000000E+00  0.00000000E+00
  0.00000000E+00  0.00000000E+00  0.00000000E+00
  0.00000000E+00  0.00000000E+00  0.00000000E+00
  0.00000000E+00  0.00000000E+00  0.00000000E+00
  0.00000000E+00  0.00000000E+00  0.00000000E+00
  0.00000000E+00  0.00000000E+00  0.00000000E+00
  0.00000000E+00  0.00000000E+00  0.00000000E+00
  0.00000000E+00  0.00000000E+00  0.00000000E+00
  0.00000000E+00  0.00000000E+00  0.00000000E+00
  0.00000000E+00  0.00000000E+00  0.00000000E+00
  0.00000000E+00  0.00000000E+00  0.00000000E+00
  0.00000000E+00  0.00000000E+00  0.00000000E+00
  0.00000000E+00  0.00000000E+00  0.00000000E+00
  0.00000000E+00  0.00000000E+00  0.00000000E+00
  0.00000000E+00  0.00000000E+00  0.00000000E+00
  0.00000000E+00  0.00000000E+00  0.00000000E+00
  0.00000000E+00  0.00000000E+00  0.00000000E+00
  0.00000000E+00  0.00000000E+00  0.00000000E+00
  0.00000000E+00  0.00000000E+00  0.00000000E+00
  0.00000000E+00  0.00000000E+00  0.00000000E+00
  0.00000000E+00  0.00000000E+00  0.00000000E+00
  0.00000000E+00  0.00000000E+00  0.00000000E+00
  0.00000000E+00  0.00000000E+00  0.00000000E+00
  0.00000000E+00  0.00000000E+00  0.00000000E+00
  0.00000000E+00  0.00000000E+00  0.00000000E+00
  0.00000000E+00  0.00000000E+00  0.00000000E+00
  0.00000000E+00  0.00000000E+00  0.00000000E+00
  0.00000000E+00  0.00000000E+00  0.00000000E+00
  0.00000000E+00  0.00000000E+00  0.00000000E+00
  0.00000000E+00  0.00000000E+00  0.00000000E+00
  0.00000000E+00  0.00000000E+00  0.00000000E+00
  0.00000000E+00  0.00000000E+00  0.00000000E+00
  0.00000000E+00  0.00000000E+00  0.00000000E+00
  0.00000000E+00  0.00000000E+00  0.00000000E+00
  0.00000000E+00  0.00000000E+00  0.00000000E+00
  0.00000000E+00  0.00000000E+00  0.00000000E+00
  0.00000000E+00  0.00000000E+00  0.00000000E+00
  0.00000000E+00  0.00000000E+00  0.00000000E+00
  0.00000000E+00  0.00000000E+00  0.00000000E+00
  0.00000000E+00  0.00000000E+00  0.00000000E+00
  0.00000000E+00  0.00000000E+00  0.00000000E+00
  0.00000000E+00  0.00000000E+00  0.00000000E+00
  0.00000000E+00  0.00000000E+00  0.00000000E+00
  0.00000000E+00  0.00000000E+00  0.00000000E+00
  0.00000000E+00  0.00000000E+00  0.00000000E+00
  0.00000000E+00  0.00000000E+00  0.00000000E+00
  0.00000000E+00  0.00000000E+00  0.00000000E+00
  0.00000000E+00  0.00000000E+00  0.00000000E+00
  0.00000000E+00  0.00000000E+00  0.00000000E+00
  0.00000000E+00  0.00000000E+00  0.00000000E+00
  0.00000000E+00  0.00000000E+00  0.00000000E+00
  0.00000000E+00  0.00000000E+00  0.00000000E+00
  0.00000000E+00  0.00000000E+00  0.00000000E+00
  0.00000000E+00  0.00000000E+00  0.00000000E+00
  0.00000000E+00  0.00000000E+00  0.00000000E+00
  0.00000000E+00  0.00000000E+00  0.00000000E+00
  0.00000000E+00  0.00000000E+00  0.00000000E+00
  0.00000000E+00  0.00000000E+00  0.00000000E+00
  0.00000000E+00  0.00000000E+00  0.00000000E+00
  0.00000000E+00  0.00000000E+00  0.00000000E+00
  0.00000000E+00  0.00000000E+00  0.00000000E+00
  0.00000000E+00  0.00000000E+00  0.00000000E+00
  0.00000000E+00  0.00000000E+00  0.00000000E+00
  0.00000000E+00  0.00000000E+00  0.00000000E+00
  0.00000000E+00  0.00000000E+00  0.00000000E+00
  0.00000000E+00  0.00000000E+00  0.00000000E+00
  0.00000000E+00  0.00000000E+00  0.00000000E+00
  0.00000000E+00  0.00000000E+00  0.00000000E+00
  0.00000000E+00  0.00000000E+00  0.00000000E+00
