Ni1 C126 O1                             
   1.00000000000000     
    19.7540476163191130   -0.0000246770266746    0.0013468767023566
    -9.8770434380738905   17.0774233477020800   -0.0019886643372496
     0.0019501613795106   -0.0022965410726242   29.8279872006341265
   Ni   C    O 
     1   126     1
Direct
  0.4374900755080802  0.4999996426755757  0.4260538813866219
  0.0418542149946859  0.0836545801782336  0.3998385197179530
  0.0414859916534596  0.2082400685610324  0.3999906186158384
  0.0413704295103301  0.3330615381846584  0.3997184457760738
  0.0414472277782636  0.4582926173455348  0.3994799619631380
  0.0415937279053651  0.5834147012474844  0.3993569872536753
  0.0417400655477920  0.7084830732149925  0.3993976726870940
  0.0418783931811006  0.8336839181480613  0.3995333360931212
  0.0419089767924845  0.9587018098971711  0.3996440447428071
  0.1669967347887251  0.0840130000533890  0.4003833742945417
  0.1672072015572681  0.2091356548283585  0.4013004494937746
  0.1664461902901166  0.3333033663223830  0.4011870413831673
  0.1660975839365619  0.4582845068329675  0.4001152955544711
  0.1663698905038160  0.5833225224996497  0.3996996644300808
  0.1666697712460135  0.7085277996996524  0.3995122009908769
  0.1668061074508032  0.8336820386194361  0.3995187420711730
  0.1669368809307130  0.9588800644321935  0.3997595707011499
  0.2920136543780316  0.0840103983375542  0.4003874809623227
  0.2923766398587659  0.2097501797794763  0.4025268742936703
  0.2931205225609688  0.3356051517390881  0.4046731193893791
  0.2905590417974153  0.4578775819686882  0.4028926790743554
  0.2910669368864234  0.5836191695621196  0.4010449116524910
  0.2914965923172304  0.7085412349833646  0.4001838018957784
  0.2916697542684048  0.8335089181282385  0.3996332961037012
  0.2917844245038737  0.9586920781041073  0.3996314166206290
  0.4167953096280570  0.0836433464174462  0.3998552826087192
  0.4169323385183716  0.2091293016833404  0.4013353188726896
  0.4174860205103030  0.3355993569236659  0.4047016413463922
  0.4142513448126977  0.5821514481697108  0.4059742964457556
  0.4162078339977597  0.7072701389330973  0.4023820829400933
  0.4165351491431153  0.8329186978172416  0.4002312071768799
  0.4166427292678350  0.9582929473260293  0.3996025391396572
  0.5416267790643658  0.0831169111959724  0.3995941902168525
  0.5417566457723524  0.2082411483570255  0.4000121487184103
  0.5418545606203864  0.3332983738039488  0.4012304784333693
  0.5423251450749973  0.4578736462069131  0.4029330753217550
  0.5429116565582675  0.5821592879741289  0.4060219581382540
  0.5411436310800894  0.7072873257801788  0.4045437191973420
  0.5412419280215204  0.8325452493575511  0.4014055166419439
  0.5415020855504338  0.9578882592739930  0.3998999891578876
  0.6664709787911676  0.0829070184034819  0.3996430920313614
  0.6666043326397499  0.2080650798809174  0.3995480779593095
  0.6666879899352978  0.3330575034787984  0.3997239882105461
  0.6671863536983409  0.4582840746032133  0.4001257124580491
  0.6675539249671232  0.5836194601729545  0.4010721737481973
  0.6660657866394857  0.7072824169027783  0.4024132007752144
  0.6663083322142356  0.8325480313221121  0.4014215876885672
  0.6663970330118687  0.9577914741913105  0.4001643028055852
  0.7914356845173742  0.0829091722937250  0.3996258550131415
  0.7914935783197450  0.2079816265775989  0.3994862199550440
  0.7916436327740968  0.3331447091963042  0.3993880632853219
  0.7918402214790774  0.4582912990800025  0.3994604529347967
  0.7919558163478868  0.5833309905996771  0.3996920783255788
  0.7920432002768152  0.7085463900627573  0.4002046650377622
  0.7913920807227726  0.8329319336028647  0.4002581058408339
  0.7913926264554902  0.9579019685134824  0.3998969676165629
  0.9164989878766789  0.0831226582629512  0.3995715389089582
  0.9164655206492043  0.2080692578124825  0.3995295810684354
  0.9164983003826990  0.3331444489392581  0.3993965672827642
  0.9165916137871619  0.4581820879242784  0.3992826433315386
  0.9168211466724472  0.5834168444819454  0.3993409401415988
  0.9168595785185119  0.7085346235300918  0.3995101122073308
  0.9168459778839519  0.8335153230372683  0.3996509149938987
  0.9166550680085166  0.9582994774226137  0.3996156937163562
  0.0836123132027069  0.0421116162274515  0.3998992583087428
  0.0836177088232688  0.1670801264213964  0.4002285433821555
  0.0829626263835479  0.2914601202268301  0.4001805644514604
  0.0830455502073875  0.4166726783887142  0.3996979709041639
  0.0831549314497337  0.5417056447576343  0.3994783699013098
  0.0833539892362296  0.6668570760629535  0.3993988709805123
  0.0835129696785586  0.7920195521606388  0.3994877873544809
  0.0835662697680206  0.9170940680876427  0.3996421991377233
  0.2086066915512461  0.0422120551710989  0.4001624604988905
  0.2087005449494512  0.1674571061457399  0.4014031970370127
  0.2089478583300277  0.2927372043227976  0.4023853756454088
  0.2074572291201306  0.4163870676335719  0.4010459389938816
  0.2078139139881969  0.5417183472693381  0.4001176203766619
  0.2083097945170209  0.6669402337120331  0.3997231856236922
  0.2083942428627950  0.7919315320816906  0.3995325261443057
  0.2085294080858588  0.9170892981502661  0.3996287880786085
  0.3334920185430477  0.0421023279595332  0.3998966760285612
  0.3337598012134464  0.1674566188756756  0.4014213556667912
  0.3338627990125786  0.2927250190732948  0.4045531067342978
  0.3321256737737386  0.4178674255138333  0.4059957532679093
  0.3326832509627167  0.5421302656637366  0.4028878921878984
  0.3331407854647850  0.6667016073002046  0.4011876066543323
  0.3332446916774003  0.7917616947804120  0.3999922175215360
  0.3333758769388311  0.9168792765171148  0.3995730058006473
  0.4583560297236957  0.0417033456847093  0.3996164288915054
  0.4584600714509790  0.1670735792156961  0.4002556929506511
  0.4587850230084243  0.2927261449288139  0.4024219898059371
  0.4607503147661873  0.4178613690066371  0.4060457754049409
  0.4575190039672989  0.6644080306462641  0.4046578618770340
  0.4580724781025225  0.7908708206201283  0.4013018925702951
  0.4581999744237919  0.9163495412505753  0.3998411277804337
  0.5832106025287729  0.0413027990263686  0.3996467700985065
  0.5833266051922834  0.1664804166766771  0.3996518333366197
  0.5834965448284493  0.2914561342807502  0.4002067029337937
  0.5839332694785497  0.4163862986168709  0.4010785262040386
  0.5844539782038467  0.5421311597150975  0.4029251830502645
  0.5818958251191262  0.6644113459580794  0.4046881384269341
  0.5826304985429971  0.7902562806008220  0.4025257350039482
  0.5829839865515041  0.9159897147578633  0.4003876708589544
  0.7080629239163443  0.0411280699765584  0.3997622137688666
  0.7081942264092973  0.1663172577943968  0.3995345521604818
  0.7083205008488349  0.2914667316763868  0.3995094118790092
  0.7086227594862393  0.4166694487767941  0.3996936999002685
  0.7089071625946417  0.5417206623200883  0.4001242235039442
  0.7085601086496638  0.6667047862974727  0.4012235510731443
  0.7078095599802765  0.7908778401442405  0.4013326537506003
  0.7080077096826258  0.9159935798552254  0.4003895290457891
  0.8330974014405186  0.0413146897933032  0.3996295291329020
  0.8331281193269433  0.1663214312689405  0.3995155353290798
  0.8332576863136723  0.2915167664252323  0.3993969324852529
  0.8334040462621743  0.4165834747518318  0.3993399559384940
  0.8335479048584347  0.5417100197163123  0.3994599979897657
  0.8336310775828863  0.6669430178180065  0.3997225861856677
  0.8335177400104499  0.7917587444367769  0.4000129422308873
  0.8331562534102872  0.9163619480373413  0.3998560202154167
  0.9583565740756299  0.0417122720162908  0.3996011214789945
  0.9581650826662553  0.1664930979982913  0.3996316944494822
  0.9581421649187405  0.2914706060366186  0.3995083659137109
  0.9581777480327105  0.4165829229288107  0.3993557509837231
  0.9584091232180185  0.5418190080496359  0.3992822105053833
  0.9585002713755273  0.6668565291977728  0.3993884294365202
  0.9585422669879549  0.7919347955864282  0.3995474227487392
  0.9585123710364982  0.9168842305040101  0.3995919422819796
  0.4376871169492702  0.5002222002477765  0.4820707608964057
 
  0.00000000E+00  0.00000000E+00  0.00000000E+00
  0.00000000E+00  0.00000000E+00  0.00000000E+00
  0.00000000E+00  0.00000000E+00  0.00000000E+00
  0.00000000E+00  0.00000000E+00  0.00000000E+00
  0.00000000E+00  0.00000000E+00  0.00000000E+00
  0.00000000E+00  0.00000000E+00  0.00000000E+00
  0.00000000E+00  0.00000000E+00  0.00000000E+00
  0.00000000E+00  0.00000000E+00  0.00000000E+00
  0.00000000E+00  0.00000000E+00  0.00000000E+00
  0.00000000E+00  0.00000000E+00  0.00000000E+00
  0.00000000E+00  0.00000000E+00  0.00000000E+00
  0.00000000E+00  0.00000000E+00  0.00000000E+00
  0.00000000E+00  0.00000000E+00  0.00000000E+00
  0.00000000E+00  0.00000000E+00  0.00000000E+00
  0.00000000E+00  0.00000000E+00  0.00000000E+00
  0.00000000E+00  0.00000000E+00  0.00000000E+00
  0.00000000E+00  0.00000000E+00  0.00000000E+00
  0.00000000E+00  0.00000000E+00  0.00000000E+00
  0.00000000E+00  0.00000000E+00  0.00000000E+00
  0.00000000E+00  0.00000000E+00  0.00000000E+00
  0.00000000E+00  0.00000000E+00  0.00000000E+00
  0.00000000E+00  0.00000000E+00  0.00000000E+00
  0.00000000E+00  0.00000000E+00  0.00000000E+00
  0.00000000E+00  0.00000000E+00  0.00000000E+00
  0.00000000E+00  0.00000000E+00  0.00000000E+00
  0.00000000E+00  0.00000000E+00  0.00000000E+00
  0.00000000E+00  0.00000000E+00  0.00000000E+00
  0.00000000E+00  0.00000000E+00  0.00000000E+00
  0.00000000E+00  0.00000000E+00  0.00000000E+00
  0.00000000E+00  0.00000000E+00  0.00000000E+00
  0.00000000E+00  0.00000000E+00  0.00000000E+00
  0.00000000E+00  0.00000000E+00  0.00000000E+00
  0.00000000E+00  0.00000000E+00  0.00000000E+00
  0.00000000E+00  0.00000000E+00  0.00000000E+00
  0.00000000E+00  0.00000000E+00  0.00000000E+00
  0.00000000E+00  0.00000000E+00  0.00000000E+00
  0.00000000E+00  0.00000000E+00  0.00000000E+00
  0.00000000E+00  0.00000000E+00  0.00000000E+00
  0.00000000E+00  0.00000000E+00  0.00000000E+00
  0.00000000E+00  0.00000000E+00  0.00000000E+00
  0.00000000E+00  0.00000000E+00  0.00000000E+00
  0.00000000E+00  0.00000000E+00  0.00000000E+00
  0.00000000E+00  0.00000000E+00  0.00000000E+00
  0.00000000E+00  0.00000000E+00  0.00000000E+00
  0.00000000E+00  0.00000000E+00  0.00000000E+00
  0.00000000E+00  0.00000000E+00  0.00000000E+00
  0.00000000E+00  0.00000000E+00  0.00000000E+00
  0.00000000E+00  0.00000000E+00  0.00000000E+00
  0.00000000E+00  0.00000000E+00  0.00000000E+00
  0.00000000E+00  0.00000000E+00  0.00000000E+00
  0.00000000E+00  0.00000000E+00  0.00000000E+00
  0.00000000E+00  0.00000000E+00  0.00000000E+00
  0.00000000E+00  0.00000000E+00  0.00000000E+00
  0.00000000E+00  0.00000000E+00  0.00000000E+00
  0.00000000E+00  0.00000000E+00  0.00000000E+00
  0.00000000E+00  0.00000000E+00  0.00000000E+00
  0.00000000E+00  0.00000000E+00  0.00000000E+00
  0.00000000E+00  0.00000000E+00  0.00000000E+00
  0.00000000E+00  0.00000000E+00  0.00000000E+00
  0.00000000E+00  0.00000000E+00  0.00000000E+00
  0.00000000E+00  0.00000000E+00  0.00000000E+00
  0.00000000E+00  0.00000000E+00  0.00000000E+00
  0.00000000E+00  0.00000000E+00  0.00000000E+00
  0.00000000E+00  0.00000000E+00  0.00000000E+00
  0.00000000E+00  0.00000000E+00  0.00000000E+00
  0.00000000E+00  0.00000000E+00  0.00000000E+00
  0.00000000E+00  0.00000000E+00  0.00000000E+00
  0.00000000E+00  0.00000000E+00  0.00000000E+00
  0.00000000E+00  0.00000000E+00  0.00000000E+00
  0.00000000E+00  0.00000000E+00  0.00000000E+00
  0.00000000E+00  0.00000000E+00  0.00000000E+00
  0.00000000E+00  0.00000000E+00  0.00000000E+00
  0.00000000E+00  0.00000000E+00  0.00000000E+00
  0.00000000E+00  0.00000000E+00  0.00000000E+00
  0.00000000E+00  0.00000000E+00  0.00000000E+00
  0.00000000E+00  0.00000000E+00  0.00000000E+00
  0.00000000E+00  0.00000000E+00  0.00000000E+00
  0.00000000E+00  0.00000000E+00  0.00000000E+00
  0.00000000E+00  0.00000000E+00  0.00000000E+00
  0.00000000E+00  0.00000000E+00  0.00000000E+00
  0.00000000E+00  0.00000000E+00  0.00000000E+00
  0.00000000E+00  0.00000000E+00  0.00000000E+00
  0.00000000E+00  0.00000000E+00  0.00000000E+00
  0.00000000E+00  0.00000000E+00  0.00000000E+00
  0.00000000E+00  0.00000000E+00  0.00000000E+00
  0.00000000E+00  0.00000000E+00  0.00000000E+00
  0.00000000E+00  0.00000000E+00  0.00000000E+00
  0.00000000E+00  0.00000000E+00  0.00000000E+00
  0.00000000E+00  0.00000000E+00  0.00000000E+00
  0.00000000E+00  0.00000000E+00  0.00000000E+00
  0.00000000E+00  0.00000000E+00  0.00000000E+00
  0.00000000E+00  0.00000000E+00  0.00000000E+00
  0.00000000E+00  0.00000000E+00  0.00000000E+00
  0.00000000E+00  0.00000000E+00  0.00000000E+00
  0.00000000E+00  0.00000000E+00  0.00000000E+00
  0.00000000E+00  0.00000000E+00  0.00000000E+00
  0.00000000E+00  0.00000000E+00  0.00000000E+00
  0.00000000E+00  0.00000000E+00  0.00000000E+00
  0.00000000E+00  0.00000000E+00  0.00000000E+00
  0.00000000E+00  0.00000000E+00  0.00000000E+00
  0.00000000E+00  0.00000000E+00  0.00000000E+00
  0.00000000E+00  0.00000000E+00  0.00000000E+00
  0.00000000E+00  0.00000000E+00  0.00000000E+00
  0.00000000E+00  0.00000000E+00  0.00000000E+00
  0.00000000E+00  0.00000000E+00  0.00000000E+00
  0.00000000E+00  0.00000000E+00  0.00000000E+00
  0.00000000E+00  0.00000000E+00  0.00000000E+00
  0.00000000E+00  0.00000000E+00  0.00000000E+00
  0.00000000E+00  0.00000000E+00  0.00000000E+00
  0.00000000E+00  0.00000000E+00  0.00000000E+00
  0.00000000E+00  0.00000000E+00  0.00000000E+00
  0.00000000E+00  0.00000000E+00  0.00000000E+00
  0.00000000E+00  0.00000000E+00  0.00000000E+00
  0.00000000E+00  0.00000000E+00  0.00000000E+00
  0.00000000E+00  0.00000000E+00  0.00000000E+00
  0.00000000E+00  0.00000000E+00  0.00000000E+00
  0.00000000E+00  0.00000000E+00  0.00000000E+00
  0.00000000E+00  0.00000000E+00  0.00000000E+00
  0.00000000E+00  0.00000000E+00  0.00000000E+00
  0.00000000E+00  0.00000000E+00  0.00000000E+00
  0.00000000E+00  0.00000000E+00  0.00000000E+00
  0.00000000E+00  0.00000000E+00  0.00000000E+00
  0.00000000E+00  0.00000000E+00  0.00000000E+00
  0.00000000E+00  0.00000000E+00  0.00000000E+00
  0.00000000E+00  0.00000000E+00  0.00000000E+00
  0.00000000E+00  0.00000000E+00  0.00000000E+00
  0.00000000E+00  0.00000000E+00  0.00000000E+00
  0.00000000E+00  0.00000000E+00  0.00000000E+00
