Co1 C126                                
   1.00000000000000     
    19.7748352451257290   -0.0000318649666560   -0.0017210613646903
    -9.8874447959980838   17.0809017701593895    0.0004872693725387
    -0.0025963030348362   -0.0006519807830429   29.7905701217011476
   Co   C 
     1   126
Direct
  0.4374938741523971  0.4999995192312508  0.4187517633598913
  0.0417624250329262  0.0835897977281616  0.3999061150810958
  0.0413212074545035  0.2081603108000266  0.3998384411633369
  0.0411550097853629  0.3330071671262353  0.3998373747849328
  0.0412383193735588  0.4582997991185020  0.3999541823496420
  0.0415317069437820  0.5834713404282394  0.3999797456640879
  0.0418064018455827  0.7086153901238050  0.4000323041809759
  0.0419800028485086  0.8338299849382470  0.4000325705752086
  0.0419820031576244  0.9588480387086562  0.3999790187608427
  0.1670401434466467  0.0841134796571860  0.3999643947107701
  0.1669135107748727  0.2089363392048001  0.4001090954101729
  0.1660995624404617  0.3332124671682909  0.4001624027584665
  0.1655989200881871  0.4582275905664915  0.3999098937292175
  0.1660926723278110  0.5833948884527528  0.3998779341327012
  0.1666144382965187  0.7086466146406512  0.3999264233258906
  0.1668466010784976  0.8338238358307594  0.4000292757618004
  0.1670328574900700  0.9590665317375938  0.3999835991966122
  0.2920727311738939  0.0841088430303893  0.3999546239196937
  0.2924267840122448  0.2098502481246867  0.4004161003285352
  0.2926070601641906  0.3353987395629641  0.4018883045141470
  0.2897651798119362  0.4575491165442110  0.4015249215290269
  0.2904920327922866  0.5837254611828046  0.4002168379687106
  0.2912874798089236  0.7086121489351872  0.3998179698638333
  0.2916386837690830  0.8335919137354315  0.3999171844230006
  0.2918609036805879  0.9588384089446232  0.3999636208318324
  0.4168275691508950  0.0835845493911498  0.3998963286864432
  0.4170281361438616  0.2089375819959452  0.4001165362882630
  0.4177986410133153  0.3354041331349516  0.4019071975067831
  0.4137652664059956  0.5822361000946651  0.4036088135622900
  0.4160824913098320  0.7075251899402328  0.4006567446250031
  0.4164392086031554  0.8330495926994135  0.3998548717467225
  0.4166326155391911  0.9583183319094564  0.3999249755608685
  0.5415850168168830  0.0830058342834974  0.3999562410070586
  0.5418401306879003  0.2081576659679896  0.3998427288169647
  0.5421161613475197  0.3332107441130926  0.4001779545456030
  0.5427941772823704  0.4575493908447721  0.4015692195562023
  0.5434781654421884  0.5822352785948430  0.4036557898973980
  0.5410687221489676  0.7071334831985626  0.4014536499321670
  0.5411451579433879  0.8324718735482839  0.4001176084738978
  0.5414322090577450  0.9577574769405340  0.3999493778863507
  0.6663838293952483  0.0827275816326022  0.4000082914199567
  0.6665938407827608  0.2079364838171064  0.3999647126968847
  0.6668463012181354  0.3330007977408438  0.3998154983727916
  0.6676276934987021  0.4582267227306799  0.3999033419159801
  0.6682382641803057  0.5837292709321582  0.4002392076631701
  0.6664401904697989  0.7075191761086945  0.4006743543936407
  0.6663274277221947  0.8324693885613526  0.4001162298675996
  0.6662920509302253  0.9575806662525592  0.3999603328943601
  0.7913399994919306  0.0827312346868503  0.4000001982748174
  0.7914029993988348  0.2078165742634782  0.4000551882987387
  0.7916486445548635  0.3330412092465182  0.3999782026945468
  0.7920595156331381  0.4582957147781576  0.3999224989765844
  0.7923012921520963  0.5833960890581141  0.3998513308701317
  0.7923211292759443  0.7086139570591961  0.3998174907955331
  0.7916084034887740  0.8330500737483441  0.3998571730481094
  0.7913343422874480  0.9577642323265314  0.3999299639347863
  0.9164264199318027  0.0830104090921495  0.3999448129210578
  0.9163420665195499  0.2079399800682949  0.3999663875963607
  0.9163911784416160  0.3330498559868826  0.3999908125873755
  0.9165952426588968  0.4581972603195761  0.3999868280713137
  0.9169362826708578  0.5834743122485403  0.3999690506031084
  0.9170304250957171  0.7086488675483005  0.3999094656809170
  0.9169549678443496  0.8336021157795944  0.3999262416440751
  0.9166867946071336  0.9583258895248565  0.3999275357819808
  0.0836749772710448  0.0422429328670870  0.3999489305074256
  0.0833875581005384  0.1669514509449740  0.3998534684703819
  0.0826742771428485  0.2913880045160820  0.3998177463520232
  0.0826975084637907  0.4166054015734106  0.3998789573975554
  0.0829388680940262  0.5417010168785725  0.3999532911706320
  0.0833412973630645  0.6669511277776137  0.3999905697631728
  0.0835867402118452  0.7921842943074852  0.4000545428216845
  0.0836577197964300  0.9172730823519164  0.4000071651158228
  0.2087114261036110  0.0424188226716887  0.3999611782934611
  0.2086727003757810  0.1675282038373896  0.4001164816793114
  0.2085565295334183  0.2924751439252802  0.4006559947728598
  0.2067650517844460  0.4162741060166532  0.4002154382859521
  0.2073713733354520  0.5417723094335423  0.3999101341881048
  0.2081487841159254  0.6669937465792729  0.3998363576956804
  0.2084022728052146  0.7920607725497270  0.3999656787874576
  0.2086088983329810  0.9172688394420040  0.4000008068279503
  0.3335684013244633  0.0422346941123778  0.3999291884852040
  0.3338573892931642  0.1675306367425722  0.4001139516777837
  0.3339361286049441  0.2928671170495518  0.4014496411099784
  0.3315271731658740  0.4177623564892803  0.4036083507605636
  0.3322157823332813  0.5424500177059709  0.4015253599713700
  0.3328869718874008  0.6667879394499254  0.4001641707991000
  0.3331607005675689  0.7918394799941718  0.3998387617850520
  0.3334150283941281  0.9169891960672352  0.3999437969215813
  0.4583589344931493  0.0416728601853111  0.3999273538601777
  0.4585575172702194  0.1669493366236373  0.3998560446248908
  0.4589209624774370  0.2924799370237953  0.4006727062479121
  0.4612427865635101  0.4177634374632348  0.4036516481676835
  0.4572075822788917  0.6646002911225869  0.4018899134634376
  0.4579766962894935  0.7910634855149363  0.4001112229002702
  0.4581725307856322  0.9164098534454422  0.3999068653075348
  0.5831352957672126  0.0411533150471354  0.3999804371076882
  0.5833519563583005  0.1663969217926530  0.3999266311967721
  0.5837081372512994  0.2913865772510532  0.3998172396084745
  0.5845093700690688  0.4162702871722336  0.4002367748384577
  0.5852439687596527  0.5424502091847745  0.4015711737403418
  0.5823922084655039  0.6645943944535314  0.4019127729522030
  0.5825768117117522  0.7901502544318945  0.4004185552425444
  0.5829280106262782  0.9158874879164073  0.3999638894805030
  0.7079676142816227  0.0409345672009739  0.3999829610511370
  0.7081508225230654  0.1661708002781496  0.4000344266789638
  0.7083822233537392  0.2913514622142248  0.3999104519081144
  0.7089061606527784  0.4166036291047392  0.3998515313432590
  0.7094009923706726  0.5417734828879129  0.3999040630664681
  0.7089047719338895  0.6667881771886682  0.4001804223033453
  0.7080886438780311  0.7910600684830178  0.4001187574191726
  0.7079648587557567  0.9158930442208297  0.3999531714509361
  0.8330217084888040  0.0411615796552957  0.3999641079395546
  0.8330226730129762  0.1661766441980626  0.4000297861136528
  0.8331922962676279  0.2913879301701421  0.4000342227067108
  0.8334610562841872  0.4165254691665002  0.3999688461275855
  0.8337637762799713  0.5417042284474963  0.3999223407029970
  0.8338445744331998  0.6669990661896855  0.3998148356392398
  0.8336824179920238  0.7918420968640579  0.3998430461705249
  0.8332435298590883  0.9164155688132816  0.3998975175043077
  0.9583139090655927  0.0416814968780837  0.3999255739113728
  0.9580464791158811  0.1664086215819662  0.3999178632755094
  0.9579684329365521  0.2913540285845548  0.3999271096807079
  0.9580601314596350  0.4165289201813819  0.3999795550969622
  0.9583977406102370  0.5418036313406411  0.3999870045959856
  0.9586067415956461  0.6669584320259400  0.3999776814966595
  0.9586578438836637  0.7920637841083433  0.3999638211647444
  0.9585777905027668  0.9169948626129319  0.3999564228528638
 
  0.00000000E+00  0.00000000E+00  0.00000000E+00
  0.00000000E+00  0.00000000E+00  0.00000000E+00
  0.00000000E+00  0.00000000E+00  0.00000000E+00
  0.00000000E+00  0.00000000E+00  0.00000000E+00
  0.00000000E+00  0.00000000E+00  0.00000000E+00
  0.00000000E+00  0.00000000E+00  0.00000000E+00
  0.00000000E+00  0.00000000E+00  0.00000000E+00
  0.00000000E+00  0.00000000E+00  0.00000000E+00
  0.00000000E+00  0.00000000E+00  0.00000000E+00
  0.00000000E+00  0.00000000E+00  0.00000000E+00
  0.00000000E+00  0.00000000E+00  0.00000000E+00
  0.00000000E+00  0.00000000E+00  0.00000000E+00
  0.00000000E+00  0.00000000E+00  0.00000000E+00
  0.00000000E+00  0.00000000E+00  0.00000000E+00
  0.00000000E+00  0.00000000E+00  0.00000000E+00
  0.00000000E+00  0.00000000E+00  0.00000000E+00
  0.00000000E+00  0.00000000E+00  0.00000000E+00
  0.00000000E+00  0.00000000E+00  0.00000000E+00
  0.00000000E+00  0.00000000E+00  0.00000000E+00
  0.00000000E+00  0.00000000E+00  0.00000000E+00
  0.00000000E+00  0.00000000E+00  0.00000000E+00
  0.00000000E+00  0.00000000E+00  0.00000000E+00
  0.00000000E+00  0.00000000E+00  0.00000000E+00
  0.00000000E+00  0.00000000E+00  0.00000000E+00
  0.00000000E+00  0.00000000E+00  0.00000000E+00
  0.00000000E+00  0.00000000E+00  0.00000000E+00
  0.00000000E+00  0.00000000E+00  0.00000000E+00
  0.00000000E+00  0.00000000E+00  0.00000000E+00
  0.00000000E+00  0.00000000E+00  0.00000000E+00
  0.00000000E+00  0.00000000E+00  0.00000000E+00
  0.00000000E+00  0.00000000E+00  0.00000000E+00
  0.00000000E+00  0.00000000E+00  0.00000000E+00
  0.00000000E+00  0.00000000E+00  0.00000000E+00
  0.00000000E+00  0.00000000E+00  0.00000000E+00
  0.00000000E+00  0.00000000E+00  0.00000000E+00
  0.00000000E+00  0.00000000E+00  0.00000000E+00
  0.00000000E+00  0.00000000E+00  0.00000000E+00
  0.00000000E+00  0.00000000E+00  0.00000000E+00
  0.00000000E+00  0.00000000E+00  0.00000000E+00
  0.00000000E+00  0.00000000E+00  0.00000000E+00
  0.00000000E+00  0.00000000E+00  0.00000000E+00
  0.00000000E+00  0.00000000E+00  0.00000000E+00
  0.00000000E+00  0.00000000E+00  0.00000000E+00
  0.00000000E+00  0.00000000E+00  0.00000000E+00
  0.00000000E+00  0.00000000E+00  0.00000000E+00
  0.00000000E+00  0.00000000E+00  0.00000000E+00
  0.00000000E+00  0.00000000E+00  0.00000000E+00
  0.00000000E+00  0.00000000E+00  0.00000000E+00
  0.00000000E+00  0.00000000E+00  0.00000000E+00
  0.00000000E+00  0.00000000E+00  0.00000000E+00
  0.00000000E+00  0.00000000E+00  0.00000000E+00
  0.00000000E+00  0.00000000E+00  0.00000000E+00
  0.00000000E+00  0.00000000E+00  0.00000000E+00
  0.00000000E+00  0.00000000E+00  0.00000000E+00
  0.00000000E+00  0.00000000E+00  0.00000000E+00
  0.00000000E+00  0.00000000E+00  0.00000000E+00
  0.00000000E+00  0.00000000E+00  0.00000000E+00
  0.00000000E+00  0.00000000E+00  0.00000000E+00
  0.00000000E+00  0.00000000E+00  0.00000000E+00
  0.00000000E+00  0.00000000E+00  0.00000000E+00
  0.00000000E+00  0.00000000E+00  0.00000000E+00
  0.00000000E+00  0.00000000E+00  0.00000000E+00
  0.00000000E+00  0.00000000E+00  0.00000000E+00
  0.00000000E+00  0.00000000E+00  0.00000000E+00
  0.00000000E+00  0.00000000E+00  0.00000000E+00
  0.00000000E+00  0.00000000E+00  0.00000000E+00
  0.00000000E+00  0.00000000E+00  0.00000000E+00
  0.00000000E+00  0.00000000E+00  0.00000000E+00
  0.00000000E+00  0.00000000E+00  0.00000000E+00
  0.00000000E+00  0.00000000E+00  0.00000000E+00
  0.00000000E+00  0.00000000E+00  0.00000000E+00
  0.00000000E+00  0.00000000E+00  0.00000000E+00
  0.00000000E+00  0.00000000E+00  0.00000000E+00
  0.00000000E+00  0.00000000E+00  0.00000000E+00
  0.00000000E+00  0.00000000E+00  0.00000000E+00
  0.00000000E+00  0.00000000E+00  0.00000000E+00
  0.00000000E+00  0.00000000E+00  0.00000000E+00
  0.00000000E+00  0.00000000E+00  0.00000000E+00
  0.00000000E+00  0.00000000E+00  0.00000000E+00
  0.00000000E+00  0.00000000E+00  0.00000000E+00
  0.00000000E+00  0.00000000E+00  0.00000000E+00
  0.00000000E+00  0.00000000E+00  0.00000000E+00
  0.00000000E+00  0.00000000E+00  0.00000000E+00
  0.00000000E+00  0.00000000E+00  0.00000000E+00
  0.00000000E+00  0.00000000E+00  0.00000000E+00
  0.00000000E+00  0.00000000E+00  0.00000000E+00
  0.00000000E+00  0.00000000E+00  0.00000000E+00
  0.00000000E+00  0.00000000E+00  0.00000000E+00
  0.00000000E+00  0.00000000E+00  0.00000000E+00
  0.00000000E+00  0.00000000E+00  0.00000000E+00
  0.00000000E+00  0.00000000E+00  0.00000000E+00
  0.00000000E+00  0.00000000E+00  0.00000000E+00
  0.00000000E+00  0.00000000E+00  0.00000000E+00
  0.00000000E+00  0.00000000E+00  0.00000000E+00
  0.00000000E+00  0.00000000E+00  0.00000000E+00
  0.00000000E+00  0.00000000E+00  0.00000000E+00
  0.00000000E+00  0.00000000E+00  0.00000000E+00
  0.00000000E+00  0.00000000E+00  0.00000000E+00
  0.00000000E+00  0.00000000E+00  0.00000000E+00
  0.00000000E+00  0.00000000E+00  0.00000000E+00
  0.00000000E+00  0.00000000E+00  0.00000000E+00
  0.00000000E+00  0.00000000E+00  0.00000000E+00
  0.00000000E+00  0.00000000E+00  0.00000000E+00
  0.00000000E+00  0.00000000E+00  0.00000000E+00
  0.00000000E+00  0.00000000E+00  0.00000000E+00
  0.00000000E+00  0.00000000E+00  0.00000000E+00
  0.00000000E+00  0.00000000E+00  0.00000000E+00
  0.00000000E+00  0.00000000E+00  0.00000000E+00
  0.00000000E+00  0.00000000E+00  0.00000000E+00
  0.00000000E+00  0.00000000E+00  0.00000000E+00
  0.00000000E+00  0.00000000E+00  0.00000000E+00
  0.00000000E+00  0.00000000E+00  0.00000000E+00
  0.00000000E+00  0.00000000E+00  0.00000000E+00
  0.00000000E+00  0.00000000E+00  0.00000000E+00
  0.00000000E+00  0.00000000E+00  0.00000000E+00
  0.00000000E+00  0.00000000E+00  0.00000000E+00
  0.00000000E+00  0.00000000E+00  0.00000000E+00
  0.00000000E+00  0.00000000E+00  0.00000000E+00
  0.00000000E+00  0.00000000E+00  0.00000000E+00
  0.00000000E+00  0.00000000E+00  0.00000000E+00
  0.00000000E+00  0.00000000E+00  0.00000000E+00
  0.00000000E+00  0.00000000E+00  0.00000000E+00
  0.00000000E+00  0.00000000E+00  0.00000000E+00
  0.00000000E+00  0.00000000E+00  0.00000000E+00
  0.00000000E+00  0.00000000E+00  0.00000000E+00
  0.00000000E+00  0.00000000E+00  0.00000000E+00
  0.00000000E+00  0.00000000E+00  0.00000000E+00
