Hf1 H1 C124 N2 O2                       
   1.00000000000000     
    19.8165789144541051   -0.0144957735469157   -0.1536075285085439
    -9.9218017972989987   17.0661613280082065   -0.0858016689889816
    -0.2304134988384088   -0.2834900693742473   29.7706156629048770
   Hf   H    C    N    O 
     1     1   124     2     2
Direct
  0.4365023086702299  0.5019236999553663  0.4392313176672287
  0.5438587310372776  0.5588777615812972  0.5124649521251008
  0.0421428658136676  0.0840417053315427  0.3995563919240271
  0.0414548420026745  0.2084465166200757  0.3991638976603381
  0.0407697058580671  0.3330693298153689  0.3988544421655179
  0.0407038364678630  0.4584348697509590  0.3990010651448612
  0.0414488167515275  0.5839323378913333  0.3996701914434675
  0.0421096097332497  0.7092492236233195  0.4001053952570143
  0.0424047997862120  0.8344838699742776  0.4000082582545221
  0.0425315976775754  0.9595527298551563  0.3997102720289737
  0.1681614203519429  0.0855458235231872  0.3999339032454568
  0.1673415137125621  0.2097931729131783  0.3999348079306867
  0.1660338846426772  0.3340729041246204  0.3994484040217954
  0.1644094974087663  0.4586860709612401  0.3989127358765894
  0.1652605785142941  0.5839232367478138  0.3988303243941227
  0.1664288451503708  0.7092612655232531  0.3995361811433804
  0.1671035867891923  0.8345721767430082  0.3999510706909664
  0.1675669702289701  0.9599269379793335  0.3998692341679836
  0.2927646958460756  0.0852248543774505  0.4000035236686068
  0.2944506601600293  0.2122261073040645  0.4017870716782074
  0.2925329798341440  0.3368223171186221  0.4030118295308645
  0.2886216598687673  0.4591835287084331  0.4021865818650714
  0.2888709451615967  0.5844380278978289  0.4003028312043130
  0.2907645959964708  0.7092901689517177  0.3993612228501760
  0.2916941380339836  0.8343184743964280  0.3994269294861021
  0.2921839441461344  0.9595653944468580  0.3995887431097477
  0.4173019637499265  0.0839483061907581  0.3994755773285863
  0.4179132526842185  0.2094787658781913  0.4004252817532176
  0.4213890822617516  0.3370911223649563  0.4052862142171838
  0.4150759160058349  0.7077427622218592  0.4008570062046095
  0.4162454539770462  0.8331952909870570  0.3994313233537485
  0.4168211452207041  0.9585627065873560  0.3994468074203435
  0.5418794743585380  0.0827317635276325  0.3995861030817258
  0.5424091201300482  0.2078736649312851  0.3993906365883437
  0.5436619456264086  0.3328076065861948  0.4004110629411823
  0.5454787676326326  0.4563749199123904  0.4042708320024348
  0.5454293657739800  0.5811766692060868  0.4077501787706337
  0.5390573393589057  0.7043161432806658  0.4035405840906888
  0.5407010653177783  0.8315189233817091  0.4002174989746901
  0.5414553635042879  0.9573438384593042  0.3996061904226124
  0.6665409338742558  0.0822909710351510  0.3999797090568061
  0.6670265713562794  0.2075599819217483  0.3997425066619521
  0.6678592313410771  0.3327983662676585  0.3990001578176985
  0.6693169814419272  0.4581706393183904  0.3984208547750748
  0.6693212250892845  0.5827170778902294  0.3991973660168706
  0.6664978779115489  0.7067380778470976  0.3997476031909748
  0.6652524329893202  0.8310098225502757  0.3999775778692833
  0.6660427730066094  0.9568668337025328  0.3998321243682401
  0.7912832984092476  0.0822921904436569  0.3998886392047780
  0.7916011010844785  0.2075442394786685  0.4000875092125494
  0.7921850062079199  0.3328922232021369  0.3997825774286887
  0.7929432294935504  0.4582392296074451  0.3989156921002827
  0.7934540991131205  0.5835107832501349  0.3981299041239664
  0.7925933252695609  0.7083711887419287  0.3983270488385075
  0.7914497474667641  0.8326192949821066  0.3989160781808100
  0.7909407547550117  0.9570542271604014  0.3994978354703886
  0.9163929548753840  0.0828356998174395  0.3995209018763494
  0.9162632191130091  0.2077047448111464  0.3995073760121996
  0.9164050136674713  0.3329529739533983  0.3996436570488081
  0.9168699646761039  0.4583679290128784  0.3997919638113664
  0.9175218580367305  0.5838224697853542  0.3996413076135493
  0.9175787080173246  0.7090453704372669  0.3993352418428630
  0.9172990653587192  0.8338727379936811  0.3992613424534247
  0.9167937896186039  0.9583622339160828  0.3994818782375246
  0.0844641375585712  0.0431815598384476  0.3996704801230262
  0.0837771951580362  0.1674552853878895  0.3994429568443937
  0.0826833534953707  0.2917806821622808  0.3989497587537775
  0.0817470151492898  0.4166285226369574  0.3986771161279199
  0.0823589327591639  0.5420195311405401  0.3990680308595497
  0.0832736686410788  0.6674461327753145  0.3998517954789013
  0.0838930881199129  0.7928056102742529  0.4001262779538011
  0.0841869654254022  0.9179925964236793  0.3999000897791599
  0.2094336511868832  0.0434557250400284  0.3999219433888316
  0.2101988853853280  0.1692952164513413  0.4004932970486402
  0.2086616359244053  0.2932341621104897  0.4002228446178424
  0.2059265380592458  0.4174691944060281  0.3997808970162930
  0.2059026588471834  0.5420239661327118  0.3990138175326148
  0.2074939690687258  0.6675017866634112  0.3991385305046762
  0.2084500113601061  0.7928089877115466  0.3996752507389076
  0.2089755056061384  0.9180828609794187  0.3998320890745606
  0.3340259111167438  0.0430509879042155  0.3996104683596874
  0.3348404135630610  0.1689024250691411  0.4008074368701460
  0.3367518720352398  0.2962923751150571  0.4041683062060257
  0.3305169714370810  0.4190813323370156  0.4051389876711611
  0.3302011402429897  0.5442139077933146  0.4029308394237610
  0.3318066353583048  0.6676437654394717  0.4001798294248997
  0.3330392421184268  0.7925320732936860  0.3993475438202977
  0.3336192690564861  0.9176734131350103  0.3994535964062163
  0.4586998952050644  0.0418950271232421  0.3994768568010540
  0.4592099791194978  0.1672746607688108  0.3995666061587976
  0.4605138086710855  0.2929600872444343  0.4016435690189558
  0.4547353665121353  0.6641375809622937  0.4038569799738337
  0.4575948280094634  0.7910724021195900  0.3999284991961940
  0.4581898473106948  0.9165197395337127  0.3994463568808317
  0.5833273890620926  0.0408275233843448  0.3997321846157931
  0.5837831234036708  0.1660759250119637  0.3994990438627649
  0.5846551990555986  0.2910714891239713  0.3993338515853871
  0.5864730475357468  0.4159062731535231  0.4002876443242424
  0.5871602916577768  0.5412139065976509  0.4033261222400344
  0.5828815833708241  0.6632152368354007  0.4035073942239902
  0.5811672975066330  0.7882475470514680  0.4011032974140529
  0.5827334408778070  0.9151627435374554  0.3997875199623449
  0.7079189709780038  0.0404008525632953  0.3999403387229000
  0.7084068869734931  0.1658055911523276  0.4000620763426899
  0.7090261839882974  0.2910857240191873  0.3995044357501060
  0.7100214339068447  0.4163252743359838  0.3984894142873993
  0.7108152805848049  0.5414615810186252  0.3980646399649626
  0.7092570345440479  0.6660851707631426  0.3987678607991379
  0.7078614809875236  0.7902683936743072  0.3992622341816797
  0.7072769249200024  0.9147346563667778  0.3996770909285749
  0.8328996960623273  0.0406959479052555  0.3996449575108791
  0.8330514018415965  0.1658165492125913  0.3999113156423945
  0.8333802697546178  0.2910846060698135  0.3999748765128060
  0.8339493884560202  0.4163939369192969  0.3996284798957017
  0.8345979489529642  0.5417982553526458  0.3988593084884912
  0.8345089121162073  0.6670821211057643  0.3984665249433121
  0.8338479898483785  0.7916972059641308  0.3987303129479967
  0.8331782505624621  0.9160939774079176  0.3993168901073298
  0.9585521243680550  0.0417906825630605  0.3995409637635625
  0.9580555867863974  0.1663227986218294  0.3993344468531554
  0.9577837743218706  0.2911949316173624  0.3992833166848681
  0.9578455023076623  0.4164754921957746  0.3995349156108662
  0.9585480351260580  0.5419747455848859  0.3998464189120583
  0.9590283340326040  0.6673501459462824  0.3998178031580833
  0.9591281078298102  0.7925349759846748  0.3996133884621443
  0.9590115579134905  0.9173809740351141  0.3995106413834435
  0.4103150875890272  0.5836796167828040  0.4071590443308196
  0.4661983764226539  0.4177400604461084  0.4095893071580444
  0.5017479291886140  0.5058066200598521  0.5044914510434829
  0.4310313182451710  0.5147015729040915  0.5072867064316400
 
  0.00000000E+00  0.00000000E+00  0.00000000E+00
  0.00000000E+00  0.00000000E+00  0.00000000E+00
  0.00000000E+00  0.00000000E+00  0.00000000E+00
  0.00000000E+00  0.00000000E+00  0.00000000E+00
  0.00000000E+00  0.00000000E+00  0.00000000E+00
  0.00000000E+00  0.00000000E+00  0.00000000E+00
  0.00000000E+00  0.00000000E+00  0.00000000E+00
  0.00000000E+00  0.00000000E+00  0.00000000E+00
  0.00000000E+00  0.00000000E+00  0.00000000E+00
  0.00000000E+00  0.00000000E+00  0.00000000E+00
  0.00000000E+00  0.00000000E+00  0.00000000E+00
  0.00000000E+00  0.00000000E+00  0.00000000E+00
  0.00000000E+00  0.00000000E+00  0.00000000E+00
  0.00000000E+00  0.00000000E+00  0.00000000E+00
  0.00000000E+00  0.00000000E+00  0.00000000E+00
  0.00000000E+00  0.00000000E+00  0.00000000E+00
  0.00000000E+00  0.00000000E+00  0.00000000E+00
  0.00000000E+00  0.00000000E+00  0.00000000E+00
  0.00000000E+00  0.00000000E+00  0.00000000E+00
  0.00000000E+00  0.00000000E+00  0.00000000E+00
  0.00000000E+00  0.00000000E+00  0.00000000E+00
  0.00000000E+00  0.00000000E+00  0.00000000E+00
  0.00000000E+00  0.00000000E+00  0.00000000E+00
  0.00000000E+00  0.00000000E+00  0.00000000E+00
  0.00000000E+00  0.00000000E+00  0.00000000E+00
  0.00000000E+00  0.00000000E+00  0.00000000E+00
  0.00000000E+00  0.00000000E+00  0.00000000E+00
  0.00000000E+00  0.00000000E+00  0.00000000E+00
  0.00000000E+00  0.00000000E+00  0.00000000E+00
  0.00000000E+00  0.00000000E+00  0.00000000E+00
  0.00000000E+00  0.00000000E+00  0.00000000E+00
  0.00000000E+00  0.00000000E+00  0.00000000E+00
  0.00000000E+00  0.00000000E+00  0.00000000E+00
  0.00000000E+00  0.00000000E+00  0.00000000E+00
  0.00000000E+00  0.00000000E+00  0.00000000E+00
  0.00000000E+00  0.00000000E+00  0.00000000E+00
  0.00000000E+00  0.00000000E+00  0.00000000E+00
  0.00000000E+00  0.00000000E+00  0.00000000E+00
  0.00000000E+00  0.00000000E+00  0.00000000E+00
  0.00000000E+00  0.00000000E+00  0.00000000E+00
  0.00000000E+00  0.00000000E+00  0.00000000E+00
  0.00000000E+00  0.00000000E+00  0.00000000E+00
  0.00000000E+00  0.00000000E+00  0.00000000E+00
  0.00000000E+00  0.00000000E+00  0.00000000E+00
  0.00000000E+00  0.00000000E+00  0.00000000E+00
  0.00000000E+00  0.00000000E+00  0.00000000E+00
  0.00000000E+00  0.00000000E+00  0.00000000E+00
  0.00000000E+00  0.00000000E+00  0.00000000E+00
  0.00000000E+00  0.00000000E+00  0.00000000E+00
  0.00000000E+00  0.00000000E+00  0.00000000E+00
  0.00000000E+00  0.00000000E+00  0.00000000E+00
  0.00000000E+00  0.00000000E+00  0.00000000E+00
  0.00000000E+00  0.00000000E+00  0.00000000E+00
  0.00000000E+00  0.00000000E+00  0.00000000E+00
  0.00000000E+00  0.00000000E+00  0.00000000E+00
  0.00000000E+00  0.00000000E+00  0.00000000E+00
  0.00000000E+00  0.00000000E+00  0.00000000E+00
  0.00000000E+00  0.00000000E+00  0.00000000E+00
  0.00000000E+00  0.00000000E+00  0.00000000E+00
  0.00000000E+00  0.00000000E+00  0.00000000E+00
  0.00000000E+00  0.00000000E+00  0.00000000E+00
  0.00000000E+00  0.00000000E+00  0.00000000E+00
  0.00000000E+00  0.00000000E+00  0.00000000E+00
  0.00000000E+00  0.00000000E+00  0.00000000E+00
  0.00000000E+00  0.00000000E+00  0.00000000E+00
  0.00000000E+00  0.00000000E+00  0.00000000E+00
  0.00000000E+00  0.00000000E+00  0.00000000E+00
  0.00000000E+00  0.00000000E+00  0.00000000E+00
  0.00000000E+00  0.00000000E+00  0.00000000E+00
  0.00000000E+00  0.00000000E+00  0.00000000E+00
  0.00000000E+00  0.00000000E+00  0.00000000E+00
  0.00000000E+00  0.00000000E+00  0.00000000E+00
  0.00000000E+00  0.00000000E+00  0.00000000E+00
  0.00000000E+00  0.00000000E+00  0.00000000E+00
  0.00000000E+00  0.00000000E+00  0.00000000E+00
  0.00000000E+00  0.00000000E+00  0.00000000E+00
  0.00000000E+00  0.00000000E+00  0.00000000E+00
  0.00000000E+00  0.00000000E+00  0.00000000E+00
  0.00000000E+00  0.00000000E+00  0.00000000E+00
  0.00000000E+00  0.00000000E+00  0.00000000E+00
  0.00000000E+00  0.00000000E+00  0.00000000E+00
  0.00000000E+00  0.00000000E+00  0.00000000E+00
  0.00000000E+00  0.00000000E+00  0.00000000E+00
  0.00000000E+00  0.00000000E+00  0.00000000E+00
  0.00000000E+00  0.00000000E+00  0.00000000E+00
  0.00000000E+00  0.00000000E+00  0.00000000E+00
  0.00000000E+00  0.00000000E+00  0.00000000E+00
  0.00000000E+00  0.00000000E+00  0.00000000E+00
  0.00000000E+00  0.00000000E+00  0.00000000E+00
  0.00000000E+00  0.00000000E+00  0.00000000E+00
  0.00000000E+00  0.00000000E+00  0.00000000E+00
  0.00000000E+00  0.00000000E+00  0.00000000E+00
  0.00000000E+00  0.00000000E+00  0.00000000E+00
  0.00000000E+00  0.00000000E+00  0.00000000E+00
  0.00000000E+00  0.00000000E+00  0.00000000E+00
  0.00000000E+00  0.00000000E+00  0.00000000E+00
  0.00000000E+00  0.00000000E+00  0.00000000E+00
  0.00000000E+00  0.00000000E+00  0.00000000E+00
  0.00000000E+00  0.00000000E+00  0.00000000E+00
  0.00000000E+00  0.00000000E+00  0.00000000E+00
  0.00000000E+00  0.00000000E+00  0.00000000E+00
  0.00000000E+00  0.00000000E+00  0.00000000E+00
  0.00000000E+00  0.00000000E+00  0.00000000E+00
  0.00000000E+00  0.00000000E+00  0.00000000E+00
  0.00000000E+00  0.00000000E+00  0.00000000E+00
  0.00000000E+00  0.00000000E+00  0.00000000E+00
  0.00000000E+00  0.00000000E+00  0.00000000E+00
  0.00000000E+00  0.00000000E+00  0.00000000E+00
  0.00000000E+00  0.00000000E+00  0.00000000E+00
  0.00000000E+00  0.00000000E+00  0.00000000E+00
  0.00000000E+00  0.00000000E+00  0.00000000E+00
  0.00000000E+00  0.00000000E+00  0.00000000E+00
  0.00000000E+00  0.00000000E+00  0.00000000E+00
  0.00000000E+00  0.00000000E+00  0.00000000E+00
  0.00000000E+00  0.00000000E+00  0.00000000E+00
  0.00000000E+00  0.00000000E+00  0.00000000E+00
  0.00000000E+00  0.00000000E+00  0.00000000E+00
  0.00000000E+00  0.00000000E+00  0.00000000E+00
  0.00000000E+00  0.00000000E+00  0.00000000E+00
  0.00000000E+00  0.00000000E+00  0.00000000E+00
  0.00000000E+00  0.00000000E+00  0.00000000E+00
  0.00000000E+00  0.00000000E+00  0.00000000E+00
  0.00000000E+00  0.00000000E+00  0.00000000E+00
  0.00000000E+00  0.00000000E+00  0.00000000E+00
  0.00000000E+00  0.00000000E+00  0.00000000E+00
  0.00000000E+00  0.00000000E+00  0.00000000E+00
  0.00000000E+00  0.00000000E+00  0.00000000E+00
  0.00000000E+00  0.00000000E+00  0.00000000E+00
  0.00000000E+00  0.00000000E+00  0.00000000E+00
  0.00000000E+00  0.00000000E+00  0.00000000E+00
