Ti1 H1 C125 N1                          
   1.00000000000000     
    19.8144430017418642   -0.0091948889111131   -0.0298871178284540
    -9.9152123199678446   17.0716559021766976   -0.0618091003346158
    -0.0448635957089840   -0.1338173874677376   29.7557852155266005
   Ti   H    C    N 
     1     1   125     1
Direct
  0.4396494978079991  0.5017441055771522  0.4305452052299838
  0.4442948396141824  0.5051106314614676  0.4893397549714846
  0.0419287311240047  0.0840908543304153  0.3996354637023725
  0.0411881714053735  0.2083751896891893  0.3994822227197489
  0.0407050805243550  0.3329844141765340  0.3994411007047662
  0.0407444582528111  0.4583673220732101  0.3995425122925733
  0.0413983420134125  0.5837871666054194  0.3998572140270734
  0.0420193172255844  0.7091468194670179  0.3999723566473367
  0.0423612864922605  0.8344885079263882  0.4000287573146339
  0.0423910628445485  0.9595345353300880  0.3998801253391778
  0.1675976254761015  0.0852431253138452  0.3997711281359664
  0.1670716676370774  0.2098084597923905  0.3999516641734126
  0.1659457907952599  0.3340345937830700  0.4000501640208993
  0.1646133344124042  0.4585417481477827  0.3995643422408032
  0.1652953212181656  0.5837316457181091  0.3993564921924115
  0.1663018499726758  0.7091303446050343  0.3997431186934385
  0.1670132201965098  0.8345584114527083  0.3999879033010142
  0.1674607882209015  0.9599515338365339  0.3999320312191223
  0.2926161082399670  0.0851527725394510  0.3998096377862093
  0.2933434147705027  0.2114684937256731  0.4009739049230842
  0.2925267697520071  0.3368570507578569  0.4027579729779771
  0.2890240252988887  0.4589389906688381  0.4023432610327875
  0.2890139617853307  0.5844128867961632  0.4000795294431703
  0.2905936563134163  0.7091830241033877  0.3995830442845593
  0.2915204718564097  0.8341890188487752  0.3997730400636054
  0.2920244067666005  0.9595027328024276  0.3998471910120005
  0.4171611745548081  0.0838209095003777  0.3996372725696899
  0.4177333969515316  0.2092443155653501  0.3999574424573140
  0.4195697291617317  0.3359732148985802  0.4029498369351083
  0.4148218727300546  0.7073938924837835  0.4002734124800696
  0.4160346400759288  0.8329689929316789  0.3996787936441178
  0.4166190810673480  0.9583868242164580  0.3997846264752731
  0.5416870976113520  0.0825750505983281  0.3997972142400678
  0.5423154843402215  0.2078300191320640  0.3995666773880612
  0.5432270496673142  0.3329437670210189  0.4001553227164120
  0.5452359607188429  0.4571563198115219  0.4019545289151771
  0.5450416398881940  0.5811084061438888  0.4023980638230458
  0.5388492234685384  0.7040857300332763  0.4015148180950590
  0.5403936780661909  0.8312615408443251  0.4001492295182948
  0.5411902495080829  0.9570882586555548  0.3998730496428759
  0.6662611968840385  0.0820222108091075  0.3999747269543088
  0.6667993989318327  0.2073625448350993  0.3998421368756909
  0.6675270269939939  0.3325811114233923  0.3995583278958856
  0.6692191933578959  0.4580215688490272  0.3996127430454365
  0.6700531216720207  0.5836509939222019  0.3995478345235075
  0.6666656707819135  0.7070050781538615  0.3995721224963348
  0.6651500024230919  0.8309132046021775  0.4000163481996237
  0.6657860477943973  0.9566019735359298  0.4000022936241904
  0.7910105770630492  0.0820672321131745  0.4000258483258687
  0.7912938915260918  0.2072562440101297  0.4000698605051782
  0.7919206977802753  0.3326529200611307  0.3999055710840278
  0.7929275028149203  0.4582220220356953  0.3996588448791291
  0.7934790329339911  0.5835226242766509  0.3995482605484537
  0.7929682643428031  0.7087629707355112  0.3995178611799814
  0.7915623082176967  0.8327995252743934  0.3997129081494095
  0.7907651997630543  0.9569693773456190  0.3998921372997842
  0.9161671986407621  0.0827560515475928  0.3998448569314959
  0.9160278436201458  0.2075886468881842  0.3998791346015114
  0.9162008423462705  0.3327636094066256  0.3999462480697145
  0.9167697924916235  0.4581887518228570  0.3999773117236934
  0.9174760771099624  0.5837160529292108  0.3999191804105105
  0.9176174039574629  0.7091045282795219  0.3998462062039619
  0.9173645507339911  0.8339831031646028  0.3998742233439193
  0.9167089690786802  0.9583887343737936  0.3998849482609244
  0.0840761926362364  0.0430385523112719  0.3996836976799114
  0.0835124847770529  0.1674667516063854  0.3995481756257280
  0.0824898246916689  0.2917513969530835  0.3995038512609962
  0.0819181771396392  0.4166445784824310  0.3993470873066445
  0.0823695850424574  0.5419060884813764  0.3995471953458287
  0.0832272597927353  0.6673891200481402  0.3998886989823717
  0.0838146705234579  0.7928168742816114  0.3999981625538599
  0.0840593991076927  0.9180409711638914  0.4000025991453873
  0.2091845053213525  0.0434216837860770  0.3998078350098997
  0.2093234978620130  0.1688639872499126  0.4001971504067122
  0.2086468238359621  0.2934339081203319  0.4005693527643834
  0.2060953949732598  0.4173338592873846  0.4003619516434197
  0.2061198448057682  0.5419958503884501  0.3994901094598963
  0.2075121710079294  0.6674413618307307  0.3995030176700009
  0.2083260008451493  0.7926851095202281  0.3998549036426782
  0.2088634979877698  0.9180445887973556  0.3999786868414547
  0.3338728116921071  0.0429327675381504  0.3997068912623126
  0.3345337559747648  0.1686459416862115  0.4002160827617350
  0.3351029343485583  0.2947841959886590  0.4028270906405906
  0.3311751246476145  0.4196194844410073  0.4048149786087295
  0.3308964229790238  0.5443367148911932  0.4022297217932890
  0.3317576009459774  0.6674610334637671  0.3999312351896281
  0.3328680150778227  0.7924012289351881  0.3996459939513425
  0.3334364993195124  0.9175283320334583  0.3998155138310660
  0.4585107490768112  0.0416930639409801  0.3997502622049852
  0.4590014367284943  0.1670298219723318  0.3995725802727127
  0.4599135438529846  0.2926131368358628  0.4006132844527462
  0.4639833806168342  0.4183585503855461  0.4052203602991689
  0.4542756888604574  0.6633031448801788  0.4021231792603622
  0.4573342833534075  0.7908042375785900  0.3998591154886190
  0.4579419545353302  0.9162626265915397  0.3997690524090854
  0.5830500913539037  0.0405494156629263  0.3998949317672676
  0.5836088074442685  0.1659182153386884  0.3997034432800972
  0.5844788944626916  0.2910541659847983  0.3996340433817324
  0.5863990422456936  0.4159599349841898  0.4002828647284660
  0.5876992671014685  0.5423146618525192  0.4008845363623671
  0.5825849671513286  0.6632600178962528  0.4009284213187153
  0.5809073712858313  0.7879677861726320  0.4004521287113710
  0.5824582348541418  0.9149041186960939  0.4000037101537506
  0.7076438920123391  0.0401302554913166  0.3999825620479598
  0.7081207001898777  0.1655124112712868  0.4000073764200961
  0.7087538886255859  0.2908344667294879  0.3997383680861281
  0.7100113005139482  0.4163384031476460  0.3995021450780650
  0.7109627955299899  0.5417081188393313  0.3995107151104885
  0.7097232226836068  0.6667510780219134  0.3993728796153113
  0.7078988430243582  0.7904084844337019  0.3996773815703500
  0.7071015088780283  0.9146096496773474  0.3999592689936168
  0.8326121392143372  0.0405512094595235  0.3999534331963053
  0.8327392211091018  0.1655990544698696  0.4000545013440120
  0.8331473562762601  0.2909123609496602  0.4000445885620776
  0.8338637705243815  0.4163167654779757  0.3998751040151947
  0.8345869096261102  0.5417591758533344  0.3997143887062573
  0.8345949580050712  0.6673132902665444  0.3996311939520393
  0.8340575437306041  0.7920217626079702  0.3996921433426369
  0.8331242657900142  0.9161400455251759  0.3998538004989422
  0.9583528200301314  0.0418246879511924  0.3998004632452958
  0.9578112025473683  0.1662479654750348  0.3996876389407146
  0.9576140759681484  0.2910918368862678  0.3997380279727168
  0.9578068912919482  0.4163699625739723  0.3998746842580195
  0.9585196267526990  0.5419212563475064  0.3999780907631089
  0.9590080596986632  0.6673881418461916  0.3999379731103719
  0.9591149983639375  0.7925982088890023  0.3999267083971190
  0.9588944708710792  0.9174152362212036  0.3999141809757710
  0.4101370413963846  0.5830461897674761  0.4047121218454050
 
  0.00000000E+00  0.00000000E+00  0.00000000E+00
  0.00000000E+00  0.00000000E+00  0.00000000E+00
  0.00000000E+00  0.00000000E+00  0.00000000E+00
  0.00000000E+00  0.00000000E+00  0.00000000E+00
  0.00000000E+00  0.00000000E+00  0.00000000E+00
  0.00000000E+00  0.00000000E+00  0.00000000E+00
  0.00000000E+00  0.00000000E+00  0.00000000E+00
  0.00000000E+00  0.00000000E+00  0.00000000E+00
  0.00000000E+00  0.00000000E+00  0.00000000E+00
  0.00000000E+00  0.00000000E+00  0.00000000E+00
  0.00000000E+00  0.00000000E+00  0.00000000E+00
  0.00000000E+00  0.00000000E+00  0.00000000E+00
  0.00000000E+00  0.00000000E+00  0.00000000E+00
  0.00000000E+00  0.00000000E+00  0.00000000E+00
  0.00000000E+00  0.00000000E+00  0.00000000E+00
  0.00000000E+00  0.00000000E+00  0.00000000E+00
  0.00000000E+00  0.00000000E+00  0.00000000E+00
  0.00000000E+00  0.00000000E+00  0.00000000E+00
  0.00000000E+00  0.00000000E+00  0.00000000E+00
  0.00000000E+00  0.00000000E+00  0.00000000E+00
  0.00000000E+00  0.00000000E+00  0.00000000E+00
  0.00000000E+00  0.00000000E+00  0.00000000E+00
  0.00000000E+00  0.00000000E+00  0.00000000E+00
  0.00000000E+00  0.00000000E+00  0.00000000E+00
  0.00000000E+00  0.00000000E+00  0.00000000E+00
  0.00000000E+00  0.00000000E+00  0.00000000E+00
  0.00000000E+00  0.00000000E+00  0.00000000E+00
  0.00000000E+00  0.00000000E+00  0.00000000E+00
  0.00000000E+00  0.00000000E+00  0.00000000E+00
  0.00000000E+00  0.00000000E+00  0.00000000E+00
  0.00000000E+00  0.00000000E+00  0.00000000E+00
  0.00000000E+00  0.00000000E+00  0.00000000E+00
  0.00000000E+00  0.00000000E+00  0.00000000E+00
  0.00000000E+00  0.00000000E+00  0.00000000E+00
  0.00000000E+00  0.00000000E+00  0.00000000E+00
  0.00000000E+00  0.00000000E+00  0.00000000E+00
  0.00000000E+00  0.00000000E+00  0.00000000E+00
  0.00000000E+00  0.00000000E+00  0.00000000E+00
  0.00000000E+00  0.00000000E+00  0.00000000E+00
  0.00000000E+00  0.00000000E+00  0.00000000E+00
  0.00000000E+00  0.00000000E+00  0.00000000E+00
  0.00000000E+00  0.00000000E+00  0.00000000E+00
  0.00000000E+00  0.00000000E+00  0.00000000E+00
  0.00000000E+00  0.00000000E+00  0.00000000E+00
  0.00000000E+00  0.00000000E+00  0.00000000E+00
  0.00000000E+00  0.00000000E+00  0.00000000E+00
  0.00000000E+00  0.00000000E+00  0.00000000E+00
  0.00000000E+00  0.00000000E+00  0.00000000E+00
  0.00000000E+00  0.00000000E+00  0.00000000E+00
  0.00000000E+00  0.00000000E+00  0.00000000E+00
  0.00000000E+00  0.00000000E+00  0.00000000E+00
  0.00000000E+00  0.00000000E+00  0.00000000E+00
  0.00000000E+00  0.00000000E+00  0.00000000E+00
  0.00000000E+00  0.00000000E+00  0.00000000E+00
  0.00000000E+00  0.00000000E+00  0.00000000E+00
  0.00000000E+00  0.00000000E+00  0.00000000E+00
  0.00000000E+00  0.00000000E+00  0.00000000E+00
  0.00000000E+00  0.00000000E+00  0.00000000E+00
  0.00000000E+00  0.00000000E+00  0.00000000E+00
  0.00000000E+00  0.00000000E+00  0.00000000E+00
  0.00000000E+00  0.00000000E+00  0.00000000E+00
  0.00000000E+00  0.00000000E+00  0.00000000E+00
  0.00000000E+00  0.00000000E+00  0.00000000E+00
  0.00000000E+00  0.00000000E+00  0.00000000E+00
  0.00000000E+00  0.00000000E+00  0.00000000E+00
  0.00000000E+00  0.00000000E+00  0.00000000E+00
  0.00000000E+00  0.00000000E+00  0.00000000E+00
  0.00000000E+00  0.00000000E+00  0.00000000E+00
  0.00000000E+00  0.00000000E+00  0.00000000E+00
  0.00000000E+00  0.00000000E+00  0.00000000E+00
  0.00000000E+00  0.00000000E+00  0.00000000E+00
  0.00000000E+00  0.00000000E+00  0.00000000E+00
  0.00000000E+00  0.00000000E+00  0.00000000E+00
  0.00000000E+00  0.00000000E+00  0.00000000E+00
  0.00000000E+00  0.00000000E+00  0.00000000E+00
  0.00000000E+00  0.00000000E+00  0.00000000E+00
  0.00000000E+00  0.00000000E+00  0.00000000E+00
  0.00000000E+00  0.00000000E+00  0.00000000E+00
  0.00000000E+00  0.00000000E+00  0.00000000E+00
  0.00000000E+00  0.00000000E+00  0.00000000E+00
  0.00000000E+00  0.00000000E+00  0.00000000E+00
  0.00000000E+00  0.00000000E+00  0.00000000E+00
  0.00000000E+00  0.00000000E+00  0.00000000E+00
  0.00000000E+00  0.00000000E+00  0.00000000E+00
  0.00000000E+00  0.00000000E+00  0.00000000E+00
  0.00000000E+00  0.00000000E+00  0.00000000E+00
  0.00000000E+00  0.00000000E+00  0.00000000E+00
  0.00000000E+00  0.00000000E+00  0.00000000E+00
  0.00000000E+00  0.00000000E+00  0.00000000E+00
  0.00000000E+00  0.00000000E+00  0.00000000E+00
  0.00000000E+00  0.00000000E+00  0.00000000E+00
  0.00000000E+00  0.00000000E+00  0.00000000E+00
  0.00000000E+00  0.00000000E+00  0.00000000E+00
  0.00000000E+00  0.00000000E+00  0.00000000E+00
  0.00000000E+00  0.00000000E+00  0.00000000E+00
  0.00000000E+00  0.00000000E+00  0.00000000E+00
  0.00000000E+00  0.00000000E+00  0.00000000E+00
  0.00000000E+00  0.00000000E+00  0.00000000E+00
  0.00000000E+00  0.00000000E+00  0.00000000E+00
  0.00000000E+00  0.00000000E+00  0.00000000E+00
  0.00000000E+00  0.00000000E+00  0.00000000E+00
  0.00000000E+00  0.00000000E+00  0.00000000E+00
  0.00000000E+00  0.00000000E+00  0.00000000E+00
  0.00000000E+00  0.00000000E+00  0.00000000E+00
  0.00000000E+00  0.00000000E+00  0.00000000E+00
  0.00000000E+00  0.00000000E+00  0.00000000E+00
  0.00000000E+00  0.00000000E+00  0.00000000E+00
  0.00000000E+00  0.00000000E+00  0.00000000E+00
  0.00000000E+00  0.00000000E+00  0.00000000E+00
  0.00000000E+00  0.00000000E+00  0.00000000E+00
  0.00000000E+00  0.00000000E+00  0.00000000E+00
  0.00000000E+00  0.00000000E+00  0.00000000E+00
  0.00000000E+00  0.00000000E+00  0.00000000E+00
  0.00000000E+00  0.00000000E+00  0.00000000E+00
  0.00000000E+00  0.00000000E+00  0.00000000E+00
  0.00000000E+00  0.00000000E+00  0.00000000E+00
  0.00000000E+00  0.00000000E+00  0.00000000E+00
  0.00000000E+00  0.00000000E+00  0.00000000E+00
  0.00000000E+00  0.00000000E+00  0.00000000E+00
  0.00000000E+00  0.00000000E+00  0.00000000E+00
  0.00000000E+00  0.00000000E+00  0.00000000E+00
  0.00000000E+00  0.00000000E+00  0.00000000E+00
  0.00000000E+00  0.00000000E+00  0.00000000E+00
  0.00000000E+00  0.00000000E+00  0.00000000E+00
  0.00000000E+00  0.00000000E+00  0.00000000E+00
  0.00000000E+00  0.00000000E+00  0.00000000E+00
  0.00000000E+00  0.00000000E+00  0.00000000E+00
  0.00000000E+00  0.00000000E+00  0.00000000E+00
