Mo1 C122 N4                             
   1.00000000000000     
    19.8470952115521868   -0.0000522826395054    0.0006989945022022
    -9.9235928845132282   17.0511517956498864   -0.0003886790242976
     0.0010475710425079   -0.0000684673023161   29.7339123393936298
   Mo   C    N 
     1   122     4
Direct
  0.4374921248165399  0.5000002465073712  0.4239405167104112
  0.0417503243164378  0.0837025248689204  0.3994832347233256
  0.0407076201259213  0.2078745715439090  0.3992340354743740
  0.0398469814506207  0.3327838160141003  0.3988927719548682
  0.0400221219237615  0.4582191590924252  0.3989148771932583
  0.0411474738576182  0.5838045787909437  0.3995520405209421
  0.0420970156897439  0.7092008527839827  0.3999536048491950
  0.0424069372270548  0.8343834809629841  0.4000137428864347
  0.0424186471582189  0.9594403137650688  0.3998017611434149
  0.1679428723449249  0.0853902893808742  0.4000487473689150
  0.1666577464109245  0.2093598353313435  0.3998128590358485
  0.1642827251598923  0.3331722231286481  0.3995061561713742
  0.1631937264302515  0.4584548609651818  0.3980788209813964
  0.1645517013849984  0.5837979309413159  0.3983944222193770
  0.1662020890668978  0.7090687158707391  0.3994601257597550
  0.1669709757843195  0.8343799508165324  0.4000061163406088
  0.1674202145641962  0.9598363495141716  0.4000694960016372
  0.2924543828833706  0.0853966602817075  0.4000427840626171
  0.2938745572916868  0.2127453563394414  0.4015582071955577
  0.2904701153526097  0.3369364672704024  0.4041448252455476
  0.2854516959873295  0.4575179173585545  0.4032579096841050
  0.2873969060675512  0.5833207364110381  0.3994181337220093
  0.2903556173727751  0.7087783864932101  0.3990008542988874
  0.2915152762368448  0.8340597028637766  0.3994889532786181
  0.2920191073823197  0.9594342239313471  0.3997895083203691
  0.4169499070483915  0.0837023385392883  0.3994862852629348
  0.4177093825218290  0.2093733317475100  0.3998226529869774
  0.4214623044402861  0.3369462179685572  0.4041482529743078
  0.4145141777873212  0.7073251081798594  0.4004413405873459
  0.4160978329582012  0.8328689680282515  0.3993461027167907
  0.4166072110729598  0.9583191842839456  0.3994855197273101
  0.5415869086483759  0.0825316788650075  0.3995969611153394
  0.5421685515895550  0.2078745941873050  0.3992654510607067
  0.5438969593564142  0.3331798693804452  0.3995429095871089
  0.5470650369424443  0.4575236161952964  0.4032620281643715
  0.5387368911407870  0.7024798117917793  0.4039015164821583
  0.5406292841573772  0.8307216185821052  0.4004934488882078
  0.5412266383887052  0.9569642043892690  0.3997451327212287
  0.6661997324372038  0.0820715651403282  0.4000029138933260
  0.6666767575343823  0.2073853579846985  0.3997222703675901
  0.6679367192403117  0.3327784698018243  0.3989461047582046
  0.6702585331792218  0.4584458448053850  0.3981368367511003
  0.6709194035598615  0.5833073298855100  0.3994545360452085
  0.6678024432771694  0.7073166479061326  0.4004543075107567
  0.6650960970374226  0.8307133997075792  0.4004951964676458
  0.6658094852992138  0.9566111464254381  0.4001056953847988
  0.7908808614298338  0.0820797124623345  0.3999975533860285
  0.7911838051686340  0.2073697294954906  0.4000643824142168
  0.7918609771528152  0.3327016680724172  0.3997308189791555
  0.7931949975940310  0.4582171883518908  0.3989592995381833
  0.7942501739756187  0.5838040978529350  0.3984513086905777
  0.7934215827134655  0.7087794262049287  0.3990457312669214
  0.7917734310139142  0.8328642190991341  0.3993668024213510
  0.7907414837151592  0.9569647191925453  0.3997360104902956
  0.9159477599652383  0.0825368271753456  0.3995867458325855
  0.9157127818857645  0.2073882787560703  0.3996962455697221
  0.9158434234087244  0.3327055791736436  0.3997076106089817
  0.9166289120284197  0.4582582787528061  0.3996954508732363
  0.9176516549245005  0.5838061051456438  0.3995721600950324
  0.9178667796685958  0.7090733735861059  0.3994952418415296
  0.9175430760633049  0.8340592776134780  0.3995143365984166
  0.9167106538585439  0.9583208287690920  0.3994904056857005
  0.0842621147111152  0.0430363035854194  0.3997474044033332
  0.0832290104292800  0.1671323150306575  0.3993474867011614
  0.0815785820483446  0.2912228071595300  0.3989999511512258
  0.0807557142907355  0.4162040679968838  0.3983935297244547
  0.0818024402922547  0.5417797752115825  0.3989163294068603
  0.0831372128049008  0.6672943195845600  0.3997109339385533
  0.0838116105536239  0.7926282203827879  0.4000671191529138
  0.0841268222821695  0.9179284556462594  0.4000042869809594
  0.2091982156372119  0.0433885928044530  0.4001064791862700
  0.2099080117452804  0.1692788410608906  0.4004947492635481
  0.2071881312145300  0.2926741403618350  0.4004413540677765
  0.2040759968298647  0.4166790876308827  0.3994171092697025
  0.2047385542431705  0.5415455081801528  0.3980791680524465
  0.2070607290793194  0.6672144835032994  0.3988927231796014
  0.2083244949835422  0.7926135339863645  0.3996971342158484
  0.2087994625419727  0.9179212612527141  0.3999981406758061
  0.3337767588654326  0.0430356897998909  0.3997347866558815
  0.3343826322750721  0.1692874750976861  0.4004945998034365
  0.3362575043409611  0.2975212296123194  0.4039003993827325
  0.3279334800322553  0.5424816361220436  0.4032584413961037
  0.3311107290927395  0.6668265913675385  0.3995069120132630
  0.3328333804986144  0.7921246433532542  0.3992342872233164
  0.3334111074198300  0.9174637543203651  0.3995854531151380
  0.4583913830855178  0.0416803113260927  0.3994895356197408
  0.4589088895772055  0.1671366290906145  0.3993655181818112
  0.4604892651356698  0.2926852873868588  0.4004549290447453
  0.4535331412240663  0.6630627244787803  0.4041453302432736
  0.4572984516417182  0.7906385192312901  0.3998120529128025
  0.4580497718124602  0.9162979926364114  0.3994807949666699
  0.5829796089631887  0.0405601362710529  0.3997996979714062
  0.5834854538681534  0.1659422342287732  0.3995124347984932
  0.5846457119895641  0.2912220787295094  0.3990452527830927
  0.5876127773781943  0.4166945631314208  0.3994544162960406
  0.5895424495865874  0.5424776486490784  0.4032622730532467
  0.5845158941587104  0.6630540690330108  0.4041488392883691
  0.5811292587641940  0.7872548980733785  0.4015584957317486
  0.5825536600799708  0.9146094553050159  0.4000472051587458
  0.7075861331836806  0.0401650602373975  0.4000687693874013
  0.7080254969587469  0.1656155197569954  0.4000120689084763
  0.7087931820061101  0.2909260395184244  0.3994940767129616
  0.7104459181705777  0.4161979502975666  0.3984516782297768
  0.7118115970713861  0.5415526224775717  0.3981370104432841
  0.7107157392420065  0.6668201062082769  0.3995435426016015
  0.7083363409129202  0.7906268783984928  0.3998234132391663
  0.7070592689098925  0.9146038849212595  0.4000430880057016
  0.8325849835171958  0.0405648638169479  0.3997905232886395
  0.8325933207116941  0.1656211229783999  0.4000042563357328
  0.8328986076506739  0.2907984228352807  0.3999508480858918
  0.8338443965841403  0.4161919523141769  0.3995718707880120
  0.8349755207603904  0.5417811636616584  0.3989579543882689
  0.8351560019091909  0.6672193159186677  0.3989464534283306
  0.8342939069088106  0.7921249739561775  0.3992667684253839
  0.8332475431753903  0.9162979433139700  0.3994878549795517
  0.9582889579942068  0.0416812625003415  0.3994877786160741
  0.9574554767018347  0.1659418460449836  0.3994887642472499
  0.9571359965429066  0.2909332512518789  0.3994592495992577
  0.9573448839684893  0.4161942625298918  0.3995486579483050
  0.9583721149508557  0.5417403549393508  0.3996972557667354
  0.9591561652125656  0.6672951337319940  0.3997323423665251
  0.9592916828286903  0.7926150444459000  0.3997238416003154
  0.9590547974273437  0.9174683529348100  0.3995994454116480
  0.4077524007450717  0.5838580266951700  0.4085739211861268
  0.5510908239513845  0.5838524152021611  0.4085643267464166
  0.3238942439631556  0.4161415088278021  0.4085734525718726
  0.4672395160924792  0.4161496749344817  0.4085631587925924
 
  0.00000000E+00  0.00000000E+00  0.00000000E+00
  0.00000000E+00  0.00000000E+00  0.00000000E+00
  0.00000000E+00  0.00000000E+00  0.00000000E+00
  0.00000000E+00  0.00000000E+00  0.00000000E+00
  0.00000000E+00  0.00000000E+00  0.00000000E+00
  0.00000000E+00  0.00000000E+00  0.00000000E+00
  0.00000000E+00  0.00000000E+00  0.00000000E+00
  0.00000000E+00  0.00000000E+00  0.00000000E+00
  0.00000000E+00  0.00000000E+00  0.00000000E+00
  0.00000000E+00  0.00000000E+00  0.00000000E+00
  0.00000000E+00  0.00000000E+00  0.00000000E+00
  0.00000000E+00  0.00000000E+00  0.00000000E+00
  0.00000000E+00  0.00000000E+00  0.00000000E+00
  0.00000000E+00  0.00000000E+00  0.00000000E+00
  0.00000000E+00  0.00000000E+00  0.00000000E+00
  0.00000000E+00  0.00000000E+00  0.00000000E+00
  0.00000000E+00  0.00000000E+00  0.00000000E+00
  0.00000000E+00  0.00000000E+00  0.00000000E+00
  0.00000000E+00  0.00000000E+00  0.00000000E+00
  0.00000000E+00  0.00000000E+00  0.00000000E+00
  0.00000000E+00  0.00000000E+00  0.00000000E+00
  0.00000000E+00  0.00000000E+00  0.00000000E+00
  0.00000000E+00  0.00000000E+00  0.00000000E+00
  0.00000000E+00  0.00000000E+00  0.00000000E+00
  0.00000000E+00  0.00000000E+00  0.00000000E+00
  0.00000000E+00  0.00000000E+00  0.00000000E+00
  0.00000000E+00  0.00000000E+00  0.00000000E+00
  0.00000000E+00  0.00000000E+00  0.00000000E+00
  0.00000000E+00  0.00000000E+00  0.00000000E+00
  0.00000000E+00  0.00000000E+00  0.00000000E+00
  0.00000000E+00  0.00000000E+00  0.00000000E+00
  0.00000000E+00  0.00000000E+00  0.00000000E+00
  0.00000000E+00  0.00000000E+00  0.00000000E+00
  0.00000000E+00  0.00000000E+00  0.00000000E+00
  0.00000000E+00  0.00000000E+00  0.00000000E+00
  0.00000000E+00  0.00000000E+00  0.00000000E+00
  0.00000000E+00  0.00000000E+00  0.00000000E+00
  0.00000000E+00  0.00000000E+00  0.00000000E+00
  0.00000000E+00  0.00000000E+00  0.00000000E+00
  0.00000000E+00  0.00000000E+00  0.00000000E+00
  0.00000000E+00  0.00000000E+00  0.00000000E+00
  0.00000000E+00  0.00000000E+00  0.00000000E+00
  0.00000000E+00  0.00000000E+00  0.00000000E+00
  0.00000000E+00  0.00000000E+00  0.00000000E+00
  0.00000000E+00  0.00000000E+00  0.00000000E+00
  0.00000000E+00  0.00000000E+00  0.00000000E+00
  0.00000000E+00  0.00000000E+00  0.00000000E+00
  0.00000000E+00  0.00000000E+00  0.00000000E+00
  0.00000000E+00  0.00000000E+00  0.00000000E+00
  0.00000000E+00  0.00000000E+00  0.00000000E+00
  0.00000000E+00  0.00000000E+00  0.00000000E+00
  0.00000000E+00  0.00000000E+00  0.00000000E+00
  0.00000000E+00  0.00000000E+00  0.00000000E+00
  0.00000000E+00  0.00000000E+00  0.00000000E+00
  0.00000000E+00  0.00000000E+00  0.00000000E+00
  0.00000000E+00  0.00000000E+00  0.00000000E+00
  0.00000000E+00  0.00000000E+00  0.00000000E+00
  0.00000000E+00  0.00000000E+00  0.00000000E+00
  0.00000000E+00  0.00000000E+00  0.00000000E+00
  0.00000000E+00  0.00000000E+00  0.00000000E+00
  0.00000000E+00  0.00000000E+00  0.00000000E+00
  0.00000000E+00  0.00000000E+00  0.00000000E+00
  0.00000000E+00  0.00000000E+00  0.00000000E+00
  0.00000000E+00  0.00000000E+00  0.00000000E+00
  0.00000000E+00  0.00000000E+00  0.00000000E+00
  0.00000000E+00  0.00000000E+00  0.00000000E+00
  0.00000000E+00  0.00000000E+00  0.00000000E+00
  0.00000000E+00  0.00000000E+00  0.00000000E+00
  0.00000000E+00  0.00000000E+00  0.00000000E+00
  0.00000000E+00  0.00000000E+00  0.00000000E+00
  0.00000000E+00  0.00000000E+00  0.00000000E+00
  0.00000000E+00  0.00000000E+00  0.00000000E+00
  0.00000000E+00  0.00000000E+00  0.00000000E+00
  0.00000000E+00  0.00000000E+00  0.00000000E+00
  0.00000000E+00  0.00000000E+00  0.00000000E+00
  0.00000000E+00  0.00000000E+00  0.00000000E+00
  0.00000000E+00  0.00000000E+00  0.00000000E+00
  0.00000000E+00  0.00000000E+00  0.00000000E+00
  0.00000000E+00  0.00000000E+00  0.00000000E+00
  0.00000000E+00  0.00000000E+00  0.00000000E+00
  0.00000000E+00  0.00000000E+00  0.00000000E+00
  0.00000000E+00  0.00000000E+00  0.00000000E+00
  0.00000000E+00  0.00000000E+00  0.00000000E+00
  0.00000000E+00  0.00000000E+00  0.00000000E+00
  0.00000000E+00  0.00000000E+00  0.00000000E+00
  0.00000000E+00  0.00000000E+00  0.00000000E+00
  0.00000000E+00  0.00000000E+00  0.00000000E+00
  0.00000000E+00  0.00000000E+00  0.00000000E+00
  0.00000000E+00  0.00000000E+00  0.00000000E+00
  0.00000000E+00  0.00000000E+00  0.00000000E+00
  0.00000000E+00  0.00000000E+00  0.00000000E+00
  0.00000000E+00  0.00000000E+00  0.00000000E+00
  0.00000000E+00  0.00000000E+00  0.00000000E+00
  0.00000000E+00  0.00000000E+00  0.00000000E+00
  0.00000000E+00  0.00000000E+00  0.00000000E+00
  0.00000000E+00  0.00000000E+00  0.00000000E+00
  0.00000000E+00  0.00000000E+00  0.00000000E+00
  0.00000000E+00  0.00000000E+00  0.00000000E+00
  0.00000000E+00  0.00000000E+00  0.00000000E+00
  0.00000000E+00  0.00000000E+00  0.00000000E+00
  0.00000000E+00  0.00000000E+00  0.00000000E+00
  0.00000000E+00  0.00000000E+00  0.00000000E+00
  0.00000000E+00  0.00000000E+00  0.00000000E+00
  0.00000000E+00  0.00000000E+00  0.00000000E+00
  0.00000000E+00  0.00000000E+00  0.00000000E+00
  0.00000000E+00  0.00000000E+00  0.00000000E+00
  0.00000000E+00  0.00000000E+00  0.00000000E+00
  0.00000000E+00  0.00000000E+00  0.00000000E+00
  0.00000000E+00  0.00000000E+00  0.00000000E+00
  0.00000000E+00  0.00000000E+00  0.00000000E+00
  0.00000000E+00  0.00000000E+00  0.00000000E+00
  0.00000000E+00  0.00000000E+00  0.00000000E+00
  0.00000000E+00  0.00000000E+00  0.00000000E+00
  0.00000000E+00  0.00000000E+00  0.00000000E+00
  0.00000000E+00  0.00000000E+00  0.00000000E+00
  0.00000000E+00  0.00000000E+00  0.00000000E+00
  0.00000000E+00  0.00000000E+00  0.00000000E+00
  0.00000000E+00  0.00000000E+00  0.00000000E+00
  0.00000000E+00  0.00000000E+00  0.00000000E+00
  0.00000000E+00  0.00000000E+00  0.00000000E+00
  0.00000000E+00  0.00000000E+00  0.00000000E+00
  0.00000000E+00  0.00000000E+00  0.00000000E+00
  0.00000000E+00  0.00000000E+00  0.00000000E+00
  0.00000000E+00  0.00000000E+00  0.00000000E+00
  0.00000000E+00  0.00000000E+00  0.00000000E+00
  0.00000000E+00  0.00000000E+00  0.00000000E+00
  0.00000000E+00  0.00000000E+00  0.00000000E+00
