Ag1 C122 N4                             
   1.00000000000000     
    19.8141741706457246   -0.0000081828488980    0.0037470177176993
    -9.9070941419806875   17.0391937489756380   -0.0018626075066271
     0.0056342288503123    0.0000183194806178   29.8041785043927661
   Ag   C    N 
     1   122     4
Direct
  0.4375020785815313  0.5000009000725754  0.4450257892082194
  0.0418939328086809  0.0840127081971517  0.3999199822129851
  0.0408584576200195  0.2081148404296647  0.3997909386994667
  0.0402142427709185  0.3328263716757601  0.3995584615755263
  0.0404658373915472  0.4581968165020790  0.3997144519271007
  0.0412963453626355  0.5837224716470722  0.4000996528118975
  0.0421100499664864  0.7091958453499653  0.4001452879262862
  0.0425004240962755  0.8345805794935315  0.4000773019841751
  0.0425879250873026  0.9597222898433895  0.4000116514831710
  0.1681725621921608  0.0859529509896906  0.3999845733930565
  0.1669764854277906  0.2098984845008480  0.3999111577036431
  0.1649737188065186  0.3335054522618229  0.3993801594806186
  0.1642461470743322  0.4583779437576165  0.3984569444049457
  0.1651600841861113  0.5835739544902669  0.3992098302165739
  0.1663390029226074  0.7090487311297583  0.3999208207023018
  0.1670750496295406  0.8345766610703841  0.4000610702886456
  0.1676114389967837  0.9602056335675224  0.3999972573989271
  0.2927490756674291  0.0859363781232256  0.3999655215958993
  0.2943234504352463  0.2136760512674008  0.4005659782490161
  0.2916535093517748  0.3385192802145474  0.4017160914444723
  0.2880351699578619  0.4568654680272901  0.4005144379917192
  0.2887607734190587  0.5831374414614288  0.3987215968476028
  0.2904941506871201  0.7086248234449631  0.3995200067296052
  0.2915455476146301  0.8340396719832435  0.3999484164227694
  0.2921459810263635  0.9597128496535233  0.3999743509062784
  0.4171222436503655  0.0840140197925444  0.3998998112656448
  0.4178862843909477  0.2099000754152136  0.3998993839396834
  0.4218572074180647  0.3385448250727278  0.4017103340358892
  0.4145110117374082  0.7067256769479711  0.4000317005253199
  0.4160053873382647  0.8325849488999216  0.3997992754349172
  0.4166374165405607  0.9583145918229174  0.3999868353011320
  0.5416049472964882  0.0824984045986286  0.4000191280793850
  0.5422540774266895  0.2081160059754384  0.3997893795880517
  0.5435324501450484  0.3335076105368876  0.3993613704059172
  0.5438576922435854  0.4568789402260847  0.4005264493850517
  0.5383889731240071  0.7017899730086290  0.4016053039671146
  0.5402827152254732  0.8301668448892802  0.4001464385612498
  0.5410762987275891  0.9566091211524165  0.3999576708950257
  0.6660980152429802  0.0818450012084624  0.4000291385920390
  0.6666420901281009  0.2073750217449561  0.4000162509942066
  0.6676141501118753  0.3328342077963151  0.3995647058114989
  0.6691462616919750  0.4583931901183473  0.3984841892081017
  0.6694009656793579  0.5831425029598373  0.3987341195301123
  0.6671898434130351  0.7067124809044868  0.4000176709038330
  0.6648645531140239  0.8301817176497498  0.4001471389185777
  0.6655750933849585  0.9561469205339644  0.3999863051818693
  0.7907668731137970  0.0818493463936857  0.4000163950988739
  0.7911000188661752  0.2072028300771666  0.4001076433730348
  0.7917889779664965  0.3326836424996097  0.4000844824171210
  0.7927272638835480  0.4582093712595939  0.3997267101786678
  0.7934006979526845  0.5835535316837993  0.3992243628668691
  0.7931211555361620  0.7086030179299887  0.3995142496896934
  0.7915588509774774  0.8325674780964099  0.3997809306215284
  0.7905284726418169  0.9566101618168775  0.3999172646143012
  0.9159153607249434  0.0824993449971417  0.3999841168689811
  0.9157310906600787  0.2073719216868491  0.3999999879003158
  0.9159186398612451  0.3326829503771626  0.4000765697913450
  0.9165893749348647  0.4581717534184239  0.4002452568271803
  0.9174107733513422  0.5837163762581616  0.4001062030423458
  0.9177060324335886  0.7090330100743956  0.3999384570457846
  0.9174866635564662  0.8340313767134934  0.3999657019036817
  0.9166890273454784  0.9583048317679411  0.3999920169693532
  0.0844669348841970  0.0433908421641359  0.3999576964394125
  0.0834207352970852  0.1674149293598386  0.3998000930031805
  0.0818705296868657  0.2913757025272863  0.3995203342793727
  0.0815890251497682  0.4164265340601205  0.3992095637138006
  0.0822708581030442  0.5418031832247661  0.3997145857082908
  0.0832357831005063  0.6673178285149880  0.4000758793892134
  0.0838973706308884  0.7927966351891781  0.4001075121077431
  0.0842537496755932  0.9181542323100093  0.4000282734044990
  0.2094273107467743  0.0438521974072947  0.3999854575142091
  0.2101145402075042  0.1698325985528130  0.4001465929936611
  0.2077865291606398  0.2932755408596177  0.4000319825807715
  0.2056256852207898  0.4168637302605182  0.3987209922072297
  0.2058693385285813  0.5416213160231492  0.3984572379152007
  0.2073891491473862  0.6671740019879557  0.3995585099359583
  0.2083603813484096  0.7926293618407406  0.3999996410318599
  0.2089172071782593  0.9181500506685745  0.4000161283607178
  0.3339165825413690  0.0433876440531829  0.3999179767417272
  0.3346824898438627  0.1698180194952825  0.4001471507382958
  0.3365991884411392  0.2982106854308106  0.4016054984037945
  0.3311695077922288  0.5431340984734961  0.4005145826962764
  0.3314677212733645  0.6664935229003784  0.3993801842898858
  0.3327437701568566  0.7918849148167019  0.3997906534108372
  0.3334154308937611  0.9174994928235852  0.3999841243780113
  0.4583843364586684  0.0416944229498582  0.3999920080404855
  0.4589908729946350  0.1674321248412881  0.3997809208113874
  0.4604777594256786  0.2932889888695670  0.4000167784998258
  0.4531334223693647  0.6614799204111933  0.4017154734281108
  0.4570769682408342  0.7901003777234918  0.3999102747513524
  0.4578806027929961  0.9159866703355913  0.3999198416083292
  0.5828664839131203  0.0402768268457880  0.4000117846451698
  0.5834577860556679  0.1659704040633129  0.3999663542049235
  0.5845189490094608  0.2913984653531458  0.3995141306361714
  0.5862593153866242  0.4168590207529700  0.3987332363764391
  0.5869781360807859  0.5431204134115144  0.4005265188992316
  0.5833115233153084  0.6614542919510470  0.4017103726280603
  0.5806466004843713  0.7863230479647124  0.4005660476006153
  0.5822195400063717  0.9140472332339974  0.3999847240431503
  0.7074062372138188  0.0397938408274420  0.3999982294650130
  0.7079213163350658  0.1654201356681503  0.4000772283755816
  0.7086743797194340  0.2909679126980562  0.3999381419662506
  0.7098479016515726  0.4164470755104249  0.3992242088000144
  0.7107532043974634  0.5416063234340431  0.3984843165434876
  0.7100243502341216  0.6664911694534653  0.3993623563263484
  0.7079856431112103  0.7900985998935455  0.3998995045924988
  0.7068126750649278  0.9140641907686812  0.3999654848190187
  0.8324355908267943  0.0402895391388658  0.3999746719260630
  0.8324986392474585  0.1654220683666128  0.4000619479238781
  0.8329136094976087  0.2908038753141441  0.4001452800399378
  0.8336940294713314  0.4162832378892766  0.4001059249229657
  0.8345178499797796  0.5417899504238308  0.3997272568514816
  0.8347811176769387  0.6671643907195741  0.3995646669153615
  0.8341382549474934  0.7918828154387796  0.3997892185694751
  0.8331088232907456  0.9159867276499545  0.3998996457269997
  0.9583232810771030  0.0416867433207828  0.3999868096433781
  0.9575066992813797  0.1659605723583874  0.3999485171441887
  0.9572907709188522  0.2909499493608750  0.3999211033202619
  0.9575749127899108  0.4162778654931492  0.4000997889605042
  0.9584172018106968  0.5418282014909511  0.4002452240778576
  0.9591052674939369  0.6673155085795498  0.4000852129405957
  0.9592675322853029  0.7926233025921886  0.4000168302040888
  0.9591080202499680  0.9175022065078887  0.4000190043512726
  0.4096775510128202  0.5822031191389979  0.4034654247835938
  0.5475245204646265  0.5821829071849689  0.4034628550439814
  0.3274744560314166  0.4177979157074052  0.4034655513907998
  0.4653416554577572  0.4178169579579130  0.4034637956192884
 
  0.00000000E+00  0.00000000E+00  0.00000000E+00
  0.00000000E+00  0.00000000E+00  0.00000000E+00
  0.00000000E+00  0.00000000E+00  0.00000000E+00
  0.00000000E+00  0.00000000E+00  0.00000000E+00
  0.00000000E+00  0.00000000E+00  0.00000000E+00
  0.00000000E+00  0.00000000E+00  0.00000000E+00
  0.00000000E+00  0.00000000E+00  0.00000000E+00
  0.00000000E+00  0.00000000E+00  0.00000000E+00
  0.00000000E+00  0.00000000E+00  0.00000000E+00
  0.00000000E+00  0.00000000E+00  0.00000000E+00
  0.00000000E+00  0.00000000E+00  0.00000000E+00
  0.00000000E+00  0.00000000E+00  0.00000000E+00
  0.00000000E+00  0.00000000E+00  0.00000000E+00
  0.00000000E+00  0.00000000E+00  0.00000000E+00
  0.00000000E+00  0.00000000E+00  0.00000000E+00
  0.00000000E+00  0.00000000E+00  0.00000000E+00
  0.00000000E+00  0.00000000E+00  0.00000000E+00
  0.00000000E+00  0.00000000E+00  0.00000000E+00
  0.00000000E+00  0.00000000E+00  0.00000000E+00
  0.00000000E+00  0.00000000E+00  0.00000000E+00
  0.00000000E+00  0.00000000E+00  0.00000000E+00
  0.00000000E+00  0.00000000E+00  0.00000000E+00
  0.00000000E+00  0.00000000E+00  0.00000000E+00
  0.00000000E+00  0.00000000E+00  0.00000000E+00
  0.00000000E+00  0.00000000E+00  0.00000000E+00
  0.00000000E+00  0.00000000E+00  0.00000000E+00
  0.00000000E+00  0.00000000E+00  0.00000000E+00
  0.00000000E+00  0.00000000E+00  0.00000000E+00
  0.00000000E+00  0.00000000E+00  0.00000000E+00
  0.00000000E+00  0.00000000E+00  0.00000000E+00
  0.00000000E+00  0.00000000E+00  0.00000000E+00
  0.00000000E+00  0.00000000E+00  0.00000000E+00
  0.00000000E+00  0.00000000E+00  0.00000000E+00
  0.00000000E+00  0.00000000E+00  0.00000000E+00
  0.00000000E+00  0.00000000E+00  0.00000000E+00
  0.00000000E+00  0.00000000E+00  0.00000000E+00
  0.00000000E+00  0.00000000E+00  0.00000000E+00
  0.00000000E+00  0.00000000E+00  0.00000000E+00
  0.00000000E+00  0.00000000E+00  0.00000000E+00
  0.00000000E+00  0.00000000E+00  0.00000000E+00
  0.00000000E+00  0.00000000E+00  0.00000000E+00
  0.00000000E+00  0.00000000E+00  0.00000000E+00
  0.00000000E+00  0.00000000E+00  0.00000000E+00
  0.00000000E+00  0.00000000E+00  0.00000000E+00
  0.00000000E+00  0.00000000E+00  0.00000000E+00
  0.00000000E+00  0.00000000E+00  0.00000000E+00
  0.00000000E+00  0.00000000E+00  0.00000000E+00
  0.00000000E+00  0.00000000E+00  0.00000000E+00
  0.00000000E+00  0.00000000E+00  0.00000000E+00
  0.00000000E+00  0.00000000E+00  0.00000000E+00
  0.00000000E+00  0.00000000E+00  0.00000000E+00
  0.00000000E+00  0.00000000E+00  0.00000000E+00
  0.00000000E+00  0.00000000E+00  0.00000000E+00
  0.00000000E+00  0.00000000E+00  0.00000000E+00
  0.00000000E+00  0.00000000E+00  0.00000000E+00
  0.00000000E+00  0.00000000E+00  0.00000000E+00
  0.00000000E+00  0.00000000E+00  0.00000000E+00
  0.00000000E+00  0.00000000E+00  0.00000000E+00
  0.00000000E+00  0.00000000E+00  0.00000000E+00
  0.00000000E+00  0.00000000E+00  0.00000000E+00
  0.00000000E+00  0.00000000E+00  0.00000000E+00
  0.00000000E+00  0.00000000E+00  0.00000000E+00
  0.00000000E+00  0.00000000E+00  0.00000000E+00
  0.00000000E+00  0.00000000E+00  0.00000000E+00
  0.00000000E+00  0.00000000E+00  0.00000000E+00
  0.00000000E+00  0.00000000E+00  0.00000000E+00
  0.00000000E+00  0.00000000E+00  0.00000000E+00
  0.00000000E+00  0.00000000E+00  0.00000000E+00
  0.00000000E+00  0.00000000E+00  0.00000000E+00
  0.00000000E+00  0.00000000E+00  0.00000000E+00
  0.00000000E+00  0.00000000E+00  0.00000000E+00
  0.00000000E+00  0.00000000E+00  0.00000000E+00
  0.00000000E+00  0.00000000E+00  0.00000000E+00
  0.00000000E+00  0.00000000E+00  0.00000000E+00
  0.00000000E+00  0.00000000E+00  0.00000000E+00
  0.00000000E+00  0.00000000E+00  0.00000000E+00
  0.00000000E+00  0.00000000E+00  0.00000000E+00
  0.00000000E+00  0.00000000E+00  0.00000000E+00
  0.00000000E+00  0.00000000E+00  0.00000000E+00
  0.00000000E+00  0.00000000E+00  0.00000000E+00
  0.00000000E+00  0.00000000E+00  0.00000000E+00
  0.00000000E+00  0.00000000E+00  0.00000000E+00
  0.00000000E+00  0.00000000E+00  0.00000000E+00
  0.00000000E+00  0.00000000E+00  0.00000000E+00
  0.00000000E+00  0.00000000E+00  0.00000000E+00
  0.00000000E+00  0.00000000E+00  0.00000000E+00
  0.00000000E+00  0.00000000E+00  0.00000000E+00
  0.00000000E+00  0.00000000E+00  0.00000000E+00
  0.00000000E+00  0.00000000E+00  0.00000000E+00
  0.00000000E+00  0.00000000E+00  0.00000000E+00
  0.00000000E+00  0.00000000E+00  0.00000000E+00
  0.00000000E+00  0.00000000E+00  0.00000000E+00
  0.00000000E+00  0.00000000E+00  0.00000000E+00
  0.00000000E+00  0.00000000E+00  0.00000000E+00
  0.00000000E+00  0.00000000E+00  0.00000000E+00
  0.00000000E+00  0.00000000E+00  0.00000000E+00
  0.00000000E+00  0.00000000E+00  0.00000000E+00
  0.00000000E+00  0.00000000E+00  0.00000000E+00
  0.00000000E+00  0.00000000E+00  0.00000000E+00
  0.00000000E+00  0.00000000E+00  0.00000000E+00
  0.00000000E+00  0.00000000E+00  0.00000000E+00
  0.00000000E+00  0.00000000E+00  0.00000000E+00
  0.00000000E+00  0.00000000E+00  0.00000000E+00
  0.00000000E+00  0.00000000E+00  0.00000000E+00
  0.00000000E+00  0.00000000E+00  0.00000000E+00
  0.00000000E+00  0.00000000E+00  0.00000000E+00
  0.00000000E+00  0.00000000E+00  0.00000000E+00
  0.00000000E+00  0.00000000E+00  0.00000000E+00
  0.00000000E+00  0.00000000E+00  0.00000000E+00
  0.00000000E+00  0.00000000E+00  0.00000000E+00
  0.00000000E+00  0.00000000E+00  0.00000000E+00
  0.00000000E+00  0.00000000E+00  0.00000000E+00
  0.00000000E+00  0.00000000E+00  0.00000000E+00
  0.00000000E+00  0.00000000E+00  0.00000000E+00
  0.00000000E+00  0.00000000E+00  0.00000000E+00
  0.00000000E+00  0.00000000E+00  0.00000000E+00
  0.00000000E+00  0.00000000E+00  0.00000000E+00
  0.00000000E+00  0.00000000E+00  0.00000000E+00
  0.00000000E+00  0.00000000E+00  0.00000000E+00
  0.00000000E+00  0.00000000E+00  0.00000000E+00
  0.00000000E+00  0.00000000E+00  0.00000000E+00
  0.00000000E+00  0.00000000E+00  0.00000000E+00
  0.00000000E+00  0.00000000E+00  0.00000000E+00
  0.00000000E+00  0.00000000E+00  0.00000000E+00
  0.00000000E+00  0.00000000E+00  0.00000000E+00
  0.00000000E+00  0.00000000E+00  0.00000000E+00
  0.00000000E+00  0.00000000E+00  0.00000000E+00
