Cd1 C126                                
   1.00000000000000     
    19.8760230432188543   -0.0000000900471998   -0.0002009590549590
    -9.9380115199655776   17.0887716881891905    0.0001582277868857
    -0.0003277574866056    0.0000995062247969   29.6252318554957306
   Cd   C 
     1   126
Direct
  0.4375095130255262  0.4999997313609702  0.4127146374730585
  0.0415406067427209  0.0836545168857088  0.3995234275303950
  0.0401258422101058  0.2075211410165613  0.3993839447810943
  0.0394654505226900  0.3323300348564007  0.3988674486020263
  0.0396986357658832  0.4581886556337499  0.3984546123869946
  0.0410467625243892  0.5839116354935018  0.3986930633425789
  0.0422179797324926  0.7094042084592086  0.3991739631348664
  0.0426645720898095  0.8347233705182248  0.3994488832654133
  0.0425572817659946  0.9595887287717640  0.3995021600549594
  0.1675431117931958  0.0851457421981071  0.4003242689912748
  0.1660613863717034  0.2088613569264972  0.4010088285422327
  0.1637090367751943  0.3325788623586416  0.4009323611759352
  0.1623138351673862  0.4580859813091175  0.3994572529605397
  0.1641759680053098  0.5838622281281756  0.3986199397989563
  0.1661874995487691  0.7094513128121909  0.3989591855297235
  0.1670580196581619  0.8347404663042737  0.3994852167544244
  0.1675389992615837  0.9600632615803324  0.3998609133709317
  0.2925881546484595  0.0851525488386004  0.4003111247913890
  0.2932072687490473  0.2114318002400188  0.4024723413665627
  0.2903055660077273  0.3351298422779430  0.4055914326185555
  0.2837649342894380  0.4574123250657480  0.4053546165782950
  0.2866960329499094  0.5843397190594095  0.4014341377260441
  0.2901638583576120  0.7093322206167353  0.3994409966282716
  0.2913735561702175  0.8343103887232335  0.3992182539134822
  0.2920386404416558  0.9595930360522109  0.3995337929806040
  0.4171029211950457  0.0836545224655997  0.3995144570475463
  0.4177904234850319  0.2088546969523577  0.4010074323822073
  0.4198196297409005  0.3351168636403654  0.4056059329515821
  0.4071281526762303  0.5838115248031545  0.4084890602541350
  0.4145771976003970  0.7079777051890508  0.4023493260085543
  0.4158698780255652  0.8331918497963734  0.3998050186518087
  0.4165127875710029  0.9583823869175869  0.3992853837069464
  0.5415846423385826  0.0823657521637734  0.3992533307072093
  0.5423928608320564  0.2075342544021108  0.3993329072440682
  0.5438691529446631  0.3325869041287624  0.4008851087324795
  0.5486518660804504  0.4574116145726522  0.4054280538360095
  0.5517019613166426  0.5838386151380334  0.4085693354523972
  0.5401885116343421  0.7053939991608200  0.4050260133282379
  0.5404175258509347  0.8313899788574616  0.4012746517227749
  0.5410745134986849  0.9570240093129406  0.3997362230098592
  0.6660697399536835  0.0817924668929145  0.3996488846209010
  0.6667385551978849  0.2071105086956143  0.3991652897151249
  0.6678762234284622  0.3323430777508515  0.3987538927006913
  0.6707730973771706  0.4580831549000668  0.3993993244797430
  0.6726405362586009  0.5843278414004734  0.4014261823849532
  0.6684137590419515  0.7079759119166921  0.4023326204980706
  0.6659407966762686  0.8313766623169062  0.4012738998147133
  0.6657702142123927  0.9565537247337235  0.4001960410088772
  0.7907360559209160  0.0817840686779724  0.3996719351961907
  0.7909652826952921  0.2069297149379368  0.3994373793140350
  0.7918545168696867  0.3324373437778582  0.3989100392592900
  0.7934885442847206  0.4581826256643924  0.3983372971744316
  0.7946917463543783  0.5838477773382964  0.3985128148260816
  0.7941569095701013  0.7093115221963900  0.3993550054585709
  0.7923090948308912  0.8331837184305412  0.3997922985499945
  0.7909278185014729  0.9570268834711487  0.3997374234139747
  0.9157887725661130  0.0823666782307581  0.3993109617055111
  0.9153544442557190  0.2070937885505277  0.3992265084654484
  0.9156165277769431  0.3324464348352180  0.3989577598175710
  0.9165558803541324  0.4580925663558546  0.3986708656780392
  0.9178722931393553  0.5839167192588827  0.3986207729403484
  0.9182705655140986  0.7094395378773906  0.3988733695981476
  0.9179177246128005  0.8342992647604209  0.3991540681807390
  0.9168626876673727  0.9583771756148941  0.3992622997911584
  0.0840496232953541  0.0429758043218967  0.3997349386416948
  0.0826781173680121  0.1668082178512570  0.3998040343125882
  0.0808312324276353  0.2906681254674474  0.3994415692941075
  0.0803142798285885  0.4161385832526622  0.3986209351154709
  0.0815107055747201  0.5418107397402242  0.3984537824762195
  0.0831708469662313  0.6675548062083881  0.3989580743045468
  0.0840350442703951  0.7930702457868024  0.3994375823980114
  0.0842771490665592  0.9182068932824160  0.3996487699929836
  0.2092155144719834  0.0434457206094635  0.4001948802233214
  0.2090270476858392  0.1686100240878669  0.4012743749335319
  0.2065994240755842  0.2920224721943479  0.4023495011330843
  0.2023551814385817  0.4156594576400190  0.4014340446277865
  0.2042277714595031  0.5419134989304856  0.3994571076700325
  0.2071349940817282  0.6676708108918572  0.3988663878200068
  0.2082614007847396  0.7929060971648706  0.3992264867583930
  0.2089531449064772  0.9182158958766545  0.3996729623372480
  0.3339014287765906  0.0429733858289354  0.3997369849802959
  0.3345657008794684  0.1686229001893787  0.4012728759246408
  0.3347945931301631  0.2946062154661619  0.4050260542788479
  0.3233170455642675  0.4161890304339484  0.4084900825889515
  0.3263535168609426  0.5425889404401895  0.4053544724774203
  0.3311305534405501  0.6674218761240563  0.4009321898795224
  0.3326045670319657  0.7924790494235272  0.3993845278699683
  0.3334223020048774  0.9176328848242714  0.3993113173658271
  0.4584853158478435  0.0416230855672919  0.3992642643632158
  0.4591255440431330  0.1668152789731149  0.3997924230586929
  0.4604387851675361  0.2920239939395008  0.4023314225807421
  0.4678635942746965  0.4161610272549688  0.4085691834930118
  0.4551745718243638  0.6648699262634702  0.4055912818334154
  0.4572000231591443  0.7911388002983104  0.4010089554030332
  0.4578862016658972  0.9163454381165469  0.3995245056142843
  0.5829690011456503  0.0404110831202860  0.3995032329031664
  0.5836165440235841  0.1656989113365180  0.3991554865411932
  0.5848466556168623  0.2906893953762219  0.3993551271264988
  0.5883135038324424  0.4156718245162296  0.4014266065020521
  0.5912401453860255  0.5425878355657936  0.4054278359585682
  0.5847024705647611  0.6648831505196622  0.4056066857178647
  0.5817770322580738  0.7885697511055831  0.4024724433978366
  0.5823964732634047  0.9148543365623509  0.4003257841520620
  0.7074769001290286  0.0399376566518036  0.3998608359671461
  0.7079421573267677  0.1652763297650043  0.3994489935628596
  0.7088319978986926  0.2905603749134094  0.3988743256403637
  0.7108435775093522  0.4161515818818303  0.3985135384129916
  0.7126893300718192  0.5419162036082931  0.3993989124505729
  0.7112801819046830  0.6674116605192485  0.4008857387112318
  0.7089370545443223  0.7911457407582139  0.4010084301775398
  0.7074368137418044  0.9148481698797253  0.4003122666850862
  0.8324456548491946  0.0404064055933320  0.3995338370379365
  0.8323186025090135  0.1652598215219317  0.3994843859439726
  0.8328136043203322  0.2905951156672991  0.3991739236444453
  0.8339557608580394  0.4160832042957352  0.3986207302762178
  0.8353053181072183  0.5418177203105011  0.3983371111080342
  0.8355315849060466  0.6676564447790156  0.3987528662129708
  0.8348572530715018  0.7924649540219397  0.3993319508484436
  0.8334487758926182  0.9163461436817494  0.3995137099190854
  0.9581300470916576  0.0416167440653142  0.3992843526034175
  0.9570636370406022  0.1656892590155092  0.3992180902668931
  0.9567360641814578  0.2905478882721904  0.3989599614001292
  0.9571359280288902  0.4160876813279119  0.3986938482971419
  0.9584641884577081  0.5419077931474302  0.3986707370246934
  0.9594166082839954  0.6675628592230151  0.3989098797530957
  0.9596281323859184  0.7928888788462738  0.3991641904789305
  0.9592184549992558  0.9176338921262588  0.3992512335996374
 
  0.00000000E+00  0.00000000E+00  0.00000000E+00
  0.00000000E+00  0.00000000E+00  0.00000000E+00
  0.00000000E+00  0.00000000E+00  0.00000000E+00
  0.00000000E+00  0.00000000E+00  0.00000000E+00
  0.00000000E+00  0.00000000E+00  0.00000000E+00
  0.00000000E+00  0.00000000E+00  0.00000000E+00
  0.00000000E+00  0.00000000E+00  0.00000000E+00
  0.00000000E+00  0.00000000E+00  0.00000000E+00
  0.00000000E+00  0.00000000E+00  0.00000000E+00
  0.00000000E+00  0.00000000E+00  0.00000000E+00
  0.00000000E+00  0.00000000E+00  0.00000000E+00
  0.00000000E+00  0.00000000E+00  0.00000000E+00
  0.00000000E+00  0.00000000E+00  0.00000000E+00
  0.00000000E+00  0.00000000E+00  0.00000000E+00
  0.00000000E+00  0.00000000E+00  0.00000000E+00
  0.00000000E+00  0.00000000E+00  0.00000000E+00
  0.00000000E+00  0.00000000E+00  0.00000000E+00
  0.00000000E+00  0.00000000E+00  0.00000000E+00
  0.00000000E+00  0.00000000E+00  0.00000000E+00
  0.00000000E+00  0.00000000E+00  0.00000000E+00
  0.00000000E+00  0.00000000E+00  0.00000000E+00
  0.00000000E+00  0.00000000E+00  0.00000000E+00
  0.00000000E+00  0.00000000E+00  0.00000000E+00
  0.00000000E+00  0.00000000E+00  0.00000000E+00
  0.00000000E+00  0.00000000E+00  0.00000000E+00
  0.00000000E+00  0.00000000E+00  0.00000000E+00
  0.00000000E+00  0.00000000E+00  0.00000000E+00
  0.00000000E+00  0.00000000E+00  0.00000000E+00
  0.00000000E+00  0.00000000E+00  0.00000000E+00
  0.00000000E+00  0.00000000E+00  0.00000000E+00
  0.00000000E+00  0.00000000E+00  0.00000000E+00
  0.00000000E+00  0.00000000E+00  0.00000000E+00
  0.00000000E+00  0.00000000E+00  0.00000000E+00
  0.00000000E+00  0.00000000E+00  0.00000000E+00
  0.00000000E+00  0.00000000E+00  0.00000000E+00
  0.00000000E+00  0.00000000E+00  0.00000000E+00
  0.00000000E+00  0.00000000E+00  0.00000000E+00
  0.00000000E+00  0.00000000E+00  0.00000000E+00
  0.00000000E+00  0.00000000E+00  0.00000000E+00
  0.00000000E+00  0.00000000E+00  0.00000000E+00
  0.00000000E+00  0.00000000E+00  0.00000000E+00
  0.00000000E+00  0.00000000E+00  0.00000000E+00
  0.00000000E+00  0.00000000E+00  0.00000000E+00
  0.00000000E+00  0.00000000E+00  0.00000000E+00
  0.00000000E+00  0.00000000E+00  0.00000000E+00
  0.00000000E+00  0.00000000E+00  0.00000000E+00
  0.00000000E+00  0.00000000E+00  0.00000000E+00
  0.00000000E+00  0.00000000E+00  0.00000000E+00
  0.00000000E+00  0.00000000E+00  0.00000000E+00
  0.00000000E+00  0.00000000E+00  0.00000000E+00
  0.00000000E+00  0.00000000E+00  0.00000000E+00
  0.00000000E+00  0.00000000E+00  0.00000000E+00
  0.00000000E+00  0.00000000E+00  0.00000000E+00
  0.00000000E+00  0.00000000E+00  0.00000000E+00
  0.00000000E+00  0.00000000E+00  0.00000000E+00
  0.00000000E+00  0.00000000E+00  0.00000000E+00
  0.00000000E+00  0.00000000E+00  0.00000000E+00
  0.00000000E+00  0.00000000E+00  0.00000000E+00
  0.00000000E+00  0.00000000E+00  0.00000000E+00
  0.00000000E+00  0.00000000E+00  0.00000000E+00
  0.00000000E+00  0.00000000E+00  0.00000000E+00
  0.00000000E+00  0.00000000E+00  0.00000000E+00
  0.00000000E+00  0.00000000E+00  0.00000000E+00
  0.00000000E+00  0.00000000E+00  0.00000000E+00
  0.00000000E+00  0.00000000E+00  0.00000000E+00
  0.00000000E+00  0.00000000E+00  0.00000000E+00
  0.00000000E+00  0.00000000E+00  0.00000000E+00
  0.00000000E+00  0.00000000E+00  0.00000000E+00
  0.00000000E+00  0.00000000E+00  0.00000000E+00
  0.00000000E+00  0.00000000E+00  0.00000000E+00
  0.00000000E+00  0.00000000E+00  0.00000000E+00
  0.00000000E+00  0.00000000E+00  0.00000000E+00
  0.00000000E+00  0.00000000E+00  0.00000000E+00
  0.00000000E+00  0.00000000E+00  0.00000000E+00
  0.00000000E+00  0.00000000E+00  0.00000000E+00
  0.00000000E+00  0.00000000E+00  0.00000000E+00
  0.00000000E+00  0.00000000E+00  0.00000000E+00
  0.00000000E+00  0.00000000E+00  0.00000000E+00
  0.00000000E+00  0.00000000E+00  0.00000000E+00
  0.00000000E+00  0.00000000E+00  0.00000000E+00
  0.00000000E+00  0.00000000E+00  0.00000000E+00
  0.00000000E+00  0.00000000E+00  0.00000000E+00
  0.00000000E+00  0.00000000E+00  0.00000000E+00
  0.00000000E+00  0.00000000E+00  0.00000000E+00
  0.00000000E+00  0.00000000E+00  0.00000000E+00
  0.00000000E+00  0.00000000E+00  0.00000000E+00
  0.00000000E+00  0.00000000E+00  0.00000000E+00
  0.00000000E+00  0.00000000E+00  0.00000000E+00
  0.00000000E+00  0.00000000E+00  0.00000000E+00
  0.00000000E+00  0.00000000E+00  0.00000000E+00
  0.00000000E+00  0.00000000E+00  0.00000000E+00
  0.00000000E+00  0.00000000E+00  0.00000000E+00
  0.00000000E+00  0.00000000E+00  0.00000000E+00
  0.00000000E+00  0.00000000E+00  0.00000000E+00
  0.00000000E+00  0.00000000E+00  0.00000000E+00
  0.00000000E+00  0.00000000E+00  0.00000000E+00
  0.00000000E+00  0.00000000E+00  0.00000000E+00
  0.00000000E+00  0.00000000E+00  0.00000000E+00
  0.00000000E+00  0.00000000E+00  0.00000000E+00
  0.00000000E+00  0.00000000E+00  0.00000000E+00
  0.00000000E+00  0.00000000E+00  0.00000000E+00
  0.00000000E+00  0.00000000E+00  0.00000000E+00
  0.00000000E+00  0.00000000E+00  0.00000000E+00
  0.00000000E+00  0.00000000E+00  0.00000000E+00
  0.00000000E+00  0.00000000E+00  0.00000000E+00
  0.00000000E+00  0.00000000E+00  0.00000000E+00
  0.00000000E+00  0.00000000E+00  0.00000000E+00
  0.00000000E+00  0.00000000E+00  0.00000000E+00
  0.00000000E+00  0.00000000E+00  0.00000000E+00
  0.00000000E+00  0.00000000E+00  0.00000000E+00
  0.00000000E+00  0.00000000E+00  0.00000000E+00
  0.00000000E+00  0.00000000E+00  0.00000000E+00
  0.00000000E+00  0.00000000E+00  0.00000000E+00
  0.00000000E+00  0.00000000E+00  0.00000000E+00
  0.00000000E+00  0.00000000E+00  0.00000000E+00
  0.00000000E+00  0.00000000E+00  0.00000000E+00
  0.00000000E+00  0.00000000E+00  0.00000000E+00
  0.00000000E+00  0.00000000E+00  0.00000000E+00
  0.00000000E+00  0.00000000E+00  0.00000000E+00
  0.00000000E+00  0.00000000E+00  0.00000000E+00
  0.00000000E+00  0.00000000E+00  0.00000000E+00
  0.00000000E+00  0.00000000E+00  0.00000000E+00
  0.00000000E+00  0.00000000E+00  0.00000000E+00
  0.00000000E+00  0.00000000E+00  0.00000000E+00
  0.00000000E+00  0.00000000E+00  0.00000000E+00
  0.00000000E+00  0.00000000E+00  0.00000000E+00
  0.00000000E+00  0.00000000E+00  0.00000000E+00
