Hf1 C122 N4 O1                          
   1.00000000000000     
    19.8092482410797679   -0.0002585924978760   -0.0667102775139196
    -9.9048495246363046   17.0429318144494673   -0.0829640958006220
    -0.1003294151217987   -0.2033373508029337   29.8069970855928510
   Hf   C    N    O 
     1   122     4     1
Direct
  0.4389581401609730  0.5011779375673785  0.4371770865379534
  0.0420329624211850  0.0840257119956163  0.3995658781362797
  0.0412011317935046  0.2082871024892107  0.3994561062790384
  0.0404748654107748  0.3330837168256288  0.3992714590686329
  0.0405822784658051  0.4583578533358594  0.3992360718262433
  0.0414305268930484  0.5838618956536803  0.3998016503903188
  0.0422002576444850  0.7092729766291778  0.4000637835321023
  0.0424401916794002  0.8344372198848093  0.4000097517547060
  0.0424981982796747  0.9595521308268683  0.3997885680237845
  0.1680862047418842  0.0855351794775076  0.3999821109255394
  0.1672675436056136  0.2098829803510507  0.4001066002566465
  0.1652641875041439  0.3336959770893835  0.4000887470756981
  0.1643492543657380  0.4585693196882976  0.3990438906417589
  0.1652774149938097  0.5837776188736157  0.3988809468701747
  0.1664823356568085  0.7090598498551967  0.3996474042185702
  0.1671161882057491  0.8344509410536527  0.3999560623102769
  0.1675128754771591  0.9598832233502695  0.3998515059194729
  0.2925883079366189  0.0855350473336367  0.3999905489994697
  0.2939405232762518  0.2127526575613067  0.4014606543225399
  0.2918102360661032  0.3376916310054823  0.4032160271019107
  0.2878446876415084  0.4578874820862115  0.4022603264968506
  0.2887182177078522  0.5831331958658169  0.3997001416471202
  0.2907569108114919  0.7085700205809894  0.3991982260839962
  0.2917608396971914  0.8340385726179937  0.3996806202042676
  0.2922213153054232  0.9595696168508014  0.3997727770985999
  0.4171608969029580  0.0840345400292656  0.3995982730932754
  0.4177014199239279  0.2098724634562182  0.3999491187088981
  0.4210211635905916  0.3376806059234310  0.4026665675463308
  0.4149771610678060  0.7069218621914712  0.3998290162104535
  0.4162924233686088  0.8326782888643972  0.3993640100875612
  0.4168504567958837  0.9584267061171249  0.3997270704872960
  0.5417671303969730  0.0827825509115372  0.3997467739567089
  0.5422043848482223  0.2082957515312837  0.3994950385749870
  0.5435155910511006  0.3336666262613406  0.3995376742275297
  0.5450856956375617  0.4578438423500559  0.4010012769456111
  0.5389428148674045  0.7027684298492891  0.4020665282845378
  0.5407950850813555  0.8307904262810261  0.3999508977002322
  0.5413626675608569  0.9570264994206387  0.3998125662015449
  0.6663840311653570  0.0822889061642307  0.4000189467260857
  0.6667711523018212  0.2076786905776516  0.3998172966767057
  0.6677058221177748  0.3331005423911430  0.3993532013331710
  0.6692660147801617  0.4585565591504244  0.3985912711902806
  0.6694792805963610  0.5831207255864689  0.3988534157851215
  0.6670184676439875  0.7069410400179973  0.3994138782532774
  0.6651012366354414  0.8308180121969421  0.3998940809659455
  0.6659233863664697  0.9566920217708560  0.4000195135661184
  0.7910758934314904  0.0822708848850152  0.4000127930031097
  0.7913785157058094  0.2076154898773342  0.3999543930464841
  0.7919277912307805  0.3329498348738510  0.3999803394170115
  0.7928286895046643  0.4583577274980721  0.3994770269906691
  0.7935408255853981  0.5837513048618923  0.3988990316261919
  0.7928870906562895  0.7085543168789004  0.3990958787436403
  0.7915068887404274  0.8326796548912628  0.3993891482244191
  0.7908311525098678  0.9570256213721208  0.3998380112441839
  0.9162027730477914  0.0827818934895704  0.3996934612113310
  0.9160264471161702  0.2076744258038944  0.3996932503108762
  0.9161515408739183  0.3329629907774424  0.3998325450668059
  0.9167618514231726  0.4584505075590574  0.4000240664913510
  0.9175026522529265  0.5838630409300573  0.3999678921837811
  0.9176503781748205  0.7090366161562399  0.3997917481997474
  0.9173914343306563  0.8340281911417873  0.3998112818848740
  0.9167596978012552  0.9584239649957633  0.3998103967706393
  0.0844205424220751  0.0432039866094054  0.3996791998499111
  0.0837114871094246  0.1675359664313621  0.3995616253538653
  0.0823125107042249  0.2916578671574793  0.3994738005561338
  0.0816000526622516  0.4164440135367334  0.3989773427510869
  0.0823661662739502  0.5419219398741701  0.3992373157177947
  0.0833630365287832  0.6673778889031893  0.3998936565377434
  0.0839094830161045  0.7926996672400577  0.4000133513545122
  0.0841965258817037  0.9179772126234257  0.3998857562047015
  0.2093382507877604  0.0435202878815602  0.3999536311452968
  0.2101283045420088  0.1694277861898887  0.4005623487336864
  0.2081884297768695  0.2933006081890776  0.4006865596014950
  0.2056990609412202  0.4170989247673944  0.4000816568630818
  0.2058905635124539  0.5416347853385840  0.3989090712952409
  0.2075091476464373  0.6671520129557336  0.3991852106134803
  0.2085234387313148  0.7926174014307193  0.3998283724185770
  0.2089478336859837  0.9179854882128328  0.3998849291915105
  0.3339472562547570  0.0432126809151928  0.3997054678573744
  0.3344049664949839  0.1694195924733726  0.4005173386472768
  0.3363812332184014  0.2975908474412152  0.4031219390048382
  0.3301601052344290  0.5424742974623460  0.4019947515535611
  0.3316578153603409  0.6665255446713994  0.3995030176155488
  0.3330372856467510  0.7919426338584972  0.3993765714018478
  0.3335934290344098  0.9174861248182725  0.3997495463959270
  0.4585286981265923  0.0418420374603246  0.3996901177542206
  0.4589572710058171  0.1675433104669577  0.3995534176656153
  0.4601994616303856  0.2932711596829994  0.4001897630236423
  0.4542896453624297  0.6626612317942754  0.4023096817461850
  0.4574729683411429  0.7903025530702859  0.3994480936184132
  0.4581491267071787  0.9161869649315786  0.3996452397376259
  0.5831215497852963  0.0406881884521593  0.3999017528156582
  0.5835460208276250  0.1662367460551012  0.3996593681044670
  0.5844626999130204  0.2916563796748377  0.3993533005425991
  0.5864624738920385  0.4170568340803766  0.3992138644290886
  0.5873622579346867  0.5424432442345699  0.4007720670051043
  0.5834792447208202  0.6626638852477271  0.4018141581522757
  0.5813110530374176  0.7875146038200805  0.4005595400863750
  0.5826590832643003  0.9146699942914364  0.3998906933783400
  0.7077651463205132  0.0403465357693523  0.4000721276806439
  0.7081850850471335  0.1658538300174551  0.3999622875605364
  0.7088026863469806  0.2912473485351860  0.3997557580682343
  0.7099219146169777  0.4164669716948737  0.3990202522219017
  0.7107978759480552  0.5416175216279548  0.3984626621253715
  0.7099364931427675  0.6665303259610442  0.3990060093426376
  0.7079252395516739  0.7903345778444689  0.3993340168058393
  0.7071638781638797  0.9146885691423581  0.3998814729777166
  0.8327630657597633  0.0406941666227369  0.3998926139491049
  0.8328039229053102  0.1658390621813097  0.3999120946068432
  0.8330956454130630  0.2910513358628800  0.3999996902466337
  0.8338240788461266  0.4164657484494841  0.3999599102510188
  0.8346137802439535  0.5419091771528645  0.3994616637333914
  0.8347095304354003  0.6671238857333133  0.3992300061763068
  0.8339992499747040  0.7919250226399097  0.3994299816757477
  0.8332064316810431  0.9162007790304069  0.3997337836598129
  0.9585040648945243  0.0418424260939111  0.3996750655270212
  0.9578305754881840  0.1662363916742139  0.3995400835243778
  0.9575553179564517  0.2912363580881051  0.3995668145261782
  0.9577239940232307  0.4164707926974455  0.3997693762304128
  0.9585059614093594  0.5419217205966390  0.4000441939324656
  0.9591259904682079  0.6673777860105965  0.4000061745510010
  0.9592045679287082  0.7926039182065737  0.3999437189692098
  0.9590528740264906  0.9174756063828123  0.3998445787184461
  0.4104967953155377  0.5828138749182091  0.4053514994574922
  0.5474319800015448  0.5827616287545820  0.4043714338392869
  0.3279032921241337  0.4177099875833021  0.4058807346725800
  0.4649545334810467  0.4177161357542064  0.4048533033608452
  0.4405830476416103  0.5024174068446527  0.4974045462260804
 
  0.00000000E+00  0.00000000E+00  0.00000000E+00
  0.00000000E+00  0.00000000E+00  0.00000000E+00
  0.00000000E+00  0.00000000E+00  0.00000000E+00
  0.00000000E+00  0.00000000E+00  0.00000000E+00
  0.00000000E+00  0.00000000E+00  0.00000000E+00
  0.00000000E+00  0.00000000E+00  0.00000000E+00
  0.00000000E+00  0.00000000E+00  0.00000000E+00
  0.00000000E+00  0.00000000E+00  0.00000000E+00
  0.00000000E+00  0.00000000E+00  0.00000000E+00
  0.00000000E+00  0.00000000E+00  0.00000000E+00
  0.00000000E+00  0.00000000E+00  0.00000000E+00
  0.00000000E+00  0.00000000E+00  0.00000000E+00
  0.00000000E+00  0.00000000E+00  0.00000000E+00
  0.00000000E+00  0.00000000E+00  0.00000000E+00
  0.00000000E+00  0.00000000E+00  0.00000000E+00
  0.00000000E+00  0.00000000E+00  0.00000000E+00
  0.00000000E+00  0.00000000E+00  0.00000000E+00
  0.00000000E+00  0.00000000E+00  0.00000000E+00
  0.00000000E+00  0.00000000E+00  0.00000000E+00
  0.00000000E+00  0.00000000E+00  0.00000000E+00
  0.00000000E+00  0.00000000E+00  0.00000000E+00
  0.00000000E+00  0.00000000E+00  0.00000000E+00
  0.00000000E+00  0.00000000E+00  0.00000000E+00
  0.00000000E+00  0.00000000E+00  0.00000000E+00
  0.00000000E+00  0.00000000E+00  0.00000000E+00
  0.00000000E+00  0.00000000E+00  0.00000000E+00
  0.00000000E+00  0.00000000E+00  0.00000000E+00
  0.00000000E+00  0.00000000E+00  0.00000000E+00
  0.00000000E+00  0.00000000E+00  0.00000000E+00
  0.00000000E+00  0.00000000E+00  0.00000000E+00
  0.00000000E+00  0.00000000E+00  0.00000000E+00
  0.00000000E+00  0.00000000E+00  0.00000000E+00
  0.00000000E+00  0.00000000E+00  0.00000000E+00
  0.00000000E+00  0.00000000E+00  0.00000000E+00
  0.00000000E+00  0.00000000E+00  0.00000000E+00
  0.00000000E+00  0.00000000E+00  0.00000000E+00
  0.00000000E+00  0.00000000E+00  0.00000000E+00
  0.00000000E+00  0.00000000E+00  0.00000000E+00
  0.00000000E+00  0.00000000E+00  0.00000000E+00
  0.00000000E+00  0.00000000E+00  0.00000000E+00
  0.00000000E+00  0.00000000E+00  0.00000000E+00
  0.00000000E+00  0.00000000E+00  0.00000000E+00
  0.00000000E+00  0.00000000E+00  0.00000000E+00
  0.00000000E+00  0.00000000E+00  0.00000000E+00
  0.00000000E+00  0.00000000E+00  0.00000000E+00
  0.00000000E+00  0.00000000E+00  0.00000000E+00
  0.00000000E+00  0.00000000E+00  0.00000000E+00
  0.00000000E+00  0.00000000E+00  0.00000000E+00
  0.00000000E+00  0.00000000E+00  0.00000000E+00
  0.00000000E+00  0.00000000E+00  0.00000000E+00
  0.00000000E+00  0.00000000E+00  0.00000000E+00
  0.00000000E+00  0.00000000E+00  0.00000000E+00
  0.00000000E+00  0.00000000E+00  0.00000000E+00
  0.00000000E+00  0.00000000E+00  0.00000000E+00
  0.00000000E+00  0.00000000E+00  0.00000000E+00
  0.00000000E+00  0.00000000E+00  0.00000000E+00
  0.00000000E+00  0.00000000E+00  0.00000000E+00
  0.00000000E+00  0.00000000E+00  0.00000000E+00
  0.00000000E+00  0.00000000E+00  0.00000000E+00
  0.00000000E+00  0.00000000E+00  0.00000000E+00
  0.00000000E+00  0.00000000E+00  0.00000000E+00
  0.00000000E+00  0.00000000E+00  0.00000000E+00
  0.00000000E+00  0.00000000E+00  0.00000000E+00
  0.00000000E+00  0.00000000E+00  0.00000000E+00
  0.00000000E+00  0.00000000E+00  0.00000000E+00
  0.00000000E+00  0.00000000E+00  0.00000000E+00
  0.00000000E+00  0.00000000E+00  0.00000000E+00
  0.00000000E+00  0.00000000E+00  0.00000000E+00
  0.00000000E+00  0.00000000E+00  0.00000000E+00
  0.00000000E+00  0.00000000E+00  0.00000000E+00
  0.00000000E+00  0.00000000E+00  0.00000000E+00
  0.00000000E+00  0.00000000E+00  0.00000000E+00
  0.00000000E+00  0.00000000E+00  0.00000000E+00
  0.00000000E+00  0.00000000E+00  0.00000000E+00
  0.00000000E+00  0.00000000E+00  0.00000000E+00
  0.00000000E+00  0.00000000E+00  0.00000000E+00
  0.00000000E+00  0.00000000E+00  0.00000000E+00
  0.00000000E+00  0.00000000E+00  0.00000000E+00
  0.00000000E+00  0.00000000E+00  0.00000000E+00
  0.00000000E+00  0.00000000E+00  0.00000000E+00
  0.00000000E+00  0.00000000E+00  0.00000000E+00
  0.00000000E+00  0.00000000E+00  0.00000000E+00
  0.00000000E+00  0.00000000E+00  0.00000000E+00
  0.00000000E+00  0.00000000E+00  0.00000000E+00
  0.00000000E+00  0.00000000E+00  0.00000000E+00
  0.00000000E+00  0.00000000E+00  0.00000000E+00
  0.00000000E+00  0.00000000E+00  0.00000000E+00
  0.00000000E+00  0.00000000E+00  0.00000000E+00
  0.00000000E+00  0.00000000E+00  0.00000000E+00
  0.00000000E+00  0.00000000E+00  0.00000000E+00
  0.00000000E+00  0.00000000E+00  0.00000000E+00
  0.00000000E+00  0.00000000E+00  0.00000000E+00
  0.00000000E+00  0.00000000E+00  0.00000000E+00
  0.00000000E+00  0.00000000E+00  0.00000000E+00
  0.00000000E+00  0.00000000E+00  0.00000000E+00
  0.00000000E+00  0.00000000E+00  0.00000000E+00
  0.00000000E+00  0.00000000E+00  0.00000000E+00
  0.00000000E+00  0.00000000E+00  0.00000000E+00
  0.00000000E+00  0.00000000E+00  0.00000000E+00
  0.00000000E+00  0.00000000E+00  0.00000000E+00
  0.00000000E+00  0.00000000E+00  0.00000000E+00
  0.00000000E+00  0.00000000E+00  0.00000000E+00
  0.00000000E+00  0.00000000E+00  0.00000000E+00
  0.00000000E+00  0.00000000E+00  0.00000000E+00
  0.00000000E+00  0.00000000E+00  0.00000000E+00
  0.00000000E+00  0.00000000E+00  0.00000000E+00
  0.00000000E+00  0.00000000E+00  0.00000000E+00
  0.00000000E+00  0.00000000E+00  0.00000000E+00
  0.00000000E+00  0.00000000E+00  0.00000000E+00
  0.00000000E+00  0.00000000E+00  0.00000000E+00
  0.00000000E+00  0.00000000E+00  0.00000000E+00
  0.00000000E+00  0.00000000E+00  0.00000000E+00
  0.00000000E+00  0.00000000E+00  0.00000000E+00
  0.00000000E+00  0.00000000E+00  0.00000000E+00
  0.00000000E+00  0.00000000E+00  0.00000000E+00
  0.00000000E+00  0.00000000E+00  0.00000000E+00
  0.00000000E+00  0.00000000E+00  0.00000000E+00
  0.00000000E+00  0.00000000E+00  0.00000000E+00
  0.00000000E+00  0.00000000E+00  0.00000000E+00
  0.00000000E+00  0.00000000E+00  0.00000000E+00
  0.00000000E+00  0.00000000E+00  0.00000000E+00
  0.00000000E+00  0.00000000E+00  0.00000000E+00
  0.00000000E+00  0.00000000E+00  0.00000000E+00
  0.00000000E+00  0.00000000E+00  0.00000000E+00
  0.00000000E+00  0.00000000E+00  0.00000000E+00
  0.00000000E+00  0.00000000E+00  0.00000000E+00
  0.00000000E+00  0.00000000E+00  0.00000000E+00
  0.00000000E+00  0.00000000E+00  0.00000000E+00
