Zr1 H1 C122 N4 O2                       
   1.00000000000000     
    19.7947785217890271   -0.0007700369410161   -0.0878079857364945
    -9.8986811818023153   17.0424912679584573   -0.1130856213542663
    -0.1320614670456397   -0.2743940628001021   29.8313924250139593
   Zr   H    C    N    O 
     1     1   122     4     2
Direct
  0.4417339330255431  0.5021584687817744  0.4377153372712264
  0.5446846329355700  0.5617137423927419  0.5154046617099403
  0.0422387976722630  0.0842759656413526  0.3995902638026467
  0.0414537505353949  0.2084816162594781  0.3995490554974511
  0.0407138838462946  0.3332699969442545  0.3991966736855528
  0.0407213207359128  0.4583702229570518  0.3989490098954412
  0.0414313603313440  0.5837360855143237  0.3995263390649335
  0.0421339909251321  0.7091070806315408  0.4000127082937737
  0.0423094652807104  0.8342325750590337  0.4000146521043615
  0.0425039762639457  0.9594987749945304  0.3997382054844466
  0.1679801797182072  0.0853647001499642  0.3998450336326119
  0.1678329521050655  0.2103279007529662  0.4001598763353670
  0.1656165549724606  0.3340111911056651  0.4005765037912738
  0.1647081136355394  0.4585715983319868  0.3991170217035268
  0.1654376958439087  0.5837101339139419  0.3987621002064640
  0.1664648560241197  0.7088833234295858  0.3995045848242622
  0.1670874199399666  0.8341991585692108  0.3999573319241982
  0.1674185853630809  0.9596843768814030  0.3998457441445957
  0.2925491272194825  0.0853048012719229  0.3997330471740341
  0.2937845191172563  0.2124856590336213  0.4011318389926175
  0.2925729240535001  0.3380543110133656  0.4041155043292047
  0.2884417622879220  0.4585796214394854  0.4034107481144588
  0.2890507131724318  0.5830877421818563  0.4003083097198115
  0.2909139428243973  0.7082362115637847  0.3994028528354966
  0.2917916852901459  0.8337956838864788  0.3995849456827273
  0.2921165145140436  0.9593630571516817  0.3997057802115068
  0.4171448933575426  0.0840570480315640  0.3995078913883460
  0.4175471760174031  0.2099942076482639  0.3996606201410505
  0.4204367704611861  0.3373672164131704  0.4023552166800423
  0.4153587030637375  0.7064925229416332  0.4005743896235725
  0.4163417018911033  0.8324533377451506  0.3994025873542046
  0.4167851650545846  0.9582292602465738  0.3995947662104808
  0.5417068840350155  0.0828712042818460  0.3996727710860172
  0.5421834848342389  0.2083613917386925  0.3995040807574085
  0.5434851046002349  0.3339319220683198  0.4000700564936648
  0.5447257751788851  0.4583375683987906  0.4016548491309888
  0.5390490585024492  0.7031429832095927  0.4020726110622667
  0.5408672735695810  0.8309391373969398  0.3999515150121742
  0.5414572869751404  0.9571668241077810  0.3996396018436080
  0.6664107597956419  0.0824150839011022  0.3999156033216633
  0.6668890135210110  0.2078400941560787  0.3998113653768574
  0.6676660091846141  0.3332429593380642  0.3997649336511930
  0.6688866167057591  0.4585316530097211  0.4000719100146968
  0.6691427497145453  0.5831871074192472  0.4002054023651947
  0.6664332724245488  0.7068496501470084  0.3993796268183338
  0.6652423412870997  0.8310643762590396  0.3996207310084080
  0.6660398439880633  0.9569465546927198  0.3997517513399880
  0.7912675489817685  0.0824825931289690  0.3998952685340724
  0.7914643960251064  0.2077512008933400  0.4000074859413227
  0.7919339218034808  0.3330153946562368  0.3999476093663112
  0.7927672478406235  0.4584005908300452  0.3999031285831649
  0.7933387296680238  0.5837438172454864  0.3997829557197438
  0.7925049645440169  0.7083296403068882  0.3994989267954438
  0.7913822697979570  0.8326944169353938  0.3992813636041594
  0.7909412813670242  0.9572845056591553  0.3995756702497349
  0.9164475615207589  0.0830198162664902  0.3996735491916561
  0.9161632033034498  0.2078971906620085  0.3996951287994617
  0.9162900537110155  0.3330559776911957  0.3996312352101809
  0.9167667483228122  0.4584275997305754  0.3998254957006674
  0.9173936181600635  0.5837393563409398  0.3999984173380897
  0.9175960561548850  0.7089554599985469  0.3998919754182009
  0.9171926532537259  0.8338872170167976  0.3996756725879089
  0.9168159644799497  0.9584399247824420  0.3996499730342947
  0.0844688820102700  0.0431400246881388  0.3996465890946677
  0.0840782641160858  0.1678456344249508  0.3996140859651495
  0.0828181525079152  0.2920075342153549  0.3996101687539060
  0.0818297421375846  0.4164726602828521  0.3988260310390241
  0.0824511233321276  0.5418411785441200  0.3989578353668827
  0.0833511588508000  0.6672059594137267  0.3997069474129327
  0.0838423559870842  0.7925310747348693  0.4000638471310756
  0.0841524871870397  0.9178934030098923  0.3998901978143947
  0.2092687362500138  0.0433627414494932  0.3998088735983794
  0.2101571926519191  0.1694115021610239  0.4003942738373003
  0.2091072412786272  0.2938949523101522  0.4012339618804157
  0.2061274470544461  0.4172116660658094  0.4006384261855283
  0.2062280780782026  0.5416225366900486  0.3990220853758091
  0.2075323936150942  0.6669469466698509  0.3991320495817410
  0.2083824363957623  0.7923629310224609  0.3997402874468420
  0.2089143049627138  0.9178052914137089  0.3998748787025115
  0.3338050045391820  0.0430117069672095  0.3995903358098951
  0.3343700175355238  0.1692759131216540  0.4000874279102872
  0.3362518547493281  0.2974095969688491  0.4030749775768037
  0.3300949211198282  0.5419138779016051  0.4031108309777164
  0.3317209818798507  0.6662947029511854  0.4001305473799460
  0.3330814571875260  0.7917816120012503  0.3994258552340026
  0.3335468782369863  0.9172632724708116  0.3996451434410898
  0.4585190759341075  0.0418663187430343  0.3996127554556576
  0.4588481639679407  0.1675890681041303  0.3994339426380238
  0.4597880164928488  0.2934461064899904  0.4000816648687849
  0.4547772643943478  0.6625928400408220  0.4032382323397595
  0.4576353555954420  0.7900144459345904  0.3996792537085128
  0.4580867972151944  0.9160253962060080  0.3995178219221571
  0.5831548570461560  0.0408060076967618  0.3997589707465467
  0.5834572917926847  0.1663818275271672  0.3996282054829564
  0.5843331157865543  0.2919103692014656  0.3996789039634105
  0.5861351709023693  0.4170609055196814  0.4005469852590701
  0.5865156646196992  0.5419400056459590  0.4012954057468567
  0.5832681526973127  0.6631654790352414  0.4013509605511935
  0.5814760080303903  0.7879552416982896  0.4004292967658458
  0.5827533345158481  0.9149693118815899  0.3997270476551918
  0.7078866700943989  0.0406103721192046  0.3998819757119567
  0.7082421258294508  0.1660625091152673  0.3999675186154864
  0.7087901416619061  0.2912976417529318  0.3998353218248020
  0.7097286692326323  0.4164809888712539  0.3998416657946098
  0.7104582672057232  0.5416959849983678  0.3999875870160696
  0.7096720964691196  0.6663302534990346  0.3996063752505375
  0.7076855301316707  0.7903301093116868  0.3991984383847202
  0.7074014885406026  0.9150285678649653  0.3995844496363511
  0.8329227845473700  0.0409297108740403  0.3997439077292638
  0.8330425086239138  0.1660829846887985  0.3999270929802325
  0.8331941343033444  0.2911758263723510  0.3999283493404351
  0.8337922129503849  0.4165165685976159  0.3999637931621642
  0.8344894661224577  0.5418501070307946  0.3999043584617165
  0.8345180067757856  0.6669894920562595  0.3997137178524028
  0.8339462766893865  0.7919135763287096  0.3994220098707202
  0.8332441800229219  0.9162438461676221  0.3995182457081217
  0.9587423344327496  0.0420781664181057  0.3996487259250475
  0.9581391279510869  0.1664660440107129  0.3995818275879949
  0.9577279750847713  0.2913653089588655  0.3994513603923256
  0.9578400796440968  0.4165139263729303  0.3994719262527854
  0.9584810432630408  0.5418482421168238  0.3998589591672008
  0.9590319777639491  0.6672439588724910  0.4000232236380255
  0.9591768638143413  0.7924220196951934  0.3998803496239985
  0.9589860231349120  0.9174261295700933  0.3996925509166936
  0.4111699307550163  0.5819361605026332  0.4075127999055458
  0.5459705928467310  0.5826470774376227  0.4038357996423038
  0.3297109551086251  0.4189773066306581  0.4082268097238874
  0.4637249534087333  0.4179209657277940  0.4046609488492420
  0.5067870476857945  0.5090754968367229  0.5039664425564589
  0.4316353945195970  0.5111178088478779  0.5056210966721312
 
  0.00000000E+00  0.00000000E+00  0.00000000E+00
  0.00000000E+00  0.00000000E+00  0.00000000E+00
  0.00000000E+00  0.00000000E+00  0.00000000E+00
  0.00000000E+00  0.00000000E+00  0.00000000E+00
  0.00000000E+00  0.00000000E+00  0.00000000E+00
  0.00000000E+00  0.00000000E+00  0.00000000E+00
  0.00000000E+00  0.00000000E+00  0.00000000E+00
  0.00000000E+00  0.00000000E+00  0.00000000E+00
  0.00000000E+00  0.00000000E+00  0.00000000E+00
  0.00000000E+00  0.00000000E+00  0.00000000E+00
  0.00000000E+00  0.00000000E+00  0.00000000E+00
  0.00000000E+00  0.00000000E+00  0.00000000E+00
  0.00000000E+00  0.00000000E+00  0.00000000E+00
  0.00000000E+00  0.00000000E+00  0.00000000E+00
  0.00000000E+00  0.00000000E+00  0.00000000E+00
  0.00000000E+00  0.00000000E+00  0.00000000E+00
  0.00000000E+00  0.00000000E+00  0.00000000E+00
  0.00000000E+00  0.00000000E+00  0.00000000E+00
  0.00000000E+00  0.00000000E+00  0.00000000E+00
  0.00000000E+00  0.00000000E+00  0.00000000E+00
  0.00000000E+00  0.00000000E+00  0.00000000E+00
  0.00000000E+00  0.00000000E+00  0.00000000E+00
  0.00000000E+00  0.00000000E+00  0.00000000E+00
  0.00000000E+00  0.00000000E+00  0.00000000E+00
  0.00000000E+00  0.00000000E+00  0.00000000E+00
  0.00000000E+00  0.00000000E+00  0.00000000E+00
  0.00000000E+00  0.00000000E+00  0.00000000E+00
  0.00000000E+00  0.00000000E+00  0.00000000E+00
  0.00000000E+00  0.00000000E+00  0.00000000E+00
  0.00000000E+00  0.00000000E+00  0.00000000E+00
  0.00000000E+00  0.00000000E+00  0.00000000E+00
  0.00000000E+00  0.00000000E+00  0.00000000E+00
  0.00000000E+00  0.00000000E+00  0.00000000E+00
  0.00000000E+00  0.00000000E+00  0.00000000E+00
  0.00000000E+00  0.00000000E+00  0.00000000E+00
  0.00000000E+00  0.00000000E+00  0.00000000E+00
  0.00000000E+00  0.00000000E+00  0.00000000E+00
  0.00000000E+00  0.00000000E+00  0.00000000E+00
  0.00000000E+00  0.00000000E+00  0.00000000E+00
  0.00000000E+00  0.00000000E+00  0.00000000E+00
  0.00000000E+00  0.00000000E+00  0.00000000E+00
  0.00000000E+00  0.00000000E+00  0.00000000E+00
  0.00000000E+00  0.00000000E+00  0.00000000E+00
  0.00000000E+00  0.00000000E+00  0.00000000E+00
  0.00000000E+00  0.00000000E+00  0.00000000E+00
  0.00000000E+00  0.00000000E+00  0.00000000E+00
  0.00000000E+00  0.00000000E+00  0.00000000E+00
  0.00000000E+00  0.00000000E+00  0.00000000E+00
  0.00000000E+00  0.00000000E+00  0.00000000E+00
  0.00000000E+00  0.00000000E+00  0.00000000E+00
  0.00000000E+00  0.00000000E+00  0.00000000E+00
  0.00000000E+00  0.00000000E+00  0.00000000E+00
  0.00000000E+00  0.00000000E+00  0.00000000E+00
  0.00000000E+00  0.00000000E+00  0.00000000E+00
  0.00000000E+00  0.00000000E+00  0.00000000E+00
  0.00000000E+00  0.00000000E+00  0.00000000E+00
  0.00000000E+00  0.00000000E+00  0.00000000E+00
  0.00000000E+00  0.00000000E+00  0.00000000E+00
  0.00000000E+00  0.00000000E+00  0.00000000E+00
  0.00000000E+00  0.00000000E+00  0.00000000E+00
  0.00000000E+00  0.00000000E+00  0.00000000E+00
  0.00000000E+00  0.00000000E+00  0.00000000E+00
  0.00000000E+00  0.00000000E+00  0.00000000E+00
  0.00000000E+00  0.00000000E+00  0.00000000E+00
  0.00000000E+00  0.00000000E+00  0.00000000E+00
  0.00000000E+00  0.00000000E+00  0.00000000E+00
  0.00000000E+00  0.00000000E+00  0.00000000E+00
  0.00000000E+00  0.00000000E+00  0.00000000E+00
  0.00000000E+00  0.00000000E+00  0.00000000E+00
  0.00000000E+00  0.00000000E+00  0.00000000E+00
  0.00000000E+00  0.00000000E+00  0.00000000E+00
  0.00000000E+00  0.00000000E+00  0.00000000E+00
  0.00000000E+00  0.00000000E+00  0.00000000E+00
  0.00000000E+00  0.00000000E+00  0.00000000E+00
  0.00000000E+00  0.00000000E+00  0.00000000E+00
  0.00000000E+00  0.00000000E+00  0.00000000E+00
  0.00000000E+00  0.00000000E+00  0.00000000E+00
  0.00000000E+00  0.00000000E+00  0.00000000E+00
  0.00000000E+00  0.00000000E+00  0.00000000E+00
  0.00000000E+00  0.00000000E+00  0.00000000E+00
  0.00000000E+00  0.00000000E+00  0.00000000E+00
  0.00000000E+00  0.00000000E+00  0.00000000E+00
  0.00000000E+00  0.00000000E+00  0.00000000E+00
  0.00000000E+00  0.00000000E+00  0.00000000E+00
  0.00000000E+00  0.00000000E+00  0.00000000E+00
  0.00000000E+00  0.00000000E+00  0.00000000E+00
  0.00000000E+00  0.00000000E+00  0.00000000E+00
  0.00000000E+00  0.00000000E+00  0.00000000E+00
  0.00000000E+00  0.00000000E+00  0.00000000E+00
  0.00000000E+00  0.00000000E+00  0.00000000E+00
  0.00000000E+00  0.00000000E+00  0.00000000E+00
  0.00000000E+00  0.00000000E+00  0.00000000E+00
  0.00000000E+00  0.00000000E+00  0.00000000E+00
  0.00000000E+00  0.00000000E+00  0.00000000E+00
  0.00000000E+00  0.00000000E+00  0.00000000E+00
  0.00000000E+00  0.00000000E+00  0.00000000E+00
  0.00000000E+00  0.00000000E+00  0.00000000E+00
  0.00000000E+00  0.00000000E+00  0.00000000E+00
  0.00000000E+00  0.00000000E+00  0.00000000E+00
  0.00000000E+00  0.00000000E+00  0.00000000E+00
  0.00000000E+00  0.00000000E+00  0.00000000E+00
  0.00000000E+00  0.00000000E+00  0.00000000E+00
  0.00000000E+00  0.00000000E+00  0.00000000E+00
  0.00000000E+00  0.00000000E+00  0.00000000E+00
  0.00000000E+00  0.00000000E+00  0.00000000E+00
  0.00000000E+00  0.00000000E+00  0.00000000E+00
  0.00000000E+00  0.00000000E+00  0.00000000E+00
  0.00000000E+00  0.00000000E+00  0.00000000E+00
  0.00000000E+00  0.00000000E+00  0.00000000E+00
  0.00000000E+00  0.00000000E+00  0.00000000E+00
  0.00000000E+00  0.00000000E+00  0.00000000E+00
  0.00000000E+00  0.00000000E+00  0.00000000E+00
  0.00000000E+00  0.00000000E+00  0.00000000E+00
  0.00000000E+00  0.00000000E+00  0.00000000E+00
  0.00000000E+00  0.00000000E+00  0.00000000E+00
  0.00000000E+00  0.00000000E+00  0.00000000E+00
  0.00000000E+00  0.00000000E+00  0.00000000E+00
  0.00000000E+00  0.00000000E+00  0.00000000E+00
  0.00000000E+00  0.00000000E+00  0.00000000E+00
  0.00000000E+00  0.00000000E+00  0.00000000E+00
  0.00000000E+00  0.00000000E+00  0.00000000E+00
  0.00000000E+00  0.00000000E+00  0.00000000E+00
  0.00000000E+00  0.00000000E+00  0.00000000E+00
  0.00000000E+00  0.00000000E+00  0.00000000E+00
  0.00000000E+00  0.00000000E+00  0.00000000E+00
  0.00000000E+00  0.00000000E+00  0.00000000E+00
  0.00000000E+00  0.00000000E+00  0.00000000E+00
  0.00000000E+00  0.00000000E+00  0.00000000E+00
  0.00000000E+00  0.00000000E+00  0.00000000E+00
  0.00000000E+00  0.00000000E+00  0.00000000E+00
