H1 W1 C124 N2                           
   1.00000000000000     
    19.8050881243755938   -0.0187559674611410   -0.0553480294187541
    -9.9188838813659626   17.0460878290448505   -0.0364220644129116
    -0.0833636669351859   -0.1121646621639480   29.8228769834674559
   H    W    C    N 
     1     1   124     2
Direct
  0.4425493459200952  0.5075251456696172  0.4905137501361066
  0.4398484431719141  0.5010274198093270  0.4314192159951822
  0.0424548829393411  0.0845027344261328  0.3996992518496590
  0.0417816395918540  0.2087979202253871  0.3994678888966884
  0.0408910194896148  0.3332499000882505  0.3993408823486668
  0.0406169608933430  0.4583661244002121  0.3995408962900481
  0.0413148876536872  0.5838034537577484  0.3998542765907093
  0.0419728245172121  0.7091950932301514  0.3999757197491578
  0.0422678428333201  0.8344420350866466  0.4000437735215930
  0.0424409927440373  0.9596513579420533  0.3999725742080732
  0.1682419261473520  0.0857723237891467  0.3998468534903473
  0.1683058126600435  0.2109240558459239  0.3998103421538601
  0.1664700869958673  0.3345172213673209  0.3995201708046285
  0.1644878538997523  0.4588631946188590  0.3991564431935167
  0.1652211154759772  0.5839241968995276  0.3993683476505314
  0.1662987958401776  0.7090954717718262  0.3998390881917019
  0.1668868323630741  0.8344023058987149  0.3999661658075913
  0.1674320814930068  0.9599139765626640  0.3999571318843903
  0.2926120740000252  0.0852733914830171  0.3998961418185429
  0.2942979427601298  0.2122616799722330  0.4007706549768209
  0.2946175270106352  0.3388070694241763  0.4020325541523163
  0.2885629728836160  0.4602382235115346  0.4012104487009742
  0.2889374235701206  0.5842259828945091  0.4004741354095158
  0.2906946909292465  0.7089352753987107  0.3999758137321957
  0.2915062862039204  0.8340378881922536  0.3998272337778894
  0.2920074622530476  0.9594449868778130  0.3998074849167358
  0.4170674265031341  0.0839380706844359  0.3997566371599507
  0.4177785194038965  0.2099154696853162  0.4001556369231667
  0.4204182244516873  0.3373518431175869  0.4026218864435308
  0.4148404074327037  0.7063972150799358  0.4009739450270851
  0.4160598278457389  0.8325281648208657  0.3997988934650453
  0.4165598100400587  0.9582314036706302  0.3997404285832103
  0.5416062608114345  0.0825372214768555  0.3997830217278517
  0.5421834367648481  0.2078551585748872  0.3999133147625306
  0.5435006896107284  0.3328627268197282  0.4007210556426805
  0.5459046640695870  0.4569089567903812  0.4012184087699561
  0.5424147794465910  0.5785043086440510  0.4013848179089289
  0.5381548248880730  0.7033154475402238  0.4014322763887105
  0.5404787703775746  0.8310054569405241  0.4001806379334780
  0.5411691556407385  0.9569989545797452  0.3998120530536338
  0.6662697003281184  0.0820601990565345  0.3999528778993219
  0.6667682151874950  0.2073916460173445  0.3998801424971246
  0.6677406085939841  0.3327716816636985  0.3998755723290427
  0.6693514248873565  0.4581863279139564  0.3997826910609819
  0.6691553024716816  0.5824561777935703  0.3990156010349654
  0.6652884790875292  0.7057047092908227  0.3990909345820353
  0.6647107771227801  0.8305644201558163  0.3998153283834114
  0.6657795416570419  0.9565833751592566  0.3999441483295778
  0.7910973256864293  0.0821765164749475  0.4000510224083600
  0.7913718769656494  0.2073718784483899  0.4000669084105359
  0.7919514262354869  0.3326933983794413  0.3998818823819523
  0.7928723116520927  0.4581509227249798  0.3996576030723535
  0.7935085589168879  0.5835615050729496  0.3995069679255134
  0.7922047852804194  0.7081508952241741  0.3993602305169848
  0.7908808924848213  0.8321602702216537  0.3996362508329232
  0.7907232111595340  0.9568782620428168  0.3998682961689685
  0.9163751396768467  0.0829221973629207  0.3999338313460689
  0.9162437841675705  0.2077057353970299  0.3999439643754620
  0.9162645568085253  0.3328116473911604  0.3999306182471137
  0.9167233180597638  0.4582337432034403  0.3999153211530859
  0.9174217713929255  0.5837378253174728  0.3998425424161451
  0.9174152702658930  0.7089744389721285  0.3998229381944157
  0.9170958177026113  0.8338231337812437  0.3998792113383383
  0.9166582580903267  0.9583878652964185  0.3999350943723087
  0.0845309349733182  0.0434002165322063  0.3997980857818255
  0.0844696022197347  0.1682138684005186  0.3995327791628992
  0.0830773159338467  0.2921267992037051  0.3992820356746325
  0.0817233013586024  0.4166279726112410  0.3992051153222413
  0.0822741581353475  0.5419463956325226  0.3995599995023253
  0.0831378690519128  0.6673294525912983  0.3998945383997821
  0.0837025690984809  0.7926864564770529  0.4000128816788565
  0.0840880688138458  0.9180222104048158  0.4000305736651587
  0.2094004491556218  0.0435960787845782  0.3998974900637839
  0.2105097274704108  0.1696792712786941  0.4001160253815670
  0.2100914037333272  0.2947064229730682  0.4001552006123358
  0.2061469035227486  0.4177870253129943  0.3995522376685043
  0.2058931614937105  0.5419821474353985  0.3993110691549303
  0.2073737248833352  0.6673176776608953  0.3997012297758999
  0.2082687300249345  0.7926307869365302  0.3998979487848502
  0.2087717621093643  0.9179862215447339  0.3999347532841067
  0.3338508616822175  0.0430256018279859  0.3997728045837571
  0.3346423992907774  0.1691312543861470  0.4002589302520954
  0.3369945312728626  0.2969020381884461  0.4021434009637050
  0.3330286527306465  0.4221914734586492  0.4042928826004255
  0.3292671483493934  0.5432407062713714  0.4024993627077237
  0.3316792735438617  0.6672825078191563  0.4006487238445007
  0.3328933484825325  0.7921822328775960  0.3998548569164855
  0.3333648323853377  0.9174238200940786  0.3997832474252771
  0.4583896809957068  0.0417195139875351  0.3997483754078582
  0.4590070180297494  0.1674764510622557  0.3998729452762196
  0.4602799842802459  0.2935909561121366  0.4008566270900311
  0.4547143520684890  0.6625790124196668  0.4030568032358823
  0.4573274123466496  0.7901056861261208  0.4000686934247756
  0.4579405961616285  0.9160604315511547  0.3997371573952313
  0.5830128013065482  0.0405664530157943  0.3998351119746268
  0.5835157865175450  0.1659459457767457  0.3998123939931116
  0.5844190128932354  0.2911395683769203  0.4001341131650651
  0.5863550412558188  0.4159372715596418  0.4005567041438676
  0.5866267330835965  0.5400356287212724  0.3993727840792582
  0.5807930097314851  0.6617288997085057  0.4002085861122539
  0.5808675884200635  0.7879341090085740  0.4003571484140555
  0.5825175430060213  0.9148587906774400  0.3999506198556783
  0.7077232224722220  0.0402508006822470  0.3999847697470252
  0.7081493693160235  0.1656213369987223  0.3999801859464832
  0.7087902590935995  0.2909389140826278  0.3998576423665677
  0.7099519605767791  0.4161917612126034  0.3997038405993493
  0.7107695919337746  0.5413570413488661  0.3994738145659752
  0.7087966808231523  0.6657437371755650  0.3989767059055317
  0.7070392339295952  0.7894507409573406  0.3994658586425399
  0.7069921989710041  0.9144719561682469  0.3998390924574476
  0.8328059046685868  0.0406148300353371  0.3999994527525698
  0.8329251676741299  0.1657251954190841  0.4000878414912767
  0.8331434873550913  0.2908521293063029  0.4000031197867367
  0.8337770498130584  0.4162316371828425  0.3998282555573299
  0.8345433672956242  0.5417379099470215  0.3996533162761567
  0.8343340073666692  0.6669722859251718  0.3995411628884709
  0.8335239476351149  0.7915109968532886  0.3996126504347949
  0.8328967182024860  0.9158809461733484  0.3998453682917598
  0.9586914479403619  0.0419875623299015  0.3998707073722048
  0.9581865200091202  0.1664640711516864  0.3997815696697299
  0.9578122171561726  0.2912278335862526  0.3997672944868526
  0.9577199615813516  0.4163267084424918  0.3998541607555115
  0.9583765462626197  0.5417750168968601  0.3999166456344779
  0.9588778133118051  0.6672775554686740  0.3999109006671031
  0.9589849038360848  0.7925174261883304  0.3999382391128611
  0.9589013388606065  0.9173849941503204  0.3999745732289553
  0.4102031792691188  0.5806638586004076  0.4079080798354245
  0.4649817394239756  0.4193757969779301  0.4058122814370594
 
  0.00000000E+00  0.00000000E+00  0.00000000E+00
  0.00000000E+00  0.00000000E+00  0.00000000E+00
  0.00000000E+00  0.00000000E+00  0.00000000E+00
  0.00000000E+00  0.00000000E+00  0.00000000E+00
  0.00000000E+00  0.00000000E+00  0.00000000E+00
  0.00000000E+00  0.00000000E+00  0.00000000E+00
  0.00000000E+00  0.00000000E+00  0.00000000E+00
  0.00000000E+00  0.00000000E+00  0.00000000E+00
  0.00000000E+00  0.00000000E+00  0.00000000E+00
  0.00000000E+00  0.00000000E+00  0.00000000E+00
  0.00000000E+00  0.00000000E+00  0.00000000E+00
  0.00000000E+00  0.00000000E+00  0.00000000E+00
  0.00000000E+00  0.00000000E+00  0.00000000E+00
  0.00000000E+00  0.00000000E+00  0.00000000E+00
  0.00000000E+00  0.00000000E+00  0.00000000E+00
  0.00000000E+00  0.00000000E+00  0.00000000E+00
  0.00000000E+00  0.00000000E+00  0.00000000E+00
  0.00000000E+00  0.00000000E+00  0.00000000E+00
  0.00000000E+00  0.00000000E+00  0.00000000E+00
  0.00000000E+00  0.00000000E+00  0.00000000E+00
  0.00000000E+00  0.00000000E+00  0.00000000E+00
  0.00000000E+00  0.00000000E+00  0.00000000E+00
  0.00000000E+00  0.00000000E+00  0.00000000E+00
  0.00000000E+00  0.00000000E+00  0.00000000E+00
  0.00000000E+00  0.00000000E+00  0.00000000E+00
  0.00000000E+00  0.00000000E+00  0.00000000E+00
  0.00000000E+00  0.00000000E+00  0.00000000E+00
  0.00000000E+00  0.00000000E+00  0.00000000E+00
  0.00000000E+00  0.00000000E+00  0.00000000E+00
  0.00000000E+00  0.00000000E+00  0.00000000E+00
  0.00000000E+00  0.00000000E+00  0.00000000E+00
  0.00000000E+00  0.00000000E+00  0.00000000E+00
  0.00000000E+00  0.00000000E+00  0.00000000E+00
  0.00000000E+00  0.00000000E+00  0.00000000E+00
  0.00000000E+00  0.00000000E+00  0.00000000E+00
  0.00000000E+00  0.00000000E+00  0.00000000E+00
  0.00000000E+00  0.00000000E+00  0.00000000E+00
  0.00000000E+00  0.00000000E+00  0.00000000E+00
  0.00000000E+00  0.00000000E+00  0.00000000E+00
  0.00000000E+00  0.00000000E+00  0.00000000E+00
  0.00000000E+00  0.00000000E+00  0.00000000E+00
  0.00000000E+00  0.00000000E+00  0.00000000E+00
  0.00000000E+00  0.00000000E+00  0.00000000E+00
  0.00000000E+00  0.00000000E+00  0.00000000E+00
  0.00000000E+00  0.00000000E+00  0.00000000E+00
  0.00000000E+00  0.00000000E+00  0.00000000E+00
  0.00000000E+00  0.00000000E+00  0.00000000E+00
  0.00000000E+00  0.00000000E+00  0.00000000E+00
  0.00000000E+00  0.00000000E+00  0.00000000E+00
  0.00000000E+00  0.00000000E+00  0.00000000E+00
  0.00000000E+00  0.00000000E+00  0.00000000E+00
  0.00000000E+00  0.00000000E+00  0.00000000E+00
  0.00000000E+00  0.00000000E+00  0.00000000E+00
  0.00000000E+00  0.00000000E+00  0.00000000E+00
  0.00000000E+00  0.00000000E+00  0.00000000E+00
  0.00000000E+00  0.00000000E+00  0.00000000E+00
  0.00000000E+00  0.00000000E+00  0.00000000E+00
  0.00000000E+00  0.00000000E+00  0.00000000E+00
  0.00000000E+00  0.00000000E+00  0.00000000E+00
  0.00000000E+00  0.00000000E+00  0.00000000E+00
  0.00000000E+00  0.00000000E+00  0.00000000E+00
  0.00000000E+00  0.00000000E+00  0.00000000E+00
  0.00000000E+00  0.00000000E+00  0.00000000E+00
  0.00000000E+00  0.00000000E+00  0.00000000E+00
  0.00000000E+00  0.00000000E+00  0.00000000E+00
  0.00000000E+00  0.00000000E+00  0.00000000E+00
  0.00000000E+00  0.00000000E+00  0.00000000E+00
  0.00000000E+00  0.00000000E+00  0.00000000E+00
  0.00000000E+00  0.00000000E+00  0.00000000E+00
  0.00000000E+00  0.00000000E+00  0.00000000E+00
  0.00000000E+00  0.00000000E+00  0.00000000E+00
  0.00000000E+00  0.00000000E+00  0.00000000E+00
  0.00000000E+00  0.00000000E+00  0.00000000E+00
  0.00000000E+00  0.00000000E+00  0.00000000E+00
  0.00000000E+00  0.00000000E+00  0.00000000E+00
  0.00000000E+00  0.00000000E+00  0.00000000E+00
  0.00000000E+00  0.00000000E+00  0.00000000E+00
  0.00000000E+00  0.00000000E+00  0.00000000E+00
  0.00000000E+00  0.00000000E+00  0.00000000E+00
  0.00000000E+00  0.00000000E+00  0.00000000E+00
  0.00000000E+00  0.00000000E+00  0.00000000E+00
  0.00000000E+00  0.00000000E+00  0.00000000E+00
  0.00000000E+00  0.00000000E+00  0.00000000E+00
  0.00000000E+00  0.00000000E+00  0.00000000E+00
  0.00000000E+00  0.00000000E+00  0.00000000E+00
  0.00000000E+00  0.00000000E+00  0.00000000E+00
  0.00000000E+00  0.00000000E+00  0.00000000E+00
  0.00000000E+00  0.00000000E+00  0.00000000E+00
  0.00000000E+00  0.00000000E+00  0.00000000E+00
  0.00000000E+00  0.00000000E+00  0.00000000E+00
  0.00000000E+00  0.00000000E+00  0.00000000E+00
  0.00000000E+00  0.00000000E+00  0.00000000E+00
  0.00000000E+00  0.00000000E+00  0.00000000E+00
  0.00000000E+00  0.00000000E+00  0.00000000E+00
  0.00000000E+00  0.00000000E+00  0.00000000E+00
  0.00000000E+00  0.00000000E+00  0.00000000E+00
  0.00000000E+00  0.00000000E+00  0.00000000E+00
  0.00000000E+00  0.00000000E+00  0.00000000E+00
  0.00000000E+00  0.00000000E+00  0.00000000E+00
  0.00000000E+00  0.00000000E+00  0.00000000E+00
  0.00000000E+00  0.00000000E+00  0.00000000E+00
  0.00000000E+00  0.00000000E+00  0.00000000E+00
  0.00000000E+00  0.00000000E+00  0.00000000E+00
  0.00000000E+00  0.00000000E+00  0.00000000E+00
  0.00000000E+00  0.00000000E+00  0.00000000E+00
  0.00000000E+00  0.00000000E+00  0.00000000E+00
  0.00000000E+00  0.00000000E+00  0.00000000E+00
  0.00000000E+00  0.00000000E+00  0.00000000E+00
  0.00000000E+00  0.00000000E+00  0.00000000E+00
  0.00000000E+00  0.00000000E+00  0.00000000E+00
  0.00000000E+00  0.00000000E+00  0.00000000E+00
  0.00000000E+00  0.00000000E+00  0.00000000E+00
  0.00000000E+00  0.00000000E+00  0.00000000E+00
  0.00000000E+00  0.00000000E+00  0.00000000E+00
  0.00000000E+00  0.00000000E+00  0.00000000E+00
  0.00000000E+00  0.00000000E+00  0.00000000E+00
  0.00000000E+00  0.00000000E+00  0.00000000E+00
  0.00000000E+00  0.00000000E+00  0.00000000E+00
  0.00000000E+00  0.00000000E+00  0.00000000E+00
  0.00000000E+00  0.00000000E+00  0.00000000E+00
  0.00000000E+00  0.00000000E+00  0.00000000E+00
  0.00000000E+00  0.00000000E+00  0.00000000E+00
  0.00000000E+00  0.00000000E+00  0.00000000E+00
  0.00000000E+00  0.00000000E+00  0.00000000E+00
  0.00000000E+00  0.00000000E+00  0.00000000E+00
  0.00000000E+00  0.00000000E+00  0.00000000E+00
  0.00000000E+00  0.00000000E+00  0.00000000E+00
  0.00000000E+00  0.00000000E+00  0.00000000E+00
