Co1 C122 N4                             
   1.00000000000000     
    19.7991591040366686   -0.0000722694095017    0.0017131764251836
    -9.8995897686376448   17.0030574288502834    0.0024450966668332
     0.0025995401353430    0.0058339119522174   29.8902303677939543
   Co   C    N 
     1   122     4
Direct
  0.4374804826507019  0.4999982089289333  0.4035699544305101
  0.0423538990615173  0.0845012821639348  0.4000202491583349
  0.0412553051406934  0.2084028179848343  0.4002018727158387
  0.0403699257635065  0.3329290698901581  0.4000847160319220
  0.0404680755093264  0.4581851337366746  0.3996799453395421
  0.0413090095015672  0.5837368166656164  0.3994007192382292
  0.0420946269685939  0.7092145750149624  0.3995189741713001
  0.0424426543617679  0.8345849992413411  0.3996589440016364
  0.0426203377064569  0.9598393781330253  0.3997285359960837
  0.1684804959554404  0.0863800169053960  0.4005387098638029
  0.1682341161539493  0.2112360214058339  0.4012511606125294
  0.1653906849992525  0.3339296541194587  0.4014706161259274
  0.1642276101890923  0.4584967704652161  0.4010019533042199
  0.1651306772111017  0.5835594973803335  0.4002019397231856
  0.1664291756368639  0.7089943382644546  0.3996518244178589
  0.1671493234436060  0.8345780196509309  0.3996439705756907
  0.1677056923778740  0.9603739348442818  0.3999285597450815
  0.2929384571483168  0.0863676546115148  0.4005491037050748
  0.2947450821628231  0.2144769900251964  0.4017594078506537
  0.2938846437443720  0.3407136959391913  0.4026633109935793
  0.2877057580204888  0.4581065527596909  0.4027207530520213
  0.2886670660283386  0.5828878883660799  0.4018116566357087
  0.2906397128798882  0.7082740058223794  0.4005490706718696
  0.2916763059202362  0.8338877396497995  0.3996936953947952
  0.2922553836212954  0.9598240911238514  0.3997027142027814
  0.4171849419351434  0.0844810206942306  0.4000292180948459
  0.4180125603720852  0.2112207386795815  0.4012669150087932
  0.4218117055607636  0.3407113902464258  0.4026534097133676
  0.4144554085395713  0.7048088007935284  0.4018872571993713
  0.4160388949540360  0.8317343227775198  0.4004715402629701
  0.4166800906727684  0.9581492945639862  0.3996520319587614
  0.5415224782835460  0.0825079383677668  0.3996301421877057
  0.5421505987032444  0.2083825766245299  0.4002212416185124
  0.5435159860611859  0.3339209626834545  0.4014342198674899
  0.5453694959380233  0.4581073488357253  0.4027186666628771
  0.5377046071520150  0.7004166726311838  0.4025195102933314
  0.5401411181568919  0.8294239214208954  0.4012088649285537
  0.5410283787159038  0.9562850054294899  0.4000612772201462
  0.6659967385460841  0.0816961228750563  0.3997539042933484
  0.6665295438108803  0.2073527084900045  0.3996376012363798
  0.6675289126581372  0.3329176935023732  0.4000593475027409
  0.6692210791993869  0.4584934719811307  0.4009511753361684
  0.6691880483271888  0.5828994123435474  0.4017769955465194
  0.6653509591850258  0.7048199293196059  0.4018648808194666
  0.6643066661330093  0.8294298172218588  0.4012171930855373
  0.6654221836513299  0.9557990309314783  0.4003359706206744
  0.7907373763148168  0.0817017627424377  0.3997360472947852
  0.7910811487123575  0.2071589017497595  0.3996526434669135
  0.7916963415634909  0.3326655655983410  0.3994690999463265
  0.7926698592973110  0.4581845130151258  0.3996172726555616
  0.7933899584343607  0.5835695892756373  0.4001453340157241
  0.7926310253825610  0.7082939897556914  0.4005308095725140
  0.7907260730615699  0.8317537286853729  0.4004882289249283
  0.7903163067574100  0.9563031523032114  0.4000467227454444
  0.9160387224667229  0.0825311629995929  0.3995965073911479
  0.9158331814412584  0.2073593088831861  0.3996202410228555
  0.9159422337518678  0.3326672860242379  0.3994824285635525
  0.9165594994914020  0.4581626189595906  0.3992600273112381
  0.9173852799086745  0.5837442526993253  0.3993665268581729
  0.9175456784006847  0.7089997666484360  0.3996459343642198
  0.9172398054284416  0.8339089568970187  0.3997296412864212
  0.9165290970729388  0.9581712230861995  0.3996551594295623
  0.0847452173716613  0.0437162050674043  0.4000704068858989
  0.0843061106925466  0.1682672207186697  0.4004836536581631
  0.0823624149303039  0.2917246461654079  0.4005561226412442
  0.0815682356329457  0.4164380268450445  0.4002045198840834
  0.0822824781704184  0.5418133191757780  0.3996775109719730
  0.0832754732005609  0.6673332586315002  0.3994867664948087
  0.0839222763029222  0.7928401712320574  0.3996604560280914
  0.0843024058177441  0.9183041141890601  0.3997551305328858
  0.2096238766112127  0.0442029272666388  0.4003491715531575
  0.2107160263809573  0.1705787818590063  0.4012208194947884
  0.2096438834953323  0.2951887229123520  0.4018943203367651
  0.2057773767203381  0.4171084282464472  0.4018147757738962
  0.2057293849615584  0.5415020724961459  0.4010000659020640
  0.2074411441742180  0.6670713539620650  0.4000817451623493
  0.2084719444757613  0.7926398278770822  0.3996196795449428
  0.2090349230754618  0.9182994174120519  0.3997390752541151
  0.3340105499153365  0.0436975080922464  0.4000609021037942
  0.3348776686888336  0.1705719584979417  0.4012337728582047
  0.3372872836562810  0.2995852164484328  0.4025302191091276
  0.3295971630112070  0.5418905806562796  0.4027180953468932
  0.3314617600054782  0.6660719085200626  0.4014644830601015
  0.3328498748494696  0.7915981304957499  0.4001908347058878
  0.3335068525763327  0.9174708046677535  0.3995986615633412
  0.4583565664388589  0.0418318889463551  0.3996628297257374
  0.4589728857861748  0.1682462616314214  0.4005046574086380
  0.4605298010601752  0.2951798758051943  0.4018786406362120
  0.4531713576669142  0.6592850475044119  0.4026548408026830
  0.4569967488462245  0.7887637264002518  0.4012416396906148
  0.4578504933288293  0.9154999066179799  0.4000118488952482
  0.5827792286133280  0.0401626566390470  0.3997260364313107
  0.5833311420329566  0.1660940981392952  0.3997355045557804
  0.5843383700198234  0.2917095991460894  0.4005401819140321
  0.5862884089389983  0.4171003574916456  0.4017824344554212
  0.5872609472072373  0.5418904609904388  0.4027157536559141
  0.5810998370240794  0.6592869148310706  0.4026425825785757
  0.5802673469635292  0.7855224535501387  0.4017449124220033
  0.5821004336813871  0.9136214063084089  0.4005247450483988
  0.7073323906947141  0.0396281452260580  0.3999243207169037
  0.7078593679566437  0.1654179498205788  0.3996518791101828
  0.7085478945362903  0.2909994057658176  0.3996449752545110
  0.7098200672963171  0.4164300148526676  0.4001501766799519
  0.7107262747026821  0.5415026102556004  0.4009486853890677
  0.7095929152419992  0.6660774358871870  0.4014272856337557
  0.7067868812762979  0.7887765678823483  0.4012493026111478
  0.7065715015726871  0.9136340982543319  0.4005299406980717
  0.8324332958790159  0.0401768619789915  0.3996948201312792
  0.8325728173322783  0.1654230072006694  0.3996426620692493
  0.8328793702874657  0.2907857618692078  0.3995090372561670
  0.8336394865834922  0.4162562544605671  0.3993633958292898
  0.8344840594393894  0.5418148942403349  0.3996159082665626
  0.8346036479108695  0.6670790425279577  0.4000574669555647
  0.8337688074654029  0.7916177095091573  0.4002104476851721
  0.8327081536659826  0.9155214390414730  0.4000129263338436
  0.9585353253629366  0.0418555413905466  0.3996491669001658
  0.9577910348212716  0.1661145510458699  0.3997000339492588
  0.9574339523665396  0.2910064075300346  0.3996528793304222
  0.9575748702754114  0.4162631259832085  0.3993982831125768
  0.9583955700910315  0.5418346534845666  0.3992652149827183
  0.9590310569820953  0.6673352861807194  0.3994760642737318
  0.9591796841887729  0.7926502903283583  0.3996383608308379
  0.9590154733470075  0.9174936440698442  0.3996288856378116
  0.4096201582558857  0.5782844570398220  0.4031920542079250
  0.5436365502251681  0.5782852730871983  0.4031952662227063
  0.3313335154050859  0.4217106890808155  0.4031980459434618
  0.4653494983127417  0.4217135137395208  0.4032003706353742
 
  0.00000000E+00  0.00000000E+00  0.00000000E+00
  0.00000000E+00  0.00000000E+00  0.00000000E+00
  0.00000000E+00  0.00000000E+00  0.00000000E+00
  0.00000000E+00  0.00000000E+00  0.00000000E+00
  0.00000000E+00  0.00000000E+00  0.00000000E+00
  0.00000000E+00  0.00000000E+00  0.00000000E+00
  0.00000000E+00  0.00000000E+00  0.00000000E+00
  0.00000000E+00  0.00000000E+00  0.00000000E+00
  0.00000000E+00  0.00000000E+00  0.00000000E+00
  0.00000000E+00  0.00000000E+00  0.00000000E+00
  0.00000000E+00  0.00000000E+00  0.00000000E+00
  0.00000000E+00  0.00000000E+00  0.00000000E+00
  0.00000000E+00  0.00000000E+00  0.00000000E+00
  0.00000000E+00  0.00000000E+00  0.00000000E+00
  0.00000000E+00  0.00000000E+00  0.00000000E+00
  0.00000000E+00  0.00000000E+00  0.00000000E+00
  0.00000000E+00  0.00000000E+00  0.00000000E+00
  0.00000000E+00  0.00000000E+00  0.00000000E+00
  0.00000000E+00  0.00000000E+00  0.00000000E+00
  0.00000000E+00  0.00000000E+00  0.00000000E+00
  0.00000000E+00  0.00000000E+00  0.00000000E+00
  0.00000000E+00  0.00000000E+00  0.00000000E+00
  0.00000000E+00  0.00000000E+00  0.00000000E+00
  0.00000000E+00  0.00000000E+00  0.00000000E+00
  0.00000000E+00  0.00000000E+00  0.00000000E+00
  0.00000000E+00  0.00000000E+00  0.00000000E+00
  0.00000000E+00  0.00000000E+00  0.00000000E+00
  0.00000000E+00  0.00000000E+00  0.00000000E+00
  0.00000000E+00  0.00000000E+00  0.00000000E+00
  0.00000000E+00  0.00000000E+00  0.00000000E+00
  0.00000000E+00  0.00000000E+00  0.00000000E+00
  0.00000000E+00  0.00000000E+00  0.00000000E+00
  0.00000000E+00  0.00000000E+00  0.00000000E+00
  0.00000000E+00  0.00000000E+00  0.00000000E+00
  0.00000000E+00  0.00000000E+00  0.00000000E+00
  0.00000000E+00  0.00000000E+00  0.00000000E+00
  0.00000000E+00  0.00000000E+00  0.00000000E+00
  0.00000000E+00  0.00000000E+00  0.00000000E+00
  0.00000000E+00  0.00000000E+00  0.00000000E+00
  0.00000000E+00  0.00000000E+00  0.00000000E+00
  0.00000000E+00  0.00000000E+00  0.00000000E+00
  0.00000000E+00  0.00000000E+00  0.00000000E+00
  0.00000000E+00  0.00000000E+00  0.00000000E+00
  0.00000000E+00  0.00000000E+00  0.00000000E+00
  0.00000000E+00  0.00000000E+00  0.00000000E+00
  0.00000000E+00  0.00000000E+00  0.00000000E+00
  0.00000000E+00  0.00000000E+00  0.00000000E+00
  0.00000000E+00  0.00000000E+00  0.00000000E+00
  0.00000000E+00  0.00000000E+00  0.00000000E+00
  0.00000000E+00  0.00000000E+00  0.00000000E+00
  0.00000000E+00  0.00000000E+00  0.00000000E+00
  0.00000000E+00  0.00000000E+00  0.00000000E+00
  0.00000000E+00  0.00000000E+00  0.00000000E+00
  0.00000000E+00  0.00000000E+00  0.00000000E+00
  0.00000000E+00  0.00000000E+00  0.00000000E+00
  0.00000000E+00  0.00000000E+00  0.00000000E+00
  0.00000000E+00  0.00000000E+00  0.00000000E+00
  0.00000000E+00  0.00000000E+00  0.00000000E+00
  0.00000000E+00  0.00000000E+00  0.00000000E+00
  0.00000000E+00  0.00000000E+00  0.00000000E+00
  0.00000000E+00  0.00000000E+00  0.00000000E+00
  0.00000000E+00  0.00000000E+00  0.00000000E+00
  0.00000000E+00  0.00000000E+00  0.00000000E+00
  0.00000000E+00  0.00000000E+00  0.00000000E+00
  0.00000000E+00  0.00000000E+00  0.00000000E+00
  0.00000000E+00  0.00000000E+00  0.00000000E+00
  0.00000000E+00  0.00000000E+00  0.00000000E+00
  0.00000000E+00  0.00000000E+00  0.00000000E+00
  0.00000000E+00  0.00000000E+00  0.00000000E+00
  0.00000000E+00  0.00000000E+00  0.00000000E+00
  0.00000000E+00  0.00000000E+00  0.00000000E+00
  0.00000000E+00  0.00000000E+00  0.00000000E+00
  0.00000000E+00  0.00000000E+00  0.00000000E+00
  0.00000000E+00  0.00000000E+00  0.00000000E+00
  0.00000000E+00  0.00000000E+00  0.00000000E+00
  0.00000000E+00  0.00000000E+00  0.00000000E+00
  0.00000000E+00  0.00000000E+00  0.00000000E+00
  0.00000000E+00  0.00000000E+00  0.00000000E+00
  0.00000000E+00  0.00000000E+00  0.00000000E+00
  0.00000000E+00  0.00000000E+00  0.00000000E+00
  0.00000000E+00  0.00000000E+00  0.00000000E+00
  0.00000000E+00  0.00000000E+00  0.00000000E+00
  0.00000000E+00  0.00000000E+00  0.00000000E+00
  0.00000000E+00  0.00000000E+00  0.00000000E+00
  0.00000000E+00  0.00000000E+00  0.00000000E+00
  0.00000000E+00  0.00000000E+00  0.00000000E+00
  0.00000000E+00  0.00000000E+00  0.00000000E+00
  0.00000000E+00  0.00000000E+00  0.00000000E+00
  0.00000000E+00  0.00000000E+00  0.00000000E+00
  0.00000000E+00  0.00000000E+00  0.00000000E+00
  0.00000000E+00  0.00000000E+00  0.00000000E+00
  0.00000000E+00  0.00000000E+00  0.00000000E+00
  0.00000000E+00  0.00000000E+00  0.00000000E+00
  0.00000000E+00  0.00000000E+00  0.00000000E+00
  0.00000000E+00  0.00000000E+00  0.00000000E+00
  0.00000000E+00  0.00000000E+00  0.00000000E+00
  0.00000000E+00  0.00000000E+00  0.00000000E+00
  0.00000000E+00  0.00000000E+00  0.00000000E+00
  0.00000000E+00  0.00000000E+00  0.00000000E+00
  0.00000000E+00  0.00000000E+00  0.00000000E+00
  0.00000000E+00  0.00000000E+00  0.00000000E+00
  0.00000000E+00  0.00000000E+00  0.00000000E+00
  0.00000000E+00  0.00000000E+00  0.00000000E+00
  0.00000000E+00  0.00000000E+00  0.00000000E+00
  0.00000000E+00  0.00000000E+00  0.00000000E+00
  0.00000000E+00  0.00000000E+00  0.00000000E+00
  0.00000000E+00  0.00000000E+00  0.00000000E+00
  0.00000000E+00  0.00000000E+00  0.00000000E+00
  0.00000000E+00  0.00000000E+00  0.00000000E+00
  0.00000000E+00  0.00000000E+00  0.00000000E+00
  0.00000000E+00  0.00000000E+00  0.00000000E+00
  0.00000000E+00  0.00000000E+00  0.00000000E+00
  0.00000000E+00  0.00000000E+00  0.00000000E+00
  0.00000000E+00  0.00000000E+00  0.00000000E+00
  0.00000000E+00  0.00000000E+00  0.00000000E+00
  0.00000000E+00  0.00000000E+00  0.00000000E+00
  0.00000000E+00  0.00000000E+00  0.00000000E+00
  0.00000000E+00  0.00000000E+00  0.00000000E+00
  0.00000000E+00  0.00000000E+00  0.00000000E+00
  0.00000000E+00  0.00000000E+00  0.00000000E+00
  0.00000000E+00  0.00000000E+00  0.00000000E+00
  0.00000000E+00  0.00000000E+00  0.00000000E+00
  0.00000000E+00  0.00000000E+00  0.00000000E+00
  0.00000000E+00  0.00000000E+00  0.00000000E+00
  0.00000000E+00  0.00000000E+00  0.00000000E+00
  0.00000000E+00  0.00000000E+00  0.00000000E+00
  0.00000000E+00  0.00000000E+00  0.00000000E+00
