H1 W1 C123 N3 O1                        
   1.00000000000000     
    19.7975790566733991    0.0138676738251198    0.2635610004117477
    -9.8870600469354972   17.0133707729115962   -0.5682934822908005
     0.3967211111530166   -0.7628545649425603   29.8871351348791272
   H    W    C    N    O 
     1     1   123     3     1
Direct
  0.4795000157401430  0.4855505817932263  0.5159971467285616
  0.4432822099596987  0.5053083676358157  0.4349165080625632
  0.0421816969221850  0.0849326775800289  0.4004821109871546
  0.0411868637570357  0.2088677494675652  0.3999835389388928
  0.0404183477970661  0.3332840207132268  0.3973603340068738
  0.0405180256413445  0.4582426544390263  0.3955781347939059
  0.0413436454393453  0.5837553337882632  0.3963337998766281
  0.0421037139149288  0.7093442571897469  0.3978742690733024
  0.0423963033141470  0.8347452494019413  0.3991098171882222
  0.0424070146864386  0.9600664196650283  0.3999712340013350
  0.1678068657621499  0.0861070841946960  0.4011612000483027
  0.1678344428815967  0.2115001320661102  0.4022999505440771
  0.1651583348425661  0.3343571770958817  0.4010415862195271
  0.1643743764498583  0.4585115874661069  0.3963610482107915
  0.1652391965767468  0.5835980131088213  0.3955899359564756
  0.1664343995998377  0.7089685332682826  0.3971099677845222
  0.1670462758957316  0.8345556728509677  0.3985871325439441
  0.1673812835884188  0.9603314276303003  0.3998219126455276
  0.2924949115441129  0.0862739957637637  0.4005186213587321
  0.2930682876535842  0.2134349097663480  0.4030403659128998
  0.2931208842031534  0.3405619126614217  0.4071601094336835
  0.2874040273348188  0.4590910196581241  0.4028911684553144
  0.2886556631970668  0.5829933977878136  0.3979150212796859
  0.2908268335880914  0.7083591315246298  0.3982495951910175
  0.2916679564587852  0.8340322368030644  0.3988101810985475
  0.2920409419831424  0.9598670592981839  0.3994546586955586
  0.4169106292376109  0.0846133618965727  0.3996561729267167
  0.4174379299024284  0.2110257685173016  0.4006348276358953
  0.4188554458774239  0.3386919490408364  0.4030768617077005
  0.4147544874656127  0.7055069219796121  0.4019416270044002
  0.4161291661602005  0.8322193036282773  0.4001313859781834
  0.4166456355206418  0.9584568013952489  0.3995428244656381
  0.5414408227716274  0.0830693863769359  0.3991938600396278
  0.5419152236793174  0.2089604205750288  0.3993741755298754
  0.5429314254270723  0.3348844331646575  0.4005555413841325
  0.5461517399964789  0.4604878426778443  0.4030257592157491
  0.5382132233972842  0.7023806927197501  0.4038030184321704
  0.5404627413910034  0.8306453312050180  0.4015485318999356
  0.5410959761033388  0.9571051948005730  0.4000343226010589
  0.6660541925907876  0.0824346601848258  0.3991326321283296
  0.6664169641856019  0.2079389186333600  0.3986372936925913
  0.6672213579038926  0.3335351740556965  0.3994598306818025
  0.6693460073804820  0.4593024015075097  0.4013067450805233
  0.6704578674330455  0.5848230518161115  0.4017349827011384
  0.6662196857603634  0.7069214838506255  0.4004095637114231
  0.6647477347508255  0.8309243793884289  0.4008226370525126
  0.6655957744416829  0.9568685917419959  0.4002554492955080
  0.7908619282987951  0.0825302570997499  0.3992996669319492
  0.7910328190916242  0.2077042315975451  0.3981966968508573
  0.7915455412081587  0.3330860886627261  0.3980868305150126
  0.7927504587264461  0.4587198273404147  0.3991044241328467
  0.7937078249725829  0.5843414575870846  0.4001557239977225
  0.7930681745108018  0.7093023656931314  0.3998961615673765
  0.7912248166892336  0.8330300282682500  0.3997333375076879
  0.7905717184804683  0.9573357870625083  0.3999164935539082
  0.9160971977730035  0.0832424184563537  0.3997181163417932
  0.9158635921943890  0.2079469707130839  0.3984535978500054
  0.9159162530575286  0.3329488502678728  0.3969360899682128
  0.9165782919940183  0.4583952294300871  0.3970221991542686
  0.9174726129097548  0.5840119217935118  0.3982120848820278
  0.9177195345993886  0.7094528425647343  0.3990932077346623
  0.9173197404946196  0.8344377902939655  0.3994306628963417
  0.9167017247043365  0.9588877481032529  0.3998735046907776
  0.0843086556629263  0.0437947848659044  0.4005632976028504
  0.0840494279879940  0.1686840905637650  0.4008987317092464
  0.0824127876852329  0.2921922372312311  0.3993664986022578
  0.0816052044362635  0.4164090516586275  0.3959843906713594
  0.0823309349092125  0.5417750090144313  0.3955069536598341
  0.0833234459961556  0.6673485019389521  0.3969425860266881
  0.0838327964533007  0.7929066633522153  0.3984938670240429
  0.0841483165677611  0.9184634701896160  0.3996587346669667
  0.2091828376870813  0.0441628203679192  0.4005538744923222
  0.2097525014690466  0.1702298533830663  0.4024092301624642
  0.2093462996598268  0.2956197307711950  0.4036079147565555
  0.2057045290977046  0.4172875893219131  0.3993049881493157
  0.2058622490931449  0.5414532390639243  0.3959571397441918
  0.2075066792642864  0.6669857363431939  0.3966804896873695
  0.2084210776223982  0.7926285963351364  0.3981502643461857
  0.2088326556057068  0.9182628209751743  0.3992960092387018
  0.3337579693527581  0.0437246472470480  0.3998441112841547
  0.3341810399084548  0.1703346895621509  0.4013518139759930
  0.3350907106826143  0.2983441461096009  0.4051744686842418
  0.3286905861293947  0.5415600911377183  0.4013348556648177
  0.3315423997777093  0.6662972872961958  0.3993731306270125
  0.3329920626459841  0.7918654530378983  0.3991661130144301
  0.3333948026489111  0.9176136056203014  0.3992946933705461
  0.4582715456399092  0.0421330408122577  0.3994402188385165
  0.4585748088234738  0.1683209822194857  0.3998191979557256
  0.4593292831874787  0.2948737299240678  0.4007823633431061
  0.4634062602825349  0.4221656402404880  0.4059224666310207
  0.4537130632915897  0.6607367687992410  0.4049611499896354
  0.4572195341984568  0.7894522941506112  0.4012294170046097
  0.4578935520571493  0.9160143401474317  0.3999370059381436
  0.5827787199194379  0.0408527317448272  0.3993784597332348
  0.5831978616823635  0.1667036493779729  0.3989801233561233
  0.5839088517901452  0.2924080436041671  0.3997258839517300
  0.5865554590644498  0.4181712905096102  0.4017229516138551
  0.5887334823415565  0.5439392609632266  0.4030642562850096
  0.5829420219043611  0.6632269135075270  0.4026456359708118
  0.5808407073558141  0.7875215549212835  0.4020985385725066
  0.5823544557099154  0.9147533448511732  0.4006230925044883
  0.7074902565334590  0.0405993643407116  0.3995340800386101
  0.7078541755722625  0.1660373681068378  0.3985763854064075
  0.7083567844262018  0.2914861604476866  0.3986713548671867
  0.7098628815107672  0.4170367377719009  0.4000227226680336
  0.7111783849619470  0.5425094126261307  0.4012719311563970
  0.7102870090171396  0.6675041950789555  0.4005666220186904
  0.7075900079477164  0.7906695372579172  0.4001380236382967
  0.7069258129309712  0.9149504460588147  0.4003205836225128
  0.8325892662821590  0.0410722285812531  0.3996605362539287
  0.8326415529013329  0.1661001406545833  0.3985841903814313
  0.8328159233836335  0.2911721174721784  0.3976537700216383
  0.8336325435731075  0.4166339882938992  0.3980300283993281
  0.8346729831220486  0.5422664117054024  0.3992047303454384
  0.8348115154470916  0.6677241284200696  0.3997698073332063
  0.8341227411389233  0.7925525659243214  0.3995526273056568
  0.8330288029372541  0.9165778273553795  0.3997988923701942
  0.9585976072025296  0.0425137385539245  0.4000530776112026
  0.9577996044486305  0.1666833076718651  0.3993280441224170
  0.9574562247339512  0.2913817817125529  0.3974180976974821
  0.9576248639823236  0.4164264293601594  0.3963283201888546
  0.9584310441127004  0.5419183366171055  0.3970902525496812
  0.9591069572121265  0.6675909434174776  0.3983816943910333
  0.9592233679481907  0.7929817762485359  0.3991809007414524
  0.9589926142597727  0.9179831123723878  0.3997186248804236
  0.4087785509365677  0.5787869667313134  0.4079275403355905
  0.5460459849021216  0.5823327766046703  0.4059120027574608
  0.3309160777135713  0.4235321207765502  0.4112954320463698
  0.4606951034551349  0.5106688919680562  0.4967696172245716
 
  0.00000000E+00  0.00000000E+00  0.00000000E+00
  0.00000000E+00  0.00000000E+00  0.00000000E+00
  0.00000000E+00  0.00000000E+00  0.00000000E+00
  0.00000000E+00  0.00000000E+00  0.00000000E+00
  0.00000000E+00  0.00000000E+00  0.00000000E+00
  0.00000000E+00  0.00000000E+00  0.00000000E+00
  0.00000000E+00  0.00000000E+00  0.00000000E+00
  0.00000000E+00  0.00000000E+00  0.00000000E+00
  0.00000000E+00  0.00000000E+00  0.00000000E+00
  0.00000000E+00  0.00000000E+00  0.00000000E+00
  0.00000000E+00  0.00000000E+00  0.00000000E+00
  0.00000000E+00  0.00000000E+00  0.00000000E+00
  0.00000000E+00  0.00000000E+00  0.00000000E+00
  0.00000000E+00  0.00000000E+00  0.00000000E+00
  0.00000000E+00  0.00000000E+00  0.00000000E+00
  0.00000000E+00  0.00000000E+00  0.00000000E+00
  0.00000000E+00  0.00000000E+00  0.00000000E+00
  0.00000000E+00  0.00000000E+00  0.00000000E+00
  0.00000000E+00  0.00000000E+00  0.00000000E+00
  0.00000000E+00  0.00000000E+00  0.00000000E+00
  0.00000000E+00  0.00000000E+00  0.00000000E+00
  0.00000000E+00  0.00000000E+00  0.00000000E+00
  0.00000000E+00  0.00000000E+00  0.00000000E+00
  0.00000000E+00  0.00000000E+00  0.00000000E+00
  0.00000000E+00  0.00000000E+00  0.00000000E+00
  0.00000000E+00  0.00000000E+00  0.00000000E+00
  0.00000000E+00  0.00000000E+00  0.00000000E+00
  0.00000000E+00  0.00000000E+00  0.00000000E+00
  0.00000000E+00  0.00000000E+00  0.00000000E+00
  0.00000000E+00  0.00000000E+00  0.00000000E+00
  0.00000000E+00  0.00000000E+00  0.00000000E+00
  0.00000000E+00  0.00000000E+00  0.00000000E+00
  0.00000000E+00  0.00000000E+00  0.00000000E+00
  0.00000000E+00  0.00000000E+00  0.00000000E+00
  0.00000000E+00  0.00000000E+00  0.00000000E+00
  0.00000000E+00  0.00000000E+00  0.00000000E+00
  0.00000000E+00  0.00000000E+00  0.00000000E+00
  0.00000000E+00  0.00000000E+00  0.00000000E+00
  0.00000000E+00  0.00000000E+00  0.00000000E+00
  0.00000000E+00  0.00000000E+00  0.00000000E+00
  0.00000000E+00  0.00000000E+00  0.00000000E+00
  0.00000000E+00  0.00000000E+00  0.00000000E+00
  0.00000000E+00  0.00000000E+00  0.00000000E+00
  0.00000000E+00  0.00000000E+00  0.00000000E+00
  0.00000000E+00  0.00000000E+00  0.00000000E+00
  0.00000000E+00  0.00000000E+00  0.00000000E+00
  0.00000000E+00  0.00000000E+00  0.00000000E+00
  0.00000000E+00  0.00000000E+00  0.00000000E+00
  0.00000000E+00  0.00000000E+00  0.00000000E+00
  0.00000000E+00  0.00000000E+00  0.00000000E+00
  0.00000000E+00  0.00000000E+00  0.00000000E+00
  0.00000000E+00  0.00000000E+00  0.00000000E+00
  0.00000000E+00  0.00000000E+00  0.00000000E+00
  0.00000000E+00  0.00000000E+00  0.00000000E+00
  0.00000000E+00  0.00000000E+00  0.00000000E+00
  0.00000000E+00  0.00000000E+00  0.00000000E+00
  0.00000000E+00  0.00000000E+00  0.00000000E+00
  0.00000000E+00  0.00000000E+00  0.00000000E+00
  0.00000000E+00  0.00000000E+00  0.00000000E+00
  0.00000000E+00  0.00000000E+00  0.00000000E+00
  0.00000000E+00  0.00000000E+00  0.00000000E+00
  0.00000000E+00  0.00000000E+00  0.00000000E+00
  0.00000000E+00  0.00000000E+00  0.00000000E+00
  0.00000000E+00  0.00000000E+00  0.00000000E+00
  0.00000000E+00  0.00000000E+00  0.00000000E+00
  0.00000000E+00  0.00000000E+00  0.00000000E+00
  0.00000000E+00  0.00000000E+00  0.00000000E+00
  0.00000000E+00  0.00000000E+00  0.00000000E+00
  0.00000000E+00  0.00000000E+00  0.00000000E+00
  0.00000000E+00  0.00000000E+00  0.00000000E+00
  0.00000000E+00  0.00000000E+00  0.00000000E+00
  0.00000000E+00  0.00000000E+00  0.00000000E+00
  0.00000000E+00  0.00000000E+00  0.00000000E+00
  0.00000000E+00  0.00000000E+00  0.00000000E+00
  0.00000000E+00  0.00000000E+00  0.00000000E+00
  0.00000000E+00  0.00000000E+00  0.00000000E+00
  0.00000000E+00  0.00000000E+00  0.00000000E+00
  0.00000000E+00  0.00000000E+00  0.00000000E+00
  0.00000000E+00  0.00000000E+00  0.00000000E+00
  0.00000000E+00  0.00000000E+00  0.00000000E+00
  0.00000000E+00  0.00000000E+00  0.00000000E+00
  0.00000000E+00  0.00000000E+00  0.00000000E+00
  0.00000000E+00  0.00000000E+00  0.00000000E+00
  0.00000000E+00  0.00000000E+00  0.00000000E+00
  0.00000000E+00  0.00000000E+00  0.00000000E+00
  0.00000000E+00  0.00000000E+00  0.00000000E+00
  0.00000000E+00  0.00000000E+00  0.00000000E+00
  0.00000000E+00  0.00000000E+00  0.00000000E+00
  0.00000000E+00  0.00000000E+00  0.00000000E+00
  0.00000000E+00  0.00000000E+00  0.00000000E+00
  0.00000000E+00  0.00000000E+00  0.00000000E+00
  0.00000000E+00  0.00000000E+00  0.00000000E+00
  0.00000000E+00  0.00000000E+00  0.00000000E+00
  0.00000000E+00  0.00000000E+00  0.00000000E+00
  0.00000000E+00  0.00000000E+00  0.00000000E+00
  0.00000000E+00  0.00000000E+00  0.00000000E+00
  0.00000000E+00  0.00000000E+00  0.00000000E+00
  0.00000000E+00  0.00000000E+00  0.00000000E+00
  0.00000000E+00  0.00000000E+00  0.00000000E+00
  0.00000000E+00  0.00000000E+00  0.00000000E+00
  0.00000000E+00  0.00000000E+00  0.00000000E+00
  0.00000000E+00  0.00000000E+00  0.00000000E+00
  0.00000000E+00  0.00000000E+00  0.00000000E+00
  0.00000000E+00  0.00000000E+00  0.00000000E+00
  0.00000000E+00  0.00000000E+00  0.00000000E+00
  0.00000000E+00  0.00000000E+00  0.00000000E+00
  0.00000000E+00  0.00000000E+00  0.00000000E+00
  0.00000000E+00  0.00000000E+00  0.00000000E+00
  0.00000000E+00  0.00000000E+00  0.00000000E+00
  0.00000000E+00  0.00000000E+00  0.00000000E+00
  0.00000000E+00  0.00000000E+00  0.00000000E+00
  0.00000000E+00  0.00000000E+00  0.00000000E+00
  0.00000000E+00  0.00000000E+00  0.00000000E+00
  0.00000000E+00  0.00000000E+00  0.00000000E+00
  0.00000000E+00  0.00000000E+00  0.00000000E+00
  0.00000000E+00  0.00000000E+00  0.00000000E+00
  0.00000000E+00  0.00000000E+00  0.00000000E+00
  0.00000000E+00  0.00000000E+00  0.00000000E+00
  0.00000000E+00  0.00000000E+00  0.00000000E+00
  0.00000000E+00  0.00000000E+00  0.00000000E+00
  0.00000000E+00  0.00000000E+00  0.00000000E+00
  0.00000000E+00  0.00000000E+00  0.00000000E+00
  0.00000000E+00  0.00000000E+00  0.00000000E+00
  0.00000000E+00  0.00000000E+00  0.00000000E+00
  0.00000000E+00  0.00000000E+00  0.00000000E+00
  0.00000000E+00  0.00000000E+00  0.00000000E+00
  0.00000000E+00  0.00000000E+00  0.00000000E+00
  0.00000000E+00  0.00000000E+00  0.00000000E+00
  0.00000000E+00  0.00000000E+00  0.00000000E+00
