Re1 C126 O1                             
   1.00000000000000     
    19.8271019645923552   -0.0000169952843552   -0.0502284802570879
    -9.9136021328155834   17.0683390120264633   -0.0542554102458524
    -0.0753307146629195   -0.1382248858186540   29.7347282537418245
   Re   C    O 
     1   126     1
Direct
  0.4391539540162507  0.5016012290451850  0.4316220671765275
  0.0419470405983883  0.0840247237072481  0.3996096993672760
  0.0407834765545029  0.2079500364371057  0.3994786221005112
  0.0402524120226849  0.3326576364309497  0.3993419413718182
  0.0403948447908140  0.4582974689577697  0.3995127563897165
  0.0413503125189750  0.5838660270331828  0.3999381926217554
  0.0421727471223443  0.7092434082302431  0.4000493259707710
  0.0425586184779954  0.8346286407475623  0.4000488103311127
  0.0425567522985613  0.9596052785643268  0.3998567271080801
  0.1677114510829986  0.0853396356083220  0.3997643065982032
  0.1670244841952868  0.2097053492356008  0.3999540202888108
  0.1649976615630272  0.3331254218620147  0.3998491601897584
  0.1637695483322509  0.4582417907026408  0.3989476464862986
  0.1649850930931564  0.5836621654375016  0.3991099931785615
  0.1664740621939630  0.7092479170053591  0.3997373127799979
  0.1671606777429568  0.8346434759334042  0.4000481964792849
  0.1675890594339245  0.9600697963569118  0.3998771111739606
  0.2927023015558654  0.0853548304290118  0.3997434099726406
  0.2934195946322504  0.2117901484110724  0.4010748102518000
  0.2923470829179681  0.3367495270842470  0.4036323664726723
  0.2863530593892900  0.4576544063604344  0.4026262599903854
  0.2883340812248980  0.5839564998199588  0.3994311078088752
  0.2907161487354182  0.7090176170599650  0.3992996885010684
  0.2916248181849894  0.8341430380056963  0.3997468012792816
  0.2921750370345597  0.9596285456840948  0.3998466719648078
  0.4171952122677636  0.0840346158966685  0.3996064087808042
  0.4177355923583073  0.2097035689265048  0.3998349692161460
  0.4194846235903198  0.3367280370754470  0.4031177996013439
  0.4100901350311764  0.5811508738027672  0.4058840969965712
  0.4151542392766948  0.7069857059147538  0.4000450287535297
  0.4161366007559203  0.8328449345182116  0.3995187816817337
  0.4166798045013863  0.9584167670626716  0.3998049555754486
  0.5416581657284500  0.0826197756343904  0.3998300813576700
  0.5422424439955333  0.2079580449326520  0.3995297642566866
  0.5431986428759078  0.3331289357812981  0.3995865155405204
  0.5463767091939558  0.4576422060339754  0.4015875486992957
  0.5461959414574781  0.5811309406264809  0.4047899024062206
  0.5400850382243839  0.7051105775573507  0.4023660399433360
  0.5405527603763859  0.8312775920688501  0.4000075205711045
  0.5412058226411078  0.9570726224528576  0.3998009376320770
  0.6661711734423992  0.0819827149951628  0.3999635320234018
  0.6666843942153096  0.2073829307758757  0.3998610147778301
  0.6674617177941045  0.3326527371553119  0.3994657274800437
  0.6695588242945562  0.4582396956225766  0.3988784305690975
  0.6707040164121831  0.5839473850436128  0.3989856999784024
  0.6668879638855384  0.7069856946230949  0.3997174270260664
  0.6657691852682776  0.8312689274227028  0.3999045332318791
  0.6658622541516998  0.9566245453923157  0.3998748628638371
  0.7909405556502299  0.0819843862233247  0.3999996178645643
  0.7911412846521776  0.2071814585404136  0.4001194163542838
  0.7917898251834483  0.3326730633527903  0.3999498907924873
  0.7929728267833885  0.4582925841669730  0.3996726590941982
  0.7937378468727088  0.5836428368808391  0.3992868101810587
  0.7933433456280539  0.7089945489702010  0.3993290295761932
  0.7917790919739195  0.8328391188827842  0.3995249302287766
  0.7909525307717712  0.9570618173124661  0.3998190827498862
  0.9160864061000922  0.0826066619750630  0.3998153946595627
  0.9157994226101582  0.2073977493634504  0.3998441638398657
  0.9159684802544046  0.3326918255080778  0.3999403608981105
  0.9166326245354572  0.4581736128262298  0.4000815458699333
  0.9176076518224647  0.5838604677628421  0.3999836677008269
  0.9178353089093664  0.7092236197822346  0.3998282063423985
  0.9175915086026820  0.8341236420598185  0.3998671241506682
  0.9168638559336630  0.9584053759270297  0.3998652469420254
  0.0842161748603469  0.0430853830918614  0.3996745063562956
  0.0834053469503020  0.1673511069848963  0.3994973210587782
  0.0817924851406666  0.2911301702378886  0.3993949205685035
  0.0814081784102476  0.4164596429256518  0.3991253497784046
  0.0821608461152637  0.5418501049195787  0.3995136241056307
  0.0833523749653172  0.6674646913411409  0.3999493835738132
  0.0840221174359833  0.7929595752768661  0.4000710481028042
  0.0842534275372758  0.9181569069373113  0.3999717534156589
  0.2093158541855538  0.0435453349319052  0.3997563163361415
  0.2093832322300133  0.1689322487126246  0.4002443845999429
  0.2083546102119868  0.2932667859361893  0.4006806833371099
  0.2045027884264883  0.4161737437498561  0.3997418269151534
  0.2055413017217404  0.5418615767822258  0.3989033714663536
  0.2076351573646746  0.6674643225012894  0.3993372862150719
  0.2084592115162566  0.7927351266042889  0.3998733930039773
  0.2090249413457230  0.9181713624447535  0.3999737982109594
  0.3339693265762770  0.0431143523116731  0.3996676085377273
  0.3346032051184261  0.1689449920632598  0.4001528493247269
  0.3351469867748037  0.2952156347271255  0.4033008507427758
  0.3293483906659986  0.4194366599373190  0.4069405052290095
  0.3287464485147509  0.5425695067712629  0.4021926348394835
  0.3319086773374461  0.6670228003015632  0.3994451418628410
  0.3329088268800641  0.7922051034420068  0.3995129238509594
  0.3335455346643485  0.9175529149714101  0.3998227716361399
  0.4585400005632251  0.0418120232460531  0.3997805919417244
  0.4590276341151647  0.1673592197016124  0.3994834895098696
  0.4599819681017968  0.2932621948846982  0.4003619223094786
  0.4652166497908382  0.4194306438950927  0.4058083487547288
  0.4557547759812324  0.6636630445868911  0.4026344492614998
  0.4574067662534559  0.7905161951866844  0.3996622648539995
  0.4579944362503288  0.9161773605755071  0.3997174328147139
  0.5830267654874794  0.0405441742859529  0.3998852700250415
  0.5835341255599550  0.1660082925100139  0.3997365935319647
  0.5843946637579823  0.2911326779834672  0.3994101107517296
  0.5867593875593917  0.4161714293096398  0.3992875843936365
  0.5888976501957458  0.5425486116473809  0.4011728629845037
  0.5829965402432513  0.6636819155360176  0.4021468703328065
  0.5817587638384558  0.7884725876528591  0.4005470551464622
  0.5824681541677162  0.9148448507253715  0.3998535341382782
  0.7076059410755918  0.0400883185080304  0.3999245426693577
  0.7080094340584756  0.1654935556632197  0.4000439991132752
  0.7086364919501703  0.2908577333430769  0.3997585579274167
  0.7101234070641299  0.4164584855336406  0.3992933135863953
  0.7113957836733749  0.5418524902678475  0.3988486623690494
  0.7101652453408456  0.6670118572647995  0.3991761791990892
  0.7081578511139396  0.7905122140455633  0.3995351634075353
  0.7074448959219674  0.9148290555788762  0.3998216646555884
  0.8326396791995790  0.0405369401852000  0.3999142220703610
  0.8325966852601964  0.1655040842497106  0.4000624615776845
  0.8329979364681510  0.2909063904675913  0.4000782547663286
  0.8338110502629191  0.4162946046622401  0.3999625545394495
  0.8347642634228079  0.5418390464090390  0.3996800066982364
  0.8348689324328818  0.6674422001512099  0.3994851338423727
  0.8343542361659452  0.7921896014775862  0.3995911864147250
  0.8332902778088386  0.9161770657690274  0.3997568895535386
  0.9584039962616494  0.0418012617382393  0.3997835728165697
  0.9575617014468660  0.1660007864221102  0.3996801865064058
  0.9573014995805658  0.2908811106501389  0.3996907072301000
  0.9575647935636776  0.4163067238723872  0.3999247617985234
  0.9585677703587520  0.5420242410499364  0.4000912816504416
  0.9592045247872183  0.6674589987906713  0.3999714647252330
  0.9593372320529431  0.7927033070792404  0.3999318909889202
  0.9591180356036140  0.9175321743991067  0.3999045404848193
  0.4431994605728040  0.5054062697904257  0.4894914355280511
 
  0.00000000E+00  0.00000000E+00  0.00000000E+00
  0.00000000E+00  0.00000000E+00  0.00000000E+00
  0.00000000E+00  0.00000000E+00  0.00000000E+00
  0.00000000E+00  0.00000000E+00  0.00000000E+00
  0.00000000E+00  0.00000000E+00  0.00000000E+00
  0.00000000E+00  0.00000000E+00  0.00000000E+00
  0.00000000E+00  0.00000000E+00  0.00000000E+00
  0.00000000E+00  0.00000000E+00  0.00000000E+00
  0.00000000E+00  0.00000000E+00  0.00000000E+00
  0.00000000E+00  0.00000000E+00  0.00000000E+00
  0.00000000E+00  0.00000000E+00  0.00000000E+00
  0.00000000E+00  0.00000000E+00  0.00000000E+00
  0.00000000E+00  0.00000000E+00  0.00000000E+00
  0.00000000E+00  0.00000000E+00  0.00000000E+00
  0.00000000E+00  0.00000000E+00  0.00000000E+00
  0.00000000E+00  0.00000000E+00  0.00000000E+00
  0.00000000E+00  0.00000000E+00  0.00000000E+00
  0.00000000E+00  0.00000000E+00  0.00000000E+00
  0.00000000E+00  0.00000000E+00  0.00000000E+00
  0.00000000E+00  0.00000000E+00  0.00000000E+00
  0.00000000E+00  0.00000000E+00  0.00000000E+00
  0.00000000E+00  0.00000000E+00  0.00000000E+00
  0.00000000E+00  0.00000000E+00  0.00000000E+00
  0.00000000E+00  0.00000000E+00  0.00000000E+00
  0.00000000E+00  0.00000000E+00  0.00000000E+00
  0.00000000E+00  0.00000000E+00  0.00000000E+00
  0.00000000E+00  0.00000000E+00  0.00000000E+00
  0.00000000E+00  0.00000000E+00  0.00000000E+00
  0.00000000E+00  0.00000000E+00  0.00000000E+00
  0.00000000E+00  0.00000000E+00  0.00000000E+00
  0.00000000E+00  0.00000000E+00  0.00000000E+00
  0.00000000E+00  0.00000000E+00  0.00000000E+00
  0.00000000E+00  0.00000000E+00  0.00000000E+00
  0.00000000E+00  0.00000000E+00  0.00000000E+00
  0.00000000E+00  0.00000000E+00  0.00000000E+00
  0.00000000E+00  0.00000000E+00  0.00000000E+00
  0.00000000E+00  0.00000000E+00  0.00000000E+00
  0.00000000E+00  0.00000000E+00  0.00000000E+00
  0.00000000E+00  0.00000000E+00  0.00000000E+00
  0.00000000E+00  0.00000000E+00  0.00000000E+00
  0.00000000E+00  0.00000000E+00  0.00000000E+00
  0.00000000E+00  0.00000000E+00  0.00000000E+00
  0.00000000E+00  0.00000000E+00  0.00000000E+00
  0.00000000E+00  0.00000000E+00  0.00000000E+00
  0.00000000E+00  0.00000000E+00  0.00000000E+00
  0.00000000E+00  0.00000000E+00  0.00000000E+00
  0.00000000E+00  0.00000000E+00  0.00000000E+00
  0.00000000E+00  0.00000000E+00  0.00000000E+00
  0.00000000E+00  0.00000000E+00  0.00000000E+00
  0.00000000E+00  0.00000000E+00  0.00000000E+00
  0.00000000E+00  0.00000000E+00  0.00000000E+00
  0.00000000E+00  0.00000000E+00  0.00000000E+00
  0.00000000E+00  0.00000000E+00  0.00000000E+00
  0.00000000E+00  0.00000000E+00  0.00000000E+00
  0.00000000E+00  0.00000000E+00  0.00000000E+00
  0.00000000E+00  0.00000000E+00  0.00000000E+00
  0.00000000E+00  0.00000000E+00  0.00000000E+00
  0.00000000E+00  0.00000000E+00  0.00000000E+00
  0.00000000E+00  0.00000000E+00  0.00000000E+00
  0.00000000E+00  0.00000000E+00  0.00000000E+00
  0.00000000E+00  0.00000000E+00  0.00000000E+00
  0.00000000E+00  0.00000000E+00  0.00000000E+00
  0.00000000E+00  0.00000000E+00  0.00000000E+00
  0.00000000E+00  0.00000000E+00  0.00000000E+00
  0.00000000E+00  0.00000000E+00  0.00000000E+00
  0.00000000E+00  0.00000000E+00  0.00000000E+00
  0.00000000E+00  0.00000000E+00  0.00000000E+00
  0.00000000E+00  0.00000000E+00  0.00000000E+00
  0.00000000E+00  0.00000000E+00  0.00000000E+00
  0.00000000E+00  0.00000000E+00  0.00000000E+00
  0.00000000E+00  0.00000000E+00  0.00000000E+00
  0.00000000E+00  0.00000000E+00  0.00000000E+00
  0.00000000E+00  0.00000000E+00  0.00000000E+00
  0.00000000E+00  0.00000000E+00  0.00000000E+00
  0.00000000E+00  0.00000000E+00  0.00000000E+00
  0.00000000E+00  0.00000000E+00  0.00000000E+00
  0.00000000E+00  0.00000000E+00  0.00000000E+00
  0.00000000E+00  0.00000000E+00  0.00000000E+00
  0.00000000E+00  0.00000000E+00  0.00000000E+00
  0.00000000E+00  0.00000000E+00  0.00000000E+00
  0.00000000E+00  0.00000000E+00  0.00000000E+00
  0.00000000E+00  0.00000000E+00  0.00000000E+00
  0.00000000E+00  0.00000000E+00  0.00000000E+00
  0.00000000E+00  0.00000000E+00  0.00000000E+00
  0.00000000E+00  0.00000000E+00  0.00000000E+00
  0.00000000E+00  0.00000000E+00  0.00000000E+00
  0.00000000E+00  0.00000000E+00  0.00000000E+00
  0.00000000E+00  0.00000000E+00  0.00000000E+00
  0.00000000E+00  0.00000000E+00  0.00000000E+00
  0.00000000E+00  0.00000000E+00  0.00000000E+00
  0.00000000E+00  0.00000000E+00  0.00000000E+00
  0.00000000E+00  0.00000000E+00  0.00000000E+00
  0.00000000E+00  0.00000000E+00  0.00000000E+00
  0.00000000E+00  0.00000000E+00  0.00000000E+00
  0.00000000E+00  0.00000000E+00  0.00000000E+00
  0.00000000E+00  0.00000000E+00  0.00000000E+00
  0.00000000E+00  0.00000000E+00  0.00000000E+00
  0.00000000E+00  0.00000000E+00  0.00000000E+00
  0.00000000E+00  0.00000000E+00  0.00000000E+00
  0.00000000E+00  0.00000000E+00  0.00000000E+00
  0.00000000E+00  0.00000000E+00  0.00000000E+00
  0.00000000E+00  0.00000000E+00  0.00000000E+00
  0.00000000E+00  0.00000000E+00  0.00000000E+00
  0.00000000E+00  0.00000000E+00  0.00000000E+00
  0.00000000E+00  0.00000000E+00  0.00000000E+00
  0.00000000E+00  0.00000000E+00  0.00000000E+00
  0.00000000E+00  0.00000000E+00  0.00000000E+00
  0.00000000E+00  0.00000000E+00  0.00000000E+00
  0.00000000E+00  0.00000000E+00  0.00000000E+00
  0.00000000E+00  0.00000000E+00  0.00000000E+00
  0.00000000E+00  0.00000000E+00  0.00000000E+00
  0.00000000E+00  0.00000000E+00  0.00000000E+00
  0.00000000E+00  0.00000000E+00  0.00000000E+00
  0.00000000E+00  0.00000000E+00  0.00000000E+00
  0.00000000E+00  0.00000000E+00  0.00000000E+00
  0.00000000E+00  0.00000000E+00  0.00000000E+00
  0.00000000E+00  0.00000000E+00  0.00000000E+00
  0.00000000E+00  0.00000000E+00  0.00000000E+00
  0.00000000E+00  0.00000000E+00  0.00000000E+00
  0.00000000E+00  0.00000000E+00  0.00000000E+00
  0.00000000E+00  0.00000000E+00  0.00000000E+00
  0.00000000E+00  0.00000000E+00  0.00000000E+00
  0.00000000E+00  0.00000000E+00  0.00000000E+00
  0.00000000E+00  0.00000000E+00  0.00000000E+00
  0.00000000E+00  0.00000000E+00  0.00000000E+00
  0.00000000E+00  0.00000000E+00  0.00000000E+00
  0.00000000E+00  0.00000000E+00  0.00000000E+00
  0.00000000E+00  0.00000000E+00  0.00000000E+00
