W1 C122 N4                              
   1.00000000000000     
    19.8554534126473818    0.0000043560904481    0.0008463832572051
    -9.9277224276141709   17.0480033333570518   -0.0002783507508008
     0.0012749855594721    0.0002538565149488   29.7268372244119092
   W    C    N 
     1   122     4
Direct
  0.4374944944733636  0.5000001206686256  0.4225613277196359
  0.0417665064080974  0.0837806592661102  0.3996177323630086
  0.0406285116145996  0.2078766922465836  0.3994534368010246
  0.0397370133679831  0.3327259787299975  0.3993178099577898
  0.0398958203564606  0.4581750882318155  0.3993988528559633
  0.0410849850084202  0.5838152624395274  0.3999012601448160
  0.0421397647062158  0.7092818562316062  0.4000836357158664
  0.0424974988862148  0.8344001213392856  0.4000983411186282
  0.0424835657191381  0.9594263813536211  0.3999270224470743
  0.1679496399845816  0.0854260849357441  0.3998006199382975
  0.1667618611062436  0.2094704274669403  0.3994900678607818
  0.1640992666335871  0.3331452795805858  0.3994084696889209
  0.1628892799648917  0.4584421577824133  0.3983040291739146
  0.1644029903456356  0.5838496285626411  0.3988606587631444
  0.1661482600439195  0.7091037881444239  0.3998145828746142
  0.1668995415285201  0.8343953326912892  0.4000793663160832
  0.1673833515767087  0.9597624005032249  0.4000387372147086
  0.2924786164664271  0.0854277514462532  0.3997813197710157
  0.2938917628277827  0.2127811819663305  0.4008522605140352
  0.2904885930944177  0.3370101423368090  0.4035176314086219
  0.2849385314358492  0.4576131936674363  0.4027237639853575
  0.2870927306749220  0.5833842965696904  0.3992749198990642
  0.2903028184704792  0.7088057859805126  0.3992078617873824
  0.2914705607989540  0.8340705881707032  0.3997690515688135
  0.2919493245731561  0.9594303624460017  0.3998970058866007
  0.4170118774471900  0.0837787827630009  0.3996078991748577
  0.4177116897243434  0.2094781219251975  0.3994902001742611
  0.4215233365507155  0.3370119148727545  0.4035288343143127
  0.4144717443585254  0.7071691872627212  0.4000640177298604
  0.4160432093488045  0.8327320346314462  0.3993647173099966
  0.4166058568644380  0.9583062139847349  0.3997784389486819
  0.5415986120181688  0.0825074319574176  0.3998545385086701
  0.5422551767987308  0.2078821937781107  0.3994709513827442
  0.5440469658851070  0.3331461107679269  0.3994286046522731
  0.5476792071023444  0.4576203127895523  0.4027457771329006
  0.5386194478290158  0.7022353478399477  0.4031707879169356
  0.5406325862470280  0.8306482598468760  0.3999717890505666
  0.5411972445413374  0.9569068208839475  0.3997575990685631
  0.6662576143247025  0.0821115712651906  0.4000507033161601
  0.6667447757010134  0.2073112580444909  0.3999547096893619
  0.6679945916870872  0.3327301328027539  0.3993406698501741
  0.6705518483406048  0.4584435573319670  0.3983212431695178
  0.6712903686940895  0.5833786893836268  0.3992957716808080
  0.6676945539873790  0.7071620438050846  0.4000739283433350
  0.6650173079605409  0.8306472853951516  0.3999638690649075
  0.6657896172081156  0.9565745872845823  0.3999216416855056
  0.7908552424809361  0.0821069527142798  0.4000307611523448
  0.7911543136051763  0.2073111784082969  0.4001185116531757
  0.7919055916055870  0.3326631682594869  0.3999707242348899
  0.7932797200204674  0.4581785710418246  0.3994119042186961
  0.7944464081019731  0.5838457966726061  0.3988763419844658
  0.7935056749021525  0.7088047121386972  0.3992282789054645
  0.7916861217720230  0.8327243228346809  0.3993655393882997
  0.7907095962347483  0.9569055774695557  0.3997327386401676
  0.9159073303944107  0.0825038339168511  0.3998329997176838
  0.9155669116540139  0.2073093872181440  0.3999276914182198
  0.9157528750626602  0.3326610256540767  0.3999586914432485
  0.9166197046132250  0.4582412565371459  0.4000138516869560
  0.9177272726302100  0.5838147227900976  0.3999097582783303
  0.9179598214742867  0.7091076273587883  0.3998283166076758
  0.9175956757375742  0.8340625502752315  0.3997946796546716
  0.9167040781087947  0.9583022018033744  0.3997817010040193
  0.0842918261151005  0.0430919474792128  0.3997575235278344
  0.0833116353795782  0.1672672901392570  0.3993637192380488
  0.0814971805174445  0.2911940789365992  0.3992063289317592
  0.0805512663350808  0.4161491929984446  0.3988599017273723
  0.0817197534717195  0.5418255907283404  0.3994003570789283
  0.0830890113451481  0.6673364904837343  0.3999603953830843
  0.0838399324903297  0.7926854138182095  0.4001181015132418
  0.0841489892822938  0.9178871677570287  0.4000522086695478
  0.2092130182746387  0.0434240182331422  0.3999217523517289
  0.2099851718439074  0.1693508807410385  0.3999713516243188
  0.2073043148403521  0.2928306446513707  0.4000640797191606
  0.2037081171026271  0.4166158258578681  0.3992727187382651
  0.2044471862836130  0.5415601068758117  0.3983040397891168
  0.2070082829330337  0.6672728596014790  0.3993192069564981
  0.2082550411052104  0.7926904056015430  0.3999273577835132
  0.2087456492027730  0.9178936581783588  0.4000297981408155
  0.3338037677779850  0.0430942872667988  0.3997327157338243
  0.3343687540856807  0.1693541953268724  0.3999641071370063
  0.3363844301167228  0.2977641990731087  0.4031718095070013
  0.3273248593544558  0.5423874923283212  0.4027238611145738
  0.3309526449141013  0.6668533219325232  0.3994091515591263
  0.3327509985486883  0.7921235328058817  0.3994534959137021
  0.3334016383123637  0.9174966927501247  0.3998329670296871
  0.4584006323747503  0.0416985219572348  0.3997815109147367
  0.4589614260214178  0.1672759301588731  0.3993673296824693
  0.4605311733593673  0.2928378319921481  0.4000754397493277
  0.4534771290001872  0.6629895276097973  0.4035169501462789
  0.4572905299304384  0.7905295784954911  0.3994913597895224
  0.4579881814803257  0.9162241672258683  0.3996186296254950
  0.5830510118786557  0.0405711778922628  0.3999258675971246
  0.5835302986001906  0.1659362101267150  0.3997957870223676
  0.5847012424099038  0.2911960194167353  0.3992291814218981
  0.5879075308484480  0.4166227522047207  0.3992972121508201
  0.5900636973905035  0.5423878543389450  0.4027456701150198
  0.5845113954063967  0.6629883792647309  0.4035271214195271
  0.5811124900694780  0.7872206770069754  0.4008516947739448
  0.5825231484674959  0.9145748212306549  0.3998004215354825
  0.7076149768481272  0.0402384421845392  0.4000378275811973
  0.7080954107548552  0.1655988890436994  0.4000973667385687
  0.7088502703393025  0.2908919311324388  0.3998314884673281
  0.7105974708377613  0.4161534486612451  0.3988770814020576
  0.7121081510456004  0.5415573222178572  0.3983197932576504
  0.7109028905505709  0.6668548699792517  0.3994271573806476
  0.7082329108478447  0.7905233982093839  0.3994898950797274
  0.7070519975945502  0.9145718338840267  0.3997829191889213
  0.8325145375491437  0.0405699616386114  0.3998984026117983
  0.8324971051017956  0.1655993692882528  0.4000793398652975
  0.8328582217304106  0.2907180372354574  0.4000832167077260
  0.8339117188572435  0.4161872850557733  0.3999096925442476
  0.8351007498173397  0.5418206206066610  0.3994113678558527
  0.8352639991790742  0.6672688642328219  0.3993386190691106
  0.8343737538915843  0.7921188519684701  0.3994692516338902
  0.8332326946835308  0.9162179308296421  0.3996090548302010
  0.9582994301969219  0.0416937630000146  0.3997783974286984
  0.9574021442315477  0.1659311954423759  0.3997687602898494
  0.9570442708752516  0.2908971083395447  0.3998120899217245
  0.9572677731418373  0.4161813433397712  0.3998990521656124
  0.9583784438082491  0.5417600506878364  0.4000150025965927
  0.9592419356457679  0.6673368125576877  0.3999697462364851
  0.9594334765400925  0.7926873316298803  0.3999532155041499
  0.9590931161289128  0.9174905219511489  0.3998538610050149
  0.4073047672457801  0.5833423812931982  0.4080726643835578
  0.5510341713402681  0.5833414677256228  0.4080907820478760
  0.3239620399271611  0.4166573969705217  0.4080726762502335
  0.4676939533349779  0.4166605219402338  0.4080922049159193
 
  0.00000000E+00  0.00000000E+00  0.00000000E+00
  0.00000000E+00  0.00000000E+00  0.00000000E+00
  0.00000000E+00  0.00000000E+00  0.00000000E+00
  0.00000000E+00  0.00000000E+00  0.00000000E+00
  0.00000000E+00  0.00000000E+00  0.00000000E+00
  0.00000000E+00  0.00000000E+00  0.00000000E+00
  0.00000000E+00  0.00000000E+00  0.00000000E+00
  0.00000000E+00  0.00000000E+00  0.00000000E+00
  0.00000000E+00  0.00000000E+00  0.00000000E+00
  0.00000000E+00  0.00000000E+00  0.00000000E+00
  0.00000000E+00  0.00000000E+00  0.00000000E+00
  0.00000000E+00  0.00000000E+00  0.00000000E+00
  0.00000000E+00  0.00000000E+00  0.00000000E+00
  0.00000000E+00  0.00000000E+00  0.00000000E+00
  0.00000000E+00  0.00000000E+00  0.00000000E+00
  0.00000000E+00  0.00000000E+00  0.00000000E+00
  0.00000000E+00  0.00000000E+00  0.00000000E+00
  0.00000000E+00  0.00000000E+00  0.00000000E+00
  0.00000000E+00  0.00000000E+00  0.00000000E+00
  0.00000000E+00  0.00000000E+00  0.00000000E+00
  0.00000000E+00  0.00000000E+00  0.00000000E+00
  0.00000000E+00  0.00000000E+00  0.00000000E+00
  0.00000000E+00  0.00000000E+00  0.00000000E+00
  0.00000000E+00  0.00000000E+00  0.00000000E+00
  0.00000000E+00  0.00000000E+00  0.00000000E+00
  0.00000000E+00  0.00000000E+00  0.00000000E+00
  0.00000000E+00  0.00000000E+00  0.00000000E+00
  0.00000000E+00  0.00000000E+00  0.00000000E+00
  0.00000000E+00  0.00000000E+00  0.00000000E+00
  0.00000000E+00  0.00000000E+00  0.00000000E+00
  0.00000000E+00  0.00000000E+00  0.00000000E+00
  0.00000000E+00  0.00000000E+00  0.00000000E+00
  0.00000000E+00  0.00000000E+00  0.00000000E+00
  0.00000000E+00  0.00000000E+00  0.00000000E+00
  0.00000000E+00  0.00000000E+00  0.00000000E+00
  0.00000000E+00  0.00000000E+00  0.00000000E+00
  0.00000000E+00  0.00000000E+00  0.00000000E+00
  0.00000000E+00  0.00000000E+00  0.00000000E+00
  0.00000000E+00  0.00000000E+00  0.00000000E+00
  0.00000000E+00  0.00000000E+00  0.00000000E+00
  0.00000000E+00  0.00000000E+00  0.00000000E+00
  0.00000000E+00  0.00000000E+00  0.00000000E+00
  0.00000000E+00  0.00000000E+00  0.00000000E+00
  0.00000000E+00  0.00000000E+00  0.00000000E+00
  0.00000000E+00  0.00000000E+00  0.00000000E+00
  0.00000000E+00  0.00000000E+00  0.00000000E+00
  0.00000000E+00  0.00000000E+00  0.00000000E+00
  0.00000000E+00  0.00000000E+00  0.00000000E+00
  0.00000000E+00  0.00000000E+00  0.00000000E+00
  0.00000000E+00  0.00000000E+00  0.00000000E+00
  0.00000000E+00  0.00000000E+00  0.00000000E+00
  0.00000000E+00  0.00000000E+00  0.00000000E+00
  0.00000000E+00  0.00000000E+00  0.00000000E+00
  0.00000000E+00  0.00000000E+00  0.00000000E+00
  0.00000000E+00  0.00000000E+00  0.00000000E+00
  0.00000000E+00  0.00000000E+00  0.00000000E+00
  0.00000000E+00  0.00000000E+00  0.00000000E+00
  0.00000000E+00  0.00000000E+00  0.00000000E+00
  0.00000000E+00  0.00000000E+00  0.00000000E+00
  0.00000000E+00  0.00000000E+00  0.00000000E+00
  0.00000000E+00  0.00000000E+00  0.00000000E+00
  0.00000000E+00  0.00000000E+00  0.00000000E+00
  0.00000000E+00  0.00000000E+00  0.00000000E+00
  0.00000000E+00  0.00000000E+00  0.00000000E+00
  0.00000000E+00  0.00000000E+00  0.00000000E+00
  0.00000000E+00  0.00000000E+00  0.00000000E+00
  0.00000000E+00  0.00000000E+00  0.00000000E+00
  0.00000000E+00  0.00000000E+00  0.00000000E+00
  0.00000000E+00  0.00000000E+00  0.00000000E+00
  0.00000000E+00  0.00000000E+00  0.00000000E+00
  0.00000000E+00  0.00000000E+00  0.00000000E+00
  0.00000000E+00  0.00000000E+00  0.00000000E+00
  0.00000000E+00  0.00000000E+00  0.00000000E+00
  0.00000000E+00  0.00000000E+00  0.00000000E+00
  0.00000000E+00  0.00000000E+00  0.00000000E+00
  0.00000000E+00  0.00000000E+00  0.00000000E+00
  0.00000000E+00  0.00000000E+00  0.00000000E+00
  0.00000000E+00  0.00000000E+00  0.00000000E+00
  0.00000000E+00  0.00000000E+00  0.00000000E+00
  0.00000000E+00  0.00000000E+00  0.00000000E+00
  0.00000000E+00  0.00000000E+00  0.00000000E+00
  0.00000000E+00  0.00000000E+00  0.00000000E+00
  0.00000000E+00  0.00000000E+00  0.00000000E+00
  0.00000000E+00  0.00000000E+00  0.00000000E+00
  0.00000000E+00  0.00000000E+00  0.00000000E+00
  0.00000000E+00  0.00000000E+00  0.00000000E+00
  0.00000000E+00  0.00000000E+00  0.00000000E+00
  0.00000000E+00  0.00000000E+00  0.00000000E+00
  0.00000000E+00  0.00000000E+00  0.00000000E+00
  0.00000000E+00  0.00000000E+00  0.00000000E+00
  0.00000000E+00  0.00000000E+00  0.00000000E+00
  0.00000000E+00  0.00000000E+00  0.00000000E+00
  0.00000000E+00  0.00000000E+00  0.00000000E+00
  0.00000000E+00  0.00000000E+00  0.00000000E+00
  0.00000000E+00  0.00000000E+00  0.00000000E+00
  0.00000000E+00  0.00000000E+00  0.00000000E+00
  0.00000000E+00  0.00000000E+00  0.00000000E+00
  0.00000000E+00  0.00000000E+00  0.00000000E+00
  0.00000000E+00  0.00000000E+00  0.00000000E+00
  0.00000000E+00  0.00000000E+00  0.00000000E+00
  0.00000000E+00  0.00000000E+00  0.00000000E+00
  0.00000000E+00  0.00000000E+00  0.00000000E+00
  0.00000000E+00  0.00000000E+00  0.00000000E+00
  0.00000000E+00  0.00000000E+00  0.00000000E+00
  0.00000000E+00  0.00000000E+00  0.00000000E+00
  0.00000000E+00  0.00000000E+00  0.00000000E+00
  0.00000000E+00  0.00000000E+00  0.00000000E+00
  0.00000000E+00  0.00000000E+00  0.00000000E+00
  0.00000000E+00  0.00000000E+00  0.00000000E+00
  0.00000000E+00  0.00000000E+00  0.00000000E+00
  0.00000000E+00  0.00000000E+00  0.00000000E+00
  0.00000000E+00  0.00000000E+00  0.00000000E+00
  0.00000000E+00  0.00000000E+00  0.00000000E+00
  0.00000000E+00  0.00000000E+00  0.00000000E+00
  0.00000000E+00  0.00000000E+00  0.00000000E+00
  0.00000000E+00  0.00000000E+00  0.00000000E+00
  0.00000000E+00  0.00000000E+00  0.00000000E+00
  0.00000000E+00  0.00000000E+00  0.00000000E+00
  0.00000000E+00  0.00000000E+00  0.00000000E+00
  0.00000000E+00  0.00000000E+00  0.00000000E+00
  0.00000000E+00  0.00000000E+00  0.00000000E+00
  0.00000000E+00  0.00000000E+00  0.00000000E+00
  0.00000000E+00  0.00000000E+00  0.00000000E+00
  0.00000000E+00  0.00000000E+00  0.00000000E+00
  0.00000000E+00  0.00000000E+00  0.00000000E+00
  0.00000000E+00  0.00000000E+00  0.00000000E+00
  0.00000000E+00  0.00000000E+00  0.00000000E+00
