ALGO = Fast
AMIX = 0.1
BMIX = 0.01
EDIFF = 1e-06
EDIFFG = -0.05
ENCUT = 520
IBRION = 2
ISIF = 4
ISMEAR = 0
ISPIN = 2
ISYM = 0
IVDW = 1
LASPH = True
LCHARG = False
LMAXMIX = 6
LORBIT = 11
LREAL = Auto
LVDW = True
LVTOT = False
LWAVE = False
MAGMOM = 130*0.6
NELM = 100
NELMIN = 8
NPAR = 1
NSW = 1000
POTIM = 0.1
PREC = Accurate
SIGMA = 0.05
