Cr1 H1 C125 N1 O2                       
   1.00000000000000     
    19.7992311293699643   -0.0092772091049268    0.1598320912648450
    -9.9075966784664793   17.0542713868279172   -0.2638501100602411
     0.2401892899356578   -0.3213248387608216   29.8138126378010249
   Cr   H    C    N    O 
     1     1   125     1     2
Direct
  0.4370244277069654  0.5023498834513075  0.4289579444233302
  0.5325970837799612  0.5491565846583603  0.5267923054040038
  0.0419932105958893  0.0842543479496099  0.3997971044281757
  0.0414556097841927  0.2086320598796669  0.3996103300690728
  0.0409937759721924  0.3331876289385996  0.3993362134797495
  0.0409319035723594  0.4584351331929906  0.3993890171711104
  0.0413874643008627  0.5837536421317303  0.3995252365960878
  0.0417730670675281  0.7089926058742823  0.3994697941621498
  0.0420234858117290  0.8343150122764199  0.3994737481287037
  0.0421218998544214  0.9594393203160173  0.3996305866888452
  0.1675594131793039  0.0853849357892484  0.4002898450532515
  0.1675307385766600  0.2103369235292854  0.4002862247741315
  0.1664023503805616  0.3343048069435245  0.3995030965638445
  0.1650476740669864  0.4586481012699488  0.3990175218014756
  0.1655472439281582  0.5837241344507618  0.3993166167959541
  0.1663287588962706  0.7090493303509761  0.3995995206668742
  0.1668583238849546  0.8343957612349067  0.3996281398535708
  0.1672189494297371  0.9598265328343678  0.3998793029951802
  0.2924550433059031  0.0852975458753885  0.4006320096450858
  0.2933501374434568  0.2118115737350187  0.4021144732668629
  0.2935440233332956  0.3379189209199127  0.4027689530410862
  0.2897099636224524  0.4593985263478390  0.4006565981386688
  0.2894247148085666  0.5843110157862748  0.3994131828955101
  0.2907914364080073  0.7090829537373539  0.3995161174792869
  0.2915508876988435  0.8341249064790233  0.3996123467601418
  0.2918910171318742  0.9594597068446146  0.3998191958436051
  0.4169588740742191  0.0840954911524257  0.4000324318271726
  0.4175300363165736  0.2100016098449214  0.4015122237692265
  0.4192449967043190  0.3374361522455558  0.4059031714568690
  0.4149419296820845  0.7069411784192627  0.4003093283263546
  0.4161338015745866  0.8328835291421355  0.3997445333512870
  0.4165779965618299  0.9584499939529926  0.3996500698084823
  0.5415536734529801  0.0828386274784503  0.3996558675378292
  0.5420115219484961  0.2081705211093893  0.4000708006268121
  0.5428327570967419  0.3333709971201089  0.4017682086405533
  0.5450807388074475  0.4579757639081629  0.4053211242941726
  0.5436994409954296  0.5800218704007765  0.4074375687735186
  0.5385066692273230  0.7038519606780284  0.4028954891666118
  0.5403901500287364  0.8312905152507611  0.4004894729232230
  0.5412049330955119  0.9573078145051942  0.3997951807046191
  0.6662338961021420  0.0823237253943078  0.3997096976813348
  0.6666368608902274  0.2076504378939600  0.3995131371795945
  0.6671663566982234  0.3328176611006323  0.3994977380727436
  0.6686238310145092  0.4581878993347905  0.3999278748473299
  0.6693564586227581  0.5835768005016261  0.4008134970781307
  0.6656236928564718  0.7063862261430021  0.4012692459756890
  0.6648496311265525  0.8309235724558970  0.4008204997214337
  0.6657408505636407  0.9568333505836673  0.4001404943723491
  0.7910268601075283  0.0823569216302736  0.3998256074917345
  0.7913194237033667  0.2075615069781118  0.3995227234899020
  0.7917507516203619  0.3328513118256498  0.3992539652346641
  0.7924811470506631  0.4582172088846975  0.3989515909845146
  0.7929736331015145  0.5834630798633065  0.3989458471706083
  0.7923408465251132  0.7085933082060334  0.3993715830404507
  0.7909845357721847  0.8325520966120881  0.3997216279595675
  0.7906517063902557  0.9571315361837048  0.3999433209553578
  0.9162047682634681  0.0829530373970815  0.3997462825185920
  0.9161976931336202  0.2078496512103190  0.3995891264822309
  0.9162908364623852  0.3329693185161725  0.3994330192420977
  0.9166424726072595  0.4582188006522346  0.3993305740251978
  0.9171461177195785  0.5836195473161964  0.3991543905029823
  0.9171832892425353  0.7089150121084764  0.3990646363930378
  0.9169486124578958  0.8338201405917425  0.3992539256344428
  0.9164536458950094  0.9583450721115704  0.3995724625314212
  0.0840000188020310  0.0430627535982971  0.3998618103534250
  0.0838163526062947  0.1677895453139276  0.3998227715666790
  0.0828712360469313  0.2919762877464571  0.3993719849276663
  0.0822642697739989  0.4167744917312883  0.3991889003254200
  0.0825497191434190  0.5419409757460785  0.3994464601847044
  0.0831531738526924  0.6672941814477464  0.3995735937279243
  0.0835815275520474  0.7926420519219533  0.3995410434155207
  0.0838002015844893  0.9178929195197094  0.3996515716076957
  0.2090275691992812  0.0434399915034839  0.4002896620472922
  0.2094699772072918  0.1691354521630948  0.4008192757821900
  0.2093774120845348  0.2941670629686256  0.4004293306220595
  0.2066953499291687  0.4175051679662823  0.3993202196860293
  0.2064687496308717  0.5419852705165668  0.3990896083563919
  0.2076436198494872  0.6673388497617214  0.3994969228571284
  0.2082930607887085  0.7925711270969467  0.3996193685402438
  0.2086769449368155  0.9179409311292716  0.3997699798829615
  0.3336915663255879  0.0430124681021729  0.4001382161139743
  0.3343761004212084  0.1689668420288105  0.4015538978929941
  0.3352890369410603  0.2954869957922835  0.4042362171101809
  0.3328892633039215  0.4210950073998165  0.4036519296118601
  0.3311795480163774  0.5440202386103290  0.4006439774409788
  0.3319718924494191  0.6672986954254432  0.3996368684909219
  0.3329579180415281  0.7922740280953704  0.3996286282883543
  0.3333696143626593  0.9175145459731152  0.3996667568907363
  0.4583675788548549  0.0419203056818372  0.3997226783330954
  0.4587460717786176  0.1675191060884654  0.4004161344115154
  0.4596622012557756  0.2936777374056350  0.4028923867043926
  0.4636610856899558  0.4205319482122358  0.4099410548762468
  0.4542825578848797  0.6625882039000575  0.4021408216953267
  0.4573834442405335  0.7905392240893152  0.4000859620570275
  0.4579663022897351  0.9162984705585934  0.3997025256097378
  0.5830155286932236  0.0408752646076499  0.3996806688245191
  0.5833928112016331  0.1662506031779866  0.3996770655133761
  0.5840416427573561  0.2914044118800493  0.4002834567963061
  0.5857386546413847  0.4163641431307996  0.4019004181172428
  0.5872556618194192  0.5420499681535902  0.4042689305380471
  0.5812092209307285  0.6624033976428074  0.4037650819450603
  0.5807755623663868  0.7880021119124498  0.4013861076502377
  0.5824295839570323  0.9150235829797088  0.4001073967663749
  0.7076625811677028  0.0404421319938423  0.3998829983256502
  0.7081020796639957  0.1658894791752367  0.3995610151806334
  0.7085178106303297  0.2911142377591817  0.3993395456474045
  0.7095086823716265  0.4164350863553229  0.3992074496955931
  0.7104034315289274  0.5416886948279847  0.3996361326870868
  0.7090942268714636  0.6666062375545894  0.4003698442275394
  0.7071758312706462  0.7900049854724509  0.4004818924266412
  0.7069747725347868  0.9147225857243001  0.4002844133288365
  0.8326549280833331  0.0407952748551135  0.3998380330713271
  0.8328565102640189  0.1659244871365038  0.3996414572439059
  0.8331563039217353  0.2911868910412433  0.3993971425454857
  0.8336485842794488  0.4164229250290842  0.3991468849085257
  0.8342044158800340  0.5417289641713861  0.3989017305439147
  0.8340831619267002  0.6671336435299889  0.3990004269478613
  0.8335501244245824  0.7918381352337813  0.3993518222656088
  0.8327761012733585  0.9160416463016876  0.3996941561363730
  0.9583284378830580  0.0419096348920314  0.3997013323830220
  0.9580114075751813  0.1664848168409544  0.3996565322973747
  0.9578244756533399  0.2913294469701966  0.3994709707156724
  0.9578993614322221  0.4165148738872245  0.3994332153333817
  0.9584167269091304  0.5419211991079177  0.3993721730168158
  0.9586820783264584  0.6672184886732001  0.3992237737453904
  0.9587330198462096  0.7924077010417172  0.3992361997261603
  0.9586152202103160  0.9173010799011090  0.3994431257039597
  0.4105597854397823  0.5817985843708919  0.4030309915158022
  0.5011803155949072  0.4947537648372235  0.5157696388017536
  0.4459565517906926  0.5040144988347462  0.4868306500985824
 
  0.00000000E+00  0.00000000E+00  0.00000000E+00
  0.00000000E+00  0.00000000E+00  0.00000000E+00
  0.00000000E+00  0.00000000E+00  0.00000000E+00
  0.00000000E+00  0.00000000E+00  0.00000000E+00
  0.00000000E+00  0.00000000E+00  0.00000000E+00
  0.00000000E+00  0.00000000E+00  0.00000000E+00
  0.00000000E+00  0.00000000E+00  0.00000000E+00
  0.00000000E+00  0.00000000E+00  0.00000000E+00
  0.00000000E+00  0.00000000E+00  0.00000000E+00
  0.00000000E+00  0.00000000E+00  0.00000000E+00
  0.00000000E+00  0.00000000E+00  0.00000000E+00
  0.00000000E+00  0.00000000E+00  0.00000000E+00
  0.00000000E+00  0.00000000E+00  0.00000000E+00
  0.00000000E+00  0.00000000E+00  0.00000000E+00
  0.00000000E+00  0.00000000E+00  0.00000000E+00
  0.00000000E+00  0.00000000E+00  0.00000000E+00
  0.00000000E+00  0.00000000E+00  0.00000000E+00
  0.00000000E+00  0.00000000E+00  0.00000000E+00
  0.00000000E+00  0.00000000E+00  0.00000000E+00
  0.00000000E+00  0.00000000E+00  0.00000000E+00
  0.00000000E+00  0.00000000E+00  0.00000000E+00
  0.00000000E+00  0.00000000E+00  0.00000000E+00
  0.00000000E+00  0.00000000E+00  0.00000000E+00
  0.00000000E+00  0.00000000E+00  0.00000000E+00
  0.00000000E+00  0.00000000E+00  0.00000000E+00
  0.00000000E+00  0.00000000E+00  0.00000000E+00
  0.00000000E+00  0.00000000E+00  0.00000000E+00
  0.00000000E+00  0.00000000E+00  0.00000000E+00
  0.00000000E+00  0.00000000E+00  0.00000000E+00
  0.00000000E+00  0.00000000E+00  0.00000000E+00
  0.00000000E+00  0.00000000E+00  0.00000000E+00
  0.00000000E+00  0.00000000E+00  0.00000000E+00
  0.00000000E+00  0.00000000E+00  0.00000000E+00
  0.00000000E+00  0.00000000E+00  0.00000000E+00
  0.00000000E+00  0.00000000E+00  0.00000000E+00
  0.00000000E+00  0.00000000E+00  0.00000000E+00
  0.00000000E+00  0.00000000E+00  0.00000000E+00
  0.00000000E+00  0.00000000E+00  0.00000000E+00
  0.00000000E+00  0.00000000E+00  0.00000000E+00
  0.00000000E+00  0.00000000E+00  0.00000000E+00
  0.00000000E+00  0.00000000E+00  0.00000000E+00
  0.00000000E+00  0.00000000E+00  0.00000000E+00
  0.00000000E+00  0.00000000E+00  0.00000000E+00
  0.00000000E+00  0.00000000E+00  0.00000000E+00
  0.00000000E+00  0.00000000E+00  0.00000000E+00
  0.00000000E+00  0.00000000E+00  0.00000000E+00
  0.00000000E+00  0.00000000E+00  0.00000000E+00
  0.00000000E+00  0.00000000E+00  0.00000000E+00
  0.00000000E+00  0.00000000E+00  0.00000000E+00
  0.00000000E+00  0.00000000E+00  0.00000000E+00
  0.00000000E+00  0.00000000E+00  0.00000000E+00
  0.00000000E+00  0.00000000E+00  0.00000000E+00
  0.00000000E+00  0.00000000E+00  0.00000000E+00
  0.00000000E+00  0.00000000E+00  0.00000000E+00
  0.00000000E+00  0.00000000E+00  0.00000000E+00
  0.00000000E+00  0.00000000E+00  0.00000000E+00
  0.00000000E+00  0.00000000E+00  0.00000000E+00
  0.00000000E+00  0.00000000E+00  0.00000000E+00
  0.00000000E+00  0.00000000E+00  0.00000000E+00
  0.00000000E+00  0.00000000E+00  0.00000000E+00
  0.00000000E+00  0.00000000E+00  0.00000000E+00
  0.00000000E+00  0.00000000E+00  0.00000000E+00
  0.00000000E+00  0.00000000E+00  0.00000000E+00
  0.00000000E+00  0.00000000E+00  0.00000000E+00
  0.00000000E+00  0.00000000E+00  0.00000000E+00
  0.00000000E+00  0.00000000E+00  0.00000000E+00
  0.00000000E+00  0.00000000E+00  0.00000000E+00
  0.00000000E+00  0.00000000E+00  0.00000000E+00
  0.00000000E+00  0.00000000E+00  0.00000000E+00
  0.00000000E+00  0.00000000E+00  0.00000000E+00
  0.00000000E+00  0.00000000E+00  0.00000000E+00
  0.00000000E+00  0.00000000E+00  0.00000000E+00
  0.00000000E+00  0.00000000E+00  0.00000000E+00
  0.00000000E+00  0.00000000E+00  0.00000000E+00
  0.00000000E+00  0.00000000E+00  0.00000000E+00
  0.00000000E+00  0.00000000E+00  0.00000000E+00
  0.00000000E+00  0.00000000E+00  0.00000000E+00
  0.00000000E+00  0.00000000E+00  0.00000000E+00
  0.00000000E+00  0.00000000E+00  0.00000000E+00
  0.00000000E+00  0.00000000E+00  0.00000000E+00
  0.00000000E+00  0.00000000E+00  0.00000000E+00
  0.00000000E+00  0.00000000E+00  0.00000000E+00
  0.00000000E+00  0.00000000E+00  0.00000000E+00
  0.00000000E+00  0.00000000E+00  0.00000000E+00
  0.00000000E+00  0.00000000E+00  0.00000000E+00
  0.00000000E+00  0.00000000E+00  0.00000000E+00
  0.00000000E+00  0.00000000E+00  0.00000000E+00
  0.00000000E+00  0.00000000E+00  0.00000000E+00
  0.00000000E+00  0.00000000E+00  0.00000000E+00
  0.00000000E+00  0.00000000E+00  0.00000000E+00
  0.00000000E+00  0.00000000E+00  0.00000000E+00
  0.00000000E+00  0.00000000E+00  0.00000000E+00
  0.00000000E+00  0.00000000E+00  0.00000000E+00
  0.00000000E+00  0.00000000E+00  0.00000000E+00
  0.00000000E+00  0.00000000E+00  0.00000000E+00
  0.00000000E+00  0.00000000E+00  0.00000000E+00
  0.00000000E+00  0.00000000E+00  0.00000000E+00
  0.00000000E+00  0.00000000E+00  0.00000000E+00
  0.00000000E+00  0.00000000E+00  0.00000000E+00
  0.00000000E+00  0.00000000E+00  0.00000000E+00
  0.00000000E+00  0.00000000E+00  0.00000000E+00
  0.00000000E+00  0.00000000E+00  0.00000000E+00
  0.00000000E+00  0.00000000E+00  0.00000000E+00
  0.00000000E+00  0.00000000E+00  0.00000000E+00
  0.00000000E+00  0.00000000E+00  0.00000000E+00
  0.00000000E+00  0.00000000E+00  0.00000000E+00
  0.00000000E+00  0.00000000E+00  0.00000000E+00
  0.00000000E+00  0.00000000E+00  0.00000000E+00
  0.00000000E+00  0.00000000E+00  0.00000000E+00
  0.00000000E+00  0.00000000E+00  0.00000000E+00
  0.00000000E+00  0.00000000E+00  0.00000000E+00
  0.00000000E+00  0.00000000E+00  0.00000000E+00
  0.00000000E+00  0.00000000E+00  0.00000000E+00
  0.00000000E+00  0.00000000E+00  0.00000000E+00
  0.00000000E+00  0.00000000E+00  0.00000000E+00
  0.00000000E+00  0.00000000E+00  0.00000000E+00
  0.00000000E+00  0.00000000E+00  0.00000000E+00
  0.00000000E+00  0.00000000E+00  0.00000000E+00
  0.00000000E+00  0.00000000E+00  0.00000000E+00
  0.00000000E+00  0.00000000E+00  0.00000000E+00
  0.00000000E+00  0.00000000E+00  0.00000000E+00
  0.00000000E+00  0.00000000E+00  0.00000000E+00
  0.00000000E+00  0.00000000E+00  0.00000000E+00
  0.00000000E+00  0.00000000E+00  0.00000000E+00
  0.00000000E+00  0.00000000E+00  0.00000000E+00
  0.00000000E+00  0.00000000E+00  0.00000000E+00
  0.00000000E+00  0.00000000E+00  0.00000000E+00
  0.00000000E+00  0.00000000E+00  0.00000000E+00
  0.00000000E+00  0.00000000E+00  0.00000000E+00
  0.00000000E+00  0.00000000E+00  0.00000000E+00
