La1 H1 C126                             
   1.00000000000000     
    19.7443644733611876    0.0001329610239875    0.1365048902591851
    -9.8716495719364801   17.0953544385686129   -0.0744585749393330
     0.2053244848804336   -0.0107313751238169   29.8125994833971646
   La   H    C 
     1     1   126
Direct
  0.4342447466282238  0.5053231536925713  0.4610093748218819
  0.4939240123793122  0.5399821271536881  0.5261070072229111
  0.0416493727361199  0.0833991534536452  0.3999945053408980
  0.0415149762637365  0.2082369186170735  0.3996910426903782
  0.0415410627392842  0.3331466021604448  0.3991913494996223
  0.0415893585886237  0.4582998171053527  0.3992001117796397
  0.0415117983338538  0.5833077140911724  0.3995522101802108
  0.0415570321766863  0.7083140016868122  0.3997434320907834
  0.0416257056941622  0.8333879002268628  0.3998555821283949
  0.0416741742931993  0.9584180341864974  0.3999743723562278
  0.1666769644885465  0.0835346695480496  0.4002849961781453
  0.1667271975726354  0.2084499084331925  0.4004381736892470
  0.1666436294053083  0.3333002525122608  0.3992127787354800
  0.1665712272771779  0.4582387535950287  0.3981818735911765
  0.1665258644364305  0.5833215984923970  0.3986706957307714
  0.1665412338582975  0.7084206336248587  0.3994793196315488
  0.1665680360731477  0.8334251600719772  0.3998956475544096
  0.1666837477108921  0.9585313050608649  0.4000723450518949
  0.2917228185398887  0.0835296894317672  0.4003000625052820
  0.2919232855186165  0.2089074921580208  0.4013842429880841
  0.2924108936665163  0.3344579708111204  0.4007837077092837
  0.2921645306595416  0.4578798250634060  0.3973659357213548
  0.2914379621085557  0.5836260083430711  0.3979376858181241
  0.2914571786259212  0.7085111955948580  0.3990698477629004
  0.2915662755917987  0.8334261207997005  0.3997044129647265
  0.2915953010102874  0.9584423658141833  0.3999297260697619
  0.4166523065183043  0.0834534480098515  0.3997951714720901
  0.4165936450302545  0.2085138737682125  0.4004242882708743
  0.4170779161756831  0.3345246217831296  0.4032515175448389
  0.4160546041628886  0.5832441326461547  0.3997939936567457
  0.4164488755146450  0.7081185218083317  0.3999082216795765
  0.4165498272960313  0.8333222452106046  0.3998859704951603
  0.4165492901383956  0.9583434563415540  0.3998612293165646
  0.5415479744673478  0.0832350774694028  0.3997860425567039
  0.5416227359826712  0.2082719263290017  0.3994081831018484
  0.5416078958366416  0.3333682221928355  0.3996156710359994
  0.5406263563366409  0.4579823499577147  0.4004730196305739
  0.5421587947560614  0.5831465420451283  0.4054307674818604
  0.5416610972416258  0.7082222236304869  0.4023454222200079
  0.5413523188784218  0.8330842275059690  0.4006461887175791
  0.5415354844296016  0.9581810601060667  0.4000744645207819
  0.6664985496174675  0.0831599719401668  0.3999784290971511
  0.6665938709924574  0.2082243687046536  0.3995694296401406
  0.6665268582714342  0.3331860388195542  0.3988541861510049
  0.6664910777703406  0.4582273166065886  0.3980362273663019
  0.6669148352292071  0.5835502976035610  0.3983079720371969
  0.6664606989986489  0.7080648616800829  0.4005100494159646
  0.6666013629006317  0.8330932182295708  0.4007726938936307
  0.6665209639882894  0.9581530054737351  0.4002610203282907
  0.7915307097573319  0.0831474932471874  0.3999596921515116
  0.7915222389095504  0.2081484087515378  0.3998355898225440
  0.7915673032811160  0.3332130937592095  0.3995127773297499
  0.7915594575791476  0.4582875292956398  0.3989952934753193
  0.7915824588263403  0.5832658384360864  0.3984845572830392
  0.7917867803621311  0.7083856097192769  0.3990155397489801
  0.7915980944157567  0.8332665922297815  0.3996974729238543
  0.7915025449472267  0.9581709290724426  0.3999719644999450
  0.9165626244532936  0.0832090196659894  0.3998291603970822
  0.9165179155012924  0.2082087727447648  0.3997241270042539
  0.9165393450011700  0.3332192456604404  0.3996609202338333
  0.9165201854056687  0.4581964389956382  0.3996328943678681
  0.9165805381806743  0.5832806309309749  0.3994734655210053
  0.9166563203586177  0.7083696788450997  0.3993071711932892
  0.9166455155605114  0.8333724261406833  0.3995809103027834
  0.9166121216030336  0.9582880460867781  0.3998156958752351
  0.0833439296107365  0.0417740280849465  0.4000783994913304
  0.0833142654076375  0.1667068486306738  0.4000197286986031
  0.0830931306690511  0.2915186629626851  0.3993156281605797
  0.0833556222592416  0.4166484460960925  0.3988318293482495
  0.0831823216194101  0.5416129059515541  0.3991515913111171
  0.0832054470938176  0.6666860027161116  0.3996306806757658
  0.0832832384106158  0.7917698702814625  0.3998625361418102
  0.0832898331735367  0.9167814556754894  0.3999903698900076
  0.2083298011256072  0.0417897653828273  0.4002360146757258
  0.2082566208418123  0.1668512172669953  0.4006611430898307
  0.2084877095152644  0.2919590489786535  0.4001573589918082
  0.2081577763621792  0.4163985064457412  0.3983130111348775
  0.2081606813175563  0.5417425606909905  0.3980363522778065
  0.2082673488117238  0.6668134423905850  0.3989849778673817
  0.2082046135810535  0.7917455811005931  0.3997137585986419
  0.2083141632207883  0.9167963248757506  0.3999899591981156
  0.3332895326220559  0.0417847992680903  0.3999764724307850
  0.3334753429190106  0.1668398594339008  0.4008269732937382
  0.3333527910965945  0.2915919697136192  0.4023772717960087
  0.3333188690875242  0.4165856498409674  0.3991467352159154
  0.3339145205599946  0.5422837742979313  0.3972814992613638
  0.3331881856153011  0.6667205882018681  0.3988976626460023
  0.3331832352234931  0.7917635867927708  0.3995380067007284
  0.3332857667034891  0.9167723297411434  0.3998481991501738
  0.4582803122968322  0.0417013969598748  0.3997952839397765
  0.4582915420521362  0.1667508649487186  0.3997243068095422
  0.4583114786182211  0.2920278174158672  0.4009528709907095
  0.4582255508519478  0.4169794209684892  0.4056827986344081
  0.4576751016651091  0.6655379415059320  0.4008464129746020
  0.4581865207682639  0.7915635076433255  0.4002859289811486
  0.4581895768952086  0.9166011546094400  0.3999501879548763
  0.5832227808049455  0.0415359971844476  0.3999664566171082
  0.5832340911936847  0.1665791433941644  0.3995481084865226
  0.5833147804485227  0.2915832744595517  0.3991116461256145
  0.5830492867365797  0.4164417922039648  0.3987747789110919
  0.5831924976009830  0.5421717552878875  0.4001258194594381
  0.5828747211683856  0.6656166160558208  0.4028341219090861
  0.5829142699105414  0.7909557450134099  0.4013479047670189
  0.5830912460443396  0.9164011062247908  0.4003096785172244
  0.7081417618095618  0.0414209739411227  0.4000684128620335
  0.7082214049143393  0.1665358693350565  0.3998257184004162
  0.7082326328519031  0.2915437337808371  0.3992910481758550
  0.7081683388648320  0.4166467144966029  0.3985187782513119
  0.7083870306266237  0.5417159563638155  0.3978969838093331
  0.7083834570695028  0.6666473917976902  0.3992279850216459
  0.7081631765684806  0.7915257368291541  0.4002517838755784
  0.7081719507550295  0.9164195613325410  0.4003095224596082
  0.8331766227048149  0.0415284514621402  0.3998978885971199
  0.8331769542507257  0.1665239013969326  0.3998638267455679
  0.8332491579064631  0.2915999665767596  0.3997330529808156
  0.8332353501694744  0.4165991508433787  0.3994442591768624
  0.8332476002024222  0.5415859205183053  0.3990191813158336
  0.8333513056047085  0.6667375644500482  0.3988257350123767
  0.8333803979301668  0.7917124669834693  0.3994039167825231
  0.8332460601891828  0.9165585613613458  0.3998137222694764
  0.9582583619355567  0.0416611286612134  0.3998702977702709
  0.9582134792710293  0.1665673916669224  0.3997333999732440
  0.9581964817886087  0.2915327242579800  0.3995651598516297
  0.9582156471683699  0.4165919318420170  0.3995770196261926
  0.9582388115820245  0.5416738473542257  0.3996399245561822
  0.9582857372011471  0.6666819198142832  0.3995324744811989
  0.9583288540622436  0.7917033386265391  0.3995914715683662
  0.9583070396162645  0.9167299044377210  0.3998131397376968
 
  0.00000000E+00  0.00000000E+00  0.00000000E+00
  0.00000000E+00  0.00000000E+00  0.00000000E+00
  0.00000000E+00  0.00000000E+00  0.00000000E+00
  0.00000000E+00  0.00000000E+00  0.00000000E+00
  0.00000000E+00  0.00000000E+00  0.00000000E+00
  0.00000000E+00  0.00000000E+00  0.00000000E+00
  0.00000000E+00  0.00000000E+00  0.00000000E+00
  0.00000000E+00  0.00000000E+00  0.00000000E+00
  0.00000000E+00  0.00000000E+00  0.00000000E+00
  0.00000000E+00  0.00000000E+00  0.00000000E+00
  0.00000000E+00  0.00000000E+00  0.00000000E+00
  0.00000000E+00  0.00000000E+00  0.00000000E+00
  0.00000000E+00  0.00000000E+00  0.00000000E+00
  0.00000000E+00  0.00000000E+00  0.00000000E+00
  0.00000000E+00  0.00000000E+00  0.00000000E+00
  0.00000000E+00  0.00000000E+00  0.00000000E+00
  0.00000000E+00  0.00000000E+00  0.00000000E+00
  0.00000000E+00  0.00000000E+00  0.00000000E+00
  0.00000000E+00  0.00000000E+00  0.00000000E+00
  0.00000000E+00  0.00000000E+00  0.00000000E+00
  0.00000000E+00  0.00000000E+00  0.00000000E+00
  0.00000000E+00  0.00000000E+00  0.00000000E+00
  0.00000000E+00  0.00000000E+00  0.00000000E+00
  0.00000000E+00  0.00000000E+00  0.00000000E+00
  0.00000000E+00  0.00000000E+00  0.00000000E+00
  0.00000000E+00  0.00000000E+00  0.00000000E+00
  0.00000000E+00  0.00000000E+00  0.00000000E+00
  0.00000000E+00  0.00000000E+00  0.00000000E+00
  0.00000000E+00  0.00000000E+00  0.00000000E+00
  0.00000000E+00  0.00000000E+00  0.00000000E+00
  0.00000000E+00  0.00000000E+00  0.00000000E+00
  0.00000000E+00  0.00000000E+00  0.00000000E+00
  0.00000000E+00  0.00000000E+00  0.00000000E+00
  0.00000000E+00  0.00000000E+00  0.00000000E+00
  0.00000000E+00  0.00000000E+00  0.00000000E+00
  0.00000000E+00  0.00000000E+00  0.00000000E+00
  0.00000000E+00  0.00000000E+00  0.00000000E+00
  0.00000000E+00  0.00000000E+00  0.00000000E+00
  0.00000000E+00  0.00000000E+00  0.00000000E+00
  0.00000000E+00  0.00000000E+00  0.00000000E+00
  0.00000000E+00  0.00000000E+00  0.00000000E+00
  0.00000000E+00  0.00000000E+00  0.00000000E+00
  0.00000000E+00  0.00000000E+00  0.00000000E+00
  0.00000000E+00  0.00000000E+00  0.00000000E+00
  0.00000000E+00  0.00000000E+00  0.00000000E+00
  0.00000000E+00  0.00000000E+00  0.00000000E+00
  0.00000000E+00  0.00000000E+00  0.00000000E+00
  0.00000000E+00  0.00000000E+00  0.00000000E+00
  0.00000000E+00  0.00000000E+00  0.00000000E+00
  0.00000000E+00  0.00000000E+00  0.00000000E+00
  0.00000000E+00  0.00000000E+00  0.00000000E+00
  0.00000000E+00  0.00000000E+00  0.00000000E+00
  0.00000000E+00  0.00000000E+00  0.00000000E+00
  0.00000000E+00  0.00000000E+00  0.00000000E+00
  0.00000000E+00  0.00000000E+00  0.00000000E+00
  0.00000000E+00  0.00000000E+00  0.00000000E+00
  0.00000000E+00  0.00000000E+00  0.00000000E+00
  0.00000000E+00  0.00000000E+00  0.00000000E+00
  0.00000000E+00  0.00000000E+00  0.00000000E+00
  0.00000000E+00  0.00000000E+00  0.00000000E+00
  0.00000000E+00  0.00000000E+00  0.00000000E+00
  0.00000000E+00  0.00000000E+00  0.00000000E+00
  0.00000000E+00  0.00000000E+00  0.00000000E+00
  0.00000000E+00  0.00000000E+00  0.00000000E+00
  0.00000000E+00  0.00000000E+00  0.00000000E+00
  0.00000000E+00  0.00000000E+00  0.00000000E+00
  0.00000000E+00  0.00000000E+00  0.00000000E+00
  0.00000000E+00  0.00000000E+00  0.00000000E+00
  0.00000000E+00  0.00000000E+00  0.00000000E+00
  0.00000000E+00  0.00000000E+00  0.00000000E+00
  0.00000000E+00  0.00000000E+00  0.00000000E+00
  0.00000000E+00  0.00000000E+00  0.00000000E+00
  0.00000000E+00  0.00000000E+00  0.00000000E+00
  0.00000000E+00  0.00000000E+00  0.00000000E+00
  0.00000000E+00  0.00000000E+00  0.00000000E+00
  0.00000000E+00  0.00000000E+00  0.00000000E+00
  0.00000000E+00  0.00000000E+00  0.00000000E+00
  0.00000000E+00  0.00000000E+00  0.00000000E+00
  0.00000000E+00  0.00000000E+00  0.00000000E+00
  0.00000000E+00  0.00000000E+00  0.00000000E+00
  0.00000000E+00  0.00000000E+00  0.00000000E+00
  0.00000000E+00  0.00000000E+00  0.00000000E+00
  0.00000000E+00  0.00000000E+00  0.00000000E+00
  0.00000000E+00  0.00000000E+00  0.00000000E+00
  0.00000000E+00  0.00000000E+00  0.00000000E+00
  0.00000000E+00  0.00000000E+00  0.00000000E+00
  0.00000000E+00  0.00000000E+00  0.00000000E+00
  0.00000000E+00  0.00000000E+00  0.00000000E+00
  0.00000000E+00  0.00000000E+00  0.00000000E+00
  0.00000000E+00  0.00000000E+00  0.00000000E+00
  0.00000000E+00  0.00000000E+00  0.00000000E+00
  0.00000000E+00  0.00000000E+00  0.00000000E+00
  0.00000000E+00  0.00000000E+00  0.00000000E+00
  0.00000000E+00  0.00000000E+00  0.00000000E+00
  0.00000000E+00  0.00000000E+00  0.00000000E+00
  0.00000000E+00  0.00000000E+00  0.00000000E+00
  0.00000000E+00  0.00000000E+00  0.00000000E+00
  0.00000000E+00  0.00000000E+00  0.00000000E+00
  0.00000000E+00  0.00000000E+00  0.00000000E+00
  0.00000000E+00  0.00000000E+00  0.00000000E+00
  0.00000000E+00  0.00000000E+00  0.00000000E+00
  0.00000000E+00  0.00000000E+00  0.00000000E+00
  0.00000000E+00  0.00000000E+00  0.00000000E+00
  0.00000000E+00  0.00000000E+00  0.00000000E+00
  0.00000000E+00  0.00000000E+00  0.00000000E+00
  0.00000000E+00  0.00000000E+00  0.00000000E+00
  0.00000000E+00  0.00000000E+00  0.00000000E+00
  0.00000000E+00  0.00000000E+00  0.00000000E+00
  0.00000000E+00  0.00000000E+00  0.00000000E+00
  0.00000000E+00  0.00000000E+00  0.00000000E+00
  0.00000000E+00  0.00000000E+00  0.00000000E+00
  0.00000000E+00  0.00000000E+00  0.00000000E+00
  0.00000000E+00  0.00000000E+00  0.00000000E+00
  0.00000000E+00  0.00000000E+00  0.00000000E+00
  0.00000000E+00  0.00000000E+00  0.00000000E+00
  0.00000000E+00  0.00000000E+00  0.00000000E+00
  0.00000000E+00  0.00000000E+00  0.00000000E+00
  0.00000000E+00  0.00000000E+00  0.00000000E+00
  0.00000000E+00  0.00000000E+00  0.00000000E+00
  0.00000000E+00  0.00000000E+00  0.00000000E+00
  0.00000000E+00  0.00000000E+00  0.00000000E+00
  0.00000000E+00  0.00000000E+00  0.00000000E+00
  0.00000000E+00  0.00000000E+00  0.00000000E+00
  0.00000000E+00  0.00000000E+00  0.00000000E+00
  0.00000000E+00  0.00000000E+00  0.00000000E+00
  0.00000000E+00  0.00000000E+00  0.00000000E+00
  0.00000000E+00  0.00000000E+00  0.00000000E+00
  0.00000000E+00  0.00000000E+00  0.00000000E+00
