ALGO = Fast
ENCUT = 520
IBRION = 2
ISIF = 4
ISMEAR = 0
ISPIN = 2
LASPH = True
LCHARG = False
LMAXMIX = 4
LORBIT = 11
LREAL = Auto
LVTOT = False
LWAVE = False
MAGMOM = 130*0.6
NELM = 100
NSW = 1000
PREC = Accurate
SIGMA = 0.05
EDIFF = 0.001
AMIX = 0.1
BMIX = 0.01
LVDW = .TRUE.
IVDW = 1
EDIFFG = -0.05
NPAR = 1
POTIM = 0.1
ISYM = 0
