Zn1 C123 N3                             
   1.00000000000000     
    19.8368354536973932    0.0144194809505103    0.0091268159174055
    -9.9058684573389097   17.0346242207861209   -0.0054838925644124
     0.0135475450987287   -0.0016119812009362   29.7655344013697487
   Zn   C    N 
     1   123     3
Direct
  0.4373203780328222  0.4990565333139740  0.4139562686071443
  0.0416911158908475  0.0839555966133651  0.3998331500521873
  0.0403691828934677  0.2078322115652380  0.3997438064006693
  0.0396529970427081  0.3326497281893660  0.3995537843412891
  0.0400034421380092  0.4581146757026956  0.3995265322393798
  0.0413082221721529  0.5837700191422515  0.3997797354008550
  0.0423759275896705  0.7093068627418316  0.3999076708463205
  0.0427689010739028  0.8346992095027036  0.3999342896598821
  0.0426386701646657  0.9597560294102416  0.3998776441005988
  0.1678831061675501  0.0857233000472921  0.4000217676363386
  0.1665911932266997  0.2097094703050645  0.4004676513710642
  0.1640909005637964  0.3331162146678427  0.3998240484320525
  0.1632450774612374  0.4581590344813371  0.3995107119334182
  0.1648425893848226  0.5835391354339414  0.3992338033406199
  0.1664571192334835  0.7090216761467938  0.3996856239336490
  0.1673103503492890  0.8346020690584676  0.3999493690261075
  0.1677154775385298  0.9602403473236886  0.3999268643661540
  0.2927517340403645  0.0859842578444960  0.4002409332869711
  0.2934869001838812  0.2131660401969097  0.4018172879517403
  0.2909610538026743  0.3378706765558174  0.4016491740211089
  0.2859684112005423  0.4568199727382513  0.4006992171097223
  0.2879300864661101  0.5828018452087280  0.4003831776144829
  0.2905602686952525  0.7083444550055307  0.3999539666406081
  0.2917164456246280  0.8339253186098158  0.3997493492443577
  0.2922736395978660  0.9597226030553143  0.3997686109446771
  0.4171289685972819  0.0841432041420231  0.3996075670877055
  0.4178522080839913  0.2102722751327850  0.4009632387599120
  0.4203737918386323  0.3379849173529510  0.4072146455533281
  0.4145656403334713  0.7057746390989187  0.4017369880615694
  0.4160585203374091  0.8320856613724429  0.4000142939624345
  0.4166948940175675  0.9581561835534186  0.3996842462700078
  0.5415035239211096  0.0824818223000989  0.3996054044390993
  0.5422072172504598  0.2083113256493553  0.3995237983643230
  0.5435475454537596  0.3339946458819523  0.4013078660217990
  0.5470269836548378  0.4589869543525902  0.4063740303395662
  0.5384458918316778  0.7013353257380794  0.4033412503972202
  0.5403482969800026  0.8298583206438895  0.4009929938189365
  0.5410199200723481  0.9564402787905508  0.3999587857656874
  0.6659261748900819  0.0817402664726880  0.3999371400441775
  0.6664762571307065  0.2073489129498750  0.3995688413107950
  0.6675589193779803  0.3329103275625838  0.3990190543104715
  0.6699112246970198  0.4586378204176212  0.3990953529908019
  0.6714985284202081  0.5843926360102958  0.4008698549483481
  0.6679679570339474  0.7072536529462139  0.4011382468824937
  0.6648752899788600  0.8301715743358929  0.4007809626765760
  0.6654470998275854  0.9560379417106470  0.4001676782714564
  0.7905215278971192  0.0817075793455588  0.4000071787337347
  0.7908135439321440  0.2070930483987488  0.3999852448791387
  0.7916102855130903  0.3326472966701028  0.3995831320482003
  0.7930435504646759  0.4583231062510469  0.3989752994758372
  0.7942109117794007  0.5838929616497878  0.3989507842469962
  0.7940027735633232  0.7092438472759597  0.3993519226394020
  0.7918646318069202  0.8328453613168691  0.3999019458314340
  0.7904640748797148  0.9566066097448997  0.3999669362369837
  0.9156682917991166  0.0823872067675909  0.3998797510008235
  0.9153253733589534  0.2072046710490510  0.3998915951352506
  0.9155739080913811  0.3325710901398083  0.3999058463091619
  0.9165188364644300  0.4581867539777494  0.3998135176393090
  0.9177526593915981  0.5838712760730635  0.3995517975227557
  0.9181826524254602  0.7092913008050350  0.3995369741070074
  0.9178638505854704  0.8342950962946802  0.3996861273754108
  0.9167455881557584  0.9583828686397787  0.3998186710960781
  0.0843141743028719  0.0433376454231105  0.3998688563247746
  0.0830860920823972  0.1673434883908784  0.3999410814255653
  0.0812791581487051  0.2911139501388968  0.3995344864887911
  0.0807757430432250  0.4161299958358912  0.3994269882288679
  0.0820225590971313  0.5417227062301632  0.3994819082183435
  0.0833959688269835  0.6673498164171018  0.3998079459676488
  0.0841611042734626  0.7929087603608947  0.3999746648235168
  0.0844213912044835  0.9182788894913344  0.3999259908944525
  0.2094032485600939  0.0438719029979457  0.4000371279690300
  0.2095841705873563  0.1695248375862311  0.4005403506210811
  0.2073063864498320  0.2931054498227855  0.4007065871060416
  0.2040296503671490  0.4163753214368843  0.4000625183658901
  0.2051681075876516  0.5413270801384910  0.3992523642671344
  0.2073527893764789  0.6670355424984588  0.3995243044629090
  0.2085554292175554  0.7926240249484666  0.3998120232589285
  0.2091176068988698  0.9182282065574940  0.3999164942941883
  0.3339808023377510  0.0434583708993327  0.3998162342406978
  0.3345391046055631  0.1698753140481662  0.4011766740948070
  0.3355169572347875  0.2974723688427498  0.4039595802899663
  0.3289255876413814  0.5419308368300998  0.4025393654093132
  0.3313108838529007  0.6661369082422606  0.4008065129132107
  0.3329121418706420  0.7917017998162136  0.3998803080436823
  0.3335331694708454  0.9174238459317288  0.3997050915384895
  0.4583869388339456  0.0416817533818432  0.3995892283120731
  0.4589374013254861  0.1676667451117239  0.3997412240203041
  0.4601836184066681  0.2938235098956267  0.4029067544063003
  0.4665676779406391  0.4196886429540494  0.4136299014269963
  0.4534331963649527  0.6606461524388614  0.4043147057259797
  0.4571525806853665  0.7894066728871034  0.4007659283923642
  0.4578948149441738  0.9156975554083051  0.3998268634912944
  0.5827476290737699  0.0401851725227402  0.3998196967008585
  0.5833638752837608  0.1660709963845969  0.3994720888963689
  0.5844216507976269  0.2916658939213890  0.3996393715271686
  0.5873085286172449  0.4173404770641589  0.4013130802851942
  0.5900733009296472  0.5441434275200424  0.4038091820433098
  0.5843445512977263  0.6622381524300998  0.4027691174194583
  0.5807653592465992  0.7862889879242593  0.4017325598273825
  0.5822159953904601  0.9139104034980625  0.4003094554790203
  0.7072683050990524  0.0397486370261004  0.4000156310856416
  0.7077247891950628  0.1653736829842460  0.3998782665326329
  0.7085140824065432  0.2909234671308624  0.3992957651465297
  0.7102656510637657  0.4165090063080282  0.3986844959958532
  0.7118961760234287  0.5419905847544462  0.3994237452814441
  0.7112455746039863  0.6674127891089383  0.4001301706818122
  0.7083994935963487  0.7905107354460494  0.4005533774377219
  0.7067906166934190  0.9140902848978957  0.4002144166106326
  0.8322599397210421  0.0402521029861259  0.3999441983027470
  0.8322133480142574  0.1653238343431801  0.4000071057046778
  0.8326376672892851  0.2906849031770987  0.3999152000353198
  0.8337360236652814  0.4162446169064702  0.3995108687012905
  0.8350370243261488  0.5419197751532793  0.3990341054772050
  0.8354177677191822  0.6675078279820328  0.3992118165733272
  0.8346938739886268  0.7923795829930620  0.3995827465860883
  0.8332406793369179  0.9161864521589500  0.3998616455166898
  0.9582106192731514  0.0417288185373339  0.3998301666003418
  0.9571467920766732  0.1658097322537677  0.3998283454235343
  0.9568404786052800  0.2907733337673961  0.3998072182215315
  0.9572654471882392  0.4161596428341243  0.3998113921093183
  0.9585151500552707  0.5418315982239378  0.3998140801859464
  0.9594605231489638  0.6674506233920670  0.3997081554785288
  0.9596342576327954  0.7928551717812812  0.3997292734680439
  0.9592799968979949  0.9177057544457538  0.3998218073800192
  0.4081288009162324  0.5804152372658475  0.4071517502322846
  0.5498491547609290  0.5829721925912424  0.4034116785383584
  0.3258299161534986  0.4177529616465122  0.3997725564354465
 
  0.00000000E+00  0.00000000E+00  0.00000000E+00
  0.00000000E+00  0.00000000E+00  0.00000000E+00
  0.00000000E+00  0.00000000E+00  0.00000000E+00
  0.00000000E+00  0.00000000E+00  0.00000000E+00
  0.00000000E+00  0.00000000E+00  0.00000000E+00
  0.00000000E+00  0.00000000E+00  0.00000000E+00
  0.00000000E+00  0.00000000E+00  0.00000000E+00
  0.00000000E+00  0.00000000E+00  0.00000000E+00
  0.00000000E+00  0.00000000E+00  0.00000000E+00
  0.00000000E+00  0.00000000E+00  0.00000000E+00
  0.00000000E+00  0.00000000E+00  0.00000000E+00
  0.00000000E+00  0.00000000E+00  0.00000000E+00
  0.00000000E+00  0.00000000E+00  0.00000000E+00
  0.00000000E+00  0.00000000E+00  0.00000000E+00
  0.00000000E+00  0.00000000E+00  0.00000000E+00
  0.00000000E+00  0.00000000E+00  0.00000000E+00
  0.00000000E+00  0.00000000E+00  0.00000000E+00
  0.00000000E+00  0.00000000E+00  0.00000000E+00
  0.00000000E+00  0.00000000E+00  0.00000000E+00
  0.00000000E+00  0.00000000E+00  0.00000000E+00
  0.00000000E+00  0.00000000E+00  0.00000000E+00
  0.00000000E+00  0.00000000E+00  0.00000000E+00
  0.00000000E+00  0.00000000E+00  0.00000000E+00
  0.00000000E+00  0.00000000E+00  0.00000000E+00
  0.00000000E+00  0.00000000E+00  0.00000000E+00
  0.00000000E+00  0.00000000E+00  0.00000000E+00
  0.00000000E+00  0.00000000E+00  0.00000000E+00
  0.00000000E+00  0.00000000E+00  0.00000000E+00
  0.00000000E+00  0.00000000E+00  0.00000000E+00
  0.00000000E+00  0.00000000E+00  0.00000000E+00
  0.00000000E+00  0.00000000E+00  0.00000000E+00
  0.00000000E+00  0.00000000E+00  0.00000000E+00
  0.00000000E+00  0.00000000E+00  0.00000000E+00
  0.00000000E+00  0.00000000E+00  0.00000000E+00
  0.00000000E+00  0.00000000E+00  0.00000000E+00
  0.00000000E+00  0.00000000E+00  0.00000000E+00
  0.00000000E+00  0.00000000E+00  0.00000000E+00
  0.00000000E+00  0.00000000E+00  0.00000000E+00
  0.00000000E+00  0.00000000E+00  0.00000000E+00
  0.00000000E+00  0.00000000E+00  0.00000000E+00
  0.00000000E+00  0.00000000E+00  0.00000000E+00
  0.00000000E+00  0.00000000E+00  0.00000000E+00
  0.00000000E+00  0.00000000E+00  0.00000000E+00
  0.00000000E+00  0.00000000E+00  0.00000000E+00
  0.00000000E+00  0.00000000E+00  0.00000000E+00
  0.00000000E+00  0.00000000E+00  0.00000000E+00
  0.00000000E+00  0.00000000E+00  0.00000000E+00
  0.00000000E+00  0.00000000E+00  0.00000000E+00
  0.00000000E+00  0.00000000E+00  0.00000000E+00
  0.00000000E+00  0.00000000E+00  0.00000000E+00
  0.00000000E+00  0.00000000E+00  0.00000000E+00
  0.00000000E+00  0.00000000E+00  0.00000000E+00
  0.00000000E+00  0.00000000E+00  0.00000000E+00
  0.00000000E+00  0.00000000E+00  0.00000000E+00
  0.00000000E+00  0.00000000E+00  0.00000000E+00
  0.00000000E+00  0.00000000E+00  0.00000000E+00
  0.00000000E+00  0.00000000E+00  0.00000000E+00
  0.00000000E+00  0.00000000E+00  0.00000000E+00
  0.00000000E+00  0.00000000E+00  0.00000000E+00
  0.00000000E+00  0.00000000E+00  0.00000000E+00
  0.00000000E+00  0.00000000E+00  0.00000000E+00
  0.00000000E+00  0.00000000E+00  0.00000000E+00
  0.00000000E+00  0.00000000E+00  0.00000000E+00
  0.00000000E+00  0.00000000E+00  0.00000000E+00
  0.00000000E+00  0.00000000E+00  0.00000000E+00
  0.00000000E+00  0.00000000E+00  0.00000000E+00
  0.00000000E+00  0.00000000E+00  0.00000000E+00
  0.00000000E+00  0.00000000E+00  0.00000000E+00
  0.00000000E+00  0.00000000E+00  0.00000000E+00
  0.00000000E+00  0.00000000E+00  0.00000000E+00
  0.00000000E+00  0.00000000E+00  0.00000000E+00
  0.00000000E+00  0.00000000E+00  0.00000000E+00
  0.00000000E+00  0.00000000E+00  0.00000000E+00
  0.00000000E+00  0.00000000E+00  0.00000000E+00
  0.00000000E+00  0.00000000E+00  0.00000000E+00
  0.00000000E+00  0.00000000E+00  0.00000000E+00
  0.00000000E+00  0.00000000E+00  0.00000000E+00
  0.00000000E+00  0.00000000E+00  0.00000000E+00
  0.00000000E+00  0.00000000E+00  0.00000000E+00
  0.00000000E+00  0.00000000E+00  0.00000000E+00
  0.00000000E+00  0.00000000E+00  0.00000000E+00
  0.00000000E+00  0.00000000E+00  0.00000000E+00
  0.00000000E+00  0.00000000E+00  0.00000000E+00
  0.00000000E+00  0.00000000E+00  0.00000000E+00
  0.00000000E+00  0.00000000E+00  0.00000000E+00
  0.00000000E+00  0.00000000E+00  0.00000000E+00
  0.00000000E+00  0.00000000E+00  0.00000000E+00
  0.00000000E+00  0.00000000E+00  0.00000000E+00
  0.00000000E+00  0.00000000E+00  0.00000000E+00
  0.00000000E+00  0.00000000E+00  0.00000000E+00
  0.00000000E+00  0.00000000E+00  0.00000000E+00
  0.00000000E+00  0.00000000E+00  0.00000000E+00
  0.00000000E+00  0.00000000E+00  0.00000000E+00
  0.00000000E+00  0.00000000E+00  0.00000000E+00
  0.00000000E+00  0.00000000E+00  0.00000000E+00
  0.00000000E+00  0.00000000E+00  0.00000000E+00
  0.00000000E+00  0.00000000E+00  0.00000000E+00
  0.00000000E+00  0.00000000E+00  0.00000000E+00
  0.00000000E+00  0.00000000E+00  0.00000000E+00
  0.00000000E+00  0.00000000E+00  0.00000000E+00
  0.00000000E+00  0.00000000E+00  0.00000000E+00
  0.00000000E+00  0.00000000E+00  0.00000000E+00
  0.00000000E+00  0.00000000E+00  0.00000000E+00
  0.00000000E+00  0.00000000E+00  0.00000000E+00
  0.00000000E+00  0.00000000E+00  0.00000000E+00
  0.00000000E+00  0.00000000E+00  0.00000000E+00
  0.00000000E+00  0.00000000E+00  0.00000000E+00
  0.00000000E+00  0.00000000E+00  0.00000000E+00
  0.00000000E+00  0.00000000E+00  0.00000000E+00
  0.00000000E+00  0.00000000E+00  0.00000000E+00
  0.00000000E+00  0.00000000E+00  0.00000000E+00
  0.00000000E+00  0.00000000E+00  0.00000000E+00
  0.00000000E+00  0.00000000E+00  0.00000000E+00
  0.00000000E+00  0.00000000E+00  0.00000000E+00
  0.00000000E+00  0.00000000E+00  0.00000000E+00
  0.00000000E+00  0.00000000E+00  0.00000000E+00
  0.00000000E+00  0.00000000E+00  0.00000000E+00
  0.00000000E+00  0.00000000E+00  0.00000000E+00
  0.00000000E+00  0.00000000E+00  0.00000000E+00
  0.00000000E+00  0.00000000E+00  0.00000000E+00
  0.00000000E+00  0.00000000E+00  0.00000000E+00
  0.00000000E+00  0.00000000E+00  0.00000000E+00
  0.00000000E+00  0.00000000E+00  0.00000000E+00
  0.00000000E+00  0.00000000E+00  0.00000000E+00
  0.00000000E+00  0.00000000E+00  0.00000000E+00
  0.00000000E+00  0.00000000E+00  0.00000000E+00
  0.00000000E+00  0.00000000E+00  0.00000000E+00
