La1 H1 C124 N2 O1                       
   1.00000000000000     
    19.8144493450500683   -0.0263249052166907    0.0526080862493362
    -9.9302219640894656   17.0731086384592956    0.1276185926066671
     0.0792665989930086    0.2684705995245515   29.7701914232373532
   La   H    C    N    O 
     1     1   124     2     1
Direct
  0.4329183358214326  0.4975150884051026  0.4551024208365284
  0.5162022476505548  0.5821466444387567  0.5433884308323099
  0.0420111529787670  0.0840352852714564  0.3998810190954842
  0.0414643445238560  0.2084382523918815  0.3995088401356375
  0.0408979425617102  0.3330117116475427  0.3994673383450998
  0.0406820418024060  0.4583093414280980  0.3995389541224999
  0.0410517992334655  0.5836529563381211  0.3998789450763919
  0.0415412650530968  0.7089664870758235  0.4000254235992223
  0.0418944703338396  0.8342362204495596  0.4000518613378067
  0.0422002805129390  0.9594146501258524  0.4000301017300171
  0.1679150894244993  0.0854955697207090  0.4000608833767724
  0.1675185342511135  0.2100580211404299  0.3993108902272583
  0.1663704129877141  0.3342904674859754  0.3983741753521590
  0.1647269849100196  0.4586477547684069  0.3987085388722043
  0.1650647009883068  0.5838398813689610  0.3988218145311440
  0.1659095043028703  0.7091325916511496  0.3995751358934836
  0.1665712636678522  0.8343872383044112  0.4000143143814038
  0.1671716021487002  0.9597824758648392  0.4001550290198943
  0.2924938467667894  0.0849990076725171  0.4002543289471224
  0.2943268931595443  0.2121875773372913  0.4008336986056219
  0.2935064408301311  0.3379993443358548  0.3989004208828285
  0.2898234560374229  0.4593022779414416  0.3975190014958391
  0.2888179138912032  0.5848270844022772  0.3977950081542345
  0.2901872086557973  0.7093398073216999  0.3989998417782341
  0.2911621347050172  0.8341658012763746  0.3996654961003141
  0.2917537903744107  0.9593445607767692  0.3999552914652338
  0.4170075087304135  0.0834221292761376  0.3997596056336528
  0.4177329596524033  0.2086333575260007  0.3995416028720363
  0.4215425332228505  0.3360020255426612  0.4027805225111474
  0.4144309122459801  0.7078587054309937  0.3995497258172988
  0.4157612034114692  0.8331137921395542  0.3994726413285034
  0.4163768906426992  0.9582199646557862  0.3998287083511540
  0.5416124011079214  0.0822217347599010  0.3998160450568335
  0.5422985556036565  0.2072797826207974  0.3992789352863567
  0.5435454859199056  0.3321008579591659  0.3985233667380790
  0.5436316722726103  0.4548547958767237  0.4008142127445440
  0.5428634935956720  0.5791997592471866  0.4041623353370829
  0.5382304648465428  0.7034023774064462  0.4028937749355332
  0.5400985028773805  0.8310085940545474  0.4003685371985841
  0.5410558517577581  0.9568986897646181  0.3998929286226637
  0.6662350006990557  0.0817634572217775  0.4000070333569639
  0.6668676682089114  0.2070981719321537  0.3997643741069996
  0.6676758196617062  0.3323028344612167  0.3988688466842846
  0.6688099795706807  0.4576151463800368  0.3974124715934244
  0.6683904554685349  0.5821939147624338  0.3979158166783448
  0.6656514926127882  0.7060593418856632  0.3987576148705630
  0.6647418125515411  0.8303550570022625  0.4000731108920305
  0.6656466235292957  0.9563166173325252  0.4001590245689402
  0.7910031211774717  0.0818515900359243  0.3999830213579912
  0.7913728852961244  0.2070620499830405  0.4000196053911545
  0.7919789742694382  0.3324622697550409  0.3998481562395024
  0.7926226818465636  0.4578949430457369  0.3992454092636205
  0.7928372158183110  0.5831253472977141  0.3985027498474717
  0.7919824969440096  0.7079193195868027  0.3985724413698201
  0.7910245049128660  0.8322357629926417  0.3992878802466113
  0.7905734260758929  0.9566558343153100  0.3998338870866757
  0.9162121037741303  0.0826240178929141  0.3998894819288341
  0.9161685622724626  0.2074960230768844  0.3998825678993531
  0.9162912302450430  0.3326513343316312  0.4000135463779592
  0.9165799523625446  0.4579943294708864  0.4000363602230839
  0.9170110807890814  0.5834501570459534  0.3998557113051051
  0.9170331429929023  0.7087406178217002  0.3996344470985040
  0.9167978987001463  0.8335565545077060  0.3996592790770718
  0.9164670356814584  0.9580964237985309  0.3998770079333666
  0.0842129779167657  0.0430945893667303  0.3999686599786966
  0.0837724675533980  0.1675241480250747  0.3996449255681012
  0.0828330361098426  0.2918744384444457  0.3991100005815603
  0.0819872688936982  0.4166628529886401  0.3992005469204599
  0.0821246076961739  0.5418573470301804  0.3994641944172692
  0.0827830069445384  0.6672399101374352  0.3998561688615704
  0.0833657258816546  0.7926176361821446  0.4000708811745160
  0.0837580734931189  0.9178455020349995  0.4000938646369473
  0.2091164170432226  0.0433583651595939  0.4002513697797375
  0.2100358841084132  0.1693430603573710  0.3999426747773920
  0.2091825601019334  0.2936909428206319  0.3983002633638650
  0.2065009673949327  0.4176463027068137  0.3984360771765454
  0.2059988554789652  0.5422331078079494  0.3981388659116498
  0.2071472514023194  0.6674788577165748  0.3990584063910100
  0.2079011988480068  0.7926124830526508  0.3997666602954816
  0.2085289736286912  0.9179035564934171  0.4000716758402665
  0.3337009439053742  0.0427585501404170  0.3999670038440785
  0.3346479445410075  0.1685941744362545  0.4004393881589767
  0.3366446746251061  0.2961231157450149  0.4018191898026568
  0.3325662482163022  0.4206113256901636  0.3965090456071472
  0.3312070870936220  0.5449891625730171  0.3988319276867312
  0.3313723842018488  0.6677339589738878  0.3987028706088575
  0.3324986307613880  0.7924595599352358  0.3993923562199503
  0.3331684160032841  0.9174545568765611  0.3998188118172198
  0.4583928218240340  0.0414425743294122  0.3998253973190463
  0.4590401614861235  0.1665924820096276  0.3993842062470874
  0.4604294723509422  0.2918242518026292  0.3995448888158600
  0.4532446947220598  0.6634463048940030  0.4024885690355103
  0.4570508951347785  0.7910444570792673  0.3996441924882040
  0.4577558781431468  0.9162519717474165  0.3997469435067337
  0.5830180767374072  0.0403196198778127  0.3999212813076841
  0.5836131134781470  0.1655394917533680  0.3996479767258764
  0.5846516623543091  0.2904488706334779  0.3987886616721196
  0.5859528092007723  0.4150475422915407  0.3976140741594368
  0.5852752338020680  0.5405163015686549  0.4003916934922507
  0.5815896827892016  0.6618414164341816  0.4017162776164599
  0.5804185743180365  0.7873729093201834  0.4010700382104634
  0.5822407748826073  0.9146289020487854  0.4001312930241128
  0.7075837137295677  0.0398846497441757  0.4000557515551681
  0.7081659525370945  0.1652902106472113  0.3999861745406014
  0.7088675654681633  0.2905932280202945  0.3995412066493633
  0.7097071022577021  0.4159501419429421  0.3984145040048822
  0.7101473547066427  0.5411882877976072  0.3976350388280366
  0.7085436361930767  0.6655568582481570  0.3981047162355537
  0.7072626255481471  0.7896795503789197  0.3991925139506310
  0.7068630087651330  0.9142160867774927  0.4000040321129493
  0.8325924214697341  0.0403215707022660  0.3999207164076215
  0.8328426480795540  0.1654447144560128  0.3999763982502694
  0.8332074224439066  0.2907224206449660  0.4000307197159853
  0.8336658829559055  0.4160532816013671  0.3998491388835866
  0.8340763537302442  0.5414265324518196  0.3992509408410677
  0.8339074328450667  0.6667676109166689  0.3989261034072375
  0.8333672362268000  0.7913640262138200  0.3991544065826059
  0.8327866263401251  0.9157095263222087  0.3996969090416500
  0.9583255815476548  0.0416367557369058  0.3999210626257025
  0.9579996352029514  0.1662003330389075  0.3997836246920639
  0.9577423112053857  0.2910041546312898  0.3998742991458270
  0.9577265254595012  0.4162524960577179  0.3999419610345983
  0.9581377556485046  0.5416863416056114  0.4000333401257791
  0.9584685409734928  0.6670719843399564  0.3999041115478574
  0.9586126750392955  0.7922412592205438  0.3998200614787540
  0.9585896211830475  0.9171281546056466  0.3999002843252600
  0.4093288392676696  0.5837414638868674  0.4042750886117516
  0.4651860899537748  0.4154239725399343  0.4065196798041641
  0.4837977292329310  0.5486030058467889  0.5196909005335756
 
  0.00000000E+00  0.00000000E+00  0.00000000E+00
  0.00000000E+00  0.00000000E+00  0.00000000E+00
  0.00000000E+00  0.00000000E+00  0.00000000E+00
  0.00000000E+00  0.00000000E+00  0.00000000E+00
  0.00000000E+00  0.00000000E+00  0.00000000E+00
  0.00000000E+00  0.00000000E+00  0.00000000E+00
  0.00000000E+00  0.00000000E+00  0.00000000E+00
  0.00000000E+00  0.00000000E+00  0.00000000E+00
  0.00000000E+00  0.00000000E+00  0.00000000E+00
  0.00000000E+00  0.00000000E+00  0.00000000E+00
  0.00000000E+00  0.00000000E+00  0.00000000E+00
  0.00000000E+00  0.00000000E+00  0.00000000E+00
  0.00000000E+00  0.00000000E+00  0.00000000E+00
  0.00000000E+00  0.00000000E+00  0.00000000E+00
  0.00000000E+00  0.00000000E+00  0.00000000E+00
  0.00000000E+00  0.00000000E+00  0.00000000E+00
  0.00000000E+00  0.00000000E+00  0.00000000E+00
  0.00000000E+00  0.00000000E+00  0.00000000E+00
  0.00000000E+00  0.00000000E+00  0.00000000E+00
  0.00000000E+00  0.00000000E+00  0.00000000E+00
  0.00000000E+00  0.00000000E+00  0.00000000E+00
  0.00000000E+00  0.00000000E+00  0.00000000E+00
  0.00000000E+00  0.00000000E+00  0.00000000E+00
  0.00000000E+00  0.00000000E+00  0.00000000E+00
  0.00000000E+00  0.00000000E+00  0.00000000E+00
  0.00000000E+00  0.00000000E+00  0.00000000E+00
  0.00000000E+00  0.00000000E+00  0.00000000E+00
  0.00000000E+00  0.00000000E+00  0.00000000E+00
  0.00000000E+00  0.00000000E+00  0.00000000E+00
  0.00000000E+00  0.00000000E+00  0.00000000E+00
  0.00000000E+00  0.00000000E+00  0.00000000E+00
  0.00000000E+00  0.00000000E+00  0.00000000E+00
  0.00000000E+00  0.00000000E+00  0.00000000E+00
  0.00000000E+00  0.00000000E+00  0.00000000E+00
  0.00000000E+00  0.00000000E+00  0.00000000E+00
  0.00000000E+00  0.00000000E+00  0.00000000E+00
  0.00000000E+00  0.00000000E+00  0.00000000E+00
  0.00000000E+00  0.00000000E+00  0.00000000E+00
  0.00000000E+00  0.00000000E+00  0.00000000E+00
  0.00000000E+00  0.00000000E+00  0.00000000E+00
  0.00000000E+00  0.00000000E+00  0.00000000E+00
  0.00000000E+00  0.00000000E+00  0.00000000E+00
  0.00000000E+00  0.00000000E+00  0.00000000E+00
  0.00000000E+00  0.00000000E+00  0.00000000E+00
  0.00000000E+00  0.00000000E+00  0.00000000E+00
  0.00000000E+00  0.00000000E+00  0.00000000E+00
  0.00000000E+00  0.00000000E+00  0.00000000E+00
  0.00000000E+00  0.00000000E+00  0.00000000E+00
  0.00000000E+00  0.00000000E+00  0.00000000E+00
  0.00000000E+00  0.00000000E+00  0.00000000E+00
  0.00000000E+00  0.00000000E+00  0.00000000E+00
  0.00000000E+00  0.00000000E+00  0.00000000E+00
  0.00000000E+00  0.00000000E+00  0.00000000E+00
  0.00000000E+00  0.00000000E+00  0.00000000E+00
  0.00000000E+00  0.00000000E+00  0.00000000E+00
  0.00000000E+00  0.00000000E+00  0.00000000E+00
  0.00000000E+00  0.00000000E+00  0.00000000E+00
  0.00000000E+00  0.00000000E+00  0.00000000E+00
  0.00000000E+00  0.00000000E+00  0.00000000E+00
  0.00000000E+00  0.00000000E+00  0.00000000E+00
  0.00000000E+00  0.00000000E+00  0.00000000E+00
  0.00000000E+00  0.00000000E+00  0.00000000E+00
  0.00000000E+00  0.00000000E+00  0.00000000E+00
  0.00000000E+00  0.00000000E+00  0.00000000E+00
  0.00000000E+00  0.00000000E+00  0.00000000E+00
  0.00000000E+00  0.00000000E+00  0.00000000E+00
  0.00000000E+00  0.00000000E+00  0.00000000E+00
  0.00000000E+00  0.00000000E+00  0.00000000E+00
  0.00000000E+00  0.00000000E+00  0.00000000E+00
  0.00000000E+00  0.00000000E+00  0.00000000E+00
  0.00000000E+00  0.00000000E+00  0.00000000E+00
  0.00000000E+00  0.00000000E+00  0.00000000E+00
  0.00000000E+00  0.00000000E+00  0.00000000E+00
  0.00000000E+00  0.00000000E+00  0.00000000E+00
  0.00000000E+00  0.00000000E+00  0.00000000E+00
  0.00000000E+00  0.00000000E+00  0.00000000E+00
  0.00000000E+00  0.00000000E+00  0.00000000E+00
  0.00000000E+00  0.00000000E+00  0.00000000E+00
  0.00000000E+00  0.00000000E+00  0.00000000E+00
  0.00000000E+00  0.00000000E+00  0.00000000E+00
  0.00000000E+00  0.00000000E+00  0.00000000E+00
  0.00000000E+00  0.00000000E+00  0.00000000E+00
  0.00000000E+00  0.00000000E+00  0.00000000E+00
  0.00000000E+00  0.00000000E+00  0.00000000E+00
  0.00000000E+00  0.00000000E+00  0.00000000E+00
  0.00000000E+00  0.00000000E+00  0.00000000E+00
  0.00000000E+00  0.00000000E+00  0.00000000E+00
  0.00000000E+00  0.00000000E+00  0.00000000E+00
  0.00000000E+00  0.00000000E+00  0.00000000E+00
  0.00000000E+00  0.00000000E+00  0.00000000E+00
  0.00000000E+00  0.00000000E+00  0.00000000E+00
  0.00000000E+00  0.00000000E+00  0.00000000E+00
  0.00000000E+00  0.00000000E+00  0.00000000E+00
  0.00000000E+00  0.00000000E+00  0.00000000E+00
  0.00000000E+00  0.00000000E+00  0.00000000E+00
  0.00000000E+00  0.00000000E+00  0.00000000E+00
  0.00000000E+00  0.00000000E+00  0.00000000E+00
  0.00000000E+00  0.00000000E+00  0.00000000E+00
  0.00000000E+00  0.00000000E+00  0.00000000E+00
  0.00000000E+00  0.00000000E+00  0.00000000E+00
  0.00000000E+00  0.00000000E+00  0.00000000E+00
  0.00000000E+00  0.00000000E+00  0.00000000E+00
  0.00000000E+00  0.00000000E+00  0.00000000E+00
  0.00000000E+00  0.00000000E+00  0.00000000E+00
  0.00000000E+00  0.00000000E+00  0.00000000E+00
  0.00000000E+00  0.00000000E+00  0.00000000E+00
  0.00000000E+00  0.00000000E+00  0.00000000E+00
  0.00000000E+00  0.00000000E+00  0.00000000E+00
  0.00000000E+00  0.00000000E+00  0.00000000E+00
  0.00000000E+00  0.00000000E+00  0.00000000E+00
  0.00000000E+00  0.00000000E+00  0.00000000E+00
  0.00000000E+00  0.00000000E+00  0.00000000E+00
  0.00000000E+00  0.00000000E+00  0.00000000E+00
  0.00000000E+00  0.00000000E+00  0.00000000E+00
  0.00000000E+00  0.00000000E+00  0.00000000E+00
  0.00000000E+00  0.00000000E+00  0.00000000E+00
  0.00000000E+00  0.00000000E+00  0.00000000E+00
  0.00000000E+00  0.00000000E+00  0.00000000E+00
  0.00000000E+00  0.00000000E+00  0.00000000E+00
  0.00000000E+00  0.00000000E+00  0.00000000E+00
  0.00000000E+00  0.00000000E+00  0.00000000E+00
  0.00000000E+00  0.00000000E+00  0.00000000E+00
  0.00000000E+00  0.00000000E+00  0.00000000E+00
  0.00000000E+00  0.00000000E+00  0.00000000E+00
  0.00000000E+00  0.00000000E+00  0.00000000E+00
  0.00000000E+00  0.00000000E+00  0.00000000E+00
  0.00000000E+00  0.00000000E+00  0.00000000E+00
  0.00000000E+00  0.00000000E+00  0.00000000E+00
  0.00000000E+00  0.00000000E+00  0.00000000E+00
