Mo1 H1 C123 N3 O1                       
   1.00000000000000     
    19.7993585803944327    0.0059277507925945   -0.1699134419141776
    -9.8909838973184829   17.0163270805904325   -0.2745862297099314
    -0.2550570330701538   -0.6281836868463877   29.8768118029055891
   Mo   H    C    N    O 
     1     1   123     3     1
Direct
  0.4438493417552163  0.5042117907526865  0.4350430959493218
  0.4377891042927581  0.5065805036019065  0.5244178855406884
  0.0424820762371291  0.0847923215845845  0.4000721373489611
  0.0415623336693505  0.2088038123748186  0.4003265133429478
  0.0407542398072644  0.3333624171437799  0.3991594021766177
  0.0407761321738148  0.4583571966679330  0.3978242641519563
  0.0415373861307918  0.5838165206493933  0.3975817963455837
  0.0423065181828089  0.7093275649531540  0.3980853938918077
  0.0426231149547170  0.8346949037754469  0.3988462362932884
  0.0426688972551691  0.9599561828369795  0.3995327277275330
  0.1682454867444559  0.0860394748586597  0.4010077556795443
  0.1683366360401116  0.2113146176535184  0.4021329545779366
  0.1657443904670842  0.3343296005422809  0.4017095256843547
  0.1647712318208965  0.4587034846074208  0.3984483534985896
  0.1655103429265526  0.5837652664856514  0.3976001916100765
  0.1666420068441892  0.7090351767880926  0.3981520307412497
  0.1672743262345540  0.8345925017697509  0.3989740572321608
  0.1677517207515746  0.9603665245446034  0.3998390809794015
  0.2929393044930557  0.0862705505868818  0.4006683427762165
  0.2937717888710886  0.2134074896372169  0.4029929888465695
  0.2939749453076729  0.3401519744868085  0.4065745233317991
  0.2884043740105767  0.4589947074053887  0.4036609442945652
  0.2890970355924523  0.5830802384822886  0.3990145529972072
  0.2910704059685311  0.7084104623485030  0.3986701002946565
  0.2918322820752183  0.8339750590229991  0.3989451919764465
  0.2923492956202782  0.9598438345468038  0.3995884790105529
  0.4172470065275205  0.0846305827676053  0.3998729323007776
  0.4179395828579899  0.2111371279178254  0.4007023688688430
  0.4198566567519515  0.3393666776675926  0.4030999247800851
  0.4152426753973846  0.7055389034668783  0.4012936482067943
  0.4163753811838805  0.8321868290005211  0.3995708306450567
  0.4168204546695315  0.9584070773482686  0.3994169143645174
  0.5416775806457359  0.0829886099516008  0.3993547937969482
  0.5422440958812568  0.2088841712471668  0.3993291799076386
  0.5432412234357603  0.3346531658574921  0.3997661162746408
  0.5464637475836468  0.4601040550149382  0.4013737438458321
  0.5387265015142474  0.7020460731957430  0.4035701288477065
  0.5408475978569328  0.8305146013183889  0.4010685496679655
  0.5413074705145909  0.9569672036326924  0.3997574449197110
  0.6662863583527752  0.0822948225819395  0.3992756630657925
  0.6666537756102939  0.2078306632338706  0.3987297032836675
  0.6674729122349157  0.3333071460747418  0.3984370356768836
  0.6695725722414160  0.4589799990289728  0.3992204426095222
  0.6705825213166003  0.5844468065900897  0.3999050030597511
  0.6664459194134371  0.7065527021359225  0.4003171053076728
  0.6650529487979672  0.8307228759351134  0.4007941061160793
  0.6658849897382315  0.9567081678645782  0.4000792447133663
  0.7910634992020358  0.0823945795158569  0.3992263874205523
  0.7912444185709383  0.2076030598005037  0.3986702629988725
  0.7917424918995537  0.3329279412293165  0.3979216322015318
  0.7929069144692575  0.4584700964307702  0.3975787287713615
  0.7938200840602916  0.5840601909130907  0.3982483583973973
  0.7933103077705334  0.7091458997133655  0.3989939869130001
  0.7914009743133962  0.8327945269875334  0.3995401644918051
  0.7908117441935846  0.9571583166395744  0.3996225100254984
  0.9163050678008384  0.0830983284592494  0.3993459740566183
  0.9161306979299482  0.2079193124939906  0.3989828885230842
  0.9161437863220355  0.3329240406169248  0.3981344685678355
  0.9167423172482335  0.4582956550807942  0.3974469859833286
  0.9176228855789261  0.5838895262685529  0.3974117050505342
  0.9178464871768135  0.7092837790337426  0.3980437149612421
  0.9175384401214417  0.8342986563710174  0.3988183796232376
  0.9168905152317408  0.9586972471183555  0.3993212564313398
  0.0846669354855872  0.0437150545330880  0.4001990902106633
  0.0844387611127842  0.1685507124832922  0.4007815907054003
  0.0828083224764075  0.2921770912344204  0.4003983798814967
  0.0819821373683352  0.4166000109121644  0.3983609113915013
  0.0825612072929765  0.5419212484389841  0.3975845411452305
  0.0835160156142953  0.6674107117805683  0.3979251024632972
  0.0840374193680354  0.7928941282026750  0.3986714457441318
  0.0844321317606963  0.9184138972025140  0.3994631198217952
  0.2096066194990217  0.0441526285853599  0.4005762864551402
  0.2102850286369206  0.1701180350837185  0.4022417051405266
  0.2099416381163702  0.2953913896456245  0.4034615964626045
  0.2063229588083711  0.4173853278837968  0.4005848485037161
  0.2061752398212756  0.5416223593208100  0.3978877190200342
  0.2077116092150796  0.6670901559320411  0.3979556944882763
  0.2086040736119026  0.7926367673678093  0.3986851634174099
  0.2091038456271914  0.9182876593555903  0.3994661168694104
  0.3341085068341530  0.0437006679914620  0.4000420779562359
  0.3347036848913236  0.1703020808803212  0.4014388973651595
  0.3358980116052481  0.2982284910019827  0.4050398670545681
  0.3296735867268649  0.5417421033487383  0.4022692378104298
  0.3319346491189615  0.6663003587800808  0.3995800705500940
  0.3331990789732161  0.7918176586943448  0.3990249941715991
  0.3335799962229913  0.9175218454299341  0.3993005384789025
  0.4585065068065531  0.0420970993144421  0.3995535030164483
  0.4589979212262730  0.1683715504111206  0.3999507257896450
  0.4599282208500885  0.2949998940051328  0.4007038529497008
  0.4645966106814564  0.4225028917378864  0.4047472014649792
  0.4544285131454898  0.6606275416706904  0.4042790416872369
  0.4575845653112817  0.7894402194784060  0.4005585062195532
  0.4580975516260474  0.9159800557175966  0.3995290143150836
  0.5829906319170484  0.0407407295996670  0.3994302273612260
  0.5834745753246815  0.1666035331505443  0.3990907352667333
  0.5842557483954640  0.2922196446034618  0.3990962062505755
  0.5868161660305414  0.4178955297854967  0.3999513534572648
  0.5889476398955988  0.5436281772927567  0.4014731300004420
  0.5828575589952637  0.6621138526894542  0.4025933992133292
  0.5812471047438924  0.7872490016020736  0.4018924971985331
  0.5826520594453115  0.9146318277690643  0.4002964106488024
  0.7077230989753481  0.0404418492759328  0.3994866538263250
  0.7080566419387228  0.1659039539497493  0.3988864007632388
  0.7085720055233672  0.2913283231381423  0.3982782929333563
  0.7100319803015509  0.4167571736251078  0.3983225144166505
  0.7113376340275206  0.5421442000292780  0.3991553584334991
  0.7104743084903647  0.6672909171505296  0.3996423192510849
  0.7077577657173850  0.7903194970772607  0.4001601061980442
  0.7071826749013421  0.9147525005004870  0.4001784261168822
  0.8328035735245685  0.0409193726772068  0.3993164231402047
  0.8328748725740633  0.1660212110773878  0.3989026799155728
  0.8330096754728340  0.2910749059850656  0.3982012913581288
  0.8337693471519810  0.4164200162459852  0.3974773270977148
  0.8347956285226121  0.5420536748074377  0.3975630229490023
  0.8349624045725024  0.6675198782955272  0.3983650288821349
  0.8342825350222353  0.7923748630750190  0.3990908989156635
  0.8332242493547825  0.9164012436408747  0.3994584339080061
  0.9587917516588721  0.0423373437903177  0.3995081650282471
  0.9580842145803526  0.1666232713226482  0.3994760023759987
  0.9577456883479254  0.2914285529371157  0.3987313754187002
  0.9578425382451538  0.4164498945685630  0.3977878333537747
  0.9585550830701318  0.5418546361187468  0.3973977296972833
  0.9592507534124561  0.6674935778669785  0.3977263653242781
  0.9593798569903186  0.7928674931429944  0.3984698385421097
  0.9592108800946575  0.9178420037602677  0.3991541909102578
  0.4101601120782861  0.5792155207933847  0.4077088488845217
  0.5463347306379583  0.5813280231110352  0.4048104984726389
  0.3321630222665682  0.4227474942230982  0.4106526862173224
  0.4608718173202234  0.5039110782846110  0.4965276767455831
 
  0.00000000E+00  0.00000000E+00  0.00000000E+00
  0.00000000E+00  0.00000000E+00  0.00000000E+00
  0.00000000E+00  0.00000000E+00  0.00000000E+00
  0.00000000E+00  0.00000000E+00  0.00000000E+00
  0.00000000E+00  0.00000000E+00  0.00000000E+00
  0.00000000E+00  0.00000000E+00  0.00000000E+00
  0.00000000E+00  0.00000000E+00  0.00000000E+00
  0.00000000E+00  0.00000000E+00  0.00000000E+00
  0.00000000E+00  0.00000000E+00  0.00000000E+00
  0.00000000E+00  0.00000000E+00  0.00000000E+00
  0.00000000E+00  0.00000000E+00  0.00000000E+00
  0.00000000E+00  0.00000000E+00  0.00000000E+00
  0.00000000E+00  0.00000000E+00  0.00000000E+00
  0.00000000E+00  0.00000000E+00  0.00000000E+00
  0.00000000E+00  0.00000000E+00  0.00000000E+00
  0.00000000E+00  0.00000000E+00  0.00000000E+00
  0.00000000E+00  0.00000000E+00  0.00000000E+00
  0.00000000E+00  0.00000000E+00  0.00000000E+00
  0.00000000E+00  0.00000000E+00  0.00000000E+00
  0.00000000E+00  0.00000000E+00  0.00000000E+00
  0.00000000E+00  0.00000000E+00  0.00000000E+00
  0.00000000E+00  0.00000000E+00  0.00000000E+00
  0.00000000E+00  0.00000000E+00  0.00000000E+00
  0.00000000E+00  0.00000000E+00  0.00000000E+00
  0.00000000E+00  0.00000000E+00  0.00000000E+00
  0.00000000E+00  0.00000000E+00  0.00000000E+00
  0.00000000E+00  0.00000000E+00  0.00000000E+00
  0.00000000E+00  0.00000000E+00  0.00000000E+00
  0.00000000E+00  0.00000000E+00  0.00000000E+00
  0.00000000E+00  0.00000000E+00  0.00000000E+00
  0.00000000E+00  0.00000000E+00  0.00000000E+00
  0.00000000E+00  0.00000000E+00  0.00000000E+00
  0.00000000E+00  0.00000000E+00  0.00000000E+00
  0.00000000E+00  0.00000000E+00  0.00000000E+00
  0.00000000E+00  0.00000000E+00  0.00000000E+00
  0.00000000E+00  0.00000000E+00  0.00000000E+00
  0.00000000E+00  0.00000000E+00  0.00000000E+00
  0.00000000E+00  0.00000000E+00  0.00000000E+00
  0.00000000E+00  0.00000000E+00  0.00000000E+00
  0.00000000E+00  0.00000000E+00  0.00000000E+00
  0.00000000E+00  0.00000000E+00  0.00000000E+00
  0.00000000E+00  0.00000000E+00  0.00000000E+00
  0.00000000E+00  0.00000000E+00  0.00000000E+00
  0.00000000E+00  0.00000000E+00  0.00000000E+00
  0.00000000E+00  0.00000000E+00  0.00000000E+00
  0.00000000E+00  0.00000000E+00  0.00000000E+00
  0.00000000E+00  0.00000000E+00  0.00000000E+00
  0.00000000E+00  0.00000000E+00  0.00000000E+00
  0.00000000E+00  0.00000000E+00  0.00000000E+00
  0.00000000E+00  0.00000000E+00  0.00000000E+00
  0.00000000E+00  0.00000000E+00  0.00000000E+00
  0.00000000E+00  0.00000000E+00  0.00000000E+00
  0.00000000E+00  0.00000000E+00  0.00000000E+00
  0.00000000E+00  0.00000000E+00  0.00000000E+00
  0.00000000E+00  0.00000000E+00  0.00000000E+00
  0.00000000E+00  0.00000000E+00  0.00000000E+00
  0.00000000E+00  0.00000000E+00  0.00000000E+00
  0.00000000E+00  0.00000000E+00  0.00000000E+00
  0.00000000E+00  0.00000000E+00  0.00000000E+00
  0.00000000E+00  0.00000000E+00  0.00000000E+00
  0.00000000E+00  0.00000000E+00  0.00000000E+00
  0.00000000E+00  0.00000000E+00  0.00000000E+00
  0.00000000E+00  0.00000000E+00  0.00000000E+00
  0.00000000E+00  0.00000000E+00  0.00000000E+00
  0.00000000E+00  0.00000000E+00  0.00000000E+00
  0.00000000E+00  0.00000000E+00  0.00000000E+00
  0.00000000E+00  0.00000000E+00  0.00000000E+00
  0.00000000E+00  0.00000000E+00  0.00000000E+00
  0.00000000E+00  0.00000000E+00  0.00000000E+00
  0.00000000E+00  0.00000000E+00  0.00000000E+00
  0.00000000E+00  0.00000000E+00  0.00000000E+00
  0.00000000E+00  0.00000000E+00  0.00000000E+00
  0.00000000E+00  0.00000000E+00  0.00000000E+00
  0.00000000E+00  0.00000000E+00  0.00000000E+00
  0.00000000E+00  0.00000000E+00  0.00000000E+00
  0.00000000E+00  0.00000000E+00  0.00000000E+00
  0.00000000E+00  0.00000000E+00  0.00000000E+00
  0.00000000E+00  0.00000000E+00  0.00000000E+00
  0.00000000E+00  0.00000000E+00  0.00000000E+00
  0.00000000E+00  0.00000000E+00  0.00000000E+00
  0.00000000E+00  0.00000000E+00  0.00000000E+00
  0.00000000E+00  0.00000000E+00  0.00000000E+00
  0.00000000E+00  0.00000000E+00  0.00000000E+00
  0.00000000E+00  0.00000000E+00  0.00000000E+00
  0.00000000E+00  0.00000000E+00  0.00000000E+00
  0.00000000E+00  0.00000000E+00  0.00000000E+00
  0.00000000E+00  0.00000000E+00  0.00000000E+00
  0.00000000E+00  0.00000000E+00  0.00000000E+00
  0.00000000E+00  0.00000000E+00  0.00000000E+00
  0.00000000E+00  0.00000000E+00  0.00000000E+00
  0.00000000E+00  0.00000000E+00  0.00000000E+00
  0.00000000E+00  0.00000000E+00  0.00000000E+00
  0.00000000E+00  0.00000000E+00  0.00000000E+00
  0.00000000E+00  0.00000000E+00  0.00000000E+00
  0.00000000E+00  0.00000000E+00  0.00000000E+00
  0.00000000E+00  0.00000000E+00  0.00000000E+00
  0.00000000E+00  0.00000000E+00  0.00000000E+00
  0.00000000E+00  0.00000000E+00  0.00000000E+00
  0.00000000E+00  0.00000000E+00  0.00000000E+00
  0.00000000E+00  0.00000000E+00  0.00000000E+00
  0.00000000E+00  0.00000000E+00  0.00000000E+00
  0.00000000E+00  0.00000000E+00  0.00000000E+00
  0.00000000E+00  0.00000000E+00  0.00000000E+00
  0.00000000E+00  0.00000000E+00  0.00000000E+00
  0.00000000E+00  0.00000000E+00  0.00000000E+00
  0.00000000E+00  0.00000000E+00  0.00000000E+00
  0.00000000E+00  0.00000000E+00  0.00000000E+00
  0.00000000E+00  0.00000000E+00  0.00000000E+00
  0.00000000E+00  0.00000000E+00  0.00000000E+00
  0.00000000E+00  0.00000000E+00  0.00000000E+00
  0.00000000E+00  0.00000000E+00  0.00000000E+00
  0.00000000E+00  0.00000000E+00  0.00000000E+00
  0.00000000E+00  0.00000000E+00  0.00000000E+00
  0.00000000E+00  0.00000000E+00  0.00000000E+00
  0.00000000E+00  0.00000000E+00  0.00000000E+00
  0.00000000E+00  0.00000000E+00  0.00000000E+00
  0.00000000E+00  0.00000000E+00  0.00000000E+00
  0.00000000E+00  0.00000000E+00  0.00000000E+00
  0.00000000E+00  0.00000000E+00  0.00000000E+00
  0.00000000E+00  0.00000000E+00  0.00000000E+00
  0.00000000E+00  0.00000000E+00  0.00000000E+00
  0.00000000E+00  0.00000000E+00  0.00000000E+00
  0.00000000E+00  0.00000000E+00  0.00000000E+00
  0.00000000E+00  0.00000000E+00  0.00000000E+00
  0.00000000E+00  0.00000000E+00  0.00000000E+00
  0.00000000E+00  0.00000000E+00  0.00000000E+00
  0.00000000E+00  0.00000000E+00  0.00000000E+00
  0.00000000E+00  0.00000000E+00  0.00000000E+00
  0.00000000E+00  0.00000000E+00  0.00000000E+00
