Ag1 C126                                
   1.00000000000000     
    19.8754071931528848    0.0000013675844831    0.0000288040796912
    -9.9377033573377815   17.0702837809568280   -0.0000074366484958
     0.0000549556184849    0.0000110967561031   29.6582332737224377
   Ag   C 
     1   126
Direct
  0.4375019436851973  0.5000001070317859  0.4123549067026786
  0.0416108451702211  0.0837423508618368  0.3995595371102694
  0.0401596699702235  0.2076075426669052  0.3993152508680836
  0.0394497578351296  0.3324382997641528  0.3989666017843999
  0.0396437073195445  0.4581847673810082  0.3988754621551598
  0.0410294355070830  0.5839079358589906  0.3993502573682242
  0.0422076344300012  0.7093972610071818  0.3997288008710392
  0.0426384675083748  0.8347767349302518  0.3998230865607063
  0.0425791727591862  0.9596627168294930  0.3996982417894568
  0.1676537783009598  0.0854105990448555  0.4000691198623482
  0.1662237018133003  0.2092490239563367  0.4005328275375667
  0.1637725924915256  0.3326712978532450  0.4004805583901328
  0.1623577875101806  0.4581846920022482  0.3992716469075144
  0.1640603369737787  0.5838373896907950  0.3987223248010002
  0.1661719091146454  0.7094122018888189  0.3992854650715446
  0.1671260109768056  0.8347767041846694  0.3998260883018987
  0.1675913199879377  0.9601487746422858  0.3999247497694406
  0.2927643724729950  0.0854058411249226  0.4000649262998872
  0.2934451060911091  0.2118804491708013  0.4018487999472656
  0.2906876149478997  0.3361915582710129  0.4050101426331379
  0.2838989971996146  0.4575298414275628  0.4049442896854936
  0.2868240840987619  0.5841572268573770  0.4010249293326597
  0.2902241364464885  0.7092320963241704  0.3992772566774893
  0.2913497517561281  0.8342649413059153  0.3993800837102247
  0.2921078111549626  0.9596559712300599  0.3997105204678701
  0.4171298923027605  0.0837216789417723  0.3995646448923477
  0.4180304472669386  0.2092471412925009  0.4005425184043763
  0.4204909782096021  0.3361713975685127  0.4050283557679275
  0.4078342055160205  0.5821247494739814  0.4082742632504462
  0.4144446770099827  0.7074361940997841  0.4017485143254134
  0.4158428099629544  0.8330147364018823  0.3996224708743962
  0.4165710521649221  0.9583689884167307  0.3994988020034811
  0.5416430767758885  0.0823733220032529  0.3995361776009722
  0.5424390793496435  0.2076114844924290  0.3993428080284635
  0.5439038936288516  0.3326807028414676  0.4004865445656869
  0.5486226872939278  0.4575304851416365  0.4049130133855365
  0.5492912745515424  0.5821386940372819  0.4082792548976044
  0.5397828649670473  0.7045676694450104  0.4044443763881062
  0.5402739579094091  0.8310274357161912  0.4007830404513654
  0.5410050475575177  0.9568679496596704  0.3997287894139004
  0.6660503750858546  0.0817188443004410  0.3998527898076430
  0.6667195284963503  0.2070892181710258  0.3995234229703178
  0.6679804705912191  0.3324462347988608  0.3989667998060544
  0.6708258958271376  0.4581890634881662  0.3992723505090926
  0.6723212787439949  0.5841522934284900  0.4010169655363420
  0.6680080866797221  0.7074471669571432  0.4017667846910395
  0.6657583487321942  0.8310281141206060  0.4007810100875365
  0.6656862778024007  0.9563504628323126  0.4000204812850105
  0.7906974817346054  0.0817218269588494  0.3998706862517202
  0.7909723023590062  0.2069551995873082  0.3998714800811711
  0.7918410785841761  0.3324605432092241  0.3995012755302630
  0.7935181875252639  0.4581860687805867  0.3988962648098388
  0.7947592746738457  0.5838332771286997  0.3987383437579520
  0.7939928073964690  0.7092171439884308  0.3992916557363153
  0.7921804417269903  0.8330230093092038  0.3996354293390469
  0.7908721869010288  0.9568839700557645  0.3997308556039159
  0.9157598887743965  0.0823764711734026  0.3995331494171830
  0.9153517282474422  0.2070887081498924  0.3995145094858224
  0.9156270885825590  0.3324662341610988  0.3994975857519148
  0.9165447650791497  0.4581192594253942  0.3995062485285194
  0.9178530647862285  0.5839184216658815  0.3993588767022607
  0.9182344879842714  0.7094102880712452  0.3992920522349221
  0.9179037097746839  0.8342631869823505  0.3994017282717220
  0.9168300736259729  0.9583801996983619  0.3994988971017043
  0.0841367557890503  0.0431317684695046  0.3997277729148539
  0.0828278064944810  0.1669847689118899  0.3996223920105789
  0.0809918653715352  0.2907675674704853  0.3992772759485907
  0.0802229741072196  0.4161617918811729  0.3987222628665797
  0.0814594247338666  0.5418153333957004  0.3988750582463984
  0.0831604920016539  0.6675336498262299  0.3994972968492952
  0.0840168628430906  0.7930447093870611  0.3998712119869089
  0.0843310690427367  0.9182809425336094  0.3998520747508092
  0.2093354935112699  0.0436491171619722  0.4000199204223026
  0.2092465678029314  0.1689725287901509  0.4007828114684081
  0.2070091464276910  0.2925636966952131  0.4017488190316196
  0.2026669150020559  0.4158427405579518  0.4010246121822933
  0.2041729897251943  0.5418147673647288  0.3992719038858935
  0.2070114099553110  0.6675617553320715  0.3989663108373452
  0.2082632774934533  0.7929122162904202  0.3995132659978238
  0.2089752549748360  0.9182779367638219  0.3998703523942608
  0.3339898536049046  0.0431170432853927  0.3997309186493510
  0.3347304336259755  0.1689713289242115  0.4007812458041792
  0.3352154117360430  0.2954319588522092  0.4044443566689510
  0.3257097115993943  0.4178751444739394  0.4082739606724054
  0.3263688683499578  0.5424702246654918  0.4049447445257080
  0.3311012522578496  0.6673286445612882  0.4004808944407989
  0.3325516906875844  0.7923926447050162  0.3993148882139617
  0.3333829634877901  0.9176238689576904  0.3995330746762378
  0.4584503969322511  0.0416207264667329  0.3994995020461718
  0.4591577530320668  0.1669773055923524  0.3996350779880750
  0.4605608691728740  0.2925526282760056  0.4017658207391968
  0.4671522436642901  0.4178605384674193  0.4082781436252815
  0.4544964807746104  0.6638076874053003  0.4050099921472285
  0.4569747055630584  0.7907512010653956  0.4005327998433771
  0.4578685034637876  0.9162577625959509  0.3995601606703890
  0.5829164741092963  0.0403378265707645  0.3996995164730770
  0.5836403037590475  0.1657365352455139  0.3994016713322704
  0.5847766735763440  0.2907833305891986  0.3992901527966223
  0.5881679535598461  0.4158464449816223  0.4010164038832085
  0.5910921836617984  0.5424697932314152  0.4049136119957294
  0.5843194543233338  0.6638283164128542  0.4050292403555868
  0.5815642350279123  0.7881192359979736  0.4018484577292948
  0.5822429925692532  0.9145895842485533  0.4000699488363206
  0.7074421907986840  0.0398507969166719  0.3999254062409681
  0.7078611655595495  0.1652227667249506  0.3998234109024650
  0.7088233656548680  0.2905891917128788  0.3992913576693611
  0.7109254695899562  0.4161660669980993  0.3987374587283505
  0.7126369275586872  0.5418114246456468  0.3992730281611505
  0.7112228722049226  0.6673193153204484  0.4004882723290380
  0.7087830142620318  0.7907532434683855  0.4005425474906672
  0.7073589657053435  0.9145940605639753  0.4000648777529842
  0.8324514829697519  0.0403436990784099  0.3997105532343592
  0.8323493040999338  0.1652230361447083  0.3998267185155195
  0.8328091796926063  0.2906015894470872  0.3997291355371517
  0.8339338969087946  0.4160811901702035  0.3993582524463450
  0.8353319571856270  0.5418151341942024  0.3988964137799383
  0.8355344357338185  0.6675536336501741  0.3989680909692255
  0.8348270101311733  0.7923880025809075  0.3993437161284023
  0.8334085090189463  0.9162790945583644  0.3995648473937773
  0.9582020810156455  0.0416306303374139  0.3994984787757018
  0.9570844070387229  0.1657356507461084  0.3993802781941215
  0.9567594203986678  0.2905867587112290  0.3992861485080348
  0.9571203220784742  0.4160912364317640  0.3993503429073202
  0.9584252787720501  0.5418802990036649  0.3995061998859650
  0.9593794115913874  0.6675394216595891  0.3995014702023881
  0.9596302498587957  0.7929113209043015  0.3995234994603417
  0.9592696486518613  0.9176272083449997  0.3995354767262620
 
  0.00000000E+00  0.00000000E+00  0.00000000E+00
  0.00000000E+00  0.00000000E+00  0.00000000E+00
  0.00000000E+00  0.00000000E+00  0.00000000E+00
  0.00000000E+00  0.00000000E+00  0.00000000E+00
  0.00000000E+00  0.00000000E+00  0.00000000E+00
  0.00000000E+00  0.00000000E+00  0.00000000E+00
  0.00000000E+00  0.00000000E+00  0.00000000E+00
  0.00000000E+00  0.00000000E+00  0.00000000E+00
  0.00000000E+00  0.00000000E+00  0.00000000E+00
  0.00000000E+00  0.00000000E+00  0.00000000E+00
  0.00000000E+00  0.00000000E+00  0.00000000E+00
  0.00000000E+00  0.00000000E+00  0.00000000E+00
  0.00000000E+00  0.00000000E+00  0.00000000E+00
  0.00000000E+00  0.00000000E+00  0.00000000E+00
  0.00000000E+00  0.00000000E+00  0.00000000E+00
  0.00000000E+00  0.00000000E+00  0.00000000E+00
  0.00000000E+00  0.00000000E+00  0.00000000E+00
  0.00000000E+00  0.00000000E+00  0.00000000E+00
  0.00000000E+00  0.00000000E+00  0.00000000E+00
  0.00000000E+00  0.00000000E+00  0.00000000E+00
  0.00000000E+00  0.00000000E+00  0.00000000E+00
  0.00000000E+00  0.00000000E+00  0.00000000E+00
  0.00000000E+00  0.00000000E+00  0.00000000E+00
  0.00000000E+00  0.00000000E+00  0.00000000E+00
  0.00000000E+00  0.00000000E+00  0.00000000E+00
  0.00000000E+00  0.00000000E+00  0.00000000E+00
  0.00000000E+00  0.00000000E+00  0.00000000E+00
  0.00000000E+00  0.00000000E+00  0.00000000E+00
  0.00000000E+00  0.00000000E+00  0.00000000E+00
  0.00000000E+00  0.00000000E+00  0.00000000E+00
  0.00000000E+00  0.00000000E+00  0.00000000E+00
  0.00000000E+00  0.00000000E+00  0.00000000E+00
  0.00000000E+00  0.00000000E+00  0.00000000E+00
  0.00000000E+00  0.00000000E+00  0.00000000E+00
  0.00000000E+00  0.00000000E+00  0.00000000E+00
  0.00000000E+00  0.00000000E+00  0.00000000E+00
  0.00000000E+00  0.00000000E+00  0.00000000E+00
  0.00000000E+00  0.00000000E+00  0.00000000E+00
  0.00000000E+00  0.00000000E+00  0.00000000E+00
  0.00000000E+00  0.00000000E+00  0.00000000E+00
  0.00000000E+00  0.00000000E+00  0.00000000E+00
  0.00000000E+00  0.00000000E+00  0.00000000E+00
  0.00000000E+00  0.00000000E+00  0.00000000E+00
  0.00000000E+00  0.00000000E+00  0.00000000E+00
  0.00000000E+00  0.00000000E+00  0.00000000E+00
  0.00000000E+00  0.00000000E+00  0.00000000E+00
  0.00000000E+00  0.00000000E+00  0.00000000E+00
  0.00000000E+00  0.00000000E+00  0.00000000E+00
  0.00000000E+00  0.00000000E+00  0.00000000E+00
  0.00000000E+00  0.00000000E+00  0.00000000E+00
  0.00000000E+00  0.00000000E+00  0.00000000E+00
  0.00000000E+00  0.00000000E+00  0.00000000E+00
  0.00000000E+00  0.00000000E+00  0.00000000E+00
  0.00000000E+00  0.00000000E+00  0.00000000E+00
  0.00000000E+00  0.00000000E+00  0.00000000E+00
  0.00000000E+00  0.00000000E+00  0.00000000E+00
  0.00000000E+00  0.00000000E+00  0.00000000E+00
  0.00000000E+00  0.00000000E+00  0.00000000E+00
  0.00000000E+00  0.00000000E+00  0.00000000E+00
  0.00000000E+00  0.00000000E+00  0.00000000E+00
  0.00000000E+00  0.00000000E+00  0.00000000E+00
  0.00000000E+00  0.00000000E+00  0.00000000E+00
  0.00000000E+00  0.00000000E+00  0.00000000E+00
  0.00000000E+00  0.00000000E+00  0.00000000E+00
  0.00000000E+00  0.00000000E+00  0.00000000E+00
  0.00000000E+00  0.00000000E+00  0.00000000E+00
  0.00000000E+00  0.00000000E+00  0.00000000E+00
  0.00000000E+00  0.00000000E+00  0.00000000E+00
  0.00000000E+00  0.00000000E+00  0.00000000E+00
  0.00000000E+00  0.00000000E+00  0.00000000E+00
  0.00000000E+00  0.00000000E+00  0.00000000E+00
  0.00000000E+00  0.00000000E+00  0.00000000E+00
  0.00000000E+00  0.00000000E+00  0.00000000E+00
  0.00000000E+00  0.00000000E+00  0.00000000E+00
  0.00000000E+00  0.00000000E+00  0.00000000E+00
  0.00000000E+00  0.00000000E+00  0.00000000E+00
  0.00000000E+00  0.00000000E+00  0.00000000E+00
  0.00000000E+00  0.00000000E+00  0.00000000E+00
  0.00000000E+00  0.00000000E+00  0.00000000E+00
  0.00000000E+00  0.00000000E+00  0.00000000E+00
  0.00000000E+00  0.00000000E+00  0.00000000E+00
  0.00000000E+00  0.00000000E+00  0.00000000E+00
  0.00000000E+00  0.00000000E+00  0.00000000E+00
  0.00000000E+00  0.00000000E+00  0.00000000E+00
  0.00000000E+00  0.00000000E+00  0.00000000E+00
  0.00000000E+00  0.00000000E+00  0.00000000E+00
  0.00000000E+00  0.00000000E+00  0.00000000E+00
  0.00000000E+00  0.00000000E+00  0.00000000E+00
  0.00000000E+00  0.00000000E+00  0.00000000E+00
  0.00000000E+00  0.00000000E+00  0.00000000E+00
  0.00000000E+00  0.00000000E+00  0.00000000E+00
  0.00000000E+00  0.00000000E+00  0.00000000E+00
  0.00000000E+00  0.00000000E+00  0.00000000E+00
  0.00000000E+00  0.00000000E+00  0.00000000E+00
  0.00000000E+00  0.00000000E+00  0.00000000E+00
  0.00000000E+00  0.00000000E+00  0.00000000E+00
  0.00000000E+00  0.00000000E+00  0.00000000E+00
  0.00000000E+00  0.00000000E+00  0.00000000E+00
  0.00000000E+00  0.00000000E+00  0.00000000E+00
  0.00000000E+00  0.00000000E+00  0.00000000E+00
  0.00000000E+00  0.00000000E+00  0.00000000E+00
  0.00000000E+00  0.00000000E+00  0.00000000E+00
  0.00000000E+00  0.00000000E+00  0.00000000E+00
  0.00000000E+00  0.00000000E+00  0.00000000E+00
  0.00000000E+00  0.00000000E+00  0.00000000E+00
  0.00000000E+00  0.00000000E+00  0.00000000E+00
  0.00000000E+00  0.00000000E+00  0.00000000E+00
  0.00000000E+00  0.00000000E+00  0.00000000E+00
  0.00000000E+00  0.00000000E+00  0.00000000E+00
  0.00000000E+00  0.00000000E+00  0.00000000E+00
  0.00000000E+00  0.00000000E+00  0.00000000E+00
  0.00000000E+00  0.00000000E+00  0.00000000E+00
  0.00000000E+00  0.00000000E+00  0.00000000E+00
  0.00000000E+00  0.00000000E+00  0.00000000E+00
  0.00000000E+00  0.00000000E+00  0.00000000E+00
  0.00000000E+00  0.00000000E+00  0.00000000E+00
  0.00000000E+00  0.00000000E+00  0.00000000E+00
  0.00000000E+00  0.00000000E+00  0.00000000E+00
  0.00000000E+00  0.00000000E+00  0.00000000E+00
  0.00000000E+00  0.00000000E+00  0.00000000E+00
  0.00000000E+00  0.00000000E+00  0.00000000E+00
  0.00000000E+00  0.00000000E+00  0.00000000E+00
  0.00000000E+00  0.00000000E+00  0.00000000E+00
  0.00000000E+00  0.00000000E+00  0.00000000E+00
  0.00000000E+00  0.00000000E+00  0.00000000E+00
  0.00000000E+00  0.00000000E+00  0.00000000E+00
  0.00000000E+00  0.00000000E+00  0.00000000E+00
