Ti1 H1 C126 O1                          
   1.00000000000000     
    19.8279288037941264   -0.0018044528635851   -0.0801440091429249
    -9.9158031220095726   17.0684563163243546   -0.0938792204044176
    -0.1199247437489639   -0.2329817186916604   29.7363224415978671
   Ti   H    C    O 
     1     1   126     1
Direct
  0.4407708913983179  0.5025241201226646  0.4352987038927933
  0.4821378895765760  0.5429214779165754  0.5196067801014349
  0.0418742783699442  0.0838331186850575  0.3994184883979316
  0.0408931690282451  0.2080557861723266  0.3990241983149490
  0.0404309509477577  0.3328542721713277  0.3984893704026634
  0.0405562051598595  0.4583279702944018  0.3985022007775320
  0.0414089747928444  0.5837846115280050  0.3993129687428031
  0.0421099660313240  0.7090979678846696  0.3998629212158444
  0.0424048407066770  0.8344293209954117  0.3998274082407464
  0.0424269822173628  0.9593975171924821  0.3995973046075866
  0.1675495108717979  0.0850778198553154  0.4000365959709109
  0.1668115753413879  0.2094740955024837  0.4003287484131358
  0.1651628350399828  0.3331621830284341  0.3999546909598892
  0.1641673267793829  0.4583461660487482  0.3983941220242492
  0.1651248541404562  0.5836858007140042  0.3981076534003232
  0.1664394804537908  0.7091083707033510  0.3990250678874468
  0.1670969594708998  0.8344215534023800  0.3996746696708053
  0.1674202500008165  0.9597288743514725  0.3998146794545669
  0.2926437567963110  0.0850733591728465  0.3999742300665086
  0.2932975452602693  0.2114436483995992  0.4018430199817850
  0.2919090810551341  0.3366807563927973  0.4053725989254718
  0.2871353239376492  0.4577996342259295  0.4045282761326827
  0.2888814772422075  0.5840228795529965  0.3997045513069543
  0.2908470861519031  0.7090254287192530  0.3985272199268046
  0.2915349708844018  0.8340391613851581  0.3990785315431472
  0.2920843756672957  0.9594020030412856  0.3995682703480395
  0.4170947633597203  0.0837843062699199  0.3994495433320056
  0.4177830019101949  0.2093499162818749  0.3998552381366240
  0.4199191620368184  0.3364872532948479  0.4036749706259092
  0.4112684466126382  0.5822363955516805  0.4082066243489170
  0.4152966057694358  0.7075772986208554  0.4002342547131978
  0.4162261948237825  0.8331328869362649  0.3990339592297651
  0.4167269870412556  0.9584837245811247  0.3993553521356085
  0.5418058609361391  0.0828038259385094  0.3995107902416656
  0.5423056647985950  0.2079760202487285  0.3990449069229958
  0.5431306786797706  0.3330045196062198  0.3990667272267704
  0.5456177065828639  0.4574892322416867  0.4012948187984131
  0.5453016680591704  0.5815082929579641  0.4041919586457223
  0.5402849140298188  0.7056441090987002  0.4028668487190852
  0.5407426192317908  0.8317551276437891  0.4000640769209167
  0.5413145658511118  0.9574034778061095  0.3995870656997350
  0.6663804869071970  0.0823538608470125  0.3998743082313053
  0.6668119427132417  0.2076016905924922  0.3995290898028911
  0.6675910205226275  0.3328202342120630  0.3987872190627060
  0.6693426169575458  0.4582727185353258  0.3980993095958484
  0.6701418334159147  0.5838855347659108  0.3983565335490790
  0.6671288786984149  0.7074024251664932  0.3992401994336484
  0.6660166071645005  0.8317087514473149  0.3998942347781883
  0.6660774499470884  0.9570453176354704  0.3999165833859986
  0.7911572023528930  0.0823569471585286  0.3997999748300210
  0.7913648186111901  0.2075330425444091  0.3998243386025132
  0.7919186356645026  0.3328813943319327  0.3996625827869347
  0.7929342771132282  0.4583119827491581  0.3991269521473140
  0.7936329498683043  0.5836371097708106  0.3984783787541216
  0.7931741606161739  0.7089621492350398  0.3984794581619382
  0.7919153408730949  0.8330726800784842  0.3991324170249811
  0.7911898987124795  0.9573898079169909  0.3996136428704913
  0.9161911062010187  0.0828273335662261  0.3993988111279991
  0.9159851881195974  0.2076192190789833  0.3992444192516985
  0.9161805533272815  0.3328840296984850  0.3993144516616423
  0.9167478561896362  0.4582895466220213  0.3996551345344607
  0.9175092131953733  0.5837863200512120  0.3997072599911795
  0.9177304149621877  0.7090949271948439  0.3994383920535887
  0.9175529925079910  0.8340042896843671  0.3993235220018166
  0.9168814203792197  0.9584796925331315  0.3994438441167130
  0.0840741579818076  0.0428638819718677  0.3996092522636857
  0.0833525112329587  0.1671721326923883  0.3994077579024717
  0.0820579246340694  0.2912173338047979  0.3988549595662061
  0.0815682528835507  0.4164827490792783  0.3981345215285719
  0.0822771655709502  0.5418295540914833  0.3985379330176713
  0.0833180853438266  0.6672961687613714  0.3994719212716287
  0.0838802003809540  0.7926808971621372  0.3998699383580105
  0.0841136688247074  0.9178771878778733  0.3997594675860384
  0.2091782395723296  0.0432296187651416  0.3999769300986750
  0.2092476919738716  0.1686157707454466  0.4008065347222982
  0.2081499272011182  0.2929410206947171  0.4013902404067619
  0.2051140900567038  0.4163220414832842  0.4001263899570892
  0.2058714017739836  0.5418568996199855  0.3983157961936451
  0.2075675381610924  0.6673263666786211  0.3984247378177910
  0.2083837243481583  0.7925846041286922  0.3992770630384529
  0.2088663002963350  0.9178813086564775  0.3997113146352225
  0.3339017424513711  0.0428632542645133  0.3996230218771755
  0.3345008747129979  0.1686119304842845  0.4005224355778859
  0.3350931071690675  0.2949321428862625  0.4045310320306567
  0.3297210220618275  0.4189845639813040  0.4096093943091954
  0.3296438614581184  0.5429031271593371  0.4039981243695851
  0.3320375774910209  0.6671680980687387  0.3992638629829526
  0.3328629543498745  0.7921956505937665  0.3987720110347251
  0.3334192275605539  0.9174209188572232  0.3993475242243046
  0.4584995815888080  0.0417532164487877  0.3994387922456876
  0.4589687417839875  0.1670970312570952  0.3993120150174717
  0.4599104206844294  0.2927562296556261  0.4002234536077969
  0.4643200847941232  0.4188966619090185  0.4060818788921100
  0.4554991387996831  0.6641714294162304  0.4037353127196283
  0.4574457757376130  0.7909440678109942  0.3995028779521128
  0.4581146847794048  0.9164457259739980  0.3993019542764696
  0.5831563400796050  0.0408484466133669  0.3996969474796409
  0.5836623971293566  0.1661627423176099  0.3993174967681790
  0.5843061640360258  0.2911229143470316  0.3987469235987494
  0.5863622264490418  0.4161517732064301  0.3988279790794324
  0.5880405307957193  0.5425716872957909  0.4007484969521094
  0.5833894833850489  0.6638558015415333  0.4019700354360723
  0.5819928192807682  0.7889840297140535  0.4007596377939555
  0.5826016041380386  0.9152458131870591  0.3998233239028588
  0.7078382755205269  0.0405130402589743  0.3999224190900358
  0.7081272409852639  0.1657940104800992  0.3998321267199291
  0.7087558435568878  0.2910707948709731  0.3993684760083533
  0.7100736098088811  0.4164534768654725  0.3985080557280047
  0.7110533263770239  0.5417743954530239  0.3980015707598935
  0.7100462540750574  0.6670440774198594  0.3983982218637745
  0.7084618203811269  0.7908450513466806  0.3992777981772844
  0.7077153629976746  0.9152045435065028  0.3997823916171218
  0.8328669060338240  0.0408459619612226  0.3996368669402458
  0.8328527157647336  0.1658013236820084  0.3996848308520689
  0.8331630860628652  0.2911064998487053  0.3997110862894399
  0.8338388182188143  0.4163884015323212  0.3996372110752265
  0.8346531862734076  0.5418093912188809  0.3991415944014294
  0.8347726338595708  0.6672863884707545  0.3987375481227395
  0.8343374955332279  0.7921350556019985  0.3989319046090589
  0.8334116726026359  0.9164189614940887  0.3994402464714310
  0.9584231580343223  0.0417565354103970  0.3993968861119612
  0.9576975566382253  0.1661891381883983  0.3991289439803277
  0.9575092755103179  0.2910767446191618  0.3989444023656486
  0.9577426668229736  0.4163993261145000  0.3992109404395348
  0.9585329178107884  0.5419112861796477  0.3997105025157860
  0.9590785624197058  0.6672962092832442  0.3997881334088725
  0.9592535824456007  0.7925711923459623  0.3995773557018815
  0.9590976784753690  0.9173977050732762  0.3994648382853293
  0.4434628507718502  0.5096844056162656  0.4972088938102320
 
  0.00000000E+00  0.00000000E+00  0.00000000E+00
  0.00000000E+00  0.00000000E+00  0.00000000E+00
  0.00000000E+00  0.00000000E+00  0.00000000E+00
  0.00000000E+00  0.00000000E+00  0.00000000E+00
  0.00000000E+00  0.00000000E+00  0.00000000E+00
  0.00000000E+00  0.00000000E+00  0.00000000E+00
  0.00000000E+00  0.00000000E+00  0.00000000E+00
  0.00000000E+00  0.00000000E+00  0.00000000E+00
  0.00000000E+00  0.00000000E+00  0.00000000E+00
  0.00000000E+00  0.00000000E+00  0.00000000E+00
  0.00000000E+00  0.00000000E+00  0.00000000E+00
  0.00000000E+00  0.00000000E+00  0.00000000E+00
  0.00000000E+00  0.00000000E+00  0.00000000E+00
  0.00000000E+00  0.00000000E+00  0.00000000E+00
  0.00000000E+00  0.00000000E+00  0.00000000E+00
  0.00000000E+00  0.00000000E+00  0.00000000E+00
  0.00000000E+00  0.00000000E+00  0.00000000E+00
  0.00000000E+00  0.00000000E+00  0.00000000E+00
  0.00000000E+00  0.00000000E+00  0.00000000E+00
  0.00000000E+00  0.00000000E+00  0.00000000E+00
  0.00000000E+00  0.00000000E+00  0.00000000E+00
  0.00000000E+00  0.00000000E+00  0.00000000E+00
  0.00000000E+00  0.00000000E+00  0.00000000E+00
  0.00000000E+00  0.00000000E+00  0.00000000E+00
  0.00000000E+00  0.00000000E+00  0.00000000E+00
  0.00000000E+00  0.00000000E+00  0.00000000E+00
  0.00000000E+00  0.00000000E+00  0.00000000E+00
  0.00000000E+00  0.00000000E+00  0.00000000E+00
  0.00000000E+00  0.00000000E+00  0.00000000E+00
  0.00000000E+00  0.00000000E+00  0.00000000E+00
  0.00000000E+00  0.00000000E+00  0.00000000E+00
  0.00000000E+00  0.00000000E+00  0.00000000E+00
  0.00000000E+00  0.00000000E+00  0.00000000E+00
  0.00000000E+00  0.00000000E+00  0.00000000E+00
  0.00000000E+00  0.00000000E+00  0.00000000E+00
  0.00000000E+00  0.00000000E+00  0.00000000E+00
  0.00000000E+00  0.00000000E+00  0.00000000E+00
  0.00000000E+00  0.00000000E+00  0.00000000E+00
  0.00000000E+00  0.00000000E+00  0.00000000E+00
  0.00000000E+00  0.00000000E+00  0.00000000E+00
  0.00000000E+00  0.00000000E+00  0.00000000E+00
  0.00000000E+00  0.00000000E+00  0.00000000E+00
  0.00000000E+00  0.00000000E+00  0.00000000E+00
  0.00000000E+00  0.00000000E+00  0.00000000E+00
  0.00000000E+00  0.00000000E+00  0.00000000E+00
  0.00000000E+00  0.00000000E+00  0.00000000E+00
  0.00000000E+00  0.00000000E+00  0.00000000E+00
  0.00000000E+00  0.00000000E+00  0.00000000E+00
  0.00000000E+00  0.00000000E+00  0.00000000E+00
  0.00000000E+00  0.00000000E+00  0.00000000E+00
  0.00000000E+00  0.00000000E+00  0.00000000E+00
  0.00000000E+00  0.00000000E+00  0.00000000E+00
  0.00000000E+00  0.00000000E+00  0.00000000E+00
  0.00000000E+00  0.00000000E+00  0.00000000E+00
  0.00000000E+00  0.00000000E+00  0.00000000E+00
  0.00000000E+00  0.00000000E+00  0.00000000E+00
  0.00000000E+00  0.00000000E+00  0.00000000E+00
  0.00000000E+00  0.00000000E+00  0.00000000E+00
  0.00000000E+00  0.00000000E+00  0.00000000E+00
  0.00000000E+00  0.00000000E+00  0.00000000E+00
  0.00000000E+00  0.00000000E+00  0.00000000E+00
  0.00000000E+00  0.00000000E+00  0.00000000E+00
  0.00000000E+00  0.00000000E+00  0.00000000E+00
  0.00000000E+00  0.00000000E+00  0.00000000E+00
  0.00000000E+00  0.00000000E+00  0.00000000E+00
  0.00000000E+00  0.00000000E+00  0.00000000E+00
  0.00000000E+00  0.00000000E+00  0.00000000E+00
  0.00000000E+00  0.00000000E+00  0.00000000E+00
  0.00000000E+00  0.00000000E+00  0.00000000E+00
  0.00000000E+00  0.00000000E+00  0.00000000E+00
  0.00000000E+00  0.00000000E+00  0.00000000E+00
  0.00000000E+00  0.00000000E+00  0.00000000E+00
  0.00000000E+00  0.00000000E+00  0.00000000E+00
  0.00000000E+00  0.00000000E+00  0.00000000E+00
  0.00000000E+00  0.00000000E+00  0.00000000E+00
  0.00000000E+00  0.00000000E+00  0.00000000E+00
  0.00000000E+00  0.00000000E+00  0.00000000E+00
  0.00000000E+00  0.00000000E+00  0.00000000E+00
  0.00000000E+00  0.00000000E+00  0.00000000E+00
  0.00000000E+00  0.00000000E+00  0.00000000E+00
  0.00000000E+00  0.00000000E+00  0.00000000E+00
  0.00000000E+00  0.00000000E+00  0.00000000E+00
  0.00000000E+00  0.00000000E+00  0.00000000E+00
  0.00000000E+00  0.00000000E+00  0.00000000E+00
  0.00000000E+00  0.00000000E+00  0.00000000E+00
  0.00000000E+00  0.00000000E+00  0.00000000E+00
  0.00000000E+00  0.00000000E+00  0.00000000E+00
  0.00000000E+00  0.00000000E+00  0.00000000E+00
  0.00000000E+00  0.00000000E+00  0.00000000E+00
  0.00000000E+00  0.00000000E+00  0.00000000E+00
  0.00000000E+00  0.00000000E+00  0.00000000E+00
  0.00000000E+00  0.00000000E+00  0.00000000E+00
  0.00000000E+00  0.00000000E+00  0.00000000E+00
  0.00000000E+00  0.00000000E+00  0.00000000E+00
  0.00000000E+00  0.00000000E+00  0.00000000E+00
  0.00000000E+00  0.00000000E+00  0.00000000E+00
  0.00000000E+00  0.00000000E+00  0.00000000E+00
  0.00000000E+00  0.00000000E+00  0.00000000E+00
  0.00000000E+00  0.00000000E+00  0.00000000E+00
  0.00000000E+00  0.00000000E+00  0.00000000E+00
  0.00000000E+00  0.00000000E+00  0.00000000E+00
  0.00000000E+00  0.00000000E+00  0.00000000E+00
  0.00000000E+00  0.00000000E+00  0.00000000E+00
  0.00000000E+00  0.00000000E+00  0.00000000E+00
  0.00000000E+00  0.00000000E+00  0.00000000E+00
  0.00000000E+00  0.00000000E+00  0.00000000E+00
  0.00000000E+00  0.00000000E+00  0.00000000E+00
  0.00000000E+00  0.00000000E+00  0.00000000E+00
  0.00000000E+00  0.00000000E+00  0.00000000E+00
  0.00000000E+00  0.00000000E+00  0.00000000E+00
  0.00000000E+00  0.00000000E+00  0.00000000E+00
  0.00000000E+00  0.00000000E+00  0.00000000E+00
  0.00000000E+00  0.00000000E+00  0.00000000E+00
  0.00000000E+00  0.00000000E+00  0.00000000E+00
  0.00000000E+00  0.00000000E+00  0.00000000E+00
  0.00000000E+00  0.00000000E+00  0.00000000E+00
  0.00000000E+00  0.00000000E+00  0.00000000E+00
  0.00000000E+00  0.00000000E+00  0.00000000E+00
  0.00000000E+00  0.00000000E+00  0.00000000E+00
  0.00000000E+00  0.00000000E+00  0.00000000E+00
  0.00000000E+00  0.00000000E+00  0.00000000E+00
  0.00000000E+00  0.00000000E+00  0.00000000E+00
  0.00000000E+00  0.00000000E+00  0.00000000E+00
  0.00000000E+00  0.00000000E+00  0.00000000E+00
  0.00000000E+00  0.00000000E+00  0.00000000E+00
  0.00000000E+00  0.00000000E+00  0.00000000E+00
  0.00000000E+00  0.00000000E+00  0.00000000E+00
  0.00000000E+00  0.00000000E+00  0.00000000E+00
  0.00000000E+00  0.00000000E+00  0.00000000E+00
