Ti1 H1 C123 N3 O1                       
   1.00000000000000     
    19.7958216787752015    0.0090640081535705   -0.1010078636414434
    -9.8901841882477832   17.0341915281565477   -0.1010892284253871
    -0.1519537577044332   -0.2651516211883500   29.8357639038769769
   Ti   H    C    N    O 
     1     1   123     3     1
Direct
  0.4376431605229587  0.5023295381662087  0.4298333308958739
  0.4679119683522142  0.5355633175759038  0.5191620867138496
  0.0419643868347774  0.0840461994681256  0.3997577876816230
  0.0411802427785065  0.2082640315632988  0.3999662866394512
  0.0406379078971092  0.3330797780102071  0.3997533240424030
  0.0408675239182442  0.4582656855032283  0.3993476371626439
  0.0416521080141843  0.5837223395692216  0.3994458364920350
  0.0423715774783445  0.7091854886379466  0.3997553807993540
  0.0425713517449911  0.8343813429974364  0.3997052137672983
  0.0424541385064784  0.9594505774408787  0.3996039317193477
  0.1677257195706624  0.0852195274197938  0.3999773134908787
  0.1673611827789342  0.2100201236657024  0.4004436535076543
  0.1654705120605329  0.3336945177508479  0.4008321679612740
  0.1649246793140512  0.4584496344248155  0.3999487791241828
  0.1656928148479241  0.5836367903840392  0.3993788734660931
  0.1666860593312381  0.7089038385333684  0.3994682846182201
  0.1673036716211662  0.8343670279260108  0.3995814966131309
  0.1675505496337911  0.9598575114716217  0.3996030588354226
  0.2926221494966323  0.0856566590127534  0.3999460179728386
  0.2931040470837037  0.2122255948252946  0.4014082659125740
  0.2924043023117657  0.3376602411831766  0.4030158919152141
  0.2888140076862696  0.4579822557247507  0.4017601883267535
  0.2893362007928091  0.5828842770141769  0.3996639284027660
  0.2910644417980242  0.7082519217830965  0.3993999857520846
  0.2919330965341504  0.8338837609867217  0.3996251139072346
  0.2923245049067100  0.9595967351554916  0.3996358801252279
  0.4171945238653162  0.0843814582038082  0.3996611487055016
  0.4177100635663445  0.2105617121668713  0.4001037133309119
  0.4194182471031342  0.3382924002057308  0.4027132977444457
  0.4153092614245050  0.7061156677745830  0.3991987710947212
  0.4164268051311724  0.8323319562939608  0.3995001577794620
  0.4169020056412221  0.9583969666530191  0.3996713245383863
  0.5417004781258760  0.0829459739965781  0.3995179679766567
  0.5421913572613429  0.2087771578858971  0.3994413052487604
  0.5430533735250596  0.3344414644669006  0.4000253589202634
  0.5454817593874765  0.4597135180084295  0.4018921008823961
  0.5389411025640072  0.7024268002716054  0.4008509123257871
  0.5408666854217786  0.8305821157592738  0.3996634552160504
  0.5413499208855309  0.9570054096970407  0.3996080929187021
  0.6662835833703750  0.0823062560712263  0.3996401413677373
  0.6666537581507582  0.2077984452905506  0.3994664438763614
  0.6674226772456429  0.3332804315374859  0.3994249146667332
  0.6691174379774988  0.4588135836499165  0.3995372533082067
  0.6699966224227512  0.5840947991975263  0.4000714702297117
  0.6666691430636577  0.7065962330495940  0.3999851302784025
  0.6650623205988953  0.8306961745551702  0.3998122802368698
  0.6658400584704544  0.9566356726682242  0.3997748797223797
  0.7909543002787549  0.0822107143587489  0.3998171838452863
  0.7912528765784584  0.2075873577206894  0.3997084621934588
  0.7918133705839897  0.3329891142144157  0.3996157322269606
  0.7928007288754961  0.4584367913573795  0.3995969297798176
  0.7935814744031655  0.5838376363011194  0.3994933510258767
  0.7932106386640860  0.7088739286172574  0.3995754854314957
  0.7913737959144688  0.8325514550746070  0.3995244867450031
  0.7907394359923653  0.9569588149538680  0.3997087258340056
  0.9161173030715276  0.0827462686256461  0.3998629861432472
  0.9159423138632607  0.2076409717402082  0.3997028166915506
  0.9161570430256436  0.3329094987285624  0.3994034141664973
  0.9168478897793818  0.4583765703437130  0.3996343946355209
  0.9176397808366189  0.5838390148163322  0.3998006419120402
  0.9178282444177276  0.7090562241825528  0.3997244664599207
  0.9175023515220380  0.8340276035434459  0.3995460576283482
  0.9166942016635027  0.9583162679516947  0.3996323235492709
  0.0842174888275180  0.0430233639681952  0.3996889278691801
  0.0836820240122994  0.1676087191782807  0.3999815944479136
  0.0825550177364554  0.2917140276150779  0.4001622937871799
  0.0820087155276819  0.4163932502548240  0.3996285092453545
  0.0827100243498042  0.5418104942220683  0.3993275674423326
  0.0835651746076436  0.6672496678772927  0.3995050070302248
  0.0840657857136416  0.7926487343043302  0.3997296665509589
  0.0842296464521097  0.9179243397258795  0.3995907900672529
  0.2092299239076857  0.0434659439766219  0.3998549433877100
  0.2095547455665093  0.1690461592014381  0.4006143302921397
  0.2087561688028882  0.2937000343746922  0.4011714748939834
  0.2063467001303698  0.4169982917096556  0.4008465777091902
  0.2065044480567442  0.5415405407916873  0.3996468928270935
  0.2077707847119317  0.6669384597967225  0.3994227681249770
  0.2086689210899032  0.7924706100477137  0.3995592333207499
  0.2090581037724701  0.9179503764322140  0.3995615869189378
  0.3339766821429493  0.0433285671221484  0.3997029631824923
  0.3342927574082863  0.1694929003755558  0.4005049942720676
  0.3350019117875322  0.2965308156371688  0.4029697067315788
  0.3305945986815666  0.5416493119248809  0.4003746094430888
  0.3319716914093626  0.6661270376771835  0.3992867015200921
  0.3332344173264425  0.7916911185916529  0.3995230706307076
  0.3336513036314624  0.9173877282610577  0.3996918914795650
  0.4584990718121363  0.0419606547748342  0.3996068799249412
  0.4588755505671230  0.1680093097277046  0.3996626909123681
  0.4597090658442394  0.2942588317997875  0.4005247276887615
  0.4634266146285874  0.4209158443738668  0.4046389576890975
  0.4547384893475774  0.6616267793041639  0.4002358078705783
  0.4576123236580872  0.7897241657624073  0.3993269466748101
  0.4581564669848716  0.9159969121258872  0.3996262021979071
  0.5830090730896443  0.0407070619436472  0.3995823005935905
  0.5834540835638443  0.1665131348637845  0.3993920157207992
  0.5841627330407398  0.2921044323066240  0.3994910157287617
  0.5862693373564873  0.4177539506989372  0.4002379297534561
  0.5882347901711236  0.5435048643583984  0.4015690330011230
  0.5827785978552138  0.6619734374784220  0.4014405754520132
  0.5813358707570455  0.7873778917130244  0.4000486278811096
  0.5826194450095429  0.9145943690256947  0.3996882026393008
  0.7076550128551804  0.0403407880099712  0.3997607483262044
  0.7080457715315032  0.1658702207304367  0.3996163125631931
  0.7086006899163778  0.2913355212001906  0.3995046090743228
  0.7098485754031503  0.4167189065273866  0.3993910027385308
  0.7109141909281286  0.5419554470751513  0.3995367864493461
  0.7103221627214020  0.6670930161476909  0.3998750067602377
  0.7077067453753554  0.7901249280792461  0.3996052995113159
  0.7071250215677213  0.9146279868644526  0.3997428150691341
  0.8326406115900771  0.0406381572937880  0.3998315987917450
  0.8327339209186595  0.1658148647229559  0.3997612912421028
  0.8330449548767742  0.2910668565898168  0.3995864702971709
  0.8338297417562806  0.4164808227002841  0.3996992641436191
  0.8347073734246618  0.5419815562577990  0.3996633377221333
  0.8348917796609441  0.6672781075284531  0.3995886836960588
  0.8341812878845939  0.7920700097803407  0.3995002927009044
  0.8330924055088972  0.9160838567307040  0.3996337931396199
  0.9584241339561825  0.0418057041639613  0.3997445935583597
  0.9578112450759478  0.1662206144529194  0.3998249340244800
  0.9575944172656317  0.2911884377949150  0.3995093388129650
  0.9579156780630256  0.4164383666631809  0.3993815963724266
  0.9586832259670158  0.5418562358289476  0.3996891229318464
  0.9593038248821063  0.6673256033888508  0.3998137743499980
  0.9593474173691705  0.7925968660614713  0.3996815887135285
  0.9590442118066299  0.9174465380242725  0.3995878960686362
  0.4115591046497580  0.5809113981273445  0.4014064509232049
  0.5461516807450821  0.5817099743039091  0.4036384862054263
  0.3306291527041265  0.4190519444471316  0.4048534568436719
  0.4491188717666162  0.5090629910531403  0.4904831395842639
 
  0.00000000E+00  0.00000000E+00  0.00000000E+00
  0.00000000E+00  0.00000000E+00  0.00000000E+00
  0.00000000E+00  0.00000000E+00  0.00000000E+00
  0.00000000E+00  0.00000000E+00  0.00000000E+00
  0.00000000E+00  0.00000000E+00  0.00000000E+00
  0.00000000E+00  0.00000000E+00  0.00000000E+00
  0.00000000E+00  0.00000000E+00  0.00000000E+00
  0.00000000E+00  0.00000000E+00  0.00000000E+00
  0.00000000E+00  0.00000000E+00  0.00000000E+00
  0.00000000E+00  0.00000000E+00  0.00000000E+00
  0.00000000E+00  0.00000000E+00  0.00000000E+00
  0.00000000E+00  0.00000000E+00  0.00000000E+00
  0.00000000E+00  0.00000000E+00  0.00000000E+00
  0.00000000E+00  0.00000000E+00  0.00000000E+00
  0.00000000E+00  0.00000000E+00  0.00000000E+00
  0.00000000E+00  0.00000000E+00  0.00000000E+00
  0.00000000E+00  0.00000000E+00  0.00000000E+00
  0.00000000E+00  0.00000000E+00  0.00000000E+00
  0.00000000E+00  0.00000000E+00  0.00000000E+00
  0.00000000E+00  0.00000000E+00  0.00000000E+00
  0.00000000E+00  0.00000000E+00  0.00000000E+00
  0.00000000E+00  0.00000000E+00  0.00000000E+00
  0.00000000E+00  0.00000000E+00  0.00000000E+00
  0.00000000E+00  0.00000000E+00  0.00000000E+00
  0.00000000E+00  0.00000000E+00  0.00000000E+00
  0.00000000E+00  0.00000000E+00  0.00000000E+00
  0.00000000E+00  0.00000000E+00  0.00000000E+00
  0.00000000E+00  0.00000000E+00  0.00000000E+00
  0.00000000E+00  0.00000000E+00  0.00000000E+00
  0.00000000E+00  0.00000000E+00  0.00000000E+00
  0.00000000E+00  0.00000000E+00  0.00000000E+00
  0.00000000E+00  0.00000000E+00  0.00000000E+00
  0.00000000E+00  0.00000000E+00  0.00000000E+00
  0.00000000E+00  0.00000000E+00  0.00000000E+00
  0.00000000E+00  0.00000000E+00  0.00000000E+00
  0.00000000E+00  0.00000000E+00  0.00000000E+00
  0.00000000E+00  0.00000000E+00  0.00000000E+00
  0.00000000E+00  0.00000000E+00  0.00000000E+00
  0.00000000E+00  0.00000000E+00  0.00000000E+00
  0.00000000E+00  0.00000000E+00  0.00000000E+00
  0.00000000E+00  0.00000000E+00  0.00000000E+00
  0.00000000E+00  0.00000000E+00  0.00000000E+00
  0.00000000E+00  0.00000000E+00  0.00000000E+00
  0.00000000E+00  0.00000000E+00  0.00000000E+00
  0.00000000E+00  0.00000000E+00  0.00000000E+00
  0.00000000E+00  0.00000000E+00  0.00000000E+00
  0.00000000E+00  0.00000000E+00  0.00000000E+00
  0.00000000E+00  0.00000000E+00  0.00000000E+00
  0.00000000E+00  0.00000000E+00  0.00000000E+00
  0.00000000E+00  0.00000000E+00  0.00000000E+00
  0.00000000E+00  0.00000000E+00  0.00000000E+00
  0.00000000E+00  0.00000000E+00  0.00000000E+00
  0.00000000E+00  0.00000000E+00  0.00000000E+00
  0.00000000E+00  0.00000000E+00  0.00000000E+00
  0.00000000E+00  0.00000000E+00  0.00000000E+00
  0.00000000E+00  0.00000000E+00  0.00000000E+00
  0.00000000E+00  0.00000000E+00  0.00000000E+00
  0.00000000E+00  0.00000000E+00  0.00000000E+00
  0.00000000E+00  0.00000000E+00  0.00000000E+00
  0.00000000E+00  0.00000000E+00  0.00000000E+00
  0.00000000E+00  0.00000000E+00  0.00000000E+00
  0.00000000E+00  0.00000000E+00  0.00000000E+00
  0.00000000E+00  0.00000000E+00  0.00000000E+00
  0.00000000E+00  0.00000000E+00  0.00000000E+00
  0.00000000E+00  0.00000000E+00  0.00000000E+00
  0.00000000E+00  0.00000000E+00  0.00000000E+00
  0.00000000E+00  0.00000000E+00  0.00000000E+00
  0.00000000E+00  0.00000000E+00  0.00000000E+00
  0.00000000E+00  0.00000000E+00  0.00000000E+00
  0.00000000E+00  0.00000000E+00  0.00000000E+00
  0.00000000E+00  0.00000000E+00  0.00000000E+00
  0.00000000E+00  0.00000000E+00  0.00000000E+00
  0.00000000E+00  0.00000000E+00  0.00000000E+00
  0.00000000E+00  0.00000000E+00  0.00000000E+00
  0.00000000E+00  0.00000000E+00  0.00000000E+00
  0.00000000E+00  0.00000000E+00  0.00000000E+00
  0.00000000E+00  0.00000000E+00  0.00000000E+00
  0.00000000E+00  0.00000000E+00  0.00000000E+00
  0.00000000E+00  0.00000000E+00  0.00000000E+00
  0.00000000E+00  0.00000000E+00  0.00000000E+00
  0.00000000E+00  0.00000000E+00  0.00000000E+00
  0.00000000E+00  0.00000000E+00  0.00000000E+00
  0.00000000E+00  0.00000000E+00  0.00000000E+00
  0.00000000E+00  0.00000000E+00  0.00000000E+00
  0.00000000E+00  0.00000000E+00  0.00000000E+00
  0.00000000E+00  0.00000000E+00  0.00000000E+00
  0.00000000E+00  0.00000000E+00  0.00000000E+00
  0.00000000E+00  0.00000000E+00  0.00000000E+00
  0.00000000E+00  0.00000000E+00  0.00000000E+00
  0.00000000E+00  0.00000000E+00  0.00000000E+00
  0.00000000E+00  0.00000000E+00  0.00000000E+00
  0.00000000E+00  0.00000000E+00  0.00000000E+00
  0.00000000E+00  0.00000000E+00  0.00000000E+00
  0.00000000E+00  0.00000000E+00  0.00000000E+00
  0.00000000E+00  0.00000000E+00  0.00000000E+00
  0.00000000E+00  0.00000000E+00  0.00000000E+00
  0.00000000E+00  0.00000000E+00  0.00000000E+00
  0.00000000E+00  0.00000000E+00  0.00000000E+00
  0.00000000E+00  0.00000000E+00  0.00000000E+00
  0.00000000E+00  0.00000000E+00  0.00000000E+00
  0.00000000E+00  0.00000000E+00  0.00000000E+00
  0.00000000E+00  0.00000000E+00  0.00000000E+00
  0.00000000E+00  0.00000000E+00  0.00000000E+00
  0.00000000E+00  0.00000000E+00  0.00000000E+00
  0.00000000E+00  0.00000000E+00  0.00000000E+00
  0.00000000E+00  0.00000000E+00  0.00000000E+00
  0.00000000E+00  0.00000000E+00  0.00000000E+00
  0.00000000E+00  0.00000000E+00  0.00000000E+00
  0.00000000E+00  0.00000000E+00  0.00000000E+00
  0.00000000E+00  0.00000000E+00  0.00000000E+00
  0.00000000E+00  0.00000000E+00  0.00000000E+00
  0.00000000E+00  0.00000000E+00  0.00000000E+00
  0.00000000E+00  0.00000000E+00  0.00000000E+00
  0.00000000E+00  0.00000000E+00  0.00000000E+00
  0.00000000E+00  0.00000000E+00  0.00000000E+00
  0.00000000E+00  0.00000000E+00  0.00000000E+00
  0.00000000E+00  0.00000000E+00  0.00000000E+00
  0.00000000E+00  0.00000000E+00  0.00000000E+00
  0.00000000E+00  0.00000000E+00  0.00000000E+00
  0.00000000E+00  0.00000000E+00  0.00000000E+00
  0.00000000E+00  0.00000000E+00  0.00000000E+00
  0.00000000E+00  0.00000000E+00  0.00000000E+00
  0.00000000E+00  0.00000000E+00  0.00000000E+00
  0.00000000E+00  0.00000000E+00  0.00000000E+00
  0.00000000E+00  0.00000000E+00  0.00000000E+00
  0.00000000E+00  0.00000000E+00  0.00000000E+00
  0.00000000E+00  0.00000000E+00  0.00000000E+00
  0.00000000E+00  0.00000000E+00  0.00000000E+00
  0.00000000E+00  0.00000000E+00  0.00000000E+00
