Ag1 C123 N3 O1                          
   1.00000000000000     
    19.8386294341990777    0.0086159277544182   -0.0061925221111040
    -9.9117818469813983   17.0383017332338902   -0.0045213296390073
    -0.0093031795705499   -0.0131614452526886   29.7614821129281175
   Ag   C    N    O 
     1   123     3     1
Direct
  0.4371412232455895  0.4986821001479668  0.4137638835776434
  0.0416203535026107  0.0838485859408697  0.3999638206659917
  0.0405551600652469  0.2078997231531703  0.4000889527387069
  0.0399035656410329  0.3327597381128697  0.3996221220754602
  0.0402145603308730  0.4581581767192349  0.3989379539311398
  0.0412926002524748  0.5838114942256503  0.3987643187010544
  0.0422821698664647  0.7093553183299317  0.3989621560999637
  0.0425941900874911  0.8346220989474687  0.3993283047421857
  0.0424334844880370  0.9595745374504573  0.3996698472290656
  0.1676376598007136  0.0853768643340501  0.4004511627105248
  0.1666697414174891  0.2096608906802615  0.4014428300440394
  0.1643955249084819  0.3332694594785215  0.4014206028372877
  0.1636387555029561  0.4583605477908447  0.4002489731861650
  0.1647570664932841  0.5837536178083660  0.3991888968481757
  0.1662970916351128  0.7091659803728040  0.3991109457964281
  0.1671257885552681  0.8346451862735662  0.3993401149747630
  0.1675280287256972  0.9601073528382459  0.3997506450722608
  0.2925951694225716  0.0857964209163322  0.4005031135161946
  0.2930786260468664  0.2124287615314688  0.4026336544524353
  0.2909642999392008  0.3370162718660061  0.4041518510740273
  0.2864805777735897  0.4577908504663826  0.4032941521497082
  0.2875844461960857  0.5831479727430421  0.4011311472754098
  0.2903753106374978  0.7086259259221216  0.3998426727527455
  0.2915624145581442  0.8341276194754567  0.3994405962179299
  0.2921586163552597  0.9597475083268944  0.3996461976213345
  0.4170885769868106  0.0842073817235946  0.3999006220553016
  0.4177787221182114  0.2102242061691581  0.4014185690848324
  0.4195154104179613  0.3373248601720573  0.4060104346946586
  0.4144051015049921  0.7065588644471816  0.4018916234914565
  0.4159476714038564  0.8324276272761435  0.3999636063499628
  0.4166561676272231  0.9583786932663011  0.3995762251600598
  0.5415640484140970  0.0825537481262462  0.3995674140942337
  0.5422718434758931  0.2082997554677391  0.4000127997224499
  0.5436016046774610  0.3338513453884842  0.4018978130899123
  0.5483936103255017  0.4597017959841790  0.4056756123372812
  0.5383390755061221  0.7015649809875324  0.4044124240989075
  0.5403532467360107  0.8301234694850902  0.4012614201621990
  0.5410379846873723  0.9566279423420072  0.3998456046046818
  0.6660554746049340  0.0818233496187891  0.3995785202732590
  0.6666073912586363  0.2073243920951105  0.3993841567318662
  0.6677251372905381  0.3328232154141131  0.3996268487880874
  0.6703599319711812  0.4586045505685100  0.4006967017355736
  0.6719610862259290  0.5843320541077149  0.4025293208863565
  0.6673088755226654  0.7066321492438420  0.4026809638979145
  0.6647573029318493  0.8301550367159147  0.4014912777735077
  0.6655060567830695  0.9561269154743063  0.4002088344589709
  0.7906223317946214  0.0817404346471307  0.3996659261269985
  0.7909866346847721  0.2071168614938699  0.3992777847131675
  0.7917973326921596  0.3326070605097025  0.3989771803380829
  0.7932540781999057  0.4582436562026070  0.3989927857403417
  0.7944530984841102  0.5838949710024933  0.3996399078385885
  0.7938538789414187  0.7091224553840239  0.4003543595396866
  0.7914775408843728  0.8325002312515237  0.4004292055357294
  0.7904144675235779  0.9565585736939287  0.4000373343108969
  0.9157153169777764  0.0823841426159996  0.3997073110975488
  0.9154863346664879  0.2072232780180781  0.3994698929503266
  0.9157715848445264  0.3325783216584807  0.3990043469761813
  0.9167238004500674  0.4581982863660949  0.3986791697220660
  0.9178477181101147  0.5838679489654082  0.3987332253542909
  0.9181131318526220  0.7092545220836284  0.3991949677036067
  0.9176844368068690  0.8341883319752853  0.3995626689521731
  0.9165515100310688  0.9582135134976326  0.3997068952166050
  0.0841006881086153  0.0431141137397024  0.3999780764081351
  0.0831100764713267  0.1673264502438100  0.4004262897240156
  0.0816097559277176  0.2912842510836552  0.4002703112552105
  0.0810646852243859  0.4161906512540079  0.3994856454036348
  0.0820113710813423  0.5417968611346992  0.3988768780484440
  0.0832815630436963  0.6673973092106883  0.3989063780056255
  0.0839785688474196  0.7928866716000658  0.3992034935741437
  0.0842418728038718  0.9181563497482188  0.3995724153485277
  0.2092113013284677  0.0436750530782304  0.4002322383443445
  0.2093181029238574  0.1691267595039997  0.4014513956934848
  0.2074077320133083  0.2930729759348701  0.4024175590718185
  0.2046172764320703  0.4166563264739259  0.4016278730770978
  0.2050885776432608  0.5415423728434916  0.3999083244466992
  0.2071781953905348  0.6671981428193638  0.3992930726993254
  0.2083893537618958  0.7927574742658536  0.3992932950691510
  0.2089580555674310  0.9182125912049127  0.3995815743153170
  0.3339174385068025  0.0434384115188540  0.3999666382272612
  0.3343462188210483  0.1695679896166847  0.4015824039361265
  0.3347892800358660  0.2965397136811940  0.4047078664152409
  0.3282842146813024  0.5420797092258273  0.4036977389584220
  0.3311354176206434  0.6664765380428193  0.4009359446612206
  0.3327667230070606  0.7919575696372461  0.3996919834268005
  0.3334488171744351  0.9175861095060657  0.3995192681921877
  0.4583984480352102  0.0418346022389638  0.3996390144146536
  0.4589541770890040  0.1677496283148589  0.4002950055649232
  0.4602479154139136  0.2937391525910523  0.4029606243337468
  0.4670491509564545  0.4184517932616164  0.4090997899258456
  0.4533906274780418  0.6618558578114383  0.4046657129707504
  0.4570674967630012  0.7898783450463598  0.4008818240754501
  0.4578797231983842  0.9159951411333175  0.3997253748169082
  0.5828233900437955  0.0403180828467083  0.3996089991347189
  0.5834727396685080  0.1660849135408844  0.3995811019772504
  0.5845196669537037  0.2915586575857200  0.4003367460570837
  0.5877630703358923  0.4171036135113540  0.4024589978815405
  0.5908214302074585  0.5434900383589742  0.4049217163399062
  0.5834104764121217  0.6617935774747874  0.4046676372668039
  0.5807688808043960  0.7865166038455551  0.4024673521766179
  0.5822460630058456  0.9140942928403186  0.4003637301698311
  0.7073568326234726  0.0398206073610873  0.3997725312161707
  0.7078772607247892  0.1653958852007693  0.3993771454227867
  0.7086868942916940  0.2908709457762600  0.3992475404617299
  0.7105224648244188  0.4163686841456239  0.3995559280627933
  0.7121887318090790  0.5418572069894455  0.4008761664457116
  0.7111522219836339  0.6672788199737393  0.4018314854748387
  0.7078628503403811  0.7900291730698318  0.4014934522640071
  0.7067628829081479  0.9141139854995068  0.4004824083563276
  0.8322873250113519  0.0402399620211783  0.3997653095670890
  0.8323734601232298  0.1653643586931515  0.3994424157110271
  0.8328117883975533  0.2906532189428164  0.3990411546577995
  0.8339314280072471  0.4161764517600367  0.3987953398372499
  0.8351788316858194  0.5418760379727370  0.3989738240433888
  0.8353885843836518  0.6674374476471119  0.3996419629400572
  0.8344793740075893  0.7922437009278965  0.4000386112148653
  0.8329807171150767  0.9159582102085813  0.3999780018740946
  0.9581217344812181  0.0416197502235380  0.3997274180314437
  0.9572845926777065  0.1658398426356845  0.3996889770066301
  0.9570528360513348  0.2908243957499855  0.3993007418355247
  0.9574800230736645  0.4161721317439566  0.3988078543738141
  0.9585613129339353  0.5417982124466278  0.3986568866653687
  0.9593883612666774  0.6674239336052392  0.3989070934601255
  0.9594884306954150  0.7928066357398484  0.3993353944883911
  0.9590733130799816  0.9175639643775100  0.3996058850407347
  0.4078814090144199  0.5826083349678051  0.4070323055154063
  0.5500403198077249  0.5822182661824897  0.4057790027913065
  0.3260397940177847  0.4170834281639592  0.4041202661569592
  0.4377127390180592  0.5007667849116044  0.4906699337777014
 
  0.00000000E+00  0.00000000E+00  0.00000000E+00
  0.00000000E+00  0.00000000E+00  0.00000000E+00
  0.00000000E+00  0.00000000E+00  0.00000000E+00
  0.00000000E+00  0.00000000E+00  0.00000000E+00
  0.00000000E+00  0.00000000E+00  0.00000000E+00
  0.00000000E+00  0.00000000E+00  0.00000000E+00
  0.00000000E+00  0.00000000E+00  0.00000000E+00
  0.00000000E+00  0.00000000E+00  0.00000000E+00
  0.00000000E+00  0.00000000E+00  0.00000000E+00
  0.00000000E+00  0.00000000E+00  0.00000000E+00
  0.00000000E+00  0.00000000E+00  0.00000000E+00
  0.00000000E+00  0.00000000E+00  0.00000000E+00
  0.00000000E+00  0.00000000E+00  0.00000000E+00
  0.00000000E+00  0.00000000E+00  0.00000000E+00
  0.00000000E+00  0.00000000E+00  0.00000000E+00
  0.00000000E+00  0.00000000E+00  0.00000000E+00
  0.00000000E+00  0.00000000E+00  0.00000000E+00
  0.00000000E+00  0.00000000E+00  0.00000000E+00
  0.00000000E+00  0.00000000E+00  0.00000000E+00
  0.00000000E+00  0.00000000E+00  0.00000000E+00
  0.00000000E+00  0.00000000E+00  0.00000000E+00
  0.00000000E+00  0.00000000E+00  0.00000000E+00
  0.00000000E+00  0.00000000E+00  0.00000000E+00
  0.00000000E+00  0.00000000E+00  0.00000000E+00
  0.00000000E+00  0.00000000E+00  0.00000000E+00
  0.00000000E+00  0.00000000E+00  0.00000000E+00
  0.00000000E+00  0.00000000E+00  0.00000000E+00
  0.00000000E+00  0.00000000E+00  0.00000000E+00
  0.00000000E+00  0.00000000E+00  0.00000000E+00
  0.00000000E+00  0.00000000E+00  0.00000000E+00
  0.00000000E+00  0.00000000E+00  0.00000000E+00
  0.00000000E+00  0.00000000E+00  0.00000000E+00
  0.00000000E+00  0.00000000E+00  0.00000000E+00
  0.00000000E+00  0.00000000E+00  0.00000000E+00
  0.00000000E+00  0.00000000E+00  0.00000000E+00
  0.00000000E+00  0.00000000E+00  0.00000000E+00
  0.00000000E+00  0.00000000E+00  0.00000000E+00
  0.00000000E+00  0.00000000E+00  0.00000000E+00
  0.00000000E+00  0.00000000E+00  0.00000000E+00
  0.00000000E+00  0.00000000E+00  0.00000000E+00
  0.00000000E+00  0.00000000E+00  0.00000000E+00
  0.00000000E+00  0.00000000E+00  0.00000000E+00
  0.00000000E+00  0.00000000E+00  0.00000000E+00
  0.00000000E+00  0.00000000E+00  0.00000000E+00
  0.00000000E+00  0.00000000E+00  0.00000000E+00
  0.00000000E+00  0.00000000E+00  0.00000000E+00
  0.00000000E+00  0.00000000E+00  0.00000000E+00
  0.00000000E+00  0.00000000E+00  0.00000000E+00
  0.00000000E+00  0.00000000E+00  0.00000000E+00
  0.00000000E+00  0.00000000E+00  0.00000000E+00
  0.00000000E+00  0.00000000E+00  0.00000000E+00
  0.00000000E+00  0.00000000E+00  0.00000000E+00
  0.00000000E+00  0.00000000E+00  0.00000000E+00
  0.00000000E+00  0.00000000E+00  0.00000000E+00
  0.00000000E+00  0.00000000E+00  0.00000000E+00
  0.00000000E+00  0.00000000E+00  0.00000000E+00
  0.00000000E+00  0.00000000E+00  0.00000000E+00
  0.00000000E+00  0.00000000E+00  0.00000000E+00
  0.00000000E+00  0.00000000E+00  0.00000000E+00
  0.00000000E+00  0.00000000E+00  0.00000000E+00
  0.00000000E+00  0.00000000E+00  0.00000000E+00
  0.00000000E+00  0.00000000E+00  0.00000000E+00
  0.00000000E+00  0.00000000E+00  0.00000000E+00
  0.00000000E+00  0.00000000E+00  0.00000000E+00
  0.00000000E+00  0.00000000E+00  0.00000000E+00
  0.00000000E+00  0.00000000E+00  0.00000000E+00
  0.00000000E+00  0.00000000E+00  0.00000000E+00
  0.00000000E+00  0.00000000E+00  0.00000000E+00
  0.00000000E+00  0.00000000E+00  0.00000000E+00
  0.00000000E+00  0.00000000E+00  0.00000000E+00
  0.00000000E+00  0.00000000E+00  0.00000000E+00
  0.00000000E+00  0.00000000E+00  0.00000000E+00
  0.00000000E+00  0.00000000E+00  0.00000000E+00
  0.00000000E+00  0.00000000E+00  0.00000000E+00
  0.00000000E+00  0.00000000E+00  0.00000000E+00
  0.00000000E+00  0.00000000E+00  0.00000000E+00
  0.00000000E+00  0.00000000E+00  0.00000000E+00
  0.00000000E+00  0.00000000E+00  0.00000000E+00
  0.00000000E+00  0.00000000E+00  0.00000000E+00
  0.00000000E+00  0.00000000E+00  0.00000000E+00
  0.00000000E+00  0.00000000E+00  0.00000000E+00
  0.00000000E+00  0.00000000E+00  0.00000000E+00
  0.00000000E+00  0.00000000E+00  0.00000000E+00
  0.00000000E+00  0.00000000E+00  0.00000000E+00
  0.00000000E+00  0.00000000E+00  0.00000000E+00
  0.00000000E+00  0.00000000E+00  0.00000000E+00
  0.00000000E+00  0.00000000E+00  0.00000000E+00
  0.00000000E+00  0.00000000E+00  0.00000000E+00
  0.00000000E+00  0.00000000E+00  0.00000000E+00
  0.00000000E+00  0.00000000E+00  0.00000000E+00
  0.00000000E+00  0.00000000E+00  0.00000000E+00
  0.00000000E+00  0.00000000E+00  0.00000000E+00
  0.00000000E+00  0.00000000E+00  0.00000000E+00
  0.00000000E+00  0.00000000E+00  0.00000000E+00
  0.00000000E+00  0.00000000E+00  0.00000000E+00
  0.00000000E+00  0.00000000E+00  0.00000000E+00
  0.00000000E+00  0.00000000E+00  0.00000000E+00
  0.00000000E+00  0.00000000E+00  0.00000000E+00
  0.00000000E+00  0.00000000E+00  0.00000000E+00
  0.00000000E+00  0.00000000E+00  0.00000000E+00
  0.00000000E+00  0.00000000E+00  0.00000000E+00
  0.00000000E+00  0.00000000E+00  0.00000000E+00
  0.00000000E+00  0.00000000E+00  0.00000000E+00
  0.00000000E+00  0.00000000E+00  0.00000000E+00
  0.00000000E+00  0.00000000E+00  0.00000000E+00
  0.00000000E+00  0.00000000E+00  0.00000000E+00
  0.00000000E+00  0.00000000E+00  0.00000000E+00
  0.00000000E+00  0.00000000E+00  0.00000000E+00
  0.00000000E+00  0.00000000E+00  0.00000000E+00
  0.00000000E+00  0.00000000E+00  0.00000000E+00
  0.00000000E+00  0.00000000E+00  0.00000000E+00
  0.00000000E+00  0.00000000E+00  0.00000000E+00
  0.00000000E+00  0.00000000E+00  0.00000000E+00
  0.00000000E+00  0.00000000E+00  0.00000000E+00
  0.00000000E+00  0.00000000E+00  0.00000000E+00
  0.00000000E+00  0.00000000E+00  0.00000000E+00
  0.00000000E+00  0.00000000E+00  0.00000000E+00
  0.00000000E+00  0.00000000E+00  0.00000000E+00
  0.00000000E+00  0.00000000E+00  0.00000000E+00
  0.00000000E+00  0.00000000E+00  0.00000000E+00
  0.00000000E+00  0.00000000E+00  0.00000000E+00
  0.00000000E+00  0.00000000E+00  0.00000000E+00
  0.00000000E+00  0.00000000E+00  0.00000000E+00
  0.00000000E+00  0.00000000E+00  0.00000000E+00
  0.00000000E+00  0.00000000E+00  0.00000000E+00
  0.00000000E+00  0.00000000E+00  0.00000000E+00
  0.00000000E+00  0.00000000E+00  0.00000000E+00
  0.00000000E+00  0.00000000E+00  0.00000000E+00
