Cd1 C125 N1 O1                          
   1.00000000000000     
    19.7950700757859579   -0.0066335728340734   -0.2783194584906036
    -9.9034500412220510   17.0743648819408271    0.2365454967419482
    -0.4164768017419532    0.1692246917497304   29.7840934731604392
   Cd   C    N    O 
     1   125     1     1
Direct
  0.4394427083737165  0.4959308562231848  0.4438286719827979
  0.0416834364578717  0.0835626969016715  0.3994874357642761
  0.0411915722188067  0.2081140960113101  0.3991359721572434
  0.0409307183976272  0.3328884318824622  0.3980162560155183
  0.0411115082741845  0.4582534550274119  0.3974159585020059
  0.0415718267237547  0.5836181739204441  0.3976814083722969
  0.0420854783551461  0.7089499150434420  0.3981602050867362
  0.0423072977889565  0.8341617333538688  0.3987120047436862
  0.0421945794303006  0.9591057760154307  0.3992423398292225
  0.1673405792748860  0.0845630737966826  0.4005703194119772
  0.1666616047015379  0.2088272795754335  0.4014552012976894
  0.1661008823614459  0.3336490174345695  0.4005784124576959
  0.1653846392145934  0.4584492156285754  0.3981304245437360
  0.1656560355468171  0.5835986253112384  0.3978222356774429
  0.1664147950648327  0.7089899423657315  0.3982524943392775
  0.1669407525871892  0.8342111721024916  0.3987779095958930
  0.1672971539170370  0.9594678896815738  0.3994678727135625
  0.2924153922220172  0.0846469811635078  0.4005784137543638
  0.2929087413538152  0.2103205950000077  0.4036875370401455
  0.2915220513638964  0.3346129149323464  0.4079073875323520
  0.2903158932931759  0.4591393609666208  0.4046076117187841
  0.2895549628577509  0.5842912371136979  0.4002178691733713
  0.2907381542919130  0.7090598156235816  0.3991693877275238
  0.2915430783405688  0.8340280392500661  0.3990447014468640
  0.2919904352906939  0.9592183336446959  0.3993743835728242
  0.4170519861732587  0.0837707817866420  0.3997157115529394
  0.4174633736868516  0.2090887939727678  0.4014960478611890
  0.4186533956121223  0.3353409413570362  0.4067785745096162
  0.4150753650449163  0.7076515549176805  0.4024607792440116
  0.4161965710275572  0.8330878635750862  0.4002703239610414
  0.4166332288348049  0.9583932648262641  0.3994684151089691
  0.5416534404189778  0.0826408151916989  0.3993538065672504
  0.5421497289956961  0.2079636479995205  0.3993758262863553
  0.5429007096401672  0.3330586541365889  0.4003637010244153
  0.5461029157777286  0.4583066185504207  0.4049050587917381
  0.5502282742352747  0.5825079203305755  0.4157101066686061
  0.5392797671673935  0.7039840395118366  0.4072189478992226
  0.5405891163922806  0.8312334222734260  0.4021314573263069
  0.5412807283113051  0.9571669483804273  0.4000179415348832
  0.6662844880466977  0.0820920524810371  0.3993508122201882
  0.6667572764398142  0.2075097040983234  0.3988178298097250
  0.6673100054429922  0.3327003901568855  0.3983217080532676
  0.6689627310365636  0.4581963649647033  0.3981696988063999
  0.6706218641868145  0.5839598163632232  0.4002302791795467
  0.6670122838281900  0.7069473910128300  0.4031126780565570
  0.6653216844384583  0.8308622529510581  0.4023451808337636
  0.6658903708467896  0.9566674431052377  0.4004399832142697
  0.7910246044309848  0.0820719389777576  0.3992124901694047
  0.7913388087551785  0.2073234047830408  0.3986713815639535
  0.7918939719453043  0.3327016705554298  0.3981855384688772
  0.7927711907998309  0.4581603080087047  0.3975657952653466
  0.7935449134940374  0.5835769197859231  0.3974552473299420
  0.7930708042755469  0.7087449583508406  0.3989947761025704
  0.7915618174676267  0.8326497829027170  0.3998503197443180
  0.7907896735809623  0.9569235361975562  0.3998052326831850
  0.9160763801590770  0.0825820289507355  0.3990005906457070
  0.9160970027323198  0.2075755229000976  0.3984783470018425
  0.9163485864640875  0.3327622329800035  0.3979369524322955
  0.9168596072666572  0.4580731012381280  0.3977227992507439
  0.9175522891740394  0.5836197009516405  0.3976538661903210
  0.9176650457956396  0.7089649987026033  0.3980206355069876
  0.9173365269634780  0.8337959654787340  0.3987942133523986
  0.9165416208862148  0.9580784846985098  0.3991817815729637
  0.0838450259471994  0.0425406685895715  0.3997101604923917
  0.0831814298398073  0.1668665544077323  0.3998186994698377
  0.0826403893810734  0.2915320378021395  0.3989875036367981
  0.0824549777292699  0.4165257440628448  0.3976033047343782
  0.0826755976052281  0.5417579382986700  0.3974810072305234
  0.0833215967053067  0.6671581872745023  0.3979976611922134
  0.0837892447302537  0.7925087490979640  0.3985531101373844
  0.0838972513261284  0.9176402438641819  0.3991469368095120
  0.2090087120532814  0.0429115171923387  0.4002421683776586
  0.2089452166336470  0.1679439637888837  0.4020415244696735
  0.2078230737717447  0.2921389610374760  0.4029043760291461
  0.2069987148760273  0.4170255629648545  0.4000535814767180
  0.2067184843627816  0.5419426688925465  0.3984051867332875
  0.2076948195952532  0.6672348390882641  0.3983003417814030
  0.2083406113375505  0.7924389902889170  0.3986644317106641
  0.2087929607737313  0.9176566432459092  0.3991930152704510
  0.3337793496699391  0.0426303375261045  0.3998323969257798
  0.3342759279940035  0.1680125104678921  0.4019737292966094
  0.3343616487641136  0.2932062073245840  0.4070899133292353
  0.3275722910441446  0.4155661892997008  0.4122174970975803
  0.3322272893683658  0.5444832318280275  0.4033823160416350
  0.3320344534960699  0.6672670115939844  0.4004245317202404
  0.3329327812143892  0.7922370637042178  0.3994609150073686
  0.3334577372154707  0.9173371852071509  0.3992814987931475
  0.4584625548350897  0.0417007451737485  0.3994432922778790
  0.4588957441898479  0.1670503707482488  0.4000262553073583
  0.4597207298888668  0.2924938320270865  0.4026388196509137
  0.4649996849003060  0.4167744681115871  0.4097533210816415
  0.4542351770879419  0.6632088603231604  0.4055527313125197
  0.4575116539287426  0.7908932901683765  0.4017094830928603
  0.4580487362412959  0.9163482263124521  0.3998787938888680
  0.5830987763602149  0.0406155285734347  0.3995385674923334
  0.5835266528870302  0.1660421005964837  0.3991130359704378
  0.5841945810315652  0.2911608310166151  0.3990700967291910
  0.5860208346793874  0.4160194024561020  0.4001189068886601
  0.5891168902258612  0.5422711885385053  0.4064319257953073
  0.5833898011179548  0.6634304985065397  0.4090570715849780
  0.5811340693410336  0.7877581808407470  0.4039315605858327
  0.5825379569576660  0.9148948840129042  0.4007772937799841
  0.7076800250485806  0.0401924807515681  0.3996084481485094
  0.7081247219552558  0.1656074409215498  0.3989409941523124
  0.7086662266278834  0.2909467708784133  0.3984124556323881
  0.7096969127587951  0.4162967811499106  0.3977760767498215
  0.7110188385339521  0.5417674829828572  0.3978944906649524
  0.7100641989729533  0.6668553089156448  0.4006909374027020
  0.7079608649598378  0.7903219655691107  0.4015352684098976
  0.7071987103090971  0.9146131424441379  0.4007903686418184
  0.8325809462914542  0.0404851873051920  0.3992640811105055
  0.8328036537653064  0.1656415200759376  0.3987628157426418
  0.8332313496030374  0.2909687429071344  0.3982969356826156
  0.8338577696456878  0.4162642746506067  0.3978401552130089
  0.8346047901145037  0.5416816370773567  0.3974252897963232
  0.8346233625048893  0.6671955627189133  0.3979723762348009
  0.8340793987807936  0.7919368257813058  0.3991455263037602
  0.8330253694492001  0.9159585782772696  0.3995445250098286
  0.9581498148208925  0.0414760010892809  0.3991496914447763
  0.9577955783864310  0.1661125834377689  0.3987588710664330
  0.9577494282959427  0.2910655510194715  0.3980289661207551
  0.9580716767031958  0.4163220078682744  0.3976518519098997
  0.9586424186978745  0.5417567879710463  0.3976818361361137
  0.9590334778385187  0.6671823473480779  0.3978956209764562
  0.9590630045274512  0.7923716025509574  0.3984999076825912
  0.9587392313877526  0.9171328497072628  0.3990374047270180
  0.4108375223761168  0.5838962932510904  0.4059020776933661
  0.4269418510588320  0.5255159937196680  0.5069718138959045
 
  0.00000000E+00  0.00000000E+00  0.00000000E+00
  0.00000000E+00  0.00000000E+00  0.00000000E+00
  0.00000000E+00  0.00000000E+00  0.00000000E+00
  0.00000000E+00  0.00000000E+00  0.00000000E+00
  0.00000000E+00  0.00000000E+00  0.00000000E+00
  0.00000000E+00  0.00000000E+00  0.00000000E+00
  0.00000000E+00  0.00000000E+00  0.00000000E+00
  0.00000000E+00  0.00000000E+00  0.00000000E+00
  0.00000000E+00  0.00000000E+00  0.00000000E+00
  0.00000000E+00  0.00000000E+00  0.00000000E+00
  0.00000000E+00  0.00000000E+00  0.00000000E+00
  0.00000000E+00  0.00000000E+00  0.00000000E+00
  0.00000000E+00  0.00000000E+00  0.00000000E+00
  0.00000000E+00  0.00000000E+00  0.00000000E+00
  0.00000000E+00  0.00000000E+00  0.00000000E+00
  0.00000000E+00  0.00000000E+00  0.00000000E+00
  0.00000000E+00  0.00000000E+00  0.00000000E+00
  0.00000000E+00  0.00000000E+00  0.00000000E+00
  0.00000000E+00  0.00000000E+00  0.00000000E+00
  0.00000000E+00  0.00000000E+00  0.00000000E+00
  0.00000000E+00  0.00000000E+00  0.00000000E+00
  0.00000000E+00  0.00000000E+00  0.00000000E+00
  0.00000000E+00  0.00000000E+00  0.00000000E+00
  0.00000000E+00  0.00000000E+00  0.00000000E+00
  0.00000000E+00  0.00000000E+00  0.00000000E+00
  0.00000000E+00  0.00000000E+00  0.00000000E+00
  0.00000000E+00  0.00000000E+00  0.00000000E+00
  0.00000000E+00  0.00000000E+00  0.00000000E+00
  0.00000000E+00  0.00000000E+00  0.00000000E+00
  0.00000000E+00  0.00000000E+00  0.00000000E+00
  0.00000000E+00  0.00000000E+00  0.00000000E+00
  0.00000000E+00  0.00000000E+00  0.00000000E+00
  0.00000000E+00  0.00000000E+00  0.00000000E+00
  0.00000000E+00  0.00000000E+00  0.00000000E+00
  0.00000000E+00  0.00000000E+00  0.00000000E+00
  0.00000000E+00  0.00000000E+00  0.00000000E+00
  0.00000000E+00  0.00000000E+00  0.00000000E+00
  0.00000000E+00  0.00000000E+00  0.00000000E+00
  0.00000000E+00  0.00000000E+00  0.00000000E+00
  0.00000000E+00  0.00000000E+00  0.00000000E+00
  0.00000000E+00  0.00000000E+00  0.00000000E+00
  0.00000000E+00  0.00000000E+00  0.00000000E+00
  0.00000000E+00  0.00000000E+00  0.00000000E+00
  0.00000000E+00  0.00000000E+00  0.00000000E+00
  0.00000000E+00  0.00000000E+00  0.00000000E+00
  0.00000000E+00  0.00000000E+00  0.00000000E+00
  0.00000000E+00  0.00000000E+00  0.00000000E+00
  0.00000000E+00  0.00000000E+00  0.00000000E+00
  0.00000000E+00  0.00000000E+00  0.00000000E+00
  0.00000000E+00  0.00000000E+00  0.00000000E+00
  0.00000000E+00  0.00000000E+00  0.00000000E+00
  0.00000000E+00  0.00000000E+00  0.00000000E+00
  0.00000000E+00  0.00000000E+00  0.00000000E+00
  0.00000000E+00  0.00000000E+00  0.00000000E+00
  0.00000000E+00  0.00000000E+00  0.00000000E+00
  0.00000000E+00  0.00000000E+00  0.00000000E+00
  0.00000000E+00  0.00000000E+00  0.00000000E+00
  0.00000000E+00  0.00000000E+00  0.00000000E+00
  0.00000000E+00  0.00000000E+00  0.00000000E+00
  0.00000000E+00  0.00000000E+00  0.00000000E+00
  0.00000000E+00  0.00000000E+00  0.00000000E+00
  0.00000000E+00  0.00000000E+00  0.00000000E+00
  0.00000000E+00  0.00000000E+00  0.00000000E+00
  0.00000000E+00  0.00000000E+00  0.00000000E+00
  0.00000000E+00  0.00000000E+00  0.00000000E+00
  0.00000000E+00  0.00000000E+00  0.00000000E+00
  0.00000000E+00  0.00000000E+00  0.00000000E+00
  0.00000000E+00  0.00000000E+00  0.00000000E+00
  0.00000000E+00  0.00000000E+00  0.00000000E+00
  0.00000000E+00  0.00000000E+00  0.00000000E+00
  0.00000000E+00  0.00000000E+00  0.00000000E+00
  0.00000000E+00  0.00000000E+00  0.00000000E+00
  0.00000000E+00  0.00000000E+00  0.00000000E+00
  0.00000000E+00  0.00000000E+00  0.00000000E+00
  0.00000000E+00  0.00000000E+00  0.00000000E+00
  0.00000000E+00  0.00000000E+00  0.00000000E+00
  0.00000000E+00  0.00000000E+00  0.00000000E+00
  0.00000000E+00  0.00000000E+00  0.00000000E+00
  0.00000000E+00  0.00000000E+00  0.00000000E+00
  0.00000000E+00  0.00000000E+00  0.00000000E+00
  0.00000000E+00  0.00000000E+00  0.00000000E+00
  0.00000000E+00  0.00000000E+00  0.00000000E+00
  0.00000000E+00  0.00000000E+00  0.00000000E+00
  0.00000000E+00  0.00000000E+00  0.00000000E+00
  0.00000000E+00  0.00000000E+00  0.00000000E+00
  0.00000000E+00  0.00000000E+00  0.00000000E+00
  0.00000000E+00  0.00000000E+00  0.00000000E+00
  0.00000000E+00  0.00000000E+00  0.00000000E+00
  0.00000000E+00  0.00000000E+00  0.00000000E+00
  0.00000000E+00  0.00000000E+00  0.00000000E+00
  0.00000000E+00  0.00000000E+00  0.00000000E+00
  0.00000000E+00  0.00000000E+00  0.00000000E+00
  0.00000000E+00  0.00000000E+00  0.00000000E+00
  0.00000000E+00  0.00000000E+00  0.00000000E+00
  0.00000000E+00  0.00000000E+00  0.00000000E+00
  0.00000000E+00  0.00000000E+00  0.00000000E+00
  0.00000000E+00  0.00000000E+00  0.00000000E+00
  0.00000000E+00  0.00000000E+00  0.00000000E+00
  0.00000000E+00  0.00000000E+00  0.00000000E+00
  0.00000000E+00  0.00000000E+00  0.00000000E+00
  0.00000000E+00  0.00000000E+00  0.00000000E+00
  0.00000000E+00  0.00000000E+00  0.00000000E+00
  0.00000000E+00  0.00000000E+00  0.00000000E+00
  0.00000000E+00  0.00000000E+00  0.00000000E+00
  0.00000000E+00  0.00000000E+00  0.00000000E+00
  0.00000000E+00  0.00000000E+00  0.00000000E+00
  0.00000000E+00  0.00000000E+00  0.00000000E+00
  0.00000000E+00  0.00000000E+00  0.00000000E+00
  0.00000000E+00  0.00000000E+00  0.00000000E+00
  0.00000000E+00  0.00000000E+00  0.00000000E+00
  0.00000000E+00  0.00000000E+00  0.00000000E+00
  0.00000000E+00  0.00000000E+00  0.00000000E+00
  0.00000000E+00  0.00000000E+00  0.00000000E+00
  0.00000000E+00  0.00000000E+00  0.00000000E+00
  0.00000000E+00  0.00000000E+00  0.00000000E+00
  0.00000000E+00  0.00000000E+00  0.00000000E+00
  0.00000000E+00  0.00000000E+00  0.00000000E+00
  0.00000000E+00  0.00000000E+00  0.00000000E+00
  0.00000000E+00  0.00000000E+00  0.00000000E+00
  0.00000000E+00  0.00000000E+00  0.00000000E+00
  0.00000000E+00  0.00000000E+00  0.00000000E+00
  0.00000000E+00  0.00000000E+00  0.00000000E+00
  0.00000000E+00  0.00000000E+00  0.00000000E+00
  0.00000000E+00  0.00000000E+00  0.00000000E+00
  0.00000000E+00  0.00000000E+00  0.00000000E+00
  0.00000000E+00  0.00000000E+00  0.00000000E+00
  0.00000000E+00  0.00000000E+00  0.00000000E+00
  0.00000000E+00  0.00000000E+00  0.00000000E+00
