Hf1 H1 C123 N3                          
   1.00000000000000     
    19.8092463595802002    0.0083095619323880   -0.0351771696715788
    -9.8973569216347705   17.0444741453777660   -0.1212819991477629
    -0.0527732986617667   -0.2426200712291111   29.7971622348737704
   Hf   H    C    N 
     1     1   123     3
Direct
  0.4380010554545053  0.5016475520782663  0.4348805877882780
  0.4439713325389347  0.5007450225805500  0.4978266096507578
  0.0418529715527294  0.0839945744883822  0.3995697503374072
  0.0410571428425431  0.2082406916423858  0.3996666144796820
  0.0404634312168598  0.3330868906279088  0.3996775527178315
  0.0406369069305239  0.4583382528382655  0.3995431136888600
  0.0415260863784717  0.5838510771907348  0.3998762778602842
  0.0422869171614098  0.7092893346302065  0.3999861400136701
  0.0424735960242595  0.8344306543026943  0.3999755389929351
  0.0423810981590894  0.9594637601199670  0.3997622355718668
  0.1675916963896815  0.0850661412288243  0.3998221434839784
  0.1670709926728852  0.2097525877518777  0.4001321291068878
  0.1651562960238898  0.3336137534836653  0.4006379482318042
  0.1644525080354790  0.4585041917139608  0.3994833725217504
  0.1653864332600229  0.5837605399638183  0.3992711634450111
  0.1665377354448480  0.7090105226364651  0.3998540533949256
  0.1671688258777844  0.8343885222402739  0.4000320133928810
  0.1674160298326298  0.9597695038730815  0.3998910474473905
  0.2924796392039115  0.0854391071580409  0.3998049834133191
  0.2928851950162902  0.2119016182743290  0.4010792451884526
  0.2916346057541683  0.3368915666258314  0.4032731299704063
  0.2879075426567947  0.4580360310307141  0.4022826471353842
  0.2888537065847608  0.5830017104672212  0.3995775887608300
  0.2908465627924981  0.7083516609502138  0.3992959255973971
  0.2917954734291011  0.8339269709816512  0.3998482936883799
  0.2922130793343399  0.9595086383914679  0.3998456439715036
  0.4171031601461754  0.0840734946354422  0.3995542940297988
  0.4176166520822213  0.2099681881846188  0.3997701504274457
  0.4194288786250617  0.3372349086556963  0.4023420350547085
  0.4151675999495327  0.7065302405771509  0.3992278881862456
  0.4162980000321207  0.8324658991253798  0.3994277238705695
  0.4168438423941041  0.9583393408494608  0.3998312918741379
  0.5417130629788128  0.0828323947363027  0.3997886939085903
  0.5421879298655309  0.2085083355460854  0.3994079592963029
  0.5431891202775262  0.3341101504653147  0.3997470056729165
  0.5459373690665100  0.4593949332453079  0.4016073789944011
  0.5390471663678149  0.7028176705942824  0.4010030374840430
  0.5408495653734361  0.8307797959450056  0.3995988320820869
  0.5413499189693720  0.9570477959829801  0.3999016009054959
  0.6663424243670409  0.0823116653765424  0.4000494407523570
  0.6666880662724314  0.2076988201486332  0.3997493183407723
  0.6675067169284022  0.3331079988739502  0.3994042219732453
  0.6694255703222415  0.4586944070108574  0.3993368794051673
  0.6703751049952810  0.5841480373116614  0.3998129233137568
  0.6671553435087596  0.7071332691520712  0.3996659561674545
  0.6651621467858944  0.8309419033459173  0.3997263192862719
  0.6658694814458241  0.9567352975358941  0.4000409826144037
  0.7909757442748612  0.0822911616558624  0.3999983645100821
  0.7912726017872412  0.2076135090735749  0.3999848077714204
  0.7918429211097588  0.3329686695704734  0.3997965673975162
  0.7929047164494297  0.4584121632954424  0.3995267700930210
  0.7937198760856573  0.5838685955904864  0.3993500796140761
  0.7933263753377944  0.7089941037424925  0.3995547170046894
  0.7915597689869454  0.8328268706755104  0.3995574909385911
  0.7908038855194719  0.9571291517738895  0.3998720549732745
  0.9161005431031394  0.0828413047864513  0.3997318808873112
  0.9159006379424403  0.2076997242829999  0.3998386126758507
  0.9161055133592759  0.3329582210054091  0.3998834921777052
  0.9168064935798694  0.4584575850447715  0.3998671439865486
  0.9176254834206623  0.5839271459471609  0.3998446700396845
  0.9178094880353829  0.7091486239201343  0.3998550281953379
  0.9175053347419784  0.8341571924460602  0.3998663536728636
  0.9167153675442125  0.9584510156759165  0.3997838705653390
  0.0841148048828968  0.0429878275253986  0.3996332812730059
  0.0834689715288155  0.1674844639294026  0.3996414206885102
  0.0823564618303174  0.2916816984830058  0.3998831026293143
  0.0816438480351855  0.4163830814828221  0.3994171441994400
  0.0824662681344329  0.5418898092681392  0.3995595107963964
  0.0834481298182880  0.6673649230905060  0.3999614065233951
  0.0839487451466325  0.7927169278903352  0.3999845735544893
  0.0841300496438753  0.9179343239297324  0.3998967195809989
  0.2090882961740694  0.0433225527482289  0.3998434236954403
  0.2093500724979505  0.1688253005348463  0.4003359737851828
  0.2082678107894208  0.2933156737822858  0.4010337118658706
  0.2057289207709143  0.4169993121044579  0.4006424489569975
  0.2060537599782788  0.5415977728041832  0.3992576800613234
  0.2075581428148254  0.6670461795878532  0.3994575115788294
  0.2085399518993460  0.7925484639482492  0.3999794023576794
  0.2089409361104108  0.9179127100136731  0.3999717772601648
  0.3338848172489579  0.0431646714484632  0.3996639551206657
  0.3341517071445949  0.1691861023658512  0.4001828839456604
  0.3347836054896193  0.2961784036144438  0.4027793644220729
  0.3299223911034706  0.5418253027329142  0.4009544569613995
  0.3317164478207474  0.6662862576652862  0.3992322674855407
  0.3330885896807810  0.7917869951534670  0.3995136906154796
  0.3335701350106277  0.9173758607776695  0.3998612482951061
  0.4584979934289040  0.0418110098158843  0.3997250673033045
  0.4588431971614035  0.1675986323306091  0.3994563787314492
  0.4597264239369871  0.2935000000579807  0.4001376509589989
  0.4637641441568073  0.4196949952559299  0.4042966132263983
  0.4546786701322565  0.6623840862076594  0.4007724090798712
  0.4575423233725496  0.7900105536571055  0.3991831164155927
  0.4581316254660304  0.9160632007147659  0.3997693460185345
  0.5830621967998616  0.0407009616700529  0.3999818299978307
  0.5834889721658161  0.1663558043802182  0.3996140804788004
  0.5842613078227751  0.2918247565975782  0.3993811980139437
  0.5866920435114066  0.4175102486204110  0.3999875689887560
  0.5888429027081141  0.5436101508539051  0.4015205111614304
  0.5835730131158594  0.6629745817928454  0.4015040950969693
  0.5814269453335609  0.7877218252600093  0.3999746899604554
  0.5826521540048090  0.9147218885646929  0.3998575970516307
  0.7077052442196492  0.0404010394507533  0.4000952402906244
  0.7081025449254450  0.1658394995369916  0.3999574608328543
  0.7086639957691058  0.2912183455320922  0.3996513268279127
  0.7100260720977701  0.4165666691883768  0.3992898073954333
  0.7111464440520306  0.5418828802558440  0.3992944287698679
  0.7105538138728315  0.6672565831339671  0.3996285876035199
  0.7080136142038951  0.7905586939287391  0.3993902515737208
  0.7072059060027781  0.9148163248172461  0.3998842292230967
  0.8326811216869914  0.0407677705012449  0.3998934490930469
  0.8327378193716062  0.1658662313593553  0.3999518766145336
  0.8330444729245169  0.2910754629527840  0.3999289128881895
  0.8338475228194592  0.4164477436809511  0.3997672580855259
  0.8347537158774325  0.5419624183157100  0.3995787119973964
  0.8349384097110796  0.6673270729545570  0.3995899721103031
  0.8342543950809168  0.7922334224466548  0.3996568317440862
  0.8331913133173885  0.9163139578572216  0.3997836211539163
  0.9583816298407023  0.0418764101585783  0.3996691701967807
  0.9577465142351200  0.1662700611066254  0.3996775278055403
  0.9575066984840114  0.2912356219053398  0.3998081000915578
  0.9577746183715991  0.4164776728370740  0.3998151756858668
  0.9585921760519233  0.5419215201492433  0.3999124547713589
  0.9592533058171374  0.6674107114015057  0.3999062388670711
  0.9592941886282303  0.7926901242626069  0.3999603448900041
  0.9590168812456703  0.9175485551816116  0.3998138076407500
  0.4110776843490028  0.5817243361515048  0.4029788257386877
  0.5474034733849660  0.5827281507633041  0.4043528584162492
  0.3290099143865055  0.4183499464532394  0.4064198335598211
 
  0.00000000E+00  0.00000000E+00  0.00000000E+00
  0.00000000E+00  0.00000000E+00  0.00000000E+00
  0.00000000E+00  0.00000000E+00  0.00000000E+00
  0.00000000E+00  0.00000000E+00  0.00000000E+00
  0.00000000E+00  0.00000000E+00  0.00000000E+00
  0.00000000E+00  0.00000000E+00  0.00000000E+00
  0.00000000E+00  0.00000000E+00  0.00000000E+00
  0.00000000E+00  0.00000000E+00  0.00000000E+00
  0.00000000E+00  0.00000000E+00  0.00000000E+00
  0.00000000E+00  0.00000000E+00  0.00000000E+00
  0.00000000E+00  0.00000000E+00  0.00000000E+00
  0.00000000E+00  0.00000000E+00  0.00000000E+00
  0.00000000E+00  0.00000000E+00  0.00000000E+00
  0.00000000E+00  0.00000000E+00  0.00000000E+00
  0.00000000E+00  0.00000000E+00  0.00000000E+00
  0.00000000E+00  0.00000000E+00  0.00000000E+00
  0.00000000E+00  0.00000000E+00  0.00000000E+00
  0.00000000E+00  0.00000000E+00  0.00000000E+00
  0.00000000E+00  0.00000000E+00  0.00000000E+00
  0.00000000E+00  0.00000000E+00  0.00000000E+00
  0.00000000E+00  0.00000000E+00  0.00000000E+00
  0.00000000E+00  0.00000000E+00  0.00000000E+00
  0.00000000E+00  0.00000000E+00  0.00000000E+00
  0.00000000E+00  0.00000000E+00  0.00000000E+00
  0.00000000E+00  0.00000000E+00  0.00000000E+00
  0.00000000E+00  0.00000000E+00  0.00000000E+00
  0.00000000E+00  0.00000000E+00  0.00000000E+00
  0.00000000E+00  0.00000000E+00  0.00000000E+00
  0.00000000E+00  0.00000000E+00  0.00000000E+00
  0.00000000E+00  0.00000000E+00  0.00000000E+00
  0.00000000E+00  0.00000000E+00  0.00000000E+00
  0.00000000E+00  0.00000000E+00  0.00000000E+00
  0.00000000E+00  0.00000000E+00  0.00000000E+00
  0.00000000E+00  0.00000000E+00  0.00000000E+00
  0.00000000E+00  0.00000000E+00  0.00000000E+00
  0.00000000E+00  0.00000000E+00  0.00000000E+00
  0.00000000E+00  0.00000000E+00  0.00000000E+00
  0.00000000E+00  0.00000000E+00  0.00000000E+00
  0.00000000E+00  0.00000000E+00  0.00000000E+00
  0.00000000E+00  0.00000000E+00  0.00000000E+00
  0.00000000E+00  0.00000000E+00  0.00000000E+00
  0.00000000E+00  0.00000000E+00  0.00000000E+00
  0.00000000E+00  0.00000000E+00  0.00000000E+00
  0.00000000E+00  0.00000000E+00  0.00000000E+00
  0.00000000E+00  0.00000000E+00  0.00000000E+00
  0.00000000E+00  0.00000000E+00  0.00000000E+00
  0.00000000E+00  0.00000000E+00  0.00000000E+00
  0.00000000E+00  0.00000000E+00  0.00000000E+00
  0.00000000E+00  0.00000000E+00  0.00000000E+00
  0.00000000E+00  0.00000000E+00  0.00000000E+00
  0.00000000E+00  0.00000000E+00  0.00000000E+00
  0.00000000E+00  0.00000000E+00  0.00000000E+00
  0.00000000E+00  0.00000000E+00  0.00000000E+00
  0.00000000E+00  0.00000000E+00  0.00000000E+00
  0.00000000E+00  0.00000000E+00  0.00000000E+00
  0.00000000E+00  0.00000000E+00  0.00000000E+00
  0.00000000E+00  0.00000000E+00  0.00000000E+00
  0.00000000E+00  0.00000000E+00  0.00000000E+00
  0.00000000E+00  0.00000000E+00  0.00000000E+00
  0.00000000E+00  0.00000000E+00  0.00000000E+00
  0.00000000E+00  0.00000000E+00  0.00000000E+00
  0.00000000E+00  0.00000000E+00  0.00000000E+00
  0.00000000E+00  0.00000000E+00  0.00000000E+00
  0.00000000E+00  0.00000000E+00  0.00000000E+00
  0.00000000E+00  0.00000000E+00  0.00000000E+00
  0.00000000E+00  0.00000000E+00  0.00000000E+00
  0.00000000E+00  0.00000000E+00  0.00000000E+00
  0.00000000E+00  0.00000000E+00  0.00000000E+00
  0.00000000E+00  0.00000000E+00  0.00000000E+00
  0.00000000E+00  0.00000000E+00  0.00000000E+00
  0.00000000E+00  0.00000000E+00  0.00000000E+00
  0.00000000E+00  0.00000000E+00  0.00000000E+00
  0.00000000E+00  0.00000000E+00  0.00000000E+00
  0.00000000E+00  0.00000000E+00  0.00000000E+00
  0.00000000E+00  0.00000000E+00  0.00000000E+00
  0.00000000E+00  0.00000000E+00  0.00000000E+00
  0.00000000E+00  0.00000000E+00  0.00000000E+00
  0.00000000E+00  0.00000000E+00  0.00000000E+00
  0.00000000E+00  0.00000000E+00  0.00000000E+00
  0.00000000E+00  0.00000000E+00  0.00000000E+00
  0.00000000E+00  0.00000000E+00  0.00000000E+00
  0.00000000E+00  0.00000000E+00  0.00000000E+00
  0.00000000E+00  0.00000000E+00  0.00000000E+00
  0.00000000E+00  0.00000000E+00  0.00000000E+00
  0.00000000E+00  0.00000000E+00  0.00000000E+00
  0.00000000E+00  0.00000000E+00  0.00000000E+00
  0.00000000E+00  0.00000000E+00  0.00000000E+00
  0.00000000E+00  0.00000000E+00  0.00000000E+00
  0.00000000E+00  0.00000000E+00  0.00000000E+00
  0.00000000E+00  0.00000000E+00  0.00000000E+00
  0.00000000E+00  0.00000000E+00  0.00000000E+00
  0.00000000E+00  0.00000000E+00  0.00000000E+00
  0.00000000E+00  0.00000000E+00  0.00000000E+00
  0.00000000E+00  0.00000000E+00  0.00000000E+00
  0.00000000E+00  0.00000000E+00  0.00000000E+00
  0.00000000E+00  0.00000000E+00  0.00000000E+00
  0.00000000E+00  0.00000000E+00  0.00000000E+00
  0.00000000E+00  0.00000000E+00  0.00000000E+00
  0.00000000E+00  0.00000000E+00  0.00000000E+00
  0.00000000E+00  0.00000000E+00  0.00000000E+00
  0.00000000E+00  0.00000000E+00  0.00000000E+00
  0.00000000E+00  0.00000000E+00  0.00000000E+00
  0.00000000E+00  0.00000000E+00  0.00000000E+00
  0.00000000E+00  0.00000000E+00  0.00000000E+00
  0.00000000E+00  0.00000000E+00  0.00000000E+00
  0.00000000E+00  0.00000000E+00  0.00000000E+00
  0.00000000E+00  0.00000000E+00  0.00000000E+00
  0.00000000E+00  0.00000000E+00  0.00000000E+00
  0.00000000E+00  0.00000000E+00  0.00000000E+00
  0.00000000E+00  0.00000000E+00  0.00000000E+00
  0.00000000E+00  0.00000000E+00  0.00000000E+00
  0.00000000E+00  0.00000000E+00  0.00000000E+00
  0.00000000E+00  0.00000000E+00  0.00000000E+00
  0.00000000E+00  0.00000000E+00  0.00000000E+00
  0.00000000E+00  0.00000000E+00  0.00000000E+00
  0.00000000E+00  0.00000000E+00  0.00000000E+00
  0.00000000E+00  0.00000000E+00  0.00000000E+00
  0.00000000E+00  0.00000000E+00  0.00000000E+00
  0.00000000E+00  0.00000000E+00  0.00000000E+00
  0.00000000E+00  0.00000000E+00  0.00000000E+00
  0.00000000E+00  0.00000000E+00  0.00000000E+00
  0.00000000E+00  0.00000000E+00  0.00000000E+00
  0.00000000E+00  0.00000000E+00  0.00000000E+00
  0.00000000E+00  0.00000000E+00  0.00000000E+00
  0.00000000E+00  0.00000000E+00  0.00000000E+00
  0.00000000E+00  0.00000000E+00  0.00000000E+00
  0.00000000E+00  0.00000000E+00  0.00000000E+00
  0.00000000E+00  0.00000000E+00  0.00000000E+00
