Cd1 C123 N3                             
   1.00000000000000     
    19.8307134475324069    0.0114009596280783   -0.0005471258452156
    -9.9054231690896337   17.0471680715858334   -0.0023333137728973
    -0.0007684463447409   -0.0045150546162667   29.7554452178023006
   Cd   C    N 
     1   123     3
Direct
  0.4365544772534395  0.4995555037186628  0.4378755471185326
  0.0415938844958605  0.0838178249882936  0.3999143841918411
  0.0404159278690746  0.2078589540489138  0.3998067540167288
  0.0397890583214941  0.3327016076056475  0.3995762782080273
  0.0401584345849067  0.4581121134040887  0.3997258814362733
  0.0413338728121991  0.5837418447328370  0.4001169299827376
  0.0423183003584368  0.7092490344319338  0.4002256911798139
  0.0426797850440936  0.8345885846618094  0.4001350290807937
  0.0425480628998358  0.9596218155117129  0.3999857230638207
  0.1677108963871362  0.0854402388558147  0.3998034317652223
  0.1663805636731751  0.2093875306383124  0.3999449382028205
  0.1642803607924947  0.3331374155744407  0.3989054140586338
  0.1635982055252417  0.4581619039769079  0.3983911875005191
  0.1649446601952083  0.5835288393205819  0.3988847056057419
  0.1664285907414779  0.7089955538387686  0.3998170604154652
  0.1672089964534950  0.8345021625104588  0.4000987539932794
  0.1675813104511140  0.9600332603360792  0.3999838823806144
  0.2925823535688016  0.0856419912452309  0.3999289807724430
  0.2932614138921657  0.2126127121104418  0.4009758496601447
  0.2906494824837519  0.3373758430438100  0.4008423144022430
  0.2868758096057927  0.4566455628274582  0.3984810320594342
  0.2881693798806366  0.5829106799773929  0.3983281252098942
  0.2905613768181129  0.7084528247122306  0.3994145563860398
  0.2916450862097729  0.8339330442197078  0.3998581910071611
  0.2921709623373612  0.9595978939625677  0.3999136379860962
  0.4170567902992469  0.0839704437317633  0.3995719138033867
  0.4176474871820039  0.2097746803467158  0.3994497128525895
  0.4199383215753920  0.3366439855008128  0.4063512625917013
  0.4146532391354317  0.7065826993412074  0.4001776979151350
  0.4160569895835669  0.8324369037350049  0.3996567145061812
  0.4166628895426167  0.9582408995331034  0.3999386305975537
  0.5415347305231820  0.0825575772967134  0.3998993272155514
  0.5421730439842124  0.2082224412352894  0.3990926738074881
  0.5434448602864537  0.3338103220131218  0.3989975242719473
  0.5466557169507715  0.4589546996817342  0.4045191959810340
  0.5386586013023883  0.7019754573721129  0.4024279101475404
  0.5404526272346926  0.8302848396538103  0.4003278420134528
  0.5410842143757906  0.9566781829651577  0.3999584693136938
  0.6660171901127239  0.0819177551833229  0.4000963222147543
  0.6665301373498836  0.2074301494268904  0.3998740049411721
  0.6675441876683046  0.3329247103882206  0.3986117632927872
  0.6696380773458079  0.4585932830796942  0.3970640263176627
  0.6711798494783141  0.5843288857477568  0.3985931661722641
  0.6681344022850654  0.7075802600459087  0.3999243278420316
  0.6650525313549497  0.8304986058228405  0.4002825512347437
  0.6655674156621200  0.9563040345904992  0.4000431596407549
  0.7906194503132291  0.0818907678095348  0.4000186469791482
  0.7908946800555718  0.2072120841065209  0.4001956318242917
  0.7916375994237328  0.3327107976983539  0.3999867156283375
  0.7929152473316604  0.4583095173328329  0.3991331945542859
  0.7940447676691911  0.5838611388364817  0.3986028421119762
  0.7939271044901119  0.7092188039501810  0.3990550870351731
  0.7919502094411998  0.8329750997280934  0.3997575061224422
  0.7905633150485473  0.9567891391887389  0.3999128750470289
  0.9157141877548249  0.0824622733137564  0.3999784996157449
  0.9154095578405940  0.2072979779383461  0.4000289893781813
  0.9156650731094500  0.3326408633377213  0.4002230044471438
  0.9165474731237901  0.4582011429487610  0.4002978260793464
  0.9176698605694865  0.5838253524387241  0.4000377920159182
  0.9181043135114297  0.7092420408231456  0.3998785122849783
  0.9178077852713753  0.8342456042060657  0.3999213545975333
  0.9167475610852388  0.9584019924570797  0.3999808298740380
  0.0841702273899466  0.0431382254784883  0.3998649947864313
  0.0829549673578197  0.1671600090353213  0.3998641180038993
  0.0813809540788384  0.2911380680346241  0.3993819835086803
  0.0810430720561199  0.4161805715734858  0.3992561654433296
  0.0820958712719561  0.5417234602685057  0.3996162587267340
  0.0833527519768974  0.6672928404356816  0.4000761537855403
  0.0840640711975391  0.7928027474424858  0.4001807177405159
  0.0843032814889678  0.9181184128573909  0.4000341425204110
  0.2092544196710908  0.0435985850612815  0.3999220998449758
  0.2093592876382863  0.1691361516024474  0.4000033664017544
  0.2070323501664234  0.2926664177930687  0.3997016387911882
  0.2046203695851203  0.4164748863117116  0.3982498329815745
  0.2053603659321157  0.5413983590522576  0.3980037756548068
  0.2073432082971345  0.6670491228597355  0.3993229769929179
  0.2084806605355460  0.7925805768851238  0.3999614651728466
  0.2090041821959875  0.9180789879063933  0.4000229949456937
  0.3338862700543961  0.0432311320785124  0.3997640380504768
  0.3343638065773238  0.1694173038017303  0.4002818960166505
  0.3352000087495332  0.2967147510561193  0.4033246813001160
  0.3296061276707852  0.5423282420919966  0.4002283562153912
  0.3313803427707663  0.6663626050887758  0.3994115871672693
  0.3328789692809547  0.7918274507659777  0.3996779341625247
  0.3334866097372473  0.9174022615986996  0.3999144064043932
  0.4583835367147532  0.0416713254174738  0.3998642309047822
  0.4588951001830369  0.1673957299979031  0.3990797804819304
  0.4600563375688009  0.2932088954032018  0.4004916402934205
  0.4674189272595397  0.4171161349596158  0.4153028537779374
  0.4535948806300459  0.6618044512251161  0.4031190863621341
  0.4572522633496123  0.7900172191788385  0.3998249500416947
  0.4579306663963975  0.9159506140530675  0.3998600362648729
  0.5828227560269312  0.0403445741679507  0.4000159723602015
  0.5833876951828041  0.1661002664518759  0.3996550594252443
  0.5843689469868828  0.2916003838836069  0.3985904992034531
  0.5869159692497422  0.4172379695529748  0.3983639967900114
  0.5895235452314936  0.5443443980485078  0.4019289611188835
  0.5846113589012292  0.6626864198066280  0.4018977575503964
  0.5809334310137493  0.7867252563697168  0.4009614468694775
  0.5823295903008999  0.9142276118018517  0.4000717455888788
  0.7073685768191716  0.0399430405066623  0.4000374458963066
  0.7078028842825380  0.1655098540570009  0.4001491491460736
  0.7085334352753407  0.2909837922008546  0.3995432567680027
  0.7101058300613176  0.4164878074272529  0.3980034782061198
  0.7116751443685316  0.5420011734644400  0.3977254276727898
  0.7111324330996281  0.6674149132742455  0.3988836352117929
  0.7085409640855238  0.7907646754248053  0.3999281965634991
  0.7069125783975265  0.9143244902127097  0.4000059143136140
  0.8323192197842048  0.0403722690507357  0.3999537715372150
  0.8322884683397789  0.1654523144022074  0.4000949533577248
  0.8326996451332601  0.2907792183934363  0.4002563759232937
  0.8337076360851006  0.4162940191388071  0.3999748234832653
  0.8349297497956863  0.5419070752472551  0.3992649480277989
  0.8353326655561651  0.6674563079129698  0.3992059181113123
  0.8346632999208224  0.7923654823673034  0.3996144035554167
  0.8332876290317860  0.9162790603596942  0.3999007973477269
  0.9581579317817210  0.0416791788365582  0.3999781376536629
  0.9571903268680544  0.1658658342339962  0.3999641868409177
  0.9569436682717513  0.2908464662162711  0.4000146797514705
  0.9573498323005688  0.4161917004514975  0.4002010752131494
  0.9584881846013201  0.5418152463309108  0.4002896171057175
  0.9593843017937834  0.6673809252191272  0.4001201795439971
  0.9595524191080506  0.7927663602044676  0.4000231830459077
  0.9592108640559246  0.9176264606205219  0.4000215240499468
  0.4084233833689594  0.5821073284803597  0.4062526840410018
  0.5499796382798433  0.5836484026560717  0.4034178076393307
  0.3261273669294859  0.4168830308515891  0.3992840443881784
 
  0.00000000E+00  0.00000000E+00  0.00000000E+00
  0.00000000E+00  0.00000000E+00  0.00000000E+00
  0.00000000E+00  0.00000000E+00  0.00000000E+00
  0.00000000E+00  0.00000000E+00  0.00000000E+00
  0.00000000E+00  0.00000000E+00  0.00000000E+00
  0.00000000E+00  0.00000000E+00  0.00000000E+00
  0.00000000E+00  0.00000000E+00  0.00000000E+00
  0.00000000E+00  0.00000000E+00  0.00000000E+00
  0.00000000E+00  0.00000000E+00  0.00000000E+00
  0.00000000E+00  0.00000000E+00  0.00000000E+00
  0.00000000E+00  0.00000000E+00  0.00000000E+00
  0.00000000E+00  0.00000000E+00  0.00000000E+00
  0.00000000E+00  0.00000000E+00  0.00000000E+00
  0.00000000E+00  0.00000000E+00  0.00000000E+00
  0.00000000E+00  0.00000000E+00  0.00000000E+00
  0.00000000E+00  0.00000000E+00  0.00000000E+00
  0.00000000E+00  0.00000000E+00  0.00000000E+00
  0.00000000E+00  0.00000000E+00  0.00000000E+00
  0.00000000E+00  0.00000000E+00  0.00000000E+00
  0.00000000E+00  0.00000000E+00  0.00000000E+00
  0.00000000E+00  0.00000000E+00  0.00000000E+00
  0.00000000E+00  0.00000000E+00  0.00000000E+00
  0.00000000E+00  0.00000000E+00  0.00000000E+00
  0.00000000E+00  0.00000000E+00  0.00000000E+00
  0.00000000E+00  0.00000000E+00  0.00000000E+00
  0.00000000E+00  0.00000000E+00  0.00000000E+00
  0.00000000E+00  0.00000000E+00  0.00000000E+00
  0.00000000E+00  0.00000000E+00  0.00000000E+00
  0.00000000E+00  0.00000000E+00  0.00000000E+00
  0.00000000E+00  0.00000000E+00  0.00000000E+00
  0.00000000E+00  0.00000000E+00  0.00000000E+00
  0.00000000E+00  0.00000000E+00  0.00000000E+00
  0.00000000E+00  0.00000000E+00  0.00000000E+00
  0.00000000E+00  0.00000000E+00  0.00000000E+00
  0.00000000E+00  0.00000000E+00  0.00000000E+00
  0.00000000E+00  0.00000000E+00  0.00000000E+00
  0.00000000E+00  0.00000000E+00  0.00000000E+00
  0.00000000E+00  0.00000000E+00  0.00000000E+00
  0.00000000E+00  0.00000000E+00  0.00000000E+00
  0.00000000E+00  0.00000000E+00  0.00000000E+00
  0.00000000E+00  0.00000000E+00  0.00000000E+00
  0.00000000E+00  0.00000000E+00  0.00000000E+00
  0.00000000E+00  0.00000000E+00  0.00000000E+00
  0.00000000E+00  0.00000000E+00  0.00000000E+00
  0.00000000E+00  0.00000000E+00  0.00000000E+00
  0.00000000E+00  0.00000000E+00  0.00000000E+00
  0.00000000E+00  0.00000000E+00  0.00000000E+00
  0.00000000E+00  0.00000000E+00  0.00000000E+00
  0.00000000E+00  0.00000000E+00  0.00000000E+00
  0.00000000E+00  0.00000000E+00  0.00000000E+00
  0.00000000E+00  0.00000000E+00  0.00000000E+00
  0.00000000E+00  0.00000000E+00  0.00000000E+00
  0.00000000E+00  0.00000000E+00  0.00000000E+00
  0.00000000E+00  0.00000000E+00  0.00000000E+00
  0.00000000E+00  0.00000000E+00  0.00000000E+00
  0.00000000E+00  0.00000000E+00  0.00000000E+00
  0.00000000E+00  0.00000000E+00  0.00000000E+00
  0.00000000E+00  0.00000000E+00  0.00000000E+00
  0.00000000E+00  0.00000000E+00  0.00000000E+00
  0.00000000E+00  0.00000000E+00  0.00000000E+00
  0.00000000E+00  0.00000000E+00  0.00000000E+00
  0.00000000E+00  0.00000000E+00  0.00000000E+00
  0.00000000E+00  0.00000000E+00  0.00000000E+00
  0.00000000E+00  0.00000000E+00  0.00000000E+00
  0.00000000E+00  0.00000000E+00  0.00000000E+00
  0.00000000E+00  0.00000000E+00  0.00000000E+00
  0.00000000E+00  0.00000000E+00  0.00000000E+00
  0.00000000E+00  0.00000000E+00  0.00000000E+00
  0.00000000E+00  0.00000000E+00  0.00000000E+00
  0.00000000E+00  0.00000000E+00  0.00000000E+00
  0.00000000E+00  0.00000000E+00  0.00000000E+00
  0.00000000E+00  0.00000000E+00  0.00000000E+00
  0.00000000E+00  0.00000000E+00  0.00000000E+00
  0.00000000E+00  0.00000000E+00  0.00000000E+00
  0.00000000E+00  0.00000000E+00  0.00000000E+00
  0.00000000E+00  0.00000000E+00  0.00000000E+00
  0.00000000E+00  0.00000000E+00  0.00000000E+00
  0.00000000E+00  0.00000000E+00  0.00000000E+00
  0.00000000E+00  0.00000000E+00  0.00000000E+00
  0.00000000E+00  0.00000000E+00  0.00000000E+00
  0.00000000E+00  0.00000000E+00  0.00000000E+00
  0.00000000E+00  0.00000000E+00  0.00000000E+00
  0.00000000E+00  0.00000000E+00  0.00000000E+00
  0.00000000E+00  0.00000000E+00  0.00000000E+00
  0.00000000E+00  0.00000000E+00  0.00000000E+00
  0.00000000E+00  0.00000000E+00  0.00000000E+00
  0.00000000E+00  0.00000000E+00  0.00000000E+00
  0.00000000E+00  0.00000000E+00  0.00000000E+00
  0.00000000E+00  0.00000000E+00  0.00000000E+00
  0.00000000E+00  0.00000000E+00  0.00000000E+00
  0.00000000E+00  0.00000000E+00  0.00000000E+00
  0.00000000E+00  0.00000000E+00  0.00000000E+00
  0.00000000E+00  0.00000000E+00  0.00000000E+00
  0.00000000E+00  0.00000000E+00  0.00000000E+00
  0.00000000E+00  0.00000000E+00  0.00000000E+00
  0.00000000E+00  0.00000000E+00  0.00000000E+00
  0.00000000E+00  0.00000000E+00  0.00000000E+00
  0.00000000E+00  0.00000000E+00  0.00000000E+00
  0.00000000E+00  0.00000000E+00  0.00000000E+00
  0.00000000E+00  0.00000000E+00  0.00000000E+00
  0.00000000E+00  0.00000000E+00  0.00000000E+00
  0.00000000E+00  0.00000000E+00  0.00000000E+00
  0.00000000E+00  0.00000000E+00  0.00000000E+00
  0.00000000E+00  0.00000000E+00  0.00000000E+00
  0.00000000E+00  0.00000000E+00  0.00000000E+00
  0.00000000E+00  0.00000000E+00  0.00000000E+00
  0.00000000E+00  0.00000000E+00  0.00000000E+00
  0.00000000E+00  0.00000000E+00  0.00000000E+00
  0.00000000E+00  0.00000000E+00  0.00000000E+00
  0.00000000E+00  0.00000000E+00  0.00000000E+00
  0.00000000E+00  0.00000000E+00  0.00000000E+00
  0.00000000E+00  0.00000000E+00  0.00000000E+00
  0.00000000E+00  0.00000000E+00  0.00000000E+00
  0.00000000E+00  0.00000000E+00  0.00000000E+00
  0.00000000E+00  0.00000000E+00  0.00000000E+00
  0.00000000E+00  0.00000000E+00  0.00000000E+00
  0.00000000E+00  0.00000000E+00  0.00000000E+00
  0.00000000E+00  0.00000000E+00  0.00000000E+00
  0.00000000E+00  0.00000000E+00  0.00000000E+00
  0.00000000E+00  0.00000000E+00  0.00000000E+00
  0.00000000E+00  0.00000000E+00  0.00000000E+00
  0.00000000E+00  0.00000000E+00  0.00000000E+00
  0.00000000E+00  0.00000000E+00  0.00000000E+00
  0.00000000E+00  0.00000000E+00  0.00000000E+00
  0.00000000E+00  0.00000000E+00  0.00000000E+00
  0.00000000E+00  0.00000000E+00  0.00000000E+00
  0.00000000E+00  0.00000000E+00  0.00000000E+00
