Fe1 C124 N2 O1                          
   1.00000000000000     
    19.7971429524843536   -0.0230837860396769   -0.0111597275687861
    -9.9185974787257969   17.0421620236577773   -0.0163054352663002
    -0.0168728561954989   -0.0383641713656835   29.8449285281279160
   Fe   C    N    O 
     1   124     2     1
Direct
  0.4376576333183166  0.5001653283136136  0.4221152636291379
  0.0424273357005163  0.0844079943767468  0.3998892138676595
  0.0418306392216223  0.2086914255076167  0.3996979920807746
  0.0411918628387369  0.3331826520793228  0.3994072763230321
  0.0409080256453578  0.4583668176291127  0.3993732961011105
  0.0412914109844920  0.5836772112257052  0.3995848455914057
  0.0417655728479005  0.7089469739649630  0.3996283545781765
  0.0420480767723532  0.8343018069598571  0.3997454564287324
  0.0423508282703224  0.9595552514460550  0.3998615455915129
  0.1682346367072469  0.0858860247020345  0.4005015027213830
  0.1684722219482495  0.2110423306542728  0.4008044498108134
  0.1668660866349541  0.3345989928821709  0.4002040068772317
  0.1649518354359856  0.4588084039506839  0.3996934148132425
  0.1653883351523646  0.5837240424098979  0.3995806285639105
  0.1662755312473863  0.7090042294500236  0.3997943842864089
  0.1669082979427614  0.8343869503479269  0.3997411879325838
  0.1674260113401260  0.9599708331311803  0.4000621164989440
  0.2927453085790077  0.0854798317885468  0.4005714403826275
  0.2946798889930875  0.2129146247790601  0.4020203096874724
  0.2953450446244617  0.3395210943442564  0.4024552479858485
  0.2894307936377416  0.4601531550652282  0.4014802629809111
  0.2892729312425857  0.5844350868568924  0.4007596036953771
  0.2906401659157325  0.7090287065485441  0.4001532069346965
  0.2916002537532023  0.8341010420681698  0.3998125319068322
  0.2920325352209687  0.9594978690048634  0.3997796818440946
  0.4171039010162190  0.0839855210098932  0.3999381147424614
  0.4178806585111161  0.2100169522354420  0.4009286107646517
  0.4214317222275525  0.3384420235054222  0.4043469888317546
  0.4146505485555139  0.7064064105214669  0.4018014016907401
  0.4161128228752347  0.8326028427190693  0.4001546081438150
  0.4166366177114966  0.9583041604215197  0.3997115181154030
  0.5416246486068204  0.0825812391599499  0.3997226338956139
  0.5421589825933495  0.2078624066464343  0.4000972503384048
  0.5433840170792621  0.3328376744231178  0.4009263468192046
  0.5444149200304622  0.4560733009979572  0.4027394696797586
  0.5415823170624350  0.5773764394404921  0.4030143032794840
  0.5378716103654995  0.7028593098100657  0.4034475116279950
  0.5402417927741325  0.8307063193016901  0.4011829040190307
  0.5412227973565464  0.9569906171705895  0.4000541268889464
  0.6662666357910965  0.0820486145824546  0.3998620181753481
  0.6667433054956433  0.2074922564762218  0.3998165984585569
  0.6675610873260069  0.3327671169300004  0.3998492900112893
  0.6687673719800102  0.4579969076802755  0.3997103359173977
  0.6683308828284495  0.5822736982692831  0.4000099770629220
  0.6645371127553545  0.7050244971514914  0.4008149772958376
  0.6645322295877136  0.8301466613593433  0.4010701210639027
  0.6656794116593332  0.9563775998986657  0.4003854697013765
  0.7911137277099130  0.0820843219446843  0.3999145495032934
  0.7914585220606440  0.2074258009374574  0.3997427913358962
  0.7919644143851485  0.3328182176728944  0.3996846348883523
  0.7926157322375218  0.4581692861389115  0.3994479774954627
  0.7928192917738954  0.5832835004850025  0.3993921007238797
  0.7917830254120020  0.7079716183583074  0.3996758519517769
  0.7905962437420300  0.8319388030397334  0.4000547182279774
  0.7905718237544122  0.9567270849661540  0.4000104225903343
  0.9163744566060572  0.0828092027261391  0.3996151085890389
  0.9163989812057096  0.2077414258934809  0.3995066159502585
  0.9164392314727152  0.3329111491201715  0.3994429560462152
  0.9167276684415313  0.4581986065406198  0.3995077902234385
  0.9171213413677464  0.5835855348433867  0.3994087441187375
  0.9170409102417523  0.7087443232999036  0.3993415127920557
  0.9168184821334222  0.8336291075493989  0.3994914467610826
  0.9164993072828338  0.9581937852501312  0.3996202032807261
  0.0844988213534350  0.0433416778878950  0.4000480058267328
  0.0844826392674136  0.1681332062431267  0.4001138592556970
  0.0832810075767085  0.2920903702197464  0.3997275792210857
  0.0822331148200490  0.4167763999267819  0.3994252687323296
  0.0824300031449070  0.5418712304316600  0.3994715190308753
  0.0830863035291927  0.6672254798853601  0.3996892303458708
  0.0836002345309836  0.7926321736301745  0.3997358843692211
  0.0839453769184217  0.9179708437535083  0.3999336869654897
  0.2093896274544562  0.0436870492371710  0.4004227838370085
  0.2105549715766557  0.1699358175917780  0.4011357830653637
  0.2105570456596126  0.2950729495322193  0.4009327426505465
  0.2067357166315773  0.4177997600938568  0.4001172833217055
  0.2062904709084634  0.5420636680240847  0.3997521480301245
  0.2074884761924736  0.6672838169482347  0.3998443953715451
  0.2083256835259490  0.7925727485545551  0.3997719140183520
  0.2087945830653197  0.9180106913290729  0.3998378248755401
  0.3338468373643551  0.0430787403020361  0.4000592773052034
  0.3348383376332364  0.1693701223356143  0.4012312675722285
  0.3372276080134569  0.2972459500151601  0.4035106085762195
  0.3335331264045536  0.4227531792672252  0.4031189188829742
  0.3306817698119815  0.5440365483758214  0.4027923221260394
  0.3316948082069899  0.6672507788801241  0.4009034194933108
  0.3329116326829933  0.7922180651130830  0.4000542235134006
  0.3334434847544969  0.9174943679917789  0.3996927442137022
  0.4584276121972977  0.0417677228441136  0.3997184085703438
  0.4589535136200666  0.1674715180084902  0.4001941597728234
  0.4604382631257806  0.2936885306179633  0.4018438654352039
  0.4536791023379081  0.6616795565087799  0.4043105251763706
  0.4571969970373004  0.7900643878755389  0.4008825900288642
  0.4579599281887639  0.9160839679106800  0.3999253684379624
  0.5830274233104191  0.0405689254412209  0.3998029454075294
  0.5834689695822490  0.1659727338918771  0.3998619920684447
  0.5844186960255726  0.2910410417249381  0.4001753110938822
  0.5858021036323251  0.4156499807143916  0.4007283611287633
  0.5856561758325753  0.5399428728891991  0.4013709067506213
  0.5797658768021918  0.6605962699331300  0.4023405512895550
  0.5804103636797109  0.7871685881030999  0.4019709224599595
  0.5823250550399095  0.9145902255812999  0.4005321192631612
  0.7076388617264868  0.0400866083340219  0.4000467722151910
  0.7081530438071866  0.1656679581287364  0.3997760578601799
  0.7087785038965890  0.2910482187720831  0.3998165754966081
  0.7096576248134525  0.4163240871669487  0.3995535009467659
  0.7101006569277288  0.5412482180856060  0.3996295646647567
  0.7082115669965461  0.6654797723311106  0.4000919587265415
  0.7066186449861291  0.7890445188842818  0.4007165960494774
  0.7068410429074845  0.9141850853288460  0.4004556737564684
  0.8327168430800711  0.0405107812428085  0.3998267949636229
  0.8330097574015056  0.1657535215969972  0.3997410352096864
  0.8332917166946956  0.2911032173545678  0.3996266197826444
  0.8337548171859552  0.4163602354798073  0.3995683939110535
  0.8341473461884661  0.5416857611859029  0.3993604168248908
  0.8338611444574013  0.6668685510728665  0.3993802997138545
  0.8332362050173288  0.7913715511712738  0.3996492738980635
  0.8326529529158222  0.9156700895831449  0.3998455863794135
  0.9585800749441304  0.0418834063120244  0.3996238853502376
  0.9582457031533451  0.1664185270395677  0.3995121478544092
  0.9580066218637029  0.2912934399802225  0.3993527967541866
  0.9579294214224703  0.4164615251873371  0.3994188250318871
  0.9583247296867867  0.5418560898407847  0.3995032925428248
  0.9586232665518821  0.6671434506065239  0.3994326184116588
  0.9586623150073237  0.7923029343239847  0.3995026209136157
  0.9586916499491309  0.9172501860067612  0.3996240364612689
  0.4099858237445204  0.5808974226020922  0.4065823312337429
  0.4651473521772829  0.4192467868870295  0.4065952513602156
  0.4379877330647872  0.5005320799159989  0.4757871340864099
 
  0.00000000E+00  0.00000000E+00  0.00000000E+00
  0.00000000E+00  0.00000000E+00  0.00000000E+00
  0.00000000E+00  0.00000000E+00  0.00000000E+00
  0.00000000E+00  0.00000000E+00  0.00000000E+00
  0.00000000E+00  0.00000000E+00  0.00000000E+00
  0.00000000E+00  0.00000000E+00  0.00000000E+00
  0.00000000E+00  0.00000000E+00  0.00000000E+00
  0.00000000E+00  0.00000000E+00  0.00000000E+00
  0.00000000E+00  0.00000000E+00  0.00000000E+00
  0.00000000E+00  0.00000000E+00  0.00000000E+00
  0.00000000E+00  0.00000000E+00  0.00000000E+00
  0.00000000E+00  0.00000000E+00  0.00000000E+00
  0.00000000E+00  0.00000000E+00  0.00000000E+00
  0.00000000E+00  0.00000000E+00  0.00000000E+00
  0.00000000E+00  0.00000000E+00  0.00000000E+00
  0.00000000E+00  0.00000000E+00  0.00000000E+00
  0.00000000E+00  0.00000000E+00  0.00000000E+00
  0.00000000E+00  0.00000000E+00  0.00000000E+00
  0.00000000E+00  0.00000000E+00  0.00000000E+00
  0.00000000E+00  0.00000000E+00  0.00000000E+00
  0.00000000E+00  0.00000000E+00  0.00000000E+00
  0.00000000E+00  0.00000000E+00  0.00000000E+00
  0.00000000E+00  0.00000000E+00  0.00000000E+00
  0.00000000E+00  0.00000000E+00  0.00000000E+00
  0.00000000E+00  0.00000000E+00  0.00000000E+00
  0.00000000E+00  0.00000000E+00  0.00000000E+00
  0.00000000E+00  0.00000000E+00  0.00000000E+00
  0.00000000E+00  0.00000000E+00  0.00000000E+00
  0.00000000E+00  0.00000000E+00  0.00000000E+00
  0.00000000E+00  0.00000000E+00  0.00000000E+00
  0.00000000E+00  0.00000000E+00  0.00000000E+00
  0.00000000E+00  0.00000000E+00  0.00000000E+00
  0.00000000E+00  0.00000000E+00  0.00000000E+00
  0.00000000E+00  0.00000000E+00  0.00000000E+00
  0.00000000E+00  0.00000000E+00  0.00000000E+00
  0.00000000E+00  0.00000000E+00  0.00000000E+00
  0.00000000E+00  0.00000000E+00  0.00000000E+00
  0.00000000E+00  0.00000000E+00  0.00000000E+00
  0.00000000E+00  0.00000000E+00  0.00000000E+00
  0.00000000E+00  0.00000000E+00  0.00000000E+00
  0.00000000E+00  0.00000000E+00  0.00000000E+00
  0.00000000E+00  0.00000000E+00  0.00000000E+00
  0.00000000E+00  0.00000000E+00  0.00000000E+00
  0.00000000E+00  0.00000000E+00  0.00000000E+00
  0.00000000E+00  0.00000000E+00  0.00000000E+00
  0.00000000E+00  0.00000000E+00  0.00000000E+00
  0.00000000E+00  0.00000000E+00  0.00000000E+00
  0.00000000E+00  0.00000000E+00  0.00000000E+00
  0.00000000E+00  0.00000000E+00  0.00000000E+00
  0.00000000E+00  0.00000000E+00  0.00000000E+00
  0.00000000E+00  0.00000000E+00  0.00000000E+00
  0.00000000E+00  0.00000000E+00  0.00000000E+00
  0.00000000E+00  0.00000000E+00  0.00000000E+00
  0.00000000E+00  0.00000000E+00  0.00000000E+00
  0.00000000E+00  0.00000000E+00  0.00000000E+00
  0.00000000E+00  0.00000000E+00  0.00000000E+00
  0.00000000E+00  0.00000000E+00  0.00000000E+00
  0.00000000E+00  0.00000000E+00  0.00000000E+00
  0.00000000E+00  0.00000000E+00  0.00000000E+00
  0.00000000E+00  0.00000000E+00  0.00000000E+00
  0.00000000E+00  0.00000000E+00  0.00000000E+00
  0.00000000E+00  0.00000000E+00  0.00000000E+00
  0.00000000E+00  0.00000000E+00  0.00000000E+00
  0.00000000E+00  0.00000000E+00  0.00000000E+00
  0.00000000E+00  0.00000000E+00  0.00000000E+00
  0.00000000E+00  0.00000000E+00  0.00000000E+00
  0.00000000E+00  0.00000000E+00  0.00000000E+00
  0.00000000E+00  0.00000000E+00  0.00000000E+00
  0.00000000E+00  0.00000000E+00  0.00000000E+00
  0.00000000E+00  0.00000000E+00  0.00000000E+00
  0.00000000E+00  0.00000000E+00  0.00000000E+00
  0.00000000E+00  0.00000000E+00  0.00000000E+00
  0.00000000E+00  0.00000000E+00  0.00000000E+00
  0.00000000E+00  0.00000000E+00  0.00000000E+00
  0.00000000E+00  0.00000000E+00  0.00000000E+00
  0.00000000E+00  0.00000000E+00  0.00000000E+00
  0.00000000E+00  0.00000000E+00  0.00000000E+00
  0.00000000E+00  0.00000000E+00  0.00000000E+00
  0.00000000E+00  0.00000000E+00  0.00000000E+00
  0.00000000E+00  0.00000000E+00  0.00000000E+00
  0.00000000E+00  0.00000000E+00  0.00000000E+00
  0.00000000E+00  0.00000000E+00  0.00000000E+00
  0.00000000E+00  0.00000000E+00  0.00000000E+00
  0.00000000E+00  0.00000000E+00  0.00000000E+00
  0.00000000E+00  0.00000000E+00  0.00000000E+00
  0.00000000E+00  0.00000000E+00  0.00000000E+00
  0.00000000E+00  0.00000000E+00  0.00000000E+00
  0.00000000E+00  0.00000000E+00  0.00000000E+00
  0.00000000E+00  0.00000000E+00  0.00000000E+00
  0.00000000E+00  0.00000000E+00  0.00000000E+00
  0.00000000E+00  0.00000000E+00  0.00000000E+00
  0.00000000E+00  0.00000000E+00  0.00000000E+00
  0.00000000E+00  0.00000000E+00  0.00000000E+00
  0.00000000E+00  0.00000000E+00  0.00000000E+00
  0.00000000E+00  0.00000000E+00  0.00000000E+00
  0.00000000E+00  0.00000000E+00  0.00000000E+00
  0.00000000E+00  0.00000000E+00  0.00000000E+00
  0.00000000E+00  0.00000000E+00  0.00000000E+00
  0.00000000E+00  0.00000000E+00  0.00000000E+00
  0.00000000E+00  0.00000000E+00  0.00000000E+00
  0.00000000E+00  0.00000000E+00  0.00000000E+00
  0.00000000E+00  0.00000000E+00  0.00000000E+00
  0.00000000E+00  0.00000000E+00  0.00000000E+00
  0.00000000E+00  0.00000000E+00  0.00000000E+00
  0.00000000E+00  0.00000000E+00  0.00000000E+00
  0.00000000E+00  0.00000000E+00  0.00000000E+00
  0.00000000E+00  0.00000000E+00  0.00000000E+00
  0.00000000E+00  0.00000000E+00  0.00000000E+00
  0.00000000E+00  0.00000000E+00  0.00000000E+00
  0.00000000E+00  0.00000000E+00  0.00000000E+00
  0.00000000E+00  0.00000000E+00  0.00000000E+00
  0.00000000E+00  0.00000000E+00  0.00000000E+00
  0.00000000E+00  0.00000000E+00  0.00000000E+00
  0.00000000E+00  0.00000000E+00  0.00000000E+00
  0.00000000E+00  0.00000000E+00  0.00000000E+00
  0.00000000E+00  0.00000000E+00  0.00000000E+00
  0.00000000E+00  0.00000000E+00  0.00000000E+00
  0.00000000E+00  0.00000000E+00  0.00000000E+00
  0.00000000E+00  0.00000000E+00  0.00000000E+00
  0.00000000E+00  0.00000000E+00  0.00000000E+00
  0.00000000E+00  0.00000000E+00  0.00000000E+00
  0.00000000E+00  0.00000000E+00  0.00000000E+00
  0.00000000E+00  0.00000000E+00  0.00000000E+00
  0.00000000E+00  0.00000000E+00  0.00000000E+00
  0.00000000E+00  0.00000000E+00  0.00000000E+00
  0.00000000E+00  0.00000000E+00  0.00000000E+00
  0.00000000E+00  0.00000000E+00  0.00000000E+00
  0.00000000E+00  0.00000000E+00  0.00000000E+00
