Nb1 C126 O1                             
   1.00000000000000     
    19.8314118290034358    0.0004414346871713   -0.0199932527718868
    -9.9154989058602663   17.0845138536779935   -0.0937606495480186
    -0.0298585984796612   -0.1801246675842132   29.7000119054369129
   Nb   C    O 
     1   126     1
Direct
  0.4334731977847098  0.5016544808502671  0.4376752032391654
  0.0412927441276266  0.0831779460980194  0.3994400033316913
  0.0405248319185671  0.2076887436103264  0.3989827382831208
  0.0403730962380838  0.3327393828163775  0.3989321818593174
  0.0407781049982870  0.4583383013339083  0.3992436539655190
  0.0416356903138654  0.5837961593733363  0.3998970411512481
  0.0421987951640172  0.7090674493614331  0.4001438443994705
  0.0423597894591705  0.8342967608972401  0.4000910901028480
  0.0421875717911242  0.9590510413822511  0.3998430713879207
  0.1671888288129726  0.0845637422273210  0.3996476444813209
  0.1657201573001828  0.2081297429185298  0.3992834773380270
  0.1647809350275543  0.3326899511435561  0.3992963279927104
  0.1643831915267815  0.4582492366586546  0.3986776055291438
  0.1654135982703082  0.5837122790616998  0.3987196914608254
  0.1665842641737597  0.7091588035375650  0.3996328460949070
  0.1671258083957404  0.8344076009187248  0.4000314524271105
  0.1673044404756553  0.9595467372918131  0.3999087574785443
  0.2925184304036108  0.0848685999631688  0.3997142298973634
  0.2929077752603250  0.2107122170994959  0.4009846588403718
  0.2895624144557917  0.3335224539163258  0.4040460198854708
  0.2874039036358970  0.4570096029094939  0.4041454751886973
  0.2892380269897326  0.5841161819288502  0.3994619885050409
  0.2909258155892067  0.7092219012048976  0.3986955153506425
  0.2916082318215178  0.8342182301550995  0.3996088999893683
  0.2921015309560502  0.9594537984606095  0.3998173653929210
  0.4170987520484335  0.0840577130491941  0.3995665186390457
  0.4177141855210432  0.2095644953008696  0.3995873742479355
  0.4196658247610632  0.3367226156594375  0.4035901120945584
  0.4123567271767767  0.5860576981209028  0.4076299252856929
  0.4155087379907191  0.7090029387014062  0.3990445065679129
  0.4163505928108978  0.8338737607805093  0.3990619509041167
  0.4167829315221044  0.9589311679524760  0.3997825116618531
  0.5418721496365403  0.0831225461459089  0.3997953485474772
  0.5423141333672564  0.2082058636115915  0.3992748773304197
  0.5431442305447390  0.3331552528740980  0.3991008041927548
  0.5461530603226887  0.4577425396818185  0.4017461061392660
  0.5455901863622674  0.5811249235951803  0.4057373222108303
  0.5408300598505632  0.7064366028514424  0.4024549878406303
  0.5409718817533713  0.8323174791991399  0.3995241869573846
  0.5414223984667136  0.9578131626764728  0.3997001877104399
  0.6664221994298294  0.0825841312071271  0.4000012982699982
  0.6668645177367907  0.2078019340246914  0.3998187006187072
  0.6676937799786109  0.3329779595803121  0.3991287181724154
  0.6695840482013806  0.4583740590517608  0.3983296759829503
  0.6704567358309489  0.5839420737779104  0.3986180049063678
  0.6669880631394458  0.7072410523488425  0.3994566039522801
  0.6662310170747614  0.8319690906134019  0.3997197026674755
  0.6662071521111895  0.9572943092500419  0.3998550969791555
  0.7911263397535330  0.0824136832207639  0.4000069408967324
  0.7913955660321389  0.2076430020507602  0.4001110164475238
  0.7920182655211773  0.3329793311803805  0.4000288914565499
  0.7931510275952581  0.4583903481339314  0.3995110289100525
  0.7938585532164276  0.5836536432409072  0.3988712476921369
  0.7931520380384608  0.7088885223497943  0.3989228672132751
  0.7917658847813880  0.8328674814169188  0.3993804817984742
  0.7911590647994484  0.9573729822706891  0.3997965663386407
  0.9159687282589826  0.0826025414068128  0.3997319516972350
  0.9158987142060889  0.2075740091230180  0.3996910910604750
  0.9162495992845608  0.3329275129090317  0.3998831531622216
  0.9169396410029361  0.4583281575149545  0.4001366598525135
  0.9177110978121049  0.5837953355311015  0.4000346063152604
  0.9177760607780203  0.7090118580117385  0.3997742910295069
  0.9174374467421981  0.8338234258834895  0.3997746796818785
  0.9165496255694670  0.9581146322722993  0.3998483763335949
  0.0837147035322088  0.0424103629923792  0.3995911114447379
  0.0825397371469443  0.1663139713961466  0.3990287858462343
  0.0817470322034567  0.2909320949213276  0.3987830964443109
  0.0817603195979669  0.4164270545276415  0.3987070807598678
  0.0825427454657060  0.5418429315527467  0.3992745838900461
  0.0834516580767288  0.6672841893948321  0.3999564154689929
  0.0839048123053922  0.7925908953685342  0.4001366366685429
  0.0839880934145693  0.9176655869551783  0.3999742663677093
  0.2090206687239768  0.0429406128401898  0.3997895200051714
  0.2087510131527344  0.1679060004571961  0.3999157655527739
  0.2065674050955035  0.2911751073727995  0.3999660122305993
  0.2051749094357132  0.4160270253755244  0.3998855943635730
  0.2061987670203595  0.5418711479327056  0.3986127760748627
  0.2077389083333115  0.6674238083813367  0.3989982701551057
  0.2084604315956307  0.7926295507527672  0.3998038660662732
  0.2088426738961164  0.9178090782364127  0.3999440111023855
  0.3338915042418399  0.0428616111619879  0.3996452571110216
  0.3343575816932443  0.1682827626889362  0.4000309778100993
  0.3345043201761640  0.2938990270274284  0.4037693833849962
  0.3264058860719610  0.4144488829247719  0.4090968209835921
  0.3305785248060085  0.5432821150938481  0.4036449237792505
  0.3321833450203619  0.6674458454843885  0.3987341271504837
  0.3329592656376004  0.7924853276382795  0.3990803473154670
  0.3334852514457096  0.9176103625022285  0.3997886911654352
  0.4585442903961680  0.0421242061674160  0.3997581550656117
  0.4589754320084546  0.1673652808505933  0.3993216490451592
  0.4598182754550604  0.2930427780895088  0.4000808703118524
  0.4647385766403291  0.4194658688766250  0.4066674738845670
  0.4562481678617143  0.6667485681159159  0.4025393726430774
  0.4577011220191413  0.7920503169507300  0.3988626139567735
  0.4582371509130043  0.9170352557457042  0.3995854361657455
  0.5832411737360117  0.0411856885186509  0.3998831236402360
  0.5836953991245326  0.1664068803858145  0.3996285400545525
  0.5843179752296963  0.2913065467473527  0.3989591052537343
  0.5865714931396946  0.4162448431351192  0.3988757993976045
  0.5885782370341673  0.5425402556953153  0.4013799436454451
  0.5832059451563322  0.6637057163961256  0.4024567584945383
  0.5823703639441131  0.7895608443684823  0.4002469332101646
  0.5827417854774700  0.9156548192696387  0.3996569611293566
  0.7078666131017448  0.0406902152899168  0.3999905407935552
  0.7081562691553481  0.1659630688882127  0.4000458055691758
  0.7088430309153317  0.2912306643843686  0.3997053730712485
  0.7102793500072279  0.4165541812689648  0.3988684777805998
  0.7113313891452366  0.5418147843103613  0.3982914457029685
  0.7101314853324292  0.6670350717236289  0.3987765288360529
  0.7083266993641794  0.7906899606032236  0.3993003974737121
  0.7077896595283163  0.9153771984005326  0.3997467645760985
  0.8327507222318685  0.0407723360497502  0.3999013158304731
  0.8327995214719860  0.1658166400976692  0.4000116545545866
  0.8332176949554482  0.2911714139530954  0.4001206823755896
  0.8340114203976530  0.4164512997629648  0.4000259582630981
  0.8348912176627477  0.5418426038419285  0.3995183797065564
  0.8348606432580226  0.6672397511888341  0.3991595242683711
  0.8342557250513304  0.7920092454430266  0.3993571604008956
  0.8331850237184808  0.9161830798528959  0.3997364762912546
  0.9579625248093678  0.0412955216649817  0.3997167000064836
  0.9574518889922852  0.1659720138212965  0.3994455035917920
  0.9574901532249739  0.2910215778639383  0.3994966226044872
  0.9579236271632967  0.4164109308171537  0.3998394338659754
  0.9587417259080049  0.5419089366326918  0.4001517341064985
  0.9591846969160258  0.6672584973716964  0.4000431921958741
  0.9592238108888773  0.7924426428957720  0.3999267009446543
  0.9588880956309163  0.9171149178141605  0.3998783522676460
  0.4502088710229441  0.5052250420762334  0.4965210625439046
 
  0.00000000E+00  0.00000000E+00  0.00000000E+00
  0.00000000E+00  0.00000000E+00  0.00000000E+00
  0.00000000E+00  0.00000000E+00  0.00000000E+00
  0.00000000E+00  0.00000000E+00  0.00000000E+00
  0.00000000E+00  0.00000000E+00  0.00000000E+00
  0.00000000E+00  0.00000000E+00  0.00000000E+00
  0.00000000E+00  0.00000000E+00  0.00000000E+00
  0.00000000E+00  0.00000000E+00  0.00000000E+00
  0.00000000E+00  0.00000000E+00  0.00000000E+00
  0.00000000E+00  0.00000000E+00  0.00000000E+00
  0.00000000E+00  0.00000000E+00  0.00000000E+00
  0.00000000E+00  0.00000000E+00  0.00000000E+00
  0.00000000E+00  0.00000000E+00  0.00000000E+00
  0.00000000E+00  0.00000000E+00  0.00000000E+00
  0.00000000E+00  0.00000000E+00  0.00000000E+00
  0.00000000E+00  0.00000000E+00  0.00000000E+00
  0.00000000E+00  0.00000000E+00  0.00000000E+00
  0.00000000E+00  0.00000000E+00  0.00000000E+00
  0.00000000E+00  0.00000000E+00  0.00000000E+00
  0.00000000E+00  0.00000000E+00  0.00000000E+00
  0.00000000E+00  0.00000000E+00  0.00000000E+00
  0.00000000E+00  0.00000000E+00  0.00000000E+00
  0.00000000E+00  0.00000000E+00  0.00000000E+00
  0.00000000E+00  0.00000000E+00  0.00000000E+00
  0.00000000E+00  0.00000000E+00  0.00000000E+00
  0.00000000E+00  0.00000000E+00  0.00000000E+00
  0.00000000E+00  0.00000000E+00  0.00000000E+00
  0.00000000E+00  0.00000000E+00  0.00000000E+00
  0.00000000E+00  0.00000000E+00  0.00000000E+00
  0.00000000E+00  0.00000000E+00  0.00000000E+00
  0.00000000E+00  0.00000000E+00  0.00000000E+00
  0.00000000E+00  0.00000000E+00  0.00000000E+00
  0.00000000E+00  0.00000000E+00  0.00000000E+00
  0.00000000E+00  0.00000000E+00  0.00000000E+00
  0.00000000E+00  0.00000000E+00  0.00000000E+00
  0.00000000E+00  0.00000000E+00  0.00000000E+00
  0.00000000E+00  0.00000000E+00  0.00000000E+00
  0.00000000E+00  0.00000000E+00  0.00000000E+00
  0.00000000E+00  0.00000000E+00  0.00000000E+00
  0.00000000E+00  0.00000000E+00  0.00000000E+00
  0.00000000E+00  0.00000000E+00  0.00000000E+00
  0.00000000E+00  0.00000000E+00  0.00000000E+00
  0.00000000E+00  0.00000000E+00  0.00000000E+00
  0.00000000E+00  0.00000000E+00  0.00000000E+00
  0.00000000E+00  0.00000000E+00  0.00000000E+00
  0.00000000E+00  0.00000000E+00  0.00000000E+00
  0.00000000E+00  0.00000000E+00  0.00000000E+00
  0.00000000E+00  0.00000000E+00  0.00000000E+00
  0.00000000E+00  0.00000000E+00  0.00000000E+00
  0.00000000E+00  0.00000000E+00  0.00000000E+00
  0.00000000E+00  0.00000000E+00  0.00000000E+00
  0.00000000E+00  0.00000000E+00  0.00000000E+00
  0.00000000E+00  0.00000000E+00  0.00000000E+00
  0.00000000E+00  0.00000000E+00  0.00000000E+00
  0.00000000E+00  0.00000000E+00  0.00000000E+00
  0.00000000E+00  0.00000000E+00  0.00000000E+00
  0.00000000E+00  0.00000000E+00  0.00000000E+00
  0.00000000E+00  0.00000000E+00  0.00000000E+00
  0.00000000E+00  0.00000000E+00  0.00000000E+00
  0.00000000E+00  0.00000000E+00  0.00000000E+00
  0.00000000E+00  0.00000000E+00  0.00000000E+00
  0.00000000E+00  0.00000000E+00  0.00000000E+00
  0.00000000E+00  0.00000000E+00  0.00000000E+00
  0.00000000E+00  0.00000000E+00  0.00000000E+00
  0.00000000E+00  0.00000000E+00  0.00000000E+00
  0.00000000E+00  0.00000000E+00  0.00000000E+00
  0.00000000E+00  0.00000000E+00  0.00000000E+00
  0.00000000E+00  0.00000000E+00  0.00000000E+00
  0.00000000E+00  0.00000000E+00  0.00000000E+00
  0.00000000E+00  0.00000000E+00  0.00000000E+00
  0.00000000E+00  0.00000000E+00  0.00000000E+00
  0.00000000E+00  0.00000000E+00  0.00000000E+00
  0.00000000E+00  0.00000000E+00  0.00000000E+00
  0.00000000E+00  0.00000000E+00  0.00000000E+00
  0.00000000E+00  0.00000000E+00  0.00000000E+00
  0.00000000E+00  0.00000000E+00  0.00000000E+00
  0.00000000E+00  0.00000000E+00  0.00000000E+00
  0.00000000E+00  0.00000000E+00  0.00000000E+00
  0.00000000E+00  0.00000000E+00  0.00000000E+00
  0.00000000E+00  0.00000000E+00  0.00000000E+00
  0.00000000E+00  0.00000000E+00  0.00000000E+00
  0.00000000E+00  0.00000000E+00  0.00000000E+00
  0.00000000E+00  0.00000000E+00  0.00000000E+00
  0.00000000E+00  0.00000000E+00  0.00000000E+00
  0.00000000E+00  0.00000000E+00  0.00000000E+00
  0.00000000E+00  0.00000000E+00  0.00000000E+00
  0.00000000E+00  0.00000000E+00  0.00000000E+00
  0.00000000E+00  0.00000000E+00  0.00000000E+00
  0.00000000E+00  0.00000000E+00  0.00000000E+00
  0.00000000E+00  0.00000000E+00  0.00000000E+00
  0.00000000E+00  0.00000000E+00  0.00000000E+00
  0.00000000E+00  0.00000000E+00  0.00000000E+00
  0.00000000E+00  0.00000000E+00  0.00000000E+00
  0.00000000E+00  0.00000000E+00  0.00000000E+00
  0.00000000E+00  0.00000000E+00  0.00000000E+00
  0.00000000E+00  0.00000000E+00  0.00000000E+00
  0.00000000E+00  0.00000000E+00  0.00000000E+00
  0.00000000E+00  0.00000000E+00  0.00000000E+00
  0.00000000E+00  0.00000000E+00  0.00000000E+00
  0.00000000E+00  0.00000000E+00  0.00000000E+00
  0.00000000E+00  0.00000000E+00  0.00000000E+00
  0.00000000E+00  0.00000000E+00  0.00000000E+00
  0.00000000E+00  0.00000000E+00  0.00000000E+00
  0.00000000E+00  0.00000000E+00  0.00000000E+00
  0.00000000E+00  0.00000000E+00  0.00000000E+00
  0.00000000E+00  0.00000000E+00  0.00000000E+00
  0.00000000E+00  0.00000000E+00  0.00000000E+00
  0.00000000E+00  0.00000000E+00  0.00000000E+00
  0.00000000E+00  0.00000000E+00  0.00000000E+00
  0.00000000E+00  0.00000000E+00  0.00000000E+00
  0.00000000E+00  0.00000000E+00  0.00000000E+00
  0.00000000E+00  0.00000000E+00  0.00000000E+00
  0.00000000E+00  0.00000000E+00  0.00000000E+00
  0.00000000E+00  0.00000000E+00  0.00000000E+00
  0.00000000E+00  0.00000000E+00  0.00000000E+00
  0.00000000E+00  0.00000000E+00  0.00000000E+00
  0.00000000E+00  0.00000000E+00  0.00000000E+00
  0.00000000E+00  0.00000000E+00  0.00000000E+00
  0.00000000E+00  0.00000000E+00  0.00000000E+00
  0.00000000E+00  0.00000000E+00  0.00000000E+00
  0.00000000E+00  0.00000000E+00  0.00000000E+00
  0.00000000E+00  0.00000000E+00  0.00000000E+00
  0.00000000E+00  0.00000000E+00  0.00000000E+00
  0.00000000E+00  0.00000000E+00  0.00000000E+00
  0.00000000E+00  0.00000000E+00  0.00000000E+00
  0.00000000E+00  0.00000000E+00  0.00000000E+00
  0.00000000E+00  0.00000000E+00  0.00000000E+00
  0.00000000E+00  0.00000000E+00  0.00000000E+00
