Zn1 H1 C123 N3                          
   1.00000000000000     
    19.8173835954714548    0.0165929478446166   -0.1019849139697823
    -9.8942323336164897   17.0269004571266542    0.0969530008353008
    -0.1534504929020671    0.0804886456337344   29.8073654676298112
   Zn   H    C    N 
     1     1   123     3
Direct
  0.4380830125612319  0.4967884076859687  0.4346495478444105
  0.4315507092352437  0.5131574508038134  0.4852124644670166
  0.0417312925820310  0.0839010419687502  0.3998356850156706
  0.0403305416382260  0.2077508689580268  0.3994304701302254
  0.0397789958262442  0.3325324342704764  0.3985284910253280
  0.0402763485538918  0.4580448630145903  0.3985303615612830
  0.0415606844283017  0.5836956691773861  0.3992007249889837
  0.0425563906487908  0.7092474761582377  0.3994656948960751
  0.0429512358416372  0.8347209514163085  0.3994558657055646
  0.0428185438773445  0.9597899938181507  0.3996609487416384
  0.1679824344392510  0.0857888810892457  0.4006831063261990
  0.1665379627698783  0.2095979848467441  0.4011185953334657
  0.1642893138436987  0.3330635025255901  0.3999880752261810
  0.1637601687554566  0.4579761858419035  0.3982316388324934
  0.1653180030818109  0.5833308345270011  0.3987676960568848
  0.1666801833921927  0.7089679154068012  0.3995627595589352
  0.1674937904540894  0.8345984381999898  0.3997567426779267
  0.1678907584730710  0.9602725619511178  0.3999516861785113
  0.2928950382160370  0.0860112498024182  0.4006864847182798
  0.2936609447896001  0.2132579998865471  0.4029606409762152
  0.2907703740565726  0.3379480829337846  0.4050832560177525
  0.2868767987224979  0.4561462685391968  0.4021498280443857
  0.2887987229409916  0.5827108093130079  0.3998194934464508
  0.2907474690896708  0.7082219397828170  0.3998335620016218
  0.2918512657986485  0.8338183701555096  0.3999050209701429
  0.2923888955934154  0.9597381289922776  0.3999665310705866
  0.4172158457345517  0.0841689432499692  0.3999703419287702
  0.4178789043536572  0.2104303838991800  0.4008196553887797
  0.4205478427630932  0.3383237853477254  0.4058143244038420
  0.4147103552750468  0.7054205958437236  0.4014472052921363
  0.4161560565510091  0.8319568895304563  0.4002929800569460
  0.4167300663735476  0.9580795434290642  0.3999328085377836
  0.5415282373379326  0.0824743300034045  0.3998080674275405
  0.5421643895753377  0.2083370402903712  0.3996005514282409
  0.5433901768500410  0.3341633943313255  0.3998371199500246
  0.5459392595697254  0.4589927245205984  0.4031762977758307
  0.5386332042893649  0.7010437482875004  0.4035840010255570
  0.5402505379874432  0.8295302156085010  0.4012775060260415
  0.5410372353073362  0.9562732943119739  0.4001628026553741
  0.6658709677093108  0.0816102817138914  0.3999080823459694
  0.6664811334964386  0.2073415897634130  0.3996733364212934
  0.6674386317583465  0.3329749758576147  0.3991031005490911
  0.6694309686675763  0.4586062062251381  0.3984297239471195
  0.6711498832948430  0.5845648328041269  0.3999677900630769
  0.6679601264891276  0.7070919268536674  0.4017407350952901
  0.6649858849687560  0.8299223584043977  0.4014346922526385
  0.6654490250979489  0.9558253336012676  0.4004105696526893
  0.7904847544868151  0.0815819484703914  0.3997982590420436
  0.7907925941971169  0.2069994064937850  0.3995950606681068
  0.7915505830714992  0.3326188257328369  0.3994987895500611
  0.7929368828419535  0.4583739803761089  0.3991224758127178
  0.7940262682799123  0.5839184382989550  0.3989425186510704
  0.7941456633277321  0.7092568205888814  0.3997642607380043
  0.7920281705473087  0.8327832849890363  0.4002561384289169
  0.7904817653549246  0.9564843477553445  0.4001273749703145
  0.9156472895794638  0.0822652362497857  0.3995541954786642
  0.9153078881450455  0.2071294480575971  0.3992116945510346
  0.9156147714672499  0.3325334017140595  0.3990853494279478
  0.9165861818015231  0.4581199332150696  0.3992832360931204
  0.9177913992704954  0.5838347537898516  0.3992908841880170
  0.9183639293309779  0.7093486813400164  0.3992979181796055
  0.9180376064297227  0.8343012212929164  0.3995201581376246
  0.9168415053118657  0.9583115260825895  0.3996830323758098
  0.0844259604322322  0.0433392466523704  0.4000088702993919
  0.0830704332372212  0.1672177436077130  0.4000112894067606
  0.0812204548191666  0.2909542440182443  0.3990971345571802
  0.0812036492278463  0.4161481742218234  0.3981748850959095
  0.0823712865975358  0.5416361892797377  0.3987583750588761
  0.0836153796706927  0.6672878402526575  0.3994433325066733
  0.0843926902157064  0.7929480785286523  0.3995396063090057
  0.0846076378722413  0.9183343243403993  0.3996635534184582
  0.2096116438123698  0.0439561787243599  0.4004748802319776
  0.2096395870163207  0.1695621004025016  0.4016964089970487
  0.2072526201598978  0.2929855709096075  0.4017512147725583
  0.2045583088859138  0.4161728922232839  0.3993780633148326
  0.2059517861053621  0.5413270331507111  0.3986083117454736
  0.2077157802180494  0.6669494327636407  0.3993730163675495
  0.2087099817382977  0.7925236134259172  0.3997948405901900
  0.2092675060157985  0.9182513486160396  0.3998978086262944
  0.3340772773838880  0.0434438924032126  0.4001371391766044
  0.3347455016800885  0.1700027063065710  0.4016097342864904
  0.3358724860503297  0.2975190367641863  0.4055536439948998
  0.3309622612096641  0.5422732055463082  0.4017896887707152
  0.3316836734510437  0.6658729963334155  0.4003424172761532
  0.3330134410549582  0.7915432243626733  0.4000232324296675
  0.3336621281570092  0.9173704356830298  0.3999342214189104
  0.4584460430308458  0.0416594576180965  0.3998636216629173
  0.4590000504827596  0.1676957018353262  0.3999538650312017
  0.4600596408242044  0.2940602937155795  0.4014569817339645
  0.4657484578356346  0.4211644909520407  0.4102293196653539
  0.4532966286378057  0.6598661014974853  0.4033646783886763
  0.4572161927439030  0.7891861984926393  0.4009635762200053
  0.4579449387953815  0.9155264589461162  0.4000964019997060
  0.5827612792495909  0.0400649806817411  0.3999337376821768
  0.5833411205435984  0.1660654504959242  0.3996562500010817
  0.5843137287330752  0.2918445272881378  0.3993262686646289
  0.5867628031624904  0.4175323438873291  0.3992836622653865
  0.5889987061655917  0.5444018500215523  0.4026105306695924
  0.5843320329724145  0.6617384569114234  0.4039104318309705
  0.5807569294198618  0.7857795172722015  0.4021585674820291
  0.5821647205316195  0.9136547407486501  0.4005876312573385
  0.7072342986677284  0.0395690307120365  0.4000135987781723
  0.7076935339762135  0.1653194187888320  0.3997801202144466
  0.7084400589583825  0.2909197648196460  0.3994573136529429
  0.7100524681817859  0.4166108674928113  0.3987872783439723
  0.7115123250639348  0.5421876008366832  0.3988107683321539
  0.7112372550499021  0.6673408998005091  0.4004840114187240
  0.7084329266306116  0.7902996684418429  0.4011486077132313
  0.7068300439506877  0.9138798166824063  0.4006322722920282
  0.8322019648503064  0.0400941418589591  0.3997837681429298
  0.8321557082011772  0.1652083169111561  0.3995214310740113
  0.8326655603965083  0.2907030189873285  0.3994638572486023
  0.8337343493921736  0.4163088384664024  0.3993819224210953
  0.8349755868157080  0.5419503341404941  0.3990685270543098
  0.8354384989734768  0.6675057248736055  0.3992838067255437
  0.8348628619654676  0.7923710028548266  0.3998496311685822
  0.8333101464280008  0.9160545815243558  0.3999884807292284
  0.9582121281119431  0.0416423848648605  0.3996257351160239
  0.9571118371565882  0.1657040975728394  0.3993151310611282
  0.9568490671906256  0.2906797762757809  0.3988667805363506
  0.9574263303592850  0.4161432087887890  0.3989932656485915
  0.9586908384780232  0.5418701598243513  0.3992907545612138
  0.9596066374829011  0.6674718296620678  0.3993250997667278
  0.9598236860084677  0.7928412095929562  0.3993779960008429
  0.9594244329822769  0.9176852650355594  0.3995661873205114
  0.4093170999296540  0.5797181068834369  0.4044804601754487
  0.5488969105601050  0.5824929036635864  0.4055886903660201
  0.3257758295937949  0.4174339923723937  0.4067389006011815
 
  0.00000000E+00  0.00000000E+00  0.00000000E+00
  0.00000000E+00  0.00000000E+00  0.00000000E+00
  0.00000000E+00  0.00000000E+00  0.00000000E+00
  0.00000000E+00  0.00000000E+00  0.00000000E+00
  0.00000000E+00  0.00000000E+00  0.00000000E+00
  0.00000000E+00  0.00000000E+00  0.00000000E+00
  0.00000000E+00  0.00000000E+00  0.00000000E+00
  0.00000000E+00  0.00000000E+00  0.00000000E+00
  0.00000000E+00  0.00000000E+00  0.00000000E+00
  0.00000000E+00  0.00000000E+00  0.00000000E+00
  0.00000000E+00  0.00000000E+00  0.00000000E+00
  0.00000000E+00  0.00000000E+00  0.00000000E+00
  0.00000000E+00  0.00000000E+00  0.00000000E+00
  0.00000000E+00  0.00000000E+00  0.00000000E+00
  0.00000000E+00  0.00000000E+00  0.00000000E+00
  0.00000000E+00  0.00000000E+00  0.00000000E+00
  0.00000000E+00  0.00000000E+00  0.00000000E+00
  0.00000000E+00  0.00000000E+00  0.00000000E+00
  0.00000000E+00  0.00000000E+00  0.00000000E+00
  0.00000000E+00  0.00000000E+00  0.00000000E+00
  0.00000000E+00  0.00000000E+00  0.00000000E+00
  0.00000000E+00  0.00000000E+00  0.00000000E+00
  0.00000000E+00  0.00000000E+00  0.00000000E+00
  0.00000000E+00  0.00000000E+00  0.00000000E+00
  0.00000000E+00  0.00000000E+00  0.00000000E+00
  0.00000000E+00  0.00000000E+00  0.00000000E+00
  0.00000000E+00  0.00000000E+00  0.00000000E+00
  0.00000000E+00  0.00000000E+00  0.00000000E+00
  0.00000000E+00  0.00000000E+00  0.00000000E+00
  0.00000000E+00  0.00000000E+00  0.00000000E+00
  0.00000000E+00  0.00000000E+00  0.00000000E+00
  0.00000000E+00  0.00000000E+00  0.00000000E+00
  0.00000000E+00  0.00000000E+00  0.00000000E+00
  0.00000000E+00  0.00000000E+00  0.00000000E+00
  0.00000000E+00  0.00000000E+00  0.00000000E+00
  0.00000000E+00  0.00000000E+00  0.00000000E+00
  0.00000000E+00  0.00000000E+00  0.00000000E+00
  0.00000000E+00  0.00000000E+00  0.00000000E+00
  0.00000000E+00  0.00000000E+00  0.00000000E+00
  0.00000000E+00  0.00000000E+00  0.00000000E+00
  0.00000000E+00  0.00000000E+00  0.00000000E+00
  0.00000000E+00  0.00000000E+00  0.00000000E+00
  0.00000000E+00  0.00000000E+00  0.00000000E+00
  0.00000000E+00  0.00000000E+00  0.00000000E+00
  0.00000000E+00  0.00000000E+00  0.00000000E+00
  0.00000000E+00  0.00000000E+00  0.00000000E+00
  0.00000000E+00  0.00000000E+00  0.00000000E+00
  0.00000000E+00  0.00000000E+00  0.00000000E+00
  0.00000000E+00  0.00000000E+00  0.00000000E+00
  0.00000000E+00  0.00000000E+00  0.00000000E+00
  0.00000000E+00  0.00000000E+00  0.00000000E+00
  0.00000000E+00  0.00000000E+00  0.00000000E+00
  0.00000000E+00  0.00000000E+00  0.00000000E+00
  0.00000000E+00  0.00000000E+00  0.00000000E+00
  0.00000000E+00  0.00000000E+00  0.00000000E+00
  0.00000000E+00  0.00000000E+00  0.00000000E+00
  0.00000000E+00  0.00000000E+00  0.00000000E+00
  0.00000000E+00  0.00000000E+00  0.00000000E+00
  0.00000000E+00  0.00000000E+00  0.00000000E+00
  0.00000000E+00  0.00000000E+00  0.00000000E+00
  0.00000000E+00  0.00000000E+00  0.00000000E+00
  0.00000000E+00  0.00000000E+00  0.00000000E+00
  0.00000000E+00  0.00000000E+00  0.00000000E+00
  0.00000000E+00  0.00000000E+00  0.00000000E+00
  0.00000000E+00  0.00000000E+00  0.00000000E+00
  0.00000000E+00  0.00000000E+00  0.00000000E+00
  0.00000000E+00  0.00000000E+00  0.00000000E+00
  0.00000000E+00  0.00000000E+00  0.00000000E+00
  0.00000000E+00  0.00000000E+00  0.00000000E+00
  0.00000000E+00  0.00000000E+00  0.00000000E+00
  0.00000000E+00  0.00000000E+00  0.00000000E+00
  0.00000000E+00  0.00000000E+00  0.00000000E+00
  0.00000000E+00  0.00000000E+00  0.00000000E+00
  0.00000000E+00  0.00000000E+00  0.00000000E+00
  0.00000000E+00  0.00000000E+00  0.00000000E+00
  0.00000000E+00  0.00000000E+00  0.00000000E+00
  0.00000000E+00  0.00000000E+00  0.00000000E+00
  0.00000000E+00  0.00000000E+00  0.00000000E+00
  0.00000000E+00  0.00000000E+00  0.00000000E+00
  0.00000000E+00  0.00000000E+00  0.00000000E+00
  0.00000000E+00  0.00000000E+00  0.00000000E+00
  0.00000000E+00  0.00000000E+00  0.00000000E+00
  0.00000000E+00  0.00000000E+00  0.00000000E+00
  0.00000000E+00  0.00000000E+00  0.00000000E+00
  0.00000000E+00  0.00000000E+00  0.00000000E+00
  0.00000000E+00  0.00000000E+00  0.00000000E+00
  0.00000000E+00  0.00000000E+00  0.00000000E+00
  0.00000000E+00  0.00000000E+00  0.00000000E+00
  0.00000000E+00  0.00000000E+00  0.00000000E+00
  0.00000000E+00  0.00000000E+00  0.00000000E+00
  0.00000000E+00  0.00000000E+00  0.00000000E+00
  0.00000000E+00  0.00000000E+00  0.00000000E+00
  0.00000000E+00  0.00000000E+00  0.00000000E+00
  0.00000000E+00  0.00000000E+00  0.00000000E+00
  0.00000000E+00  0.00000000E+00  0.00000000E+00
  0.00000000E+00  0.00000000E+00  0.00000000E+00
  0.00000000E+00  0.00000000E+00  0.00000000E+00
  0.00000000E+00  0.00000000E+00  0.00000000E+00
  0.00000000E+00  0.00000000E+00  0.00000000E+00
  0.00000000E+00  0.00000000E+00  0.00000000E+00
  0.00000000E+00  0.00000000E+00  0.00000000E+00
  0.00000000E+00  0.00000000E+00  0.00000000E+00
  0.00000000E+00  0.00000000E+00  0.00000000E+00
  0.00000000E+00  0.00000000E+00  0.00000000E+00
  0.00000000E+00  0.00000000E+00  0.00000000E+00
  0.00000000E+00  0.00000000E+00  0.00000000E+00
  0.00000000E+00  0.00000000E+00  0.00000000E+00
  0.00000000E+00  0.00000000E+00  0.00000000E+00
  0.00000000E+00  0.00000000E+00  0.00000000E+00
  0.00000000E+00  0.00000000E+00  0.00000000E+00
  0.00000000E+00  0.00000000E+00  0.00000000E+00
  0.00000000E+00  0.00000000E+00  0.00000000E+00
  0.00000000E+00  0.00000000E+00  0.00000000E+00
  0.00000000E+00  0.00000000E+00  0.00000000E+00
  0.00000000E+00  0.00000000E+00  0.00000000E+00
  0.00000000E+00  0.00000000E+00  0.00000000E+00
  0.00000000E+00  0.00000000E+00  0.00000000E+00
  0.00000000E+00  0.00000000E+00  0.00000000E+00
  0.00000000E+00  0.00000000E+00  0.00000000E+00
  0.00000000E+00  0.00000000E+00  0.00000000E+00
  0.00000000E+00  0.00000000E+00  0.00000000E+00
  0.00000000E+00  0.00000000E+00  0.00000000E+00
  0.00000000E+00  0.00000000E+00  0.00000000E+00
  0.00000000E+00  0.00000000E+00  0.00000000E+00
  0.00000000E+00  0.00000000E+00  0.00000000E+00
  0.00000000E+00  0.00000000E+00  0.00000000E+00
  0.00000000E+00  0.00000000E+00  0.00000000E+00
  0.00000000E+00  0.00000000E+00  0.00000000E+00
