Zr1 H1 C126                             
   1.00000000000000     
    19.8091608480405803   -0.0004023781720005   -0.0675119879376840
    -9.9049697725559476   17.0825889456894267   -0.1459295583082985
    -0.1012631585221996   -0.3121974806653301   29.7399631436755385
   Zr   H    C 
     1     1   126
Direct
  0.4407275181022073  0.5021567833446520  0.4450729251937818
  0.4473624536442426  0.5046314211828968  0.5094199337177039
  0.0417361382255492  0.0837624190080199  0.3993446208638287
  0.0409296188775705  0.2080285397846102  0.3991205322103595
  0.0405841351254896  0.3329188067902498  0.3985419249294022
  0.0407056661156134  0.4583710137955485  0.3982894125585358
  0.0414338059075329  0.5837432129684258  0.3987523388955270
  0.0420827139141125  0.7090324450940096  0.3992766428715614
  0.0423377442418158  0.8342691591135781  0.3993838682262432
  0.0423063980307229  0.9592342323655825  0.3992786036939998
  0.1673291399232125  0.0846700992021702  0.3998636765989472
  0.1666502654075536  0.2090414485716564  0.4004696817607452
  0.1652955142728809  0.3332174433265322  0.4004388341383781
  0.1645140387700776  0.4582887196714006  0.3989029373205196
  0.1654380168887282  0.5836222996204480  0.3982193933738886
  0.1665038472963400  0.7090224357091676  0.3987315000142049
  0.1670246579157420  0.8342580154640910  0.3992371784366615
  0.1673240505673753  0.9595583166761232  0.3994162587524007
  0.2924044543356867  0.0846974837155158  0.3997952645548801
  0.2929578164260698  0.2108846428376499  0.4019654470336481
  0.2915589599740892  0.3356296942179587  0.4055232456976653
  0.2879227113254919  0.4577687786821599  0.4048336179298946
  0.2892898689259915  0.5839920526824550  0.4003362926125623
  0.2909758107004465  0.7089076214530162  0.3987515041752708
  0.2916722001873380  0.8339930017174687  0.3989120656332937
  0.2920226815212579  0.9592344210921369  0.3992555972853871
  0.4171010088481767  0.0837901122898906  0.3993239554611686
  0.4174380974389353  0.2090693969322332  0.4001603309319602
  0.4191462032911202  0.3356857253391820  0.4042822029266431
  0.4122781028280528  0.5832151310669589  0.4093141362036247
  0.4157548057642639  0.7078830813654164  0.4006383265908892
  0.4163475189880722  0.8332679797871013  0.3990724784272149
  0.4167051777027881  0.9584697924878722  0.3991271227285195
  0.5417463242656438  0.0829505202025064  0.3992438251582718
  0.5421547460571029  0.2080515377606619  0.3991273261453276
  0.5429917291280096  0.3332179282418427  0.3997476123799609
  0.5449450833139142  0.4577304785434680  0.4025762447865629
  0.5458976756919846  0.5828760859775007  0.4066994662398973
  0.5408723957519872  0.7066761756467274  0.4034161996361876
  0.5409562295419146  0.8322063629872692  0.4000310327696640
  0.5414539087447925  0.9576831894128289  0.3993377862200355
  0.6664095222202502  0.0825936195163791  0.3994415003797671
  0.6668291544506590  0.2078315329058412  0.3991973183910146
  0.6674100595275020  0.3329494049845835  0.3988186770739119
  0.6689147107218242  0.4583145502704163  0.3986388742397430
  0.6698782482171758  0.5840044816537541  0.3993579591842797
  0.6671661581827744  0.7078434854050872  0.3998973620631640
  0.6662779132558663  0.8321696334902351  0.3998991271964014
  0.6662421678769191  0.9574141262960091  0.3995673914387486
  0.7912518874572179  0.0825895057652034  0.3993942081158168
  0.7913850124655322  0.2077197948731577  0.3992657384770621
  0.7918822280558973  0.3330025403659888  0.3990799522221888
  0.7927655817602829  0.4584018062396203  0.3988118518189528
  0.7933057532304459  0.5836614153927022  0.3985269352326247
  0.7930403504259231  0.7089292472915103  0.3987143078509454
  0.7919924657298756  0.8332607737685742  0.3991008211989135
  0.7912798448305193  0.9576726622180111  0.3993470537987915
  0.9162778051899154  0.0829524384779772  0.3991908237655859
  0.9160373488885157  0.2078218849343837  0.3989705419571976
  0.9161905020957845  0.3329859695817906  0.3987805297476712
  0.9166995818968157  0.4583065837602299  0.3989058872346463
  0.9174237486651594  0.5837736049813315  0.3990992600722165
  0.9176452155656731  0.7090712649475829  0.3991406122427632
  0.9174274147215998  0.8340158206628082  0.3991149349456462
  0.9168400161971304  0.9584649839783089  0.3992068029789199
  0.0839381683311734  0.0426485281032922  0.3994317309803686
  0.0832034633024099  0.1670037973771688  0.3995052834572667
  0.0821725188354736  0.2913396936253461  0.3991055512798928
  0.0818799258357231  0.4165514700034975  0.3982820149149736
  0.0824488575327114  0.5418352652732578  0.3983219034587296
  0.0833595648445939  0.6672820501653822  0.3989392527891364
  0.0838628933069172  0.7926275297902867  0.3993430298229537
  0.0839935979559820  0.9177555218289717  0.3993478114401983
  0.2089991765913374  0.0429259570362999  0.3996899171966680
  0.2089602607575517  0.1681956553869195  0.4008124835780675
  0.2080466123609160  0.2925106623934070  0.4016432713723097
  0.2054233022426607  0.4163425200622755  0.4007642592634857
  0.2063495355705136  0.5419150588980481  0.3987850021949619
  0.2077900305736368  0.6672925649088143  0.3984475013843699
  0.2083940821995147  0.7924682621036976  0.3989784210606285
  0.2088559796288906  0.9177545114012245  0.3993193016122761
  0.3337770093524359  0.0426645154401037  0.3994072175040504
  0.3342775758156844  0.1682194004236894  0.4006116355915127
  0.3345418779120284  0.2940161581032255  0.4047590242596662
  0.3295049395122746  0.4179140797775334  0.4102331759345675
  0.3305371651497310  0.5428856963438116  0.4044412677965886
  0.3322544391315830  0.6670924594940759  0.3997796773072976
  0.3330420459188598  0.7922266740483972  0.3988233654078310
  0.3335102261784164  0.9173669470299239  0.3990851138694435
  0.4585570631130854  0.0418531946496809  0.3992129064026338
  0.4588590523708626  0.1670402808458950  0.3994155907652069
  0.4595177738678025  0.2925409331819212  0.4008078280958379
  0.4635939698529040  0.4180752844155627  0.4075397252735392
  0.4563352164995271  0.6650647670153675  0.4042562406245744
  0.4577877591137654  0.7912938394204372  0.3996650784746291
  0.4581363755321126  0.9165322326441459  0.3991567310277517
  0.5832430271453174  0.0411011313935883  0.3993545070352392
  0.5835576015800475  0.1663068116921233  0.3991511155306907
  0.5842290776903374  0.2913397017324214  0.3990289846721211
  0.5860643250072088  0.4163139073678020  0.3997693498944627
  0.5874237659353331  0.5427971703964531  0.4022077732572913
  0.5837322851236225  0.6649570957771497  0.4030787794469278
  0.5823258220586600  0.7896076871039848  0.4009009287584553
  0.5828327089338192  0.9156898654511411  0.3995639618408711
  0.7079201769047400  0.0407783091757564  0.3994967134780090
  0.7082219219434405  0.1660773697058317  0.3993528139777688
  0.7087201991028359  0.2912544484060794  0.3990435157508854
  0.7097801981973366  0.4165912473958543  0.3985883892539019
  0.7107159554507771  0.5419465223479343  0.3985270490879059
  0.7099264745442498  0.6670907192472140  0.3991444724228210
  0.7085557809575626  0.7912701754598015  0.3994634270008214
  0.7078906642429355  0.9156592820275347  0.3995357157537518
  0.8329276324632959  0.0410972280667704  0.3993255085222430
  0.8328965758571244  0.1660712636214788  0.3992473725940408
  0.8331745440631491  0.2912829293949413  0.3990892893262328
  0.8337920969423330  0.4165254419396743  0.3990095710418598
  0.8344902746904311  0.5418647109395829  0.3988385366119859
  0.8346080157026280  0.6673255175415171  0.3987323626825410
  0.8342796227441843  0.7922381108122811  0.3989240790617168
  0.8334565801874195  0.9165207212210806  0.3992454084635341
  0.9583583671668424  0.0418409456832966  0.3992098133411869
  0.9577939441879844  0.1662960755888522  0.3990193962680791
  0.9575733663999541  0.2912271160738002  0.3986688274454391
  0.9577970544930564  0.4165119720478656  0.3986410990706178
  0.9585298962409230  0.5419720169831337  0.3989607795250472
  0.9590513639612771  0.6673136046532093  0.3992534098677634
  0.9591796819332929  0.7925003484740568  0.3992761306021123
  0.9589506133476516  0.9173849031956288  0.3991897875600879
 
  0.00000000E+00  0.00000000E+00  0.00000000E+00
  0.00000000E+00  0.00000000E+00  0.00000000E+00
  0.00000000E+00  0.00000000E+00  0.00000000E+00
  0.00000000E+00  0.00000000E+00  0.00000000E+00
  0.00000000E+00  0.00000000E+00  0.00000000E+00
  0.00000000E+00  0.00000000E+00  0.00000000E+00
  0.00000000E+00  0.00000000E+00  0.00000000E+00
  0.00000000E+00  0.00000000E+00  0.00000000E+00
  0.00000000E+00  0.00000000E+00  0.00000000E+00
  0.00000000E+00  0.00000000E+00  0.00000000E+00
  0.00000000E+00  0.00000000E+00  0.00000000E+00
  0.00000000E+00  0.00000000E+00  0.00000000E+00
  0.00000000E+00  0.00000000E+00  0.00000000E+00
  0.00000000E+00  0.00000000E+00  0.00000000E+00
  0.00000000E+00  0.00000000E+00  0.00000000E+00
  0.00000000E+00  0.00000000E+00  0.00000000E+00
  0.00000000E+00  0.00000000E+00  0.00000000E+00
  0.00000000E+00  0.00000000E+00  0.00000000E+00
  0.00000000E+00  0.00000000E+00  0.00000000E+00
  0.00000000E+00  0.00000000E+00  0.00000000E+00
  0.00000000E+00  0.00000000E+00  0.00000000E+00
  0.00000000E+00  0.00000000E+00  0.00000000E+00
  0.00000000E+00  0.00000000E+00  0.00000000E+00
  0.00000000E+00  0.00000000E+00  0.00000000E+00
  0.00000000E+00  0.00000000E+00  0.00000000E+00
  0.00000000E+00  0.00000000E+00  0.00000000E+00
  0.00000000E+00  0.00000000E+00  0.00000000E+00
  0.00000000E+00  0.00000000E+00  0.00000000E+00
  0.00000000E+00  0.00000000E+00  0.00000000E+00
  0.00000000E+00  0.00000000E+00  0.00000000E+00
  0.00000000E+00  0.00000000E+00  0.00000000E+00
  0.00000000E+00  0.00000000E+00  0.00000000E+00
  0.00000000E+00  0.00000000E+00  0.00000000E+00
  0.00000000E+00  0.00000000E+00  0.00000000E+00
  0.00000000E+00  0.00000000E+00  0.00000000E+00
  0.00000000E+00  0.00000000E+00  0.00000000E+00
  0.00000000E+00  0.00000000E+00  0.00000000E+00
  0.00000000E+00  0.00000000E+00  0.00000000E+00
  0.00000000E+00  0.00000000E+00  0.00000000E+00
  0.00000000E+00  0.00000000E+00  0.00000000E+00
  0.00000000E+00  0.00000000E+00  0.00000000E+00
  0.00000000E+00  0.00000000E+00  0.00000000E+00
  0.00000000E+00  0.00000000E+00  0.00000000E+00
  0.00000000E+00  0.00000000E+00  0.00000000E+00
  0.00000000E+00  0.00000000E+00  0.00000000E+00
  0.00000000E+00  0.00000000E+00  0.00000000E+00
  0.00000000E+00  0.00000000E+00  0.00000000E+00
  0.00000000E+00  0.00000000E+00  0.00000000E+00
  0.00000000E+00  0.00000000E+00  0.00000000E+00
  0.00000000E+00  0.00000000E+00  0.00000000E+00
  0.00000000E+00  0.00000000E+00  0.00000000E+00
  0.00000000E+00  0.00000000E+00  0.00000000E+00
  0.00000000E+00  0.00000000E+00  0.00000000E+00
  0.00000000E+00  0.00000000E+00  0.00000000E+00
  0.00000000E+00  0.00000000E+00  0.00000000E+00
  0.00000000E+00  0.00000000E+00  0.00000000E+00
  0.00000000E+00  0.00000000E+00  0.00000000E+00
  0.00000000E+00  0.00000000E+00  0.00000000E+00
  0.00000000E+00  0.00000000E+00  0.00000000E+00
  0.00000000E+00  0.00000000E+00  0.00000000E+00
  0.00000000E+00  0.00000000E+00  0.00000000E+00
  0.00000000E+00  0.00000000E+00  0.00000000E+00
  0.00000000E+00  0.00000000E+00  0.00000000E+00
  0.00000000E+00  0.00000000E+00  0.00000000E+00
  0.00000000E+00  0.00000000E+00  0.00000000E+00
  0.00000000E+00  0.00000000E+00  0.00000000E+00
  0.00000000E+00  0.00000000E+00  0.00000000E+00
  0.00000000E+00  0.00000000E+00  0.00000000E+00
  0.00000000E+00  0.00000000E+00  0.00000000E+00
  0.00000000E+00  0.00000000E+00  0.00000000E+00
  0.00000000E+00  0.00000000E+00  0.00000000E+00
  0.00000000E+00  0.00000000E+00  0.00000000E+00
  0.00000000E+00  0.00000000E+00  0.00000000E+00
  0.00000000E+00  0.00000000E+00  0.00000000E+00
  0.00000000E+00  0.00000000E+00  0.00000000E+00
  0.00000000E+00  0.00000000E+00  0.00000000E+00
  0.00000000E+00  0.00000000E+00  0.00000000E+00
  0.00000000E+00  0.00000000E+00  0.00000000E+00
  0.00000000E+00  0.00000000E+00  0.00000000E+00
  0.00000000E+00  0.00000000E+00  0.00000000E+00
  0.00000000E+00  0.00000000E+00  0.00000000E+00
  0.00000000E+00  0.00000000E+00  0.00000000E+00
  0.00000000E+00  0.00000000E+00  0.00000000E+00
  0.00000000E+00  0.00000000E+00  0.00000000E+00
  0.00000000E+00  0.00000000E+00  0.00000000E+00
  0.00000000E+00  0.00000000E+00  0.00000000E+00
  0.00000000E+00  0.00000000E+00  0.00000000E+00
  0.00000000E+00  0.00000000E+00  0.00000000E+00
  0.00000000E+00  0.00000000E+00  0.00000000E+00
  0.00000000E+00  0.00000000E+00  0.00000000E+00
  0.00000000E+00  0.00000000E+00  0.00000000E+00
  0.00000000E+00  0.00000000E+00  0.00000000E+00
  0.00000000E+00  0.00000000E+00  0.00000000E+00
  0.00000000E+00  0.00000000E+00  0.00000000E+00
  0.00000000E+00  0.00000000E+00  0.00000000E+00
  0.00000000E+00  0.00000000E+00  0.00000000E+00
  0.00000000E+00  0.00000000E+00  0.00000000E+00
  0.00000000E+00  0.00000000E+00  0.00000000E+00
  0.00000000E+00  0.00000000E+00  0.00000000E+00
  0.00000000E+00  0.00000000E+00  0.00000000E+00
  0.00000000E+00  0.00000000E+00  0.00000000E+00
  0.00000000E+00  0.00000000E+00  0.00000000E+00
  0.00000000E+00  0.00000000E+00  0.00000000E+00
  0.00000000E+00  0.00000000E+00  0.00000000E+00
  0.00000000E+00  0.00000000E+00  0.00000000E+00
  0.00000000E+00  0.00000000E+00  0.00000000E+00
  0.00000000E+00  0.00000000E+00  0.00000000E+00
  0.00000000E+00  0.00000000E+00  0.00000000E+00
  0.00000000E+00  0.00000000E+00  0.00000000E+00
  0.00000000E+00  0.00000000E+00  0.00000000E+00
  0.00000000E+00  0.00000000E+00  0.00000000E+00
  0.00000000E+00  0.00000000E+00  0.00000000E+00
  0.00000000E+00  0.00000000E+00  0.00000000E+00
  0.00000000E+00  0.00000000E+00  0.00000000E+00
  0.00000000E+00  0.00000000E+00  0.00000000E+00
  0.00000000E+00  0.00000000E+00  0.00000000E+00
  0.00000000E+00  0.00000000E+00  0.00000000E+00
  0.00000000E+00  0.00000000E+00  0.00000000E+00
  0.00000000E+00  0.00000000E+00  0.00000000E+00
  0.00000000E+00  0.00000000E+00  0.00000000E+00
  0.00000000E+00  0.00000000E+00  0.00000000E+00
  0.00000000E+00  0.00000000E+00  0.00000000E+00
  0.00000000E+00  0.00000000E+00  0.00000000E+00
  0.00000000E+00  0.00000000E+00  0.00000000E+00
  0.00000000E+00  0.00000000E+00  0.00000000E+00
  0.00000000E+00  0.00000000E+00  0.00000000E+00
  0.00000000E+00  0.00000000E+00  0.00000000E+00
  0.00000000E+00  0.00000000E+00  0.00000000E+00
