Pd1 C126                                
   1.00000000000000     
    19.7859667492283755   -0.0000011558385837   -0.0004871979848745
    -9.8929841460212025   17.0927515876354796    0.0002639899319160
    -0.0007261825024270    0.0000356545766187   29.7531415224935607
   Pd   C 
     1   126
Direct
  0.4375124605928292  0.4999999423270425  0.4250016492660892
  0.0416547923913704  0.0835179059637209  0.3998082602377135
  0.0410712523905005  0.2080034434710138  0.3996741447974130
  0.0408433525260869  0.3328745336016997  0.3995432450864105
  0.0409992629790604  0.4582836673415027  0.3997709439744583
  0.0414404385295979  0.5835337651448833  0.4000162561843946
  0.0418575349570068  0.7087036238460915  0.4000847222262726
  0.0420664523198824  0.8338987454368855  0.4000431477267119
  0.0420242332464075  0.9588649717785240  0.3999485696879027
  0.1669949499102933  0.0840802888386912  0.3999266583722280
  0.1665594336817125  0.2085929944635135  0.4001458957268011
  0.1656195220005793  0.3329949510569529  0.3998345644149587
  0.1651248938279338  0.4581902618194036  0.3991726763977162
  0.1658308325992346  0.5834897580062203  0.3994683099320887
  0.1665138920024861  0.7087704140407218  0.3998296650729865
  0.1668009742657533  0.8338978650093839  0.4000381348727637
  0.1670033349895060  0.9590523392897433  0.3999387146947867
  0.2920531836905884  0.0840691453765076  0.3998972382080291
  0.2923179728410754  0.2096294307073886  0.4008686719143623
  0.2917996496954995  0.3345211150707780  0.4026398672434665
  0.2889897838423924  0.4573307428528544  0.4011083296677098
  0.2900028515653753  0.5838666390520622  0.3994769091291885
  0.2910886413743884  0.7087682512306286  0.3995075061413303
  0.2915505739875452  0.8337120889823469  0.3998348275029561
  0.2918028716302713  0.9588197610531687  0.3998905337665135
  0.4168144797087467  0.0834685251919388  0.3997745892960671
  0.4170243476053460  0.2085809843377825  0.4001341030374769
  0.4177584294093564  0.3345226665059104  0.4026407554092002
  0.4127001071674740  0.5837649121541471  0.4047048454987227
  0.4158601009036045  0.7080077408538100  0.4007585786529068
  0.4163740130445686  0.8332375753988432  0.3997268969484912
  0.4165831827782908  0.9583237746311926  0.3998771569427854
  0.5415896039585266  0.0828985081983677  0.3999188267064154
  0.5418993280266693  0.2079639533152244  0.3996631978716755
  0.5423905355120204  0.3329687802127810  0.3998220482542373
  0.5433914143330209  0.4573263008799072  0.4011221348478333
  0.5461113932758188  0.5837616206475135  0.4047277192364073
  0.5412762797785726  0.7075190590260678  0.4024008468593300
  0.5411372252147830  0.8325948406427486  0.4002778820150321
  0.5414035078443088  0.9577808061488199  0.3998754667751181
  0.6663833400836944  0.0827071703996093  0.3999967770670004
  0.6666480715141172  0.2078156381575164  0.3999159196320064
  0.6670245322653374  0.3328505629016438  0.3995172068651832
  0.6680796334963656  0.4581833075912138  0.3991510189477748
  0.6689155909567827  0.5838960337111994  0.3994807040939507
  0.6671710042094098  0.7080153104169520  0.4007457569834936
  0.6664567092335725  0.8326008840568156  0.4002632496611194
  0.6663022849247252  0.9576350662982990  0.3998959067916157
  0.7912887962614763  0.0827147095493786  0.3999690376683850
  0.7913598974687984  0.2077458589942511  0.4000915983327460
  0.7917212835714385  0.3329742966577962  0.3999863358606073
  0.7922842618772078  0.4582860883120636  0.3997234315483927
  0.7926791699715311  0.5835012381574060  0.3994282940959350
  0.7927124300532497  0.7088074028111351  0.3994866899771556
  0.7918687680581011  0.8332716543323537  0.3997077645810939
  0.7913717023389010  0.9578293880071262  0.3998164242813617
  0.9163224332605263  0.0829524667997465  0.3998832055190608
  0.9161564768999607  0.2078393664350711  0.3999208782056067
  0.9162654570126706  0.3329811856525041  0.4000105507126218
  0.9165993143881911  0.4581932497266711  0.4001027335675160
  0.9170891762417757  0.5835300087147560  0.3999826943142821
  0.9172720219771263  0.7087914754574859  0.3998101918054568
  0.9171704835467717  0.8337606206042443  0.3998391185095363
  0.9167473368420550  0.9583696016403299  0.3998786901870909
  0.0836228546527823  0.0422187779130833  0.3998750305648229
  0.0831360393451819  0.1667622487919288  0.3997267023135733
  0.0823199701240548  0.2912322661036101  0.3995077395811854
  0.0823410181031132  0.4165108050659806  0.3994683219607407
  0.0827156507691838  0.5417161501204694  0.3997709790484317
  0.0832843679451738  0.6670185432515301  0.4000105366462627
  0.0836142932856076  0.7922543155635464  0.4000914006433563
  0.0836765016287768  0.9172926779427850  0.3999963445101743
  0.2086675169551435  0.0423647102430393  0.3998957998384856
  0.2085425472760681  0.1674050553425840  0.4002778605047700
  0.2078520437794091  0.2919926490745188  0.4007588117788321
  0.2061363155126009  0.4161345172720639  0.3994770979888302
  0.2069334757577600  0.5418086473117307  0.3991727684202063
  0.2079682274216240  0.6671248955674397  0.3995432445808276
  0.2083167119691456  0.7921604385083075  0.3999211187385751
  0.2085737937932349  0.9172850510397165  0.3999686590646693
  0.3335421583788785  0.0421706989158963  0.3998164072854248
  0.3338558122537162  0.1673990878255001  0.4002627308639676
  0.3337572534053990  0.2924810942098479  0.4024008026991683
  0.3289346884677928  0.4162352640672840  0.4047056873486475
  0.3316588344802263  0.5426696773379074  0.4011079379126515
  0.3326241243822268  0.6670045422621481  0.3998342368850497
  0.3330670036102042  0.7919963218250983  0.3996744023135462
  0.3333696504857928  0.9170479456570650  0.3998836694120069
  0.4583774541290976  0.0416305515114509  0.3998789041771328
  0.4585968080160220  0.1667284193019498  0.3997077384439277
  0.4591554647426671  0.2919846813587706  0.4007458052562523
  0.4623497624670102  0.4162386158086966  0.4047266466234836
  0.4572787770644991  0.6654786071582907  0.4026396575819148
  0.4579666115812851  0.7914071310549068  0.4001458425039719
  0.4581364522551090  0.9164823282160616  0.3998089724494836
  0.5831591080866848  0.0411349598761985  0.3999490911406454
  0.5834100881690296  0.1662394056809317  0.3998391006220007
  0.5839054061283007  0.2911930630963855  0.3994872500520860
  0.5850194054342904  0.4161042219229983  0.3994805205064966
  0.5860653764811292  0.5426739601482284  0.4011226436670887
  0.5832361323232783  0.6654775242478455  0.4026410094229925
  0.5826890483461590  0.7903707361480014  0.4008689185760544
  0.5829147164810196  0.9159198031206215  0.3999268740958286
  0.7079510809125679  0.0409473032894611  0.3999389578105367
  0.7081676623446773  0.1661012081694034  0.4000436344269691
  0.7084808369475166  0.2912084993055792  0.3998102253237408
  0.7091783954032905  0.4164993903709708  0.3994282001726083
  0.7098964943171363  0.5418168331928330  0.3991509974128092
  0.7094217771340549  0.6670311734574456  0.3998218460638098
  0.7084435366857810  0.7914190603401570  0.4001342722470613
  0.7079842306630766  0.9159308854021421  0.3998976934677038
  0.8329832245606601  0.0411799625208784  0.3998905840171020
  0.8329027404571641  0.1661016003018943  0.4000381540659260
  0.8331540063881683  0.2912966048861191  0.4000847246745942
  0.8335601213719227  0.4164698645052370  0.3999830490573166
  0.8339986851821751  0.5417140218652221  0.3997230298206400
  0.8341741841183742  0.6671494343849884  0.3995166201572027
  0.8339352718912922  0.7920356416575540  0.3996629881126545
  0.8333457772329009  0.9165313146920706  0.3997746387210536
  0.9582590693666697  0.0416760090870807  0.3998764125025261
  0.9578379307098853  0.1662879529288441  0.3998342892073328
  0.9577422175029633  0.2912299110904335  0.3998295266173292
  0.9579074604512636  0.4164663561522723  0.4000163054988299
  0.9584067980672847  0.5418066983678302  0.4001023636127314
  0.9587478362064321  0.6670258607474833  0.3999861444648524
  0.9588337375255924  0.7921853613666209  0.3999158082480394
  0.9586911922181786  0.9171013827606807  0.3999185984671413
 
  0.00000000E+00  0.00000000E+00  0.00000000E+00
  0.00000000E+00  0.00000000E+00  0.00000000E+00
  0.00000000E+00  0.00000000E+00  0.00000000E+00
  0.00000000E+00  0.00000000E+00  0.00000000E+00
  0.00000000E+00  0.00000000E+00  0.00000000E+00
  0.00000000E+00  0.00000000E+00  0.00000000E+00
  0.00000000E+00  0.00000000E+00  0.00000000E+00
  0.00000000E+00  0.00000000E+00  0.00000000E+00
  0.00000000E+00  0.00000000E+00  0.00000000E+00
  0.00000000E+00  0.00000000E+00  0.00000000E+00
  0.00000000E+00  0.00000000E+00  0.00000000E+00
  0.00000000E+00  0.00000000E+00  0.00000000E+00
  0.00000000E+00  0.00000000E+00  0.00000000E+00
  0.00000000E+00  0.00000000E+00  0.00000000E+00
  0.00000000E+00  0.00000000E+00  0.00000000E+00
  0.00000000E+00  0.00000000E+00  0.00000000E+00
  0.00000000E+00  0.00000000E+00  0.00000000E+00
  0.00000000E+00  0.00000000E+00  0.00000000E+00
  0.00000000E+00  0.00000000E+00  0.00000000E+00
  0.00000000E+00  0.00000000E+00  0.00000000E+00
  0.00000000E+00  0.00000000E+00  0.00000000E+00
  0.00000000E+00  0.00000000E+00  0.00000000E+00
  0.00000000E+00  0.00000000E+00  0.00000000E+00
  0.00000000E+00  0.00000000E+00  0.00000000E+00
  0.00000000E+00  0.00000000E+00  0.00000000E+00
  0.00000000E+00  0.00000000E+00  0.00000000E+00
  0.00000000E+00  0.00000000E+00  0.00000000E+00
  0.00000000E+00  0.00000000E+00  0.00000000E+00
  0.00000000E+00  0.00000000E+00  0.00000000E+00
  0.00000000E+00  0.00000000E+00  0.00000000E+00
  0.00000000E+00  0.00000000E+00  0.00000000E+00
  0.00000000E+00  0.00000000E+00  0.00000000E+00
  0.00000000E+00  0.00000000E+00  0.00000000E+00
  0.00000000E+00  0.00000000E+00  0.00000000E+00
  0.00000000E+00  0.00000000E+00  0.00000000E+00
  0.00000000E+00  0.00000000E+00  0.00000000E+00
  0.00000000E+00  0.00000000E+00  0.00000000E+00
  0.00000000E+00  0.00000000E+00  0.00000000E+00
  0.00000000E+00  0.00000000E+00  0.00000000E+00
  0.00000000E+00  0.00000000E+00  0.00000000E+00
  0.00000000E+00  0.00000000E+00  0.00000000E+00
  0.00000000E+00  0.00000000E+00  0.00000000E+00
  0.00000000E+00  0.00000000E+00  0.00000000E+00
  0.00000000E+00  0.00000000E+00  0.00000000E+00
  0.00000000E+00  0.00000000E+00  0.00000000E+00
  0.00000000E+00  0.00000000E+00  0.00000000E+00
  0.00000000E+00  0.00000000E+00  0.00000000E+00
  0.00000000E+00  0.00000000E+00  0.00000000E+00
  0.00000000E+00  0.00000000E+00  0.00000000E+00
  0.00000000E+00  0.00000000E+00  0.00000000E+00
  0.00000000E+00  0.00000000E+00  0.00000000E+00
  0.00000000E+00  0.00000000E+00  0.00000000E+00
  0.00000000E+00  0.00000000E+00  0.00000000E+00
  0.00000000E+00  0.00000000E+00  0.00000000E+00
  0.00000000E+00  0.00000000E+00  0.00000000E+00
  0.00000000E+00  0.00000000E+00  0.00000000E+00
  0.00000000E+00  0.00000000E+00  0.00000000E+00
  0.00000000E+00  0.00000000E+00  0.00000000E+00
  0.00000000E+00  0.00000000E+00  0.00000000E+00
  0.00000000E+00  0.00000000E+00  0.00000000E+00
  0.00000000E+00  0.00000000E+00  0.00000000E+00
  0.00000000E+00  0.00000000E+00  0.00000000E+00
  0.00000000E+00  0.00000000E+00  0.00000000E+00
  0.00000000E+00  0.00000000E+00  0.00000000E+00
  0.00000000E+00  0.00000000E+00  0.00000000E+00
  0.00000000E+00  0.00000000E+00  0.00000000E+00
  0.00000000E+00  0.00000000E+00  0.00000000E+00
  0.00000000E+00  0.00000000E+00  0.00000000E+00
  0.00000000E+00  0.00000000E+00  0.00000000E+00
  0.00000000E+00  0.00000000E+00  0.00000000E+00
  0.00000000E+00  0.00000000E+00  0.00000000E+00
  0.00000000E+00  0.00000000E+00  0.00000000E+00
  0.00000000E+00  0.00000000E+00  0.00000000E+00
  0.00000000E+00  0.00000000E+00  0.00000000E+00
  0.00000000E+00  0.00000000E+00  0.00000000E+00
  0.00000000E+00  0.00000000E+00  0.00000000E+00
  0.00000000E+00  0.00000000E+00  0.00000000E+00
  0.00000000E+00  0.00000000E+00  0.00000000E+00
  0.00000000E+00  0.00000000E+00  0.00000000E+00
  0.00000000E+00  0.00000000E+00  0.00000000E+00
  0.00000000E+00  0.00000000E+00  0.00000000E+00
  0.00000000E+00  0.00000000E+00  0.00000000E+00
  0.00000000E+00  0.00000000E+00  0.00000000E+00
  0.00000000E+00  0.00000000E+00  0.00000000E+00
  0.00000000E+00  0.00000000E+00  0.00000000E+00
  0.00000000E+00  0.00000000E+00  0.00000000E+00
  0.00000000E+00  0.00000000E+00  0.00000000E+00
  0.00000000E+00  0.00000000E+00  0.00000000E+00
  0.00000000E+00  0.00000000E+00  0.00000000E+00
  0.00000000E+00  0.00000000E+00  0.00000000E+00
  0.00000000E+00  0.00000000E+00  0.00000000E+00
  0.00000000E+00  0.00000000E+00  0.00000000E+00
  0.00000000E+00  0.00000000E+00  0.00000000E+00
  0.00000000E+00  0.00000000E+00  0.00000000E+00
  0.00000000E+00  0.00000000E+00  0.00000000E+00
  0.00000000E+00  0.00000000E+00  0.00000000E+00
  0.00000000E+00  0.00000000E+00  0.00000000E+00
  0.00000000E+00  0.00000000E+00  0.00000000E+00
  0.00000000E+00  0.00000000E+00  0.00000000E+00
  0.00000000E+00  0.00000000E+00  0.00000000E+00
  0.00000000E+00  0.00000000E+00  0.00000000E+00
  0.00000000E+00  0.00000000E+00  0.00000000E+00
  0.00000000E+00  0.00000000E+00  0.00000000E+00
  0.00000000E+00  0.00000000E+00  0.00000000E+00
  0.00000000E+00  0.00000000E+00  0.00000000E+00
  0.00000000E+00  0.00000000E+00  0.00000000E+00
  0.00000000E+00  0.00000000E+00  0.00000000E+00
  0.00000000E+00  0.00000000E+00  0.00000000E+00
  0.00000000E+00  0.00000000E+00  0.00000000E+00
  0.00000000E+00  0.00000000E+00  0.00000000E+00
  0.00000000E+00  0.00000000E+00  0.00000000E+00
  0.00000000E+00  0.00000000E+00  0.00000000E+00
  0.00000000E+00  0.00000000E+00  0.00000000E+00
  0.00000000E+00  0.00000000E+00  0.00000000E+00
  0.00000000E+00  0.00000000E+00  0.00000000E+00
  0.00000000E+00  0.00000000E+00  0.00000000E+00
  0.00000000E+00  0.00000000E+00  0.00000000E+00
  0.00000000E+00  0.00000000E+00  0.00000000E+00
  0.00000000E+00  0.00000000E+00  0.00000000E+00
  0.00000000E+00  0.00000000E+00  0.00000000E+00
  0.00000000E+00  0.00000000E+00  0.00000000E+00
  0.00000000E+00  0.00000000E+00  0.00000000E+00
  0.00000000E+00  0.00000000E+00  0.00000000E+00
  0.00000000E+00  0.00000000E+00  0.00000000E+00
  0.00000000E+00  0.00000000E+00  0.00000000E+00
  0.00000000E+00  0.00000000E+00  0.00000000E+00
  0.00000000E+00  0.00000000E+00  0.00000000E+00
