Mn1 C122 N4                             
   1.00000000000000     
    19.8179345898626806   -0.0000531553732818    0.0179568257124197
    -9.9090129954857584   17.0260641948590532   -0.0090564967279887
     0.0270311945019607   -0.0001363797794174   29.8215658430767583
   Mn   C    N 
     1   122     4
Direct
  0.4374692694317369  0.4999999512796857  0.4059577131065106
  0.0421651170350312  0.0842685999391534  0.4001392762738586
  0.0411154071940420  0.2082752731924768  0.4002308284898257
  0.0402524276861106  0.3329588958072566  0.3999765507291975
  0.0403388836600670  0.4582026349908299  0.3994628943175235
  0.0412675352459738  0.5837537763800739  0.3991553770611320
  0.0421012680013272  0.7092242977834465  0.3992807652910778
  0.0424167419586947  0.8344702507467764  0.3995315553020434
  0.0425400050720331  0.9596722748723923  0.3997953137795081
  0.1682620383929289  0.0859543363934695  0.4006739234089595
  0.1677454031091778  0.2105888454262177  0.4015200650787909
  0.1650487898109888  0.3337504688842138  0.4017182129230729
  0.1638780027679449  0.4585278587062761  0.4009305514611318
  0.1649645344900173  0.5837040561864284  0.4000349807183067
  0.1663524868840996  0.7089839404585458  0.3994927364304465
  0.1670688005658451  0.8344632572186543  0.3995054194003786
  0.1675834183106312  0.9601203210423354  0.3999027759799671
  0.2927327759148797  0.0859461999070879  0.4006581444081743
  0.2942600836036358  0.2135033377422426  0.4021643030846959
  0.2925778330198568  0.3388621364209785  0.4035629141381636
  0.2868155598521338  0.4583102709962569  0.4035270703823061
  0.2881070676162888  0.5830113380028641  0.4020547865025784
  0.2905936223822557  0.7083335178447040  0.4005756671374782
  0.2916348874683479  0.8338891127623881  0.3996768246476768
  0.2921706674410660  0.9596591010084353  0.3997410065103514
  0.4171355372881553  0.0842596298743503  0.4001538121038921
  0.4178526167406889  0.2105822104798622  0.4015360805167049
  0.4212534037598414  0.3388586166784096  0.4035581938365559
  0.4146186970178830  0.7057598990084807  0.4023358444884827
  0.4160581701411459  0.8320301908937126  0.4006052010416445
  0.4166623931258213  0.9581813300537814  0.3997768892070540
  0.5415462951037332  0.0825424682839084  0.3997117903283945
  0.5421631639935161  0.2082710631248233  0.4002887222083650
  0.5436773064331644  0.3337452743256332  0.4017174095431764
  0.5464461497798410  0.4583124326536495  0.4034829009966655
  0.5381828685725155  0.7013913954628958  0.4033236289260639
  0.5404017172928082  0.8299476857228555  0.4014957634752561
  0.5410924916707316  0.9565118792987407  0.4001893387997723
  0.6660976266635055  0.0818468676103455  0.3997289204205527
  0.6666093010800513  0.2073857994800609  0.3995494710734405
  0.6676830871402333  0.3329505557959966  0.3999694317622476
  0.6696121545570286  0.4585287513509699  0.4008934417841922
  0.6698657040234461  0.5830127092453292  0.4020183546062853
  0.6661243034588774  0.7057601171558803  0.4023464606874361
  0.6645690561598173  0.8299558964865885  0.4014955666965307
  0.6655667909668332  0.9560971137176727  0.4004032472450681
  0.7907962611953412  0.0818553479462031  0.3996896263995981
  0.7911428370509688  0.2072748288681986  0.3994653745866237
  0.7917432397354741  0.3326947164502995  0.3992595813140488
  0.7928309807441066  0.4582045878550365  0.3993946308534042
  0.7937106723015440  0.5837105412968333  0.3999905833540340
  0.7927324399107362  0.7083383640922961  0.4006049429140366
  0.7909988441243678  0.8320393252184202  0.4006425752917757
  0.7904715607605938  0.9565320315449721  0.4001656888716216
  0.9160399463928038  0.0825623299248587  0.3996556538827394
  0.9157972930183866  0.2074025922876862  0.3995121073970144
  0.9159336579703959  0.3326976834482829  0.3992668042375015
  0.9166120086439720  0.4582483493530595  0.3989990197620924
  0.9174519277568577  0.5837565613028769  0.3991222656148029
  0.9176247011351031  0.7089980460797202  0.3995082825401308
  0.9172773139847058  0.8339010424886342  0.3997510616066084
  0.9165639676823910  0.9581939643141295  0.3997971990938395
  0.0845811883334854  0.0434885562830636  0.4001886561900669
  0.0840274931530558  0.1679703286837615  0.4006058842971748
  0.0822595276845347  0.2916660989548423  0.4005750087318835
  0.0812595906033909  0.4162949980308093  0.4000352934214940
  0.0821372258938058  0.5417973068940295  0.3994622711950912
  0.0832391071381727  0.6673020824212521  0.3992653940912662
  0.0838698656870690  0.7927261267408298  0.3994635625636227
  0.0842514953799615  0.9181538681318296  0.3997274163777664
  0.2094706111931301  0.0439038331509886  0.4003998091322420
  0.2104532771614582  0.1700529705252835  0.4014944033287405
  0.2088578088803603  0.2942401222305470  0.4023334183868754
  0.2050918148696344  0.4169872827430378  0.4020531632888293
  0.2053495740036853  0.5414736692384280  0.4009318123993104
  0.2072963908872374  0.6670437148573947  0.3999753343256795
  0.2083959965650014  0.7925980187252177  0.3995097751565791
  0.2089423988713550  0.9181455020974456  0.3996862638769206
  0.3339399341918114  0.0434680595201073  0.4001634254526653
  0.3346138221789976  0.1700443442083306  0.4014938705879983
  0.3367920050840325  0.2986085243726385  0.4033220308739049
  0.3285034440045411  0.5416900356532449  0.4035285238884136
  0.3312981493560433  0.6662521334660599  0.4017204602972081
  0.3328402368931735  0.7917255711280606  0.4002302042232929
  0.3334773429459222  0.9174370113123838  0.3996533180532743
  0.4583691963122536  0.0418052965508563  0.3997954270266679
  0.4589591066508293  0.1679595954412565  0.4006390347681041
  0.4603642893028736  0.2942368083773542  0.4023447988217630
  0.4537159365176698  0.6611391582600564  0.4035653750436840
  0.4571574632940582  0.7894120518344160  0.4015211709930755
  0.4578931426614322  0.9157292956480926  0.4001380097494082
  0.5828669552603831  0.0403263558123135  0.3997973953303591
  0.5833762833868348  0.1660990580232621  0.3997502693773282
  0.5843945124001225  0.2916601470195723  0.4006021894368458
  0.5868535424368132  0.4169846645879275  0.4020174675585415
  0.5881338312298552  0.5416870216474167  0.4034835185236374
  0.5823955022482160  0.6611419386980090  0.4035601471359402
  0.5807580724647630  0.7864973214927768  0.4021656544198599
  0.5823069243603503  0.9140464977527548  0.4006762355677744
  0.7074652378421756  0.0398791734969880  0.3999063753728404
  0.7079475381385674  0.1655288266946248  0.3995330765409965
  0.7086279425809909  0.2910024971914087  0.3995076141853457
  0.7100043834175411  0.4162878668773253  0.3999910192434129
  0.7110862768843633  0.5414721848832489  0.4008943164936865
  0.7099316295239531  0.6662561171854350  0.4017186294148990
  0.7072712613907252  0.7894182951942821  0.4015387530265800
  0.7067878686366625  0.9140550628908408  0.4006607508358126
  0.8325130240513013  0.0403424258258249  0.3997436154246612
  0.8326073363219580  0.1655367082652640  0.3995083487307003
  0.8328785741701826  0.2907751275536958  0.3992822305507755
  0.8336985885530521  0.4162435048587781  0.3991223213004157
  0.8346273187199197  0.5417956134110430  0.3993943881327220
  0.8347345655860373  0.6670504341392390  0.3999704901456120
  0.8338919441992597  0.7917294450233341  0.4002920436743977
  0.8328775102020497  0.9157403415663107  0.4001553437261497
  0.9584805610485507  0.0418193229729292  0.3997789758425321
  0.9577461852959444  0.1661111664645451  0.3996786942676814
  0.9573696894245834  0.2910152474282464  0.3994946128090681
  0.9575159987236708  0.4162445624547182  0.3991563198757641
  0.9583649218072009  0.5417508919078384  0.3989994191254066
  0.9590499610573390  0.6673052391209553  0.3992594167319687
  0.9592243959905392  0.7926145138047080  0.3995492109415048
  0.9590033845505439  0.9174584241176000  0.3997114010533646
  0.4091957413320568  0.5803793620282423  0.4046651889541031
  0.5461328121685497  0.5803763368246299  0.4046388967381805
  0.3288155219639556  0.4196197796357348  0.4046627986078768
  0.4657556526394612  0.4196219044979294  0.4046372303294432
 
  0.00000000E+00  0.00000000E+00  0.00000000E+00
  0.00000000E+00  0.00000000E+00  0.00000000E+00
  0.00000000E+00  0.00000000E+00  0.00000000E+00
  0.00000000E+00  0.00000000E+00  0.00000000E+00
  0.00000000E+00  0.00000000E+00  0.00000000E+00
  0.00000000E+00  0.00000000E+00  0.00000000E+00
  0.00000000E+00  0.00000000E+00  0.00000000E+00
  0.00000000E+00  0.00000000E+00  0.00000000E+00
  0.00000000E+00  0.00000000E+00  0.00000000E+00
  0.00000000E+00  0.00000000E+00  0.00000000E+00
  0.00000000E+00  0.00000000E+00  0.00000000E+00
  0.00000000E+00  0.00000000E+00  0.00000000E+00
  0.00000000E+00  0.00000000E+00  0.00000000E+00
  0.00000000E+00  0.00000000E+00  0.00000000E+00
  0.00000000E+00  0.00000000E+00  0.00000000E+00
  0.00000000E+00  0.00000000E+00  0.00000000E+00
  0.00000000E+00  0.00000000E+00  0.00000000E+00
  0.00000000E+00  0.00000000E+00  0.00000000E+00
  0.00000000E+00  0.00000000E+00  0.00000000E+00
  0.00000000E+00  0.00000000E+00  0.00000000E+00
  0.00000000E+00  0.00000000E+00  0.00000000E+00
  0.00000000E+00  0.00000000E+00  0.00000000E+00
  0.00000000E+00  0.00000000E+00  0.00000000E+00
  0.00000000E+00  0.00000000E+00  0.00000000E+00
  0.00000000E+00  0.00000000E+00  0.00000000E+00
  0.00000000E+00  0.00000000E+00  0.00000000E+00
  0.00000000E+00  0.00000000E+00  0.00000000E+00
  0.00000000E+00  0.00000000E+00  0.00000000E+00
  0.00000000E+00  0.00000000E+00  0.00000000E+00
  0.00000000E+00  0.00000000E+00  0.00000000E+00
  0.00000000E+00  0.00000000E+00  0.00000000E+00
  0.00000000E+00  0.00000000E+00  0.00000000E+00
  0.00000000E+00  0.00000000E+00  0.00000000E+00
  0.00000000E+00  0.00000000E+00  0.00000000E+00
  0.00000000E+00  0.00000000E+00  0.00000000E+00
  0.00000000E+00  0.00000000E+00  0.00000000E+00
  0.00000000E+00  0.00000000E+00  0.00000000E+00
  0.00000000E+00  0.00000000E+00  0.00000000E+00
  0.00000000E+00  0.00000000E+00  0.00000000E+00
  0.00000000E+00  0.00000000E+00  0.00000000E+00
  0.00000000E+00  0.00000000E+00  0.00000000E+00
  0.00000000E+00  0.00000000E+00  0.00000000E+00
  0.00000000E+00  0.00000000E+00  0.00000000E+00
  0.00000000E+00  0.00000000E+00  0.00000000E+00
  0.00000000E+00  0.00000000E+00  0.00000000E+00
  0.00000000E+00  0.00000000E+00  0.00000000E+00
  0.00000000E+00  0.00000000E+00  0.00000000E+00
  0.00000000E+00  0.00000000E+00  0.00000000E+00
  0.00000000E+00  0.00000000E+00  0.00000000E+00
  0.00000000E+00  0.00000000E+00  0.00000000E+00
  0.00000000E+00  0.00000000E+00  0.00000000E+00
  0.00000000E+00  0.00000000E+00  0.00000000E+00
  0.00000000E+00  0.00000000E+00  0.00000000E+00
  0.00000000E+00  0.00000000E+00  0.00000000E+00
  0.00000000E+00  0.00000000E+00  0.00000000E+00
  0.00000000E+00  0.00000000E+00  0.00000000E+00
  0.00000000E+00  0.00000000E+00  0.00000000E+00
  0.00000000E+00  0.00000000E+00  0.00000000E+00
  0.00000000E+00  0.00000000E+00  0.00000000E+00
  0.00000000E+00  0.00000000E+00  0.00000000E+00
  0.00000000E+00  0.00000000E+00  0.00000000E+00
  0.00000000E+00  0.00000000E+00  0.00000000E+00
  0.00000000E+00  0.00000000E+00  0.00000000E+00
  0.00000000E+00  0.00000000E+00  0.00000000E+00
  0.00000000E+00  0.00000000E+00  0.00000000E+00
  0.00000000E+00  0.00000000E+00  0.00000000E+00
  0.00000000E+00  0.00000000E+00  0.00000000E+00
  0.00000000E+00  0.00000000E+00  0.00000000E+00
  0.00000000E+00  0.00000000E+00  0.00000000E+00
  0.00000000E+00  0.00000000E+00  0.00000000E+00
  0.00000000E+00  0.00000000E+00  0.00000000E+00
  0.00000000E+00  0.00000000E+00  0.00000000E+00
  0.00000000E+00  0.00000000E+00  0.00000000E+00
  0.00000000E+00  0.00000000E+00  0.00000000E+00
  0.00000000E+00  0.00000000E+00  0.00000000E+00
  0.00000000E+00  0.00000000E+00  0.00000000E+00
  0.00000000E+00  0.00000000E+00  0.00000000E+00
  0.00000000E+00  0.00000000E+00  0.00000000E+00
  0.00000000E+00  0.00000000E+00  0.00000000E+00
  0.00000000E+00  0.00000000E+00  0.00000000E+00
  0.00000000E+00  0.00000000E+00  0.00000000E+00
  0.00000000E+00  0.00000000E+00  0.00000000E+00
  0.00000000E+00  0.00000000E+00  0.00000000E+00
  0.00000000E+00  0.00000000E+00  0.00000000E+00
  0.00000000E+00  0.00000000E+00  0.00000000E+00
  0.00000000E+00  0.00000000E+00  0.00000000E+00
  0.00000000E+00  0.00000000E+00  0.00000000E+00
  0.00000000E+00  0.00000000E+00  0.00000000E+00
  0.00000000E+00  0.00000000E+00  0.00000000E+00
  0.00000000E+00  0.00000000E+00  0.00000000E+00
  0.00000000E+00  0.00000000E+00  0.00000000E+00
  0.00000000E+00  0.00000000E+00  0.00000000E+00
  0.00000000E+00  0.00000000E+00  0.00000000E+00
  0.00000000E+00  0.00000000E+00  0.00000000E+00
  0.00000000E+00  0.00000000E+00  0.00000000E+00
  0.00000000E+00  0.00000000E+00  0.00000000E+00
  0.00000000E+00  0.00000000E+00  0.00000000E+00
  0.00000000E+00  0.00000000E+00  0.00000000E+00
  0.00000000E+00  0.00000000E+00  0.00000000E+00
  0.00000000E+00  0.00000000E+00  0.00000000E+00
  0.00000000E+00  0.00000000E+00  0.00000000E+00
  0.00000000E+00  0.00000000E+00  0.00000000E+00
  0.00000000E+00  0.00000000E+00  0.00000000E+00
  0.00000000E+00  0.00000000E+00  0.00000000E+00
  0.00000000E+00  0.00000000E+00  0.00000000E+00
  0.00000000E+00  0.00000000E+00  0.00000000E+00
  0.00000000E+00  0.00000000E+00  0.00000000E+00
  0.00000000E+00  0.00000000E+00  0.00000000E+00
  0.00000000E+00  0.00000000E+00  0.00000000E+00
  0.00000000E+00  0.00000000E+00  0.00000000E+00
  0.00000000E+00  0.00000000E+00  0.00000000E+00
  0.00000000E+00  0.00000000E+00  0.00000000E+00
  0.00000000E+00  0.00000000E+00  0.00000000E+00
  0.00000000E+00  0.00000000E+00  0.00000000E+00
  0.00000000E+00  0.00000000E+00  0.00000000E+00
  0.00000000E+00  0.00000000E+00  0.00000000E+00
  0.00000000E+00  0.00000000E+00  0.00000000E+00
  0.00000000E+00  0.00000000E+00  0.00000000E+00
  0.00000000E+00  0.00000000E+00  0.00000000E+00
  0.00000000E+00  0.00000000E+00  0.00000000E+00
  0.00000000E+00  0.00000000E+00  0.00000000E+00
  0.00000000E+00  0.00000000E+00  0.00000000E+00
  0.00000000E+00  0.00000000E+00  0.00000000E+00
  0.00000000E+00  0.00000000E+00  0.00000000E+00
  0.00000000E+00  0.00000000E+00  0.00000000E+00
  0.00000000E+00  0.00000000E+00  0.00000000E+00
  0.00000000E+00  0.00000000E+00  0.00000000E+00
