Re1 H1 C124 N2                          
   1.00000000000000     
    19.8105068092041741   -0.0377407551586622   -0.0734888839761624
    -9.9380524945247011   17.0605514865328836   -0.0030164007600698
    -0.1106152091558687   -0.0696904163752211   29.8060193487807261
   Re   H    C    N 
     1     1   124     2
Direct
  0.4384502942227269  0.5003902636466280  0.4277216814401763
  0.4385395188581293  0.5070548482943464  0.4846581315309618
  0.0426248167034333  0.0846222429763767  0.3997915347650942
  0.0422867376928189  0.2090517948472105  0.3995570098778797
  0.0414259625717153  0.3335103605643535  0.3995233097385059
  0.0408499194808875  0.4585626723850035  0.3995030836636035
  0.0411572130913021  0.5839162312367880  0.3996558146633293
  0.0416194709034867  0.7092205794559616  0.3999756228303125
  0.0418983790110334  0.8343794725040359  0.4001138297456913
  0.0422630896474683  0.9596047642354489  0.3999935560691117
  0.1682829573754871  0.0858191515708351  0.3999029209762007
  0.1688649601208873  0.2112765659529799  0.3998413534125356
  0.1672786342839335  0.3351111582277991  0.3996062570491777
  0.1648961339180030  0.4593430308327495  0.3999317412853167
  0.1650399457662210  0.5842700289203476  0.3994602546171303
  0.1659567108438700  0.7093444193329501  0.3995937514702413
  0.1666123168797979  0.8345456745971506  0.3998715930737380
  0.1672363148778648  0.9599329797479936  0.3999939717983760
  0.2926280139078959  0.0852173008410268  0.4000093195673302
  0.2946038917441268  0.2122940387267845  0.4008442212877823
  0.2957115903267516  0.3391362015503264  0.4007408214272211
  0.2894977983329623  0.4614785614332174  0.4009915830646846
  0.2886804731031608  0.5850916839107835  0.4012138916366321
  0.2903207430694651  0.7094840789044612  0.4000461414021249
  0.2912589451666265  0.8343437474170516  0.3995568794870143
  0.2918757051675524  0.9595307507931121  0.3997117278686203
  0.4171519539304742  0.0837196398980195  0.3996034795710353
  0.4180165575856014  0.2093513855625791  0.4001666167181491
  0.4212537278197468  0.3364580226456909  0.4038061907092551
  0.4144703536965570  0.7073816785787241  0.4011821614556063
  0.4158992829065015  0.8329723479827399  0.3996543216395684
  0.4165595944877591  0.9583635625263948  0.3995452045134037
  0.5418140522441569  0.0823905874442361  0.3995984086069253
  0.5424841102259678  0.2074282281150104  0.3997235071437309
  0.5439378193727983  0.3321282754145432  0.4009872781280850
  0.5459597457696396  0.4555476929363179  0.4025224850877541
  0.5412755060279848  0.5771427560345899  0.4004679067977011
  0.5377313580038109  0.7033599996186229  0.4017396833729986
  0.5403524140334830  0.8311387602831355  0.4002421499066670
  0.5412205061710156  0.9570339267309746  0.3997518795331054
  0.6665260903312650  0.0819740279716813  0.3999300411332634
  0.6671275970101872  0.2071681619026289  0.3997026833834722
  0.6681154448050084  0.3323687908747192  0.3996255933632316
  0.6694857042806732  0.4576086462602087  0.3996065073641307
  0.6684497859786902  0.5816946360043673  0.3995053396232003
  0.6642844124285970  0.7049211027563462  0.3993386017796323
  0.6644486523339099  0.8303316959589454  0.3998988775478291
  0.6658320354117078  0.9565049775012975  0.3999624260756127
  0.7913599398454505  0.0821191067128409  0.4000779461988069
  0.7917929107085252  0.2073115709103025  0.4000672736209935
  0.7923404473906709  0.3325597957487780  0.3997710992292378
  0.7930311469838704  0.4579204390586219  0.3994771139050188
  0.7931485759940441  0.5831975286014867  0.3994423910807504
  0.7915110458843774  0.7076411936161950  0.3993286743218862
  0.7903898502808442  0.8317480629837565  0.3996503263502257
  0.7906593035877405  0.9567413210930009  0.3998455773762860
  0.9166218288558301  0.0829432481960306  0.3999221922277920
  0.9166740204096518  0.2077871279290411  0.3999510742075897
  0.9166708975728206  0.3328713844650251  0.3999099226229523
  0.9169232306756541  0.4582358445059160  0.3997912147933531
  0.9172140370569216  0.5836172410656328  0.3998129486275442
  0.9169683712411109  0.7087665746263947  0.3998941452966586
  0.9166402732296444  0.8335799921724847  0.3998796691911329
  0.9164948464784725  0.9582288787822648  0.3999152374080437
  0.0845201875824401  0.0434264152233687  0.3998482354157206
  0.0848704633211077  0.1684577136761733  0.3996695699921926
  0.0837537239875865  0.2925369078047582  0.3994394723651183
  0.0821257365408880  0.4169517877639777  0.3995250299188040
  0.0821769149572423  0.5421436889655513  0.3994226888260989
  0.0828138939250593  0.6674531610143116  0.3997326456305552
  0.0833365927474535  0.7927348000132177  0.4000283873025026
  0.0837983578206113  0.9180056870335952  0.4000664641498549
  0.2093056602846939  0.0436130139833722  0.3999755317488041
  0.2107469282287917  0.1698251705947586  0.4001204330185126
  0.2109872328560069  0.2952594289258084  0.3998423992257168
  0.2068531697846807  0.4184902725231212  0.4001648443637586
  0.2057973514907280  0.5425289223846369  0.3999212774185429
  0.2070514849617836  0.6676946493553061  0.3996145706367237
  0.2079556979038793  0.7928469536017828  0.3996670704811510
  0.2085509434544242  0.9180739031474822  0.3999002781504657
  0.3338379860780675  0.0430154887000267  0.3997387849774542
  0.3348031301630600  0.1689855274186601  0.4004287604949167
  0.3375602636325756  0.2968378516872344  0.4021104641211916
  0.3340029689479679  0.4230452069062450  0.4014905804183450
  0.3295126401177643  0.5447086584020265  0.4033172005068222
  0.3312962227705965  0.6679972171307272  0.4011143148124130
  0.3326182100057373  0.7926127489780335  0.3996901398435503
  0.3332487463511052  0.9176379035646215  0.3995631975246088
  0.4584945361301783  0.0416586975159954  0.3995545848093843
  0.4592124833300523  0.1670908007572796  0.3997167966717727
  0.4607558424808074  0.2927252700099817  0.4012114986023155
  0.4540527905315519  0.6637000023799118  0.4038715957233264
  0.4571349451162909  0.7907405511826131  0.4000105976554231
  0.4579034679891297  0.9163029864710671  0.3996008195602014
  0.5831890028869702  0.0405085741715945  0.3997492584484431
  0.5838107388458610  0.1656871086320886  0.3995920894162360
  0.5848378404785275  0.2906054968135831  0.4000365575549746
  0.5866390647241819  0.4150581247055409  0.4007808261864034
  0.5858199479488855  0.5387183134457463  0.3999637735101567
  0.5795555129202629  0.6610560475722853  0.4000601890437430
  0.5806018710288311  0.7878685647737469  0.4005342562705022
  0.5824842935051725  0.9148817235280814  0.3999663985039683
  0.7079035775419158  0.0401559560828606  0.4000141685497539
  0.7084922810167531  0.1654939632564261  0.3999253742916239
  0.7091666878324454  0.2907010997654183  0.3996451630531353
  0.7101553827202581  0.4158099848428923  0.3994162683864921
  0.7103750101860749  0.5407964683036132  0.3995634819549895
  0.7079749866263954  0.6650542060420831  0.3991536627550982
  0.7063792702551894  0.7889153867845272  0.3996182157778787
  0.7068940245418109  0.9143390270639780  0.3998402019333133
  0.8329380519123234  0.0405550160063882  0.3999876143377113
  0.8332942431226268  0.1657220973954944  0.4001165918406744
  0.8335447934610524  0.2908160839475630  0.3999793302066720
  0.8340022421822251  0.4161103828892201  0.3997068294695600
  0.8343366069446763  0.5414980904917661  0.3995571581773379
  0.8338101530085036  0.6666346419294255  0.3995274933723750
  0.8329681759833224  0.7911312316466286  0.3995735778495707
  0.8326239583999876  0.9155880521432000  0.3998188559424008
  0.9587594210853021  0.0419721376782092  0.3998852244353686
  0.9585968934968416  0.1665770266513959  0.3997936442178757
  0.9582596067627062  0.2913542081145423  0.3998023436504015
  0.9579824170055526  0.4164173371474243  0.3997468490904287
  0.9582701245635664  0.5417862262071280  0.3997926255938462
  0.9585072818131933  0.6671771065516323  0.3999728753833151
  0.9585332095711169  0.7923380310670033  0.4000159855977686
  0.9586002855291516  0.9172170662121936  0.3999779832442727
  0.4098009468030346  0.5831468215167767  0.4094428829753126
  0.4658585536842573  0.4172461931286401  0.4088188609507217
 
  0.00000000E+00  0.00000000E+00  0.00000000E+00
  0.00000000E+00  0.00000000E+00  0.00000000E+00
  0.00000000E+00  0.00000000E+00  0.00000000E+00
  0.00000000E+00  0.00000000E+00  0.00000000E+00
  0.00000000E+00  0.00000000E+00  0.00000000E+00
  0.00000000E+00  0.00000000E+00  0.00000000E+00
  0.00000000E+00  0.00000000E+00  0.00000000E+00
  0.00000000E+00  0.00000000E+00  0.00000000E+00
  0.00000000E+00  0.00000000E+00  0.00000000E+00
  0.00000000E+00  0.00000000E+00  0.00000000E+00
  0.00000000E+00  0.00000000E+00  0.00000000E+00
  0.00000000E+00  0.00000000E+00  0.00000000E+00
  0.00000000E+00  0.00000000E+00  0.00000000E+00
  0.00000000E+00  0.00000000E+00  0.00000000E+00
  0.00000000E+00  0.00000000E+00  0.00000000E+00
  0.00000000E+00  0.00000000E+00  0.00000000E+00
  0.00000000E+00  0.00000000E+00  0.00000000E+00
  0.00000000E+00  0.00000000E+00  0.00000000E+00
  0.00000000E+00  0.00000000E+00  0.00000000E+00
  0.00000000E+00  0.00000000E+00  0.00000000E+00
  0.00000000E+00  0.00000000E+00  0.00000000E+00
  0.00000000E+00  0.00000000E+00  0.00000000E+00
  0.00000000E+00  0.00000000E+00  0.00000000E+00
  0.00000000E+00  0.00000000E+00  0.00000000E+00
  0.00000000E+00  0.00000000E+00  0.00000000E+00
  0.00000000E+00  0.00000000E+00  0.00000000E+00
  0.00000000E+00  0.00000000E+00  0.00000000E+00
  0.00000000E+00  0.00000000E+00  0.00000000E+00
  0.00000000E+00  0.00000000E+00  0.00000000E+00
  0.00000000E+00  0.00000000E+00  0.00000000E+00
  0.00000000E+00  0.00000000E+00  0.00000000E+00
  0.00000000E+00  0.00000000E+00  0.00000000E+00
  0.00000000E+00  0.00000000E+00  0.00000000E+00
  0.00000000E+00  0.00000000E+00  0.00000000E+00
  0.00000000E+00  0.00000000E+00  0.00000000E+00
  0.00000000E+00  0.00000000E+00  0.00000000E+00
  0.00000000E+00  0.00000000E+00  0.00000000E+00
  0.00000000E+00  0.00000000E+00  0.00000000E+00
  0.00000000E+00  0.00000000E+00  0.00000000E+00
  0.00000000E+00  0.00000000E+00  0.00000000E+00
  0.00000000E+00  0.00000000E+00  0.00000000E+00
  0.00000000E+00  0.00000000E+00  0.00000000E+00
  0.00000000E+00  0.00000000E+00  0.00000000E+00
  0.00000000E+00  0.00000000E+00  0.00000000E+00
  0.00000000E+00  0.00000000E+00  0.00000000E+00
  0.00000000E+00  0.00000000E+00  0.00000000E+00
  0.00000000E+00  0.00000000E+00  0.00000000E+00
  0.00000000E+00  0.00000000E+00  0.00000000E+00
  0.00000000E+00  0.00000000E+00  0.00000000E+00
  0.00000000E+00  0.00000000E+00  0.00000000E+00
  0.00000000E+00  0.00000000E+00  0.00000000E+00
  0.00000000E+00  0.00000000E+00  0.00000000E+00
  0.00000000E+00  0.00000000E+00  0.00000000E+00
  0.00000000E+00  0.00000000E+00  0.00000000E+00
  0.00000000E+00  0.00000000E+00  0.00000000E+00
  0.00000000E+00  0.00000000E+00  0.00000000E+00
  0.00000000E+00  0.00000000E+00  0.00000000E+00
  0.00000000E+00  0.00000000E+00  0.00000000E+00
  0.00000000E+00  0.00000000E+00  0.00000000E+00
  0.00000000E+00  0.00000000E+00  0.00000000E+00
  0.00000000E+00  0.00000000E+00  0.00000000E+00
  0.00000000E+00  0.00000000E+00  0.00000000E+00
  0.00000000E+00  0.00000000E+00  0.00000000E+00
  0.00000000E+00  0.00000000E+00  0.00000000E+00
  0.00000000E+00  0.00000000E+00  0.00000000E+00
  0.00000000E+00  0.00000000E+00  0.00000000E+00
  0.00000000E+00  0.00000000E+00  0.00000000E+00
  0.00000000E+00  0.00000000E+00  0.00000000E+00
  0.00000000E+00  0.00000000E+00  0.00000000E+00
  0.00000000E+00  0.00000000E+00  0.00000000E+00
  0.00000000E+00  0.00000000E+00  0.00000000E+00
  0.00000000E+00  0.00000000E+00  0.00000000E+00
  0.00000000E+00  0.00000000E+00  0.00000000E+00
  0.00000000E+00  0.00000000E+00  0.00000000E+00
  0.00000000E+00  0.00000000E+00  0.00000000E+00
  0.00000000E+00  0.00000000E+00  0.00000000E+00
  0.00000000E+00  0.00000000E+00  0.00000000E+00
  0.00000000E+00  0.00000000E+00  0.00000000E+00
  0.00000000E+00  0.00000000E+00  0.00000000E+00
  0.00000000E+00  0.00000000E+00  0.00000000E+00
  0.00000000E+00  0.00000000E+00  0.00000000E+00
  0.00000000E+00  0.00000000E+00  0.00000000E+00
  0.00000000E+00  0.00000000E+00  0.00000000E+00
  0.00000000E+00  0.00000000E+00  0.00000000E+00
  0.00000000E+00  0.00000000E+00  0.00000000E+00
  0.00000000E+00  0.00000000E+00  0.00000000E+00
  0.00000000E+00  0.00000000E+00  0.00000000E+00
  0.00000000E+00  0.00000000E+00  0.00000000E+00
  0.00000000E+00  0.00000000E+00  0.00000000E+00
  0.00000000E+00  0.00000000E+00  0.00000000E+00
  0.00000000E+00  0.00000000E+00  0.00000000E+00
  0.00000000E+00  0.00000000E+00  0.00000000E+00
  0.00000000E+00  0.00000000E+00  0.00000000E+00
  0.00000000E+00  0.00000000E+00  0.00000000E+00
  0.00000000E+00  0.00000000E+00  0.00000000E+00
  0.00000000E+00  0.00000000E+00  0.00000000E+00
  0.00000000E+00  0.00000000E+00  0.00000000E+00
  0.00000000E+00  0.00000000E+00  0.00000000E+00
  0.00000000E+00  0.00000000E+00  0.00000000E+00
  0.00000000E+00  0.00000000E+00  0.00000000E+00
  0.00000000E+00  0.00000000E+00  0.00000000E+00
  0.00000000E+00  0.00000000E+00  0.00000000E+00
  0.00000000E+00  0.00000000E+00  0.00000000E+00
  0.00000000E+00  0.00000000E+00  0.00000000E+00
  0.00000000E+00  0.00000000E+00  0.00000000E+00
  0.00000000E+00  0.00000000E+00  0.00000000E+00
  0.00000000E+00  0.00000000E+00  0.00000000E+00
  0.00000000E+00  0.00000000E+00  0.00000000E+00
  0.00000000E+00  0.00000000E+00  0.00000000E+00
  0.00000000E+00  0.00000000E+00  0.00000000E+00
  0.00000000E+00  0.00000000E+00  0.00000000E+00
  0.00000000E+00  0.00000000E+00  0.00000000E+00
  0.00000000E+00  0.00000000E+00  0.00000000E+00
  0.00000000E+00  0.00000000E+00  0.00000000E+00
  0.00000000E+00  0.00000000E+00  0.00000000E+00
  0.00000000E+00  0.00000000E+00  0.00000000E+00
  0.00000000E+00  0.00000000E+00  0.00000000E+00
  0.00000000E+00  0.00000000E+00  0.00000000E+00
  0.00000000E+00  0.00000000E+00  0.00000000E+00
  0.00000000E+00  0.00000000E+00  0.00000000E+00
  0.00000000E+00  0.00000000E+00  0.00000000E+00
  0.00000000E+00  0.00000000E+00  0.00000000E+00
  0.00000000E+00  0.00000000E+00  0.00000000E+00
  0.00000000E+00  0.00000000E+00  0.00000000E+00
  0.00000000E+00  0.00000000E+00  0.00000000E+00
  0.00000000E+00  0.00000000E+00  0.00000000E+00
  0.00000000E+00  0.00000000E+00  0.00000000E+00
  0.00000000E+00  0.00000000E+00  0.00000000E+00
