Re1 C126                                
   1.00000000000000     
    19.7996773046605377    0.0000056913832057   -0.0015035917716809
    -9.8998339713008914   17.0567676505738604    0.0007976185039073
    -0.0022580326933522    0.0000789563351721   29.7952590962383468
   Re   C 
     1   126
Direct
  0.4374500765130489  0.4999997114010086  0.4301055821174420
  0.0419344920206942  0.0839301158357152  0.3998857492721390
  0.0410880414420067  0.2081088605633363  0.3996820009490749
  0.0405944367820770  0.3328580768726964  0.3996980797149601
  0.0405997684267927  0.4582459919793768  0.3998008008357712
  0.0413461964631431  0.5836628338917835  0.3999816624231443
  0.0419946258669201  0.7089759865730935  0.4000613214895996
  0.0422536574169035  0.8342473360326654  0.4000528917778563
  0.0422587145641701  0.9592758692196451  0.4000075295339335
  0.1674756233934405  0.0849004975267094  0.3998360805292294
  0.1672772018473785  0.2097556538304469  0.3996268710994097
  0.1654742491200098  0.3332821912002076  0.3997851567970265
  0.1643612692787496  0.4582556543751950  0.3998370587375252
  0.1653114547545944  0.5835729036874475  0.3996666565330508
  0.1664734435468304  0.7089309117900416  0.3998741743209126
  0.1669649574350848  0.8342278988455297  0.4000292533953901
  0.1672861051538030  0.9595854710057889  0.3999722616992839
  0.2924044283246096  0.0848966383020193  0.3998126458739722
  0.2929963103458486  0.2110068086887705  0.3999867714452328
  0.2930879020375715  0.3367119864035521  0.4012243906565327
  0.2874940845221453  0.4580005419164323  0.4020213843109889
  0.2889902357846083  0.5836950540266703  0.4002585722094618
  0.2909407637736331  0.7086638242461051  0.3996072659704988
  0.2915925138591096  0.8338145190490698  0.3998706173878592
  0.2919982384574511  0.9592394411678966  0.3999664243899356
  0.4169735071340342  0.0838941481138573  0.3998600483916239
  0.4174554590481788  0.2097536446444429  0.3996173949530257
  0.4186344825284296  0.3367313927601665  0.4012736658242864
  0.4115818332831604  0.5799804689269742  0.4046311047444469
  0.4154478209877871  0.7065755552904436  0.3998456914616567
  0.4162191699463860  0.8326066273099175  0.3996728167821364
  0.4166206042831417  0.9582516035072274  0.3999981802825026
  0.5415621925960957  0.0827308082897811  0.4000105272041624
  0.5419985516426701  0.2080808566282576  0.3996860358631024
  0.5428271760527960  0.3332781770807476  0.3997964994448104
  0.5455348356343085  0.4579952995665420  0.4020540734641758
  0.5434110473698741  0.5799587465875851  0.4047039122481922
  0.5401617254240356  0.7053243789095553  0.4010170736538423
  0.5407433863919077  0.8314687705426409  0.3997849812259991
  0.5412191742844059  0.9572182220251464  0.3999151537661684
  0.6662120603563794  0.0822504715353939  0.4000175064370789
  0.6665893625319530  0.2075816360513645  0.3999623780803060
  0.6672595708938597  0.3328456193036406  0.3996861445796928
  0.6689333080352320  0.4582611238908210  0.3998244042223327
  0.6697463844206362  0.5836961827229267  0.4002674621563374
  0.6661199771380677  0.7065622300602676  0.3998658074704827
  0.6657101959544489  0.8314870461988623  0.3997773595802521
  0.6659369064376784  0.9568838896948664  0.3998795895835379
  0.7910352643412295  0.0822701645073520  0.4000036130954877
  0.7912140197451014  0.2074436660078491  0.4000678608272936
  0.7917145500349377  0.3328022953543739  0.3999833456320812
  0.7926467431080377  0.4582523453922770  0.3997491886061936
  0.7932763069370639  0.5835732144841963  0.3996363029231646
  0.7927472781814950  0.7086900025706586  0.3996062931355725
  0.7913919361461029  0.8326293899734472  0.3996594342385029
  0.7909975000777353  0.9572504648785191  0.3998695702025404
  0.9161937572736627  0.0827724905655760  0.3999687795614324
  0.9159928339706011  0.2076092994049378  0.3999338552937672
  0.9160994760598730  0.3328047209224937  0.3999970774307225
  0.9165974313450314  0.4581862459626502  0.4000411478199177
  0.9173104560332686  0.5836592799426693  0.3999465407466546
  0.9174680296817431  0.7089507852277526  0.3998813930711893
  0.9172361324182327  0.8338553194285918  0.3999017867793659
  0.9166544484329756  0.9582867666937015  0.4000067260972689
  0.0840010871187337  0.0427816571524283  0.3999157271701027
  0.0836125888901822  0.1673927984324590  0.3996725467982577
  0.0822769560000657  0.2913357670670397  0.3996062886570170
  0.0817381293534924  0.4164262291306565  0.3996666608911725
  0.0823534920128108  0.5417537932938511  0.3998007761055428
  0.0832943809808677  0.6671948788018001  0.3999966761745546
  0.0837700697118941  0.7925564759265930  0.4000681157840265
  0.0839618097577229  0.9177496712821018  0.4000180139727448
  0.2090528542656666  0.0431158497834228  0.3998800660233846
  0.2092748081345975  0.1685313508284636  0.3997846751807366
  0.2088726220770539  0.2934238932228858  0.3998449171446083
  0.2052952901071082  0.4163048429555650  0.4002579306315477
  0.2061049171135567  0.5417438675776267  0.3998373384257482
  0.2077358301454872  0.6671413926337926  0.3996984673887097
  0.2083830372494915  0.7923901536813748  0.3999341922442586
  0.2087649480954758  0.9177296849429414  0.4000044945790407
  0.3337472264728694  0.0427496822941230  0.3998692799993918
  0.3342232259916933  0.1685135132309116  0.3997766095011588
  0.3348380092639372  0.2946753019199314  0.4010162251049047
  0.3316013079818295  0.4200191427157240  0.4046307150473351
  0.3294935005292210  0.5419990496976379  0.4020218383932513
  0.3321915707267559  0.6667173063141937  0.3997858976650130
  0.3329788240782640  0.7918903827006593  0.3996830384116958
  0.3334212748751854  0.9172270386323921  0.3999691076046085
  0.4583678731594849  0.0417135001145160  0.4000061723545882
  0.4587626230201420  0.1673709560407891  0.3996590989442104
  0.4595575710592886  0.2934381744124751  0.3998649423380957
  0.4634526774741284  0.4200413633382286  0.4047036451756005
  0.4563748429220559  0.6632874957540306  0.4012250251751057
  0.4575212593434071  0.7902442227706186  0.3996273916801808
  0.4580043743193596  0.9160695990777087  0.3998852356318717
  0.5829822537368908  0.0407242565019126  0.4000066389072289
  0.5833804327433421  0.1661444482362884  0.3999015558316325
  0.5840573570419721  0.2913103871760329  0.3996058562257729
  0.5860493449447687  0.4163041453886712  0.4002665488193977
  0.5875391688271421  0.5420041929580773  0.4020545068461415
  0.5819023548146346  0.6632675872085125  0.4012744576842294
  0.5819894687879807  0.7889938012488211  0.3999874383533776
  0.5825750618135044  0.9150993484941159  0.3998357286489921
  0.7077002609347306  0.0404143618262988  0.3999714607549518
  0.7080064464085992  0.1657525296277221  0.4000526243988282
  0.7085172877327358  0.2910496117351407  0.3998814215013756
  0.7097026658046355  0.4164270175780742  0.3996357779720628
  0.7106727410133881  0.5417390928057537  0.3998252144007379
  0.7095494664185626  0.6667220692985196  0.3997972929617456
  0.7077020540412085  0.7902469698690967  0.3996183722260587
  0.7075078520986289  0.9151039886754239  0.3998127322068566
  0.8327588186266685  0.0407608302281117  0.3999659392365428
  0.8327365672354931  0.1657716049968363  0.4000290269249194
  0.8330189254361268  0.2910239140154808  0.4000616307876094
  0.8336513286055629  0.4163406770531713  0.3999466913421472
  0.8343947948290925  0.5417479734130567  0.3997493624139829
  0.8344144151532863  0.6671544487690245  0.3996866725502247
  0.8339179465018797  0.7919188167418811  0.3996860229310737
  0.8330797243896395  0.9161063477989414  0.3998604869598405
  0.9583693087485581  0.0417484662060150  0.3999983391775379
  0.9577779002683506  0.1661847968819375  0.3998697670753432
  0.9575422300185500  0.2910682959821559  0.3998742351277864
  0.9576833052337473  0.4163370332031285  0.3999821190604801
  0.9584108290290656  0.5418133635858725  0.4000409770275906
  0.9589124626281521  0.6671979124421654  0.3999831835030235
  0.9590076400800625  0.7924181931092955  0.3999626507886062
  0.9588319165280412  0.9172693518278118  0.4000112268039236
 
  0.00000000E+00  0.00000000E+00  0.00000000E+00
  0.00000000E+00  0.00000000E+00  0.00000000E+00
  0.00000000E+00  0.00000000E+00  0.00000000E+00
  0.00000000E+00  0.00000000E+00  0.00000000E+00
  0.00000000E+00  0.00000000E+00  0.00000000E+00
  0.00000000E+00  0.00000000E+00  0.00000000E+00
  0.00000000E+00  0.00000000E+00  0.00000000E+00
  0.00000000E+00  0.00000000E+00  0.00000000E+00
  0.00000000E+00  0.00000000E+00  0.00000000E+00
  0.00000000E+00  0.00000000E+00  0.00000000E+00
  0.00000000E+00  0.00000000E+00  0.00000000E+00
  0.00000000E+00  0.00000000E+00  0.00000000E+00
  0.00000000E+00  0.00000000E+00  0.00000000E+00
  0.00000000E+00  0.00000000E+00  0.00000000E+00
  0.00000000E+00  0.00000000E+00  0.00000000E+00
  0.00000000E+00  0.00000000E+00  0.00000000E+00
  0.00000000E+00  0.00000000E+00  0.00000000E+00
  0.00000000E+00  0.00000000E+00  0.00000000E+00
  0.00000000E+00  0.00000000E+00  0.00000000E+00
  0.00000000E+00  0.00000000E+00  0.00000000E+00
  0.00000000E+00  0.00000000E+00  0.00000000E+00
  0.00000000E+00  0.00000000E+00  0.00000000E+00
  0.00000000E+00  0.00000000E+00  0.00000000E+00
  0.00000000E+00  0.00000000E+00  0.00000000E+00
  0.00000000E+00  0.00000000E+00  0.00000000E+00
  0.00000000E+00  0.00000000E+00  0.00000000E+00
  0.00000000E+00  0.00000000E+00  0.00000000E+00
  0.00000000E+00  0.00000000E+00  0.00000000E+00
  0.00000000E+00  0.00000000E+00  0.00000000E+00
  0.00000000E+00  0.00000000E+00  0.00000000E+00
  0.00000000E+00  0.00000000E+00  0.00000000E+00
  0.00000000E+00  0.00000000E+00  0.00000000E+00
  0.00000000E+00  0.00000000E+00  0.00000000E+00
  0.00000000E+00  0.00000000E+00  0.00000000E+00
  0.00000000E+00  0.00000000E+00  0.00000000E+00
  0.00000000E+00  0.00000000E+00  0.00000000E+00
  0.00000000E+00  0.00000000E+00  0.00000000E+00
  0.00000000E+00  0.00000000E+00  0.00000000E+00
  0.00000000E+00  0.00000000E+00  0.00000000E+00
  0.00000000E+00  0.00000000E+00  0.00000000E+00
  0.00000000E+00  0.00000000E+00  0.00000000E+00
  0.00000000E+00  0.00000000E+00  0.00000000E+00
  0.00000000E+00  0.00000000E+00  0.00000000E+00
  0.00000000E+00  0.00000000E+00  0.00000000E+00
  0.00000000E+00  0.00000000E+00  0.00000000E+00
  0.00000000E+00  0.00000000E+00  0.00000000E+00
  0.00000000E+00  0.00000000E+00  0.00000000E+00
  0.00000000E+00  0.00000000E+00  0.00000000E+00
  0.00000000E+00  0.00000000E+00  0.00000000E+00
  0.00000000E+00  0.00000000E+00  0.00000000E+00
  0.00000000E+00  0.00000000E+00  0.00000000E+00
  0.00000000E+00  0.00000000E+00  0.00000000E+00
  0.00000000E+00  0.00000000E+00  0.00000000E+00
  0.00000000E+00  0.00000000E+00  0.00000000E+00
  0.00000000E+00  0.00000000E+00  0.00000000E+00
  0.00000000E+00  0.00000000E+00  0.00000000E+00
  0.00000000E+00  0.00000000E+00  0.00000000E+00
  0.00000000E+00  0.00000000E+00  0.00000000E+00
  0.00000000E+00  0.00000000E+00  0.00000000E+00
  0.00000000E+00  0.00000000E+00  0.00000000E+00
  0.00000000E+00  0.00000000E+00  0.00000000E+00
  0.00000000E+00  0.00000000E+00  0.00000000E+00
  0.00000000E+00  0.00000000E+00  0.00000000E+00
  0.00000000E+00  0.00000000E+00  0.00000000E+00
  0.00000000E+00  0.00000000E+00  0.00000000E+00
  0.00000000E+00  0.00000000E+00  0.00000000E+00
  0.00000000E+00  0.00000000E+00  0.00000000E+00
  0.00000000E+00  0.00000000E+00  0.00000000E+00
  0.00000000E+00  0.00000000E+00  0.00000000E+00
  0.00000000E+00  0.00000000E+00  0.00000000E+00
  0.00000000E+00  0.00000000E+00  0.00000000E+00
  0.00000000E+00  0.00000000E+00  0.00000000E+00
  0.00000000E+00  0.00000000E+00  0.00000000E+00
  0.00000000E+00  0.00000000E+00  0.00000000E+00
  0.00000000E+00  0.00000000E+00  0.00000000E+00
  0.00000000E+00  0.00000000E+00  0.00000000E+00
  0.00000000E+00  0.00000000E+00  0.00000000E+00
  0.00000000E+00  0.00000000E+00  0.00000000E+00
  0.00000000E+00  0.00000000E+00  0.00000000E+00
  0.00000000E+00  0.00000000E+00  0.00000000E+00
  0.00000000E+00  0.00000000E+00  0.00000000E+00
  0.00000000E+00  0.00000000E+00  0.00000000E+00
  0.00000000E+00  0.00000000E+00  0.00000000E+00
  0.00000000E+00  0.00000000E+00  0.00000000E+00
  0.00000000E+00  0.00000000E+00  0.00000000E+00
  0.00000000E+00  0.00000000E+00  0.00000000E+00
  0.00000000E+00  0.00000000E+00  0.00000000E+00
  0.00000000E+00  0.00000000E+00  0.00000000E+00
  0.00000000E+00  0.00000000E+00  0.00000000E+00
  0.00000000E+00  0.00000000E+00  0.00000000E+00
  0.00000000E+00  0.00000000E+00  0.00000000E+00
  0.00000000E+00  0.00000000E+00  0.00000000E+00
  0.00000000E+00  0.00000000E+00  0.00000000E+00
  0.00000000E+00  0.00000000E+00  0.00000000E+00
  0.00000000E+00  0.00000000E+00  0.00000000E+00
  0.00000000E+00  0.00000000E+00  0.00000000E+00
  0.00000000E+00  0.00000000E+00  0.00000000E+00
  0.00000000E+00  0.00000000E+00  0.00000000E+00
  0.00000000E+00  0.00000000E+00  0.00000000E+00
  0.00000000E+00  0.00000000E+00  0.00000000E+00
  0.00000000E+00  0.00000000E+00  0.00000000E+00
  0.00000000E+00  0.00000000E+00  0.00000000E+00
  0.00000000E+00  0.00000000E+00  0.00000000E+00
  0.00000000E+00  0.00000000E+00  0.00000000E+00
  0.00000000E+00  0.00000000E+00  0.00000000E+00
  0.00000000E+00  0.00000000E+00  0.00000000E+00
  0.00000000E+00  0.00000000E+00  0.00000000E+00
  0.00000000E+00  0.00000000E+00  0.00000000E+00
  0.00000000E+00  0.00000000E+00  0.00000000E+00
  0.00000000E+00  0.00000000E+00  0.00000000E+00
  0.00000000E+00  0.00000000E+00  0.00000000E+00
  0.00000000E+00  0.00000000E+00  0.00000000E+00
  0.00000000E+00  0.00000000E+00  0.00000000E+00
  0.00000000E+00  0.00000000E+00  0.00000000E+00
  0.00000000E+00  0.00000000E+00  0.00000000E+00
  0.00000000E+00  0.00000000E+00  0.00000000E+00
  0.00000000E+00  0.00000000E+00  0.00000000E+00
  0.00000000E+00  0.00000000E+00  0.00000000E+00
  0.00000000E+00  0.00000000E+00  0.00000000E+00
  0.00000000E+00  0.00000000E+00  0.00000000E+00
  0.00000000E+00  0.00000000E+00  0.00000000E+00
  0.00000000E+00  0.00000000E+00  0.00000000E+00
  0.00000000E+00  0.00000000E+00  0.00000000E+00
  0.00000000E+00  0.00000000E+00  0.00000000E+00
  0.00000000E+00  0.00000000E+00  0.00000000E+00
  0.00000000E+00  0.00000000E+00  0.00000000E+00
  0.00000000E+00  0.00000000E+00  0.00000000E+00
