Zn1 C122 N4 O1                          
   1.00000000000000     
    19.8099905860794863   -0.0000110501884035    0.0014275079009054
    -9.9050053255928656   17.0204855429199995   -0.0012764728583024
     0.0021725711341193   -0.0009860367045667   29.8432417209559055
   Zn   C    N    O 
     1   122     4     1
Direct
  0.4375115152055276  0.5000063050167977  0.4316429899331390
  0.0420702764252451  0.0842227585596342  0.4000434254584344
  0.0409369382011111  0.2081767411584325  0.4000919325848111
  0.0401814238717191  0.3328208206885170  0.3997607638238557
  0.0403688699979737  0.4581928260758975  0.3993934236730194
  0.0412664669280593  0.5837686466519393  0.3992544593845285
  0.0421370947781993  0.7092739224925640  0.3993478793252835
  0.0425551392397765  0.8346868633755665  0.3995504763528205
  0.0426847246255000  0.9598709234056626  0.3997791800321216
  0.1683732881876877  0.0862584447163425  0.4006444008771021
  0.1674092782386405  0.2104075437728842  0.4011396450343148
  0.1650433343021306  0.3336667837790932  0.4008296277024980
  0.1640793989655251  0.4583980031859350  0.3997873780318640
  0.1650506665965256  0.5835991001461169  0.3996073097848181
  0.1663330030180967  0.7090946643181437  0.3995547777027519
  0.1671391029717285  0.8346859402617685  0.3995404093019959
  0.1677158259806040  0.9603898057662368  0.3999202779415481
  0.2929103408616280  0.0862437778654293  0.4006172510306021
  0.2946154228594975  0.2142217349496503  0.4022770669297681
  0.2923173664034182  0.3393671951359155  0.4036286942882982
  0.2876129486696671  0.4572047681073550  0.4023951301605082
  0.2884615564014998  0.5831124810908435  0.4006033712588643
  0.2904543602019076  0.7085384343988715  0.4001868560240029
  0.2915708290296776  0.8340264210429907  0.3997277354873725
  0.2922324642344977  0.9598565821225815  0.3997493450836812
  0.4171855031001165  0.0842006233839213  0.4000506244066148
  0.4179965619926482  0.2103974839885483  0.4011579791322296
  0.4220512852010496  0.3393694370723163  0.4036035500084811
  0.4143871333346693  0.7060274977117739  0.4016947713002240
  0.4159711308926870  0.8322540653239007  0.4003711907253407
  0.4166412554237134  0.9582489625199829  0.3997601467106282
  0.5415742783638078  0.0824184310629961  0.3997058739839587
  0.5422446880351853  0.2081681975712896  0.4001285920295864
  0.5436019352172546  0.3336557735819569  0.4007762294164030
  0.5445638741769553  0.4572112336535232  0.4023090068267697
  0.5380188495684690  0.7010314083600852  0.4036689291695819
  0.5401473691704191  0.8297262769980724  0.4014218579754791
  0.5410123810631015  0.9563737461015702  0.4001186244118176
  0.6660259494170943  0.0816646389542104  0.3997276616396555
  0.6665947324764733  0.2072801510534627  0.3996016486675917
  0.6676171034931302  0.3328293926511329  0.3997337592231155
  0.6692793010634834  0.4584009095111629  0.3996685571811730
  0.6696289476327829  0.5831205435255343  0.4005009501621895
  0.6666390915466888  0.7060460465777961  0.4016771553452450
  0.6646039273823917  0.8297494197346582  0.4014349341003542
  0.6654604405993081  0.9558782226232643  0.4004255057638931
  0.7906824309609644  0.0816644516191037  0.3997128008298549
  0.7910444572760398  0.2070797850443832  0.3994688117605853
  0.7917521619590266  0.3326309740792091  0.3993441123276099
  0.7927732404045341  0.4582001684207310  0.3993306914041750
  0.7934962247037100  0.5835845396128065  0.3995289160789237
  0.7930725595187357  0.7085439054557866  0.4001751618626054
  0.7913054729016173  0.8322645668436955  0.4004037977082903
  0.7904051633177922  0.9563903097300008  0.4000947951662966
  0.9159028872738622  0.0824402831016592  0.3996825478101878
  0.9156921645625217  0.2072954877948406  0.3995870601941704
  0.9158649126968182  0.3326418989595846  0.3993443975857733
  0.9165548130120356  0.4581601876072318  0.3991364680876005
  0.9174491198345807  0.5837720127300036  0.3992413528197263
  0.9177451456795872  0.7091033434220848  0.3995523741204151
  0.9174810439655184  0.8340449940878290  0.3997616865932457
  0.9166714012053319  0.9582681253613127  0.3997697902316858
  0.0846380682186147  0.0436278601522490  0.4001170714884982
  0.0837176734114529  0.1677469252518949  0.4003698029722060
  0.0819166147181105  0.2914641041431320  0.4001837042403597
  0.0814514221414111  0.4164029148442288  0.3996046821513879
  0.0821762891941131  0.5418096511929149  0.3993944051977867
  0.0832225378943974  0.6673581371722284  0.3993466315462172
  0.0839636595883917  0.7929214654303278  0.3994693635606209
  0.0843598890606170  0.9183346964969809  0.3997282663287963
  0.2095817760021097  0.0441229809655295  0.4004247505696807
  0.2104227032699598  0.1702755112899029  0.4014225900699275
  0.2083614349706648  0.2939768114338909  0.4017003399244692
  0.2053483401670021  0.4168895114356892  0.4006020923794402
  0.2056810972705988  0.5416052419894516  0.3997887254130031
  0.2073607783749822  0.6671795739413888  0.3997649631321126
  0.2083965728295801  0.7927067158447443  0.3995892299812277
  0.2090185714236300  0.9183373396490884  0.3997129132962361
  0.3340159834070923  0.0436121819719586  0.4000937032293669
  0.3348552176529396  0.1702529885243597  0.4014360247858628
  0.3369855818875154  0.2989734985310594  0.4036849030014152
  0.3304150263037334  0.5428006054131996  0.4023910349333156
  0.3313782748818279  0.6663364200685650  0.4008280405136768
  0.3327607281776350  0.7918256103122341  0.4000945262339443
  0.3334617686745592  0.9175603053052397  0.3996824359744364
  0.4584039560331975  0.0417340326978907  0.3997688943273545
  0.4590408949771750  0.1677371931069217  0.4004021852213606
  0.4605931335191857  0.2939540461698001  0.4016812678672096
  0.4529497262865885  0.6606300433224371  0.4036159654409192
  0.4570027296174844  0.7895945537469697  0.4011373313710636
  0.4578465462222989  0.9157777997238344  0.4000446135487657
  0.5828145701236951  0.0401293968285642  0.3997798162418506
  0.5834359570873696  0.1659546974201593  0.3997600179973583
  0.5845281323324396  0.2914570668121415  0.4001743702150066
  0.5865070084431514  0.4168809855144529  0.4005005958323393
  0.5873535210274775  0.5427897551874447  0.4023058817307393
  0.5826805959919034  0.6606354763510818  0.4035918194923995
  0.5803960751496008  0.7857814254411298  0.4022721834118883
  0.5821142726798078  0.9137425521092709  0.4006455246798019
  0.7073274747522871  0.0396129035142515  0.3999202098625792
  0.7078695559049661  0.1653135401501561  0.3995499129538910
  0.7086400068406825  0.2908967681641156  0.3995505313271320
  0.7099097197148960  0.4164144732283156  0.3995278961367327
  0.7108775492229268  0.5416001156454990  0.3996690955877918
  0.7099471085582909  0.6663456981184283  0.4007754506377024
  0.7075985008225867  0.7896037257920698  0.4011570460699352
  0.7066668523225162  0.9137579512028638  0.4006180459244564
  0.8323771070640308  0.0401440457273432  0.3997506990206309
  0.8324548449247691  0.1653151105912553  0.3995393648650215
  0.8328640191420865  0.2907267448767397  0.3993472486389066
  0.8336758302340068  0.4162275401016827  0.3992400583140663
  0.8345717652171710  0.5417999115593101  0.3993306104715915
  0.8347878195533458  0.6671711513902859  0.3997351846523658
  0.8340763204479831  0.7918329424413505  0.4001304443061833
  0.8329847767432520  0.9157997698051820  0.4000514568467182
  0.9583922187337415  0.0417515722653692  0.3997599479622286
  0.9575462530279316  0.1659743859031463  0.3997259656447988
  0.9572393618166664  0.2909069098990252  0.3995510471435830
  0.9574970579076555  0.4162318754579638  0.3992520533181106
  0.9583947930585680  0.5418392358025301  0.3991376516462630
  0.9591207858419373  0.6673700267368093  0.3993453021790284
  0.9593143501413186  0.7927206936221447  0.3996028326493181
  0.9591549795971795  0.9175828243365516  0.3997066636644703
  0.4090041199790353  0.5809180805621829  0.4048654204729980
  0.5468936378158520  0.5809203144548354  0.4048137541328700
  0.3280845602723849  0.4190862480242803  0.4048870043745280
  0.4659760379301288  0.4190774184467176  0.4048323932425152
  0.4377008887795755  0.5002609624706317  0.4931319196820360
 
  0.00000000E+00  0.00000000E+00  0.00000000E+00
  0.00000000E+00  0.00000000E+00  0.00000000E+00
  0.00000000E+00  0.00000000E+00  0.00000000E+00
  0.00000000E+00  0.00000000E+00  0.00000000E+00
  0.00000000E+00  0.00000000E+00  0.00000000E+00
  0.00000000E+00  0.00000000E+00  0.00000000E+00
  0.00000000E+00  0.00000000E+00  0.00000000E+00
  0.00000000E+00  0.00000000E+00  0.00000000E+00
  0.00000000E+00  0.00000000E+00  0.00000000E+00
  0.00000000E+00  0.00000000E+00  0.00000000E+00
  0.00000000E+00  0.00000000E+00  0.00000000E+00
  0.00000000E+00  0.00000000E+00  0.00000000E+00
  0.00000000E+00  0.00000000E+00  0.00000000E+00
  0.00000000E+00  0.00000000E+00  0.00000000E+00
  0.00000000E+00  0.00000000E+00  0.00000000E+00
  0.00000000E+00  0.00000000E+00  0.00000000E+00
  0.00000000E+00  0.00000000E+00  0.00000000E+00
  0.00000000E+00  0.00000000E+00  0.00000000E+00
  0.00000000E+00  0.00000000E+00  0.00000000E+00
  0.00000000E+00  0.00000000E+00  0.00000000E+00
  0.00000000E+00  0.00000000E+00  0.00000000E+00
  0.00000000E+00  0.00000000E+00  0.00000000E+00
  0.00000000E+00  0.00000000E+00  0.00000000E+00
  0.00000000E+00  0.00000000E+00  0.00000000E+00
  0.00000000E+00  0.00000000E+00  0.00000000E+00
  0.00000000E+00  0.00000000E+00  0.00000000E+00
  0.00000000E+00  0.00000000E+00  0.00000000E+00
  0.00000000E+00  0.00000000E+00  0.00000000E+00
  0.00000000E+00  0.00000000E+00  0.00000000E+00
  0.00000000E+00  0.00000000E+00  0.00000000E+00
  0.00000000E+00  0.00000000E+00  0.00000000E+00
  0.00000000E+00  0.00000000E+00  0.00000000E+00
  0.00000000E+00  0.00000000E+00  0.00000000E+00
  0.00000000E+00  0.00000000E+00  0.00000000E+00
  0.00000000E+00  0.00000000E+00  0.00000000E+00
  0.00000000E+00  0.00000000E+00  0.00000000E+00
  0.00000000E+00  0.00000000E+00  0.00000000E+00
  0.00000000E+00  0.00000000E+00  0.00000000E+00
  0.00000000E+00  0.00000000E+00  0.00000000E+00
  0.00000000E+00  0.00000000E+00  0.00000000E+00
  0.00000000E+00  0.00000000E+00  0.00000000E+00
  0.00000000E+00  0.00000000E+00  0.00000000E+00
  0.00000000E+00  0.00000000E+00  0.00000000E+00
  0.00000000E+00  0.00000000E+00  0.00000000E+00
  0.00000000E+00  0.00000000E+00  0.00000000E+00
  0.00000000E+00  0.00000000E+00  0.00000000E+00
  0.00000000E+00  0.00000000E+00  0.00000000E+00
  0.00000000E+00  0.00000000E+00  0.00000000E+00
  0.00000000E+00  0.00000000E+00  0.00000000E+00
  0.00000000E+00  0.00000000E+00  0.00000000E+00
  0.00000000E+00  0.00000000E+00  0.00000000E+00
  0.00000000E+00  0.00000000E+00  0.00000000E+00
  0.00000000E+00  0.00000000E+00  0.00000000E+00
  0.00000000E+00  0.00000000E+00  0.00000000E+00
  0.00000000E+00  0.00000000E+00  0.00000000E+00
  0.00000000E+00  0.00000000E+00  0.00000000E+00
  0.00000000E+00  0.00000000E+00  0.00000000E+00
  0.00000000E+00  0.00000000E+00  0.00000000E+00
  0.00000000E+00  0.00000000E+00  0.00000000E+00
  0.00000000E+00  0.00000000E+00  0.00000000E+00
  0.00000000E+00  0.00000000E+00  0.00000000E+00
  0.00000000E+00  0.00000000E+00  0.00000000E+00
  0.00000000E+00  0.00000000E+00  0.00000000E+00
  0.00000000E+00  0.00000000E+00  0.00000000E+00
  0.00000000E+00  0.00000000E+00  0.00000000E+00
  0.00000000E+00  0.00000000E+00  0.00000000E+00
  0.00000000E+00  0.00000000E+00  0.00000000E+00
  0.00000000E+00  0.00000000E+00  0.00000000E+00
  0.00000000E+00  0.00000000E+00  0.00000000E+00
  0.00000000E+00  0.00000000E+00  0.00000000E+00
  0.00000000E+00  0.00000000E+00  0.00000000E+00
  0.00000000E+00  0.00000000E+00  0.00000000E+00
  0.00000000E+00  0.00000000E+00  0.00000000E+00
  0.00000000E+00  0.00000000E+00  0.00000000E+00
  0.00000000E+00  0.00000000E+00  0.00000000E+00
  0.00000000E+00  0.00000000E+00  0.00000000E+00
  0.00000000E+00  0.00000000E+00  0.00000000E+00
  0.00000000E+00  0.00000000E+00  0.00000000E+00
  0.00000000E+00  0.00000000E+00  0.00000000E+00
  0.00000000E+00  0.00000000E+00  0.00000000E+00
  0.00000000E+00  0.00000000E+00  0.00000000E+00
  0.00000000E+00  0.00000000E+00  0.00000000E+00
  0.00000000E+00  0.00000000E+00  0.00000000E+00
  0.00000000E+00  0.00000000E+00  0.00000000E+00
  0.00000000E+00  0.00000000E+00  0.00000000E+00
  0.00000000E+00  0.00000000E+00  0.00000000E+00
  0.00000000E+00  0.00000000E+00  0.00000000E+00
  0.00000000E+00  0.00000000E+00  0.00000000E+00
  0.00000000E+00  0.00000000E+00  0.00000000E+00
  0.00000000E+00  0.00000000E+00  0.00000000E+00
  0.00000000E+00  0.00000000E+00  0.00000000E+00
  0.00000000E+00  0.00000000E+00  0.00000000E+00
  0.00000000E+00  0.00000000E+00  0.00000000E+00
  0.00000000E+00  0.00000000E+00  0.00000000E+00
  0.00000000E+00  0.00000000E+00  0.00000000E+00
  0.00000000E+00  0.00000000E+00  0.00000000E+00
  0.00000000E+00  0.00000000E+00  0.00000000E+00
  0.00000000E+00  0.00000000E+00  0.00000000E+00
  0.00000000E+00  0.00000000E+00  0.00000000E+00
  0.00000000E+00  0.00000000E+00  0.00000000E+00
  0.00000000E+00  0.00000000E+00  0.00000000E+00
  0.00000000E+00  0.00000000E+00  0.00000000E+00
  0.00000000E+00  0.00000000E+00  0.00000000E+00
  0.00000000E+00  0.00000000E+00  0.00000000E+00
  0.00000000E+00  0.00000000E+00  0.00000000E+00
  0.00000000E+00  0.00000000E+00  0.00000000E+00
  0.00000000E+00  0.00000000E+00  0.00000000E+00
  0.00000000E+00  0.00000000E+00  0.00000000E+00
  0.00000000E+00  0.00000000E+00  0.00000000E+00
  0.00000000E+00  0.00000000E+00  0.00000000E+00
  0.00000000E+00  0.00000000E+00  0.00000000E+00
  0.00000000E+00  0.00000000E+00  0.00000000E+00
  0.00000000E+00  0.00000000E+00  0.00000000E+00
  0.00000000E+00  0.00000000E+00  0.00000000E+00
  0.00000000E+00  0.00000000E+00  0.00000000E+00
  0.00000000E+00  0.00000000E+00  0.00000000E+00
  0.00000000E+00  0.00000000E+00  0.00000000E+00
  0.00000000E+00  0.00000000E+00  0.00000000E+00
  0.00000000E+00  0.00000000E+00  0.00000000E+00
  0.00000000E+00  0.00000000E+00  0.00000000E+00
  0.00000000E+00  0.00000000E+00  0.00000000E+00
  0.00000000E+00  0.00000000E+00  0.00000000E+00
  0.00000000E+00  0.00000000E+00  0.00000000E+00
  0.00000000E+00  0.00000000E+00  0.00000000E+00
  0.00000000E+00  0.00000000E+00  0.00000000E+00
  0.00000000E+00  0.00000000E+00  0.00000000E+00
  0.00000000E+00  0.00000000E+00  0.00000000E+00
  0.00000000E+00  0.00000000E+00  0.00000000E+00
