Zr1 H1 C124 N2 O2                       
   1.00000000000000     
    19.8096980351909018   -0.0157346548092183   -0.1211749024508708
    -9.9198461043171768   17.0686466123708591   -0.1139167331600566
    -0.1817359716188574   -0.3041106736689001   29.7774356418256900
   Zr   H    C    N    O 
     1     1   124     2     2
Direct
  0.4359424212198145  0.5022323771094346  0.4414008375619061
  0.5471859558247889  0.5596868114018581  0.5142072316506162
  0.0421227698105573  0.0840538016200912  0.3994677570280812
  0.0415123054747703  0.2085040319672234  0.3991991560509864
  0.0408827531866762  0.3331505865882065  0.3989972962400578
  0.0407984225059089  0.4584635093358845  0.3990770826323868
  0.0414180675416810  0.5838697665336885  0.3994712675250757
  0.0420203185134231  0.7091899280455712  0.3997536120236436
  0.0423113683493148  0.8344241272368318  0.3997511792273903
  0.0424533538967332  0.9595155349373417  0.3995883166419047
  0.1680719778305454  0.0854632121642176  0.4000167105822887
  0.1674257523489049  0.2098862958877723  0.3998355468116116
  0.1662226396607241  0.3341567800425139  0.3993515267183179
  0.1646860794149156  0.4587448256245048  0.3988976726013871
  0.1653627423427516  0.5839512174932854  0.3989549039543829
  0.1663811811552418  0.7092176494772869  0.3995118823242079
  0.1670005403424471  0.8345032044364233  0.3997943641596695
  0.1674709361572337  0.9598597679996727  0.3998942417376697
  0.2926665012053168  0.0851181462291249  0.4001044248915661
  0.2943606358675102  0.2121124191228107  0.4017963033523514
  0.2927886382616166  0.3368889691308935  0.4031236332921574
  0.2891928776823892  0.4594051191555262  0.4021632328475592
  0.2891245094710353  0.5845156931610395  0.4000486226961725
  0.2907722532811067  0.7093225726178339  0.3992798055550379
  0.2916219486442538  0.8342953887297452  0.3993330755192429
  0.2920875416437990  0.9594982253511858  0.3995531672561904
  0.4172059246181643  0.0838704800931622  0.3993968112517920
  0.4178350287230075  0.2094145624689473  0.4003918619817400
  0.4212806580120492  0.3370718007820406  0.4054110497565209
  0.4151630816612091  0.7078703889741564  0.4005784407832068
  0.4162277459275859  0.8332425400591377  0.3992950354566421
  0.4167366255924326  0.9585433655137452  0.3992510934946236
  0.5418227867205837  0.0827299654030286  0.3994263944966844
  0.5423493616682404  0.2078332948411127  0.3993655925110198
  0.5435521718718098  0.3327794567415926  0.4004796717402344
  0.5450372920708628  0.4562941968647526  0.4048083284207447
  0.5453114906069405  0.5814250263844759  0.4088513573883542
  0.5391583690399981  0.7045621564630912  0.4037731518315967
  0.5407507793637383  0.8316680983679491  0.4002498524914121
  0.5414240224068505  0.9574040296543743  0.3995091239723809
  0.6665142225457644  0.0823346365060934  0.3997943408906331
  0.6669786377616225  0.2075665298643727  0.3995515645794624
  0.6677919858300395  0.3327768390076779  0.3989912272069236
  0.6691463836115235  0.4581496810527433  0.3987331715839456
  0.6690106403529753  0.5826471237931733  0.3998858401911253
  0.6663531435496461  0.7067065255226396  0.4002117110580178
  0.6653100502273942  0.8311463234275346  0.4001400019999899
  0.6660576969639713  0.9569608104105559  0.3998332209804176
  0.7912907203109367  0.0823622719966618  0.3997660889864000
  0.7915889229115871  0.2075695052820336  0.3998358492661446
  0.7921320163572153  0.3328677025461146  0.3994389519147842
  0.7928651187323448  0.4582177054807541  0.3986876156944117
  0.7933136802043181  0.5834855729178101  0.3982738129446386
  0.7924934742922672  0.7083252478279883  0.3985590711583623
  0.7913848414319260  0.8326026365915178  0.3988589453698810
  0.7909547108847301  0.9571245463337461  0.3993720483147929
  0.9164077456649984  0.0828977737057492  0.3994270520787466
  0.9163046847917367  0.2077755190989072  0.3995454882533421
  0.9164217631333841  0.3329669777463737  0.3995231742022683
  0.9168305107118684  0.4583190839449187  0.3993899056220707
  0.9174341220942478  0.5837610450486207  0.3992117321046558
  0.9174738446162644  0.7089884494001742  0.3991041289829417
  0.9172082212857439  0.8338345704215522  0.3990456185181290
  0.9167513527871886  0.9583668087921193  0.3991956937107601
  0.0843863979046727  0.0431351508057812  0.3996430048555821
  0.0838128520803950  0.1675103798417789  0.3993935750629347
  0.0827915506115009  0.2918602545895311  0.3990035016673942
  0.0819309168209337  0.4166810387245739  0.3988080601015464
  0.0824068070514489  0.5420098549392071  0.3991263142719488
  0.0832168719125479  0.6673971389340131  0.3996469505912147
  0.0837811700367878  0.7927344604947812  0.3998488814969521
  0.0840906427339617  0.9179333467040289  0.3997886294430021
  0.2093392664256568  0.0433728321432735  0.4000624692718718
  0.2101194747729639  0.1692082424775090  0.4004936105634367
  0.2088561619578747  0.2933408450832545  0.4000767528253882
  0.2063232974237468  0.4176078214208395  0.3996514559776521
  0.2061232224323712  0.5421008499085073  0.3990055080935213
  0.2075101997870519  0.6675067691995356  0.3992132771296735
  0.2083569940348141  0.7927518633945708  0.3995811601806915
  0.2088720583260248  0.9180003718259671  0.3997825214996045
  0.3339385058274054  0.0429670928908686  0.3996260468344768
  0.3347312958230501  0.1687828818048256  0.4008295638170714
  0.3366844685037697  0.2961440105083100  0.4042294401382470
  0.3307214317666043  0.4189740659734610  0.4055636577519935
  0.3307254590710512  0.5444024072301977  0.4026314196639655
  0.3318973914625860  0.6677025280100061  0.3999000144770135
  0.3330056315946444  0.7925514879243081  0.3992388853807020
  0.3335168910060665  0.9176161104268922  0.3993302707470767
  0.4586090774690076  0.0418560281687759  0.3993072075497388
  0.4591312114921181  0.1672153536481747  0.3995335221316995
  0.4604149219493620  0.2928901886633454  0.4016376606183338
  0.4548592438997125  0.6642939668862141  0.4036549298726218
  0.4576153203715543  0.7911577362715247  0.3998185937730385
  0.4581481494309085  0.9165600648028266  0.3992887540829159
  0.5832815539193826  0.0408544724729895  0.3995828512596499
  0.5837107226090783  0.1660540441040353  0.3993957356944575
  0.5845898016185425  0.2910349529125820  0.3993626167171415
  0.5862384517693811  0.4158849282077076  0.4005838019475486
  0.5867145615539550  0.5411190544627095  0.4042214953467629
  0.5826663296629608  0.6632327616681690  0.4042045148718465
  0.5812402098478225  0.7884197198819024  0.4012701159867257
  0.5827505038113969  0.9152852569854678  0.3997967306524201
  0.7079110620143728  0.0404607352717148  0.3998245202933908
  0.7083682314200028  0.1658220530604614  0.3997985283185593
  0.7089590631986417  0.2910725887119783  0.3993185995123801
  0.7099027657077972  0.4162973692068127  0.3985307819176786
  0.7106021879910940  0.5414496047799725  0.3985051951452769
  0.7091083914949259  0.6660583072881712  0.3992995629275841
  0.7077741859482327  0.7902311545166933  0.3994357054606532
  0.7073136193243650  0.9148528792620491  0.3997062309360824
  0.8329094720916204  0.0407593823211637  0.3995224866982506
  0.8330522561920937  0.1658708267366494  0.3997927468962896
  0.8333521290971769  0.2910908968775310  0.3996767618060638
  0.8338828625090875  0.4163664761711094  0.3992148074928910
  0.8344821732624117  0.5417419884975933  0.3986465416072686
  0.8344066686203305  0.6670489028443398  0.3985522182503659
  0.8337668452093114  0.7916732782607510  0.3986943156805311
  0.8331352550556101  0.9161122904240226  0.3990898016679147
  0.9585242761855278  0.0418080536644751  0.3993558785561517
  0.9581019112619344  0.1663985927661161  0.3993780809920132
  0.9578516649642028  0.2912576944804933  0.3993653299174071
  0.9578839476195542  0.4164855456168647  0.3993911412724493
  0.9584868622675178  0.5419172646832812  0.3994209255008832
  0.9589371578709623  0.6672969850120571  0.3994197274501592
  0.9590370307722887  0.7924925223205855  0.3993573794520329
  0.9589330538662975  0.9173510076294543  0.3992589520424823
  0.4107691681164302  0.5841311950318062  0.4067077268751076
  0.4657356807327465  0.4174583094196912  0.4098947261201210
  0.5040406516996316  0.5067676042493529  0.5069893558907129
  0.4347650857620948  0.5175559457710285  0.5102415968997687
 
  0.00000000E+00  0.00000000E+00  0.00000000E+00
  0.00000000E+00  0.00000000E+00  0.00000000E+00
  0.00000000E+00  0.00000000E+00  0.00000000E+00
  0.00000000E+00  0.00000000E+00  0.00000000E+00
  0.00000000E+00  0.00000000E+00  0.00000000E+00
  0.00000000E+00  0.00000000E+00  0.00000000E+00
  0.00000000E+00  0.00000000E+00  0.00000000E+00
  0.00000000E+00  0.00000000E+00  0.00000000E+00
  0.00000000E+00  0.00000000E+00  0.00000000E+00
  0.00000000E+00  0.00000000E+00  0.00000000E+00
  0.00000000E+00  0.00000000E+00  0.00000000E+00
  0.00000000E+00  0.00000000E+00  0.00000000E+00
  0.00000000E+00  0.00000000E+00  0.00000000E+00
  0.00000000E+00  0.00000000E+00  0.00000000E+00
  0.00000000E+00  0.00000000E+00  0.00000000E+00
  0.00000000E+00  0.00000000E+00  0.00000000E+00
  0.00000000E+00  0.00000000E+00  0.00000000E+00
  0.00000000E+00  0.00000000E+00  0.00000000E+00
  0.00000000E+00  0.00000000E+00  0.00000000E+00
  0.00000000E+00  0.00000000E+00  0.00000000E+00
  0.00000000E+00  0.00000000E+00  0.00000000E+00
  0.00000000E+00  0.00000000E+00  0.00000000E+00
  0.00000000E+00  0.00000000E+00  0.00000000E+00
  0.00000000E+00  0.00000000E+00  0.00000000E+00
  0.00000000E+00  0.00000000E+00  0.00000000E+00
  0.00000000E+00  0.00000000E+00  0.00000000E+00
  0.00000000E+00  0.00000000E+00  0.00000000E+00
  0.00000000E+00  0.00000000E+00  0.00000000E+00
  0.00000000E+00  0.00000000E+00  0.00000000E+00
  0.00000000E+00  0.00000000E+00  0.00000000E+00
  0.00000000E+00  0.00000000E+00  0.00000000E+00
  0.00000000E+00  0.00000000E+00  0.00000000E+00
  0.00000000E+00  0.00000000E+00  0.00000000E+00
  0.00000000E+00  0.00000000E+00  0.00000000E+00
  0.00000000E+00  0.00000000E+00  0.00000000E+00
  0.00000000E+00  0.00000000E+00  0.00000000E+00
  0.00000000E+00  0.00000000E+00  0.00000000E+00
  0.00000000E+00  0.00000000E+00  0.00000000E+00
  0.00000000E+00  0.00000000E+00  0.00000000E+00
  0.00000000E+00  0.00000000E+00  0.00000000E+00
  0.00000000E+00  0.00000000E+00  0.00000000E+00
  0.00000000E+00  0.00000000E+00  0.00000000E+00
  0.00000000E+00  0.00000000E+00  0.00000000E+00
  0.00000000E+00  0.00000000E+00  0.00000000E+00
  0.00000000E+00  0.00000000E+00  0.00000000E+00
  0.00000000E+00  0.00000000E+00  0.00000000E+00
  0.00000000E+00  0.00000000E+00  0.00000000E+00
  0.00000000E+00  0.00000000E+00  0.00000000E+00
  0.00000000E+00  0.00000000E+00  0.00000000E+00
  0.00000000E+00  0.00000000E+00  0.00000000E+00
  0.00000000E+00  0.00000000E+00  0.00000000E+00
  0.00000000E+00  0.00000000E+00  0.00000000E+00
  0.00000000E+00  0.00000000E+00  0.00000000E+00
  0.00000000E+00  0.00000000E+00  0.00000000E+00
  0.00000000E+00  0.00000000E+00  0.00000000E+00
  0.00000000E+00  0.00000000E+00  0.00000000E+00
  0.00000000E+00  0.00000000E+00  0.00000000E+00
  0.00000000E+00  0.00000000E+00  0.00000000E+00
  0.00000000E+00  0.00000000E+00  0.00000000E+00
  0.00000000E+00  0.00000000E+00  0.00000000E+00
  0.00000000E+00  0.00000000E+00  0.00000000E+00
  0.00000000E+00  0.00000000E+00  0.00000000E+00
  0.00000000E+00  0.00000000E+00  0.00000000E+00
  0.00000000E+00  0.00000000E+00  0.00000000E+00
  0.00000000E+00  0.00000000E+00  0.00000000E+00
  0.00000000E+00  0.00000000E+00  0.00000000E+00
  0.00000000E+00  0.00000000E+00  0.00000000E+00
  0.00000000E+00  0.00000000E+00  0.00000000E+00
  0.00000000E+00  0.00000000E+00  0.00000000E+00
  0.00000000E+00  0.00000000E+00  0.00000000E+00
  0.00000000E+00  0.00000000E+00  0.00000000E+00
  0.00000000E+00  0.00000000E+00  0.00000000E+00
  0.00000000E+00  0.00000000E+00  0.00000000E+00
  0.00000000E+00  0.00000000E+00  0.00000000E+00
  0.00000000E+00  0.00000000E+00  0.00000000E+00
  0.00000000E+00  0.00000000E+00  0.00000000E+00
  0.00000000E+00  0.00000000E+00  0.00000000E+00
  0.00000000E+00  0.00000000E+00  0.00000000E+00
  0.00000000E+00  0.00000000E+00  0.00000000E+00
  0.00000000E+00  0.00000000E+00  0.00000000E+00
  0.00000000E+00  0.00000000E+00  0.00000000E+00
  0.00000000E+00  0.00000000E+00  0.00000000E+00
  0.00000000E+00  0.00000000E+00  0.00000000E+00
  0.00000000E+00  0.00000000E+00  0.00000000E+00
  0.00000000E+00  0.00000000E+00  0.00000000E+00
  0.00000000E+00  0.00000000E+00  0.00000000E+00
  0.00000000E+00  0.00000000E+00  0.00000000E+00
  0.00000000E+00  0.00000000E+00  0.00000000E+00
  0.00000000E+00  0.00000000E+00  0.00000000E+00
  0.00000000E+00  0.00000000E+00  0.00000000E+00
  0.00000000E+00  0.00000000E+00  0.00000000E+00
  0.00000000E+00  0.00000000E+00  0.00000000E+00
  0.00000000E+00  0.00000000E+00  0.00000000E+00
  0.00000000E+00  0.00000000E+00  0.00000000E+00
  0.00000000E+00  0.00000000E+00  0.00000000E+00
  0.00000000E+00  0.00000000E+00  0.00000000E+00
  0.00000000E+00  0.00000000E+00  0.00000000E+00
  0.00000000E+00  0.00000000E+00  0.00000000E+00
  0.00000000E+00  0.00000000E+00  0.00000000E+00
  0.00000000E+00  0.00000000E+00  0.00000000E+00
  0.00000000E+00  0.00000000E+00  0.00000000E+00
  0.00000000E+00  0.00000000E+00  0.00000000E+00
  0.00000000E+00  0.00000000E+00  0.00000000E+00
  0.00000000E+00  0.00000000E+00  0.00000000E+00
  0.00000000E+00  0.00000000E+00  0.00000000E+00
  0.00000000E+00  0.00000000E+00  0.00000000E+00
  0.00000000E+00  0.00000000E+00  0.00000000E+00
  0.00000000E+00  0.00000000E+00  0.00000000E+00
  0.00000000E+00  0.00000000E+00  0.00000000E+00
  0.00000000E+00  0.00000000E+00  0.00000000E+00
  0.00000000E+00  0.00000000E+00  0.00000000E+00
  0.00000000E+00  0.00000000E+00  0.00000000E+00
  0.00000000E+00  0.00000000E+00  0.00000000E+00
  0.00000000E+00  0.00000000E+00  0.00000000E+00
  0.00000000E+00  0.00000000E+00  0.00000000E+00
  0.00000000E+00  0.00000000E+00  0.00000000E+00
  0.00000000E+00  0.00000000E+00  0.00000000E+00
  0.00000000E+00  0.00000000E+00  0.00000000E+00
  0.00000000E+00  0.00000000E+00  0.00000000E+00
  0.00000000E+00  0.00000000E+00  0.00000000E+00
  0.00000000E+00  0.00000000E+00  0.00000000E+00
  0.00000000E+00  0.00000000E+00  0.00000000E+00
  0.00000000E+00  0.00000000E+00  0.00000000E+00
  0.00000000E+00  0.00000000E+00  0.00000000E+00
  0.00000000E+00  0.00000000E+00  0.00000000E+00
  0.00000000E+00  0.00000000E+00  0.00000000E+00
  0.00000000E+00  0.00000000E+00  0.00000000E+00
  0.00000000E+00  0.00000000E+00  0.00000000E+00
  0.00000000E+00  0.00000000E+00  0.00000000E+00
  0.00000000E+00  0.00000000E+00  0.00000000E+00
