H1 Ru1 C123 N3 O2                       
   1.00000000000000     
    19.8109508815184938    0.0285831843238977    0.2782692887178443
    -9.8819232555049954   17.0079160118127746   -0.1365891548974718
     0.4181552124643728    0.0042324548316945   29.8447007607873545
   H    Ru   C    N    O 
     1     1   123     3     2
Direct
  0.5304753424517467  0.5610254629074133  0.5250146274829850
  0.4354566435912386  0.4990413678906711  0.4260635845498534
  0.0414845337432424  0.0839659641511397  0.3997042206263521
  0.0401008848459114  0.2077975336825208  0.3995956057049055
  0.0393742447579681  0.3326087762207450  0.3988746587251114
  0.0399204998845031  0.4580350671214264  0.3986554651429901
  0.0413280724255183  0.5837226028569266  0.3992453363157401
  0.0424425708446928  0.7093453870161419  0.3995546945738157
  0.0427349466844456  0.8346597805990823  0.3996323577548040
  0.0424622960728634  0.9597057210270556  0.3996389733766632
  0.1675809212090265  0.0856214340416688  0.4002786603817634
  0.1665218183204722  0.2099525273873194  0.4004959005616468
  0.1637059047261429  0.3330068055907701  0.4001994812703987
  0.1633486562091583  0.4579529918150944  0.3979103482292917
  0.1650038940775200  0.5833875970644198  0.3983287790571047
  0.1665559685751458  0.7088882826950802  0.3992128282186111
  0.1672903693766682  0.8344982961709753  0.3997052254832830
  0.1675677327642578  0.9601650921575640  0.3999273279607391
  0.2925031565009181  0.0860610630203814  0.4002535254548836
  0.2927885255446321  0.2128649856529309  0.4018625920345590
  0.2904801469584542  0.3376692647174354  0.4049209125639712
  0.2857169198542723  0.4570033031907589  0.4017765264243260
  0.2882514083537241  0.5822198482940042  0.3981736892238180
  0.2907810356863116  0.7078833492433332  0.3986437570265154
  0.2917555017280486  0.8337490931910425  0.3995191542170994
  0.2921697648370318  0.9597148872437897  0.3998840898226296
  0.4168873560823341  0.0845697091183169  0.3998981527946838
  0.4174358912122295  0.2113076375216235  0.4001960325714016
  0.4187318742727135  0.3395243443077771  0.4019770564021363
  0.4147871499848849  0.7045838651300826  0.3994568654897428
  0.4160586355315341  0.8316401736507356  0.3996065962067935
  0.4165616880628150  0.9581598741695091  0.3998140206299359
  0.5411729866562834  0.0827109080493483  0.3997545475132346
  0.5417451309684568  0.2088214430905913  0.3993817249458107
  0.5428801479644551  0.3348584341596079  0.3991216030270585
  0.5471446932581036  0.4609592113707102  0.4011965133338878
  0.5381653490656569  0.7009628172944964  0.4029402108141669
  0.5402079865685541  0.8295952272175325  0.4004467993894317
  0.5408144763213535  0.9564529078163559  0.3998852633297854
  0.6655751956337305  0.0818544782675550  0.3998694738946120
  0.6660500188675395  0.2075720825118006  0.3995327642798630
  0.6670842778366889  0.3332978938359585  0.3990076404691992
  0.6695772734978093  0.4591179037328187  0.3991293054742661
  0.6715011112350622  0.5847484947526022  0.4010788540446647
  0.6671513372383430  0.7066043757932444  0.4018530930400716
  0.6645629403387139  0.8300179454374785  0.4009794818122105
  0.6651736626980120  0.9560275339527157  0.4001452822945730
  0.7901962622489572  0.0817794641783998  0.3998525374764190
  0.7904208856851994  0.2071808790085220  0.3997358197410572
  0.7912127490455655  0.3327917503099280  0.3994955755687731
  0.7927738369397459  0.4584897079868496  0.3991292335673323
  0.7942472973861504  0.5841411107845583  0.3991338450390622
  0.7939346786104419  0.7093172031599621  0.3999678166675401
  0.7914376070676730  0.8325838406494390  0.3999149368951037
  0.7902132924811951  0.9565944467726956  0.3998923432148669
  0.9153785696231370  0.0823602758149831  0.3996493881459749
  0.9149635142709374  0.2071898466443053  0.3995624133706809
  0.9152362278928128  0.3325916385603293  0.3993370393698378
  0.9163456747002757  0.4582743576947575  0.3994192724027621
  0.9177368446746561  0.5839598741890847  0.3993803784662255
  0.9182296201591719  0.7093537581264576  0.3993809467411451
  0.9177762531287975  0.8343204446899730  0.3994597666349393
  0.9164812105114239  0.9583006585892413  0.3996013525213086
  0.0840792738508936  0.0432675557073431  0.3998226317585390
  0.0829701154275583  0.1674524312609378  0.3997846550190529
  0.0810892322068060  0.2911073716319585  0.3994371688573869
  0.0807187928773646  0.4159553262549315  0.3982698550541230
  0.0820854010581755  0.5416290877579422  0.3987069190668963
  0.0834720806219023  0.6673079969004522  0.3993950668013805
  0.0841849955784133  0.7928771021857447  0.3996597413680962
  0.0843336863021526  0.9182456045770782  0.3997497414392788
  0.2092253008040058  0.0439079414044840  0.4001923604076254
  0.2092742454186217  0.1694889083561644  0.4010055851353813
  0.2072901642068300  0.2934626187732646  0.4013793696366557
  0.2041125318627133  0.4160730644038159  0.3991838370351866
  0.2054009781391424  0.5410154502613767  0.3980055407917339
  0.2074975308338793  0.6667644580697899  0.3986580133837540
  0.2085826267160963  0.7924995627168419  0.3994874929506114
  0.2090347959535750  0.9181682901888137  0.3998593662651628
  0.3337799260900270  0.0435425950267072  0.3999831987941755
  0.3341257132245635  0.1701554592210875  0.4007559206006168
  0.3345198819595548  0.2975478002533195  0.4037478132215420
  0.3283967563201375  0.5402306194488371  0.3991906464031682
  0.3315080549621102  0.6654743484084704  0.3984474812516198
  0.3329768141035613  0.7913883092821350  0.3992412267059340
  0.3334538855233753  0.9173479980222644  0.3997774202615204
  0.4580969854737080  0.0418916656703798  0.3998349627442754
  0.4585369127691518  0.1683951650057984  0.3997828573760236
  0.4594108334387972  0.2953642220111606  0.4000193470906459
  0.4647726318685237  0.4231847421926379  0.4032489430454415
  0.4540896407153402  0.6596174835374327  0.4006207190559405
  0.4571203126916671  0.7886326081312972  0.3998823614145971
  0.4577204218691430  0.9154780875258181  0.3997823064899368
  0.5824302097959725  0.0403068311344729  0.3998403633255548
  0.5829188012250425  0.1663793154137066  0.3995238877018338
  0.5837949124331123  0.2923062415962471  0.3989993226030341
  0.5867450566118407  0.4182218208185857  0.3992929744678198
  0.5900182694717794  0.5441209008921134  0.4037555076825937
  0.5833835619676010  0.6616096035889250  0.4048535770233772
  0.5806420233968467  0.7862430658574628  0.4015410670896802
  0.5820133601034430  0.9138732652163145  0.4000971701401743
  0.7069628543200730  0.0398286918958490  0.3999584262116225
  0.7073585558718860  0.1655479758303061  0.3997484139418813
  0.7080681462106876  0.2911913195128401  0.3993462631443067
  0.7098863396780276  0.4167880042828296  0.3989492334886846
  0.7117887157201334  0.5422956564475099  0.3994340425203741
  0.7112038452906766  0.6674882995778137  0.4012169552308425
  0.7078118407260025  0.7900151063951139  0.4006864810791859
  0.7065529749592538  0.9140312151642012  0.4002905250672846
  0.8319809353773794  0.0402629454069550  0.3997649193944565
  0.8318918050233032  0.1653939163737275  0.3997598093236787
  0.8322427495957008  0.2907356622279448  0.3995922073887418
  0.8334717815065267  0.4163722526400905  0.3993970196650462
  0.8349797567095129  0.5420751811839626  0.3991175935798488
  0.8354219704585529  0.6675864738635351  0.3994072359904627
  0.8345905045560421  0.7924138505837952  0.3996922420135022
  0.8329204225654357  0.9160351860977066  0.3997337480528476
  0.9580042374920766  0.0417013922174155  0.3996364698869265
  0.9568773427348051  0.1658007046226023  0.3995752055494075
  0.9565480767258104  0.2907557749400432  0.3992524618739035
  0.9571026814353901  0.4161663582652414  0.3991994411215831
  0.9584734406249162  0.5418410098408192  0.3994238072334377
  0.9595068773219497  0.6675098609087613  0.3994375083068027
  0.9596255523725725  0.7928862028574346  0.3994828297292164
  0.9591327123295722  0.9176944252677397  0.3995059020572392
  0.4092586442727208  0.5775685463649589  0.3997080862871518
  0.5484996359037760  0.5820582615492697  0.4090901129733027
  0.3264053257406320  0.4183921547122875  0.4095405320241838
  0.5302904033487356  0.5181595168070586  0.5078979885460844
  0.4400166855091041  0.4876881321660602  0.4838398490932079
 
  0.00000000E+00  0.00000000E+00  0.00000000E+00
  0.00000000E+00  0.00000000E+00  0.00000000E+00
  0.00000000E+00  0.00000000E+00  0.00000000E+00
  0.00000000E+00  0.00000000E+00  0.00000000E+00
  0.00000000E+00  0.00000000E+00  0.00000000E+00
  0.00000000E+00  0.00000000E+00  0.00000000E+00
  0.00000000E+00  0.00000000E+00  0.00000000E+00
  0.00000000E+00  0.00000000E+00  0.00000000E+00
  0.00000000E+00  0.00000000E+00  0.00000000E+00
  0.00000000E+00  0.00000000E+00  0.00000000E+00
  0.00000000E+00  0.00000000E+00  0.00000000E+00
  0.00000000E+00  0.00000000E+00  0.00000000E+00
  0.00000000E+00  0.00000000E+00  0.00000000E+00
  0.00000000E+00  0.00000000E+00  0.00000000E+00
  0.00000000E+00  0.00000000E+00  0.00000000E+00
  0.00000000E+00  0.00000000E+00  0.00000000E+00
  0.00000000E+00  0.00000000E+00  0.00000000E+00
  0.00000000E+00  0.00000000E+00  0.00000000E+00
  0.00000000E+00  0.00000000E+00  0.00000000E+00
  0.00000000E+00  0.00000000E+00  0.00000000E+00
  0.00000000E+00  0.00000000E+00  0.00000000E+00
  0.00000000E+00  0.00000000E+00  0.00000000E+00
  0.00000000E+00  0.00000000E+00  0.00000000E+00
  0.00000000E+00  0.00000000E+00  0.00000000E+00
  0.00000000E+00  0.00000000E+00  0.00000000E+00
  0.00000000E+00  0.00000000E+00  0.00000000E+00
  0.00000000E+00  0.00000000E+00  0.00000000E+00
  0.00000000E+00  0.00000000E+00  0.00000000E+00
  0.00000000E+00  0.00000000E+00  0.00000000E+00
  0.00000000E+00  0.00000000E+00  0.00000000E+00
  0.00000000E+00  0.00000000E+00  0.00000000E+00
  0.00000000E+00  0.00000000E+00  0.00000000E+00
  0.00000000E+00  0.00000000E+00  0.00000000E+00
  0.00000000E+00  0.00000000E+00  0.00000000E+00
  0.00000000E+00  0.00000000E+00  0.00000000E+00
  0.00000000E+00  0.00000000E+00  0.00000000E+00
  0.00000000E+00  0.00000000E+00  0.00000000E+00
  0.00000000E+00  0.00000000E+00  0.00000000E+00
  0.00000000E+00  0.00000000E+00  0.00000000E+00
  0.00000000E+00  0.00000000E+00  0.00000000E+00
  0.00000000E+00  0.00000000E+00  0.00000000E+00
  0.00000000E+00  0.00000000E+00  0.00000000E+00
  0.00000000E+00  0.00000000E+00  0.00000000E+00
  0.00000000E+00  0.00000000E+00  0.00000000E+00
  0.00000000E+00  0.00000000E+00  0.00000000E+00
  0.00000000E+00  0.00000000E+00  0.00000000E+00
  0.00000000E+00  0.00000000E+00  0.00000000E+00
  0.00000000E+00  0.00000000E+00  0.00000000E+00
  0.00000000E+00  0.00000000E+00  0.00000000E+00
  0.00000000E+00  0.00000000E+00  0.00000000E+00
  0.00000000E+00  0.00000000E+00  0.00000000E+00
  0.00000000E+00  0.00000000E+00  0.00000000E+00
  0.00000000E+00  0.00000000E+00  0.00000000E+00
  0.00000000E+00  0.00000000E+00  0.00000000E+00
  0.00000000E+00  0.00000000E+00  0.00000000E+00
  0.00000000E+00  0.00000000E+00  0.00000000E+00
  0.00000000E+00  0.00000000E+00  0.00000000E+00
  0.00000000E+00  0.00000000E+00  0.00000000E+00
  0.00000000E+00  0.00000000E+00  0.00000000E+00
  0.00000000E+00  0.00000000E+00  0.00000000E+00
  0.00000000E+00  0.00000000E+00  0.00000000E+00
  0.00000000E+00  0.00000000E+00  0.00000000E+00
  0.00000000E+00  0.00000000E+00  0.00000000E+00
  0.00000000E+00  0.00000000E+00  0.00000000E+00
  0.00000000E+00  0.00000000E+00  0.00000000E+00
  0.00000000E+00  0.00000000E+00  0.00000000E+00
  0.00000000E+00  0.00000000E+00  0.00000000E+00
  0.00000000E+00  0.00000000E+00  0.00000000E+00
  0.00000000E+00  0.00000000E+00  0.00000000E+00
  0.00000000E+00  0.00000000E+00  0.00000000E+00
  0.00000000E+00  0.00000000E+00  0.00000000E+00
  0.00000000E+00  0.00000000E+00  0.00000000E+00
  0.00000000E+00  0.00000000E+00  0.00000000E+00
  0.00000000E+00  0.00000000E+00  0.00000000E+00
  0.00000000E+00  0.00000000E+00  0.00000000E+00
  0.00000000E+00  0.00000000E+00  0.00000000E+00
  0.00000000E+00  0.00000000E+00  0.00000000E+00
  0.00000000E+00  0.00000000E+00  0.00000000E+00
  0.00000000E+00  0.00000000E+00  0.00000000E+00
  0.00000000E+00  0.00000000E+00  0.00000000E+00
  0.00000000E+00  0.00000000E+00  0.00000000E+00
  0.00000000E+00  0.00000000E+00  0.00000000E+00
  0.00000000E+00  0.00000000E+00  0.00000000E+00
  0.00000000E+00  0.00000000E+00  0.00000000E+00
  0.00000000E+00  0.00000000E+00  0.00000000E+00
  0.00000000E+00  0.00000000E+00  0.00000000E+00
  0.00000000E+00  0.00000000E+00  0.00000000E+00
  0.00000000E+00  0.00000000E+00  0.00000000E+00
  0.00000000E+00  0.00000000E+00  0.00000000E+00
  0.00000000E+00  0.00000000E+00  0.00000000E+00
  0.00000000E+00  0.00000000E+00  0.00000000E+00
  0.00000000E+00  0.00000000E+00  0.00000000E+00
  0.00000000E+00  0.00000000E+00  0.00000000E+00
  0.00000000E+00  0.00000000E+00  0.00000000E+00
  0.00000000E+00  0.00000000E+00  0.00000000E+00
  0.00000000E+00  0.00000000E+00  0.00000000E+00
  0.00000000E+00  0.00000000E+00  0.00000000E+00
  0.00000000E+00  0.00000000E+00  0.00000000E+00
  0.00000000E+00  0.00000000E+00  0.00000000E+00
  0.00000000E+00  0.00000000E+00  0.00000000E+00
  0.00000000E+00  0.00000000E+00  0.00000000E+00
  0.00000000E+00  0.00000000E+00  0.00000000E+00
  0.00000000E+00  0.00000000E+00  0.00000000E+00
  0.00000000E+00  0.00000000E+00  0.00000000E+00
  0.00000000E+00  0.00000000E+00  0.00000000E+00
  0.00000000E+00  0.00000000E+00  0.00000000E+00
  0.00000000E+00  0.00000000E+00  0.00000000E+00
  0.00000000E+00  0.00000000E+00  0.00000000E+00
  0.00000000E+00  0.00000000E+00  0.00000000E+00
  0.00000000E+00  0.00000000E+00  0.00000000E+00
  0.00000000E+00  0.00000000E+00  0.00000000E+00
  0.00000000E+00  0.00000000E+00  0.00000000E+00
  0.00000000E+00  0.00000000E+00  0.00000000E+00
  0.00000000E+00  0.00000000E+00  0.00000000E+00
  0.00000000E+00  0.00000000E+00  0.00000000E+00
  0.00000000E+00  0.00000000E+00  0.00000000E+00
  0.00000000E+00  0.00000000E+00  0.00000000E+00
  0.00000000E+00  0.00000000E+00  0.00000000E+00
  0.00000000E+00  0.00000000E+00  0.00000000E+00
  0.00000000E+00  0.00000000E+00  0.00000000E+00
  0.00000000E+00  0.00000000E+00  0.00000000E+00
  0.00000000E+00  0.00000000E+00  0.00000000E+00
  0.00000000E+00  0.00000000E+00  0.00000000E+00
  0.00000000E+00  0.00000000E+00  0.00000000E+00
  0.00000000E+00  0.00000000E+00  0.00000000E+00
  0.00000000E+00  0.00000000E+00  0.00000000E+00
  0.00000000E+00  0.00000000E+00  0.00000000E+00
  0.00000000E+00  0.00000000E+00  0.00000000E+00
  0.00000000E+00  0.00000000E+00  0.00000000E+00
  0.00000000E+00  0.00000000E+00  0.00000000E+00
