Mo1 C123 N3 O1                          
   1.00000000000000     
    19.8055157525133332    0.0076395556041976   -0.0455746575273489
    -9.8959175002645150   17.0312882507900945   -0.0987433144216091
    -0.0683628169880730   -0.2126667455679784   29.8260298360364509
   Mo   C    N    O 
     1   123     3     1
Direct
  0.4376635583824760  0.5015104010531242  0.4331723620809199
  0.0420082257933180  0.0840991525576972  0.3996077092878531
  0.0412491498980006  0.2083216220297965  0.3997134013905943
  0.0406534621750351  0.3331304563360640  0.3993805765822565
  0.0407431318609740  0.4583014751905544  0.3991288580563851
  0.0415127888728431  0.5837281623561900  0.3994348724624606
  0.0422067326454823  0.7091381800058785  0.3997391511559675
  0.0424155097587144  0.8343337508730692  0.3997610498562357
  0.0423554264908629  0.9594270704472914  0.3996041245153634
  0.1677336752941452  0.0852318791137078  0.4001632332282931
  0.1674727271326546  0.2101669831577224  0.4006225759369433
  0.1653939996200714  0.3337323433992543  0.4005455390098903
  0.1646355901674553  0.4585255735835054  0.3990951980351942
  0.1654699774431967  0.5836987795094759  0.3989281258551810
  0.1665712482056007  0.7088971177041828  0.3994992709200409
  0.1671471807652286  0.8342972243186367  0.3998376641907359
  0.1674584850463276  0.9598292267590278  0.3998862457672153
  0.2925676377106488  0.0856012579680648  0.4001672153410435
  0.2931367828495224  0.2122932514185532  0.4018357735750780
  0.2924740613775672  0.3378112798429251  0.4039451210644373
  0.2881396132222650  0.4582023472613375  0.4020468396406932
  0.2888909095297434  0.5830275503025347  0.3993834163753067
  0.2909466148124147  0.7083416805272165  0.3992131041936588
  0.2917882604769051  0.8338315412120635  0.3995677384571160
  0.2921926199640779  0.9594875336666100  0.3997673898123782
  0.4170643824846372  0.0842054197422512  0.3996329090862806
  0.4176727743151969  0.2103918898383927  0.4001963546778285
  0.4194902504253533  0.3381026858260083  0.4035394919981882
  0.4152099909372808  0.7061057734359544  0.4000682288881450
  0.4163661460893165  0.8323502726322427  0.3995817613344739
  0.4167975406449184  0.9583293725516236  0.3996347909039359
  0.5416629724099576  0.0828909835537848  0.3996472429642907
  0.5421012117508709  0.2085865525948007  0.3993452636367489
  0.5430501933385591  0.3341743131901528  0.3997408934846636
  0.5462007231118496  0.4595536735633512  0.4023081120439095
  0.5388009871979743  0.7022748697853692  0.4025738736673945
  0.5408366452080181  0.8305969835599230  0.4004070012617929
  0.5413387517130736  0.9570149134746602  0.3998691776946564
  0.6663151088799262  0.0823358065409323  0.3999495863186270
  0.6666277745192098  0.2077740680224564  0.3995709707299478
  0.6673667876212730  0.3331286238158038  0.3990429012886992
  0.6692917171472682  0.4586685342716643  0.3989072907704428
  0.6702744258755430  0.5840596778695195  0.3999833410739395
  0.6665798757110734  0.7065641919307326  0.4006736462420487
  0.6650231706686768  0.8307164401586700  0.4004893969621930
  0.6658497689463373  0.9566812401740801  0.4001584670909107
  0.7910161991700159  0.0823171643719303  0.3998740420661995
  0.7913056096085122  0.2076623085096453  0.3997712881581009
  0.7917648717961372  0.3329763676858468  0.3994751257753563
  0.7927679345622489  0.4583561815945130  0.3990538025141568
  0.7936085671661123  0.5838209496954458  0.3989637071658964
  0.7931377731147021  0.7088875942693963  0.3994420227758141
  0.7912959218318364  0.8326086049587380  0.3995655061022751
  0.7907470662085228  0.9570580992809665  0.3997465710524115
  0.9161687971534428  0.0828639841915388  0.3995470612408427
  0.9160446000612801  0.2077423067948365  0.3996419511744292
  0.9161783122925380  0.3329466811075301  0.3995256051677150
  0.9167655945608578  0.4583680011226666  0.3994657429706279
  0.9175142584266442  0.5837939691032221  0.3994330183344268
  0.9176644168661736  0.7090306466790663  0.3995021435734772
  0.9173640725554665  0.8340192809220400  0.3994723154605873
  0.9166533777593525  0.9583827704923911  0.3994280746920837
  0.0842222931071973  0.0430492423650830  0.3997247566618823
  0.0837940044652718  0.1677158572630002  0.3998738490701578
  0.0825705006432505  0.2917683484938841  0.3997928263710088
  0.0818509078068796  0.4164361226157416  0.3990547090865074
  0.0825489945561283  0.5418585787104603  0.3991153111607222
  0.0834460054970955  0.6672676406744720  0.3995920742762741
  0.0838954522183010  0.7926007209100643  0.3998339941153745
  0.0841239397559860  0.9179116102992667  0.3997564008793822
  0.2092004248221692  0.0434758067822598  0.4000976316507867
  0.2096089702186175  0.1691275603368733  0.4008971626067874
  0.2088924570636543  0.2939208657729986  0.4014291814989369
  0.2059857370825022  0.4170208762264713  0.4002389268633995
  0.2061237163223568  0.5415879599644506  0.3989016690385657
  0.2076539787407400  0.6670031150218165  0.3991534226486887
  0.2085423793432000  0.7924326090133579  0.3996654803984501
  0.2089184898781688  0.9178843922335401  0.3998548896345239
  0.3338616870149749  0.0432156114991939  0.3997829994302916
  0.3342579443597215  0.1694644298416784  0.4007602702766044
  0.3351001664832421  0.2967429949442591  0.4038267862153696
  0.3297779050589200  0.5417269059058265  0.4009897476833678
  0.3318273879427058  0.6662523031259506  0.3994075014775376
  0.3331562619669115  0.7917599286869381  0.3994061365887741
  0.3335396360628571  0.9173393972509475  0.3996586513456863
  0.4584311314510868  0.0418831388231875  0.3996068486363697
  0.4587720441856492  0.1678218910288388  0.3995992414171631
  0.4597055066595655  0.2940875080507469  0.4006378669822304
  0.4643041275239168  0.4206200007727240  0.4064074376210214
  0.4545568102674813  0.6616381380600034  0.4020206355878048
  0.4575483018346765  0.7897480050595300  0.3999097032070777
  0.4581212739005359  0.9160243470324980  0.3996677137468783
  0.5830228478724694  0.0407264494205195  0.3998442768717932
  0.5834203925769271  0.1664406920741975  0.3994769546571542
  0.5841107590391255  0.2918931985859259  0.3991913776481802
  0.5865386142569490  0.4174723211336304  0.3997965922927386
  0.5888378547785015  0.5432820321684648  0.4023355174383241
  0.5828224273720736  0.6620450051914640  0.4030707466678238
  0.5812825395146233  0.7873734216394717  0.4011753854352635
  0.5826315277598113  0.9146393141018562  0.4001329930399429
  0.7077108783490912  0.0404241826724926  0.4000299738214593
  0.7080924585189065  0.1659197461064169  0.3997982569696386
  0.7085687542405452  0.2912991146643157  0.3993550326710733
  0.7098906653520850  0.4165803077530949  0.3988136680553765
  0.7110508865330726  0.5418574728044596  0.3989934727509439
  0.7103336825122286  0.6671015555198718  0.3999987031648173
  0.7076603370762048  0.7901537072791185  0.4000522858447287
  0.7071347563758124  0.9147093109096609  0.4001089428549863
  0.8327006195079550  0.0407726568687061  0.3996927603832416
  0.8328351554129257  0.1659351098064345  0.3997809418143088
  0.8330631511032727  0.2911298580603236  0.3996217412877824
  0.8337930865978470  0.4164729464504170  0.3993737041694080
  0.8346426318402594  0.5419343474346994  0.3990903708101686
  0.8347966538594169  0.6672760821685061  0.3992623743090452
  0.8340780234314038  0.7921126609352388  0.3994537454044589
  0.8330675988096321  0.9161741369758514  0.3995305537263313
  0.9584656679983435  0.0419119710106642  0.3994461333160422
  0.9579065202955840  0.1663413261570545  0.3995809050384977
  0.9576696665033329  0.2912800164769266  0.3995177396848110
  0.9578555213540673  0.4164785996747958  0.3994205114116418
  0.9585687466586007  0.5418757729272248  0.3994789399638481
  0.9591270725647139  0.6673057051487769  0.3995824289400355
  0.9591681890599610  0.7925712930424410  0.3996032049092494
  0.9589335403131479  0.9174563348243624  0.3994762000430958
  0.4105537265720854  0.5808620019362790  0.4037219305935036
  0.5468362268943029  0.5815698482713956  0.4059436950460296
  0.3300174603380914  0.4194304657870108  0.4065277868406617
  0.4396819808971926  0.4975390893452115  0.4898250888111734
 
  0.00000000E+00  0.00000000E+00  0.00000000E+00
  0.00000000E+00  0.00000000E+00  0.00000000E+00
  0.00000000E+00  0.00000000E+00  0.00000000E+00
  0.00000000E+00  0.00000000E+00  0.00000000E+00
  0.00000000E+00  0.00000000E+00  0.00000000E+00
  0.00000000E+00  0.00000000E+00  0.00000000E+00
  0.00000000E+00  0.00000000E+00  0.00000000E+00
  0.00000000E+00  0.00000000E+00  0.00000000E+00
  0.00000000E+00  0.00000000E+00  0.00000000E+00
  0.00000000E+00  0.00000000E+00  0.00000000E+00
  0.00000000E+00  0.00000000E+00  0.00000000E+00
  0.00000000E+00  0.00000000E+00  0.00000000E+00
  0.00000000E+00  0.00000000E+00  0.00000000E+00
  0.00000000E+00  0.00000000E+00  0.00000000E+00
  0.00000000E+00  0.00000000E+00  0.00000000E+00
  0.00000000E+00  0.00000000E+00  0.00000000E+00
  0.00000000E+00  0.00000000E+00  0.00000000E+00
  0.00000000E+00  0.00000000E+00  0.00000000E+00
  0.00000000E+00  0.00000000E+00  0.00000000E+00
  0.00000000E+00  0.00000000E+00  0.00000000E+00
  0.00000000E+00  0.00000000E+00  0.00000000E+00
  0.00000000E+00  0.00000000E+00  0.00000000E+00
  0.00000000E+00  0.00000000E+00  0.00000000E+00
  0.00000000E+00  0.00000000E+00  0.00000000E+00
  0.00000000E+00  0.00000000E+00  0.00000000E+00
  0.00000000E+00  0.00000000E+00  0.00000000E+00
  0.00000000E+00  0.00000000E+00  0.00000000E+00
  0.00000000E+00  0.00000000E+00  0.00000000E+00
  0.00000000E+00  0.00000000E+00  0.00000000E+00
  0.00000000E+00  0.00000000E+00  0.00000000E+00
  0.00000000E+00  0.00000000E+00  0.00000000E+00
  0.00000000E+00  0.00000000E+00  0.00000000E+00
  0.00000000E+00  0.00000000E+00  0.00000000E+00
  0.00000000E+00  0.00000000E+00  0.00000000E+00
  0.00000000E+00  0.00000000E+00  0.00000000E+00
  0.00000000E+00  0.00000000E+00  0.00000000E+00
  0.00000000E+00  0.00000000E+00  0.00000000E+00
  0.00000000E+00  0.00000000E+00  0.00000000E+00
  0.00000000E+00  0.00000000E+00  0.00000000E+00
  0.00000000E+00  0.00000000E+00  0.00000000E+00
  0.00000000E+00  0.00000000E+00  0.00000000E+00
  0.00000000E+00  0.00000000E+00  0.00000000E+00
  0.00000000E+00  0.00000000E+00  0.00000000E+00
  0.00000000E+00  0.00000000E+00  0.00000000E+00
  0.00000000E+00  0.00000000E+00  0.00000000E+00
  0.00000000E+00  0.00000000E+00  0.00000000E+00
  0.00000000E+00  0.00000000E+00  0.00000000E+00
  0.00000000E+00  0.00000000E+00  0.00000000E+00
  0.00000000E+00  0.00000000E+00  0.00000000E+00
  0.00000000E+00  0.00000000E+00  0.00000000E+00
  0.00000000E+00  0.00000000E+00  0.00000000E+00
  0.00000000E+00  0.00000000E+00  0.00000000E+00
  0.00000000E+00  0.00000000E+00  0.00000000E+00
  0.00000000E+00  0.00000000E+00  0.00000000E+00
  0.00000000E+00  0.00000000E+00  0.00000000E+00
  0.00000000E+00  0.00000000E+00  0.00000000E+00
  0.00000000E+00  0.00000000E+00  0.00000000E+00
  0.00000000E+00  0.00000000E+00  0.00000000E+00
  0.00000000E+00  0.00000000E+00  0.00000000E+00
  0.00000000E+00  0.00000000E+00  0.00000000E+00
  0.00000000E+00  0.00000000E+00  0.00000000E+00
  0.00000000E+00  0.00000000E+00  0.00000000E+00
  0.00000000E+00  0.00000000E+00  0.00000000E+00
  0.00000000E+00  0.00000000E+00  0.00000000E+00
  0.00000000E+00  0.00000000E+00  0.00000000E+00
  0.00000000E+00  0.00000000E+00  0.00000000E+00
  0.00000000E+00  0.00000000E+00  0.00000000E+00
  0.00000000E+00  0.00000000E+00  0.00000000E+00
  0.00000000E+00  0.00000000E+00  0.00000000E+00
  0.00000000E+00  0.00000000E+00  0.00000000E+00
  0.00000000E+00  0.00000000E+00  0.00000000E+00
  0.00000000E+00  0.00000000E+00  0.00000000E+00
  0.00000000E+00  0.00000000E+00  0.00000000E+00
  0.00000000E+00  0.00000000E+00  0.00000000E+00
  0.00000000E+00  0.00000000E+00  0.00000000E+00
  0.00000000E+00  0.00000000E+00  0.00000000E+00
  0.00000000E+00  0.00000000E+00  0.00000000E+00
  0.00000000E+00  0.00000000E+00  0.00000000E+00
  0.00000000E+00  0.00000000E+00  0.00000000E+00
  0.00000000E+00  0.00000000E+00  0.00000000E+00
  0.00000000E+00  0.00000000E+00  0.00000000E+00
  0.00000000E+00  0.00000000E+00  0.00000000E+00
  0.00000000E+00  0.00000000E+00  0.00000000E+00
  0.00000000E+00  0.00000000E+00  0.00000000E+00
  0.00000000E+00  0.00000000E+00  0.00000000E+00
  0.00000000E+00  0.00000000E+00  0.00000000E+00
  0.00000000E+00  0.00000000E+00  0.00000000E+00
  0.00000000E+00  0.00000000E+00  0.00000000E+00
  0.00000000E+00  0.00000000E+00  0.00000000E+00
  0.00000000E+00  0.00000000E+00  0.00000000E+00
  0.00000000E+00  0.00000000E+00  0.00000000E+00
  0.00000000E+00  0.00000000E+00  0.00000000E+00
  0.00000000E+00  0.00000000E+00  0.00000000E+00
  0.00000000E+00  0.00000000E+00  0.00000000E+00
  0.00000000E+00  0.00000000E+00  0.00000000E+00
  0.00000000E+00  0.00000000E+00  0.00000000E+00
  0.00000000E+00  0.00000000E+00  0.00000000E+00
  0.00000000E+00  0.00000000E+00  0.00000000E+00
  0.00000000E+00  0.00000000E+00  0.00000000E+00
  0.00000000E+00  0.00000000E+00  0.00000000E+00
  0.00000000E+00  0.00000000E+00  0.00000000E+00
  0.00000000E+00  0.00000000E+00  0.00000000E+00
  0.00000000E+00  0.00000000E+00  0.00000000E+00
  0.00000000E+00  0.00000000E+00  0.00000000E+00
  0.00000000E+00  0.00000000E+00  0.00000000E+00
  0.00000000E+00  0.00000000E+00  0.00000000E+00
  0.00000000E+00  0.00000000E+00  0.00000000E+00
  0.00000000E+00  0.00000000E+00  0.00000000E+00
  0.00000000E+00  0.00000000E+00  0.00000000E+00
  0.00000000E+00  0.00000000E+00  0.00000000E+00
  0.00000000E+00  0.00000000E+00  0.00000000E+00
  0.00000000E+00  0.00000000E+00  0.00000000E+00
  0.00000000E+00  0.00000000E+00  0.00000000E+00
  0.00000000E+00  0.00000000E+00  0.00000000E+00
  0.00000000E+00  0.00000000E+00  0.00000000E+00
  0.00000000E+00  0.00000000E+00  0.00000000E+00
  0.00000000E+00  0.00000000E+00  0.00000000E+00
  0.00000000E+00  0.00000000E+00  0.00000000E+00
  0.00000000E+00  0.00000000E+00  0.00000000E+00
  0.00000000E+00  0.00000000E+00  0.00000000E+00
  0.00000000E+00  0.00000000E+00  0.00000000E+00
  0.00000000E+00  0.00000000E+00  0.00000000E+00
  0.00000000E+00  0.00000000E+00  0.00000000E+00
  0.00000000E+00  0.00000000E+00  0.00000000E+00
  0.00000000E+00  0.00000000E+00  0.00000000E+00
  0.00000000E+00  0.00000000E+00  0.00000000E+00
  0.00000000E+00  0.00000000E+00  0.00000000E+00
  0.00000000E+00  0.00000000E+00  0.00000000E+00
