Mn1 C126 O1                             
   1.00000000000000     
    19.7927064573899969   -0.0000218884875116   -0.0328839485529122
    -9.8963853944835289   17.0632420687649820   -0.0282625354822692
    -0.0494729969768143   -0.0779645053124038   29.7947523941803247
   Mn   C    O 
     1   126     1
Direct
  0.4382574916295816  0.5007857105469397  0.4254208728310832
  0.0419738120131711  0.0839555276397393  0.3997723858597229
  0.0411590235004541  0.2081350354206395  0.3996716217322392
  0.0407860489320233  0.3328406037275403  0.3995476964273714
  0.0408772807321032  0.4582928608042551  0.3996258743844656
  0.0414542426081641  0.5836589969637604  0.3998859731281110
  0.0419908490578586  0.7089026245051434  0.3999750457865082
  0.0422906262301301  0.8342406240880186  0.3999601529010421
  0.0422949336556347  0.9592397343182208  0.3998893467296716
  0.1674879417037718  0.0849196390383915  0.4000446579271716
  0.1673056103964074  0.2097121299852354  0.4002482677665682
  0.1657472086426335  0.3333209383970680  0.4001119392191302
  0.1648109336608967  0.4582740976748877  0.3994208077909363
  0.1656159691592029  0.5834880842534736  0.3994180583385146
  0.1665749500732789  0.7089437832624923  0.3997767004700167
  0.1670017865203949  0.8342201651064157  0.3999587611643581
  0.1673259666997277  0.9595983897876181  0.3999586810920272
  0.2924680189191030  0.0849201591859596  0.4000003106665195
  0.2931453069619419  0.2112471253417599  0.4012051423472676
  0.2931630633652500  0.3368748888573558  0.4031054419610293
  0.2883152424630797  0.4578323953138757  0.4021129061794543
  0.2895407889916286  0.5837688973945515  0.3999356188680105
  0.2910821502468334  0.7087643950093618  0.3996074469005497
  0.2916615701131375  0.8338715322229122  0.3997832214265208
  0.2919859542732117  0.9592313019853259  0.3998468170211963
  0.4170121439955907  0.0839267018029662  0.3997551577679621
  0.4174402376483576  0.2096911839096861  0.4001651295645453
  0.4188173676534557  0.3368620497330447  0.4028649216704399
  0.4118237738380929  0.5808322957327899  0.4046223812297372
  0.4155874826344378  0.7068005851930539  0.4006173098233617
  0.4163156361002715  0.8327691066323674  0.3997713719124170
  0.4166488499080108  0.9583244446987348  0.3997954608733376
  0.5415987813263591  0.0828260639034217  0.3998242376448423
  0.5420075233653397  0.2081131782458649  0.3996894035809871
  0.5426502752229424  0.3333159900274875  0.3999891165005673
  0.5446336047423531  0.4578413613322921  0.4016511333127160
  0.5441534899921685  0.5808576017513640  0.4041227429952997
  0.5403764239789808  0.7056532059437420  0.4025794059227951
  0.5407946280666285  0.8316236770928790  0.4004264379409082
  0.5413125389596891  0.9573610031071148  0.3998885304078998
  0.6662491604342067  0.0823494486747406  0.3999525396775813
  0.6666325149283372  0.2076830281340852  0.3998675480865191
  0.6671140029226134  0.3328343555588681  0.3995936907212992
  0.6685527247200503  0.4582713520341998  0.3993335379418063
  0.6693196592041099  0.5837663799261370  0.3996562341533184
  0.6663128432869155  0.7068155952090880  0.4003974989561223
  0.6658945122365275  0.8316216963307793  0.4003637802428824
  0.6660552764012441  0.9570580154507238  0.4000227077528654
  0.7911316830343432  0.0823716663394168  0.3999387828268183
  0.7912702106773252  0.2075067970628891  0.3999876719690281
  0.7917304015831120  0.3328578905032542  0.3998946650092390
  0.7924932000694633  0.4582914552512240  0.3996643784087169
  0.7929671752217540  0.5835011335552522  0.3994457479438330
  0.7927575079256510  0.7087719792935917  0.3995881170846929
  0.7915317319196536  0.8327922354174518  0.3997544119383609
  0.7911052484716954  0.9573843221959825  0.3998677612754914
  0.9162796264167254  0.0828485431955282  0.3998071338197859
  0.9160907331272472  0.2076890115431786  0.3998318586650630
  0.9161890944996621  0.3328659998446259  0.3998793390372533
  0.9166026610253898  0.4581440372836779  0.3999470988885181
  0.9172798737410701  0.5836651492436497  0.3998985109437675
  0.9174572835495470  0.7089628282497811  0.3998140829076414
  0.9172752047542890  0.8338810547086851  0.3998205108096456
  0.9167338555234130  0.9583454776290160  0.3998129251354671
  0.0840113735540665  0.0427285678661532  0.3998623066018231
  0.0836308355148151  0.1673640993080223  0.3997766457188539
  0.0823916860891474  0.2913435161209483  0.3996469814884836
  0.0821804589308435  0.4165922770178961  0.3994183578005007
  0.0826165489231928  0.5417800915129428  0.3996437409563687
  0.0833668901919834  0.6672117845301371  0.3999062940475815
  0.0838197638564143  0.7925711387892127  0.3999723068205849
  0.0839664347332775  0.9177244543802360  0.3999592936099152
  0.2090539822289425  0.0430718705730150  0.4000031792965570
  0.2092458757139472  0.1685413454659251  0.4004774681403769
  0.2089225065398596  0.2934018262740702  0.4008578457242910
  0.2058549485956664  0.4163374244916260  0.4001008129266982
  0.2065532883313592  0.5418064108193018  0.3993951677074833
  0.2079807071280408  0.6672447590488134  0.3995527978251975
  0.2084569256755678  0.7923993369224822  0.3998646689380790
  0.2088103799203888  0.9177130614703685  0.3999381235729973
  0.3337600120386210  0.0427262553077077  0.3998183170799273
  0.3343272278026080  0.1685414370413858  0.4004155538490372
  0.3348310265146308  0.2945744706777989  0.4029627548632874
  0.3312260422806013  0.4194833958144011  0.4051890132352628
  0.3305176614788891  0.5423182049237392  0.4018688484989266
  0.3324767802614775  0.6668096045601922  0.3999397809029470
  0.3330721947990528  0.7919821988253277  0.3996875706501829
  0.3334824990715877  0.9172779279615824  0.3998228573391403
  0.4584348374559217  0.0417793083161830  0.3997880219617106
  0.4587681204619002  0.1673448170236439  0.3997472178931837
  0.4595524606684798  0.2933807005425259  0.4006936020275860
  0.4634097843542385  0.4194858056883802  0.4047438069961816
  0.4563959997918856  0.6633919220950550  0.4026443447728542
  0.4576785351454064  0.7904711230413204  0.4001653724538708
  0.4580567408126366  0.9161693560841385  0.3998016553828310
  0.5830633109940342  0.0408380619951504  0.3998828150105769
  0.5834215912364125  0.1662273173587111  0.3997788720622306
  0.5840111541743406  0.2913269796228555  0.3996509479736108
  0.5855844541588782  0.4163384646720464  0.3998759285070703
  0.5868930812615406  0.5423137323082379  0.4013654807382396
  0.5821271674310311  0.6634217170172615  0.4023697395610112
  0.5820142619729282  0.7889494822062016  0.4010458748092530
  0.5826416672744456  0.9152081973361974  0.4000569088379952
  0.7077654892335844  0.0405064719789299  0.3999609766854174
  0.7080714998597875  0.1658455119323083  0.3999668588681802
  0.7085154873379234  0.2911276269079704  0.3997950142964545
  0.7094868235300791  0.4165868653717893  0.3994524281933828
  0.7103437757069813  0.5418118621618881  0.3992964976072143
  0.7094107321889074  0.6668057889098820  0.3997583569819724
  0.7078790868471513  0.7904839469458232  0.4000702500472647
  0.7076254823409029  0.9152163614074350  0.4000387344620565
  0.8328201723786069  0.0408706722902759  0.3998662107896014
  0.8328085494129360  0.1658542729726741  0.3999532684876147
  0.8331114169701817  0.2911695984680127  0.3999667958911070
  0.8336446368254375  0.4164046704655719  0.3998730454059508
  0.8342359204465676  0.5417767277301371  0.3996795611220870
  0.8343520852217994  0.6672606502567616  0.3995864694674323
  0.8339804774393221  0.7919926199614316  0.3997045748886801
  0.8331714458956655  0.9161972704394745  0.3998068256953418
  0.9584080841716911  0.0418106584430884  0.3997895247592573
  0.9578550391569719  0.1662516887529474  0.3997514050359420
  0.9576711297829653  0.2911335374520228  0.3997485228855594
  0.9578313602655966  0.4164092360000303  0.3998544026169958
  0.9584924972659611  0.5419184260361578  0.3999559202141643
  0.9589151935606333  0.6672062339335212  0.3999287714716064
  0.9590193189297510  0.7924170839475866  0.3998889228119038
  0.9588393354138935  0.9172826517745678  0.3998595565611195
  0.4400590287910136  0.5028755778749644  0.4781168039079450
 
  0.00000000E+00  0.00000000E+00  0.00000000E+00
  0.00000000E+00  0.00000000E+00  0.00000000E+00
  0.00000000E+00  0.00000000E+00  0.00000000E+00
  0.00000000E+00  0.00000000E+00  0.00000000E+00
  0.00000000E+00  0.00000000E+00  0.00000000E+00
  0.00000000E+00  0.00000000E+00  0.00000000E+00
  0.00000000E+00  0.00000000E+00  0.00000000E+00
  0.00000000E+00  0.00000000E+00  0.00000000E+00
  0.00000000E+00  0.00000000E+00  0.00000000E+00
  0.00000000E+00  0.00000000E+00  0.00000000E+00
  0.00000000E+00  0.00000000E+00  0.00000000E+00
  0.00000000E+00  0.00000000E+00  0.00000000E+00
  0.00000000E+00  0.00000000E+00  0.00000000E+00
  0.00000000E+00  0.00000000E+00  0.00000000E+00
  0.00000000E+00  0.00000000E+00  0.00000000E+00
  0.00000000E+00  0.00000000E+00  0.00000000E+00
  0.00000000E+00  0.00000000E+00  0.00000000E+00
  0.00000000E+00  0.00000000E+00  0.00000000E+00
  0.00000000E+00  0.00000000E+00  0.00000000E+00
  0.00000000E+00  0.00000000E+00  0.00000000E+00
  0.00000000E+00  0.00000000E+00  0.00000000E+00
  0.00000000E+00  0.00000000E+00  0.00000000E+00
  0.00000000E+00  0.00000000E+00  0.00000000E+00
  0.00000000E+00  0.00000000E+00  0.00000000E+00
  0.00000000E+00  0.00000000E+00  0.00000000E+00
  0.00000000E+00  0.00000000E+00  0.00000000E+00
  0.00000000E+00  0.00000000E+00  0.00000000E+00
  0.00000000E+00  0.00000000E+00  0.00000000E+00
  0.00000000E+00  0.00000000E+00  0.00000000E+00
  0.00000000E+00  0.00000000E+00  0.00000000E+00
  0.00000000E+00  0.00000000E+00  0.00000000E+00
  0.00000000E+00  0.00000000E+00  0.00000000E+00
  0.00000000E+00  0.00000000E+00  0.00000000E+00
  0.00000000E+00  0.00000000E+00  0.00000000E+00
  0.00000000E+00  0.00000000E+00  0.00000000E+00
  0.00000000E+00  0.00000000E+00  0.00000000E+00
  0.00000000E+00  0.00000000E+00  0.00000000E+00
  0.00000000E+00  0.00000000E+00  0.00000000E+00
  0.00000000E+00  0.00000000E+00  0.00000000E+00
  0.00000000E+00  0.00000000E+00  0.00000000E+00
  0.00000000E+00  0.00000000E+00  0.00000000E+00
  0.00000000E+00  0.00000000E+00  0.00000000E+00
  0.00000000E+00  0.00000000E+00  0.00000000E+00
  0.00000000E+00  0.00000000E+00  0.00000000E+00
  0.00000000E+00  0.00000000E+00  0.00000000E+00
  0.00000000E+00  0.00000000E+00  0.00000000E+00
  0.00000000E+00  0.00000000E+00  0.00000000E+00
  0.00000000E+00  0.00000000E+00  0.00000000E+00
  0.00000000E+00  0.00000000E+00  0.00000000E+00
  0.00000000E+00  0.00000000E+00  0.00000000E+00
  0.00000000E+00  0.00000000E+00  0.00000000E+00
  0.00000000E+00  0.00000000E+00  0.00000000E+00
  0.00000000E+00  0.00000000E+00  0.00000000E+00
  0.00000000E+00  0.00000000E+00  0.00000000E+00
  0.00000000E+00  0.00000000E+00  0.00000000E+00
  0.00000000E+00  0.00000000E+00  0.00000000E+00
  0.00000000E+00  0.00000000E+00  0.00000000E+00
  0.00000000E+00  0.00000000E+00  0.00000000E+00
  0.00000000E+00  0.00000000E+00  0.00000000E+00
  0.00000000E+00  0.00000000E+00  0.00000000E+00
  0.00000000E+00  0.00000000E+00  0.00000000E+00
  0.00000000E+00  0.00000000E+00  0.00000000E+00
  0.00000000E+00  0.00000000E+00  0.00000000E+00
  0.00000000E+00  0.00000000E+00  0.00000000E+00
  0.00000000E+00  0.00000000E+00  0.00000000E+00
  0.00000000E+00  0.00000000E+00  0.00000000E+00
  0.00000000E+00  0.00000000E+00  0.00000000E+00
  0.00000000E+00  0.00000000E+00  0.00000000E+00
  0.00000000E+00  0.00000000E+00  0.00000000E+00
  0.00000000E+00  0.00000000E+00  0.00000000E+00
  0.00000000E+00  0.00000000E+00  0.00000000E+00
  0.00000000E+00  0.00000000E+00  0.00000000E+00
  0.00000000E+00  0.00000000E+00  0.00000000E+00
  0.00000000E+00  0.00000000E+00  0.00000000E+00
  0.00000000E+00  0.00000000E+00  0.00000000E+00
  0.00000000E+00  0.00000000E+00  0.00000000E+00
  0.00000000E+00  0.00000000E+00  0.00000000E+00
  0.00000000E+00  0.00000000E+00  0.00000000E+00
  0.00000000E+00  0.00000000E+00  0.00000000E+00
  0.00000000E+00  0.00000000E+00  0.00000000E+00
  0.00000000E+00  0.00000000E+00  0.00000000E+00
  0.00000000E+00  0.00000000E+00  0.00000000E+00
  0.00000000E+00  0.00000000E+00  0.00000000E+00
  0.00000000E+00  0.00000000E+00  0.00000000E+00
  0.00000000E+00  0.00000000E+00  0.00000000E+00
  0.00000000E+00  0.00000000E+00  0.00000000E+00
  0.00000000E+00  0.00000000E+00  0.00000000E+00
  0.00000000E+00  0.00000000E+00  0.00000000E+00
  0.00000000E+00  0.00000000E+00  0.00000000E+00
  0.00000000E+00  0.00000000E+00  0.00000000E+00
  0.00000000E+00  0.00000000E+00  0.00000000E+00
  0.00000000E+00  0.00000000E+00  0.00000000E+00
  0.00000000E+00  0.00000000E+00  0.00000000E+00
  0.00000000E+00  0.00000000E+00  0.00000000E+00
  0.00000000E+00  0.00000000E+00  0.00000000E+00
  0.00000000E+00  0.00000000E+00  0.00000000E+00
  0.00000000E+00  0.00000000E+00  0.00000000E+00
  0.00000000E+00  0.00000000E+00  0.00000000E+00
  0.00000000E+00  0.00000000E+00  0.00000000E+00
  0.00000000E+00  0.00000000E+00  0.00000000E+00
  0.00000000E+00  0.00000000E+00  0.00000000E+00
  0.00000000E+00  0.00000000E+00  0.00000000E+00
  0.00000000E+00  0.00000000E+00  0.00000000E+00
  0.00000000E+00  0.00000000E+00  0.00000000E+00
  0.00000000E+00  0.00000000E+00  0.00000000E+00
  0.00000000E+00  0.00000000E+00  0.00000000E+00
  0.00000000E+00  0.00000000E+00  0.00000000E+00
  0.00000000E+00  0.00000000E+00  0.00000000E+00
  0.00000000E+00  0.00000000E+00  0.00000000E+00
  0.00000000E+00  0.00000000E+00  0.00000000E+00
  0.00000000E+00  0.00000000E+00  0.00000000E+00
  0.00000000E+00  0.00000000E+00  0.00000000E+00
  0.00000000E+00  0.00000000E+00  0.00000000E+00
  0.00000000E+00  0.00000000E+00  0.00000000E+00
  0.00000000E+00  0.00000000E+00  0.00000000E+00
  0.00000000E+00  0.00000000E+00  0.00000000E+00
  0.00000000E+00  0.00000000E+00  0.00000000E+00
  0.00000000E+00  0.00000000E+00  0.00000000E+00
  0.00000000E+00  0.00000000E+00  0.00000000E+00
  0.00000000E+00  0.00000000E+00  0.00000000E+00
  0.00000000E+00  0.00000000E+00  0.00000000E+00
  0.00000000E+00  0.00000000E+00  0.00000000E+00
  0.00000000E+00  0.00000000E+00  0.00000000E+00
  0.00000000E+00  0.00000000E+00  0.00000000E+00
  0.00000000E+00  0.00000000E+00  0.00000000E+00
  0.00000000E+00  0.00000000E+00  0.00000000E+00
  0.00000000E+00  0.00000000E+00  0.00000000E+00
  0.00000000E+00  0.00000000E+00  0.00000000E+00
