Ir1 C125 N1                             
   1.00000000000000     
    19.8333159088743614   -0.0383361654755458    0.0069307608946332
    -9.9499478305024809   17.0652897033699809   -0.0089447405170532
     0.0106531073374903   -0.0095105179181824   29.7634249692660724
   Ir   C    N 
     1   125     1
Direct
  0.4373077003995979  0.4988075828477785  0.4238271333338728
  0.0422845063307129  0.0844554061585540  0.3999290753873566
  0.0418513395356129  0.2087430594353016  0.3997506197972074
  0.0412353533619365  0.3332818867482067  0.3997256199248878
  0.0407522596118468  0.4585493814657515  0.3998306673102098
  0.0411055248837517  0.5839777854694423  0.4000974484610317
  0.0415886655131838  0.7092862711232980  0.4001841505366351
  0.0419100789091465  0.8345486580818781  0.4000585633736113
  0.0421849896233596  0.9596532535084633  0.3999598479769704
  0.1679293040588611  0.0858054258367096  0.3997454494598150
  0.1683418690129956  0.2110121166623057  0.3997627275871581
  0.1669211556048907  0.3348934385060218  0.3991571822364782
  0.1646086575041675  0.4592858275250148  0.3992218798549642
  0.1647580735315897  0.5842981887008969  0.3991121356425825
  0.1658052601198522  0.7095613269199510  0.3998005043600564
  0.1666233806939415  0.8348339242141296  0.4001150948933136
  0.1672725603365985  0.9602285288929258  0.3999377560164555
  0.2927393535057249  0.0855152373569118  0.3998170790204275
  0.2941641249605660  0.2122901402962445  0.4005534069906026
  0.2951366576410386  0.3387572208778613  0.4005330371969067
  0.2889495612976272  0.4611286232616130  0.4005080973038709
  0.2880552618313675  0.5855310951058327  0.3991697896364446
  0.2899010091669011  0.7098748796668306  0.3993237143526442
  0.2911338173428950  0.8345948553623760  0.3998687277507314
  0.2918721306012547  0.9597885423265963  0.3999431328271878
  0.4171777871800763  0.0837902159712453  0.3996135808951926
  0.4182104515851024  0.2094265594835334  0.3996400132241690
  0.4209805626417749  0.3362073583155418  0.4055432888758539
  0.4137995718647635  0.7077956510668123  0.4002443176559541
  0.4156525615160575  0.8332170066385557  0.3994819043988065
  0.4164730301067024  0.9584935407882578  0.3999757978249405
  0.5417993592982773  0.0822627922844441  0.3999255012635918
  0.5426066091611943  0.2072782801815260  0.3993104996338647
  0.5440062206036219  0.3319533559097117  0.3998434472457212
  0.5472879217195104  0.4556735724697584  0.4044647443938975
  0.5429456960821022  0.5764106871030185  0.4024227873304945
  0.5372138087875880  0.7026155244608964  0.4020715782712806
  0.5398824264094635  0.8307145943540845  0.4000951409649174
  0.5410533339861844  0.9568008578901354  0.3999313515608310
  0.6663821192663275  0.0816353302759437  0.4001116879273879
  0.6671485664138864  0.2069167292748787  0.3998668796589669
  0.6681465588551136  0.3320331755710904  0.3990053369867984
  0.6699688121865681  0.4573013722267305  0.3983788899836235
  0.6697832477406604  0.5823503898197656  0.3991587357457428
  0.6641881097734118  0.7045862035311240  0.3997484972377625
  0.6642025191974000  0.8298062023640421  0.4000590164408455
  0.6655786686546750  0.9560686400181673  0.3999803731614507
  0.7911233450493870  0.0817180364706432  0.3999367857886423
  0.7916753423827867  0.2069670348948470  0.4001616011518940
  0.7923209777707442  0.3323465618509037  0.3999401359455681
  0.7932976780591137  0.4578439131902300  0.3993910777904078
  0.7935007188841225  0.5831374307401082  0.3992392892544557
  0.7919284125382338  0.7079453193724126  0.3993088067491598
  0.7903085594457077  0.8316181009785387  0.3999293581800826
  0.7903807932354515  0.9563936239980241  0.3999477473231610
  0.9163197361960027  0.0826448377147453  0.3999561487407792
  0.9164417215061509  0.2075352975686501  0.3999566360939237
  0.9165692883383160  0.3326976344699233  0.4001728718522453
  0.9169325719551615  0.4580939158047505  0.4002303953578116
  0.9173536575816867  0.5836274797663943  0.4000618619434935
  0.9170987653375425  0.7089158436921220  0.3999301447127765
  0.9166903999278898  0.8336654301331976  0.3999960049828495
  0.9163025014457751  0.9580383749297917  0.4000224428128775
  0.0842391800041834  0.0433716511170144  0.3998588426511812
  0.0843654609764742  0.1682008048521593  0.3998299124674800
  0.0833258125116767  0.2922717243937827  0.3994532303840184
  0.0820088710539736  0.4169560103728093  0.3995578200713908
  0.0819784026610537  0.5421235176325925  0.3997130704864641
  0.0827380184080928  0.6675768942303754  0.4000529918003988
  0.0833469302644925  0.7929770806636968  0.4001412797420971
  0.0837769488722484  0.9182051127311371  0.3999799435527143
  0.2092591012653110  0.0438478221640126  0.3998380675321281
  0.2101168040835948  0.1697058233367375  0.3998027697744313
  0.2105205179975213  0.2951421860690410  0.3995125967882128
  0.2063996697733923  0.4183375350817550  0.3993435294347616
  0.2054156280860912  0.5426758471652208  0.3986835925624077
  0.2068469881207699  0.6679130989228869  0.3993372544839233
  0.2078587566448483  0.7930424321139623  0.3999767471703409
  0.2085770719816468  0.9183443072494486  0.4000307757804221
  0.3338539847539628  0.0431887553926810  0.3997499316805187
  0.3349136237231979  0.1691162160108557  0.4000910069605786
  0.3367725052164058  0.2960960168348584  0.4027184966275555
  0.3327303656755080  0.4229161948776163  0.4014983163602875
  0.3294352257050622  0.5456793716853199  0.4025601595697656
  0.3308153116938630  0.6682608822181669  0.3995847819380645
  0.3323726952095542  0.7928794644630770  0.3995435716595698
  0.3332081648534913  0.9178676640755351  0.3999738711504205
  0.4584974586266494  0.0417055294977254  0.3998984895585043
  0.4593055722609828  0.1670088962408709  0.3992859856747785
  0.4607940057821212  0.2927109545500398  0.4009027407583355
  0.4664754675461267  0.4183305951498599  0.4133109931720498
  0.4524980365754883  0.6634376390661835  0.4037354592012745
  0.4567691296210254  0.7909664184817968  0.3996016860557955
  0.4577684275623338  0.9163985638783280  0.3998112294228559
  0.5830920405486404  0.0402510928850776  0.4000496467496953
  0.5838636122703887  0.1655314462972923  0.3996831326370257
  0.5849052647089437  0.2903905096989022  0.3991383193920748
  0.5873084432957877  0.4148653893145019  0.3996899708894637
  0.5878586496573258  0.5393809792752062  0.4012866042644773
  0.5792271201481115  0.6602658813668471  0.4005602393231585
  0.5799704799321321  0.7868972027150422  0.4005731689373496
  0.5821303544399968  0.9144150975708920  0.3999634570557581
  0.7076628404941725  0.0397111322637870  0.4000019451798847
  0.7083656821488344  0.1651832721345758  0.4001532879566070
  0.7091676246527472  0.2904161439498776  0.3995866664858847
  0.7105541869263980  0.4156707805006524  0.3986821858175296
  0.7110791253000553  0.5408262812391648  0.3988529774847852
  0.7085019997767426  0.6654599971303514  0.3990680489226968
  0.7061572642704044  0.7886649286526701  0.3999931804192726
  0.7065968997026012  0.9138655691916364  0.3999276407427863
  0.8325840021616506  0.0402054260996050  0.3999273038736169
  0.8330560367597567  0.1653907503272247  0.4000143440219329
  0.8335058605651390  0.2906390204340594  0.4001859978294183
  0.8341355867031126  0.4159799568050240  0.3999433856872544
  0.8346138354690316  0.5414466036877179  0.3995849417892162
  0.8340018047356237  0.6668090595344033  0.3995068246277191
  0.8331404050654535  0.7913233479642977  0.3997777427190994
  0.8323961370975578  0.9153595045911397  0.4000209813702520
  0.9584014777689026  0.0417827169249752  0.3999832954177872
  0.9582912607728052  0.1663235878449997  0.3999026198521576
  0.9580593503704485  0.2911312536364419  0.4000091298514044
  0.9579364486422153  0.4163284059038336  0.4001627578414674
  0.9583526000178976  0.5418503319350890  0.4002345015075270
  0.9585681944732560  0.6672878831911191  0.4001091656341985
  0.9585684916079235  0.7924630594646914  0.4000035354208988
  0.9584905688728229  0.9172564298616125  0.4000436248823008
  0.4078072050680159  0.5841414151623315  0.4090117103489245
 
  0.00000000E+00  0.00000000E+00  0.00000000E+00
  0.00000000E+00  0.00000000E+00  0.00000000E+00
  0.00000000E+00  0.00000000E+00  0.00000000E+00
  0.00000000E+00  0.00000000E+00  0.00000000E+00
  0.00000000E+00  0.00000000E+00  0.00000000E+00
  0.00000000E+00  0.00000000E+00  0.00000000E+00
  0.00000000E+00  0.00000000E+00  0.00000000E+00
  0.00000000E+00  0.00000000E+00  0.00000000E+00
  0.00000000E+00  0.00000000E+00  0.00000000E+00
  0.00000000E+00  0.00000000E+00  0.00000000E+00
  0.00000000E+00  0.00000000E+00  0.00000000E+00
  0.00000000E+00  0.00000000E+00  0.00000000E+00
  0.00000000E+00  0.00000000E+00  0.00000000E+00
  0.00000000E+00  0.00000000E+00  0.00000000E+00
  0.00000000E+00  0.00000000E+00  0.00000000E+00
  0.00000000E+00  0.00000000E+00  0.00000000E+00
  0.00000000E+00  0.00000000E+00  0.00000000E+00
  0.00000000E+00  0.00000000E+00  0.00000000E+00
  0.00000000E+00  0.00000000E+00  0.00000000E+00
  0.00000000E+00  0.00000000E+00  0.00000000E+00
  0.00000000E+00  0.00000000E+00  0.00000000E+00
  0.00000000E+00  0.00000000E+00  0.00000000E+00
  0.00000000E+00  0.00000000E+00  0.00000000E+00
  0.00000000E+00  0.00000000E+00  0.00000000E+00
  0.00000000E+00  0.00000000E+00  0.00000000E+00
  0.00000000E+00  0.00000000E+00  0.00000000E+00
  0.00000000E+00  0.00000000E+00  0.00000000E+00
  0.00000000E+00  0.00000000E+00  0.00000000E+00
  0.00000000E+00  0.00000000E+00  0.00000000E+00
  0.00000000E+00  0.00000000E+00  0.00000000E+00
  0.00000000E+00  0.00000000E+00  0.00000000E+00
  0.00000000E+00  0.00000000E+00  0.00000000E+00
  0.00000000E+00  0.00000000E+00  0.00000000E+00
  0.00000000E+00  0.00000000E+00  0.00000000E+00
  0.00000000E+00  0.00000000E+00  0.00000000E+00
  0.00000000E+00  0.00000000E+00  0.00000000E+00
  0.00000000E+00  0.00000000E+00  0.00000000E+00
  0.00000000E+00  0.00000000E+00  0.00000000E+00
  0.00000000E+00  0.00000000E+00  0.00000000E+00
  0.00000000E+00  0.00000000E+00  0.00000000E+00
  0.00000000E+00  0.00000000E+00  0.00000000E+00
  0.00000000E+00  0.00000000E+00  0.00000000E+00
  0.00000000E+00  0.00000000E+00  0.00000000E+00
  0.00000000E+00  0.00000000E+00  0.00000000E+00
  0.00000000E+00  0.00000000E+00  0.00000000E+00
  0.00000000E+00  0.00000000E+00  0.00000000E+00
  0.00000000E+00  0.00000000E+00  0.00000000E+00
  0.00000000E+00  0.00000000E+00  0.00000000E+00
  0.00000000E+00  0.00000000E+00  0.00000000E+00
  0.00000000E+00  0.00000000E+00  0.00000000E+00
  0.00000000E+00  0.00000000E+00  0.00000000E+00
  0.00000000E+00  0.00000000E+00  0.00000000E+00
  0.00000000E+00  0.00000000E+00  0.00000000E+00
  0.00000000E+00  0.00000000E+00  0.00000000E+00
  0.00000000E+00  0.00000000E+00  0.00000000E+00
  0.00000000E+00  0.00000000E+00  0.00000000E+00
  0.00000000E+00  0.00000000E+00  0.00000000E+00
  0.00000000E+00  0.00000000E+00  0.00000000E+00
  0.00000000E+00  0.00000000E+00  0.00000000E+00
  0.00000000E+00  0.00000000E+00  0.00000000E+00
  0.00000000E+00  0.00000000E+00  0.00000000E+00
  0.00000000E+00  0.00000000E+00  0.00000000E+00
  0.00000000E+00  0.00000000E+00  0.00000000E+00
  0.00000000E+00  0.00000000E+00  0.00000000E+00
  0.00000000E+00  0.00000000E+00  0.00000000E+00
  0.00000000E+00  0.00000000E+00  0.00000000E+00
  0.00000000E+00  0.00000000E+00  0.00000000E+00
  0.00000000E+00  0.00000000E+00  0.00000000E+00
  0.00000000E+00  0.00000000E+00  0.00000000E+00
  0.00000000E+00  0.00000000E+00  0.00000000E+00
  0.00000000E+00  0.00000000E+00  0.00000000E+00
  0.00000000E+00  0.00000000E+00  0.00000000E+00
  0.00000000E+00  0.00000000E+00  0.00000000E+00
  0.00000000E+00  0.00000000E+00  0.00000000E+00
  0.00000000E+00  0.00000000E+00  0.00000000E+00
  0.00000000E+00  0.00000000E+00  0.00000000E+00
  0.00000000E+00  0.00000000E+00  0.00000000E+00
  0.00000000E+00  0.00000000E+00  0.00000000E+00
  0.00000000E+00  0.00000000E+00  0.00000000E+00
  0.00000000E+00  0.00000000E+00  0.00000000E+00
  0.00000000E+00  0.00000000E+00  0.00000000E+00
  0.00000000E+00  0.00000000E+00  0.00000000E+00
  0.00000000E+00  0.00000000E+00  0.00000000E+00
  0.00000000E+00  0.00000000E+00  0.00000000E+00
  0.00000000E+00  0.00000000E+00  0.00000000E+00
  0.00000000E+00  0.00000000E+00  0.00000000E+00
  0.00000000E+00  0.00000000E+00  0.00000000E+00
  0.00000000E+00  0.00000000E+00  0.00000000E+00
  0.00000000E+00  0.00000000E+00  0.00000000E+00
  0.00000000E+00  0.00000000E+00  0.00000000E+00
  0.00000000E+00  0.00000000E+00  0.00000000E+00
  0.00000000E+00  0.00000000E+00  0.00000000E+00
  0.00000000E+00  0.00000000E+00  0.00000000E+00
  0.00000000E+00  0.00000000E+00  0.00000000E+00
  0.00000000E+00  0.00000000E+00  0.00000000E+00
  0.00000000E+00  0.00000000E+00  0.00000000E+00
  0.00000000E+00  0.00000000E+00  0.00000000E+00
  0.00000000E+00  0.00000000E+00  0.00000000E+00
  0.00000000E+00  0.00000000E+00  0.00000000E+00
  0.00000000E+00  0.00000000E+00  0.00000000E+00
  0.00000000E+00  0.00000000E+00  0.00000000E+00
  0.00000000E+00  0.00000000E+00  0.00000000E+00
  0.00000000E+00  0.00000000E+00  0.00000000E+00
  0.00000000E+00  0.00000000E+00  0.00000000E+00
  0.00000000E+00  0.00000000E+00  0.00000000E+00
  0.00000000E+00  0.00000000E+00  0.00000000E+00
  0.00000000E+00  0.00000000E+00  0.00000000E+00
  0.00000000E+00  0.00000000E+00  0.00000000E+00
  0.00000000E+00  0.00000000E+00  0.00000000E+00
  0.00000000E+00  0.00000000E+00  0.00000000E+00
  0.00000000E+00  0.00000000E+00  0.00000000E+00
  0.00000000E+00  0.00000000E+00  0.00000000E+00
  0.00000000E+00  0.00000000E+00  0.00000000E+00
  0.00000000E+00  0.00000000E+00  0.00000000E+00
  0.00000000E+00  0.00000000E+00  0.00000000E+00
  0.00000000E+00  0.00000000E+00  0.00000000E+00
  0.00000000E+00  0.00000000E+00  0.00000000E+00
  0.00000000E+00  0.00000000E+00  0.00000000E+00
  0.00000000E+00  0.00000000E+00  0.00000000E+00
  0.00000000E+00  0.00000000E+00  0.00000000E+00
  0.00000000E+00  0.00000000E+00  0.00000000E+00
  0.00000000E+00  0.00000000E+00  0.00000000E+00
  0.00000000E+00  0.00000000E+00  0.00000000E+00
  0.00000000E+00  0.00000000E+00  0.00000000E+00
  0.00000000E+00  0.00000000E+00  0.00000000E+00
  0.00000000E+00  0.00000000E+00  0.00000000E+00
  0.00000000E+00  0.00000000E+00  0.00000000E+00
