Fe1 H1 C123 N3                          
   1.00000000000000     
    19.8140558216078873    0.0034041326687264    0.0835752792181749
    -9.9038294487570600   17.0195237385332732   -0.1346406653237722
     0.1257627651096273   -0.1626146679725120   29.8372338830298496
   Fe   H    C    N 
     1     1   123     3
Direct
  0.4370111256440562  0.4995711230570302  0.4102092293301983
  0.4391115744359729  0.4840090782003218  0.4587105241063149
  0.0420168391918362  0.0844473476356926  0.4000809613544208
  0.0409710314339189  0.2083692836949100  0.4003881298864019
  0.0402500799501036  0.3330082065139984  0.4002951815957582
  0.0404384689178945  0.4582823299414356  0.3996305755227176
  0.0413570361585946  0.5839114374345640  0.3992245815554993
  0.0422293893937797  0.7094781043506311  0.3993712057874126
  0.0425432127220716  0.8348624522421154  0.3994052158108858
  0.0425239328857558  0.9599537979064717  0.3995399887106217
  0.1680111899533508  0.0861128652305403  0.4007177897798225
  0.1676176901875580  0.2108698463374484  0.4018251138911915
  0.1650716043049050  0.3339199680300785  0.4024069292731289
  0.1641366697018041  0.4585926209581402  0.4017648085459739
  0.1649821409733471  0.5837457391198027  0.4001755885636338
  0.1663572301220776  0.7092012004699572  0.3994908308837771
  0.1671747316920524  0.8348126634047196  0.3993923440418375
  0.1676655990878014  0.9605109684263986  0.3996740203054689
  0.2928513286553057  0.0863362404726391  0.4007555352550216
  0.2936700489337055  0.2134545244911615  0.4027735924541055
  0.2928827932399433  0.3393977190990232  0.4040526142068073
  0.2875528802903036  0.4583919304330106  0.4045029734541893
  0.2882037040367353  0.5831976874353574  0.4026557161565689
  0.2904817803534075  0.7085241538030043  0.4004392765694509
  0.2916039737573033  0.8341044030220530  0.3995410872996287
  0.2922289963973107  0.9599873663611760  0.3995001290280379
  0.4171853388923908  0.0845422343002304  0.4000731682722895
  0.4179951791968095  0.2110589768987802  0.4019987899290532
  0.4200677242475932  0.3391593727550700  0.4048052366477599
  0.4143883547544271  0.7057162070130211  0.4019516416892071
  0.4159356813297840  0.8321342162572869  0.4003508871358412
  0.4166163231743893  0.9583222057214309  0.3995820901121537
  0.5414938541955501  0.0825406823322821  0.3994678631460033
  0.5422358050282050  0.2085078375526431  0.4003950272988387
  0.5435200522080630  0.3342249797459028  0.4030461620533012
  0.5473704179432127  0.4596754201085680  0.4064595137058572
  0.5377953761487178  0.7008077073875474  0.4034271724584344
  0.5401327012916166  0.8296479510913931  0.4013251871257710
  0.5409363152585165  0.9563646050802941  0.4000420534979720
  0.6659225918816335  0.0816327864882391  0.3996054410081188
  0.6665449847932382  0.2073114423328223  0.3993316372235570
  0.6676062802619303  0.3329573211768670  0.4001344049108842
  0.6699082025080120  0.4586485683780266  0.4023710157379723
  0.6707187200328696  0.5839964854289481  0.4040487214310076
  0.6657721745150523  0.7053562436732068  0.4029343339602692
  0.6643648465500344  0.8296209090862775  0.4016001573735275
  0.6653553169069720  0.9558124510639505  0.4003900716225067
  0.7905936867035972  0.0816653508977762  0.3996163794185619
  0.7909896958761663  0.2070954800400422  0.3994212645613522
  0.7917368957118480  0.3326408670331401  0.3991126767164759
  0.7930611213800137  0.4582874934293131  0.3992094418191792
  0.7939410878150058  0.5838158407753514  0.4002428786740500
  0.7931801916434915  0.7088133790890733  0.4008921435413062
  0.7909064692485829  0.8320276691420984  0.4007516951157591
  0.7902471147477832  0.9563824129005174  0.4001538749992494
  0.9158363013018378  0.0825476553805383  0.3996237969630939
  0.9156577105663878  0.2073815731455847  0.3995609388360455
  0.9158906702364636  0.3326832703141718  0.3993698240815979
  0.9167236695393783  0.4582581877988657  0.3989705227563474
  0.9176667247835424  0.5839298180004333  0.3989839203170150
  0.9178495107999692  0.7092933524288600  0.3994034210002500
  0.9174298078835195  0.8342020317552048  0.3996127513782638
  0.9164397805965644  0.9582775185430003  0.3997134082275948
  0.0844154660340017  0.0436644157657652  0.4000441066339772
  0.0838258337597479  0.1681046007927580  0.4007367351953018
  0.0821661888873289  0.2917645121447567  0.4009640343785760
  0.0814727534717907  0.4164752832976805  0.4004376053253164
  0.0821922910254716  0.5419182495737834  0.3995633285715184
  0.0833006329356237  0.6675238981048750  0.3993366014889846
  0.0839941752875892  0.7931009111382252  0.3994521975739212
  0.0843083509804843  0.9185246985830280  0.3994870937698529
  0.2094897093130089  0.0442504540262411  0.4003688178900399
  0.2099421732929976  0.1700623841079610  0.4018417221942784
  0.2090135784877235  0.2947505286631201  0.4028056362209449
  0.2055386367291655  0.4171728744577053  0.4032252740265564
  0.2054944454347198  0.5416700768512129  0.4015105389639245
  0.2073043825337497  0.6672139114236249  0.3999395269897484
  0.2084085970141881  0.7928229146348864  0.3994354010227086
  0.2090336851510150  0.9184971640348907  0.3994458152415921
  0.3340015310956468  0.0437687922341150  0.4000389084080525
  0.3347030814656846  0.1703574546160619  0.4019474602337343
  0.3358798724060143  0.2980200663366426  0.4040746645127059
  0.3291208257167594  0.5422614423473707  0.4043635552972892
  0.3312559767584683  0.6664067208394182  0.4016743934141175
  0.3327727392490616  0.7918600710408724  0.4000248889970536
  0.3334504229889753  0.9176379315955582  0.3994555656215799
  0.4583446190818719  0.0419202616592077  0.3995960963150385
  0.4590055699448752  0.1681923610431887  0.4008223513743888
  0.4601435252154439  0.2948938948663368  0.4032795155439740
  0.4650024085195891  0.4226588281004863  0.4070106677036547
  0.4532235274074244  0.6606291539123588  0.4033480509556038
  0.4569475854836637  0.7893497688236090  0.4011631179261684
  0.4577779836632253  0.9157473782677122  0.3999569909174611
  0.5827109615325325  0.0401481569735936  0.3996110697398119
  0.5833590753387905  0.1661478760327657  0.3995362306980685
  0.5843442482672422  0.2919000561428427  0.4011388474041628
  0.5872057333617808  0.4174996800975769  0.4042956248120713
  0.5892941241413354  0.5428947334646592  0.4061795949513166
  0.5815434144931619  0.6600223635071493  0.4042462191408350
  0.5804069589654081  0.7859414170158063  0.4021847449287573
  0.5820602904893425  0.9137368401551066  0.4005843932427254
  0.7072592370503809  0.0396197024657452  0.3998403085756553
  0.7077870305124123  0.1653259584783682  0.3993791802483907
  0.7085703202674420  0.2909387595840978  0.3993384300116255
  0.7102787331864248  0.4164986167911230  0.4003049643709259
  0.7115157096294280  0.5418320009316580  0.4023003415807164
  0.7103759572265824  0.6668463357989584  0.4026771906734549
  0.7070056212984411  0.7891297138388603  0.4017279321121395
  0.7065488112391035  0.9137444724753646  0.4006813681076807
  0.8322721343195649  0.0401820647200651  0.3996891809887121
  0.8324400435818283  0.1653815427225137  0.3994723971363839
  0.8328460900238880  0.2907220970468464  0.3992785908816733
  0.8338575474753873  0.4162609963062115  0.3989282949805454
  0.8348861265317531  0.5419197524997106  0.3992096767715375
  0.8349800057146148  0.6673557015772726  0.4000356134599169
  0.8340775558211591  0.7920156234373673  0.4003244897264287
  0.8326935152411508  0.9156731853379858  0.4001657854375217
  0.9582976865862456  0.0418846706959994  0.3996986718076938
  0.9575843593701600  0.1661138034634694  0.3997225872672557
  0.9573007903073871  0.2910198235972257  0.3996542007239614
  0.9576045135966708  0.4162985296613222  0.3992537792201807
  0.9585422943442106  0.5419321466808628  0.3989948714261265
  0.9592500902388730  0.6675482935778188  0.3992299486133435
  0.9593524236590486  0.7929142048942571  0.3994205119583966
  0.9590100269762061  0.9176916664890546  0.3995209801647585
  0.4092361868266489  0.5801355646723735  0.4051177650748095
  0.5451037825793040  0.5789771261670863  0.4062206178809302
  0.3305982980967297  0.4209049567969697  0.4049564750580748
 
  0.00000000E+00  0.00000000E+00  0.00000000E+00
  0.00000000E+00  0.00000000E+00  0.00000000E+00
  0.00000000E+00  0.00000000E+00  0.00000000E+00
  0.00000000E+00  0.00000000E+00  0.00000000E+00
  0.00000000E+00  0.00000000E+00  0.00000000E+00
  0.00000000E+00  0.00000000E+00  0.00000000E+00
  0.00000000E+00  0.00000000E+00  0.00000000E+00
  0.00000000E+00  0.00000000E+00  0.00000000E+00
  0.00000000E+00  0.00000000E+00  0.00000000E+00
  0.00000000E+00  0.00000000E+00  0.00000000E+00
  0.00000000E+00  0.00000000E+00  0.00000000E+00
  0.00000000E+00  0.00000000E+00  0.00000000E+00
  0.00000000E+00  0.00000000E+00  0.00000000E+00
  0.00000000E+00  0.00000000E+00  0.00000000E+00
  0.00000000E+00  0.00000000E+00  0.00000000E+00
  0.00000000E+00  0.00000000E+00  0.00000000E+00
  0.00000000E+00  0.00000000E+00  0.00000000E+00
  0.00000000E+00  0.00000000E+00  0.00000000E+00
  0.00000000E+00  0.00000000E+00  0.00000000E+00
  0.00000000E+00  0.00000000E+00  0.00000000E+00
  0.00000000E+00  0.00000000E+00  0.00000000E+00
  0.00000000E+00  0.00000000E+00  0.00000000E+00
  0.00000000E+00  0.00000000E+00  0.00000000E+00
  0.00000000E+00  0.00000000E+00  0.00000000E+00
  0.00000000E+00  0.00000000E+00  0.00000000E+00
  0.00000000E+00  0.00000000E+00  0.00000000E+00
  0.00000000E+00  0.00000000E+00  0.00000000E+00
  0.00000000E+00  0.00000000E+00  0.00000000E+00
  0.00000000E+00  0.00000000E+00  0.00000000E+00
  0.00000000E+00  0.00000000E+00  0.00000000E+00
  0.00000000E+00  0.00000000E+00  0.00000000E+00
  0.00000000E+00  0.00000000E+00  0.00000000E+00
  0.00000000E+00  0.00000000E+00  0.00000000E+00
  0.00000000E+00  0.00000000E+00  0.00000000E+00
  0.00000000E+00  0.00000000E+00  0.00000000E+00
  0.00000000E+00  0.00000000E+00  0.00000000E+00
  0.00000000E+00  0.00000000E+00  0.00000000E+00
  0.00000000E+00  0.00000000E+00  0.00000000E+00
  0.00000000E+00  0.00000000E+00  0.00000000E+00
  0.00000000E+00  0.00000000E+00  0.00000000E+00
  0.00000000E+00  0.00000000E+00  0.00000000E+00
  0.00000000E+00  0.00000000E+00  0.00000000E+00
  0.00000000E+00  0.00000000E+00  0.00000000E+00
  0.00000000E+00  0.00000000E+00  0.00000000E+00
  0.00000000E+00  0.00000000E+00  0.00000000E+00
  0.00000000E+00  0.00000000E+00  0.00000000E+00
  0.00000000E+00  0.00000000E+00  0.00000000E+00
  0.00000000E+00  0.00000000E+00  0.00000000E+00
  0.00000000E+00  0.00000000E+00  0.00000000E+00
  0.00000000E+00  0.00000000E+00  0.00000000E+00
  0.00000000E+00  0.00000000E+00  0.00000000E+00
  0.00000000E+00  0.00000000E+00  0.00000000E+00
  0.00000000E+00  0.00000000E+00  0.00000000E+00
  0.00000000E+00  0.00000000E+00  0.00000000E+00
  0.00000000E+00  0.00000000E+00  0.00000000E+00
  0.00000000E+00  0.00000000E+00  0.00000000E+00
  0.00000000E+00  0.00000000E+00  0.00000000E+00
  0.00000000E+00  0.00000000E+00  0.00000000E+00
  0.00000000E+00  0.00000000E+00  0.00000000E+00
  0.00000000E+00  0.00000000E+00  0.00000000E+00
  0.00000000E+00  0.00000000E+00  0.00000000E+00
  0.00000000E+00  0.00000000E+00  0.00000000E+00
  0.00000000E+00  0.00000000E+00  0.00000000E+00
  0.00000000E+00  0.00000000E+00  0.00000000E+00
  0.00000000E+00  0.00000000E+00  0.00000000E+00
  0.00000000E+00  0.00000000E+00  0.00000000E+00
  0.00000000E+00  0.00000000E+00  0.00000000E+00
  0.00000000E+00  0.00000000E+00  0.00000000E+00
  0.00000000E+00  0.00000000E+00  0.00000000E+00
  0.00000000E+00  0.00000000E+00  0.00000000E+00
  0.00000000E+00  0.00000000E+00  0.00000000E+00
  0.00000000E+00  0.00000000E+00  0.00000000E+00
  0.00000000E+00  0.00000000E+00  0.00000000E+00
  0.00000000E+00  0.00000000E+00  0.00000000E+00
  0.00000000E+00  0.00000000E+00  0.00000000E+00
  0.00000000E+00  0.00000000E+00  0.00000000E+00
  0.00000000E+00  0.00000000E+00  0.00000000E+00
  0.00000000E+00  0.00000000E+00  0.00000000E+00
  0.00000000E+00  0.00000000E+00  0.00000000E+00
  0.00000000E+00  0.00000000E+00  0.00000000E+00
  0.00000000E+00  0.00000000E+00  0.00000000E+00
  0.00000000E+00  0.00000000E+00  0.00000000E+00
  0.00000000E+00  0.00000000E+00  0.00000000E+00
  0.00000000E+00  0.00000000E+00  0.00000000E+00
  0.00000000E+00  0.00000000E+00  0.00000000E+00
  0.00000000E+00  0.00000000E+00  0.00000000E+00
  0.00000000E+00  0.00000000E+00  0.00000000E+00
  0.00000000E+00  0.00000000E+00  0.00000000E+00
  0.00000000E+00  0.00000000E+00  0.00000000E+00
  0.00000000E+00  0.00000000E+00  0.00000000E+00
  0.00000000E+00  0.00000000E+00  0.00000000E+00
  0.00000000E+00  0.00000000E+00  0.00000000E+00
  0.00000000E+00  0.00000000E+00  0.00000000E+00
  0.00000000E+00  0.00000000E+00  0.00000000E+00
  0.00000000E+00  0.00000000E+00  0.00000000E+00
  0.00000000E+00  0.00000000E+00  0.00000000E+00
  0.00000000E+00  0.00000000E+00  0.00000000E+00
  0.00000000E+00  0.00000000E+00  0.00000000E+00
  0.00000000E+00  0.00000000E+00  0.00000000E+00
  0.00000000E+00  0.00000000E+00  0.00000000E+00
  0.00000000E+00  0.00000000E+00  0.00000000E+00
  0.00000000E+00  0.00000000E+00  0.00000000E+00
  0.00000000E+00  0.00000000E+00  0.00000000E+00
  0.00000000E+00  0.00000000E+00  0.00000000E+00
  0.00000000E+00  0.00000000E+00  0.00000000E+00
  0.00000000E+00  0.00000000E+00  0.00000000E+00
  0.00000000E+00  0.00000000E+00  0.00000000E+00
  0.00000000E+00  0.00000000E+00  0.00000000E+00
  0.00000000E+00  0.00000000E+00  0.00000000E+00
  0.00000000E+00  0.00000000E+00  0.00000000E+00
  0.00000000E+00  0.00000000E+00  0.00000000E+00
  0.00000000E+00  0.00000000E+00  0.00000000E+00
  0.00000000E+00  0.00000000E+00  0.00000000E+00
  0.00000000E+00  0.00000000E+00  0.00000000E+00
  0.00000000E+00  0.00000000E+00  0.00000000E+00
  0.00000000E+00  0.00000000E+00  0.00000000E+00
  0.00000000E+00  0.00000000E+00  0.00000000E+00
  0.00000000E+00  0.00000000E+00  0.00000000E+00
  0.00000000E+00  0.00000000E+00  0.00000000E+00
  0.00000000E+00  0.00000000E+00  0.00000000E+00
  0.00000000E+00  0.00000000E+00  0.00000000E+00
  0.00000000E+00  0.00000000E+00  0.00000000E+00
  0.00000000E+00  0.00000000E+00  0.00000000E+00
  0.00000000E+00  0.00000000E+00  0.00000000E+00
  0.00000000E+00  0.00000000E+00  0.00000000E+00
  0.00000000E+00  0.00000000E+00  0.00000000E+00
  0.00000000E+00  0.00000000E+00  0.00000000E+00
  0.00000000E+00  0.00000000E+00  0.00000000E+00
