Ru1 C125 N1                             
   1.00000000000000     
    19.8101336839525288   -0.0306704325585278    0.0083153189292421
    -9.9316842075491909   17.0573355154769573   -0.0072233576482350
     0.0126282347859920   -0.0053458116997962   29.8054207520450625
   Ru   C    N 
     1   125     1
Direct
  0.4382382931049887  0.4990561038189855  0.4287243706355969
  0.0422604057074192  0.0844128702321752  0.3999025422698201
  0.0418636595963245  0.2087711479474816  0.3997900937780874
  0.0412813485737540  0.3332761305034697  0.3997195549676145
  0.0409502080451456  0.4584847805260927  0.3998230432509358
  0.0412543144102387  0.5838680357472643  0.4000020513519463
  0.0416715651775677  0.7091808458676014  0.4001044256490452
  0.0419318770673160  0.8344349970979026  0.4000502446436452
  0.0421203005229671  0.9595301800418257  0.3999509569926022
  0.1677821861475100  0.0855744776067800  0.3998009422448812
  0.1683372065603030  0.2109864949505588  0.3998431018408090
  0.1670035305312791  0.3348154329501405  0.3994080729278167
  0.1650638321827583  0.4590472430482242  0.3993245113071706
  0.1651579253637337  0.5840821230891421  0.3993797574622199
  0.1660077591616870  0.7093504098592895  0.3998188898656775
  0.1666832436675037  0.8346414684785426  0.4000810626205391
  0.1672328962173072  0.9600245789865262  0.3999748814868296
  0.2925877952539473  0.0852985078766012  0.3997975347116701
  0.2937714437181543  0.2118438555388026  0.4003988832186055
  0.2953034120009658  0.3390270745930922  0.4011775910959837
  0.2899412950388482  0.4606627140786334  0.4006066440453754
  0.2887531324614563  0.5849844113563374  0.3994804152986646
  0.2902493071515421  0.7094906298068587  0.3995241648657842
  0.2912708308446403  0.8343761062711255  0.3998631049344413
  0.2918847636295137  0.9596241027552991  0.3999493854795459
  0.4171044917611818  0.0838497115197497  0.3997164363737994
  0.4178894941306247  0.2095069945178006  0.3996610067006568
  0.4199337686254582  0.3364115832290376  0.4035978261131311
  0.4142394213578626  0.7073840797800980  0.4003039067221716
  0.4157992865356919  0.8330053137156255  0.3996544776183444
  0.4165041806422000  0.9584306804667547  0.3999580259186293
  0.5417200357813062  0.0824304311915733  0.3999149511349818
  0.5423812874508039  0.2076048120933831  0.3994813582506195
  0.5434863202429084  0.3324910567443631  0.3999959963927726
  0.5462290406859079  0.4566057819954012  0.4028502852699705
  0.5415136155686624  0.5763814864765983  0.4026302976045002
  0.5375199569663491  0.7029144360699274  0.4018294220130302
  0.5400479830020689  0.8308185058728185  0.4001307307576380
  0.5410754561234000  0.9569076313823865  0.3999344904151806
  0.6663285887875185  0.0817966221922105  0.4000577700225366
  0.6669795660367519  0.2071619739079903  0.3998714592081917
  0.6678073609561352  0.3323677372936410  0.3994084294470691
  0.6694552478494367  0.4576401126110066  0.3991278259208759
  0.6693361066913432  0.5826340107756186  0.3991217419065018
  0.6641917927362299  0.7046558739192289  0.3997412608952628
  0.6642941423728529  0.8300085736534154  0.4000799463058322
  0.6655876817531220  0.9562085047272568  0.3999994514107215
  0.7910876684988561  0.0818557566530216  0.3999613780656890
  0.7915674969658417  0.2071197073622355  0.4001122646487141
  0.7921676665479894  0.3325094865727991  0.3999606019464167
  0.7930308516927996  0.4579597442512272  0.3996499982605649
  0.7932534354053361  0.5832358828057331  0.3995026820686720
  0.7919471337894609  0.7080364068602657  0.3994456517806139
  0.7903073478358911  0.8316584561970473  0.3998794346029953
  0.7904147884173668  0.9565041866052025  0.3999200429366021
  0.9163009391342848  0.0827111933904049  0.3999335695763603
  0.9164154624256909  0.2076090483536056  0.3999490376184894
  0.9165451868666040  0.3327625980005303  0.4000892307431581
  0.9169091659371865  0.4581385811993967  0.4001334477118244
  0.9172834673438371  0.5836173506791478  0.4000370348813411
  0.9170946529162833  0.7088737451009004  0.3999339921268958
  0.9167217494977682  0.8336414053611410  0.3999835296770495
  0.9162859009099853  0.9580565326617525  0.3999859903721295
  0.0841510787093816  0.0432247317833482  0.3998709023060360
  0.0843915311146521  0.1681763453774018  0.3998281778125841
  0.0833761325285784  0.2922535270006308  0.3995629877913939
  0.0823024318370246  0.4168753985652741  0.3995958922112288
  0.0822769951267948  0.5420490845180155  0.3997394841517545
  0.0829135674877044  0.6674554342640042  0.3999844608026176
  0.0834358622234801  0.7928312321899884  0.4001067807358748
  0.0837789330019402  0.9180507620880991  0.3999928704360006
  0.2091655597963382  0.0436339214000441  0.3998672082936381
  0.2099255280696313  0.1694163954850711  0.3998850323320122
  0.2105717276767178  0.2951361585419504  0.3998624198444169
  0.2070103981875591  0.4181237283505879  0.3993779073124240
  0.2060069301576946  0.5424007018032113  0.3991178129958444
  0.2071658728144744  0.6676428535794964  0.3995247480611381
  0.2080099541491193  0.7928546646535968  0.3999437891713546
  0.2086072213215865  0.9181645456669653  0.4000374234313147
  0.3337989457952104  0.0430626107459074  0.3997941606591919
  0.3346494521291455  0.1689170827838332  0.3999415088157708
  0.3361563131701376  0.2956280926215644  0.4021445656740776
  0.3344469201565290  0.4231600957228944  0.4027312238606811
  0.3304765534208478  0.5448863288709365  0.4017342195188602
  0.3312805397087975  0.6677843885002570  0.3997654856682209
  0.3325780197636208  0.7925965400067233  0.3996641752052312
  0.3332509150666392  0.9176905319392354  0.3999475667749368
  0.4584603975336637  0.0417433949202969  0.3999129161168637
  0.4590919885415242  0.1671566030358511  0.3994710873203495
  0.4602139531776764  0.2929591438795919  0.4004707828311667
  0.4648222420173044  0.4190915363880868  0.4096238811768175
  0.4532873638080607  0.6629417990092071  0.4027591095190038
  0.4569588926783045  0.7906945032135613  0.3997983201791186
  0.4578036518362776  0.9162935109291707  0.3998561390807544
  0.5830426765785109  0.0403974916377816  0.3999984898456977
  0.5837038302677274  0.1657753760462322  0.3997371931089595
  0.5845545445007884  0.2907915436140101  0.3994382600580128
  0.5866667680797705  0.4154591275344285  0.4000058536517359
  0.5870771096429659  0.5401104013278644  0.4006899380289257
  0.5790100269453173  0.6601052126887117  0.4008929637738601
  0.5802051365586129  0.7871963161631005  0.4005606446461270
  0.5822156153164455  0.9145538360686459  0.3999828531429180
  0.7076380746638444  0.0398701032697420  0.4000058558580643
  0.7082935603430993  0.1653620896331111  0.4000790935598335
  0.7089593183452507  0.2906626456495246  0.3997337128135248
  0.7101694715603211  0.4159456442672198  0.3992581735963064
  0.7106609505456121  0.5410867956006573  0.3992033896295950
  0.7084833860137735  0.6656502876780392  0.3991597052733072
  0.7061947502726039  0.7887004383397058  0.3998977144638013
  0.7066549383235893  0.9139980361494853  0.3999507198057336
  0.8326285619477209  0.0402988454342398  0.3999190074381985
  0.8330166627245595  0.1655033503447591  0.4000169408832625
  0.8334145068807425  0.2907633797233733  0.4001160068634130
  0.8340038492059052  0.4161081347108472  0.3999655110436132
  0.8344318693841334  0.5415327504908721  0.3997656650541418
  0.8339742085402218  0.6668517247505943  0.3996282869828208
  0.8331697047390485  0.7913429549764204  0.3998079620608373
  0.8324059647817691  0.9154041553706259  0.3999643027205180
  0.9584127201941384  0.0417725904418833  0.3999559281970399
  0.9582640867991321  0.1663627176726008  0.3998994655050889
  0.9580611591903385  0.2911825022762083  0.3999528754570185
  0.9580190409478332  0.4163669573211050  0.4000736750662933
  0.9583979034695371  0.5418302802248282  0.4001249277402582
  0.9586038851397412  0.6672369219754710  0.4000548871564832
  0.9586007481162540  0.7924137796764942  0.3999889259558869
  0.9585029591002192  0.9171983435332338  0.4000096598552536
  0.4093358654941993  0.5829208983543039  0.4062071603075308
 
  0.00000000E+00  0.00000000E+00  0.00000000E+00
  0.00000000E+00  0.00000000E+00  0.00000000E+00
  0.00000000E+00  0.00000000E+00  0.00000000E+00
  0.00000000E+00  0.00000000E+00  0.00000000E+00
  0.00000000E+00  0.00000000E+00  0.00000000E+00
  0.00000000E+00  0.00000000E+00  0.00000000E+00
  0.00000000E+00  0.00000000E+00  0.00000000E+00
  0.00000000E+00  0.00000000E+00  0.00000000E+00
  0.00000000E+00  0.00000000E+00  0.00000000E+00
  0.00000000E+00  0.00000000E+00  0.00000000E+00
  0.00000000E+00  0.00000000E+00  0.00000000E+00
  0.00000000E+00  0.00000000E+00  0.00000000E+00
  0.00000000E+00  0.00000000E+00  0.00000000E+00
  0.00000000E+00  0.00000000E+00  0.00000000E+00
  0.00000000E+00  0.00000000E+00  0.00000000E+00
  0.00000000E+00  0.00000000E+00  0.00000000E+00
  0.00000000E+00  0.00000000E+00  0.00000000E+00
  0.00000000E+00  0.00000000E+00  0.00000000E+00
  0.00000000E+00  0.00000000E+00  0.00000000E+00
  0.00000000E+00  0.00000000E+00  0.00000000E+00
  0.00000000E+00  0.00000000E+00  0.00000000E+00
  0.00000000E+00  0.00000000E+00  0.00000000E+00
  0.00000000E+00  0.00000000E+00  0.00000000E+00
  0.00000000E+00  0.00000000E+00  0.00000000E+00
  0.00000000E+00  0.00000000E+00  0.00000000E+00
  0.00000000E+00  0.00000000E+00  0.00000000E+00
  0.00000000E+00  0.00000000E+00  0.00000000E+00
  0.00000000E+00  0.00000000E+00  0.00000000E+00
  0.00000000E+00  0.00000000E+00  0.00000000E+00
  0.00000000E+00  0.00000000E+00  0.00000000E+00
  0.00000000E+00  0.00000000E+00  0.00000000E+00
  0.00000000E+00  0.00000000E+00  0.00000000E+00
  0.00000000E+00  0.00000000E+00  0.00000000E+00
  0.00000000E+00  0.00000000E+00  0.00000000E+00
  0.00000000E+00  0.00000000E+00  0.00000000E+00
  0.00000000E+00  0.00000000E+00  0.00000000E+00
  0.00000000E+00  0.00000000E+00  0.00000000E+00
  0.00000000E+00  0.00000000E+00  0.00000000E+00
  0.00000000E+00  0.00000000E+00  0.00000000E+00
  0.00000000E+00  0.00000000E+00  0.00000000E+00
  0.00000000E+00  0.00000000E+00  0.00000000E+00
  0.00000000E+00  0.00000000E+00  0.00000000E+00
  0.00000000E+00  0.00000000E+00  0.00000000E+00
  0.00000000E+00  0.00000000E+00  0.00000000E+00
  0.00000000E+00  0.00000000E+00  0.00000000E+00
  0.00000000E+00  0.00000000E+00  0.00000000E+00
  0.00000000E+00  0.00000000E+00  0.00000000E+00
  0.00000000E+00  0.00000000E+00  0.00000000E+00
  0.00000000E+00  0.00000000E+00  0.00000000E+00
  0.00000000E+00  0.00000000E+00  0.00000000E+00
  0.00000000E+00  0.00000000E+00  0.00000000E+00
  0.00000000E+00  0.00000000E+00  0.00000000E+00
  0.00000000E+00  0.00000000E+00  0.00000000E+00
  0.00000000E+00  0.00000000E+00  0.00000000E+00
  0.00000000E+00  0.00000000E+00  0.00000000E+00
  0.00000000E+00  0.00000000E+00  0.00000000E+00
  0.00000000E+00  0.00000000E+00  0.00000000E+00
  0.00000000E+00  0.00000000E+00  0.00000000E+00
  0.00000000E+00  0.00000000E+00  0.00000000E+00
  0.00000000E+00  0.00000000E+00  0.00000000E+00
  0.00000000E+00  0.00000000E+00  0.00000000E+00
  0.00000000E+00  0.00000000E+00  0.00000000E+00
  0.00000000E+00  0.00000000E+00  0.00000000E+00
  0.00000000E+00  0.00000000E+00  0.00000000E+00
  0.00000000E+00  0.00000000E+00  0.00000000E+00
  0.00000000E+00  0.00000000E+00  0.00000000E+00
  0.00000000E+00  0.00000000E+00  0.00000000E+00
  0.00000000E+00  0.00000000E+00  0.00000000E+00
  0.00000000E+00  0.00000000E+00  0.00000000E+00
  0.00000000E+00  0.00000000E+00  0.00000000E+00
  0.00000000E+00  0.00000000E+00  0.00000000E+00
  0.00000000E+00  0.00000000E+00  0.00000000E+00
  0.00000000E+00  0.00000000E+00  0.00000000E+00
  0.00000000E+00  0.00000000E+00  0.00000000E+00
  0.00000000E+00  0.00000000E+00  0.00000000E+00
  0.00000000E+00  0.00000000E+00  0.00000000E+00
  0.00000000E+00  0.00000000E+00  0.00000000E+00
  0.00000000E+00  0.00000000E+00  0.00000000E+00
  0.00000000E+00  0.00000000E+00  0.00000000E+00
  0.00000000E+00  0.00000000E+00  0.00000000E+00
  0.00000000E+00  0.00000000E+00  0.00000000E+00
  0.00000000E+00  0.00000000E+00  0.00000000E+00
  0.00000000E+00  0.00000000E+00  0.00000000E+00
  0.00000000E+00  0.00000000E+00  0.00000000E+00
  0.00000000E+00  0.00000000E+00  0.00000000E+00
  0.00000000E+00  0.00000000E+00  0.00000000E+00
  0.00000000E+00  0.00000000E+00  0.00000000E+00
  0.00000000E+00  0.00000000E+00  0.00000000E+00
  0.00000000E+00  0.00000000E+00  0.00000000E+00
  0.00000000E+00  0.00000000E+00  0.00000000E+00
  0.00000000E+00  0.00000000E+00  0.00000000E+00
  0.00000000E+00  0.00000000E+00  0.00000000E+00
  0.00000000E+00  0.00000000E+00  0.00000000E+00
  0.00000000E+00  0.00000000E+00  0.00000000E+00
  0.00000000E+00  0.00000000E+00  0.00000000E+00
  0.00000000E+00  0.00000000E+00  0.00000000E+00
  0.00000000E+00  0.00000000E+00  0.00000000E+00
  0.00000000E+00  0.00000000E+00  0.00000000E+00
  0.00000000E+00  0.00000000E+00  0.00000000E+00
  0.00000000E+00  0.00000000E+00  0.00000000E+00
  0.00000000E+00  0.00000000E+00  0.00000000E+00
  0.00000000E+00  0.00000000E+00  0.00000000E+00
  0.00000000E+00  0.00000000E+00  0.00000000E+00
  0.00000000E+00  0.00000000E+00  0.00000000E+00
  0.00000000E+00  0.00000000E+00  0.00000000E+00
  0.00000000E+00  0.00000000E+00  0.00000000E+00
  0.00000000E+00  0.00000000E+00  0.00000000E+00
  0.00000000E+00  0.00000000E+00  0.00000000E+00
  0.00000000E+00  0.00000000E+00  0.00000000E+00
  0.00000000E+00  0.00000000E+00  0.00000000E+00
  0.00000000E+00  0.00000000E+00  0.00000000E+00
  0.00000000E+00  0.00000000E+00  0.00000000E+00
  0.00000000E+00  0.00000000E+00  0.00000000E+00
  0.00000000E+00  0.00000000E+00  0.00000000E+00
  0.00000000E+00  0.00000000E+00  0.00000000E+00
  0.00000000E+00  0.00000000E+00  0.00000000E+00
  0.00000000E+00  0.00000000E+00  0.00000000E+00
  0.00000000E+00  0.00000000E+00  0.00000000E+00
  0.00000000E+00  0.00000000E+00  0.00000000E+00
  0.00000000E+00  0.00000000E+00  0.00000000E+00
  0.00000000E+00  0.00000000E+00  0.00000000E+00
  0.00000000E+00  0.00000000E+00  0.00000000E+00
  0.00000000E+00  0.00000000E+00  0.00000000E+00
  0.00000000E+00  0.00000000E+00  0.00000000E+00
  0.00000000E+00  0.00000000E+00  0.00000000E+00
  0.00000000E+00  0.00000000E+00  0.00000000E+00
  0.00000000E+00  0.00000000E+00  0.00000000E+00
