H1 Pd1 C122 N4 O1                       
   1.00000000000000     
    19.8331509630914518   -0.0000653593386703   -0.0379737577765783
    -9.9165984570931318   17.0193917993748514   -0.0304794196195659
    -0.0569703862335181   -0.0864833933972851   29.8107161461460812
   H    Pd   C    N    O 
     1     1   122     4     1
Direct
  0.4754542888694783  0.5481820458736613  0.4938616433631421
  0.4375992169793360  0.5000181459525783  0.4085791831473223
  0.0421580886036226  0.0842957766794110  0.4002422985818288
  0.0408664537959971  0.2081571206248112  0.4005576184435060
  0.0398792246326607  0.3328120386296921  0.4003051911230788
  0.0400283568206745  0.4582231345907771  0.3994779533426774
  0.0411973827919173  0.5839247398971813  0.3988482180654171
  0.0422939846140531  0.7095068951346536  0.3988071478568709
  0.0427043055827028  0.8348073103166063  0.3991897840696125
  0.0427848046164544  0.9599654068255412  0.3997177321327375
  0.1685037735362813  0.0863206669479601  0.4010406293405249
  0.1675723199928468  0.2106111306896774  0.4020405812664247
  0.1645741496294808  0.3336318301460180  0.4024017964919684
  0.1632283570072159  0.4585047910841780  0.4018107986887848
  0.1645826827095591  0.5838479012056359  0.4004539322580680
  0.1663037776356082  0.7092554414025755  0.3994427975767773
  0.1672142870412162  0.8348107556042355  0.3991659120892334
  0.1678201928354855  0.9604735812044651  0.3998470307564139
  0.2929703879378602  0.0863141016393479  0.4009973858570557
  0.2946015292441859  0.2140621120889124  0.4028451713016406
  0.2924542263141198  0.3393089679235393  0.4041347294814249
  0.2859062787441201  0.4580874719181403  0.4043091260928439
  0.2874341575245898  0.5832468061330008  0.4030471148083485
  0.2903111390503008  0.7086331961955172  0.4010276383111916
  0.2916413996989346  0.8341732436583363  0.3996843123878978
  0.2923592662284224  0.9599750264179436  0.3996832041836069
  0.4173149020749341  0.0843165177125619  0.4002517956597583
  0.4181743430919809  0.2106282383898030  0.4020259619441377
  0.4219541359898846  0.3393165346021336  0.4039809354776106
  0.4142035860000035  0.7058974204492289  0.4030054679377817
  0.4159930682861434  0.8322009061674622  0.4008290729885646
  0.4167491767242502  0.9582973189996726  0.3996752652965852
  0.5416716231742442  0.0824188223952132  0.3996514499318412
  0.5424101384098884  0.2081696767110327  0.4006053604613137
  0.5441210938597549  0.3336119996555072  0.4023009928933345
  0.5472024859062585  0.4580611303655369  0.4039282358618801
  0.5380277963332177  0.7009635271034794  0.4041479519991438
  0.5403027233586705  0.8297502343422244  0.4020421729807657
  0.5410875956610219  0.9563709631562529  0.4002152028222311
  0.6660894685560337  0.0816321042092584  0.3995053508903146
  0.6667004450583003  0.2072113685202093  0.3994693658404521
  0.6679959200795772  0.3328195989752146  0.4003105677262705
  0.6702939059300256  0.4584881704169514  0.4016161591184902
  0.6708546915814710  0.5832561724876227  0.4028042261260572
  0.6667785372130307  0.7059181374062271  0.4029428485677120
  0.6645847012789973  0.8297721629193232  0.4019960330741286
  0.6655053780868864  0.9558590429877381  0.4005652195634279
  0.7906892653843951  0.0816119168837482  0.3994976551247026
  0.7910601595211834  0.2070206250310156  0.3989555890659083
  0.7918698078186805  0.3325747478011720  0.3989645109536297
  0.7931996125934774  0.4582153456389532  0.3994384879101424
  0.7942703124524498  0.5838279016100001  0.4003587914394305
  0.7933861713437149  0.7086322933081470  0.4010400510728864
  0.7913373458190837  0.8321904771308297  0.4008346503897006
  0.7904311380200381  0.9563555014066373  0.4001846321893963
  0.9159008392293582  0.0823973522453291  0.3996329255821870
  0.9156006051409445  0.2071951583333397  0.3994204801655890
  0.9157741353891901  0.3325829725565257  0.3989262163764852
  0.9166346951332742  0.4582541811739496  0.3985414477368689
  0.9177333555175120  0.5839266950486932  0.3988330053958782
  0.9180088885347745  0.7092395495601360  0.3994877161976098
  0.9176485822975645  0.8341557663992631  0.3997502009234724
  0.9167182400034390  0.9582769976238309  0.3996894571168050
  0.0847615124210105  0.0437387361778884  0.4003074826513724
  0.0838341116702520  0.1679086693395186  0.4009417632982646
  0.0817257022613346  0.2914740794809703  0.4010848552344402
  0.0807751335044164  0.4162627272813197  0.4004780111291724
  0.0818468684763696  0.5418881161096979  0.3994763526658537
  0.0832457774661114  0.6675326696770110  0.3989476044042869
  0.0840862220651046  0.7930774123983577  0.3989719774563193
  0.0845069455024717  0.9184683366759793  0.3995422740976458
  0.2097042943145572  0.0442462084967278  0.4006658625528045
  0.2106191296418429  0.1703851183734981  0.4020887478487113
  0.2083863473309385  0.2942289061189295  0.4029436590365676
  0.2042444182626958  0.4168534355092067  0.4029741603840511
  0.2047680848812393  0.5416081338437103  0.4018046084797881
  0.2071222853896287  0.6673045607044374  0.4002669824630281
  0.2084669783319468  0.7929050324537822  0.3993808092386897
  0.2091366075670439  0.9184779059155188  0.3995193451267733
  0.3341441737443409  0.0437445740907330  0.4002736363949717
  0.3348923511949043  0.1703741531145267  0.4020455288145103
  0.3371512359480518  0.2992101986170160  0.4039473109867824
  0.3278463677756818  0.5420086940191380  0.4044494244653497
  0.3309883317631619  0.6664847286324024  0.4024442145360319
  0.3327798364196217  0.7919625850443121  0.4004434224930490
  0.3335654048498573  0.9176968834992624  0.3995636150225928
  0.4585079013644592  0.0418218166429316  0.3997415540172456
  0.4592096643164070  0.1679235038567632  0.4009642004981507
  0.4609295555589640  0.2942346914740631  0.4028752570102843
  0.4531967117495105  0.6608448937925376  0.4043465800261107
  0.4570114254860225  0.7895048153263617  0.4019942588447833
  0.4579271652594892  0.9158064365695852  0.4001357199360254
  0.5828784285150664  0.0401346640265703  0.3996839528040950
  0.5835572665991174  0.1659416734842723  0.3998262995798245
  0.5848220315364240  0.2914723891734640  0.4010772200296956
  0.5876304593327651  0.4168322390024018  0.4027325051193256
  0.5892022755518234  0.5419847374607951  0.4041164469987912
  0.5827400294152171  0.6608882657286989  0.4042632043718710
  0.5806286695295340  0.7861296125980065  0.4028885743713914
  0.5822385026191345  0.9137943936830097  0.4009407790291113
  0.7073832832447464  0.0396248298159741  0.3997830127577595
  0.7079466830250398  0.1652866114829725  0.3991785287571761
  0.7088371850506223  0.2908554383878199  0.3995211827646123
  0.7104923997243117  0.4162632798914245  0.4003929451513427
  0.7118516914554117  0.5415990825490071  0.4015994060734801
  0.7105575682393954  0.6664950311996741  0.4023601334442541
  0.7076074245292368  0.7895148071113193  0.4019561863845046
  0.7067031046403844  0.9138119647742887  0.4008951593396286
  0.8324120147727294  0.0401179768485585  0.3996674699258516
  0.8324357166685308  0.1652794609653709  0.3991641382657461
  0.8328345910641324  0.2905884065220699  0.3987904850972763
  0.8338692765228374  0.4161781297610280  0.3988311130704791
  0.8350398227670566  0.5418777513747153  0.3994311635765327
  0.8352184918102262  0.6672817417533006  0.4002661650786462
  0.8342846552872089  0.7919430287046699  0.4005101160237453
  0.8330368960409092  0.9157983862842545  0.4001401954330485
  0.9584858390508599  0.0418072822410011  0.3997369473751322
  0.9574955221727881  0.1659245304239379  0.3997776434377130
  0.9570798336912334  0.2908403556096296  0.3994583962333358
  0.9573199379472767  0.4161851305997574  0.3988242968134708
  0.9584331729044853  0.5418578452876313  0.3985546665755719
  0.9593467587602462  0.6675313666208337  0.3989633186363170
  0.9595353192388533  0.7928853197802682  0.3994452051613665
  0.9592870315477460  0.9176794588668516  0.3995987719788637
  0.4077780478712599  0.5809693385397809  0.4051281126430777
  0.5482721812374264  0.5809829599864775  0.4049808117315121
  0.3268500715006150  0.4191476256315640  0.4047378379470019
  0.4673554072531110  0.4191252516311521  0.4043079533328438
  0.4375319610740183  0.4947754404526341  0.4841570497510423
 
  0.00000000E+00  0.00000000E+00  0.00000000E+00
  0.00000000E+00  0.00000000E+00  0.00000000E+00
  0.00000000E+00  0.00000000E+00  0.00000000E+00
  0.00000000E+00  0.00000000E+00  0.00000000E+00
  0.00000000E+00  0.00000000E+00  0.00000000E+00
  0.00000000E+00  0.00000000E+00  0.00000000E+00
  0.00000000E+00  0.00000000E+00  0.00000000E+00
  0.00000000E+00  0.00000000E+00  0.00000000E+00
  0.00000000E+00  0.00000000E+00  0.00000000E+00
  0.00000000E+00  0.00000000E+00  0.00000000E+00
  0.00000000E+00  0.00000000E+00  0.00000000E+00
  0.00000000E+00  0.00000000E+00  0.00000000E+00
  0.00000000E+00  0.00000000E+00  0.00000000E+00
  0.00000000E+00  0.00000000E+00  0.00000000E+00
  0.00000000E+00  0.00000000E+00  0.00000000E+00
  0.00000000E+00  0.00000000E+00  0.00000000E+00
  0.00000000E+00  0.00000000E+00  0.00000000E+00
  0.00000000E+00  0.00000000E+00  0.00000000E+00
  0.00000000E+00  0.00000000E+00  0.00000000E+00
  0.00000000E+00  0.00000000E+00  0.00000000E+00
  0.00000000E+00  0.00000000E+00  0.00000000E+00
  0.00000000E+00  0.00000000E+00  0.00000000E+00
  0.00000000E+00  0.00000000E+00  0.00000000E+00
  0.00000000E+00  0.00000000E+00  0.00000000E+00
  0.00000000E+00  0.00000000E+00  0.00000000E+00
  0.00000000E+00  0.00000000E+00  0.00000000E+00
  0.00000000E+00  0.00000000E+00  0.00000000E+00
  0.00000000E+00  0.00000000E+00  0.00000000E+00
  0.00000000E+00  0.00000000E+00  0.00000000E+00
  0.00000000E+00  0.00000000E+00  0.00000000E+00
  0.00000000E+00  0.00000000E+00  0.00000000E+00
  0.00000000E+00  0.00000000E+00  0.00000000E+00
  0.00000000E+00  0.00000000E+00  0.00000000E+00
  0.00000000E+00  0.00000000E+00  0.00000000E+00
  0.00000000E+00  0.00000000E+00  0.00000000E+00
  0.00000000E+00  0.00000000E+00  0.00000000E+00
  0.00000000E+00  0.00000000E+00  0.00000000E+00
  0.00000000E+00  0.00000000E+00  0.00000000E+00
  0.00000000E+00  0.00000000E+00  0.00000000E+00
  0.00000000E+00  0.00000000E+00  0.00000000E+00
  0.00000000E+00  0.00000000E+00  0.00000000E+00
  0.00000000E+00  0.00000000E+00  0.00000000E+00
  0.00000000E+00  0.00000000E+00  0.00000000E+00
  0.00000000E+00  0.00000000E+00  0.00000000E+00
  0.00000000E+00  0.00000000E+00  0.00000000E+00
  0.00000000E+00  0.00000000E+00  0.00000000E+00
  0.00000000E+00  0.00000000E+00  0.00000000E+00
  0.00000000E+00  0.00000000E+00  0.00000000E+00
  0.00000000E+00  0.00000000E+00  0.00000000E+00
  0.00000000E+00  0.00000000E+00  0.00000000E+00
  0.00000000E+00  0.00000000E+00  0.00000000E+00
  0.00000000E+00  0.00000000E+00  0.00000000E+00
  0.00000000E+00  0.00000000E+00  0.00000000E+00
  0.00000000E+00  0.00000000E+00  0.00000000E+00
  0.00000000E+00  0.00000000E+00  0.00000000E+00
  0.00000000E+00  0.00000000E+00  0.00000000E+00
  0.00000000E+00  0.00000000E+00  0.00000000E+00
  0.00000000E+00  0.00000000E+00  0.00000000E+00
  0.00000000E+00  0.00000000E+00  0.00000000E+00
  0.00000000E+00  0.00000000E+00  0.00000000E+00
  0.00000000E+00  0.00000000E+00  0.00000000E+00
  0.00000000E+00  0.00000000E+00  0.00000000E+00
  0.00000000E+00  0.00000000E+00  0.00000000E+00
  0.00000000E+00  0.00000000E+00  0.00000000E+00
  0.00000000E+00  0.00000000E+00  0.00000000E+00
  0.00000000E+00  0.00000000E+00  0.00000000E+00
  0.00000000E+00  0.00000000E+00  0.00000000E+00
  0.00000000E+00  0.00000000E+00  0.00000000E+00
  0.00000000E+00  0.00000000E+00  0.00000000E+00
  0.00000000E+00  0.00000000E+00  0.00000000E+00
  0.00000000E+00  0.00000000E+00  0.00000000E+00
  0.00000000E+00  0.00000000E+00  0.00000000E+00
  0.00000000E+00  0.00000000E+00  0.00000000E+00
  0.00000000E+00  0.00000000E+00  0.00000000E+00
  0.00000000E+00  0.00000000E+00  0.00000000E+00
  0.00000000E+00  0.00000000E+00  0.00000000E+00
  0.00000000E+00  0.00000000E+00  0.00000000E+00
  0.00000000E+00  0.00000000E+00  0.00000000E+00
  0.00000000E+00  0.00000000E+00  0.00000000E+00
  0.00000000E+00  0.00000000E+00  0.00000000E+00
  0.00000000E+00  0.00000000E+00  0.00000000E+00
  0.00000000E+00  0.00000000E+00  0.00000000E+00
  0.00000000E+00  0.00000000E+00  0.00000000E+00
  0.00000000E+00  0.00000000E+00  0.00000000E+00
  0.00000000E+00  0.00000000E+00  0.00000000E+00
  0.00000000E+00  0.00000000E+00  0.00000000E+00
  0.00000000E+00  0.00000000E+00  0.00000000E+00
  0.00000000E+00  0.00000000E+00  0.00000000E+00
  0.00000000E+00  0.00000000E+00  0.00000000E+00
  0.00000000E+00  0.00000000E+00  0.00000000E+00
  0.00000000E+00  0.00000000E+00  0.00000000E+00
  0.00000000E+00  0.00000000E+00  0.00000000E+00
  0.00000000E+00  0.00000000E+00  0.00000000E+00
  0.00000000E+00  0.00000000E+00  0.00000000E+00
  0.00000000E+00  0.00000000E+00  0.00000000E+00
  0.00000000E+00  0.00000000E+00  0.00000000E+00
  0.00000000E+00  0.00000000E+00  0.00000000E+00
  0.00000000E+00  0.00000000E+00  0.00000000E+00
  0.00000000E+00  0.00000000E+00  0.00000000E+00
  0.00000000E+00  0.00000000E+00  0.00000000E+00
  0.00000000E+00  0.00000000E+00  0.00000000E+00
  0.00000000E+00  0.00000000E+00  0.00000000E+00
  0.00000000E+00  0.00000000E+00  0.00000000E+00
  0.00000000E+00  0.00000000E+00  0.00000000E+00
  0.00000000E+00  0.00000000E+00  0.00000000E+00
  0.00000000E+00  0.00000000E+00  0.00000000E+00
  0.00000000E+00  0.00000000E+00  0.00000000E+00
  0.00000000E+00  0.00000000E+00  0.00000000E+00
  0.00000000E+00  0.00000000E+00  0.00000000E+00
  0.00000000E+00  0.00000000E+00  0.00000000E+00
  0.00000000E+00  0.00000000E+00  0.00000000E+00
  0.00000000E+00  0.00000000E+00  0.00000000E+00
  0.00000000E+00  0.00000000E+00  0.00000000E+00
  0.00000000E+00  0.00000000E+00  0.00000000E+00
  0.00000000E+00  0.00000000E+00  0.00000000E+00
  0.00000000E+00  0.00000000E+00  0.00000000E+00
  0.00000000E+00  0.00000000E+00  0.00000000E+00
  0.00000000E+00  0.00000000E+00  0.00000000E+00
  0.00000000E+00  0.00000000E+00  0.00000000E+00
  0.00000000E+00  0.00000000E+00  0.00000000E+00
  0.00000000E+00  0.00000000E+00  0.00000000E+00
  0.00000000E+00  0.00000000E+00  0.00000000E+00
  0.00000000E+00  0.00000000E+00  0.00000000E+00
  0.00000000E+00  0.00000000E+00  0.00000000E+00
  0.00000000E+00  0.00000000E+00  0.00000000E+00
  0.00000000E+00  0.00000000E+00  0.00000000E+00
  0.00000000E+00  0.00000000E+00  0.00000000E+00
  0.00000000E+00  0.00000000E+00  0.00000000E+00
  0.00000000E+00  0.00000000E+00  0.00000000E+00
