H1 Rh1 C126 O1                          
   1.00000000000000     
    19.7862373385177293    0.0015873775930500   -0.0039779661284868
    -9.8931985819809967   17.0455920466109134    0.4879449578359548
    -0.0063152604853549    0.8481223459919822   29.8578414121784519
   H    Rh   C    O 
     1     1   126     1
Direct
  0.5067801883541750  0.5975075914543161  0.4908169178580024
  0.4362287380646875  0.4966526358830603  0.4329297349415677
  0.0417944429448452  0.0835769446462887  0.3992080069436466
  0.0410513828243275  0.2078139353033792  0.3990046211362490
  0.0406405490066122  0.3324984861535575  0.3989009321127985
  0.0406455639600093  0.4578275122207009  0.3989481243575177
  0.0411967958075792  0.5831575210192546  0.3991621708507485
  0.0417934235505013  0.7085010613887892  0.3993762139950847
  0.0420434254128560  0.8337689125053792  0.3996079225236026
  0.0420329935289080  0.9588205615658044  0.3995056035599935
  0.1672502854397948  0.0844705384564878  0.3995292491849496
  0.1672933706126198  0.2094865471515295  0.3995039211139954
  0.1657338788064194  0.3330373066285948  0.3991481495461893
  0.1647520224443716  0.4578922332271280  0.3987357874408170
  0.1653459978624880  0.5831346078199070  0.3987345948799706
  0.1662949927875960  0.7084381351696007  0.3993225571359140
  0.1667265168141747  0.8337308539862974  0.3996798073241865
  0.1670699511571793  0.9591288687976370  0.3996762089971098
  0.2921535289655562  0.0844412362720497  0.3996803273286560
  0.2926975245118478  0.2104659009755377  0.4006808223969158
  0.2933962647941424  0.3365460417258182  0.4020738628289457
  0.2884820864012339  0.4574222213833780  0.4012182998304201
  0.2890543807764366  0.5831598604415905  0.3998181757712903
  0.2907209520110092  0.7080898853961276  0.3996291066245763
  0.2913807836316708  0.8333080849245729  0.3996556419856735
  0.2917785285713969  0.9587859469661734  0.3996004143627175
  0.4167378337169760  0.0835486305496820  0.3993620587954556
  0.4171024210377945  0.2094356112760535  0.3999986775529172
  0.4178960126793809  0.3362504500369235  0.4030327949530631
  0.4097183367071399  0.5786089726979223  0.4081211962402070
  0.4149271713189274  0.7054609601417112  0.4022174302557857
  0.4159287228095089  0.8318811791360859  0.4002323694594440
  0.4163779596885385  0.9577615767893187  0.3995733852405611
  0.5412917268562377  0.0823128465607689  0.3993731561092138
  0.5416809193758085  0.2077902769318248  0.3992180256826424
  0.5422507302164856  0.3329758969514416  0.3999664615733464
  0.5440567875939972  0.4574639910577973  0.4023799602269115
  0.5443158799071546  0.5788494146931907  0.4087753473020351
  0.5394756398625374  0.7039215059203350  0.4062886393159845
  0.5402492972918771  0.8304486662494676  0.4020621628833986
  0.5408915611996871  0.9565549474120942  0.4000672707259011
  0.6658850144183377  0.0816895705183037  0.3997527445831873
  0.6662788939099362  0.2071844507866254  0.3993659480542244
  0.6668170432721261  0.3325133755173862  0.3990156152394656
  0.6681467258899618  0.4579025943720855  0.3991006730741707
  0.6692671524865822  0.5831982781164465  0.4001236540322038
  0.6657408862739708  0.7055387030626428  0.4026455719992914
  0.6652387156750749  0.8304839574221630  0.4022949524305406
  0.6655398414554862  0.9561159456476493  0.4006964225240608
  0.7907576983855567  0.0817007880938149  0.3998712756811673
  0.7909413142039599  0.2069480433883843  0.3997016067461658
  0.7914071096297519  0.3323759742802121  0.3993663658096167
  0.7922055039696282  0.4578486892368814  0.3988901150806485
  0.7928968419178236  0.5831720152720287  0.3987579415903997
  0.7924968615667249  0.7081471362411591  0.3997475452829367
  0.7910297954320339  0.8319327718028160  0.4004236578256622
  0.7906728206455932  0.9565978729434657  0.4002211713200413
  0.9159868631612006  0.0823246563182049  0.3994346863033200
  0.9158427830951479  0.2071803126770036  0.3994890134597487
  0.9159397425947585  0.3323663357571482  0.3994962419615171
  0.9163733559612225  0.4577121449681940  0.3992534483469173
  0.9170614446389423  0.5831976656748623  0.3990742280684277
  0.9172371382629040  0.7084825131529822  0.3992233603601003
  0.9170011858737181  0.8333758991456465  0.3996139888616641
  0.9164277793268170  0.9578071616383949  0.3995928505058895
  0.0837962754558979  0.0423537658160859  0.3993706281640295
  0.0835951051607725  0.1671042237014069  0.3991147212772589
  0.0823871560442706  0.2910579362434598  0.3987987710163455
  0.0820010970564107  0.4161228762672977  0.3987116299709990
  0.0823505202043758  0.5413218353801607  0.3989054396358523
  0.0831285361669058  0.6667262890568005  0.3992797920832418
  0.0835622450406681  0.7920801452315768  0.3995913286177675
  0.0837317606945567  0.9172770258184167  0.3996378917879327
  0.2088176857519045  0.0426622496733537  0.3996465388682109
  0.2090585013526256  0.1680628260870010  0.3998136747921714
  0.2090989556291189  0.2932123714723908  0.3999880439083203
  0.2059682834611037  0.4159854184169897  0.3993007455469555
  0.2062915196623151  0.5413606726124489  0.3987198951232355
  0.2076312470095606  0.6666913429058625  0.3991205852115433
  0.2081680175115658  0.7918820603091410  0.3995924105865844
  0.2085509470442603  0.9172458901089621  0.3996979764882325
  0.3335077021319452  0.0423176564901658  0.3995155378599223
  0.3339247615281510  0.1680291251158859  0.4001131252528798
  0.3343500876614068  0.2937766140419047  0.4023639110160897
  0.3325819042974139  0.4195574929367009  0.4039861914278502
  0.3295079149989357  0.5410255372102406  0.4022080462635853
  0.3319590902686901  0.6659819257348417  0.4004688869302876
  0.3327268401029606  0.7912870128573175  0.3998160375232981
  0.3332056661468799  0.9167378987944341  0.3996130816478680
  0.4581060552531685  0.0412750601398858  0.3993723344126984
  0.4584596482530953  0.1670856684673756  0.3993914574413392
  0.4590384058121607  0.2931071296372797  0.4008583495426596
  0.4620503583594531  0.4190960031122428  0.4058086221623164
  0.4556071387764218  0.6615375811795734  0.4056260368575262
  0.4571259184003292  0.7892629679260850  0.4014476604778794
  0.4577020047029707  0.9154234521826815  0.3999216284869705
  0.5826627588090910  0.0401585095048699  0.3996605717028011
  0.5830571948589929  0.1657743604238784  0.3992586804147208
  0.5836187870802737  0.2910423456988784  0.3992026730132996
  0.5850216971516490  0.4159618072339046  0.4001080605842614
  0.5867342457521396  0.5410607606955685  0.4029768639261928
  0.5811756789740000  0.6616419268828529  0.4061265372583740
  0.5813613505463268  0.7877067414026532  0.4036571821764225
  0.5821359629501403  0.9142421419889286  0.4008710853701644
  0.7073582273610165  0.0397623538432109  0.4000620730442982
  0.7076988743607520  0.1652530903019720  0.3996101776362038
  0.7081760152938925  0.2906886103460746  0.3992233160725295
  0.7091309798489902  0.4161241949136777  0.3988468924086361
  0.7101814027010726  0.5413755435478610  0.3989228622544366
  0.7091869076485794  0.6660351748846253  0.4007600425353721
  0.7072474436121463  0.7893232291553972  0.4017988087541426
  0.7071207965897673  0.9142781910846742  0.4010235679565871
  0.8324848580525595  0.0401862778550623  0.3997974836669129
  0.8324957995351916  0.1652532225879496  0.3997255128442599
  0.8327755890621457  0.2905852474230228  0.3995992341649996
  0.8333441474803565  0.4159384746095883  0.3991838675130594
  0.8340668398458057  0.5413494536978617  0.3988451504596652
  0.8341678793502736  0.6667301187106541  0.3991066013321403
  0.8336531028175275  0.7913428143979669  0.3999028890783353
  0.8327799850603380  0.9154890216842557  0.4000361458652638
  0.9581875532685692  0.0413223460087722  0.3993515503019363
  0.9576670316494117  0.1657793361740126  0.3992784840149525
  0.9574717331724503  0.2906793904914952  0.3993518723938523
  0.9576092375782788  0.4159348385659207  0.3992965723800118
  0.9582264179588278  0.5413761546220762  0.3991748728531181
  0.9587021690641344  0.6667585657170165  0.3991957580209465
  0.9587753191178221  0.7919349722312122  0.3994950288592386
  0.9586006736097440  0.9168079447850025  0.3995706313816349
  0.4671539085456610  0.5420485696990091  0.4898477788896040
 
  0.00000000E+00  0.00000000E+00  0.00000000E+00
  0.00000000E+00  0.00000000E+00  0.00000000E+00
  0.00000000E+00  0.00000000E+00  0.00000000E+00
  0.00000000E+00  0.00000000E+00  0.00000000E+00
  0.00000000E+00  0.00000000E+00  0.00000000E+00
  0.00000000E+00  0.00000000E+00  0.00000000E+00
  0.00000000E+00  0.00000000E+00  0.00000000E+00
  0.00000000E+00  0.00000000E+00  0.00000000E+00
  0.00000000E+00  0.00000000E+00  0.00000000E+00
  0.00000000E+00  0.00000000E+00  0.00000000E+00
  0.00000000E+00  0.00000000E+00  0.00000000E+00
  0.00000000E+00  0.00000000E+00  0.00000000E+00
  0.00000000E+00  0.00000000E+00  0.00000000E+00
  0.00000000E+00  0.00000000E+00  0.00000000E+00
  0.00000000E+00  0.00000000E+00  0.00000000E+00
  0.00000000E+00  0.00000000E+00  0.00000000E+00
  0.00000000E+00  0.00000000E+00  0.00000000E+00
  0.00000000E+00  0.00000000E+00  0.00000000E+00
  0.00000000E+00  0.00000000E+00  0.00000000E+00
  0.00000000E+00  0.00000000E+00  0.00000000E+00
  0.00000000E+00  0.00000000E+00  0.00000000E+00
  0.00000000E+00  0.00000000E+00  0.00000000E+00
  0.00000000E+00  0.00000000E+00  0.00000000E+00
  0.00000000E+00  0.00000000E+00  0.00000000E+00
  0.00000000E+00  0.00000000E+00  0.00000000E+00
  0.00000000E+00  0.00000000E+00  0.00000000E+00
  0.00000000E+00  0.00000000E+00  0.00000000E+00
  0.00000000E+00  0.00000000E+00  0.00000000E+00
  0.00000000E+00  0.00000000E+00  0.00000000E+00
  0.00000000E+00  0.00000000E+00  0.00000000E+00
  0.00000000E+00  0.00000000E+00  0.00000000E+00
  0.00000000E+00  0.00000000E+00  0.00000000E+00
  0.00000000E+00  0.00000000E+00  0.00000000E+00
  0.00000000E+00  0.00000000E+00  0.00000000E+00
  0.00000000E+00  0.00000000E+00  0.00000000E+00
  0.00000000E+00  0.00000000E+00  0.00000000E+00
  0.00000000E+00  0.00000000E+00  0.00000000E+00
  0.00000000E+00  0.00000000E+00  0.00000000E+00
  0.00000000E+00  0.00000000E+00  0.00000000E+00
  0.00000000E+00  0.00000000E+00  0.00000000E+00
  0.00000000E+00  0.00000000E+00  0.00000000E+00
  0.00000000E+00  0.00000000E+00  0.00000000E+00
  0.00000000E+00  0.00000000E+00  0.00000000E+00
  0.00000000E+00  0.00000000E+00  0.00000000E+00
  0.00000000E+00  0.00000000E+00  0.00000000E+00
  0.00000000E+00  0.00000000E+00  0.00000000E+00
  0.00000000E+00  0.00000000E+00  0.00000000E+00
  0.00000000E+00  0.00000000E+00  0.00000000E+00
  0.00000000E+00  0.00000000E+00  0.00000000E+00
  0.00000000E+00  0.00000000E+00  0.00000000E+00
  0.00000000E+00  0.00000000E+00  0.00000000E+00
  0.00000000E+00  0.00000000E+00  0.00000000E+00
  0.00000000E+00  0.00000000E+00  0.00000000E+00
  0.00000000E+00  0.00000000E+00  0.00000000E+00
  0.00000000E+00  0.00000000E+00  0.00000000E+00
  0.00000000E+00  0.00000000E+00  0.00000000E+00
  0.00000000E+00  0.00000000E+00  0.00000000E+00
  0.00000000E+00  0.00000000E+00  0.00000000E+00
  0.00000000E+00  0.00000000E+00  0.00000000E+00
  0.00000000E+00  0.00000000E+00  0.00000000E+00
  0.00000000E+00  0.00000000E+00  0.00000000E+00
  0.00000000E+00  0.00000000E+00  0.00000000E+00
  0.00000000E+00  0.00000000E+00  0.00000000E+00
  0.00000000E+00  0.00000000E+00  0.00000000E+00
  0.00000000E+00  0.00000000E+00  0.00000000E+00
  0.00000000E+00  0.00000000E+00  0.00000000E+00
  0.00000000E+00  0.00000000E+00  0.00000000E+00
  0.00000000E+00  0.00000000E+00  0.00000000E+00
  0.00000000E+00  0.00000000E+00  0.00000000E+00
  0.00000000E+00  0.00000000E+00  0.00000000E+00
  0.00000000E+00  0.00000000E+00  0.00000000E+00
  0.00000000E+00  0.00000000E+00  0.00000000E+00
  0.00000000E+00  0.00000000E+00  0.00000000E+00
  0.00000000E+00  0.00000000E+00  0.00000000E+00
  0.00000000E+00  0.00000000E+00  0.00000000E+00
  0.00000000E+00  0.00000000E+00  0.00000000E+00
  0.00000000E+00  0.00000000E+00  0.00000000E+00
  0.00000000E+00  0.00000000E+00  0.00000000E+00
  0.00000000E+00  0.00000000E+00  0.00000000E+00
  0.00000000E+00  0.00000000E+00  0.00000000E+00
  0.00000000E+00  0.00000000E+00  0.00000000E+00
  0.00000000E+00  0.00000000E+00  0.00000000E+00
  0.00000000E+00  0.00000000E+00  0.00000000E+00
  0.00000000E+00  0.00000000E+00  0.00000000E+00
  0.00000000E+00  0.00000000E+00  0.00000000E+00
  0.00000000E+00  0.00000000E+00  0.00000000E+00
  0.00000000E+00  0.00000000E+00  0.00000000E+00
  0.00000000E+00  0.00000000E+00  0.00000000E+00
  0.00000000E+00  0.00000000E+00  0.00000000E+00
  0.00000000E+00  0.00000000E+00  0.00000000E+00
  0.00000000E+00  0.00000000E+00  0.00000000E+00
  0.00000000E+00  0.00000000E+00  0.00000000E+00
  0.00000000E+00  0.00000000E+00  0.00000000E+00
  0.00000000E+00  0.00000000E+00  0.00000000E+00
  0.00000000E+00  0.00000000E+00  0.00000000E+00
  0.00000000E+00  0.00000000E+00  0.00000000E+00
  0.00000000E+00  0.00000000E+00  0.00000000E+00
  0.00000000E+00  0.00000000E+00  0.00000000E+00
  0.00000000E+00  0.00000000E+00  0.00000000E+00
  0.00000000E+00  0.00000000E+00  0.00000000E+00
  0.00000000E+00  0.00000000E+00  0.00000000E+00
  0.00000000E+00  0.00000000E+00  0.00000000E+00
  0.00000000E+00  0.00000000E+00  0.00000000E+00
  0.00000000E+00  0.00000000E+00  0.00000000E+00
  0.00000000E+00  0.00000000E+00  0.00000000E+00
  0.00000000E+00  0.00000000E+00  0.00000000E+00
  0.00000000E+00  0.00000000E+00  0.00000000E+00
  0.00000000E+00  0.00000000E+00  0.00000000E+00
  0.00000000E+00  0.00000000E+00  0.00000000E+00
  0.00000000E+00  0.00000000E+00  0.00000000E+00
  0.00000000E+00  0.00000000E+00  0.00000000E+00
  0.00000000E+00  0.00000000E+00  0.00000000E+00
  0.00000000E+00  0.00000000E+00  0.00000000E+00
  0.00000000E+00  0.00000000E+00  0.00000000E+00
  0.00000000E+00  0.00000000E+00  0.00000000E+00
  0.00000000E+00  0.00000000E+00  0.00000000E+00
  0.00000000E+00  0.00000000E+00  0.00000000E+00
  0.00000000E+00  0.00000000E+00  0.00000000E+00
  0.00000000E+00  0.00000000E+00  0.00000000E+00
  0.00000000E+00  0.00000000E+00  0.00000000E+00
  0.00000000E+00  0.00000000E+00  0.00000000E+00
  0.00000000E+00  0.00000000E+00  0.00000000E+00
  0.00000000E+00  0.00000000E+00  0.00000000E+00
  0.00000000E+00  0.00000000E+00  0.00000000E+00
  0.00000000E+00  0.00000000E+00  0.00000000E+00
  0.00000000E+00  0.00000000E+00  0.00000000E+00
  0.00000000E+00  0.00000000E+00  0.00000000E+00
  0.00000000E+00  0.00000000E+00  0.00000000E+00
  0.00000000E+00  0.00000000E+00  0.00000000E+00
