Co1 C125 N1 O1                          
   1.00000000000000     
    19.7813568853149135   -0.0137989573602545    0.0732252620888303
    -9.9021866573292900   17.0470856322709317   -0.1344819327698981
     0.1099193137831503   -0.1712118929397797   29.8532832246192079
   Co   C    N    O 
     1   125     1     1
Direct
  0.4374147387876279  0.5002907217537540  0.4243771367370122
  0.0420482465979897  0.0842168327292101  0.3996556531942564
  0.0417067088963508  0.2086923566020117  0.3993361742800768
  0.0413363261627532  0.3333168378611356  0.3990078060233309
  0.0412413126639405  0.4584868120590382  0.3991795635547910
  0.0414920886227776  0.5837353800253702  0.3994336060990818
  0.0417220218736015  0.7088994697873440  0.3994560188885577
  0.0418787213418370  0.8341162393695598  0.3995117997946760
  0.0419867112538905  0.9592706069606920  0.3996713327692100
  0.1675024048817241  0.0851899783562792  0.4003784477852286
  0.1678969413768986  0.2105154346415662  0.4004766946856455
  0.1668614517271006  0.3344929738190086  0.3995154650899538
  0.1656377747978464  0.4587807104183504  0.3987451572870469
  0.1658382401478559  0.5837480145159755  0.3993563226939930
  0.1663800602765104  0.7090084879551500  0.3998263255498096
  0.1668076864200099  0.8342804941516693  0.3998295294633135
  0.1671132523380347  0.9596675678393956  0.3999792834210442
  0.2924176043689674  0.0851647103769174  0.4007158335322532
  0.2932351642907356  0.2115590052681071  0.4024744408567842
  0.2944049903041435  0.3381927455633852  0.4030321659246303
  0.2907645474860444  0.4600521703020499  0.3996915263072540
  0.2899932882811089  0.5843181986507285  0.3992812306007426
  0.2908769914106684  0.7090236358039927  0.3998370049377447
  0.2915742332639360  0.8340778349684463  0.4000265083018332
  0.2918966787538669  0.9594039924650536  0.3999639578357424
  0.4169714619161279  0.0841546535867050  0.3999258555224319
  0.4175105105416844  0.2101681760790664  0.4014402692505173
  0.4189699546016310  0.3377405736239171  0.4048818655462902
  0.4149621473676094  0.7066692080306015  0.4005519490306030
  0.4161862592375568  0.8328062538988197  0.4001552036136275
  0.4166364721161410  0.9585001347921874  0.3998019141091411
  0.5416169853535592  0.0829305553053923  0.3996353219180580
  0.5420236777228450  0.2082300766994168  0.3999237452120457
  0.5426903090999681  0.3333426069442144  0.4010235572250609
  0.5446603126650416  0.4579260075724718  0.4033618438265065
  0.5427339938127780  0.5789084212347524  0.4062886095597145
  0.5382316695350583  0.7037278412274268  0.4024773581980040
  0.5404326916257729  0.8313087667237402  0.4008340430140398
  0.5412439153950078  0.9573751685549441  0.4001180640251467
  0.6663441263389299  0.0824680876728647  0.3999055275451889
  0.6667244997595927  0.2077769412467456  0.3995000334537893
  0.6671748577268007  0.3328860827274504  0.3994657742107773
  0.6683259144916595  0.4580930285181244  0.3993704207019758
  0.6687698427870833  0.5833167103493101  0.4000421212298481
  0.6647648689388573  0.7056585732134429  0.4010250197658205
  0.6646962820367989  0.8308255295750578  0.4010439403952811
  0.6657829084852428  0.9568981216547980  0.4005567912614320
  0.7911560287672790  0.0824831405865660  0.4000384048653338
  0.7914810889271340  0.2077198325327447  0.3995114793796897
  0.7918551508284127  0.3329861637242102  0.3992726581638320
  0.7924136572436518  0.4582407112155855  0.3990080655299465
  0.7926804529011275  0.5833812744198734  0.3988013177698363
  0.7919356615383073  0.7083904844131654  0.3991880216979422
  0.7905701776209179  0.8322185942070832  0.3997792456768874
  0.7906134919419877  0.9571157590767918  0.4002694967388080
  0.9163070770826991  0.0830113274424593  0.3996948830835502
  0.9163914006958069  0.2079776167794637  0.3994530186169691
  0.9165113954746773  0.3331123023056782  0.3993181247676778
  0.9167724891088167  0.4583215546515449  0.3992321928410200
  0.9170690710949876  0.5835870472810629  0.3991496760369467
  0.9169444683312357  0.7087516682210906  0.3990971912591733
  0.9167318276079279  0.8336667222319200  0.3993543306361988
  0.9163113840342466  0.9582356292926778  0.3996786341860119
  0.0839453223141781  0.0429017066388814  0.3998372457395100
  0.0840623304218055  0.1678664430185445  0.3996683380675108
  0.0832694844436157  0.2921134299449354  0.3991700780099658
  0.0826697356724064  0.4168374491856651  0.3988939452967741
  0.0827886797261325  0.5419596323052570  0.3993228630391390
  0.0831660624015147  0.6672317692831622  0.3996055431752009
  0.0834938138081936  0.7924990900159415  0.3995606391056366
  0.0836574264843692  0.9177067630255471  0.3997183535705468
  0.2089690775819996  0.0432846901895702  0.4003795434917775
  0.2094833203353228  0.1689890608109836  0.4011146783598292
  0.2099229370720264  0.2944885959623755  0.4007588938302741
  0.2074642715529547  0.4176738119934689  0.3988972535902853
  0.2069439498714721  0.5420604946541900  0.3990638080108562
  0.2077180076049370  0.6672985237585317  0.3996925075978848
  0.2082988469814074  0.7925091041030580  0.3999561720441852
  0.2086151499465850  0.9178081844208160  0.3999629171547922
  0.3336987966907163  0.0429575995621950  0.4001265925273549
  0.3343188366302711  0.1688477664448685  0.4017189761743452
  0.3351526348548052  0.2952440864018464  0.4042834099769640
  0.3337223944235712  0.4215241517206353  0.4035508752092112
  0.3319346700294743  0.5439385774382597  0.3994635308218472
  0.3320547849381120  0.6672174168176814  0.3998356779129320
  0.3329744075854154  0.7922154034909143  0.4000516390437084
  0.3333834610785952  0.9174711025744798  0.3999192871029458
  0.4584003221472592  0.0419716401452627  0.3996693706670915
  0.4587550287725354  0.1676675824553020  0.4002735150179109
  0.4596733268841365  0.2939304191964595  0.4023210875050119
  0.4634270142783691  0.4205144308804776  0.4069251486495504
  0.4543167827470449  0.6621093398444802  0.4015699755176652
  0.4573936895037088  0.7903880955394107  0.4005058160927473
  0.4579929469055986  0.9163014956756328  0.4000039759055995
  0.5830657282799189  0.0409482787835857  0.3998628663800046
  0.5834662057928245  0.1663484941493297  0.3995991046227382
  0.5840089695134839  0.2914151526460385  0.4000551425767884
  0.5853629009719056  0.4161723679049057  0.4007224017982449
  0.5864229206322025  0.5413246786543834  0.4028730189167921
  0.5798283602522696  0.6615161708511813  0.4032448772491330
  0.5807508828085549  0.7880307668436910  0.4014982997784737
  0.5824728017858802  0.9151089396831360  0.4005229259386509
  0.7077518380679745  0.0405546752687294  0.4002155384800358
  0.7082273195337631  0.1660212249835507  0.3995833981762719
  0.7085825397289025  0.2912160304158953  0.3993723911087629
  0.7093829105963210  0.4164171220445848  0.3991430594161040
  0.7099552396783327  0.5415148998927709  0.3991069814272286
  0.7085640576653544  0.6662943760967023  0.3999614619224258
  0.7065945577183519  0.7895099427699104  0.4004840309610029
  0.7069368673752675  0.9147388559903509  0.4006714569592815
  0.8327035840183973  0.0408244676049467  0.4000432456303886
  0.8330176999625180  0.1660718894083559  0.3996620678121229
  0.8332995616883947  0.2913019444549317  0.3993516313899507
  0.8337165256267302  0.4165183755413357  0.3991657473440754
  0.8340511607321669  0.5417405530926825  0.3989193632141085
  0.8337847024261816  0.6669702826792623  0.3989155757306126
  0.8332535635197192  0.7916499938394702  0.3993319973082827
  0.8325563908559517  0.9158675224637045  0.3999134405404626
  0.9583199521927103  0.0418664503782316  0.3996369713456315
  0.9581948576209944  0.1665827181674666  0.3994289058473878
  0.9580924926636616  0.2914772052534655  0.3992578324398387
  0.9581219717088154  0.4166208278517960  0.3992803684573774
  0.9584515834466945  0.5419219058418532  0.3992714091797352
  0.9585575920159553  0.6671189768349864  0.3992201827658592
  0.9585392324106063  0.7922505530609411  0.3993236942387502
  0.9584348887475677  0.9171515083220059  0.3995417426084192
  0.4115272762847585  0.5811148685862823  0.4010689088521868
  0.4428196789072473  0.4846785622830681  0.4767903458946545
 
  0.00000000E+00  0.00000000E+00  0.00000000E+00
  0.00000000E+00  0.00000000E+00  0.00000000E+00
  0.00000000E+00  0.00000000E+00  0.00000000E+00
  0.00000000E+00  0.00000000E+00  0.00000000E+00
  0.00000000E+00  0.00000000E+00  0.00000000E+00
  0.00000000E+00  0.00000000E+00  0.00000000E+00
  0.00000000E+00  0.00000000E+00  0.00000000E+00
  0.00000000E+00  0.00000000E+00  0.00000000E+00
  0.00000000E+00  0.00000000E+00  0.00000000E+00
  0.00000000E+00  0.00000000E+00  0.00000000E+00
  0.00000000E+00  0.00000000E+00  0.00000000E+00
  0.00000000E+00  0.00000000E+00  0.00000000E+00
  0.00000000E+00  0.00000000E+00  0.00000000E+00
  0.00000000E+00  0.00000000E+00  0.00000000E+00
  0.00000000E+00  0.00000000E+00  0.00000000E+00
  0.00000000E+00  0.00000000E+00  0.00000000E+00
  0.00000000E+00  0.00000000E+00  0.00000000E+00
  0.00000000E+00  0.00000000E+00  0.00000000E+00
  0.00000000E+00  0.00000000E+00  0.00000000E+00
  0.00000000E+00  0.00000000E+00  0.00000000E+00
  0.00000000E+00  0.00000000E+00  0.00000000E+00
  0.00000000E+00  0.00000000E+00  0.00000000E+00
  0.00000000E+00  0.00000000E+00  0.00000000E+00
  0.00000000E+00  0.00000000E+00  0.00000000E+00
  0.00000000E+00  0.00000000E+00  0.00000000E+00
  0.00000000E+00  0.00000000E+00  0.00000000E+00
  0.00000000E+00  0.00000000E+00  0.00000000E+00
  0.00000000E+00  0.00000000E+00  0.00000000E+00
  0.00000000E+00  0.00000000E+00  0.00000000E+00
  0.00000000E+00  0.00000000E+00  0.00000000E+00
  0.00000000E+00  0.00000000E+00  0.00000000E+00
  0.00000000E+00  0.00000000E+00  0.00000000E+00
  0.00000000E+00  0.00000000E+00  0.00000000E+00
  0.00000000E+00  0.00000000E+00  0.00000000E+00
  0.00000000E+00  0.00000000E+00  0.00000000E+00
  0.00000000E+00  0.00000000E+00  0.00000000E+00
  0.00000000E+00  0.00000000E+00  0.00000000E+00
  0.00000000E+00  0.00000000E+00  0.00000000E+00
  0.00000000E+00  0.00000000E+00  0.00000000E+00
  0.00000000E+00  0.00000000E+00  0.00000000E+00
  0.00000000E+00  0.00000000E+00  0.00000000E+00
  0.00000000E+00  0.00000000E+00  0.00000000E+00
  0.00000000E+00  0.00000000E+00  0.00000000E+00
  0.00000000E+00  0.00000000E+00  0.00000000E+00
  0.00000000E+00  0.00000000E+00  0.00000000E+00
  0.00000000E+00  0.00000000E+00  0.00000000E+00
  0.00000000E+00  0.00000000E+00  0.00000000E+00
  0.00000000E+00  0.00000000E+00  0.00000000E+00
  0.00000000E+00  0.00000000E+00  0.00000000E+00
  0.00000000E+00  0.00000000E+00  0.00000000E+00
  0.00000000E+00  0.00000000E+00  0.00000000E+00
  0.00000000E+00  0.00000000E+00  0.00000000E+00
  0.00000000E+00  0.00000000E+00  0.00000000E+00
  0.00000000E+00  0.00000000E+00  0.00000000E+00
  0.00000000E+00  0.00000000E+00  0.00000000E+00
  0.00000000E+00  0.00000000E+00  0.00000000E+00
  0.00000000E+00  0.00000000E+00  0.00000000E+00
  0.00000000E+00  0.00000000E+00  0.00000000E+00
  0.00000000E+00  0.00000000E+00  0.00000000E+00
  0.00000000E+00  0.00000000E+00  0.00000000E+00
  0.00000000E+00  0.00000000E+00  0.00000000E+00
  0.00000000E+00  0.00000000E+00  0.00000000E+00
  0.00000000E+00  0.00000000E+00  0.00000000E+00
  0.00000000E+00  0.00000000E+00  0.00000000E+00
  0.00000000E+00  0.00000000E+00  0.00000000E+00
  0.00000000E+00  0.00000000E+00  0.00000000E+00
  0.00000000E+00  0.00000000E+00  0.00000000E+00
  0.00000000E+00  0.00000000E+00  0.00000000E+00
  0.00000000E+00  0.00000000E+00  0.00000000E+00
  0.00000000E+00  0.00000000E+00  0.00000000E+00
  0.00000000E+00  0.00000000E+00  0.00000000E+00
  0.00000000E+00  0.00000000E+00  0.00000000E+00
  0.00000000E+00  0.00000000E+00  0.00000000E+00
  0.00000000E+00  0.00000000E+00  0.00000000E+00
  0.00000000E+00  0.00000000E+00  0.00000000E+00
  0.00000000E+00  0.00000000E+00  0.00000000E+00
  0.00000000E+00  0.00000000E+00  0.00000000E+00
  0.00000000E+00  0.00000000E+00  0.00000000E+00
  0.00000000E+00  0.00000000E+00  0.00000000E+00
  0.00000000E+00  0.00000000E+00  0.00000000E+00
  0.00000000E+00  0.00000000E+00  0.00000000E+00
  0.00000000E+00  0.00000000E+00  0.00000000E+00
  0.00000000E+00  0.00000000E+00  0.00000000E+00
  0.00000000E+00  0.00000000E+00  0.00000000E+00
  0.00000000E+00  0.00000000E+00  0.00000000E+00
  0.00000000E+00  0.00000000E+00  0.00000000E+00
  0.00000000E+00  0.00000000E+00  0.00000000E+00
  0.00000000E+00  0.00000000E+00  0.00000000E+00
  0.00000000E+00  0.00000000E+00  0.00000000E+00
  0.00000000E+00  0.00000000E+00  0.00000000E+00
  0.00000000E+00  0.00000000E+00  0.00000000E+00
  0.00000000E+00  0.00000000E+00  0.00000000E+00
  0.00000000E+00  0.00000000E+00  0.00000000E+00
  0.00000000E+00  0.00000000E+00  0.00000000E+00
  0.00000000E+00  0.00000000E+00  0.00000000E+00
  0.00000000E+00  0.00000000E+00  0.00000000E+00
  0.00000000E+00  0.00000000E+00  0.00000000E+00
  0.00000000E+00  0.00000000E+00  0.00000000E+00
  0.00000000E+00  0.00000000E+00  0.00000000E+00
  0.00000000E+00  0.00000000E+00  0.00000000E+00
  0.00000000E+00  0.00000000E+00  0.00000000E+00
  0.00000000E+00  0.00000000E+00  0.00000000E+00
  0.00000000E+00  0.00000000E+00  0.00000000E+00
  0.00000000E+00  0.00000000E+00  0.00000000E+00
  0.00000000E+00  0.00000000E+00  0.00000000E+00
  0.00000000E+00  0.00000000E+00  0.00000000E+00
  0.00000000E+00  0.00000000E+00  0.00000000E+00
  0.00000000E+00  0.00000000E+00  0.00000000E+00
  0.00000000E+00  0.00000000E+00  0.00000000E+00
  0.00000000E+00  0.00000000E+00  0.00000000E+00
  0.00000000E+00  0.00000000E+00  0.00000000E+00
  0.00000000E+00  0.00000000E+00  0.00000000E+00
  0.00000000E+00  0.00000000E+00  0.00000000E+00
  0.00000000E+00  0.00000000E+00  0.00000000E+00
  0.00000000E+00  0.00000000E+00  0.00000000E+00
  0.00000000E+00  0.00000000E+00  0.00000000E+00
  0.00000000E+00  0.00000000E+00  0.00000000E+00
  0.00000000E+00  0.00000000E+00  0.00000000E+00
  0.00000000E+00  0.00000000E+00  0.00000000E+00
  0.00000000E+00  0.00000000E+00  0.00000000E+00
  0.00000000E+00  0.00000000E+00  0.00000000E+00
  0.00000000E+00  0.00000000E+00  0.00000000E+00
  0.00000000E+00  0.00000000E+00  0.00000000E+00
  0.00000000E+00  0.00000000E+00  0.00000000E+00
  0.00000000E+00  0.00000000E+00  0.00000000E+00
  0.00000000E+00  0.00000000E+00  0.00000000E+00
  0.00000000E+00  0.00000000E+00  0.00000000E+00
  0.00000000E+00  0.00000000E+00  0.00000000E+00
