Rh1 C123 N3                             
   1.00000000000000     
    19.8438018024198293    0.0023899078422963    0.0131417191956960
    -9.9197129147630534   17.0312542288598969   -0.0219368029967336
     0.0200489536932618   -0.0269051014796298   29.7714941435452722
   Rh   C    N 
     1   123     3
Direct
  0.4366980064883912  0.4984983606525846  0.4137325806662900
  0.0418170778254425  0.0841506508334008  0.3997016102261468
  0.0404173668914730  0.2079101343742100  0.3998436715129703
  0.0396389915077927  0.3325387233454664  0.3995335184304721
  0.0400609956143947  0.4581044391845336  0.3991502038573193
  0.0412584548497896  0.5838698289974577  0.3991562567034509
  0.0423736712801784  0.7094650531288575  0.3994622554194251
  0.0427664642580362  0.8349457155275619  0.3995536930166964
  0.0427020648306846  0.9599540090760426  0.3994965664180649
  0.1679893374119125  0.0860952262296075  0.4002897129393694
  0.1669825603681885  0.2102696313789216  0.4011542186053978
  0.1641931081671281  0.3333196938610032  0.4013014585162479
  0.1632219386560257  0.4582197374631610  0.4002062640706167
  0.1644796399850414  0.5836488943788202  0.3993337749862436
  0.1662745502878423  0.7093133656724004  0.3992962395450114
  0.1672441129666537  0.8349033026472793  0.3996273666440096
  0.1677800508800784  0.9605460367642187  0.3997420547715841
  0.2928874638755872  0.0861626515418653  0.4003260152454279
  0.2937353898440528  0.2133133469652446  0.4023878944882657
  0.2915170663584249  0.3385794861752393  0.4048353530526372
  0.2859235705907255  0.4574234114813612  0.4040382787837926
  0.2872088223773949  0.5833843102630956  0.4012688105817172
  0.2901437532833364  0.7088245367125092  0.3996237331077380
  0.2915125719098590  0.8342213437281052  0.3993853959326434
  0.2922242371377923  0.9600020818642814  0.3995908728913865
  0.4172073500344742  0.0842087915693562  0.3997149557039686
  0.4180415338549685  0.2103470856843112  0.4011515364793557
  0.4203894378709910  0.3376976672391515  0.4052776035025186
  0.4139869646876371  0.7063976572459458  0.4013957639712642
  0.4157910451383407  0.8324490935995513  0.3998796047864254
  0.4165564124936733  0.9583154415520774  0.3994880975496273
  0.5415014547540531  0.0823441339392137  0.3994307534533650
  0.5423063303980713  0.2080703720736254  0.3996597907542560
  0.5439575878918407  0.3336744470907947  0.4015948478986415
  0.5486604438020691  0.4590462976403235  0.4061027819207009
  0.5378755278053203  0.7006934403237367  0.4041819172674495
  0.5399433653970896  0.8295450061571942  0.4010787270987889
  0.5408760597892691  0.9562233472103358  0.3998227679939506
  0.6658299038343305  0.0814007542934019  0.3997451760057408
  0.6666087055499301  0.2070635509847456  0.3993238602171936
  0.6678860696300591  0.3326563495094059  0.3992889870729541
  0.6706512801815783  0.4583878534295155  0.4005715120581672
  0.6721871193450459  0.5842060373981409  0.4026010565536435
  0.6669708162088231  0.7059655578248931  0.4024708388350121
  0.6645191997253972  0.8295190401870691  0.4014011346670415
  0.6652882145652057  0.9556283163356118  0.4002415426747436
  0.7904372947252432  0.0813620877344357  0.3997853250554554
  0.7908433616911131  0.2067793095143476  0.3996654625417722
  0.7917850231315245  0.3324094469460147  0.3991525031873853
  0.7934593088825558  0.4582028130938967  0.3988361772187454
  0.7946648288869415  0.5838492505409547  0.3993010036440557
  0.7939833281090175  0.7090718969717037  0.4000037627933566
  0.7914561174529329  0.8322557052340702  0.4001195887230439
  0.7902112535389202  0.9561849694900808  0.3999401743447860
  0.9156173625536327  0.0821897685902775  0.3994942294153197
  0.9152950115362736  0.2070033550722591  0.3994786917218320
  0.9156271627439478  0.3324100212032324  0.3993193251078238
  0.9167140388429852  0.4580994291490215  0.3990779004218827
  0.9179566475116663  0.5839199420491856  0.3989673824384150
  0.9183132721911681  0.7093974195535584  0.3991480852991116
  0.9178125951072049  0.8342853960687274  0.3993209621660054
  0.9165943764535471  0.9582072974632155  0.3994415856189761
  0.0844171852148643  0.0435897922977937  0.3997646239103963
  0.0833489061501750  0.1676339233272704  0.4001342190201101
  0.0813246714530935  0.2912039857034664  0.4000845213404010
  0.0808521976539222  0.4161659065640145  0.3994720646698377
  0.0818214376688822  0.5417641753317435  0.3991106010212706
  0.0832971169058793  0.6675255704898976  0.3993269108063216
  0.0841931600982850  0.7931985804850391  0.3996463417921424
  0.0844777586281081  0.9185826736090851  0.3996014861298460
  0.2096078075632690  0.0442619169702708  0.4001015340855809
  0.2097794200320770  0.1699253988994503  0.4012742648070530
  0.2079339330714083  0.2939764962427617  0.4022609509999626
  0.2043295078902493  0.4165560689250178  0.4015701575340858
  0.2046587474978673  0.5415073798410542  0.4001395902002314
  0.2071344358333472  0.6673504709682967  0.3993077867550307
  0.2084053406466521  0.7929184582574405  0.3994244728430672
  0.2091417905205342  0.9185925560218565  0.3996601731283853
  0.3340516548310909  0.0436630183390890  0.3998214665050818
  0.3348692881743556  0.1701716351745750  0.4013123765644163
  0.3361816040280363  0.2977122620943787  0.4046787270943523
  0.3282782508796236  0.5428255608664497  0.4036546347154977
  0.3308943001840024  0.6666940906099836  0.4006289119549665
  0.3326185014803267  0.7921045225411506  0.3995273235929414
  0.3334957232096795  0.9177476630657331  0.3994583867521635
  0.4584306621340365  0.0418132836521547  0.3994815751712098
  0.4591479898543614  0.1676768298865225  0.4000559354605635
  0.4604312252507259  0.2940181121692517  0.4024688605938126
  0.4663116804956398  0.4212060473890257  0.4090851000532761
  0.4525537834009538  0.6613571370499166  0.4036279242786076
  0.4568612588029017  0.7899032397108291  0.4007013706641464
  0.4577615971630544  0.9158701100999341  0.3996764505564947
  0.5827394827436572  0.0399996166030495  0.3996162029609787
  0.5834692839977305  0.1659046564248169  0.3993370712216774
  0.5846317155495382  0.2915948815124705  0.3999696436215730
  0.5880479826364371  0.4171411029201897  0.4024959256207521
  0.5909745167750077  0.5431102758660750  0.4061053932302567
  0.5831658015972540  0.6605511092336626  0.4051531175839266
  0.5802806334471444  0.7854627542309069  0.4022805527696769
  0.5819757133705741  0.9135642607105778  0.4003139442344685
  0.7071415925316442  0.0393327249775202  0.3999161291478737
  0.7077520388309220  0.1651251908384293  0.3996115998596610
  0.7086735203796825  0.2906990414530821  0.3991219720919725
  0.7107609899093382  0.4162798270860573  0.3992690491629289
  0.7124089953711775  0.5417822364462095  0.4006298210816398
  0.7112816265659471  0.6670725990314843  0.4016547575334660
  0.7076693625735548  0.7895196536698822  0.4012049427535032
  0.7065056584636723  0.9135338901419002  0.4004671523492097
  0.8321052606667643  0.0399076606140588  0.3996847122391902
  0.8321572670895478  0.1650496150199536  0.3996753393677708
  0.8327278989088059  0.2904609533156549  0.3994297679026551
  0.8339925698575570  0.4161019186913663  0.3989573432094738
  0.8353178633140504  0.5418574081065015  0.3988378887689588
  0.8355134375565771  0.6674716687818155  0.3993416775628220
  0.8346084221460355  0.7922127611057321  0.3996912201027366
  0.8329456460292193  0.9157121670174406  0.3997676854981748
  0.9581701847503866  0.0416785362011720  0.3994686513554671
  0.9571525054271875  0.1657051186492402  0.3994979876828108
  0.9568533421668052  0.2906283044667745  0.3993635529578839
  0.9573328763128082  0.4160496832794838  0.3991695535845258
  0.9585980520815345  0.5418775994594577  0.3990830927970099
  0.9595139057706237  0.6675799653526117  0.3991815391535998
  0.9596790461521593  0.7929752247003256  0.3993193591958544
  0.9592505408794445  0.9177132931671598  0.3993578720044210
  0.4070958001928544  0.5818721863246239  0.4050889943623476
  0.5489593743749235  0.5806393491159368  0.4083939165298434
  0.3275800808989798  0.4191895766903038  0.4069726109239469
 
  0.00000000E+00  0.00000000E+00  0.00000000E+00
  0.00000000E+00  0.00000000E+00  0.00000000E+00
  0.00000000E+00  0.00000000E+00  0.00000000E+00
  0.00000000E+00  0.00000000E+00  0.00000000E+00
  0.00000000E+00  0.00000000E+00  0.00000000E+00
  0.00000000E+00  0.00000000E+00  0.00000000E+00
  0.00000000E+00  0.00000000E+00  0.00000000E+00
  0.00000000E+00  0.00000000E+00  0.00000000E+00
  0.00000000E+00  0.00000000E+00  0.00000000E+00
  0.00000000E+00  0.00000000E+00  0.00000000E+00
  0.00000000E+00  0.00000000E+00  0.00000000E+00
  0.00000000E+00  0.00000000E+00  0.00000000E+00
  0.00000000E+00  0.00000000E+00  0.00000000E+00
  0.00000000E+00  0.00000000E+00  0.00000000E+00
  0.00000000E+00  0.00000000E+00  0.00000000E+00
  0.00000000E+00  0.00000000E+00  0.00000000E+00
  0.00000000E+00  0.00000000E+00  0.00000000E+00
  0.00000000E+00  0.00000000E+00  0.00000000E+00
  0.00000000E+00  0.00000000E+00  0.00000000E+00
  0.00000000E+00  0.00000000E+00  0.00000000E+00
  0.00000000E+00  0.00000000E+00  0.00000000E+00
  0.00000000E+00  0.00000000E+00  0.00000000E+00
  0.00000000E+00  0.00000000E+00  0.00000000E+00
  0.00000000E+00  0.00000000E+00  0.00000000E+00
  0.00000000E+00  0.00000000E+00  0.00000000E+00
  0.00000000E+00  0.00000000E+00  0.00000000E+00
  0.00000000E+00  0.00000000E+00  0.00000000E+00
  0.00000000E+00  0.00000000E+00  0.00000000E+00
  0.00000000E+00  0.00000000E+00  0.00000000E+00
  0.00000000E+00  0.00000000E+00  0.00000000E+00
  0.00000000E+00  0.00000000E+00  0.00000000E+00
  0.00000000E+00  0.00000000E+00  0.00000000E+00
  0.00000000E+00  0.00000000E+00  0.00000000E+00
  0.00000000E+00  0.00000000E+00  0.00000000E+00
  0.00000000E+00  0.00000000E+00  0.00000000E+00
  0.00000000E+00  0.00000000E+00  0.00000000E+00
  0.00000000E+00  0.00000000E+00  0.00000000E+00
  0.00000000E+00  0.00000000E+00  0.00000000E+00
  0.00000000E+00  0.00000000E+00  0.00000000E+00
  0.00000000E+00  0.00000000E+00  0.00000000E+00
  0.00000000E+00  0.00000000E+00  0.00000000E+00
  0.00000000E+00  0.00000000E+00  0.00000000E+00
  0.00000000E+00  0.00000000E+00  0.00000000E+00
  0.00000000E+00  0.00000000E+00  0.00000000E+00
  0.00000000E+00  0.00000000E+00  0.00000000E+00
  0.00000000E+00  0.00000000E+00  0.00000000E+00
  0.00000000E+00  0.00000000E+00  0.00000000E+00
  0.00000000E+00  0.00000000E+00  0.00000000E+00
  0.00000000E+00  0.00000000E+00  0.00000000E+00
  0.00000000E+00  0.00000000E+00  0.00000000E+00
  0.00000000E+00  0.00000000E+00  0.00000000E+00
  0.00000000E+00  0.00000000E+00  0.00000000E+00
  0.00000000E+00  0.00000000E+00  0.00000000E+00
  0.00000000E+00  0.00000000E+00  0.00000000E+00
  0.00000000E+00  0.00000000E+00  0.00000000E+00
  0.00000000E+00  0.00000000E+00  0.00000000E+00
  0.00000000E+00  0.00000000E+00  0.00000000E+00
  0.00000000E+00  0.00000000E+00  0.00000000E+00
  0.00000000E+00  0.00000000E+00  0.00000000E+00
  0.00000000E+00  0.00000000E+00  0.00000000E+00
  0.00000000E+00  0.00000000E+00  0.00000000E+00
  0.00000000E+00  0.00000000E+00  0.00000000E+00
  0.00000000E+00  0.00000000E+00  0.00000000E+00
  0.00000000E+00  0.00000000E+00  0.00000000E+00
  0.00000000E+00  0.00000000E+00  0.00000000E+00
  0.00000000E+00  0.00000000E+00  0.00000000E+00
  0.00000000E+00  0.00000000E+00  0.00000000E+00
  0.00000000E+00  0.00000000E+00  0.00000000E+00
  0.00000000E+00  0.00000000E+00  0.00000000E+00
  0.00000000E+00  0.00000000E+00  0.00000000E+00
  0.00000000E+00  0.00000000E+00  0.00000000E+00
  0.00000000E+00  0.00000000E+00  0.00000000E+00
  0.00000000E+00  0.00000000E+00  0.00000000E+00
  0.00000000E+00  0.00000000E+00  0.00000000E+00
  0.00000000E+00  0.00000000E+00  0.00000000E+00
  0.00000000E+00  0.00000000E+00  0.00000000E+00
  0.00000000E+00  0.00000000E+00  0.00000000E+00
  0.00000000E+00  0.00000000E+00  0.00000000E+00
  0.00000000E+00  0.00000000E+00  0.00000000E+00
  0.00000000E+00  0.00000000E+00  0.00000000E+00
  0.00000000E+00  0.00000000E+00  0.00000000E+00
  0.00000000E+00  0.00000000E+00  0.00000000E+00
  0.00000000E+00  0.00000000E+00  0.00000000E+00
  0.00000000E+00  0.00000000E+00  0.00000000E+00
  0.00000000E+00  0.00000000E+00  0.00000000E+00
  0.00000000E+00  0.00000000E+00  0.00000000E+00
  0.00000000E+00  0.00000000E+00  0.00000000E+00
  0.00000000E+00  0.00000000E+00  0.00000000E+00
  0.00000000E+00  0.00000000E+00  0.00000000E+00
  0.00000000E+00  0.00000000E+00  0.00000000E+00
  0.00000000E+00  0.00000000E+00  0.00000000E+00
  0.00000000E+00  0.00000000E+00  0.00000000E+00
  0.00000000E+00  0.00000000E+00  0.00000000E+00
  0.00000000E+00  0.00000000E+00  0.00000000E+00
  0.00000000E+00  0.00000000E+00  0.00000000E+00
  0.00000000E+00  0.00000000E+00  0.00000000E+00
  0.00000000E+00  0.00000000E+00  0.00000000E+00
  0.00000000E+00  0.00000000E+00  0.00000000E+00
  0.00000000E+00  0.00000000E+00  0.00000000E+00
  0.00000000E+00  0.00000000E+00  0.00000000E+00
  0.00000000E+00  0.00000000E+00  0.00000000E+00
  0.00000000E+00  0.00000000E+00  0.00000000E+00
  0.00000000E+00  0.00000000E+00  0.00000000E+00
  0.00000000E+00  0.00000000E+00  0.00000000E+00
  0.00000000E+00  0.00000000E+00  0.00000000E+00
  0.00000000E+00  0.00000000E+00  0.00000000E+00
  0.00000000E+00  0.00000000E+00  0.00000000E+00
  0.00000000E+00  0.00000000E+00  0.00000000E+00
  0.00000000E+00  0.00000000E+00  0.00000000E+00
  0.00000000E+00  0.00000000E+00  0.00000000E+00
  0.00000000E+00  0.00000000E+00  0.00000000E+00
  0.00000000E+00  0.00000000E+00  0.00000000E+00
  0.00000000E+00  0.00000000E+00  0.00000000E+00
  0.00000000E+00  0.00000000E+00  0.00000000E+00
  0.00000000E+00  0.00000000E+00  0.00000000E+00
  0.00000000E+00  0.00000000E+00  0.00000000E+00
  0.00000000E+00  0.00000000E+00  0.00000000E+00
  0.00000000E+00  0.00000000E+00  0.00000000E+00
  0.00000000E+00  0.00000000E+00  0.00000000E+00
  0.00000000E+00  0.00000000E+00  0.00000000E+00
  0.00000000E+00  0.00000000E+00  0.00000000E+00
  0.00000000E+00  0.00000000E+00  0.00000000E+00
  0.00000000E+00  0.00000000E+00  0.00000000E+00
  0.00000000E+00  0.00000000E+00  0.00000000E+00
  0.00000000E+00  0.00000000E+00  0.00000000E+00
  0.00000000E+00  0.00000000E+00  0.00000000E+00
  0.00000000E+00  0.00000000E+00  0.00000000E+00
