Ru1 C124 N2                             
   1.00000000000000     
    19.8130840334667973   -0.0461263307981323   -0.0000486723021070
    -9.9465617757062539   17.0526407682415879   -0.0005314729059309
    -0.0000735140626230   -0.0009737338020499   29.8228053221584268
   Ru   C    N 
     1   124     2
Direct
  0.4375180799776276  0.4999930773701509  0.4249469350310719
  0.0427131356308469  0.0848369036025621  0.3999860905375116
  0.0423583593977021  0.2091075594352639  0.3996631276326539
  0.0415572465670681  0.3335000448582456  0.3996226988467770
  0.0408441281770779  0.4586598295568881  0.3996813860127739
  0.0409615904505225  0.5839997926868880  0.3998632126080984
  0.0413381476407566  0.7092960278418738  0.4001375936933583
  0.0417079337988751  0.8345160230582701  0.4000535083139429
  0.0422358402021852  0.9597946452944836  0.3999671047497356
  0.1684164438697762  0.0862955186440032  0.3999563402475006
  0.1692825653771507  0.2118269277133470  0.3998459264997340
  0.1675673421631567  0.3354311389909940  0.3988755512189796
  0.1648857869305771  0.4594728333796822  0.3993816270645532
  0.1648225510353004  0.5843953811260175  0.3990905724908854
  0.1656848132651738  0.7095735556693262  0.3996067632152265
  0.1664632808817808  0.8348385003725504  0.4000111257185873
  0.1672527807776509  0.9603421155967615  0.4000100771619351
  0.2928587978276274  0.0857047780792661  0.4000665377769830
  0.2952130746007894  0.2133092428494401  0.4009113402171326
  0.2967598214392771  0.3405752289643340  0.3997597972773458
  0.2897252162619160  0.4617023999883432  0.4004718761147844
  0.2883668908033438  0.5855566509703444  0.4002028545419872
  0.2898765048716510  0.7097840481280581  0.3995444859503469
  0.2910573058717051  0.8345677906872323  0.3996091625878399
  0.2918384654970823  0.9598143293210668  0.3998760974975655
  0.4172500024244720  0.0837655090655721  0.3996581184271328
  0.4182847978703245  0.2093828051270636  0.3999070557240460
  0.4225795542736528  0.3371852805370099  0.4048802136574307
  0.4137801429403082  0.7072513470689684  0.4009634029500069
  0.4156090966141691  0.8329555059704692  0.3994489959898987
  0.4164544996290215  0.9583554529698071  0.3997433441617203
  0.5418365378944283  0.0821123919346154  0.3997826918145385
  0.5426884270713371  0.2071504181858266  0.3994993566961411
  0.5442162071067634  0.3317322593745669  0.4004184101389406
  0.5453668251844014  0.4544002379805330  0.4037723126862819
  0.5398355261838422  0.5748484620438390  0.3996885094634887
  0.5369135816885494  0.7022739453112991  0.4023375510496635
  0.5398107662668524  0.8305001361944704  0.4003731847979353
  0.5410755406307768  0.9566654474766794  0.3998760573631170
  0.6664781551943043  0.0815680925644258  0.4000431603372797
  0.6672715254070987  0.2068865044563873  0.3997900759805798
  0.6682276769673254  0.3320134607090213  0.3993044146091572
  0.6693951652140618  0.4571657224079027  0.3990308628483097
  0.6680095481006652  0.5812537191924855  0.3992838988717766
  0.6633144626061471  0.7038380399642200  0.3992319243911346
  0.6640121525315131  0.8295264830563007  0.4000538245272580
  0.6655890510109991  0.9559522853054866  0.4000450358534298
  0.7912820900102028  0.0817304588858749  0.3999775221457001
  0.7918526220066318  0.2070031921875966  0.4000839561320490
  0.7924345555591653  0.3323666062545384  0.3998594610603931
  0.7929945710121454  0.4577630697763915  0.3994813643215226
  0.7927721559168153  0.5828835956341902  0.3994861668990607
  0.7911078418514630  0.7073349788719734  0.3992773763789978
  0.7899729278641101  0.8313090321895965  0.3998719806702405
  0.7903899926203144  0.9563187025824867  0.3999348221726962
  0.9165972711526466  0.0827948573719804  0.3999567820274668
  0.9167407984568071  0.2076808356470151  0.3999656641959033
  0.9167456883977971  0.3327833471393711  0.4001308143214209
  0.9168453900952339  0.4581241894482213  0.4000340918167072
  0.9170055591396784  0.5835587230985615  0.4000093364407726
  0.9166573254540696  0.7087408774612483  0.3999902448725261
  0.9163593173291409  0.8334807358722938  0.3999175500854725
  0.9163275732061024  0.9580611031171707  0.4000170534262125
  0.0846020540614547  0.0437203574617755  0.3999430498151779
  0.0850543021745435  0.1687300780768101  0.3998546690988431
  0.0838915187696594  0.2926909089839405  0.3992798719618285
  0.0822376425449846  0.4171468544230331  0.3995153981400187
  0.0820091534243392  0.5422518550377651  0.3994993961429769
  0.0825603898113929  0.6676353168781447  0.3998864858413543
  0.0831518062122156  0.7930017575082394  0.4001111175673900
  0.0837114190035469  0.9182882150039766  0.3999898183115294
  0.2093836914158084  0.0440456316926752  0.4000347815836033
  0.2109747468564643  0.1704757641775537  0.4000971121302867
  0.2117041260236762  0.2961687189871715  0.3992609025254452
  0.2069870090817788  0.4187433891277584  0.3993147295962184
  0.2056302538486189  0.5428420602748556  0.3990380096697512
  0.2067840749448487  0.6679879309531286  0.3993040785199031
  0.2077269708091544  0.7931058824394410  0.3997687537136663
  0.2085131898003525  0.9184225923783209  0.4000117624071840
  0.3338861508790403  0.0433020587425337  0.3998395636141228
  0.3351655667526467  0.1694623246248883  0.4004265012311777
  0.3380841972869821  0.2976863183092442  0.4023984457391621
  0.3351706772285713  0.4251387552081580  0.3997304833822595
  0.3296469304318139  0.5455825834402830  0.4037989452574514
  0.3307985586082148  0.6682390000968571  0.4003741675038635
  0.3323076615684573  0.7928288645828330  0.3994639679581959
  0.3331661134088138  0.9178661178290758  0.3997375503853902
  0.4585443364043292  0.0416317361861786  0.3997581767287406
  0.4593815683557488  0.1670246719817750  0.3994908642151926
  0.4612292859769471  0.2927051452022164  0.4010188252832700
  0.4524378225237609  0.6627701698971666  0.4048465968217616
  0.4566980992557162  0.7905739853122575  0.3998486809598177
  0.4577223033863719  0.9162094348050933  0.3996523150250254
  0.5831538589717329  0.0401586756205386  0.3999336277287716
  0.5839433035969644  0.1654103873133234  0.3996450987179557
  0.5851433378948194  0.2902042111941938  0.3995747674200159
  0.5866435519966235  0.4144198157926059  0.4001961795096449
  0.5852690475293322  0.5382802015687397  0.4004265173732350
  0.5782619575319352  0.6594126684912692  0.3997098023088532
  0.5797742789077059  0.7866610143442424  0.4008362086422970
  0.5821028486230506  0.9142617764100082  0.4000748777227144
  0.7077291516924696  0.0396645571501717  0.4000272129392965
  0.7085342619370262  0.1651596848825560  0.4000353239820353
  0.7093151757685638  0.2904158187132873  0.3996000638043873
  0.7101835090433727  0.4156103988968874  0.3990845408384270
  0.7101323567351751  0.5405404153410145  0.3993532184437242
  0.7074306821234543  0.6645708308731024  0.3988637393410939
  0.7057396727937558  0.7881970420026672  0.3998306176351761
  0.7065628372911922  0.9137236888297138  0.3999398497625684
  0.8327622881875724  0.0402500651914455  0.3999463846914143
  0.8333024073493519  0.1655079551927767  0.4000301067645859
  0.8336434192169179  0.2906990146802281  0.4001064603116089
  0.8340111253610916  0.4159906562963265  0.3998420692119843
  0.8341397009754451  0.5413613556077882  0.3996581284532260
  0.8334397329329152  0.6665390372900432  0.3996045999355446
  0.8326652863635087  0.7909240545807725  0.3996874216859109
  0.8322992202242782  0.9152065638412834  0.3999972494558636
  0.9586925761154619  0.0419804341024740  0.4000018399820239
  0.9586643996253351  0.1665525581345745  0.3998713508536870
  0.9583402361532722  0.2912923226063673  0.3999851790673453
  0.9579743070057122  0.4164422906777264  0.4000214717929735
  0.9581399639504790  0.5418785265458468  0.4000327754066310
  0.9582420447027287  0.6672299155458359  0.4001334553782162
  0.9582789875027290  0.7923529234138859  0.3999960842878627
  0.9584164402511015  0.9172447786881318  0.3999984598887788
  0.4083119848215556  0.5830411245624778  0.4112013985116901
  0.4667033997731579  0.4169295993737142  0.4111895147061335
 
  0.00000000E+00  0.00000000E+00  0.00000000E+00
  0.00000000E+00  0.00000000E+00  0.00000000E+00
  0.00000000E+00  0.00000000E+00  0.00000000E+00
  0.00000000E+00  0.00000000E+00  0.00000000E+00
  0.00000000E+00  0.00000000E+00  0.00000000E+00
  0.00000000E+00  0.00000000E+00  0.00000000E+00
  0.00000000E+00  0.00000000E+00  0.00000000E+00
  0.00000000E+00  0.00000000E+00  0.00000000E+00
  0.00000000E+00  0.00000000E+00  0.00000000E+00
  0.00000000E+00  0.00000000E+00  0.00000000E+00
  0.00000000E+00  0.00000000E+00  0.00000000E+00
  0.00000000E+00  0.00000000E+00  0.00000000E+00
  0.00000000E+00  0.00000000E+00  0.00000000E+00
  0.00000000E+00  0.00000000E+00  0.00000000E+00
  0.00000000E+00  0.00000000E+00  0.00000000E+00
  0.00000000E+00  0.00000000E+00  0.00000000E+00
  0.00000000E+00  0.00000000E+00  0.00000000E+00
  0.00000000E+00  0.00000000E+00  0.00000000E+00
  0.00000000E+00  0.00000000E+00  0.00000000E+00
  0.00000000E+00  0.00000000E+00  0.00000000E+00
  0.00000000E+00  0.00000000E+00  0.00000000E+00
  0.00000000E+00  0.00000000E+00  0.00000000E+00
  0.00000000E+00  0.00000000E+00  0.00000000E+00
  0.00000000E+00  0.00000000E+00  0.00000000E+00
  0.00000000E+00  0.00000000E+00  0.00000000E+00
  0.00000000E+00  0.00000000E+00  0.00000000E+00
  0.00000000E+00  0.00000000E+00  0.00000000E+00
  0.00000000E+00  0.00000000E+00  0.00000000E+00
  0.00000000E+00  0.00000000E+00  0.00000000E+00
  0.00000000E+00  0.00000000E+00  0.00000000E+00
  0.00000000E+00  0.00000000E+00  0.00000000E+00
  0.00000000E+00  0.00000000E+00  0.00000000E+00
  0.00000000E+00  0.00000000E+00  0.00000000E+00
  0.00000000E+00  0.00000000E+00  0.00000000E+00
  0.00000000E+00  0.00000000E+00  0.00000000E+00
  0.00000000E+00  0.00000000E+00  0.00000000E+00
  0.00000000E+00  0.00000000E+00  0.00000000E+00
  0.00000000E+00  0.00000000E+00  0.00000000E+00
  0.00000000E+00  0.00000000E+00  0.00000000E+00
  0.00000000E+00  0.00000000E+00  0.00000000E+00
  0.00000000E+00  0.00000000E+00  0.00000000E+00
  0.00000000E+00  0.00000000E+00  0.00000000E+00
  0.00000000E+00  0.00000000E+00  0.00000000E+00
  0.00000000E+00  0.00000000E+00  0.00000000E+00
  0.00000000E+00  0.00000000E+00  0.00000000E+00
  0.00000000E+00  0.00000000E+00  0.00000000E+00
  0.00000000E+00  0.00000000E+00  0.00000000E+00
  0.00000000E+00  0.00000000E+00  0.00000000E+00
  0.00000000E+00  0.00000000E+00  0.00000000E+00
  0.00000000E+00  0.00000000E+00  0.00000000E+00
  0.00000000E+00  0.00000000E+00  0.00000000E+00
  0.00000000E+00  0.00000000E+00  0.00000000E+00
  0.00000000E+00  0.00000000E+00  0.00000000E+00
  0.00000000E+00  0.00000000E+00  0.00000000E+00
  0.00000000E+00  0.00000000E+00  0.00000000E+00
  0.00000000E+00  0.00000000E+00  0.00000000E+00
  0.00000000E+00  0.00000000E+00  0.00000000E+00
  0.00000000E+00  0.00000000E+00  0.00000000E+00
  0.00000000E+00  0.00000000E+00  0.00000000E+00
  0.00000000E+00  0.00000000E+00  0.00000000E+00
  0.00000000E+00  0.00000000E+00  0.00000000E+00
  0.00000000E+00  0.00000000E+00  0.00000000E+00
  0.00000000E+00  0.00000000E+00  0.00000000E+00
  0.00000000E+00  0.00000000E+00  0.00000000E+00
  0.00000000E+00  0.00000000E+00  0.00000000E+00
  0.00000000E+00  0.00000000E+00  0.00000000E+00
  0.00000000E+00  0.00000000E+00  0.00000000E+00
  0.00000000E+00  0.00000000E+00  0.00000000E+00
  0.00000000E+00  0.00000000E+00  0.00000000E+00
  0.00000000E+00  0.00000000E+00  0.00000000E+00
  0.00000000E+00  0.00000000E+00  0.00000000E+00
  0.00000000E+00  0.00000000E+00  0.00000000E+00
  0.00000000E+00  0.00000000E+00  0.00000000E+00
  0.00000000E+00  0.00000000E+00  0.00000000E+00
  0.00000000E+00  0.00000000E+00  0.00000000E+00
  0.00000000E+00  0.00000000E+00  0.00000000E+00
  0.00000000E+00  0.00000000E+00  0.00000000E+00
  0.00000000E+00  0.00000000E+00  0.00000000E+00
  0.00000000E+00  0.00000000E+00  0.00000000E+00
  0.00000000E+00  0.00000000E+00  0.00000000E+00
  0.00000000E+00  0.00000000E+00  0.00000000E+00
  0.00000000E+00  0.00000000E+00  0.00000000E+00
  0.00000000E+00  0.00000000E+00  0.00000000E+00
  0.00000000E+00  0.00000000E+00  0.00000000E+00
  0.00000000E+00  0.00000000E+00  0.00000000E+00
  0.00000000E+00  0.00000000E+00  0.00000000E+00
  0.00000000E+00  0.00000000E+00  0.00000000E+00
  0.00000000E+00  0.00000000E+00  0.00000000E+00
  0.00000000E+00  0.00000000E+00  0.00000000E+00
  0.00000000E+00  0.00000000E+00  0.00000000E+00
  0.00000000E+00  0.00000000E+00  0.00000000E+00
  0.00000000E+00  0.00000000E+00  0.00000000E+00
  0.00000000E+00  0.00000000E+00  0.00000000E+00
  0.00000000E+00  0.00000000E+00  0.00000000E+00
  0.00000000E+00  0.00000000E+00  0.00000000E+00
  0.00000000E+00  0.00000000E+00  0.00000000E+00
  0.00000000E+00  0.00000000E+00  0.00000000E+00
  0.00000000E+00  0.00000000E+00  0.00000000E+00
  0.00000000E+00  0.00000000E+00  0.00000000E+00
  0.00000000E+00  0.00000000E+00  0.00000000E+00
  0.00000000E+00  0.00000000E+00  0.00000000E+00
  0.00000000E+00  0.00000000E+00  0.00000000E+00
  0.00000000E+00  0.00000000E+00  0.00000000E+00
  0.00000000E+00  0.00000000E+00  0.00000000E+00
  0.00000000E+00  0.00000000E+00  0.00000000E+00
  0.00000000E+00  0.00000000E+00  0.00000000E+00
  0.00000000E+00  0.00000000E+00  0.00000000E+00
  0.00000000E+00  0.00000000E+00  0.00000000E+00
  0.00000000E+00  0.00000000E+00  0.00000000E+00
  0.00000000E+00  0.00000000E+00  0.00000000E+00
  0.00000000E+00  0.00000000E+00  0.00000000E+00
  0.00000000E+00  0.00000000E+00  0.00000000E+00
  0.00000000E+00  0.00000000E+00  0.00000000E+00
  0.00000000E+00  0.00000000E+00  0.00000000E+00
  0.00000000E+00  0.00000000E+00  0.00000000E+00
  0.00000000E+00  0.00000000E+00  0.00000000E+00
  0.00000000E+00  0.00000000E+00  0.00000000E+00
  0.00000000E+00  0.00000000E+00  0.00000000E+00
  0.00000000E+00  0.00000000E+00  0.00000000E+00
  0.00000000E+00  0.00000000E+00  0.00000000E+00
  0.00000000E+00  0.00000000E+00  0.00000000E+00
  0.00000000E+00  0.00000000E+00  0.00000000E+00
  0.00000000E+00  0.00000000E+00  0.00000000E+00
  0.00000000E+00  0.00000000E+00  0.00000000E+00
  0.00000000E+00  0.00000000E+00  0.00000000E+00
  0.00000000E+00  0.00000000E+00  0.00000000E+00
  0.00000000E+00  0.00000000E+00  0.00000000E+00
