Pd1 C122 N4                             
   1.00000000000000     
    19.8414516060131163   -0.0000217943662843    0.0031853949939777
    -9.9207449966329957   17.0242028712384759   -0.0016542776229510
     0.0047803683853511   -0.0001112504641012   29.7894261364266342
   Pd   C    N 
     1   122     4
Direct
  0.4374788859228897  0.5000001004533957  0.4064319236325966
  0.0420875715775063  0.0842732948850284  0.3999034093876117
  0.0407959478974375  0.2081185078378502  0.3999660417931585
  0.0397923533451958  0.3327798193456281  0.3996397673405431
  0.0399271560500586  0.4581626214518973  0.3992234701053967
  0.0411282351827123  0.5838862249057696  0.3992718050739238
  0.0422500192942935  0.7094967499260973  0.3995815719421888
  0.0426440739520423  0.8347851615930103  0.3997179929923776
  0.0427244042981800  0.9599470161316390  0.3997521727615953
  0.1684380896455943  0.0862920787591201  0.4004264050129941
  0.1674969658904102  0.2105845249726992  0.4013304290597777
  0.1644646825064803  0.3335704187880914  0.4016615410520529
  0.1630942737569901  0.4584696754064943  0.4007402329792663
  0.1644805025879221  0.5837983471523570  0.3996565115158220
  0.1662215679107857  0.7092182418529658  0.3994183006857084
  0.1671401451935705  0.8347821738470007  0.3997119581723618
  0.1677425080269380  0.9604469647620920  0.3998646373238784
  0.2928733106638685  0.0862769009947755  0.4004412040699413
  0.2945038902288999  0.2139914119581090  0.4022335544706706
  0.2923012208036441  0.3391938520891176  0.4040384041708309
  0.2856073783440132  0.4580868991255249  0.4042163798272695
  0.2872616687034788  0.5831892553896855  0.4022294896895288
  0.2902326881032213  0.7085696628533673  0.4002654731924297
  0.2915458781684686  0.8341270961005315  0.3996000685549033
  0.2922611479333889  0.9599348722510045  0.3997385905584551
  0.4172152892387889  0.0842636157157674  0.3999188498190571
  0.4180874099638417  0.2105793113243224  0.4013673603494562
  0.4218871769986578  0.3392000916793328  0.4040483205644077
  0.4141280874729057  0.7058675624521191  0.4024006424561003
  0.4158859112544946  0.8321067304910056  0.4003148900529551
  0.4166426422162855  0.9582321982729984  0.3996758545459934
  0.5415731859183663  0.0823450639282368  0.3996476221820057
  0.5423243163327484  0.2081117492357815  0.3999699816686550
  0.5440908071057908  0.3335572206283735  0.4016333430434251
  0.5474458377802409  0.4580769718574141  0.4042119018145461
  0.5379208405492851  0.7008463826426323  0.4037213004389339
  0.5402186076914797  0.8296452337732994  0.4013443639975442
  0.5409709942538605  0.9562769883549023  0.3999840704795781
  0.6659943074875260  0.0815592201791501  0.3997772688298035
  0.6666341012003253  0.2071473402929507  0.3995434723920301
  0.6679611938324883  0.3327658704926083  0.3996080483528658
  0.6703451743325887  0.4584622069676890  0.4007050293921677
  0.6709097156134495  0.5832042224677040  0.4021947685639537
  0.6667268775542416  0.7058655059658315  0.4024067126930774
  0.6644539447736176  0.8296667328118386  0.4013875203165232
  0.6654117286724254  0.9557910738711547  0.4001986668616636
  0.7905978165082278  0.0815572390074452  0.3997695087124258
  0.7909846398184558  0.2069721756017092  0.3997619436843060
  0.7918164457317929  0.3325103465227368  0.3993986307212738
  0.7931890758712744  0.4581603984355750  0.3992052856171106
  0.7942802789465823  0.5838043463170453  0.3996216711174586
  0.7933300362725617  0.7085796263005021  0.4002395361290964
  0.7912349258679438  0.8321086025456094  0.4003380192469192
  0.7903378049481441  0.9562927827990826  0.3999903539815146
  0.9158179217160108  0.0823536379040187  0.3996364173644872
  0.9155138891808657  0.2071463542134176  0.3995437649512969
  0.9156833542715526  0.3325157214951720  0.3994137167483412
  0.9165837768849407  0.4582069563131094  0.3993023574459034
  0.9177147812792127  0.5838914553057354  0.3992625662971303
  0.9179858835309503  0.7092164718940774  0.3993990497994063
  0.9176039005136943  0.8341327479412144  0.3996099175765048
  0.9166368386391981  0.9582380086020401  0.3996835869886757
  0.0846940815036134  0.0437232547341413  0.3999841013148914
  0.0837794942788928  0.1678936819118260  0.4003140595098810
  0.0816638309020431  0.2914309846640373  0.4002653009383776
  0.0806828641291310  0.4162017009782345  0.3996565201156005
  0.0817646123694337  0.5418370963283924  0.3992233364025273
  0.0831678979521100  0.6674843889779517  0.3994133975785360
  0.0840125612754283  0.7930277702593937  0.3997618057571192
  0.0844348639535953  0.9184408127430268  0.3997774264743162
  0.2096213773174615  0.0442093550106873  0.4001984222903238
  0.2105737831609133  0.1703551404714546  0.4013431271685005
  0.2082614884213813  0.2941331291766253  0.4024002849462974
  0.2040727862341844  0.4168108665210692  0.4022297062231595
  0.2046247504044982  0.5415303604208679  0.4007402136135277
  0.2070126077235663  0.6672200488941422  0.3996397538365048
  0.2083679814898411  0.7928535356160709  0.3995437651224562
  0.2090406226041515  0.9184426950709120  0.3997693684413326
  0.3340460777621234  0.0437075667536246  0.3999902029554936
  0.3347877494322298  0.1703334350874691  0.4013863019205992
  0.3370754421368850  0.2991538033647376  0.4037197130712552
  0.3275202304195050  0.5419127335395333  0.4042161266113715
  0.3308940854348669  0.6664295620057686  0.4016621990461607
  0.3326779116896558  0.7918816667093603  0.3999661877041770
  0.3334645895406645  0.9176463427267448  0.3996356037501007
  0.4583991652242603  0.0417618015637438  0.3996829226868703
  0.4591266734424967  0.1678914144830910  0.4003379208683802
  0.4608619708581156  0.2941345990036361  0.4024057494120991
  0.4531073893114773  0.6608058869422969  0.4040387667153035
  0.4569126106465407  0.7894156097360348  0.4013313847976794
  0.4578147859710567  0.9157268088762144  0.3999035859023196
  0.5827775895626751  0.0400532418444812  0.3997514604561093
  0.5834711516529636  0.1658681888479022  0.3996098470093142
  0.5847508641292400  0.2914208878545919  0.4002395480237822
  0.5877055981489736  0.4167958646155103  0.4021947724240967
  0.5893691229089354  0.5419232637693427  0.4042119183136011
  0.5826868062515614  0.6608001937045997  0.4040494332139625
  0.5805122979237777  0.7860085421513334  0.4022354483587923
  0.5821461153149764  0.9137081179216612  0.4004272140637633
  0.7072955219779095  0.0395528993362408  0.3998646047103633
  0.7078587158174580  0.1652148514925926  0.3997179937673849
  0.7087688754641228  0.2907837075592972  0.3993983532911624
  0.7104759859987889  0.4161962778901921  0.3996223257329578
  0.7118830386521547  0.5415377986995829  0.4007048614384271
  0.7105333691015310  0.6664428021653223  0.4016334314207934
  0.7075083063645111  0.7894200919699964  0.4013681702030104
  0.7065955486623849  0.9137224303579240  0.4004415586713120
  0.8323262775935432  0.0400646356340078  0.3997394080873418
  0.8323580267078876  0.1652178764957760  0.3997119604742851
  0.8327533554701853  0.2905033168039909  0.3995820965004790
  0.8338231963428775  0.4161084709175168  0.3992624249535034
  0.8350285393575289  0.5418394880534799  0.3992051777044711
  0.8351953533562736  0.6672344587291253  0.3996081130598465
  0.8342124053901153  0.7918880697449140  0.3999699861104248
  0.8329508787985361  0.9157355832839518  0.3999189679275950
  0.9584102394930104  0.0417672876175109  0.3996761868747504
  0.9574191758575137  0.1658731971086227  0.3996002358197100
  0.9570037422509435  0.2907821501174975  0.3994183099107130
  0.9572423668377250  0.4161137764721651  0.3992724597171808
  0.9583769747488291  0.5417930015842980  0.3993022120674452
  0.9593060383548025  0.6674892077626177  0.3993992981137098
  0.9594865762278073  0.7928522188455357  0.3995436206981320
  0.9592279593715977  0.9176547378962825  0.3996479034262848
  0.4076504784450393  0.5808075907052055  0.4054538644985791
  0.5481270256771368  0.5808036290850037  0.4054664570249107
  0.3268434915139822  0.4191925185827164  0.4054530922478414
  0.4673236184698050  0.4191965343712598  0.4054663779469366
 
  0.00000000E+00  0.00000000E+00  0.00000000E+00
  0.00000000E+00  0.00000000E+00  0.00000000E+00
  0.00000000E+00  0.00000000E+00  0.00000000E+00
  0.00000000E+00  0.00000000E+00  0.00000000E+00
  0.00000000E+00  0.00000000E+00  0.00000000E+00
  0.00000000E+00  0.00000000E+00  0.00000000E+00
  0.00000000E+00  0.00000000E+00  0.00000000E+00
  0.00000000E+00  0.00000000E+00  0.00000000E+00
  0.00000000E+00  0.00000000E+00  0.00000000E+00
  0.00000000E+00  0.00000000E+00  0.00000000E+00
  0.00000000E+00  0.00000000E+00  0.00000000E+00
  0.00000000E+00  0.00000000E+00  0.00000000E+00
  0.00000000E+00  0.00000000E+00  0.00000000E+00
  0.00000000E+00  0.00000000E+00  0.00000000E+00
  0.00000000E+00  0.00000000E+00  0.00000000E+00
  0.00000000E+00  0.00000000E+00  0.00000000E+00
  0.00000000E+00  0.00000000E+00  0.00000000E+00
  0.00000000E+00  0.00000000E+00  0.00000000E+00
  0.00000000E+00  0.00000000E+00  0.00000000E+00
  0.00000000E+00  0.00000000E+00  0.00000000E+00
  0.00000000E+00  0.00000000E+00  0.00000000E+00
  0.00000000E+00  0.00000000E+00  0.00000000E+00
  0.00000000E+00  0.00000000E+00  0.00000000E+00
  0.00000000E+00  0.00000000E+00  0.00000000E+00
  0.00000000E+00  0.00000000E+00  0.00000000E+00
  0.00000000E+00  0.00000000E+00  0.00000000E+00
  0.00000000E+00  0.00000000E+00  0.00000000E+00
  0.00000000E+00  0.00000000E+00  0.00000000E+00
  0.00000000E+00  0.00000000E+00  0.00000000E+00
  0.00000000E+00  0.00000000E+00  0.00000000E+00
  0.00000000E+00  0.00000000E+00  0.00000000E+00
  0.00000000E+00  0.00000000E+00  0.00000000E+00
  0.00000000E+00  0.00000000E+00  0.00000000E+00
  0.00000000E+00  0.00000000E+00  0.00000000E+00
  0.00000000E+00  0.00000000E+00  0.00000000E+00
  0.00000000E+00  0.00000000E+00  0.00000000E+00
  0.00000000E+00  0.00000000E+00  0.00000000E+00
  0.00000000E+00  0.00000000E+00  0.00000000E+00
  0.00000000E+00  0.00000000E+00  0.00000000E+00
  0.00000000E+00  0.00000000E+00  0.00000000E+00
  0.00000000E+00  0.00000000E+00  0.00000000E+00
  0.00000000E+00  0.00000000E+00  0.00000000E+00
  0.00000000E+00  0.00000000E+00  0.00000000E+00
  0.00000000E+00  0.00000000E+00  0.00000000E+00
  0.00000000E+00  0.00000000E+00  0.00000000E+00
  0.00000000E+00  0.00000000E+00  0.00000000E+00
  0.00000000E+00  0.00000000E+00  0.00000000E+00
  0.00000000E+00  0.00000000E+00  0.00000000E+00
  0.00000000E+00  0.00000000E+00  0.00000000E+00
  0.00000000E+00  0.00000000E+00  0.00000000E+00
  0.00000000E+00  0.00000000E+00  0.00000000E+00
  0.00000000E+00  0.00000000E+00  0.00000000E+00
  0.00000000E+00  0.00000000E+00  0.00000000E+00
  0.00000000E+00  0.00000000E+00  0.00000000E+00
  0.00000000E+00  0.00000000E+00  0.00000000E+00
  0.00000000E+00  0.00000000E+00  0.00000000E+00
  0.00000000E+00  0.00000000E+00  0.00000000E+00
  0.00000000E+00  0.00000000E+00  0.00000000E+00
  0.00000000E+00  0.00000000E+00  0.00000000E+00
  0.00000000E+00  0.00000000E+00  0.00000000E+00
  0.00000000E+00  0.00000000E+00  0.00000000E+00
  0.00000000E+00  0.00000000E+00  0.00000000E+00
  0.00000000E+00  0.00000000E+00  0.00000000E+00
  0.00000000E+00  0.00000000E+00  0.00000000E+00
  0.00000000E+00  0.00000000E+00  0.00000000E+00
  0.00000000E+00  0.00000000E+00  0.00000000E+00
  0.00000000E+00  0.00000000E+00  0.00000000E+00
  0.00000000E+00  0.00000000E+00  0.00000000E+00
  0.00000000E+00  0.00000000E+00  0.00000000E+00
  0.00000000E+00  0.00000000E+00  0.00000000E+00
  0.00000000E+00  0.00000000E+00  0.00000000E+00
  0.00000000E+00  0.00000000E+00  0.00000000E+00
  0.00000000E+00  0.00000000E+00  0.00000000E+00
  0.00000000E+00  0.00000000E+00  0.00000000E+00
  0.00000000E+00  0.00000000E+00  0.00000000E+00
  0.00000000E+00  0.00000000E+00  0.00000000E+00
  0.00000000E+00  0.00000000E+00  0.00000000E+00
  0.00000000E+00  0.00000000E+00  0.00000000E+00
  0.00000000E+00  0.00000000E+00  0.00000000E+00
  0.00000000E+00  0.00000000E+00  0.00000000E+00
  0.00000000E+00  0.00000000E+00  0.00000000E+00
  0.00000000E+00  0.00000000E+00  0.00000000E+00
  0.00000000E+00  0.00000000E+00  0.00000000E+00
  0.00000000E+00  0.00000000E+00  0.00000000E+00
  0.00000000E+00  0.00000000E+00  0.00000000E+00
  0.00000000E+00  0.00000000E+00  0.00000000E+00
  0.00000000E+00  0.00000000E+00  0.00000000E+00
  0.00000000E+00  0.00000000E+00  0.00000000E+00
  0.00000000E+00  0.00000000E+00  0.00000000E+00
  0.00000000E+00  0.00000000E+00  0.00000000E+00
  0.00000000E+00  0.00000000E+00  0.00000000E+00
  0.00000000E+00  0.00000000E+00  0.00000000E+00
  0.00000000E+00  0.00000000E+00  0.00000000E+00
  0.00000000E+00  0.00000000E+00  0.00000000E+00
  0.00000000E+00  0.00000000E+00  0.00000000E+00
  0.00000000E+00  0.00000000E+00  0.00000000E+00
  0.00000000E+00  0.00000000E+00  0.00000000E+00
  0.00000000E+00  0.00000000E+00  0.00000000E+00
  0.00000000E+00  0.00000000E+00  0.00000000E+00
  0.00000000E+00  0.00000000E+00  0.00000000E+00
  0.00000000E+00  0.00000000E+00  0.00000000E+00
  0.00000000E+00  0.00000000E+00  0.00000000E+00
  0.00000000E+00  0.00000000E+00  0.00000000E+00
  0.00000000E+00  0.00000000E+00  0.00000000E+00
  0.00000000E+00  0.00000000E+00  0.00000000E+00
  0.00000000E+00  0.00000000E+00  0.00000000E+00
  0.00000000E+00  0.00000000E+00  0.00000000E+00
  0.00000000E+00  0.00000000E+00  0.00000000E+00
  0.00000000E+00  0.00000000E+00  0.00000000E+00
  0.00000000E+00  0.00000000E+00  0.00000000E+00
  0.00000000E+00  0.00000000E+00  0.00000000E+00
  0.00000000E+00  0.00000000E+00  0.00000000E+00
  0.00000000E+00  0.00000000E+00  0.00000000E+00
  0.00000000E+00  0.00000000E+00  0.00000000E+00
  0.00000000E+00  0.00000000E+00  0.00000000E+00
  0.00000000E+00  0.00000000E+00  0.00000000E+00
  0.00000000E+00  0.00000000E+00  0.00000000E+00
  0.00000000E+00  0.00000000E+00  0.00000000E+00
  0.00000000E+00  0.00000000E+00  0.00000000E+00
  0.00000000E+00  0.00000000E+00  0.00000000E+00
  0.00000000E+00  0.00000000E+00  0.00000000E+00
  0.00000000E+00  0.00000000E+00  0.00000000E+00
  0.00000000E+00  0.00000000E+00  0.00000000E+00
  0.00000000E+00  0.00000000E+00  0.00000000E+00
  0.00000000E+00  0.00000000E+00  0.00000000E+00
  0.00000000E+00  0.00000000E+00  0.00000000E+00
  0.00000000E+00  0.00000000E+00  0.00000000E+00
