Ni1 H1 C122 N4 O1                       
   1.00000000000000     
    19.7929498975779090   -0.0002054017587490   -0.0585058728837789
    -9.8965120052190159   17.0022633887881689   -0.0254160281233129
    -0.0885712382533703   -0.0960239393319304   29.9016890250624527
   Ni   H    C    N    O 
     1     1   122     4     1
Direct
  0.4376873787779883  0.5000186024896914  0.4096614583603609
  0.4736310911181211  0.5476596462223972  0.4894925706081451
  0.0424477278001696  0.0845036428446773  0.4005254721714385
  0.0414827069654960  0.2084924465266492  0.4006064991052947
  0.0406693114393332  0.3330959152146810  0.4003687314310067
  0.0407199246682128  0.4582577393078331  0.3998849816980161
  0.0414141703199145  0.5836612138232583  0.3993477669926321
  0.0421124892879332  0.7090922306707210  0.3992167901248253
  0.0424123038432085  0.8344128649504603  0.3995322579338778
  0.0425867708312900  0.9597178664759118  0.4000924647925321
  0.1685017627873932  0.0862157003861151  0.4010686837334015
  0.1683928617761043  0.2111888891907978  0.4018557126717505
  0.1657440860703420  0.3340784952482779  0.4020837350969306
  0.1646327821704546  0.4585853727799270  0.4016337696252619
  0.1654071200889376  0.5835944242863134  0.4005997684922132
  0.1664950166574624  0.7088744598702552  0.3997095158289618
  0.1671411243076181  0.8344068414140359  0.3995180041743465
  0.1676668018416345  0.9601735200906086  0.4000846080162267
  0.2928982940444428  0.0861998245132976  0.4010456023105474
  0.2947151749759372  0.2142047420423035  0.4025368244705197
  0.2942849215746956  0.3406517290979996  0.4037328494949351
  0.2883088677174383  0.4584274705937507  0.4037138595719955
  0.2890193095440576  0.5829487433090965  0.4026058253730405
  0.2908221796175911  0.7082375222709825  0.4010623881979845
  0.2917835817458778  0.8338556946491047  0.4000513739675861
  0.2923011031952897  0.9597119280220355  0.4000912434047312
  0.4172312646652042  0.0844792999176714  0.4005336338548601
  0.4179813087821752  0.2111607883748966  0.4018146929119407
  0.4215749398952182  0.3406416031065573  0.4035669940240764
  0.4147447665777858  0.7050148870292583  0.4027144803989796
  0.4162203898978170  0.8318199595367878  0.4010512399285115
  0.4167942243624393  0.9582033202019445  0.4002264034250708
  0.5415929593915604  0.0826296679265569  0.4000651079606367
  0.5421595717887987  0.2084905771063680  0.4006324962535300
  0.5434916819072944  0.3340619857041854  0.4019076503156345
  0.5453072805129029  0.4584047716176705  0.4033442163071970
  0.5380271841278063  0.7008634409029110  0.4037760391757705
  0.5404455871214536  0.8297225576490959  0.4019968934061299
  0.5411558104009975  0.9564944237812407  0.4006287216299178
  0.6661617749857314  0.0819639095049742  0.3998547836743587
  0.6666208631903987  0.2075563513108937  0.3996906011661252
  0.6675623031364012  0.3330870174097706  0.4003046415162872
  0.6690900705220206  0.4585536784236876  0.4013450579052698
  0.6691059802571461  0.5829310373375338  0.4023443308341059
  0.6654521718299385  0.7050332656230434  0.4026198779878765
  0.6644555812314632  0.8297388461853303  0.4019668455375713
  0.6656311741269384  0.9560936711583771  0.4007881446728193
  0.7909241066473666  0.0819730715522625  0.3997819061453300
  0.7912555930702906  0.2074068498203679  0.3992779812317303
  0.7918219542416006  0.3328593460273883  0.3993227533175579
  0.7926683278696859  0.4582585264305169  0.3997611092969192
  0.7933419289546869  0.5836123910141318  0.4004554852340250
  0.7925514397991612  0.7082365424181413  0.4009762973455138
  0.7907816691040876  0.8318425417444171  0.4009980651900576
  0.7905278480179961  0.9565250418993106  0.4005548629637139
  0.9161952057930667  0.0826462676186319  0.3999964899129804
  0.9160648350974112  0.2075653901648016  0.3995824531010914
  0.9161364610353642  0.3328436708014583  0.3993143869198177
  0.9167082094859568  0.4582997753738230  0.3992024723634732
  0.9173672139209075  0.5836727627581351  0.3993307713384344
  0.9175136485707459  0.7088928612143703  0.3996730114826039
  0.9172210471210014  0.8338715308508560  0.4000475621516834
  0.9166028589382168  0.9582248419944837  0.4001997137943191
  0.0847252678162903  0.0436066544221097  0.4005647768734843
  0.0844723298156671  0.1682854332958470  0.4009821868329517
  0.0826305381411287  0.2918323675320357  0.4009767991991800
  0.0818604387932954  0.4164841971147241  0.4006015346846468
  0.0824891585760215  0.5418077531227136  0.3998701056830697
  0.0833176509218830  0.6672021695915271  0.3993420273121376
  0.0838858736619794  0.7926432453473624  0.3993553893587484
  0.0842583430949710  0.9181151599939573  0.3998578026618504
  0.2096035056812457  0.0440286073810293  0.4007604589708695
  0.2108335551378401  0.1704545606477909  0.4018870326357035
  0.2098229268321264  0.2951398774027193  0.4026363139208170
  0.2061111855800836  0.4171674854440865  0.4025153555487814
  0.2061029261774977  0.5415290284931230  0.4016428048705965
  0.2075851117102634  0.6669696651537288  0.4004341938080560
  0.2085436779479989  0.7925067929526675  0.3996728419121959
  0.2090064830959395  0.9181152085177841  0.3998445205514607
  0.3340559600055097  0.0435859778550241  0.4005443175098485
  0.3348008549351844  0.1704234463697468  0.4018613965673423
  0.3372938182541512  0.2993522305029199  0.4036362232669156
  0.3299201531136233  0.5416856506477153  0.4038217267349540
  0.3317133593827867  0.6660371315099732  0.4021694964007703
  0.3330186885364836  0.7915745907797838  0.4006824185178184
  0.3335842815751575  0.9174347823208848  0.4000584953451629
  0.4584150910385617  0.0418839138363556  0.4002106592997909
  0.4589809985647647  0.1682586335939730  0.4009734400206119
  0.4604859054391203  0.2951108712449587  0.4025060984395160
  0.4537026742568947  0.6595394302406774  0.4038492732945465
  0.4572500259876480  0.7889533607415774  0.4019467817208429
  0.4579776010163523  0.9156025891772559  0.4006133503986222
  0.5828882024973824  0.0403585867344727  0.4001193469247101
  0.5833877324615518  0.1662049446026516  0.4000606796763693
  0.5843474445715087  0.2918367424324124  0.4009302627161387
  0.5862144148364313  0.4171461574178928  0.4021984259956208
  0.5869668502283256  0.5416381564816630  0.4035690021188202
  0.5810334551264045  0.6595754232482730  0.4038648424592921
  0.5806120313444865  0.7860320380894686  0.4026629033598160
  0.5823380948141332  0.9139222023747966  0.4011635150494655
  0.7075269661477249  0.0399314004632304  0.4000655072405626
  0.7080103426898754  0.1656464661579547  0.3994938681983508
  0.7086534353230951  0.2911811105477679  0.3996780440493479
  0.7097680546661910  0.4164770858104294  0.4004309826589774
  0.7105701630193491  0.5415171966302594  0.4013619889860870
  0.7094852171081585  0.6660263243261336  0.4020351387167019
  0.7068840074997990  0.7889706936609308  0.4018677656380567
  0.7067726453822315  0.9139414820563998  0.4011035161717962
  0.8326344906170596  0.0403830641320098  0.4000399847548288
  0.8327570119317939  0.1656633183976335  0.3994127867838542
  0.8330284690841697  0.2909567192398343  0.3991795549043480
  0.8337323387126825  0.4164004269489434  0.3993273358007929
  0.8344449963616166  0.5418186173138538  0.3997707376352019
  0.8345238015603640  0.6669905239591838  0.4003311532374643
  0.8336955258271681  0.7915868574328745  0.4006316299236372
  0.8327989314190579  0.9156310101326587  0.4005590368810012
  0.9586472413596354  0.0419064331038274  0.4001654007033393
  0.9579612580894341  0.1662229081831826  0.3999657569999323
  0.9576574063041637  0.2911932470638222  0.3996315469165539
  0.9577819313603115  0.4163903099044138  0.3993809359626341
  0.9584347431915468  0.5417734226224429  0.3991991894435994
  0.9590077320853391  0.6672124755139633  0.3993260905163992
  0.9591017640636893  0.7925195693326126  0.3996800867252821
  0.9590071667215779  0.9174514671532455  0.4000524801980850
  0.4099761445179181  0.5788833946922599  0.4043951195531755
  0.5440880299403925  0.5788481479257070  0.4045641628626573
  0.3310938624179192  0.4212267752004368  0.4041576218591265
  0.4653297366782792  0.4212332813198401  0.4037799363673407
  0.4356968754028245  0.4959662063753849  0.4775159073448995
 
  0.00000000E+00  0.00000000E+00  0.00000000E+00
  0.00000000E+00  0.00000000E+00  0.00000000E+00
  0.00000000E+00  0.00000000E+00  0.00000000E+00
  0.00000000E+00  0.00000000E+00  0.00000000E+00
  0.00000000E+00  0.00000000E+00  0.00000000E+00
  0.00000000E+00  0.00000000E+00  0.00000000E+00
  0.00000000E+00  0.00000000E+00  0.00000000E+00
  0.00000000E+00  0.00000000E+00  0.00000000E+00
  0.00000000E+00  0.00000000E+00  0.00000000E+00
  0.00000000E+00  0.00000000E+00  0.00000000E+00
  0.00000000E+00  0.00000000E+00  0.00000000E+00
  0.00000000E+00  0.00000000E+00  0.00000000E+00
  0.00000000E+00  0.00000000E+00  0.00000000E+00
  0.00000000E+00  0.00000000E+00  0.00000000E+00
  0.00000000E+00  0.00000000E+00  0.00000000E+00
  0.00000000E+00  0.00000000E+00  0.00000000E+00
  0.00000000E+00  0.00000000E+00  0.00000000E+00
  0.00000000E+00  0.00000000E+00  0.00000000E+00
  0.00000000E+00  0.00000000E+00  0.00000000E+00
  0.00000000E+00  0.00000000E+00  0.00000000E+00
  0.00000000E+00  0.00000000E+00  0.00000000E+00
  0.00000000E+00  0.00000000E+00  0.00000000E+00
  0.00000000E+00  0.00000000E+00  0.00000000E+00
  0.00000000E+00  0.00000000E+00  0.00000000E+00
  0.00000000E+00  0.00000000E+00  0.00000000E+00
  0.00000000E+00  0.00000000E+00  0.00000000E+00
  0.00000000E+00  0.00000000E+00  0.00000000E+00
  0.00000000E+00  0.00000000E+00  0.00000000E+00
  0.00000000E+00  0.00000000E+00  0.00000000E+00
  0.00000000E+00  0.00000000E+00  0.00000000E+00
  0.00000000E+00  0.00000000E+00  0.00000000E+00
  0.00000000E+00  0.00000000E+00  0.00000000E+00
  0.00000000E+00  0.00000000E+00  0.00000000E+00
  0.00000000E+00  0.00000000E+00  0.00000000E+00
  0.00000000E+00  0.00000000E+00  0.00000000E+00
  0.00000000E+00  0.00000000E+00  0.00000000E+00
  0.00000000E+00  0.00000000E+00  0.00000000E+00
  0.00000000E+00  0.00000000E+00  0.00000000E+00
  0.00000000E+00  0.00000000E+00  0.00000000E+00
  0.00000000E+00  0.00000000E+00  0.00000000E+00
  0.00000000E+00  0.00000000E+00  0.00000000E+00
  0.00000000E+00  0.00000000E+00  0.00000000E+00
  0.00000000E+00  0.00000000E+00  0.00000000E+00
  0.00000000E+00  0.00000000E+00  0.00000000E+00
  0.00000000E+00  0.00000000E+00  0.00000000E+00
  0.00000000E+00  0.00000000E+00  0.00000000E+00
  0.00000000E+00  0.00000000E+00  0.00000000E+00
  0.00000000E+00  0.00000000E+00  0.00000000E+00
  0.00000000E+00  0.00000000E+00  0.00000000E+00
  0.00000000E+00  0.00000000E+00  0.00000000E+00
  0.00000000E+00  0.00000000E+00  0.00000000E+00
  0.00000000E+00  0.00000000E+00  0.00000000E+00
  0.00000000E+00  0.00000000E+00  0.00000000E+00
  0.00000000E+00  0.00000000E+00  0.00000000E+00
  0.00000000E+00  0.00000000E+00  0.00000000E+00
  0.00000000E+00  0.00000000E+00  0.00000000E+00
  0.00000000E+00  0.00000000E+00  0.00000000E+00
  0.00000000E+00  0.00000000E+00  0.00000000E+00
  0.00000000E+00  0.00000000E+00  0.00000000E+00
  0.00000000E+00  0.00000000E+00  0.00000000E+00
  0.00000000E+00  0.00000000E+00  0.00000000E+00
  0.00000000E+00  0.00000000E+00  0.00000000E+00
  0.00000000E+00  0.00000000E+00  0.00000000E+00
  0.00000000E+00  0.00000000E+00  0.00000000E+00
  0.00000000E+00  0.00000000E+00  0.00000000E+00
  0.00000000E+00  0.00000000E+00  0.00000000E+00
  0.00000000E+00  0.00000000E+00  0.00000000E+00
  0.00000000E+00  0.00000000E+00  0.00000000E+00
  0.00000000E+00  0.00000000E+00  0.00000000E+00
  0.00000000E+00  0.00000000E+00  0.00000000E+00
  0.00000000E+00  0.00000000E+00  0.00000000E+00
  0.00000000E+00  0.00000000E+00  0.00000000E+00
  0.00000000E+00  0.00000000E+00  0.00000000E+00
  0.00000000E+00  0.00000000E+00  0.00000000E+00
  0.00000000E+00  0.00000000E+00  0.00000000E+00
  0.00000000E+00  0.00000000E+00  0.00000000E+00
  0.00000000E+00  0.00000000E+00  0.00000000E+00
  0.00000000E+00  0.00000000E+00  0.00000000E+00
  0.00000000E+00  0.00000000E+00  0.00000000E+00
  0.00000000E+00  0.00000000E+00  0.00000000E+00
  0.00000000E+00  0.00000000E+00  0.00000000E+00
  0.00000000E+00  0.00000000E+00  0.00000000E+00
  0.00000000E+00  0.00000000E+00  0.00000000E+00
  0.00000000E+00  0.00000000E+00  0.00000000E+00
  0.00000000E+00  0.00000000E+00  0.00000000E+00
  0.00000000E+00  0.00000000E+00  0.00000000E+00
  0.00000000E+00  0.00000000E+00  0.00000000E+00
  0.00000000E+00  0.00000000E+00  0.00000000E+00
  0.00000000E+00  0.00000000E+00  0.00000000E+00
  0.00000000E+00  0.00000000E+00  0.00000000E+00
  0.00000000E+00  0.00000000E+00  0.00000000E+00
  0.00000000E+00  0.00000000E+00  0.00000000E+00
  0.00000000E+00  0.00000000E+00  0.00000000E+00
  0.00000000E+00  0.00000000E+00  0.00000000E+00
  0.00000000E+00  0.00000000E+00  0.00000000E+00
  0.00000000E+00  0.00000000E+00  0.00000000E+00
  0.00000000E+00  0.00000000E+00  0.00000000E+00
  0.00000000E+00  0.00000000E+00  0.00000000E+00
  0.00000000E+00  0.00000000E+00  0.00000000E+00
  0.00000000E+00  0.00000000E+00  0.00000000E+00
  0.00000000E+00  0.00000000E+00  0.00000000E+00
  0.00000000E+00  0.00000000E+00  0.00000000E+00
  0.00000000E+00  0.00000000E+00  0.00000000E+00
  0.00000000E+00  0.00000000E+00  0.00000000E+00
  0.00000000E+00  0.00000000E+00  0.00000000E+00
  0.00000000E+00  0.00000000E+00  0.00000000E+00
  0.00000000E+00  0.00000000E+00  0.00000000E+00
  0.00000000E+00  0.00000000E+00  0.00000000E+00
  0.00000000E+00  0.00000000E+00  0.00000000E+00
  0.00000000E+00  0.00000000E+00  0.00000000E+00
  0.00000000E+00  0.00000000E+00  0.00000000E+00
  0.00000000E+00  0.00000000E+00  0.00000000E+00
  0.00000000E+00  0.00000000E+00  0.00000000E+00
  0.00000000E+00  0.00000000E+00  0.00000000E+00
  0.00000000E+00  0.00000000E+00  0.00000000E+00
  0.00000000E+00  0.00000000E+00  0.00000000E+00
  0.00000000E+00  0.00000000E+00  0.00000000E+00
  0.00000000E+00  0.00000000E+00  0.00000000E+00
  0.00000000E+00  0.00000000E+00  0.00000000E+00
  0.00000000E+00  0.00000000E+00  0.00000000E+00
  0.00000000E+00  0.00000000E+00  0.00000000E+00
  0.00000000E+00  0.00000000E+00  0.00000000E+00
  0.00000000E+00  0.00000000E+00  0.00000000E+00
  0.00000000E+00  0.00000000E+00  0.00000000E+00
  0.00000000E+00  0.00000000E+00  0.00000000E+00
  0.00000000E+00  0.00000000E+00  0.00000000E+00
  0.00000000E+00  0.00000000E+00  0.00000000E+00
  0.00000000E+00  0.00000000E+00  0.00000000E+00
  0.00000000E+00  0.00000000E+00  0.00000000E+00
