Hf1 C124 N2 O1                          
   1.00000000000000     
    19.8173840525396372   -0.0108397215109161   -0.0300138239818685
    -9.9183699740977325   17.0641010159352824   -0.0992524875424906
    -0.0449199215733222   -0.1986646428087750   29.7667111622928360
   Hf   C    N    O 
     1   124     2     1
Direct
  0.4399189837784387  0.5016417625598286  0.4419961034653004
  0.0419468872974313  0.0839834867183008  0.3993100250377084
  0.0411183102839452  0.2082447031055367  0.3984797951732638
  0.0405493721456550  0.3329517469590843  0.3977776649933699
  0.0405648992448550  0.4584375123765243  0.3981939386518810
  0.0413366815569159  0.5839060721071028  0.3995102463656869
  0.0419745919507199  0.7092411669376727  0.4002129283377600
  0.0423325059825397  0.8345455892026074  0.4000716649065291
  0.0425081117126945  0.9596410334036973  0.3997273147008201
  0.1679976350375360  0.0856058372653747  0.3998970782178294
  0.1670055167823264  0.2096514285617081  0.3996118558033291
  0.1656069520855681  0.3339014674183577  0.3987290056927915
  0.1642150760339735  0.4585242118830799  0.3972332275806335
  0.1651085857341673  0.5838928526799955  0.3976414109850336
  0.1662260445935310  0.7093022923393094  0.3992122506062274
  0.1669918633279971  0.8346794152399388  0.3999640505101422
  0.1675218621040953  0.9600734599746110  0.3999099505710698
  0.2927281549929891  0.0853942847776740  0.3999410502933274
  0.2943121009365912  0.2124710947146689  0.4018595352546593
  0.2915781530472988  0.3366370987323942  0.4051808092885890
  0.2878843946953819  0.4586793596661677  0.4046143750673133
  0.2886610011651910  0.5845390929339027  0.3994606021560352
  0.2904430740361181  0.7093429055076546  0.3985940022278474
  0.2915167886411316  0.8343682567925276  0.3992525500886601
  0.2921001897015024  0.9596721823625132  0.3996611554088026
  0.4172328807611762  0.0838988930581511  0.3994507111984016
  0.4177957096481497  0.2092706026330289  0.4000675349807111
  0.4214887697176264  0.3369002104768762  0.4048478742879332
  0.4147327792130563  0.7076586751044202  0.4008713067605825
  0.4160171920256883  0.8331564033862676  0.3990498933182791
  0.4166407558536529  0.9585084389585480  0.3993883549312227
  0.5417512104805767  0.0825898119751660  0.3996261012677100
  0.5423169181924840  0.2077000226904928  0.3991941260469961
  0.5435455940427443  0.3326281006383342  0.3993217448662580
  0.5450093238659276  0.4559646559702756  0.4023531699555890
  0.5466601741266754  0.5819742855537438  0.4069256823298985
  0.5389957542273990  0.7040176817106539  0.4040027462276941
  0.5403974317902636  0.8312963490455315  0.4001784263926846
  0.5412565969164420  0.9571824537967860  0.3995975741815756
  0.6663551374899694  0.0821330127746357  0.4000714160562067
  0.6668930162439179  0.2074485632996395  0.3998832152621449
  0.6677149361622987  0.3326474250664082  0.3988602946804463
  0.6692842631581871  0.4580004281158390  0.3972202355486779
  0.6695558016782459  0.5828774089710870  0.3970121482810927
  0.6668464813866674  0.7070705815257766  0.3985791162918248
  0.6652309501008623  0.8308619610773005  0.3997454807173883
  0.6658867412448177  0.9566784309065547  0.3999159727929380
  0.7911066628599901  0.0821471368032134  0.3999447930074122
  0.7914272084516647  0.2074247704116339  0.4001436880427369
  0.7920668296026679  0.3328090720659290  0.4000223970561194
  0.7929011993891679  0.4581982640260535  0.3990526076403764
  0.7935159468687595  0.5835177295072492  0.3976148157579195
  0.7927737467394244  0.7084723188651494  0.3974997924855114
  0.7917468971091920  0.8328747400101008  0.3986178642964016
  0.7908624301057469  0.9569872059054665  0.3995440785133164
  0.9162175851487326  0.0827507960651838  0.3994310816410684
  0.9160336584271996  0.2076224927447974  0.3992249517078874
  0.9162431686459287  0.3328940912712199  0.3994588972683156
  0.9167389834043254  0.4582861947290032  0.3999844714099804
  0.9174485200329905  0.5837836478560243  0.3999035887220480
  0.9175610629053380  0.7091297059185102  0.3993451469471447
  0.9173325677735596  0.8339687949246358  0.3992298189602925
  0.9167950299143008  0.9583780227889893  0.3995196857218085
  0.0843504067329612  0.0432230129765637  0.3995883843768678
  0.0833979750964643  0.1672778216124317  0.3988736223825248
  0.0823421297167082  0.2916505752233852  0.3979244822521958
  0.0816005775236514  0.4165636727088838  0.3972984271545016
  0.0822359158707594  0.5419619996603576  0.3983093682631803
  0.0831462882912475  0.6674764054166354  0.3997643834108611
  0.0838159182013396  0.7928910524513325  0.4001684535433907
  0.0841600299476118  0.9181083126096730  0.3999553736426808
  0.2093481298452170  0.0435795806589319  0.3999310024201393
  0.2099404076516967  0.1693818733452289  0.4004839194769357
  0.2082285231224788  0.2931394517738628  0.4003324939285376
  0.2055886993678580  0.4172753104341805  0.3989405608229114
  0.2058281651967841  0.5420686519241453  0.3974782456188775
  0.2073846642595717  0.6675292501403380  0.3983466881520792
  0.2082892278663450  0.7928389847316784  0.3995509923391142
  0.2089125441675037  0.9181716784119922  0.3998761997325427
  0.3339198468323626  0.0430826194069260  0.3996437631828146
  0.3347237230897039  0.1689876610925835  0.4006152414440079
  0.3362507806060710  0.2964763953975707  0.4049521374716313
  0.3281108722774566  0.4182989962984306  0.4111206285168089
  0.3301763408799579  0.5445223216420502  0.4049005610709944
  0.3315501545257781  0.6675685841487056  0.3995206717365105
  0.3328191696808397  0.7925520794085026  0.3989178711956723
  0.3334672640584566  0.9176952225532548  0.3994217758502918
  0.4585929064038248  0.0417833255712118  0.3994895165859382
  0.4591059220162859  0.1670766567689337  0.3993518812789562
  0.4604020373506055  0.2926687910319635  0.4008247913824077
  0.4538139524290497  0.6637207178077238  0.4053529149805405
  0.4573765113516312  0.7910277244742787  0.3996592848059241
  0.4579974405021535  0.9163972858236700  0.3992949713480485
  0.5831635341744659  0.0406031598212168  0.3997967155969121
  0.5836579508589487  0.1658825078048271  0.3995461311888071
  0.5846743049829876  0.2908641966132149  0.3988630781174821
  0.5864916097204474  0.4156345786898902  0.3985799697769504
  0.5871927282625272  0.5416954907449506  0.4011836534137595
  0.5835254575189499  0.6637255546938048  0.4027451450513886
  0.5808920041319608  0.7878955571802634  0.4010787193820786
  0.5824801106737220  0.9148923446734575  0.3998045808266351
  0.7076965761839275  0.0401620982156165  0.4000358365536107
  0.7082237363416494  0.1655758521550352  0.4001892863628651
  0.7089342007563789  0.2909251033654287  0.3996695360378966
  0.7100023719411892  0.4162629365780783  0.3981919348748142
  0.7109243675929796  0.5415786581667286  0.3966494780409344
  0.7094817356405700  0.6662365554933569  0.3971884076308234
  0.7081001891695019  0.7905231175206391  0.3987328476050757
  0.7071704249612246  0.9146193888288774  0.3996721697405350
  0.8326769724064487  0.0405542939680787  0.3996952686828246
  0.8328496560171830  0.1657022563937129  0.3998764088052537
  0.8332653843212002  0.2910447565841092  0.4000765914872746
  0.8338388293153670  0.4163592675431923  0.3999326067882652
  0.8345513087998543  0.5417388714647162  0.3989386092581481
  0.8345291831701309  0.6671522402648741  0.3980335823081449
  0.8340014157946459  0.7918720245199877  0.3983851545732461
  0.8331944990860718  0.9161677548854599  0.3993011602236346
  0.9584126007384492  0.0418333616611988  0.3994760803772940
  0.9578290268595941  0.1662377960175655  0.3989915243575910
  0.9575903123186932  0.2910862260929717  0.3987567646343924
  0.9577548086906420  0.4164676995277972  0.3993375661839221
  0.9584736640330438  0.5420141692603998  0.4000202602428981
  0.9589428407715953  0.6673822792890305  0.4000051213094769
  0.9591375168462601  0.7925923752659140  0.3996408438751934
  0.9589869803840879  0.9174593876037299  0.3995403202373327
  0.4088871246012920  0.5842385736681216  0.4105779237984685
  0.4665230986384841  0.4168761601097911  0.4080683860626918
  0.4462072968587462  0.5038726949796348  0.5025563312862777
 
  0.00000000E+00  0.00000000E+00  0.00000000E+00
  0.00000000E+00  0.00000000E+00  0.00000000E+00
  0.00000000E+00  0.00000000E+00  0.00000000E+00
  0.00000000E+00  0.00000000E+00  0.00000000E+00
  0.00000000E+00  0.00000000E+00  0.00000000E+00
  0.00000000E+00  0.00000000E+00  0.00000000E+00
  0.00000000E+00  0.00000000E+00  0.00000000E+00
  0.00000000E+00  0.00000000E+00  0.00000000E+00
  0.00000000E+00  0.00000000E+00  0.00000000E+00
  0.00000000E+00  0.00000000E+00  0.00000000E+00
  0.00000000E+00  0.00000000E+00  0.00000000E+00
  0.00000000E+00  0.00000000E+00  0.00000000E+00
  0.00000000E+00  0.00000000E+00  0.00000000E+00
  0.00000000E+00  0.00000000E+00  0.00000000E+00
  0.00000000E+00  0.00000000E+00  0.00000000E+00
  0.00000000E+00  0.00000000E+00  0.00000000E+00
  0.00000000E+00  0.00000000E+00  0.00000000E+00
  0.00000000E+00  0.00000000E+00  0.00000000E+00
  0.00000000E+00  0.00000000E+00  0.00000000E+00
  0.00000000E+00  0.00000000E+00  0.00000000E+00
  0.00000000E+00  0.00000000E+00  0.00000000E+00
  0.00000000E+00  0.00000000E+00  0.00000000E+00
  0.00000000E+00  0.00000000E+00  0.00000000E+00
  0.00000000E+00  0.00000000E+00  0.00000000E+00
  0.00000000E+00  0.00000000E+00  0.00000000E+00
  0.00000000E+00  0.00000000E+00  0.00000000E+00
  0.00000000E+00  0.00000000E+00  0.00000000E+00
  0.00000000E+00  0.00000000E+00  0.00000000E+00
  0.00000000E+00  0.00000000E+00  0.00000000E+00
  0.00000000E+00  0.00000000E+00  0.00000000E+00
  0.00000000E+00  0.00000000E+00  0.00000000E+00
  0.00000000E+00  0.00000000E+00  0.00000000E+00
  0.00000000E+00  0.00000000E+00  0.00000000E+00
  0.00000000E+00  0.00000000E+00  0.00000000E+00
  0.00000000E+00  0.00000000E+00  0.00000000E+00
  0.00000000E+00  0.00000000E+00  0.00000000E+00
  0.00000000E+00  0.00000000E+00  0.00000000E+00
  0.00000000E+00  0.00000000E+00  0.00000000E+00
  0.00000000E+00  0.00000000E+00  0.00000000E+00
  0.00000000E+00  0.00000000E+00  0.00000000E+00
  0.00000000E+00  0.00000000E+00  0.00000000E+00
  0.00000000E+00  0.00000000E+00  0.00000000E+00
  0.00000000E+00  0.00000000E+00  0.00000000E+00
  0.00000000E+00  0.00000000E+00  0.00000000E+00
  0.00000000E+00  0.00000000E+00  0.00000000E+00
  0.00000000E+00  0.00000000E+00  0.00000000E+00
  0.00000000E+00  0.00000000E+00  0.00000000E+00
  0.00000000E+00  0.00000000E+00  0.00000000E+00
  0.00000000E+00  0.00000000E+00  0.00000000E+00
  0.00000000E+00  0.00000000E+00  0.00000000E+00
  0.00000000E+00  0.00000000E+00  0.00000000E+00
  0.00000000E+00  0.00000000E+00  0.00000000E+00
  0.00000000E+00  0.00000000E+00  0.00000000E+00
  0.00000000E+00  0.00000000E+00  0.00000000E+00
  0.00000000E+00  0.00000000E+00  0.00000000E+00
  0.00000000E+00  0.00000000E+00  0.00000000E+00
  0.00000000E+00  0.00000000E+00  0.00000000E+00
  0.00000000E+00  0.00000000E+00  0.00000000E+00
  0.00000000E+00  0.00000000E+00  0.00000000E+00
  0.00000000E+00  0.00000000E+00  0.00000000E+00
  0.00000000E+00  0.00000000E+00  0.00000000E+00
  0.00000000E+00  0.00000000E+00  0.00000000E+00
  0.00000000E+00  0.00000000E+00  0.00000000E+00
  0.00000000E+00  0.00000000E+00  0.00000000E+00
  0.00000000E+00  0.00000000E+00  0.00000000E+00
  0.00000000E+00  0.00000000E+00  0.00000000E+00
  0.00000000E+00  0.00000000E+00  0.00000000E+00
  0.00000000E+00  0.00000000E+00  0.00000000E+00
  0.00000000E+00  0.00000000E+00  0.00000000E+00
  0.00000000E+00  0.00000000E+00  0.00000000E+00
  0.00000000E+00  0.00000000E+00  0.00000000E+00
  0.00000000E+00  0.00000000E+00  0.00000000E+00
  0.00000000E+00  0.00000000E+00  0.00000000E+00
  0.00000000E+00  0.00000000E+00  0.00000000E+00
  0.00000000E+00  0.00000000E+00  0.00000000E+00
  0.00000000E+00  0.00000000E+00  0.00000000E+00
  0.00000000E+00  0.00000000E+00  0.00000000E+00
  0.00000000E+00  0.00000000E+00  0.00000000E+00
  0.00000000E+00  0.00000000E+00  0.00000000E+00
  0.00000000E+00  0.00000000E+00  0.00000000E+00
  0.00000000E+00  0.00000000E+00  0.00000000E+00
  0.00000000E+00  0.00000000E+00  0.00000000E+00
  0.00000000E+00  0.00000000E+00  0.00000000E+00
  0.00000000E+00  0.00000000E+00  0.00000000E+00
  0.00000000E+00  0.00000000E+00  0.00000000E+00
  0.00000000E+00  0.00000000E+00  0.00000000E+00
  0.00000000E+00  0.00000000E+00  0.00000000E+00
  0.00000000E+00  0.00000000E+00  0.00000000E+00
  0.00000000E+00  0.00000000E+00  0.00000000E+00
  0.00000000E+00  0.00000000E+00  0.00000000E+00
  0.00000000E+00  0.00000000E+00  0.00000000E+00
  0.00000000E+00  0.00000000E+00  0.00000000E+00
  0.00000000E+00  0.00000000E+00  0.00000000E+00
  0.00000000E+00  0.00000000E+00  0.00000000E+00
  0.00000000E+00  0.00000000E+00  0.00000000E+00
  0.00000000E+00  0.00000000E+00  0.00000000E+00
  0.00000000E+00  0.00000000E+00  0.00000000E+00
  0.00000000E+00  0.00000000E+00  0.00000000E+00
  0.00000000E+00  0.00000000E+00  0.00000000E+00
  0.00000000E+00  0.00000000E+00  0.00000000E+00
  0.00000000E+00  0.00000000E+00  0.00000000E+00
  0.00000000E+00  0.00000000E+00  0.00000000E+00
  0.00000000E+00  0.00000000E+00  0.00000000E+00
  0.00000000E+00  0.00000000E+00  0.00000000E+00
  0.00000000E+00  0.00000000E+00  0.00000000E+00
  0.00000000E+00  0.00000000E+00  0.00000000E+00
  0.00000000E+00  0.00000000E+00  0.00000000E+00
  0.00000000E+00  0.00000000E+00  0.00000000E+00
  0.00000000E+00  0.00000000E+00  0.00000000E+00
  0.00000000E+00  0.00000000E+00  0.00000000E+00
  0.00000000E+00  0.00000000E+00  0.00000000E+00
  0.00000000E+00  0.00000000E+00  0.00000000E+00
  0.00000000E+00  0.00000000E+00  0.00000000E+00
  0.00000000E+00  0.00000000E+00  0.00000000E+00
  0.00000000E+00  0.00000000E+00  0.00000000E+00
  0.00000000E+00  0.00000000E+00  0.00000000E+00
  0.00000000E+00  0.00000000E+00  0.00000000E+00
  0.00000000E+00  0.00000000E+00  0.00000000E+00
  0.00000000E+00  0.00000000E+00  0.00000000E+00
  0.00000000E+00  0.00000000E+00  0.00000000E+00
  0.00000000E+00  0.00000000E+00  0.00000000E+00
  0.00000000E+00  0.00000000E+00  0.00000000E+00
  0.00000000E+00  0.00000000E+00  0.00000000E+00
  0.00000000E+00  0.00000000E+00  0.00000000E+00
  0.00000000E+00  0.00000000E+00  0.00000000E+00
  0.00000000E+00  0.00000000E+00  0.00000000E+00
  0.00000000E+00  0.00000000E+00  0.00000000E+00
  0.00000000E+00  0.00000000E+00  0.00000000E+00
