Hf1 H1 C123 N3 O2                       
   1.00000000000000     
    19.8041847634567887    0.0069103945449729   -0.1665383727991729
    -9.8961476527454462   17.0405322867694373   -0.1607094993546012
    -0.2502485261760902   -0.4262455593445792   29.8190254751592079
   Hf   H    C    N    O 
     1     1   123     3     2
Direct
  0.4366338844329245  0.5034695662499655  0.4384557090258724
  0.5399102995590286  0.5583561501870132  0.5163240563147008
  0.0420466213545888  0.0840779273570647  0.3995769237552602
  0.0412529019191880  0.2083177178999928  0.3996500743414509
  0.0406579918077554  0.3331700122541801  0.3994398181805500
  0.0408188782669796  0.4583673012071351  0.3992727097441739
  0.0416573808570324  0.5838532080072659  0.3997451104500034
  0.0423997386574019  0.7092738753792307  0.4000774982159275
  0.0426333289542770  0.8344724841774160  0.3999731724046415
  0.0425631474902858  0.9595321328137412  0.3996313728578710
  0.1678254585780033  0.0852137673737371  0.3998877717065551
  0.1673091615624651  0.2098845502706886  0.4003825711565603
  0.1654193274932196  0.3337290629658661  0.4007210958313382
  0.1646981080760136  0.4585362936800758  0.3992471333697314
  0.1655573631753522  0.5837797739493786  0.3989159758415992
  0.1667032378884534  0.7090179759966798  0.3996242283570013
  0.1673554759533549  0.8344417103673296  0.4000055977676538
  0.1676188972666684  0.9599174134783912  0.3998066426506828
  0.2926936610453312  0.0855931011980709  0.3998732877878073
  0.2932347934922306  0.2121978772087829  0.4018354691621852
  0.2920029288070543  0.3370724713152542  0.4044219159554733
  0.2883297953660600  0.4581697896447406  0.4026685767244135
  0.2890669053089259  0.5830160576326019  0.3993372190322518
  0.2910237859740820  0.7083642061809234  0.3989349879344122
  0.2919552990357847  0.8339509835485631  0.3995377943103011
  0.2923670281603062  0.9595860953888985  0.3996880583024032
  0.4172638974108615  0.0842471252820603  0.3994475127997008
  0.4178386927505106  0.2102538410959915  0.3999515239549422
  0.4200184747188862  0.3378498679381303  0.4045824178477433
  0.4153884191462900  0.7066090063056424  0.3991903151980061
  0.4164635963045215  0.8325468847759020  0.3991756375810809
  0.4169793067321280  0.9584286839178887  0.3996013331908614
  0.5418435382775951  0.0829461114344192  0.3996083014938388
  0.5423161043332607  0.2086285986486100  0.3991227666216045
  0.5432948825774747  0.3342430162544038  0.3998634281393323
  0.5460787419503654  0.4594603821349919  0.4038718569134040
  0.5392941535339209  0.7029406327120545  0.4020430280603626
  0.5410538238641651  0.8308659058308699  0.3996778911005846
  0.5415084675470513  0.9571236269379421  0.3996831367052583
  0.6664784363399046  0.0824070335512799  0.4000108904049612
  0.6668122378844867  0.2078242853420716  0.3995380130646057
  0.6675811272809254  0.3332043918807553  0.3988474228622944
  0.6693613189255567  0.4587422090953969  0.3988877980465875
  0.6702982747521145  0.5841495729434709  0.4002723040157979
  0.6671680751661826  0.7070652973504169  0.4003094977111768
  0.6653412075640390  0.8310108647291580  0.3999059270213530
  0.6660479044320440  0.9568214479493440  0.3998707457562292
  0.7911796562079525  0.0823578348355199  0.3999973818328232
  0.7914469002635505  0.2076961723663727  0.4000681561448238
  0.7919443285556126  0.3330170151900103  0.3995724456204178
  0.7929279028688428  0.4584382925801750  0.3989660783378099
  0.7936924593403989  0.5838691774799279  0.3987914618995901
  0.7933658847826711  0.7089861409552224  0.3991968536027465
  0.7916255287065588  0.8328075923855149  0.3992808274476978
  0.7909511964706073  0.9571576572840528  0.3996032502171465
  0.9162903930071813  0.0828827715994042  0.3996393792710261
  0.9161212087410191  0.2077637402073446  0.3997905065620161
  0.9162711949424569  0.3329912252435467  0.3997587835518002
  0.9169129242282170  0.4584580446600456  0.3997286650443430
  0.9176772629167441  0.5839134485322814  0.3996142512796940
  0.9178727255821302  0.7091168842892904  0.3995393355883176
  0.9176088985978536  0.8341305602305041  0.3994813288327161
  0.9168672148504223  0.9584641426471776  0.3995163194684404
  0.0843344543006173  0.0430832314232703  0.3996019677793878
  0.0836772965709967  0.1675904967212512  0.3997174772258477
  0.0825847846616172  0.2917854185104481  0.3997952185192541
  0.0818483211615849  0.4164285549581790  0.3991305568686654
  0.0826250339129924  0.5419095717159769  0.3992841704094700
  0.0835977526620406  0.6673706257950724  0.3998948184220538
  0.0840966941608747  0.7927209771581201  0.4001173413041338
  0.0843053449500735  0.9180070157702290  0.3998165802636737
  0.2092974586143601  0.0434716698432521  0.3998384001007617
  0.2096380136477335  0.1690252434060594  0.4006529855577292
  0.2086013739863996  0.2934698516222630  0.4014223427618906
  0.2060245536639106  0.4170926050565958  0.4006505649443854
  0.2062735184450354  0.5416368481048155  0.3989371641574435
  0.2077063235931664  0.6670391702408457  0.3991005610477977
  0.2086998392780716  0.7925579173025374  0.3997731752368238
  0.2091018986811158  0.9179982840829400  0.3998564704112649
  0.3340460030355494  0.0432763895742035  0.3995987551691265
  0.3344017308150664  0.1693885374628168  0.4005485990924058
  0.3352251129573135  0.2965060760125177  0.4043853065574624
  0.3302363405906191  0.5418599641600187  0.4010938877055023
  0.3318958086460250  0.6662963954877515  0.3989687030930864
  0.3332440602412975  0.7918118353791854  0.3991751502985876
  0.3337010463169665  0.9174177994604833  0.3996245719497086
  0.4586257962288344  0.0419415439784818  0.3995657150631825
  0.4589816158439608  0.1677929553759789  0.3993230694636157
  0.4599541009133190  0.2938553533689580  0.4007821666886484
  0.4644249060936120  0.4202630649528200  0.4085180127374743
  0.4549953368017889  0.6625882503784742  0.4012570370491458
  0.4577251882269783  0.7900928904907971  0.3991352704422267
  0.4582828200172200  0.9161531818038450  0.3995078746067879
  0.5831892590337979  0.0407903573189804  0.3998220979005762
  0.5836132472076034  0.1664823627688481  0.3993542990835121
  0.5843392157044421  0.2919295436249582  0.3990171407898951
  0.5866590414257463  0.4176175315007415  0.4002732587659785
  0.5888672292907312  0.5436569185206721  0.4036136320600399
  0.5836783176282854  0.6628059235412425  0.4031452217008514
  0.5816299882096607  0.7877891081692691  0.4004367741192008
  0.5828365645527720  0.9148116521511430  0.3997081138003759
  0.7078716416777784  0.0404933564602151  0.4000206412308754
  0.7082290194921720  0.1659600363427438  0.3999645078773801
  0.7087514296258197  0.2913292925081854  0.3992665505734986
  0.7100230762665616  0.4166424209095967  0.3986104843521009
  0.7110845046058629  0.5419186468060020  0.3989601753876710
  0.7105466055901745  0.6672241266983590  0.3998523573012769
  0.7080577955138690  0.7905018031423102  0.3995298025602614
  0.7073592098607150  0.9148770604900678  0.3997339147214173
  0.8328502566635285  0.0408060973377471  0.3997483524107247
  0.8329633612751004  0.1659609684044137  0.4000462863056474
  0.8331814895647021  0.2911394334275279  0.3998942706183687
  0.8339220472402088  0.4164857797255850  0.3994881700266191
  0.8347797273416611  0.5419932688004427  0.3990493589422165
  0.8349777205190954  0.6673271353716391  0.3991062591055609
  0.8343284902910627  0.7922173726813574  0.3992669205086564
  0.8333092890904132  0.9163100792735918  0.3994533204700329
  0.9585638820405611  0.0419253810919371  0.3995660062774701
  0.9579548051537502  0.1663314218518621  0.3996205312842835
  0.9576908111132869  0.2912741965874696  0.3996293893800752
  0.9579401967115621  0.4165097594174345  0.3996473078360170
  0.9586956673314042  0.5419357331308848  0.3998004869644206
  0.9593267324380013  0.6673863989238012  0.3998056194451842
  0.9593996289867192  0.7926643925671633  0.3997160780235761
  0.9591637445163493  0.9175547095767069  0.3995423947064011
  0.4115395633386689  0.5820459854616074  0.4037168236597324
  0.5477251574925489  0.5828458313007243  0.4073224130356884
  0.3294388085978807  0.4185485750979129  0.4078127009574971
  0.5033568890076463  0.5072706560709034  0.5021502212885163
  0.4262522945434333  0.5042289710175965  0.5067706572289113
 
  0.00000000E+00  0.00000000E+00  0.00000000E+00
  0.00000000E+00  0.00000000E+00  0.00000000E+00
  0.00000000E+00  0.00000000E+00  0.00000000E+00
  0.00000000E+00  0.00000000E+00  0.00000000E+00
  0.00000000E+00  0.00000000E+00  0.00000000E+00
  0.00000000E+00  0.00000000E+00  0.00000000E+00
  0.00000000E+00  0.00000000E+00  0.00000000E+00
  0.00000000E+00  0.00000000E+00  0.00000000E+00
  0.00000000E+00  0.00000000E+00  0.00000000E+00
  0.00000000E+00  0.00000000E+00  0.00000000E+00
  0.00000000E+00  0.00000000E+00  0.00000000E+00
  0.00000000E+00  0.00000000E+00  0.00000000E+00
  0.00000000E+00  0.00000000E+00  0.00000000E+00
  0.00000000E+00  0.00000000E+00  0.00000000E+00
  0.00000000E+00  0.00000000E+00  0.00000000E+00
  0.00000000E+00  0.00000000E+00  0.00000000E+00
  0.00000000E+00  0.00000000E+00  0.00000000E+00
  0.00000000E+00  0.00000000E+00  0.00000000E+00
  0.00000000E+00  0.00000000E+00  0.00000000E+00
  0.00000000E+00  0.00000000E+00  0.00000000E+00
  0.00000000E+00  0.00000000E+00  0.00000000E+00
  0.00000000E+00  0.00000000E+00  0.00000000E+00
  0.00000000E+00  0.00000000E+00  0.00000000E+00
  0.00000000E+00  0.00000000E+00  0.00000000E+00
  0.00000000E+00  0.00000000E+00  0.00000000E+00
  0.00000000E+00  0.00000000E+00  0.00000000E+00
  0.00000000E+00  0.00000000E+00  0.00000000E+00
  0.00000000E+00  0.00000000E+00  0.00000000E+00
  0.00000000E+00  0.00000000E+00  0.00000000E+00
  0.00000000E+00  0.00000000E+00  0.00000000E+00
  0.00000000E+00  0.00000000E+00  0.00000000E+00
  0.00000000E+00  0.00000000E+00  0.00000000E+00
  0.00000000E+00  0.00000000E+00  0.00000000E+00
  0.00000000E+00  0.00000000E+00  0.00000000E+00
  0.00000000E+00  0.00000000E+00  0.00000000E+00
  0.00000000E+00  0.00000000E+00  0.00000000E+00
  0.00000000E+00  0.00000000E+00  0.00000000E+00
  0.00000000E+00  0.00000000E+00  0.00000000E+00
  0.00000000E+00  0.00000000E+00  0.00000000E+00
  0.00000000E+00  0.00000000E+00  0.00000000E+00
  0.00000000E+00  0.00000000E+00  0.00000000E+00
  0.00000000E+00  0.00000000E+00  0.00000000E+00
  0.00000000E+00  0.00000000E+00  0.00000000E+00
  0.00000000E+00  0.00000000E+00  0.00000000E+00
  0.00000000E+00  0.00000000E+00  0.00000000E+00
  0.00000000E+00  0.00000000E+00  0.00000000E+00
  0.00000000E+00  0.00000000E+00  0.00000000E+00
  0.00000000E+00  0.00000000E+00  0.00000000E+00
  0.00000000E+00  0.00000000E+00  0.00000000E+00
  0.00000000E+00  0.00000000E+00  0.00000000E+00
  0.00000000E+00  0.00000000E+00  0.00000000E+00
  0.00000000E+00  0.00000000E+00  0.00000000E+00
  0.00000000E+00  0.00000000E+00  0.00000000E+00
  0.00000000E+00  0.00000000E+00  0.00000000E+00
  0.00000000E+00  0.00000000E+00  0.00000000E+00
  0.00000000E+00  0.00000000E+00  0.00000000E+00
  0.00000000E+00  0.00000000E+00  0.00000000E+00
  0.00000000E+00  0.00000000E+00  0.00000000E+00
  0.00000000E+00  0.00000000E+00  0.00000000E+00
  0.00000000E+00  0.00000000E+00  0.00000000E+00
  0.00000000E+00  0.00000000E+00  0.00000000E+00
  0.00000000E+00  0.00000000E+00  0.00000000E+00
  0.00000000E+00  0.00000000E+00  0.00000000E+00
  0.00000000E+00  0.00000000E+00  0.00000000E+00
  0.00000000E+00  0.00000000E+00  0.00000000E+00
  0.00000000E+00  0.00000000E+00  0.00000000E+00
  0.00000000E+00  0.00000000E+00  0.00000000E+00
  0.00000000E+00  0.00000000E+00  0.00000000E+00
  0.00000000E+00  0.00000000E+00  0.00000000E+00
  0.00000000E+00  0.00000000E+00  0.00000000E+00
  0.00000000E+00  0.00000000E+00  0.00000000E+00
  0.00000000E+00  0.00000000E+00  0.00000000E+00
  0.00000000E+00  0.00000000E+00  0.00000000E+00
  0.00000000E+00  0.00000000E+00  0.00000000E+00
  0.00000000E+00  0.00000000E+00  0.00000000E+00
  0.00000000E+00  0.00000000E+00  0.00000000E+00
  0.00000000E+00  0.00000000E+00  0.00000000E+00
  0.00000000E+00  0.00000000E+00  0.00000000E+00
  0.00000000E+00  0.00000000E+00  0.00000000E+00
  0.00000000E+00  0.00000000E+00  0.00000000E+00
  0.00000000E+00  0.00000000E+00  0.00000000E+00
  0.00000000E+00  0.00000000E+00  0.00000000E+00
  0.00000000E+00  0.00000000E+00  0.00000000E+00
  0.00000000E+00  0.00000000E+00  0.00000000E+00
  0.00000000E+00  0.00000000E+00  0.00000000E+00
  0.00000000E+00  0.00000000E+00  0.00000000E+00
  0.00000000E+00  0.00000000E+00  0.00000000E+00
  0.00000000E+00  0.00000000E+00  0.00000000E+00
  0.00000000E+00  0.00000000E+00  0.00000000E+00
  0.00000000E+00  0.00000000E+00  0.00000000E+00
  0.00000000E+00  0.00000000E+00  0.00000000E+00
  0.00000000E+00  0.00000000E+00  0.00000000E+00
  0.00000000E+00  0.00000000E+00  0.00000000E+00
  0.00000000E+00  0.00000000E+00  0.00000000E+00
  0.00000000E+00  0.00000000E+00  0.00000000E+00
  0.00000000E+00  0.00000000E+00  0.00000000E+00
  0.00000000E+00  0.00000000E+00  0.00000000E+00
  0.00000000E+00  0.00000000E+00  0.00000000E+00
  0.00000000E+00  0.00000000E+00  0.00000000E+00
  0.00000000E+00  0.00000000E+00  0.00000000E+00
  0.00000000E+00  0.00000000E+00  0.00000000E+00
  0.00000000E+00  0.00000000E+00  0.00000000E+00
  0.00000000E+00  0.00000000E+00  0.00000000E+00
  0.00000000E+00  0.00000000E+00  0.00000000E+00
  0.00000000E+00  0.00000000E+00  0.00000000E+00
  0.00000000E+00  0.00000000E+00  0.00000000E+00
  0.00000000E+00  0.00000000E+00  0.00000000E+00
  0.00000000E+00  0.00000000E+00  0.00000000E+00
  0.00000000E+00  0.00000000E+00  0.00000000E+00
  0.00000000E+00  0.00000000E+00  0.00000000E+00
  0.00000000E+00  0.00000000E+00  0.00000000E+00
  0.00000000E+00  0.00000000E+00  0.00000000E+00
  0.00000000E+00  0.00000000E+00  0.00000000E+00
  0.00000000E+00  0.00000000E+00  0.00000000E+00
  0.00000000E+00  0.00000000E+00  0.00000000E+00
  0.00000000E+00  0.00000000E+00  0.00000000E+00
  0.00000000E+00  0.00000000E+00  0.00000000E+00
  0.00000000E+00  0.00000000E+00  0.00000000E+00
  0.00000000E+00  0.00000000E+00  0.00000000E+00
  0.00000000E+00  0.00000000E+00  0.00000000E+00
  0.00000000E+00  0.00000000E+00  0.00000000E+00
  0.00000000E+00  0.00000000E+00  0.00000000E+00
  0.00000000E+00  0.00000000E+00  0.00000000E+00
  0.00000000E+00  0.00000000E+00  0.00000000E+00
  0.00000000E+00  0.00000000E+00  0.00000000E+00
  0.00000000E+00  0.00000000E+00  0.00000000E+00
  0.00000000E+00  0.00000000E+00  0.00000000E+00
  0.00000000E+00  0.00000000E+00  0.00000000E+00
  0.00000000E+00  0.00000000E+00  0.00000000E+00
  0.00000000E+00  0.00000000E+00  0.00000000E+00
