Ru1 C122 N4 O1                          
   1.00000000000000     
    19.8246331266445210    0.0000931833917014   -0.0200260239124138
    -9.9122429758362269   17.0193061161966952   -0.0236920970616518
    -0.0300863126276130   -0.0589728530822929   29.8233202525129535
   Ru   C    N    O 
     1   122     4     1
Direct
  0.4377888595652886  0.5003304838828257  0.4227113747515671
  0.0421550013863188  0.0843290454869966  0.3997345806119565
  0.0408984254458803  0.2081644171654399  0.3997344172400456
  0.0399471276337836  0.3328637471354317  0.3992289744852874
  0.0400292665569296  0.4582085745632767  0.3987259392190948
  0.0411805214932462  0.5838842953405708  0.3989270710667073
  0.0422580309599570  0.7094720019595950  0.3993893421589028
  0.0425913472757552  0.8347430353564901  0.3995611874597957
  0.0427496558408649  0.9599343691515541  0.3995364746561343
  0.1684002856360696  0.0862375467610268  0.4006317765134707
  0.1677136924560537  0.2107090550420405  0.4015049182708806
  0.1646467003956795  0.3337242618838404  0.4014072976973481
  0.1633392318164771  0.4585174261775505  0.3999149761301476
  0.1646039107386904  0.5838435828210479  0.3990319521298731
  0.1662881043277446  0.7092198499422535  0.3991520574734668
  0.1671946273446185  0.8347474618376847  0.3995525977811292
  0.1677479680848321  0.9604131706430962  0.3998051237019348
  0.2929107968372490  0.0862252308897898  0.4006228637646908
  0.2944508837793633  0.2138201531035488  0.4032677234212016
  0.2924879196413294  0.3390531601995257  0.4057575326414548
  0.2859405200968108  0.4585854372475968  0.4048447542407286
  0.2875384668548798  0.5831885658509284  0.4015482054191739
  0.2904108181635122  0.7084853726142681  0.3999080083099807
  0.2916371818266585  0.8340911574164109  0.3993656868899533
  0.2922746778750985  0.9599269406510907  0.3995397113903442
  0.4172566626811476  0.0843273615837653  0.3997708505210443
  0.4180573170672673  0.2107071716734041  0.4015313208072642
  0.4216281219164446  0.3390616250295476  0.4056582997061713
  0.4144418405616059  0.7056167525885980  0.4023413479826202
  0.4159761627317847  0.8321228339045937  0.4002079797113348
  0.4166762667421536  0.9582353740027115  0.3994134927598186
  0.5415919870477426  0.0824273405853669  0.3993973246191871
  0.5423290070203739  0.2081645130925498  0.3997877735716784
  0.5441025827164062  0.3337054302338657  0.4013062667192800
  0.5476679046743085  0.4585817046080779  0.4045530089403176
  0.5380540445044949  0.7010559666595598  0.4054455375356299
  0.5402482904371557  0.8297221869827003  0.4018009816566946
  0.5410529725756300  0.9563590491658640  0.3999439930099790
  0.6660223670383093  0.0816121418534076  0.3996663663968299
  0.6667061689040529  0.2072436704699883  0.3993564442668735
  0.6679490119174105  0.3328753950269028  0.3992595842693353
  0.6701813231169549  0.4585180198152190  0.3998305549689024
  0.6706781306819027  0.5832156947701569  0.4013702836337142
  0.6662055326465719  0.7056189199413774  0.4022987596217731
  0.6645480768891892  0.8297305008902796  0.4017962866295021
  0.6654693797554355  0.9558525036132292  0.4003866974042692
  0.7906763139559941  0.0816000087775348  0.3996784909339787
  0.7910634402658694  0.2070564932614435  0.3996074903151630
  0.7918320586777620  0.3325795606981232  0.3991634148053794
  0.7931642356089652  0.4582070385113536  0.3988039598078378
  0.7942276119121170  0.5838354113576717  0.3990665368792885
  0.7931063888782449  0.7084902482524010  0.3999114884229574
  0.7912065722604271  0.8321189536544765  0.4002501338294647
  0.7903798538176076  0.9563597417489784  0.3999455901244234
  0.9159290135162731  0.0824325553653600  0.3993837071123699
  0.9155914512751638  0.2072392339604948  0.3993438957997936
  0.9158003496886392  0.3325850167119682  0.3991313152860055
  0.9166175070430073  0.4582422783301976  0.3989481229473227
  0.9176854857911578  0.5838863362271497  0.3989688880239277
  0.9179518385911535  0.7092106170139298  0.3991962208369965
  0.9175097970335793  0.8340928606947376  0.3993957087698520
  0.9166508609170096  0.9582323720193866  0.3994356661071654
  0.0847407797809662  0.0437264712319069  0.3998871125853687
  0.0839045179785701  0.1679595863537527  0.4002139190449593
  0.0819827456150232  0.2915969497373064  0.3999528763165371
  0.0808031692418709  0.4162264747466449  0.3990327934587777
  0.0818470596283697  0.5418540818388377  0.3987416901965530
  0.0832330810421175  0.6674810123057311  0.3991504594802316
  0.0840296284998311  0.7930157635130134  0.3996018521529804
  0.0844434306308753  0.9184641272622901  0.3996312975003729
  0.2096550108375443  0.0442261330721880  0.4003445706099826
  0.2105901997277780  0.1703872917922515  0.4018879683241395
  0.2089011427462467  0.2945052107109447  0.4025756680205570
  0.2044088020873699  0.4169162391298023  0.4016813962247909
  0.2048571701726841  0.5415678979945311  0.3998869769449345
  0.2071048085532882  0.6672052345218535  0.3992334650697161
  0.2083738342525197  0.7928281622499899  0.3993417676991453
  0.2091049121669090  0.9184666264271963  0.3996342508950481
  0.3340536086921921  0.0437115476306905  0.3998949939397914
  0.3348675709435084  0.1703710645302590  0.4018935738019224
  0.3370895715611885  0.2991039525542346  0.4057786651657829
  0.3274262978348963  0.5415670509393580  0.4047246953608283
  0.3309632447308869  0.6663760135316470  0.4012406916797717
  0.3327591409817468  0.7919144567600471  0.3997372350868514
  0.3335284410669926  0.9176435909612399  0.3993716602828217
  0.4584524979031784  0.0418412045500092  0.3994220500771727
  0.4591288809619620  0.1679676007939533  0.4002653511578581
  0.4606467932728745  0.2944997183532552  0.4025172663769342
  0.4535080203680747  0.6611098522680786  0.4054206136683307
  0.4570502223059517  0.7893990425623295  0.4013922750887119
  0.4578605354875563  0.9157487743012159  0.3997760109937474
  0.5828547156024760  0.0401443701210619  0.3995785170420764
  0.5834557321429702  0.1659791994219982  0.3993828971240007
  0.5846554267291076  0.2915905821318842  0.3999562680856053
  0.5875107687780994  0.4168934404554589  0.4014831139472971
  0.5891655689882225  0.5415742264314221  0.4044379602963651
  0.5826405659831424  0.6611039804014658  0.4053338694272176
  0.5806872863740103  0.7863042526794638  0.4030776356022773
  0.5822047754927895  0.9138566118323804  0.4006585816319788
  0.7073736538895001  0.0396581891623557  0.3998568160792281
  0.7078978244545641  0.1653330462347734  0.3995632277398609
  0.7087776804876876  0.2908531789189907  0.3991798740102785
  0.7104201530634719  0.4162345162886328  0.3990660758281855
  0.7117140371350776  0.5415715205185921  0.3998076518031723
  0.7104453754520471  0.6663949454314989  0.4011647736191378
  0.7074003205773807  0.7893937787414536  0.4014105427375011
  0.7067286554305969  0.9138585614595590  0.4006408559998819
  0.8323881821069208  0.0401459340654035  0.3995891842734137
  0.8324940637597039  0.1653201781368479  0.3995775205581986
  0.8328345953034875  0.2905992548913393  0.3993726248369260
  0.8338327145532388  0.4161758683719680  0.3989478548572948
  0.8349867951534524  0.5418464503227686  0.3988165348084696
  0.8351078630462375  0.6671940652919212  0.3992626716359758
  0.8342024711569632  0.7919136135235020  0.3997773406681756
  0.8329712035664469  0.9157492331532150  0.3998084735970006
  0.9584803386743478  0.0418382630578818  0.3994062256397949
  0.9575954359382707  0.1659843817753910  0.3993524740682378
  0.9571162177118053  0.2908482890711069  0.3991371478013909
  0.9573368853454716  0.4161817684130018  0.3989056139620820
  0.9584071649102981  0.5418229241828633  0.3989556185812572
  0.9592777065730376  0.6674841431982624  0.3991852031469914
  0.9594877411554508  0.7928206598489786  0.3993714697085299
  0.9592026835335544  0.9176441826245906  0.3993911327278573
  0.4081634651558670  0.5798811785584536  0.4085825285803530
  0.5467671267864069  0.5798703239327853  0.4083620162917902
  0.3284119481877741  0.4203533399587281  0.4088906831923889
  0.4670096142201932  0.4203690430811101  0.4086489150658221
  0.4389461706145359  0.5016551454840865  0.4808376256599079
 
  0.00000000E+00  0.00000000E+00  0.00000000E+00
  0.00000000E+00  0.00000000E+00  0.00000000E+00
  0.00000000E+00  0.00000000E+00  0.00000000E+00
  0.00000000E+00  0.00000000E+00  0.00000000E+00
  0.00000000E+00  0.00000000E+00  0.00000000E+00
  0.00000000E+00  0.00000000E+00  0.00000000E+00
  0.00000000E+00  0.00000000E+00  0.00000000E+00
  0.00000000E+00  0.00000000E+00  0.00000000E+00
  0.00000000E+00  0.00000000E+00  0.00000000E+00
  0.00000000E+00  0.00000000E+00  0.00000000E+00
  0.00000000E+00  0.00000000E+00  0.00000000E+00
  0.00000000E+00  0.00000000E+00  0.00000000E+00
  0.00000000E+00  0.00000000E+00  0.00000000E+00
  0.00000000E+00  0.00000000E+00  0.00000000E+00
  0.00000000E+00  0.00000000E+00  0.00000000E+00
  0.00000000E+00  0.00000000E+00  0.00000000E+00
  0.00000000E+00  0.00000000E+00  0.00000000E+00
  0.00000000E+00  0.00000000E+00  0.00000000E+00
  0.00000000E+00  0.00000000E+00  0.00000000E+00
  0.00000000E+00  0.00000000E+00  0.00000000E+00
  0.00000000E+00  0.00000000E+00  0.00000000E+00
  0.00000000E+00  0.00000000E+00  0.00000000E+00
  0.00000000E+00  0.00000000E+00  0.00000000E+00
  0.00000000E+00  0.00000000E+00  0.00000000E+00
  0.00000000E+00  0.00000000E+00  0.00000000E+00
  0.00000000E+00  0.00000000E+00  0.00000000E+00
  0.00000000E+00  0.00000000E+00  0.00000000E+00
  0.00000000E+00  0.00000000E+00  0.00000000E+00
  0.00000000E+00  0.00000000E+00  0.00000000E+00
  0.00000000E+00  0.00000000E+00  0.00000000E+00
  0.00000000E+00  0.00000000E+00  0.00000000E+00
  0.00000000E+00  0.00000000E+00  0.00000000E+00
  0.00000000E+00  0.00000000E+00  0.00000000E+00
  0.00000000E+00  0.00000000E+00  0.00000000E+00
  0.00000000E+00  0.00000000E+00  0.00000000E+00
  0.00000000E+00  0.00000000E+00  0.00000000E+00
  0.00000000E+00  0.00000000E+00  0.00000000E+00
  0.00000000E+00  0.00000000E+00  0.00000000E+00
  0.00000000E+00  0.00000000E+00  0.00000000E+00
  0.00000000E+00  0.00000000E+00  0.00000000E+00
  0.00000000E+00  0.00000000E+00  0.00000000E+00
  0.00000000E+00  0.00000000E+00  0.00000000E+00
  0.00000000E+00  0.00000000E+00  0.00000000E+00
  0.00000000E+00  0.00000000E+00  0.00000000E+00
  0.00000000E+00  0.00000000E+00  0.00000000E+00
  0.00000000E+00  0.00000000E+00  0.00000000E+00
  0.00000000E+00  0.00000000E+00  0.00000000E+00
  0.00000000E+00  0.00000000E+00  0.00000000E+00
  0.00000000E+00  0.00000000E+00  0.00000000E+00
  0.00000000E+00  0.00000000E+00  0.00000000E+00
  0.00000000E+00  0.00000000E+00  0.00000000E+00
  0.00000000E+00  0.00000000E+00  0.00000000E+00
  0.00000000E+00  0.00000000E+00  0.00000000E+00
  0.00000000E+00  0.00000000E+00  0.00000000E+00
  0.00000000E+00  0.00000000E+00  0.00000000E+00
  0.00000000E+00  0.00000000E+00  0.00000000E+00
  0.00000000E+00  0.00000000E+00  0.00000000E+00
  0.00000000E+00  0.00000000E+00  0.00000000E+00
  0.00000000E+00  0.00000000E+00  0.00000000E+00
  0.00000000E+00  0.00000000E+00  0.00000000E+00
  0.00000000E+00  0.00000000E+00  0.00000000E+00
  0.00000000E+00  0.00000000E+00  0.00000000E+00
  0.00000000E+00  0.00000000E+00  0.00000000E+00
  0.00000000E+00  0.00000000E+00  0.00000000E+00
  0.00000000E+00  0.00000000E+00  0.00000000E+00
  0.00000000E+00  0.00000000E+00  0.00000000E+00
  0.00000000E+00  0.00000000E+00  0.00000000E+00
  0.00000000E+00  0.00000000E+00  0.00000000E+00
  0.00000000E+00  0.00000000E+00  0.00000000E+00
  0.00000000E+00  0.00000000E+00  0.00000000E+00
  0.00000000E+00  0.00000000E+00  0.00000000E+00
  0.00000000E+00  0.00000000E+00  0.00000000E+00
  0.00000000E+00  0.00000000E+00  0.00000000E+00
  0.00000000E+00  0.00000000E+00  0.00000000E+00
  0.00000000E+00  0.00000000E+00  0.00000000E+00
  0.00000000E+00  0.00000000E+00  0.00000000E+00
  0.00000000E+00  0.00000000E+00  0.00000000E+00
  0.00000000E+00  0.00000000E+00  0.00000000E+00
  0.00000000E+00  0.00000000E+00  0.00000000E+00
  0.00000000E+00  0.00000000E+00  0.00000000E+00
  0.00000000E+00  0.00000000E+00  0.00000000E+00
  0.00000000E+00  0.00000000E+00  0.00000000E+00
  0.00000000E+00  0.00000000E+00  0.00000000E+00
  0.00000000E+00  0.00000000E+00  0.00000000E+00
  0.00000000E+00  0.00000000E+00  0.00000000E+00
  0.00000000E+00  0.00000000E+00  0.00000000E+00
  0.00000000E+00  0.00000000E+00  0.00000000E+00
  0.00000000E+00  0.00000000E+00  0.00000000E+00
  0.00000000E+00  0.00000000E+00  0.00000000E+00
  0.00000000E+00  0.00000000E+00  0.00000000E+00
  0.00000000E+00  0.00000000E+00  0.00000000E+00
  0.00000000E+00  0.00000000E+00  0.00000000E+00
  0.00000000E+00  0.00000000E+00  0.00000000E+00
  0.00000000E+00  0.00000000E+00  0.00000000E+00
  0.00000000E+00  0.00000000E+00  0.00000000E+00
  0.00000000E+00  0.00000000E+00  0.00000000E+00
  0.00000000E+00  0.00000000E+00  0.00000000E+00
  0.00000000E+00  0.00000000E+00  0.00000000E+00
  0.00000000E+00  0.00000000E+00  0.00000000E+00
  0.00000000E+00  0.00000000E+00  0.00000000E+00
  0.00000000E+00  0.00000000E+00  0.00000000E+00
  0.00000000E+00  0.00000000E+00  0.00000000E+00
  0.00000000E+00  0.00000000E+00  0.00000000E+00
  0.00000000E+00  0.00000000E+00  0.00000000E+00
  0.00000000E+00  0.00000000E+00  0.00000000E+00
  0.00000000E+00  0.00000000E+00  0.00000000E+00
  0.00000000E+00  0.00000000E+00  0.00000000E+00
  0.00000000E+00  0.00000000E+00  0.00000000E+00
  0.00000000E+00  0.00000000E+00  0.00000000E+00
  0.00000000E+00  0.00000000E+00  0.00000000E+00
  0.00000000E+00  0.00000000E+00  0.00000000E+00
  0.00000000E+00  0.00000000E+00  0.00000000E+00
  0.00000000E+00  0.00000000E+00  0.00000000E+00
  0.00000000E+00  0.00000000E+00  0.00000000E+00
  0.00000000E+00  0.00000000E+00  0.00000000E+00
  0.00000000E+00  0.00000000E+00  0.00000000E+00
  0.00000000E+00  0.00000000E+00  0.00000000E+00
  0.00000000E+00  0.00000000E+00  0.00000000E+00
  0.00000000E+00  0.00000000E+00  0.00000000E+00
  0.00000000E+00  0.00000000E+00  0.00000000E+00
  0.00000000E+00  0.00000000E+00  0.00000000E+00
  0.00000000E+00  0.00000000E+00  0.00000000E+00
  0.00000000E+00  0.00000000E+00  0.00000000E+00
  0.00000000E+00  0.00000000E+00  0.00000000E+00
  0.00000000E+00  0.00000000E+00  0.00000000E+00
  0.00000000E+00  0.00000000E+00  0.00000000E+00
  0.00000000E+00  0.00000000E+00  0.00000000E+00
  0.00000000E+00  0.00000000E+00  0.00000000E+00
